 vasp.6.3.0 20Jan22 (build Apr  1 2022 16:44:48) complex
 executed on        HPECrayEX_GCC date 2022.11.03  12:19:53

 INCAR:
   SYSTEM = MgO-rocksalt
   ISMEAR = 0
   SIGMA = 0.05
   EDIFF = 1E-7
   ALGO = ALL
   ISTART = 0
   IBRION = 2
   NSW = 1000
   ISYM = 0
   ISIF = 2
   EDIFFG = -0.01
   DIPOL = 0.5 0.5 0.5
   IDIPOL = 3
   LDIPOL = .TRUE.
   GGA = RE
   IVDW = 13
   VDW_S8 = 1.7468
   VDW_A1 = 0.5363
   VDW_A2 = 3.0726
   ENCUT = 600
   PREC = Accurate
   LASPH = .TRUE.
   LREAL = .FALSE.
   ISPIN = 1
   NELM = 200
   NELMIN = 8
   NCORE = 8
   KPAR = 1
   LWAVE = .FALSE.
   LCHARG = .FALSE.

 POTCAR:    PAW_PBE C 08Apr2002
 POTCAR:    PAW_PBE H 15Jun2001
 POTCAR:    PAW_PBE Mg_pv 13Apr2007
 POTCAR:    PAW_PBE O 08Apr2002
 POTCAR:    PAW_PBE C 08Apr2002
   VRHFIN =C: s2p2

   TITEL  = PAW_PBE C 08Apr2002
   POMASS =   12.011; ZVAL   =    4.000    mass and valenz
   ENMAX  =  400.000; ENMIN  =  300.000 eV

   TITEL  = PAW_PBE H 15Jun2001
   POMASS =    1.000; ZVAL   =    1.000    mass and valenz
   ENMAX  =  250.000; ENMIN  =  200.000 eV

   TITEL  = PAW_PBE Mg_pv 13Apr2007
   POMASS =   24.305; ZVAL   =    8.000    mass and valenz
   ENMAX  =  403.929; ENMIN  =  302.947 eV

   TITEL  = PAW_PBE O 08Apr2002
   POMASS =   16.000; ZVAL   =    6.000    mass and valenz
   ENMAX  =  400.000; ENMIN  =  300.000 eV

  PAW_PBE C 08Apr2002                   :
  PAW_PBE H 15Jun2001                   :
  PAW_PBE Mg_pv 13Apr2007               :
  PAW_PBE O 08Apr2002                   :

 POSCAR:  C  H Mg  O
  positions in direct lattice
|           W    W    AA    RRRRR   N    N  II  N    N   GGGG   !!!           |
|           W    W   A  A   R    R  NN   N  II  NN   N  G    G  !!!           |
|           W    W  A    A  R    R  N N  N  II  N N  N  G       !!!           |
|           W WW W  AAAAAA  RRRRR   N  N N  II  N  N N  G  GGG   !            |
|           WW  WW  A    A  R   R   N   NN  II  N   NN  G    G                |
|           W    W  A    A  R    R  N    N  II  N    N   GGGG   !!!           |
|     Specifying the vdW parameters                                           |
|     VDW_S8 = 1.747                                                          |
|     VDW_A1 = 0.536                                                          |
|     VDW_A2 = 3.073                                                          |
|     in the INCAR file will overwrite the defaults for revpbe. Please        |
|     make sure that is what you intended.                                    |

 ion  position               nearest neighbor table
   1  0.445  0.498  0.793-  11 1.10   9 1.10  10 1.10   2 1.53
   2  0.280  0.452  0.817-  12 1.10  14 1.10  13 1.10   1 1.53
   3  0.445  0.998  0.793-  17 1.10  15 1.10  16 1.10   4 1.53
   4  0.280  0.952  0.817-  18 1.10  20 1.10  19 1.10   3 1.53
   5  0.790  0.748  0.793-  23 1.10  21 1.10  22 1.10   6 1.53
   6  0.956  0.705  0.817-  24 1.10  26 1.10  25 1.10   5 1.53
   7  0.790  0.248  0.793-  29 1.10  27 1.10  28 1.10   8 1.53
   8  0.956  0.205  0.817-  30 1.10  32 1.10  31 1.10   7 1.53
   9  0.440  0.605  0.764-   1 1.10
  10  0.498  0.401  0.765-   1 1.10
  11  0.528  0.522  0.832-   1 1.10
  12  0.200  0.427  0.778-   2 1.10
  13  0.228  0.547  0.846-   2 1.10
  14  0.286  0.345  0.847-   2 1.10
  15  0.440  0.105  0.764-   3 1.10
  16  0.498  0.901  0.765-   3 1.10
  17  0.528  0.022  0.832-   3 1.10
  18  0.200  0.927  0.778-   4 1.10
  19  0.228  0.047  0.846-   4 1.10
  20  0.286  0.845  0.847-   4 1.10
  21  0.741  0.652  0.764-   5 1.10
  22  0.793  0.857  0.765-   5 1.10
  23  0.706  0.767  0.832-   5 1.10
  24  0.037  0.686  0.778-   6 1.10
  25  0.953  0.596  0.846-   6 1.10
  26  0.005  0.800  0.847-   6 1.10
  27  0.741  0.152  0.764-   7 1.10
  28  0.793  0.357  0.765-   7 1.10
  29  0.706  0.267  0.832-   7 1.10
  30  0.037  0.186  0.778-   8 1.10
  31  0.953  0.096  0.846-   8 1.10
  32  0.005  0.300  0.847-   8 1.10
  33  0.000  0.750  0.352-  65 2.11  67 2.11  68 2.11  75 2.11  84 2.11
  34  0.250  0.000  0.352-  66 2.11  67 2.11  68 2.11  76 2.11  83 2.11
  35  0.000  0.000  0.451-  67 2.11  66 2.11  65 2.11  73 2.11  82 2.11  71 2.12
  36  0.250  0.750  0.451-  68 2.11  66 2.11  65 2.11  74 2.11  81 2.11  72 2.12
  37  1.000  0.750  0.550-  88 2.11  72 2.11  79 2.11  71 2.11  65 2.12  69 2.15
  38  0.250  1.000  0.550-  72 2.11  80 2.11  87 2.11  71 2.11  66 2.12  70 2.15
  39  1.000  1.000  0.649-  70 2.11  86 2.11  71 2.11  69 2.11  77 2.11
  40  0.250  0.750  0.649-  72 2.11  78 2.11  69 2.11  70 2.11  85 2.11
  41  0.000  0.250  0.352-  73 2.11  67 2.11  75 2.11  76 2.11  92 2.11
  42  0.250  0.500  0.352-  74 2.11  68 2.11  75 2.11  76 2.11  91 2.11
  43  0.000  0.500  0.451-  75 2.11  73 2.11  74 2.11  65 2.11  90 2.11  79 2.12
  44  0.250  0.250  0.451-  76 2.11  73 2.11  74 2.11  66 2.11  89 2.11  80 2.12
  45  1.000  0.250  0.550-  96 2.11  80 2.11  79 2.11  71 2.11  73 2.12  77 2.15
  46  0.250  0.500  0.550-  95 2.11  80 2.11  72 2.11  79 2.11  74 2.13  78 2.15
  47  0.000  0.500  0.649-  78 2.11  79 2.11  94 2.11  69 2.11  77 2.11
  48  0.250  0.250  0.649-  80 2.11  77 2.11  78 2.11  70 2.11  93 2.11
  49  0.500  0.750  0.352-  81 2.11  68 2.11  83 2.11  84 2.11  91 2.11
  50  0.750  0.000  0.352-  82 2.11  67 2.11  83 2.11  84 2.11  92 2.11
  51  0.500  0.000  0.451-  83 2.11  81 2.11  82 2.11  66 2.11  89 2.11  87 2.12
  52  0.750  0.750  0.451-  84 2.11  81 2.11  82 2.11  65 2.11  90 2.11  88 2.12
  53  0.500  0.750  0.550-  95 2.11  88 2.11  72 2.11  87 2.11  81 2.13  85 2.15
  54  0.750  1.000  0.550-  88 2.11  96 2.11  71 2.11  87 2.11  82 2.13  86 2.15
  55  0.500  1.000  0.649-  93 2.11  85 2.11  87 2.11  70 2.11  86 2.11
  56  0.750  0.750  0.649-  88 2.11  69 2.11  86 2.11  94 2.11  85 2.11
  57  0.500  0.250  0.352-  89 2.11  83 2.11  76 2.11  91 2.11  92 2.11
  58  0.750  0.500  0.352-  90 2.11  84 2.11  75 2.11  91 2.11  92 2.11
  59  0.500  0.500  0.451-  91 2.11  81 2.11  89 2.11  90 2.11  74 2.11  95 2.12
  60  0.750  0.250  0.451-  92 2.11  82 2.11  89 2.11  90 2.11  73 2.11  96 2.12
[...]
  82  0.750  0.000  0.451-  50 2.11  35 2.11  51 2.11  52 2.11  60 2.11  54 2.13
  83  0.500  0.000  0.352-  51 2.11  49 2.11  50 2.11  34 2.11  57 2.11
  84  0.750  0.750  0.352-  52 2.11  49 2.11  50 2.11  33 2.11  58 2.11
  85  0.500  0.750  0.651-  55 2.11  56 2.11  40 2.11  63 2.11  53 2.15
  86  0.750  1.000  0.651-  64 2.11  39 2.11  56 2.11  55 2.11  54 2.15
  87  0.500  1.000  0.550-  55 2.11  54 2.11  38 2.11  53 2.11  61 2.11  51 2.12
  88  0.750  0.750  0.550-  56 2.11  54 2.11  37 2.11  53 2.11  62 2.11  52 2.12
  89  0.500  0.250  0.451-  57 2.11  51 2.11  44 2.11  59 2.11  60 2.11  61 2.13
  90  0.750  0.500  0.451-  58 2.11  52 2.11  43 2.11  59 2.11  60 2.11  62 2.13
  91  0.500  0.500  0.352-  59 2.11  49 2.11  57 2.11  58 2.11  42 2.11
  92  0.750  0.250  0.352-  60 2.11  50 2.11  57 2.11  58 2.11  41 2.11
  93  0.500  0.250  0.651-  55 2.11  64 2.11  48 2.11  63 2.11  61 2.15
  94  0.750  0.500  0.651-  47 2.11  56 2.11  64 2.11  63 2.11  62 2.15
  95  0.500  0.500  0.550-  62 2.11  53 2.11  61 2.11  46 2.11  63 2.12  59 2.12
  96  0.750  0.250  0.550-  64 2.11  54 2.11  45 2.11  61 2.11  62 2.11  60 2.12

IMPORTANT INFORMATION: All symmetrisations will be switched off!
NOSYMM: (Re-)initialisation of all symmetry stuff for point group C_1.

                                     Primitive cell

  volume of cell :    1519.8199

  direct lattice vectors                    reciprocal lattice vectors
     8.440984654  0.000000000  0.000000000     0.118469591  0.000000000  0.000000000
     0.000000000  8.440984654  0.000000000     0.000000000  0.118469591  0.000000000
     0.000000000  0.000000000 21.330738491     0.000000000  0.000000000  0.046880702

  length of vectors
     8.440984654  8.440984654 21.330738491     0.118469591  0.118469591  0.046880702

  position of ions in fractional coordinates (direct lattice)
     0.445200081  0.497571925  0.793182562
     0.280499178  0.451610182  0.817254959
     0.445200081  0.997571925  0.793182562
     0.280499178  0.951610182  0.817254959
     0.789975754  0.747571925  0.793182562
     0.955591791  0.705025510  0.817254959
     0.789975754  0.247571925  0.793182562
     0.955591791  0.205025510  0.817254959
     0.439665190  0.605147160  0.763981212
     0.497534296  0.401295620  0.765085782
     0.528166960  0.522465060  0.831710663
     0.200308036  0.427366620  0.777764631
     0.227960268  0.547032026  0.845561462
     0.285519688  0.344883781  0.846776833
     0.439665190  0.105147160  0.763981212
     0.497534296  0.901295620  0.765085782
     0.528166960  0.022465060  0.831710663
     0.200308036  0.927366620  0.777764631
     0.227960268  0.047032026  0.845561462
     0.285519688  0.844883781  0.846776833
     0.740981492  0.651641593  0.763981212
     0.792791146  0.857116758  0.765085782
     0.705677762  0.767497277  0.831710663
     0.037161138  0.685925480  0.777764631
     0.953380900  0.596118314  0.845561462
     0.004607103  0.799963540  0.846776833
     0.740981492  0.151641593  0.763981212
     0.792791146  0.357116758  0.765085782
     0.705677762  0.267497277  0.831710663
     0.037161138  0.185925480  0.777764631
     0.953380900  0.096118314  0.845561462
     0.004607103  0.299963540  0.846776833
     0.000000000  0.750000000  0.351605267
     0.250000000  0.000000000  0.351605267
     0.000000000  0.000000000  0.450535089
     0.250000000  0.750000000  0.450535089
     0.999969335  0.749932564  0.550143009
     0.249979009  0.999932854  0.550153760
     0.999984729  0.999879620  0.648880782
     0.249865610  0.749814499  0.648764798
     0.000000000  0.250000000  0.351605267
     0.250000000  0.500000000  0.351605267
     0.000000000  0.500000000  0.450535089
     0.250000000  0.250000000  0.450535089
     0.999969716  0.249949331  0.550140365
     0.250119639  0.499932684  0.550205747
     0.000137590  0.499892464  0.648694835
     0.249861482  0.249941717  0.648759231
     0.500000000  0.750000000  0.351605267
     0.750000000  0.000000000  0.351605267
     0.500000000  0.000000000  0.450535089
     0.750000000  0.750000000  0.450535089
     0.499983604  0.749784240  0.550199518
     0.749978902  0.999929979  0.550160720
     0.499953859  0.999865553  0.648719052
     0.750035499  0.749892856  0.648802828
     0.500000000  0.250000000  0.351605267
     0.750000000  0.500000000  0.351605267
     0.500000000  0.500000000  0.450535089
     0.750000000  0.250000000  0.450535089
[...]
     0.750000000  0.000000000  0.450535089
     0.500000000  0.000000000  0.351605267
     0.750000000  0.750000000  0.351605267
     0.499982066  0.750187993  0.650991390
     0.749999064  0.999877994  0.651061537
     0.499988807  0.999916028  0.549866891
     0.749997384  0.749999493  0.549915913
     0.500000000  0.250000000  0.450535089
     0.750000000  0.500000000  0.450535089
     0.500000000  0.500000000  0.351605267
     0.750000000  0.250000000  0.351605267
     0.499989412  0.249524492  0.650964072
     0.750199653  0.499878761  0.650908380
     0.500007765  0.499929862  0.550045517
     0.750007621  0.249862313  0.549912158

[...]
[...]
   6.33073849  0.00000000  9.61024616
   4.22049233  0.00000000  7.50000000
   6.33073849  6.33073849  7.50000000
   4.22034095  6.33232534 13.88612710
   6.33073059  8.43995481 13.88762338
   4.22039784  8.44027584 11.72906685
   6.33071641  6.33073421 11.73011252
   4.22049233  2.11024616  9.61024616
   6.33073849  4.22049233  9.61024616
   4.22049233  4.22049233  7.50000000
   6.33073849  2.11024616  7.50000000
   4.22040296  2.10623240 13.88554438
   6.33242376  4.21946895 13.88435643
   4.22055787  4.21990030 11.73287708
   6.33080282  2.10908395 11.73003243

--------------------------------------- Iteration      FINAL  ---------------------------------------

--------------------OUTCAR has been truncated-------------------------

[...]

--------------------OUTCAR has been truncated-------------------------

  FORCE on cell =-STRESS in cart. coord.  units (eV):
  Direction    XX          YY          ZZ          XY          YZ          ZX
  Alpha Z  1058.53846  1058.53846  1058.53846
  Ewald  144251.45431144072.29280************    -0.00779   -45.09632     0.82284
  Hartree155201.86554155086.21330************     0.06928   -29.87846     0.64517
  E(xc)   -2661.47816 -2661.70731 -2669.06583    -0.00405    -0.09129     0.00162
  Local  ************************308977.29245    -0.08711    78.10034    -1.57108
  n-local -2893.13245 -2896.02766 -2917.22415     0.00515    -0.59309     0.01046
  augment  1046.84279  1046.69609  1037.24886     0.00033    -0.02161     0.00085
  Kinetic  8059.30847  8047.43424  8085.12148     0.00164    -2.92283     0.15728
  Fock        0.00000     0.00000     0.00000     0.00000     0.00000     0.00000
  vdW       -25.05585   -25.00912   -20.57335    -0.00100     0.00719    -0.00211
  Total     -25.20559   -26.08895    -2.41456    -0.02354    -0.49607     0.06503
  in kB     -26.57146   -27.50269    -2.54540    -0.02481    -0.52295     0.06855

 VOLUME and BASIS-vectors are now :
  energy-cutoff  :      600.00
  volume of cell :     1519.82
      direct lattice vectors                 reciprocal lattice vectors
     8.440984654  0.000000000  0.000000000     0.118469591  0.000000000  0.000000000
     0.000000000  8.440984654  0.000000000     0.000000000  0.118469591  0.000000000
     0.000000000  0.000000000 21.330738491     0.000000000  0.000000000  0.046880702

  length of vectors
     8.440984654  8.440984654 21.330738491     0.118469591  0.118469591  0.046880702

 FORCES acting on ions:
    Electron-Ion                     Ewald-Force                    Non-Local-Force
   -.365E+02 -.196E+02 -.891E+03   0.364E+02 0.197E+02 0.892E+03   0.672E-01 -.165E+00 -.814E-01
   0.407E+02 0.194E+02 -.870E+03   -.410E+02 -.195E+02 0.870E+03   0.298E+00 0.753E-01 0.137E+00
   -.365E+02 -.196E+02 -.891E+03   0.364E+02 0.197E+02 0.892E+03   0.673E-01 -.166E+00 -.799E-01
   0.407E+02 0.194E+02 -.870E+03   -.410E+02 -.195E+02 0.870E+03   0.297E+00 0.751E-01 0.136E+00
   0.363E+02 -.195E+02 -.892E+03   -.362E+02 0.197E+02 0.892E+03   -.567E-01 -.155E+00 -.926E-01
   -.405E+02 0.194E+02 -.870E+03   0.408E+02 -.195E+02 0.870E+03   -.300E+00 0.789E-01 0.140E+00
   0.363E+02 -.195E+02 -.892E+03   -.362E+02 0.197E+02 0.892E+03   -.565E-01 -.154E+00 -.927E-01
   -.405E+02 0.194E+02 -.870E+03   0.408E+02 -.195E+02 0.870E+03   -.300E+00 0.788E-01 0.140E+00
   0.604E+01 -.395E+02 -.214E+03   -.689E+01 0.442E+02 0.211E+03   0.848E+00 -.471E+01 0.275E+01
   -.230E+02 0.271E+02 -.213E+03   0.256E+02 -.306E+02 0.210E+03   -.267E+01 0.356E+01 0.319E+01
   -.310E+02 -.110E+02 -.243E+03   0.345E+02 0.122E+02 0.248E+03   -.345E+01 -.120E+01 -.411E+01
   0.322E+02 0.964E+01 -.197E+03   -.356E+02 -.106E+02 0.193E+03   0.346E+01 0.947E+00 0.419E+01
   0.235E+02 -.260E+02 -.228E+03   -.262E+02 0.293E+02 0.231E+03   0.264E+01 -.334E+01 -.348E+01
   -.482E+01 0.401E+02 -.226E+03   0.567E+01 -.449E+02 0.228E+03   -.853E+00 0.476E+01 -.261E+01
   0.604E+01 -.395E+02 -.214E+03   -.690E+01 0.442E+02 0.211E+03   0.848E+00 -.471E+01 0.275E+01
   -.230E+02 0.271E+02 -.213E+03   0.256E+02 -.306E+02 0.210E+03   -.267E+01 0.356E+01 0.319E+01
   -.310E+02 -.110E+02 -.243E+03   0.345E+02 0.122E+02 0.248E+03   -.345E+01 -.120E+01 -.411E+01
   0.322E+02 0.964E+01 -.197E+03   -.356E+02 -.106E+02 0.193E+03   0.346E+01 0.947E+00 0.419E+01
   0.235E+02 -.260E+02 -.228E+03   -.262E+02 0.293E+02 0.231E+03   0.264E+01 -.334E+01 -.348E+01
   -.482E+01 0.401E+02 -.226E+03   0.568E+01 -.449E+02 0.228E+03   -.853E+00 0.476E+01 -.261E+01
   0.229E+02 0.273E+02 -.213E+03   -.255E+02 -.308E+02 0.210E+03   0.265E+01 0.357E+01 0.319E+01
   -.635E+01 -.394E+02 -.214E+03   0.724E+01 0.441E+02 0.211E+03   -.882E+00 -.470E+01 0.275E+01
   0.313E+02 -.112E+02 -.243E+03   -.348E+02 0.124E+02 0.248E+03   0.349E+01 -.122E+01 -.407E+01
   -.325E+02 0.966E+01 -.197E+03   0.360E+02 -.106E+02 0.193E+03   -.351E+01 0.951E+00 0.415E+01
   0.510E+01 0.401E+02 -.225E+03   -.599E+01 -.449E+02 0.228E+03   0.885E+00 0.476E+01 -.261E+01
   -.233E+02 -.260E+02 -.227E+03   0.258E+02 0.294E+02 0.231E+03   -.260E+01 -.334E+01 -.351E+01
   0.229E+02 0.273E+02 -.213E+03   -.255E+02 -.308E+02 0.210E+03   0.265E+01 0.357E+01 0.319E+01
   -.635E+01 -.394E+02 -.214E+03   0.724E+01 0.441E+02 0.211E+03   -.882E+00 -.470E+01 0.275E+01
   0.313E+02 -.112E+02 -.243E+03   -.348E+02 0.124E+02 0.248E+03   0.349E+01 -.122E+01 -.407E+01
   -.325E+02 0.966E+01 -.197E+03   0.360E+02 -.106E+02 0.193E+03   -.351E+01 0.951E+00 0.415E+01
   0.510E+01 0.401E+02 -.225E+03   -.599E+01 -.449E+02 0.228E+03   0.885E+00 0.476E+01 -.261E+01
   -.233E+02 -.260E+02 -.227E+03   0.258E+02 0.294E+02 0.231E+03   -.260E+01 -.334E+01 -.351E+01
   0.596E-01 -.229E-02 0.212E+04   -.617E-01 0.283E-02 -.211E+04   0.158E-02 -.408E-03 -.716E+01
   -.483E-01 0.144E-03 0.212E+04   0.502E-01 0.269E-03 -.211E+04   -.140E-02 -.331E-03 -.716E+01
   0.166E+00 0.180E-01 0.846E+03   -.187E+00 -.107E-01 -.847E+03   0.149E-01 -.486E-02 0.503E+00
   -.111E+00 0.671E-02 0.847E+03   0.129E+00 0.176E-02 -.847E+03   -.125E-01 -.572E-02 0.502E+00
   -.924E+00 -.735E-01 -.414E+03   0.871E+00 0.774E-01 0.414E+03   0.519E-01 -.838E-03 -.224E+00
   0.107E+01 -.153E-01 -.413E+03   -.103E+01 0.177E-01 0.414E+03   -.477E-01 -.140E-02 -.248E+00
   -.740E+01 0.979E+00 -.167E+04   0.753E+01 -.997E+00 0.167E+04   -.120E+00 0.201E-01 0.633E+01
   0.784E+01 0.997E+00 -.167E+04   -.796E+01 -.101E+01 0.166E+04   0.107E+00 0.215E-01 0.633E+01
   0.595E-01 0.331E-02 0.212E+04   -.616E-01 -.301E-02 -.211E+04   0.158E-02 -.262E-03 -.716E+01
   -.467E-01 0.824E-03 0.212E+04   0.485E-01 -.412E-03 -.211E+04   -.137E-02 -.330E-03 -.715E+01
   0.160E+00 0.202E-01 0.846E+03   -.181E+00 -.130E-01 -.847E+03   0.149E-01 -.482E-02 0.508E+00
   -.111E+00 0.319E-01 0.847E+03   0.129E+00 -.261E-01 -.847E+03   -.125E-01 -.384E-02 0.502E+00
   -.924E+00 0.535E-01 -.414E+03   0.872E+00 -.529E-01 0.414E+03   0.518E-01 -.179E-02 -.224E+00
   0.108E+01 -.102E-01 -.413E+03   -.103E+01 0.127E-01 0.414E+03   -.508E-01 -.145E-02 -.244E+00
   -.735E+01 0.985E+00 -.167E+04   0.747E+01 -.100E+01 0.167E+04   -.119E+00 0.198E-01 0.633E+01
   0.784E+01 0.118E+01 -.167E+04   -.796E+01 -.120E+01 0.166E+04   0.107E+00 0.201E-01 0.633E+01
   -.598E-01 -.356E-02 0.212E+04   0.622E-01 0.425E-02 -.211E+04   -.173E-02 -.531E-03 -.716E+01
   0.484E-01 0.535E-03 0.212E+04   -.506E-01 -.199E-04 -.211E+04   0.166E-02 -.410E-03 -.716E+01
   -.189E+00 0.146E-01 0.846E+03   0.205E+00 -.579E-02 -.846E+03   -.114E-01 -.578E-02 0.563E+00
   0.128E+00 -.274E-02 0.846E+03   -.143E+00 0.127E-01 -.846E+03   0.105E-01 -.662E-02 0.566E+00
   0.644E+00 -.539E-01 -.413E+03   -.593E+00 0.566E-01 0.413E+03   -.495E-01 -.589E-03 -.270E+00
   -.795E+00 0.142E-02 -.413E+03   0.748E+00 0.138E-02 0.413E+03   0.458E-01 -.224E-02 -.275E+00
   0.184E+01 -.654E+00 -.165E+04   -.190E+01 0.678E+00 0.165E+04   0.583E-01 -.224E-01 0.610E+01
   -.238E+01 -.723E+00 -.165E+04   0.244E+01 0.745E+00 0.165E+04   -.511E-01 -.197E-01 0.609E+01
   -.598E-01 0.521E-02 0.212E+04   0.621E-01 -.486E-02 -.211E+04   -.173E-02 -.287E-03 -.716E+01
   0.468E-01 0.110E-02 0.212E+04   -.490E-01 -.584E-03 -.211E+04   0.161E-02 -.408E-03 -.716E+01
   -.183E+00 0.174E-01 0.846E+03   0.199E+00 -.868E-02 -.847E+03   -.114E-01 -.575E-02 0.563E+00
   0.129E+00 0.350E-01 0.846E+03   -.143E+00 -.274E-01 -.846E+03   0.105E-01 -.491E-02 0.566E+00
[...]
   -.452E-01 -.757E-03 0.159E+04   0.477E-01 0.411E-03 -.159E+04   -.362E-02 0.507E-03 0.341E+01
   0.360E-01 -.333E-02 0.159E+04   -.383E-01 0.319E-02 -.159E+04   0.320E-02 0.227E-03 0.341E+01
   0.399E+01 0.297E+00 -.126E+04   -.389E+01 -.264E+00 0.127E+04   -.107E+00 -.321E-01 -.489E+01
   -.417E+01 0.367E+00 -.126E+04   0.408E+01 -.338E+00 0.127E+04   0.968E-01 -.275E-01 -.488E+01
   0.464E+00 -.150E-02 -.305E+03   -.468E+00 0.155E-02 0.305E+03   0.272E-02 0.612E-03 0.181E+00
   -.570E+00 -.271E-01 -.305E+03   0.572E+00 0.291E-01 0.305E+03   -.968E-03 -.171E-02 0.173E+00
   -.116E+00 0.400E-01 0.634E+03   0.106E+00 -.520E-01 -.634E+03   0.134E-01 0.157E-01 -.126E+00
   0.624E-01 0.210E-01 0.634E+03   -.518E-01 -.321E-01 -.634E+03   -.143E-01 0.147E-01 -.126E+00
   -.447E-01 -.278E-03 0.159E+04   0.473E-01 -.707E-04 -.159E+04   -.363E-02 0.510E-03 0.341E+01
   0.360E-01 0.231E-02 0.159E+04   -.383E-01 -.286E-02 -.159E+04   0.321E-02 0.788E-03 0.341E+01
   0.399E+01 0.378E+00 -.126E+04   -.389E+01 -.352E+00 0.127E+04   -.106E+00 -.240E-01 -.489E+01
   -.418E+01 0.371E+00 -.126E+04   0.409E+01 -.343E+00 0.127E+04   0.953E-01 -.274E-01 -.488E+01
   0.462E+00 0.170E-02 -.305E+03   -.465E+00 -.162E-02 0.305E+03   0.357E-03 0.560E-03 0.176E+00
   -.570E+00 0.244E-01 -.305E+03   0.572E+00 -.267E-01 0.305E+03   -.100E-02 0.349E-02 0.173E+00
   0.116E-02 0.250E+00 0.164E+02   -.995E-13 0.199E-12 -.250E-11   -.830E-03 -.247E+00 -.164E+02

 POSITION                                       TOTAL-FORCE (eV/Angst)
      3.80087      4.20324     16.96417         0.000355     -0.001101     -0.000317
      2.49535      3.58897     17.46405         0.002686     -0.002482     -0.002375
      3.80089     -0.01723     16.96422         0.000383     -0.001725     -0.001193
      2.49533      7.80946     17.46403         0.003079     -0.001752     -0.001639
      6.68564      6.31369     16.95714         0.001563      0.000088     -0.000083
      7.98535      5.69985     17.47230        -0.002000     -0.003431     -0.002548
      6.68564      2.09319     16.95715         0.001581      0.000162     -0.000153
      7.98536      1.47936     17.47231        -0.002075     -0.003474     -0.002608
      3.62577      5.13659     16.41099        -0.006287     -0.002870      0.002140
      4.33091      3.50158     16.30253         0.000632     -0.004095      0.002657
      4.48420      4.43820     17.79101         0.001765     -0.001359     -0.002884
      1.81060      3.39322     16.62813         0.001001     -0.005422      0.001282
      1.97554      4.25973     18.16137         0.003151     -0.000288     -0.003376
      2.67332      2.63895     17.98560         0.001443     -0.004129     -0.003685
      3.62569      0.91621     16.41124        -0.005604     -0.003930      0.000188
      4.33086      7.72189     16.30273         0.000396     -0.001994      0.001177
      4.48447      0.21786     17.79083        -0.000002     -0.002410     -0.001391
      1.81046      7.61356     16.62825         0.002299     -0.004372     -0.000006
      1.97550      0.03941     18.16117         0.003282     -0.001996     -0.002182
      2.67340      6.85936     17.98537         0.000904     -0.003612     -0.001616
      6.16035      5.60949     16.29448        -0.000634     -0.002084     -0.000200
      6.86769      7.24465     16.40168         0.005638     -0.004077      0.001381
      5.99459      6.55429     17.77575         0.000380     -0.003827     -0.000779
      0.23828      5.50319     16.64431        -0.001946     -0.004637      0.000732
      7.80111      4.75033     17.99269         0.000012     -0.002583     -0.002766
      0.05647      6.37144     18.17457        -0.001603     -0.000136     -0.003350
      6.16040      1.38899     16.29445        -0.000816     -0.002035      0.000176
      6.86768      3.02413     16.40165         0.005808     -0.003940      0.001472
      5.99461      2.33383     17.77576         0.000167     -0.003982     -0.000926
      0.23821      1.28272     16.64425        -0.001593     -0.004715      0.001024
      7.80112      0.52984     17.99270        -0.000033     -0.002723     -0.002946
      0.05649      2.15090     18.17461        -0.001636      0.000035     -0.003686
      0.00000      6.33074      7.50000        -0.000538      0.000107      0.335108
      2.11025      0.00000      7.50000         0.000476      0.000067      0.335123
      0.00000      0.00000      9.61025        -0.006282      0.002326      0.077038
      2.11025      6.33074      9.61025         0.005308      0.002664      0.076173
      8.43959      6.33215     11.73368        -0.001285      0.002905     -0.001376
      2.11137      0.00153     11.73346         0.000063      0.000927     -0.000401
      0.00084      0.00283     13.83172        -0.001356      0.001556     -0.003308
      2.10913      6.33336     13.83137         0.001005      0.004234     -0.002354
      0.00000      2.11025      7.50000        -0.000538      0.000025      0.335107
      2.11025      4.22049      7.50000         0.000473      0.000067      0.334927
      0.00000      4.22049      9.61025        -0.006243      0.002315      0.076264
      2.11025      2.11025      9.61025         0.005313      0.001894      0.076223
      8.43959      2.11194     11.73369        -0.001266     -0.001222     -0.001365
      2.11147      4.22203     11.73339        -0.000077      0.000877     -0.000890
      0.00093      4.22334     13.83162        -0.003480      0.001434     -0.001600
      2.10913      2.11321     13.83138         0.001051     -0.000973     -0.002297
      4.22049      6.33074      7.50000         0.000566      0.000115      0.336406
      6.33074      0.00000      7.50000        -0.000541      0.000064      0.336590
      4.22049      0.00000      9.61025         0.004290      0.002897      0.087762
      6.33074      6.33074      9.61025        -0.004043      0.003266      0.087903
      4.22217      6.33248     11.73794         0.001901      0.001999     -0.003893
      6.32889      0.00188     11.73812        -0.001192      0.000579     -0.004630
      4.21785      0.00459     13.84922        -0.000302      0.001586      0.000273
      6.33271      6.33526     13.85025        -0.001132      0.001970     -0.000465
      4.22049      2.11025      7.50000         0.000567      0.000022      0.336405
      6.33074      4.22049      7.50000        -0.000535      0.000064      0.336417
      4.22049      4.22049      9.61025         0.004316      0.002882      0.086609
      6.33074      2.11025      9.61025        -0.004048      0.002503      0.087913
[...]
      6.33074      0.00000      9.61025        -0.003978      0.003621      0.087651
      4.22049      0.00000      7.50000        -0.001054      0.000128     -0.498303
      6.33074      6.33074      7.50000         0.000925      0.000050     -0.498298
      4.21772      6.33417     13.88620        -0.000730      0.000831      0.002732
      6.33278      0.00348     13.88612         0.000144      0.001457      0.003169
      4.22045      0.00179     11.73262        -0.001582      0.000592      0.001199
      6.33069      6.33252     11.73278         0.001304      0.000171      0.002514
      4.22049      2.11025      9.61025         0.003501      0.003787      0.087779
      6.33074      4.22049      9.61025        -0.003632      0.003583      0.087740
      4.22049      4.22049      7.50000        -0.001055      0.000130     -0.498182
      6.33074      2.11025      7.50000         0.000925      0.000207     -0.498298
      4.21771      2.11373     13.88623        -0.000653      0.002024      0.002568
      6.33276      4.22399     13.88622         0.000079      0.001376      0.002643
      4.22049      4.22228     11.73246        -0.002432      0.000578      0.003466
      6.33069      2.11204     11.73279         0.001314      0.001121      0.002425
    total drift:                                0.000333      0.003052      0.002541

  FREE ENERGIE OF THE ION-ELECTRON SYSTEM (eV)
  free  energy   TOTEN  =      -534.87567787 eV

  energy  without entropy=     -534.87567787  energy(sigma->0) =     -534.87567787

 d Force = 0.2347096E-04[ 0.149E-04, 0.321E-04]  d Energy = 0.2313559E-04 0.335E-06
 d Force = 0.1603808E+00[ 0.160E+00, 0.160E+00]  d Ewald  = 0.1603808E+00 0.445E-09

 reached required accuracy - stopping structural energy minimisation