 vasp.6.4.2 20Jul23 (build Feb 22 2024 13:53:45) complex
 executed on              LinuxNV date 2024.08.27  20:28:58
 OpenACC runtime initialized ...    4 GPUs detected

 INCAR:
   SYSTEM = Oxide-Surface
   ISMEAR = 0
   SIGMA = 0.05
   EDIFF = 1E-5
   ALGO = Normal
   IBRION = -1
   NSW = 0
   ISYM = 0
   DIPOL = 0.5 0.5 0.5
   IDIPOL = 3
   LDIPOL = .TRUE.
   ISTART = 1
   GGA = MK
   LUSE_VDW = .TRUE.
   PARAM1 = 0.1234
   PARAM2 = 0.711357
   ZAB_VDW = -1.8867
   AGGAC = 0.0
   ENCUT = 1000
   PREC = Normal
   PRECFOCK = Normal
   LASPH = .TRUE.
   LREAL = Auto
   ISPIN = 1
   NELM = 200
   NELMIN = 8
   NCORE = 1
   KPAR = 1
   LWAVE = .FALSE.
   LCHARG = .FALSE.

 POTCAR:    PAW_PBE N_h 06Feb2004
 POTCAR:    PAW_PBE H_h 06Feb2004
 POTCAR:    PAW_PBE Mg_sv 12Apr2007
 POTCAR:    PAW_PBE O_h 06Feb2004
|               ----> ADVICE to this user running VASP <----                  |
|     You have switched on vdW-DFT.                                           |
|     This routine was written and supplied by Jiri Klimes. We recommend      |
|     that you carefully read and cite the following publications:            |
|       J. Klimes, D.R. Bowler, A. Michelides                                 |
|          J. Phys.: Cond Matt. 22 022201 (2010)                              |
|       J. Klimes, D.R. Bowler, A. Michelides                                 |
|          Phys. Rev. B. 83, 195131 (2011)                                    |
|     and references therein.                                                 |

   TITEL  = PAW_PBE N_h 06Feb2004
   POMASS =   14.001; ZVAL   =    5.000    mass and valenz
   ENMAX  =  700.000; ENMIN  =  500.000 eV

[...]

   TITEL  = PAW_PBE Mg_sv 12Apr2007
   POMASS =   24.305; ZVAL   =   10.000    mass and valenz
   ENMAX  =  495.223; ENMIN  =  371.417 eV

   TITEL  = PAW_PBE O_h 06Feb2004
   POMASS =   16.000; ZVAL   =    6.000    mass and valenz
   ENMAX  =  700.000; ENMIN  =  500.000 eV

 Optimization of the real space projectors (new method)

 maximal supplied QI-value         = 34.20
 optimisation between [QCUT,QGAM] = [ 16.08, 32.15] = [ 72.37,289.48] Ry
 Optimized for a Real-space Cutoff    0.71 Angstroem

   l    n(q)    QCUT    max X(q) W(low)/X(q) W(high)/X(q)  e(spline)
   0      7    16.076   148.539    0.44E-03    0.75E-03    0.58E-07
   0      7    16.076   106.192    0.44E-03    0.75E-03    0.58E-07
   1      6    16.076    73.877    0.23E-03    0.61E-03    0.11E-06
   1      6    16.076    50.042    0.22E-03    0.60E-03    0.11E-06
 Optimization of the real space projectors (new method)

[...]

   l    n(q)    QCUT    max X(q) W(low)/X(q) W(high)/X(q)  e(spline)
   0      9    16.140     8.730    0.14E-04    0.12E-04    0.27E-07
   0      9    16.140     8.910    0.19E-04    0.17E-04    0.41E-07
   1      9    16.140     2.513    0.16E-04    0.28E-04    0.54E-07
   1      9    16.140     3.341    0.27E-04    0.13E-03    0.17E-06
   2      9    16.140     3.683    0.18E-03    0.21E-03    0.81E-07
 Optimization of the real space projectors (new method)

 maximal supplied QI-value         = 34.20
 optimisation between [QCUT,QGAM] = [ 16.08, 32.15] = [ 72.37,289.48] Ry
 Optimized for a Real-space Cutoff    0.71 Angstroem

   l    n(q)    QCUT    max X(q) W(low)/X(q) W(high)/X(q)  e(spline)
   0      7    16.076   280.207    0.42E-03    0.69E-03    0.60E-07
   0      7    16.076   228.978    0.42E-03    0.69E-03    0.61E-07
   1      6    16.076    86.127    0.11E-03    0.66E-03    0.10E-06
   1      6    16.076    65.368    0.11E-03    0.65E-03    0.10E-06
|               ----> ADVICE to this user running VASP <----                  |
|     You enforced a specific xc type in the INCAR file but a different       |
|     type was found in the POTCAR file.                                      |
|     I HOPE YOU KNOW WHAT YOU ARE DOING!                                     |

  PAW_PBE N_h 06Feb2004                 :
  PAW_PBE H_h 06Feb2004                 :
  PAW_PBE Mg_sv 12Apr2007               :
  PAW_PBE O_h 06Feb2004                 :

 POSCAR:  N  H Mg  O
  positions in direct lattice
 exchange correlation table for  LEXCH =       43
   RHO(1)=    0.500       N(1)  =     2000
   RHO(2)=  100.500       N(2)  =     4000

 ion  position               nearest neighbor table
   1  0.500  0.516  0.743-   4 1.02   3 1.02   2 1.02
   2  0.500  0.635  0.753-   1 1.02
   3  0.402  0.469  0.770-   1 1.02
   4  0.598  0.469  0.770-   1 1.02
   5  0.000  0.750  0.230-
   6  0.250  0.000  0.230-
   7  0.000  0.000  0.354-
   8  0.250  0.750  0.354-
   9  0.000  0.750  0.479-
  10  0.250  1.000  0.479-
  11  0.000  1.000  0.603-
  12  0.250  0.750  0.602-
  13  0.000  0.250  0.230-
  14  0.250  0.500  0.230-
  15  0.000  0.500  0.354-
  16  0.250  0.250  0.354-
  17  1.000  0.250  0.479-
  18  0.251  0.500  0.480-
  19  0.000  0.500  0.602-
  20  0.250  0.250  0.602-
  21  0.500  0.750  0.230-
  22  0.750  0.000  0.230-
  23  0.500  0.000  0.354-
  24  0.750  0.750  0.354-
  25  0.500  0.749  0.480-
  26  0.750  1.000  0.479-
  27  0.500  0.000  0.602-
  28  0.750  0.750  0.602-
  29  0.500  0.250  0.230-
  30  0.750  0.500  0.230-
  31  0.500  0.500  0.354-
  32  0.750  0.250  0.354-
  33  0.500  0.251  0.480-
  34  0.749  0.500  0.480-
  35  0.500  0.499  0.611-
  36  0.750  0.250  0.602-
  37  0.000  0.750  0.354-
  38  0.250  0.000  0.354-
  39  0.000  0.000  0.230-
  40  0.250  0.750  0.230-
  41  1.000  0.750  0.606-
  42  0.249  1.000  0.606-
  43  1.000  1.000  0.479-
  44  0.250  0.750  0.479-
  45  0.000  0.250  0.354-
  46  0.250  0.500  0.354-
  47  0.000  0.500  0.230-
  48  0.250  0.250  0.230-
  49  0.000  0.249  0.606-
  50  0.247  0.500  0.606-
  51  0.000  0.500  0.479-
  52  0.250  0.250  0.479-
  53  0.500  0.750  0.354-
  54  0.750  0.000  0.354-
  55  0.500  0.000  0.230-
  56  0.750  0.750  0.230-
  57  0.500  0.753  0.606-
  58  0.751  1.000  0.606-
  59  0.500  1.000  0.479-
  60  0.750  0.750  0.479-
  61  0.500  0.250  0.354-
  62  0.750  0.500  0.354-
  63  0.500  0.500  0.230-
  64  0.750  0.250  0.230-
  65  0.500  0.247  0.606-
  66  0.753  0.500  0.606-
  67  0.500  0.500  0.480-
  68  0.750  0.250  0.479-

IMPORTANT INFORMATION: All symmetrisations will be switched off!
NOSYMM: (Re-)initialisation of all symmetry stuff for point group C_1.

                                     Primitive cell

  volume of cell :    1211.2538

  direct lattice vectors                    reciprocal lattice vectors
     8.440984654  0.000000000  0.000000000     0.118469591  0.000000000  0.000000000
     0.000000000  8.440984654  0.000000000     0.000000000  0.118469591  0.000000000
     0.000000000  0.000000000 17.000000000     0.000000000  0.000000000  0.058823529

  length of vectors
     8.440984654  8.440984654 17.000000000     0.118469591  0.118469591  0.058823529

  position of ions in fractional coordinates (direct lattice)
     0.500000238  0.515521052  0.743122297
     0.499999982  0.635072459  0.752584339
     0.402069062  0.469398098  0.769809164
     0.597931074  0.469398359  0.769809375
     0.000000001  0.750005063  0.230190625
     0.250000001  0.000005063  0.230190625
     0.000000001  0.000005063  0.354322752
     0.250000001  0.750005063  0.354322752
     0.000000003  0.749688989  0.478992539
     0.250263523  0.999994937  0.479012029
     0.000000001  0.999958952  0.602562889
     0.249680170  0.750040946  0.602146405
     0.000000001  0.250005063  0.230190625
     0.250000001  0.500005063  0.230190625
     0.000000001  0.500005063  0.354322752
     0.250000001  0.250005063  0.354322752
     0.999999996  0.250234310  0.479017192
     0.251264403  0.499912485  0.479817993
     0.000000018  0.499894003  0.602327959
     0.249874846  0.249737023  0.602282337
     0.500000001  0.750005063  0.230190625
     0.750000001  0.000005063  0.230190625
     0.500000001  0.000005063  0.354322752
     0.750000001  0.750005063  0.354322752
     0.499999997  0.748694190  0.479856547
     0.749736478  0.999994937  0.479012045
     0.499999996  0.000235948  0.602315670
     0.750319839  0.750040932  0.602146398
     0.500000001  0.250005063  0.230190625
     0.750000001  0.500005063  0.230190625
     0.500000001  0.500005063  0.354322752
     0.750000001  0.250005063  0.354322752
     0.500000000  0.251193808  0.479761393
     0.748735611  0.499912479  0.479818037
     0.500000034  0.498643644  0.610784368
     0.750125162  0.249737020  0.602282348
     0.000000001  0.750005063  0.354322752
     0.250000001  0.000005063  0.354322752
     0.000000001  0.000005063  0.230190625
     0.250000001  0.750005063  0.230190625
     0.999999999  0.750491851  0.605981896
     0.249403678  0.999911150  0.606023354
     0.999999998  0.999937384  0.478809541
     0.249933155  0.750101855  0.478982330
     0.000000001  0.250005063  0.354322752
     0.250000001  0.500005063  0.354322752
     0.000000001  0.500005063  0.230190625
     0.250000001  0.250005063  0.230190625
     0.000000003  0.249368438  0.606057731
     0.247373171  0.499932707  0.606018755
     0.000000006  0.499983562  0.478713219
     0.249818530  0.249806475  0.478943030
     0.500000001  0.750005063  0.354322752
     0.750000001  0.000005063  0.354322752
     0.500000001  0.000005063  0.230190625
     0.750000001  0.750005063  0.230190625
     0.499999997  0.752922771  0.606464953
     0.750596323  0.999911142  0.606023376
     0.500000001  0.999876204  0.478718645
     0.750066840  0.750101852  0.478982337
     0.500000001  0.250005063  0.354322752
     0.750000001  0.500005063  0.354322752
     0.500000001  0.500005063  0.230190625
     0.750000001  0.250005063  0.230190625
     0.500000003  0.247335548  0.605753670
     0.752626877  0.499932691  0.606018757
     0.500000006  0.500046709  0.480056781
     0.750181474  0.249806464  0.478943037

  ion indices of the primitive-cell ions
   primitive index   ion index
                 1           1
                 2           2
                 3           3
                 4           4
                 5           5
                 6           6
                 7           7
                 8           8
                 9           9
                10          10
                11          11
                12          12
                13          13
                14          14
                15          15
                16          16
                17          17
                18          18
                19          19
                20          20
                21          21
                22          22
                23          23
                24          24
                25          25
                26          26
                27          27
                28          28
                29          29
                30          30
                31          31
                32          32
                33          33
                34          34
                35          35
                36          36
                37          37
                38          38
                39          39
                40          40
                41          41
[...]

[...]

--------------------OUTCAR has been truncated-------------------------

  FORCE on cell =-STRESS in cart. coord.  units (eV):
  Direction    XX          YY          ZZ          XY          YZ          ZX
  Alpha Z  1219.66076  1219.66076  1219.66076
  Ewald  109099.14479109096.85408************    -0.00005    -6.96863     0.00027
  Hartree125903.61503125903.94735************    -0.00000     1.46884     0.00011
  E(xc)   -3248.95837 -3248.97952 -3250.49472    -0.00000    -0.08029     0.00000
  Local  ************************244368.01453     0.00003     1.47480    -0.00029
  n-local -5644.83079 -5645.03601 -5647.11637     0.00000    -0.63484     0.00002
  augment   726.35515   726.36741   717.52898    -0.00000     0.02023     0.00000
  Kinetic 12629.05551 12630.61517 12663.67743    -0.00000     4.76173    -0.00011
  Fock        0.00000     0.00000     0.00000     0.00000     0.00000     0.00000
  Total     -24.23852   -24.19805     0.36429    -0.00002     0.04184     0.00000
  in kB     -32.06132   -32.00780     0.48186    -0.00002     0.05534     0.00000

 VOLUME and BASIS-vectors are now :
  energy-cutoff  :     1000.00
  volume of cell :     1211.25
      direct lattice vectors                 reciprocal lattice vectors
     8.440984654  0.000000000  0.000000000     0.118469591  0.000000000  0.000000000
     0.000000000  8.440984654  0.000000000     0.000000000  0.118469591  0.000000000
     0.000000000  0.000000000 17.000000000     0.000000000  0.000000000  0.058823529

  length of vectors
     8.440984654  8.440984654 17.000000000     0.118469591  0.118469591  0.058823529

 FORCES acting on ions
    electron-ion (+dipol)            ewald-force                    non-local-force                 convergence-correction
   -.538E-04 0.690E+01 -.111E+04   0.992E-04 -.121E+02 0.108E+04   -.127E-03 0.521E+01 0.270E+02   0.836E-05 0.747E-04 -.248E-01
   0.140E-03 -.703E+02 -.223E+03   -.154E-03 0.776E+02 0.224E+03   0.157E-04 -.719E+01 -.884E+00   0.106E-05 -.732E-03 -.557E-02
   0.581E+02 0.279E+02 -.221E+03   -.641E+02 -.307E+02 0.224E+03   0.595E+01 0.283E+01 -.302E+01   0.761E-03 0.393E-03 -.573E-02
   -.581E+02 0.279E+02 -.221E+03   0.641E+02 -.307E+02 0.224E+03   -.595E+01 0.283E+01 -.302E+01   -.759E-03 0.393E-03 -.573E-02
   0.212E-04 -.280E+00 0.245E+04   -.867E-05 0.277E+00 -.244E+04   0.836E-06 0.234E-02 -.882E+01   -.130E-04 -.422E-03 0.338E-01
   0.281E+00 -.338E-01 0.245E+04   -.277E+00 0.330E-01 -.244E+04   -.296E-02 0.828E-03 -.883E+01   0.339E-03 -.192E-03 0.337E-01
   0.354E-04 -.466E-01 0.832E+03   -.292E-04 0.532E-01 -.832E+03   0.335E-05 -.521E-02 0.653E+00   -.899E-05 -.915E-04 0.950E-02
   -.644E+00 0.621E+00 0.831E+03   0.723E+00 -.689E+00 -.832E+03   -.607E-01 0.510E-01 0.722E+00   0.722E-04 -.529E-04 0.914E-02
   0.715E-05 -.331E+01 -.776E+03   -.119E-04 0.319E+01 0.776E+03   -.460E-05 0.115E+00 0.397E-01   0.540E-05 0.198E-03 0.313E-02
   0.334E+01 -.220E+00 -.777E+03   -.322E+01 0.239E+00 0.777E+03   -.112E+00 -.186E-01 0.451E-01   -.186E-03 -.234E-04 0.306E-02
   0.284E-05 -.114E+01 -.239E+04   0.346E-04 0.115E+01 0.238E+04   0.469E-05 -.111E-01 0.737E+01   -.397E-04 -.122E-03 -.138E-01
   0.260E+02 -.251E+02 -.235E+04   -.262E+02 0.252E+02 0.235E+04   0.163E+00 -.759E-01 0.755E+01   -.202E-02 0.154E-02 -.112E-01
   0.192E-04 0.279E+00 0.245E+04   -.814E-05 -.277E+00 -.244E+04   0.109E-05 -.209E-02 -.883E+01   -.120E-04 0.425E-03 0.338E-01
   0.352E+00 0.335E-01 0.244E+04   -.342E+00 -.329E-01 -.244E+04   -.824E-02 -.500E-03 -.888E+01   0.392E-03 0.175E-03 0.334E-01
   0.807E-04 0.405E-01 0.832E+03   -.604E-04 -.510E-01 -.832E+03   0.705E-05 0.809E-02 0.511E+00   -.251E-04 0.921E-04 0.919E-02
   -.556E+00 -.625E+00 0.831E+03   0.609E+00 0.688E+00 -.832E+03   -.395E-01 -.475E-01 0.695E+00   0.116E-03 0.810E-04 0.925E-02
   -.532E-05 0.330E+01 -.777E+03   0.163E-04 -.319E+01 0.777E+03   0.496E-05 -.116E+00 0.607E-01   -.155E-04 -.180E-03 0.314E-02
   0.230E+01 0.196E+00 -.773E+03   -.186E+01 -.212E+00 0.774E+03   -.440E+00 0.184E-01 -.520E+00   -.256E-03 0.118E-04 0.116E-02
   -.235E-04 0.129E+01 -.237E+04   0.129E-03 -.131E+01 0.236E+04   0.221E-04 0.173E-01 0.734E+01   -.119E-03 0.115E-03 -.113E-01
   0.239E+02 0.245E+02 -.236E+04   -.240E+02 -.246E+02 0.235E+04   0.657E-01 0.900E-01 0.754E+01   -.118E-02 -.150E-02 -.117E-01
   -.186E-04 -.351E+00 0.244E+04   0.871E-05 0.342E+00 -.244E+04   -.137E-05 0.764E-02 -.888E+01   0.109E-04 -.481E-03 0.334E-01
   -.281E+00 -.338E-01 0.245E+04   0.277E+00 0.330E-01 -.244E+04   0.296E-02 0.830E-03 -.883E+01   -.339E-03 -.194E-03 0.338E-01
   -.344E-04 0.611E-01 0.832E+03   0.317E-04 -.790E-01 -.832E+03   -.147E-05 0.139E-01 0.515E+00   0.514E-05 -.503E-04 0.933E-02
   0.644E+00 0.621E+00 0.831E+03   -.723E+00 -.689E+00 -.832E+03   0.607E-01 0.510E-01 0.722E+00   -.663E-04 -.699E-04 0.911E-02
   0.580E-05 -.200E+01 -.775E+03   0.186E-05 0.157E+01 0.775E+03   0.151E-05 0.436E+00 -.333E+00   -.609E-05 0.246E-03 0.670E-03
   -.334E+01 -.220E+00 -.777E+03   0.322E+01 0.239E+00 0.777E+03   0.112E+00 -.186E-01 0.451E-01   0.187E-03 0.100E-05 0.310E-02
   -.199E-04 -.294E+01 -.237E+04   -.112E-04 0.298E+01 0.236E+04   -.955E-05 -.403E-01 0.733E+01   0.405E-04 0.695E-03 -.113E-01
   -.260E+02 -.251E+02 -.235E+04   0.262E+02 0.252E+02 0.235E+04   -.163E+00 -.759E-01 0.755E+01   0.203E-02 0.146E-02 -.112E-01
   -.245E-04 0.350E+00 0.245E+04   0.838E-05 -.342E+00 -.244E+04   -.209E-05 -.734E-02 -.887E+01   0.168E-04 0.478E-03 0.334E-01
   -.352E+00 0.335E-01 0.244E+04   0.342E+00 -.329E-01 -.244E+04   0.824E-02 -.502E-03 -.888E+01   -.390E-03 0.173E-03 0.335E-01
   -.827E-04 -.635E-01 0.828E+03   0.646E-04 0.769E-01 -.829E+03   -.605E-05 -.109E-01 0.807E+00   0.227E-04 0.341E-04 0.891E-02
   0.556E+00 -.625E+00 0.831E+03   -.609E+00 0.688E+00 -.832E+03   0.395E-01 -.475E-01 0.695E+00   -.128E-03 0.986E-04 0.923E-02
   -.292E-04 0.233E+01 -.772E+03   0.134E-04 -.190E+01 0.773E+03   -.123E-05 -.428E+00 -.600E+00   0.170E-04 -.240E-03 0.147E-02
   -.230E+01 0.196E+00 -.773E+03   0.186E+01 -.212E+00 0.774E+03   0.440E+00 0.184E-01 -.520E+00   0.256E-03 -.107E-04 0.125E-02
   0.879E-04 0.676E+01 -.226E+04   -.193E-03 -.716E+01 0.226E+04   -.343E-04 0.406E+00 0.101E+01   0.128E-03 -.999E-03 -.204E-01
   -.239E+02 0.245E+02 -.236E+04   0.240E+02 -.246E+02 0.235E+04   -.657E-01 0.900E-01 0.754E+01   0.118E-02 -.142E-02 -.117E-01
   0.285E-04 0.165E-01 0.499E+03   -.217E-04 -.439E-01 -.499E+03   -.322E-05 0.365E-01 0.310E-01   -.518E-05 -.727E-04 0.746E-02
   -.162E-01 0.186E-01 0.499E+03   0.463E-01 -.135E-01 -.499E+03   -.400E-01 -.681E-02 0.173E-01   0.640E-04 -.467E-04 0.748E-02
   0.140E-05 -.210E-01 0.148E+04   -.422E-05 0.220E-01 -.149E+04   0.303E-05 -.119E-02 0.274E+01   -.234E-05 -.477E-04 0.207E-01
   0.186E+00 -.185E+00 0.148E+04   -.174E+00 0.176E+00 -.148E+04   -.148E-01 0.119E-01 0.271E+01   0.173E-03 -.181E-03 0.204E-01
   -.505E-04 -.734E+01 -.147E+04   0.431E-04 0.720E+01 0.147E+04   0.227E-04 0.152E+00 -.469E+01   -.842E-05 -.211E-03 -.726E-02
   0.737E+01 -.117E+01 -.147E+04   -.721E+01 0.115E+01 0.147E+04   -.165E+00 0.182E-01 -.469E+01   0.209E-03 -.663E-04 -.733E-02
   0.378E-05 -.234E+00 -.463E+03   -.545E-06 0.239E+00 0.462E+03   -.407E-07 -.753E-02 0.346E+00   -.443E-05 -.301E-04 0.347E-02
   0.160E+01 -.163E+01 -.456E+03   -.158E+01 0.160E+01 0.455E+03   -.132E-01 0.253E-01 0.565E+00   -.280E-03 0.219E-03 0.296E-02
   0.149E-04 -.277E-01 0.499E+03   -.165E-04 0.604E-01 -.499E+03   -.393E-05 -.434E-01 0.886E-02   0.325E-05 0.607E-04 0.749E-02
   -.740E-01 -.322E-01 0.497E+03   0.149E-01 0.338E-01 -.496E+03   0.730E-01 -.171E-02 -.113E+00   0.779E-05 0.336E-04 0.724E-02
   -.991E-06 0.213E-01 0.148E+04   -.650E-05 -.220E-01 -.148E+04   0.762E-05 0.857E-03 0.272E+01   -.218E-05 0.506E-04 0.205E-01
   0.187E+00 0.185E+00 0.148E+04   -.178E+00 -.176E+00 -.148E+04   -.110E-01 -.123E-01 0.271E+01   0.170E-03 0.176E-03 0.204E-01
   -.627E-04 0.725E+01 -.147E+04   0.422E-04 -.710E+01 0.147E+04   0.194E-04 -.153E+00 -.468E+01   -.760E-05 0.219E-03 -.746E-02
   0.248E+02 0.161E+01 -.143E+04   -.241E+02 -.161E+01 0.143E+04   -.739E+00 -.591E-02 -.462E+01   -.129E-02 0.156E-04 -.726E-02
   -.285E-05 0.235E+00 -.455E+03   0.633E-05 -.239E+00 0.455E+03   0.499E-05 0.458E-02 0.413E+00   -.965E-05 0.186E-04 0.303E-02
   0.174E+01 0.165E+01 -.456E+03   -.171E+01 -.162E+01 0.456E+03   -.299E-01 -.237E-01 0.505E+00   -.188E-03 -.206E-03 0.306E-02
   -.214E-04 0.783E-01 0.496E+03   0.218E-04 -.165E-01 -.496E+03   0.243E-05 -.764E-01 -.122E+00   -.209E-06 -.159E-04 0.722E-02
   0.162E-01 0.186E-01 0.499E+03   -.463E-01 -.135E-01 -.499E+03   0.400E-01 -.682E-02 0.173E-01   -.603E-04 -.457E-04 0.748E-02
   -.208E-05 -.198E-01 0.148E+04   0.428E-05 0.178E-01 -.148E+04   -.468E-05 0.256E-02 0.272E+01   0.143E-05 -.424E-04 0.205E-01
   -.186E+00 -.185E+00 0.148E+04   0.174E+00 0.176E+00 -.148E+04   0.148E-01 0.119E-01 0.271E+01   -.171E-03 -.179E-03 0.204E-01
   0.289E-04 -.248E+02 -.142E+04   -.268E-04 0.239E+02 0.143E+04   -.121E-04 0.888E+00 -.450E+01   0.988E-05 0.139E-02 -.734E-02
   -.737E+01 -.117E+01 -.147E+04   0.721E+01 0.115E+01 0.147E+04   0.165E+00 0.182E-01 -.469E+01   -.208E-03 -.641E-04 -.732E-02
   -.145E-04 -.118E-01 -.455E+03   0.123E-04 0.158E-01 0.455E+03   -.236E-05 -.100E-01 0.420E+00   0.365E-05 0.708E-04 0.298E-02
   -.160E+01 -.163E+01 -.456E+03   0.158E+01 0.160E+01 0.455E+03   0.132E-01 0.253E-01 0.565E+00   0.283E-03 0.213E-03 0.297E-02
   -.222E-04 -.939E-01 0.497E+03   0.208E-04 0.383E-01 -.497E+03   -.386E-05 0.686E-01 -.986E-01   0.219E-05 0.269E-04 0.726E-02
   0.740E-01 -.323E-01 0.497E+03   -.149E-01 0.338E-01 -.496E+03   -.730E-01 -.170E-02 -.113E+00   -.811E-05 0.349E-04 0.723E-02
   -.449E-05 0.203E-01 0.148E+04   0.662E-05 -.181E-01 -.148E+04   -.254E-05 -.298E-02 0.268E+01   0.107E-05 0.475E-04 0.201E-01
   -.187E+00 0.185E+00 0.148E+04   0.178E+00 -.176E+00 -.148E+04   0.110E-01 -.123E-01 0.271E+01   -.173E-03 0.178E-03 0.204E-01
   0.515E-04 0.245E+02 -.143E+04   -.464E-04 -.238E+02 0.144E+04   -.226E-04 -.628E+00 -.467E+01   0.125E-04 -.118E-02 -.723E-02
   -.248E+02 0.161E+01 -.143E+04   0.241E+02 -.161E+01 0.143E+04   0.739E+00 -.591E-02 -.462E+01   0.128E-02 0.149E-04 -.721E-02
   0.254E-05 -.191E+00 -.473E+03   -.190E-05 0.184E+00 0.474E+03   -.127E-04 0.979E-02 -.108E+01   0.859E-05 -.839E-04 0.216E-02
   -.174E+01 0.165E+01 -.456E+03   0.171E+01 -.162E+01 0.456E+03   0.299E-01 -.237E-01 0.505E+00   0.185E-03 -.203E-03 0.308E-02
   0.111E-03 -.433E+01 0.727E+01   0.384E-12 -.444E-12 -.398E-11   -.175E-03 0.435E+01 -.753E+01   0.800E-05 0.734E-05 0.403E+00

 POSITION                                       TOTAL-FORCE (eV/Angst)
      4.22049      4.35151     12.63308        -0.000073     -0.006427     -0.072427
      4.22049      5.36064     12.79393         0.000003      0.108209      0.007115
      3.39386      3.96218     13.08676        -0.091756     -0.043724      0.036261
      5.04713      3.96218     13.08676         0.091810     -0.043747      0.036285
      0.00000      6.33078      3.91324         0.000001     -0.001126      0.298444
      2.11025      0.00004      3.91324         0.000974     -0.000525      0.299253
      0.00000      0.00004      6.02349         0.000001      0.000974      0.019801
      2.11025      6.33078      6.02349         0.018878     -0.016954      0.029398
      0.00000      6.32811      8.14287        -0.000003      0.000863      0.025740
      2.11247      8.44094      8.14320        -0.001399     -0.000298      0.024980
      0.00000      8.44064     10.24357         0.000003      0.003435      0.048164
      2.10755      6.33108     10.23649        -0.007122      0.006257      0.026243
      0.00000      2.11029      3.91324         0.000001      0.000384      0.300336
      2.11025      4.22054      3.91324         0.001992     -0.000189      0.308422
      0.00000      4.22054      6.02349         0.000003     -0.002766      0.056144
      2.11025      2.11029      6.02349         0.013222      0.014884      0.029455
      8.44098      2.11222      8.14329         0.000001     -0.002207      0.024564
      2.12092      4.21975      8.15691        -0.004282      0.001797      0.029961
      0.00000      4.21960     10.23958         0.000010      0.001868      0.035913
      2.10919      2.10803     10.23880        -0.003404     -0.004897      0.027892
      4.22049      6.33078      3.91324         0.000000     -0.002152      0.308614
      6.33074      0.00004      3.91324        -0.000972     -0.000526      0.299255
      4.22049      0.00004      6.02349         0.000002     -0.004414      0.055821
      6.33074      6.33078      6.02349        -0.018875     -0.016952      0.029404
      4.22049      6.31972      8.15756         0.000004      0.005535      0.028149
      6.32851      8.44094      8.14320         0.001400     -0.000300      0.024973
      4.22049      0.00199     10.23937         0.000001     -0.000995      0.034196
      6.33344      6.33108     10.23649         0.007122      0.006266      0.026249
      4.22049      2.11029      3.91324        -0.000001      0.001400      0.307437
      6.33074      4.22054      3.91324        -0.001991     -0.000188      0.308421
      4.22049      4.22054      6.02349        -0.000001      0.002235      0.077102
      6.33074      2.11029      6.02349        -0.013220      0.014882      0.029458
      4.22049      2.12032      8.15594         0.000001     -0.005280      0.031333
      6.32007      4.21975      8.15691         0.004284      0.001794      0.029945
      4.22049      4.20904     10.38333        -0.000010      0.008192      0.101077
      6.33179      2.10803     10.23880         0.003410     -0.004904      0.027897
      0.00000      6.33078      6.02349        -0.000001      0.008726      0.069349
      2.11025      0.00004      6.02349        -0.009855     -0.002129      0.067196
      0.00000      0.00004      3.91324        -0.000001     -0.000695     -0.402708
      2.11025      6.33078      3.91324        -0.003445      0.002322     -0.415193
      8.44098      6.33489     10.30169         0.000008      0.003507     -0.087998
      2.10521      8.44023     10.30240        -0.003760      0.000551     -0.088428
      8.44098      8.44046      8.13976        -0.000000     -0.003430      0.016242
      2.10968      6.33160      8.14270         0.000951     -0.000682      0.012734
      0.00000      2.11029      6.02349        -0.000001     -0.010993      0.065433
      2.11025      4.22054      6.02349         0.013890     -0.000532      0.087304
      0.00000      4.22054      3.91324        -0.000001     -0.000232     -0.408686
      2.11025      2.11029      3.91324        -0.002542     -0.003299     -0.415606
      0.00000      2.10492     10.30298        -0.000008     -0.005046     -0.086106
      2.08807      4.21992     10.30232        -0.014642     -0.000824     -0.088712
      0.00000      4.22035      8.13812        -0.000000     -0.000034      0.007245
      2.10871      2.10861      8.14203         0.002139      0.002205      0.012592
      4.22049      6.33078      6.02349         0.000003     -0.015034      0.087257
      6.33074      0.00004      6.02349         0.009852     -0.002131      0.067196
      4.22049      0.00004      3.91324        -0.000000      0.000165     -0.408222
      6.33074      6.33078      3.91324         0.003445      0.002321     -0.415196
      4.22049      6.35541     10.30990         0.000001      0.012830     -0.092204
      6.33577      8.44023     10.30240         0.003757      0.000552     -0.088429
      4.22049      8.43994      8.13822        -0.000000     -0.006344      0.010078
      6.33130      6.33160      8.14270        -0.000947     -0.000679      0.012741
      4.22049      2.11029      6.02349        -0.000002      0.012604      0.087448
      6.33074      4.22054      6.02349        -0.013890     -0.000529      0.087307
      4.22049      4.22054      3.91324         0.000001     -0.001128     -0.416226
      6.33074      2.11029      3.91324         0.002544     -0.003298     -0.415610
      4.22049      2.08776     10.29781        -0.000004     -0.012732     -0.089005
      6.35291      4.21992     10.30232         0.014645     -0.000828     -0.088706
      4.22049      4.22089      8.16097        -0.000003      0.002209     -0.006946
      6.33227      2.10861      8.14203        -0.002148      0.002205      0.012582
    total drift:                               -0.000055      0.025817      0.146546

  FREE ENERGIE OF THE ION-ELECTRON SYSTEM (eV)
  free  energy   TOTEN  =      -273.21317089 eV

  energy  without entropy=     -273.21317089  energy(sigma->0) =     -273.21317089