 vasp.6.3.0 20Jan22 (build Apr  1 2022 16:44:48) complex
 executed on        HPECrayEX_GCC date 2022.11.13  17:41:58

 INCAR:
   SYSTEM = MgO-rocksalt
   ISMEAR = 0
   SIGMA = 0.05
   EDIFF = 1E-6
   ALGO = ALL
   ISTART = 0
   IBRION = -1
   NSW = 0
   ISYM = 0
   DIPOL = 0.5 0.5 0.5
   IDIPOL = 3
   LDIPOL = .TRUE.
   LHFCALC = .TRUE.
   GGA = B5
   AEXX = 0.2
   AGGAX = 0.72
   AGGAC = 0.81
   ALDAC = 0.19
   IVDW = 1
   VDW_S6 = 1.05
   VDW_C6 = 0.63 0.70
   VDW_R0 = 1.243 1.342
   ENCUT = 600
   PREC = Accurate
   LASPH = .TRUE.
   LREAL = .FALSE.
   ISPIN = 2
   MAGMOM = 0.0 0.0 0.0 0.0 0.0 0.0 0.0 0.0 0.0 0.0 0.0 0.0 0.0 0.0 0.0 0.0 0.0 0.0 0.0 0.0 0.0 0.0 0.0 0.0 0.0 0.0 0.0 0.0 0.0 0.0 0.0 0.0 0.0 0.0 0.0 0.0 0.0 0.0 0.0 0.0 0.0 0.0 0.0 0.0 0.0 0.0 0.0 0.0 0.0 0.0 0.0 0.0 0.0 0.0 0.0 0.0 0.0 0.0 0.0 0.0 0.0 0.0 0.0 0.0
   NELM = 200
   NELMIN = 8
   NCORE = 8
   KPAR = 1
   LWAVE = .FALSE.
   LCHARG = .FALSE.

 POTCAR:    PAW_PBE Mg_pv 13Apr2007
 POTCAR:    PAW_PBE O 08Apr2002
 POTCAR:    PAW_PBE Mg_pv 13Apr2007
   VRHFIN =Mg: p6s2

   TITEL  = PAW_PBE Mg_pv 13Apr2007
   POMASS =   24.305; ZVAL   =    8.000    mass and valenz
   ENMAX  =  403.929; ENMIN  =  302.947 eV

   TITEL  = PAW_PBE O 08Apr2002
   POMASS =   16.000; ZVAL   =    6.000    mass and valenz
   ENMAX  =  400.000; ENMIN  =  300.000 eV

  PAW_PBE Mg_pv 13Apr2007               :
  PAW_PBE O 08Apr2002                   :

 POSCAR: Mg  O
  positions in direct lattice
 exchange correlation table for  LEXCH =       12
   RHO(1)=    0.500       N(1)  =     2000
   RHO(2)=  100.500       N(2)  =     4000

 ion  position               nearest neighbor table
   1  0.000  0.750  0.350-  33 2.14  35 2.14  36 2.14  43 2.14  52 2.14
   2  0.250  0.000  0.350-  34 2.14  35 2.14  36 2.14  44 2.14  51 2.14
   3  0.000  0.000  0.450-  35 2.14  34 2.14  33 2.14  41 2.14  50 2.14  39 2.14
   4  0.250  0.750  0.450-  36 2.14  34 2.14  33 2.14  42 2.14  49 2.14  40 2.14
   5  1.000  0.750  0.550-  56 2.14  47 2.14  39 2.14  40 2.14  33 2.14  37 2.16
   6  0.250  0.000  0.550-  55 2.14  48 2.14  40 2.14  39 2.14  34 2.14  38 2.16
   7  1.000  1.000  0.649-  39 2.13  45 2.13  37 2.14  54 2.14  38 2.14
   8  0.249  0.750  0.649-  40 2.12  37 2.13  38 2.13  46 2.14  53 2.14
   9  0.000  0.250  0.350-  41 2.14  35 2.14  43 2.14  44 2.14  60 2.14
  10  0.250  0.500  0.350-  42 2.14  36 2.14  43 2.14  44 2.14  59 2.14
  11  0.000  0.500  0.450-  43 2.14  41 2.14  42 2.14  33 2.14  58 2.14  47 2.14
  12  0.250  0.250  0.450-  44 2.14  41 2.14  42 2.14  34 2.14  57 2.14  48 2.14
  13  1.000  0.250  0.550-  47 2.14  64 2.14  48 2.14  39 2.14  41 2.14  45 2.16
  14  0.250  0.500  0.550-  63 2.13  48 2.14  40 2.14  47 2.14  42 2.15  46 2.16
  15  1.000  0.500  0.649-  47 2.13  46 2.13  62 2.13  45 2.14  37 2.14
  16  0.250  0.250  0.649-  48 2.13  45 2.13  38 2.13  46 2.14  61 2.14
  17  0.500  0.750  0.350-  49 2.14  36 2.14  51 2.14  52 2.14  59 2.14
  18  0.750  0.000  0.350-  50 2.14  35 2.14  51 2.14  52 2.14  60 2.14
  19  0.500  0.000  0.450-  51 2.14  49 2.14  50 2.14  34 2.14  57 2.14  55 2.14
  20  0.750  0.750  0.450-  52 2.14  49 2.14  50 2.14  33 2.14  58 2.14  56 2.14
  21  0.500  0.750  0.550-  63 2.13  56 2.14  40 2.14  55 2.14  49 2.15  53 2.16
  22  0.750  1.000  0.550-  55 2.14  56 2.14  64 2.14  39 2.14  50 2.14  54 2.16
  23  0.500  0.000  0.649-  55 2.13  61 2.13  53 2.13  38 2.14  54 2.14
  24  0.750  0.750  0.649-  56 2.13  37 2.13  54 2.13  62 2.14  53 2.14
  25  0.500  0.250  0.350-  57 2.14  51 2.14  44 2.14  59 2.14  60 2.14
  26  0.750  0.500  0.350-  58 2.14  52 2.14  43 2.14  59 2.14  60 2.14
  27  0.500  0.500  0.450-  59 2.14  49 2.14  57 2.14  58 2.14  42 2.14  63 2.15
  28  0.750  0.250  0.450-  60 2.14  50 2.14  57 2.14  58 2.14  41 2.14  64 2.14
  29  0.500  0.250  0.550-  63 2.13  48 2.14  64 2.14  55 2.14  57 2.15  61 2.16
  30  0.749  0.500  0.550-  63 2.13  56 2.14  64 2.14  47 2.14  58 2.15  62 2.16
  31  0.500  0.500  0.651-  61 2.14  53 2.14  62 2.14  46 2.14  63 2.16
  32  0.750  0.250  0.649-  64 2.12  54 2.13  45 2.13  62 2.14  61 2.14
  33  0.000  0.750  0.450-   1 2.14   3 2.14   4 2.14  11 2.14  20 2.14   5 2.14
  34  0.250  0.000  0.450-   2 2.14   3 2.14   4 2.14  12 2.14  19 2.14   6 2.14
  35  0.000  0.000  0.350-   3 2.14   2 2.14   1 2.14   9 2.14  18 2.14
  36  0.250  0.750  0.350-   4 2.14   2 2.14   1 2.14  10 2.14  17 2.14
  37  1.000  0.750  0.651-   8 2.13  24 2.13   7 2.14  15 2.14   5 2.16
  38  0.250  1.000  0.651-   8 2.13  16 2.13   7 2.14  23 2.14   6 2.16
  39  1.000  1.000  0.550-   7 2.13   5 2.14  13 2.14  22 2.14   6 2.14   3 2.14
  40  0.250  0.750  0.550-   8 2.12   6 2.14  21 2.14  14 2.14   5 2.14   4 2.14
  41  0.000  0.250  0.450-   9 2.14   3 2.14  11 2.14  12 2.14  28 2.14  13 2.14
  42  0.250  0.500  0.450-  10 2.14   4 2.14  11 2.14  12 2.14  27 2.14  14 2.15
  43  0.000  0.500  0.350-  11 2.14   9 2.14  10 2.14   1 2.14  26 2.14
  44  0.250  0.250  0.350-  12 2.14   9 2.14  10 2.14   2 2.14  25 2.14
  45  1.000  0.250  0.651-  32 2.13  16 2.13   7 2.13  15 2.14  13 2.16
  46  0.249  0.500  0.651-  15 2.13   8 2.14  16 2.14  31 2.14  14 2.16
  47  1.000  0.500  0.550-  15 2.13   5 2.14  13 2.14  11 2.14  30 2.14  14 2.14
  48  0.250  0.250  0.550-  16 2.13   6 2.14  29 2.14  13 2.14  14 2.14  12 2.14
  49  0.500  0.750  0.450-  17 2.14   4 2.14  19 2.14  20 2.14  27 2.14  21 2.15
  50  0.750  0.000  0.450-  18 2.14   3 2.14  19 2.14  20 2.14  28 2.14  22 2.14
  51  0.500  0.000  0.350-  19 2.14  17 2.14  18 2.14   2 2.14  25 2.14
  52  0.750  0.750  0.350-  20 2.14  17 2.14  18 2.14   1 2.14  26 2.14
  53  0.500  0.751  0.651-  23 2.13   8 2.14  24 2.14  31 2.14  21 2.16
  54  0.750  1.000  0.651-  32 2.13  24 2.13   7 2.14  23 2.14  22 2.16
  55  0.500  1.000  0.550-  23 2.13  22 2.14   6 2.14  19 2.14  21 2.14  29 2.14
  56  0.750  0.750  0.550-  24 2.13   5 2.14  30 2.14  22 2.14  21 2.14  20 2.14
  57  0.500  0.250  0.450-  25 2.14  19 2.14  12 2.14  27 2.14  28 2.14  29 2.15
  58  0.750  0.500  0.450-  26 2.14  20 2.14  11 2.14  27 2.14  28 2.14  30 2.15
  59  0.500  0.500  0.350-  27 2.14  17 2.14  25 2.14  26 2.14  10 2.14
  60  0.750  0.250  0.350-  28 2.14  18 2.14  25 2.14  26 2.14   9 2.14
  61  0.500  0.249  0.651-  23 2.13  32 2.14  16 2.14  31 2.14  29 2.16
  62  0.751  0.500  0.651-  15 2.13  32 2.14  24 2.14  31 2.14  30 2.16
  63  0.500  0.500  0.550-  21 2.13  30 2.13  14 2.13  29 2.13  27 2.15  31 2.16
  64  0.750  0.250  0.550-  32 2.12  13 2.14  22 2.14  30 2.14  29 2.14  28 2.14

IMPORTANT INFORMATION: All symmetrisations will be switched off!
NOSYMM: (Re-)initialisation of all symmetry stuff for point group C_1.

                                     Primitive cell

  volume of cell :    1563.6717

  direct lattice vectors                    reciprocal lattice vectors
     8.546113626  0.000000000  0.000000000     0.117012252  0.000000000  0.000000000
     0.000000000  8.546113626  0.000000000     0.000000000  0.117012252  0.000000000
     0.000000000  0.000000000 21.409585219     0.000000000  0.000000000  0.046708051

  length of vectors
     8.546113626  8.546113626 21.409585219     0.117012252  0.117012252  0.046708051

  position of ions in fractional coordinates (direct lattice)
     0.000000000  0.750000000  0.350310383
     0.250000000  0.000000000  0.350310383
     0.000000000  0.000000000  0.450103461
     0.250000000  0.750000000  0.450103461
     0.999777631  0.749910594  0.550283253
     0.249971119  0.000015227  0.550274028
     0.999781575  0.999971220  0.649411925
     0.249338808  0.750308740  0.649151796
     0.000000000  0.250000000  0.350310383
     0.250000000  0.500000000  0.350310383
     0.000000000  0.500000000  0.450103461
     0.250000000  0.250000000  0.450103461
     0.999918261  0.250019997  0.550266638
     0.250331750  0.499981938  0.550472612
     0.999874310  0.499904983  0.649357970
     0.249507856  0.249699583  0.649332594
     0.500000000  0.750000000  0.350310383
     0.750000000  0.000000000  0.350310383
     0.500000000  0.000000000  0.450103461
     0.750000000  0.750000000  0.450103461
     0.499865941  0.749506971  0.550408366
     0.749730659  0.999876518  0.550280291
     0.499754707  0.000038043  0.649383043
     0.750089024  0.750175859  0.649481259
     0.500000000  0.250000000  0.350310383
     0.750000000  0.500000000  0.350310383
     0.500000000  0.500000000  0.450103461
     0.750000000  0.250000000  0.450103461
     0.499870241  0.250421669  0.550468042
     0.749438637  0.499963660  0.550419049
     0.499865062  0.499973559  0.651442911
     0.750184658  0.249550051  0.649151018
     0.000000000  0.750000000  0.450103461
     0.250000000  0.000000000  0.450103461
     0.000000000  0.000000000  0.350310383
     0.250000000  0.750000000  0.350310383
     0.999773682  0.750136884  0.651302257
     0.249648559  0.999963139  0.651253398
     0.999842006  0.999954318  0.549997255
     0.249844454  0.750015334  0.550031584
     0.000000000  0.250000000  0.450103461
     0.250000000  0.500000000  0.450103461
     0.000000000  0.500000000  0.350310383
     0.250000000  0.250000000  0.350310383
     0.999826544  0.249729415  0.651288610
     0.248890369  0.500093390  0.651287636
     0.999837750  0.499965699  0.550000320
     0.249905354  0.249977895  0.550069543
     0.500000000  0.750000000  0.450103461
     0.750000000  0.000000000  0.450103461
     0.500000000  0.000000000  0.350310383
     0.750000000  0.750000000  0.350310383
     0.499554904  0.750885787  0.651315072
     0.749945215  0.999913163  0.651288673
     0.499863593  0.999930419  0.550029609
     0.749837440  0.749916541  0.550107237
     0.500000000  0.250000000  0.450103461
     0.750000000  0.500000000  0.450103461
     0.500000000  0.500000000  0.350310383
     0.750000000  0.250000000  0.350310383
     0.499941187  0.249072422  0.651335826
     0.750813191  0.499700454  0.651221304
     0.499893836  0.499992585  0.550403206
     0.749932780  0.249919384  0.550024179

  ion indices of the primitive-cell ions
   primitive index   ion index
                 1           1
                 2           2
                 3           3
                 4           4
                 5           5
                 6           6
                 7           7
                 8           8
                 9           9
                10          10
                11          11
                12          12
                13          13
                14          14
                15          15
                16          16
                17          17
                18          18
                19          19
                20          20
                21          21
                22          22
                23          23
                24          24
                25          25
                26          26
                27          27
                28          28
                29          29
                30          30
                31          31
                32          32
                33          33
                34          34
                35          35
[...]
   0.25000000  0.50000000  0.45010346
   0.00000000  0.50000000  0.35031038
   0.25000000  0.25000000  0.35031038
   0.99982654  0.24972941  0.65128861
   0.24889037  0.50009339  0.65128764
   0.99983775  0.49996570  0.55000032
   0.24990535  0.24997790  0.55006954
   0.50000000  0.75000000  0.45010346
   0.75000000  0.00000000  0.45010346
   0.50000000  0.00000000  0.35031038
   0.75000000  0.75000000  0.35031038
   0.49955490  0.75088579  0.65131507
   0.74994521  0.99991316  0.65128867
   0.49986359  0.99993042  0.55002961
   0.74983744  0.74991654  0.55010724
   0.50000000  0.25000000  0.45010346
   0.75000000  0.50000000  0.45010346
   0.50000000  0.50000000  0.35031038
   0.75000000  0.25000000  0.35031038
   0.49994119  0.24907242  0.65133583
   0.75081319  0.49970045  0.65122130
   0.49989384  0.49999259  0.55040321
   0.74993278  0.24991938  0.55002418

 position of ions in cartesian coordinates  (Angst):
   0.00000000  6.40958522  7.50000000
   2.13652841  0.00000000  7.50000000
   0.00000000  0.00000000  9.63652841
   2.13652841  6.40958522  9.63652841
   8.54421324  6.40882114 11.78133620
   2.13628159  0.00013013 11.78113870
   8.54424694  8.54586767 13.90363995
   2.13087778  6.41222374 13.89807069
   0.00000000  2.13652841  7.50000000
   2.13652841  4.27305681  7.50000000
   0.00000000  4.27305681  9.63652841
   2.13652841  2.13652841  9.63652841
   8.54541507  2.13669931 11.78098048
   2.13936358  4.27290245 11.78539029
   8.54503947  4.27224479 13.90248480
   2.13232249  2.13396101 13.90194150
   4.27305681  6.40958522  7.50000000
   6.40958522  0.00000000  7.50000000
   4.27305681  0.00000000  9.63652841
   6.40958522  6.40958522  9.63652841
   4.27191113  6.40537174 11.78401482
   6.40728340  8.54505833 11.78127278
   4.27096051  0.00032512 13.90302159
   6.41034603  6.41108813 13.90512437
   4.27305681  2.13652841  7.50000000
   6.40958522  4.27305681  7.50000000
   4.27305681  4.27305681  9.63652841
   6.40958522  2.13652841  9.63652841
   4.27194788  2.14013204 11.78529246
   6.40478774  4.27274625 11.78424354
   4.27190362  4.27283085 13.94712252
   6.41116333  2.13268310 13.89805405
   0.00000000  6.40958522  9.63652841
   2.13652841  0.00000000  9.63652841
   0.00000000  0.00000000  7.50000000
   2.13652841  6.40958522  7.50000000
   8.54417949  6.41075504 13.94411117
   2.13352495  8.54579861 13.94306512
   8.54476339  8.54572322 11.77521310
   2.13519910  6.40971626 11.77594808
   0.00000000  2.13652841  9.63652841
   2.13652841  4.27305681  9.63652841
   0.00000000  4.27305681  7.50000000
   2.13652841  2.13652841  7.50000000
   8.54463125  2.13421595 13.94381900
   2.12704537  4.27385493 13.94379815
   8.54472702  4.27276368 11.77527872
   2.13571955  2.13633950 11.77676076
   4.27305681  6.40958522  9.63652841
   6.40958522  0.00000000  9.63652841
   4.27305681  0.00000000  7.50000000
   6.40958522  6.40958522  7.50000000
   4.26925297  6.41715526 13.94438555
   6.40911702  8.54537151 13.94382034
   4.27189106  8.54551898 11.77590578
   6.40819597  6.40887197 11.77756778
   4.27305681  2.13652841  9.63652841
   6.40958522  4.27305681  9.63652841
   4.27305681  4.27305681  7.50000000
   6.40958522  2.13652841  7.50000000
   4.27255419  2.12860122 13.94482987
   6.41653485  4.27049686 13.94237800
   4.27214953  4.27299344 11.78390434
   6.40901075  2.13583945 11.77578954

--------------------------------------- Iteration      FINAL  ---------------------------------------

--------------------OUTCAR has been truncated-------------------------

[...]

--------------------OUTCAR has been truncated-------------------------

  DFT-D2 method for vdW energy calculation

  Parameters of vdW forcefield:
         C6(Jnm^6/mol)     R0(A)
   Mg       0.630          1.243
   O        0.700          1.342

  vdW correction parametrized for the method *ü      

  IVDW =   1
  VDW_RADIUS =    50.000 A
  VDW_S6 =     1.050
  VDW_SR =     1.000
  VDW_D =    20.000
  LVDW_EWALD = F

  Number of pair interactions contributing to vdW energy:  705360
  Edisp (eV):   -4.83183

 VOLUME and BASIS-vectors are now :
  energy-cutoff  :      600.00
  volume of cell :     1563.67
      direct lattice vectors                 reciprocal lattice vectors
     8.546113626  0.000000000  0.000000000     0.117012252  0.000000000  0.000000000
     0.000000000  8.546113626  0.000000000     0.000000000  0.117012252  0.000000000
     0.000000000  0.000000000 21.409585219     0.000000000  0.000000000  0.046708051

  length of vectors
     8.546113626  8.546113626 21.409585219     0.117012252  0.117012252  0.046708051

 FORCES acting on ions:
    Electron-Ion                     Ewald-Force                    Non-Local-Force
   0.149E-02 0.817E-01 0.201E+04   -.180E-02 -.827E-01 -.200E+04   0.227E-03 0.649E-03 -.633E+01
   -.852E-01 -.508E-02 0.201E+04   0.854E-01 0.549E-02 -.200E+04   -.140E-03 -.269E-03 -.633E+01
   -.221E-02 0.245E-01 0.665E+03   -.542E-02 -.279E-01 -.666E+03   0.459E-02 0.213E-02 0.376E+00
   -.388E+00 0.452E+00 0.665E+03   0.384E+00 -.465E+00 -.665E+03   0.178E-02 0.816E-02 0.400E+00
   0.119E+00 0.444E+00 -.668E+03   -.145E+00 -.461E+00 0.668E+03   0.212E-01 0.143E-01 -.199E+00
   -.305E+00 -.113E+00 -.668E+03   0.336E+00 0.115E+00 0.668E+03   -.289E-01 -.251E-02 -.215E+00
   -.158E-01 0.955E-01 -.200E+04   0.185E-01 -.843E-01 0.199E+04   -.172E-03 -.107E-01 0.555E+01
   -.167E+01 0.152E+01 -.199E+04   0.157E+01 -.139E+01 0.199E+04   0.988E-01 -.113E+00 0.556E+01
   -.816E-02 -.818E-01 0.201E+04   0.839E-02 0.826E-01 -.200E+04   -.149E-03 -.536E-03 -.633E+01
   -.102E+00 0.525E-02 0.201E+04   0.104E+00 -.563E-02 -.200E+04   -.119E-02 0.252E-03 -.634E+01
   -.857E-01 -.356E-01 0.665E+03   0.849E-01 0.359E-01 -.665E+03   0.467E-03 -.247E-03 0.362E+00
   -.466E+00 -.456E+00 0.665E+03   0.474E+00 0.470E+00 -.665E+03   -.519E-02 -.848E-02 0.412E+00
   -.187E+00 -.417E+00 -.668E+03   0.186E+00 0.436E+00 0.668E+03   0.132E-02 -.163E-01 -.195E+00
   -.125E+01 0.132E+00 -.671E+03   0.137E+01 -.138E+00 0.671E+03   -.106E+00 0.442E-02 -.280E+00
   0.952E-01 -.922E-01 -.199E+04   -.102E+00 0.840E-01 0.199E+04   0.996E-03 0.784E-02 0.553E+01
   -.178E+01 -.169E+01 -.199E+04   0.162E+01 0.154E+01 0.199E+04   0.137E+00 0.132E+00 0.560E+01
   -.342E-02 0.986E-01 0.201E+04   0.301E-02 -.101E+00 -.200E+04   0.267E-03 0.170E-02 -.633E+01
   0.847E-01 0.451E-02 0.201E+04   -.856E-01 -.464E-02 -.200E+04   0.560E-03 0.953E-04 -.633E+01
   -.312E-01 -.599E-01 0.665E+03   0.262E-01 0.637E-01 -.665E+03   0.283E-02 -.233E-02 0.373E+00
   0.379E+00 0.371E+00 0.665E+03   -.390E+00 -.383E+00 -.665E+03   0.703E-02 0.730E-02 0.417E+00
   -.246E+00 0.126E+01 -.670E+03   0.270E+00 -.136E+01 0.671E+03   -.165E-01 0.102E+00 -.266E+00
   0.374E+00 0.197E+00 -.668E+03   -.396E+00 -.218E+00 0.668E+03   0.236E-01 0.168E-01 -.207E+00
   -.142E+00 0.229E+00 -.199E+04   0.133E+00 -.240E+00 0.199E+04   0.102E-01 0.749E-03 0.553E+01
   0.201E+01 0.180E+01 -.200E+04   -.185E+01 -.163E+01 0.199E+04   -.145E+00 -.143E+00 0.562E+01
   0.701E-02 -.988E-01 0.201E+04   -.756E-02 0.101E+00 -.200E+04   0.367E-03 -.162E-02 -.634E+01
   0.102E+00 -.528E-02 0.201E+04   -.105E+00 0.502E-02 -.200E+04   0.153E-02 0.159E-03 -.634E+01
   0.397E-01 0.523E-01 0.663E+03   -.487E-01 -.588E-01 -.664E+03   0.549E-02 0.398E-02 0.478E+00
   0.468E+00 -.382E+00 0.665E+03   -.483E+00 0.386E+00 -.665E+03   0.915E-02 -.262E-02 0.397E+00
   0.630E-01 -.126E+01 -.671E+03   -.747E-01 0.137E+01 0.671E+03   0.111E-01 -.106E+00 -.266E+00
   0.139E+01 -.204E+00 -.670E+03   -.149E+01 0.232E+00 0.670E+03   0.932E-01 -.209E-01 -.288E+00
   -.455E-01 -.123E+00 -.201E+04   0.430E-01 0.129E+00 0.200E+04   0.233E-04 -.407E-02 0.585E+01
   0.160E+01 -.148E+01 -.199E+04   -.147E+01 0.137E+01 0.199E+04   -.115E+00 0.970E-01 0.556E+01
   0.363E-02 0.221E+00 0.499E+03   0.932E-02 -.223E+00 -.498E+03   -.153E-01 0.260E-02 -.786E-01
   -.234E+00 -.278E-01 0.499E+03   0.241E+00 0.257E-01 -.498E+03   -.884E-02 0.262E-02 -.746E-01
   0.111E-02 0.325E-02 0.151E+04   -.946E-03 -.329E-02 -.151E+04   -.216E-03 0.453E-04 0.315E+01
   -.667E-01 0.719E-01 0.151E+04   0.677E-01 -.738E-01 -.151E+04   -.121E-02 0.234E-02 0.315E+01
   0.186E+00 0.560E+00 -.151E+04   -.195E+00 -.610E+00 0.152E+04   0.715E-02 0.433E-01 -.443E+01
   -.426E+00 -.853E-01 -.151E+04   0.468E+00 0.762E-01 0.152E+04   -.403E-01 0.134E-01 -.444E+01
   0.306E-01 0.351E-01 -.496E+03   -.362E-01 -.355E-01 0.496E+03   0.728E-02 0.120E-02 0.266E+00
   -.608E+00 0.714E+00 -.496E+03   0.603E+00 -.709E+00 0.495E+03   0.378E-02 -.781E-02 0.370E+00
   -.516E-01 -.224E+00 0.499E+03   0.535E-01 0.229E+00 -.499E+03   -.205E-02 -.700E-02 -.744E-01
   -.324E+00 0.288E-01 0.498E+03   0.303E+00 -.274E-01 -.497E+03   0.247E-01 -.174E-02 -.110E+00
   -.588E-02 -.321E-02 0.151E+04   0.654E-02 0.335E-02 -.151E+04   -.842E-03 -.173E-03 0.315E+01
   -.744E-01 -.720E-01 0.151E+04   0.760E-01 0.739E-01 -.151E+04   -.194E-02 -.229E-02 0.315E+01
   -.762E-01 -.560E+00 -.151E+04   0.643E-01 0.611E+00 0.152E+04   0.155E-01 -.436E-01 -.445E+01
   -.261E+01 0.187E+00 -.151E+04   0.258E+01 -.168E+00 0.152E+04   0.101E+00 -.298E-01 -.420E+01
   -.117E+00 -.558E-01 -.496E+03   0.109E+00 0.574E-01 0.495E+03   0.139E-01 -.182E-02 0.316E+00
   -.692E+00 -.743E+00 -.496E+03   0.687E+00 0.743E+00 0.496E+03   0.493E-02 0.105E-02 0.337E+00
   -.463E-01 0.302E+00 0.498E+03   0.517E-01 -.276E+00 -.498E+03   -.627E-02 -.310E-01 -.959E-01
   0.215E+00 0.270E-01 0.499E+03   -.207E+00 -.181E-01 -.498E+03   -.948E-02 -.107E-01 -.772E-01
   -.911E-03 -.421E-02 0.151E+04   0.116E-02 0.490E-02 -.151E+04   -.331E-03 -.870E-03 0.315E+01
   0.680E-01 0.655E-01 0.151E+04   -.685E-01 -.667E-01 -.151E+04   0.569E-03 0.145E-02 0.315E+01
   -.349E+00 0.240E+01 -.151E+04   0.320E+00 -.233E+01 0.152E+04   0.454E-01 -.145E+00 -.416E+01
   0.570E+00 0.199E+00 -.151E+04   -.626E+00 -.208E+00 0.152E+04   0.527E-01 0.744E-02 -.443E+01
   -.507E-01 -.278E-01 -.496E+03   0.440E-01 0.195E-01 0.496E+03   0.732E-02 0.123E-01 0.303E+00
   0.738E+00 0.626E+00 -.497E+03   -.746E+00 -.634E+00 0.497E+03   0.800E-02 0.912E-02 0.285E+00
   0.200E-01 -.308E+00 0.498E+03   -.134E-01 0.285E+00 -.497E+03   -.785E-02 0.269E-01 -.107E+00
   0.321E+00 -.409E-01 0.498E+03   -.288E+00 0.415E-01 -.498E+03   -.392E-01 -.627E-03 -.101E+00
   0.558E-02 0.430E-02 0.151E+04   -.591E-02 -.490E-02 -.151E+04   0.410E-03 0.753E-03 0.315E+01
   0.752E-01 -.650E-01 0.151E+04   -.765E-01 0.664E-01 -.151E+04   0.170E-02 -.181E-02 0.315E+01
   0.205E+00 -.252E+01 -.151E+04   -.195E+00 0.248E+01 0.152E+04   -.189E-01 0.115E+00 -.421E+01
   0.253E+01 -.362E+00 -.151E+04   -.248E+01 0.342E+00 0.152E+04   -.129E+00 0.354E-01 -.414E+01
   0.371E-01 0.444E-01 -.504E+03   -.351E-01 -.428E-01 0.505E+03   -.349E-02 -.441E-02 -.115E+00
   0.780E+00 -.593E+00 -.495E+03   -.777E+00 0.593E+00 0.495E+03   -.710E-02 -.193E-03 0.373E+00
   -.154E-01 0.503E-01 0.141E+02   0.770E-13 0.643E-13 0.227E-11   0.135E-01 -.464E-01 -.124E+02

 POSITION                                       TOTAL-FORCE (eV/Angst)
      0.00000      6.40959      7.50000        -0.000046     -0.000279      0.630150
      2.13653      0.00000      7.50000         0.000081      0.000111      0.629784
      0.00000      0.00000      9.63653        -0.002380     -0.000977      0.017427
      2.13653      6.40959      9.63653        -0.001318     -0.003594      0.017844
      8.54421      6.40882     11.78134        -0.001803     -0.001467     -0.013101
      2.13628      0.00013     11.78114        -0.000274     -0.000787     -0.011377
      8.54425      8.54587     13.90364         0.002347     -0.000406     -0.274867
      2.13088      6.41222     13.89807         0.006102      0.006946     -0.244449
      0.00000      2.13653      7.50000         0.000074      0.000259      0.629920
      2.13653      4.27306      7.50000         0.000421     -0.000089      0.631344
      0.00000      4.27306      9.63653        -0.000276      0.000045      0.027251
      2.13653      2.13653      9.63653         0.002199      0.003935      0.017269
      8.54542      2.13670     11.78098         0.000130      0.001072     -0.012705
      2.13936      4.27290     11.78539        -0.003090     -0.000957     -0.017974
      8.54504      4.27224     13.90248        -0.004924      0.000342     -0.265693
      2.13232      2.13396     13.90194        -0.005375     -0.009788     -0.272058
      4.27306      6.40959      7.50000        -0.000104     -0.000615      0.630325
      6.40959      0.00000      7.50000        -0.000213     -0.000018      0.629913
      4.27306      0.00000      9.63653        -0.001685      0.001098      0.026388
      6.40959      6.40959      9.63653        -0.003636     -0.003519      0.018353
      4.27191      6.40537     11.78401         0.005249      0.004649      0.001339
      6.40728      8.54506     11.78127         0.003550     -0.002731     -0.010441
      4.27096      0.00033     13.90302         0.001496     -0.009464     -0.264483
      6.41035      6.41109     13.90512         0.004636      0.010205     -0.297900
      4.27306      2.13653      7.50000        -0.000118      0.000590      0.631031
      6.40959      4.27306      7.50000        -0.000517     -0.000073      0.630775
      4.27306      4.27306      9.63653        -0.002774     -0.001974      0.022951
      6.40959      2.13653      9.63653        -0.004305      0.000858      0.017784
      4.27195      2.14013     11.78529         0.000424     -0.002505     -0.015802
      6.40479      4.27275     11.78424         0.004744      0.004525     -0.005264
      4.27190      4.27283     13.94712        -0.002238      0.001446     -0.558982
      6.41116      2.13268     13.89805         0.005734     -0.001802     -0.245696
      0.00000      6.40959      9.63653        -0.004520      0.000990      0.030896
      2.13653      0.00000      9.63653        -0.002835      0.000863      0.031382
      0.00000      0.00000      7.50000        -0.000063      0.000010     -0.273253
      2.13653      6.40959      7.50000        -0.000400      0.000784     -0.273484
      8.54418      6.41076     13.94411        -0.001103     -0.000913     -0.153602
      2.13352      8.54580     13.94307        -0.003473      0.006361     -0.153217
      8.54476      8.54572     11.77521         0.002783      0.000961      0.020123
      2.13520      6.40972     11.77595        -0.000852     -0.003412      0.020624
      0.00000      2.13653      9.63653        -0.000384     -0.002301      0.030681
      2.13653      4.27306      9.63653         0.007198     -0.000587      0.038190
      0.00000      4.27306      7.50000        -0.000288     -0.000046     -0.273773
      2.13653      2.13653      7.50000        -0.000643     -0.000761     -0.273652
      8.54463      2.13422     13.94382         0.005813      0.001418     -0.157317
      2.12705      4.27385     13.94380         0.095978     -0.014556     -0.085617
      8.54473      4.27276     11.77528         0.007751     -0.000483      0.026614
      2.13572      2.13634     11.77676         0.000798      0.001784      0.021228
      4.27306      6.40959      9.63653        -0.001672     -0.008887      0.037250
      6.40959      0.00000      9.63653        -0.002482     -0.003282      0.031137
      4.27306      0.00000      7.50000        -0.000117     -0.000300     -0.273442
      6.40959      6.40959      7.50000         0.000186      0.000469     -0.273392
      4.26925      6.41716     13.94439         0.023377     -0.102379     -0.080975
      6.40912      8.54537     13.94382         0.003201     -0.000660     -0.152403
      4.27189      8.54552     11.77591         0.001675      0.005986      0.020421
      6.40820      6.40887     11.77757         0.001249      0.003245      0.013699
      4.27306      2.13653      9.63653        -0.002292      0.007697      0.038844
      6.40959      4.27306      9.63653        -0.011511     -0.000057      0.036381
      4.27306      4.27306      7.50000         0.000152      0.000258     -0.274381
      6.40959      2.13653      7.50000         0.000573     -0.000587     -0.273536
      4.27255      2.12860     13.94483        -0.011509      0.097169     -0.090185
      6.41653      4.27050     13.94238        -0.101914      0.020520     -0.069807
      4.27215      4.27299     11.78390        -0.002033     -0.003581      0.012903
      6.40901      2.13584     11.77579        -0.004749     -0.000761      0.022606
    total drift:                               -0.000885     -0.000311      0.017293

  FREE ENERGIE OF THE ION-ELECTRON SYSTEM (eV)
  free  energy   TOTEN  =      -437.15345742 eV

  energy  without entropy=     -437.15345742  energy(sigma->0) =     -437.15345742