 vasp.6.3.0 20Jan22 (build Apr  1 2022 16:44:48) complex
 executed on        HPECrayEX_GCC date 2022.10.25  00:23:31

 INCAR:
   SYSTEM = MgO-rocksalt
   ISMEAR = 0
   SIGMA = 0.05
   EDIFF = 1E-6
   ALGO = ALL
   ISTART = 0
   IBRION = -1
   NSW = 0
   ISYM = 0
   DIPOL = 0.5 0.5 0.5
   IDIPOL = 3
   LDIPOL = .TRUE.
   LHFCALC = .TRUE.
   GGA = B5
   AEXX = 0.2
   AGGAX = 0.72
   AGGAC = 0.81
   ALDAC = 0.19
   IVDW = 1
   VDW_S6 = 1.05
   VDW_C6 = 1.75 0.14 0.63 0.70
   VDW_R0 = 1.452 1.001 1.243 1.342
   ENCUT = 600
   PREC = Accurate
   LASPH = .TRUE.
   LREAL = .FALSE.
   ISPIN = 1
   NELM = 200
   NELMIN = 8
   NCORE = 8
   KPAR = 1
   LWAVE = .FALSE.
   LCHARG = .FALSE.

 POTCAR:    PAW_PBE C 08Apr2002
 POTCAR:    PAW_PBE H 15Jun2001
 POTCAR:    PAW_PBE Mg_pv 13Apr2007
 POTCAR:    PAW_PBE O 08Apr2002
 POTCAR:    PAW_PBE C 08Apr2002
   VRHFIN =C: s2p2

   TITEL  = PAW_PBE C 08Apr2002
   POMASS =   12.011; ZVAL   =    4.000    mass and valenz
   ENMAX  =  400.000; ENMIN  =  300.000 eV

   TITEL  = PAW_PBE H 15Jun2001
   POMASS =    1.000; ZVAL   =    1.000    mass and valenz
   ENMAX  =  250.000; ENMIN  =  200.000 eV

   TITEL  = PAW_PBE Mg_pv 13Apr2007
   POMASS =   24.305; ZVAL   =    8.000    mass and valenz
   ENMAX  =  403.929; ENMIN  =  302.947 eV

   TITEL  = PAW_PBE O 08Apr2002
   POMASS =   16.000; ZVAL   =    6.000    mass and valenz
   ENMAX  =  400.000; ENMIN  =  300.000 eV

  PAW_PBE C 08Apr2002                   :
  PAW_PBE H 15Jun2001                   :
  PAW_PBE Mg_pv 13Apr2007               :
  PAW_PBE O 08Apr2002                   :

 POSCAR:  C  H Mg  O
  positions in direct lattice
 exchange correlation table for  LEXCH =       12
   RHO(1)=    0.500       N(1)  =     2000
   RHO(2)=  100.500       N(2)  =     4000

 ion  position               nearest neighbor table
   1  0.504  0.498  0.809-   5 1.10   4 1.10   3 1.10   2 1.54
   2  0.677  0.499  0.829-   7 1.10   6 1.10   8 1.10   1 1.54
   3  0.479  0.396  0.779-   1 1.10
   4  0.475  0.604  0.782-   1 1.10
   5  0.425  0.494  0.849-   1 1.10
   6  0.756  0.502  0.789-   2 1.10
   7  0.705  0.395  0.857-   2 1.10
   8  0.703  0.603  0.858-   2 1.10
   9  0.000  0.750  0.350-  41 2.14  43 2.14  44 2.14  51 2.14  60 2.14
  10  0.250  0.000  0.350-  42 2.14  43 2.14  44 2.14  52 2.14  59 2.14
  11  0.000  0.000  0.450-  43 2.14  42 2.14  41 2.14  49 2.14  58 2.14  47 2.14
  12  0.250  0.750  0.450-  44 2.14  42 2.14  41 2.14  50 2.14  57 2.14  48 2.14
  13  1.000  0.750  0.550-  47 2.14  64 2.14  48 2.14  55 2.14  41 2.15  45 2.16
  14  0.250  1.000  0.550-  48 2.14  56 2.14  47 2.14  63 2.14  42 2.15  46 2.16
  15  0.000  1.000  0.650-  47 2.13  45 2.14  46 2.14  53 2.14  62 2.14
  16  0.250  0.750  0.649-  48 2.13  45 2.14  54 2.14  46 2.14  61 2.14
  17  0.000  0.250  0.350-  49 2.14  43 2.14  51 2.14  52 2.14  68 2.14
  18  0.250  0.500  0.350-  50 2.14  44 2.14  51 2.14  52 2.14  67 2.14
  19  0.000  0.500  0.450-  51 2.14  49 2.14  50 2.14  41 2.14  66 2.14  55 2.14
  20  0.250  0.250  0.450-  52 2.14  49 2.14  50 2.14  42 2.14  65 2.14  56 2.14
  21  1.000  0.250  0.550-  72 2.14  56 2.14  47 2.14  55 2.14  49 2.15  53 2.16
  22  0.250  0.500  0.550-  71 2.14  55 2.14  48 2.14  56 2.14  50 2.15  54 2.16
  23  0.000  0.500  0.649-  55 2.13  54 2.13  70 2.14  45 2.14  53 2.14
  24  0.250  0.250  0.649-  56 2.13  53 2.14  54 2.14  46 2.14  69 2.14
  25  0.500  0.750  0.350-  57 2.14  44 2.14  59 2.14  60 2.14  67 2.14
  26  0.750  0.000  0.350-  58 2.14  43 2.14  59 2.14  60 2.14  68 2.14
  27  0.500  0.000  0.450-  59 2.14  57 2.14  58 2.14  42 2.14  65 2.14  63 2.14
  28  0.750  0.750  0.450-  60 2.14  57 2.14  58 2.14  41 2.14  66 2.14  64 2.14
  29  0.500  0.750  0.550-  71 2.14  48 2.14  64 2.14  63 2.14  57 2.15  61 2.16
  30  0.750  1.000  0.550-  64 2.14  72 2.14  63 2.14  47 2.14  58 2.15  62 2.16
  31  0.500  0.000  0.649-  63 2.13  69 2.14  61 2.14  46 2.14  62 2.14
  32  0.750  0.750  0.649-  64 2.13  62 2.14  45 2.14  61 2.14  70 2.14
  33  0.500  0.250  0.350-  65 2.14  59 2.14  52 2.14  67 2.14  68 2.14
  34  0.750  0.500  0.350-  66 2.14  60 2.14  51 2.14  67 2.14  68 2.14
  35  0.500  0.500  0.450-  67 2.14  57 2.14  65 2.14  66 2.14  50 2.14  71 2.14
  36  0.750  0.250  0.450-  68 2.14  58 2.14  65 2.14  66 2.14  49 2.14  72 2.14
  37  0.500  0.250  0.550-  71 2.14  56 2.14  72 2.14  63 2.14  65 2.15  69 2.16
  38  0.750  0.500  0.550-  71 2.14  55 2.14  64 2.14  72 2.14  66 2.15  70 2.16
  39  0.500  0.500  0.650-  71 2.13  61 2.14  69 2.14  54 2.14  70 2.14
  40  0.750  0.250  0.649-  72 2.13  53 2.14  62 2.14  69 2.14  70 2.14
  41  0.000  0.750  0.450-   9 2.14  11 2.14  12 2.14  19 2.14  28 2.14  13 2.15
  42  0.250  0.000  0.450-  10 2.14  11 2.14  12 2.14  20 2.14  27 2.14  14 2.15
  43  0.000  0.000  0.350-  11 2.14  10 2.14   9 2.14  17 2.14  26 2.14
  44  0.250  0.750  0.350-  12 2.14  10 2.14   9 2.14  18 2.14  25 2.14
  45  0.000  0.750  0.651-  15 2.14  16 2.14  32 2.14  23 2.14  13 2.16
  46  0.250  1.000  0.651-  15 2.14  31 2.14  16 2.14  24 2.14  14 2.16
  47  1.000  1.000  0.550-  15 2.13  13 2.14  21 2.14  30 2.14  14 2.14  11 2.14
  48  0.250  0.750  0.550-  16 2.13  14 2.14  13 2.14  29 2.14  22 2.14  12 2.14
  49  0.000  0.250  0.450-  17 2.14  11 2.14  19 2.14  20 2.14  36 2.14  21 2.15
  50  0.250  0.500  0.450-  18 2.14  12 2.14  19 2.14  20 2.14  35 2.14  22 2.15
  51  0.000  0.500  0.350-  19 2.14  17 2.14  18 2.14   9 2.14  34 2.14
  52  0.250  0.250  0.350-  20 2.14  17 2.14  18 2.14  10 2.14  33 2.14
  53  0.000  0.250  0.651-  24 2.14  40 2.14  15 2.14  23 2.14  21 2.16
  54  0.250  0.500  0.651-  23 2.13  16 2.14  24 2.14  39 2.14  22 2.16
  55  1.000  0.500  0.550-  23 2.13  38 2.14  22 2.14  13 2.14  21 2.14  19 2.14
  56  0.250  0.250  0.550-  24 2.13  14 2.14  21 2.14  37 2.14  22 2.14  20 2.14
  57  0.500  0.750  0.450-  25 2.14  12 2.14  27 2.14  28 2.14  35 2.14  29 2.15
  58  0.750  0.000  0.450-  26 2.14  11 2.14  27 2.14  28 2.14  36 2.14  30 2.15
  59  0.500  0.000  0.350-  27 2.14  25 2.14  26 2.14  10 2.14  33 2.14
  60  0.750  0.750  0.350-  28 2.14  25 2.14  26 2.14   9 2.14  34 2.14
  61  0.500  0.750  0.651-  31 2.14  39 2.14  32 2.14  16 2.14  29 2.16
  62  0.750  1.000  0.651-  32 2.14  40 2.14  15 2.14  31 2.14  30 2.16
  63  0.500  1.000  0.550-  31 2.13  30 2.14  14 2.14  37 2.14  29 2.14  27 2.14
  64  0.750  0.750  0.550-  32 2.13  30 2.14  13 2.14  29 2.14  38 2.14  28 2.14
  65  0.500  0.250  0.450-  33 2.14  27 2.14  20 2.14  35 2.14  36 2.14  37 2.15
  66  0.750  0.500  0.450-  34 2.14  28 2.14  19 2.14  35 2.14  36 2.14  38 2.15
  67  0.500  0.500  0.350-  35 2.14  25 2.14  33 2.14  34 2.14  18 2.14
  68  0.750  0.250  0.350-  36 2.14  26 2.14  33 2.14  34 2.14  17 2.14
  69  0.500  0.250  0.651-  31 2.14  39 2.14  40 2.14  24 2.14  37 2.16
  70  0.750  0.500  0.651-  23 2.14  32 2.14  40 2.14  39 2.14  38 2.16
  71  0.500  0.500  0.550-  39 2.13  37 2.14  29 2.14  38 2.14  22 2.14  35 2.14
  72  0.750  0.250  0.550-  40 2.13  30 2.14  21 2.14  37 2.14  38 2.14  36 2.14

IMPORTANT INFORMATION: All symmetrisations will be switched off!
NOSYMM: (Re-)initialisation of all symmetry stuff for point group C_1.

                                     Primitive cell

  volume of cell :    1563.6717

  direct lattice vectors                    reciprocal lattice vectors
     8.546113626  0.000000000  0.000000000     0.117012252  0.000000000  0.000000000
     0.000000000  8.546113626  0.000000000     0.000000000  0.117012252  0.000000000
     0.000000000  0.000000000 21.409585219     0.000000000  0.000000000  0.046708051

  length of vectors
     8.546113626  8.546113626 21.409585219     0.117012252  0.117012252  0.046708051

  position of ions in fractional coordinates (direct lattice)
     0.504379431  0.498428899  0.808513357
     0.677001227  0.499494382  0.829296181
     0.478779762  0.396284175  0.779066105
     0.475439682  0.604406786  0.781866183
     0.425057799  0.493682937  0.848794058
     0.755806803  0.501638710  0.788796362
     0.705018660  0.395137957  0.857026016
     0.702846967  0.602587773  0.858117273
     0.000000000  0.750000000  0.350310383
     0.250000000  0.000000000  0.350310383
     0.000000000  0.000000000  0.450103461
     0.250000000  0.750000000  0.450103461
     0.999987036  0.750052346  0.550348201
     0.249976425  0.999998619  0.550358544
     0.000067508  0.999956011  0.649633237
     0.249908042  0.749983498  0.649496341
     0.000000000  0.250000000  0.350310383
     0.250000000  0.500000000  0.350310383
     0.000000000  0.500000000  0.450103461
     0.250000000  0.250000000  0.450103461
     0.999984168  0.249960129  0.550348399
     0.249996751  0.500003680  0.550417442
     0.000142237  0.500023721  0.649457229
     0.249841038  0.249984312  0.649488902
     0.500000000  0.750000000  0.350310383
     0.750000000  0.000000000  0.350310383
     0.500000000  0.000000000  0.450103461
     0.750000000  0.750000000  0.450103461
     0.499980204  0.749930308  0.550418266
     0.749981736  0.999995356  0.550362142
     0.499954964  0.000000282  0.649478483
     0.750094972  0.750127387  0.649491240
     0.500000000  0.250000000  0.350310383
     0.750000000  0.500000000  0.350310383
     0.500000000  0.500000000  0.450103461
     0.750000000  0.250000000  0.450103461
     0.499981104  0.250064937  0.550422134
     0.749990732  0.500000255  0.550465684
     0.499905430  0.499978914  0.649764015
     0.750159990  0.249834592  0.649486684
     0.000000000  0.750000000  0.450103461
     0.250000000  0.000000000  0.450103461
     0.000000000  0.000000000  0.350310383
     0.250000000  0.750000000  0.350310383
     0.000006893  0.750065008  0.651437413
     0.250001399  0.999982107  0.651437874
     0.999978859  0.999994871  0.550123406
     0.249961326  0.750053583  0.550108422
     0.000000000  0.250000000  0.450103461
     0.250000000  0.500000000  0.450103461
     0.000000000  0.500000000  0.350310383
     0.250000000  0.250000000  0.350310383
     0.000004921  0.249911596  0.651434103
     0.249800997  0.499988285  0.651291153
     0.999978905  0.500011587  0.550086751
     0.249942865  0.249947898  0.550108244
     0.500000000  0.750000000  0.450103461
     0.750000000  0.000000000  0.450103461
     0.500000000  0.000000000  0.350310383
     0.750000000  0.750000000  0.350310383
     0.500006552  0.750076549  0.651428281
     0.750012937  0.999977968  0.651472901
     0.499985018  0.999997950  0.550095492
     0.750013019  0.750077373  0.550119365
     0.500000000  0.250000000  0.450103461
     0.750000000  0.500000000  0.450103461
     0.500000000  0.500000000  0.350310383
     0.750000000  0.250000000  0.350310383
     0.500008141  0.249880889  0.651422638
     0.750201729  0.499988733  0.651390134
     0.500002201  0.499993907  0.550191356
     0.750030220  0.249919224  0.550119622

  ion indices of the primitive-cell ions
   primitive index   ion index
                 1           1
                 2           2
                 3           3
                 4           4
                 5           5
                 6           6
                 7           7
                 8           8
[...]
   4.27305681  6.40958522  7.50000000
   6.40958522  0.00000000  7.50000000
   4.27305681  0.00000000  9.63652841
   6.40958522  6.40958522  9.63652841
   4.27288763  6.40898963 11.78422678
   6.40942913  8.54607394 11.78302517
   4.27267193  0.00000241 13.90506493
   6.41039686  6.41067388 13.90533806
   4.27305681  2.13652841  7.50000000
   6.40958522  4.27305681  7.50000000
   4.27305681  4.27305681  9.63652841
   6.40958522  2.13652841  9.63652841
   4.27289532  2.13708336 11.78430958
   6.40950601  4.27305899 11.78524197
   4.27224860  4.27287661 13.91117804
   6.41095252  2.13511481 13.90524051
   0.00000000  6.40958522  9.63652841
   2.13652841  0.00000000  9.63652841
   0.00000000  0.00000000  7.50000000
   2.13652841  6.40958522  7.50000000
   0.00005891  6.41014078 13.94700480
   2.13654036  8.54596071 13.94701469
   8.54593295  8.54606979 11.77791395
   2.13619790  6.41004314 11.77759314
   0.00000000  2.13652841  9.63652841
   2.13652841  4.27305681  9.63652841
   0.00000000  4.27305681  7.50000000
   2.13652841  2.13652841  7.50000000
   0.00004205  2.13577289 13.94693395
   2.13482770  4.27295670 13.94387344
   8.54593335  4.27315584 11.77712918
   2.13604013  2.13608314 11.77758932
   4.27305681  6.40958522  9.63652841
   6.40958522  0.00000000  9.63652841
   4.27305681  0.00000000  7.50000000
   6.40958522  6.40958522  7.50000000
   4.27311281  6.41023942 13.94680929
   6.40969578  8.54592534 13.94776460
   4.27292877  8.54609611 11.77731630
   6.40969648  6.41024646 11.77782744
   4.27305681  2.13652841  9.63652841
   6.40958522  4.27305681  9.63652841
   4.27305681  4.27305681  7.50000000
   6.40958522  2.13652841  7.50000000
   4.27312639  2.13551047 13.94668848
   6.41130921  4.27296052 13.94599259
   4.27307562  4.27300474 11.77936873
   6.40984349  2.13583809 11.77783292

--------------------------------------- Iteration      FINAL  ---------------------------------------

--------------------OUTCAR has been truncated-------------------------

[...]

--------------------OUTCAR has been truncated-------------------------

  DFT-D2 method for vdW energy calculation

  Parameters of vdW forcefield:
         C6(Jnm^6/mol)     R0(A)
   C        1.750          1.452
   H        0.140          1.001
   Mg       0.630          1.243
   O        0.700          1.342

  vdW correction parametrized for the method Qÿ      

  IVDW =   1
  VDW_RADIUS =    50.000 A
  VDW_S6 =     1.050
  VDW_SR =     1.000
  VDW_D =    20.000
  LVDW_EWALD = F

  Number of pair interactions contributing to vdW energy:  888259
  Edisp (eV):   -5.06480

 VOLUME and BASIS-vectors are now :
  energy-cutoff  :      600.00
  volume of cell :     1563.67
      direct lattice vectors                 reciprocal lattice vectors
     8.546113626  0.000000000  0.000000000     0.117012252  0.000000000  0.000000000
     0.000000000  8.546113626  0.000000000     0.000000000  0.117012252  0.000000000
     0.000000000  0.000000000 21.409585219     0.000000000  0.000000000  0.046708051

  length of vectors
     8.546113626  8.546113626 21.409585219     0.117012252  0.117012252  0.046708051

 FORCES acting on ions:
    Electron-Ion                     Ewald-Force                    Non-Local-Force
   0.692E+02 0.439E+00 -.828E+03   -.690E+02 -.430E+00 0.828E+03   -.114E+00 -.552E-02 -.850E-01
   -.694E+02 -.432E+00 -.783E+03   0.694E+02 0.439E+00 0.782E+03   -.127E+00 -.333E-05 0.201E+00
   0.197E+02 0.457E+02 -.208E+03   -.208E+02 -.501E+02 0.205E+03   0.113E+01 0.439E+01 0.311E+01
   0.212E+02 -.473E+02 -.208E+03   -.225E+02 0.518E+02 0.205E+03   0.127E+01 -.455E+01 0.282E+01
   0.434E+02 0.217E+01 -.212E+03   -.468E+02 -.237E+01 0.217E+03   0.342E+01 0.203E+00 -.429E+01
   -.432E+02 -.102E+01 -.190E+03   0.466E+02 0.111E+01 0.186E+03   -.340E+01 -.901E-01 0.436E+01
   -.208E+02 0.466E+02 -.195E+03   0.220E+02 -.510E+02 0.198E+03   -.124E+01 0.445E+01 -.297E+01
   -.198E+02 -.461E+02 -.195E+03   0.210E+02 0.505E+02 0.198E+03   -.114E+01 -.439E+01 -.309E+01
   -.857E-01 -.204E+00 0.202E+04   0.855E-01 0.203E+00 -.201E+04   0.202E-03 0.488E-03 -.633E+01
   0.133E+00 0.490E-03 0.202E+04   -.133E+00 -.488E-03 -.201E+04   -.333E-03 -.621E-05 -.633E+01
   -.247E+00 -.193E-03 0.700E+03   0.247E+00 0.135E-03 -.700E+03   0.273E-03 0.600E-04 0.414E+00
   0.474E+00 -.687E+00 0.701E+03   -.470E+00 0.685E+00 -.701E+03   -.265E-02 0.152E-02 0.409E+00
   -.134E+01 -.320E+01 -.608E+03   0.135E+01 0.321E+01 0.608E+03   -.257E-02 -.128E-01 -.221E+00
   0.219E+01 0.138E-01 -.610E+03   -.219E+01 -.156E-01 0.610E+03   0.341E-02 0.133E-02 -.222E+00
   -.390E+01 0.662E-03 -.193E+04   0.391E+01 -.704E-02 0.192E+04   -.123E-01 0.698E-02 0.553E+01
   0.135E+02 -.159E+02 -.191E+04   -.135E+02 0.159E+02 0.191E+04   0.334E-01 0.109E-01 0.556E+01
   -.858E-01 0.204E+00 0.202E+04   0.855E-01 -.203E+00 -.201E+04   0.193E-03 -.465E-03 -.633E+01
   0.144E+00 -.527E-03 0.202E+04   -.143E+00 0.530E-03 -.201E+04   -.636E-03 0.334E-05 -.634E+01
   -.262E+00 -.196E-02 0.701E+03   0.257E+00 0.244E-02 -.702E+03   0.322E-02 -.276E-03 0.398E+00
   0.465E+00 0.688E+00 0.701E+03   -.461E+00 -.685E+00 -.701E+03   -.228E-02 -.151E-02 0.409E+00
   -.135E+01 0.321E+01 -.608E+03   0.135E+01 -.323E+01 0.608E+03   -.227E-02 0.131E-01 -.222E+00
   0.336E+01 -.175E-01 -.602E+03   -.336E+01 0.178E-01 0.603E+03   -.322E-03 -.510E-03 -.328E+00
   -.938E+01 0.535E-03 -.191E+04   0.945E+01 0.640E-02 0.190E+04   -.547E-01 -.767E-02 0.556E+01
   0.135E+02 0.159E+02 -.191E+04   -.136E+02 -.159E+02 0.191E+04   0.507E-01 -.107E-01 0.556E+01
   0.856E-01 -.215E+00 0.202E+04   -.854E-01 0.214E+00 -.201E+04   -.146E-03 0.808E-03 -.633E+01
   -.133E+00 0.525E-03 0.202E+04   0.133E+00 -.529E-03 -.201E+04   0.385E-03 -.112E-05 -.633E+01
   0.246E+00 -.225E-02 0.701E+03   -.247E+00 0.229E-02 -.701E+03   0.585E-03 -.152E-04 0.404E+00
   -.474E+00 -.692E+00 0.701E+03   0.469E+00 0.685E+00 -.702E+03   0.328E-02 0.406E-02 0.415E+00
   0.134E+01 -.460E+01 -.602E+03   -.135E+01 0.459E+01 0.602E+03   0.250E-02 0.132E-01 -.260E+00
   -.219E+01 0.137E-01 -.608E+03   0.220E+01 -.154E-01 0.608E+03   -.525E-02 0.133E-02 -.214E+00
   0.395E+01 0.201E+00 -.192E+04   -.397E+01 -.199E+00 0.191E+04   0.116E-01 -.313E-02 0.554E+01
   -.136E+02 -.215E+02 -.190E+04   0.137E+02 0.215E+02 0.189E+04   -.276E-01 -.420E-01 0.556E+01
   0.856E-01 0.215E+00 0.202E+04   -.854E-01 -.214E+00 -.201E+04   -.141E-03 -.791E-03 -.633E+01
   -.144E+00 -.612E-03 0.202E+04   0.143E+00 0.608E-03 -.201E+04   0.625E-03 -.379E-05 -.634E+01
   0.258E+00 0.483E-03 0.702E+03   -.253E+00 -.893E-03 -.703E+03   -.295E-02 0.242E-03 0.428E+00
   -.465E+00 0.693E+00 0.701E+03   0.459E+00 -.686E+00 -.702E+03   0.297E-02 -.389E-02 0.415E+00
   0.135E+01 0.461E+01 -.602E+03   -.135E+01 -.459E+01 0.602E+03   0.217E-02 -.137E-01 -.261E+00
   -.337E+01 -.199E-01 -.599E+03   0.337E+01 0.206E-01 0.600E+03   -.945E-03 -.703E-03 -.298E+00
   0.981E+01 -.337E+00 -.186E+04   -.987E+01 0.346E+00 0.185E+04   0.441E-01 -.470E-02 0.553E+01
   -.137E+02 0.215E+02 -.190E+04   0.137E+02 -.215E+02 0.189E+04   -.447E-01 0.421E-01 0.556E+01
   -.194E+00 -.512E+00 0.525E+03   0.195E+00 0.506E+00 -.525E+03   -.126E-02 0.626E-02 -.842E-01
   0.342E+00 0.229E-03 0.525E+03   -.338E+00 -.222E-03 -.525E+03   -.463E-02 0.331E-05 -.879E-01
   -.627E-01 0.549E-03 0.151E+04   0.627E-01 -.567E-03 -.152E+04   -.198E-04 0.330E-04 0.315E+01
   0.104E+00 -.155E+00 0.151E+04   -.103E+00 0.154E+00 -.152E+04   -.916E-03 0.901E-03 0.315E+01
   -.496E+01 -.957E+01 -.146E+04   0.496E+01 0.955E+01 0.146E+04   -.698E-03 0.177E-01 -.442E+01
   0.598E+01 0.702E-01 -.146E+04   -.597E+01 -.708E-01 0.147E+04   -.895E-02 0.984E-03 -.441E+01
   -.792E+00 -.119E-01 -.454E+03   0.788E+00 0.157E-01 0.453E+03   0.392E-02 -.359E-02 0.241E+00
   0.205E+01 -.269E+01 -.450E+03   -.204E+01 0.268E+01 0.449E+03   -.223E-02 0.120E-01 0.276E+00
   -.194E+00 0.514E+00 0.525E+03   0.196E+00 -.510E+00 -.525E+03   -.143E-02 -.560E-02 -.841E-01
   0.393E+00 -.397E-03 0.526E+03   -.396E+00 0.327E-03 -.525E+03   0.365E-02 0.647E-04 -.976E-01
   -.656E-01 -.642E-03 0.151E+04   0.651E-01 0.651E-03 -.152E+04   0.701E-03 -.220E-04 0.315E+01
   0.103E+00 0.155E+00 0.151E+04   -.103E+00 -.154E+00 -.152E+04   -.938E-03 -.896E-03 0.315E+01
   -.497E+01 0.956E+01 -.146E+04   0.497E+01 -.954E+01 0.146E+04   -.693E-03 -.184E-01 -.443E+01
   0.162E+02 -.950E-01 -.144E+04   -.161E+02 0.936E-01 0.144E+04   -.641E-01 0.111E-02 -.451E+01
   -.117E+01 -.577E-02 -.448E+03   0.117E+01 0.596E-02 0.448E+03   -.557E-02 -.682E-03 0.281E+00
   0.201E+01 0.269E+01 -.450E+03   -.200E+01 -.268E+01 0.449E+03   -.345E-02 -.143E-01 0.279E+00
   0.189E+00 -.582E+00 0.526E+03   -.189E+00 0.586E+00 -.526E+03   -.496E-03 -.479E-02 -.961E-01
   -.347E+00 0.654E-04 0.525E+03   0.345E+00 0.789E-04 -.525E+03   0.228E-02 -.156E-03 -.874E-01
   0.628E-01 0.144E-03 0.151E+04   -.628E-01 -.133E-03 -.152E+04   -.579E-04 -.142E-04 0.315E+01
   -.104E+00 -.158E+00 0.151E+04   0.103E+00 0.157E+00 -.152E+04   0.837E-03 0.150E-02 0.315E+01
   0.504E+01 -.203E+02 -.144E+04   -.504E+01 0.203E+02 0.144E+04   -.617E-02 0.397E-01 -.443E+01
   -.604E+01 0.806E-01 -.146E+04   0.604E+01 -.818E-01 0.146E+04   0.400E-02 0.176E-02 -.443E+01
   0.815E+00 0.185E-01 -.450E+03   -.818E+00 -.192E-01 0.450E+03   0.398E-02 0.853E-03 0.291E+00
   -.203E+01 -.300E+01 -.448E+03   0.203E+01 0.299E+01 0.447E+03   0.594E-02 0.987E-02 0.290E+00
   0.190E+00 0.582E+00 0.526E+03   -.189E+00 -.586E+00 -.526E+03   -.452E-03 0.428E-02 -.963E-01
   -.392E+00 -.130E-02 0.526E+03   0.395E+00 0.145E-02 -.526E+03   -.429E-02 -.201E-03 -.107E+00
   0.655E-01 -.156E-03 0.151E+04   -.650E-01 0.159E-03 -.152E+04   -.668E-03 -.240E-05 0.315E+01
   -.103E+00 0.158E+00 0.151E+04   0.103E+00 -.157E+00 -.152E+04   0.858E-03 -.151E-02 0.315E+01
   0.506E+01 0.204E+02 -.143E+04   -.506E+01 -.204E+02 0.144E+04   -.542E-02 -.374E-01 -.443E+01
   -.165E+02 -.971E-01 -.142E+04   0.165E+02 0.942E-01 0.143E+04   0.505E-01 0.267E-02 -.445E+01
   0.118E+01 -.242E-01 -.443E+03   -.118E+01 0.254E-01 0.443E+03   0.700E-02 -.129E-02 0.225E+00
   -.200E+01 0.300E+01 -.447E+03   0.199E+01 -.299E+01 0.447E+03   0.758E-02 -.107E-01 0.292E+00
   0.223E+00 0.281E-02 0.157E+02   0.369E-12 0.313E-12 -.523E-11   -.211E+00 -.239E-02 -.138E+02

 POSITION                                       TOTAL-FORCE (eV/Angst)
      4.31048      4.25963     17.30994         0.063750      0.003325     -0.007766
      5.78573      4.26874     17.75489        -0.039057      0.007516     -0.011933
      4.09171      3.38669     16.67948         0.060820      0.131407      0.088342
      4.06316      5.16533     16.73943         0.065461     -0.144092      0.071210
      3.63259      4.21907     18.17233         0.118478      0.009864     -0.132925
      6.45921      4.28706     16.88780        -0.159176     -0.001034      0.117613
      6.02517      3.37689     18.34857        -0.050239      0.141997     -0.097580
      6.00661      5.14978     18.37193        -0.049345     -0.151322     -0.100142
      0.00000      6.40959      7.50000        -0.000048     -0.000174      0.629306
      2.13653      0.00000      7.50000         0.000145     -0.000006      0.629738
      0.00000      0.00000      9.63653        -0.000198      0.000006      0.020639
      2.13653      6.40959      9.63653         0.001259     -0.000993      0.022229
      8.54600      6.41003     11.78273         0.001015     -0.001032     -0.001187
      2.13633      8.54610     11.78295        -0.000297     -0.000327     -0.002671
      0.00058      8.54574     13.90838        -0.002563      0.001127     -0.280876
      2.13574      6.40944     13.90545        -0.000336     -0.005015     -0.271482
      0.00000      2.13653      7.50000        -0.000060      0.000204      0.629106
      2.13653      4.27306      7.50000         0.000198      0.000003      0.630147
      0.00000      4.27306      9.63653        -0.001358      0.000163      0.023880
      2.13653      2.13653      9.63653         0.001203      0.000994      0.022253
      8.54598      2.13619     11.78273         0.001160     -0.000107     -0.001356
      2.13650      4.27309     11.78421         0.001796     -0.000224     -0.002664
      0.00122      4.27326     13.90461         0.003716     -0.001307     -0.270565
      2.13517      2.13639     13.90529         0.001046      0.005432     -0.270646
      4.27306      6.40959      7.50000         0.000046     -0.000282      0.630207
      6.40959      0.00000      7.50000        -0.000161     -0.000006      0.629651
      4.27306      0.00000      9.63653        -0.000313      0.000013      0.023346
      6.40959      6.40959      9.63653        -0.001703     -0.002229      0.022411
      4.27289      6.40899     11.78423         0.000035      0.000163     -0.005860
      6.40943      8.54607     11.78303         0.002229     -0.000180     -0.002942
      4.27267      0.00000     13.90506         0.001424     -0.000996     -0.269825
      6.41040      6.41067     13.90534        -0.001925     -0.003352     -0.269471
      4.27306      2.13653      7.50000         0.000051      0.000274      0.630215
      6.40959      4.27306      7.50000        -0.000221     -0.000010      0.630567
      4.27306      4.27306      9.63653         0.001302     -0.000135      0.025823
      6.40959      2.13653      9.63653        -0.001677      0.002127      0.022383
      4.27290      2.13708     11.78431         0.000003     -0.000294     -0.006792
      6.40951      4.27306     11.78524        -0.001707     -0.000002     -0.010997
      4.27225      4.27288     13.91118        -0.006636      0.002308     -0.218082
      6.41095      2.13511     13.90524        -0.003087      0.004339     -0.269346
      0.00000      6.40959      9.63653        -0.000444      0.001814      0.035855
      2.13653      0.00000      9.63653        -0.001409      0.000008      0.035472
      0.00000      0.00000      7.50000        -0.000008      0.000017     -0.273863
      2.13653      6.40959      7.50000        -0.000327      0.000311     -0.274200
      0.00006      6.41014     13.94700        -0.002462     -0.002109     -0.155104
      2.13654      8.54596     13.94701         0.000484      0.000554     -0.152431
      8.54593      8.54607     11.77791         0.000829     -0.000238      0.012099
      2.13620      6.41004     11.77759         0.001550      0.000585      0.011981
      0.00000      2.13653      9.63653        -0.000487     -0.001646      0.035902
      2.13653      4.27306      9.63653         0.001461      0.000001      0.038064
      0.00000      4.27306      7.50000         0.000257     -0.000017     -0.274316
      2.13653      2.13653      7.50000        -0.000340     -0.000313     -0.274250
      0.00004      2.13577     13.94693        -0.002384      0.002163     -0.155333
      2.13483      4.27296     13.94387         0.000843     -0.000243     -0.162277
      8.54593      4.27316     11.77713        -0.002037     -0.000614      0.012256
      2.13604      2.13608     11.77759         0.002531     -0.001199      0.012092
      4.27306      6.40959      9.63653        -0.000060     -0.001546      0.038575
      6.40959      0.00000      9.63653         0.000757     -0.000035      0.035968
      4.27306      0.00000      7.50000        -0.000030     -0.000007     -0.274166
      6.40959      6.40959      7.50000         0.000280      0.000503     -0.274258
      4.27311      6.41024     13.94681        -0.001631      0.000258     -0.141855
      6.40970      8.54593     13.94776        -0.001222      0.000850     -0.157632
      4.27293      8.54610     11.77732         0.001054      0.000266      0.016803
      6.40970      6.41025     11.77783        -0.000894     -0.002792      0.014273
      4.27306      2.13653      9.63653        -0.000049      0.001380      0.038889
      6.40959      4.27306      9.63653        -0.001669     -0.000075      0.039442
      4.27306      4.27306      7.50000        -0.000214     -0.000002     -0.274650
      6.40959      2.13653      7.50000         0.000295     -0.000506     -0.274295
      4.27313      2.13551     13.94669        -0.001587      0.002170     -0.138854
      6.41131      4.27296     13.94599         0.000981      0.000071     -0.135421
      4.27308      4.27300     11.77937         0.002700     -0.000225      0.006917
      6.40984      2.13584     11.77783        -0.001794      0.002472      0.014360
    total drift:                                0.000099      0.000154      0.001956

  FREE ENERGIE OF THE ION-ELECTRON SYSTEM (eV)
  free  energy   TOTEN  =      -483.53338874 eV

  energy  without entropy=     -483.53338874  energy(sigma->0) =     -483.53338874