 vasp.6.3.0 20Jan22 (build Mar 11 2022 13:48:16) complex

 executed on             LinuxIFC date 2024.02.11  21:53:44

 INCAR:
   SYSTEM = Oxide-Surface
   ISMEAR = 0
   SIGMA = 0.05
   EDIFF = 1E-5
   ALGO = ALL
   ISTART = 0
   IBRION = -1
   NSW = 0
   ISYM = 2
   DIPOL = 0.5 0.5 0.5
   IDIPOL = 3
   LDIPOL = .TRUE.
   GGA = MK
   LUSE_VDW = .TRUE.
   PARAM1 = 0.1234
   PARAM2 = 0.711357
   ZAB_VDW = -1.8867
   AGGAC = 0.0
   ENCUT = 600
   PREC = Accurate
   LASPH = .TRUE.
   LREAL = .FALSE.
   ISPIN = 1
   NELM = 200
   NELMIN = 8
   NCORE = 19
   KPAR = 1
   LWAVE = .FALSE.
   LCHARG = .FALSE.

 POTCAR:    PAW_PBE N 08Apr2002
 POTCAR:    PAW_PBE O 08Apr2002
 POTCAR:    PAW_PBE Mg_pv 13Apr2007
 POTCAR:    PAW_PBE O 08Apr2002
|               ----> ADVICE to this user running VASP <----                  |
|     You have switched on vdW-DFT.                                           |
|     This routine was written and supplied by Jiri Klimes. We recommend      |
|     that you carefully read and cite the following publications:            |
|       J. Klimes, D.R. Bowler, A. Michelides                                 |
|          J. Phys.: Cond Matt. 22 022201 (2010)                              |
|       J. Klimes, D.R. Bowler, A. Michelides                                 |
|          Phys. Rev. B. 83, 195131 (2011)                                    |
|     and references therein.                                                 |

   TITEL  = PAW_PBE N 08Apr2002
   POMASS =   14.001; ZVAL   =    5.000    mass and valenz
   ENMAX  =  400.000; ENMIN  =  300.000 eV

[...]

   TITEL  = PAW_PBE Mg_pv 13Apr2007
   POMASS =   24.305; ZVAL   =    8.000    mass and valenz
   ENMAX  =  403.929; ENMIN  =  302.947 eV

   TITEL  = PAW_PBE O 08Apr2002
   POMASS =   16.000; ZVAL   =    6.000    mass and valenz
   ENMAX  =  400.000; ENMIN  =  300.000 eV

  PAW_PBE N 08Apr2002                   :
  PAW_PBE O 08Apr2002                   :
  PAW_PBE Mg_pv 13Apr2007               :
  PAW_PBE O 08Apr2002                   :

 POSCAR:  N  O Mg  O
  positions in direct lattice
 exchange correlation table for  LEXCH =       43
   RHO(1)=    0.500       N(1)  =     2000
   RHO(2)=  100.500       N(2)  =     4000

 ion  position               nearest neighbor table
   1  0.525  0.547  0.791-   2 1.14
   2  0.624  0.638  0.783-   1 1.14   3 1.20
   3  0.727  0.733  0.774-   2 1.20
   4  0.000  0.750  0.352-  36 2.11  38 2.11  39 2.11  46 2.11  55 2.11
   5  0.250  0.000  0.352-  37 2.11  38 2.11  39 2.11  47 2.11  54 2.11
   6  0.000  0.000  0.451-  38 2.11  37 2.11  36 2.11  44 2.11  53 2.11  42 2.12
   7  0.250  0.750  0.451-  39 2.11  37 2.11  36 2.11  45 2.11  52 2.11  43 2.12
   8  1.000  0.750  0.550-  59 2.11  42 2.11  50 2.11  43 2.11  36 2.13  40 2.14
   9  0.250  1.000  0.550-  42 2.11  51 2.11  58 2.11  43 2.11  37 2.13  41 2.15
  10  0.000  0.000  0.649-  57 2.11  40 2.11  42 2.11  48 2.11  41 2.11
  11  0.250  0.750  0.649-  40 2.11  43 2.11  49 2.11  56 2.11  41 2.11
  12  0.000  0.250  0.352-  44 2.11  38 2.11  46 2.11  47 2.11  63 2.11
  13  0.250  0.500  0.352-  45 2.11  39 2.11  46 2.11  47 2.11  62 2.11
  14  0.000  0.500  0.451-  46 2.11  44 2.11  45 2.11  36 2.11  61 2.11  50 2.12
  15  0.250  0.250  0.451-  47 2.11  44 2.11  45 2.11  37 2.11  60 2.11  51 2.12
  16  0.000  0.250  0.550-  42 2.11  50 2.11  51 2.11  67 2.11  44 2.13  48 2.15
  17  0.250  0.500  0.550-  50 2.11  51 2.11  43 2.11  66 2.11  45 2.12  49 2.15
  18  0.000  0.500  0.649-  49 2.11  50 2.11  40 2.11  48 2.11  65 2.12
  19  0.250  0.250  0.649-  49 2.11  64 2.11  48 2.11  41 2.11  51 2.11
  20  0.500  0.750  0.352-  52 2.11  39 2.11  54 2.11  55 2.11  62 2.11
  21  0.750  0.000  0.352-  53 2.11  38 2.11  54 2.11  55 2.11  63 2.11
  22  0.500  0.000  0.451-  54 2.11  52 2.11  53 2.11  37 2.11  60 2.11  58 2.12
  23  0.750  0.750  0.451-  55 2.11  52 2.11  53 2.11  36 2.11  61 2.11  59 2.12
  24  0.500  0.750  0.550-  59 2.11  58 2.11  66 2.11  43 2.11  52 2.13  56 2.16
  25  0.750  1.000  0.550-  59 2.11  42 2.11  58 2.11  67 2.11  53 2.13  57 2.14
  26  0.500  0.000  0.649-  64 2.11  58 2.11  57 2.11  41 2.11  56 2.11
  27  0.751  0.751  0.650-  40 2.11  57 2.11  65 2.12  56 2.12  59 2.12
  28  0.500  0.250  0.352-  60 2.11  54 2.11  47 2.11  62 2.11  63 2.11
  29  0.750  0.500  0.352-  61 2.11  55 2.11  46 2.11  62 2.11  63 2.11
  30  0.500  0.500  0.451-  62 2.11  52 2.11  60 2.11  61 2.11  45 2.11  66 2.12
  31  0.750  0.250  0.451-  63 2.11  53 2.11  60 2.11  61 2.11  44 2.11  67 2.12
  32  0.500  0.250  0.550-  58 2.11  51 2.11  67 2.11  66 2.11  60 2.12  64 2.15
  33  0.750  0.500  0.550-  59 2.11  50 2.11  66 2.11  67 2.11  61 2.13  65 2.16
  34  0.499  0.499  0.648-  66 2.10  49 2.10  64 2.10  65 2.12  56 2.12
  35  0.750  0.250  0.649-  57 2.11  67 2.11  64 2.11  65 2.11  48 2.11
  36  0.000  0.750  0.451-   4 2.11   6 2.11   7 2.11  14 2.11  23 2.11   8 2.13
  37  0.250  0.000  0.451-   5 2.11   6 2.11   7 2.11  15 2.11  22 2.11   9 2.13
  38  0.000  0.000  0.352-   6 2.11   5 2.11   4 2.11  12 2.11  21 2.11
  39  0.250  0.750  0.352-   7 2.11   5 2.11   4 2.11  13 2.11  20 2.11
  40  0.000  0.750  0.651-  11 2.11  27 2.11  18 2.11  10 2.11   8 2.14
  41  0.250  1.000  0.651-  19 2.11  10 2.11  26 2.11  11 2.11   9 2.15
  42  0.000  0.000  0.550-   9 2.11  16 2.11  25 2.11  10 2.11   8 2.11   6 2.12
  43  0.250  0.750  0.550-  11 2.11   9 2.11  24 2.11  17 2.11   8 2.11   7 2.12
  44  0.000  0.250  0.451-  12 2.11   6 2.11  14 2.11  15 2.11  31 2.11  16 2.13
  45  0.250  0.500  0.451-  13 2.11   7 2.11  14 2.11  15 2.11  30 2.11  17 2.12
  46  0.000  0.500  0.352-  14 2.11  12 2.11  13 2.11   4 2.11  29 2.11
  47  0.250  0.250  0.352-  15 2.11  12 2.11  13 2.11   5 2.11  28 2.11
  48  1.000  0.250  0.651-  19 2.11  10 2.11  18 2.11  35 2.11  16 2.15
  49  0.250  0.500  0.651-  34 2.10  18 2.11  19 2.11  11 2.11  17 2.15
  50  1.000  0.500  0.550-  33 2.11  18 2.11  16 2.11  17 2.11   8 2.11  14 2.12
  51  0.250  0.250  0.550-   9 2.11  16 2.11  32 2.11  17 2.11  19 2.11  15 2.12
  52  0.500  0.750  0.451-  20 2.11   7 2.11  22 2.11  23 2.11  30 2.11  24 2.13
  53  0.750  0.000  0.451-  21 2.11   6 2.11  22 2.11  23 2.11  31 2.11  25 2.13
  54  0.500  0.000  0.352-  22 2.11  20 2.11  21 2.11   5 2.11  28 2.11
  55  0.750  0.750  0.352-  23 2.11  20 2.11  21 2.11   4 2.11  29 2.11
  56  0.500  0.750  0.651-  11 2.11  26 2.11  34 2.12  27 2.12  24 2.16
  57  0.750  0.001  0.651-  35 2.11  27 2.11  26 2.11  10 2.11  25 2.14
  58  0.500  1.000  0.550-  26 2.11  24 2.11  32 2.11   9 2.11  25 2.11  22 2.12
  59  0.750  0.750  0.550-  33 2.11  24 2.11   8 2.11  25 2.11  27 2.12  23 2.12
  60  0.500  0.250  0.451-  28 2.11  22 2.11  15 2.11  30 2.11  31 2.11  32 2.12
  61  0.750  0.500  0.451-  29 2.11  23 2.11  14 2.11  30 2.11  31 2.11  33 2.13
  62  0.500  0.500  0.352-  30 2.11  20 2.11  28 2.11  29 2.11  13 2.11
  63  0.750  0.250  0.352-  31 2.11  21 2.11  28 2.11  29 2.11  12 2.11
  64  0.500  0.250  0.651-  34 2.10  26 2.11  19 2.11  35 2.11  32 2.15
  65  0.750  0.500  0.651-  35 2.11  18 2.12  34 2.12  27 2.12  33 2.16
  66  0.500  0.500  0.550-  34 2.10  33 2.11  24 2.11  32 2.11  17 2.11  30 2.12
  67  0.750  0.250  0.550-  35 2.11  16 2.11  33 2.11  32 2.11  25 2.11  31 2.12

  LATTYP: Found a simple tetragonal cell.
 ALAT       =     8.4409846542
 C/A-ratio  =     2.5270438657

  Lattice vectors:

 A1 = (   8.4409846542,   0.0000000000,   0.0000000000)
 A2 = (   0.0000000000,   8.4409846542,   0.0000000000)
 A3 = (   0.0000000000,   0.0000000000,  21.3307384906)

Analysis of symmetry for initial positions (statically):
 Subroutine PRICEL returns:
 Original cell was already a primitive cell.

 Routine SETGRP: Setting up the symmetry group for a
 simple tetragonal supercell.

 Subroutine GETGRP returns: Found  1 space group operations
 (whereof  1 operations were pure point group operations)
 out of a pool of 16 trial point group operations.

The static configuration has the point symmetry C_1 .

Analysis of symmetry for dynamics (positions and initial velocities):
 Subroutine PRICEL returns:
 Original cell was already a primitive cell.

[...]

The dynamic configuration has the point symmetry C_1 .

Analysis of constrained symmetry for selective dynamics:
 Subroutine PRICEL returns:
 Original cell was already a primitive cell.

 Routine SETGRP: Setting up the symmetry group for a
 simple tetragonal supercell.

 Subroutine GETGRP returns: Found  1 space group operations
 (whereof  1 operations were pure point group operations)
 out of a pool of 16 trial point group operations.

The constrained configuration has the point symmetry C_1 .

 Subroutine INISYM returns: Found  1 space group operations
 (whereof  1 operations are pure point group operations),
 and found     1 'primitive' translations

                                     Primitive cell

  volume of cell :    1519.8199

  direct lattice vectors                    reciprocal lattice vectors
     8.440984654  0.000000000  0.000000000     0.118469591  0.000000000  0.000000000
     0.000000000  8.440984654  0.000000000     0.000000000  0.118469591  0.000000000
     0.000000000  0.000000000 21.330738491     0.000000000  0.000000000  0.046880702

  length of vectors
     8.440984654  8.440984654 21.330738491     0.118469591  0.118469591  0.046880702

  position of ions in fractional coordinates (direct lattice)
     0.524930995  0.547217210  0.790832042
     0.623755693  0.637956408  0.783228089
     0.727359511  0.733121747  0.774357699
     0.000000000  0.750000000  0.351605267
     0.250000000  0.000000000  0.351605267
     0.000000000  0.000000000  0.450535089
     0.250000000  0.750000000  0.450535089
     0.999952972  0.750069933  0.550182699
     0.249960180  0.999999612  0.550158547
     0.000071767  0.000081746  0.648822182
     0.249898085  0.749854229  0.648747211
     0.000000000  0.250000000  0.351605267
     0.250000000  0.500000000  0.351605267
     0.000000000  0.500000000  0.450535089
     0.250000000  0.250000000  0.450535089
     0.000003654  0.249979963  0.550161251
     0.249748591  0.499976608  0.550096481
     0.000002192  0.500168966  0.648801089
     0.249937473  0.249969046  0.648946383
     0.500000000  0.750000000  0.351605267
     0.750000000  0.000000000  0.351605267
     0.500000000  0.000000000  0.450535089
     0.750000000  0.750000000  0.450535089
     0.500260010  0.749982125  0.550295780
     0.750090200  0.999950935  0.550181221
     0.500174938  0.000063538  0.648739290
     0.751039523  0.750995909  0.649603103
     0.500000000  0.250000000  0.351605267
     0.750000000  0.500000000  0.351605267
     0.500000000  0.500000000  0.450535089
     0.750000000  0.250000000  0.450535089
     0.499969996  0.249784160  0.550090882
     0.749966853  0.500263841  0.550296262
     0.498939953  0.498985897  0.648486242
     0.749869906  0.249927386  0.648747568
     0.000000000  0.750000000  0.450535089
     0.250000000  0.000000000  0.450535089
     0.000000000  0.000000000  0.351605267
     0.250000000  0.750000000  0.351605267
     0.000499353  0.750094498  0.650694193
     0.250109797  0.999979088  0.651114683
[...]
   2.10991005  8.44098138 11.73528809
   0.00060578  0.00069001 13.83985629
   2.10938590  6.32950804 13.83825711
   0.00000000  2.11024616  7.50000000
   2.11024616  4.22049233  7.50000000
   0.00000000  4.22049233  9.61024616
   2.11024616  2.11024616  9.61024616
   0.00003084  2.11007703 11.73534578
   2.10812402  4.22029488 11.73396418
   0.00001851  4.22191857 13.83940637
   2.10971837  2.10998488 13.84250560
   4.22049233  6.33073849  7.50000000
   6.33073849  0.00000000  7.50000000
   4.22049233  0.00000000  9.61024616
   6.33073849  6.33073849  9.61024616
   4.22268707  6.33058760 11.73821538
   6.33149987  8.44057049 11.73577174
   4.22196898  0.00053632 13.83808815
   6.33951309  6.33914494 13.85651391
   4.22049233  2.11024616  7.50000000
   6.33073849  4.22049233  7.50000000
   4.22049233  4.22049233  9.61024616
   6.33073849  2.11024616  9.61024616
   4.22023907  2.10842426 11.73384475
   6.33045870  4.22271940 11.73822565
   4.21154449  4.21193230 13.83269045
   6.32964037  2.10963323 13.83826472
   0.00000000  6.33073849  9.61024616
   2.11024616  0.00000000  9.61024616
   0.00000000  0.00000000  7.50000000
   2.11024616  6.33073849  7.50000000
   0.00421503  6.33153615 13.87978768
   2.11117296  8.44080814 13.88875702
   0.00115543  0.00111613 11.72908549
   2.11224157  6.33097241 11.72880589
   0.00000000  2.11024616  9.61024616
   2.11024616  4.22049233  9.61024616
   0.00000000  4.22049233  7.50000000
   2.11024616  2.11024616  7.50000000
   8.44075525  2.11123502 13.88848895
   2.10789336  4.21954353 13.88085968
   8.43910704  4.21985346 11.72985496
   2.10989858  2.10975346 11.72981997
   4.22049233  6.33073849  9.61024616
   6.33073849  0.00000000  9.61024616
   4.22049233  0.00000000  7.50000000
   6.33073849  6.33073849  7.50000000
   4.21965254  6.32822937 13.89557450
   6.33151648  0.00448679 13.87920754
   4.21982310  8.43956274 11.72954185
   6.33011222  6.33006053 11.73374919
   4.22049233  2.11024616  9.61024616
   6.33073849  4.22049233  9.61024616
   4.22049233  4.22049233  7.50000000
   6.33073849  2.11024616  7.50000000
   4.21932844  2.10810534 13.88220207
   6.32669817  4.21993676 13.89683681
   4.22033761  4.22035582 11.72949341
   6.33078666  2.11237071 11.72889608

--------------------------------------- Iteration      FINAL  ---------------------------------------

--------------------OUTCAR has been truncated-------------------------

[...]

--------------------OUTCAR has been truncated-------------------------

  FORCE on cell =-STRESS in cart. coord.  units (eV):
  Direction    XX          YY          ZZ          XY          YZ          ZX
  Alpha Z   926.74691   926.74691   926.74691
  Ewald  157170.30703157097.13218************   401.80393   -85.17924   -93.68850
  Hartree167548.90909167513.54940************   179.39194   -39.19763   -42.64726
  E(xc)   -2527.34511 -2527.52972 -2528.75306     1.08662    -0.21911    -0.23833
  Local  ************************334009.52945  -539.80551   115.96500   126.95942
  n-local -2880.44921 -2879.98389 -2897.15974    -2.69614     0.53811     0.54856
  augment  1059.28025  1059.52800  1051.27966    -1.46003     0.31509     0.35499
  Kinetic  7611.25635  7617.82952  7688.06336   -38.55336     7.85142     8.85649
  Fock        0.00000     0.00000     0.00000     0.00000     0.00000     0.00000
  Total     -30.92599   -30.82715    -4.46944    -0.23256     0.07363     0.14537
  in kB     -32.60184   -32.49765    -4.71164    -0.24516     0.07762     0.15325

 VOLUME and BASIS-vectors are now :
  energy-cutoff  :      600.00
  volume of cell :     1519.82
      direct lattice vectors                 reciprocal lattice vectors
     8.440984654  0.000000000  0.000000000     0.118469591  0.000000000  0.000000000
     0.000000000  8.440984654  0.000000000     0.000000000  0.118469591  0.000000000
     0.000000000  0.000000000 21.330738491     0.000000000  0.000000000  0.046880702

  length of vectors
     8.440984654  8.440984654 21.330738491     0.118469591  0.118469591  0.046880702

 FORCES acting on ions:
    Electron-Ion                     Ewald-Force                    Non-Local-Force
   0.214E+03 0.196E+03 -.124E+04   -.250E+03 -.230E+03 0.125E+04   0.371E+02 0.340E+02 -.736E+01
   0.166E+02 0.153E+02 -.124E+04   -.165E+02 -.153E+02 0.124E+04   -.278E+00 -.263E+00 -.118E+00
   -.219E+03 -.201E+03 -.149E+04   0.266E+03 0.244E+03 0.149E+04   -.468E+02 -.430E+02 0.856E+01
   -.209E+00 -.164E+00 0.209E+04   0.207E+00 0.164E+00 -.208E+04   0.992E-03 0.157E-03 -.679E+01
   0.185E+00 -.213E+00 0.209E+04   -.185E+00 0.213E+00 -.208E+04   -.240E-03 0.266E-03 -.680E+01
   -.837E+00 -.927E+00 0.736E+03   0.851E+00 0.940E+00 -.737E+03   -.107E-01 -.974E-02 0.484E+00
   0.870E+00 -.758E+00 0.738E+03   -.839E+00 0.774E+00 -.738E+03   -.222E-01 -.117E-01 0.469E+00
   -.629E+01 -.289E+01 -.602E+03   0.626E+01 0.290E+01 0.602E+03   0.323E-01 -.873E-02 -.343E+00
   0.313E+01 -.413E+01 -.612E+03   -.314E+01 0.412E+01 0.612E+03   0.119E-01 0.876E-03 -.137E+00
   -.197E+02 -.204E+02 -.196E+04   0.197E+02 0.204E+02 0.196E+04   0.107E-01 0.738E-02 0.573E+01
   0.224E+02 -.154E+02 -.195E+04   -.225E+02 0.154E+02 0.194E+04   0.109E+00 0.136E-01 0.572E+01
   -.189E+00 0.164E+00 0.209E+04   0.189E+00 -.163E+00 -.208E+04   0.232E-03 -.252E-03 -.680E+01
   0.208E+00 0.214E+00 0.209E+04   -.208E+00 -.214E+00 -.208E+04   0.293E-03 -.201E-03 -.679E+01
   -.870E+00 0.947E+00 0.737E+03   0.832E+00 -.957E+00 -.738E+03   0.265E-01 0.818E-02 0.500E+00
   0.826E+00 0.740E+00 0.736E+03   -.840E+00 -.757E+00 -.736E+03   0.110E-01 0.123E-01 0.494E+00
   -.365E+01 0.277E+01 -.613E+03   0.365E+01 -.277E+01 0.613E+03   0.641E-04 0.682E-02 -.145E+00
   0.509E+01 0.424E+01 -.603E+03   -.511E+01 -.424E+01 0.604E+03   0.281E-01 0.786E-03 -.253E+00
   -.250E+02 0.218E+02 -.195E+04   0.252E+02 -.218E+02 0.194E+04   -.131E+00 -.122E-01 0.573E+01
   0.141E+02 0.139E+02 -.197E+04   -.141E+02 -.139E+02 0.196E+04   0.212E-02 -.430E-02 0.573E+01
   0.211E+00 -.189E+00 0.209E+04   -.209E+00 0.189E+00 -.208E+04   -.147E-02 0.294E-03 -.681E+01
   -.186E+00 -.232E+00 0.209E+04   0.185E+00 0.231E+00 -.208E+04   0.118E-03 0.104E-02 -.679E+01
   0.857E+00 -.973E+00 0.738E+03   -.869E+00 0.938E+00 -.738E+03   0.902E-02 0.243E-01 0.496E+00
   -.894E+00 -.790E+00 0.739E+03   0.873E+00 0.769E+00 -.740E+03   0.154E-01 0.162E-01 0.540E+00
   0.649E+01 -.491E+01 -.595E+03   -.645E+01 0.493E+01 0.595E+03   -.388E-01 -.218E-01 -.890E-01
   -.326E+01 -.677E+01 -.601E+03   0.327E+01 0.674E+01 0.602E+03   -.128E-01 0.325E-01 -.353E+00
   0.213E+02 -.287E+02 -.194E+04   -.212E+02 0.288E+02 0.194E+04   -.148E-01 -.116E+00 0.574E+01
   -.309E+02 -.269E+02 -.185E+04   0.311E+02 0.271E+02 0.184E+04   -.242E+00 -.221E+00 0.542E+01
   0.190E+00 0.187E+00 0.209E+04   -.190E+00 -.187E+00 -.208E+04   -.217E-03 0.241E-03 -.679E+01
   -.211E+00 0.235E+00 0.209E+04   0.210E+00 -.233E+00 -.208E+04   0.361E-03 -.152E-02 -.681E+01
   0.887E+00 0.995E+00 0.739E+03   -.864E+00 -.972E+00 -.740E+03   -.170E-01 -.167E-01 0.502E+00
   -.845E+00 0.770E+00 0.737E+03   0.859E+00 -.738E+00 -.738E+03   -.103E-01 -.231E-01 0.471E+00
   0.374E+01 0.467E+01 -.604E+03   -.375E+01 -.470E+01 0.604E+03   0.249E-02 0.276E-01 -.221E+00
   -.530E+01 0.697E+01 -.596E+03   0.532E+01 -.694E+01 0.596E+03   -.218E-01 -.391E-01 -.706E-01
   0.311E+02 0.359E+02 -.187E+04   -.314E+02 -.362E+02 0.187E+04   0.200E+00 0.221E+00 0.574E+01
   -.152E+02 0.191E+02 -.195E+04   0.152E+02 -.192E+02 0.194E+04   0.572E-02 0.109E+00 0.572E+01
   -.722E+00 -.475E+00 0.553E+03   0.726E+00 0.473E+00 -.553E+03   -.620E-02 0.183E-02 -.858E-01
   0.536E+00 -.671E+00 0.552E+03   -.536E+00 0.665E+00 -.551E+03   0.368E-03 0.735E-02 -.107E+00
   -.149E+00 -.166E+00 0.157E+04   0.150E+00 0.167E+00 -.157E+04   -.150E-02 -.127E-02 0.360E+01
   0.149E+00 -.133E+00 0.157E+04   -.146E+00 0.135E+00 -.157E+04   -.321E-02 -.252E-02 0.360E+01
   -.285E+02 -.879E+01 -.147E+04   0.285E+02 0.879E+01 0.147E+04   0.386E-02 -.990E-03 -.516E+01
   0.880E+01 -.110E+02 -.150E+04   -.878E+01 0.110E+02 0.150E+04   -.120E-01 0.243E-01 -.513E+01
   -.345E+01 -.367E+01 -.452E+03   0.343E+01 0.365E+01 0.452E+03   0.142E-01 0.140E-01 0.244E+00
   0.332E+01 -.277E+01 -.447E+03   -.332E+01 0.277E+01 0.447E+03   -.532E-02 -.106E-02 0.278E+00
   -.592E+00 0.469E+00 0.551E+03   0.587E+00 -.470E+00 -.551E+03   0.712E-02 0.187E-02 -.106E+00
   0.672E+00 0.679E+00 0.553E+03   -.659E+00 -.673E+00 -.553E+03   -.166E-01 -.882E-02 -.695E-01
   -.148E+00 0.167E+00 0.157E+04   0.145E+00 -.167E+00 -.157E+04   0.419E-02 0.135E-02 0.360E+01
   0.147E+00 0.132E+00 0.157E+04   -.149E+00 -.134E+00 -.157E+04   0.224E-02 0.252E-02 0.360E+01
   -.957E+01 0.772E+01 -.150E+04   0.954E+01 -.771E+01 0.150E+04   0.220E-01 -.784E-02 -.513E+01
   0.212E+02 0.122E+02 -.148E+04   -.213E+02 -.122E+02 0.148E+04   0.710E-01 -.115E-01 -.519E+01
   -.369E+01 0.379E+01 -.448E+03   0.369E+01 -.378E+01 0.448E+03   0.225E-02 -.184E-02 0.276E+00
   0.280E+01 0.265E+01 -.454E+03   -.279E+01 -.264E+01 0.454E+03   -.115E-01 -.111E-01 0.203E+00
   0.762E+00 -.646E+00 0.554E+03   -.779E+00 0.650E+00 -.554E+03   0.240E-01 -.644E-02 -.135E+00
   -.543E+00 -.800E+00 0.553E+03   0.540E+00 0.804E+00 -.553E+03   0.350E-02 -.585E-02 -.848E-01
   0.150E+00 -.167E+00 0.157E+04   -.151E+00 0.164E+00 -.157E+04   0.159E-02 0.413E-02 0.360E+01
   -.150E+00 -.134E+00 0.157E+04   0.148E+00 0.131E+00 -.157E+04   0.399E-02 0.411E-02 0.360E+01
   0.347E+02 -.254E+02 -.143E+04   -.346E+02 0.254E+02 0.143E+04   -.105E+00 0.191E-01 -.484E+01
   -.100E+02 -.302E+02 -.147E+04   0.100E+02 0.302E+02 0.147E+04   -.194E-02 0.162E-01 -.517E+01
   0.357E+01 -.418E+01 -.447E+03   -.356E+01 0.417E+01 0.447E+03   -.298E-02 0.799E-02 0.290E+00
   -.353E+01 -.309E+01 -.440E+03   0.355E+01 0.311E+01 0.440E+03   -.112E-01 -.144E-01 0.877E-01
   0.601E+00 0.604E+00 0.553E+03   -.595E+00 -.594E+00 -.553E+03   -.852E-02 -.130E-01 -.702E-01
   -.717E+00 0.838E+00 0.554E+03   0.722E+00 -.856E+00 -.554E+03   -.738E-02 0.238E-01 -.137E+00
   0.151E+00 0.169E+00 0.157E+04   -.147E+00 -.165E+00 -.157E+04   -.521E-02 -.493E-02 0.360E+01
   -.148E+00 0.132E+00 0.157E+04   0.150E+00 -.129E+00 -.157E+04   -.224E-02 -.335E-02 0.360E+01
   0.104E+02 0.196E+02 -.148E+04   -.104E+02 -.197E+02 0.149E+04   -.150E-01 0.681E-01 -.518E+01
   -.261E+02 0.360E+02 -.143E+04   0.261E+02 -.359E+02 0.144E+04   -.329E-02 -.109E+00 -.489E+01
   0.388E+01 0.438E+01 -.439E+03   -.389E+01 -.439E+01 0.438E+03   0.109E-01 0.558E-02 0.390E+00
   -.292E+01 0.290E+01 -.448E+03   0.292E+01 -.290E+01 0.448E+03   -.434E-02 0.190E-02 0.281E+00
   0.101E+02 0.933E+01 0.160E+02   0.398E-12 0.409E-12 0.699E-11   -.101E+02 -.933E+01 -.160E+02

 POSITION                                       TOTAL-FORCE (eV/Angst)
      4.43093      4.61905     16.86903         0.400634      0.353966     -0.084648
      5.26511      5.38498     16.70683        -0.239148     -0.223381      0.055376
      6.13963      6.18827     16.51762        -0.148473     -0.132644     -0.006905
      0.00000      6.33074      7.50000        -0.000348     -0.000104      0.315144
      2.11025      0.00000      7.50000         0.000029     -0.000166      0.317265
      0.00000      0.00000      9.61025         0.003360      0.003014      0.043443
      2.11025      6.33074      9.61025         0.008840      0.004083      0.049018
      8.44059      6.33133     11.73580        -0.000022     -0.001226      0.034640
      2.10991      8.44098     11.73529         0.004402     -0.002985      0.029496
      0.00061      0.00069     13.83986         0.002790      0.003361      0.030070
      2.10939      6.32951     13.83826        -0.008745      0.006099      0.022762
      0.00000      2.11025      7.50000        -0.000082      0.000045      0.317063
      2.11025      4.22049      7.50000        -0.000065      0.000173      0.314568
      0.00000      4.22049      9.61025        -0.010985     -0.002373      0.044629
      2.11025      2.11025      9.61025        -0.003893     -0.004284      0.043223
      0.00003      2.11008     11.73535        -0.003510      0.003923      0.030181
      2.10812      4.22029     11.73396         0.003619      0.000345      0.030443
      0.00002      4.22192     13.83941         0.005627     -0.004783      0.025829
      2.10972      2.10998     13.84251        -0.004985     -0.004188      0.023394
      4.22049      6.33074      7.50000         0.000385     -0.000144      0.318784
      6.33074      0.00000      7.50000        -0.000123     -0.000354      0.315055
      4.22049      0.00000      9.61025        -0.002725     -0.010157      0.044436
      6.33074      6.33074      9.61025        -0.004597     -0.004897      0.052447
      4.22269      6.33059     11.73822        -0.002575     -0.001480      0.027372
      6.33150      8.44057     11.73577        -0.001820      0.000543      0.034556
      4.22197      0.00054     13.83809        -0.005396      0.006573      0.023810
      6.33951      6.33914     13.85651         0.007948      0.008268      0.057369
      4.22049      2.11025      7.50000         0.000088     -0.000044      0.314702
      6.33074      4.22049      7.50000        -0.000160      0.000457      0.318854
      4.22049      4.22049      9.61025         0.005439      0.005594      0.046106
      6.33074      2.11025      9.61025         0.003714      0.009076      0.048934
      4.22024      2.10842     11.73384         0.000093      0.003221      0.029991
      6.33046      4.22272     11.73823        -0.002382     -0.002256      0.027585
      4.21154      4.21193     13.83269        -0.007680     -0.007411      0.021927
      6.32964      2.10963     13.83826         0.005330     -0.007122      0.025378
      0.00000      6.33074      9.61025        -0.001869      0.000170      0.075585
      2.11025      0.00000      9.61025         0.000379      0.001906      0.065794
      0.00000      0.00000      7.50000        -0.000442     -0.000422     -0.400911
      2.11025      6.33074      7.50000        -0.000905     -0.000753     -0.401076
      0.00422      6.33154     13.87979         0.003981     -0.000735     -0.096741
      2.11117      8.44081     13.88876         0.000535     -0.001080     -0.104649
      0.00116      0.00112     11.72909        -0.003165     -0.002972      0.008198
      2.11224      6.33097     11.72881        -0.005672     -0.002680      0.011605
      0.00000      2.11025      9.61025         0.001874      0.000757      0.066663
      2.11025      4.22049      9.61025        -0.003802     -0.002414      0.071372
      0.00000      4.22049      7.50000         0.001197      0.000383     -0.401106
      2.11025      2.11025      7.50000         0.000553      0.000671     -0.400619
      8.44076      2.11124     13.88849        -0.001527      0.000731     -0.104439
      2.10789      4.21954     13.88086         0.002313      0.001434     -0.098948
      8.43911      4.21985     11.72985         0.002260      0.004988      0.009363
      2.10990      2.10975     11.72982        -0.000491      0.000526      0.005370
      4.22049      6.33074      9.61025         0.006223     -0.001904      0.071465
      6.33074      0.00000      9.61025         0.000585     -0.001751      0.075739
      4.22049      0.00000      7.50000         0.000441      0.001125     -0.401209
      6.33074      6.33074      7.50000         0.001144      0.001191     -0.401896
      4.21965      6.32823     13.89557        -0.005113     -0.001367     -0.087089
      6.33152      0.00449     13.87921        -0.001340      0.004649     -0.096572
      4.21982      8.43956     11.72954         0.004836      0.002224      0.009462
      6.33011      6.33006     11.73375         0.004072      0.003935      0.006096
      4.22049      2.11025      9.61025        -0.002315     -0.002777      0.070488
      6.33074      4.22049      9.61025        -0.002176      0.006106      0.071103
      4.22049      4.22049      7.50000        -0.001537     -0.001428     -0.401281
      6.33074      2.11025      7.50000        -0.000636     -0.001008     -0.401071
      4.21933      2.10811     13.88220         0.001320      0.002820     -0.099543
      6.32670      4.21994     13.89684        -0.001625     -0.005184     -0.088676
      4.22034      4.22036     11.72949        -0.001431     -0.001129      0.013256
      6.33079      2.11237     11.72890        -0.002250     -0.004756      0.011967
    total drift:                                0.001608      0.001811     -0.016226

  FREE ENERGIE OF THE ION-ELECTRON SYSTEM (eV)
  free  energy   TOTEN  =      -282.35586715 eV

  energy  without entropy=     -282.35586715  energy(sigma->0) =     -282.35586715