 vasp.6.3.0 20Jan22 (build Mar 11 2022 13:48:16) complex

 executed on             LinuxIFC date 2024.02.12  16:10:36

 INCAR:
   SYSTEM = Oxide-Surface
   ISMEAR = 0
   SIGMA = 0.05
   EDIFF = 1E-5
   ALGO = ALL
   ISTART = 0
   IBRION = -1
   NSW = 0
   ISYM = 2
   DIPOL = 0.5 0.5 0.5
   IDIPOL = 3
   LDIPOL = .TRUE.
   GGA = PE
   IVDW = 263
   ENCUT = 600
   PREC = Accurate
   LASPH = .TRUE.
   LREAL = .FALSE.
   ISPIN = 1
   NELM = 200
   NELMIN = 8
   NCORE = 19
   KPAR = 1
   LWAVE = .FALSE.
   LCHARG = .FALSE.

 POTCAR:    PAW_PBE C 08Apr2002
 POTCAR:    PAW_PBE O 08Apr2002
 POTCAR:    PAW_PBE Mg_pv 13Apr2007
 POTCAR:    PAW_PBE O 08Apr2002
 POTCAR:    PAW_PBE C 08Apr2002
   VRHFIN =C: s2p2

   TITEL  = PAW_PBE C 08Apr2002
   POMASS =   12.011; ZVAL   =    4.000    mass and valenz
   ENMAX  =  400.000; ENMIN  =  300.000 eV

[...]

   TITEL  = PAW_PBE Mg_pv 13Apr2007
   POMASS =   24.305; ZVAL   =    8.000    mass and valenz
   ENMAX  =  403.929; ENMIN  =  302.947 eV

   TITEL  = PAW_PBE O 08Apr2002
   POMASS =   16.000; ZVAL   =    6.000    mass and valenz
   ENMAX  =  400.000; ENMIN  =  300.000 eV

  PAW_PBE C 08Apr2002                   :
  PAW_PBE O 08Apr2002                   :
  PAW_PBE Mg_pv 13Apr2007               :
  PAW_PBE O 08Apr2002                   :

 POSCAR:  C  O Mg  O
  positions in direct lattice
 exchange correlation table for  LEXCH =        8
   RHO(1)=    0.500       N(1)  =     2000
   RHO(2)=  100.500       N(2)  =     4000

 ion  position               nearest neighbor table
   1  0.500  0.750  0.724-   3 1.26   2 1.26  56 1.47
   2  0.500  0.887  0.747-   1 1.26  26 2.17
   3  0.500  0.613  0.747-   1 1.26  34 2.17
   4  0.000  0.750  0.352-  36 2.11  38 2.11  39 2.11  46 2.11  55 2.11
   5  0.250  0.000  0.352-  37 2.11  38 2.11  39 2.11  47 2.11  54 2.11
   6  0.000  0.000  0.451-  42 2.11  38 2.11  36 2.11  37 2.11  44 2.11  53 2.11
   7  0.250  0.750  0.451-  39 2.11  37 2.11  36 2.11  45 2.11  52 2.11  43 2.13
   8  1.000  0.750  0.549-  36 2.10  50 2.11  42 2.11  59 2.13  43 2.13  40 2.14
   9  0.252  0.001  0.551-  58 2.09  51 2.10  41 2.11  43 2.12  42 2.13  37 2.14
  10  0.000  0.002  0.649-  48 2.09  41 2.10  57 2.10  42 2.12  40 2.13
  11  0.237  0.750  0.647-  40 2.00  43 2.08  49 2.10  41 2.10  56 2.22
  12  0.000  0.250  0.352-  44 2.11  38 2.11  46 2.11  47 2.11  63 2.11
  13  0.250  0.500  0.352-  45 2.11  39 2.11  46 2.11  47 2.11  62 2.11
  14  0.000  0.500  0.451-  50 2.11  46 2.11  45 2.11  36 2.11  44 2.11  61 2.11
  15  0.250  0.250  0.451-  47 2.11  44 2.11  45 2.11  37 2.11  60 2.11  51 2.12
  16  0.000  0.250  0.550-  44 2.11  51 2.11  67 2.11  50 2.11  42 2.11  48 2.14
  17  0.252  0.499  0.551-  66 2.09  51 2.10  49 2.11  43 2.12  50 2.13  45 2.14
  18  0.000  0.498  0.649-  48 2.09  49 2.10  65 2.10  50 2.12  40 2.13
  19  0.248  0.250  0.649-  48 2.09  51 2.11  49 2.12  41 2.12  64 2.13
  20  0.500  0.750  0.352-  52 2.11  39 2.11  54 2.11  55 2.11  62 2.11
  21  0.750  0.000  0.352-  53 2.11  38 2.11  54 2.11  55 2.11  63 2.11
  22  0.500  0.000  0.451-  54 2.11  52 2.11  53 2.11  37 2.11  60 2.11  58 2.15
  23  0.750  0.750  0.451-  55 2.11  52 2.11  53 2.11  36 2.11  61 2.11  59 2.13
  24  0.500  0.750  0.548-  52 2.07  59 2.09  43 2.09  66 2.09  58 2.09
  25  0.748  0.001  0.551-  58 2.09  67 2.10  57 2.11  59 2.12  42 2.13  53 2.14
  26  0.500  0.011  0.658-  64 2.02  41 2.14  57 2.14   2 2.17  56 2.21
  27  0.763  0.750  0.647-  40 2.00  59 2.08  65 2.10  57 2.10  56 2.22
  28  0.500  0.250  0.352-  60 2.11  54 2.11  47 2.11  62 2.11  63 2.11
  29  0.750  0.500  0.352-  61 2.11  55 2.11  46 2.11  62 2.11  63 2.11
  30  0.500  0.500  0.451-  62 2.11  52 2.11  60 2.11  61 2.11  45 2.11  66 2.15
  31  0.750  0.250  0.451-  63 2.11  53 2.11  60 2.11  61 2.11  44 2.11  67 2.12
  32  0.500  0.250  0.551-  51 2.11  67 2.11  66 2.13  58 2.13  64 2.14  60 2.15
  33  0.748  0.499  0.551-  66 2.09  67 2.10  65 2.11  59 2.12  50 2.13  61 2.14
  34  0.500  0.489  0.658-  64 2.02  49 2.14  65 2.14   3 2.17  56 2.21
  35  0.752  0.250  0.649-  48 2.09  67 2.11  65 2.12  57 2.12  64 2.13
  36  0.000  0.750  0.451-   8 2.10   4 2.11   7 2.11   6 2.11  14 2.11  23 2.11
  37  0.250  0.000  0.451-   5 2.11   6 2.11   7 2.11  15 2.11  22 2.11   9 2.14
  38  0.000  0.000  0.352-   6 2.11   5 2.11   4 2.11  12 2.11  21 2.11
  39  0.250  0.750  0.352-   7 2.11   5 2.11   4 2.11  13 2.11  20 2.11
  40  0.000  0.750  0.649-  11 2.00  27 2.00  10 2.13  18 2.13   8 2.14
  41  0.248  0.999  0.650-  10 2.10  11 2.10   9 2.11  19 2.12  26 2.14
  42  0.000  0.999  0.549-   8 2.11   6 2.11  16 2.11  10 2.12   9 2.13  25 2.13
  43  0.252  0.750  0.550-  11 2.08  24 2.09   9 2.12  17 2.12   7 2.13   8 2.13
  44  0.000  0.250  0.451-  12 2.11   6 2.11  14 2.11  15 2.11  31 2.11  16 2.11
  45  0.250  0.500  0.451-  13 2.11   7 2.11  14 2.11  15 2.11  30 2.11  17 2.14
  46  0.000  0.500  0.352-  14 2.11  12 2.11  13 2.11   4 2.11  29 2.11
  47  0.250  0.250  0.352-  15 2.11  12 2.11  13 2.11   5 2.11  28 2.11
  48  0.000  0.250  0.650-  19 2.09  35 2.09  10 2.09  18 2.09  16 2.14
  49  0.248  0.501  0.650-  18 2.10  11 2.10  17 2.11  19 2.12  34 2.14
  50  0.000  0.501  0.549-   8 2.11  14 2.11  16 2.11  18 2.12  17 2.13  33 2.13
  51  0.251  0.250  0.550-   9 2.10  17 2.10  32 2.11  19 2.11  16 2.11  15 2.12
  52  0.500  0.750  0.451-  24 2.07  20 2.11  22 2.11  23 2.11   7 2.11  30 2.11
  53  0.750  0.000  0.451-  21 2.11   6 2.11  22 2.11  23 2.11  31 2.11  25 2.14
  54  0.500  0.000  0.352-  22 2.11  20 2.11  21 2.11   5 2.11  28 2.11
  55  0.750  0.750  0.352-  23 2.11  20 2.11  21 2.11   4 2.11  29 2.11
  56  0.500  0.750  0.655-   1 1.47  26 2.21  34 2.21  11 2.22  27 2.22
  57  0.752  0.999  0.650-  10 2.10  27 2.10  25 2.11  35 2.12  26 2.14
  58  0.500  0.998  0.551-  24 2.09   9 2.09  25 2.09  32 2.13  22 2.15
  59  0.748  0.750  0.550-  27 2.08  24 2.09  25 2.12  33 2.12  23 2.13   8 2.13
  60  0.500  0.250  0.451-  28 2.11  22 2.11  15 2.11  30 2.11  31 2.11  32 2.15
  61  0.750  0.500  0.451-  29 2.11  23 2.11  14 2.11  30 2.11  31 2.11  33 2.14
  62  0.500  0.500  0.352-  30 2.11  20 2.11  28 2.11  29 2.11  13 2.11
  63  0.750  0.250  0.352-  31 2.11  21 2.11  28 2.11  29 2.11  12 2.11
  64  0.500  0.250  0.652-  26 2.02  34 2.02  35 2.13  19 2.13  32 2.14
  65  0.752  0.501  0.650-  18 2.10  27 2.10  33 2.11  35 2.12  34 2.14
  66  0.500  0.502  0.551-  24 2.09  17 2.09  33 2.09  32 2.13  30 2.15
  67  0.749  0.250  0.550-  25 2.10  33 2.10  32 2.11  35 2.11  16 2.11  31 2.12

  LATTYP: Found a simple tetragonal cell.
 ALAT       =     8.4409846542
 C/A-ratio  =     2.5270438657

  Lattice vectors:

 A1 = (   8.4409846542,   0.0000000000,   0.0000000000)
 A2 = (   0.0000000000,   8.4409846542,   0.0000000000)
 A3 = (   0.0000000000,   0.0000000000,  21.3307384906)

Analysis of symmetry for initial positions (statically):
 Subroutine PRICEL returns:
 Original cell was already a primitive cell.

 Routine SETGRP: Setting up the symmetry group for a
 simple tetragonal supercell.

 Subroutine GETGRP returns: Found  2 space group operations
 (whereof  2 operations were pure point group operations)
 out of a pool of 16 trial point group operations.

The static configuration has the point symmetry C_1h.

Analysis of symmetry for dynamics (positions and initial velocities):
 Subroutine PRICEL returns:
 Original cell was already a primitive cell.

[...]

The dynamic configuration has the point symmetry C_1h.

Analysis of constrained symmetry for selective dynamics:
 Subroutine PRICEL returns:
 Original cell was already a primitive cell.

 Routine SETGRP: Setting up the symmetry group for a
 simple tetragonal supercell.

 Subroutine GETGRP returns: Found  2 space group operations
 (whereof  2 operations were pure point group operations)
 out of a pool of 16 trial point group operations.

The constrained configuration has the point symmetry C_1h.

 Subroutine INISYM returns: Found  2 space group operations
 (whereof  2 operations are pure point group operations),
 and found     1 'primitive' translations

                                     Primitive cell

  volume of cell :    1519.8199

  direct lattice vectors                    reciprocal lattice vectors
     8.440984654  0.000000000  0.000000000     0.118469591  0.000000000  0.000000000
     0.000000000  8.440984654  0.000000000     0.000000000  0.118469591  0.000000000
     0.000000000  0.000000000 21.330738491     0.000000000  0.000000000  0.046880702

  length of vectors
     8.440984654  8.440984654 21.330738491     0.118469591  0.118469591  0.046880702

  position of ions in fractional coordinates (direct lattice)
     0.499999999  0.749992575  0.723945469
     0.500000054  0.886923811  0.747131544
     0.500000003  0.613085469  0.747130390
     0.000000000  0.750000000  0.351605267
     0.250000000  0.000000000  0.351605267
     0.000000000  0.000000000  0.450535089
     0.250000000  0.750000000  0.450535089
     0.999999975  0.749999946  0.548865087
     0.252039878  0.000756628  0.550788885
     0.000000022  0.002311195  0.648546918
     0.237174188  0.749999934  0.647363126
     0.000000000  0.250000000  0.351605267
     0.250000000  0.500000000  0.351605267
     0.000000000  0.500000000  0.450535089
     0.250000000  0.250000000  0.450535089
     0.000000013  0.249999998  0.549624541
     0.252039900  0.499243377  0.550788959
     0.000000021  0.497688821  0.648546972
     0.247666318  0.250000068  0.648931672
     0.500000000  0.750000000  0.351605267
     0.750000000  0.000000000  0.351605267
     0.500000000  0.000000000  0.450535089
     0.750000000  0.750000000  0.450535089
     0.500000019  0.750000015  0.547754495
     0.747960121  0.000756607  0.550788926
     0.499999989  0.011207993  0.658121991
     0.762825847  0.749999939  0.647363220
     0.500000000  0.250000000  0.351605267
     0.750000000  0.500000000  0.351605267
     0.500000000  0.500000000  0.450535089
     0.750000000  0.250000000  0.450535089
     0.499999992  0.250000035  0.551140650
     0.747960100  0.499243403  0.550789001
     0.499999989  0.488792575  0.658122307
     0.752333689  0.250000066  0.648931633
     0.000000000  0.750000000  0.450535089
     0.250000000  0.000000000  0.450535089
     0.000000000  0.000000000  0.351605267
     0.250000000  0.750000000  0.351605267
     0.000000022  0.750000036  0.649408351
     0.248158655  0.998502614  0.649732587
     0.000000003  0.999457034  0.549345342
     0.252314547  0.750000035  0.550267426
     0.000000000  0.250000000  0.450535089
     0.250000000  0.500000000  0.450535089
     0.000000000  0.500000000  0.351605267
     0.250000000  0.250000000  0.351605267
     0.000000004  0.249999984  0.650138735
     0.248158633  0.501497394  0.649732528
     0.000000002  0.500542928  0.549345336
     0.250533587  0.249999977  0.549905895
     0.500000000  0.750000000  0.450535089
     0.750000000  0.000000000  0.450535089
     0.500000000  0.000000000  0.351605267
     0.750000000  0.750000000  0.351605267
     0.499999960  0.750000818  0.655054079
     0.751841360  0.998502595  0.649732592
     0.499999996  0.997699832  0.551095612
[...]
   O          20.843          3.285          5.659          2.303          1.950          1.054
   O          22.315          3.320          5.843          2.776          3.417          1.085
   O          22.329          3.320          5.845          2.772          3.400          1.086
   O          22.289          3.319          5.836          2.787          3.457          1.083
   O          22.168          3.316          5.822          2.784          3.444          1.081
   O          20.839          3.285          5.659          2.296          1.933          1.054
   O          20.855          3.285          5.660          2.323          2.001          1.054
   O          20.994          3.288          5.677          2.207          1.717          1.057
   O          20.843          3.285          5.659          2.303          1.950          1.054
   O          22.296          3.320          5.841          2.781          3.434          1.085
   O          22.323          3.320          5.844          2.771          3.396          1.085
   O          19.368          3.251          5.485          2.791          3.472          1.029
   O          22.168          3.316          5.822          2.784          3.444          1.081
   O          21.024          3.289          5.682          2.437          2.310          1.058
   O          20.989          3.288          5.676          2.401          2.210          1.057
   O          20.896          3.286          5.665          2.254          1.827          1.055
   O          20.843          3.285          5.659          2.303          1.950          1.054
   O          22.296          3.320          5.841          2.781          3.434          1.085
   O          22.329          3.320          5.845          2.772          3.400          1.086
   O          21.866          3.308          5.781          2.735          3.267          1.073
   O          22.168          3.316          5.822          2.784          3.444          1.081
   O          21.024          3.289          5.682          2.437          2.310          1.058
   O          20.855          3.285          5.660          2.323          2.001          1.054

  vdW correction parametrized for the method pbe

  IVDW = 263
  VDW_RADIUS =    50.000 A
  VDW_SR =     0.830
  VDW_D =     6.000
  SCSRAD =   120.000 A
  LVDWSCS = T
  LSCSGRAD = T
  LSCALER0 = T
  ITIM =  1
  Edisp (eV):  -17.86858

  FORCE on cell =-STRESS in cart. coord.  units (eV):
  Direction    XX          YY          ZZ          XY          YZ          ZX
  Alpha Z   926.92928   926.92928   926.92928
  Ewald  159889.86787160762.13617************     0.00011    -0.02788     0.00004
  Hartree170377.83313170884.36852************     0.00001    -0.00124    -0.00005
  E(xc)   -2533.34714 -2531.59026 -2537.04648    -0.00000    -0.00010    -0.00000
  Local  ************************340285.31006    -0.00008     0.02233     0.00006
  n-local -2861.51596 -2865.89063 -2885.73993     0.02701     0.00100     0.00001
  augment  1060.63264  1059.43705  1052.61798    -0.00000     0.00003    -0.00000
  Kinetic  7647.34160  7608.10842  7678.03997    -0.27712     0.00197    -0.00001
  Fock        0.00000     0.00000     0.00000     0.00000     0.00000     0.00000
  vdW       -23.42983   -23.40555   -16.42954    -0.03090    -0.00001    -0.00000
  Total     -38.09447   -40.47068   -12.47571     0.00000    -0.00390     0.00000
  in kB     -40.15877   -42.66374   -13.15176     0.00000    -0.00411     0.00000

 VOLUME and BASIS-vectors are now :
  energy-cutoff  :      600.00
  volume of cell :     1519.82
      direct lattice vectors                 reciprocal lattice vectors
     8.440984654  0.000000000  0.000000000     0.118469591  0.000000000  0.000000000
     0.000000000  8.440984654  0.000000000     0.000000000  0.118469591  0.000000000
     0.000000000  0.000000000 21.330738491     0.000000000  0.000000000  0.046880702

  length of vectors
     8.440984654  8.440984654 21.330738491     0.118469591  0.118469591  0.046880702

 FORCES acting on ions:
    Electron-Ion                     Ewald-Force                    Non-Local-Force
   0.360E-04 -.473E-01 -.110E+04   -.106E-03 0.576E-01 0.110E+04   -.363E-23 -.674E-03 -.225E+01
   -.694E-03 -.223E+03 -.180E+04   0.793E-04 0.265E+03 0.182E+04   -.574E-20 -.426E+02 -.273E+02
   -.145E-04 0.223E+03 -.180E+04   -.423E-04 -.265E+03 0.182E+04   0.111E-19 0.426E+02 -.273E+02
   0.506E-05 0.205E-04 0.210E+04   -.147E-04 -.179E-04 -.209E+04   -.262E-21 -.581E-06 -.696E+01
   0.434E-01 -.778E+00 0.210E+04   -.437E-01 0.814E+00 -.209E+04   -.233E-03 -.255E-01 -.708E+01
   0.281E-04 -.253E+01 0.749E+03   -.683E-04 0.268E+01 -.750E+03   -.146E-20 -.106E+00 0.176E+00
   0.265E+01 0.106E-03 0.751E+03   -.270E+01 -.108E-03 -.751E+03   0.213E-01 -.154E-05 0.820E+00
   0.803E-04 0.306E-04 -.572E+03   -.331E-04 0.323E-04 0.572E+03   -.967E-22 -.462E-04 0.855E-01
   0.565E+01 -.861E+01 -.591E+03   -.509E+01 0.882E+01 0.593E+03   -.570E+00 -.215E+00 -.123E+01
   -.481E-04 -.183E+02 -.197E+04   0.916E-06 0.191E+02 0.197E+04   0.316E-20 -.739E+00 0.611E+01
   0.498E+02 -.345E-03 -.188E+04   -.553E+02 0.842E-03 0.188E+04   0.550E+01 -.337E-03 0.687E+01
   0.596E-05 -.176E-04 0.210E+04   -.148E-04 0.184E-04 -.209E+04   0.344E-22 0.739E-05 -.706E+01
   0.434E-01 0.778E+00 0.210E+04   -.437E-01 -.814E+00 -.209E+04   -.235E-03 0.255E-01 -.708E+01
   0.289E-04 0.253E+01 0.749E+03   -.703E-04 -.268E+01 -.750E+03   -.280E-22 0.106E+00 0.176E+00
   -.104E+01 -.109E-03 0.747E+03   0.112E+01 0.112E-03 -.747E+03   -.572E-01 0.436E-05 0.464E+00
   -.159E-04 -.821E-04 -.595E+03   -.442E-04 0.238E-04 0.596E+03   0.151E-20 0.373E-04 -.158E+00
   0.565E+01 0.861E+01 -.591E+03   -.509E+01 -.882E+01 0.593E+03   -.570E+00 0.215E+00 -.123E+01
   -.436E-04 0.183E+02 -.197E+04   -.106E-04 -.191E+02 0.197E+04   -.133E-19 0.739E+00 0.611E+01
   0.293E+02 -.428E-03 -.196E+04   -.301E+02 0.568E-04 0.196E+04   0.804E+00 0.265E-03 0.622E+01
   -.512E-05 0.188E-04 0.210E+04   0.149E-04 -.213E-04 -.209E+04   0.390E-21 -.262E-07 -.691E+01
   -.434E-01 -.778E+00 0.210E+04   0.437E-01 0.814E+00 -.209E+04   0.233E-03 -.255E-01 -.708E+01
   -.287E-04 -.621E+01 0.746E+03   0.709E-04 0.648E+01 -.747E+03   0.400E-21 -.184E+00 0.663E+00
   -.265E+01 0.107E-03 0.751E+03   0.270E+01 -.110E-03 -.751E+03   -.213E-01 -.154E-05 0.820E+00
   -.664E-04 0.193E-03 -.572E+03   0.542E-04 -.202E-03 0.567E+03   -.176E-21 -.845E-05 0.472E+01
   -.565E+01 -.861E+01 -.591E+03   0.509E+01 0.882E+01 0.593E+03   0.570E+00 -.215E+00 -.123E+01
   0.382E-04 -.860E+02 -.189E+04   -.576E-05 0.891E+02 0.189E+04   -.646E-20 -.314E+01 0.138E+01
   -.498E+02 -.352E-03 -.188E+04   0.553E+02 0.827E-03 0.188E+04   -.550E+01 -.337E-03 0.687E+01
   -.595E-05 -.259E-04 0.210E+04   0.148E-04 0.214E-04 -.209E+04   -.758E-22 -.166E-05 -.709E+01
   -.434E-01 0.778E+00 0.210E+04   0.437E-01 -.814E+00 -.209E+04   0.235E-03 0.255E-01 -.708E+01
   -.298E-04 0.621E+01 0.746E+03   0.735E-04 -.648E+01 -.747E+03   -.473E-21 0.184E+00 0.663E+00
   0.104E+01 -.111E-03 0.747E+03   -.112E+01 0.116E-03 -.747E+03   0.572E-01 0.436E-05 0.464E+00
   0.561E-05 -.422E-03 -.598E+03   0.486E-04 0.386E-03 0.599E+03   -.144E-20 0.219E-04 -.499E+00
   -.565E+01 0.861E+01 -.591E+03   0.509E+01 -.882E+01 0.593E+03   0.570E+00 0.215E+00 -.123E+01
   0.355E-04 0.860E+02 -.189E+04   0.142E-04 -.891E+02 0.189E+04   -.186E-19 0.314E+01 0.138E+01
   -.293E+02 -.427E-03 -.196E+04   0.301E+02 0.781E-04 0.196E+04   -.804E+00 0.265E-03 0.622E+01
   0.101E-04 0.484E-04 0.565E+03   -.394E-04 -.310E-04 -.565E+03   -.689E-21 -.180E-04 0.313E+00
   0.322E+00 -.216E+01 0.560E+03   -.436E+00 0.225E+01 -.559E+03   0.151E+00 -.134E+00 -.331E+00
   0.435E-05 -.450E+00 0.158E+04   -.113E-04 0.484E+00 -.158E+04   0.108E-22 -.472E-01 0.347E+01
   0.201E+00 0.156E-04 0.158E+04   -.210E+00 -.157E-04 -.158E+04   0.128E-01 -.312E-05 0.354E+01
   -.228E-03 0.248E-04 -.149E+04   0.405E-04 0.136E-03 0.149E+04   -.324E-21 -.216E-03 -.515E+01
   0.379E+02 -.293E+02 -.145E+04   -.371E+02 0.295E+02 0.146E+04   -.852E+00 -.109E+00 -.515E+01
   -.980E-05 -.617E+01 -.437E+03   -.366E-04 0.624E+01 0.437E+03   -.523E-20 -.763E-01 0.540E-01
   0.390E+01 0.101E-03 -.431E+03   -.419E+01 -.329E-04 0.430E+03   0.288E+00 -.902E-04 0.830E+00
   0.194E-04 -.675E-04 0.561E+03   -.471E-04 0.463E-04 -.561E+03   -.831E-22 0.124E-04 -.742E-01
   0.322E+00 0.216E+01 0.560E+03   -.436E+00 -.225E+01 -.559E+03   0.151E+00 0.134E+00 -.331E+00
   0.443E-05 0.450E+00 0.158E+04   -.115E-04 -.484E+00 -.158E+04   -.272E-21 0.472E-01 0.347E+01
   -.117E+00 -.154E-04 0.158E+04   0.121E+00 0.159E-04 -.158E+04   -.546E-02 0.438E-05 0.345E+01
   -.325E-04 -.131E-03 -.150E+04   -.171E-04 -.235E-04 0.151E+04   -.610E-21 0.220E-03 -.503E+01
   0.379E+02 0.293E+02 -.145E+04   -.371E+02 -.295E+02 0.146E+04   -.851E+00 0.109E+00 -.515E+01
   -.172E-05 0.617E+01 -.437E+03   -.400E-04 -.624E+01 0.437E+03   -.630E-21 0.763E-01 0.541E-01
   0.305E+01 -.166E-03 -.440E+03   -.317E+01 0.927E-04 0.440E+03   0.121E+00 0.940E-04 0.312E+00
   -.114E-04 0.718E-04 0.571E+03   0.432E-04 -.660E-04 -.571E+03   -.757E-21 -.113E-04 0.513E+00
   -.322E+00 -.216E+01 0.560E+03   0.436E+00 0.225E+01 -.559E+03   -.151E+00 -.134E+00 -.331E+00
   -.437E-05 -.767E+00 0.158E+04   0.113E-04 0.814E+00 -.158E+04   -.199E-22 -.655E-01 0.349E+01
   -.201E+00 0.157E-04 0.158E+04   0.210E+00 -.159E-04 -.158E+04   -.128E-01 -.312E-05 0.354E+01
   0.444E-03 -.505E-02 -.123E+04   -.217E-04 0.722E-02 0.121E+04   0.284E-21 -.263E-02 0.226E+02
   -.379E+02 -.293E+02 -.145E+04   0.371E+02 0.295E+02 0.146E+04   0.852E+00 -.109E+00 -.515E+01
   0.312E-04 -.864E+01 -.458E+03   0.383E-04 0.904E+01 0.460E+03   -.441E-20 -.401E+00 -.180E+01
   -.390E+01 0.956E-04 -.431E+03   0.419E+01 -.343E-04 0.430E+03   -.288E+00 -.902E-04 0.830E+00
   -.186E-04 -.649E-04 0.556E+03   0.472E-04 0.627E-04 -.556E+03   0.128E-20 0.102E-04 -.283E+00
   -.322E+00 0.216E+01 0.560E+03   0.436E+00 -.225E+01 -.559E+03   -.151E+00 0.134E+00 -.331E+00
   -.446E-05 0.767E+00 0.158E+04   0.116E-04 -.814E+00 -.158E+04   -.147E-21 0.655E-01 0.349E+01
   0.117E+00 -.155E-04 0.158E+04   -.121E+00 0.161E-04 -.158E+04   0.546E-02 0.438E-05 0.345E+01
   -.749E-04 -.174E-02 -.146E+04   0.161E-04 0.148E-02 0.146E+04   -.106E-21 0.426E-03 -.406E+01
   -.379E+02 0.293E+02 -.145E+04   0.371E+02 -.295E+02 0.146E+04   0.851E+00 0.109E+00 -.515E+01
   0.241E-04 0.864E+01 -.458E+03   0.447E-04 -.904E+01 0.460E+03   -.121E-19 0.401E+00 -.180E+01
   -.305E+01 -.157E-03 -.440E+03   0.317E+01 0.108E-03 0.440E+03   -.121E+00 0.940E-04 0.312E+00
   -.112E-02 -.950E-02 0.550E+02   0.711E-14 -.135E-12 0.438E-11   0.167E-15 0.953E-02 -.550E+02

 POSITION                                       TOTAL-FORCE (eV/Angst)
      4.22049      6.33068     15.44229         0.000000      0.009576      0.063675
      4.22049      7.48651     15.93687         0.000000     -0.166060     -0.153055
      4.22049      5.17505     15.93684         0.000000      0.156939     -0.149190
      0.00000      6.33074      7.50000         0.000000      0.000000      0.498380
      2.11025      0.00000      7.50000         0.004780      0.006836      0.533668
      0.00000      0.00000      9.61025         0.000000      0.046849      0.141910
      2.11025      6.33074      9.61025        -0.023689     -0.000005      0.063832
      8.44098      6.33074     11.70770         0.000000      0.000014     -0.035753
      2.12746      0.00639     11.74873         0.005542     -0.001258     -0.055249
      0.00000      0.01951     13.83398         0.000000      0.009187     -0.173365
      2.00198      6.33074     13.80873        -0.038038      0.000144     -0.147404
      0.00000      2.11025      7.50000         0.000000      0.000008      0.522977
      2.11025      4.22049      7.50000         0.004779     -0.006836      0.533664
      0.00000      4.22049      9.61025         0.000000     -0.046862      0.141889
      2.11025      2.11025      9.61025         0.017252      0.000008      0.138932
      0.00000      2.11025     11.72390         0.000000     -0.000019     -0.036839
      2.12746      4.21411     11.74874         0.005554      0.001274     -0.055327
      0.00000      4.20098     13.83399         0.000000     -0.009193     -0.173401
      2.09055      2.11025     13.84219        -0.014743     -0.000093     -0.150035
      4.22049      6.33074      7.50000         0.000000     -0.000003      0.491764
      6.33074      0.00000      7.50000        -0.004780      0.006836      0.533668
      4.22049      0.00000      9.61025         0.000000      0.088794      0.147211
      6.33074      6.33074      9.61025         0.023689     -0.000005      0.063832
      4.22049      6.33074     11.68401         0.000000     -0.000017     -0.036026
      6.31352      0.00639     11.74873        -0.005542     -0.001258     -0.055249
      4.22049      0.09461     14.03823         0.000000      0.009443     -0.100434
      6.43900      6.33074     13.80874         0.038038      0.000144     -0.147404
      4.22049      2.11025      7.50000         0.000000     -0.000006      0.524721
      6.33074      4.22049      7.50000        -0.004779     -0.006836      0.533664
      4.22049      4.22049      9.61025         0.000000     -0.088784      0.147218
      6.33074      2.11025      9.61025        -0.017252      0.000008      0.138932
      4.22049      2.11025     11.75624         0.000000     -0.000014     -0.034835
      6.31352      4.21411     11.74874        -0.005554      0.001274     -0.055327
      4.22049      4.12589     14.03823         0.000000     -0.009841     -0.101131
      6.35044      2.11025     13.84219         0.014743     -0.000093     -0.150035
      0.00000      6.33074      9.61025         0.000000     -0.000001      0.050587
      2.11025      0.00000      9.61025         0.035367     -0.040243      0.064043
      0.00000      0.00000      7.50000         0.000000     -0.013474     -0.478406
      2.11025      6.33074      7.50000         0.004527     -0.000004     -0.459314
      0.00000      6.33074     13.85236         0.000000     -0.000056     -0.027673
      2.09470      8.42835     13.85928        -0.013941      0.010089     -0.019013
      0.00000      8.43640     11.71794         0.000000     -0.000704      0.007048
      2.12978      6.33074     11.73761        -0.000584     -0.000025      0.004964
      0.00000      2.11025      9.61025         0.000000     -0.000009      0.020761
      2.11025      4.22049      9.61025         0.035369      0.040239      0.064052
      0.00000      4.22049      7.50000         0.000000      0.013467     -0.478392
      2.11025      2.11025      7.50000        -0.001304      0.000005     -0.483375
      0.00000      2.11025     13.86794         0.000000      0.000065     -0.023249
      2.09470      4.23313     13.85927        -0.013770     -0.010024     -0.018812
      0.00000      4.22508     11.71794         0.000000      0.000690      0.007093
      2.11475      2.11025     11.72990         0.002361      0.000033      0.010026
      4.22049      6.33074      9.61025         0.000000     -0.000006     -0.039101
      6.33074      0.00000      9.61025        -0.035367     -0.040243      0.064043
      4.22049      0.00000      7.50000         0.000000     -0.019061     -0.474363
      6.33074      6.33074      7.50000        -0.004527     -0.000004     -0.459314
      4.22049      6.33075     13.97279         0.000000     -0.000462      0.082531
      6.34628      8.42835     13.85928         0.013941      0.010089     -0.019013
      4.22049      8.42157     11.75528         0.000000      0.000702     -0.002997
      6.31120      6.33074     11.73761         0.000584     -0.000025      0.004964
      4.22049      2.11025      9.61025         0.000000      0.000007      0.108468
      6.33074      4.22049      9.61025        -0.035369      0.040239      0.064052
      4.22049      4.22049      7.50000         0.000000      0.019064     -0.474377
      6.33074      2.11025      7.50000         0.001304      0.000005     -0.483375
      4.22049      2.11025     13.90047         0.000000      0.000168     -0.009983
      6.34628      4.23313     13.85927         0.013770     -0.010024     -0.018812
      4.22049      4.23991     11.75528         0.000000     -0.000682     -0.002967
      6.32623      2.11025     11.72990        -0.002361      0.000033      0.010026
    total drift:                               -0.001121      0.000032     -0.015028

  FREE ENERGIE OF THE ION-ELECTRON SYSTEM (eV)
  free  energy   TOTEN  =      -413.33533477 eV

  energy  without entropy=     -413.33533477  energy(sigma->0) =     -413.33533477