 vasp.6.3.0 20Jan22 (build Apr  1 2022 16:44:48) complex
 executed on        HPECrayEX_GCC date 2023.02.20  23:18:51

 INCAR:
   SYSTEM = MgO-rocksalt
   ISMEAR = 0
   SIGMA = 0.05
   EDIFF = 1E-7
   ALGO = ALL
   ISTART = 0
   IBRION = 2
   NSW = 1000
   ISYM = 0
   ISIF = 2
   EDIFFG = -0.02
   DIPOL = 0.5 0.5 0.5
   IDIPOL = 3
   LDIPOL = .TRUE.
   LHFCALC = .TRUE.
   GGA = PE
   IVDW = 13
   VDW_S8 = 1.2007
   VDW_A1 = 0.4009
   VDW_A2 = 5.0293
   ENCUT = 600
   PREC = Accurate
   LASPH = .TRUE.
   LREAL = .FALSE.
   ISPIN = 1
   NELM = 200
   NELMIN = 8
   NCORE = 8
   KPAR = 1
   LWAVE = .FALSE.
   LCHARG = .FALSE.

 POTCAR:    PAW_PBE N 08Apr2002
 POTCAR:    PAW_PBE H 15Jun2001
 POTCAR:    PAW_PBE Mg_pv 13Apr2007
 POTCAR:    PAW_PBE O 08Apr2002
 POTCAR:    PAW_PBE N 08Apr2002
   VRHFIN =N: s2p3

   TITEL  = PAW_PBE N 08Apr2002
   POMASS =   14.001; ZVAL   =    5.000    mass and valenz
   ENMAX  =  400.000; ENMIN  =  300.000 eV

   TITEL  = PAW_PBE H 15Jun2001
   POMASS =    1.000; ZVAL   =    1.000    mass and valenz
   ENMAX  =  250.000; ENMIN  =  200.000 eV

   TITEL  = PAW_PBE Mg_pv 13Apr2007
   POMASS =   24.305; ZVAL   =    8.000    mass and valenz
   ENMAX  =  403.929; ENMIN  =  302.947 eV

   TITEL  = PAW_PBE O 08Apr2002
   POMASS =   16.000; ZVAL   =    6.000    mass and valenz
   ENMAX  =  400.000; ENMIN  =  300.000 eV

  PAW_PBE N 08Apr2002                   :
  PAW_PBE H 15Jun2001                   :
  PAW_PBE Mg_pv 13Apr2007               :
  PAW_PBE O 08Apr2002                   :

 POSCAR:  N  H Mg  O
  positions in direct lattice
  velocities in cartesian coordinates
|           W    W    AA    RRRRR   N    N  II  N    N   GGGG   !!!           |
|           W    W   A  A   R    R  NN   N  II  NN   N  G    G  !!!           |
|           W    W  A    A  R    R  N N  N  II  N N  N  G       !!!           |
|           W WW W  AAAAAA  RRRRR   N  N N  II  N  N N  G  GGG   !            |
|           WW  WW  A    A  R   R   N   NN  II  N   NN  G    G                |
|           W    W  A    A  R    R  N    N  II  N    N   GGGG   !!!           |
|     Specifying the vdW parameters                                           |
|     VDW_S8 = 1.201                                                          |
|     VDW_A1 = 0.401                                                          |
|     VDW_A2 = 5.029                                                          |
|     in the INCAR file will overwrite the defaults for pbe0. Please make     |
|     sure that is what you intended.                                         |

 ion  position               nearest neighbor table
   1  0.500  0.502  0.759-   4 1.01   3 1.01   2 1.01
   2  0.500  0.617  0.773-   1 1.01
   3  0.402  0.447  0.777-   1 1.01
   4  0.598  0.447  0.777-   1 1.01
   5  0.250  0.000  0.353-  39 2.09  40 2.09  47 2.09  56 2.09  37 2.09
   6  0.500  0.250  0.353-  39 2.09  40 2.09  48 2.09  55 2.09  38 2.09
   7  0.250  0.250  0.451-  37 2.09  38 2.09  45 2.09  54 2.09  39 2.09  43 2.09
   8  0.500  0.000  0.451-  37 2.09  38 2.09  46 2.09  53 2.09  40 2.09  44 2.09
   9  0.250  1.000  0.549-  44 2.09  51 2.09  43 2.09  60 2.09  37 2.09  41 2.13
  10  0.500  0.251  0.550-  52 2.08  43 2.09  59 2.09  44 2.10  38 2.11  42 2.12
  11  0.250  0.250  0.646-  43 2.07  41 2.09  58 2.09  42 2.09  49 2.09
  12  0.500  1.000  0.647-  42 2.06  50 2.06  44 2.07  41 2.09  57 2.09
  13  0.250  0.500  0.353-  39 2.09  47 2.09  48 2.09  64 2.09  45 2.09
  14  0.500  0.750  0.353-  40 2.09  47 2.09  48 2.09  63 2.09  46 2.09
  15  0.250  0.750  0.451-  37 2.09  45 2.09  46 2.09  62 2.09  47 2.09  51 2.09
  16  0.500  0.500  0.451-  38 2.09  45 2.09  46 2.09  61 2.09  48 2.09  52 2.11
  17  0.251  0.500  0.550-  52 2.08  51 2.09  43 2.09  68 2.10  45 2.11  49 2.12
  18  0.500  0.749  0.550-  52 2.08  51 2.09  67 2.09  44 2.10  46 2.11  50 2.12
  19  0.250  0.750  0.647-  51 2.07  66 2.09  41 2.09  49 2.09  50 2.09
  20  0.500  0.499  0.654-  42 2.11  49 2.11  65 2.11  50 2.12  52 2.20
  21  0.750  0.000  0.353-  40 2.09  55 2.09  56 2.09  63 2.09  53 2.09
  22  0.000  0.250  0.353-  39 2.09  55 2.09  56 2.09  64 2.09  54 2.09
  23  0.750  0.250  0.451-  38 2.09  53 2.09  54 2.09  61 2.09  55 2.09  59 2.09
  24  0.000  0.000  0.451-  37 2.09  53 2.09  54 2.09  62 2.09  56 2.09  60 2.09
  25  0.750  1.000  0.549-  44 2.09  67 2.09  59 2.09  60 2.09  53 2.09  57 2.13
  26  0.000  0.250  0.549-  68 2.09  43 2.09  59 2.09  60 2.09  54 2.09  58 2.13
  27  0.750  0.250  0.646-  59 2.07  57 2.09  58 2.09  42 2.09  65 2.09
  28  0.000  1.000  0.647-  60 2.08  41 2.08  57 2.08  66 2.08  58 2.08
  29  0.750  0.500  0.353-  48 2.09  55 2.09  63 2.09  64 2.09  61 2.09
  30  0.000  0.750  0.353-  47 2.09  56 2.09  63 2.09  64 2.09  62 2.09
  31  0.750  0.750  0.451-  46 2.09  53 2.09  61 2.09  62 2.09  63 2.09  67 2.09
  32  0.000  0.500  0.451-  45 2.09  54 2.09  61 2.09  62 2.09  64 2.09  68 2.09
  33  0.749  0.500  0.550-  52 2.08  67 2.09  59 2.09  68 2.10  61 2.11  65 2.12
  34  0.000  0.750  0.549-  68 2.09  51 2.09  67 2.09  60 2.09  62 2.09  66 2.13
  35  0.750  0.750  0.647-  67 2.07  66 2.09  57 2.09  65 2.09  50 2.09
  36  0.000  0.500  0.647-  49 2.06  65 2.06  68 2.07  58 2.09  66 2.09
  37  0.250  0.000  0.451-   7 2.09   8 2.09  15 2.09  24 2.09   5 2.09   9 2.09
  38  0.500  0.250  0.451-   7 2.09   8 2.09  16 2.09  23 2.09   6 2.09  10 2.11
  39  0.250  0.250  0.353-   5 2.09   6 2.09  13 2.09  22 2.09   7 2.09
  40  0.500  0.000  0.353-   5 2.09   6 2.09  14 2.09  21 2.09   8 2.09
  41  0.249  1.000  0.650-  28 2.08  11 2.09  19 2.09  12 2.09   9 2.13
  42  0.500  0.247  0.650-  12 2.06  11 2.09  27 2.09  20 2.11  10 2.12
  43  0.250  0.250  0.549-  11 2.07  26 2.09   9 2.09  17 2.09  10 2.09   7 2.09
  44  0.500  1.000  0.549-  12 2.07   9 2.09  25 2.09   8 2.09  18 2.10  10 2.10
  45  0.250  0.500  0.451-   7 2.09  15 2.09  16 2.09  32 2.09  13 2.09  17 2.11
  46  0.500  0.750  0.451-   8 2.09  15 2.09  16 2.09  31 2.09  14 2.09  18 2.11
  47  0.250  0.750  0.353-   5 2.09  13 2.09  14 2.09  30 2.09  15 2.09
  48  0.500  0.500  0.353-   6 2.09  13 2.09  14 2.09  29 2.09  16 2.09
  49  0.247  0.500  0.650-  36 2.06  11 2.09  19 2.09  20 2.11  17 2.12
  50  0.500  0.753  0.650-  12 2.06  19 2.09  35 2.09  20 2.12  18 2.12
  51  0.250  0.750  0.549-  19 2.07   9 2.09  34 2.09  18 2.09  17 2.09  15 2.09
  52  0.500  0.500  0.550-  18 2.08  17 2.08  33 2.08  10 2.08  16 2.11  20 2.20
  53  0.750  0.000  0.451-   8 2.09  23 2.09  24 2.09  31 2.09  21 2.09  25 2.09
  54  0.000  0.250  0.451-   7 2.09  23 2.09  24 2.09  32 2.09  22 2.09  26 2.09
  55  0.750  0.250  0.353-   6 2.09  21 2.09  22 2.09  29 2.09  23 2.09
  56  0.000  0.000  0.353-   5 2.09  21 2.09  22 2.09  30 2.09  24 2.09
  57  0.751  1.000  0.650-  28 2.08  27 2.09  35 2.09  12 2.09  25 2.13
  58  1.000  0.249  0.650-  28 2.08  27 2.09  11 2.09  36 2.09  26 2.13
  59  0.750  0.250  0.549-  27 2.07  26 2.09  25 2.09  33 2.09  10 2.09  23 2.09
  60  1.000  1.000  0.549-  28 2.08  34 2.09  25 2.09   9 2.09  26 2.09  24 2.09
  61  0.750  0.500  0.451-  16 2.09  23 2.09  31 2.09  32 2.09  29 2.09  33 2.11
  62  0.000  0.750  0.451-  15 2.09  24 2.09  31 2.09  32 2.09  30 2.09  34 2.09
  63  0.750  0.750  0.353-  14 2.09  21 2.09  29 2.09  30 2.09  31 2.09
  64  0.000  0.500  0.353-  13 2.09  22 2.09  29 2.09  30 2.09  32 2.09
  65  0.753  0.500  0.650-  36 2.06  27 2.09  35 2.09  20 2.11  33 2.12
  66  0.000  0.750  0.650-  28 2.08  19 2.09  35 2.09  36 2.09  34 2.13
  67  0.750  0.750  0.549-  35 2.07  25 2.09  34 2.09  18 2.09  33 2.09  31 2.09
  68  1.000  0.500  0.549-  36 2.07  34 2.09  26 2.09  32 2.09  17 2.10  33 2.10

IMPORTANT INFORMATION: All symmetrisations will be switched off!
NOSYMM: (Re-)initialisation of all symmetry stuff for point group C_1.

                                     Primitive cell

  volume of cell :    1482.1129

  direct lattice vectors                    reciprocal lattice vectors
     8.349111827  0.000000000  0.000000000     0.119773219  0.000000000  0.000000000
     0.000000000  8.349111827  0.000000000     0.000000000  0.119773219  0.000000000
     0.000000000  0.000000000 21.261833870     0.000000000  0.000000000  0.047032632

  length of vectors
     8.349111827  8.349111827 21.261833870     0.119773219  0.119773219  0.047032632

  position of ions in fractional coordinates (direct lattice)
     0.500000020  0.501592906  0.759042335
     0.500000001  0.617124081  0.773343439
     0.401611112  0.447181858  0.776656892
     0.598388940  0.447181914  0.776656856
     0.250000000  0.000000000  0.352744737
     0.500000000  0.250000000  0.352744737
     0.250000000  0.250000000  0.450914912
     0.500000000  0.000000000  0.450914912
     0.250230096  0.999852085  0.549428172
     0.499999988  0.251165831  0.550069234
     0.249809478  0.249512895  0.646455286
     0.499999992  0.999945964  0.646636012
     0.250000000  0.500000000  0.352744737
     0.500000000  0.750000000  0.352744737
     0.250000000  0.750000000  0.450914912
     0.500000000  0.500000000  0.450914912
     0.251287615  0.499902329  0.550105746
     0.499999986  0.748596066  0.550140871
     0.249718432  0.749971936  0.646596203
     0.499999988  0.499301477  0.653714648
     0.750000000  0.000000000  0.352744737
     0.000000000  0.250000000  0.352744737
     0.750000000  0.250000000  0.450914912
     0.000000000  0.000000000  0.450914912
     0.749769909  0.999852086  0.549428175
     0.000000000  0.250128897  0.549412854
     0.750190561  0.249512847  0.646455276
     0.000000014  0.999811446  0.646857611
     0.750000000  0.500000000  0.352744737
     0.000000000  0.750000000  0.352744737
     0.750000000  0.750000000  0.450914912
     0.000000000  0.500000000  0.450914912
     0.748712366  0.499902323  0.550105774
     0.000000008  0.749665828  0.549443117
     0.750281570  0.749971921  0.646596179
     0.000000003  0.499808927  0.646637013
     0.250000000  0.000000000  0.450914912
     0.500000000  0.250000000  0.450914912
     0.250000000  0.250000000  0.352744737
     0.500000000  0.000000000  0.352744737
     0.249331388  0.999821357  0.649640968
     0.500000000  0.246893605  0.649540077
     0.249821720  0.249734964  0.549321020
     0.500000002  0.999821507  0.549199268
     0.250000000  0.500000000  0.450914912
     0.500000000  0.750000000  0.450914912
     0.250000000  0.750000000  0.352744737
     0.500000000  0.500000000  0.352744737
     0.247087955  0.499712733  0.649720124
     0.499999990  0.752775493  0.649930809
     0.249894703  0.750026006  0.549385262
     0.499999988  0.499943809  0.550329598
     0.750000000  0.000000000  0.450914912
     0.000000000  0.250000000  0.450914912
     0.750000000  0.250000000  0.352744737
     0.000000000  0.000000000  0.352744737
     0.750668623  0.999821355  0.649640972
     0.999999997  0.249150574  0.649656931
     0.750178265  0.249734955  0.549321018
     0.999999998  0.999889426  0.549257988
     0.750000000  0.500000000  0.450914912
     0.000000000  0.750000000  0.450914912
     0.750000000  0.750000000  0.352744737
     0.000000000  0.500000000  0.352744737
[...]
   6.26183387  2.08727796  9.58727796
   0.00000000  0.00000000  9.58727796
   6.25991282  8.34787687 11.68185059
   0.00000000  2.08835413 11.68152483
   6.26342489  2.08321066 13.74482469
   0.00000012  8.34753757 13.75337906
   6.26183387  4.17455591  7.50000000
   0.00000000  6.26183387  7.50000000
   6.26183387  6.26183387  9.58727796
   0.00000000  4.17455591  9.58727796
   6.25108327  4.17374040 11.69625757
   0.00000007  6.25904383 11.68216828
   6.26418473  6.26159944 13.74782055
   0.00000002  4.17296062 13.74868874
   2.08727796  0.00000000  9.58727796
   4.17455591  2.08727796  9.58727796
   2.08727796  2.08727796  7.50000000
   4.17455591  0.00000000  7.50000000
   2.08169564  8.34762032 13.81255833
   4.17455591  2.06134232 13.81041320
   2.08578948  2.08506515 11.67957226
   4.17455593  8.34762157 11.67698360
   2.08727796  4.17455591  9.58727796
   4.17455591  6.26183387  9.58727796
   2.08727796  6.26183387  7.50000000
   4.17455591  4.17455591  7.50000000
   2.06296497  4.17215749 13.81424134
   4.17455583  6.28500677 13.81872089
   2.08639882  6.26205099 11.68093816
   4.17455581  4.17408677 11.70101649
   6.26183387  0.00000000  9.58727796
   0.00000000  2.08727796  9.58727796
   6.26183387  2.08727796  7.50000000
   0.00000000  0.00000000  7.50000000
   6.26741628  8.34762030 13.81255841
   8.34911180  2.08018600 13.81289773
   6.26332223  2.08506507 11.67957222
   8.34911181  8.34818863 11.67823209
   6.26183387  4.17455591  9.58727796
   0.00000000  6.26183387  9.58727796
   6.26183387  6.26183387  7.50000000
   0.00000000  4.17455591  7.50000000
   6.28614690  4.17215737 13.81424162
   0.00000003  6.26580555 13.81227259
   6.26271295  6.26205102 11.68093808
   8.34911179  4.17377488 11.67694719

--------------------------------------- Iteration      FINAL  ---------------------------------------

--------------------OUTCAR has been truncated-------------------------

[...]

--------------------OUTCAR has been truncated-------------------------

  FORCE on cell =-STRESS in cart. coord.  units (eV):
  Direction    XX          YY          ZZ          XY          YZ          ZX
  Alpha Z   922.43297   922.43297   922.43297
  Ewald  164585.70079164585.23981************     0.00004    -3.89959    -0.00002
  Hartree174938.16998174938.17571************    -0.00000    -1.05584     0.00001
  E(xc)   -1881.66130 -1881.66236 -1884.71719     0.00000    -0.01158     0.00000
  Local  ************************349691.66873    -0.00002     4.04090    -0.00000
  n-local  -736.02932  -736.03887  -760.75154    -0.00000    -0.08708     0.00000
  augment   828.06751   828.07381   817.89722    -0.00000     0.01452     0.00000
  Kinetic  7461.06041  7461.27651  7517.82462    -0.00000     1.19871     0.00000
  Fock    -2513.95187 -2513.94922 -2509.85983    -0.00000     0.00994     0.00000
  vdW        -9.25915    -9.25862    -6.45837    -0.00000     0.00165     0.00000
  Total     -29.29557   -29.28989    -2.29564     0.00001     0.21163    -0.00001
  in kB     -31.66878   -31.66263    -2.48161     0.00001     0.22877    -0.00001

 VOLUME and BASIS-vectors are now :
  energy-cutoff  :      600.00
  volume of cell :     1482.11
      direct lattice vectors                 reciprocal lattice vectors
     8.349111827  0.000000000  0.000000000     0.119773219  0.000000000  0.000000000
     0.000000000  8.349111827  0.000000000     0.000000000  0.119773219  0.000000000
     0.000000000  0.000000000 21.261833870     0.000000000  0.000000000  0.047032632

  length of vectors
     8.349111827  8.349111827 21.261833870     0.119773219  0.119773219  0.047032632

 FORCES acting on ions:
    Electron-Ion                     Ewald-Force                    Non-Local-Force
   0.353E-06 0.226E+01 -.137E+04   0.116E-04 -.349E+01 0.134E+04   0.164E-04 0.112E+01 0.227E+02
   -.152E-04 -.689E+02 -.284E+03   0.158E-04 0.762E+02 0.286E+03   -.221E-05 -.694E+01 -.194E+01
   0.589E+02 0.328E+02 -.285E+03   -.651E+02 -.362E+02 0.288E+03   0.593E+01 0.327E+01 -.247E+01
   -.589E+02 0.328E+02 -.285E+03   0.651E+02 -.362E+02 0.288E+03   -.593E+01 0.327E+01 -.247E+01
   -.740E-01 0.293E-01 0.214E+04   0.816E-01 -.300E-01 -.213E+04   -.471E-02 0.445E-03 -.681E+01
   -.502E-05 -.111E+00 0.214E+04   0.522E-05 0.124E+00 -.213E+04   0.132E-09 -.784E-02 -.684E+01
   -.495E+00 -.512E+00 0.734E+03   0.551E+00 0.569E+00 -.734E+03   -.334E-01 -.344E-01 0.460E+00
   -.134E-04 0.115E+00 0.734E+03   0.146E-04 -.131E+00 -.734E+03   -.862E-06 0.981E-02 0.340E+00
   0.254E+01 0.209E+00 -.663E+03   -.245E+01 -.217E+00 0.663E+03   -.725E-01 0.688E-02 0.433E-01
   -.373E-04 0.219E+01 -.661E+03   0.392E-04 -.181E+01 0.661E+03   0.129E-06 -.338E+00 -.416E+00
   0.195E+02 0.195E+02 -.204E+04   -.196E+02 -.196E+02 0.203E+04   0.730E-01 0.914E-01 0.590E+01
   -.340E-04 0.226E-01 -.205E+04   0.315E-04 0.242E-01 0.205E+04   0.259E-05 -.412E-01 0.573E+01
   -.111E+00 -.303E-01 0.214E+04   0.123E+00 0.304E-01 -.213E+04   -.801E-02 -.716E-04 -.684E+01
   -.522E-05 0.111E+00 0.214E+04   0.565E-05 -.124E+00 -.213E+04   -.452E-06 0.820E-02 -.684E+01
   -.504E+00 0.493E+00 0.733E+03   0.573E+00 -.561E+00 -.734E+03   -.418E-01 0.407E-01 0.481E+00
   -.390E-04 -.143E+00 0.731E+03   0.424E-04 0.149E+00 -.731E+03   -.197E-05 -.397E-02 0.576E+00
   0.217E+01 -.224E+00 -.662E+03   -.179E+01 0.230E+00 0.662E+03   -.340E+00 -.589E-02 -.365E+00
   -.533E-04 -.211E+01 -.663E+03   0.540E-04 0.173E+01 0.663E+03   0.169E-06 0.340E+00 -.298E+00
   0.195E+02 -.194E+02 -.204E+04   -.196E+02 0.195E+02 0.203E+04   0.109E+00 -.847E-01 0.589E+01
   -.417E-04 0.451E-02 -.198E+04   0.374E-04 -.160E+00 0.198E+04   0.378E-05 0.138E+00 0.980E+00
   0.740E-01 0.293E-01 0.214E+04   -.816E-01 -.300E-01 -.213E+04   0.471E-02 0.445E-03 -.681E+01
   0.486E-05 -.746E-01 0.214E+04   -.524E-05 0.820E-01 -.213E+04   0.312E-06 -.457E-02 -.681E+01
   0.495E+00 -.513E+00 0.734E+03   -.551E+00 0.569E+00 -.734E+03   0.334E-01 -.344E-01 0.460E+00
   0.129E-04 0.105E+00 0.733E+03   -.139E-04 -.108E+00 -.734E+03   0.700E-06 0.159E-02 0.431E+00
   -.254E+01 0.209E+00 -.663E+03   0.245E+01 -.217E+00 0.663E+03   0.725E-01 0.688E-02 0.433E-01
   0.371E-04 0.253E+01 -.663E+03   -.368E-04 -.245E+01 0.663E+03   -.888E-06 -.727E-01 0.623E-01
   -.195E+02 0.195E+02 -.204E+04   0.196E+02 -.196E+02 0.203E+04   -.730E-01 0.914E-01 0.590E+01
   0.143E-04 -.294E-01 -.207E+04   -.126E-04 0.309E-01 0.206E+04   -.228E-05 -.121E-02 0.576E+01
   0.111E+00 -.303E-01 0.214E+04   -.123E+00 0.304E-01 -.213E+04   0.801E-02 -.722E-04 -.684E+01
   0.526E-05 0.741E-01 0.214E+04   -.568E-05 -.819E-01 -.213E+04   0.418E-06 0.486E-02 -.681E+01
   0.504E+00 0.493E+00 0.733E+03   -.573E+00 -.561E+00 -.734E+03   0.418E-01 0.407E-01 0.481E+00
   0.392E-04 -.126E+00 0.734E+03   -.431E-04 0.121E+00 -.734E+03   0.240E-05 0.345E-02 0.339E+00
   -.217E+01 -.224E+00 -.662E+03   0.179E+01 0.230E+00 0.662E+03   0.340E+00 -.589E-02 -.365E+00
   0.598E-04 -.253E+01 -.663E+03   -.595E-04 0.245E+01 0.663E+03   -.143E-05 0.734E-01 0.262E-01
   -.195E+02 -.194E+02 -.204E+04   0.196E+02 0.195E+02 0.203E+04   -.109E+00 -.847E-01 0.589E+01
   0.103E-04 -.112E-01 -.205E+04   -.794E-05 0.851E-02 0.205E+04   -.185E-05 0.227E-02 0.573E+01
   -.603E-01 0.861E-01 0.550E+03   0.864E-01 -.768E-01 -.550E+03   -.316E-01 -.108E-01 -.328E-01
   -.149E-04 -.236E+00 0.549E+03   0.162E-04 0.191E+00 -.548E+03   -.144E-05 0.497E-01 -.168E+00
   -.729E-01 -.738E-01 0.161E+04   0.823E-01 0.840E-01 -.161E+04   -.112E-01 -.122E-01 0.300E+01
   -.271E-05 0.232E-01 0.161E+04   0.299E-05 -.241E-01 -.161E+04   -.262E-06 0.109E-02 0.300E+01
   0.738E+01 0.635E-01 -.157E+04   -.721E+01 -.864E-01 0.158E+04   -.150E+00 0.198E-01 -.452E+01
   -.386E-04 0.250E+02 -.154E+04   0.424E-04 -.243E+02 0.154E+04   -.317E-05 -.613E+00 -.443E+01
   0.171E+01 0.165E+01 -.487E+03   -.168E+01 -.162E+01 0.487E+03   -.304E-01 -.248E-01 0.543E+00
   -.198E-04 0.226E+00 -.487E+03   0.216E-04 -.215E+00 0.487E+03   -.189E-05 -.897E-02 0.426E+00
   -.227E+00 -.109E+00 0.548E+03   0.175E+00 0.113E+00 -.548E+03   0.567E-01 -.412E-02 -.177E+00
   -.180E-04 0.222E+00 0.548E+03   0.196E-04 -.164E+00 -.548E+03   -.168E-05 -.634E-01 -.186E+00
   -.746E-01 0.744E-01 0.161E+04   0.852E-01 -.842E-01 -.161E+04   -.127E-01 0.118E-01 0.300E+01
   -.495E-05 -.230E-01 0.161E+04   0.555E-05 0.242E-01 -.161E+04   -.595E-06 -.148E-02 0.298E+01
   0.250E+02 -.127E+00 -.154E+04   -.243E+02 0.142E+00 0.154E+04   -.641E+00 -.131E-01 -.439E+01
   -.344E-04 -.249E+02 -.154E+04   0.347E-04 0.241E+02 0.154E+04   0.260E-06 0.677E+00 -.434E+01
   0.159E+01 -.164E+01 -.488E+03   -.157E+01 0.161E+01 0.487E+03   -.179E-01 0.251E-01 0.532E+00
   -.362E-04 -.297E+00 -.504E+03   0.355E-04 0.286E+00 0.505E+03   0.100E-05 0.937E-02 -.105E+01
   0.603E-01 0.861E-01 0.550E+03   -.864E-01 -.768E-01 -.550E+03   0.316E-01 -.108E-01 -.328E-01
   0.150E-04 -.700E-01 0.550E+03   -.156E-04 0.101E+00 -.550E+03   0.862E-06 -.376E-01 -.338E-01
   0.729E-01 -.738E-01 0.161E+04   -.823E-01 0.840E-01 -.161E+04   0.112E-01 -.122E-01 0.300E+01
   0.271E-05 0.215E-01 0.161E+04   -.298E-05 -.212E-01 -.161E+04   0.270E-06 -.375E-03 0.302E+01
   -.738E+01 0.636E-01 -.157E+04   0.721E+01 -.865E-01 0.158E+04   0.150E+00 0.198E-01 -.452E+01
   -.304E-04 0.738E+01 -.157E+04   0.333E-04 -.720E+01 0.158E+04   -.206E-05 -.149E+00 -.451E+01
   -.171E+01 0.165E+01 -.487E+03   0.168E+01 -.162E+01 0.487E+03   0.304E-01 -.248E-01 0.543E+00
   0.139E-04 0.769E-01 -.494E+03   -.146E-04 -.741E-01 0.494E+03   0.792E-06 -.250E-02 0.324E+00
   0.227E+00 -.109E+00 0.548E+03   -.175E+00 0.113E+00 -.548E+03   -.567E-01 -.412E-02 -.177E+00
   0.184E-04 0.526E-01 0.550E+03   -.196E-04 -.736E-01 -.550E+03   0.129E-05 0.258E-01 -.313E-01
   0.746E-01 0.744E-01 0.161E+04   -.852E-01 -.842E-01 -.161E+04   0.127E-01 0.118E-01 0.300E+01
   0.501E-05 -.212E-01 0.161E+04   -.560E-05 0.212E-01 -.161E+04   0.609E-06 0.527E-04 0.300E+01
   -.250E+02 -.127E+00 -.154E+04   0.243E+02 0.142E+00 0.154E+04   0.641E+00 -.131E-01 -.439E+01
   0.265E-04 -.735E+01 -.157E+04   -.271E-04 0.718E+01 0.158E+04   0.237E-06 0.147E+00 -.452E+01
   -.159E+01 -.164E+01 -.488E+03   0.157E+01 0.161E+01 0.487E+03   0.179E-01 0.251E-01 0.532E+00
   0.451E-04 -.833E-01 -.487E+03   -.469E-04 0.814E-01 0.487E+03   0.164E-05 0.150E-02 0.425E+00
   -.153E-04 -.101E+01 0.628E+01   -.853E-13 0.149E-12 0.205E-11   0.157E-04 0.895E+00 -.482E+01

 POSITION                                       TOTAL-FORCE (eV/Angst)
      4.17456      4.18790     16.13815         0.000030      0.009524      0.013567
      4.17456      5.15316     16.44269        -0.000002     -0.004161     -0.010383
      3.35267      3.73359     16.51344         0.006603      0.012762      0.001202
      4.99644      3.73359     16.51344        -0.006629      0.012775      0.001189
      2.08728      0.00000      7.50000         0.002121     -0.000122      0.423766
      4.17456      2.08728      7.50000         0.000000      0.003058      0.430794
      2.08728      2.08728      9.58728         0.016676      0.016586      0.049108
      4.17456      0.00000      9.58728         0.000000     -0.004382      0.075038
      2.08929      8.34788     11.68180         0.003247     -0.000029     -0.000362
      4.17456      2.09707     11.69538         0.000002      0.002231     -0.002474
      2.08574      2.08326     13.74478         0.002024      0.001800     -0.000710
      4.17456      8.34867     13.74877         0.000000      0.000375      0.004685
      2.08728      4.17456      7.50000         0.003070      0.000064      0.431392
      4.17456      6.26183      7.50000        -0.000000     -0.003091      0.431950
      2.08728      6.26183      9.58728         0.019960     -0.020061      0.051510
      4.17456      4.17456      9.58728         0.000001      0.001281      0.104960
      2.09809      4.17374     11.69616         0.002123      0.000107     -0.002377
      4.17456      6.25005     11.69691         0.000001     -0.002032     -0.002360
      2.08498      6.26153     13.74779         0.002048     -0.002374     -0.000427
      4.17456      4.16871     13.89924        -0.000000     -0.000677      0.002216
      6.26183      0.00000      7.50000        -0.002120     -0.000122      0.423766
      0.00000      2.08728      7.50000        -0.000000      0.002106      0.424075
      6.26183      2.08728      9.58728        -0.016676      0.016586      0.049108
      0.00000      0.00000      9.58728        -0.000000     -0.001041      0.034952
      6.25982      8.34788     11.68180        -0.003247     -0.000029     -0.000360
      0.00000      2.08844     11.68146        -0.000001      0.003100     -0.000636
      6.26337      2.08326     13.74478        -0.002027      0.001803     -0.000712
      0.00000      8.34754     13.75343        -0.000001      0.000256      0.002341
      6.26183      4.17456      7.50000        -0.003070      0.000064      0.431393
      0.00000      6.26183      7.50000         0.000000     -0.002141      0.423451
      6.26183      6.26183      9.58728        -0.019961     -0.020062      0.051511
      0.00000      4.17456      9.58728        -0.000001     -0.001591      0.075093
      6.25102      4.17374     11.69616        -0.002123      0.000107     -0.002376
      0.00000      6.25894     11.68212        -0.000001     -0.003453     -0.000185
      6.26413      6.26153     13.74779        -0.002048     -0.002373     -0.000427
      0.00000      4.17296     13.74879         0.000000     -0.000102      0.004914
      2.08728      0.00000      9.58728        -0.011370     -0.003369      0.060439
      4.17456      2.08728      9.58728        -0.000000      0.013431      0.086061
      2.08728      2.08728      7.50000        -0.003876     -0.004203     -0.564032
      4.17456      0.00000      7.50000        -0.000000      0.000400     -0.564646
      2.08178      8.34762     13.81269         0.002500      0.000065      0.004036
      4.17456      2.06146     13.81037         0.000000      0.003235     -0.002034
      2.08580      2.08508     11.67969         0.000302      0.000316      0.002083
      4.17456      8.34761     11.67704        -0.000001     -0.000205      0.000816
      2.08728      4.17456      9.58728         0.015536     -0.001018      0.086459
      4.17456      6.26183      9.58728        -0.000000     -0.017538      0.086929
      2.08728      6.26183      7.50000        -0.004404      0.004083     -0.564141
      4.17456      4.17456      7.50000        -0.000000     -0.000499     -0.570957
      2.06307      4.17215     13.81421         0.003091     -0.000200     -0.001678
      4.17456      6.28491     13.81870         0.000001     -0.002853     -0.001099
      2.08642      6.26204     11.68107         0.000375     -0.000304      0.002440
      4.17456      4.17409     11.70069         0.000000      0.000166     -0.011180
      6.26183      0.00000      9.58728         0.011370     -0.003369      0.060439
      0.00000      2.08728      9.58728         0.000000     -0.013126      0.058073
      6.26183      2.08728      7.50000         0.003876     -0.004203     -0.564032
      0.00000      0.00000      7.50000         0.000000     -0.000106     -0.559808
      6.26733      8.34762     13.81269        -0.002500      0.000064      0.004037
     -0.00000      2.08028     13.81301         0.000001      0.002587      0.003564
      6.26331      2.08508     11.67969        -0.000301      0.000317      0.002084
     -0.00000      8.34819     11.67827         0.000000     -0.000077      0.001054
      6.26183      4.17456      9.58728        -0.015536     -0.001018      0.086459
      0.00000      6.26183      9.58728         0.000000      0.009697      0.062913
      6.26183      6.26183      7.50000         0.004404      0.004083     -0.564141
      0.00000      4.17456      7.50000         0.000000      0.000033     -0.564662
      6.28604      4.17215     13.81421        -0.003091     -0.000199     -0.001675
      0.00000      6.26572     13.81242        -0.000000     -0.002483      0.004549
      6.26269      6.26204     11.68107        -0.000375     -0.000305      0.002441
      8.34911      4.17377     11.67701         0.000000     -0.000140      0.001015
    total drift:                                0.000001     -0.001886     -0.002091

  FREE ENERGIE OF THE ION-ELECTRON SYSTEM (eV)
  free  energy   TOTEN  =      -497.16760550 eV

  energy  without entropy=     -497.16760550  energy(sigma->0) =     -497.16760550

 d Force = 0.2481601E-04[-0.107E-05, 0.507E-04]  d Energy = 0.2525899E-04-0.443E-06
 d Force =-0.3132350E+00[-0.313E+00,-0.313E+00]  d Ewald  =-0.3132342E+00-0.834E-06

 reached required accuracy - stopping structural energy minimisation