 vasp.6.3.0 20Jan22 (build Apr  1 2022 16:44:48) complex
 executed on        HPECrayEX_GCC date 2023.02.21  23:17:45

 INCAR:
   SYSTEM = MgO-rocksalt
   ISMEAR = 0
   SIGMA = 0.05
   EDIFF = 1E-8
   ALGO = ALL
   ISTART = 0
   IBRION = 5
   POTIM = 0.01
   NFREE = 2
   ISYM = 0
   DIPOL = 0.5 0.5 0.5
   IDIPOL = 3
   LDIPOL = .TRUE.
   GGA = RE
   IVDW = 13
   VDW_S8 = 1.7468
   VDW_A1 = 0.5363
   VDW_A2 = 3.0726
   ENCUT = 520
   PREC = Accurate
   LASPH = .TRUE.
   LREAL = Auto
   ISPIN = 1
   NELM = 200
   NELMIN = 8
   NCORE = 8
   KPAR = 1
   LWAVE = .FALSE.
   LCHARG = .FALSE.

 POTCAR:    PAW_PBE C 08Apr2002
 POTCAR:    PAW_PBE H 15Jun2001
 POTCAR:    PAW_PBE Mg 13Apr2007
 POTCAR:    PAW_PBE O 08Apr2002
 POTCAR:    PAW_PBE C 08Apr2002
   VRHFIN =C: s2p2

   TITEL  = PAW_PBE C 08Apr2002
   POMASS =   12.011; ZVAL   =    4.000    mass and valenz
   ENMAX  =  400.000; ENMIN  =  300.000 eV

   TITEL  = PAW_PBE H 15Jun2001
   POMASS =    1.000; ZVAL   =    1.000    mass and valenz
   ENMAX  =  250.000; ENMIN  =  200.000 eV

[...]

   TITEL  = PAW_PBE O 08Apr2002
   POMASS =   16.000; ZVAL   =    6.000    mass and valenz
   ENMAX  =  400.000; ENMIN  =  300.000 eV

 Optimization of the real space projectors (new method)

 maximal supplied QI-value         = 25.13
 optimisation between [QCUT,QGAM] = [ 11.56, 23.12] = [ 37.43,149.72] Ry
 Optimized for a Real-space Cutoff    1.04 Angstroem

   l    n(q)    QCUT    max X(q) W(low)/X(q) W(high)/X(q)  e(spline)
   0      7    11.561   115.676    0.20E-03    0.60E-03    0.21E-06
   0      7    11.561    87.132    0.20E-03    0.59E-03    0.21E-06
   1      7    11.561     4.429    0.23E-03    0.35E-03    0.15E-06
   1      7    11.561     2.733    0.18E-03    0.25E-03    0.12E-06
 Optimization of the real space projectors (new method)

[...]

   l    n(q)    QCUT    max X(q) W(low)/X(q) W(high)/X(q)  e(spline)
   0      9    11.527    28.265    0.62E-04    0.53E-04    0.73E-07
   0      9    11.527    10.429    0.52E-04    0.40E-04    0.58E-07
   1      8    11.527    13.073    0.98E-04    0.18E-03    0.86E-07
   1      8    11.527     9.625    0.79E-04    0.15E-03    0.74E-07
   2      8    11.527     4.652    0.22E-03    0.72E-04    0.47E-07
 Optimization of the real space projectors (new method)

 maximal supplied QI-value         = 24.76
 optimisation between [QCUT,QGAM] = [ 11.64, 23.27] = [ 37.91,151.63] Ry
 Optimized for a Real-space Cutoff    1.14 Angstroem

   l    n(q)    QCUT    max X(q) W(low)/X(q) W(high)/X(q)  e(spline)
   0      8    11.635    20.381    0.10E-03    0.33E-03    0.24E-06
   0      8    11.635    15.268    0.11E-03    0.35E-03    0.26E-06
   1      7    11.635     5.964    0.24E-03    0.31E-03    0.30E-06
   1      7    11.635     5.382    0.22E-03    0.25E-03    0.26E-06
|               ----> ADVICE to this user running VASP <----                  |
|     You enforced a specific xc type in the INCAR file but a different       |
|     type was found in the POTCAR file.                                      |
|     I HOPE YOU KNOW WHAT YOU ARE DOING!                                     |

  PAW_PBE C 08Apr2002                   :
  PAW_PBE H 15Jun2001                   :
  PAW_PBE Mg 13Apr2007                  :
  PAW_PBE O 08Apr2002                   :

 POSCAR:  C  H Mg  O
  positions in direct lattice
|           W    W    AA    RRRRR   N    N  II  N    N   GGGG   !!!           |
|           W    W   A  A   R    R  NN   N  II  NN   N  G    G  !!!           |
|           W    W  A    A  R    R  N N  N  II  N N  N  G       !!!           |
|           W WW W  AAAAAA  RRRRR   N  N N  II  N  N N  G  GGG   !            |
|           WW  WW  A    A  R   R   N   NN  II  N   NN  G    G                |
|           W    W  A    A  R    R  N    N  II  N    N   GGGG   !!!           |
|     Specifying the vdW parameters                                           |
|     VDW_S8 = 1.747                                                          |
|     VDW_A1 = 0.536                                                          |
|     VDW_A2 = 3.073                                                          |
|     in the INCAR file will overwrite the defaults for revpbe. Please        |
|     make sure that is what you intended.                                    |

 ion  position               nearest neighbor table
   1  0.480  0.470  0.790-   7 1.09   2 1.40   6 1.40
   2  0.562  0.460  0.788-   8 1.09   1 1.40   3 1.40
   3  0.595  0.384  0.790-   9 1.09   4 1.40   2 1.40
   4  0.545  0.317  0.793-  10 1.09   3 1.40   5 1.40
   5  0.463  0.327  0.794-  11 1.09   6 1.40   4 1.40
   6  0.430  0.404  0.793-  12 1.09   5 1.40   1 1.40
   7  0.455  0.529  0.788-   1 1.09
   8  0.601  0.511  0.785-   2 1.09
   9  0.659  0.376  0.788-   3 1.09
  10  0.570  0.258  0.794-   4 1.09
  11  0.424  0.276  0.796-   5 1.09
  12  0.366  0.412  0.793-   6 1.09
  13  0.000  0.375  0.352- 141 2.11 144 2.11 151 2.11 175 2.11 224 2.11  23 2.98  47 2.98  96 2.98
                            16 2.98  46 2.98 102 2.98 126 2.98  22 2.98
  14  0.125  0.000  0.352- 142 2.11 143 2.11 152 2.11 159 2.11 176 2.11  24 2.98  31 2.98  48 2.98
                            15 2.98  45 2.98  21 2.98  61 2.98  37 2.98
  15  0.000  0.000  0.451- 143 2.11 142 2.11 149 2.11 173 2.11 222 2.11 147 2.11  45 2.98  94 2.98
                            14 2.98  21 2.98 104 2.98 128 2.98  48 2.98  24 2.98  49 2.99  98 2.99
  16  0.125  0.375  0.451- 144 2.11 141 2.11 150 2.11 157 2.11 174 2.11 148 2.11  29 2.98  46 2.98
                            13 2.98  22 2.98  47 2.98  63 2.98  39 2.98  23 2.98  50 2.99  26 2.99
  17  0.000  0.375  0.550- 155 2.11 179 2.11 148 2.11 228 2.11 141 2.12 145 2.14  27 2.97  51 2.97
                           100 2.97  20 2.97 130 2.98  50 2.98  26 2.98 106 2.98  16 2.99  47 2.99
  18  0.125  0.000  0.550- 156 2.11 163 2.11 180 2.11 147 2.11 142 2.12 146 2.14  52 2.97  19 2.97
                            35 2.97  28 2.97  25 2.98  49 2.98  65 2.98  41 2.99  24 2.99  31 2.99
  19  0.000  0.000  0.648- 147 2.10 153 2.11 226 2.11 146 2.11 177 2.11  25 2.97  18 2.97  98 2.97
                            49 2.97  52 2.98 132 2.98 108 2.98  28 2.99
  20  0.125  0.375  0.648- 148 2.10 178 2.11 154 2.11 145 2.11 161 2.11  26 2.97  50 2.97  17 2.97
                            33 2.97  43 2.98  67 2.98  51 2.98  27 2.99
  21  0.000  0.125  0.352- 149 2.11 143 2.11 151 2.11 152 2.11 232 2.11  23 2.98  24 2.98 104 2.98
                            15 2.98  94 2.98 102 2.98  14 2.98  22 2.98
  22  0.125  0.250  0.352- 150 2.11 144 2.11 151 2.11 152 2.11 167 2.11  23 2.98  24 2.98  39 2.98
                            16 2.98  29 2.98  37 2.98  13 2.98  21 2.98
  23  0.000  0.250  0.451- 151 2.11 149 2.11 150 2.11 141 2.11 230 2.11 155 2.11  22 2.98 102 2.98
                            13 2.98  21 2.98  16 2.98 104 2.98  24 2.98  96 2.98  25 2.99 106 2.99
  24  0.125  0.125  0.451- 156 2.11 152 2.11 150 2.11 142 2.11 149 2.11 165 2.11  22 2.98  37 2.98
                            14 2.98  21 2.98  15 2.98  39 2.98  23 2.98  31 2.98  18 2.99  25 2.99
  25  0.000  0.125  0.550- 155 2.11 147 2.11 236 2.11 156 2.11 149 2.12 153 2.14  19 2.97  27 2.97
                           108 2.97  28 2.97  98 2.98  18 2.98  26 2.98 106 2.98  23 2.99  24 2.99
  26  0.125  0.250  0.550- 171 2.11 148 2.11 156 2.11 155 2.11 150 2.12 154 2.14  28 2.97  20 2.97
                            27 2.97  43 2.97  41 2.98  17 2.98  25 2.98  33 2.99  39 2.99  16 2.99
  27  0.000  0.250  0.648- 155 2.10 145 2.11 153 2.11 154 2.11 234 2.11  17 2.97  25 2.97  26 2.97
                           106 2.97  28 2.98 108 2.98 100 2.98  20 2.99
  28  0.125  0.125  0.648- 156 2.10 154 2.11 169 2.11 146 2.11 153 2.11  26 2.97  41 2.97  18 2.97
                            25 2.97  35 2.98  27 2.98  19 2.99  43 2.99
  29  0.250  0.375  0.352- 157 2.11 144 2.11 160 2.11 167 2.11 191 2.11  32 2.98  39 2.98  63 2.98
                            16 2.98  46 2.98  62 2.98  38 2.98  22 2.98
  30  0.375  0.000  0.352- 158 2.11 159 2.11 168 2.11 192 2.11 207 2.11  40 2.98  64 2.98  79 2.98
                            31 2.98  61 2.98  85 2.98 109 2.98  37 2.98
  31  0.250  0.000  0.451- 159 2.11 158 2.11 142 2.11 165 2.11 189 2.11 163 2.11  37 2.98  61 2.98
                            14 2.98  30 2.98  24 2.98  64 2.98  40 2.98  48 2.98  18 2.99  65 2.99
  32  0.375  0.375  0.451- 164 2.11 160 2.11 157 2.11 166 2.11 190 2.11 205 2.11  62 2.98  77 2.98
                            29 2.98  38 2.98  87 2.98 111 2.98  63 2.98  39 2.98  33 2.99  42 2.99
  33  0.250  0.375  0.550- 164 2.10 195 2.11 171 2.11 148 2.11 157 2.12 161 2.15  67 2.97  43 2.97
                            20 2.97  42 2.98  36 2.98  66 2.98  50 2.99  26 2.99  32 2.99  63 2.99
  34  0.375  0.000  0.550- 172 2.11 211 2.11 163 2.11 196 2.11 158 2.12 162 2.14  35 2.97  83 2.97
                            44 2.97  68 2.97  41 2.98 113 2.98  65 2.99  89 2.99  40 2.99  79 2.99
  35  0.250  0.000  0.648- 163 2.10 162 2.11 169 2.11 146 2.11 193 2.11  34 2.97  41 2.97  18 2.97
                            65 2.97  28 2.98  68 2.98  52 2.99  44 2.99
  36  0.376  0.375  0.648- 209 2.10 164 2.11 194 2.11 170 2.11 161 2.12 115 2.97  91 2.97  81 2.97
                            66 2.97  42 2.98  33 2.98  67 2.99  43 2.99
  37  0.250  0.125  0.352- 165 2.11 159 2.11 152 2.11 167 2.11 168 2.11  31 2.98  39 2.98  40 2.98
                            24 2.98  38 2.98  14 2.98  30 2.98  22 2.98
  38  0.375  0.250  0.352- 166 2.11 160 2.11 167 2.11 168 2.11 215 2.11  39 2.98  40 2.98  87 2.98
                            32 2.98  77 2.98  85 2.98  29 2.98  37 2.98
  39  0.250  0.250  0.451- 167 2.11 157 2.11 165 2.11 166 2.11 150 2.11 171 2.11  37 2.98  38 2.98
                            22 2.98  29 2.98  16 2.98  40 2.98  32 2.98  24 2.98  41 2.99  26 2.99
  40  0.375  0.125  0.451- 168 2.11 165 2.11 166 2.11 158 2.11 213 2.11 172 2.11  38 2.98  85 2.98
                            30 2.98  37 2.98  31 2.98  87 2.98  39 2.98  79 2.98  41 2.99  34 2.99
  41  0.250  0.125  0.550- 171 2.11 172 2.11 163 2.11 156 2.11 165 2.12 169 2.14  35 2.97  28 2.97
                            44 2.97  43 2.97  26 2.98  34 2.98  18 2.99  42 2.99  39 2.99  40 2.99
  42  0.375  0.250  0.550- 164 2.11 219 2.11 171 2.11 172 2.11 166 2.12 170 2.15  43 2.97  44 2.97
                            91 2.97  36 2.98  33 2.98  89 2.98  81 2.98  32 2.99  87 2.99  41 2.99
  43  0.250  0.250  0.648- 171 2.10 170 2.11 161 2.11 169 2.11 154 2.11  33 2.97  42 2.97  41 2.97
                            26 2.97  44 2.98  20 2.98  28 2.99  36 2.99
  44  0.375  0.125  0.648- 172 2.10 170 2.11 217 2.11 169 2.11 162 2.11  89 2.97  42 2.97  41 2.97
                            34 2.97  43 2.98  83 2.98  35 2.99  91 2.99
  45  0.000  0.875  0.352- 173 2.11 143 2.11 176 2.11 183 2.11 256 2.11  48 2.98  55 2.98 128 2.98
                            15 2.98  94 2.98  54 2.98 134 2.98  14 2.98
  46  0.125  0.500  0.352- 174 2.11 144 2.11 175 2.11 184 2.11 191 2.11  47 2.98  56 2.98  63 2.98
                            16 2.98  29 2.98  13 2.98  69 2.98  53 2.98
[...]

 Eigenvectors and eigenvalues of the dynamical matrix

   1 f  =   94.101315 THz   591.255999 2PiTHz 3138.881996 cm-1   389.171593 meV
             X         Y         Z           dx          dy          dz
      8.102735  7.935077 16.842726    -0.050010    0.102043   -0.002284
      9.491698  7.764949 16.812083     0.148847    0.194968   -0.012137
     10.039857  6.475319 16.842564     0.073620   -0.014531   -0.001724
      9.198879  5.358675 16.909653     0.020063   -0.052626    0.001085
      7.808695  5.528470 16.944137    -0.032987   -0.043920    0.002415
      7.262139  6.815449 16.906167    -0.046243    0.002632    0.000900
      7.674258  8.937707 16.815409     0.142937   -0.327562    0.008045
     10.147974  8.632028 16.753020    -0.487026   -0.642588    0.043904
     11.123276  6.343020 16.813559    -0.224521    0.029674    0.004983
      9.629747  4.357109 16.926084    -0.069069    0.163019   -0.002983
      7.152219  4.658979 16.987163     0.105155    0.139405   -0.007223
      6.179161  6.950948 16.925829     0.139535   -0.016243   -0.002956
      0.000000  6.330738  7.500000            0           0           0
      2.110246  0.000000  7.500000            0           0           0
      0.000000  0.000000  9.610246            0           0           0
      2.110246  6.330738  9.610246            0           0           0
      0.000360  6.330844 11.726431            0           0           0
      2.110629  0.000482 11.726233            0           0           0
      0.000436  0.000962 13.820435            0           0           0
      2.111920  6.331266 13.820818            0           0           0
      0.000000  2.110246  7.500000            0           0           0
      2.110246  4.220492  7.500000            0           0           0
      0.000000  4.220492  9.610246            0           0           0
      2.110246  2.110246  9.610246            0           0           0
      0.000285  2.110657 11.726199            0           0           0
      2.111181  4.221045 11.726310            0           0           0
      0.000437  4.221283 13.820434            0           0           0
      2.111496  2.111613 13.820454            0           0           0
      4.220492  6.330738  7.500000            0           0           0
      6.330738  0.000000  7.500000            0           0           0
      4.220492  0.000000  9.610246            0           0           0
      6.330738  6.330738  9.610246            0           0           0
      4.223660  6.331239 11.726251            0           0           0
      6.331393  0.000946 11.726228            0           0           0
      4.221767  0.001306 13.820379            0           0           0
      6.344265  6.333807 13.823872            0           0           0
      4.220492  2.110246  7.500000            0           0           0
      6.330738  4.220492  7.500000            0           0           0
      4.220492  4.220492  9.610246            0           0           0
      6.330738  2.110246  9.610246            0           0           0
      4.221473  2.111236 11.726248            0           0           0
      6.333277  4.223493 11.726404            0           0           0
      4.223710  4.223177 13.819199            0           0           0
      6.333220  2.113432 13.818737            0           0           0
      0.000000 14.771723  7.500000            0           0           0
      2.110246  8.440985  7.500000            0           0           0
      0.000000  8.440985  9.610246            0           0           0
      2.110246 14.771723  9.610246            0           0           0
      0.000335 14.772137 11.726198            0           0           0
      2.110726  8.440965 11.725535            0           0           0
      0.000452  8.440995 13.820251            0           0           0
      2.111122 14.772223 13.820243            0           0           0
      0.000000 10.551231  7.500000            0           0           0
      2.110246 12.661477  7.500000            0           0           0
      0.000000 12.661477  9.610246            0           0           0
      2.110246 10.551231  9.610246            0           0           0
      0.000264 10.551314 11.726076            0           0           0
      2.110664 12.661600 11.726222            0           0           0
      0.000344 12.661625 13.820230            0           0           0
      2.111129 10.551028 13.820176            0           0           0
[...]
     14.771723  8.440985  9.610246            0           0           0
     12.661477  8.440985  7.500000            0           0           0
     14.771723 14.771723  7.500000            0           0           0
     12.661379 14.772095 13.869203            0           0           0
     14.771195  8.441179 13.869022            0           0           0
     12.664643  8.441845 11.717531            0           0           0
     14.771974 14.772114 11.720099            0           0           0
     12.661477 10.551231  9.610246            0           0           0
     14.771723 12.661477  9.610246            0           0           0
     12.661477 12.661477  7.500000            0           0           0
     14.771723 10.551231  7.500000            0           0           0
     12.661984 10.551798 13.870095            0           0           0
     14.772102 12.661944 13.869068            0           0           0
     12.661932 12.662027 11.719954            0           0           0
     14.772318 10.551727 11.719915            0           0           0

[...]

  35 f  =    1.111533 THz     6.983970 2PiTHz   37.076761 cm-1     4.596930 meV
             X         Y         Z           dx          dy          dz
      8.102735  7.935077 16.842726     0.231138    0.108677    0.234951
      9.491698  7.764949 16.812083     0.224131    0.085811   -0.024346
     10.039857  6.475319 16.842564     0.213315    0.080184   -0.068496
      9.198879  5.358675 16.909653     0.208155    0.095943    0.145764
      7.808695  5.528470 16.944137     0.219846    0.120044    0.439370
      7.262139  6.815449 16.906167     0.230120    0.128792    0.493345
      7.674258  8.937707 16.815409     0.070564    0.033311    0.075718
     10.147974  8.632028 16.753020     0.065031    0.020782   -0.058467
     11.123276  6.343020 16.813559     0.059613    0.018463   -0.080175
      9.629747  4.357109 16.926084     0.056521    0.025906    0.028022
      7.152219  4.658979 16.987163     0.062918    0.037650    0.182736
      6.179161  6.950948 16.925829     0.068360    0.041112    0.205522
      0.000000  6.330738  7.500000            0           0           0
      2.110246  0.000000  7.500000            0           0           0
      0.000000  0.000000  9.610246            0           0           0
      2.110246  6.330738  9.610246            0           0           0
      0.000360  6.330844 11.726431            0           0           0
      2.110629  0.000482 11.726233            0           0           0
      0.000436  0.000962 13.820435            0           0           0
      2.111920  6.331266 13.820818            0           0           0
      0.000000  2.110246  7.500000            0           0           0
      2.110246  4.220492  7.500000            0           0           0
      0.000000  4.220492  9.610246            0           0           0
      2.110246  2.110246  9.610246            0           0           0
      0.000285  2.110657 11.726199            0           0           0
      2.111181  4.221045 11.726310            0           0           0
      0.000437  4.221283 13.820434            0           0           0
      2.111496  2.111613 13.820454            0           0           0
      4.220492  6.330738  7.500000            0           0           0
      6.330738  0.000000  7.500000            0           0           0
      4.220492  0.000000  9.610246            0           0           0
      6.330738  6.330738  9.610246            0           0           0
      4.223660  6.331239 11.726251            0           0           0
      6.331393  0.000946 11.726228            0           0           0
      4.221767  0.001306 13.820379            0           0           0
      6.344265  6.333807 13.823872            0           0           0
      4.220492  2.110246  7.500000            0           0           0
      6.330738  4.220492  7.500000            0           0           0
      4.220492  4.220492  9.610246            0           0           0
      6.330738  2.110246  9.610246            0           0           0
      4.221473  2.111236 11.726248            0           0           0
      6.333277  4.223493 11.726404            0           0           0
      4.223710  4.223177 13.819199            0           0           0
      6.333220  2.113432 13.818737            0           0           0
      0.000000 14.771723  7.500000            0           0           0
      2.110246  8.440985  7.500000            0           0           0
      0.000000  8.440985  9.610246            0           0           0
      2.110246 14.771723  9.610246            0           0           0
      0.000335 14.772137 11.726198            0           0           0
      2.110726  8.440965 11.725535            0           0           0
      0.000452  8.440995 13.820251            0           0           0
      2.111122 14.772223 13.820243            0           0           0
      0.000000 10.551231  7.500000            0           0           0
      2.110246 12.661477  7.500000            0           0           0
      0.000000 12.661477  9.610246            0           0           0
      2.110246 10.551231  9.610246            0           0           0
      0.000264 10.551314 11.726076            0           0           0
      2.110664 12.661600 11.726222            0           0           0
      0.000344 12.661625 13.820230            0           0           0
      2.111129 10.551028 13.820176            0           0           0
[...]
     14.771723  8.440985  9.610246            0           0           0
     12.661477  8.440985  7.500000            0           0           0
     14.771723 14.771723  7.500000            0           0           0
     12.661379 14.772095 13.869203            0           0           0
     14.771195  8.441179 13.869022            0           0           0
     12.664643  8.441845 11.717531            0           0           0
     14.771974 14.772114 11.720099            0           0           0
     12.661477 10.551231  9.610246            0           0           0
     14.771723 12.661477  9.610246            0           0           0
     12.661477 12.661477  7.500000            0           0           0
     14.771723 10.551231  7.500000            0           0           0
     12.661984 10.551798 13.870095            0           0           0
     14.772102 12.661944 13.869068            0           0           0
     12.661932 12.662027 11.719954            0           0           0
     14.772318 10.551727 11.719915            0           0           0

  36 f/i=    1.848559 THz    11.614839 2PiTHz   61.661294 cm-1     7.645023 meV
             X         Y         Z           dx          dy          dz
      8.102735  7.935077 16.842726     0.038590   -0.326248    0.025127
      9.491698  7.764949 16.812083     0.060785   -0.142445    0.028827
     10.039857  6.475319 16.842564     0.225951   -0.073476   -0.040372
      9.198879  5.358675 16.909653     0.370873   -0.190246   -0.107231
      7.808695  5.528470 16.944137     0.351004   -0.373500   -0.110322
      7.262139  6.815449 16.906167     0.188386   -0.443234   -0.062216
      7.674258  8.937707 16.815409    -0.028252   -0.110474    0.022348
     10.147974  8.632028 16.753020    -0.014517   -0.015583    0.025141
     11.123276  6.343020 16.813559     0.070078    0.019547   -0.012403
      9.629747  4.357109 16.926084     0.144846   -0.038490   -0.045604
      7.152219  4.658979 16.987163     0.132031   -0.131706   -0.046228
      6.179161  6.950948 16.925829     0.048824   -0.168433   -0.019101
      0.000000  6.330738  7.500000            0           0           0
      2.110246  0.000000  7.500000            0           0           0
      0.000000  0.000000  9.610246            0           0           0
      2.110246  6.330738  9.610246            0           0           0
      0.000360  6.330844 11.726431            0           0           0
      2.110629  0.000482 11.726233            0           0           0
      0.000436  0.000962 13.820435            0           0           0
      2.111920  6.331266 13.820818            0           0           0
      0.000000  2.110246  7.500000            0           0           0
      2.110246  4.220492  7.500000            0           0           0
      0.000000  4.220492  9.610246            0           0           0
      2.110246  2.110246  9.610246            0           0           0
      0.000285  2.110657 11.726199            0           0           0
      2.111181  4.221045 11.726310            0           0           0
      0.000437  4.221283 13.820434            0           0           0
      2.111496  2.111613 13.820454            0           0           0
      4.220492  6.330738  7.500000            0           0           0
      6.330738  0.000000  7.500000            0           0           0
      4.220492  0.000000  9.610246            0           0           0
      6.330738  6.330738  9.610246            0           0           0
      4.223660  6.331239 11.726251            0           0           0
      6.331393  0.000946 11.726228            0           0           0
      4.221767  0.001306 13.820379            0           0           0
      6.344265  6.333807 13.823872            0           0           0
      4.220492  2.110246  7.500000            0           0           0
      6.330738  4.220492  7.500000            0           0           0
      4.220492  4.220492  9.610246            0           0           0
      6.330738  2.110246  9.610246            0           0           0
      4.221473  2.111236 11.726248            0           0           0
      6.333277  4.223493 11.726404            0           0           0
      4.223710  4.223177 13.819199            0           0           0
      6.333220  2.113432 13.818737            0           0           0
      0.000000 14.771723  7.500000            0           0           0
      2.110246  8.440985  7.500000            0           0           0
      0.000000  8.440985  9.610246            0           0           0
      2.110246 14.771723  9.610246            0           0           0
      0.000335 14.772137 11.726198            0           0           0
      2.110726  8.440965 11.725535            0           0           0
      0.000452  8.440995 13.820251            0           0           0
      2.111122 14.772223 13.820243            0           0           0
      0.000000 10.551231  7.500000            0           0           0
      2.110246 12.661477  7.500000            0           0           0
      0.000000 12.661477  9.610246            0           0           0
      2.110246 10.551231  9.610246            0           0           0
      0.000264 10.551314 11.726076            0           0           0
      2.110664 12.661600 11.726222            0           0           0
      0.000344 12.661625 13.820230            0           0           0
      2.111129 10.551028 13.820176            0           0           0
[...]
     14.771723  8.440985  9.610246            0           0           0
     12.661477  8.440985  7.500000            0           0           0
     14.771723 14.771723  7.500000            0           0           0
     12.661379 14.772095 13.869203            0           0           0
     14.771195  8.441179 13.869022            0           0           0
     12.664643  8.441845 11.717531            0           0           0
     14.771974 14.772114 11.720099            0           0           0
     12.661477 10.551231  9.610246            0           0           0
     14.771723 12.661477  9.610246            0           0           0
     12.661477 12.661477  7.500000            0           0           0
     14.771723 10.551231  7.500000            0           0           0
     12.661984 10.551798 13.870095            0           0           0
     14.772102 12.661944 13.869068            0           0           0
     12.661932 12.662027 11.719954            0           0           0
     14.772318 10.551727 11.719915            0           0           0

 Finite differences POTIM=   1.0000000000000000E-002