 vasp.6.4.2 20Jul23 (build Feb 22 2024 13:53:45) complex
 executed on              LinuxNV date 2024.08.27  18:33:10
 OpenACC runtime initialized ...    4 GPUs detected

 INCAR:
   SYSTEM = Oxide-Surface
   ISMEAR = 0
   SIGMA = 0.05
   EDIFF = 1E-5
   ALGO = Normal
   IBRION = -1
   NSW = 0
   ISYM = 0
   DIPOL = 0.5 0.5 0.5
   IDIPOL = 3
   LDIPOL = .TRUE.
   ISTART = 1
   LHFCALC = .TRUE.
   GGA = PE
   IVDW = 21
   VDW_SR = 0.96
   HFRCUT = -1
   ENCUT = 520
   PREC = Normal
   PRECFOCK = Normal
   LASPH = .TRUE.
   LREAL = Auto
   ISPIN = 1
   NELM = 200
   NELMIN = 8
   NCORE = 1
   KPAR = 1
   LWAVE = .FALSE.
   LCHARG = .FALSE.

 POTCAR:    PAW_PBE C 08Apr2002
 POTCAR:    PAW_PBE O 08Apr2002
 POTCAR:    PAW_PBE Mg_pv 13Apr2007
 POTCAR:    PAW_PBE O 08Apr2002
 POTCAR:    PAW_PBE C 08Apr2002
   VRHFIN =C: s2p2

   TITEL  = PAW_PBE C 08Apr2002
   POMASS =   12.011; ZVAL   =    4.000    mass and valenz
   ENMAX  =  400.000; ENMIN  =  300.000 eV

[...]

   TITEL  = PAW_PBE Mg_pv 13Apr2007
   POMASS =   24.305; ZVAL   =    8.000    mass and valenz
   ENMAX  =  403.929; ENMIN  =  302.947 eV

   TITEL  = PAW_PBE O 08Apr2002
   POMASS =   16.000; ZVAL   =    6.000    mass and valenz
   ENMAX  =  400.000; ENMIN  =  300.000 eV

 Optimization of the real space projectors (new method)

 maximal supplied QI-value         = 25.13
 optimisation between [QCUT,QGAM] = [ 11.56, 23.12] = [ 37.43,149.72] Ry
 Optimized for a Real-space Cutoff    1.04 Angstroem

   l    n(q)    QCUT    max X(q) W(low)/X(q) W(high)/X(q)  e(spline)
   0      7    11.561   115.676    0.20E-03    0.60E-03    0.21E-06
   0      7    11.561    87.132    0.20E-03    0.59E-03    0.21E-06
   1      7    11.561     4.429    0.23E-03    0.35E-03    0.15E-06
   1      7    11.561     2.733    0.18E-03    0.25E-03    0.12E-06
 Optimization of the real space projectors (new method)

[...]

   l    n(q)    QCUT    max X(q) W(low)/X(q) W(high)/X(q)  e(spline)
   1      8    11.527     2.974    0.16E-03    0.13E-03    0.98E-07
   1      8    11.527     4.279    0.42E-03    0.30E-03    0.22E-06
   0      8    11.527    16.381    0.13E-03    0.20E-03    0.72E-07
   0      8    11.527     5.611    0.88E-04    0.13E-03    0.50E-07
   2      7    11.527     4.652    0.25E-03    0.73E-04    0.51E-07
 Optimization of the real space projectors (new method)

 maximal supplied QI-value         = 24.76
 optimisation between [QCUT,QGAM] = [ 11.64, 23.27] = [ 37.91,151.63] Ry
 Optimized for a Real-space Cutoff    1.04 Angstroem

   l    n(q)    QCUT    max X(q) W(low)/X(q) W(high)/X(q)  e(spline)
   0      7    11.635    20.381    0.14E-03    0.49E-03    0.18E-06
   0      7    11.635    15.268    0.16E-03    0.52E-03    0.19E-06
   1      7    11.635     5.964    0.30E-03    0.44E-03    0.22E-06
   1      7    11.635     5.382    0.27E-03    0.34E-03    0.19E-06
  PAW_PBE C 08Apr2002                   :
  PAW_PBE O 08Apr2002                   :
  PAW_PBE Mg_pv 13Apr2007               :
  PAW_PBE O 08Apr2002                   :

 POSCAR:  C  O Mg  O
  positions in direct lattice
 exchange correlation table for  LEXCH =        8
   RHO(1)=    0.500       N(1)  =     2000
   RHO(2)=  100.500       N(2)  =     4000

 ion  position               nearest neighbor table
   1  0.500  0.750  0.719-   3 1.26   2 1.26  56 1.47
   2  0.500  0.887  0.748-   1 1.26  26 2.17
   3  0.500  0.613  0.748-   1 1.26  34 2.17
   4  0.000  0.750  0.252-  36 2.11  38 2.11  39 2.11  46 2.11  55 2.11
   5  0.250  0.000  0.252-  37 2.11  38 2.11  39 2.11  47 2.11  54 2.11
   6  0.000  0.000  0.376-  42 2.11  38 2.11  36 2.11  37 2.11  44 2.11  53 2.11
   7  0.250  0.750  0.376-  39 2.11  37 2.11  36 2.11  45 2.11  52 2.11  43 2.13
   8  1.000  0.750  0.499-  36 2.10  50 2.11  42 2.11  59 2.13  43 2.13  40 2.14
   9  0.252  0.001  0.502-  58 2.09  51 2.10  41 2.11  43 2.12  42 2.13  37 2.14
  10  0.000  0.003  0.624-  48 2.09  41 2.10  57 2.10  42 2.12  40 2.13
  11  0.237  0.750  0.623-  40 2.00  43 2.08  49 2.10  41 2.10  56 2.22
  12  0.000  0.250  0.252-  44 2.11  38 2.11  46 2.11  47 2.11  63 2.11
  13  0.250  0.500  0.252-  45 2.11  39 2.11  46 2.11  47 2.11  62 2.11
  14  0.000  0.500  0.376-  50 2.11  46 2.11  45 2.11  36 2.11  44 2.11  61 2.11
  15  0.250  0.250  0.376-  47 2.11  44 2.11  45 2.11  37 2.11  60 2.11  51 2.12
  16  0.000  0.250  0.500-  44 2.11  51 2.11  67 2.11  50 2.11  42 2.11  48 2.14
  17  0.252  0.500  0.502-  66 2.09  51 2.10  49 2.11  43 2.12  50 2.13  45 2.14
  18  0.000  0.498  0.624-  48 2.09  49 2.10  65 2.10  50 2.12  40 2.13
  19  0.248  0.250  0.625-  48 2.09  51 2.11  49 2.12  41 2.12  64 2.13
  20  0.500  0.750  0.252-  52 2.11  39 2.11  54 2.11  55 2.11  62 2.11
  21  0.750  0.000  0.252-  53 2.11  38 2.11  54 2.11  55 2.11  63 2.11
  22  0.500  0.000  0.376-  54 2.11  52 2.11  53 2.11  37 2.11  60 2.11  58 2.15
  23  0.750  0.750  0.376-  55 2.11  52 2.11  53 2.11  36 2.11  61 2.11  59 2.13
  24  0.500  0.750  0.498-  52 2.07  59 2.09  43 2.09  66 2.09  58 2.09
  25  0.748  0.001  0.502-  58 2.09  67 2.10  57 2.11  59 2.12  42 2.13  53 2.14
  26  0.500  0.011  0.636-  64 2.02  41 2.14  57 2.14   2 2.17  56 2.21
  27  0.763  0.750  0.623-  40 2.00  59 2.08  65 2.10  57 2.10  56 2.22
  28  0.500  0.250  0.252-  60 2.11  54 2.11  47 2.11  62 2.11  63 2.11
  29  0.750  0.500  0.252-  61 2.11  55 2.11  46 2.11  62 2.11  63 2.11
  30  0.500  0.500  0.376-  62 2.11  52 2.11  60 2.11  61 2.11  45 2.11  66 2.15
  31  0.750  0.250  0.376-  63 2.11  53 2.11  60 2.11  61 2.11  44 2.11  67 2.12
  32  0.500  0.250  0.502-  51 2.11  67 2.11  66 2.13  58 2.13  64 2.14  60 2.15
  33  0.748  0.500  0.502-  66 2.09  67 2.10  65 2.11  59 2.12  50 2.13  61 2.14
  34  0.500  0.489  0.636-  64 2.02  49 2.14  65 2.14   3 2.17  56 2.21
  35  0.752  0.250  0.625-  48 2.09  67 2.11  65 2.12  57 2.12  64 2.13
  36  0.000  0.750  0.376-   8 2.10   4 2.11   7 2.11   6 2.11  14 2.11  23 2.11
  37  0.250  0.000  0.376-   5 2.11   6 2.11   7 2.11  15 2.11  22 2.11   9 2.14
  38  0.000  0.000  0.252-   6 2.11   5 2.11   4 2.11  12 2.11  21 2.11
  39  0.250  0.750  0.252-   7 2.11   5 2.11   4 2.11  13 2.11  20 2.11
  40  0.000  0.750  0.626-  11 2.00  27 2.00  10 2.13  18 2.13   8 2.14
  41  0.248  0.999  0.626-  10 2.10  11 2.10   9 2.11  19 2.12  26 2.14
  42  0.000  1.000  0.500-   8 2.11   6 2.11  16 2.11  10 2.12   9 2.13  25 2.13
  43  0.252  0.750  0.501-  11 2.08  24 2.09   9 2.12  17 2.12   7 2.13   8 2.13
  44  0.000  0.250  0.376-  12 2.11   6 2.11  14 2.11  15 2.11  31 2.11  16 2.11
  45  0.250  0.500  0.376-  13 2.11   7 2.11  14 2.11  15 2.11  30 2.11  17 2.14
  46  0.000  0.500  0.252-  14 2.11  12 2.11  13 2.11   4 2.11  29 2.11
  47  0.250  0.250  0.252-  15 2.11  12 2.11  13 2.11   5 2.11  28 2.11
  48  0.000  0.250  0.626-  19 2.09  35 2.09  10 2.09  18 2.09  16 2.14
  49  0.248  0.502  0.626-  18 2.10  11 2.10  17 2.11  19 2.12  34 2.14
  50  0.000  0.501  0.500-   8 2.11  14 2.11  16 2.11  18 2.12  17 2.13  33 2.13
  51  0.251  0.250  0.501-   9 2.10  17 2.10  32 2.11  19 2.11  16 2.11  15 2.12
  52  0.500  0.750  0.376-  24 2.07  20 2.11  22 2.11  23 2.11   7 2.11  30 2.11
  53  0.750  0.000  0.376-  21 2.11   6 2.11  22 2.11  23 2.11  31 2.11  25 2.14
  54  0.500  0.000  0.252-  22 2.11  20 2.11  21 2.11   5 2.11  28 2.11
  55  0.750  0.750  0.252-  23 2.11  20 2.11  21 2.11   4 2.11  29 2.11
  56  0.500  0.750  0.633-   1 1.47  26 2.21  34 2.21  11 2.22  27 2.22
  57  0.752  0.999  0.626-  10 2.10  27 2.10  25 2.11  35 2.12  26 2.14
  58  0.500  0.998  0.502-  24 2.09   9 2.09  25 2.09  32 2.13  22 2.15
  59  0.748  0.750  0.501-  27 2.08  24 2.09  25 2.12  33 2.12  23 2.13   8 2.13
  60  0.500  0.250  0.376-  28 2.11  22 2.11  15 2.11  30 2.11  31 2.11  32 2.15
  61  0.750  0.500  0.376-  29 2.11  23 2.11  14 2.11  30 2.11  31 2.11  33 2.14
  62  0.500  0.500  0.252-  30 2.11  20 2.11  28 2.11  29 2.11  13 2.11
  63  0.750  0.250  0.252-  31 2.11  21 2.11  28 2.11  29 2.11  12 2.11
  64  0.500  0.250  0.628-  26 2.02  34 2.02  35 2.13  19 2.13  32 2.14
  65  0.752  0.502  0.626-  18 2.10  27 2.10  33 2.11  35 2.12  34 2.14
  66  0.500  0.503  0.502-  24 2.09  17 2.09  33 2.09  32 2.13  30 2.15
  67  0.749  0.250  0.501-  25 2.10  33 2.10  32 2.11  35 2.11  16 2.11  31 2.12

IMPORTANT INFORMATION: All symmetrisations will be switched off!
NOSYMM: (Re-)initialisation of all symmetry stuff for point group C_1.

                                     Primitive cell

  volume of cell :    1211.2538

  direct lattice vectors                    reciprocal lattice vectors
     8.440984654  0.000000000  0.000000000     0.118469591  0.000000000  0.000000000
     0.000000000  8.440984654  0.000000000     0.000000000  0.118469591  0.000000000
     0.000000000  0.000000000 17.000000000     0.000000000  0.000000000  0.058823529

  length of vectors
     8.440984654  8.440984654 17.000000000     0.118469591  0.118469591  0.058823529

  position of ions in fractional coordinates (direct lattice)
     0.500000012  0.750264058  0.719050453
     0.500000066  0.887195294  0.748143164
     0.500000015  0.613356952  0.748141716
     0.000000012  0.750271483  0.251856836
     0.250000012  0.000271483  0.251856836
     0.000000012  0.000271483  0.375988963
     0.250000012  0.750271483  0.375988963
     0.999999988  0.750271429  0.499368462
     0.252039891  0.001028111  0.501782346
     0.000000034  0.002582678  0.624444171
     0.237174200  0.750271417  0.622958809
     0.000000012  0.250271483  0.251856836
     0.250000012  0.500271483  0.251856836
     0.000000012  0.500271483  0.375988963
     0.250000012  0.250271483  0.375988963
     0.000000025  0.250271481  0.500321386
     0.252039913  0.499514860  0.501782439
     0.000000033  0.497960304  0.624444240
     0.247666331  0.250271551  0.624926941
     0.500000012  0.750271483  0.251856836
     0.750000012  0.000271483  0.251856836
     0.500000012  0.000271483  0.375988963
     0.750000012  0.750271483  0.375988963
     0.500000031  0.750271498  0.497974947
     0.747960134  0.001028090  0.501782397
     0.500000002  0.011479476  0.636458488
     0.762825859  0.750271422  0.622958927
     0.500000012  0.250271483  0.251856836
     0.750000012  0.500271483  0.251856836
     0.500000012  0.500271483  0.375988963
     0.750000012  0.250271483  0.375988963
     0.500000005  0.250271518  0.502223723
     0.747960113  0.499514886  0.501782491
     0.500000001  0.489064058  0.636458884
     0.752333702  0.250271549  0.624926893
     0.000000012  0.750271483  0.375988963
     0.250000012  0.000271483  0.375988963
     0.000000012  0.000271483  0.251856836
     0.250000012  0.750271483  0.251856836
     0.000000034  0.750271519  0.625525054
     0.248158668  0.998774097  0.625931889
     0.000000015  0.999728517  0.499971061
     0.252314560  0.750271518  0.501128046
     0.000000012  0.250271483  0.375988963
     0.250000012  0.500271483  0.375988963
     0.000000012  0.500271483  0.251856836
     0.250000012  0.250271483  0.251856836
     0.000000017  0.250271467  0.626441503
     0.248158646  0.501768877  0.625931815
     0.000000014  0.500814411  0.499971054
     0.250533599  0.250271460  0.500674415
[...]
   O         196.081          4.870         19.145          3.54531287
   O         135.478          4.579         15.913          2.94693256
   O         193.022          4.857         18.995          3.51754692
   O         229.499          4.999         20.712          3.83554504
   O         240.716          5.039         21.212          3.92815944
   O         239.678          5.035         21.166          3.91968040
   O         238.333          5.031         21.107          3.90866706
   O         196.289          4.871         19.155          3.54718450
   O         196.477          4.871         19.164          3.54888367
   O         196.884          4.873         19.184          3.55255829
   O         192.825          4.856         18.985          3.51574849
   O         229.334          4.999         20.704          3.83416614
   O         244.933          5.054         21.397          3.96241378

  vdW correction parametrized for the method Ì?    þ

  IVDW =  21
  VDW_RADIUS =    50.000 A
  VDW_IDAMPF =  0
  VDW_S6 =     1.000
  VDW_SR =     0.960
  VDW_D =    20.000
  LVDW_ONECELL = F F F
  LVDW_SAMETYPE T T T T
  LVDW_EWALD = F

  Number of pair interactions contributing to vdW energy:  978014
  Edisp (eV):   -4.08265

 VOLUME and BASIS-vectors are now :
  energy-cutoff  :      520.00
  volume of cell :     1211.25
      direct lattice vectors                 reciprocal lattice vectors
     8.440984654  0.000000000  0.000000000     0.118469591  0.000000000  0.000000000
     0.000000000  8.440984654  0.000000000     0.000000000  0.118469591  0.000000000
     0.000000000  0.000000000 17.000000000     0.000000000  0.000000000  0.058823529

  length of vectors
     8.440984654  8.440984654 17.000000000     0.118469591  0.118469591  0.058823529

 FORCES acting on ions
    electron-ion (+dipol)            ewald-force                    non-local-force                 convergence-correction
   0.105E-03 -.474E-01 -.842E+03   -.106E-03 0.576E-01 0.845E+03   0.116E-05 0.334E-02 -.274E+01   0.597E-07 0.119E-07 0.866E-01
   -.608E-04 -.222E+03 -.137E+04   0.793E-04 0.265E+03 0.139E+04   -.154E-04 -.380E+02 -.244E+02   -.860E-07 0.208E-02 0.132E+00
   0.422E-04 0.222E+03 -.137E+04   -.423E-04 -.265E+03 0.139E+04   0.626E-06 0.380E+02 -.244E+02   -.120E-06 -.209E-02 0.132E+00
   0.137E-04 -.107E-03 0.172E+04   -.146E-04 -.230E-04 -.172E+04   0.135E-05 0.375E-03 -.670E+01   -.100E-05 -.148E-05 -.154E+00
   0.554E+00 -.112E+01 0.172E+04   -.547E+00 0.116E+01 -.172E+04   -.465E-02 -.220E-01 -.681E+01   -.219E-03 0.884E-04 -.153E+00
   0.653E-04 -.258E+01 0.609E+03   -.683E-04 0.274E+01 -.609E+03   0.202E-05 -.983E-01 0.123E+00   -.322E-06 -.168E-03 -.513E-01
   0.276E+01 -.409E-04 0.610E+03   -.281E+01 -.109E-03 -.611E+03   0.233E-01 -.226E-03 0.727E+00   0.167E-03 0.644E-06 -.509E-01
   0.259E-04 -.109E-03 -.476E+03   -.331E-04 0.321E-04 0.476E+03   0.614E-05 -.875E-03 0.686E-01   0.313E-06 -.734E-06 0.636E-01
   0.571E+01 -.860E+01 -.491E+03   -.511E+01 0.884E+01 0.492E+03   -.532E+00 -.204E+00 -.118E+01   0.333E-03 -.767E-03 0.659E-01
   0.300E-05 -.183E+02 -.164E+04   0.911E-06 0.191E+02 0.163E+04   -.402E-05 -.699E+00 0.577E+01   0.420E-06 0.234E-03 0.146E+00
   0.493E+02 -.437E-03 -.155E+04   -.553E+02 0.842E-03 0.154E+04   0.516E+01 0.128E-02 0.646E+01   0.424E-02 -.190E-05 0.145E+00
   0.151E-04 -.163E-03 0.172E+04   -.147E-04 0.235E-04 -.172E+04   -.188E-06 0.351E-03 -.680E+01   -.472E-06 0.180E-06 -.154E+00
   0.554E+00 0.112E+01 0.172E+04   -.547E+00 -.116E+01 -.172E+04   -.465E-02 0.228E-01 -.681E+01   -.219E-03 -.872E-04 -.153E+00
   0.673E-04 0.258E+01 0.609E+03   -.703E-04 -.274E+01 -.609E+03   0.210E-05 0.979E-01 0.123E+00   -.344E-06 0.168E-03 -.513E-01
   -.940E+00 -.277E-03 0.606E+03   0.102E+01 0.113E-03 -.607E+03   -.510E-01 -.249E-03 0.392E+00   0.111E-03 -.832E-06 -.515E-01
   0.488E-04 -.250E-03 -.498E+03   -.442E-04 0.240E-04 0.498E+03   -.470E-05 -.122E-02 -.170E+00   0.847E-06 0.649E-06 0.639E-01
   0.571E+01 0.860E+01 -.491E+03   -.511E+01 -.884E+01 0.492E+03   -.532E+00 0.205E+00 -.118E+01   0.333E-03 0.768E-03 0.659E-01
   0.151E-04 0.183E+02 -.164E+04   -.106E-04 -.191E+02 0.163E+04   -.438E-05 0.699E+00 0.577E+01   0.323E-06 -.235E-03 0.146E+00
   0.293E+02 -.622E-03 -.163E+04   -.301E+02 0.569E-04 0.162E+04   0.758E+00 0.139E-02 0.587E+01   -.808E-03 0.331E-06 0.146E+00
   -.133E-04 -.103E-03 0.172E+04   0.148E-04 -.280E-04 -.172E+04   -.819E-06 0.366E-03 -.664E+01   -.216E-06 -.202E-05 -.153E+00
   -.554E+00 -.112E+01 0.172E+04   0.547E+00 0.116E+01 -.172E+04   0.465E-02 -.220E-01 -.681E+01   0.221E-03 0.869E-04 -.153E+00
   -.670E-04 -.626E+01 0.606E+03   0.709E-04 0.656E+01 -.606E+03   -.229E-05 -.171E+00 0.598E+00   -.992E-07 -.276E-03 -.509E-01
   -.276E+01 -.393E-04 0.610E+03   0.281E+01 -.111E-03 -.611E+03   -.233E-01 -.226E-03 0.727E+00   -.167E-03 0.459E-06 -.509E-01
   -.479E-04 0.106E-03 -.479E+03   0.542E-04 -.202E-03 0.474E+03   -.587E-05 0.904E-03 0.440E+01   0.304E-06 -.136E-05 0.632E-01
   -.571E+01 -.860E+01 -.491E+03   0.511E+01 0.884E+01 0.492E+03   0.532E+00 -.204E+00 -.118E+01   -.333E-03 -.768E-03 0.659E-01
   0.865E-06 -.857E+02 -.153E+04   -.576E-05 0.891E+02 0.153E+04   0.475E-05 -.300E+01 0.131E+01   -.336E-06 -.694E-02 0.154E+00
   -.493E+02 -.423E-03 -.155E+04   0.553E+02 0.827E-03 0.154E+04   -.516E+01 0.128E-02 0.646E+01   -.424E-02 -.197E-05 0.145E+00
   -.155E-04 -.170E-03 0.172E+04   0.147E-04 0.281E-04 -.171E+04   0.199E-05 0.355E-03 -.682E+01   -.140E-05 0.160E-05 -.153E+00
   -.554E+00 0.112E+01 0.172E+04   0.547E+00 -.116E+01 -.172E+04   0.465E-02 0.228E-01 -.681E+01   0.221E-03 -.855E-04 -.153E+00
   -.698E-04 0.626E+01 0.606E+03   0.735E-04 -.656E+01 -.606E+03   -.237E-05 0.171E+00 0.598E+00   0.112E-06 0.274E-03 -.509E-01
   0.940E+00 -.280E-03 0.606E+03   -.102E+01 0.117E-03 -.607E+03   0.510E-01 -.249E-03 0.392E+00   -.111E-03 -.909E-06 -.515E-01
   -.498E-04 -.590E-03 -.497E+03   0.486E-04 0.386E-03 0.498E+03   0.790E-06 0.164E-02 -.495E+00   -.109E-06 0.151E-05 0.646E-01
   -.571E+01 0.860E+01 -.491E+03   0.511E+01 -.884E+01 0.492E+03   0.532E+00 0.205E+00 -.118E+01   -.334E-03 0.769E-03 0.659E-01
   -.197E-04 0.857E+02 -.153E+04   0.142E-04 -.891E+02 0.153E+04   0.489E-05 0.300E+01 0.131E+01   -.164E-06 0.694E-02 0.154E+00
   -.293E+02 -.645E-03 -.163E+04   0.301E+02 0.781E-04 0.162E+04   -.758E+00 0.139E-02 0.587E+01   0.807E-03 0.573E-06 0.146E+00
   0.410E-04 0.678E-04 0.460E+03   -.394E-04 -.319E-04 -.460E+03   -.109E-05 -.817E-03 0.220E+00   -.532E-06 0.259E-06 -.407E-01
   0.392E+00 -.220E+01 0.454E+03   -.514E+00 0.230E+01 -.454E+03   0.138E+00 -.123E+00 -.350E+00   0.914E-04 -.131E-03 -.407E-01
   0.980E-05 -.681E+00 0.129E+04   -.112E-04 0.714E+00 -.130E+04   0.242E-06 -.395E-01 0.300E+01   0.375E-06 0.546E-04 -.117E+00
   0.608E+00 0.431E-04 0.129E+04   -.614E+00 -.201E-04 -.130E+04   0.695E-02 0.532E-03 0.307E+01   -.168E-03 -.749E-06 -.117E+00
   -.381E-04 0.547E-04 -.123E+04   0.405E-04 0.136E-03 0.124E+04   -.205E-05 0.170E-02 -.468E+01   -.727E-07 -.109E-05 0.109E+00
   0.379E+02 -.293E+02 -.120E+04   -.371E+02 0.295E+02 0.121E+04   -.747E+00 -.108E+00 -.472E+01   0.115E-02 -.132E-02 0.109E+00
   0.373E-04 -.617E+01 -.365E+03   -.366E-04 0.625E+01 0.365E+03   -.511E-06 -.785E-01 0.215E-01   0.430E-06 -.262E-03 0.435E-01
   0.390E+01 0.956E-04 -.357E+03   -.420E+01 -.330E-04 0.356E+03   0.258E+00 -.166E-02 0.705E+00   0.386E-03 0.847E-07 0.446E-01
   0.462E-04 -.432E-04 0.456E+03   -.471E-04 0.471E-04 -.455E+03   0.103E-05 -.780E-03 -.126E+00   -.424E-06 0.163E-06 -.409E-01
   0.392E+00 0.220E+01 0.454E+03   -.514E+00 -.230E+01 -.454E+03   0.138E+00 0.122E+00 -.350E+00   0.888E-04 0.131E-03 -.407E-01
   0.103E-04 0.681E+00 0.129E+04   -.114E-04 -.714E+00 -.130E+04   0.128E-06 0.405E-01 0.300E+01   0.334E-06 -.557E-04 -.117E+00
   0.240E+00 -.578E-05 0.129E+04   -.231E+00 0.203E-04 -.130E+04   -.102E-01 0.538E-03 0.298E+01   -.151E-03 0.874E-06 -.117E+00
   0.139E-04 -.142E-03 -.125E+04   -.171E-04 -.235E-04 0.125E+04   0.199E-05 0.495E-02 -.460E+01   0.646E-06 0.275E-05 0.110E+00
   0.379E+02 0.293E+02 -.120E+04   -.371E+02 -.295E+02 0.121E+04   -.741E+00 0.106E+00 -.472E+01   0.114E-02 0.131E-02 0.109E+00
   0.413E-04 0.617E+01 -.365E+03   -.400E-04 -.625E+01 0.365E+03   -.642E-06 0.882E-01 0.241E-01   0.123E-06 0.263E-03 0.435E-01
   0.306E+01 -.147E-03 -.367E+03   -.319E+01 0.929E-04 0.367E+03   0.102E+00 -.390E-02 0.235E+00   -.416E-04 -.239E-05 0.437E-01
   -.435E-04 0.913E-04 0.465E+03   0.431E-04 -.670E-04 -.466E+03   0.149E-05 -.814E-03 0.413E+00   0.225E-06 0.790E-06 -.404E-01
   -.392E+00 -.220E+01 0.454E+03   0.514E+00 0.230E+01 -.454E+03   -.138E+00 -.123E+00 -.350E+00   -.913E-04 -.132E-03 -.407E-01
   -.101E-04 -.105E+01 0.129E+04   0.113E-04 0.110E+01 -.130E+04   -.218E-06 -.566E-01 0.303E+01   -.547E-06 0.609E-04 -.117E+00
   -.608E+00 0.435E-04 0.129E+04   0.614E+00 -.203E-04 -.130E+04   -.695E-02 0.532E-03 0.307E+01   0.169E-03 -.101E-05 -.117E+00
   0.197E-04 -.489E-02 -.969E+03   -.217E-04 0.722E-02 0.946E+03   0.655E-07 -.686E-02 0.206E+02   0.442E-06 0.108E-05 0.111E+00
   -.379E+02 -.293E+02 -.120E+04   0.371E+02 0.295E+02 0.121E+04   0.747E+00 -.108E+00 -.472E+01   -.115E-02 -.132E-02 0.109E+00
   -.367E-04 -.862E+01 -.383E+03   0.383E-04 0.905E+01 0.384E+03   0.140E-05 -.371E+00 -.165E+01   -.138E-05 -.708E-03 0.453E-01
   -.390E+01 0.978E-04 -.357E+03   0.420E+01 -.344E-04 0.356E+03   -.258E+00 -.166E-02 0.705E+00   -.386E-03 0.105E-06 0.446E-01
   -.392E-04 -.560E-04 0.451E+03   0.472E-04 0.637E-04 -.451E+03   -.122E-04 -.781E-03 -.309E+00   0.222E-05 -.121E-05 -.407E-01
   -.392E+00 0.220E+01 0.454E+03   0.514E+00 -.230E+01 -.454E+03   -.138E+00 0.122E+00 -.350E+00   -.889E-04 0.132E-03 -.407E-01
   -.109E-04 0.105E+01 0.129E+04   0.115E-04 -.110E+01 -.130E+04   0.277E-07 0.577E-01 0.303E+01   -.394E-06 -.597E-04 -.117E+00
   -.240E+00 -.635E-05 0.129E+04   0.231E+00 0.206E-04 -.130E+04   0.102E-01 0.538E-03 0.298E+01   0.151E-03 0.111E-05 -.117E+00
   -.160E-04 -.166E-02 -.120E+04   0.161E-04 0.148E-02 0.121E+04   0.177E-05 -.428E-02 -.373E+01   -.108E-05 -.541E-05 0.109E+00
   -.379E+02 0.293E+02 -.120E+04   0.371E+02 -.295E+02 0.121E+04   0.741E+00 0.106E+00 -.472E+01   -.114E-02 0.131E-02 0.109E+00
   -.434E-04 0.862E+01 -.383E+03   0.447E-04 -.905E+01 0.384E+03   0.119E-05 0.377E+00 -.165E+01   -.890E-06 0.705E-03 0.453E-01
   -.306E+01 -.163E-03 -.367E+03   0.319E+01 0.108E-03 0.367E+03   -.102E+00 -.390E-02 0.235E+00   0.414E-04 -.228E-05 0.437E-01
   0.573E-04 -.130E-01 0.612E+02   -.362E-12 -.135E-12 0.188E-11   -.437E-04 0.293E-01 -.538E+02   -.279E-06 -.139E-04 0.380E+00

 POSITION                                       TOTAL-FORCE (eV/Angst)
      4.22049      6.33297     12.22386        -0.000000      0.012938      0.132195
      4.22049      7.48880     12.71843         0.000000     -1.145417     -0.687917
      4.22049      5.17734     12.71841         0.000000      1.145031     -0.683582
      0.00000      6.33303      4.28157        -0.000000      0.001067      0.532636
      2.11025      0.00229      4.28157         0.001407      0.011016      0.557411
      0.00000      0.00229      6.39181        -0.000001      0.044686      0.085867
      2.11025      6.33303      6.39181        -0.023724     -0.000567     -0.000014
      8.44098      6.33303      8.48926        -0.000000     -0.000595      0.060245
      2.12746      0.00868      8.53030         0.006983      0.006811      0.063901
      0.00000      0.02180     10.61555        -0.000000      0.008958     -0.126809
      2.00198      6.33303     10.59030        -0.114595      0.000621     -0.131954
      0.00000      2.11254      4.28157        -0.000000      0.001032      0.562207
      2.11025      4.22278      4.28157         0.001405     -0.008925      0.557381
      0.00000      4.22278      6.39181        -0.000001     -0.045821      0.085860
      2.11025      2.11254      6.39181         0.023594     -0.000557      0.080596
      0.00000      2.11254      8.50546         0.000000     -0.000921      0.057510
      2.12747      4.21640      8.53030         0.007029     -0.006047      0.063736
      0.00000      4.20328     10.61555        -0.000000     -0.009932     -0.126068
      2.09055      2.11254     10.62376        -0.009488     -0.000218     -0.120578
      4.22049      6.33303      4.28157         0.000000      0.001050      0.512766
      6.33074      0.00229      4.28157        -0.001407      0.011016      0.557412
      4.22049      0.00229      6.39181         0.000001      0.092330      0.091166
      6.33074      6.33303      6.39181         0.023724     -0.000567     -0.000013
      4.22049      6.33303      8.46557         0.000000      0.000917     -0.053962
      6.31352      0.00868      8.53030        -0.006984      0.006808      0.063985
      4.22049      0.09690     10.81979         0.000000      0.023934      0.010673
      6.43900      6.33303     10.59030         0.114595      0.000621     -0.132064
      4.22049      2.11254      4.28157         0.000000      0.001030      0.560935
      6.33074      4.22278      4.28157        -0.001405     -0.008925      0.557381
      4.22049      4.22278      6.39181         0.000001     -0.093393      0.091155
      6.33074      2.11254      6.39181        -0.023594     -0.000557      0.080598
      4.22049      2.11254      8.53780        -0.000000      0.000342      0.056943
      6.31352      4.21640      8.53030        -0.007029     -0.006045      0.063820
      4.22049      4.12818     10.81980        -0.000000     -0.024880      0.009361
      6.35044      2.11254     10.62376         0.009488     -0.000218     -0.120666
      0.00000      6.33303      6.39181        -0.000000     -0.001101      0.037599
      2.11025      0.00229      6.39181         0.042523     -0.045730      0.041486
      0.00000      0.00229      4.28157        -0.000001     -0.013661     -0.453937
      2.11025      6.33303      4.28157         0.002998      0.000047     -0.431184
      0.00000      6.33303     10.63393        -0.000000      0.000981     -0.122058
      2.09470      8.43064     10.64084        -0.033465      0.016649     -0.145385
      0.00000      8.43869      8.49951         0.000000     -0.006741      0.015707
      2.12978      6.33303      8.51918        -0.000174     -0.001810      0.018934
      0.00000      2.11254      6.39181        -0.000000     -0.001065     -0.000700
      2.11025      4.22278      6.39181         0.042550      0.043577      0.041466
      0.00000      4.22278      4.28157        -0.000001      0.013785     -0.453925
      2.11025      2.11254      4.28157        -0.002885      0.000080     -0.458858
      0.00000      2.11254     10.64951        -0.000000      0.003494     -0.142989
      2.09470      4.23542     10.64084        -0.028873     -0.019039     -0.149494
      0.00000      4.22737      8.49951         0.000000      0.014007      0.017708
      2.11475      2.11254      8.51147        -0.000063     -0.003661      0.014440
      4.22049      6.33303      6.39181         0.000002     -0.001131     -0.037322
      6.33074      0.00229      6.39181        -0.042523     -0.045731      0.041483
      4.22049      0.00229      4.28157         0.000000     -0.019542     -0.444234
      6.33074      6.33303      4.28157        -0.002998      0.000047     -0.431184
      4.22049      6.33304     10.75435        -0.000001     -0.004608      0.972540
      6.34628      8.43064     10.64084         0.033468      0.016656     -0.145374
      4.22049      8.42386      8.53684         0.000002     -0.002142     -0.049759
      6.31120      6.33303      8.51918         0.000174     -0.001810      0.018946
      4.22049      2.11254      6.39181        -0.000004     -0.001037      0.091249
      6.33074      4.22278      6.39181        -0.042550      0.043578      0.041464
      4.22049      4.22278      4.28157         0.000000      0.019673     -0.444237
      6.33074      2.11254      4.28157         0.002886      0.000080     -0.458858
      4.22049      2.11254     10.68204         0.000001     -0.003918     -0.112782
      6.34628      4.23542     10.64084         0.028875     -0.019046     -0.149484
      4.22049      4.24220      8.53684         0.000002      0.006155     -0.047815
      6.32623      2.11254      8.51147         0.000060     -0.003661      0.014441
    total drift:                                0.000003      0.030245     -0.562944

  FREE ENERGIE OF THE ION-ELECTRON SYSTEM (eV)
  free  energy   TOTEN  =      -498.11016944 eV

  energy  without entropy=     -498.11016944  energy(sigma->0) =     -498.11016944