 vasp.6.4.2 20Jul23 (build Feb 22 2024 13:53:45) complex
 executed on              LinuxNV date 2024.08.27  18:29:43
 OpenACC runtime initialized ...    4 GPUs detected

 INCAR:
   SYSTEM = Oxide-Surface
   ISMEAR = 0
   SIGMA = 0.05
   EDIFF = 1E-5
   ALGO = Normal
   IBRION = -1
   NSW = 0
   ISYM = 0
   DIPOL = 0.5 0.5 0.5
   IDIPOL = 3
   LDIPOL = .TRUE.
   ISTART = 0
   LHFCALC = .FALSE.
   GGA = PE
   IVDW = 21
   VDW_SR = 0.96
   HFRCUT = -1
   ENCUT = 520
   PREC = Normal
   PRECFOCK = Normal
   LASPH = .TRUE.
   LREAL = Auto
   ISPIN = 1
   NELM = 200
   NELMIN = 8
   NCORE = 1
   KPAR = 1
   LWAVE = .TRUE.
   LCHARG = .FALSE.

 POTCAR:    PAW_PBE C 08Apr2002
 POTCAR:    PAW_PBE O 08Apr2002
 POTCAR:    PAW_PBE Mg_pv 13Apr2007
 POTCAR:    PAW_PBE O 08Apr2002
 POTCAR:    PAW_PBE C 08Apr2002
   VRHFIN =C: s2p2

   TITEL  = PAW_PBE C 08Apr2002
   POMASS =   12.011; ZVAL   =    4.000    mass and valenz
   ENMAX  =  400.000; ENMIN  =  300.000 eV

[...]

   TITEL  = PAW_PBE Mg_pv 13Apr2007
   POMASS =   24.305; ZVAL   =    8.000    mass and valenz
   ENMAX  =  403.929; ENMIN  =  302.947 eV

   TITEL  = PAW_PBE O 08Apr2002
   POMASS =   16.000; ZVAL   =    6.000    mass and valenz
   ENMAX  =  400.000; ENMIN  =  300.000 eV

 Optimization of the real space projectors (new method)

 maximal supplied QI-value         = 25.13
 optimisation between [QCUT,QGAM] = [ 11.56, 23.12] = [ 37.43,149.72] Ry
 Optimized for a Real-space Cutoff    1.04 Angstroem

   l    n(q)    QCUT    max X(q) W(low)/X(q) W(high)/X(q)  e(spline)
   0      7    11.561   115.676    0.20E-03    0.60E-03    0.21E-06
   0      7    11.561    87.132    0.20E-03    0.59E-03    0.21E-06
   1      7    11.561     4.429    0.23E-03    0.35E-03    0.15E-06
   1      7    11.561     2.733    0.18E-03    0.25E-03    0.12E-06
 Optimization of the real space projectors (new method)

[...]

   l    n(q)    QCUT    max X(q) W(low)/X(q) W(high)/X(q)  e(spline)
   1      8    11.527     2.974    0.16E-03    0.13E-03    0.98E-07
   1      8    11.527     4.279    0.42E-03    0.30E-03    0.22E-06
   0      8    11.527    16.381    0.13E-03    0.20E-03    0.72E-07
   0      8    11.527     5.611    0.88E-04    0.13E-03    0.50E-07
   2      7    11.527     4.652    0.25E-03    0.73E-04    0.51E-07
 Optimization of the real space projectors (new method)

 maximal supplied QI-value         = 24.76
 optimisation between [QCUT,QGAM] = [ 11.64, 23.27] = [ 37.91,151.63] Ry
 Optimized for a Real-space Cutoff    1.04 Angstroem

   l    n(q)    QCUT    max X(q) W(low)/X(q) W(high)/X(q)  e(spline)
   0      7    11.635    20.381    0.14E-03    0.49E-03    0.18E-06
   0      7    11.635    15.268    0.16E-03    0.52E-03    0.19E-06
   1      7    11.635     5.964    0.30E-03    0.44E-03    0.22E-06
   1      7    11.635     5.382    0.27E-03    0.34E-03    0.19E-06
  PAW_PBE C 08Apr2002                   :
  PAW_PBE O 08Apr2002                   :
  PAW_PBE Mg_pv 13Apr2007               :
  PAW_PBE O 08Apr2002                   :

 POSCAR:  C  O Mg  O
  positions in direct lattice
 exchange correlation table for  LEXCH =        8
   RHO(1)=    0.500       N(1)  =     2000
   RHO(2)=  100.500       N(2)  =     4000

 ion  position               nearest neighbor table
   1  0.500  0.750  0.719-   3 1.26   2 1.26  56 1.47
   2  0.500  0.887  0.748-   1 1.26  26 2.17
   3  0.500  0.613  0.748-   1 1.26  34 2.17
   4  0.000  0.750  0.252-  36 2.11  38 2.11  39 2.11  46 2.11  55 2.11
   5  0.250  0.000  0.252-  37 2.11  38 2.11  39 2.11  47 2.11  54 2.11
   6  0.000  0.000  0.376-  42 2.11  38 2.11  36 2.11  37 2.11  44 2.11  53 2.11
   7  0.250  0.750  0.376-  39 2.11  37 2.11  36 2.11  45 2.11  52 2.11  43 2.13
   8  1.000  0.750  0.499-  36 2.10  50 2.11  42 2.11  59 2.13  43 2.13  40 2.14
   9  0.252  0.001  0.502-  58 2.09  51 2.10  41 2.11  43 2.12  42 2.13  37 2.14
  10  0.000  0.003  0.624-  48 2.09  41 2.10  57 2.10  42 2.12  40 2.13
  11  0.237  0.750  0.623-  40 2.00  43 2.08  49 2.10  41 2.10  56 2.22
  12  0.000  0.250  0.252-  44 2.11  38 2.11  46 2.11  47 2.11  63 2.11
  13  0.250  0.500  0.252-  45 2.11  39 2.11  46 2.11  47 2.11  62 2.11
  14  0.000  0.500  0.376-  50 2.11  46 2.11  45 2.11  36 2.11  44 2.11  61 2.11
  15  0.250  0.250  0.376-  47 2.11  44 2.11  45 2.11  37 2.11  60 2.11  51 2.12
  16  0.000  0.250  0.500-  44 2.11  51 2.11  67 2.11  50 2.11  42 2.11  48 2.14
  17  0.252  0.500  0.502-  66 2.09  51 2.10  49 2.11  43 2.12  50 2.13  45 2.14
  18  0.000  0.498  0.624-  48 2.09  49 2.10  65 2.10  50 2.12  40 2.13
  19  0.248  0.250  0.625-  48 2.09  51 2.11  49 2.12  41 2.12  64 2.13
  20  0.500  0.750  0.252-  52 2.11  39 2.11  54 2.11  55 2.11  62 2.11
  21  0.750  0.000  0.252-  53 2.11  38 2.11  54 2.11  55 2.11  63 2.11
  22  0.500  0.000  0.376-  54 2.11  52 2.11  53 2.11  37 2.11  60 2.11  58 2.15
  23  0.750  0.750  0.376-  55 2.11  52 2.11  53 2.11  36 2.11  61 2.11  59 2.13
  24  0.500  0.750  0.498-  52 2.07  59 2.09  43 2.09  66 2.09  58 2.09
  25  0.748  0.001  0.502-  58 2.09  67 2.10  57 2.11  59 2.12  42 2.13  53 2.14
  26  0.500  0.011  0.636-  64 2.02  41 2.14  57 2.14   2 2.17  56 2.21
  27  0.763  0.750  0.623-  40 2.00  59 2.08  65 2.10  57 2.10  56 2.22
  28  0.500  0.250  0.252-  60 2.11  54 2.11  47 2.11  62 2.11  63 2.11
  29  0.750  0.500  0.252-  61 2.11  55 2.11  46 2.11  62 2.11  63 2.11
  30  0.500  0.500  0.376-  62 2.11  52 2.11  60 2.11  61 2.11  45 2.11  66 2.15
  31  0.750  0.250  0.376-  63 2.11  53 2.11  60 2.11  61 2.11  44 2.11  67 2.12
  32  0.500  0.250  0.502-  51 2.11  67 2.11  66 2.13  58 2.13  64 2.14  60 2.15
  33  0.748  0.500  0.502-  66 2.09  67 2.10  65 2.11  59 2.12  50 2.13  61 2.14
  34  0.500  0.489  0.636-  64 2.02  49 2.14  65 2.14   3 2.17  56 2.21
  35  0.752  0.250  0.625-  48 2.09  67 2.11  65 2.12  57 2.12  64 2.13
  36  0.000  0.750  0.376-   8 2.10   4 2.11   7 2.11   6 2.11  14 2.11  23 2.11
  37  0.250  0.000  0.376-   5 2.11   6 2.11   7 2.11  15 2.11  22 2.11   9 2.14
  38  0.000  0.000  0.252-   6 2.11   5 2.11   4 2.11  12 2.11  21 2.11
  39  0.250  0.750  0.252-   7 2.11   5 2.11   4 2.11  13 2.11  20 2.11
  40  0.000  0.750  0.626-  11 2.00  27 2.00  10 2.13  18 2.13   8 2.14
  41  0.248  0.999  0.626-  10 2.10  11 2.10   9 2.11  19 2.12  26 2.14
  42  0.000  1.000  0.500-   8 2.11   6 2.11  16 2.11  10 2.12   9 2.13  25 2.13
  43  0.252  0.750  0.501-  11 2.08  24 2.09   9 2.12  17 2.12   7 2.13   8 2.13
  44  0.000  0.250  0.376-  12 2.11   6 2.11  14 2.11  15 2.11  31 2.11  16 2.11
  45  0.250  0.500  0.376-  13 2.11   7 2.11  14 2.11  15 2.11  30 2.11  17 2.14
  46  0.000  0.500  0.252-  14 2.11  12 2.11  13 2.11   4 2.11  29 2.11
  47  0.250  0.250  0.252-  15 2.11  12 2.11  13 2.11   5 2.11  28 2.11
  48  0.000  0.250  0.626-  19 2.09  35 2.09  10 2.09  18 2.09  16 2.14
  49  0.248  0.502  0.626-  18 2.10  11 2.10  17 2.11  19 2.12  34 2.14
  50  0.000  0.501  0.500-   8 2.11  14 2.11  16 2.11  18 2.12  17 2.13  33 2.13
  51  0.251  0.250  0.501-   9 2.10  17 2.10  32 2.11  19 2.11  16 2.11  15 2.12
  52  0.500  0.750  0.376-  24 2.07  20 2.11  22 2.11  23 2.11   7 2.11  30 2.11
  53  0.750  0.000  0.376-  21 2.11   6 2.11  22 2.11  23 2.11  31 2.11  25 2.14
  54  0.500  0.000  0.252-  22 2.11  20 2.11  21 2.11   5 2.11  28 2.11
  55  0.750  0.750  0.252-  23 2.11  20 2.11  21 2.11   4 2.11  29 2.11
  56  0.500  0.750  0.633-   1 1.47  26 2.21  34 2.21  11 2.22  27 2.22
  57  0.752  0.999  0.626-  10 2.10  27 2.10  25 2.11  35 2.12  26 2.14
  58  0.500  0.998  0.502-  24 2.09   9 2.09  25 2.09  32 2.13  22 2.15
  59  0.748  0.750  0.501-  27 2.08  24 2.09  25 2.12  33 2.12  23 2.13   8 2.13
  60  0.500  0.250  0.376-  28 2.11  22 2.11  15 2.11  30 2.11  31 2.11  32 2.15
  61  0.750  0.500  0.376-  29 2.11  23 2.11  14 2.11  30 2.11  31 2.11  33 2.14
  62  0.500  0.500  0.252-  30 2.11  20 2.11  28 2.11  29 2.11  13 2.11
  63  0.750  0.250  0.252-  31 2.11  21 2.11  28 2.11  29 2.11  12 2.11
  64  0.500  0.250  0.628-  26 2.02  34 2.02  35 2.13  19 2.13  32 2.14
  65  0.752  0.502  0.626-  18 2.10  27 2.10  33 2.11  35 2.12  34 2.14
  66  0.500  0.503  0.502-  24 2.09  17 2.09  33 2.09  32 2.13  30 2.15
  67  0.749  0.250  0.501-  25 2.10  33 2.10  32 2.11  35 2.11  16 2.11  31 2.12

IMPORTANT INFORMATION: All symmetrisations will be switched off!
NOSYMM: (Re-)initialisation of all symmetry stuff for point group C_1.

                                     Primitive cell

  volume of cell :    1211.2538

  direct lattice vectors                    reciprocal lattice vectors
     8.440984654  0.000000000  0.000000000     0.118469591  0.000000000  0.000000000
     0.000000000  8.440984654  0.000000000     0.000000000  0.118469591  0.000000000
     0.000000000  0.000000000 17.000000000     0.000000000  0.000000000  0.058823529

  length of vectors
     8.440984654  8.440984654 17.000000000     0.118469591  0.118469591  0.058823529

  position of ions in fractional coordinates (direct lattice)
     0.500000012  0.750264058  0.719050453
     0.500000066  0.887195294  0.748143164
     0.500000015  0.613356952  0.748141716
     0.000000012  0.750271483  0.251856836
     0.250000012  0.000271483  0.251856836
     0.000000012  0.000271483  0.375988963
     0.250000012  0.750271483  0.375988963
     0.999999988  0.750271429  0.499368462
     0.252039891  0.001028111  0.501782346
     0.000000034  0.002582678  0.624444171
     0.237174200  0.750271417  0.622958809
     0.000000012  0.250271483  0.251856836
     0.250000012  0.500271483  0.251856836
     0.000000012  0.500271483  0.375988963
     0.250000012  0.250271483  0.375988963
     0.000000025  0.250271481  0.500321386
     0.252039913  0.499514860  0.501782439
     0.000000033  0.497960304  0.624444240
     0.247666331  0.250271551  0.624926941
     0.500000012  0.750271483  0.251856836
     0.750000012  0.000271483  0.251856836
     0.500000012  0.000271483  0.375988963
     0.750000012  0.750271483  0.375988963
     0.500000031  0.750271498  0.497974947
     0.747960134  0.001028090  0.501782397
     0.500000002  0.011479476  0.636458488
     0.762825859  0.750271422  0.622958927
     0.500000012  0.250271483  0.251856836
     0.750000012  0.500271483  0.251856836
     0.500000012  0.500271483  0.375988963
     0.750000012  0.250271483  0.375988963
     0.500000005  0.250271518  0.502223723
     0.747960113  0.499514886  0.501782491
     0.500000001  0.489064058  0.636458884
     0.752333702  0.250271549  0.624926893
     0.000000012  0.750271483  0.375988963
     0.250000012  0.000271483  0.375988963
     0.000000012  0.000271483  0.251856836
     0.250000012  0.750271483  0.251856836
     0.000000034  0.750271519  0.625525054
     0.248158668  0.998774097  0.625931889
     0.000000015  0.999728517  0.499971061
     0.252314560  0.750271518  0.501128046
     0.000000012  0.250271483  0.375988963
     0.250000012  0.500271483  0.375988963
     0.000000012  0.500271483  0.251856836
     0.250000012  0.250271483  0.251856836
     0.000000017  0.250271467  0.626441503
     0.248158646  0.501768877  0.625931815
     0.000000014  0.500814411  0.499971054
     0.250533599  0.250271460  0.500674415
[...]
  VDW_SR =     0.960
  VDW_D =    20.000
  LVDW_ONECELL = F F F
  LVDW_SAMETYPE T T T T
  LVDW_EWALD = F

  Number of pair interactions contributing to vdW energy:  978014
  Edisp (eV):   -3.72749

  FORCE on cell =-STRESS in cart. coord.  units (eV):
  Direction    XX          YY          ZZ          XY          YZ          ZX
  Alpha Z  1163.06389  1163.06389  1163.06389
  Ewald   81914.62390 82786.87296************     0.00011    -0.02788     0.00004
  Hartree 93061.92344 93568.43055-86255.52004     0.00006    -0.00147    -0.00001
  E(xc)   -2533.32910 -2531.57160 -2537.00054     0.00000    -0.00012     0.00000
  Local  ************************184760.08156    -0.00016     0.02294    -0.00003
  n-local -2859.21530 -2863.56775 -2883.34557     0.00000     0.02120    -0.00000
  augment  1060.33427  1059.15996  1052.14040    -0.00000    -0.00062     0.00000
  Kinetic  7645.66350  7606.43750  7676.28066    -0.00001     0.00204     0.00000
  Fock        0.00000     0.00000     0.00000     0.00000     0.00000     0.00000
  vdW        -5.28052    -5.23474    -3.74384    -0.00000     0.00002     0.00000
  Total     -16.83539   -19.12930     3.24665     0.00000     0.01612     0.00000
  in kB     -22.26890   -25.30315     4.29448     0.00000     0.02132     0.00000

 VOLUME and BASIS-vectors are now :
  energy-cutoff  :      520.00
  volume of cell :     1211.25
      direct lattice vectors                 reciprocal lattice vectors
     8.440984654  0.000000000  0.000000000     0.118469591  0.000000000  0.000000000
     0.000000000  8.440984654  0.000000000     0.000000000  0.118469591  0.000000000
     0.000000000  0.000000000 17.000000000     0.000000000  0.000000000  0.058823529

  length of vectors
     8.440984654  8.440984654 17.000000000     0.118469591  0.118469591  0.058823529

 FORCES acting on ions
    electron-ion (+dipol)            ewald-force                    non-local-force                 convergence-correction
   0.102E-03 -.474E-01 -.843E+03   -.106E-03 0.576E-01 0.845E+03   0.200E-05 0.317E-02 -.226E+01   0.140E-05 0.230E-05 -.944E-03
   -.599E-04 -.223E+03 -.137E+04   0.793E-04 0.265E+03 0.139E+04   -.181E-04 -.426E+02 -.273E+02   -.447E-06 -.219E-03 -.122E-02
   0.421E-04 0.223E+03 -.137E+04   -.423E-04 -.265E+03 0.139E+04   -.953E-06 0.426E+02 -.273E+02   0.144E-05 0.220E-03 -.122E-02
   0.144E-04 -.136E-03 0.172E+04   -.146E-04 -.230E-04 -.172E+04   0.109E-05 0.161E-02 -.697E+01   -.164E-05 0.105E-04 0.206E-03
   0.556E+00 -.112E+01 0.172E+04   -.547E+00 0.116E+01 -.172E+04   -.642E-02 -.209E-01 -.709E+01   -.458E-04 0.128E-04 0.181E-03
   0.636E-04 -.260E+01 0.609E+03   -.683E-04 0.274E+01 -.609E+03   0.117E-05 -.106E+00 0.163E+00   0.190E-05 -.571E-04 0.192E-02
   0.276E+01 -.853E-04 0.610E+03   -.281E+01 -.109E-03 -.611E+03   0.206E-01 -.120E-03 0.812E+00   -.197E-04 0.298E-04 0.195E-02
   0.556E-04 -.137E-03 -.476E+03   -.331E-04 0.321E-04 0.476E+03   0.123E-04 -.238E-03 0.886E-01   -.323E-04 0.100E-05 0.174E-02
   0.568E+01 -.862E+01 -.491E+03   -.511E+01 0.884E+01 0.492E+03   -.566E+00 -.213E+00 -.124E+01   0.203E-03 -.101E-03 0.179E-02
   -.907E-06 -.183E+02 -.164E+04   0.911E-06 0.191E+02 0.163E+04   -.725E-05 -.741E+00 0.611E+01   0.732E-05 -.416E-04 -.730E-03
   0.497E+02 -.507E-03 -.155E+04   -.553E+02 0.842E-03 0.154E+04   0.550E+01 0.767E-03 0.687E+01   0.103E-03 0.214E-05 -.284E-03
   0.276E-04 -.177E-03 0.172E+04   -.147E-04 0.235E-04 -.172E+04   0.164E-05 0.162E-02 -.708E+01   -.145E-04 -.804E-05 0.135E-03
   0.556E+00 0.112E+01 0.172E+04   -.547E+00 -.116E+01 -.172E+04   -.642E-02 0.241E-01 -.709E+01   -.197E-04 -.155E-04 0.158E-03
   0.892E-04 0.259E+01 0.609E+03   -.703E-04 -.274E+01 -.609E+03   0.633E-05 0.106E+00 0.163E+00   -.246E-04 0.506E-04 0.192E-02
   -.941E+00 -.274E-03 0.606E+03   0.102E+01 0.113E-03 -.607E+03   -.581E-01 -.112E-03 0.453E+00   -.499E-04 -.222E-04 0.185E-02
   0.390E-04 -.260E-03 -.498E+03   -.442E-04 0.240E-04 0.498E+03   -.802E-05 -.382E-03 -.161E+00   0.129E-04 -.364E-05 0.164E-02
   0.568E+01 0.862E+01 -.491E+03   -.511E+01 -.884E+01 0.492E+03   -.566E+00 0.215E+00 -.124E+01   0.192E-03 0.105E-03 0.180E-02
   0.207E-04 0.183E+02 -.164E+04   -.106E-04 -.191E+02 0.163E+04   -.418E-05 0.741E+00 0.611E+01   -.676E-05 0.379E-04 -.727E-03
   0.293E+02 -.600E-03 -.163E+04   -.301E+02 0.569E-04 0.162E+04   0.808E+00 0.674E-03 0.622E+01   0.241E-03 -.644E-05 -.470E-03
   -.129E-04 -.107E-03 0.172E+04   0.148E-04 -.280E-04 -.172E+04   0.139E-05 0.161E-02 -.691E+01   -.305E-05 -.163E-04 0.251E-03
   -.556E+00 -.112E+01 0.172E+04   0.547E+00 0.116E+01 -.172E+04   0.642E-02 -.209E-01 -.709E+01   0.459E-04 0.315E-04 0.185E-03
   -.690E-04 -.628E+01 0.606E+03   0.709E-04 0.656E+01 -.606E+03   -.346E-05 -.184E+00 0.659E+00   0.413E-05 -.795E-04 0.214E-02
   -.276E+01 -.592E-04 0.610E+03   0.281E+01 -.111E-03 -.611E+03   -.206E-01 -.115E-03 0.812E+00   0.178E-04 0.362E-05 0.198E-02
   -.791E-04 0.585E-04 -.479E+03   0.542E-04 -.202E-03 0.474E+03   -.121E-04 0.150E-02 0.472E+01   0.345E-04 0.108E-04 0.159E-02
   -.568E+01 -.862E+01 -.491E+03   0.511E+01 0.884E+01 0.492E+03   0.566E+00 -.213E+00 -.124E+01   -.205E-03 -.143E-03 0.178E-02
   0.961E-05 -.860E+02 -.153E+04   -.576E-05 0.891E+02 0.153E+04   0.770E-05 -.315E+01 0.137E+01   -.118E-04 -.170E-05 -.650E-03
   -.497E+02 -.483E-03 -.155E+04   0.553E+02 0.827E-03 0.154E+04   -.550E+01 0.769E-03 0.687E+01   -.108E-03 -.921E-05 -.308E-03
   -.310E-04 -.203E-03 0.172E+04   0.147E-04 0.281E-04 -.171E+04   -.189E-05 0.161E-02 -.709E+01   0.185E-04 0.166E-04 0.123E-03
   -.556E+00 0.112E+01 0.172E+04   0.547E+00 -.116E+01 -.172E+04   0.642E-02 0.241E-01 -.709E+01   0.234E-04 -.311E-04 0.180E-03
   -.920E-04 0.628E+01 0.606E+03   0.735E-04 -.656E+01 -.606E+03   -.577E-05 0.184E+00 0.659E+00   0.239E-04 0.814E-04 0.211E-02
   0.941E+00 -.298E-03 0.606E+03   -.102E+01 0.117E-03 -.607E+03   0.581E-01 -.117E-03 0.453E+00   0.421E-04 -.663E-06 0.182E-02
   -.450E-04 -.577E-03 -.497E+03   0.486E-04 0.386E-03 0.498E+03   0.657E-05 0.107E-02 -.503E+00   -.972E-05 -.148E-04 0.193E-02
   -.568E+01 0.862E+01 -.491E+03   0.511E+01 -.884E+01 0.492E+03   0.566E+00 0.215E+00 -.124E+01   -.192E-03 0.148E-03 0.179E-02
   -.227E-04 0.860E+02 -.153E+04   0.142E-04 -.891E+02 0.153E+04   0.424E-05 0.315E+01 0.137E+01   0.432E-05 0.690E-05 -.646E-03
   -.293E+02 -.634E-03 -.163E+04   0.301E+02 0.781E-04 0.162E+04   -.808E+00 0.672E-03 0.622E+01   -.239E-03 0.910E-05 -.457E-03
   0.439E-04 0.612E-04 0.460E+03   -.394E-04 -.319E-04 -.460E+03   0.356E-05 -.704E-03 0.292E+00   -.899E-05 0.889E-05 0.140E-02
   0.402E+00 -.221E+01 0.454E+03   -.514E+00 0.230E+01 -.454E+03   0.149E+00 -.134E+00 -.350E+00   0.301E-05 -.919E-05 0.138E-02
   0.933E-05 -.683E+00 0.129E+04   -.112E-04 0.714E+00 -.130E+04   0.174E-05 -.438E-01 0.345E+01   -.583E-06 0.330E-04 0.109E-03
   0.610E+00 0.455E-04 0.129E+04   -.614E+00 -.201E-04 -.130E+04   0.569E-02 0.427E-03 0.353E+01   -.362E-05 0.249E-05 0.159E-03
   -.337E-04 0.505E-04 -.123E+04   0.405E-04 0.136E-03 0.124E+04   -.806E-06 0.110E-02 -.515E+01   -.571E-05 -.316E-05 -.796E-03
   0.379E+02 -.294E+02 -.120E+04   -.371E+02 0.295E+02 0.121E+04   -.848E+00 -.101E+00 -.517E+01   0.236E-03 -.643E-04 -.570E-03
   0.417E-04 -.618E+01 -.365E+03   -.366E-04 0.625E+01 0.365E+03   0.291E-05 -.793E-01 0.505E-01   -.574E-05 -.479E-04 0.980E-03
   0.392E+01 0.983E-04 -.357E+03   -.420E+01 -.330E-04 0.356E+03   0.276E+00 -.141E-02 0.817E+00   0.503E-04 -.231E-05 0.104E-02
   0.502E-04 -.389E-04 0.456E+03   -.471E-04 0.471E-04 -.455E+03   -.283E-06 -.663E-03 -.963E-01   -.152E-05 -.273E-06 0.135E-02
   0.402E+00 0.221E+01 0.454E+03   -.514E+00 -.230E+01 -.454E+03   0.149E+00 0.132E+00 -.350E+00   0.100E-04 0.268E-05 0.137E-02
   0.103E-04 0.683E+00 0.129E+04   -.114E-04 -.714E+00 -.130E+04   0.310E-05 0.446E-01 0.345E+01   -.260E-05 -.356E-04 0.113E-03
   0.240E+00 -.449E-06 0.129E+04   -.231E+00 0.203E-04 -.130E+04   -.119E-01 0.436E-03 0.343E+01   -.376E-04 -.982E-06 0.942E-04
   0.158E-04 -.119E-03 -.125E+04   -.171E-04 -.235E-04 0.125E+04   0.231E-05 0.372E-02 -.505E+01   -.896E-06 -.431E-05 -.878E-03
   0.379E+02 0.294E+02 -.120E+04   -.371E+02 -.295E+02 0.121E+04   -.843E+00 0.996E-01 -.517E+01   0.234E-03 0.711E-04 -.567E-03
   0.373E-04 0.618E+01 -.365E+03   -.400E-04 -.625E+01 0.365E+03   0.206E-05 0.868E-01 0.526E-01   -.208E-05 0.496E-04 0.988E-03
   0.307E+01 -.148E-03 -.367E+03   -.319E+01 0.929E-04 0.367E+03   0.112E+00 -.302E-02 0.301E+00   0.404E-04 -.277E-05 0.103E-02
   -.487E-04 0.926E-04 0.465E+03   0.431E-04 -.670E-04 -.466E+03   -.177E-05 -.695E-03 0.494E+00   0.743E-05 0.181E-05 0.144E-02
   -.402E+00 -.221E+01 0.454E+03   0.514E+00 0.230E+01 -.454E+03   -.149E+00 -.134E+00 -.350E+00   -.959E-05 -.742E-05 0.137E-02
   -.136E-04 -.105E+01 0.129E+04   0.113E-04 0.110E+01 -.130E+04   -.167E-05 -.613E-01 0.348E+01   0.370E-05 0.109E-04 0.177E-03
   -.610E+00 0.400E-04 0.129E+04   0.614E+00 -.203E-04 -.130E+04   -.569E-02 0.427E-03 0.353E+01   0.611E-05 0.549E-05 0.161E-03
   0.170E-04 -.499E-02 -.969E+03   -.217E-04 0.722E-02 0.946E+03   -.169E-05 -.607E-02 0.226E+02   0.611E-05 -.118E-05 -.392E-03
   -.379E+02 -.294E+02 -.120E+04   0.371E+02 0.295E+02 0.121E+04   0.848E+00 -.101E+00 -.517E+01   -.235E-03 -.731E-04 -.575E-03
   -.412E-04 -.865E+01 -.383E+03   0.383E-04 0.905E+01 0.384E+03   -.219E-05 -.391E+00 -.181E+01   0.455E-05 -.314E-04 0.105E-02
   -.392E+01 0.969E-04 -.357E+03   0.420E+01 -.344E-04 0.356E+03   -.276E+00 -.141E-02 0.817E+00   -.487E-04 0.941E-07 0.104E-02
   -.517E-04 -.543E-04 0.451E+03   0.472E-04 0.637E-04 -.451E+03   -.237E-05 -.657E-03 -.302E+00   0.713E-05 0.946E-06 0.138E-02
   -.402E+00 0.221E+01 0.454E+03   0.514E+00 -.230E+01 -.454E+03   -.149E+00 0.132E+00 -.350E+00   -.747E-05 0.801E-05 0.138E-02
   -.887E-05 0.105E+01 0.129E+04   0.115E-04 -.110E+01 -.130E+04   -.109E-05 0.622E-01 0.348E+01   -.131E-06 -.139E-04 0.175E-03
   -.240E+00 -.199E-05 0.129E+04   0.231E+00 0.206E-04 -.130E+04   0.119E-01 0.434E-03 0.343E+01   0.356E-04 0.138E-05 0.903E-04
   -.172E-04 -.165E-02 -.120E+04   0.161E-04 0.148E-02 0.121E+04   0.663E-06 -.319E-02 -.407E+01   -.464E-06 -.324E-05 -.512E-03
   -.379E+02 0.294E+02 -.120E+04   0.371E+02 -.295E+02 0.121E+04   0.843E+00 0.996E-01 -.517E+01   -.232E-03 0.760E-04 -.569E-03
   -.439E-04 0.865E+01 -.383E+03   0.447E-04 -.905E+01 0.384E+03   -.299E-05 0.396E+00 -.181E+01   0.352E-05 0.367E-04 0.105E-02
   -.307E+01 -.161E-03 -.367E+03   0.319E+01 0.108E-03 0.367E+03   -.112E+00 -.302E-02 0.301E+00   -.425E-04 -.226E-05 0.103E-02
   0.215E-04 -.138E-01 0.550E+02   -.362E-12 -.135E-12 0.188E-11   -.113E-04 0.391E-01 -.556E+02   -.216E-05 0.159E-04 0.390E-01

 POSITION                                       TOTAL-FORCE (eV/Angst)
      4.22049      6.33297     12.22386        -0.000001      0.013000      0.115967
      4.22049      7.48880     12.71843         0.000001     -0.190896     -0.108626
      4.22049      5.17734     12.71841         0.000000      0.189907     -0.104177
      0.00000      6.33303      4.28157        -0.000001      0.001087      0.305814
      2.11025      0.00229      4.28157         0.001725      0.009972      0.329401
      0.00000      0.00229      6.39181        -0.000002      0.042372      0.075167
      2.11025      6.33303      6.39181        -0.022431     -0.000663     -0.000760
      8.44098      6.33303      8.48926         0.000002     -0.000720      0.051057
      2.12746      0.00868      8.53030         0.001303      0.003311      0.038709
      0.00000      0.02180     10.61555        -0.000000      0.000074      0.019902
      2.00198      6.33303     10.59030        -0.022557      0.000723      0.018462
      0.00000      2.11254      4.28157        -0.000000      0.001078      0.333306
      2.11025      4.22278      4.28157         0.001724     -0.007816      0.329402
      0.00000      4.22278      6.39181         0.000001     -0.043726      0.075154
      2.11025      2.11254      6.39181         0.023342     -0.000671      0.073699
      0.00000      2.11254      8.50546        -0.000000     -0.000999      0.045118
      2.12747      4.21640      8.53030         0.001365     -0.002498      0.038546
      0.00000      4.20328     10.61555        -0.000001     -0.000824      0.020774
      2.09055      2.11254     10.62376        -0.000489     -0.000252      0.023872
      4.22049      6.33303      4.28157         0.000000      0.001085      0.288738
      6.33074      0.00229      4.28157        -0.001725      0.009972      0.329399
      4.22049      0.00229      6.39181         0.000002      0.088379      0.090601
      6.33074      6.33303      6.39181         0.022431     -0.000660     -0.000763
      4.22049      6.33303      8.46557        -0.000003      0.000993      0.022907
      6.31352      0.00868      8.53030        -0.001303      0.003312      0.038792
      4.22049      0.09690     10.81979        -0.000000     -0.011935      0.053410
      6.43900      6.33303     10.59030         0.022561      0.000723      0.018349
      4.22049      2.11254      4.28157         0.000000      0.001073      0.332690
      6.33074      4.22278      4.28157        -0.001724     -0.007815      0.329403
      4.22049      4.22278      6.39181        -0.000000     -0.089715      0.090605
      6.33074      2.11254      6.39181        -0.023343     -0.000675      0.073702
      4.22049      2.11254      8.53780         0.000000      0.000485      0.040701
      6.31352      4.21640      8.53030        -0.001367     -0.002499      0.038633
      4.22049      4.12818     10.81980        -0.000000      0.010935      0.052002
      6.35044      2.11254     10.62376         0.000488     -0.000251      0.023782
      0.00000      6.33303      6.39181        -0.000001     -0.001044      0.052359
      2.11025      0.00229      6.39181         0.037058     -0.041743      0.065949
      0.00000      0.00229      4.28157        -0.000001     -0.012456     -0.534057
      2.11025      6.33303      4.28157         0.002051      0.000075     -0.513349
      0.00000      6.33303     10.63393         0.000000      0.000905      0.035222
      2.09470      8.43064     10.64084        -0.021908      0.025115      0.007228
      0.00000      8.43869      8.49951         0.000002     -0.003454      0.012897
      2.12978      6.33303      8.51918        -0.005838     -0.001721      0.007051
      0.00000      2.11254      6.39181         0.000001     -0.001032      0.020748
      2.11025      4.22278      6.39181         0.037060      0.039683      0.065949
      0.00000      4.22278      4.28157        -0.000001      0.012607     -0.534067
      2.11025      2.11254      4.28157        -0.003021      0.000080     -0.538742
      0.00000      2.11254     10.64951        -0.000000      0.003200      0.014020
      2.09470      4.23542     10.64084        -0.017675     -0.027318      0.003458
      0.00000      4.22737      8.49951        -0.000003      0.010086      0.014813
      2.11475      2.11254      8.51147        -0.004503     -0.003459      0.010021
      4.22049      6.33303      6.39181        -0.000000     -0.001050     -0.031545
      6.33074      0.00229      6.39181        -0.037057     -0.041744      0.065953
      4.22049      0.00229      4.28157        -0.000000     -0.017520     -0.525786
      6.33074      6.33303      4.28157        -0.002049      0.000072     -0.513346
      4.22049      6.33304     10.75435        -0.000000     -0.004227      0.155380
      6.34628      8.43064     10.64084         0.021907      0.025124      0.007236
      4.22049      8.42386      8.53684        -0.000001      0.009200     -0.007040
      6.31120      6.33303      8.51918         0.005839     -0.001722      0.007062
      4.22049      2.11254      6.39181         0.000000     -0.001020      0.117077
      6.33074      4.22278      6.39181        -0.037060      0.039684      0.065954
      4.22049      4.22278      4.28157         0.000001      0.017676     -0.525803
      6.33074      2.11254      4.28157         0.003022      0.000079     -0.538745
      4.22049      2.11254     10.68204        -0.000001     -0.003727      0.022111
      6.34628      4.23542     10.64084         0.017675     -0.027325      0.003467
      4.22049      4.24220      8.53684         0.000001     -0.005431     -0.005240
      6.32623      2.11254      8.51147         0.004502     -0.003456      0.010025
    total drift:                                0.000008      0.025305     -0.523906

  FREE ENERGIE OF THE ION-ELECTRON SYSTEM (eV)
  free  energy   TOTEN  =      -399.10067041 eV

  energy  without entropy=     -399.10067041  energy(sigma->0) =     -399.10067041

 writing wavefunctions