 vasp.6.3.0 20Jan22 (build Apr  1 2022 16:44:48) complex
 executed on        HPECrayEX_GCC date 2022.11.09  20:09:15

 INCAR:
   SYSTEM = MgO-rocksalt
   ISMEAR = 0
   SIGMA = 0.05
   EDIFF = 1E-7
   ALGO = ALL
   ISTART = 0
   IBRION = 2
   NSW = 1000
   ISYM = 0
   ISIF = 2
   EDIFFG = -0.015
   DIPOL = 0.5 0.5 0.5
   IDIPOL = 3
   LDIPOL = .TRUE.
   LHFCALC = .TRUE.
   GGA = B5
   AEXX = 0.2
   AGGAX = 0.72
   AGGAC = 0.81
   ALDAC = 0.19
   IVDW = 1
   VDW_S6 = 1.05
   VDW_C6 = 1.23 0.70 0.63 0.70
   VDW_R0 = 1.397 1.342 1.243 1.342
   ENCUT = 600
   PREC = Accurate
   LASPH = .TRUE.
   LREAL = .FALSE.
   ISPIN = 2
   MAGMOM = 1.0 0.0 0.0 0.0 0.0 0.0 0.0 0.0 0.0 0.0 0.0 0.0 0.0 0.0 0.0 0.0 0.0 0.0 0.0 0.0 0.0 0.0 0.0 0.0 0.0 0.0 0.0 0.0 0.0 0.0 0.0 0.0 0.0 0.0 0.0 0.0 0.0 0.0 0.0 0.0 0.0 0.0 0.0 0.0 0.0 0.0 0.0 0.0 0.0 0.0 0.0 0.0 0.0 0.0 0.0 0.0 0.0 0.0 0.0 0.0 0.0 0.0 0.0 0.0 0.0 0.0
   NELM = 200
   NELMIN = 8
   NCORE = 8
   KPAR = 1
   LWAVE = .FALSE.
   LCHARG = .FALSE.

 POTCAR:    PAW_PBE N 08Apr2002
 POTCAR:    PAW_PBE O 08Apr2002
 POTCAR:    PAW_PBE Mg_pv 13Apr2007
 POTCAR:    PAW_PBE O 08Apr2002
 POTCAR:    PAW_PBE N 08Apr2002
   VRHFIN =N: s2p3

   TITEL  = PAW_PBE N 08Apr2002
   POMASS =   14.001; ZVAL   =    5.000    mass and valenz
   ENMAX  =  400.000; ENMIN  =  300.000 eV

[...]

   TITEL  = PAW_PBE Mg_pv 13Apr2007
   POMASS =   24.305; ZVAL   =    8.000    mass and valenz
   ENMAX  =  403.929; ENMIN  =  302.947 eV

   TITEL  = PAW_PBE O 08Apr2002
   POMASS =   16.000; ZVAL   =    6.000    mass and valenz
   ENMAX  =  400.000; ENMIN  =  300.000 eV

  PAW_PBE N 08Apr2002                   :
  PAW_PBE O 08Apr2002                   :
  PAW_PBE Mg_pv 13Apr2007               :
  PAW_PBE O 08Apr2002                   :

 POSCAR:  N  O Mg  O
  positions in direct lattice
  velocities in cartesian coordinates
 exchange correlation table for  LEXCH =       12
   RHO(1)=    0.500       N(1)  =     2000
   RHO(2)=  100.500       N(2)  =     4000

 ion  position               nearest neighbor table
   1  0.625  0.625  0.770-   2 1.16
   2  0.625  0.625  0.825-   1 1.16
   3  0.250  0.000  0.352-  37 2.10  38 2.10  45 2.10  54 2.10  35 2.10
   4  0.500  0.250  0.352-  37 2.10  38 2.10  46 2.10  53 2.10  36 2.10
   5  0.250  0.250  0.451-  41 2.10  36 2.10  35 2.10  43 2.10  52 2.10  37 2.10
   6  0.500  0.000  0.451-  35 2.10  36 2.10  44 2.10  51 2.10  38 2.10  42 2.10
   7  0.250  1.000  0.550-  58 2.10  41 2.10  42 2.10  49 2.10  35 2.11  39 2.13
   8  0.500  0.250  0.550-  50 2.10  57 2.10  41 2.10  42 2.10  36 2.11  40 2.13
   9  0.250  0.250  0.647-  41 2.09  39 2.10  56 2.10  40 2.10  47 2.10
  10  0.500  0.000  0.647-  42 2.09  48 2.10  40 2.10  39 2.10  55 2.10
  11  0.250  0.500  0.352-  37 2.10  45 2.10  46 2.10  62 2.10  43 2.10
  12  0.500  0.750  0.352-  38 2.10  45 2.10  46 2.10  61 2.10  44 2.10
  13  0.250  0.750  0.451-  35 2.10  43 2.10  44 2.10  60 2.10  45 2.10  49 2.10
  14  0.500  0.500  0.451-  36 2.10  43 2.10  44 2.10  59 2.10  46 2.10  50 2.11
  15  0.250  0.500  0.550-  50 2.10  49 2.10  41 2.10  66 2.10  43 2.11  47 2.13
  16  0.500  0.750  0.550-  50 2.10  65 2.10  49 2.10  42 2.10  44 2.11  48 2.12
  17  0.250  0.750  0.647-  49 2.09  48 2.10  64 2.10  39 2.10  47 2.10
  18  0.500  0.500  0.648-  40 2.10  47 2.10  50 2.10  48 2.11  63 2.11
  19  0.750  0.000  0.352-  38 2.10  53 2.10  54 2.10  61 2.10  51 2.10
  20  0.000  0.250  0.352-  37 2.10  53 2.10  54 2.10  62 2.10  52 2.10
  21  0.750  0.250  0.451-  36 2.10  51 2.10  52 2.10  59 2.10  53 2.10  57 2.10
  22  0.000  0.000  0.451-  58 2.10  51 2.10  52 2.10  35 2.10  60 2.10  54 2.10
  23  0.750  1.000  0.550-  65 2.10  42 2.10  58 2.10  57 2.10  51 2.11  55 2.13
  24  1.000  0.250  0.550-  58 2.10  41 2.10  66 2.10  57 2.10  52 2.11  56 2.13
  25  0.750  0.250  0.647-  57 2.09  63 2.10  55 2.10  56 2.10  40 2.10
  26  0.000  0.000  0.647-  58 2.09  56 2.10  39 2.10  55 2.10  64 2.10
  27  0.750  0.500  0.352-  46 2.10  53 2.10  61 2.10  62 2.10  59 2.10
  28  0.000  0.750  0.352-  45 2.10  54 2.10  61 2.10  62 2.10  60 2.10
  29  0.750  0.750  0.451-  44 2.10  51 2.10  59 2.10  60 2.10  61 2.10  65 2.11
  30  0.000  0.500  0.451-  43 2.10  52 2.10  59 2.10  60 2.10  62 2.10  66 2.10
  31  0.750  0.500  0.550-  50 2.10  65 2.10  57 2.10  66 2.10  59 2.11  63 2.12
  32  1.000  0.750  0.550-  65 2.10  66 2.10  58 2.10  49 2.10  60 2.11  64 2.13
  33  0.750  0.750  0.648-  64 2.10  55 2.10  65 2.10  63 2.11  48 2.11
  34  0.000  0.500  0.647-  66 2.09  63 2.10  47 2.10  56 2.10  64 2.10
  35  0.250  0.000  0.451-   5 2.10   6 2.10  13 2.10  22 2.10   3 2.10   7 2.11
  36  0.500  0.250  0.451-   5 2.10   6 2.10  14 2.10  21 2.10   4 2.10   8 2.11
  37  0.250  0.250  0.352-   3 2.10   4 2.10  11 2.10  20 2.10   5 2.10
  38  0.500  0.000  0.352-   3 2.10   4 2.10  12 2.10  19 2.10   6 2.10
  39  0.250  0.000  0.649-   9 2.10  26 2.10  17 2.10  10 2.10   7 2.13
  40  0.500  0.250  0.650-  10 2.10  18 2.10   9 2.10  25 2.10   8 2.13
  41  0.250  0.250  0.549-   9 2.09   5 2.10   7 2.10  24 2.10   8 2.10  15 2.10
  42  0.500  0.000  0.549-  10 2.09  23 2.10   7 2.10   6 2.10   8 2.10  16 2.10
  43  0.250  0.500  0.451-   5 2.10  13 2.10  14 2.10  30 2.10  11 2.10  15 2.11
  44  0.500  0.750  0.451-   6 2.10  13 2.10  14 2.10  29 2.10  12 2.10  16 2.11
  45  0.250  0.750  0.352-   3 2.10  11 2.10  12 2.10  28 2.10  13 2.10
  46  0.500  0.500  0.352-   4 2.10  11 2.10  12 2.10  27 2.10  14 2.10
  47  0.250  0.500  0.650-  34 2.10  18 2.10   9 2.10  17 2.10  15 2.13
  48  0.499  0.751  0.649-  10 2.10  17 2.10  33 2.11  18 2.11  16 2.12
  49  0.250  0.750  0.549-  17 2.09  15 2.10   7 2.10  13 2.10  32 2.10  16 2.10
  50  0.500  0.500  0.550-  15 2.10   8 2.10  31 2.10  16 2.10  18 2.10  14 2.11
  51  0.750  0.000  0.451-   6 2.10  21 2.10  22 2.10  29 2.10  19 2.10  23 2.11
  52  0.000  0.250  0.451-   5 2.10  21 2.10  22 2.10  30 2.10  20 2.10  24 2.11
  53  0.750  0.250  0.352-   4 2.10  19 2.10  20 2.10  27 2.10  21 2.10
  54  0.000  0.000  0.352-   3 2.10  19 2.10  20 2.10  28 2.10  22 2.10
  55  0.750  0.000  0.650-  25 2.10  33 2.10  26 2.10  10 2.10  23 2.13
  56  0.000  0.250  0.649-   9 2.10  26 2.10  25 2.10  34 2.10  24 2.13
  57  0.750  0.250  0.549-  25 2.09   8 2.10  24 2.10  21 2.10  23 2.10  31 2.10
  58  0.000  0.000  0.549-  26 2.09  22 2.10   7 2.10  24 2.10  32 2.10  23 2.10
  59  0.750  0.500  0.451-  14 2.10  21 2.10  29 2.10  30 2.10  27 2.10  31 2.11
  60  0.000  0.750  0.451-  13 2.10  22 2.10  29 2.10  30 2.10  28 2.10  32 2.11
  61  0.750  0.750  0.352-  12 2.10  19 2.10  27 2.10  28 2.10  29 2.10
  62  0.000  0.500  0.352-  11 2.10  20 2.10  27 2.10  28 2.10  30 2.10
  63  0.751  0.499  0.649-  34 2.10  25 2.10  33 2.11  18 2.11  31 2.12
  64  0.000  0.750  0.650-  17 2.10  33 2.10  26 2.10  34 2.10  32 2.13
  65  0.750  0.750  0.550-  23 2.10  32 2.10  16 2.10  31 2.10  33 2.10  29 2.11
  66  0.000  0.500  0.549-  34 2.09  32 2.10  24 2.10  30 2.10  15 2.10  31 2.10

IMPORTANT INFORMATION: All symmetrisations will be switched off!
NOSYMM: (Re-)initialisation of all symmetry stuff for point group C_1.

                                     Primitive cell

  volume of cell :    1504.9259

  direct lattice vectors                    reciprocal lattice vectors
     8.404861995  0.000000000  0.000000000     0.118978753  0.000000000  0.000000000
     0.000000000  8.404861995  0.000000000     0.000000000  0.118978753  0.000000000
     0.000000000  0.000000000 21.303646496     0.000000000  0.000000000  0.046940321

  length of vectors
     8.404861995  8.404861995 21.303646496     0.118978753  0.118978753  0.046940321

  position of ions in fractional coordinates (direct lattice)
     0.624967715  0.624969680  0.770176137
     0.624922716  0.624927443  0.824659548
     0.250000000  0.000000000  0.352052406
     0.500000000  0.250000000  0.352052406
     0.250000000  0.250000000  0.450684135
     0.500000000  0.000000000  0.450684135
     0.250003707  0.999997554  0.549534497
     0.500038132  0.250225151  0.549699831
     0.249917482  0.249917325  0.647395332
     0.499880833  0.000194866  0.647301540
     0.250000000  0.500000000  0.352052406
     0.500000000  0.750000000  0.352052406
     0.250000000  0.750000000  0.450684135
     0.500000000  0.500000000  0.450684135
     0.250225185  0.500038262  0.549699858
     0.500151277  0.749848805  0.549802449
     0.249807611  0.750122606  0.647301737
     0.500000305  0.500000194  0.648215275
     0.750000000  0.000000000  0.352052406
     0.000000000  0.250000000  0.352052406
     0.750000000  0.250000000  0.450684135
     0.000000000  0.000000000  0.450684135
     0.749962431  0.999776260  0.549699462
     0.999997658  0.250003609  0.549534412
     0.750122548  0.249807730  0.647301505
     0.000085286  0.000085274  0.647395653
     0.750000000  0.500000000  0.352052406
     0.000000000  0.750000000  0.352052406
     0.750000000  0.750000000  0.450684135
     0.000000000  0.500000000  0.450684135
     0.749848683  0.500151360  0.549802521
     0.999776264  0.749962635  0.549699425
     0.750002685  0.750002385  0.648213196
     0.000194895  0.499880891  0.647301320
     0.250000000  0.000000000  0.450684135
     0.500000000  0.250000000  0.450684135
     0.250000000  0.250000000  0.352052406
     0.500000000  0.000000000  0.352052406
     0.249957985  0.000045263  0.649329816
     0.499947416  0.249988244  0.649542820
     0.249980291  0.249980055  0.549277348
     0.500040296  0.000076140  0.549347925
     0.250000000  0.500000000  0.450684135
     0.500000000  0.750000000  0.450684135
     0.250000000  0.750000000  0.352052406
     0.500000000  0.500000000  0.352052406
     0.249988157  0.499947375  0.649542842
     0.499374024  0.750630360  0.649290870
     0.249925433  0.749960353  0.549348396
     0.499969674  0.499969691  0.549521228
     0.750000000  0.000000000  0.450684135
     0.000000000  0.250000000  0.450684135
     0.750000000  0.250000000  0.352052406
     0.000000000  0.000000000  0.352052406
     0.750055981  0.000013180  0.649542270
     0.000045325  0.249957969  0.649329597
     0.749960153  0.249925404  0.549348348
     0.000021313  0.000021164  0.549277364
     0.750000000  0.500000000  0.450684135
     0.000000000  0.750000000  0.450684135
     0.750000000  0.750000000  0.352052406
     0.000000000  0.500000000  0.352052406
     0.750630494  0.499373949  0.649290738
     0.000013158  0.750055883  0.649542197
     0.750031210  0.750031324  0.549520821
     0.000076145  0.500040467  0.549347888

  ion indices of the primitive-cell ions
   primitive index   ion index
                 1           1
                 2           2
                 3           3
                 4           4
                 5           5
                 6           6
                 7           7
                 8           8
                 9           9
                10          10
                11          11
                12          12
                13          13
                14          14
                15          15
                16          16
                17          17
                18          18
[...]
   6.30467649  2.09959949 13.78988244
   0.00071682  0.00071672 13.79188814
   6.30364650  4.20243100  7.50000000
   0.00000000  6.30364650  7.50000000
   6.30364650  6.30364650  9.60121550
   0.00000000  4.20243100  9.60121550
   6.30237470  4.20370316 11.71279855
   8.40298153  6.30333245 11.71060223
   6.30366907  6.30366654 13.80930479
   0.00163806  4.20142991 13.78987850
   2.10121550  0.00000000  9.60121550
   4.20243100  2.10121550  9.60121550
   2.10121550  2.10121550  7.50000000
   4.20243100  0.00000000  7.50000000
   2.10086237  0.00038043 13.83309286
   4.20198904  2.10111669 13.83763063
   2.10104985  2.10104786 11.70161044
   4.20276968  0.00063994 11.70311399
   2.10121550  4.20243100  9.60121550
   4.20243100  6.30364650  9.60121550
   2.10121550  6.30364650  7.50000000
   4.20243100  4.20243100  7.50000000
   2.10111596  4.20198869 13.83763108
   4.19716976  6.30894459 13.83226316
   2.10058877  6.30331327 11.70312403
   4.20217611  4.20217626 11.70680598
   6.30364650  0.00000000  9.60121550
   0.00000000  2.10121550  9.60121550
   6.30364650  2.10121550  7.50000000
   0.00000000  0.00000000  7.50000000
   6.30411701  0.00011078 13.83761890
   0.00038095  2.10086223 13.83308820
   6.30331158  2.10058853 11.70312302
   0.00017914  0.00017788 11.70161080
   6.30364650  4.20243100  9.60121550
   0.00000000  6.30364650  9.60121550
   6.30364650  6.30364650  7.50000000
   0.00000000  4.20243100  7.50000000
   6.30894571  4.19716913 13.83226035
   0.00011059  6.30411619 13.83761736
   6.30390882  6.30390977 11.70679730
   0.00063999  4.20277112 11.70311320

--------------------------------------- Iteration      FINAL  ---------------------------------------

--------------------OUTCAR has been truncated-------------------------

[...]

--------------------OUTCAR has been truncated-------------------------

  Number of pair interactions contributing to vdW energy:  776673
  Edisp (eV):   -5.26857

  FORCE on cell =-STRESS in cart. coord.  units (eV):
  Direction    XX          YY          ZZ          XY          YZ          ZX
  Alpha Z   919.26093   919.26093   919.26093
  Ewald  159446.13472159446.13462************     3.31456    -0.08652    -0.09667
  Hartree169924.18459169924.18445************     6.44835    -0.03116    -0.03539
  E(xc)   -2043.46832 -2043.46832 -2045.26784     0.15533    -0.00032    -0.00036
  Local  ************************338913.51736   -20.98501     0.10513     0.11886
  n-local -1194.69761 -1194.69762 -1225.29183    -3.41414     0.00127     0.00159
  augment   903.82758   903.82759   892.72377     1.08470     0.00057     0.00056
  Kinetic  7573.86239  7573.86245  7584.24204    13.77756     0.01004     0.01033
  Fock    -2011.12945 -2011.12945 -2009.88218    -0.59257     0.00034     0.00042
  vdW        -7.65067    -7.65067    -6.42850    -0.00596     0.00001     0.00001
  Total     -30.71647   -30.71647    -2.25644    -0.21719    -0.00064    -0.00066
  in kB     -32.70144   -32.70143    -2.40225    -0.23122    -0.00068    -0.00070

 VOLUME and BASIS-vectors are now :
  energy-cutoff  :      600.00
  volume of cell :     1504.93
      direct lattice vectors                 reciprocal lattice vectors
     8.404861995  0.000000000  0.000000000     0.118978753  0.000000000  0.000000000
     0.000000000  8.404861995  0.000000000     0.000000000  0.118978753  0.000000000
     0.000000000  0.000000000 21.303646496     0.000000000  0.000000000  0.046940321

  length of vectors
     8.404861995  8.404861995 21.303646496     0.118978753  0.118978753  0.046940321

 FORCES acting on ions:
    Electron-Ion                     Ewald-Force                    Non-Local-Force
   -.799E-01 -.725E-01 -.104E+04   0.933E-01 0.847E-01 0.992E+03   -.124E-01 -.113E-01 0.417E+02
   0.729E-01 0.660E-01 -.147E+04   -.908E-01 -.821E-01 0.153E+04   0.157E-01 0.142E-01 -.551E+02
   0.146E+00 -.146E+00 0.210E+04   -.147E+00 0.146E+00 -.210E+04   0.156E-03 -.159E-03 -.641E+01
   0.147E+00 0.148E+00 0.210E+04   -.147E+00 -.147E+00 -.210E+04   -.172E-04 -.760E-03 -.642E+01
   0.494E+00 0.494E+00 0.725E+03   -.484E+00 -.484E+00 -.726E+03   -.660E-02 -.662E-02 0.412E+00
   0.501E+00 -.646E+00 0.727E+03   -.496E+00 0.663E+00 -.727E+03   -.329E-02 -.106E-01 0.375E+00
   0.254E+01 -.254E+01 -.646E+03   -.255E+01 0.255E+01 0.646E+03   0.443E-02 -.445E-02 -.178E+00
   0.268E+01 0.331E+01 -.643E+03   -.269E+01 -.327E+01 0.643E+03   0.214E-02 -.360E-01 -.188E+00
   0.845E+01 0.845E+01 -.202E+04   -.848E+01 -.848E+01 0.202E+04   0.211E-01 0.212E-01 0.550E+01
   0.951E+01 -.176E+02 -.201E+04   -.953E+01 0.176E+02 0.200E+04   0.196E-01 0.317E-01 0.553E+01
   0.148E+00 0.147E+00 0.210E+04   -.147E+00 -.147E+00 -.210E+04   -.758E-03 -.173E-04 -.642E+01
   0.147E+00 -.147E+00 0.210E+04   -.146E+00 0.146E+00 -.210E+04   -.237E-03 0.239E-03 -.641E+01
   0.646E+00 -.501E+00 0.727E+03   -.663E+00 0.496E+00 -.727E+03   0.106E-01 0.329E-02 0.376E+00
   0.663E+00 0.663E+00 0.727E+03   -.664E+00 -.664E+00 -.728E+03   0.163E-02 0.163E-02 0.415E+00
   0.331E+01 0.268E+01 -.643E+03   -.327E+01 -.269E+01 0.643E+03   -.359E-01 0.214E-02 -.188E+00
   0.351E+01 -.351E+01 -.633E+03   -.347E+01 0.347E+01 0.633E+03   -.349E-01 0.350E-01 -.348E+00
   0.176E+02 -.952E+01 -.201E+04   -.176E+02 0.954E+01 0.200E+04   -.315E-01 -.195E-01 0.553E+01
   0.255E+02 0.255E+02 -.197E+04   -.256E+02 -.256E+02 0.196E+04   0.133E+00 0.133E+00 0.552E+01
   -.147E+00 -.148E+00 0.210E+04   0.147E+00 0.147E+00 -.210E+04   0.162E-04 0.755E-03 -.642E+01
   -.146E+00 0.146E+00 0.210E+04   0.146E+00 -.147E+00 -.210E+04   -.159E-03 0.155E-03 -.641E+01
   -.501E+00 0.646E+00 0.727E+03   0.496E+00 -.663E+00 -.727E+03   0.327E-02 0.106E-01 0.376E+00
   -.494E+00 -.494E+00 0.725E+03   0.484E+00 0.484E+00 -.726E+03   0.656E-02 0.656E-02 0.412E+00
   -.268E+01 -.330E+01 -.643E+03   0.269E+01 0.327E+01 0.643E+03   -.205E-02 0.357E-01 -.188E+00
   -.254E+01 0.254E+01 -.646E+03   0.255E+01 -.255E+01 0.646E+03   -.445E-02 0.442E-02 -.178E+00
   -.952E+01 0.176E+02 -.201E+04   0.954E+01 -.176E+02 0.200E+04   -.196E-01 -.315E-01 0.553E+01
   -.844E+01 -.844E+01 -.202E+04   0.847E+01 0.847E+01 0.202E+04   -.212E-01 -.213E-01 0.550E+01
   -.147E+00 0.147E+00 0.210E+04   0.146E+00 -.146E+00 -.210E+04   0.237E-03 -.237E-03 -.641E+01
   -.148E+00 -.147E+00 0.210E+04   0.147E+00 0.147E+00 -.210E+04   0.754E-03 0.169E-04 -.642E+01
   -.663E+00 -.663E+00 0.727E+03   0.664E+00 0.664E+00 -.728E+03   -.165E-02 -.165E-02 0.415E+00
   -.646E+00 0.501E+00 0.727E+03   0.663E+00 -.496E+00 -.727E+03   -.106E-01 -.330E-02 0.375E+00
   -.351E+01 0.351E+01 -.633E+03   0.347E+01 -.347E+01 0.633E+03   0.350E-01 -.349E-01 -.348E+00
   -.330E+01 -.268E+01 -.643E+03   0.327E+01 0.269E+01 0.643E+03   0.357E-01 -.203E-02 -.188E+00
   -.255E+02 -.255E+02 -.197E+04   0.257E+02 0.257E+02 0.196E+04   -.133E+00 -.133E+00 0.552E+01
   -.176E+02 0.951E+01 -.201E+04   0.176E+02 -.953E+01 0.200E+04   0.317E-01 0.195E-01 0.553E+01
   0.438E+00 -.438E+00 0.544E+03   -.429E+00 0.429E+00 -.544E+03   -.111E-01 0.112E-01 -.749E-01
   0.460E+00 0.469E+00 0.544E+03   -.457E+00 -.487E+00 -.544E+03   -.355E-02 0.219E-01 -.939E-01
   0.102E+00 0.102E+00 0.158E+04   -.101E+00 -.101E+00 -.158E+04   -.118E-02 -.118E-02 0.312E+01
   0.103E+00 -.118E+00 0.158E+04   -.102E+00 0.118E+00 -.158E+04   -.137E-02 -.395E-03 0.312E+01
   0.667E+01 -.666E+01 -.154E+04   -.666E+01 0.666E+01 0.154E+04   -.165E-02 0.156E-02 -.456E+01
   0.752E+01 0.131E+02 -.153E+04   -.750E+01 -.131E+02 0.153E+04   -.160E-01 -.511E-01 -.455E+01
   0.166E+01 0.166E+01 -.480E+03   -.166E+01 -.166E+01 0.479E+03   -.815E-02 -.815E-02 0.291E+00
   0.178E+01 -.275E+01 -.475E+03   -.177E+01 0.274E+01 0.474E+03   -.731E-03 0.118E-01 0.336E+00
   0.469E+00 0.460E+00 0.544E+03   -.487E+00 -.457E+00 -.544E+03   0.219E-01 -.355E-02 -.939E-01
   0.449E+00 -.449E+00 0.545E+03   -.449E+00 0.449E+00 -.545E+03   0.526E-03 -.485E-03 -.824E-01
   0.118E+00 -.103E+00 0.158E+04   -.118E+00 0.102E+00 -.158E+04   0.395E-03 0.138E-02 0.312E+01
   0.117E+00 0.117E+00 0.158E+04   -.118E+00 -.118E+00 -.158E+04   0.116E-02 0.116E-02 0.312E+01
   0.131E+02 0.752E+01 -.153E+04   -.131E+02 -.750E+01 0.153E+04   -.511E-01 -.160E-01 -.455E+01
   0.194E+02 -.194E+02 -.149E+04   -.193E+02 0.193E+02 0.149E+04   -.841E-01 0.842E-01 -.456E+01
   0.275E+01 -.178E+01 -.475E+03   -.274E+01 0.178E+01 0.474E+03   -.119E-01 0.690E-03 0.336E+00
   0.284E+01 0.284E+01 -.472E+03   -.280E+01 -.280E+01 0.472E+03   -.309E-01 -.309E-01 0.134E+00
   -.460E+00 -.468E+00 0.544E+03   0.457E+00 0.487E+00 -.544E+03   0.363E-02 -.218E-01 -.938E-01
   -.438E+00 0.438E+00 0.544E+03   0.429E+00 -.429E+00 -.544E+03   0.112E-01 -.111E-01 -.749E-01
   -.103E+00 0.118E+00 0.158E+04   0.102E+00 -.118E+00 -.158E+04   0.138E-02 0.393E-03 0.312E+01
   -.102E+00 -.102E+00 0.158E+04   0.101E+00 0.101E+00 -.158E+04   0.118E-02 0.118E-02 0.312E+01
   -.752E+01 -.131E+02 -.153E+04   0.751E+01 0.131E+02 0.153E+04   0.161E-01 0.509E-01 -.455E+01
   -.666E+01 0.666E+01 -.154E+04   0.666E+01 -.666E+01 0.154E+04   0.153E-02 -.168E-02 -.456E+01
   -.178E+01 0.275E+01 -.475E+03   0.178E+01 -.274E+01 0.474E+03   0.689E-03 -.119E-01 0.336E+00
   -.166E+01 -.166E+01 -.480E+03   0.165E+01 0.165E+01 0.479E+03   0.811E-02 0.813E-02 0.291E+00
   -.449E+00 0.449E+00 0.545E+03   0.449E+00 -.449E+00 -.545E+03   -.485E-03 0.527E-03 -.824E-01
   -.468E+00 -.460E+00 0.544E+03   0.486E+00 0.457E+00 -.544E+03   -.218E-01 0.363E-02 -.939E-01
   -.117E+00 -.117E+00 0.158E+04   0.118E+00 0.118E+00 -.158E+04   -.115E-02 -.115E-02 0.312E+01
   -.118E+00 0.103E+00 0.158E+04   0.118E+00 -.102E+00 -.158E+04   -.396E-03 -.137E-02 0.312E+01
   -.194E+02 0.194E+02 -.149E+04   0.193E+02 -.193E+02 0.149E+04   0.842E-01 -.841E-01 -.456E+01
   -.131E+02 -.752E+01 -.153E+04   0.131E+02 0.751E+01 0.153E+04   0.509E-01 0.160E-01 -.455E+01
   -.284E+01 -.284E+01 -.472E+03   0.281E+01 0.281E+01 0.472E+03   0.309E-01 0.309E-01 0.134E+00
   -.275E+01 0.178E+01 -.475E+03   0.274E+01 -.177E+01 0.474E+03   0.118E-01 -.737E-03 0.336E+00
   -.419E-02 -.373E-02 0.349E+02   -.675E-13 0.256E-12 -.665E-11   0.321E-02 0.285E-02 -.292E+02

 POSITION                                       TOTAL-FORCE (eV/Angst)
      5.25272      5.25273     16.41349        -0.000067     -0.000066      0.014181
      5.25239      5.25243     17.57151        -0.000031     -0.000030     -0.001376
      2.10122      0.00000      7.50000        -0.000020      0.000021      0.404961
      4.20243      2.10122      7.50000         0.000037      0.000248      0.406155
      2.10122      2.10122      9.60122         0.003102      0.003107      0.030491
      4.20243      0.00000      9.60122         0.001236      0.004806      0.033521
      2.10057      0.00066     11.71202         0.002093     -0.002095     -0.000926
      4.20284      2.10355     11.71319        -0.000767     -0.000784     -0.002094
      2.10187      2.10187     13.79880        -0.002247     -0.002245      0.003071
      4.20101      0.00259     13.79360         0.000928     -0.001120      0.005924
      2.10122      4.20243      7.50000         0.000248      0.000037      0.406157
      4.20243      6.30365      7.50000         0.000084     -0.000085      0.405107
      2.10122      6.30365      9.60122        -0.004786     -0.001228      0.033459
      4.20243      4.20243      9.60122         0.000618      0.000619      0.034455
      2.10355      4.20284     11.71319        -0.000783     -0.000770     -0.002115
      4.20260      6.30348     11.71305         0.002000     -0.002019     -0.003152
      2.09863      6.30509     13.79360         0.001159     -0.000923      0.005930
      4.20422      4.20422     13.81172        -0.001945     -0.001952      0.005538
      6.30365      0.00000      7.50000        -0.000037     -0.000247      0.406153
      0.00000      2.10122      7.50000         0.000021     -0.000019      0.404961
      6.30365      2.10122      9.60122        -0.001223     -0.004782      0.033458
      0.00000      0.00000      9.60122        -0.003080     -0.003081      0.030542
      6.30325      8.40254     11.71318         0.000755      0.000780     -0.002118
      0.00066      2.10057     11.71202        -0.002095      0.002095     -0.000941
      6.30509      2.09863     13.79360        -0.000954      0.001164      0.005918
     -0.00064     -0.00064     13.79880         0.002295      0.002268      0.003099
      6.30365      4.20243      7.50000        -0.000084      0.000084      0.405107
      0.00000      6.30365      7.50000        -0.000247     -0.000038      0.406154
      6.30365      6.30365      9.60122        -0.000603     -0.000607      0.034385
      0.00000      4.20243      9.60122         0.004808      0.001236      0.033526
      6.30348      4.20260     11.71305        -0.002021      0.001996     -0.003154
      8.40255      6.30325     11.71318         0.000778      0.000760     -0.002138
      6.30189      6.30189     13.81167         0.001921      0.001925      0.005522
      0.00259      4.20101     13.79360        -0.001126      0.000910      0.005931
      2.10122      0.00000      9.60122        -0.003597      0.003618      0.046681
      4.20243      2.10122      9.60122        -0.001391      0.006584      0.046100
      2.10122      2.10122      7.50000        -0.000387     -0.000388     -0.494427
      4.20243      0.00000      7.50000        -0.000460     -0.000122     -0.494322
      2.10015      0.00109     13.84290         0.000777     -0.000805     -0.002332
      4.20334      2.10187     13.84410        -0.000788     -0.001664     -0.001519
      2.10152      2.10152     11.70736        -0.000592     -0.000599      0.002519
      4.20191      0.00179     11.70552         0.000025     -0.000644      0.004453
      2.10122      4.20243      9.60122         0.006584     -0.001391      0.046100
      4.20243      6.30365      9.60122         0.000147     -0.000136      0.050092
      2.10122      6.30365      7.50000         0.000122      0.000463     -0.494425
      4.20243      4.20243      7.50000         0.000406      0.000405     -0.494565
      2.10187      4.20334     13.84410        -0.001659     -0.000798     -0.001498
      4.19605      6.31005     13.83360         0.000139     -0.000095      0.002010
      2.09943      6.30418     11.70553         0.000618     -0.000002      0.004413
      4.20272      4.20272     11.70874        -0.001170     -0.001172      0.007852
      6.30365      0.00000      9.60122         0.001417     -0.006553      0.046095
      0.00000      2.10122      9.60122         0.003619     -0.003597      0.046681
      6.30365      2.10122      7.50000         0.000462      0.000122     -0.494425
      0.00000      0.00000      7.50000         0.000388      0.000387     -0.494326
      6.30276     -0.00064     13.84409         0.000791      0.001610     -0.001517
      0.00109      2.10014     13.84290        -0.000798      0.000785     -0.002329
      6.30418      2.09943     11.70553        -0.000012      0.000607      0.004423
     -0.00029     -0.00029     11.70735         0.000574      0.000579      0.002539
      6.30365      4.20243      9.60122        -0.000136      0.000148      0.050092
      0.00000      6.30365      9.60122        -0.006552      0.001417      0.046096
      6.30365      6.30365      7.50000        -0.000404     -0.000403     -0.494666
      0.00000      4.20243      7.50000        -0.000122     -0.000460     -0.494324
      6.31005      4.19605     13.83360        -0.000101      0.000127      0.002009
     -0.00064      6.30275     13.84409         0.001614      0.000813     -0.001492
      6.30336      6.30336     11.70874         0.001166      0.001179      0.007884
      0.00179      4.20191     11.70552        -0.000646      0.000017      0.004438
    total drift:                               -0.000004     -0.000004      0.002319

  FREE ENERGIE OF THE ION-ELECTRON SYSTEM (eV)
  free  energy   TOTEN  =      -454.75727966 eV

  energy  without entropy=     -454.75727966  energy(sigma->0) =     -454.75727966

 d Force = 0.9314262E-05[ 0.506E-05, 0.136E-04]  d Energy = 0.9459837E-05-0.146E-06
 d Force =-0.2740961E+00[-0.274E+00,-0.274E+00]  d Ewald  =-0.2740961E+00-0.248E-08

 Conjugate gradient step on ions:
 trial-energy change:   -0.000009  1 .order   -0.000009   -0.000014   -0.000005
  (g-gl).g =-0.637E-04      g.g   = 0.172E-03  gl.gl    = 0.486E-03
 g(Force)  = 0.172E-03   g(Stress)= 0.000E+00 ortho     = 0.152E-04
 gamma     =  -0.13103
 trial     =   0.07980
 opt step  =   0.12718  (harmonic =   0.12718) maximal distance =0.00022472
 next E    =  -454.757281   (d E  =  -0.00001)

 reached required accuracy - stopping structural energy minimisation