 vasp.6.4.2 20Jul23 (build Feb 22 2024 13:53:45) complex
 executed on              LinuxNV date 2024.08.27  20:52:18
 OpenACC runtime initialized ...    4 GPUs detected

 INCAR:
   SYSTEM = Oxide-Surface
   ISMEAR = 0
   SIGMA = 0.05
   EDIFF = 1E-5
   ALGO = Normal
   IBRION = -1
   NSW = 0
   ISYM = 0
   DIPOL = 0.5 0.5 0.5
   IDIPOL = 3
   LDIPOL = .TRUE.
   ISTART = 1
   LHFCALC = .TRUE.
   HFSCREEN = 0.2
   GGA = PE
   HFRCUT = -1
   ENCUT = 520
   PREC = Normal
   PRECFOCK = Normal
   LASPH = .TRUE.
   LREAL = Auto
   ISPIN = 1
   NELM = 200
   NELMIN = 8
   NCORE = 1
   KPAR = 1
   LWAVE = .FALSE.
   LCHARG = .FALSE.

 POTCAR:    PAW_PBE N 08Apr2002
 POTCAR:    PAW_PBE O 08Apr2002
 POTCAR:    PAW_PBE Mg_pv 13Apr2007
 POTCAR:    PAW_PBE O 08Apr2002
 POTCAR:    PAW_PBE N 08Apr2002
   VRHFIN =N: s2p3

   TITEL  = PAW_PBE N 08Apr2002
   POMASS =   14.001; ZVAL   =    5.000    mass and valenz
   ENMAX  =  400.000; ENMIN  =  300.000 eV

[...]

   TITEL  = PAW_PBE Mg_pv 13Apr2007
   POMASS =   24.305; ZVAL   =    8.000    mass and valenz
   ENMAX  =  403.929; ENMIN  =  302.947 eV

   TITEL  = PAW_PBE O 08Apr2002
   POMASS =   16.000; ZVAL   =    6.000    mass and valenz
   ENMAX  =  400.000; ENMIN  =  300.000 eV

 Optimization of the real space projectors (new method)

 maximal supplied QI-value         = 25.13
 optimisation between [QCUT,QGAM] = [ 11.56, 23.12] = [ 37.43,149.72] Ry
 Optimized for a Real-space Cutoff    1.25 Angstroem

   l    n(q)    QCUT    max X(q) W(low)/X(q) W(high)/X(q)  e(spline)
   0      9    11.561    79.467    0.52E-04    0.16E-03    0.37E-06
   0      9    11.561    66.151    0.51E-04    0.16E-03    0.37E-06
   1      8    11.561    18.886    0.46E-03    0.28E-03    0.80E-06
   1      8    11.561    13.488    0.47E-03    0.29E-03    0.82E-06
 Optimization of the real space projectors (new method)

[...]

   l    n(q)    QCUT    max X(q) W(low)/X(q) W(high)/X(q)  e(spline)
   1      8    11.527     2.974    0.16E-03    0.13E-03    0.98E-07
   1      8    11.527     4.279    0.42E-03    0.30E-03    0.22E-06
   0      8    11.527    16.381    0.13E-03    0.20E-03    0.72E-07
   0      8    11.527     5.611    0.88E-04    0.13E-03    0.50E-07
   2      7    11.527     4.652    0.25E-03    0.73E-04    0.51E-07
 Optimization of the real space projectors (new method)

 maximal supplied QI-value         = 24.76
 optimisation between [QCUT,QGAM] = [ 11.64, 23.27] = [ 37.91,151.63] Ry
 Optimized for a Real-space Cutoff    1.04 Angstroem

   l    n(q)    QCUT    max X(q) W(low)/X(q) W(high)/X(q)  e(spline)
   0      7    11.635    20.381    0.14E-03    0.49E-03    0.18E-06
   0      7    11.635    15.268    0.16E-03    0.52E-03    0.19E-06
   1      7    11.635     5.964    0.30E-03    0.44E-03    0.22E-06
   1      7    11.635     5.382    0.27E-03    0.34E-03    0.19E-06
  PAW_PBE N 08Apr2002                   :
  PAW_PBE O 08Apr2002                   :
  PAW_PBE Mg_pv 13Apr2007               :
  PAW_PBE O 08Apr2002                   :

 POSCAR:  N  O Mg  O
  positions in direct lattice
 exchange correlation table for  LEXCH =        8
   RHO(1)=    0.500       N(1)  =     2000
   RHO(2)=  100.500       N(2)  =     4000

 ion  position               nearest neighbor table
   1  0.525  0.547  0.776-   2 1.14
   2  0.624  0.638  0.766-   1 1.14   3 1.20
   3  0.727  0.733  0.755-   2 1.20
   4  0.000  0.750  0.224-  36 2.11  39 2.11  46 2.11  38 2.11  55 2.11
   5  0.250  0.000  0.224-  37 2.11  38 2.11  39 2.11  54 2.11  47 2.11
   6  0.000  0.000  0.349-  38 2.11  37 2.11  36 2.11  44 2.11  53 2.11  42 2.12
   7  0.250  0.750  0.349-  39 2.11  36 2.11  45 2.11  37 2.11  52 2.11  43 2.12
   8  1.000  0.750  0.474-  59 2.11  42 2.11  50 2.11  43 2.11  36 2.13  40 2.14
   9  0.250  1.000  0.474-  42 2.11  51 2.11  58 2.11  43 2.11  37 2.13  41 2.15
  10  0.000  0.000  0.597-  57 2.11  40 2.11  42 2.11  48 2.11  41 2.11
  11  0.250  0.750  0.597-  40 2.11  43 2.11  49 2.11  56 2.11  41 2.11
  12  0.000  0.250  0.224-  44 2.11  47 2.11  46 2.11  38 2.11  63 2.11
  13  0.250  0.500  0.224-  45 2.11  39 2.11  46 2.11  47 2.11  62 2.11
  14  0.000  0.500  0.349-  46 2.11  45 2.11  36 2.11  44 2.11  61 2.11  50 2.12
  15  0.250  0.250  0.349-  47 2.11  44 2.11  45 2.11  60 2.11  37 2.11  51 2.12
  16  0.000  0.250  0.474-  42 2.11  50 2.11  51 2.11  67 2.11  44 2.13  48 2.15
  17  0.250  0.500  0.473-  50 2.11  51 2.11  43 2.11  66 2.11  45 2.12  49 2.15
  18  0.000  0.500  0.597-  49 2.11  50 2.11  40 2.11  48 2.11  65 2.12
  19  0.250  0.250  0.598-  49 2.11  64 2.11  48 2.11  41 2.11  51 2.11
  20  0.500  0.750  0.224-  52 2.11  62 2.11  54 2.11  55 2.11  39 2.11
  21  0.750  0.000  0.224-  53 2.11  54 2.11  55 2.11  38 2.11  63 2.11
  22  0.500  0.000  0.349-  54 2.11  52 2.11  53 2.11  37 2.11  60 2.11  58 2.12
  23  0.750  0.750  0.349-  55 2.11  61 2.11  52 2.11  53 2.11  36 2.11  59 2.12
  24  0.500  0.750  0.474-  59 2.11  58 2.11  66 2.11  43 2.11  52 2.13  56 2.16
  25  0.750  1.000  0.474-  59 2.11  42 2.11  58 2.11  67 2.11  53 2.13  57 2.14
  26  0.500  0.000  0.597-  64 2.11  58 2.11  57 2.11  41 2.11  56 2.11
  27  0.751  0.751  0.598-  40 2.11  57 2.11  65 2.12  56 2.12  59 2.12
  28  0.500  0.250  0.224-  60 2.11  47 2.11  62 2.11  63 2.11  54 2.11
  29  0.750  0.500  0.224-  61 2.11  55 2.11  62 2.11  63 2.11  46 2.11
  30  0.500  0.500  0.349-  62 2.11  52 2.11  60 2.11  61 2.11  45 2.11  66 2.12
  31  0.750  0.250  0.349-  63 2.11  61 2.11  60 2.11  53 2.11  44 2.11  67 2.12
  32  0.500  0.250  0.473-  58 2.11  51 2.11  67 2.11  66 2.11  60 2.12  64 2.15
  33  0.750  0.500  0.474-  59 2.11  50 2.11  66 2.11  67 2.11  61 2.13  65 2.16
  34  0.499  0.499  0.597-  66 2.10  49 2.10  64 2.10  65 2.12  56 2.12
  35  0.750  0.250  0.597-  57 2.11  67 2.11  64 2.11  65 2.11  48 2.11
  36  0.000  0.750  0.349-   4 2.11   7 2.11  14 2.11   6 2.11  23 2.11   8 2.13
  37  0.250  0.000  0.349-   5 2.11   6 2.11   7 2.11  22 2.11  15 2.11   9 2.13
  38  0.000  0.000  0.224-   6 2.11   5 2.11   4 2.11  12 2.11  21 2.11
  39  0.250  0.750  0.224-   7 2.11   4 2.11  13 2.11   5 2.11  20 2.11
  40  0.001  0.750  0.600-  11 2.11  27 2.11  18 2.11  10 2.11   8 2.14
  41  0.250  1.000  0.600-  19 2.11  10 2.11  26 2.11  11 2.11   9 2.15
  42  0.000  0.000  0.473-   9 2.11  16 2.11  25 2.11  10 2.11   8 2.11   6 2.12
  43  0.250  0.750  0.473-  11 2.11   9 2.11  24 2.11  17 2.11   8 2.11   7 2.12
  44  0.000  0.250  0.349-  12 2.11  15 2.11  14 2.11   6 2.11  31 2.11  16 2.13
  45  0.250  0.500  0.349-  13 2.11   7 2.11  14 2.11  15 2.11  30 2.11  17 2.12
  46  0.000  0.500  0.224-  14 2.11  13 2.11   4 2.11  12 2.11  29 2.11
  47  0.250  0.250  0.224-  15 2.11  12 2.11  13 2.11  28 2.11   5 2.11
  48  1.000  0.250  0.600-  19 2.11  10 2.11  18 2.11  35 2.11  16 2.15
  49  0.250  0.500  0.600-  34 2.10  18 2.11  19 2.11  11 2.11  17 2.15
  50  1.000  0.500  0.473-  33 2.11  18 2.11  16 2.11  17 2.11   8 2.11  14 2.12
  51  0.250  0.250  0.473-   9 2.11  16 2.11  32 2.11  17 2.11  19 2.11  15 2.12
  52  0.500  0.750  0.349-  20 2.11  30 2.11  22 2.11  23 2.11   7 2.11  24 2.13
  53  0.750  0.000  0.349-  21 2.11  22 2.11  23 2.11   6 2.11  31 2.11  25 2.13
  54  0.500  0.000  0.224-  22 2.11  20 2.11  21 2.11   5 2.11  28 2.11
  55  0.750  0.750  0.224-  23 2.11  29 2.11  20 2.11  21 2.11   4 2.11
  56  0.500  0.750  0.601-  11 2.11  26 2.11  34 2.12  27 2.12  24 2.16
  57  0.750  0.001  0.600-  35 2.11  27 2.11  26 2.11  10 2.11  25 2.14
  58  0.500  1.000  0.473-  26 2.11  24 2.11  32 2.11   9 2.11  25 2.11  22 2.12
  59  0.750  0.750  0.473-  33 2.11  24 2.11   8 2.11  25 2.11  27 2.12  23 2.12
  60  0.500  0.250  0.349-  28 2.11  15 2.11  30 2.11  31 2.11  22 2.11  32 2.12
  61  0.750  0.500  0.349-  29 2.11  23 2.11  30 2.11  31 2.11  14 2.11  33 2.13
  62  0.500  0.500  0.224-  30 2.11  20 2.11  28 2.11  29 2.11  13 2.11
  63  0.750  0.250  0.224-  31 2.11  29 2.11  28 2.11  21 2.11  12 2.11
  64  0.500  0.250  0.600-  34 2.10  26 2.11  19 2.11  35 2.11  32 2.15
  65  0.750  0.500  0.601-  35 2.11  18 2.12  34 2.12  27 2.12  33 2.16
  66  0.500  0.500  0.473-  34 2.10  33 2.11  24 2.11  32 2.11  17 2.11  30 2.12
  67  0.750  0.250  0.473-  35 2.11  16 2.11  33 2.11  32 2.11  25 2.11  31 2.12

IMPORTANT INFORMATION: All symmetrisations will be switched off!
NOSYMM: (Re-)initialisation of all symmetry stuff for point group C_1.

                                     Primitive cell

  volume of cell :    1211.2538

  direct lattice vectors                    reciprocal lattice vectors
     8.440984654  0.000000000  0.000000000     0.118469591  0.000000000  0.000000000
     0.000000000  8.440984654  0.000000000     0.000000000  0.118469591  0.000000000
     0.000000000  0.000000000 17.000000000     0.000000000  0.000000000  0.058823529

  length of vectors
     8.440984654  8.440984654 17.000000000     0.118469591  0.118469591  0.058823529

  position of ions in fractional coordinates (direct lattice)
     0.524944584  0.547217405  0.775559749
     0.623769281  0.637956602  0.766018695
     0.727373100  0.733121941  0.754888579
     0.000013589  0.750000194  0.224440251
     0.250013589  0.000000194  0.224440251
     0.000013589  0.000000194  0.348572378
     0.250013589  0.750000194  0.348572378
     0.999966561  0.750070127  0.473605150
     0.249973769  0.999999806  0.473574844
     0.000085356  0.000081940  0.597372974
     0.249911674  0.749854424  0.597278904
     0.000013589  0.250000194  0.224440251
     0.250013589  0.500000194  0.224440251
     0.000013589  0.500000194  0.348572378
     0.250013589  0.250000194  0.348572378
     0.000017243  0.249980157  0.473578238
     0.249762180  0.499976802  0.473496967
     0.000015781  0.500169160  0.597346508
     0.249951061  0.249969241  0.597528815
     0.500013589  0.750000194  0.224440251
     0.750013589  0.000000194  0.224440251
     0.500013589  0.000000194  0.348572378
     0.750013589  0.750000194  0.348572378
     0.500273599  0.749982319  0.473747038
     0.750103789  0.999951129  0.473603294
     0.500188527  0.000063732  0.597268966
     0.751053112  0.750996103  0.598352833
     0.500013589  0.250000194  0.224440251
     0.750013589  0.500000194  0.224440251
     0.500013589  0.500000194  0.348572378
     0.750013589  0.250000194  0.348572378
     0.499983585  0.249784354  0.473489942
     0.749980441  0.500264035  0.473747642
     0.498953542  0.498986092  0.596951454
     0.749883494  0.249927580  0.597279352
     0.000013589  0.750000194  0.348572378
     0.250013589  0.000000194  0.348572378
     0.000013589  0.000000194  0.224440251
     0.250013589  0.750000194  0.224440251
     0.000512942  0.750094692  0.599721879
     0.250123386  0.999979282  0.600249487
     0.000150473  0.000132421  0.473209985
     0.250249984  0.750027907  0.473193538
     0.000013589  0.250000194  0.348572378
     0.250013589  0.500000194  0.348572378
     0.000013589  0.500000194  0.224440251
     0.250013589  0.250000194  0.224440251
     0.999986411  0.250117343  0.600233718
     0.249734853  0.499887790  0.599784938
     0.999791148  0.499924508  0.473255248
     0.249972411  0.249941824  0.473253190
[...]
   4.22060703  6.33074013  5.92573043
   6.33085319  0.00000164  5.92573043
   4.22060703  0.00000164  3.81548426
   6.33085319  6.33074013  3.81548426
   4.21976724  6.32823101 10.21105877
   6.33163118  0.00448843 10.19469180
   4.21993780  8.43956438  8.04502611
   6.33022692  6.33006217  8.04923345
   4.22060703  2.11024780  5.92573043
   6.33085319  4.22049397  5.92573043
   4.22060703  4.22049397  3.81548426
   6.33085319  2.11024780  3.81548426
   4.21944314  2.10810698 10.19768634
   6.32681287  4.21993840 10.21232107
   4.22045231  4.22035746  8.04497767
   6.33090136  2.11237235  8.04438034

--------------------------------------- Iteration      FINAL  ---------------------------------------

--------------------OUTCAR has been truncated-------------------------

[...]

--------------------OUTCAR has been truncated-------------------------

 VOLUME and BASIS-vectors are now :
  energy-cutoff  :      520.00
  volume of cell :     1211.25
      direct lattice vectors                 reciprocal lattice vectors
     8.440984654  0.000000000  0.000000000     0.118469591  0.000000000  0.000000000
     0.000000000  8.440984654  0.000000000     0.000000000  0.118469591  0.000000000
     0.000000000  0.000000000 17.000000000     0.000000000  0.000000000  0.058823529

  length of vectors
     8.440984654  8.440984654 17.000000000     0.118469591  0.118469591  0.058823529

 FORCES acting on ions
    electron-ion (+dipol)            ewald-force                    non-local-force                 convergence-correction
   0.214E+03 0.196E+03 -.817E+03   -.250E+03 -.230E+03 0.824E+03   0.351E+02 0.322E+02 -.691E+01   -.159E-02 -.152E-02 0.108E+00
   0.167E+02 0.154E+02 -.834E+03   -.165E+02 -.153E+02 0.834E+03   -.103E+01 -.952E+00 0.546E-01   0.916E-03 0.823E-03 0.108E+00
   -.218E+03 -.201E+03 -.102E+04   0.266E+03 0.244E+03 0.101E+04   -.421E+02 -.387E+02 0.770E+01   0.255E-02 0.233E-02 0.140E+00
   -.828E+00 -.643E+00 0.171E+04   0.830E+00 0.645E+00 -.170E+04   -.141E-02 -.113E-02 -.683E+01   0.158E-03 -.480E-04 -.169E+00
   0.702E+00 -.777E+00 0.171E+04   -.704E+00 0.779E+00 -.170E+04   0.146E-02 -.145E-02 -.683E+01   0.525E-04 0.141E-03 -.170E+00
   -.951E+00 -.105E+01 0.593E+03   0.965E+00 0.107E+01 -.594E+03   -.989E-02 -.913E-02 0.465E+00   -.853E-04 -.904E-04 -.943E-01
   0.996E+00 -.867E+00 0.594E+03   -.964E+00 0.884E+00 -.595E+03   -.199E-01 -.110E-01 0.454E+00   0.119E-03 -.124E-03 -.942E-01
   -.632E+01 -.290E+01 -.505E+03   0.628E+01 0.292E+01 0.506E+03   0.341E-01 -.114E-01 -.369E+00   -.509E-03 -.387E-03 0.154E-01
   0.315E+01 -.415E+01 -.516E+03   -.316E+01 0.415E+01 0.517E+03   0.147E-01 -.833E-03 -.167E+00   0.393E-03 -.405E-03 0.145E-01
   -.197E+02 -.204E+02 -.163E+04   0.197E+02 0.204E+02 0.162E+04   0.157E-01 0.119E-01 0.578E+01   -.106E-02 -.107E-02 0.114E+00
   0.224E+02 -.154E+02 -.161E+04   -.225E+02 0.154E+02 0.161E+04   0.123E+00 0.724E-03 0.578E+01   0.148E-02 -.808E-03 0.114E+00
   -.689E+00 0.640E+00 0.171E+04   0.691E+00 -.642E+00 -.170E+04   -.155E-02 0.105E-02 -.683E+01   0.155E-03 0.577E-04 -.170E+00
   0.848E+00 0.780E+00 0.171E+04   -.851E+00 -.783E+00 -.170E+04   0.161E-02 0.146E-02 -.682E+01   0.576E-04 -.149E-03 -.170E+00
   -.991E+00 0.107E+01 0.594E+03   0.952E+00 -.108E+01 -.595E+03   0.242E-01 0.760E-02 0.482E+00   -.760E-04 0.852E-04 -.942E-01
   0.941E+00 0.848E+00 0.593E+03   -.957E+00 -.866E+00 -.593E+03   0.106E-01 0.117E-01 0.478E+00   0.129E-03 0.134E-03 -.946E-01
   -.367E+01 0.279E+01 -.517E+03   0.367E+01 -.280E+01 0.517E+03   -.110E-02 0.965E-02 -.175E+00   -.372E-03 0.389E-03 0.145E-01
   0.511E+01 0.427E+01 -.508E+03   -.514E+01 -.427E+01 0.508E+03   0.269E-01 0.269E-02 -.265E+00   0.398E-03 0.397E-03 0.152E-01
   -.250E+02 0.218E+02 -.161E+04   0.252E+02 -.218E+02 0.161E+04   -.125E+00 -.163E-01 0.578E+01   -.164E-02 0.114E-02 0.114E+00
   0.141E+02 0.139E+02 -.164E+04   -.141E+02 -.139E+02 0.163E+04   0.117E-01 0.696E-02 0.578E+01   0.704E-03 0.748E-03 0.114E+00
   0.834E+00 -.794E+00 0.171E+04   -.836E+00 0.795E+00 -.170E+04   0.112E-02 -.804E-03 -.684E+01   -.164E-03 -.683E-04 -.169E+00
   -.704E+00 -.916E+00 0.171E+04   0.707E+00 0.918E+00 -.170E+04   -.152E-02 -.132E-02 -.683E+01   -.457E-04 0.154E-03 -.169E+00
   0.971E+00 -.111E+01 0.594E+03   -.983E+00 0.107E+01 -.595E+03   0.830E-02 0.222E-01 0.478E+00   0.889E-04 -.715E-04 -.942E-01
   -.102E+01 -.906E+00 0.596E+03   0.999E+00 0.885E+00 -.596E+03   0.137E-01 0.144E-01 0.514E+00   -.131E-03 -.131E-03 -.938E-01
   0.652E+01 -.493E+01 -.499E+03   -.648E+01 0.495E+01 0.499E+03   -.383E-01 -.206E-01 -.104E+00   0.513E-03 -.381E-03 0.166E-01
   -.328E+01 -.680E+01 -.505E+03   0.330E+01 0.677E+01 0.506E+03   -.153E-01 0.336E-01 -.379E+00   -.386E-03 -.542E-03 0.154E-01
   0.213E+02 -.287E+02 -.161E+04   -.213E+02 0.289E+02 0.160E+04   -.190E-01 -.114E+00 0.579E+01   0.115E-02 -.188E-02 0.114E+00
   -.309E+02 -.269E+02 -.152E+04   0.312E+02 0.271E+02 0.151E+04   -.236E+00 -.215E+00 0.532E+01   -.203E-02 -.177E-02 0.121E+00
   0.692E+00 0.787E+00 0.171E+04   -.694E+00 -.789E+00 -.170E+04   0.159E-02 0.118E-02 -.682E+01   -.149E-03 0.522E-04 -.170E+00
   -.855E+00 0.923E+00 0.171E+04   0.857E+00 -.924E+00 -.170E+04   -.113E-02 0.989E-03 -.684E+01   -.488E-04 -.150E-03 -.169E+00
   0.101E+01 0.113E+01 0.596E+03   -.985E+00 -.111E+01 -.596E+03   -.155E-01 -.152E-01 0.483E+00   0.859E-04 0.921E-04 -.940E-01
   -.961E+00 0.886E+00 0.594E+03   0.976E+00 -.853E+00 -.595E+03   -.985E-02 -.208E-01 0.455E+00   -.125E-03 0.120E-03 -.942E-01
   0.376E+01 0.470E+01 -.508E+03   -.377E+01 -.472E+01 0.508E+03   0.392E-02 0.262E-01 -.237E+00   0.372E-03 0.382E-03 0.150E-01
   -.532E+01 0.701E+01 -.500E+03   0.534E+01 -.696E+01 0.500E+03   -.214E-01 -.382E-01 -.910E-01   -.401E-03 0.549E-03 0.165E-01
   0.311E+02 0.359E+02 -.154E+04   -.314E+02 -.362E+02 0.154E+04   0.179E+00 0.202E+00 0.575E+01   0.194E-02 0.230E-02 0.116E+00
   -.152E+02 0.190E+02 -.162E+04   0.152E+02 -.192E+02 0.161E+04   -.502E-02 0.120E+00 0.577E+01   -.716E-03 0.130E-02 0.113E+00
   -.814E+00 -.553E+00 0.445E+03   0.819E+00 0.553E+00 -.445E+03   -.539E-02 0.330E-03 -.110E+00   -.690E-04 -.902E-04 -.740E-01
   0.621E+00 -.763E+00 0.444E+03   -.622E+00 0.758E+00 -.444E+03   0.191E-02 0.605E-02 -.127E+00   0.943E-04 -.518E-04 -.741E-01
   -.548E+00 -.605E+00 0.128E+04   0.551E+00 0.607E+00 -.129E+04   -.295E-02 -.288E-02 0.312E+01   0.101E-03 0.932E-04 -.130E+00
   0.612E+00 -.517E+00 0.128E+04   -.611E+00 0.520E+00 -.129E+04   -.467E-03 -.321E-02 0.312E+01   0.302E-04 -.441E-04 -.130E+00
   -.286E+02 -.879E+01 -.122E+04   0.285E+02 0.879E+01 0.122E+04   0.401E-01 -.520E-02 -.464E+01   -.188E-02 -.551E-03 0.860E-01
   0.879E+01 -.110E+02 -.124E+04   -.879E+01 0.110E+02 0.125E+04   -.132E-02 0.252E-01 -.459E+01   0.485E-03 -.499E-03 0.855E-01
   -.347E+01 -.369E+01 -.380E+03   0.345E+01 0.367E+01 0.380E+03   0.157E-01 0.148E-01 0.193E+00   -.310E-03 -.327E-03 0.526E-02
   0.333E+01 -.279E+01 -.376E+03   -.334E+01 0.279E+01 0.376E+03   0.177E-02 -.410E-02 0.233E+00   0.387E-03 -.272E-03 0.566E-02
   -.675E+00 0.547E+00 0.444E+03   0.670E+00 -.550E+00 -.444E+03   0.618E-02 0.290E-02 -.126E+00   -.482E-04 0.972E-04 -.742E-01
   0.768E+00 0.772E+00 0.445E+03   -.755E+00 -.766E+00 -.445E+03   -.143E-01 -.727E-02 -.929E-01   0.106E-03 0.322E-04 -.740E-01
   -.589E+00 0.607E+00 0.128E+04   0.588E+00 -.610E+00 -.129E+04   0.129E-02 0.300E-02 0.312E+01   0.103E-03 -.107E-03 -.130E+00
   0.552E+00 0.515E+00 0.128E+04   -.555E+00 -.518E+00 -.129E+04   0.359E-02 0.318E-02 0.313E+01   0.445E-04 0.440E-04 -.130E+00
   -.957E+01 0.772E+01 -.125E+04   0.955E+01 -.772E+01 0.125E+04   0.247E-01 0.234E-02 -.459E+01   -.448E-03 0.471E-03 0.855E-01
   0.212E+02 0.122E+02 -.122E+04   -.213E+02 -.122E+02 0.123E+04   0.728E-01 -.177E-01 -.461E+01   0.105E-02 0.565E-03 0.855E-01
   -.370E+01 0.381E+01 -.377E+03   0.370E+01 -.380E+01 0.376E+03   0.942E-03 -.273E-02 0.231E+00   -.407E-03 0.328E-03 0.562E-02
   0.282E+01 0.267E+01 -.383E+03   -.281E+01 -.266E+01 0.382E+03   -.780E-02 -.759E-02 0.164E+00   0.248E-03 0.261E-03 0.527E-02
   0.853E+00 -.735E+00 0.446E+03   -.872E+00 0.740E+00 -.446E+03   0.220E-01 -.628E-02 -.154E+00   0.852E-04 -.124E-03 -.737E-01
   -.627E+00 -.903E+00 0.445E+03   0.626E+00 0.907E+00 -.445E+03   0.187E-02 -.539E-02 -.109E+00   -.949E-04 -.789E-04 -.740E-01
   0.550E+00 -.664E+00 0.128E+04   -.553E+00 0.663E+00 -.129E+04   0.348E-02 0.111E-02 0.312E+01   -.102E-03 0.117E-03 -.130E+00
   -.616E+00 -.561E+00 0.128E+04   0.616E+00 0.560E+00 -.129E+04   0.137E-02 0.174E-02 0.311E+01   -.271E-04 -.351E-04 -.129E+00
   0.348E+02 -.254E+02 -.117E+04   -.346E+02 0.254E+02 0.118E+04   -.130E+00 0.896E-02 -.434E+01   0.237E-02 -.141E-02 0.880E-01
   -.100E+02 -.303E+02 -.122E+04   0.100E+02 0.302E+02 0.122E+04   -.529E-02 0.508E-01 -.465E+01   -.581E-03 -.197E-02 0.860E-01
   0.359E+01 -.420E+01 -.376E+03   -.358E+01 0.419E+01 0.376E+03   -.401E-02 0.492E-02 0.244E+00   0.326E-03 -.465E-03 0.565E-02
   -.354E+01 -.311E+01 -.368E+03   0.356E+01 0.313E+01 0.368E+03   -.161E-01 -.184E-01 0.586E-01   -.395E-03 -.367E-03 0.654E-02
   0.684E+00 0.693E+00 0.445E+03   -.678E+00 -.683E+00 -.445E+03   -.693E-02 -.114E-01 -.937E-01   0.384E-04 0.101E-03 -.740E-01
   -.812E+00 0.940E+00 0.446E+03   0.818E+00 -.959E+00 -.446E+03   -.710E-02 0.217E-01 -.155E+00   -.117E-03 0.871E-04 -.738E-01
   0.594E+00 0.670E+00 0.128E+04   -.592E+00 -.668E+00 -.129E+04   -.162E-02 -.167E-02 0.311E+01   -.117E-03 -.110E-03 -.130E+00
   -.554E+00 0.556E+00 0.128E+04   0.557E+00 -.555E+00 -.129E+04   -.323E-02 -.123E-02 0.312E+01   -.478E-04 0.310E-04 -.130E+00
   0.104E+02 0.196E+02 -.123E+04   -.104E+02 -.197E+02 0.123E+04   -.231E-01 0.684E-01 -.460E+01   0.473E-03 0.985E-03 0.855E-01
   -.261E+02 0.361E+02 -.118E+04   0.261E+02 -.359E+02 0.118E+04   -.726E-02 -.131E+00 -.439E+01   -.136E-02 0.241E-02 0.877E-01
   0.390E+01 0.440E+01 -.367E+03   -.391E+01 -.441E+01 0.367E+03   0.838E-02 0.457E-02 0.336E+00   0.425E-03 0.467E-03 0.606E-02
   -.293E+01 0.291E+01 -.377E+03   0.294E+01 -.292E+01 0.376E+03   -.693E-02 0.755E-02 0.235E+00   -.255E-03 0.369E-03 0.561E-02
   0.112E+02 0.103E+02 0.206E+02   0.615E-12 0.124E-12 0.142E-11   -.811E+01 -.748E+01 -.168E+02   0.183E-02 0.155E-02 -.160E+01

 POSITION                                       TOTAL-FORCE (eV/Angst)
      4.43105      4.61905     13.18452         1.854215      1.688557     -0.293705
      5.26523      5.38498     13.02232        -0.914458     -0.843994      0.131811
      6.13975      6.18827     12.83311        -0.929837     -0.842170      0.207112
      0.00011      6.33074      3.81548         0.000717      0.000397      0.532265
      2.11036      0.00000      3.81548        -0.000651      0.000470      0.533293
      0.00011      0.00000      5.92573         0.003575      0.003219      0.033709
      2.11036      6.33074      5.92573         0.008970      0.004452      0.038672
      8.44070      6.33133      8.05129        -0.001436      0.000031      0.054313
      2.11002      8.44098      8.05077         0.003078     -0.002614      0.046143
      0.00072      0.00069     10.15534        -0.000307      0.000427     -0.134374
      2.10950      6.32951     10.15374        -0.016472      0.009143     -0.147357
      0.00011      2.11025      3.81548         0.000602     -0.000580      0.532988
      2.11036      4.22049      3.81548        -0.000782     -0.000737      0.530853
      0.00011      4.22049      5.92573        -0.011347     -0.002789      0.034221
      2.11036      2.11025      5.92573        -0.004318     -0.004802      0.032641
      0.00015      2.11008      8.05083        -0.003322      0.002671      0.046835
      2.10824      4.22030      8.04945         0.003583     -0.000308      0.045462
      0.00013      4.22192     10.15489         0.004198     -0.000245     -0.138996
      2.10983      2.10999     10.15799        -0.008730     -0.008459     -0.147859
      4.22061      6.33074      3.81548        -0.000573      0.000284      0.538369
      6.33085      0.00000      3.81548         0.000658      0.000591      0.532448
      4.22061      0.00000      5.92573        -0.002939     -0.010532      0.034093
      6.33085      6.33074      5.92573        -0.004602     -0.004985      0.043425
      4.22280      6.33059      8.05370        -0.001044     -0.001461      0.038456
      6.33161      8.44057      8.05126        -0.000446     -0.000634      0.054362
      4.22208      0.00054     10.15357        -0.000257      0.006848     -0.140990
      6.33963      6.33915     10.17200         0.014581      0.014297     -0.069995
      4.22061      2.11025      3.81548        -0.000672     -0.000680      0.531189
      6.33085      4.22049      3.81548         0.000522     -0.000634      0.538269
      4.22061      4.22049      5.92573         0.005545      0.005592      0.035712
      6.33085      2.11025      5.92573         0.004192      0.009139      0.038819
      4.22035      2.10843      8.04933        -0.000261      0.003147      0.045280
      6.33057      4.22272      8.05371        -0.002213     -0.000999      0.039691
      4.21166      4.21193     10.14817        -0.009936     -0.011866     -0.161718
      6.32976      2.10963     10.15375         0.008177     -0.013796     -0.144361
      0.00011      6.33074      5.92573        -0.001919     -0.000355      0.054432
      2.11036      0.00000      5.92573         0.000981      0.001810      0.044731
      0.00011      0.00000      3.81548        -0.000887     -0.001055     -0.454128
      2.11036      6.33074      3.81548        -0.000108     -0.001185     -0.455303
      0.00433      6.33154     10.19527         0.020466     -0.001764     -0.090448
      2.11129      8.44081     10.20424         0.003832      0.000581     -0.096449
      0.00127      0.00112      8.04457        -0.001842     -0.002021      0.002548
      2.11236      6.33097      8.04429        -0.003611     -0.003454      0.009835
      0.00011      2.11025      5.92573         0.001957      0.001127      0.045571
      2.11036      4.22049      5.92573        -0.003785     -0.002425      0.050919
      0.00011      4.22049      3.81548         0.000567      0.000877     -0.455313
      2.11036      2.11025      3.81548         0.001278      0.000953     -0.453146
      8.44087      2.11124     10.20397         0.000537      0.004104     -0.096473
      2.10801      4.21955     10.19634         0.002223     -0.002743     -0.074987
      8.43922      4.21986      8.04534         0.001356      0.004891      0.008259
      2.11001      2.10976      8.04530        -0.000102      0.000595      0.002403
      4.22061      6.33074      5.92573         0.006794     -0.002300      0.049939
      6.33085      0.00000      5.92573         0.000235     -0.002022      0.054496
      4.22061      0.00000      3.81548         0.001234      0.000316     -0.455714
      6.33085      6.33074      3.81548         0.000613      0.000536     -0.457778
      4.21977      6.32823     10.21106        -0.023123      0.003908     -0.088815
      6.33163      0.00449     10.19469        -0.001812      0.021364     -0.092057
      4.21994      8.43956      8.04503         0.004783      0.001260      0.008222
      6.33023      6.33006      8.04923         0.001878      0.001606      0.004961
      4.22061      2.11025      5.92573        -0.002151     -0.003035      0.049971
      6.33085      4.22049      5.92573        -0.002383      0.006549      0.049571
      4.22061      4.22049      3.81548        -0.000541     -0.000748     -0.456493
      6.33085      2.11025      3.81548        -0.000995     -0.000562     -0.455377
      4.21944      2.10811     10.19769        -0.003346      0.002634     -0.073656
      6.32681      4.21994     10.21232         0.005032     -0.021796     -0.093371
      4.22045      4.22036      8.04498        -0.002046     -0.001704      0.012545
      6.33090      2.11237      8.04438        -0.003128     -0.002925      0.010027
    total drift:                                0.003381      0.007384     -0.048561

  FREE ENERGIE OF THE ION-ELECTRON SYSTEM (eV)
  free  energy   TOTEN  =      -473.00059234 eV

  energy  without entropy=     -473.00059234  energy(sigma->0) =     -473.00059234

     |            E. Caldeweyher, S. Ehlert & S. Grimme          |
     |          Mulliken Center for Theoretical Chemistry        |
     |                    University of Bonn                     |

Rational (Becke-Johnson) damping: hse06-D4-ATM
  s6         1.0000
  s8         1.1953
  s9         1.0000
  a1         0.3866
  a2         5.1913
 alp        16.0000

Dispersion energy:      -2.7511850852682E-01 Eh