 vasp.6.3.0 20Jan22 (build Dec 25 2023 18:06:01) complex
 executed on        HPECrayEX_GCC date 2024.11.22  13:21:28

 INCAR:
   SYSTEM = TiO2
   ISMEAR = 0
   SIGMA = 0.05
   EDIFF = 1E-7
   ALGO = ALL
   ISTART = 0
   IBRION = 2
   NSW = 1000
   ISYM = 0
   ISIF = 2
   EDIFFG = -0.01
   DIPOL = 0.5 0.5 0.5
   IDIPOL = 3
   LDIPOL = .TRUE.
   GGA = PE
   IVDW = 21
   ENCUT = 600
   PREC = Accurate
   LASPH = .TRUE.
   LREAL = .FALSE.
   ISPIN = 1
   NELM = 200
   NELMIN = 8
   NCORE = 8
   KPAR = 1
   LWAVE = .FALSE.
   LCHARG = .FALSE.

 POTCAR:    PAW_PBE C 08Apr2002
 POTCAR:    PAW_PBE O 08Apr2002
 POTCAR:    PAW_PBE Ti_pv 07Sep2000
 POTCAR:    PAW_PBE O 08Apr2002
 POTCAR:    PAW_PBE C 08Apr2002
   VRHFIN =C: s2p2

   TITEL  = PAW_PBE C 08Apr2002
   POMASS =   12.011; ZVAL   =    4.000    mass and valenz
   ENMAX  =  400.000; ENMIN  =  300.000 eV

[...]

   TITEL  = PAW_PBE Ti_pv 07Sep2000
   POMASS =   47.880; ZVAL   =   10.000    mass and valenz
   ENMAX  =  222.335; ENMIN  =  166.751 eV

   TITEL  = PAW_PBE O 08Apr2002
   POMASS =   16.000; ZVAL   =    6.000    mass and valenz
   ENMAX  =  400.000; ENMIN  =  300.000 eV

  PAW_PBE C 08Apr2002                   :
  PAW_PBE O 08Apr2002                   :
  PAW_PBE Ti_pv 07Sep2000               :
  PAW_PBE O 08Apr2002                   :

 POSCAR:  C  O Ti  O
  positions in direct lattice
  velocities in cartesian coordinates
 exchange correlation table for  LEXCH =        8
   RHO(1)=    0.500       N(1)  =     2000
   RHO(2)=  100.500       N(2)  =     4000

 ion  position               nearest neighbor table
   1  0.431  0.500  0.822-   2 1.17   3 1.18
   2  0.377  0.500  0.852-   1 1.17
   3  0.489  0.500  0.792-   1 1.18  83 2.52
   4  0.750  0.625  0.287-  84 1.96  85 1.96 144 1.96 145 1.96  87 1.98 166 1.98  14 2.97  34 2.97

   5  0.000  0.750  0.287-  86 1.96  87 1.96 106 1.96 107 1.96  88 1.98  35 2.97  15 2.97
   6  0.000  0.625  0.393-  88 1.96  89 1.96 148 1.96 149 1.96  90 1.98  91 1.98  16 2.97  36 2.97

[...]

  84  0.750  0.750  0.245-   4 1.96  14 1.96
  85  0.750  0.750  0.329-   4 1.96  14 1.96   7 1.98
  86  0.098  0.625  0.287-   5 1.96  35 1.96  44 1.98
  87  0.902  0.625  0.287-   5 1.96  35 1.96   4 1.98
  88  0.000  0.750  0.352-   6 1.96  16 1.96   5 1.98
  89  0.000  0.750  0.435-   6 1.96  16 1.96   9 1.98
  90  0.848  0.625  0.393-   7 1.96  37 1.96   6 1.98
  91  0.152  0.625  0.393-  47 1.96  77 1.96   6 1.98
  92  0.750  0.750  0.458-   8 1.96  18 1.96   7 1.98
  93  0.750  0.750  0.542-   8 1.96  18 1.96  11 2.11
  94  0.098  0.625  0.500-   9 1.96  39 1.96  48 1.98
  95  0.902  0.625  0.500-   9 1.96  39 1.96   8 1.98
  96  1.000  0.750  0.566-  10 1.90  20 1.90   9 2.00
  97  0.000  0.750  0.649-  13 1.81  10 2.02  20 2.02
  98  0.850  0.625  0.607-  11 1.94  41 1.94  10 2.04
  99  0.150  0.625  0.607-  10 1.88  81 2.02  51 2.02
 100  0.749  0.750  0.672-  11 1.87  22 2.10  12 2.10
 101  0.749  0.750  0.756-  12 1.84  22 1.84
 102  0.093  0.625  0.720-  43 1.95  13 1.96  52 2.03
 103  0.905  0.625  0.719-  43 1.95  13 1.95  12 2.04
 104  0.750  0.000  0.245-  14 1.96  24 1.96
 105  0.750  0.000  0.329-  14 1.96  24 1.96  17 1.98
 106  0.098  0.875  0.287-   5 1.96  15 1.96  54 1.98
 107  0.902  0.875  0.287-   5 1.96  15 1.96  14 1.98
 108  0.000  0.000  0.352-  16 1.96  26 1.96  15 1.98
 109  0.000  0.000  0.435-  16 1.96  26 1.96  19 1.98
 110  0.848  0.875  0.393-   7 1.96  17 1.96  16 1.98
 111  0.152  0.875  0.393-  47 1.96  57 1.96  16 1.98
 112  0.750  0.000  0.458-  18 1.96  28 1.96  17 1.98
 113  0.750  0.000  0.542-  18 1.96  28 1.96  21 2.11
 114  0.098  0.875  0.500-   9 1.96  19 1.96  58 1.98
 115  0.902  0.875  0.500-   9 1.96  19 1.96  18 1.98
 116  1.000  1.000  0.566-  20 1.90  30 1.90  19 2.00
 117  0.000  1.000  0.649-  23 1.81  20 2.02  30 2.02
 118  0.850  0.875  0.607-  21 1.94  11 1.94  20 2.04
 119  0.150  0.875  0.607-  20 1.88  61 2.02  51 2.02
 120  0.749  1.000  0.672-  21 1.87  32 2.10  22 2.10
 121  0.749  1.000  0.756-  22 1.84  32 1.84
 122  0.093  0.875  0.719-  13 1.95  23 1.95  62 2.04
 123  0.905  0.875  0.719-  13 1.95  23 1.95  22 2.04
 124  0.750  0.250  0.245-  24 1.96  34 1.96
 125  0.750  0.250  0.329-  24 1.96  34 1.96  27 1.98
 126  0.098  0.125  0.287-  15 1.96  25 1.96  64 1.98
 127  0.902  0.125  0.287-  15 1.96  25 1.96  24 1.98
 128  0.000  0.250  0.352-  26 1.96  36 1.96  25 1.98
 129  0.000  0.250  0.435-  26 1.96  36 1.96  29 1.98
 130  0.848  0.125  0.393-  17 1.96  27 1.96  26 1.98
 131  0.152  0.125  0.393-  57 1.96  67 1.96  26 1.98
 132  0.750  0.250  0.458-  28 1.96  38 1.96  27 1.98
 133  0.750  0.250  0.542-  28 1.96  38 1.96  31 2.11
 134  0.098  0.125  0.500-  19 1.96  29 1.96  68 1.98
 135  0.902  0.125  0.500-  19 1.96  29 1.96  28 1.98
 136  1.000  0.250  0.566-  40 1.90  30 1.90  29 2.00
 137  0.000  0.250  0.649-  33 1.81  40 2.02  30 2.02
 138  0.850  0.125  0.607-  21 1.94  31 1.94  30 2.04
 139  0.150  0.125  0.607-  30 1.88  61 2.02  71 2.02
 140  0.749  0.250  0.672-  31 1.87  32 2.10  42 2.10
 141  0.749  0.250  0.756-  42 1.84  32 1.84
 142  0.093  0.125  0.719-  33 1.95  23 1.95  72 2.04
 143  0.905  0.125  0.719-  33 1.95  23 1.95  32 2.04
[...]
 229  0.500  0.500  0.435-  46 1.96  76 1.96  79 1.98
 230  0.348  0.375  0.393-  67 1.96  77 1.96  76 1.98
 231  0.652  0.375  0.393-  27 1.96  37 1.96  76 1.98
 232  0.250  0.500  0.458-  48 1.96  78 1.96  77 1.98
 233  0.250  0.500  0.542-  48 1.96  78 1.96  81 2.11
 234  0.598  0.375  0.500-  69 1.96  79 1.96  38 1.98
 235  0.402  0.375  0.500-  69 1.96  79 1.96  78 1.98
 236  0.500  0.500  0.566-  50 1.90  80 1.90  79 2.01
 237  0.500  0.500  0.650-  83 1.84  80 2.02  50 2.02
 238  0.350  0.375  0.608-  71 1.94  81 1.94  80 2.04
 239  0.650  0.375  0.607-  80 1.88  41 2.02  31 2.02
 240  0.248  0.500  0.672-  81 1.87  52 2.10  82 2.10
 241  0.252  0.500  0.756-  52 1.84  82 1.84
 242  0.593  0.374  0.719-  73 1.94  83 1.96  42 2.03
 243  0.404  0.373  0.718-  73 1.94  83 1.95  82 2.04

IMPORTANT INFORMATION: All symmetrisations will be switched off!
NOSYMM: (Re-)initialisation of all symmetry stuff for point group C_1.

                                     Primitive cell

  volume of cell :    4740.1649

  direct lattice vectors                    reciprocal lattice vectors
    13.042933829  0.000000000  0.000000000     0.076669867  0.000000000  0.000000000
     0.000000000 11.878216733  0.000000000     0.000000000  0.084187721  0.000000000
     0.000000000  0.000000000 30.596159140     0.000000000  0.000000000  0.032683841

  length of vectors
    13.042933829 11.878216733 30.596159140     0.076669867  0.084187721  0.032683841

  position of ions in fractional coordinates (direct lattice)
     0.431112692  0.500000030  0.821932971
     0.376739852  0.500000206  0.852258977
     0.488932064  0.499999856  0.792200591
     0.750000000  0.625000000  0.286853412
     0.000000000  0.750000000  0.286853412
     0.000000000  0.625000000  0.393426706
     0.750000000  0.750000000  0.393426706
     0.750000000  0.625000000  0.500000000
     0.000000000  0.750000000  0.500000000
     0.005720704  0.625011916  0.604367909
     0.754678584  0.749947236  0.610696594
     0.748765042  0.625072975  0.720328897
     0.999027198  0.750180551  0.708473968
     0.750000000  0.875000000  0.286853412
     0.000000000  0.000000000  0.286853412
     0.000000000  0.875000000  0.393426706
     0.750000000  0.000000000  0.393426706
     0.750000000  0.875000000  0.500000000
     0.000000000  0.000000000  0.500000000
     0.005800542  0.875020269  0.604371449
     0.754747246  0.999999947  0.610710738
     0.748761165  0.875069007  0.720394003
     0.999263155  0.999999883  0.708475544
     0.750000000  0.125000000  0.286853412
     0.000000000  0.250000000  0.286853412
     0.000000000  0.125000000  0.393426706
     0.750000000  0.250000000  0.393426706
     0.750000000  0.125000000  0.500000000
     0.000000000  0.250000000  0.500000000
     0.005800671  0.124979642  0.604371435
     0.754678659  0.250052554  0.610696622
     0.748761210  0.124930761  0.720394000
     0.999027222  0.249819307  0.708473966
     0.750000000  0.375000000  0.286853412
     0.000000000  0.500000000  0.286853412
     0.000000000  0.375000000  0.393426706
     0.750000000  0.500000000  0.393426706
     0.750000000  0.375000000  0.500000000
     0.000000000  0.500000000  0.500000000
     0.005720778  0.374987968  0.604367907
     0.754512779  0.499999897  0.610723473
     0.748765046  0.374926639  0.720328889
     0.998620723  0.499999903  0.708461661
     0.250000000  0.625000000  0.286853412
     0.500000000  0.750000000  0.286853412
     0.500000000  0.625000000  0.393426706
     0.250000000  0.750000000  0.393426706
     0.250000000  0.625000000  0.500000000
     0.500000000  0.750000000  0.500000000
     0.505769711  0.624320698  0.604905086
     0.254549438  0.750036301  0.610602498
     0.248306889  0.625282701  0.720014318
     0.499209776  0.750092399  0.708054565
     0.250000000  0.875000000  0.286853412
     0.500000000  0.000000000  0.286853412
     0.500000000  0.875000000  0.393426706
     0.250000000  0.000000000  0.393426706
     0.250000000  0.875000000  0.500000000
     0.500000000  0.000000000  0.500000000
     0.506020904  0.874698589  0.604015319
[...]
     0.500000000  0.500000000  0.435151311
     0.347877722  0.375000000  0.393426706
     0.652122278  0.375000000  0.393426706
     0.250000000  0.500000000  0.458275395
     0.250000000  0.500000000  0.541724605
     0.597877722  0.375000000  0.500000000
     0.402122278  0.375000000  0.500000000
     0.499732932  0.499999973  0.565749230
     0.500211855  0.499999960  0.649920633
     0.349514351  0.375013895  0.607574426
     0.650023858  0.375015864  0.607109650
     0.247882769  0.499999919  0.671534163
     0.251516217  0.499999808  0.755526590
     0.593009512  0.373982854  0.718664805
     0.404437976  0.373438106  0.717690258

  ion indices of the primitive-cell ions
   primitive index   ion index
                 1           1
                 2           2
                 3           3
                 4           4
                 5           5
                 6           6
                 7           7
                 8           8
                 9           9
                10          10
                11          11
                12          12
                13          13
                14          14
                15          15
                16          16
                17          17
                18          18
                19          19
                20          20
                21          21
                22          22
                23          23
                24          24
                25          25
                26          26
                27          27
                28          28
                29          29
                30          30
                31          31
                32          32
                33          33
                34          34
                35          35
                36          36
                37          37
[...]
   O          53.504          3.922         10.001          1.85195471
   O          39.680          3.731          8.612          1.59484960
   O          52.661          3.912          9.921          1.83730915
   O          54.237          3.931         10.069          1.86459466

  Number of pair interactions contributing to vdW energy: 3314952
  Edisp (eV):  -34.76765

  FORCE on cell =-STRESS in cart. coord.  units (eV):
  Direction    XX          YY          ZZ          XY          YZ          ZX
  Alpha Z  4682.06099  4682.06099  4682.06099
  Ewald  960439.66128977718.45441************    -0.00097     0.00090  -308.85445
  Hartree************************************    -0.00051     0.00030  -109.14111
  E(xc)   -8662.87484 -8645.37538 -8671.65283    -0.00000     0.00000    -1.02444
  Local  ************************************     0.00141    -0.00111   381.89717
  n-local -5459.79240 -5380.35781 -5504.40996     0.00001     0.00000     2.68367
  augment  5232.98611  5217.18628  5236.12644     0.00000    -0.00001     1.36103
  Kinetic 28912.35075 28456.76646 28946.93482     0.00006    -0.00010    33.34676
  Fock        0.00000     0.00000     0.00000     0.00000     0.00000     0.00000
  vdW       -50.55862   -29.90138   -43.15770     0.00000    -0.00000    -0.03308
  Total      11.44252   -34.60600   -32.87783    -0.00001    -0.00001     0.23555
  in kB       3.86757   -11.69684   -11.11272    -0.00000    -0.00000     0.07961

 VOLUME and BASIS-vectors are now :
  energy-cutoff  :      600.00
  volume of cell :     4740.16
      direct lattice vectors                 reciprocal lattice vectors
    13.042933829  0.000000000  0.000000000     0.076669867  0.000000000  0.000000000
     0.000000000 11.878216733  0.000000000     0.000000000  0.084187721  0.000000000
     0.000000000  0.000000000 30.596159140     0.000000000  0.000000000  0.032683841

  length of vectors
    13.042933829 11.878216733 30.596159140     0.076669867  0.084187721  0.032683841

 FORCES acting on ions:
    Electron-Ion                     Ewald-Force                    Non-Local-Force
   -.162E+02 -.137E-04 -.145E+04   0.154E+02 0.166E-04 0.145E+04   0.809E+00 -.368E-05 0.769E-02
   0.155E+03 -.457E-03 -.207E+04   -.197E+03 0.565E-03 0.212E+04   0.414E+02 -.108E-03 -.508E+02
   -.184E+03 0.564E-03 -.228E+04   0.226E+03 -.689E-03 0.224E+04   -.414E+02 0.126E-03 0.420E+02
   -.235E+00 -.824E-01 0.376E+04   0.234E+00 0.825E-01 -.376E+04   0.224E-03 -.326E-05 0.428E+00
   0.135E+00 -.118E+00 0.394E+04   -.135E+00 0.119E+00 -.393E+04   0.977E-04 -.760E-05 -.389E+01
   0.233E+00 -.103E+00 0.193E+04   -.236E+00 0.103E+00 -.192E+04   0.556E-03 0.411E-05 -.454E-01
   -.380E+00 -.102E+00 0.192E+04   0.378E+00 0.102E+00 -.192E+04   0.929E-03 -.480E-04 0.205E+00
   -.220E+01 -.370E+00 0.139E+02   0.220E+01 0.367E+00 -.131E+02   0.514E-02 0.229E-03 -.133E+00
   0.252E+01 -.761E+00 0.235E+02   -.255E+01 0.763E+00 -.245E+02   0.130E-01 -.894E-03 0.333E+00
   0.232E+02 -.259E+01 -.184E+04   -.233E+02 0.260E+01 0.184E+04   0.179E-01 -.245E-02 0.808E-01
   -.145E+01 -.548E+01 -.190E+04   0.146E+01 0.549E+01 0.190E+04   -.405E-01 -.306E-02 -.981E-01
   -.496E+02 -.201E+02 -.369E+04   0.496E+02 0.201E+02 0.369E+04   0.124E-01 -.827E-02 -.183E+00
   0.945E+01 -.991E+01 -.373E+04   -.947E+01 0.990E+01 0.373E+04   0.138E-01 -.189E-02 0.945E+00
   -.228E+00 -.823E-01 0.376E+04   0.227E+00 0.824E-01 -.376E+04   0.281E-03 -.712E-05 0.428E+00
   0.127E+00 -.122E-05 0.394E+04   -.128E+00 0.124E-05 -.393E+04   0.947E-04 -.811E-08 -.389E+01
   0.211E+00 -.104E+00 0.193E+04   -.214E+00 0.104E+00 -.192E+04   0.498E-03 0.856E-05 -.455E-01
   -.414E+00 -.334E-05 0.192E+04   0.411E+00 0.345E-05 -.192E+04   0.104E-02 -.391E-07 0.205E+00
   -.257E+01 -.397E+00 0.131E+02   0.258E+01 0.401E+00 -.123E+02   0.394E-02 -.174E-03 -.133E+00
   0.236E+01 -.176E-04 0.227E+02   -.240E+01 0.181E-04 -.237E+02   0.126E-01 0.390E-06 0.332E+00
   0.217E+02 -.247E+01 -.184E+04   -.218E+02 0.248E+01 0.184E+04   0.147E-01 -.361E-02 0.768E-01
   0.428E+00 0.160E-03 -.190E+04   -.430E+00 -.165E-03 0.190E+04   -.311E-01 0.567E-06 -.919E-01
   -.200E+02 -.145E+02 -.372E+04   0.200E+02 0.145E+02 0.372E+04   0.232E-01 0.241E-02 -.190E+00
   0.662E+01 0.163E-03 -.374E+04   -.664E+01 -.180E-03 0.374E+04   0.902E-02 0.296E-05 0.956E+00
   -.228E+00 0.823E-01 0.376E+04   0.227E+00 -.824E-01 -.376E+04   0.281E-03 0.712E-05 0.428E+00
   0.135E+00 0.118E+00 0.394E+04   -.135E+00 -.119E+00 -.393E+04   0.977E-04 0.759E-05 -.389E+01
   0.211E+00 0.104E+00 0.193E+04   -.214E+00 -.104E+00 -.192E+04   0.498E-03 -.864E-05 -.455E-01
   -.380E+00 0.102E+00 0.192E+04   0.378E+00 -.102E+00 -.192E+04   0.929E-03 0.480E-04 0.205E+00
   -.257E+01 0.397E+00 0.131E+02   0.258E+01 -.401E+00 -.123E+02   0.394E-02 0.174E-03 -.133E+00
   0.252E+01 0.761E+00 0.235E+02   -.255E+01 -.763E+00 -.245E+02   0.130E-01 0.894E-03 0.333E+00
   0.217E+02 0.247E+01 -.184E+04   -.218E+02 -.248E+01 0.184E+04   0.147E-01 0.360E-02 0.768E-01
   -.145E+01 0.548E+01 -.190E+04   0.146E+01 -.548E+01 0.190E+04   -.405E-01 0.307E-02 -.981E-01
   -.200E+02 0.145E+02 -.372E+04   0.200E+02 -.145E+02 0.372E+04   0.232E-01 -.240E-02 -.190E+00
   0.945E+01 0.991E+01 -.373E+04   -.947E+01 -.990E+01 0.373E+04   0.138E-01 0.188E-02 0.945E+00
   -.235E+00 0.824E-01 0.376E+04   0.234E+00 -.825E-01 -.376E+04   0.224E-03 0.325E-05 0.428E+00
   0.142E+00 0.125E-05 0.394E+04   -.142E+00 -.126E-05 -.393E+04   0.101E-03 0.866E-08 -.389E+01
   0.233E+00 0.103E+00 0.193E+04   -.236E+00 -.103E+00 -.192E+04   0.556E-03 -.403E-05 -.454E-01
   -.347E+00 0.378E-05 0.192E+04   0.345E+00 -.388E-05 -.192E+04   0.741E-03 0.266E-07 0.205E+00
   -.220E+01 0.370E+00 0.139E+02   0.220E+01 -.367E+00 -.131E+02   0.514E-02 -.230E-03 -.133E+00
   0.266E+01 0.266E-04 0.243E+02   -.270E+01 -.282E-04 -.253E+02   0.132E-01 0.209E-06 0.333E+00
   0.232E+02 0.260E+01 -.184E+04   -.233E+02 -.260E+01 0.184E+04   0.179E-01 0.245E-02 0.808E-01
   -.395E+01 -.553E-03 -.189E+04   0.396E+01 0.576E-03 0.189E+04   -.369E-01 -.168E-05 -.104E+00
   -.496E+02 0.201E+02 -.369E+04   0.496E+02 -.201E+02 0.369E+04   0.124E-01 0.826E-02 -.183E+00
   0.131E+02 0.802E-04 -.373E+04   -.131E+02 -.853E-04 0.373E+04   -.774E-02 0.147E-05 0.934E+00
   0.230E+00 -.937E-01 0.376E+04   -.229E+00 0.939E-01 -.376E+04   -.140E-03 -.222E-04 0.429E+00
   -.129E+00 -.130E+00 0.394E+04   0.130E+00 0.130E+00 -.393E+04   -.989E-04 -.438E-04 -.389E+01
   -.105E+00 -.437E-01 0.193E+04   0.107E+00 0.505E-01 -.193E+04   -.316E-03 -.139E-02 -.459E-01
   0.255E+00 -.136E+00 0.192E+04   -.253E+00 0.136E+00 -.192E+04   -.468E-04 -.786E-06 0.207E+00
   0.134E+00 -.585E+00 0.156E+02   -.113E+00 0.586E+00 -.148E+02   0.886E-03 -.168E-03 -.129E+00
   0.127E+01 -.356E+00 0.263E+02   -.130E+01 0.325E+00 -.273E+02   0.939E-02 0.184E-01 0.310E+00
   0.163E+02 -.563E+01 -.182E+04   -.164E+02 0.567E+01 0.182E+04   0.933E-02 -.427E-01 0.868E-01
   0.136E+02 -.728E+01 -.189E+04   -.136E+02 0.729E+01 0.189E+04   -.277E-01 -.349E-02 -.107E+00
   0.664E+02 -.328E+02 -.365E+04   -.664E+02 0.328E+02 0.365E+04   -.189E-01 0.246E-01 -.136E+00
   -.127E+02 -.616E+02 -.368E+04   0.127E+02 0.616E+02 0.368E+04   0.298E-01 -.256E-01 0.102E+01
   0.222E+00 -.935E-01 0.376E+04   -.222E+00 0.937E-01 -.376E+04   -.199E-03 -.246E-04 0.429E+00
   -.122E+00 -.170E-05 0.394E+04   0.123E+00 0.172E-05 -.393E+04   -.962E-04 -.674E-08 -.389E+01
   -.834E-01 -.477E-01 0.193E+04   0.853E-01 0.506E-01 -.193E+04   -.194E-03 -.927E-03 -.460E-01
   0.289E+00 -.119E-04 0.192E+04   -.286E+00 0.122E-04 -.192E+04   -.116E-03 0.328E-07 0.206E+00
   0.502E+00 -.641E+00 0.141E+02   -.483E+00 0.657E+00 -.133E+02   0.938E-03 -.921E-03 -.131E+00
   0.136E+01 -.992E-04 0.273E+02   -.139E+01 0.999E-04 -.283E+02   0.124E-01 0.617E-06 0.314E+00
   0.177E+02 -.797E+01 -.182E+04   -.178E+02 0.798E+01 0.182E+04   0.537E-02 -.206E-02 0.115E-01
[...]
   -.532E+02 0.451E-01 0.115E+04   0.572E+02 -.459E-01 -.115E+04   -.354E+01 0.131E-02 0.159E+00
   0.531E+02 0.334E-01 0.115E+04   -.571E+02 -.341E-01 -.115E+04   0.354E+01 0.999E-03 0.155E+00
   0.151E+00 0.256E-04 0.509E+03   -.139E+00 -.274E-04 -.514E+03   -.182E-01 0.428E-05 0.416E+01
   0.206E+01 0.110E-03 -.505E+03   -.229E+01 -.110E-03 0.512E+03   0.234E+00 0.214E-05 -.698E+01
   -.556E+02 -.164E-01 0.159E+02   0.603E+02 0.138E-01 -.162E+02   -.513E+01 0.168E-01 0.342E+00
   0.550E+02 0.749E-01 0.144E+02   -.596E+02 -.778E-01 -.146E+02   0.509E+01 0.165E-01 0.281E+00
   0.111E+02 0.288E-03 -.606E+03   -.123E+02 -.298E-03 0.599E+03   0.119E+01 -.140E-06 0.653E+01
   0.124E+01 0.115E-03 -.156E+04   -.183E+01 -.111E-03 0.156E+04   0.587E+00 -.916E-05 0.168E+01
   -.507E+02 0.366E+01 -.110E+04   0.566E+02 -.371E+01 0.110E+04   -.591E+01 0.517E-01 0.962E+00
   -.175E+01 0.320E+01 -.111E+04   0.177E+01 -.327E+01 0.111E+04   -.183E-01 0.707E-01 0.803E+00
   0.264E+02 0.286E-03 -.176E+04   -.271E+02 -.293E-03 0.176E+04   0.652E+00 0.122E-05 -.221E+01
   0.806E+02 0.140E-03 -.263E+04   -.805E+02 -.120E-03 0.265E+04   -.590E-01 -.420E-04 -.199E+02
   -.644E+02 0.353E+02 -.226E+04   0.702E+02 -.351E+02 0.226E+04   -.579E+01 -.185E+00 -.359E+01
   0.455E+02 0.456E+02 -.223E+04   -.515E+02 -.455E+02 0.223E+04   0.598E+01 -.337E-01 -.285E+01
   0.248E+02 -.174E-03 0.103E+03   0.235E-11 0.568E-13 -.455E-11   -.248E+02 0.178E-03 -.103E+03

 POSITION                                       TOTAL-FORCE (eV/Angst)
      5.60888      5.93911     25.10961        -0.006380     -0.000001      0.003570
      4.87854      5.93911     26.02101        -0.002840      0.000001     -0.002559
      6.38594      5.93911     24.21865         0.000157      0.000001     -0.000711
      9.78220      7.42389      8.77661        -0.000442      0.000066     -3.416661
      0.00000      8.90866      8.77661        -0.000367      0.000048      2.831650
      0.00000      7.42389     12.03735        -0.002657      0.000235      0.522996
      9.78220      8.90866     12.03735        -0.001113      0.000497     -0.706274
      9.78220      7.42389     15.29808         0.003098     -0.003107      0.666318
      0.00000      8.90866     15.29808        -0.021706      0.001685     -0.686771
      0.08110      7.42391     18.49122        -0.002208      0.002810     -0.001052
      9.84850      8.90849     18.68426         0.003934     -0.000559     -0.001121
      9.77338      7.42483     22.03887         0.001030     -0.006892     -0.002816
     13.03693      8.91076     21.67658        -0.000646     -0.004218     -0.002771
      9.78220     10.39344      8.77661        -0.000553      0.000089     -3.416643
      0.00000      0.00000      8.77661        -0.000364     -0.000000      2.831660
      0.00000     10.39344     12.03735        -0.002471      0.000093      0.523206
      9.78220      0.00000     12.03735        -0.001447      0.000000     -0.706373
      9.78220     10.39344     15.29808         0.007940      0.003617      0.666033
      0.00000      0.00000     15.29808        -0.020722      0.000001     -0.685864
      0.08063     10.39356     18.49150         0.001527      0.002275      0.000528
      9.84821     -0.00000     18.68522         0.003448     -0.000004     -0.006840
      9.77308     10.39404     22.04113        -0.000598     -0.003615     -0.002104
     13.03951      0.00000     21.67674        -0.000258     -0.000014     -0.002488
      9.78220      1.48478      8.77661        -0.000553     -0.000089     -3.416643
      0.00000      2.96955      8.77661        -0.000367     -0.000048      2.831650
      0.00000      1.48478     12.03735        -0.002471     -0.000093      0.523206
      9.78220      2.96955     12.03735        -0.001113     -0.000497     -0.706274
      9.78220      1.48478     15.29808         0.007940     -0.003620      0.666031
      0.00000      2.96955     15.29808        -0.021704     -0.001684     -0.686770
      0.08063      1.48466     18.49150         0.001522     -0.002272      0.000528
      9.84849      2.96972     18.68426         0.003943      0.000555     -0.001125
      9.77308      1.48417     22.04113        -0.000599      0.003600     -0.002101
     13.03693      2.96746     21.67658        -0.000650      0.004234     -0.002776
      9.78220      4.45433      8.77661        -0.000442     -0.000066     -3.416661
      0.00000      5.93911      8.77661        -0.000387     -0.000000      2.831648
      0.00000      4.45433     12.03735        -0.002656     -0.000236      0.522996
      9.78220      5.93911     12.03735        -0.000800     -0.000000     -0.705896
      9.78220      4.45433     15.29808         0.003099      0.003110      0.666316
      0.00000      5.93911     15.29808        -0.022608     -0.000001     -0.687635
      0.08110      4.45430     18.49122        -0.002203     -0.002817     -0.001055
      9.84778      5.93911     18.68548         0.004361      0.000020      0.001378
      9.77338      4.45339     22.03887         0.001034      0.006910     -0.002810
     13.03167      5.93911     21.67635        -0.000674     -0.000004     -0.005359
      3.26073      7.42389      8.77661         0.000466      0.000176     -3.417979
      6.52147      8.90866      8.77661         0.000407      0.000283      2.833265
      6.52147      7.42389     12.03735         0.001954      0.005421      0.526808
      3.26073      8.90866     12.03735         0.002223      0.000844     -0.713393
      3.26073      7.42389     15.29808         0.022145      0.000668      0.641459
      6.52147      8.90866     15.29808        -0.010871     -0.012586     -0.644778
      6.60328      7.41563     18.50751         0.000407     -0.000549      0.001509
      3.32540      8.90962     18.68082         0.002478      0.000521      0.000633
      3.24579      7.42746     22.02770        -0.000496     -0.000888      0.000867
      6.51737      8.91014     21.66221         0.001311     -0.003388      0.000058
      3.26073     10.39344      8.77661         0.000574      0.000206     -3.417764
      6.52147      0.00000      8.77661         0.000404     -0.000000      2.833627
      6.52147     10.39344     12.03735         0.001686      0.002057      0.530113
      3.26073      0.00000     12.03735         0.002629      0.000000     -0.712539
      3.26073     10.39344     15.29808         0.019968      0.014950      0.651351
      6.52147      0.00000     15.29808        -0.013800      0.000001     -0.713552
      6.60519     10.38981     18.47988        -0.000381     -0.001574      0.000598
[...]
      6.52147      5.93911     13.31396        -0.000143      0.000000     -0.112642
      4.53735      4.45433     12.03735         0.422545      0.000503      0.055693
      8.50559      4.45433     12.03735        -0.425642      0.000305      0.054899
      3.26073      5.93911     14.02147        -0.006093      0.000002     -0.089547
      3.26073      5.93911     16.57469         0.002958      0.000002      0.013526
      7.79808      4.45433     15.29808        -0.468911      0.014089      0.079818
      5.24485      4.45433     15.29808         0.458051      0.013418      0.086158
      6.52241      5.93911     17.30895        -0.001438     -0.000010      0.002699
      6.52806      5.93911     19.88456        -0.000075     -0.000005     -0.003440
      4.56279      4.45429     18.58696         0.000551      0.000390      0.002019
      8.48331      4.45456     18.57632        -0.001203     -0.000009      0.001582
      3.23868      5.93911     20.54537        -0.000577     -0.000005     -0.001972
      3.28805      5.93911     23.11433         0.003200     -0.000023     -0.001850
      7.74168      4.44200     21.98478        -0.002110     -0.002504      0.001272
      5.28157      4.43547     21.95677         0.003785     -0.001755      0.001646
    total drift:                                0.004685      0.000004     -0.022116

  FREE ENERGIE OF THE ION-ELECTRON SYSTEM (eV)
  free  energy   TOTEN  =     -2178.21400017 eV

  energy  without entropy=    -2178.21400017  energy(sigma->0) =    -2178.21400017

 d Force = 0.3983740E-05[ 0.379E-05, 0.418E-05]  d Energy = 0.5573758E-05-0.159E-05
 d Force =-0.7421762E+00[-0.742E+00,-0.742E+00]  d Ewald  =-0.7421767E+00 0.419E-06

 Conjugate gradient step on ions:
 trial-energy change:   -0.000006  1 .order   -0.000004   -0.000004   -0.000004
  (g-gl).g = 0.484E-04      g.g   = 0.771E-04  gl.gl    = 0.259E-03
 g(Force)  = 0.771E-04   g(Stress)= 0.000E+00 ortho     = 0.404E-05
 gamma     =   0.18665
 trial     =   0.05365
 opt step  =   0.21458  (harmonic =   0.57727) maximal distance =0.00011276
 next E    = -2178.214017   (d E  =  -0.00002)

 reached required accuracy - stopping structural energy minimisation