 vasp.6.3.0 20Jan22 (build Aug 21 2024 11:13:42) complex
 executed on        HPECrayEX_GCC date 2024.11.26  22:21:33

 INCAR:
   SYSTEM = TiO2
   ISMEAR = 0
   SIGMA = 0.05
   EDIFF = 1E-4
   ALGO = ALL
   ISTART = 0
   IBRION = -1
   NSW = 0
   ISYM = 0
   ISIF = 2
   EDIFFG = -0.01
   DIPOL = 0.5 0.5 0.5
   IDIPOL = 3
   LDIPOL = .TRUE.
   GGA = RE
   IVDW = 13
   VDW_S8 = 1.7468
   VDW_A1 = 0.5363
   VDW_A2 = 3.0726
   ENCUT = 600
   PREC = Accurate
   LASPH = .TRUE.
   LREAL = .FALSE.
   ISPIN = 1
   NELM = 200
   NELMIN = 8
   NCORE = 16
   KPAR = 1
   LWAVE = .FALSE.
   LCHARG = .FALSE.

 POTCAR:    PAW_PBE C 08Apr2002
 POTCAR:    PAW_PBE O 08Apr2002
 POTCAR:    PAW_PBE H 15Jun2001
 POTCAR:    PAW_PBE Ti_pv 07Sep2000
 POTCAR:    PAW_PBE O 08Apr2002
 POTCAR:    PAW_PBE C 08Apr2002
   VRHFIN =C: s2p2

   TITEL  = PAW_PBE C 08Apr2002
   POMASS =   12.011; ZVAL   =    4.000    mass and valenz
   ENMAX  =  400.000; ENMIN  =  300.000 eV

[...]

   TITEL  = PAW_PBE H 15Jun2001
   POMASS =    1.000; ZVAL   =    1.000    mass and valenz
   ENMAX  =  250.000; ENMIN  =  200.000 eV

   TITEL  = PAW_PBE Ti_pv 07Sep2000
   POMASS =   47.880; ZVAL   =   10.000    mass and valenz
   ENMAX  =  222.335; ENMIN  =  166.751 eV

   TITEL  = PAW_PBE O 08Apr2002
   POMASS =   16.000; ZVAL   =    6.000    mass and valenz
   ENMAX  =  400.000; ENMIN  =  300.000 eV

  PAW_PBE C 08Apr2002                   :
  PAW_PBE O 08Apr2002                   :
  PAW_PBE H 15Jun2001                   :
  PAW_PBE Ti_pv 07Sep2000               :
  PAW_PBE O 08Apr2002                   :

 POSCAR:  C  O  H Ti  O
  positions in direct lattice
|           W    W    AA    RRRRR   N    N  II  N    N   GGGG   !!!           |
|           W    W   A  A   R    R  NN   N  II  NN   N  G    G  !!!           |
|           W    W  A    A  R    R  N N  N  II  N N  N  G       !!!           |
|           W WW W  AAAAAA  RRRRR   N  N N  II  N  N N  G  GGG   !            |
|           WW  WW  A    A  R   R   N   NN  II  N   NN  G    G                |
|           W    W  A    A  R    R  N    N  II  N    N   GGGG   !!!           |
|     Specifying the vdW parameters                                           |
|     VDW_S8 = 1.747                                                          |
|     VDW_A1 = 0.536                                                          |
|     VDW_A2 = 3.073                                                          |
|     in the INCAR file will overwrite the defaults for revpbe. Please        |
|     make sure that is what you intended.                                    |

 ion  position               nearest neighbor table
   1  0.509  0.590  0.809-   3 1.09   5 1.09   6 1.10   2 1.44
   2  0.539  0.499  0.780-   4 1.00   1 1.44  86 2.13
   3  0.426  0.598  0.807-   1 1.09
   4  0.615  0.494  0.779-   2 1.00
   5  0.532  0.567  0.843-   1 1.09
   6  0.548  0.669  0.800-   1 1.10
   7  0.750  0.625  0.287-  88 1.95 148 1.95 147 1.95  87 1.95  90 1.97 169 1.97  17 2.96  37 2.96

   8  0.000  0.750  0.287-  89 1.95  90 1.95 109 1.95 110 1.95  91 1.97  38 2.96  18 2.96
   9  0.000  0.625  0.394-  91 1.95  92 1.95 151 1.95 152 1.95  93 1.97  94 1.97  19 2.96  39 2.96

[...]

  87  0.750  0.750  0.246-   7 1.95  17 1.95
  88  0.750  0.750  0.329-   7 1.95  17 1.95  10 1.97
  89  0.098  0.625  0.287-   8 1.95  38 1.95  47 1.97
  90  0.902  0.625  0.287-   8 1.95  38 1.95   7 1.97
  91  0.000  0.750  0.352-   9 1.95  19 1.95   8 1.97
  92  0.000  0.750  0.435-   9 1.95  19 1.95  12 1.97
  93  0.848  0.625  0.394-  10 1.95  40 1.95   9 1.97
  94  0.152  0.625  0.394-  50 1.95  80 1.95   9 1.97
  95  0.750  0.750  0.458-  11 1.95  21 1.95  10 1.97
  96  0.750  0.750  0.542-  11 1.95  21 1.95  14 2.08
  97  0.098  0.625  0.500-  12 1.95  42 1.95  51 1.97
  98  0.902  0.625  0.500-  12 1.95  42 1.95  11 1.97
  99  0.000  0.750  0.565-  23 1.90  13 1.90  12 1.99
 100  0.999  0.750  0.649-  16 1.81  13 2.01  23 2.01
 101  0.850  0.625  0.606-  13 1.95  14 1.97  44 1.97
 102  0.150  0.625  0.607-  13 1.94  54 1.97  84 1.97
 103  0.754  0.751  0.671-  14 1.88  15 2.06  25 2.08
 104  0.748  0.749  0.755-  15 1.83  25 1.84
 105  0.094  0.625  0.718-  46 1.94  16 1.95  55 2.03
 106  0.906  0.624  0.719-  46 1.95  16 1.95  15 2.02
 107  0.750  0.000  0.246-  17 1.95  27 1.95
 108  0.750  0.000  0.329-  17 1.95  27 1.95  20 1.97
 109  0.098  0.875  0.287-   8 1.95  18 1.95  57 1.97
 110  0.902  0.875  0.287-   8 1.95  18 1.95  17 1.97
 111  0.000  0.000  0.352-  19 1.95  29 1.95  18 1.97
 112  0.000  0.000  0.435-  19 1.95  29 1.95  22 1.97
 113  0.848  0.875  0.394-  10 1.95  20 1.95  19 1.97
 114  0.152  0.875  0.394-  50 1.95  60 1.95  19 1.97
 115  0.750  0.000  0.458-  21 1.95  31 1.95  20 1.97
 116  0.750  0.000  0.542-  21 1.95  31 1.95  24 2.08
 117  0.098  0.875  0.500-  12 1.95  22 1.95  61 1.97
 118  0.902  0.875  0.500-  12 1.95  22 1.95  21 1.97
 119  0.000  1.000  0.565-  33 1.90  23 1.90  22 1.99
 120  1.000  1.000  0.649-  26 1.81  23 2.01  33 2.01
 121  0.850  0.875  0.607-  23 1.95  24 1.97  14 1.97
 122  0.150  0.875  0.607-  23 1.94  64 1.97  54 1.97
 123  0.750  1.000  0.671-  24 1.88  35 2.08  25 2.08
 124  0.750  1.000  0.755-  35 1.83  25 1.83
 125  0.094  0.874  0.718-  16 1.94  26 1.94  65 2.04
 126  0.906  0.875  0.719-  16 1.94  26 1.94  25 2.03
 127  0.750  0.250  0.246-  27 1.95  37 1.95
 128  0.750  0.250  0.329-  27 1.95  37 1.95  30 1.97
 129  0.098  0.125  0.287-  18 1.95  28 1.95  67 1.97
 130  0.902  0.125  0.287-  18 1.95  28 1.95  27 1.97
 131  0.000  0.250  0.352-  29 1.95  39 1.95  28 1.97
 132  0.000  0.250  0.435-  29 1.95  39 1.95  32 1.97
 133  0.848  0.125  0.394-  20 1.95  30 1.95  29 1.97
 134  0.152  0.125  0.394-  60 1.95  70 1.95  29 1.97
 135  0.750  0.250  0.458-  31 1.95  41 1.95  30 1.97
 136  0.750  0.250  0.542-  31 1.95  41 1.95  34 2.08
 137  0.098  0.125  0.500-  22 1.95  32 1.95  71 1.97
 138  0.902  0.125  0.500-  22 1.95  32 1.95  31 1.97
 139  0.000  0.250  0.565-  33 1.90  43 1.90  32 1.99
 140  0.999  0.250  0.649-  36 1.81  43 2.01  33 2.01
 141  0.850  0.125  0.607-  33 1.95  24 1.97  34 1.97
 142  0.150  0.125  0.607-  33 1.94  64 1.97  74 1.97
 143  0.753  0.250  0.671-  34 1.88  45 2.06  35 2.09
 144  0.749  0.250  0.755-  45 1.82  35 1.84
 145  0.094  0.125  0.718-  36 1.94  26 1.94  75 2.04
 146  0.906  0.125  0.719-  36 1.94  26 1.94  35 2.03
[...]
 232  0.500  0.500  0.435-  49 1.95  79 1.95  82 1.97
 233  0.348  0.375  0.394-  70 1.95  80 1.95  79 1.97
 234  0.652  0.375  0.394-  30 1.95  40 1.95  79 1.97
 235  0.250  0.500  0.458-  51 1.95  81 1.95  80 1.97
 236  0.250  0.500  0.542-  51 1.95  81 1.95  84 2.09
 237  0.598  0.375  0.500-  72 1.95  82 1.95  41 1.97
 238  0.402  0.375  0.500-  72 1.95  82 1.95  81 1.97
 239  0.500  0.500  0.565-  53 1.90  83 1.90  82 1.99
 240  0.499  0.500  0.649-  86 1.92  53 1.97  83 1.97
 241  0.350  0.375  0.607-  83 1.96  74 1.96  84 1.96
 242  0.651  0.375  0.607-  83 1.95  34 1.97  44 1.97
 243  0.250  0.500  0.671-  84 1.87  55 2.08  85 2.09
 244  0.252  0.500  0.755-  55 1.83  85 1.83
 245  0.596  0.371  0.714-  76 1.92  86 1.96  45 2.02
 246  0.407  0.374  0.718-  76 1.93  86 1.94  85 2.03

IMPORTANT INFORMATION: All symmetrisations will be switched off!
NOSYMM: (Re-)initialisation of all symmetry stuff for point group C_1.

                                     Primitive cell

  volume of cell :    4687.7932

  direct lattice vectors                    reciprocal lattice vectors
    12.981765453  0.000000000  0.000000000     0.077031125  0.000000000  0.000000000
     0.000000000 11.829918508  0.000000000     0.000000000  0.084531436  0.000000000
     0.000000000  0.000000000 30.524807391     0.000000000  0.000000000  0.032760239

  length of vectors
    12.981765453 11.829918508 30.524807391     0.077031125  0.084531436  0.032760239

  position of ions in fractional coordinates (direct lattice)
     0.509434670  0.589761665  0.809351734
     0.538814613  0.499368766  0.780126811
     0.426123515  0.598434567  0.807295553
     0.615331493  0.494043982  0.778905106
     0.532393687  0.567370828  0.842596115
     0.547791278  0.668577289  0.799792103
     0.750000000  0.625000000  0.287357127
     0.000000000  0.750000000  0.287357127
     0.000000000  0.625000000  0.393678564
     0.750000000  0.750000000  0.393678564
     0.750000000  0.625000000  0.500000000
     0.000000000  0.750000000  0.500000000
     0.000243106  0.625019561  0.604143178
     0.750364711  0.750074391  0.609662290
     0.750749873  0.625941201  0.718361722
     0.999857492  0.750127167  0.708201463
     0.750000000  0.875000000  0.287357127
     0.000000000  0.000000000  0.287357127
     0.000000000  0.875000000  0.393678564
     0.750000000  0.000000000  0.393678564
     0.750000000  0.875000000  0.500000000
     0.000000000  0.000000000  0.500000000
     0.000048489  0.875004527  0.604205132
     0.749713590  0.999985181  0.609955659
     0.749728301  0.875022361  0.719484138
     0.000143893  0.999849195  0.708160755
     0.750000000  0.125000000  0.287357127
     0.000000000  0.250000000  0.287357127
     0.000000000  0.125000000  0.393678564
     0.750000000  0.250000000  0.393678564
     0.750000000  0.125000000  0.500000000
     0.000000000  0.250000000  0.500000000
     0.000056121  0.124934902  0.604210612
     0.750102703  0.249836731  0.609643082
     0.749604462  0.124230468  0.719501482
     0.000003102  0.249640003  0.708202278
     0.750000000  0.375000000  0.287357127
     0.000000000  0.500000000  0.287357127
     0.000000000  0.375000000  0.393678564
     0.750000000  0.500000000  0.393678564
     0.750000000  0.375000000  0.500000000
     0.000000000  0.500000000  0.500000000
     0.000151167  0.374950597  0.604140073
     0.750690903  0.499940134  0.609877753
     0.751273648  0.373189798  0.718519386
     0.000904187  0.499980092  0.708126854
     0.250000000  0.625000000  0.287357127
     0.500000000  0.750000000  0.287357127
     0.500000000  0.625000000  0.393678564
     0.250000000  0.750000000  0.393678564
     0.250000000  0.625000000  0.500000000
     0.500000000  0.750000000  0.500000000
     0.500237341  0.622611990  0.605393373
     0.250358829  0.749905664  0.609959726
     0.250542395  0.625087141  0.719428427
     0.500375488  0.750191405  0.706844752
     0.250000000  0.875000000  0.287357127
     0.500000000  0.000000000  0.287357127
     0.500000000  0.875000000  0.393678564
     0.250000000  0.000000000  0.393678564
[...]
     0.500000000  0.500000000  0.435333895
     0.347946691  0.375000000  0.393678564
     0.652053309  0.375000000  0.393678564
     0.250000000  0.500000000  0.458344669
     0.250000000  0.500000000  0.541655331
     0.597946691  0.375000000  0.500000000
     0.402053309  0.375000000  0.500000000
     0.500271274  0.499828344  0.565323722
     0.499357819  0.500165437  0.649218360
     0.349509427  0.374927226  0.606921753
     0.650555729  0.374916115  0.607332301
     0.249776399  0.500217856  0.671346433
     0.251791327  0.500070728  0.754899376
     0.596223720  0.371065167  0.714346871
     0.406575924  0.373773776  0.717653380

  ion indices of the primitive-cell ions
[...]
   3.25248261  7.39472993 21.96041417
   6.49575723  8.87470319 21.57629991
   3.24544136 10.35117869  8.77152097
   6.49088273  0.00000000  8.77152097
   6.49088273 10.35117869 12.01696233
   3.24544136  0.00000000 12.01696233
[...]
   6.49088273  5.91495925 13.28848330
   4.51696233  4.43621944 12.01696233
   8.46480312  4.43621944 12.01696233
   3.24544136  5.91495925 13.99088273
   3.24544136  5.91495925 16.53392466
   7.76240370  4.43621944 15.26240370
   5.21936176  4.43621944 15.26240370
   6.49440435  5.91292858 17.25639772
   6.48254609  5.91691636 19.81726540
   4.53724941  4.43535853 18.52616960
   8.44536188  4.43522709 18.53870152
   3.24253863  5.91753647 20.49272055
   3.26869595  5.91579596 23.04315805
   7.74003649  4.38967069 21.80530064
   5.27807329  4.42171331 21.90623119

--------------------------------------- Iteration      FINAL  ---------------------------------------

--------------------OUTCAR has been truncated-------------------------

[...]

--------------------OUTCAR has been truncated-------------------------

  FORCE on cell =-STRESS in cart. coord.  units (eV):
  Direction    XX          YY          ZZ          XY          YZ          ZX
  Alpha Z  4723.96072  4723.96072  4723.96072
  Ewald  979202.61990996683.92501************   -75.22899   133.45891   -75.69181
  Hartree************************************   -40.69262    78.02650   -48.62135
  E(xc)   -8678.52077 -8651.63691 -8692.89264    -0.14070     0.24419    -0.21221
  Local  ************************************   109.99960  -202.46207   121.35518
  n-local -5376.88974 -5297.30417 -5419.29123    -1.03366     1.78675    -0.62250
  augment  5221.84988  5208.99023  5225.71289     0.45064    -0.75170     0.07895
  Kinetic 28882.62741 28416.55096 28944.74023     6.55676   -10.19049     3.96383
  Fock        0.00000     0.00000     0.00000     0.00000     0.00000     0.00000
  vdW      -132.27289  -131.96028  -118.99982     0.01901    -0.00729     0.05363
  Total      28.97989   -18.90361   -16.46027    -0.06996     0.10480     0.30372
  in kB       9.90465    -6.46081    -5.62573    -0.02391     0.03582     0.10381

 VOLUME and BASIS-vectors are now :
  energy-cutoff  :      600.00
  volume of cell :     4687.79
      direct lattice vectors                 reciprocal lattice vectors
    12.981765453  0.000000000  0.000000000     0.077031125  0.000000000  0.000000000
     0.000000000 11.829918508  0.000000000     0.000000000  0.084531436  0.000000000
     0.000000000  0.000000000 30.524807391     0.000000000  0.000000000  0.032760239

  length of vectors
    12.981765453 11.829918508 30.524807391     0.077031125  0.084531436  0.032760239

 FORCES acting on ions:
    Electron-Ion                     Ewald-Force                    Non-Local-Force
   0.387E+02 -.929E+02 -.163E+04   -.412E+02 0.981E+02 0.163E+04   0.260E+01 -.520E+01 -.465E+01
   0.224E+02 0.127E+03 -.253E+04   -.449E+02 -.153E+03 0.252E+04   0.223E+02 0.255E+02 0.956E+01
   0.584E+02 -.154E+02 -.398E+03   -.645E+02 0.160E+02 0.398E+03   0.598E+01 -.595E+00 0.302E+00
   -.698E+02 0.166E+02 -.431E+03   0.777E+02 -.172E+02 0.431E+03   -.764E+01 0.672E+00 0.338E+00
   -.114E+02 0.554E+01 -.391E+03   0.130E+02 -.696E+01 0.396E+03   -.155E+01 0.139E+01 -.548E+01
   -.191E+02 -.615E+02 -.397E+03   0.218E+02 0.665E+02 0.395E+03   -.263E+01 -.487E+01 0.141E+01
   -.203E+00 -.176E-01 0.381E+04   0.199E+00 0.177E-01 -.381E+04   0.117E-02 -.411E-05 0.456E+00
   -.593E-01 -.635E-01 0.399E+04   0.608E-01 0.636E-01 -.398E+04   -.311E-03 -.415E-04 -.403E+01
   -.235E+00 -.411E-01 0.195E+04   0.242E+00 0.407E-01 -.195E+04   -.104E-02 0.145E-03 -.455E-01
   -.443E+00 -.745E-01 0.194E+04   0.432E+00 0.749E-01 -.194E+04   0.248E-02 0.303E-04 0.214E+00
   -.105E+01 -.717E-01 0.180E+02   0.995E+00 0.500E-01 -.173E+02   0.875E-02 0.128E-02 -.115E+00
   -.112E+01 -.909E+00 0.254E+02   0.114E+01 0.911E+00 -.264E+02   -.611E-02 -.198E-02 0.319E+00
   -.578E+01 -.185E+01 -.187E+04   0.578E+01 0.185E+01 0.187E+04   0.191E-02 -.554E-02 0.514E-01
   -.822E+01 -.971E+01 -.191E+04   0.823E+01 0.972E+01 0.191E+04   -.153E-01 -.709E-02 -.105E+00
   -.103E+03 -.157E+02 -.372E+04   0.103E+03 0.155E+02 0.371E+04   0.201E+00 0.132E+00 0.254E-01
   -.581E+01 -.577E+01 -.379E+04   0.586E+01 0.578E+01 0.379E+04   -.636E-01 -.183E-01 0.105E+01
   -.210E+00 -.696E-01 0.381E+04   0.205E+00 0.699E-01 -.381E+04   0.121E-02 -.803E-05 0.456E+00
   -.567E-01 -.331E-01 0.399E+04   0.582E-01 0.332E-01 -.398E+04   -.316E-03 -.198E-04 -.403E+01
   -.203E+00 -.150E+00 0.195E+04   0.210E+00 0.150E+00 -.195E+04   -.102E-02 0.118E-03 -.455E-01
   -.520E+00 -.915E-01 0.194E+04   0.509E+00 0.913E-01 -.194E+04   0.230E-02 -.123E-04 0.213E+00
   -.223E+01 -.995E+00 0.165E+02   0.219E+01 0.102E+01 -.159E+02   0.692E-02 -.148E-02 -.117E+00
   -.769E+00 -.324E+00 0.240E+02   0.791E+00 0.324E+00 -.250E+02   -.626E-02 -.582E-04 0.319E+00
   -.348E+01 -.286E+01 -.187E+04   0.348E+01 0.287E+01 0.187E+04   0.175E-02 -.101E-01 0.530E-01
   -.523E+01 -.198E+01 -.193E+04   0.525E+01 0.198E+01 0.193E+04   -.219E-01 0.190E-02 -.112E+00
   -.309E+02 -.290E+02 -.377E+04   0.309E+02 0.290E+02 0.377E+04   0.503E-01 0.171E-01 -.108E+00
   -.518E+01 -.224E+01 -.380E+04   0.516E+01 0.224E+01 0.380E+04   0.251E-01 -.264E-02 0.109E+01
   -.205E+00 0.174E-01 0.381E+04   0.200E+00 -.177E-01 -.381E+04   0.122E-02 -.300E-05 0.456E+00
   -.596E-01 0.634E-01 0.399E+04   0.611E-01 -.635E-01 -.398E+04   -.302E-03 -.101E-05 -.403E+01
   -.205E+00 0.436E-01 0.195E+04   0.212E+00 -.432E-01 -.195E+04   -.111E-02 -.136E-03 -.455E-01
   -.408E+00 0.749E-01 0.194E+04   0.397E+00 -.753E-01 -.194E+04   0.239E-02 -.175E-04 0.214E+00
   -.209E+01 0.357E+00 0.160E+02   0.205E+01 -.392E+00 -.153E+02   0.822E-02 0.224E-02 -.117E+00
   -.112E+01 0.875E+00 0.248E+02   0.114E+01 -.879E+00 -.258E+02   -.636E-02 0.304E-02 0.320E+00
   -.239E+01 0.139E+01 -.187E+04   0.239E+01 -.139E+01 0.187E+04   0.361E-02 0.794E-02 0.566E-01
   -.749E+01 0.930E+01 -.191E+04   0.750E+01 -.930E+01 0.191E+04   -.132E-01 -.243E-02 -.117E+00
   -.225E+02 0.150E+02 -.377E+04   0.225E+02 -.150E+02 0.377E+04   0.461E-01 -.602E-02 -.124E+00
   -.492E+01 0.548E+01 -.380E+04   0.496E+01 -.548E+01 0.380E+04   -.508E-01 0.133E-01 0.106E+01
   -.198E+00 0.698E-01 0.381E+04   0.194E+00 -.699E-01 -.381E+04   0.119E-02 0.604E-05 0.456E+00
   -.622E-01 0.331E-01 0.399E+04   0.637E-01 -.332E-01 -.398E+04   -.320E-03 -.915E-05 -.403E+01
   -.238E+00 0.148E+00 0.195E+04   0.245E+00 -.147E+00 -.195E+04   -.111E-02 -.182E-03 -.455E-01
   -.335E+00 0.911E-01 0.194E+04   0.325E+00 -.908E-01 -.194E+04   0.219E-02 -.156E-04 0.213E+00
   -.871E+00 0.715E+00 0.174E+02   0.819E+00 -.687E+00 -.168E+02   0.964E-02 -.191E-02 -.115E+00
   -.122E+01 0.311E+00 0.263E+02   0.125E+01 -.312E+00 -.273E+02   -.737E-02 0.296E-03 0.316E+00
   -.541E+01 0.351E+01 -.187E+04   0.541E+01 -.351E+01 0.187E+04   0.880E-03 0.508E-02 0.513E-01
   -.896E+01 0.204E+01 -.190E+04   0.901E+01 -.204E+01 0.190E+04   -.629E-01 0.466E-02 -.108E+00
   -.867E+02 0.264E+02 -.373E+04   0.866E+02 -.262E+02 0.373E+04   0.135E+00 -.163E+00 0.176E-01
   -.750E+01 0.301E+01 -.379E+04   0.746E+01 -.302E+01 0.379E+04   0.439E-01 0.257E-02 0.101E+01
   0.204E+00 -.135E-01 0.381E+04   -.200E+00 0.132E-01 -.381E+04   -.120E-02 0.146E-04 0.455E+00
   0.583E-01 -.531E-01 0.399E+04   -.599E-01 0.534E-01 -.398E+04   0.320E-03 -.387E-04 -.404E+01
   0.213E+00 0.140E+00 0.195E+04   -.219E+00 -.129E+00 -.195E+04   0.903E-03 -.263E-02 -.473E-01
   0.466E+00 -.264E-01 0.194E+04   -.455E+00 0.266E-01 -.194E+04   -.234E-02 -.946E-05 0.209E+00
   0.185E+01 0.164E+00 0.156E+02   -.180E+01 -.178E+00 -.148E+02   -.119E-01 0.969E-03 -.125E+00
   0.907E+00 0.718E+00 0.306E+02   -.917E+00 -.799E+00 -.314E+02   -.167E-02 0.393E-01 0.236E+00
   0.306E+01 -.129E+02 -.185E+04   -.306E+01 0.130E+02 0.185E+04   0.780E-02 -.958E-01 0.414E-01
   0.146E+02 -.674E+01 -.192E+04   -.146E+02 0.674E+01 0.192E+04   -.113E-01 0.800E-02 -.104E+00
   0.666E+02 -.155E+02 -.374E+04   -.667E+02 0.155E+02 0.374E+04   0.586E-01 0.702E-02 -.130E+00
   0.240E+02 -.837E+02 -.370E+04   -.238E+02 0.838E+02 0.370E+04   -.182E+00 -.616E-01 0.125E+01
   0.211E+00 -.656E-01 0.381E+04   -.206E+00 0.658E-01 -.381E+04   -.119E-02 -.237E-04 0.455E+00
   0.558E-01 -.411E-01 0.399E+04   -.573E-01 0.411E-01 -.398E+04   0.309E-03 -.730E-05 -.404E+01
   0.182E+00 -.280E-01 0.195E+04   -.188E+00 0.282E-01 -.195E+04   0.842E-03 -.108E-02 -.484E-01
   0.540E+00 -.971E-01 0.194E+04   -.529E+00 0.971E-01 -.194E+04   -.238E-02 0.609E-04 0.209E+00
[...]
   -.529E+02 0.336E-01 0.117E+04   0.569E+02 -.344E-01 -.117E+04   -.352E+01 0.109E-02 0.155E+00
   0.531E+02 0.459E-01 0.117E+04   -.571E+02 -.465E-01 -.117E+04   0.353E+01 0.909E-03 0.163E+00
   0.486E+00 0.162E+00 0.516E+03   -.467E+00 -.163E+00 -.520E+03   -.256E-01 0.296E-02 0.415E+01
   0.231E+01 0.655E+00 -.512E+03   -.227E+01 -.653E+00 0.519E+03   -.564E-01 -.303E-02 -.685E+01
   -.546E+02 0.738E-01 0.158E+02   0.593E+02 -.766E-01 -.160E+02   -.497E+01 0.226E-01 0.225E+00
   0.556E+02 0.168E-01 0.153E+02   -.603E+02 -.236E-01 -.154E+02   0.502E+01 0.287E-01 0.218E+00
   0.499E+00 0.148E+01 -.610E+03   -.450E+00 -.155E+01 0.603E+03   -.492E-01 0.717E-01 0.666E+01
   0.111E+02 0.344E+01 -.160E+04   -.115E+02 -.335E+01 0.161E+04   0.387E+00 -.945E-01 -.244E+01
   -.242E+02 0.510E+01 -.112E+04   0.275E+02 -.525E+01 0.112E+04   -.326E+01 0.150E+00 0.101E+01
   0.270E+02 0.557E+01 -.112E+04   -.302E+02 -.562E+01 0.112E+04   0.316E+01 0.452E-01 0.613E+00
   0.217E+02 0.317E+01 -.180E+04   -.217E+02 -.324E+01 0.180E+04   0.316E-01 0.694E-01 -.190E+01
   0.609E+02 0.112E+02 -.272E+04   -.608E+02 -.113E+02 0.274E+04   -.122E+00 0.923E-01 -.203E+02
   -.527E+02 0.611E+02 -.222E+04   0.587E+02 -.610E+02 0.222E+04   -.594E+01 -.142E+00 -.578E+00
   0.706E+02 0.485E+02 -.229E+04   -.767E+02 -.484E+02 0.230E+04   0.603E+01 -.846E-01 -.298E+01
   -.165E+02 -.177E+02 0.839E+02   -.259E-11 0.107E-12 -.209E-10   0.165E+02 0.177E+02 -.839E+02

 POSITION                                       TOTAL-FORCE (eV/Angst)
      6.61336      6.97683     24.70531         0.032235      0.029470     -0.047928
      6.99476      5.90749     23.81322        -0.181166     -0.177701      0.106930
      5.53184      7.07943     24.64254        -0.176828      0.034605      0.010447
      7.98809      5.84450     23.77593         0.263863     -0.000635      0.016075
      6.91141      6.71195     25.72008         0.055609     -0.041014      0.244046
      7.11130      7.90921     24.41350         0.054088      0.152827     -0.012682
      9.73632      7.39370      8.77152        -0.003006      0.000049     -3.392899
      0.00000      8.87244      8.77152         0.001280      0.000054      2.787932
      0.00000      7.39370     12.01696         0.005791     -0.000242      0.550830
      9.73632      8.87244     12.01696        -0.008491      0.000485     -0.740530
      9.73632      7.39370     15.26240        -0.041542     -0.020089      0.569464
      0.00000      8.87244     15.26240         0.014272      0.000516     -0.711455
      0.00316      7.39393     18.44135         0.004852     -0.002220     -0.111720
      9.74106      8.87332     18.60982        -0.003375     -0.000984      0.079555
      9.74606      7.40483     21.92785         0.007678     -0.015227     -0.046874
     12.97992      8.87394     21.61771        -0.001813      0.004124     -0.128415
      9.73632     10.35118      8.77152        -0.002927      0.000382     -3.392809
      0.00000      0.00000      8.77152         0.001158      0.000054      2.787660
      0.00000     10.35118     12.01696         0.005654     -0.000397      0.550494
      9.73632      0.00000     12.01696        -0.008891     -0.000280     -0.740973
      9.73632     10.35118     15.26240        -0.032319      0.026786      0.574907
      0.00000      0.00000     15.26240         0.014948      0.000322     -0.708205
      0.00063     10.35123     18.44325         0.002450     -0.002273     -0.113738
      9.73261     11.82974     18.61878        -0.001774      0.000156      0.082665
      9.73280     10.35144     21.96211        -0.001926     -0.008064     -0.061537
      0.00187     11.82813     21.61647         0.000536      0.000101     -0.123123
      9.73632      1.47874      8.77152        -0.003131     -0.000334     -3.393074
      0.00000      2.95748      8.77152         0.001284     -0.000138      2.787775
      0.00000      1.47874     12.01696         0.005869      0.000355      0.550440
      9.73632      2.95748     12.01696        -0.008212     -0.000453     -0.741513
      9.73632      1.47874     15.26240        -0.032152     -0.032960      0.570372
      0.00000      2.95748     15.26240         0.016828     -0.000857     -0.711120
      0.00073      1.47797     18.44341         0.004275      0.001766     -0.113988
      9.73766      2.95555     18.60924        -0.004527     -0.002023      0.076240
      9.73119      1.46964     21.96264        -0.000245     -0.001877     -0.063622
      0.00004      2.95322     21.61774         0.000421     -0.004987     -0.128616
      9.73632      4.43622      8.77152        -0.002946     -0.000071     -3.393367
      0.00000      5.91496      8.77152         0.001264     -0.000095      2.788004
      0.00000      4.43622     12.01696         0.006010      0.000319      0.550742
      9.73632      5.91496     12.01696        -0.008038      0.000303     -0.741022
      9.73632      4.43622     15.26240        -0.041774      0.026252      0.566186
      0.00000      5.91496     15.26240         0.015014     -0.000015     -0.713600
      0.00196      4.43564     18.44126         0.003056      0.002447     -0.112162
      9.74529      5.91425     18.61640         0.004166     -0.000049      0.090557
      9.75286      4.41480     21.93267         0.020894      0.014395     -0.053681
      0.01174      5.91472     21.61544         0.000635      0.001115     -0.131884
      3.24544      7.39370      8.77152         0.002997     -0.000262     -3.390551
      6.49088      8.87244      8.77152        -0.001238      0.000266      2.795228
      6.49088      7.39370     12.01696        -0.005517      0.008843      0.576564
      3.24544      8.87244     12.01696         0.008347      0.000307     -0.723757
      3.24544      7.39370     15.26240         0.039877     -0.012645      0.619985
      6.49088      8.87244     15.26240        -0.011756     -0.043717     -0.579945
      6.49396      7.36545     18.47952         0.011430     -0.038190     -0.068520
      3.25010      8.87132     18.61890         0.003193      0.000935      0.082662
      3.25248      7.39473     21.96041        -0.011704     -0.003333     -0.063434
      6.49576      8.87470     21.57630         0.008511     -0.026529     -0.141372
      3.24544     10.35118      8.77152         0.003128      0.000257     -3.390538
      6.49088      0.00000      8.77152        -0.001145      0.000021      2.795113
      6.49088     10.35118     12.01696        -0.005451     -0.000739      0.577911
      3.24544      0.00000     12.01696         0.008677      0.000080     -0.723002
[...]
      6.49088      5.91496     13.28848         0.002143     -0.000694     -0.121818
      4.51696      4.43622     12.01696         0.456919      0.000320      0.049043
      8.46480      4.43622     12.01696        -0.450290      0.000287      0.051279
      3.24544      5.91496     13.99088        -0.006994      0.001719     -0.113209
      3.24544      5.91496     16.53392        -0.018253     -0.001421      0.053916
      7.76240      4.43622     15.26240        -0.372737      0.019968      0.061930
      5.21936      4.43622     15.26240         0.403738      0.022114      0.063753
      6.49440      5.91293     17.25640        -0.000260      0.000576      0.030269
      6.48255      5.91692     19.81727        -0.003904      0.002309      0.070120
      4.53725      4.43536     18.52617         0.038938     -0.001910     -0.005338
      8.44536      4.43523     18.53870        -0.040110     -0.004975     -0.001065
      3.24254      5.91754     20.49272         0.001649      0.000954     -0.120695
      3.26870      5.91580     23.04316         0.010571      0.001591      0.210014
      7.74004      4.38967     21.80530         0.051620      0.003425     -0.018702
      5.27807      4.42171     21.90623        -0.053831      0.021873      0.021972
    total drift:                               -0.007231     -0.002962      0.047700

  FREE ENERGIE OF THE ION-ELECTRON SYSTEM (eV)
  free  energy   TOTEN  =     -2157.23301592 eV

  energy  without entropy=    -2157.23301592  energy(sigma->0) =    -2157.23301592