 vasp.6.3.0 20Jan22 (build Apr  1 2022 16:44:48) complex
 executed on        HPECrayEX_GCC date 2023.04.05  16:17:08

 INCAR:
   SYSTEM = MgO-rocksalt
   ISMEAR = 0
   SIGMA = 0.05
   EDIFF = 1E-7
   ALGO = ALL
   ISTART = 0
   IBRION = 2
   NSW = 1000
   ISYM = 2
   ISIF = 3
   EDIFFG = -0.005
   METAGGA = R2SCAN
   LUSE_VDW = .TRUE.
   BPARAM = 11.95
   CPARAM = 0.0093
   LASPH = .TRUE.
   ENCUT = 600
   PREC = Accurate
   LASPH = .TRUE.
   LREAL = .FALSE.
   ISPIN = 1
   NELM = 200
   NELMIN = 8
   NCORE = 8
   KPAR = 1
   LWAVE = .FALSE.
   LCHARG = .FALSE.

 POTCAR:    PAW_PBE Ti_pv 07Sep2000
 POTCAR:    PAW_PBE O 08Apr2002
|               ----> ADVICE to this user running VASP <----                  |
|     You have switched on vdW-DFT.                                           |
|     This routine was written and supplied by Jiri Klimes. We recommend      |
|     that you carefully read and cite the following publications:            |
|       J. Klimes, D.R. Bowler, A. Michelides                                 |
|          J. Phys.: Cond Matt. 22 022201 (2010)                              |
|       J. Klimes, D.R. Bowler, A. Michelides                                 |
|          Phys. Rev. B. 83, 195131 (2011)                                    |
|     and references therein.                                                 |

   TITEL  = PAW_PBE Ti_pv 07Sep2000
   POMASS =   47.880; ZVAL   =   10.000    mass and valenz
   ENMAX  =  222.335; ENMIN  =  166.751 eV

   TITEL  = PAW_PBE O 08Apr2002
   POMASS =   16.000; ZVAL   =    6.000    mass and valenz
   ENMAX  =  400.000; ENMIN  =  300.000 eV

  PAW_PBE Ti_pv 07Sep2000               :
  PAW_PBE O 08Apr2002                   :

 POSCAR: Ti2 O4
  positions in direct lattice
  velocities in cartesian coordinates

 METAGGA = R2SCA    LMAXTAU =  6    LMIXTAU =  F

 ion  position               nearest neighbor table
   1  0.500  0.500  0.000-   6 1.95   3 1.95   3 1.95   6 1.95   5 1.97   4 1.97
   2  0.000  0.000  0.500-   4 1.95   5 1.95   4 1.95   5 1.95   3 1.97   6 1.97
   3  0.696  0.696  0.500-   1 1.95   1 1.95   2 1.97
   4  0.196  0.804  0.000-   2 1.95   2 1.95   1 1.97
   5  0.804  0.196  0.000-   2 1.95   2 1.95   1 1.97
   6  0.304  0.304  0.500-   1 1.95   1 1.95   2 1.97

  LATTYP: Found a simple tetragonal cell.
 ALAT       =     4.5897500733
 C/A-ratio  =     0.6443669103

  Lattice vectors:

 A1 = (   4.5897500733,  -0.0000000000,   0.0000000000)
 A2 = (   0.0000000000,   4.5897500733,   0.0000000000)
 A3 = (   0.0000000000,   0.0000000000,   2.9574830737)

Analysis of symmetry for initial positions (statically):
 Subroutine PRICEL returns:
 Original cell was already a primitive cell.

 Routine SETGRP: Setting up the symmetry group for a
 simple tetragonal supercell.

 Subroutine GETGRP returns: Found 16 space group operations
 (whereof  8 operations were pure point group operations)
 out of a pool of 16 trial point group operations.

The static configuration has the point symmetry D_2h.
 The point group associated with its full space group is D_4h.

Analysis of symmetry for dynamics (positions and initial velocities):
 Subroutine PRICEL returns:
 Original cell was already a primitive cell.

 Routine SETGRP: Setting up the symmetry group for a
 simple tetragonal supercell.

 Subroutine GETGRP returns: Found 16 space group operations
 (whereof  8 operations were pure point group operations)
 out of a pool of 16 trial point group operations.

The dynamic configuration has the point symmetry D_2h.
 The point group associated with its full space group is D_4h.

 Subroutine INISYM returns: Found 16 space group operations
 (whereof  8 operations are pure point group operations),
 and found     1 'primitive' translations

                                     Primitive cell

  volume of cell :      62.3018

  direct lattice vectors                    reciprocal lattice vectors
     4.589750073 -0.000000000  0.000000000     0.217876787 -0.000000000  0.000000000
     0.000000000  4.589750073  0.000000000     0.000000000  0.217876787 -0.000000000
     0.000000000  0.000000000  2.957483074    -0.000000000 -0.000000000  0.338125350

  length of vectors
     4.589750073  4.589750073  2.957483074     0.217876787  0.217876787  0.338125350

  position of ions in fractional coordinates (direct lattice)
     0.500000000  0.500000000  0.000000000
     0.000000000  0.000000000  0.500000000
     0.695893842  0.695893842  0.500000000
     0.195893842  0.804106158  0.000000000
     0.804106158  0.195893842  0.000000000
     0.304106158  0.304106158  0.500000000

  ion indices of the primitive-cell ions
   primitive index   ion index
                 1           1
                 2           2
                 3           3
                 4           4
                 5           5
                 6           6

 KPOINTS: pymatgen v2020.8.13 with grid density =

Automatic generation of k-mesh.
 Grid dimensions read from file:
 generate k-points for:    5    5    8

 Generating k-lattice:

  Cartesian coordinates                     Fractional coordinates (reciprocal lattice)
     0.043575357 -0.000000000  0.000000000     0.200000000 -0.000000000  0.000000000
     0.000000000  0.043575357 -0.000000000     0.000000000  0.200000000  0.000000000
    -0.000000000 -0.000000000  0.042265669     0.000000000  0.000000000  0.125000000

  Length of vectors
     0.043575357  0.043575357  0.042265669

  Shift w.r.t. Gamma in fractional coordinates (k-lattice)
     0.000000000  0.000000000  0.000000000

 Subroutine IBZKPT returns following result:

 Found     30 irreducible k-points:

 Following reciprocal coordinates:
            Coordinates               Weight
  0.000000  0.000000  0.000000      1.000000
  0.200000  0.000000  0.000000      4.000000
  0.400000  0.000000  0.000000      4.000000
  0.200000  0.200000  0.000000      4.000000
  0.400000  0.200000  0.000000      8.000000
  0.400000  0.400000  0.000000      4.000000
  0.000000  0.000000  0.125000      2.000000
  0.200000  0.000000  0.125000      8.000000
  0.400000  0.000000  0.125000      8.000000
  0.200000  0.200000  0.125000      8.000000
  0.400000  0.200000  0.125000     16.000000
  0.400000  0.400000  0.125000      8.000000
  0.000000  0.000000  0.250000      2.000000
  0.200000  0.000000  0.250000      8.000000
  0.400000  0.000000  0.250000      8.000000
  0.200000  0.200000  0.250000      8.000000
  0.400000  0.200000  0.250000     16.000000
  0.400000  0.400000  0.250000      8.000000
  0.000000  0.000000  0.375000      2.000000
  0.200000  0.000000  0.375000      8.000000
  0.400000  0.000000  0.375000      8.000000
  0.200000  0.200000  0.375000      8.000000
  0.400000  0.200000  0.375000     16.000000
  0.400000  0.400000  0.375000      8.000000
  0.000000  0.000000  0.500000      1.000000
  0.200000  0.000000  0.500000      4.000000
  0.400000  0.000000  0.500000      4.000000
  0.200000  0.200000  0.500000      4.000000
  0.400000  0.200000  0.500000      8.000000
  0.400000  0.400000  0.500000      4.000000

 Following cartesian coordinates:
            Coordinates               Weight
  0.000000  0.000000  0.000000      1.000000
  0.043575  0.000000  0.000000      4.000000
  0.087151  0.000000  0.000000      4.000000
  0.043575  0.043575  0.000000      4.000000
  0.087151  0.043575  0.000000      8.000000
  0.087151  0.087151  0.000000      4.000000
  0.000000  0.000000  0.042266      2.000000
  0.043575  0.000000  0.042266      8.000000
  0.087151  0.000000  0.042266      8.000000
  0.043575  0.043575  0.042266      8.000000
  0.087151  0.043575  0.042266     16.000000
  0.087151  0.087151  0.042266      8.000000
  0.000000  0.000000  0.084531      2.000000
  0.043575  0.000000  0.084531      8.000000
  0.087151  0.000000  0.084531      8.000000
  0.043575  0.043575  0.084531      8.000000
  0.087151  0.043575  0.084531     16.000000
  0.087151  0.087151  0.084531      8.000000
  0.000000  0.000000  0.126797      2.000000
  0.043575  0.000000  0.126797      8.000000
  0.087151  0.000000  0.126797      8.000000
  0.043575  0.043575  0.126797      8.000000
  0.087151  0.043575  0.126797     16.000000
  0.087151  0.087151  0.126797      8.000000
  0.000000  0.000000  0.169063      1.000000
  0.043575  0.000000  0.169063      4.000000
  0.087151  0.000000  0.169063      4.000000
  0.043575  0.043575  0.169063      4.000000
  0.087151  0.043575  0.169063      8.000000
  0.087151  0.087151  0.169063      4.000000

 SYSTEM =  MgO-rocksalt
 POSCAR =  Ti2 O4

  energy-cutoff  :      600.00
  volume of cell :       62.30
      direct lattice vectors                 reciprocal lattice vectors
     4.589750073 -0.000000000  0.000000000     0.217876787 -0.000000000  0.000000000
     0.000000000  4.589750073  0.000000000     0.000000000  0.217876787 -0.000000000
     0.000000000  0.000000000  2.957483074    -0.000000000 -0.000000000  0.338125350

[...]

 k-points in units of 2pi/SCALE and weight: pymatgen v2020.8.13 with grid density =
   0.00000000  0.00000000  0.00000000       0.005
   0.04357536  0.00000000  0.00000000       0.020
   0.08715071  0.00000000  0.00000000       0.020
   0.04357536  0.04357536  0.00000000       0.020
   0.08715071  0.04357536  0.00000000       0.040
   0.08715071  0.08715071  0.00000000       0.020
   0.00000000  0.00000000  0.04226567       0.010
   0.04357536  0.00000000  0.04226567       0.040
   0.08715071  0.00000000  0.04226567       0.040
   0.04357536  0.04357536  0.04226567       0.040
   0.08715071  0.04357536  0.04226567       0.080
   0.08715071  0.08715071  0.04226567       0.040
   0.00000000  0.00000000  0.08453134       0.010
   0.04357536  0.00000000  0.08453134       0.040
   0.08715071  0.00000000  0.08453134       0.040
   0.04357536  0.04357536  0.08453134       0.040
   0.08715071  0.04357536  0.08453134       0.080
   0.08715071  0.08715071  0.08453134       0.040
   0.00000000  0.00000000  0.12679701       0.010
   0.04357536  0.00000000  0.12679701       0.040
   0.08715071  0.00000000  0.12679701       0.040
   0.04357536  0.04357536  0.12679701       0.040
   0.08715071  0.04357536  0.12679701       0.080
   0.08715071  0.08715071  0.12679701       0.040
   0.00000000  0.00000000  0.16906268       0.005
   0.04357536  0.00000000  0.16906268       0.020
   0.08715071  0.00000000  0.16906268       0.020
   0.04357536  0.04357536  0.16906268       0.020
   0.08715071  0.04357536  0.16906268       0.040
   0.08715071  0.08715071  0.16906268       0.020

 k-points in reciprocal lattice and weights: pymatgen v2020.8.13 with grid density =
   0.00000000  0.00000000  0.00000000       0.005
   0.20000000  0.00000000  0.00000000       0.020
   0.40000000  0.00000000  0.00000000       0.020
   0.20000000  0.20000000  0.00000000       0.020
   0.40000000  0.20000000  0.00000000       0.040
   0.40000000  0.40000000  0.00000000       0.020
   0.00000000  0.00000000  0.12500000       0.010
   0.20000000  0.00000000  0.12500000       0.040
   0.40000000  0.00000000  0.12500000       0.040
   0.20000000  0.20000000  0.12500000       0.040
   0.40000000  0.20000000  0.12500000       0.080
   0.40000000  0.40000000  0.12500000       0.040
   0.00000000  0.00000000  0.25000000       0.010
   0.20000000  0.00000000  0.25000000       0.040
   0.40000000  0.00000000  0.25000000       0.040
   0.20000000  0.20000000  0.25000000       0.040
   0.40000000  0.20000000  0.25000000       0.080
   0.40000000  0.40000000  0.25000000       0.040
   0.00000000  0.00000000  0.37500000       0.010
   0.20000000  0.00000000  0.37500000       0.040
   0.40000000  0.00000000  0.37500000       0.040
   0.20000000  0.20000000  0.37500000       0.040
   0.40000000  0.20000000  0.37500000       0.080
   0.40000000  0.40000000  0.37500000       0.040
   0.00000000  0.00000000  0.50000000       0.005
   0.20000000  0.00000000  0.50000000       0.020
   0.40000000  0.00000000  0.50000000       0.020
   0.20000000  0.20000000  0.50000000       0.020
   0.40000000  0.20000000  0.50000000       0.040
   0.40000000  0.40000000  0.50000000       0.020

 position of ions in fractional coordinates (direct lattice)
   0.50000000  0.50000000  0.00000000
   0.00000000  0.00000000  0.50000000
   0.69589384  0.69589384  0.50000000
   0.19589384  0.80410616  0.00000000
   0.80410616  0.19589384  0.00000000
   0.30410616  0.30410616  0.50000000

 position of ions in cartesian coordinates  (Angst):
   2.29487504  2.29487504  0.00000000
   0.00000000  0.00000000  1.47874154
   3.19397881  3.19397881  1.47874154
   0.89910377  3.69064630  0.00000000
   3.69064630  0.89910377  0.00000000
   1.39577126  1.39577126  1.47874154

--------------------------------------- Iteration      FINAL  ---------------------------------------

--------------------OUTCAR has been truncated-------------------------

[...]

--------------------OUTCAR has been truncated-------------------------

  FORCE on cell =-STRESS in cart. coord.  units (eV):
  Direction    XX          YY          ZZ          XY          YZ          ZX
  Alpha Z   219.45740   219.45740   219.45740
  Ewald   -1120.58593 -1120.58593  -697.81285    -0.00000    -0.00000    -0.00000
  Hartree   215.15233   215.15233   432.99370    -0.00000    -0.00000    -0.00000
  E(xc)    -228.43289  -228.46745  -228.71617    -0.03611    -0.02085    -0.04628
  Local     186.85568   186.85568  -441.87507     0.00000     0.00000    -0.00000
  n-local  -128.53928  -129.54533  -126.63265     0.02307     0.11789    -0.00034
  augment   138.42740   138.42740   137.04632    -0.00000     0.00000    -0.00000
  Kinetic   718.64071   717.72273   705.56229    -1.10738    -0.70730    -1.46262
  Fock        0.00000     0.00000     0.00000     0.00000     0.00000     0.00000
  Total      -0.00388    -0.00388     0.02298     0.00000    -0.00000    -0.00000
  in kB      -0.09971    -0.09971     0.59099     0.00000    -0.00000    -0.00000

 VOLUME and BASIS-vectors are now :
  energy-cutoff  :      600.00
  volume of cell :       62.30
      direct lattice vectors                 reciprocal lattice vectors
     4.589750073 -0.000000000  0.000000000     0.217876787 -0.000000000  0.000000000
     0.000000000  4.589750073  0.000000000     0.000000000  0.217876787 -0.000000000
     0.000000000  0.000000000  2.957483074    -0.000000000 -0.000000000  0.338125350

  length of vectors
     4.589750073  4.589750073  2.957483074     0.217876787  0.217876787  0.338125350

 FORCES acting on ions:
    Electron-Ion                     Ewald-Force                    Non-Local-Force
   -.801E-12 -.108E-11 -.180E-11   0.568E-13 -.284E-13 -.203E-14   0.000E+00 0.000E+00 0.336E-23
   0.394E-13 0.130E-13 0.133E-12   0.000E+00 0.711E-13 -.562E-14   0.000E+00 0.000E+00 -.320E-23
   -.362E+02 -.362E+02 0.331E-06   0.393E+02 0.393E+02 -.106E-12   -.313E+01 -.313E+01 -.412E-15
   -.362E+02 0.362E+02 0.196E-11   0.393E+02 -.393E+02 0.165E-14   -.313E+01 0.313E+01 -.575E-17
   0.362E+02 -.362E+02 -.264E-11   -.393E+02 0.393E+02 0.237E-14   0.313E+01 -.313E+01 0.489E-17
   0.362E+02 0.362E+02 -.331E-06   -.393E+02 -.393E+02 0.105E-12   0.313E+01 0.313E+01 0.411E-15
   0.212E-11 0.540E-12 -.885E-13   0.000E+00 -.711E-14 -.451E-14   0.888E-15 0.000E+00 -.140E-17

 POSITION                                       TOTAL-FORCE (eV/Angst)
      2.29488      2.29488      0.00000        -0.000000     -0.000000      0.000000
      0.00000      0.00000      1.47874        -0.000000     -0.000000      0.000000
      3.19398      3.19398      1.47874         0.000519      0.000519      0.000000
      0.89910      3.69065      0.00000         0.000519     -0.000519      0.000000
      3.69065      0.89910      0.00000        -0.000519      0.000519     -0.000000
      1.39577      1.39577      1.47874        -0.000519     -0.000519     -0.000000
    total drift:                                0.000000      0.000000     -0.000000

  FREE ENERGIE OF THE ION-ELECTRON SYSTEM (eV)
  free  energy   TOTEN  =       -68.46213378 eV

  energy  without entropy=      -68.46213378  energy(sigma->0) =      -68.46213378

 reached required accuracy - stopping structural energy minimisation