 vasp.6.4.2 20Jul23 (build Feb 22 2024 13:53:45) complex
 executed on              LinuxNV date 2024.08.27  18:54:17
 OpenACC runtime initialized ...    4 GPUs detected

 INCAR:
   SYSTEM = Oxide-Surface
   ISMEAR = 0
   SIGMA = 0.05
   EDIFF = 1E-5
   ALGO = Normal
   IBRION = -1
   NSW = 0
   ISYM = 0
   DIPOL = 0.5 0.5 0.5
   IDIPOL = 3
   LDIPOL = .TRUE.
   ISTART = 1
   LHFCALC = .TRUE.
   GGA = PE
   IVDW = 21
   VDW_SR = 0.96
   HFRCUT = -1
   ENCUT = 520
   PREC = Normal
   PRECFOCK = Normal
   LASPH = .TRUE.
   LREAL = Auto
   ISPIN = 1
   NELM = 200
   NELMIN = 8
   NCORE = 1
   KPAR = 1
   LWAVE = .FALSE.
   LCHARG = .FALSE.

 POTCAR:    PAW_PBE Mg_pv 13Apr2007
 POTCAR:    PAW_PBE O 08Apr2002
 POTCAR:    PAW_PBE Mg_pv 13Apr2007
   VRHFIN =Mg: p6s2

   TITEL  = PAW_PBE Mg_pv 13Apr2007
   POMASS =   24.305; ZVAL   =    8.000    mass and valenz
   ENMAX  =  403.929; ENMIN  =  302.947 eV

   TITEL  = PAW_PBE O 08Apr2002
   POMASS =   16.000; ZVAL   =    6.000    mass and valenz
   ENMAX  =  400.000; ENMIN  =  300.000 eV

 Optimization of the real space projectors (new method)

 maximal supplied QI-value         = 18.90
 optimisation between [QCUT,QGAM] = [ 11.53, 23.24] = [ 37.21,151.29] Ry
 Optimized for a Real-space Cutoff    1.21 Angstroem

   l    n(q)    QCUT    max X(q) W(low)/X(q) W(high)/X(q)  e(spline)
   1      8    11.527     2.974    0.16E-03    0.13E-03    0.98E-07
   1      8    11.527     4.279    0.42E-03    0.30E-03    0.22E-06
   0      8    11.527    16.381    0.13E-03    0.20E-03    0.72E-07
   0      8    11.527     5.611    0.88E-04    0.13E-03    0.50E-07
   2      7    11.527     4.652    0.25E-03    0.73E-04    0.51E-07
 Optimization of the real space projectors (new method)

 maximal supplied QI-value         = 24.76
 optimisation between [QCUT,QGAM] = [ 11.64, 23.27] = [ 37.91,151.63] Ry
 Optimized for a Real-space Cutoff    1.04 Angstroem

   l    n(q)    QCUT    max X(q) W(low)/X(q) W(high)/X(q)  e(spline)
   0      7    11.635    20.381    0.14E-03    0.49E-03    0.18E-06
   0      7    11.635    15.268    0.16E-03    0.52E-03    0.19E-06
   1      7    11.635     5.964    0.30E-03    0.44E-03    0.22E-06
   1      7    11.635     5.382    0.27E-03    0.34E-03    0.19E-06
  PAW_PBE Mg_pv 13Apr2007               :
  PAW_PBE O 08Apr2002                   :

 POSCAR: Mg  O
  positions in direct lattice
 exchange correlation table for  LEXCH =        8
   RHO(1)=    0.500       N(1)  =     2000
   RHO(2)=  100.500       N(2)  =     4000

 ion  position               nearest neighbor table
   1  0.000  0.750  0.252-  33 2.11  35 2.11  36 2.11  43 2.11  52 2.11
   2  0.250  0.000  0.252-  34 2.11  35 2.11  36 2.11  44 2.11  51 2.11
   3  0.000  0.000  0.376-  39 2.11  35 2.11  33 2.11  34 2.11  41 2.11  50 2.11
   4  0.250  0.750  0.376-  36 2.11  34 2.11  33 2.11  42 2.11  49 2.11  40 2.13
   5  1.000  0.750  0.499-  33 2.10  47 2.11  39 2.11  56 2.13  40 2.13  37 2.14
   6  0.252  0.001  0.502-  55 2.09  48 2.10  38 2.11  40 2.12  39 2.13  34 2.14
   7  0.000  0.003  0.624-  45 2.09  38 2.10  54 2.10  39 2.12  37 2.13
   8  0.237  0.750  0.623-  37 2.00  40 2.08  46 2.10  38 2.10  53 2.22
   9  0.000  0.250  0.252-  41 2.11  35 2.11  43 2.11  44 2.11  60 2.11
  10  0.250  0.500  0.252-  42 2.11  36 2.11  43 2.11  44 2.11  59 2.11
  11  0.000  0.500  0.376-  47 2.11  43 2.11  42 2.11  33 2.11  41 2.11  58 2.11
  12  0.250  0.250  0.376-  44 2.11  41 2.11  42 2.11  34 2.11  57 2.11  48 2.12
  13  0.000  0.250  0.500-  41 2.11  48 2.11  64 2.11  47 2.11  39 2.11  45 2.14
  14  0.252  0.500  0.502-  63 2.09  48 2.10  46 2.11  40 2.12  47 2.13  42 2.14
  15  0.000  0.498  0.624-  45 2.09  46 2.10  62 2.10  47 2.12  37 2.13
  16  0.248  0.250  0.625-  45 2.09  48 2.11  46 2.12  38 2.12  61 2.13
  17  0.500  0.750  0.252-  49 2.11  36 2.11  51 2.11  52 2.11  59 2.11
  18  0.750  0.000  0.252-  50 2.11  35 2.11  51 2.11  52 2.11  60 2.11
  19  0.500  0.000  0.376-  51 2.11  49 2.11  50 2.11  34 2.11  57 2.11  55 2.15
  20  0.750  0.750  0.376-  52 2.11  49 2.11  50 2.11  33 2.11  58 2.11  56 2.13
  21  0.500  0.750  0.498-  49 2.07  56 2.09  40 2.09  63 2.09  55 2.09
  22  0.748  0.001  0.502-  55 2.09  64 2.10  54 2.11  56 2.12  39 2.13  50 2.14
  23  0.500  0.011  0.636-  61 2.02  38 2.14  54 2.14  53 2.21
  24  0.763  0.750  0.623-  37 2.00  56 2.08  62 2.10  54 2.10  53 2.22
  25  0.500  0.250  0.252-  57 2.11  51 2.11  44 2.11  59 2.11  60 2.11
  26  0.750  0.500  0.252-  58 2.11  52 2.11  43 2.11  59 2.11  60 2.11
  27  0.500  0.500  0.376-  59 2.11  49 2.11  57 2.11  58 2.11  42 2.11  63 2.15
  28  0.750  0.250  0.376-  60 2.11  50 2.11  57 2.11  58 2.11  41 2.11  64 2.12
  29  0.500  0.250  0.502-  48 2.11  64 2.11  63 2.13  55 2.13  61 2.14  57 2.15
  30  0.748  0.500  0.502-  63 2.09  64 2.10  62 2.11  56 2.12  47 2.13  58 2.14
  31  0.500  0.489  0.636-  61 2.02  46 2.14  62 2.14  53 2.21
  32  0.752  0.250  0.625-  45 2.09  64 2.11  62 2.12  54 2.12  61 2.13
  33  0.000  0.750  0.376-   5 2.10   1 2.11   4 2.11   3 2.11  11 2.11  20 2.11
  34  0.250  0.000  0.376-   2 2.11   3 2.11   4 2.11  12 2.11  19 2.11   6 2.14
  35  0.000  0.000  0.252-   3 2.11   2 2.11   1 2.11   9 2.11  18 2.11
  36  0.250  0.750  0.252-   4 2.11   2 2.11   1 2.11  10 2.11  17 2.11
  37  0.000  0.750  0.626-   8 2.00  24 2.00   7 2.13  15 2.13   5 2.14
  38  0.248  0.999  0.626-   7 2.10   8 2.10   6 2.11  16 2.12  23 2.14
  39  0.000  1.000  0.500-   5 2.11   3 2.11  13 2.11   7 2.12   6 2.13  22 2.13
  40  0.252  0.750  0.501-   8 2.08  21 2.09   6 2.12  14 2.12   4 2.13   5 2.13
  41  0.000  0.250  0.376-   9 2.11   3 2.11  11 2.11  12 2.11  28 2.11  13 2.11
  42  0.250  0.500  0.376-  10 2.11   4 2.11  11 2.11  12 2.11  27 2.11  14 2.14
  43  0.000  0.500  0.252-  11 2.11   9 2.11  10 2.11   1 2.11  26 2.11
  44  0.250  0.250  0.252-  12 2.11   9 2.11  10 2.11   2 2.11  25 2.11
  45  0.000  0.250  0.626-  16 2.09  32 2.09   7 2.09  15 2.09  13 2.14
  46  0.248  0.502  0.626-  15 2.10   8 2.10  14 2.11  16 2.12  31 2.14
  47  0.000  0.501  0.500-   5 2.11  11 2.11  13 2.11  15 2.12  14 2.13  30 2.13
  48  0.251  0.250  0.501-   6 2.10  14 2.10  29 2.11  16 2.11  13 2.11  12 2.12
  49  0.500  0.750  0.376-  21 2.07  17 2.11  19 2.11  20 2.11   4 2.11  27 2.11
  50  0.750  0.000  0.376-  18 2.11   3 2.11  19 2.11  20 2.11  28 2.11  22 2.14
  51  0.500  0.000  0.252-  19 2.11  17 2.11  18 2.11   2 2.11  25 2.11
  52  0.750  0.750  0.252-  20 2.11  17 2.11  18 2.11   1 2.11  26 2.11
  53  0.500  0.750  0.633-  23 2.21  31 2.21   8 2.22  24 2.22
  54  0.752  0.999  0.626-   7 2.10  24 2.10  22 2.11  32 2.12  23 2.14
  55  0.500  0.998  0.502-  21 2.09   6 2.09  22 2.09  29 2.13  19 2.15
  56  0.748  0.750  0.501-  24 2.08  21 2.09  22 2.12  30 2.12  20 2.13   5 2.13
  57  0.500  0.250  0.376-  25 2.11  19 2.11  12 2.11  27 2.11  28 2.11  29 2.15
  58  0.750  0.500  0.376-  26 2.11  20 2.11  11 2.11  27 2.11  28 2.11  30 2.14
  59  0.500  0.500  0.252-  27 2.11  17 2.11  25 2.11  26 2.11  10 2.11
  60  0.750  0.250  0.252-  28 2.11  18 2.11  25 2.11  26 2.11   9 2.11
  61  0.500  0.250  0.628-  23 2.02  31 2.02  32 2.13  16 2.13  29 2.14
  62  0.752  0.502  0.626-  15 2.10  24 2.10  30 2.11  32 2.12  31 2.14
  63  0.500  0.503  0.502-  21 2.09  14 2.09  30 2.09  29 2.13  27 2.15
  64  0.749  0.250  0.501-  22 2.10  30 2.10  29 2.11  32 2.11  13 2.11  28 2.12

IMPORTANT INFORMATION: All symmetrisations will be switched off!
NOSYMM: (Re-)initialisation of all symmetry stuff for point group C_1.

                                     Primitive cell

  volume of cell :    1211.2538

  direct lattice vectors                    reciprocal lattice vectors
     8.440984654  0.000000000  0.000000000     0.118469591  0.000000000  0.000000000
     0.000000000  8.440984654  0.000000000     0.000000000  0.118469591  0.000000000
     0.000000000  0.000000000 17.000000000     0.000000000  0.000000000  0.058823529

  length of vectors
     8.440984654  8.440984654 17.000000000     0.118469591  0.118469591  0.058823529

  position of ions in fractional coordinates (direct lattice)
     0.000000012  0.750271483  0.251856836
     0.250000012  0.000271483  0.251856836
     0.000000012  0.000271483  0.375988963
     0.250000012  0.750271483  0.375988963
     0.999999988  0.750271429  0.499368462
     0.252039891  0.001028111  0.501782346
     0.000000034  0.002582678  0.624444171
     0.237174200  0.750271417  0.622958809
     0.000000012  0.250271483  0.251856836
     0.250000012  0.500271483  0.251856836
     0.000000012  0.500271483  0.375988963
     0.250000012  0.250271483  0.375988963
     0.000000025  0.250271481  0.500321386
     0.252039913  0.499514860  0.501782439
     0.000000033  0.497960304  0.624444240
     0.247666331  0.250271551  0.624926941
     0.500000012  0.750271483  0.251856836
     0.750000012  0.000271483  0.251856836
     0.500000012  0.000271483  0.375988963
     0.750000012  0.750271483  0.375988963
     0.500000031  0.750271498  0.497974947
     0.747960134  0.001028090  0.501782397
     0.500000002  0.011479476  0.636458488
     0.762825859  0.750271422  0.622958927
     0.500000012  0.250271483  0.251856836
     0.750000012  0.500271483  0.251856836
     0.500000012  0.500271483  0.375988963
     0.750000012  0.250271483  0.375988963
     0.500000005  0.250271518  0.502223723
     0.747960113  0.499514886  0.501782491
     0.500000001  0.489064058  0.636458884
     0.752333702  0.250271549  0.624926893
     0.000000012  0.750271483  0.375988963
     0.250000012  0.000271483  0.375988963
     0.000000012  0.000271483  0.251856836
     0.250000012  0.750271483  0.251856836
     0.000000034  0.750271519  0.625525054
     0.248158668  0.998774097  0.625931889
     0.000000015  0.999728517  0.499971061
     0.252314560  0.750271518  0.501128046
     0.000000012  0.250271483  0.375988963
     0.250000012  0.500271483  0.375988963
     0.000000012  0.500271483  0.251856836
     0.250000012  0.250271483  0.251856836
     0.000000017  0.250271467  0.626441503
     0.248158646  0.501768877  0.625931815
     0.000000014  0.500814411  0.499971054
     0.250533599  0.250271460  0.500674415
     0.500000012  0.750271483  0.375988963
     0.750000012  0.000271483  0.375988963
     0.500000012  0.000271483  0.251856836
     0.750000012  0.750271483  0.251856836
     0.499999972  0.750272301  0.632609027
     0.751841373  0.998774078  0.625931895
     0.500000008  0.997971315  0.502167211
     0.747685467  0.750271518  0.501128092
     0.500000012  0.250271483  0.375988963
     0.750000012  0.500271483  0.375988963
     0.500000012  0.500271483  0.251856836
     0.750000012  0.250271483  0.251856836
     0.500000019  0.250271401  0.628355073
     0.751841390  0.501768901  0.625931830
     0.500000009  0.502571702  0.502167205
     0.749466433  0.250271458  0.500674433

  ion indices of the primitive-cell ions
   primitive index   ion index
                 1           1
                 2           2
                 3           3
                 4           4
                 5           5
                 6           6
                 7           7
[...]
   O         196.346          4.871         19.158          3.54770692
   O         196.465          4.871         19.163          3.54878154
   O         199.258          4.883         19.299          3.57391643
   O         198.146          4.878         19.245          3.56393316
   O         241.300          5.041         21.238          3.93292153
   O         244.285          5.051         21.369          3.95717326
   O         244.044          5.051         21.358          3.95521959
   O         238.390          5.031         21.109          3.90913043
   O         196.452          4.871         19.163          3.54865842
   O         196.192          4.870         19.150          3.54630910
   O         173.120          4.770         17.989          3.33126906
   O         198.366          4.879         19.256          3.56591092
   O         227.528          4.992         20.623          3.81903772
   O         238.836          5.032         21.129          3.91278567
   O         240.392          5.038         21.198          3.92551153
   O         238.503          5.031         21.114          3.91005459
   O         196.413          4.871         19.161          3.54830784
   O         196.465          4.871         19.163          3.54878188
   O         209.518          4.924         19.790          3.66477237
   O         198.147          4.878         19.245          3.56393433
   O         227.362          4.991         20.615          3.81764640
   O         244.285          5.051         21.369          3.95717313

  vdW correction parametrized for the method pQW<    þ

  IVDW =  21
  VDW_RADIUS =    50.000 A
  VDW_IDAMPF =  0
  VDW_S6 =     1.000
  VDW_SR =     0.960
  VDW_D =    20.000
  LVDW_ONECELL = F F F
  LVDW_SAMETYPE T T
  LVDW_EWALD = F

  Number of pair interactions contributing to vdW energy:  892150
  Edisp (eV):   -3.88214

 VOLUME and BASIS-vectors are now :
  energy-cutoff  :      520.00
  volume of cell :     1211.25
      direct lattice vectors                 reciprocal lattice vectors
     8.440984654  0.000000000  0.000000000     0.118469591  0.000000000  0.000000000
     0.000000000  8.440984654  0.000000000     0.000000000  0.118469591  0.000000000
     0.000000000  0.000000000 17.000000000     0.000000000  0.000000000  0.058823529

  length of vectors
     8.440984654  8.440984654 17.000000000     0.118469591  0.118469591  0.058823529

 FORCES acting on ions
    electron-ion (+dipol)            ewald-force                    non-local-force                 convergence-correction
   0.146E-04 -.117E-03 0.172E+04   -.147E-04 -.215E-04 -.171E+04   -.688E-06 0.381E-03 -.671E+01   0.703E-06 0.950E-06 -.182E+00
   -.628E+00 -.255E+00 0.172E+04   0.641E+00 0.271E+00 -.171E+04   -.845E-02 -.101E-01 -.680E+01   0.593E-04 0.517E-04 -.182E+00
   0.651E-04 -.680E+00 0.568E+03   -.687E-04 0.708E+00 -.568E+03   0.276E-05 -.169E-01 0.310E+00   -.739E-06 -.977E-04 -.843E-01
   -.109E+01 -.300E-04 0.564E+03   0.110E+01 -.133E-03 -.564E+03   -.758E-02 -.202E-03 0.496E+00   0.229E-03 -.238E-06 -.841E-01
   0.312E-04 -.123E-03 -.551E+03   -.380E-04 -.202E-04 0.551E+03   0.664E-05 -.812E-03 0.514E+00   -.582E-06 -.289E-05 0.393E-01
   -.960E+01 0.278E+01 -.576E+03   0.107E+02 -.319E+01 0.576E+03   -.873E+00 0.200E+00 -.640E+00   0.166E-03 -.435E-03 0.417E-01
   0.865E-05 0.135E+01 -.170E+04   -.853E-06 -.750E+00 0.170E+04   -.515E-05 -.584E+00 0.617E+01   -.214E-05 0.362E-03 0.145E+00
   -.508E+02 -.420E-04 -.169E+04   0.516E+02 -.306E-04 0.168E+04   0.743E+00 0.158E-02 0.595E+01   0.107E-02 -.256E-06 0.143E+00
   0.134E-04 -.155E-03 0.172E+04   -.148E-04 0.219E-04 -.171E+04   0.176E-05 0.349E-03 -.672E+01   -.563E-06 -.193E-05 -.182E+00
   -.628E+00 0.254E+00 0.172E+04   0.641E+00 -.271E+00 -.171E+04   -.845E-02 0.108E-01 -.680E+01   0.589E-04 -.516E-04 -.182E+00
   0.681E-04 0.679E+00 0.568E+03   -.707E-04 -.708E+00 -.568E+03   0.157E-05 0.164E-01 0.310E+00   -.140E-06 0.980E-04 -.843E-01
   -.367E+01 -.286E-03 0.564E+03   0.385E+01 0.133E-03 -.565E+03   -.113E+00 -.237E-03 0.606E+00   0.138E-03 -.469E-06 -.844E-01
   0.468E-04 -.225E-03 -.562E+03   -.446E-04 0.622E-04 0.562E+03   -.190E-05 -.124E-02 0.322E+00   -.606E-06 0.271E-05 0.406E-01
   -.960E+01 -.278E+01 -.576E+03   0.107E+02 0.319E+01 0.576E+03   -.873E+00 -.199E+00 -.640E+00   0.161E-03 0.435E-03 0.417E-01
   0.198E-04 -.135E+01 -.170E+04   -.815E-05 0.750E+00 0.170E+04   -.124E-04 0.584E+00 0.617E+01   0.133E-05 -.362E-03 0.145E+00
   -.490E+01 -.242E-03 -.170E+04   0.337E+01 0.401E-04 0.169E+04   0.119E+01 0.115E-02 0.649E+01   -.351E-03 0.135E-05 0.145E+00
   -.128E-04 -.113E-03 0.172E+04   0.149E-04 -.265E-04 -.171E+04   -.178E-05 0.351E-03 -.672E+01   0.244E-06 0.709E-07 -.182E+00
   0.628E+00 -.255E+00 0.172E+04   -.641E+00 0.271E+00 -.171E+04   0.845E-02 -.101E-01 -.680E+01   -.587E-04 0.522E-04 -.182E+00
   -.660E-04 -.324E+01 0.559E+03   0.713E-04 0.344E+01 -.559E+03   -.349E-05 -.121E+00 0.463E+00   -.225E-06 -.176E-03 -.841E-01
   0.109E+01 -.269E-04 0.564E+03   -.110E+01 -.134E-03 -.564E+03   0.758E-02 -.204E-03 0.496E+00   -.229E-03 0.364E-06 -.841E-01
   -.498E-04 0.354E-03 -.592E+03   0.540E-04 -.477E-03 0.593E+03   -.403E-05 0.916E-03 0.191E+00   -.207E-06 0.291E-06 0.392E-01
   0.960E+01 0.278E+01 -.576E+03   -.107E+02 -.319E+01 0.576E+03   0.873E+00 0.200E+00 -.640E+00   -.165E-03 -.434E-03 0.417E-01
   -.437E-04 0.439E+02 -.175E+04   0.323E-04 -.459E+02 0.174E+04   0.111E-04 0.152E+00 0.702E+01   -.171E-05 -.970E-03 0.153E+00
   0.508E+02 -.377E-04 -.169E+04   -.516E+02 -.354E-04 0.168E+04   -.743E+00 0.158E-02 0.595E+01   -.107E-02 0.123E-05 0.143E+00
   -.147E-04 -.161E-03 0.172E+04   0.149E-04 0.264E-04 -.171E+04   -.292E-06 0.341E-03 -.681E+01   0.113E-06 -.136E-05 -.182E+00
   0.628E+00 0.254E+00 0.172E+04   -.641E+00 -.271E+00 -.171E+04   0.845E-02 0.108E-01 -.680E+01   -.604E-04 -.504E-04 -.182E+00
   -.711E-04 0.324E+01 0.559E+03   0.738E-04 -.344E+01 -.559E+03   -.151E-05 0.120E+00 0.463E+00   0.460E-06 0.176E-03 -.841E-01
   0.367E+01 -.291E-03 0.564E+03   -.385E+01 0.137E-03 -.565E+03   0.113E+00 -.236E-03 0.606E+00   -.138E-03 -.431E-06 -.844E-01
   -.550E-04 -.653E-03 -.581E+03   0.507E-04 0.500E-03 0.580E+03   0.328E-05 0.162E-02 0.520E+00   0.618E-06 -.163E-05 0.418E-01
   0.960E+01 -.278E+01 -.576E+03   -.107E+02 0.319E+01 0.576E+03   0.873E+00 -.199E+00 -.640E+00   -.162E-03 0.434E-03 0.417E-01
   -.372E-04 -.439E+02 -.175E+04   0.297E-04 0.459E+02 0.174E+04   0.689E-05 -.152E+00 0.701E+01   0.511E-07 0.970E-03 0.153E+00
   0.490E+01 -.257E-03 -.170E+04   -.337E+01 0.552E-04 0.169E+04   -.119E+01 0.115E-02 0.649E+01   0.351E-03 0.686E-06 0.145E+00
   0.407E-04 0.660E-04 0.428E+03   -.397E-04 -.431E-04 -.428E+03   -.132E-05 -.796E-03 0.172E+00   0.322E-06 -.432E-07 -.662E-01
   -.204E+01 -.403E+00 0.421E+03   0.200E+01 0.385E+00 -.421E+03   0.376E-01 0.177E-01 -.316E+00   0.138E-03 -.102E-03 -.662E-01
   0.195E-04 -.112E+00 0.129E+04   -.113E-04 0.121E+00 -.130E+04   -.738E-05 -.997E-02 0.304E+01   0.104E-06 0.415E-04 -.139E+00
   -.342E+00 0.342E-04 0.129E+04   0.348E+00 -.190E-04 -.130E+04   -.700E-02 0.543E-03 0.305E+01   0.382E-04 -.168E-06 -.139E+00
   -.421E-04 0.530E-05 -.129E+04   0.415E-04 0.509E-04 0.129E+04   0.171E-06 0.187E-02 -.382E+01   0.106E-05 0.749E-06 0.108E+00
   -.142E+02 0.624E+01 -.128E+04   0.153E+02 -.751E+01 0.128E+04   -.106E+01 0.152E+01 -.294E+01   -.143E-03 -.376E-03 0.108E+00
   0.382E-04 -.902E+00 -.417E+03   -.380E-04 0.772E+00 0.417E+03   0.687E-06 0.177E+00 0.518E+00   -.181E-05 -.111E-03 0.245E-01
   -.108E+02 0.149E-03 -.428E+03   0.115E+02 -.146E-03 0.428E+03   -.101E+01 -.158E-02 0.401E-01   0.630E-03 -.804E-06 0.256E-01
   0.466E-04 -.395E-04 0.426E+03   -.473E-04 0.573E-04 -.426E+03   0.632E-06 -.794E-03 0.813E-01   0.613E-07 -.826E-06 -.663E-01
   -.204E+01 0.403E+00 0.421E+03   0.200E+01 -.385E+00 -.421E+03   0.376E-01 -.192E-01 -.316E+00   0.138E-03 0.101E-03 -.662E-01
   0.435E-05 0.112E+00 0.129E+04   -.115E-04 -.121E+00 -.130E+04   0.578E-05 0.110E-01 0.304E+01   0.784E-06 -.392E-04 -.139E+00
   -.568E+00 0.212E-05 0.129E+04   0.590E+00 0.191E-04 -.129E+04   -.265E-01 0.538E-03 0.302E+01   0.474E-04 -.117E-05 -.139E+00
   0.210E-04 0.921E-05 -.129E+04   -.196E-04 -.185E-04 0.129E+04   0.160E-06 0.476E-02 -.376E+01   -.782E-06 0.210E-05 0.109E+00
   -.142E+02 -.624E+01 -.128E+04   0.153E+02 0.751E+01 0.128E+04   -.106E+01 -.152E+01 -.294E+01   -.146E-03 0.375E-03 0.108E+00
   0.391E-04 0.903E+00 -.417E+03   -.409E-04 -.772E+00 0.417E+03   0.791E-06 -.167E+00 0.520E+00   0.503E-06 0.111E-03 0.245E-01
   -.506E+01 -.138E-03 -.422E+03   0.500E+01 0.145E-03 0.421E+03   0.247E-01 -.398E-02 0.793E+00   -.885E-04 -.956E-07 0.249E-01
   -.445E-04 0.100E-03 0.428E+03   0.435E-04 -.912E-04 -.428E+03   0.567E-06 -.796E-03 0.171E+00   0.318E-06 -.525E-06 -.659E-01
   0.204E+01 -.403E+00 0.421E+03   -.200E+01 0.385E+00 -.421E+03   -.376E-01 0.177E-01 -.316E+00   -.137E-03 -.101E-03 -.662E-01
   -.118E-04 -.337E+00 0.129E+04   0.114E-04 0.362E+00 -.129E+04   0.113E-05 -.295E-01 0.301E+01   -.848E-07 0.478E-04 -.139E+00
   0.342E+00 0.344E-04 0.129E+04   -.348E+00 -.192E-04 -.130E+04   0.699E-02 0.543E-03 0.305E+01   -.379E-04 0.745E-06 -.139E+00
   -.576E-04 0.123E-02 -.129E+04   0.614E-04 -.119E-02 0.129E+04   -.118E-05 -.446E-02 -.223E+01   -.110E-05 0.187E-06 0.111E+00
   0.142E+02 0.624E+01 -.128E+04   -.153E+02 -.751E+01 0.128E+04   0.106E+01 0.152E+01 -.294E+01   0.145E-03 -.374E-03 0.108E+00
   -.403E-04 0.348E+01 -.459E+03   0.407E-04 -.426E+01 0.461E+03   0.147E-05 0.106E+01 -.200E+01   -.673E-07 -.844E-03 0.263E-01
   0.108E+02 0.147E-03 -.428E+03   -.115E+02 -.146E-03 0.428E+03   0.101E+01 -.158E-02 0.401E-01   -.629E-03 0.836E-06 0.256E-01
   -.476E-04 -.674E-04 0.418E+03   0.475E-04 0.833E-04 -.418E+03   -.238E-06 -.788E-03 -.292E+00   0.307E-06 -.109E-05 -.662E-01
   0.204E+01 0.403E+00 0.421E+03   -.200E+01 -.385E+00 -.421E+03   -.376E-01 -.192E-01 -.316E+00   -.139E-03 0.101E-03 -.662E-01
   -.136E-04 0.337E+00 0.129E+04   0.116E-04 -.362E+00 -.129E+04   0.256E-05 0.306E-01 0.301E+01   -.494E-06 -.496E-04 -.139E+00
   0.568E+00 0.175E-05 0.129E+04   -.590E+00 0.193E-04 -.129E+04   0.265E-01 0.537E-03 0.302E+01   -.474E-04 -.650E-06 -.139E+00
   -.152E-04 -.109E-02 -.128E+04   0.191E-04 0.125E-02 0.128E+04   -.456E-05 -.467E-02 -.157E+01   0.881E-06 -.215E-05 0.109E+00
   0.142E+02 -.624E+01 -.128E+04   -.153E+02 0.751E+01 0.128E+04   0.106E+01 -.152E+01 -.294E+01   0.145E-03 0.374E-03 0.108E+00
   -.459E-04 -.348E+01 -.459E+03   0.461E-04 0.426E+01 0.461E+03   0.173E-05 -.105E+01 -.199E+01   -.226E-06 0.843E-03 0.263E-01
   0.506E+01 -.148E-03 -.422E+03   -.500E+01 0.160E-03 0.421E+03   -.247E-01 -.399E-02 0.793E+00   0.878E-04 -.655E-06 0.249E-01
   0.167E-04 -.373E-02 0.223E+01   -.192E-12 -.291E-12 0.108E-11   -.869E-05 0.583E-02 -.146E+01   0.600E-06 -.458E-05 -.119E+01

 POSITION                                       TOTAL-FORCE (eV/Angst)
      0.00000      6.33303      4.28157        -0.000000      0.001252      0.532846
      2.11025      0.00229      4.28157         0.003376      0.005599      0.553938
      0.00000      0.00229      6.39181        -0.000001      0.008726      0.032255
      2.11025      6.33303      6.39181        -0.004718     -0.000371      0.066888
      8.44098      6.33303      8.48926        -0.000000     -0.000411     -0.083921
      2.12746      0.00868      8.53030         0.150738     -0.176107     -0.057449
      0.00000      0.02180     10.61555        -0.000000     -0.048825     -0.386469
      2.00198      6.33303     10.59030         1.544015      0.000661     -0.078642
      0.00000      2.11254      4.28157         0.000000      0.001218      0.536770
      2.11025      4.22278      4.28157         0.003377     -0.003133      0.553890
      0.00000      4.22278      6.39181        -0.000001     -0.009455      0.032264
      2.11025      2.11254      6.39181         0.050741     -0.000352      0.016789
      0.00000      2.11254      8.50546        -0.000000     -0.000695     -0.102964
      2.12747      4.21640      8.53030         0.150783      0.177261     -0.057585
      0.00000      4.20328     10.61555        -0.000001      0.048201     -0.385479
      2.09055      2.11254     10.62376        -0.179892      0.000055     -0.512529
      4.22049      6.33303      4.28157         0.000000      0.001214      0.534759
      6.33074      0.00229      4.28157        -0.003376      0.005598      0.553939
      4.22049      0.00229      6.39181         0.000001      0.064034      0.132649
      6.33074      6.33303      6.39181         0.004718     -0.000371      0.066889
      4.22049      6.33303      8.46557        -0.000000      0.001081      1.220279
      6.31352      0.00868      8.53030        -0.150740     -0.176109     -0.057364
      4.22049      0.09690     10.81979        -0.000001     -1.669085     -1.379754
      6.43900      6.33303     10.59030        -1.544016      0.000661     -0.078754
      4.22049      2.11254      4.28157        -0.000000      0.001204      0.558841
      6.33074      4.22278      4.28157        -0.003377     -0.003133      0.553890
      4.22049      4.22278      6.39181         0.000001     -0.064673      0.132670
      6.33074      2.11254      6.39181        -0.050741     -0.000353      0.016790
      4.22049      2.11254      8.53780        -0.000000      0.000560     -0.261491
      6.31352      4.21640      8.53030        -0.150783      0.177262     -0.057503
      4.22049      4.12818     10.81980         0.000000      1.668813     -1.380546
      6.35044      2.11254     10.62376         0.179892      0.000055     -0.512618
      0.00000      6.33303      6.39181        -0.000000     -0.000908      0.018267
      2.11025      0.00229      6.39181         0.007918      0.002314      0.050960
      0.00000      0.00229      4.28157        -0.000001     -0.003533     -0.442610
      2.11025      6.33303      4.28157        -0.001840      0.000236     -0.437497
      0.00000      6.33303     10.63393         0.000001      0.001231      0.134424
      2.09470      8.43064     10.64084        -0.103084      0.533759      0.423651
      0.00000      8.43869      8.49951        -0.000001      0.081942      0.182426
      2.12978      6.33303      8.51918        -0.439727     -0.001591     -0.217890
      0.00000      2.11254      6.39181        -0.000000     -0.000882      0.069388
      2.11025      4.22278      6.39181         0.007941     -0.004087      0.050921
      0.00000      4.22278      4.28157         0.000001      0.004037     -0.442621
      2.11025      2.11254      4.28157        -0.008427      0.000268     -0.447751
      0.00000      2.11254     10.64951         0.000001      0.003618      0.118388
      2.09470      4.23542     10.64084        -0.098645     -0.535828      0.419333
      0.00000      4.22737      8.49951        -0.000001     -0.074296      0.184404
      2.11475      2.11254      8.51147        -0.029836     -0.003508      0.197691
      4.22049      6.33303      6.39181        -0.000000     -0.000940     -0.118422
      6.33074      0.00229      6.39181        -0.007919      0.002314      0.050962
      4.22049      0.00229      4.28157         0.000001     -0.010118     -0.449847
      6.33074      6.33303      4.28157         0.001840      0.000237     -0.437497
      4.22049      6.33304     10.75435         0.000001     -0.003958      0.083812
      6.34628      8.43064     10.64084         0.103086      0.533764      0.423668
      4.22049      8.42386      8.53684         0.000002      0.480687     -0.165293
      6.31120      6.33303      8.51918         0.439728     -0.001589     -0.217881
      4.22049      2.11254      6.39181        -0.000000     -0.000856      0.093783
      6.33074      4.22278      6.39181        -0.007940     -0.004086      0.050926
      4.22049      4.22278      4.28157         0.000000      0.010629     -0.449831
      6.33074      2.11254      4.28157         0.008427      0.000268     -0.447752
      4.22049      2.11254     10.68204        -0.000001     -0.003858      0.564976
      6.34628      4.23542     10.64084         0.098645     -0.535834      0.419346
      4.22049      4.24220      8.53684         0.000002     -0.476304     -0.163406
      6.32623      2.11254      8.51147         0.029836     -0.003509      0.197695
    total drift:                                0.000006      0.017091     -0.538004

  FREE ENERGIE OF THE ION-ELECTRON SYSTEM (eV)
  free  energy   TOTEN  =      -466.68027546 eV

  energy  without entropy=     -466.68027546  energy(sigma->0) =     -466.68027546