 vasp.6.4.2 20Jul23 (build Feb 22 2024 13:53:45) complex
 executed on              LinuxNV date 2024.08.27  18:51:35
 OpenACC runtime initialized ...    4 GPUs detected

 INCAR:
   SYSTEM = Oxide-Surface
   ISMEAR = 0
   SIGMA = 0.05
   EDIFF = 1E-5
   ALGO = Normal
   IBRION = -1
   NSW = 0
   ISYM = 0
   DIPOL = 0.5 0.5 0.5
   IDIPOL = 3
   LDIPOL = .TRUE.
   ISTART = 0
   LHFCALC = .FALSE.
   GGA = PE
   IVDW = 21
   VDW_SR = 0.96
   HFRCUT = -1
   ENCUT = 520
   PREC = Normal
   PRECFOCK = Normal
   LASPH = .TRUE.
   LREAL = Auto
   ISPIN = 1
   NELM = 200
   NELMIN = 8
   NCORE = 1
   KPAR = 1
   LWAVE = .TRUE.
   LCHARG = .FALSE.

 POTCAR:    PAW_PBE Mg_pv 13Apr2007
 POTCAR:    PAW_PBE O 08Apr2002
 POTCAR:    PAW_PBE Mg_pv 13Apr2007
   VRHFIN =Mg: p6s2

   TITEL  = PAW_PBE Mg_pv 13Apr2007
   POMASS =   24.305; ZVAL   =    8.000    mass and valenz
   ENMAX  =  403.929; ENMIN  =  302.947 eV

   TITEL  = PAW_PBE O 08Apr2002
   POMASS =   16.000; ZVAL   =    6.000    mass and valenz
   ENMAX  =  400.000; ENMIN  =  300.000 eV

 Optimization of the real space projectors (new method)

 maximal supplied QI-value         = 18.90
 optimisation between [QCUT,QGAM] = [ 11.53, 23.24] = [ 37.21,151.29] Ry
 Optimized for a Real-space Cutoff    1.21 Angstroem

   l    n(q)    QCUT    max X(q) W(low)/X(q) W(high)/X(q)  e(spline)
   1      8    11.527     2.974    0.16E-03    0.13E-03    0.98E-07
   1      8    11.527     4.279    0.42E-03    0.30E-03    0.22E-06
   0      8    11.527    16.381    0.13E-03    0.20E-03    0.72E-07
   0      8    11.527     5.611    0.88E-04    0.13E-03    0.50E-07
   2      7    11.527     4.652    0.25E-03    0.73E-04    0.51E-07
 Optimization of the real space projectors (new method)

 maximal supplied QI-value         = 24.76
 optimisation between [QCUT,QGAM] = [ 11.64, 23.27] = [ 37.91,151.63] Ry
 Optimized for a Real-space Cutoff    1.04 Angstroem

   l    n(q)    QCUT    max X(q) W(low)/X(q) W(high)/X(q)  e(spline)
   0      7    11.635    20.381    0.14E-03    0.49E-03    0.18E-06
   0      7    11.635    15.268    0.16E-03    0.52E-03    0.19E-06
   1      7    11.635     5.964    0.30E-03    0.44E-03    0.22E-06
   1      7    11.635     5.382    0.27E-03    0.34E-03    0.19E-06
  PAW_PBE Mg_pv 13Apr2007               :
  PAW_PBE O 08Apr2002                   :

 POSCAR: Mg  O
  positions in direct lattice
 exchange correlation table for  LEXCH =        8
   RHO(1)=    0.500       N(1)  =     2000
   RHO(2)=  100.500       N(2)  =     4000

 ion  position               nearest neighbor table
   1  0.000  0.750  0.252-  33 2.11  35 2.11  36 2.11  43 2.11  52 2.11
   2  0.250  0.000  0.252-  34 2.11  35 2.11  36 2.11  44 2.11  51 2.11
   3  0.000  0.000  0.376-  39 2.11  35 2.11  33 2.11  34 2.11  41 2.11  50 2.11
   4  0.250  0.750  0.376-  36 2.11  34 2.11  33 2.11  42 2.11  49 2.11  40 2.13
   5  1.000  0.750  0.499-  33 2.10  47 2.11  39 2.11  56 2.13  40 2.13  37 2.14
   6  0.252  0.001  0.502-  55 2.09  48 2.10  38 2.11  40 2.12  39 2.13  34 2.14
   7  0.000  0.003  0.624-  45 2.09  38 2.10  54 2.10  39 2.12  37 2.13
   8  0.237  0.750  0.623-  37 2.00  40 2.08  46 2.10  38 2.10  53 2.22
   9  0.000  0.250  0.252-  41 2.11  35 2.11  43 2.11  44 2.11  60 2.11
  10  0.250  0.500  0.252-  42 2.11  36 2.11  43 2.11  44 2.11  59 2.11
  11  0.000  0.500  0.376-  47 2.11  43 2.11  42 2.11  33 2.11  41 2.11  58 2.11
  12  0.250  0.250  0.376-  44 2.11  41 2.11  42 2.11  34 2.11  57 2.11  48 2.12
  13  0.000  0.250  0.500-  41 2.11  48 2.11  64 2.11  47 2.11  39 2.11  45 2.14
  14  0.252  0.500  0.502-  63 2.09  48 2.10  46 2.11  40 2.12  47 2.13  42 2.14
  15  0.000  0.498  0.624-  45 2.09  46 2.10  62 2.10  47 2.12  37 2.13
  16  0.248  0.250  0.625-  45 2.09  48 2.11  46 2.12  38 2.12  61 2.13
  17  0.500  0.750  0.252-  49 2.11  36 2.11  51 2.11  52 2.11  59 2.11
  18  0.750  0.000  0.252-  50 2.11  35 2.11  51 2.11  52 2.11  60 2.11
  19  0.500  0.000  0.376-  51 2.11  49 2.11  50 2.11  34 2.11  57 2.11  55 2.15
  20  0.750  0.750  0.376-  52 2.11  49 2.11  50 2.11  33 2.11  58 2.11  56 2.13
  21  0.500  0.750  0.498-  49 2.07  56 2.09  40 2.09  63 2.09  55 2.09
  22  0.748  0.001  0.502-  55 2.09  64 2.10  54 2.11  56 2.12  39 2.13  50 2.14
  23  0.500  0.011  0.636-  61 2.02  38 2.14  54 2.14  53 2.21
  24  0.763  0.750  0.623-  37 2.00  56 2.08  62 2.10  54 2.10  53 2.22
  25  0.500  0.250  0.252-  57 2.11  51 2.11  44 2.11  59 2.11  60 2.11
  26  0.750  0.500  0.252-  58 2.11  52 2.11  43 2.11  59 2.11  60 2.11
  27  0.500  0.500  0.376-  59 2.11  49 2.11  57 2.11  58 2.11  42 2.11  63 2.15
  28  0.750  0.250  0.376-  60 2.11  50 2.11  57 2.11  58 2.11  41 2.11  64 2.12
  29  0.500  0.250  0.502-  48 2.11  64 2.11  63 2.13  55 2.13  61 2.14  57 2.15
  30  0.748  0.500  0.502-  63 2.09  64 2.10  62 2.11  56 2.12  47 2.13  58 2.14
  31  0.500  0.489  0.636-  61 2.02  46 2.14  62 2.14  53 2.21
  32  0.752  0.250  0.625-  45 2.09  64 2.11  62 2.12  54 2.12  61 2.13
  33  0.000  0.750  0.376-   5 2.10   1 2.11   4 2.11   3 2.11  11 2.11  20 2.11
  34  0.250  0.000  0.376-   2 2.11   3 2.11   4 2.11  12 2.11  19 2.11   6 2.14
  35  0.000  0.000  0.252-   3 2.11   2 2.11   1 2.11   9 2.11  18 2.11
  36  0.250  0.750  0.252-   4 2.11   2 2.11   1 2.11  10 2.11  17 2.11
  37  0.000  0.750  0.626-   8 2.00  24 2.00   7 2.13  15 2.13   5 2.14
  38  0.248  0.999  0.626-   7 2.10   8 2.10   6 2.11  16 2.12  23 2.14
  39  0.000  1.000  0.500-   5 2.11   3 2.11  13 2.11   7 2.12   6 2.13  22 2.13
  40  0.252  0.750  0.501-   8 2.08  21 2.09   6 2.12  14 2.12   4 2.13   5 2.13
  41  0.000  0.250  0.376-   9 2.11   3 2.11  11 2.11  12 2.11  28 2.11  13 2.11
  42  0.250  0.500  0.376-  10 2.11   4 2.11  11 2.11  12 2.11  27 2.11  14 2.14
  43  0.000  0.500  0.252-  11 2.11   9 2.11  10 2.11   1 2.11  26 2.11
  44  0.250  0.250  0.252-  12 2.11   9 2.11  10 2.11   2 2.11  25 2.11
  45  0.000  0.250  0.626-  16 2.09  32 2.09   7 2.09  15 2.09  13 2.14
  46  0.248  0.502  0.626-  15 2.10   8 2.10  14 2.11  16 2.12  31 2.14
  47  0.000  0.501  0.500-   5 2.11  11 2.11  13 2.11  15 2.12  14 2.13  30 2.13
  48  0.251  0.250  0.501-   6 2.10  14 2.10  29 2.11  16 2.11  13 2.11  12 2.12
  49  0.500  0.750  0.376-  21 2.07  17 2.11  19 2.11  20 2.11   4 2.11  27 2.11
  50  0.750  0.000  0.376-  18 2.11   3 2.11  19 2.11  20 2.11  28 2.11  22 2.14
  51  0.500  0.000  0.252-  19 2.11  17 2.11  18 2.11   2 2.11  25 2.11
  52  0.750  0.750  0.252-  20 2.11  17 2.11  18 2.11   1 2.11  26 2.11
  53  0.500  0.750  0.633-  23 2.21  31 2.21   8 2.22  24 2.22
  54  0.752  0.999  0.626-   7 2.10  24 2.10  22 2.11  32 2.12  23 2.14
  55  0.500  0.998  0.502-  21 2.09   6 2.09  22 2.09  29 2.13  19 2.15
  56  0.748  0.750  0.501-  24 2.08  21 2.09  22 2.12  30 2.12  20 2.13   5 2.13
  57  0.500  0.250  0.376-  25 2.11  19 2.11  12 2.11  27 2.11  28 2.11  29 2.15
  58  0.750  0.500  0.376-  26 2.11  20 2.11  11 2.11  27 2.11  28 2.11  30 2.14
  59  0.500  0.500  0.252-  27 2.11  17 2.11  25 2.11  26 2.11  10 2.11
  60  0.750  0.250  0.252-  28 2.11  18 2.11  25 2.11  26 2.11   9 2.11
  61  0.500  0.250  0.628-  23 2.02  31 2.02  32 2.13  16 2.13  29 2.14
  62  0.752  0.502  0.626-  15 2.10  24 2.10  30 2.11  32 2.12  31 2.14
  63  0.500  0.503  0.502-  21 2.09  14 2.09  30 2.09  29 2.13  27 2.15
  64  0.749  0.250  0.501-  22 2.10  30 2.10  29 2.11  32 2.11  13 2.11  28 2.12

IMPORTANT INFORMATION: All symmetrisations will be switched off!
NOSYMM: (Re-)initialisation of all symmetry stuff for point group C_1.

                                     Primitive cell

  volume of cell :    1211.2538

  direct lattice vectors                    reciprocal lattice vectors
     8.440984654  0.000000000  0.000000000     0.118469591  0.000000000  0.000000000
     0.000000000  8.440984654  0.000000000     0.000000000  0.118469591  0.000000000
     0.000000000  0.000000000 17.000000000     0.000000000  0.000000000  0.058823529

  length of vectors
     8.440984654  8.440984654 17.000000000     0.118469591  0.118469591  0.058823529

  position of ions in fractional coordinates (direct lattice)
     0.000000012  0.750271483  0.251856836
     0.250000012  0.000271483  0.251856836
     0.000000012  0.000271483  0.375988963
     0.250000012  0.750271483  0.375988963
     0.999999988  0.750271429  0.499368462
     0.252039891  0.001028111  0.501782346
     0.000000034  0.002582678  0.624444171
     0.237174200  0.750271417  0.622958809
     0.000000012  0.250271483  0.251856836
     0.250000012  0.500271483  0.251856836
     0.000000012  0.500271483  0.375988963
     0.250000012  0.250271483  0.375988963
     0.000000025  0.250271481  0.500321386
     0.252039913  0.499514860  0.501782439
     0.000000033  0.497960304  0.624444240
     0.247666331  0.250271551  0.624926941
     0.500000012  0.750271483  0.251856836
     0.750000012  0.000271483  0.251856836
     0.500000012  0.000271483  0.375988963
     0.750000012  0.750271483  0.375988963
     0.500000031  0.750271498  0.497974947
     0.747960134  0.001028090  0.501782397
     0.500000002  0.011479476  0.636458488
     0.762825859  0.750271422  0.622958927
     0.500000012  0.250271483  0.251856836
     0.750000012  0.500271483  0.251856836
     0.500000012  0.500271483  0.375988963
     0.750000012  0.250271483  0.375988963
     0.500000005  0.250271518  0.502223723
     0.747960113  0.499514886  0.501782491
     0.500000001  0.489064058  0.636458884
     0.752333702  0.250271549  0.624926893
     0.000000012  0.750271483  0.375988963
     0.250000012  0.000271483  0.375988963
     0.000000012  0.000271483  0.251856836
     0.250000012  0.750271483  0.251856836
     0.000000034  0.750271519  0.625525054
     0.248158668  0.998774097  0.625931889
     0.000000015  0.999728517  0.499971061
     0.252314560  0.750271518  0.501128046
     0.000000012  0.250271483  0.375988963
     0.250000012  0.500271483  0.375988963
     0.000000012  0.500271483  0.251856836
     0.250000012  0.250271483  0.251856836
     0.000000017  0.250271467  0.626441503
     0.248158646  0.501768877  0.625931815
     0.000000014  0.500814411  0.499971054
     0.250533599  0.250271460  0.500674415
     0.500000012  0.750271483  0.375988963
     0.750000012  0.000271483  0.375988963
     0.500000012  0.000271483  0.251856836
     0.750000012  0.750271483  0.251856836
     0.499999972  0.750272301  0.632609027
     0.751841373  0.998774078  0.625931895
     0.500000008  0.997971315  0.502167211
     0.747685467  0.750271518  0.501128092
     0.500000012  0.250271483  0.375988963
     0.750000012  0.500271483  0.375988963
     0.500000012  0.500271483  0.251856836
     0.750000012  0.250271483  0.251856836
     0.500000019  0.250271401  0.628355073
     0.751841390  0.501768901  0.625931830
     0.500000009  0.502571702  0.502167205
     0.749466433  0.250271458  0.500674433

  ion indices of the primitive-cell ions
   primitive index   ion index
                 1           1
                 2           2
                 3           3
                 4           4
                 5           5
                 6           6
                 7           7
[...]
   O         182.387          4.811         18.464          3.41926532
   O         166.134          4.737         17.622          3.26336467
   O         166.159          4.737         17.623          3.26360904
   O         180.066          4.801         18.346          3.39743955
   O         167.901          4.745         17.716          3.28066880
   O         175.352          4.780         18.104          3.35267595
   O         186.779          4.830         18.685          3.46019554

  vdW correction parametrized for the method 0º    þ

  IVDW =  21
  VDW_RADIUS =    50.000 A
  VDW_IDAMPF =  0
  VDW_S6 =     1.000
  VDW_SR =     0.960
  VDW_D =    20.000
  LVDW_ONECELL = F F F
  LVDW_SAMETYPE T T
  LVDW_EWALD = F

  Number of pair interactions contributing to vdW energy:  892150
  Edisp (eV):   -3.55455

  FORCE on cell =-STRESS in cart. coord.  units (eV):
  Direction    XX          YY          ZZ          XY          YZ          ZX
  Alpha Z  1098.23100  1098.23100  1098.23100
  Ewald   85717.48564 85735.12996************    -0.00000     0.00043    -0.00002
  Hartree 96395.67892 96408.13054-89978.71370     0.00001     0.00001    -0.00002
  E(xc)   -2456.24173 -2456.22471 -2461.57226     0.00000    -0.00002    -0.00000
  Local  ************************192157.35768    -0.00000    -0.00004     0.00004
  n-local -2809.40867 -2809.29512 -2830.76749    -0.00000     0.02162     0.00000
  augment  1047.70939  1047.72144  1037.69505    -0.00000    -0.00069     0.00000
  Kinetic  7301.04026  7300.39288  7340.53452     0.00000     0.00001    -0.00000
  Fock        0.00000     0.00000     0.00000     0.00000     0.00000     0.00000
  vdW        -5.05297    -5.05336    -3.44409    -0.00000    -0.00000    -0.00000
  Total     -20.98161   -21.37297     2.86222     0.00000     0.02131    -0.00000
  in kB     -27.75327   -28.27094     3.78598     0.00000     0.02819    -0.00000

 VOLUME and BASIS-vectors are now :
  energy-cutoff  :      520.00
  volume of cell :     1211.25
      direct lattice vectors                 reciprocal lattice vectors
     8.440984654  0.000000000  0.000000000     0.118469591  0.000000000  0.000000000
     0.000000000  8.440984654  0.000000000     0.000000000  0.118469591  0.000000000
     0.000000000  0.000000000 17.000000000     0.000000000  0.000000000  0.058823529

  length of vectors
     8.440984654  8.440984654 17.000000000     0.118469591  0.118469591  0.058823529

 FORCES acting on ions
    electron-ion (+dipol)            ewald-force                    non-local-force                 convergence-correction
   0.624E-04 -.145E-03 0.172E+04   -.147E-04 -.215E-04 -.171E+04   0.114E-04 0.161E-02 -.699E+01   -.551E-04 0.143E-04 -.267E-03
   -.629E+00 -.255E+00 0.172E+04   0.641E+00 0.271E+00 -.171E+04   -.898E-02 -.985E-02 -.708E+01   -.835E-04 0.361E-04 -.292E-03
   0.742E-04 -.681E+00 0.568E+03   -.687E-04 0.708E+00 -.568E+03   -.148E-05 -.185E-01 0.352E+00   -.492E-05 0.106E-03 0.119E-02
   -.111E+01 -.403E-04 0.564E+03   0.110E+01 -.133E-03 -.564E+03   0.165E-02 -.102E-03 0.549E+00   0.635E-04 0.388E-05 0.128E-02
   0.334E-04 -.131E-03 -.551E+03   -.380E-04 -.202E-04 0.551E+03   0.973E-05 -.170E-03 0.544E+00   -.600E-05 -.247E-04 0.168E-02
   -.968E+01 0.283E+01 -.576E+03   0.107E+02 -.319E+01 0.576E+03   -.925E+00 0.201E+00 -.669E+00   -.938E-04 0.169E-04 0.159E-02
   0.692E-05 0.135E+01 -.170E+04   -.853E-06 -.750E+00 0.170E+04   -.431E-05 -.646E+00 0.644E+01   -.290E-05 -.787E-04 0.435E-03
   -.508E+02 -.753E-05 -.169E+04   0.516E+02 -.306E-04 0.168E+04   0.740E+00 0.106E-02 0.619E+01   -.838E-04 -.499E-04 0.317E-03
   0.246E-04 -.166E-03 0.172E+04   -.148E-04 0.219E-04 -.171E+04   -.277E-05 0.161E-02 -.700E+01   -.720E-05 -.104E-04 -.167E-03
   -.629E+00 0.255E+00 0.172E+04   0.641E+00 -.271E+00 -.171E+04   -.898E-02 0.131E-01 -.708E+01   -.574E-04 -.340E-04 -.286E-03
   0.779E-04 0.681E+00 0.568E+03   -.707E-04 -.708E+00 -.568E+03   0.776E-05 0.183E-01 0.352E+00   -.176E-04 -.107E-03 0.121E-02
   -.367E+01 -.313E-03 0.564E+03   0.385E+01 0.133E-03 -.565E+03   -.126E+00 -.100E-03 0.667E+00   -.111E-03 -.217E-05 0.122E-02
   0.512E-04 -.251E-03 -.562E+03   -.446E-04 0.622E-04 0.562E+03   0.850E-05 -.413E-03 0.320E+00   -.193E-04 0.201E-04 0.141E-02
   -.968E+01 -.283E+01 -.576E+03   0.107E+02 0.319E+01 0.576E+03   -.925E+00 -.199E+00 -.669E+00   -.118E-03 -.143E-04 0.165E-02
   -.328E-04 -.135E+01 -.170E+04   -.815E-05 0.750E+00 0.170E+04   -.322E-05 0.646E+00 0.644E+01   0.400E-04 0.824E-04 0.396E-03
   -.483E+01 -.298E-03 -.170E+04   0.337E+01 0.401E-04 0.169E+04   0.129E+01 0.439E-03 0.677E+01   -.497E-05 0.295E-04 0.486E-03
   -.643E-04 -.115E-03 0.172E+04   0.149E-04 -.265E-04 -.171E+04   -.818E-05 0.162E-02 -.699E+01   0.529E-04 -.187E-04 -.183E-03
   0.629E+00 -.255E+00 0.172E+04   -.641E+00 0.271E+00 -.171E+04   0.898E-02 -.984E-02 -.708E+01   0.848E-04 -.566E-05 -.269E-03
   -.792E-04 -.323E+01 0.559E+03   0.713E-04 0.344E+01 -.559E+03   0.585E-05 -.144E+00 0.506E+00   0.221E-05 -.532E-04 0.114E-02
   0.111E+01 -.373E-04 0.564E+03   -.110E+01 -.134E-03 -.564E+03   -.165E-02 -.937E-04 0.549E+00   -.586E-04 -.736E-05 0.123E-02
   -.528E-04 0.339E-03 -.592E+03   0.540E-04 -.477E-03 0.593E+03   -.832E-05 0.150E-02 0.164E+00   0.676E-05 0.835E-06 0.155E-02
   0.968E+01 0.283E+01 -.576E+03   -.107E+02 -.319E+01 0.576E+03   0.925E+00 0.201E+00 -.669E+00   0.101E-03 0.334E-04 0.159E-02
   -.419E-04 0.440E+02 -.175E+04   0.323E-04 -.459E+02 0.174E+04   0.830E-05 0.216E+00 0.733E+01   0.874E-06 -.235E-04 0.269E-03
   0.508E+02 -.578E-04 -.169E+04   -.516E+02 -.354E-04 0.168E+04   -.740E+00 0.106E-02 0.619E+01   0.867E-04 0.250E-06 0.325E-03
   -.219E-04 -.194E-03 0.172E+04   0.149E-04 0.264E-04 -.171E+04   -.679E-06 0.161E-02 -.709E+01   0.702E-05 0.123E-04 -.231E-03
   0.629E+00 0.255E+00 0.172E+04   -.641E+00 -.271E+00 -.171E+04   0.898E-02 0.131E-01 -.708E+01   0.526E-04 0.112E-04 -.258E-03
   -.818E-04 0.323E+01 0.559E+03   0.738E-04 -.344E+01 -.559E+03   -.805E-05 0.143E+00 0.506E+00   0.194E-04 0.523E-04 0.112E-02
   0.367E+01 -.314E-03 0.564E+03   -.385E+01 0.137E-03 -.565E+03   0.126E+00 -.105E-03 0.667E+00   0.105E-03 0.352E-05 0.124E-02
   -.596E-04 -.676E-03 -.581E+03   0.507E-04 0.500E-03 0.580E+03   -.973E-05 0.106E-02 0.584E+00   0.219E-04 0.952E-05 0.135E-02
   0.968E+01 -.283E+01 -.576E+03   -.107E+02 0.319E+01 0.576E+03   0.925E+00 -.199E+00 -.669E+00   0.113E-03 -.261E-04 0.158E-02
   0.142E-05 -.440E+02 -.175E+04   0.297E-04 0.459E+02 0.174E+04   0.345E-06 -.215E+00 0.733E+01   -.277E-04 0.375E-04 0.250E-03
   0.483E+01 -.274E-03 -.170E+04   -.337E+01 0.552E-04 0.169E+04   -.129E+01 0.436E-03 0.677E+01   0.349E-05 -.320E-05 0.495E-03
   0.492E-04 0.685E-04 0.428E+03   -.397E-04 -.431E-04 -.428E+03   0.508E-05 -.678E-03 0.217E+00   -.140E-04 -.171E-05 0.979E-03
   -.204E+01 -.400E+00 0.421E+03   0.200E+01 0.385E+00 -.421E+03   0.431E-01 0.162E-01 -.322E+00   -.412E-04 0.167E-04 0.957E-03
   0.124E-04 -.112E+00 0.129E+04   -.113E-04 0.121E+00 -.130E+04   0.408E-05 -.114E-01 0.348E+01   -.156E-05 0.349E-04 0.745E-04
   -.343E+00 0.394E-04 0.129E+04   0.348E+00 -.190E-04 -.130E+04   -.676E-02 0.438E-03 0.350E+01   -.113E-04 -.154E-05 0.563E-04
   -.374E-04 0.166E-05 -.129E+04   0.415E-04 0.509E-04 0.129E+04   -.492E-05 0.129E-02 -.431E+01   -.720E-06 -.288E-05 0.264E-03
   -.142E+02 0.634E+01 -.128E+04   0.153E+02 -.751E+01 0.128E+04   -.118E+01 0.165E+01 -.333E+01   -.123E-04 -.255E-04 0.287E-03
   0.388E-04 -.888E+00 -.417E+03   -.380E-04 0.772E+00 0.417E+03   0.676E-05 0.191E+00 0.573E+00   -.709E-05 0.446E-04 0.962E-03
   -.108E+02 0.155E-03 -.428E+03   0.115E+02 -.146E-03 0.428E+03   -.110E+01 -.131E-02 0.708E-01   -.176E-04 -.802E-05 0.935E-03
   0.501E-04 -.395E-04 0.426E+03   -.473E-04 0.573E-04 -.426E+03   0.415E-05 -.674E-03 0.117E+00   -.694E-05 0.110E-05 0.958E-03
   -.204E+01 0.400E+00 0.421E+03   0.200E+01 -.385E+00 -.421E+03   0.431E-01 -.175E-01 -.322E+00   -.441E-04 -.173E-04 0.960E-03
   0.100E-04 0.112E+00 0.129E+04   -.115E-04 -.121E+00 -.130E+04   0.935E-05 0.123E-01 0.348E+01   -.530E-05 -.281E-04 0.704E-04
   -.568E+00 0.878E-05 0.129E+04   0.590E+00 0.191E-04 -.129E+04   -.300E-01 0.434E-03 0.346E+01   -.569E-04 -.308E-05 0.845E-04
   0.230E-04 0.403E-05 -.129E+04   -.196E-04 -.185E-04 0.129E+04   0.211E-06 0.353E-02 -.424E+01   -.535E-05 0.242E-05 0.137E-03
   -.142E+02 -.634E+01 -.128E+04   0.153E+02 0.751E+01 0.128E+04   -.117E+01 -.166E+01 -.333E+01   -.105E-04 0.229E-04 0.272E-03
   0.425E-04 0.888E+00 -.417E+03   -.409E-04 -.772E+00 0.417E+03   0.405E-05 -.184E+00 0.575E+00   -.357E-05 -.423E-04 0.968E-03
   -.507E+01 -.139E-03 -.422E+03   0.500E+01 0.145E-03 0.421E+03   0.373E-01 -.311E-02 0.874E+00   -.934E-04 0.717E-05 0.935E-03
   -.534E-04 0.103E-03 0.428E+03   0.435E-04 -.912E-04 -.428E+03   -.149E-05 -.677E-03 0.236E+00   0.133E-04 0.307E-05 0.937E-03
   0.204E+01 -.400E+00 0.421E+03   -.200E+01 0.385E+00 -.421E+03   -.431E-01 0.162E-01 -.322E+00   0.410E-04 0.150E-04 0.951E-03
   -.131E-04 -.337E+00 0.129E+04   0.114E-04 0.362E+00 -.129E+04   -.736E-05 -.346E-01 0.345E+01   0.760E-05 -.197E-04 0.881E-04
   0.343E+00 0.460E-04 0.129E+04   -.348E+00 -.192E-04 -.130E+04   0.677E-02 0.438E-03 0.350E+01   0.490E-05 -.638E-05 0.674E-04
   -.655E-04 0.124E-02 -.129E+04   0.614E-04 -.119E-02 0.129E+04   -.121E-05 -.346E-02 -.254E+01   0.425E-05 -.197E-05 -.642E-04
   0.142E+02 0.634E+01 -.128E+04   -.153E+02 -.751E+01 0.128E+04   0.118E+01 0.165E+01 -.333E+01   0.130E-04 -.148E-04 0.281E-03
   -.410E-04 0.356E+01 -.459E+03   0.407E-04 -.426E+01 0.461E+03   -.328E-05 0.115E+01 -.219E+01   0.464E-05 -.149E-04 0.984E-03
   0.108E+02 0.161E-03 -.428E+03   -.115E+02 -.146E-03 0.428E+03   0.110E+01 -.131E-02 0.708E-01   0.126E-04 -.126E-04 0.928E-03
   -.522E-04 -.655E-04 0.418E+03   0.475E-04 0.833E-04 -.418E+03   -.648E-05 -.662E-03 -.305E+00   0.973E-05 0.785E-06 0.944E-03
   0.204E+01 0.400E+00 0.421E+03   -.200E+01 -.385E+00 -.421E+03   -.431E-01 -.175E-01 -.322E+00   0.438E-04 -.149E-04 0.959E-03
   -.142E-04 0.337E+00 0.129E+04   0.116E-04 -.362E+00 -.129E+04   -.633E-05 0.355E-01 0.345E+01   0.387E-05 0.130E-04 0.905E-04
   0.568E+00 0.356E-05 0.129E+04   -.590E+00 0.193E-04 -.129E+04   0.300E-01 0.435E-03 0.346E+01   0.565E-04 0.921E-06 0.914E-04
   -.291E-04 -.108E-02 -.127E+04   0.191E-04 0.125E-02 0.128E+04   0.152E-05 -.362E-02 -.182E+01   0.108E-04 -.913E-05 0.296E-03
   0.142E+02 -.634E+01 -.128E+04   -.153E+02 0.751E+01 0.128E+04   0.117E+01 -.166E+01 -.333E+01   0.124E-04 0.226E-04 0.275E-03
   -.470E-04 -.356E+01 -.459E+03   0.461E-04 0.426E+01 0.461E+03   -.233E-06 -.114E+01 -.219E+01   0.382E-05 0.211E-04 0.990E-03
   0.507E+01 -.156E-03 -.422E+03   -.500E+01 0.160E-03 0.421E+03   -.373E-01 -.312E-02 0.874E+00   0.985E-04 0.996E-05 0.927E-03
   -.809E-05 -.425E-02 0.150E+00   -.192E-12 -.291E-12 0.108E-11   0.253E-05 0.173E-01 -.715E+00   0.185E-04 0.326E-05 0.407E-01

 POSITION                                       TOTAL-FORCE (eV/Angst)
      0.00000      6.33303      4.28157         0.000004      0.001258      0.309386
      2.11025      0.00229      4.28157         0.003160      0.005391      0.328539
      0.00000      0.00229      6.39181        -0.000001      0.008559      0.029682
      2.11025      6.33303      6.39181        -0.008617     -0.000476      0.064497
      8.44098      6.33303      8.48926        -0.000001     -0.000550     -0.075657
      2.12746      0.00868      8.53030         0.132640     -0.162111     -0.067542
      0.00000      0.02180     10.61555        -0.000001     -0.046624     -0.189631
      2.00198      6.33303     10.59030         1.522900      0.000768      0.110744
      0.00000      2.11254      4.28157        -0.000000      0.001255      0.312600
      2.11025      4.22278      4.28157         0.003158     -0.002885      0.328520
      0.00000      4.22278      6.39181        -0.000003     -0.009532      0.029674
      2.11025      2.11254      6.39181         0.048967     -0.000485      0.019639
      0.00000      2.11254      8.50546        -0.000004     -0.000785     -0.088557
      2.12747      4.21640      8.53030         0.132697      0.163286     -0.067651
      0.00000      4.20328     10.61555        -0.000004      0.046224     -0.188731
      2.09055      2.11254     10.62376        -0.163137      0.000009     -0.306230
      4.22049      6.33303      4.28157        -0.000005      0.001252      0.310225
      6.33074      0.00229      4.28157        -0.003160      0.005396      0.328512
      4.22049      0.00229      6.39181        -0.000000      0.065974      0.130770
      6.33074      6.33303      6.39181         0.008618     -0.000477      0.064503
      4.22049      6.33303      8.46557        -0.000001      0.001161      1.201515
      6.31352      0.00868      8.53030        -0.132638     -0.162109     -0.067461
      4.22049      0.09690     10.81979        -0.000001     -1.627993     -1.138228
      6.43900      6.33303     10.59030        -1.522893      0.000762      0.110635
      4.22049      2.11254      4.28157        -0.000001      0.001251      0.334048
      6.33074      4.22278      4.28157        -0.003159     -0.002889      0.328535
      4.22049      4.22278      6.39181         0.000003     -0.066923      0.130772
      6.33074      2.11254      6.39181        -0.048967     -0.000482      0.019647
      4.22049      2.11254      8.53780         0.000003      0.000694     -0.248938
      6.31352      4.21640      8.53030        -0.132696      0.163284     -0.067565
      4.22049      4.12818     10.81980         0.000004      1.627756     -1.139106
      6.35044      2.11254     10.62376         0.163136      0.000013     -0.306322
      0.00000      6.33303      6.39181         0.000000     -0.000859      0.027467
      2.11025      0.00229      6.39181         0.006632      0.000988      0.072520
      0.00000      0.00229      4.28157         0.000003     -0.003230     -0.525903
      2.11025      6.33303      4.28157        -0.001580      0.000251     -0.520777
      0.00000      6.33303     10.63393        -0.000002      0.001135      0.244152
      2.09470      8.43064     10.64084        -0.073384      0.488357      0.511560
      0.00000      8.43869      8.49951         0.000000      0.075315      0.161352
      2.12978      6.33303      8.51918        -0.408709     -0.001517     -0.220257
      0.00000      2.11254      6.39181        -0.000000     -0.000858      0.081279
      2.11025      4.22278      6.39181         0.006635     -0.002690      0.072513
      0.00000      4.22278      4.28157         0.000002      0.003739     -0.525908
      2.11025      2.11254      4.28157        -0.008090      0.000257     -0.530873
      0.00000      2.11254     10.64951        -0.000002      0.003316      0.228062
      2.09470      4.23542     10.64084        -0.069285     -0.490254      0.507621
      0.00000      4.22737      8.49951         0.000002     -0.068331      0.163230
      2.11475      2.11254      8.51147        -0.029023     -0.003306      0.167921
      4.22049      6.33303      6.39181         0.000002     -0.000871     -0.103720
      6.33074      0.00229      6.39181        -0.006631      0.000986      0.072522
      4.22049      0.00229      4.28157        -0.000002     -0.009725     -0.532577
      6.33074      6.33303      4.28157         0.001582      0.000253     -0.520792
      4.22049      6.33304     10.75435        -0.000001     -0.003627      0.156095
      6.34628      8.43064     10.64084         0.073385      0.488361      0.511572
      4.22049      8.42386      8.53684         0.000001      0.447484     -0.118811
      6.31120      6.33303      8.51918         0.408710     -0.001515     -0.220243
      4.22049      2.11254      6.39181        -0.000002     -0.000842      0.112959
      6.33074      4.22278      6.39181        -0.006635     -0.002686      0.072516
      4.22049      4.22278      4.28157        -0.000005      0.010236     -0.532586
      6.33074      2.11254      4.28157         0.008090      0.000257     -0.530874
      4.22049      2.11254     10.68204         0.000002     -0.003659      0.620656
      6.34628      4.23542     10.64084         0.069284     -0.490260      0.507621
      4.22049      4.24220      8.53684         0.000002     -0.443371     -0.117042
      6.32623      2.11254      8.51147         0.029020     -0.003308      0.167922
    total drift:                                0.000013      0.013033     -0.524171

  FREE ENERGIE OF THE ION-ELECTRON SYSTEM (eV)
  free  energy   TOTEN  =      -374.99177477 eV

  energy  without entropy=     -374.99177477  energy(sigma->0) =     -374.99177477

 writing wavefunctions