 vasp.6.3.0 20Jan22 (build Mar 11 2022 13:48:16) complex

 executed on             LinuxIFC date 2024.08.26  21:36:16

 INCAR:
   SYSTEM = MgO-rocksalt
   ISMEAR = 0
   SIGMA = 0.05
   EDIFF = 1E-7
   ALGO = Normal
   ISTART = 0
   IBRION = 2
   NSW = 1000
   ISYM = 0
   ISIF = 2
   EDIFFG = -0.01
   DIPOL = 0.5 0.5 0.5
   IDIPOL = 3
   LDIPOL = .TRUE.
   LHFCALC = .TRUE.
   HFSCREEN = 0.2
   GGA = PE
   IVDW = 13
   VDW_S8 = 1.19528249
   VDW_A1 = 0.38663183
   VDW_A2 = 5.19133469
   ENCUT = 520
   PREC = Normal
   PRECFOCK = Fast
   LASPH = .TRUE.
   LREAL = .FALSE.
   ISPIN = 1
   NKREDX = 2
   NKREDY = 2
   NELM = 200
   NELMIN = 8
   NCORE = 8
   KPAR = 1
   LWAVE = .FALSE.
   LCHARG = .FALSE.

 POTCAR:    PAW_PBE Ti 08Apr2002
 POTCAR:    PAW_PBE O 08Apr2002
|           W    W    AA    RRRRR   N    N  II  N    N   GGGG   !!!           |
|           W    W   A  A   R    R  NN   N  II  NN   N  G    G  !!!           |
|           W    W  A    A  R    R  N N  N  II  N N  N  G       !!!           |
|           W WW W  AAAAAA  RRRRR   N  N N  II  N  N N  G  GGG   !            |
|           WW  WW  A    A  R   R   N   NN  II  N   NN  G    G                |
|           W    W  A    A  R    R  N    N  II  N    N   GGGG   !!!           |
|     For optimal performance we recommend to set                             |
|       NCORE = 2 up to number-of-cores-per-socket                            |
|     This setting can greatly improve the performance of VASP for DFT.       |
|     The default, NCORE=1 might be grossly inefficient on modern             |
|     multi-core architectures or massively parallel machines. Do your        |
|     Unfortunately you need to use the default for GW and RPA                |
|     calculations (for HF NCORE is supported but not extensively tested      |
|     yet).                                                                   |

   TITEL  = PAW_PBE Ti 08Apr2002
   POMASS =   47.880; ZVAL   =    4.000    mass and valenz
   ENMAX  =  178.330; ENMIN  =  133.747 eV

   TITEL  = PAW_PBE O 08Apr2002
   POMASS =   16.000; ZVAL   =    6.000    mass and valenz
   ENMAX  =  400.000; ENMIN  =  300.000 eV

  PAW_PBE Ti 08Apr2002                  :
  PAW_PBE O 08Apr2002                   :

 POSCAR: Ti  O
  positions in direct lattice
  velocities in cartesian coordinates
|           W    W    AA    RRRRR   N    N  II  N    N   GGGG   !!!           |
|           W    W   A  A   R    R  NN   N  II  NN   N  G    G  !!!           |
|           W    W  A    A  R    R  N N  N  II  N N  N  G       !!!           |
|           W WW W  AAAAAA  RRRRR   N  N N  II  N  N N  G  GGG   !            |
|           WW  WW  A    A  R   R   N   NN  II  N   NN  G    G                |
|           W    W  A    A  R    R  N    N  II  N    N   GGGG   !!!           |
|     Specifying the vdW parameters                                           |
|     VDW_S8 = 1.195                                                          |
|     VDW_A1 = 0.387                                                          |
|     VDW_A2 = 5.191                                                          |
|     in the INCAR file will overwrite the defaults for hse06. Please         |
|     make sure that is what you intended.                                    |

 ion  position               nearest neighbor table
   1  0.750  0.625  0.265-  81 1.94  82 1.94 141 1.94 142 1.94 163 1.96  84 1.96  11 2.94  31 2.94

   2  0.000  0.750  0.265-  84 1.94 104 1.94 103 1.94  83 1.94  85 1.96  32 2.94  12 2.94
   3  0.000  0.625  0.382-  85 1.94  86 1.94 145 1.94 146 1.94  87 1.96  88 1.96  13 2.94  33 2.94

[...]

  80  0.500  0.500  0.731- 234 1.81 239 1.93 179 1.93 240 1.93 180 1.93  70 2.94  50 2.94
  81  0.750  0.750  0.219-   1 1.94  11 1.94
  82  0.750  0.750  0.311-   1 1.94  11 1.94   4 1.96
  83  0.098  0.625  0.265-   2 1.94  32 1.94  41 1.96
  84  0.902  0.625  0.265-   2 1.94  32 1.94   1 1.96
  85  0.000  0.750  0.336-   3 1.94  13 1.94   2 1.96
  86  0.000  0.750  0.428-   3 1.94  13 1.94   6 1.96
  87  0.848  0.625  0.382-   4 1.94  34 1.94   3 1.96
  88  0.152  0.625  0.382-  44 1.94  74 1.94   3 1.96
  89  0.750  0.750  0.454-   5 1.94  15 1.94   4 1.96
  90  0.750  0.750  0.546-   5 1.94  15 1.94   8 2.09
  91  0.098  0.625  0.500-   6 1.94  36 1.94  45 1.96
  92  0.902  0.625  0.500-   6 1.94  36 1.94   5 1.96
  93  1.000  0.750  0.572-   7 1.89  17 1.89   6 1.98
  94  0.000  0.750  0.665-  10 1.81  17 1.99   7 1.99
  95  0.850  0.625  0.618-   7 1.94  38 1.96   8 1.96
  96  0.150  0.625  0.618-   7 1.94  78 1.96  48 1.96
  97  0.750  0.750  0.690-   8 1.86  19 2.08   9 2.08
  98  0.750  0.750  0.783-  19 1.83   9 1.83
  99  0.094  0.625  0.742-  40 1.93  10 1.93  49 2.01
 100  0.906  0.625  0.742-  40 1.93  10 1.93   9 2.01
 101  0.750  0.000  0.219-  11 1.94  21 1.94
 102  0.750  0.000  0.311-  11 1.94  21 1.94  14 1.96
 103  0.098  0.875  0.265-   2 1.94  12 1.94  51 1.96
 104  0.902  0.875  0.265-   2 1.94  12 1.94  11 1.96
 105  0.000  0.000  0.336-  13 1.94  23 1.94  12 1.96
 106  0.000  0.000  0.428-  13 1.94  23 1.94  16 1.96
 107  0.848  0.875  0.382-   4 1.94  14 1.94  13 1.96
 108  0.152  0.875  0.382-  44 1.94  54 1.94  13 1.96
 109  0.750  0.000  0.454-  15 1.94  25 1.94  14 1.96
 110  0.750  0.000  0.546-  15 1.94  25 1.94  18 2.09
 111  0.098  0.875  0.500-   6 1.94  16 1.94  55 1.96
 112  0.902  0.875  0.500-   6 1.94  16 1.94  15 1.96
 113  1.000  0.000  0.572-  17 1.89  27 1.89  16 1.98
 114  0.000  1.000  0.665-  20 1.81  17 1.99  27 1.99
 115  0.850  0.875  0.618-  17 1.94  18 1.96   8 1.96
 116  0.150  0.875  0.618-  17 1.94  58 1.96  48 1.96
 117  0.750  1.000  0.690-  18 1.86  19 2.08  29 2.08
 118  0.750  1.000  0.783-  19 1.83  29 1.83
 119  0.094  0.875  0.742-  20 1.93  10 1.93  59 2.01
 120  0.906  0.875  0.742-  20 1.93  10 1.93  19 2.01
 121  0.750  0.250  0.219-  21 1.94  31 1.94
 122  0.750  0.250  0.311-  21 1.94  31 1.94  24 1.96
 123  0.098  0.125  0.265-  12 1.94  22 1.94  61 1.96
 124  0.902  0.125  0.265-  12 1.94  22 1.94  21 1.96
 125  0.000  0.250  0.336-  23 1.94  33 1.94  22 1.96
 126  0.000  0.250  0.428-  23 1.94  33 1.94  26 1.96
 127  0.848  0.125  0.382-  14 1.94  24 1.94  23 1.96
 128  0.152  0.125  0.382-  54 1.94  64 1.94  23 1.96
 129  0.750  0.250  0.454-  25 1.94  35 1.94  24 1.96
 130  0.750  0.250  0.546-  25 1.94  35 1.94  28 2.09
 131  0.098  0.125  0.500-  16 1.94  26 1.94  65 1.96
 132  0.902  0.125  0.500-  16 1.94  26 1.94  25 1.96
 133  1.000  0.250  0.572-  37 1.89  27 1.89  26 1.98
 134  0.000  0.250  0.665-  30 1.81  27 1.99  37 1.99
 135  0.850  0.125  0.618-  27 1.94  18 1.96  28 1.96
 136  0.150  0.125  0.618-  27 1.94  58 1.96  68 1.96
 137  0.750  0.250  0.690-  28 1.86  29 2.08  39 2.08
 138  0.750  0.250  0.783-  39 1.83  29 1.83
 139  0.094  0.125  0.742-  20 1.93  30 1.93  69 2.01
[...]
 226  0.500  0.500  0.428-  43 1.94  73 1.94  76 1.96
 227  0.348  0.375  0.382-  64 1.94  74 1.94  73 1.96
 228  0.652  0.375  0.382-  24 1.94  34 1.94  73 1.96
 229  0.250  0.500  0.454-  45 1.94  75 1.94  74 1.96
 230  0.250  0.500  0.546-  45 1.94  75 1.94  78 2.09
 231  0.598  0.375  0.500-  66 1.94  76 1.94  35 1.96
 232  0.402  0.375  0.500-  66 1.94  76 1.94  75 1.96
 233  0.500  0.500  0.572-  47 1.89  77 1.89  76 1.98
 234  0.500  0.500  0.665-  80 1.81  77 1.99  47 1.99
 235  0.350  0.375  0.618-  77 1.94  78 1.96  68 1.96
 236  0.650  0.375  0.618-  77 1.94  38 1.96  28 1.96
 237  0.250  0.500  0.690-  78 1.86  79 2.08  49 2.08
 238  0.250  0.500  0.783-  49 1.83  79 1.83
 239  0.594  0.375  0.742-  80 1.93  70 1.93  39 2.01
 240  0.406  0.375  0.742-  80 1.93  70 1.93  79 2.01

IMPORTANT INFORMATION: All symmetrisations will be switched off!
NOSYMM: (Re-)initialisation of all symmetry stuff for point group C_1.

                                     Primitive cell

  volume of cell :    4157.1448

  direct lattice vectors                    reciprocal lattice vectors
    12.893495846  0.000000000  0.000000000     0.077558485  0.000000000  0.000000000
     0.000000000 11.761907618  0.000000000     0.000000000  0.085020222  0.000000000
     0.000000000  0.000000000 27.412377441     0.000000000  0.000000000  0.036479871

  length of vectors
    12.893495846 11.761907618 27.412377441     0.077558485  0.085020222  0.036479871

  position of ions in fractional coordinates (direct lattice)
     0.750000000  0.625000000  0.264823466
     0.000000000  0.750000000  0.264823466
     0.000000000  0.625000000  0.382411733
     0.750000000  0.750000000  0.382411733
     0.750000000  0.625000000  0.500000000
     0.000000000  0.750000000  0.500000000
     0.000000030  0.624999998  0.615465712
     0.749999991  0.750000005  0.622122516
     0.749999978  0.624999974  0.743499567
     0.000000006  0.749999998  0.730700169
     0.750000000  0.875000000  0.264823466
     0.000000000  0.000000000  0.264823466
     0.000000000  0.875000000  0.382411733
     0.750000000  0.000000000  0.382411733
     0.750000000  0.875000000  0.500000000
     0.000000000  0.000000000  0.500000000
     0.000000033  0.875000001  0.615465718
     0.750000004  0.000000011  0.622122522
     0.749999984  0.875000007  0.743499570
     0.000000000  0.000000012  0.730700170
     0.750000000  0.125000000  0.264823466
     0.000000000  0.250000000  0.264823466
     0.000000000  0.125000000  0.382411733
     0.750000000  0.250000000  0.382411733
     0.750000000  0.125000000  0.500000000
     0.000000000  0.250000000  0.500000000
     0.000000043  0.125000003  0.615465719
     0.749999992  0.249999998  0.622122533
     0.749999985  0.125000013  0.743499590
     0.000000016  0.249999996  0.730700179
     0.750000000  0.375000000  0.264823466
     0.000000000  0.500000000  0.264823466
     0.000000000  0.375000000  0.382411733
     0.750000000  0.500000000  0.382411733
     0.750000000  0.375000000  0.500000000
     0.000000000  0.500000000  0.500000000
     0.000000038  0.374999989  0.615465712
     0.750000008  0.499999994  0.622122511
     0.749999972  0.375000006  0.743499585
     0.999999997  0.499999984  0.730700161
     0.250000000  0.625000000  0.264823466
     0.500000000  0.750000000  0.264823466
     0.500000000  0.625000000  0.382411733
     0.250000000  0.750000000  0.382411733
     0.250000000  0.625000000  0.500000000
     0.500000000  0.750000000  0.500000000
     0.500000025  0.624999994  0.615465715
     0.250000014  0.749999997  0.622122515
     0.249999986  0.624999966  0.743499571
     0.500000014  0.749999994  0.730700180
     0.250000000  0.875000000  0.264823466
     0.500000000  0.000000000  0.264823466
     0.500000000  0.875000000  0.382411733
     0.250000000  0.000000000  0.382411733
     0.250000000  0.875000000  0.500000000
     0.500000000  0.000000000  0.500000000
     0.500000028  0.875000005  0.615465719
     0.249999994  0.000000004  0.622122519
     0.249999988  0.875000015  0.743499562
     0.500000007  0.000000012  0.730700182
[...]
     0.500000000  0.500000000  0.428355971
     0.347680320  0.375000000  0.382411733
     0.652319680  0.375000000  0.382411733
     0.250000000  0.500000000  0.454055762
     0.250000000  0.500000000  0.545944238
[...]
   0.442E-06 -.215E-05 0.499E+03   -.518E-06 0.460E-06 -.499E+03   0.354E-07 0.354E-05 0.184E+00   0.186E-07 -.459E-07 0.170E-03
   -.148E-08 -.393E-06 0.496E+03   0.927E-07 0.331E-06 -.496E+03   0.195E-07 -.251E-07 -.168E+00   -.106E-07 0.539E-07 0.187E-03
   -.304E-04 -.149E-04 -.660E+01   0.312E-04 0.123E-04 0.711E+01   0.316E-06 0.284E-05 0.193E+00   -.879E-08 -.387E-07 0.768E-03
   -.211E-04 -.303E-05 -.590E+01   0.187E-04 0.295E-05 0.524E+01   0.128E-05 0.553E-09 -.675E-01   0.818E-08 0.213E-07 0.812E-03
   0.118E-03 -.108E-03 -.497E+03   -.120E-03 0.104E-03 0.497E+03   0.111E-05 0.474E-05 -.726E-01   -.679E-08 0.363E-08 0.984E-03
   -.724E-04 -.181E-05 -.506E+03   0.694E-04 0.205E-05 0.506E+03   0.167E-05 0.479E-07 0.532E-01   0.141E-08 -.447E-07 0.993E-03
   -.702E-04 -.106E-03 -.960E+03   0.682E-04 0.104E-03 0.959E+03   0.154E-05 0.321E-05 -.213E-01   -.442E-07 -.440E-07 0.629E-03
   0.110E-03 0.492E-05 -.989E+03   -.112E-03 -.520E-05 0.989E+03   -.572E-07 -.830E-07 0.681E+00   -.536E-07 -.395E-07 0.673E-03
   0.851E-07 0.208E-05 0.974E+03   -.833E-07 0.685E-07 -.977E+03   0.162E-08 -.309E-05 -.125E+01   0.313E-09 -.794E-08 -.502E-03
   0.397E-07 -.914E-07 0.105E+04   -.323E-07 0.775E-07 -.105E+04   0.311E-08 -.283E-08 -.186E+01   0.127E-08 0.934E-08 -.503E-03
   0.564E-06 0.166E-05 0.499E+03   -.596E-06 -.224E-07 -.499E+03   0.237E-07 -.354E-05 0.184E+00   -.111E-07 0.742E-07 0.170E-03
   -.781E-07 -.439E-06 0.496E+03   0.166E-06 0.477E-06 -.496E+03   0.219E-07 0.313E-07 -.168E+00   -.133E-07 -.244E-07 0.187E-03
   -.308E-04 0.121E-04 -.660E+01   0.316E-04 -.982E-05 0.711E+01   0.323E-06 -.302E-05 0.193E+00   0.383E-08 0.203E-07 0.768E-03
   -.198E-04 -.250E-05 -.590E+01   0.174E-04 0.251E-05 0.524E+01   0.124E-05 0.254E-07 -.675E-01   0.264E-08 0.107E-07 0.812E-03
   0.117E-03 0.106E-03 -.497E+03   -.119E-03 -.102E-03 0.497E+03   0.117E-05 -.484E-05 -.726E-01   -.287E-07 -.564E-07 0.984E-03
   -.787E-04 0.481E-05 -.506E+03   0.758E-04 -.530E-05 0.506E+03   0.190E-05 -.379E-06 0.532E-01   0.266E-08 0.438E-07 0.993E-03
   -.778E-04 0.119E-03 -.960E+03   0.757E-04 -.118E-03 0.959E+03   0.190E-05 -.335E-05 -.213E-01   -.516E-07 0.154E-07 0.629E-03
   0.104E-03 0.174E-05 -.989E+03   -.104E-03 -.345E-05 0.989E+03   -.402E-06 -.652E-06 0.681E+00   -.355E-07 0.677E-07 0.673E-03
   0.957E-07 -.225E-05 0.974E+03   -.797E-07 0.388E-07 -.977E+03   0.525E-08 0.312E-05 -.125E+01   -.746E-08 0.594E-07 -.502E-03
   0.380E-07 0.483E-07 0.105E+04   -.277E-07 -.452E-07 -.105E+04   -.470E-09 0.569E-08 -.186E+01   -.125E-08 -.325E-08 -.503E-03
   0.535E-06 -.247E-05 0.499E+03   -.597E-06 0.739E-06 -.499E+03   0.362E-07 0.354E-05 0.184E+00   0.580E-08 0.340E-08 0.170E-03
   -.576E-07 0.256E-06 0.496E+03   0.149E-06 -.282E-06 -.496E+03   0.123E-07 -.288E-08 -.168E+00   -.193E-07 0.261E-07 0.187E-03
   -.312E-04 -.159E-04 -.660E+01   0.319E-04 0.141E-04 0.711E+01   0.326E-06 0.334E-05 0.193E+00   -.549E-08 0.265E-07 0.768E-03
   -.218E-04 0.146E-07 -.590E+01   0.193E-04 -.541E-07 0.524E+01   0.128E-05 0.986E-07 -.675E-01   -.171E-08 0.297E-07 0.812E-03
   0.108E-03 -.109E-03 -.497E+03   -.111E-03 0.104E-03 0.497E+03   0.136E-05 0.461E-05 -.726E-01   -.148E-07 0.467E-07 0.984E-03
   -.734E-04 0.292E-05 -.506E+03   0.703E-04 -.289E-05 0.506E+03   0.175E-05 0.146E-06 0.532E-01   -.112E-07 0.111E-07 0.993E-03
   -.751E-04 -.975E-04 -.960E+03   0.730E-04 0.932E-04 0.959E+03   0.172E-05 0.257E-05 -.213E-01   -.658E-07 0.466E-07 0.629E-03
   0.101E-03 0.522E-05 -.989E+03   -.103E-03 -.512E-05 0.989E+03   -.123E-06 -.863E-08 0.681E+00   -.879E-08 0.151E-07 0.673E-03
   0.970E-07 0.234E-05 0.974E+03   -.865E-07 -.103E-06 -.977E+03   0.934E-09 -.311E-05 -.125E+01   -.787E-08 -.849E-07 -.502E-03
   0.212E-07 0.128E-06 0.105E+04   -.235E-07 -.790E-07 -.105E+04   -.282E-09 -.160E-07 -.186E+01   0.114E-07 -.360E-07 -.503E-03
   0.463E-06 0.297E-05 0.499E+03   -.529E-06 -.118E-05 -.499E+03   0.241E-07 -.355E-05 0.184E+00   0.117E-07 -.337E-07 0.170E-03
   0.191E-07 0.583E-06 0.496E+03   0.771E-07 -.526E-06 -.496E+03   0.278E-07 -.197E-08 -.168E+00   -.188E-07 -.592E-07 0.187E-03
   -.307E-04 0.188E-04 -.660E+01   0.315E-04 -.166E-04 0.711E+01   0.307E-06 -.310E-05 0.193E+00   0.298E-09 -.266E-08 0.768E-03
   -.219E-04 0.370E-05 -.590E+01   0.194E-04 -.367E-05 0.524E+01   0.129E-05 -.240E-07 -.675E-01   -.248E-08 -.643E-07 0.812E-03
   0.113E-03 0.112E-03 -.497E+03   -.116E-03 -.107E-03 0.497E+03   0.120E-05 -.466E-05 -.726E-01   -.176E-07 -.147E-08 0.984E-03
   -.761E-04 -.133E-04 -.506E+03   0.730E-04 0.136E-04 0.506E+03   0.190E-05 0.312E-06 0.532E-01   -.228E-07 -.709E-08 0.993E-03
   -.713E-04 0.981E-04 -.960E+03   0.689E-04 -.931E-04 0.959E+03   0.142E-05 -.235E-05 -.213E-01   -.538E-07 -.344E-07 0.629E-03
   0.997E-04 -.137E-04 -.989E+03   -.101E-03 0.156E-04 0.989E+03   -.264E-06 0.783E-06 0.681E+00   -.210E-07 -.447E-07 0.673E-03
   -.147E-06 -.217E-05 0.974E+03   0.148E-06 -.116E-07 -.977E+03   0.443E-08 0.310E-05 -.125E+01   -.526E-08 0.309E-07 -.502E-03
   0.255E-07 -.620E-07 0.105E+04   -.295E-07 0.357E-07 -.105E+04   -.101E-08 0.122E-07 -.186E+01   -.409E-08 0.212E-07 -.503E-03
   0.582E-06 -.209E-05 0.499E+03   -.728E-06 0.412E-06 -.499E+03   0.427E-08 0.353E-05 0.184E+00   0.775E-08 -.581E-07 0.170E-03
   -.124E-05 -.241E-06 0.496E+03   0.127E-05 0.200E-06 -.496E+03   0.234E-07 -.205E-07 -.168E+00   0.584E-08 0.313E-07 0.187E-03
   -.358E-04 -.144E-04 -.660E+01   0.365E-04 0.119E-04 0.711E+01   0.294E-06 0.297E-05 0.193E+00   0.611E-08 0.129E-07 0.768E-03
   -.227E-04 -.206E-05 -.590E+01   0.199E-04 0.204E-05 0.524E+01   0.124E-05 0.125E-08 -.675E-01   -.647E-08 0.950E-08 0.812E-03
   0.116E-03 -.107E-03 -.497E+03   -.119E-03 0.103E-03 0.497E+03   0.118E-05 0.484E-05 -.726E-01   0.344E-07 -.138E-07 0.984E-03
   -.736E-04 0.253E-05 -.506E+03   0.715E-04 -.222E-05 0.506E+03   0.191E-05 0.699E-07 0.532E-01   -.390E-08 -.264E-07 0.993E-03
   -.725E-04 -.108E-03 -.960E+03   0.705E-04 0.107E-03 0.959E+03   0.162E-05 0.399E-05 -.213E-01   0.578E-07 -.843E-07 0.629E-03
   0.957E-04 0.415E-05 -.989E+03   -.969E-04 -.459E-05 0.989E+03   0.248E-07 -.666E-07 0.681E+00   0.622E-07 -.133E-07 0.673E-03
   -.135E-06 0.209E-05 0.974E+03   0.141E-06 0.614E-07 -.977E+03   -.193E-07 -.310E-05 -.125E+01   -.338E-08 -.939E-08 -.502E-03
   0.939E-08 -.865E-07 0.105E+04   -.249E-07 0.722E-07 -.105E+04   0.398E-08 -.654E-08 -.186E+01   0.336E-08 0.133E-07 -.503E-03
   0.482E-06 0.178E-05 0.499E+03   -.630E-06 -.137E-06 -.499E+03   -.655E-08 -.354E-05 0.184E+00   0.126E-07 0.778E-07 0.170E-03
   -.117E-05 -.444E-06 0.496E+03   0.120E-05 0.483E-06 -.496E+03   0.232E-07 0.660E-08 -.168E+00   0.621E-08 -.250E-07 0.187E-03
   -.348E-04 0.133E-04 -.660E+01   0.355E-04 -.111E-04 0.711E+01   0.288E-06 -.307E-05 0.193E+00   0.479E-08 -.842E-08 0.768E-03
   -.233E-04 -.112E-05 -.590E+01   0.205E-04 0.116E-05 0.524E+01   0.123E-05 0.841E-08 -.675E-01   0.100E-07 0.145E-07 0.812E-03
   0.110E-03 0.108E-03 -.497E+03   -.114E-03 -.104E-03 0.497E+03   0.120E-05 -.484E-05 -.726E-01   0.239E-07 -.459E-07 0.984E-03
   -.654E-04 -.114E-04 -.506E+03   0.632E-04 0.108E-04 0.506E+03   0.170E-05 -.203E-06 0.532E-01   0.222E-07 0.526E-07 0.993E-03
   -.809E-04 0.116E-03 -.960E+03   0.786E-04 -.115E-03 0.959E+03   0.199E-05 -.361E-05 -.213E-01   0.345E-07 0.628E-07 0.629E-03
   0.103E-03 -.593E-05 -.989E+03   -.104E-03 0.430E-05 0.989E+03   -.409E-06 -.598E-06 0.681E+00   0.444E-07 0.779E-07 0.673E-03
[...]
   -.257E+02 0.679E-04 0.746E+03   0.301E+02 -.149E-05 -.746E+03   -.331E+01 -.828E-04 0.189E+00   -.585E-05 -.481E-07 0.253E-03
   0.257E+02 0.680E-04 0.746E+03   -.301E+02 -.159E-05 -.746E+03   0.331E+01 -.828E-04 0.189E+00   0.582E-05 -.778E-07 0.253E-03
   -.109E-04 0.228E-05 0.309E+03   0.113E-04 -.235E-05 -.314E+03   -.568E-06 0.177E-06 0.396E+01   0.219E-07 -.735E-07 0.840E-03
   -.238E-03 0.977E-05 -.334E+03   0.226E-03 -.965E-05 0.342E+03   0.159E-04 -.124E-06 -.667E+01   -.196E-07 -.587E-07 0.138E-02
   -.247E+02 0.975E-04 -.783E+01   0.300E+02 -.305E-04 0.755E+01   -.492E+01 -.837E-04 0.326E+00   -.685E-05 0.852E-07 0.118E-02
   0.247E+02 0.971E-04 -.783E+01   -.300E+02 -.302E-04 0.755E+01   0.492E+01 -.837E-04 0.326E+00   0.687E-05 0.840E-07 0.118E-02
   0.288E-03 0.151E-04 -.435E+03   -.340E-03 -.184E-04 0.428E+03   0.444E-04 0.239E-05 0.603E+01   0.757E-08 0.714E-07 0.144E-02
   -.101E-03 -.140E-04 -.106E+04   0.136E-03 0.170E-04 0.106E+04   -.298E-04 -.221E-05 0.248E+01   0.659E-07 -.557E-07 0.129E-02
   -.115E+02 0.302E-03 -.753E+03   0.147E+02 -.236E-03 0.752E+03   -.274E+01 -.934E-04 0.789E+00   0.200E-04 -.195E-06 0.146E-02
   0.115E+02 0.295E-03 -.753E+03   -.147E+02 -.229E-03 0.752E+03   0.274E+01 -.930E-04 0.789E+00   -.199E-04 -.187E-06 0.146E-02
   0.133E-03 0.353E-04 -.117E+04   -.172E-03 -.375E-04 0.118E+04   0.331E-04 0.495E-06 -.210E+01   0.365E-08 0.259E-07 0.118E-02
   -.177E-03 -.112E-05 -.169E+04   0.192E-03 0.343E-05 0.171E+04   -.138E-04 -.361E-05 -.200E+02   0.125E-06 -.128E-06 0.701E-03
   0.726E+01 0.229E-03 -.151E+04   -.629E+00 -.163E-03 0.152E+04   -.578E+01 -.921E-04 -.402E+01   -.739E-05 0.164E-06 0.944E-03
   -.726E+01 0.246E-03 -.151E+04   0.628E+00 -.185E-03 0.152E+04   0.578E+01 -.881E-04 -.402E+01   0.740E-05 0.187E-06 0.944E-03
   -.192E-04 -.122E-05 0.103E+03   -.115E-11 -.293E-11 -.125E-10   0.429E-05 0.117E-05 -.953E+02   0.332E-06 -.723E-07 0.129E+00

 POSITION                                       TOTAL-FORCE (eV/Angst)
      9.67012      7.35119      7.25944         0.000000      0.000001     -4.001344
      0.00000      8.82143      7.25944         0.000000      0.000000      3.057412
      0.00000      7.35119     10.48281         0.000000      0.000002      0.587972
      9.67012      8.82143     10.48281         0.000000     -0.000000     -0.847761
      9.67012      7.35119     13.70619         0.000001      0.000001      0.726887
      0.00000      8.82143     13.70619        -0.000001     -0.000000     -0.764294
      0.00000      7.35119     16.87420         0.000000      0.000001      0.006147
      9.67012      8.82143     17.05375        -0.000001      0.000000      0.003755
      9.67012      7.35119     20.37983        -0.000000      0.000001      0.002846
     -0.00000      8.82143     20.03451        -0.000001     -0.000000      0.005937
      9.67012     10.29167      7.25944         0.000000     -0.000001     -4.001344
      0.00000      0.00000      7.25944         0.000000     -0.000000      3.057412
      0.00000     10.29167     10.48281         0.000000     -0.000002      0.587972
      9.67012      0.00000     10.48281         0.000000      0.000000     -0.847760
      9.67012     10.29167     13.70619         0.000001     -0.000001      0.726887
      0.00000      0.00000     13.70619        -0.000001      0.000000     -0.764294
      0.00000     10.29167     16.87420         0.000001     -0.000001      0.006147
      9.67012      0.00000     17.05375        -0.000001     -0.000001      0.003753
      9.67012     10.29167     20.37983        -0.000000     -0.000002      0.002846
     -0.00000      0.00000     20.03451        -0.000001     -0.000002      0.005938
      9.67012      1.47024      7.25944         0.000000      0.000001     -4.001344
      0.00000      2.94048      7.25944         0.000000      0.000000      3.057412
      0.00000      1.47024     10.48281         0.000000      0.000002      0.587972
      9.67012      2.94048     10.48281         0.000000     -0.000000     -0.847760
      9.67012      1.47024     13.70619         0.000001      0.000002      0.726887
      0.00000      2.94048     13.70619        -0.000001      0.000000     -0.764294
      0.00000      1.47024     16.87420         0.000001     -0.000000      0.006147
      9.67012      2.94048     17.05375        -0.000001      0.000000      0.003753
      9.67012      1.47024     20.37983        -0.000000     -0.000002      0.002845
     -0.00000      2.94048     20.03451        -0.000001      0.000000      0.005936
      9.67012      4.41072      7.25944         0.000000     -0.000001     -4.001344
      0.00000      5.88095      7.25944         0.000000     -0.000000      3.057412
      0.00000      4.41072     10.48281        -0.000000     -0.000002      0.587972
      9.67012      5.88095     10.48281         0.000000     -0.000000     -0.847760
      9.67012      4.41072     13.70619         0.000001     -0.000001      0.726887
      0.00000      5.88095     13.70619        -0.000001     -0.000000     -0.764294
      0.00000      4.41072     16.87420         0.000000     -0.000000      0.006146
      9.67012      5.88095     17.05375        -0.000001      0.000001      0.003752
      9.67012      4.41072     20.37983        -0.000001      0.000003      0.002846
     12.89350      5.88095     20.03451        -0.000001      0.000003      0.005938
      3.22337      7.35119      7.25944         0.000000      0.000001     -4.001344
      6.44675      8.82143      7.25944         0.000000      0.000000      3.057412
      6.44675      7.35119     10.48281        -0.000000      0.000002      0.587972
      3.22337      8.82143     10.48281         0.000000     -0.000000     -0.847760
      3.22337      7.35119     13.70619         0.000001      0.000001      0.726887
      6.44675      8.82143     13.70619        -0.000002     -0.000000     -0.764293
      6.44675      7.35119     16.87420        -0.000000      0.000001      0.006147
      3.22337      8.82143     17.05375         0.000000      0.000000      0.003755
      3.22337      7.35119     20.37983        -0.000000      0.000003      0.002845
      6.44675      8.82143     20.03451        -0.000001     -0.000001      0.005936
      3.22337     10.29167      7.25944         0.000000     -0.000001     -4.001344
      6.44675      0.00000      7.25944         0.000000     -0.000000      3.057412
      6.44675     10.29167     10.48281        -0.000000     -0.000002      0.587972
      3.22337      0.00000     10.48281         0.000000      0.000000     -0.847760
      3.22337     10.29167     13.70619         0.000001     -0.000001      0.726887
      6.44675      0.00000     13.70619        -0.000002      0.000000     -0.764293
      6.44675     10.29167     16.87420        -0.000000     -0.000001      0.006146
      3.22337     -0.00000     17.05375         0.000000     -0.000001      0.003753
      3.22337     10.29167     20.37983        -0.000000     -0.000002      0.002845
      6.44675      0.00000     20.03451        -0.000001     -0.000002      0.005937
[...]
      6.44675      5.88095     11.74226        -0.000000      0.000000     -0.068865
      4.48281      4.41072     10.48281         0.548409      0.000012      0.058419
      8.41068      4.41072     10.48281        -0.548409      0.000012      0.058402
      3.22337      5.88095     12.44675        -0.000000      0.000000     -0.159221
      3.22337      5.88095     14.96563         0.000007     -0.000000      0.204713
      7.70619      4.41072     13.70619        -0.447957      0.000011      0.099346
      5.18731      4.41072     13.70619         0.447956      0.000011      0.099326
      6.44675      5.88095     15.68755        -0.000000     -0.000001      0.003946
      6.44675      5.88095     18.22107         0.000001      0.000000      0.007014
      4.51100      4.41072     16.95484         0.000947     -0.000001     -0.003780
      8.38249      4.41072     16.95484        -0.000947     -0.000000     -0.003780
      3.22337      5.88095     18.91586        -0.000002     -0.000002      0.005152
      3.22337      5.88095     21.46425         0.000000     -0.000002      0.008626
      7.65532      4.41072     20.35126        -0.000319     -0.000001      0.003037
      5.23817      4.41072     20.35126         0.000314     -0.000001      0.003034
    total drift:                               -0.000005      0.000000      0.043654

  FREE ENERGIE OF THE ION-ELECTRON SYSTEM (eV)
  free  energy   TOTEN  =     -2618.49674403 eV

  energy  without entropy=    -2618.49674403  energy(sigma->0) =    -2618.49674403

 d Force = 0.9281259E-04[ 0.621E-04, 0.123E-03]  d Energy = 0.9496754E-04-0.215E-05
 d Force = 0.1412009E+02[ 0.141E+02, 0.141E+02]  d Ewald  = 0.1412009E+02 0.169E-08

 Conjugate gradient step on ions:
 trial-energy change:   -0.000095  1 .order   -0.000093   -0.000123   -0.000062
  (g-gl).g = 0.263E-03      g.g   = 0.272E-03  gl.gl    = 0.104E-02
 g(Force)  = 0.272E-03   g(Stress)= 0.000E+00 ortho     =-0.169E-06
 gamma     =   0.25182
 trial     =   0.45415
 opt step  =   0.79063  (harmonic =   0.91407) maximal distance =0.00068217
 next E    = -2618.496768   (d E  =  -0.00012)

 reached required accuracy - stopping structural energy minimisation