 vasp.6.4.2 20Jul23 (build Nov 17 2023 15:39:20) complex
 executed on              LinuxNV date 2024.02.25  15:30:30
 OpenACC runtime initialized ...    4 GPUs detected

 INCAR:
   SYSTEM = Oxide-Surface
   ISMEAR = 0
   SIGMA = 0.05
   EDIFF = 1E-4
   ALGO = Normal
   ISTART = 2
   IBRION = -1
   NSW = 0
   ISYM = 0
   DIPOL = 0.5 0.5 0.5
   IDIPOL = 3
   LDIPOL = .TRUE.
   LHFCALC = .TRUE.
   GGA = PE
   IVDW = 21
   VDW_SR = 0.96
   ENCUT = 450
   PREC = Normal
   LASPH = .TRUE.
   LREAL = Auto
   ISPIN = 1
   NELM = 200
   NELMIN = 8
   NCORE = 1
   KPAR = 1
   LWAVE = .FALSE.
   LCHARG = .FALSE.

 POTCAR:    PAW_PBE Ti_pv 07Sep2000
 POTCAR:    PAW_PBE O 08Apr2002
 POTCAR:    PAW_PBE Ti_pv 07Sep2000
   VRHFIN =Ti: d3 s1

   TITEL  = PAW_PBE Ti_pv 07Sep2000
   POMASS =   47.880; ZVAL   =   10.000    mass and valenz
   ENMAX  =  222.335; ENMIN  =  166.751 eV

   TITEL  = PAW_PBE O 08Apr2002
   POMASS =   16.000; ZVAL   =    6.000    mass and valenz
   ENMAX  =  400.000; ENMIN  =  300.000 eV

 Optimization of the real space projectors (new method)

 maximal supplied QI-value         = 15.12
 optimisation between [QCUT,QGAM] = [ 10.73, 21.62] = [ 32.26,130.87] Ry
 Optimized for a Real-space Cutoff    1.46 Angstroem

   l    n(q)    QCUT    max X(q) W(low)/X(q) W(high)/X(q)  e(spline)
   1      9    10.734     4.216    0.90E-04    0.17E-04    0.73E-07
   1      9    10.734     5.422    0.20E-03    0.95E-04    0.21E-06
   2      9    10.734    72.084    0.40E-03    0.60E-03    0.19E-06
   2      9    10.734    65.965    0.40E-03    0.59E-03    0.19E-06
   0      9    10.734    41.531    0.93E-04    0.36E-04    0.17E-06
   0      9    10.734    16.290    0.71E-04    0.26E-04    0.13E-06
 Optimization of the real space projectors (new method)

 maximal supplied QI-value         = 24.76
 optimisation between [QCUT,QGAM] = [ 10.64, 21.54] = [ 31.73,129.89] Ry
 Optimized for a Real-space Cutoff    1.23 Angstroem

   l    n(q)    QCUT    max X(q) W(low)/X(q) W(high)/X(q)  e(spline)
   0      8    10.645    20.381    0.38E-03    0.60E-03    0.15E-06
   0      8    10.645    15.268    0.40E-03    0.65E-03    0.17E-06
   1      7    10.645     5.964    0.30E-03    0.63E-03    0.18E-06
   1      7    10.645     5.382    0.24E-03    0.53E-03    0.16E-06
  PAW_PBE Ti_pv 07Sep2000               :
  PAW_PBE O 08Apr2002                   :

 POSCAR: Ti  O
  positions in direct lattice
 exchange correlation table for  LEXCH =        8
   RHO(1)=    0.500       N(1)  =     2000
   RHO(2)=  100.500       N(2)  =     4000

 ion  position               nearest neighbor table
   1  0.808  0.833  0.295-  85 1.94  51 1.94  53 1.94  50 1.99  52 1.99  18 3.05   4 3.05   2 3.05

   2  0.592  0.667  0.327-  49 1.94 116 1.94  52 1.94  54 1.94  53 1.99  55 1.99  33 3.05   3 3.05
                             1 3.05   7 3.08
   3  0.308  0.667  0.295- 121 1.94  55 1.94  57 1.94  49 1.99  56 1.99  36 3.05   2 3.05   4 3.05

   4  0.092  0.833  0.327-  50 1.94  88 1.94  56 1.94  58 1.94  57 1.99  51 1.99  19 3.05   1 3.05
                             3 3.05   5 3.08
   5  0.944  0.833  0.423-  59 1.92  93 1.93  61 1.93  51 1.98  60 1.98  58 2.00   8 3.00   6 3.05
                            22 3.05   4 3.08
   6  0.726  0.666  0.451-  54 1.89 124 1.93  60 1.94  62 1.96  63 1.99  61 2.00   7 3.01   5 3.05
                            37 3.05  11 3.11
   7  0.444  0.666  0.423-  63 1.93 129 1.93  65 1.94  55 1.97  64 1.98  54 2.01   6 3.01   8 3.05
                            40 3.05   2 3.08
   8  0.225  0.833  0.452-  58 1.89  96 1.94  64 1.94  66 1.97  59 1.98  65 2.01   5 3.00  23 3.05
                             7 3.05   9 3.11
   9  0.085  0.833  0.550-  67 1.92 101 1.93  69 1.93  68 1.97  59 2.00  66 2.01  12 2.95  10 3.04
                            26 3.05   8 3.11
  10  0.865  0.666  0.576-  62 1.86 132 1.93  68 1.95  71 1.95  69 2.01  70 2.01  11 2.97   9 3.04
                            41 3.06  15 3.17
  11  0.584  0.666  0.550- 137 1.93  73 1.93  71 1.93  72 1.98  63 1.98  62 2.01  10 2.97  12 3.05
                            44 3.06   6 3.11
  12  0.363  0.833  0.576-  66 1.86 104 1.94  72 1.94  67 1.95  74 2.00  73 2.02   9 2.95  11 3.05
                            27 3.05
  13  0.231  0.833  0.680-  75 1.86  77 1.93 109 1.94  76 2.00  67 2.09  74 2.10  16 2.85  30 3.07
                            14 3.08
  14  0.001  0.666  0.700-  70 1.78  78 1.84 140 1.97  76 1.99  77 2.07  15 2.86  13 3.08  45 3.10

[...]

  17  0.808  0.167  0.295-  85 1.94  83 1.94 117 1.94  82 1.99  84 1.99  18 3.05  20 3.05  34 3.05

[...]

  36  0.092  0.500  0.327- 114 1.94  56 1.94 120 1.94 122 1.94 121 1.99 115 1.99   3 3.05  35 3.05
                            33 3.05  37 3.07
  37  0.946  0.500  0.422- 123 1.92  61 1.94 125 1.94 115 1.97 122 1.99 124 2.00  40 2.99   6 3.05
                            38 3.05  36 3.07
  38  0.726  0.334  0.451- 118 1.89 124 1.93  92 1.94 126 1.96 127 1.99 125 2.00  39 3.01  21 3.05
                            37 3.05  43 3.11
  39  0.444  0.334  0.423- 127 1.93 129 1.93  97 1.94 119 1.97 128 1.98 118 2.01  38 3.01  24 3.05
                            40 3.05  34 3.08
  40  0.226  0.500  0.453- 122 1.92  64 1.94 128 1.94 123 1.96 130 1.97 129 2.01  37 2.99   7 3.05
                            39 3.05  41 3.08
  41  0.088  0.500  0.550- 131 1.91 133 1.93  69 1.93 130 1.98 132 2.00 123 2.01  44 2.96  10 3.06
                            42 3.06  40 3.08
  42  0.865  0.334  0.576- 126 1.86 132 1.93 100 1.95 135 1.95 133 2.01 134 2.01  43 2.97  25 3.04
                            41 3.06  47 3.17
  43  0.584  0.334  0.550- 137 1.93 105 1.93 135 1.93 136 1.98 127 1.98 126 2.01  42 2.97  28 3.05
                            44 3.06  38 3.11
  44  0.365  0.500  0.580- 130 1.92  72 1.94 136 1.94 131 1.94 138 1.98 137 2.03  41 2.96  11 3.06
                            43 3.06  45 3.13
  45  0.235  0.500  0.681- 139 1.86 141 1.93  77 1.93 138 2.03 140 2.03 131 2.10  48 2.87  14 3.10
                            46 3.10  44 3.13
  46  0.001  0.334  0.700- 134 1.78 142 1.84 140 1.97 108 1.99 141 2.07  47 2.86  29 3.08  45 3.10

  47  0.729  0.333  0.678- 142 1.89 144 1.93 112 1.94 143 1.99 135 2.04 134 2.10  46 2.86  32 3.08
                            48 3.08  42 3.17
  48  0.506  0.500  0.706- 139 1.84 138 1.88  79 1.98 143 1.98 144 2.07  45 2.87  15 3.08  47 3.08

  49  0.488  0.667  0.269-   2 1.94   3 1.99
  50  0.988  0.833  0.269-   4 1.94   1 1.99
  51  0.911  0.833  0.353-   1 1.94   5 1.98   4 1.99
  52  0.627  0.833  0.321-  18 1.94   2 1.94   1 1.99
  53  0.772  0.667  0.300-  33 1.94   1 1.94   2 1.99
  54  0.624  0.667  0.395-   6 1.89   2 1.94   7 2.01
  55  0.411  0.667  0.353-   3 1.94   7 1.97   2 1.99
  56  0.127  0.667  0.321-  36 1.94   4 1.94   3 1.99
  57  0.272  0.833  0.300-  19 1.94   3 1.94   4 1.99
  58  0.124  0.833  0.395-   8 1.89   4 1.94   5 2.00
  59  0.049  0.833  0.480-   5 1.92   8 1.98   9 2.00
  60  0.764  0.833  0.448-  22 1.94   6 1.94   5 1.98
  61  0.909  0.667  0.427-   5 1.93  37 1.94   6 2.00
  62  0.763  0.666  0.520-  10 1.86   6 1.96  11 2.01
  63  0.549  0.666  0.480-   7 1.93  11 1.98   6 1.99
  64  0.264  0.667  0.448-  40 1.94   8 1.94   7 1.98
  65  0.408  0.833  0.427-  23 1.93   7 1.94   8 2.01
  66  0.263  0.833  0.521-  12 1.86   8 1.97   9 2.01
  67  0.192  0.833  0.607-   9 1.92  12 1.95  13 2.09
  68  0.903  0.833  0.573-  26 1.94  10 1.95   9 1.97
  69  0.050  0.667  0.553-   9 1.93  41 1.93  10 2.01
  70  0.913  0.667  0.645-  14 1.78  10 2.01  15 2.10
  71  0.693  0.668  0.606-  11 1.93  10 1.95  15 2.04
  72  0.404  0.667  0.575-  44 1.94  12 1.94  11 1.98
  73  0.549  0.833  0.553-  11 1.93  27 1.93  12 2.02
  74  0.412  0.836  0.646-  16 1.78  12 2.00  13 2.10
  75  0.347  0.833  0.732-  16 1.84  13 1.86
  76  0.052  0.833  0.709-  30 1.98  14 1.99  13 2.00
  77  0.195  0.666  0.681-  13 1.93  45 1.93  14 2.07
  78  0.843  0.664  0.731-  14 1.84  15 1.89
  79  0.553  0.669  0.707-  16 1.96  48 1.98  15 1.99
  80  0.696  0.834  0.679-  31 1.93  15 1.94  16 2.06
  81  0.488  0.000  0.269-  18 1.94  19 1.99
  82  0.988  0.167  0.269-  20 1.94  17 1.99
  83  0.911  0.167  0.353-  17 1.94  21 1.98  20 1.99
  84  0.627  0.167  0.321-  18 1.94  34 1.94  17 1.99
  85  0.772  0.000  0.300-   1 1.94  17 1.94  18 1.99
  86  0.624  0.000  0.395-  22 1.89  18 1.94  23 2.01
  87  0.411  0.000  0.353-  19 1.94  23 1.98  18 1.99
  88  0.127  0.000  0.321-   4 1.94  20 1.94  19 1.99
  89  0.272  0.167  0.300-  19 1.94  35 1.94  20 1.99
  90  0.124  0.167  0.395-  24 1.89  20 1.94  21 2.00
  91  0.049  0.167  0.480-  21 1.92  24 1.98  25 2.00
  92  0.764  0.167  0.448-  22 1.94  38 1.94  21 1.98
  93  0.909  0.000  0.427-  21 1.93   5 1.93  22 2.00
  94  0.763  0.000  0.520-  26 1.86  22 1.97  27 2.01
  95  0.549  1.000  0.480-  23 1.92  22 1.98  27 2.00
  96  0.264  0.000  0.448-   8 1.94  24 1.94  23 1.99
  97  0.408  0.167  0.427-  23 1.93  39 1.94  24 2.01
  98  0.263  0.167  0.521-  28 1.86  24 1.97  25 2.01
  99  0.192  0.167  0.607-  25 1.92  28 1.95  29 2.09
 100  0.903  0.167  0.573-  26 1.94  42 1.95  25 1.97
 101  0.051  0.000  0.553-   9 1.93  25 1.93  26 2.03
 102  0.913  0.000  0.646-  30 1.78  26 2.01  31 2.08
 103  0.693  1.000  0.606-  27 1.92  26 1.94  31 2.10
 104  0.403  0.000  0.573-  28 1.94  12 1.94  27 1.98
 105  0.549  0.167  0.553-  43 1.93  27 1.93  28 2.02
 106  0.412  0.164  0.646-  32 1.78  28 2.00  29 2.10
 107  0.347  0.167  0.732-  32 1.84  29 1.86
 108  0.052  0.167  0.709-  30 1.98  46 1.99  29 2.00
[...]
 130  0.265  0.500  0.522-  44 1.92  40 1.97  41 1.98
 131  0.192  0.500  0.607-  41 1.91  44 1.94  45 2.10
 132  0.903  0.500  0.573-  42 1.93  10 1.93  41 2.00
 133  0.050  0.333  0.553-  25 1.93  41 1.93  42 2.01
 134  0.913  0.333  0.645-  46 1.78  42 2.01  47 2.10
 135  0.693  0.332  0.606-  43 1.93  42 1.95  47 2.04
 136  0.404  0.333  0.575-  44 1.94  28 1.94  43 1.98
 137  0.550  0.500  0.554-  43 1.93  11 1.93  44 2.03
 138  0.412  0.500  0.648-  48 1.88  44 1.98  45 2.03
 139  0.345  0.500  0.734-  48 1.84  45 1.86
 140  0.052  0.500  0.709-  14 1.97  46 1.97  45 2.03
 141  0.195  0.334  0.681-  29 1.93  45 1.93  46 2.07
 142  0.843  0.336  0.731-  46 1.84  47 1.89
 143  0.553  0.331  0.707-  32 1.96  48 1.98  47 1.99
 144  0.693  0.500  0.678-  15 1.93  47 1.93  48 2.07

IMPORTANT INFORMATION: All symmetrisations will be switched off!
NOSYMM: (Re-)initialisation of all symmetry stuff for point group C_1.

                                     Primitive cell

  volume of cell :    3260.9117

  direct lattice vectors                    reciprocal lattice vectors
    10.273755933  0.000000000  0.000000000     0.097335386 -0.000000000  0.000000000
     0.000000000 11.368810418  0.000000000     0.000000000  0.087959950  0.000000000
     0.000000000  0.000000000 27.918672987     0.000000000  0.000000000  0.035818321

  length of vectors
    10.273755933 11.368810418 27.918672987     0.097335386  0.087959950  0.035818321

  position of ions in fractional coordinates (direct lattice)
     0.807806441  0.833333333  0.294980927
     0.591821331  0.666666667  0.326522323
     0.307806441  0.666666667  0.294980927
[...]
     0.000000000  0.000000000 27.918672987     0.000000000  0.000000000  0.035818321

  length of vectors
    10.273755933 11.368810418 27.918672987     0.097335386  0.087959950  0.035818321

 FORCES acting on ions
    electron-ion (+dipol)            ewald-force                    non-local-force                 convergence-correction
   0.713E+01 0.571E-01 0.337E+04   -.165E+01 -.559E-01 -.337E+04   -.132E+01 -.345E-03 -.369E+01   -.658E-03 0.140E-03 0.139E+00
   0.454E+01 0.101E-01 0.276E+04   -.639E+01 -.738E-02 -.277E+04   0.118E-01 -.948E-03 0.305E-01   0.261E-03 0.849E-04 0.129E+00
   0.699E+01 0.234E+00 0.337E+04   -.154E+01 -.239E+00 -.336E+04   -.131E+01 0.120E-02 -.369E+01   -.813E-04 0.114E-04 0.139E+00
   0.328E+01 0.166E+00 0.277E+04   -.517E+01 -.172E+00 -.277E+04   0.205E-01 0.129E-02 0.267E-01   0.481E-03 0.183E-04 0.130E+00
   -.517E+00 0.459E+00 0.125E+04   0.320E+00 -.449E+00 -.125E+04   0.168E+00 -.762E-02 -.235E-01   0.243E-02 -.212E-03 0.875E-01
   0.617E+00 -.695E+00 0.778E+03   -.579E+00 0.674E+00 -.778E+03   0.464E-02 0.172E-01 -.750E-01   -.162E-02 -.524E-04 0.673E-01
   0.592E+00 0.800E-01 0.125E+04   -.775E+00 -.866E-01 -.125E+04   0.175E+00 0.122E-01 -.375E-01   0.224E-02 0.459E-03 0.877E-01
   -.553E+01 0.766E+00 0.773E+03   0.553E+01 -.758E+00 -.773E+03   0.407E-01 -.175E-02 -.800E-01   -.137E-02 -.159E-03 0.667E-01
   -.471E+01 -.767E-01 -.809E+03   0.438E+01 0.912E-01 0.809E+03   0.267E+00 0.830E-02 0.649E-01   -.518E-03 -.333E-03 -.956E-02
   -.705E+01 -.443E+00 -.121E+04   0.715E+01 0.463E+00 0.121E+04   -.409E-02 -.275E-02 -.161E+00   0.158E-03 -.344E-03 -.322E-01
   0.548E+00 0.205E+01 -.793E+03   -.761E+00 -.200E+01 0.793E+03   0.228E+00 -.120E-01 0.364E-01   0.983E-05 0.553E-03 -.701E-02
   -.509E+01 0.335E+01 -.123E+04   0.514E+01 -.326E+01 0.123E+04   0.441E-02 -.318E-01 -.172E+00   0.214E-02 -.803E-03 -.339E-01
   0.212E+02 0.216E+00 -.281E+04   -.221E+02 -.144E+00 0.281E+04   0.896E+00 -.891E-02 -.366E+00   -.144E-01 -.138E-02 -.139E+00
   -.686E+02 -.532E+01 -.321E+04   0.680E+02 0.517E+01 0.321E+04   0.462E+00 0.156E+00 0.104E+01   0.187E-01 -.142E-02 -.154E+00
   0.121E+02 -.161E+01 -.278E+04   -.124E+02 0.182E+01 0.278E+04   0.776E+00 -.437E-01 -.176E+00   -.162E-01 0.184E-02 -.136E+00
   -.726E+02 -.302E+01 -.321E+04   0.721E+02 0.328E+01 0.321E+04   0.473E+00 -.387E-01 0.102E+01   0.207E-01 -.307E-02 -.153E+00
   0.713E+01 -.572E-01 0.337E+04   -.165E+01 0.559E-01 -.337E+04   -.132E+01 0.333E-03 -.369E+01   -.383E-03 -.102E-03 0.139E+00
   0.450E+01 0.807E-04 0.277E+04   -.637E+01 0.566E-05 -.277E+04   0.172E-01 -.110E-05 0.255E-01   0.516E-03 -.879E-04 0.129E+00
   0.691E+01 0.154E-04 0.337E+04   -.144E+01 0.316E-05 -.336E+04   -.131E+01 0.527E-05 -.369E+01   -.166E-03 -.266E-04 0.139E+00
   0.328E+01 -.166E+00 0.277E+04   -.517E+01 0.172E+00 -.277E+04   0.205E-01 -.130E-02 0.267E-01   0.381E-03 0.131E-03 0.129E+00
   -.517E+00 -.459E+00 0.125E+04   0.320E+00 0.449E+00 -.125E+04   0.168E+00 0.762E-02 -.235E-01   0.245E-02 0.225E-03 0.875E-01
   -.177E+01 -.304E-04 0.776E+03   0.176E+01 0.388E-04 -.776E+03   0.682E-01 0.795E-06 -.828E-01   -.189E-02 -.934E-05 0.671E-01
   0.740E+00 -.924E-05 0.125E+04   -.915E+00 0.211E-04 -.125E+04   0.159E+00 0.427E-05 -.393E-01   0.229E-02 -.190E-04 0.878E-01
   -.553E+01 -.766E+00 0.773E+03   0.553E+01 0.758E+00 -.773E+03   0.407E-01 0.175E-02 -.800E-01   -.140E-02 0.203E-03 0.667E-01
   -.471E+01 0.766E-01 -.809E+03   0.438E+01 -.912E-01 0.809E+03   0.267E+00 -.829E-02 0.649E-01   -.506E-03 0.395E-03 -.966E-02
   -.897E+01 0.326E-04 -.122E+04   0.902E+01 0.284E-04 0.122E+04   0.327E-01 0.763E-06 -.155E+00   0.101E-02 -.644E-04 -.344E-01
   -.325E+01 -.122E-03 -.802E+03   0.296E+01 0.644E-04 0.802E+03   0.277E+00 0.223E-05 0.109E+00   -.643E-03 0.613E-04 -.887E-02
   -.509E+01 -.335E+01 -.123E+04   0.514E+01 0.326E+01 0.123E+04   0.441E-02 0.318E-01 -.172E+00   0.222E-02 0.830E-03 -.341E-01
   0.212E+02 -.217E+00 -.281E+04   -.221E+02 0.144E+00 0.281E+04   0.896E+00 0.890E-02 -.366E+00   -.144E-01 0.138E-02 -.139E+00
   -.706E+02 -.524E-05 -.321E+04   0.702E+02 0.120E-04 0.321E+04   0.430E+00 0.412E-06 0.103E+01   0.201E-01 -.417E-05 -.155E+00
   0.167E+02 0.105E-03 -.281E+04   -.173E+02 0.216E-04 0.281E+04   0.750E+00 0.329E-05 -.303E+00   -.183E-01 -.133E-03 -.140E+00
   -.726E+02 0.302E+01 -.321E+04   0.721E+02 -.328E+01 0.321E+04   0.473E+00 0.386E-01 0.102E+01   0.206E-01 0.311E-02 -.153E+00
   0.717E+01 0.218E-04 0.337E+04   -.168E+01 -.755E-05 -.337E+04   -.132E+01 0.113E-04 -.369E+01   -.326E-03 -.324E-04 0.140E+00
   0.454E+01 -.102E-01 0.276E+04   -.639E+01 0.737E-02 -.277E+04   0.118E-01 0.946E-03 0.304E-01   0.554E-03 0.279E-05 0.129E+00
   0.699E+01 -.234E+00 0.337E+04   -.154E+01 0.239E+00 -.336E+04   -.131E+01 -.120E-02 -.369E+01   -.580E-03 0.344E-05 0.139E+00
   0.234E+01 0.130E-03 0.277E+04   -.418E+01 -.111E-04 -.277E+04   0.476E-02 0.964E-05 0.281E-01   0.337E-03 -.138E-03 0.130E+00
   0.232E+01 0.573E-04 0.125E+04   -.250E+01 -.435E-04 -.125E+04   0.120E+00 -.181E-05 0.273E-01   0.303E-02 -.123E-04 0.881E-01
   0.617E+00 0.695E+00 0.778E+03   -.579E+00 -.675E+00 -.778E+03   0.465E-02 -.172E-01 -.750E-01   -.166E-02 0.558E-04 0.672E-01
   0.592E+00 -.800E-01 0.125E+04   -.775E+00 0.866E-01 -.125E+04   0.175E+00 -.122E-01 -.375E-01   0.227E-02 -.449E-03 0.877E-01
   -.929E+01 0.817E-04 0.754E+03   0.929E+01 -.342E-04 -.755E+03   0.451E-01 0.280E-06 -.313E-02   -.237E-02 -.509E-04 0.663E-01
   -.485E-01 0.880E-04 -.815E+03   -.290E+00 -.220E-04 0.814E+03   0.208E+00 -.134E-05 0.950E-01   -.927E-03 -.682E-04 -.103E-01
   -.705E+01 0.443E+00 -.121E+04   0.715E+01 -.463E+00 0.121E+04   -.409E-02 0.275E-02 -.161E+00   0.216E-03 0.413E-03 -.323E-01
   0.548E+00 -.205E+01 -.793E+03   -.761E+00 0.200E+01 0.793E+03   0.228E+00 0.120E-01 0.364E-01   -.428E-04 -.617E-03 -.706E-02
   -.819E+01 0.579E-04 -.128E+04   0.818E+01 -.462E-04 0.128E+04   -.768E-02 0.916E-06 0.885E-01   0.167E-02 -.176E-04 -.369E-01
   0.282E+02 -.245E-04 -.283E+04   -.295E+02 0.181E-04 0.283E+04   0.668E+00 0.265E-05 -.206E+00   -.137E-01 -.224E-06 -.136E+00
   -.686E+02 0.532E+01 -.321E+04   0.680E+02 -.517E+01 0.321E+04   0.462E+00 -.156E+00 0.104E+01   0.187E-01 0.142E-02 -.154E+00
   0.121E+02 0.161E+01 -.278E+04   -.124E+02 -.182E+01 0.278E+04   0.776E+00 0.437E-01 -.176E+00   -.163E-01 -.172E-02 -.136E+00
   -.752E+02 0.651E-04 -.330E+04   0.733E+02 -.229E-04 0.330E+04   0.879E+00 0.372E-05 0.257E+01   0.177E-01 -.483E-04 -.150E+00
   -.317E+02 0.391E-01 0.228E+04   0.370E+02 -.388E-01 -.229E+04   -.632E+01 -.207E-03 0.165E+02   0.814E-02 0.254E-04 0.840E-01
   -.319E+02 0.276E-01 0.228E+04   0.372E+02 -.292E-01 -.229E+04   -.632E+01 0.177E-02 0.165E+02   0.796E-02 0.313E-04 0.844E-01
   0.812E+02 0.120E+00 0.138E+04   -.861E+02 -.120E+00 -.137E+04   0.356E+01 -.119E-02 -.409E+01   0.317E-02 -.155E-05 0.835E-01
   0.744E+02 0.625E-01 0.168E+04   -.819E+02 -.603E-01 -.168E+04   0.701E+01 -.373E-02 -.250E+01   -.638E-02 0.537E-04 0.835E-01
   -.858E+02 0.183E-01 0.194E+04   0.934E+02 -.192E-01 -.194E+04   -.647E+01 0.576E-03 -.253E+00   -.316E-02 0.142E-03 0.856E-01
   -.687E+02 -.560E+00 0.105E+04   0.745E+02 0.619E+00 -.105E+04   -.525E+01 -.510E-01 0.410E+01   0.799E-04 0.371E-04 0.673E-01
   0.817E+02 0.187E+00 0.138E+04   -.866E+02 -.166E+00 -.137E+04   0.354E+01 -.198E-01 -.397E+01   0.318E-02 0.527E-04 0.836E-01
   0.735E+02 0.156E+00 0.168E+04   -.810E+02 -.165E+00 -.168E+04   0.703E+01 0.173E-01 -.252E+01   -.646E-02 0.800E-04 0.838E-01
   -.861E+02 0.940E-01 0.194E+04   0.936E+02 -.927E-01 -.194E+04   -.645E+01 -.348E-02 -.255E+00   -.309E-02 -.915E-05 0.857E-01
   -.720E+02 0.266E+00 0.105E+04   0.779E+02 -.261E+00 -.106E+04   -.534E+01 -.645E-02 0.417E+01   0.147E-03 -.620E-04 0.672E-01
   0.778E+02 -.259E+00 0.145E+03   -.845E+02 0.300E+00 -.139E+03   0.597E+01 -.387E-01 -.478E+01   0.184E-03 -.166E-03 0.279E-01
   0.801E+02 0.708E+00 0.471E+03   -.870E+02 -.792E+00 -.467E+03   0.619E+01 0.698E-01 -.289E+01   -.264E-03 -.208E-04 0.430E-01
[...]
   0.844E+02 0.134E-04 -.110E+04   -.917E+02 -.173E-04 0.111E+04   0.663E+01 0.318E-05 -.711E+01   -.218E-03 -.199E-06 -.388E-01
   0.728E+02 0.718E-05 -.739E+03   -.790E+02 0.983E-05 0.742E+03   0.555E+01 0.288E-05 -.290E+01   0.352E-03 -.175E-04 -.185E-01
   -.801E+02 -.805E+00 -.477E+03   0.867E+02 0.766E+00 0.474E+03   -.586E+01 0.590E-01 0.263E+01   0.182E-04 0.468E-03 -.717E-02
   -.579E+02 0.280E+01 -.131E+04   0.604E+02 -.316E+01 0.130E+04   -.230E+01 0.328E+00 0.901E+01   0.200E-02 0.454E-03 -.623E-01
   0.827E+02 0.267E+01 -.108E+04   -.892E+02 -.303E+01 0.108E+04   0.580E+01 0.327E+00 -.570E+01   -.104E-02 -.992E-04 -.364E-01
   0.769E+02 -.191E+01 -.754E+03   -.836E+02 0.180E+01 0.757E+03   0.596E+01 0.166E+00 -.302E+01   0.451E-03 0.190E-03 -.191E-01
   -.735E+02 -.193E-04 -.486E+03   0.798E+02 0.183E-04 0.483E+03   -.569E+01 0.475E-05 0.238E+01   -.484E-03 -.188E-05 -.694E-02
   -.754E+02 -.390E-05 -.135E+04   0.805E+02 0.983E-05 0.134E+04   -.411E+01 -.607E-06 0.752E+01   0.148E-03 -.526E-05 -.675E-01
   0.539E+02 -.512E-05 -.230E+04   -.605E+02 0.704E-05 0.232E+04   0.643E+01 -.161E-05 -.193E+02   -.161E-02 -.991E-06 -.101E+00
   0.547E+02 -.368E-04 -.203E+04   -.587E+02 0.709E-05 0.204E+04   0.367E+01 -.109E-04 -.740E+01   0.300E-02 0.358E-04 -.933E-01
   -.547E+02 -.459E+00 -.167E+04   0.596E+02 0.547E+00 0.167E+04   -.432E+01 0.179E-01 0.289E+01   -.385E-02 -.444E-04 -.796E-01
   0.504E+02 -.160E+01 -.229E+04   -.567E+02 0.208E+01 0.231E+04   0.562E+01 -.477E+00 -.199E+02   -.147E-03 0.135E-02 -.107E+00
   0.604E+02 -.203E+01 -.201E+04   -.657E+02 0.186E+01 0.202E+04   0.458E+01 0.698E+00 -.565E+01   0.311E-02 -.416E-02 -.911E-01
   -.517E+02 0.775E-05 -.164E+04   0.567E+02 0.963E-06 0.164E+04   -.471E+01 -.186E-05 0.466E+01   -.141E-02 -.725E-05 -.792E-01
   -.168E+02 -.415E-04 0.723E+02   0.405E-12 -.819E-12 -.193E-10   0.163E+02 0.411E-04 -.646E+02   0.542E-01 -.110E-04 0.132E+01

 POSITION                                       TOTAL-FORCE (eV/Angst)
      8.29921      9.47401      8.23548         4.315172      0.001063      2.132142
      6.08023      7.57921      9.11607        -1.873105      0.001848     -2.083509
      3.16233      7.57921      8.23548         4.285700     -0.003435      2.115315
      0.94335      9.47401      9.11607        -1.904480     -0.005229     -2.085904
      9.70326      9.47437     11.79903        -0.029321      0.007502     -0.005182
      7.46069      7.57438     12.59794         0.015012     -0.005669      0.012101
      4.56176      7.57657     11.79579        -0.019785      0.002722     -0.008090
      2.31515      9.47353     12.60691         0.010381      0.008588      0.011408
      0.87541      9.47543     15.36211        -0.041889      0.022898      0.005705
      8.88205      7.57219     16.06758         0.035185      0.012278      0.103483
      6.00122      7.57719     15.34161         0.026128      0.039629     -0.033323
      3.73327      9.47473     16.09229        -0.005787      0.057097      0.052467
      2.37352      9.46625     18.99490         0.015883      0.060215      0.230449
      0.00862      7.56667     19.54936        -0.435486     -0.007264      0.101810
      7.49469      7.57738     18.92336         0.479646      0.154283      0.427736
      5.16750      9.48941     19.54324        -0.281542      0.221880      0.002089
      8.29921      1.89480      8.23548         4.315189     -0.001054      2.132140
      6.08023      0.00000      9.11607        -1.889603     -0.000003     -2.081785
      3.16233      0.00000      8.23548         4.306215     -0.000003      2.125503
      0.94335      1.89480      9.11607        -1.904481      0.005239     -2.085926
      9.70326      1.89444     11.79903        -0.029320     -0.007500     -0.005176
      7.45633     11.36881     12.60039         0.009566      0.000000      0.022628
      4.56361      0.00000     11.79852        -0.019126     -0.000003      0.006482
      2.31515      1.89528     12.60691         0.010378     -0.008585      0.011405
      0.87541      1.89338     15.36211        -0.041889     -0.022893      0.005700
      8.86996      0.00000     16.08148         0.015565     -0.000004      0.086184
      6.00773     11.36881     15.35172        -0.004215      0.000007     -0.002229
      3.73327      1.89408     16.09229        -0.005779     -0.057091      0.052467
      2.37352      1.90256     18.99490         0.015870     -0.060212      0.230438
      0.03292     11.36881     19.55068        -0.261182      0.000004     -0.009872
      7.52757     11.36881     18.97961         0.142667     -0.000003      0.250945
      5.16750      1.87940     19.54324        -0.281524     -0.221877      0.002074
      8.29921      5.68441      8.23548         4.325856     -0.000007      2.126434
      6.08023      3.78960      9.11607        -1.873099     -0.001839     -2.083471
      3.16233      3.78960      8.23548         4.285662      0.003440      2.115321
      0.94335      5.68441      9.11607        -1.872245     -0.000010     -2.023549
      9.71960      5.68441     11.79385        -0.053382     -0.000001     -0.023845
      7.46069      3.79443     12.59794         0.015005      0.005670      0.012103
      4.56176      3.79224     11.79579        -0.019778     -0.002720     -0.008085
      2.31866      5.68441     12.63667         0.011738     -0.000003     -0.051573
      0.90718      5.68441     15.36884        -0.117752     -0.000004     -0.066110
      8.88205      3.79662     16.06758         0.035189     -0.012273      0.103486
      6.00122      3.79162     15.34161         0.026122     -0.039634     -0.033325
      3.75245      5.68441     16.17890        -0.069208     -0.000006     -0.356892
      2.41334      5.68441     19.01311        -0.465624     -0.000004      0.090661
      0.00862      3.80214     19.54936        -0.435490      0.007264      0.101826
      7.49469      3.79143     18.92336         0.479641     -0.154276      0.427743
      5.19886      5.68441     19.70820        -1.189302     -0.000002     -1.940130
      5.01563      7.57921      7.50000        -2.113258      0.000053      1.596739
     10.15251      9.47401      7.50000        -2.109263      0.000498      1.592013
      9.36381      9.47401      9.85155        -0.824769     -0.001383     -0.324048
      6.44591      9.47401      8.97095         0.703992     -0.002284     -0.164026
      7.93353      7.57921      8.38059         0.023024     -0.000033     -1.073101
      6.41347      7.57921     11.02238        -0.307062      0.000203      0.629622
      4.22693      7.57921      9.85155        -0.830758     -0.002570     -0.302118
      1.30903      7.57921      8.97095         0.714901      0.011659     -0.172585
      2.79665      9.47401      8.38059         0.032964     -0.002835     -1.074842
      1.27659      9.47401     11.02238        -0.248098     -0.003247      0.665091
      0.50283      9.47575     13.39263         0.247191     -0.003820     -0.188016
      7.84616      9.47342     12.49395         0.265446     -0.002179     -0.100148
[...]
      2.71792      5.68441     14.56626        -0.187626      0.000002      0.267433
      1.97059      5.68441     16.95776         0.413339     -0.000000     -0.153563
      9.28176      5.68441     16.00703         0.257990      0.000003     -0.121477
      0.51819      3.79142     15.43874        -0.251793      0.032515      0.088918
      9.38325      3.78626     18.01613        -0.192595      0.021232      0.178920
      7.12329      3.77877     16.91525         0.189366      0.027646     -0.261679
      4.15003      3.79019     16.04303         0.231975      0.083660     -0.086140
      5.64889      5.68441     15.46030        -0.305405      0.000003      0.120609
      4.23095      5.68441     18.10183         0.337156     -0.000000      1.144333
      3.53954      5.68441     20.49291         0.876522     -0.000001     -0.565498
      0.53179      5.68441     19.78819         0.316350     -0.000007     -0.292638
      2.00220      3.79374     19.00564        -0.140986      0.115820      0.086670
      8.65667      3.82129     20.40772         0.293277     -0.077658     -1.055921
      5.68077      3.76119     19.74360         0.093674      0.668607      0.146837
      7.11906      5.68441     18.92853        -0.541637     -0.000001      0.438096
    total drift:                                0.042549     -0.000005      0.188657

  FREE ENERGIE OF THE ION-ELECTRON SYSTEM (eV)
  free  energy   TOTEN  =     -1692.07944355 eV

  energy  without entropy=    -1692.07944355  energy(sigma->0) =    -1692.07944355