 vasp.6.3.0 20Jan22 (build Apr  1 2022 16:44:48) complex
 executed on        HPECrayEX_GCC date 2022.12.19  14:57:02

 INCAR:
   SYSTEM = MgO-rocksalt
   ISMEAR = 0
   SIGMA = 0.05
   EDIFF = 1E-7
   ALGO = ALL
   ISTART = 0
   IBRION = 5
   POTIM = 0.035
   NFREE = 2
   ISYM = 0
   DIPOL = 0.5 0.5 0.5
   IDIPOL = 3
   LDIPOL = .TRUE.
   GGA = RE
   AGGAC = 0.0
   LUSE_VDW = .TRUE.
   LASPH = .TRUE.
   ENCUT = 600
   PREC = Accurate
   LASPH = .TRUE.
   LREAL = .FALSE.
   ISPIN = 1
   NELM = 200
   NELMIN = 8
   NCORE = 8
   KPAR = 1
   LWAVE = .FALSE.
   LCHARG = .FALSE.

 POTCAR:    PAW_PBE C 08Apr2002
 POTCAR:    PAW_PBE O 08Apr2002
 POTCAR:    PAW_PBE Mg_pv 13Apr2007
 POTCAR:    PAW_PBE O 08Apr2002
|               ----> ADVICE to this user running VASP <----                  |
|     You have switched on vdW-DFT.                                           |
|     This routine was written and supplied by Jiri Klimes. We recommend      |
|     that you carefully read and cite the following publications:            |
|       J. Klimes, D.R. Bowler, A. Michelides                                 |
|          J. Phys.: Cond Matt. 22 022201 (2010)                              |
|       J. Klimes, D.R. Bowler, A. Michelides                                 |
|          Phys. Rev. B. 83, 195131 (2011)                                    |
|     and references therein.                                                 |

   TITEL  = PAW_PBE C 08Apr2002
   POMASS =   12.011; ZVAL   =    4.000    mass and valenz
   ENMAX  =  400.000; ENMIN  =  300.000 eV

[...]

   TITEL  = PAW_PBE Mg_pv 13Apr2007
   POMASS =   24.305; ZVAL   =    8.000    mass and valenz
   ENMAX  =  403.929; ENMIN  =  302.947 eV

   TITEL  = PAW_PBE O 08Apr2002
   POMASS =   16.000; ZVAL   =    6.000    mass and valenz
   ENMAX  =  400.000; ENMIN  =  300.000 eV

  PAW_PBE C 08Apr2002                   :
  PAW_PBE O 08Apr2002                   :
  PAW_PBE Mg_pv 13Apr2007               :
  PAW_PBE O 08Apr2002                   :

 POSCAR:  C  O Mg  O
  positions in direct lattice
 exchange correlation table for  LEXCH =       40
   RHO(1)=    0.500       N(1)  =     2000
   RHO(2)=  100.500       N(2)  =     4000

 ion  position               nearest neighbor table
   1  0.500  0.750  0.725-   3 1.26   2 1.26  56 1.48
   2  0.500  0.886  0.748-   1 1.26  26 2.18
   3  0.500  0.614  0.748-   1 1.26  34 2.18
   4  0.000  0.750  0.350-  36 2.14  38 2.14  39 2.14  46 2.14  55 2.14
   5  0.250  0.000  0.350-  37 2.14  38 2.14  39 2.14  47 2.14  54 2.14
   6  0.000  0.000  0.450-  42 2.13  38 2.14  36 2.14  37 2.14  44 2.14  53 2.14
   7  0.250  0.750  0.450-  39 2.14  37 2.14  36 2.14  45 2.14  52 2.14  43 2.15
   8  1.000  0.750  0.549-  36 2.12  50 2.13  42 2.13  59 2.16  43 2.16  40 2.16
   9  0.252  0.001  0.551-  58 2.12  41 2.12  51 2.13  43 2.14  42 2.16  37 2.16
  10  0.000  0.003  0.649-  48 2.11  41 2.12  57 2.12  42 2.13  40 2.16
  11  0.236  0.750  0.648-  40 2.02  43 2.09  49 2.13  41 2.13
  12  0.000  0.250  0.350-  44 2.14  38 2.14  46 2.14  47 2.14  63 2.14
  13  0.250  0.500  0.350-  45 2.14  39 2.14  46 2.14  47 2.14  62 2.14
  14  0.000  0.500  0.450-  50 2.13  46 2.14  45 2.14  36 2.14  44 2.14  61 2.14
  15  0.250  0.250  0.450-  47 2.14  44 2.14  45 2.14  37 2.14  60 2.14  51 2.14
  16  0.000  0.250  0.550-  44 2.13  50 2.14  42 2.14  51 2.14  67 2.14  48 2.16
  17  0.252  0.499  0.551-  66 2.12  49 2.12  51 2.13  43 2.14  50 2.16  45 2.16
  18  0.000  0.497  0.649-  48 2.11  49 2.12  65 2.12  50 2.13  40 2.16
  19  0.247  0.250  0.650-  48 2.11  51 2.13  49 2.15  41 2.15  64 2.16
  20  0.500  0.750  0.350-  52 2.14  39 2.14  54 2.14  55 2.14  62 2.14
  21  0.750  0.000  0.350-  53 2.14  38 2.14  54 2.14  55 2.14  63 2.14
  22  0.500  0.000  0.450-  54 2.14  52 2.14  53 2.14  37 2.14  60 2.14  58 2.16
  23  0.750  0.750  0.450-  55 2.14  52 2.14  53 2.14  36 2.14  61 2.14  59 2.15
  24  0.500  0.750  0.548-  52 2.09  59 2.12  43 2.12  58 2.12  66 2.12
  25  0.748  0.001  0.551-  58 2.12  57 2.12  67 2.13  59 2.14  42 2.16  53 2.16
  26  0.500  0.012  0.660-  64 2.04  41 2.17  57 2.17   2 2.18  56 2.24
  27  0.764  0.750  0.648-  40 2.02  59 2.09  65 2.13  57 2.13
  28  0.500  0.250  0.350-  60 2.14  54 2.14  47 2.14  62 2.14  63 2.14
  29  0.750  0.500  0.350-  61 2.14  55 2.14  46 2.14  62 2.14  63 2.14
  30  0.500  0.500  0.450-  62 2.14  52 2.14  60 2.14  61 2.14  45 2.14  66 2.16
  31  0.750  0.250  0.450-  63 2.14  53 2.14  60 2.14  61 2.14  44 2.14  67 2.14
  32  0.500  0.250  0.551-  51 2.13  67 2.13  58 2.16  66 2.16  64 2.17  60 2.17
  33  0.748  0.499  0.551-  66 2.12  65 2.12  67 2.13  59 2.14  50 2.16  61 2.16
  34  0.500  0.488  0.660-  64 2.04  49 2.17  65 2.17   3 2.18  56 2.24
  35  0.753  0.250  0.650-  48 2.11  67 2.13  65 2.15  57 2.15  64 2.16
  36  0.000  0.750  0.450-   8 2.12   4 2.14   7 2.14   6 2.14  14 2.14  23 2.14
  37  0.250  0.000  0.450-   5 2.14   6 2.14   7 2.14  15 2.14  22 2.14   9 2.16
  38  0.000  0.000  0.350-   6 2.14   5 2.14   4 2.14  12 2.14  21 2.14
  39  0.250  0.750  0.350-   7 2.14   5 2.14   4 2.14  13 2.14  20 2.14
  40  0.000  0.750  0.650-  27 2.02  11 2.02   8 2.16  10 2.16  18 2.16
  41  0.248  0.999  0.650-  10 2.12   9 2.12  11 2.13  19 2.15  26 2.17
  42  0.000  0.999  0.550-   6 2.13   8 2.13  10 2.13  16 2.14   9 2.16  25 2.16
  43  0.252  0.750  0.551-  11 2.09  24 2.12   9 2.14  17 2.14   7 2.15   8 2.16
  44  0.000  0.250  0.450-  16 2.13  12 2.14  14 2.14  15 2.14   6 2.14  31 2.14
  45  0.250  0.500  0.450-  13 2.14   7 2.14  14 2.14  15 2.14  30 2.14  17 2.16
  46  0.000  0.500  0.350-  14 2.14  12 2.14  13 2.14   4 2.14  29 2.14
  47  0.250  0.250  0.350-  15 2.14  12 2.14  13 2.14   5 2.14  28 2.14
  48  0.000  0.250  0.651-  19 2.11  35 2.11  10 2.11  18 2.11  16 2.16
  49  0.248  0.501  0.650-  18 2.12  17 2.12  11 2.13  19 2.15  34 2.17
  50  0.000  0.501  0.550-  14 2.13   8 2.13  18 2.13  16 2.14  17 2.16  33 2.16
  51  0.251  0.250  0.550-  19 2.13   9 2.13  17 2.13  32 2.13  16 2.14  15 2.14
  52  0.500  0.750  0.450-  24 2.09  20 2.14  22 2.14  23 2.14   7 2.14  30 2.14
  53  0.750  0.000  0.450-  21 2.14   6 2.14  22 2.14  23 2.14  31 2.14  25 2.16
  54  0.500  0.000  0.350-  22 2.14  20 2.14  21 2.14   5 2.14  28 2.14
  55  0.750  0.750  0.350-  23 2.14  20 2.14  21 2.14   4 2.14  29 2.14
  56  0.500  0.750  0.656-   1 1.48  26 2.24  34 2.24
  57  0.752  0.999  0.650-  10 2.12  25 2.12  27 2.13  35 2.15  26 2.17
  58  0.500  0.998  0.551-   9 2.12  25 2.12  24 2.12  32 2.16  22 2.16
  59  0.748  0.750  0.551-  27 2.09  24 2.12  25 2.14  33 2.14  23 2.15   8 2.16
  60  0.500  0.250  0.450-  28 2.14  22 2.14  15 2.14  30 2.14  31 2.14  32 2.17
  61  0.750  0.500  0.450-  29 2.14  23 2.14  14 2.14  30 2.14  31 2.14  33 2.16
  62  0.500  0.500  0.350-  30 2.14  20 2.14  28 2.14  29 2.14  13 2.14
  63  0.750  0.250  0.350-  31 2.14  21 2.14  28 2.14  29 2.14  12 2.14
  64  0.500  0.250  0.653-  26 2.04  34 2.04  19 2.16  35 2.16  32 2.17
  65  0.752  0.501  0.650-  18 2.12  33 2.12  27 2.13  35 2.15  34 2.17
  66  0.500  0.502  0.551-  17 2.12  33 2.12  24 2.12  32 2.16  30 2.16
  67  0.749  0.250  0.550-  35 2.13  25 2.13  33 2.13  32 2.13  16 2.14  31 2.14

IMPORTANT INFORMATION: All symmetrisations will be switched off!
NOSYMM: (Re-)initialisation of all symmetry stuff for point group C_1.

                                     Primitive cell

  volume of cell :    1563.6717

  direct lattice vectors                    reciprocal lattice vectors
     8.546113626  0.000000000  0.000000000     0.117012252  0.000000000  0.000000000
     0.000000000  8.546113626  0.000000000     0.000000000  0.117012252  0.000000000
     0.000000000  0.000000000 21.409585219     0.000000000  0.000000000  0.046708051

  length of vectors
     8.546113626  8.546113626 21.409585219     0.117012252  0.117012252  0.046708051

  position of ions in fractional coordinates (direct lattice)
     0.499999992  0.749999527  0.725421071
     0.500000026  0.885621004  0.748418024
     0.499999987  0.614379477  0.748417785
     0.000000000  0.750000000  0.350310383
     0.250000000  0.000000000  0.350310383
     0.000000000  0.000000000  0.450103461
     0.250000000  0.750000000  0.450103461
     0.999999996  0.749999995  0.548934327
     0.252435121  0.000799322  0.551117351
     0.000000018  0.002694637  0.649174680
     0.236130573  0.749999923  0.647909678
     0.000000000  0.250000000  0.350310383
     0.250000000  0.500000000  0.350310383
     0.000000000  0.500000000  0.450103461
     0.250000000  0.250000000  0.450103461
     0.000000006  0.250000048  0.549757535
     0.252435106  0.499200687  0.551117401
     0.000000013  0.497305443  0.649174743
     0.247095179  0.250000020  0.649618847
     0.500000000  0.750000000  0.350310383
     0.750000000  0.000000000  0.350310383
     0.500000000  0.000000000  0.450103461
     0.750000000  0.750000000  0.450103461
     0.500000006  0.750000003  0.547825157
     0.747564865  0.000799317  0.551117381
     0.499999993  0.011658846  0.659893261
     0.763869454  0.749999933  0.647909717
     0.500000000  0.250000000  0.350310383
     0.750000000  0.500000000  0.350310383
     0.500000000  0.500000000  0.450103461
     0.750000000  0.250000000  0.450103461
     0.499999993  0.249999915  0.551456911
     0.747564900  0.499200696  0.551117424
     0.499999986  0.488341060  0.659893135
     0.752904818  0.250000023  0.649618834
     0.000000000  0.750000000  0.450103461
     0.250000000  0.000000000  0.450103461
     0.000000000  0.000000000  0.350310383
     0.250000000  0.750000000  0.350310383
     0.000000011  0.750000041  0.649751932
     0.247664923  0.998716189  0.650325631
     0.000000011  0.999496689  0.549535961
     0.252444442  0.750000066  0.550535273
     0.000000000  0.250000000  0.450103461
     0.250000000  0.500000000  0.450103461
     0.000000000  0.500000000  0.350310383
     0.250000000  0.250000000  0.350310383
     0.000000006  0.250000036  0.650512231
     0.247664723  0.501283682  0.650325546
     0.000000003  0.500503339  0.549535961
     0.250733516  0.249999975  0.550229632
     0.500000000  0.750000000  0.450103461
     0.750000000  0.000000000  0.450103461
     0.500000000  0.000000000  0.350310383
     0.750000000  0.750000000  0.350310383
     0.499999975  0.750000428  0.656241119
     0.752335083  0.998716161  0.650325629
     0.499999993  0.997697958  0.551167804
     0.747555556  0.750000068  0.550535284
     0.500000000  0.250000000  0.450103461
     0.750000000  0.500000000  0.450103461
     0.500000000  0.500000000  0.350310383
     0.750000000  0.250000000  0.350310383
     0.499999998  0.249999847  0.652708309
     0.752335277  0.501283712  0.650325548
     0.499999993  0.502301880  0.551167779
     0.749266477  0.249999978  0.550229652

  ion indices of the primitive-cell ions
   primitive index   ion index
                 1           1
                 2           2
                 3           3
                 4           4
                 5           5
                 6           6
                 7           7
                 8           8
                 9           9
[...]
      0.00000      0.02303     13.89856         0.000000     -0.001935     -0.006018
      2.01800      6.40958     13.87148         0.011171      0.001338     -0.010612
      0.00000      2.13653      7.50000        -0.000000     -0.000022      0.328684
      2.13653      4.27306      7.50000         0.000348     -0.010235      0.331334
      0.00000      4.27306      9.63653        -0.000000     -0.043297      0.063742
      2.13653      2.13653      9.63653         0.032133     -0.000077      0.055700
      0.00000      2.13653     11.77008         0.000000      0.000206     -0.009726
      2.15734      4.26623     11.79919         0.001786      0.000803     -0.002479
      0.00000      4.25003     13.89856         0.000000      0.001787     -0.007856
      2.11170      2.13653     13.90807         0.000776     -0.000090     -0.000693
      4.27306      6.40959      7.50000         0.000000     -0.000012      0.292248
      6.40959      0.00000      7.50000        -0.000338      0.010223      0.331368
      4.27306      0.00000      9.63653         0.000001      0.094901      0.065024
      6.40959      6.40959      9.63653         0.020024      0.000044     -0.021897
      4.27306      6.40959     11.72871         0.000000      0.003411      0.018247
      6.38877      0.00683     11.79919        -0.003091     -0.001048     -0.002819
      4.27306      0.09964     14.12804        -0.000001     -0.017082     -0.015196
      6.52812      6.40958     13.87148        -0.011172      0.001337     -0.010613
      4.27306      2.13653      7.50000         0.000000     -0.000008      0.336849
      6.40959      4.27306      7.50000        -0.000347     -0.010235      0.331334
      4.27306      4.27306      9.63653         0.000001     -0.094814      0.064202
      6.40959      2.13653      9.63653        -0.032133     -0.000077      0.055701
      4.27306      2.13653     11.80646         0.000000     -0.000740      0.003073
      6.38877      4.26623     11.79920        -0.001787      0.000804     -0.002477
      4.27306      4.17342     14.12804         0.000000     -0.014477     -0.080993
      6.43441      2.13653     13.90807        -0.000776     -0.000090     -0.000694
      0.00000      6.40959      9.63653         0.000000      0.000022      0.043477
      2.13653      0.00000      9.63653         0.033984     -0.040383      0.045450
      0.00000      0.00000      7.50000         0.000000     -0.013496     -0.399656
      2.13653      6.40959      7.50000         0.002543     -0.000025     -0.382380
      0.00000      6.40959     13.91092         0.000000      0.000047      0.000494
      2.11657      8.53514     13.92320        -0.001169      0.004943      0.005668
      0.00000      8.54181     11.76534        -0.000001     -0.000192     -0.002204
      2.15742      6.40959     11.78673        -0.007084     -0.000476     -0.002602
      0.00000      2.13653      9.63653        -0.000000     -0.000021      0.012314
      2.13653      4.27306      9.63653         0.034265      0.040331      0.045587
      0.00000      4.27306      7.50000         0.000000      0.013487     -0.399625
      2.13653      2.13653      7.50000        -0.003770      0.000014     -0.406703
      0.00000      2.13653     13.92720        -0.000000     -0.000157      0.002528
      2.11657      4.28403     13.92320        -0.006970     -0.005606      0.002724
      0.00000      4.27736     11.76534         0.000000      0.000174     -0.002859
      2.14280      2.13653     11.78019        -0.001649      0.000063     -0.000435
      4.27306      6.40959      9.63653         0.000000     -0.000205     -0.044071
      6.40959      0.00000      9.63653        -0.033983     -0.040382      0.045451
      4.27306      0.00000      7.50000        -0.000000     -0.019818     -0.398238
      6.40959      6.40959      7.50000        -0.002543     -0.000025     -0.382380
      4.27306      6.40959     14.04985        -0.000001      0.193042     -0.211905
      6.42954      8.53514     13.92320         0.001170      0.004942      0.005669
      4.27306      8.52644     11.80027         0.000000      0.009447     -0.003645
      6.38869      6.40959     11.78673         0.007085     -0.000476     -0.002601
      4.27306      2.13653      9.63653         0.000000      0.000377      0.091570
      6.40959      4.27306      9.63653        -0.034265      0.040331      0.045588
      4.27306      4.27306      7.50000        -0.000000      0.019820     -0.398219
      6.40959      2.13653      7.50000         0.003770      0.000014     -0.406703
      4.27306      2.13653     13.97421         0.000001     -0.000647      0.006821
      6.42954      4.28403     13.92320         0.006969     -0.005605      0.002724
      4.27306      4.29273     11.80027         0.000001     -0.005625     -0.000228
      6.40332      2.13653     11.78019         0.001649      0.000063     -0.000436
    total drift:                               -0.000002      0.000324      0.022222

  FREE ENERGIE OF THE ION-ELECTRON SYSTEM (eV)
  free  energy   TOTEN  =      -244.63269375 eV

  energy  without entropy=     -244.63269375  energy(sigma->0) =     -244.63269375

 d Force =-0.7021395E-03[-0.516E-01, 0.502E-01]  d Energy =-0.1549647E-03-0.547E-03
 d Force =-0.1239187E+03[-0.124E+03,-0.123E+03]  d Ewald  =-0.1239293E+03 0.106E-01

 Finite differences progress:
  Degree of freedom:   9/  9
  Displacement:        2/  2
  Total:              18/ 18

 SECOND DERIVATIVES (NOT SYMMETRIZED)
               1X          1Y          1Z          2X          2Y          2Z          3X          3Y          3Z
  1X   -20.539683   -0.000045   -0.000105    6.845654    0.000194    0.000373    6.845185   -0.000151    0.000315
  1Y     0.003148  -90.607916    0.002047   -0.002435   40.416069   14.653059   -0.002065   40.420255  -14.655142
  1Z     0.000014    0.004821  -32.141106    0.000039   12.273026   15.026045    0.000022  -12.277347   15.027721
  2X     6.856303    0.001220   -0.000040   -3.504265    0.000377   -0.000334   -2.145668    0.000408    0.000217
  2Y     0.000081   40.417631   12.515657    0.001425  -50.437807  -17.738368   -0.000519    8.778053    1.548292
  2Z     0.000015   14.415065   15.028886   -0.000007  -17.505816  -20.769970   -0.000002   -1.544629   -2.784499
  3X     6.856835   -0.001170    0.001242   -2.145788   -0.003169    0.000841   -3.506210   -0.000039   -0.000019
  3Y     0.000795   40.417804  -12.519163   -0.000705    8.778054   -1.548108    0.003261  -50.441090   17.740272
  3Z     0.000007  -14.422620   15.032667   -0.000004    1.546289   -2.783997    0.000001   17.509287  -20.765951

 Eigenvectors and eigenvalues of the dynamical matrix

   1 f  =   50.093823 THz   314.748772 2PiTHz 1670.950068 cm-1   207.171311 meV
             X         Y         Z           dx          dy          dz
      4.273057  6.409581 15.530964     0.000012   -0.849032    0.000064
      4.273057  7.568618 16.023319    -0.000006    0.345271    0.142585
      4.273057  5.250557 16.023314    -0.000010    0.345332   -0.142646
      0.000000  6.409585  7.500000            0           0           0
      2.136528  0.000000  7.500000            0           0           0
      0.000000  0.000000  9.636528            0           0           0
      2.136528  6.409585  9.636528            0           0           0
      8.546114  6.409585 11.752456            0           0           0
      2.157339  0.006831 11.799194            0           0           0
      0.000000  0.023029 13.898561            0           0           0
      2.017999  6.409585 13.871477            0           0           0
      0.000000  2.136528  7.500000            0           0           0
      2.136528  4.273057  7.500000            0           0           0
      0.000000  4.273057  9.636528            0           0           0
      2.136528  2.136528  9.636528            0           0           0
      0.000000  2.136529 11.770081            0           0           0
      2.157339  4.266226 11.799195            0           0           0
      0.000000  4.250029 13.898562            0           0           0
      2.111703  2.136529 13.908070            0           0           0
      4.273057  6.409585  7.500000            0           0           0
      6.409585  0.000000  7.500000            0           0           0
      4.273057  0.000000  9.636528            0           0           0
      6.409585  6.409585  9.636528            0           0           0
      4.273057  6.409585 11.728709            0           0           0
      6.388774  0.006831 11.799195            0           0           0
      4.273057  0.099638 14.128041            0           0           0
      6.528115  6.409585 13.871478            0           0           0
      4.273057  2.136528  7.500000            0           0           0
      6.409585  4.273057  7.500000            0           0           0
      4.273057  4.273057  9.636528            0           0           0
      6.409585  2.136528  9.636528            0           0           0
      4.273057  2.136528 11.806464            0           0           0
      6.388775  4.266226 11.799195            0           0           0
      4.273057  4.173418 14.128038            0           0           0
      6.434410  2.136529 13.908070            0           0           0
      0.000000  6.409585  9.636528            0           0           0
      2.136528  0.000000  9.636528            0           0           0
      0.000000  0.000000  7.500000            0           0           0
      2.136528  6.409585  7.500000            0           0           0
      0.000000  6.409586 13.910919            0           0           0
      2.116573  8.535142 13.923202            0           0           0
      0.000000  8.541812 11.765337            0           0           0
      2.157419  6.409586 11.786732            0           0           0
      0.000000  2.136528  9.636528            0           0           0
      2.136528  4.273057  9.636528            0           0           0
      0.000000  4.273057  7.500000            0           0           0
      2.136528  2.136528  7.500000            0           0           0
      0.000000  2.136529 13.927197            0           0           0
      2.116571  4.284027 13.923200            0           0           0
      0.000000  4.277358 11.765337            0           0           0
      2.142797  2.136528 11.780188            0           0           0
      4.273057  6.409585  9.636528            0           0           0
      6.409585  0.000000  9.636528            0           0           0
      4.273057  0.000000  7.500000            0           0           0
      6.409585  6.409585  7.500000            0           0           0
      4.273057  6.409589 14.049850            0           0           0
      6.429541  8.535142 13.923202            0           0           0
      4.273057  8.526440 11.800274            0           0           0
      6.388695  6.409586 11.786732            0           0           0
      4.273057  2.136528  9.636528            0           0           0
      6.409585  4.273057  9.636528            0           0           0
      4.273057  4.273057  7.500000            0           0           0
      6.409585  2.136528  7.500000            0           0           0
      4.273057  2.136527 13.974214            0           0           0
      6.429543  4.284028 13.923200            0           0           0
      4.273057  4.292729 11.800274            0           0           0
      6.403316  2.136528 11.780189            0           0           0

[...]

   9 f  =    3.751596 THz    23.571971 2PiTHz  125.139764 cm-1    15.515346 meV
             X         Y         Z           dx          dy          dz
      4.273057  6.409581 15.530964     0.389534   -0.000023    0.000044
      4.273057  7.568618 16.023319     0.652681   -0.000042    0.000061
      4.273057  5.250557 16.023314     0.649823   -0.000004    0.000049
      0.000000  6.409585  7.500000            0           0           0
      2.136528  0.000000  7.500000            0           0           0
      0.000000  0.000000  9.636528            0           0           0
      2.136528  6.409585  9.636528            0           0           0
      8.546114  6.409585 11.752456            0           0           0
      2.157339  0.006831 11.799194            0           0           0
      0.000000  0.023029 13.898561            0           0           0
      2.017999  6.409585 13.871477            0           0           0
      0.000000  2.136528  7.500000            0           0           0
      2.136528  4.273057  7.500000            0           0           0
      0.000000  4.273057  9.636528            0           0           0
      2.136528  2.136528  9.636528            0           0           0
      0.000000  2.136529 11.770081            0           0           0
      2.157339  4.266226 11.799195            0           0           0
      0.000000  4.250029 13.898562            0           0           0
      2.111703  2.136529 13.908070            0           0           0
      4.273057  6.409585  7.500000            0           0           0
      6.409585  0.000000  7.500000            0           0           0
      4.273057  0.000000  9.636528            0           0           0
      6.409585  6.409585  9.636528            0           0           0
      4.273057  6.409585 11.728709            0           0           0
      6.388774  0.006831 11.799195            0           0           0
      4.273057  0.099638 14.128041            0           0           0
      6.528115  6.409585 13.871478            0           0           0
      4.273057  2.136528  7.500000            0           0           0
      6.409585  4.273057  7.500000            0           0           0
      4.273057  4.273057  9.636528            0           0           0
      6.409585  2.136528  9.636528            0           0           0
      4.273057  2.136528 11.806464            0           0           0
      6.388775  4.266226 11.799195            0           0           0
      4.273057  4.173418 14.128038            0           0           0
      6.434410  2.136529 13.908070            0           0           0
      0.000000  6.409585  9.636528            0           0           0
      2.136528  0.000000  9.636528            0           0           0
      0.000000  0.000000  7.500000            0           0           0
      2.136528  6.409585  7.500000            0           0           0
      0.000000  6.409586 13.910919            0           0           0
      2.116573  8.535142 13.923202            0           0           0
      0.000000  8.541812 11.765337            0           0           0
      2.157419  6.409586 11.786732            0           0           0
      0.000000  2.136528  9.636528            0           0           0
      2.136528  4.273057  9.636528            0           0           0
      0.000000  4.273057  7.500000            0           0           0
      2.136528  2.136528  7.500000            0           0           0
      0.000000  2.136529 13.927197            0           0           0
      2.116571  4.284027 13.923200            0           0           0
      0.000000  4.277358 11.765337            0           0           0
      2.142797  2.136528 11.780188            0           0           0
      4.273057  6.409585  9.636528            0           0           0
      6.409585  0.000000  9.636528            0           0           0
      4.273057  0.000000  7.500000            0           0           0
      6.409585  6.409585  7.500000            0           0           0
      4.273057  6.409589 14.049850            0           0           0
      6.429541  8.535142 13.923202            0           0           0
      4.273057  8.526440 11.800274            0           0           0
      6.388695  6.409586 11.786732            0           0           0
      4.273057  2.136528  9.636528            0           0           0
      6.409585  4.273057  9.636528            0           0           0
      4.273057  4.273057  7.500000            0           0           0
      6.409585  2.136528  7.500000            0           0           0
      4.273057  2.136527 13.974214            0           0           0
      6.429543  4.284028 13.923200            0           0           0
      4.273057  4.292729 11.800274            0           0           0
      6.403316  2.136528 11.780189            0           0           0

 Finite differences POTIM=   3.5000000000000003E-002