 vasp.6.3.0 20Jan22 (build Apr  1 2022 16:44:48) complex
 executed on        HPECrayEX_GCC date 2023.01.26  19:18:01

 INCAR:
   SYSTEM = MgO-rocksalt
   ISMEAR = 0
   SIGMA = 0.05
   EDIFF = 1E-6
   ALGO = ALL
   ISTART = 0
   IBRION = -1
   NSW = 0
   ISYM = 0
   DIPOL = 0.5 0.5 0.5
   IDIPOL = 3
   LDIPOL = .TRUE.
   LHFCALC = .TRUE.
   GGA = B5
   AEXX = 0.2
   AGGAX = 0.72
   AGGAC = 0.81
   ALDAC = 0.19
   IVDW = 1
   VDW_S6 = 1.05
   VDW_C6 = 1.23 0.70 0.63 0.70
   VDW_R0 = 1.397 1.342 1.243 1.342
   ENCUT = 600
   PREC = Accurate
   LASPH = .TRUE.
   LREAL = .FALSE.
   ISPIN = 1
   NELM = 200
   NELMIN = 8
   NCORE = 8
   KPAR = 1
   LWAVE = .FALSE.
   LCHARG = .FALSE.

 POTCAR:    PAW_PBE N 08Apr2002
 POTCAR:    PAW_PBE O 08Apr2002
 POTCAR:    PAW_PBE Mg_pv 13Apr2007
 POTCAR:    PAW_PBE O 08Apr2002
 POTCAR:    PAW_PBE N 08Apr2002
   VRHFIN =N: s2p3

   TITEL  = PAW_PBE N 08Apr2002
   POMASS =   14.001; ZVAL   =    5.000    mass and valenz
   ENMAX  =  400.000; ENMIN  =  300.000 eV

[...]

   TITEL  = PAW_PBE Mg_pv 13Apr2007
   POMASS =   24.305; ZVAL   =    8.000    mass and valenz
   ENMAX  =  403.929; ENMIN  =  302.947 eV

   TITEL  = PAW_PBE O 08Apr2002
   POMASS =   16.000; ZVAL   =    6.000    mass and valenz
   ENMAX  =  400.000; ENMIN  =  300.000 eV

  PAW_PBE N 08Apr2002                   :
  PAW_PBE O 08Apr2002                   :
  PAW_PBE Mg_pv 13Apr2007               :
  PAW_PBE O 08Apr2002                   :

 POSCAR:  N  O Mg  O
  positions in direct lattice
 exchange correlation table for  LEXCH =       12
   RHO(1)=    0.500       N(1)  =     2000
   RHO(2)=  100.500       N(2)  =     4000

 ion  position               nearest neighbor table
   1  0.547  0.547  0.752-   3 1.18
   2  0.704  0.704  0.752-   4 1.18
   3  0.521  0.521  0.805-   1 1.18
   4  0.731  0.731  0.805-   2 1.18
   5  0.250  0.000  0.352-  37 2.11  39 2.11  40 2.11  47 2.11  56 2.11
   6  0.500  0.250  0.352-  38 2.11  39 2.11  40 2.11  48 2.11  55 2.11
   7  0.250  0.250  0.451-  39 2.11  38 2.11  37 2.11  45 2.11  54 2.11  43 2.11
   8  0.500  0.000  0.451-  40 2.11  38 2.11  37 2.11  46 2.11  53 2.11  44 2.11
   9  0.250  0.000  0.550-  44 2.11  51 2.11  43 2.11  60 2.11  37 2.12  41 2.13
  10  0.500  0.250  0.550-  59 2.11  52 2.11  43 2.11  44 2.12  38 2.12  42 2.12
  11  0.250  0.250  0.648-  58 2.11  41 2.11  43 2.11  49 2.11  42 2.11
  12  0.500  0.002  0.648-  42 2.09  44 2.10  50 2.11  41 2.11  57 2.12
  13  0.250  0.500  0.352-  45 2.11  39 2.11  47 2.11  48 2.11  64 2.11
  14  0.500  0.750  0.352-  46 2.11  40 2.11  47 2.11  48 2.11  63 2.11
  15  0.250  0.750  0.451-  47 2.11  45 2.11  46 2.11  37 2.11  62 2.11  51 2.11
  16  0.500  0.500  0.451-  48 2.11  45 2.11  46 2.11  38 2.11  61 2.11  52 2.13
  17  0.250  0.500  0.550-  51 2.11  52 2.11  43 2.11  68 2.12  45 2.12  49 2.12
  18  0.501  0.750  0.550-  52 2.10  67 2.10  51 2.11  44 2.11  46 2.12  50 2.15
  19  0.249  0.750  0.648-  66 2.09  51 2.10  50 2.11  41 2.11  49 2.12
  20  0.498  0.498  0.650-  42 2.10  49 2.10  52 2.14  65 2.15  50 2.15
  21  0.750  0.000  0.352-  53 2.11  40 2.11  55 2.11  56 2.11  63 2.11
  22  0.000  0.250  0.352-  54 2.11  39 2.11  55 2.11  56 2.11  64 2.11
  23  0.750  0.250  0.451-  55 2.11  53 2.11  54 2.11  38 2.11  61 2.11  59 2.11
  24  0.000  0.000  0.451-  56 2.11  53 2.11  54 2.11  37 2.11  62 2.11  60 2.11
  25  0.750  1.000  0.550-  44 2.11  60 2.11  67 2.11  59 2.12  53 2.12  57 2.12
  26  0.000  0.250  0.550-  68 2.11  59 2.11  43 2.11  60 2.11  54 2.12  58 2.13
  27  0.750  0.249  0.648-  57 2.09  59 2.10  65 2.11  58 2.11  42 2.12
  28  0.001  0.001  0.648-  60 2.11  58 2.11  41 2.11  66 2.11  57 2.11
  29  0.750  0.500  0.352-  61 2.11  55 2.11  48 2.11  63 2.11  64 2.11
  30  0.000  0.750  0.352-  62 2.11  56 2.11  47 2.11  63 2.11  64 2.11
  31  0.750  0.750  0.451-  63 2.11  53 2.11  61 2.11  62 2.11  46 2.11  67 2.13
  32  0.000  0.500  0.451-  64 2.11  54 2.11  61 2.11  62 2.11  45 2.11  68 2.11
  33  0.750  0.501  0.550-  52 2.10  67 2.10  59 2.11  68 2.11  61 2.12  65 2.15
  34  1.000  0.750  0.550-  68 2.11  60 2.11  67 2.11  51 2.12  62 2.12  66 2.12
  35  0.753  0.753  0.650-  57 2.10  66 2.10  67 2.14  50 2.15  65 2.15
  36  0.002  0.500  0.648-  49 2.09  68 2.10  65 2.11  58 2.11  66 2.12
  37  0.250  0.000  0.451-   5 2.11   7 2.11   8 2.11  15 2.11  24 2.11   9 2.12
  38  0.500  0.250  0.451-   6 2.11   7 2.11   8 2.11  16 2.11  23 2.11  10 2.12
  39  0.250  0.250  0.352-   7 2.11   6 2.11   5 2.11  13 2.11  22 2.11
  40  0.500  0.000  0.352-   8 2.11   6 2.11   5 2.11  14 2.11  21 2.11
  41  0.250  0.000  0.650-  11 2.11  28 2.11  19 2.11  12 2.11   9 2.13
  42  0.500  0.249  0.650-  12 2.09  20 2.10  11 2.11  27 2.12  10 2.12
  43  0.250  0.250  0.549-  11 2.11  17 2.11  10 2.11  26 2.11   9 2.11   7 2.11
  44  0.500  1.000  0.550-  12 2.10  25 2.11   9 2.11  18 2.11   8 2.11  10 2.12
  45  0.250  0.500  0.451-  13 2.11   7 2.11  15 2.11  16 2.11  32 2.11  17 2.12
  46  0.500  0.750  0.451-  14 2.11   8 2.11  15 2.11  16 2.11  31 2.11  18 2.12
  47  0.250  0.750  0.352-  15 2.11  13 2.11  14 2.11   5 2.11  30 2.11
  48  0.500  0.500  0.352-  16 2.11  13 2.11  14 2.11   6 2.11  29 2.11
  49  0.249  0.500  0.650-  36 2.09  20 2.10  11 2.11  19 2.12  17 2.12
  50  0.498  0.752  0.651-  12 2.11  19 2.11  18 2.15  20 2.15  35 2.15
  51  0.251  0.750  0.550-  19 2.10  17 2.11   9 2.11  18 2.11  15 2.11  34 2.12
  52  0.500  0.500  0.550-  18 2.10  33 2.10  10 2.11  17 2.11  16 2.13  20 2.14
  53  0.750  0.000  0.451-  21 2.11   8 2.11  23 2.11  24 2.11  31 2.11  25 2.12
  54  0.000  0.250  0.451-  22 2.11   7 2.11  23 2.11  24 2.11  32 2.11  26 2.12
  55  0.750  0.250  0.352-  23 2.11  21 2.11  22 2.11   6 2.11  29 2.11
  56  0.000  0.000  0.352-  24 2.11  21 2.11  22 2.11   5 2.11  30 2.11
  57  0.750  0.001  0.650-  27 2.09  35 2.10  28 2.11  12 2.12  25 2.12
  58  0.000  0.250  0.650-  11 2.11  28 2.11  27 2.11  36 2.11  26 2.13
  59  0.750  0.251  0.550-  27 2.10  10 2.11  26 2.11  33 2.11  23 2.11  25 2.12
  60  0.000  0.000  0.549-  28 2.11  25 2.11  34 2.11  24 2.11  26 2.11   9 2.11
  61  0.750  0.500  0.451-  29 2.11  23 2.11  16 2.11  31 2.11  32 2.11  33 2.12
  62  0.000  0.750  0.451-  30 2.11  24 2.11  15 2.11  31 2.11  32 2.11  34 2.12
  63  0.750  0.750  0.352-  31 2.11  21 2.11  29 2.11  30 2.11  14 2.11
  64  0.000  0.500  0.352-  32 2.11  22 2.11  29 2.11  30 2.11  13 2.11
  65  0.752  0.498  0.651-  36 2.11  27 2.11  33 2.15  20 2.15  35 2.15
  66  0.001  0.750  0.650-  19 2.09  35 2.10  28 2.11  36 2.12  34 2.12
  67  0.750  0.750  0.550-  18 2.10  33 2.10  25 2.11  34 2.11  31 2.13  35 2.14
  68  1.000  0.500  0.550-  36 2.10  34 2.11  26 2.11  33 2.11  32 2.11  17 2.12

IMPORTANT INFORMATION: All symmetrisations will be switched off!
NOSYMM: (Re-)initialisation of all symmetry stuff for point group C_1.

                                     Primitive cell

  volume of cell :    1519.6535

  direct lattice vectors                    reciprocal lattice vectors
     8.440582262  0.000000000  0.000000000     0.118475239  0.000000000  0.000000000
     0.000000000  8.440582262  0.000000000     0.000000000  0.118475239  0.000000000
     0.000000000  0.000000000 21.330436697     0.000000000  0.000000000  0.046881366

  length of vectors
     8.440582262  8.440582262 21.330436697     0.118475239  0.118475239  0.046881366

  position of ions in fractional coordinates (direct lattice)
     0.547210717  0.547210748  0.751879047
     0.704204974  0.704205047  0.751665046
     0.520960276  0.520960389  0.805130115
     0.730955169  0.730955368  0.804842116
     0.250000000  0.000000000  0.351610242
     0.500000000  0.250000000  0.351610242
     0.250000000  0.250000000  0.450536747
     0.500000000  0.000000000  0.450536747
     0.250123140  0.000042312  0.549832809
     0.500076837  0.250425411  0.550025068
     0.249693950  0.249693954  0.648185561
     0.499778649  0.001698132  0.648118220
     0.250000000  0.500000000  0.351610242
     0.500000000  0.750000000  0.351610242
     0.250000000  0.750000000  0.450536747
     0.500000000  0.500000000  0.450536747
     0.250425408  0.500076836  0.550025070
     0.500597611  0.749538894  0.549881231
     0.248536358  0.750483762  0.648117132
     0.497640142  0.497640129  0.650465310
     0.750000000  0.000000000  0.351610242
     0.000000000  0.250000000  0.351610242
     0.750000000  0.250000000  0.450536747
     0.000000000  0.000000000  0.450536747
     0.750074899  0.999753167  0.550005782
     0.000042315  0.250123135  0.549832809
     0.750483773  0.248536347  0.648117132
     0.000528758  0.000528746  0.648164671
     0.750000000  0.500000000  0.351610242
     0.000000000  0.750000000  0.351610242
     0.750000000  0.750000000  0.450536747
     0.000000000  0.500000000  0.450536747
     0.749538900  0.500597606  0.549881233
     0.999753173  0.750074896  0.550005782
     0.752639934  0.752639925  0.650350380
     0.001698126  0.499778646  0.648118219
     0.250000000  0.000000000  0.450536747
     0.500000000  0.250000000  0.450536747
     0.250000000  0.250000000  0.351610242
     0.500000000  0.000000000  0.351610242
     0.249897112  0.000333727  0.649878627
     0.499893884  0.248776830  0.649602498
     0.250082663  0.250082667  0.549490913
     0.500115080  0.999568629  0.549595223
     0.250000000  0.500000000  0.450536747
     0.500000000  0.750000000  0.450536747
     0.250000000  0.750000000  0.351610242
     0.500000000  0.500000000  0.351610242
     0.248776835  0.499893875  0.649602501
     0.498116453  0.752136712  0.650536705
     0.250592778  0.750037903  0.549592650
     0.500404694  0.500404696  0.550225015
     0.750000000  0.000000000  0.450536747
     0.000000000  0.250000000  0.450536747
     0.750000000  0.250000000  0.351610242
     0.000000000  0.000000000  0.351610242
     0.750349736  0.001476348  0.649560533
     0.000333723  0.249897092  0.649878625
     0.750037905  0.250592766  0.549592648
     0.000072081  0.000072078  0.549477262
     0.750000000  0.500000000  0.450536747
     0.000000000  0.750000000  0.450536747
     0.750000000  0.750000000  0.351610242
     0.000000000  0.500000000  0.351610242
     0.752136717  0.498116445  0.650536696
     0.001476358  0.750349734  0.649560536
     0.749735243  0.749735243  0.550204895
     0.999568637  0.500115082  0.549595225

  ion indices of the primitive-cell ions
   primitive index   ion index
                 1           1
                 2           2
                 3           3
                 4           4
                 5           5
                 6           6
                 7           7
                 8           8
                 9           9
                10          10
                11          11
                12          12
                13          13
                14          14
                15          15
                16          16
                17          17
                18          18
                19          19
                20          20
                21          21
                22          22
                23          23
                24          24
[...]
   4.61877707  4.61877734 16.03790842
   5.94390001  5.94390062 16.03334368
   4.39720807  4.39720902 17.17377696
   6.16968724  6.16968892 17.16763380
   2.11014557  0.00000000  7.50000000
   4.22029113  2.11014557  7.50000000
   2.11014557  2.11014557  9.61014557
   4.22029113  0.00000000  9.61014557
   2.11118494  0.00035714 11.72817392
   4.22093968  2.11373628 11.73227490
   2.10756232  2.10756236 13.82608108
   4.21842280  0.01433322 13.82464467
   2.11014557  4.22029113  7.50000000
   4.22029113  6.33043670  7.50000000
   2.11014557  6.33043670  9.61014557
   4.22029113  4.22029113  9.61014557
   2.11373626  4.22093967 11.73227493
   4.22533531  6.32654470 11.72920680
   2.09779157  6.33451993 13.82462147
   4.20037255  4.20037244 13.87470911
   6.33043670  0.00000000  7.50000000
   0.00000000  2.11014557  7.50000000
   6.33043670  2.11014557  9.61014557
   0.00000000  0.00000000  9.61014557
   6.33106889  8.43849885 11.73186351
   0.00035716  2.11118490 11.72817393
   6.33452002  2.09779148 13.82462145
   0.00446302  0.00446292 13.82563547
   6.33043670  4.22029113  7.50000000
   0.00000000  6.33043670  7.50000000
   6.33043670  6.33043670  9.61014557
   0.00000000  4.22029113  9.61014557
   6.32654474  4.22533527 11.72920683
   8.43849890  6.33106886 11.73186351
   6.35271927  6.35271920 13.87225762
   0.01433317  4.21842277 13.82464464
   2.11014557  0.00000000  9.61014557
   4.22029113  2.11014557  9.61014557
   2.11014557  2.11014557  7.50000000
   4.22029113  0.00000000  7.50000000
   2.10927713  0.00281685 13.86219490
   4.21939545  2.09982129 13.85630495
   2.11084329  2.11084333 11.72088114
   4.22126248  8.43694124 11.72310611
   2.11014557  4.22029113  9.61014557
   4.22029113  6.33043670  9.61014557
   2.11014557  6.33043670  7.50000000
   4.22029113  4.22029113  7.50000000
   2.09982134  4.21939537 13.85630503
   4.20439290  6.34847179 13.87623201
   2.11514896  6.33075662 11.72305123
   4.22370698  4.22370700 11.73653986
   6.33043670  0.00000000  9.61014557
   0.00000000  2.11014557  9.61014557
   6.33043670  2.11014557  7.50000000
   0.00000000  0.00000000  7.50000000
   6.33338867  0.01246124 13.85540982
   0.00281682  2.10927696 13.86219487
   6.33075664  2.11514885 11.72305120
   0.00060841  0.00060838 11.72058995
   6.33043670  4.22029113  9.61014557
   0.00000000  6.33043670  9.61014557
   6.33043670  6.33043670  7.50000000
   0.00000000  4.22029113  7.50000000
   6.34847183  4.20439283 13.87623180
   0.01246132  6.33338865 13.85540990
   6.32820199  6.32820199 11.73611069
   8.43694131  4.22126249 11.72310615

--------------------------------------- Iteration      FINAL  ---------------------------------------

--------------------OUTCAR has been truncated-------------------------

[...]

--------------------OUTCAR has been truncated-------------------------

  DFT-D2 method for vdW energy calculation

  Parameters of vdW forcefield:
         C6(Jnm^6/mol)     R0(A)
   N        1.230          1.397
   O        0.700          1.342
   Mg       0.630          1.243
   O        0.700          1.342

  vdW correction parametrized for the method »ÿ      

  IVDW =   1
  VDW_RADIUS =    50.000 A
  VDW_S6 =     1.050
  VDW_SR =     1.000
  VDW_D =    20.000
  LVDW_EWALD = F

  Number of pair interactions contributing to vdW energy:  814822
  Edisp (eV):   -5.31781

 VOLUME and BASIS-vectors are now :
  energy-cutoff  :      600.00
  volume of cell :     1519.65
      direct lattice vectors                 reciprocal lattice vectors
     8.440582262  0.000000000  0.000000000     0.118475239  0.000000000  0.000000000
     0.000000000  8.440582262  0.000000000     0.000000000  0.118475239  0.000000000
     0.000000000  0.000000000 21.330436697     0.000000000  0.000000000  0.046881366

  length of vectors
     8.440582262  8.440582262 21.330436697     0.118475239  0.118475239  0.046881366

 FORCES acting on ions:
    Electron-Ion                     Ewald-Force                    Non-Local-Force
   0.483E+02 0.483E+02 -.112E+04   -.468E+02 -.468E+02 0.108E+04   -.140E+01 -.140E+01 0.389E+02
   -.474E+02 -.474E+02 -.112E+04   0.458E+02 0.458E+02 0.108E+04   0.154E+01 0.154E+01 0.389E+02
   0.137E+03 0.137E+03 -.161E+04   -.150E+03 -.150E+03 0.167E+04   0.115E+02 0.115E+02 -.531E+02
   -.138E+03 -.138E+03 -.162E+04   0.151E+03 0.151E+03 0.167E+04   -.117E+02 -.117E+02 -.530E+02
   0.208E+00 -.221E+00 0.210E+04   -.210E+00 0.223E+00 -.209E+04   0.120E-02 -.161E-02 -.640E+01
   0.221E+00 0.225E+00 0.210E+04   -.223E+00 -.225E+00 -.209E+04   0.145E-02 0.141E-03 -.639E+01
   0.737E+00 0.737E+00 0.759E+03   -.738E+00 -.738E+00 -.760E+03   0.122E-02 0.122E-02 0.337E+00
   0.801E+00 -.139E+01 0.761E+03   -.803E+00 0.139E+01 -.761E+03   0.185E-02 0.286E-02 0.356E+00
   0.420E+01 -.432E+01 -.580E+03   -.417E+01 0.428E+01 0.580E+03   -.260E-01 0.252E-01 -.169E+00
   0.438E+01 0.681E+01 -.569E+03   -.435E+01 -.670E+01 0.569E+03   -.235E-01 -.965E-01 -.390E+00
   0.223E+02 0.223E+02 -.194E+04   -.226E+02 -.226E+02 0.193E+04   0.177E+00 0.177E+00 0.566E+01
   0.246E+02 -.282E+02 -.192E+04   -.248E+02 0.286E+02 0.191E+04   0.171E+00 -.386E+00 0.572E+01
   0.225E+00 0.221E+00 0.210E+04   -.225E+00 -.223E+00 -.209E+04   0.138E-03 0.145E-02 -.639E+01
   0.239E+00 -.226E+00 0.210E+04   -.239E+00 0.226E+00 -.209E+04   -.115E-03 0.499E-04 -.639E+01
   0.135E+01 -.729E+00 0.761E+03   -.134E+01 0.735E+00 -.761E+03   -.825E-02 -.462E-02 0.355E+00
   0.140E+01 0.140E+01 0.762E+03   -.141E+01 -.141E+01 -.762E+03   0.259E-03 0.255E-03 0.556E+00
   0.681E+01 0.438E+01 -.569E+03   -.670E+01 -.435E+01 0.569E+03   -.965E-01 -.235E-01 -.390E+00
   0.689E+01 -.672E+01 -.559E+03   -.682E+01 0.664E+01 0.559E+03   -.736E-01 0.817E-01 0.160E+00
   0.278E+02 -.242E+02 -.192E+04   -.282E+02 0.244E+02 0.191E+04   0.393E+00 -.174E+00 0.572E+01
   0.441E+02 0.441E+02 -.179E+04   -.448E+02 -.448E+02 0.179E+04   0.693E+00 0.693E+00 0.342E+01
   -.208E+00 -.237E+00 0.210E+04   0.210E+00 0.238E+00 -.209E+04   -.152E-02 -.542E-03 -.639E+01
   -.221E+00 0.208E+00 0.210E+04   0.223E+00 -.210E+00 -.209E+04   -.160E-02 0.121E-02 -.640E+01
   -.729E+00 0.135E+01 0.761E+03   0.735E+00 -.134E+01 -.761E+03   -.463E-02 -.825E-02 0.355E+00
   -.781E+00 -.781E+00 0.759E+03   0.791E+00 0.791E+00 -.760E+03   -.646E-02 -.647E-02 0.333E+00
   -.427E+01 -.696E+01 -.568E+03   0.423E+01 0.686E+01 0.569E+03   0.266E-01 0.881E-01 -.394E+00
   -.432E+01 0.420E+01 -.580E+03   0.428E+01 -.417E+01 0.580E+03   0.252E-01 -.260E-01 -.169E+00
   -.242E+02 0.278E+02 -.192E+04   0.244E+02 -.282E+02 0.191E+04   -.174E+00 0.393E+00 0.572E+01
   -.227E+02 -.227E+02 -.194E+04   0.229E+02 0.229E+02 0.193E+04   -.173E+00 -.173E+00 0.567E+01
   -.226E+00 0.239E+00 0.210E+04   0.226E+00 -.239E+00 -.209E+04   0.535E-04 -.116E-03 -.639E+01
   -.237E+00 -.208E+00 0.210E+04   0.238E+00 0.210E+00 -.209E+04   -.533E-03 -.152E-02 -.639E+01
   -.133E+01 -.133E+01 0.762E+03   0.134E+01 0.134E+01 -.762E+03   -.269E-02 -.270E-02 0.553E+00
   -.139E+01 0.801E+00 0.761E+03   0.139E+01 -.803E+00 -.761E+03   0.286E-02 0.186E-02 0.356E+00
   -.672E+01 0.689E+01 -.559E+03   0.664E+01 -.682E+01 0.559E+03   0.817E-01 -.736E-01 0.160E+00
   -.696E+01 -.427E+01 -.568E+03   0.686E+01 0.423E+01 0.569E+03   0.881E-01 0.266E-01 -.394E+00
   -.436E+02 -.436E+02 -.179E+04   0.443E+02 0.443E+02 0.179E+04   -.699E+00 -.699E+00 0.339E+01
   -.282E+02 0.246E+02 -.192E+04   0.286E+02 -.248E+02 0.191E+04   -.386E+00 0.171E+00 0.572E+01
   0.628E+00 -.656E+00 0.569E+03   -.636E+00 0.656E+00 -.569E+03   0.106E-01 -.661E-03 -.933E-01
   0.668E+00 0.755E+00 0.570E+03   -.674E+00 -.794E+00 -.570E+03   0.787E-02 0.473E-01 -.949E-01
   0.140E+00 0.140E+00 0.158E+04   -.141E+00 -.141E+00 -.158E+04   0.203E-02 0.203E-02 0.312E+01
   0.149E+00 -.200E+00 0.158E+04   -.151E+00 0.201E+00 -.158E+04   0.244E-02 -.168E-02 0.313E+01
   0.113E+02 -.115E+02 -.148E+04   -.112E+02 0.114E+02 0.148E+04   -.140E+00 0.134E+00 -.431E+01
   0.130E+02 0.325E+02 -.144E+04   -.129E+02 -.322E+02 0.145E+04   -.129E+00 -.209E+00 -.426E+01
   0.389E+01 0.389E+01 -.428E+03   -.388E+01 -.388E+01 0.428E+03   -.279E-02 -.279E-02 0.284E+00
   0.406E+01 -.448E+01 -.422E+03   -.406E+01 0.446E+01 0.422E+03   -.314E-02 0.377E-01 0.292E+00
   0.755E+00 0.668E+00 0.570E+03   -.794E+00 -.674E+00 -.570E+03   0.473E-01 0.787E-02 -.949E-01
   0.817E+00 -.763E+00 0.572E+03   -.870E+00 0.808E+00 -.572E+03   0.640E-01 -.550E-01 -.812E-01
   0.190E+00 -.140E+00 0.158E+04   -.191E+00 0.142E+00 -.158E+04   0.160E-02 -.182E-02 0.313E+01
   0.201E+00 0.201E+00 0.158E+04   -.202E+00 -.202E+00 -.158E+04   0.127E-02 0.126E-02 0.313E+01
   0.325E+02 0.130E+02 -.144E+04   -.322E+02 -.129E+02 0.145E+04   -.209E+00 -.129E+00 -.426E+01
   0.424E+02 -.420E+02 -.138E+04   -.420E+02 0.416E+02 0.139E+04   -.350E+00 0.346E+00 -.376E+01
   0.436E+01 -.395E+01 -.422E+03   -.434E+01 0.395E+01 0.422E+03   -.400E-01 -.233E-02 0.292E+00
   0.458E+01 0.458E+01 -.420E+03   -.458E+01 -.458E+01 0.420E+03   -.783E-02 -.783E-02 -.188E+00
   -.613E+00 -.780E+00 0.570E+03   0.611E+00 0.811E+00 -.570E+03   0.129E-02 -.376E-01 -.906E-01
   -.656E+00 0.628E+00 0.569E+03   0.656E+00 -.636E+00 -.569E+03   -.657E-03 0.106E-01 -.933E-01
   -.140E+00 0.190E+00 0.158E+04   0.142E+00 -.191E+00 -.158E+04   -.182E-02 0.160E-02 0.313E+01
   -.150E+00 -.150E+00 0.158E+04   0.151E+00 0.151E+00 -.158E+04   -.210E-02 -.209E-02 0.312E+01
   -.128E+02 -.329E+02 -.144E+04   0.127E+02 0.327E+02 0.145E+04   0.126E+00 0.206E+00 -.427E+01
   -.115E+02 0.113E+02 -.148E+04   0.114E+02 -.112E+02 0.148E+04   0.134E+00 -.140E+00 -.431E+01
   -.395E+01 0.436E+01 -.422E+03   0.395E+01 -.434E+01 0.422E+03   -.233E-02 -.400E-01 0.292E+00
   -.401E+01 -.401E+01 -.428E+03   0.402E+01 0.402E+01 0.428E+03   -.158E-02 -.158E-02 0.284E+00
   -.763E+00 0.817E+00 0.572E+03   0.808E+00 -.870E+00 -.572E+03   -.550E-01 0.640E-01 -.812E-01
   -.780E+00 -.613E+00 0.570E+03   0.811E+00 0.611E+00 -.570E+03   -.376E-01 0.129E-02 -.906E-01
   -.191E+00 -.191E+00 0.158E+04   0.192E+00 0.192E+00 -.158E+04   -.648E-03 -.649E-03 0.313E+01
   -.200E+00 0.149E+00 0.158E+04   0.201E+00 -.151E+00 -.158E+04   -.168E-02 0.243E-02 0.313E+01
   -.420E+02 0.424E+02 -.138E+04   0.416E+02 -.420E+02 0.139E+04   0.346E+00 -.350E+00 -.376E+01
   -.329E+02 -.128E+02 -.144E+04   0.327E+02 0.127E+02 0.145E+04   0.206E+00 0.126E+00 -.427E+01
   -.448E+01 -.448E+01 -.419E+03   0.449E+01 0.449E+01 0.419E+03   0.421E-02 0.421E-02 -.165E+00
   -.448E+01 0.406E+01 -.422E+03   0.446E+01 -.406E+01 0.422E+03   0.377E-01 -.314E-02 0.292E+00
   0.780E-01 0.781E-01 0.534E+02   0.853E-13 0.227E-12 -.114E-11   -.619E-01 -.620E-01 -.443E+02

 POSITION                                       TOTAL-FORCE (eV/Angst)
      4.61878      4.61878     16.03791        -0.011448     -0.011465      1.546333
      5.94390      5.94390     16.03334         0.013859      0.013852      1.561588
      4.39721      4.39721     17.17378         0.234221      0.234213     -1.351255
      6.16969      6.16969     17.16763        -0.242715     -0.242721     -1.357827
      2.11015      0.00000      7.50000        -0.000553      0.000617      0.468643
      4.22029      2.11015      7.50000        -0.000628     -0.000278      0.466244
      2.11015      2.11015      9.61015         0.000292      0.000297      0.026503
      4.22029      0.00000      9.61015        -0.000045      0.000119      0.037844
      2.11118      0.00036     11.72817         0.009915     -0.010750     -0.021989
      4.22094      2.11374     11.73227         0.009965     -0.000931     -0.029078
      2.10756      2.10756     13.82608        -0.015523     -0.015522     -0.152613
      4.21842      0.01433     13.82464        -0.020086     -0.046477     -0.179161
      2.11015      4.22029      7.50000        -0.000283     -0.000626      0.466264
      4.22029      6.33044      7.50000        -0.000202      0.000140      0.465464
      2.11015      6.33044      9.61015         0.002496      0.001542      0.037521
      4.22029      4.22029      9.61015        -0.002703     -0.002704      0.035820
      2.11374      4.22094     11.73227        -0.000932      0.009968     -0.029086
      4.22534      6.32654     11.72921        -0.008550      0.007060      0.031843
      2.09779      6.33452     13.82462         0.045835      0.018121     -0.178980
      4.20037      4.20037     13.87471         0.011296      0.011296     -0.312114
      6.33044      0.00000      7.50000         0.000577      0.000359      0.466026
      0.00000      2.11015      7.50000         0.000621     -0.000543      0.468644
      6.33044      2.11015      9.61015         0.001540      0.002492      0.037516
      0.00000      0.00000      9.61015         0.002307      0.002306      0.025940
      6.33107      8.43850     11.73186        -0.010994      0.001384     -0.028808
      0.00036      2.11118     11.72817        -0.010753      0.009915     -0.021991
      6.33452      2.09779     13.82462         0.018125      0.045839     -0.178979
      0.00446      0.00446     13.82564         0.015440      0.015441     -0.151997
      6.33044      4.22029      7.50000         0.000146     -0.000204      0.465473
      0.00000      6.33044      7.50000         0.000363      0.000576      0.466068
      6.33044      6.33044      9.61015         0.004154      0.004154      0.034705
      0.00000      4.22029      9.61015         0.000120     -0.000043      0.037853
      6.32654      4.22534     11.72921         0.007056     -0.008551      0.031839
      8.43850      6.33107     11.73186         0.001382     -0.010999     -0.028804
      6.35272      6.35272     13.87226        -0.011528     -0.011527     -0.312683
      0.01433      4.21842     13.82464        -0.046476     -0.020085     -0.179158
      2.11015      0.00000      9.61015         0.003605     -0.000716      0.029041
      4.22029      2.11015      9.61015         0.002980      0.015069      0.051125
      2.11015      2.11015      7.50000         0.000646      0.000651     -0.437118
      4.22029      0.00000      7.50000         0.000790     -0.000587     -0.435376
      2.10928      0.00282     13.86219        -0.018462      0.017328      0.029515
      4.21940      2.09982     13.85630        -0.013681      0.013292      0.053337
      2.11084      2.11084     11.72088        -0.001012     -0.001012      0.038234
      4.22126      8.43694     11.72311        -0.000748      0.026360      0.018804
      2.11015      4.22029      9.61015         0.015059      0.002982      0.051130
      4.22029      6.33044      9.61015         0.020137     -0.017531      0.039451
      2.11015      6.33044      7.50000         0.000502     -0.000623     -0.435395
      4.22029      4.22029      7.50000         0.000347      0.000363     -0.434275
      2.09982      4.21940     13.85631         0.013293     -0.013671      0.053339
      4.20439      6.34847     13.87623        -0.015723      0.014635      0.015906
      2.11515      6.33076     11.72305        -0.027155     -0.000656      0.019018
      4.22371      4.22371     11.73654        -0.015675     -0.015676      0.011177
      6.33044      0.00000      9.61015        -0.000376     -0.012320      0.050576
      0.00000      2.11015      9.61015        -0.000711      0.003607      0.029038
      6.33044      2.11015      7.50000        -0.000622      0.000502     -0.435357
      0.00000      0.00000      7.50000        -0.000715     -0.000720     -0.437005
      6.33339      0.01246     13.85541         0.012497     -0.013999      0.053464
      0.00282      2.10928     13.86219         0.017321     -0.018464      0.029515
      6.33076      2.11515     11.72305        -0.000658     -0.027155      0.019011
      0.00061      0.00061     11.72059         0.000037      0.000042      0.038775
      6.33044      4.22029      9.61015        -0.017528      0.020138      0.039456
      0.00000      6.33044      9.61015        -0.012320     -0.000374      0.050579
      6.33044      6.33044      7.50000        -0.000181     -0.000183     -0.434158
      0.00000      4.22029      7.50000        -0.000574      0.000792     -0.435415
      6.34847      4.20439     13.87623         0.014644     -0.015722      0.015909
      0.01246      6.33339     13.85541        -0.014001      0.012492      0.053454
      6.32820      6.32820     11.73611         0.015634      0.015635      0.011836
      8.43694      4.22126     11.72311         0.026360     -0.000746      0.018800
    total drift:                                0.001890      0.001828      0.015108

  FREE ENERGIE OF THE ION-ELECTRON SYSTEM (eV)
  free  energy   TOTEN  =      -470.63066521 eV

  energy  without entropy=     -470.63066521  energy(sigma->0) =     -470.63066521