 vasp.6.3.0 20Jan22 (build Apr  1 2022 16:44:48) complex
 executed on        HPECrayEX_GCC date 2022.11.14  10:11:38

 INCAR:
   SYSTEM = MgO-rocksalt
   ISMEAR = 0
   SIGMA = 0.05
   EDIFF = 1E-6
   ALGO = ALL
   ISTART = 0
   IBRION = -1
   NSW = 0
   ISYM = 0
   DIPOL = 0.5 0.5 0.5
   IDIPOL = 3
   LDIPOL = .TRUE.
   LHFCALC = .TRUE.
   GGA = B5
   AEXX = 0.2
   AGGAX = 0.72
   AGGAC = 0.81
   ALDAC = 0.19
   IVDW = 1
   VDW_S6 = 1.05
   VDW_C6 = 0.63 0.70
   VDW_R0 = 1.243 1.342
   ENCUT = 600
   PREC = Accurate
   LASPH = .TRUE.
   LREAL = .FALSE.
   ISPIN = 2
   MAGMOM = 0.0 0.0 0.0 0.0 0.0 0.0 0.0 0.0 0.0 0.0 0.0 0.0 0.0 0.0 0.0 0.0 0.0 0.0 0.0 0.0 0.0 0.0 0.0 0.0 0.0 0.0 0.0 0.0 0.0 0.0 0.0 0.0 0.0 0.0 0.0 0.0 0.0 0.0 0.0 0.0 0.0 0.0 0.0 0.0 0.0 0.0 0.0 0.0 0.0 0.0 0.0 0.0 0.0 0.0 0.0 0.0 0.0 0.0 0.0 0.0 0.0 0.0 0.0 0.0
   NELM = 200
   NELMIN = 8
   NCORE = 8
   KPAR = 1
   LWAVE = .FALSE.
   LCHARG = .FALSE.

 POTCAR:    PAW_PBE Mg_pv 13Apr2007
 POTCAR:    PAW_PBE O 08Apr2002
 POTCAR:    PAW_PBE Mg_pv 13Apr2007
   VRHFIN =Mg: p6s2

   TITEL  = PAW_PBE Mg_pv 13Apr2007
   POMASS =   24.305; ZVAL   =    8.000    mass and valenz
   ENMAX  =  403.929; ENMIN  =  302.947 eV

   TITEL  = PAW_PBE O 08Apr2002
   POMASS =   16.000; ZVAL   =    6.000    mass and valenz
   ENMAX  =  400.000; ENMIN  =  300.000 eV

  PAW_PBE Mg_pv 13Apr2007               :
  PAW_PBE O 08Apr2002                   :

 POSCAR: Mg  O
  positions in direct lattice
 exchange correlation table for  LEXCH =       12
   RHO(1)=    0.500       N(1)  =     2000
   RHO(2)=  100.500       N(2)  =     4000

 ion  position               nearest neighbor table
   1  0.250  0.000  0.353-  35 2.09  36 2.09  43 2.09  52 2.09  33 2.09
   2  0.500  0.250  0.353-  35 2.09  36 2.09  44 2.09  51 2.09  34 2.09
   3  0.250  0.250  0.451-  33 2.09  34 2.09  41 2.09  50 2.09  35 2.09  39 2.10
   4  0.500  0.000  0.451-  33 2.09  34 2.09  42 2.09  49 2.09  36 2.09  40 2.09
   5  0.250  0.000  0.550-  40 2.09  39 2.09  47 2.09  56 2.09  33 2.10  37 2.13
   6  0.500  0.250  0.550-  48 2.09  39 2.09  55 2.09  40 2.09  34 2.11  38 2.11
   7  0.250  0.250  0.648-  39 2.09  38 2.09  37 2.09  54 2.09  45 2.09
   8  0.500  0.000  0.647-  38 2.08  46 2.08  40 2.09  37 2.09  53 2.09
   9  0.250  0.500  0.353-  35 2.09  43 2.09  44 2.09  60 2.09  41 2.09
  10  0.500  0.750  0.353-  36 2.09  43 2.09  44 2.09  59 2.09  42 2.09
  11  0.250  0.750  0.451-  33 2.09  41 2.09  42 2.09  58 2.09  43 2.09  47 2.10
  12  0.500  0.500  0.451-  34 2.09  41 2.09  42 2.09  57 2.09  44 2.09  48 2.10
  13  0.251  0.500  0.550-  48 2.09  39 2.09  47 2.09  64 2.09  41 2.11  45 2.13
  14  0.500  0.750  0.550-  48 2.08  47 2.09  40 2.09  63 2.09  42 2.11  46 2.11
  15  0.250  0.750  0.648-  37 2.08  47 2.09  46 2.09  45 2.09  62 2.09
  16  0.499  0.500  0.649-  45 2.08  38 2.09  46 2.09  61 2.11  48 2.11
  17  0.750  0.000  0.353-  36 2.09  51 2.09  52 2.09  59 2.09  49 2.09
  18  0.000  0.250  0.353-  35 2.09  51 2.09  52 2.09  60 2.09  50 2.09
  19  0.750  0.250  0.451-  34 2.09  49 2.09  50 2.09  57 2.09  51 2.09  55 2.10
  20  0.000  0.000  0.451-  33 2.09  49 2.09  50 2.09  58 2.09  52 2.09  56 2.10
  21  0.750  0.000  0.550-  40 2.09  56 2.09  55 2.09  63 2.09  49 2.10  53 2.12
  22  0.000  0.250  0.550-  39 2.09  55 2.09  64 2.09  56 2.09  50 2.10  54 2.12
  23  0.750  0.249  0.648-  53 2.08  55 2.09  38 2.09  54 2.09  61 2.10
  24  0.000  0.000  0.648-  37 2.08  56 2.08  54 2.09  53 2.09  62 2.09
  25  0.750  0.500  0.353-  44 2.09  51 2.09  59 2.09  60 2.09  57 2.09
  26  0.000  0.750  0.353-  43 2.09  52 2.09  59 2.09  60 2.09  58 2.09
  27  0.750  0.750  0.451-  42 2.09  49 2.09  57 2.09  58 2.09  59 2.09  63 2.10
  28  0.000  0.500  0.451-  41 2.09  50 2.09  57 2.09  58 2.09  60 2.09  64 2.10
  29  0.750  0.500  0.550-  48 2.08  55 2.08  63 2.09  64 2.09  57 2.10  61 2.14
  30  0.000  0.750  0.550-  47 2.09  64 2.09  63 2.09  56 2.09  58 2.10  62 2.12
  31  0.750  0.752  0.647-  53 2.07  63 2.08  62 2.09  46 2.09  61 2.10
  32  0.002  0.500  0.648-  45 2.07  64 2.08  54 2.09  62 2.09  61 2.09
  33  0.250  0.000  0.451-   3 2.09   4 2.09  11 2.09  20 2.09   1 2.09   5 2.10
  34  0.500  0.250  0.451-   3 2.09   4 2.09  12 2.09  19 2.09   2 2.09   6 2.11
  35  0.250  0.250  0.353-   1 2.09   2 2.09   9 2.09  18 2.09   3 2.09
  36  0.500  0.000  0.353-   1 2.09   2 2.09  10 2.09  17 2.09   4 2.09
  37  0.250  0.000  0.650-  24 2.08  15 2.08   7 2.09   8 2.09   5 2.13
  38  0.500  0.249  0.649-   8 2.08   7 2.09  23 2.09  16 2.09   6 2.11
  39  0.250  0.250  0.550-   7 2.09  22 2.09  13 2.09   5 2.09   6 2.09   3 2.10
  40  0.500  1.000  0.549-   8 2.09  21 2.09   5 2.09  14 2.09   6 2.09   4 2.09
  41  0.250  0.500  0.451-   3 2.09  11 2.09  12 2.09  28 2.09   9 2.09  13 2.11
  42  0.500  0.750  0.451-   4 2.09  11 2.09  12 2.09  27 2.09  10 2.09  14 2.11
  43  0.250  0.750  0.353-   1 2.09   9 2.09  10 2.09  26 2.09  11 2.09
  44  0.500  0.500  0.353-   2 2.09   9 2.09  10 2.09  25 2.09  12 2.09
  45  0.250  0.500  0.650-  32 2.07  16 2.08  15 2.09   7 2.09  13 2.13
  46  0.500  0.751  0.649-   8 2.08  31 2.09  15 2.09  16 2.09  14 2.11
  47  0.250  0.750  0.550-  30 2.09  15 2.09  13 2.09  14 2.09   5 2.09  11 2.10
  48  0.500  0.500  0.550-  29 2.08  14 2.08  13 2.09   6 2.09  12 2.10  16 2.11
  49  0.750  0.000  0.451-   4 2.09  19 2.09  20 2.09  27 2.09  17 2.09  21 2.10
  50  0.000  0.250  0.451-   3 2.09  19 2.09  20 2.09  28 2.09  18 2.09  22 2.10
  51  0.750  0.250  0.353-   2 2.09  17 2.09  18 2.09  25 2.09  19 2.09
  52  0.000  0.000  0.353-   1 2.09  17 2.09  18 2.09  26 2.09  20 2.09
  53  0.750  0.000  0.650-  31 2.07  23 2.08  24 2.09   8 2.09  21 2.12
  54  0.000  0.250  0.650-  32 2.09  24 2.09  23 2.09   7 2.09  22 2.12
  55  0.750  0.250  0.550-  29 2.08  23 2.09  22 2.09  21 2.09   6 2.09  19 2.10
  56  0.000  0.000  0.550-  24 2.08  30 2.09  22 2.09  21 2.09   5 2.09  20 2.10
  57  0.750  0.500  0.451-  12 2.09  19 2.09  27 2.09  28 2.09  25 2.09  29 2.10
  58  0.000  0.750  0.451-  11 2.09  20 2.09  27 2.09  28 2.09  26 2.09  30 2.10
  59  0.750  0.750  0.353-  10 2.09  17 2.09  25 2.09  26 2.09  27 2.09
  60  0.000  0.500  0.353-   9 2.09  18 2.09  25 2.09  26 2.09  28 2.09
  61  0.752  0.500  0.650-  32 2.09  23 2.10  31 2.10  16 2.11  29 2.14
  62  0.000  0.750  0.650-  31 2.09  32 2.09  24 2.09  15 2.09  30 2.12
  63  0.750  0.750  0.550-  31 2.08  29 2.09  30 2.09  14 2.09  21 2.09  27 2.10
  64  1.000  0.500  0.550-  32 2.08  30 2.09  22 2.09  29 2.09  13 2.09  28 2.10

IMPORTANT INFORMATION: All symmetrisations will be switched off!
NOSYMM: (Re-)initialisation of all symmetry stuff for point group C_1.

                                     Primitive cell

  volume of cell :    1482.1129

  direct lattice vectors                    reciprocal lattice vectors
     8.349111827  0.000000000  0.000000000     0.119773219  0.000000000  0.000000000
     0.000000000  8.349111827  0.000000000     0.000000000  0.119773219  0.000000000
     0.000000000  0.000000000 21.261833870     0.000000000  0.000000000  0.047032632

  length of vectors
     8.349111827  8.349111827 21.261833870     0.119773219  0.119773219  0.047032632

  position of ions in fractional coordinates (direct lattice)
     0.250000000  0.000000000  0.352744737
     0.500000000  0.250000000  0.352744737
     0.250000000  0.250000000  0.450914912
     0.500000000  0.000000000  0.450914912
     0.250249468  0.000132381  0.549819610
     0.500057327  0.250330044  0.550027455
     0.250377554  0.249818042  0.647612389
     0.500015890  0.000211307  0.647484441
     0.250000000  0.500000000  0.352744737
     0.500000000  0.750000000  0.352744737
     0.250000000  0.750000000  0.450914912
     0.500000000  0.500000000  0.450914912
     0.250561379  0.500077739  0.549963947
     0.500018816  0.749794605  0.549991275
     0.250369682  0.750444718  0.647627358
     0.498944696  0.499954557  0.649301184
     0.750000000  0.000000000  0.352744737
     0.000000000  0.250000000  0.352744737
     0.750000000  0.250000000  0.450914912
     0.000000000  0.000000000  0.450914912
     0.750065609  0.000272567  0.549717056
     0.000150537  0.250150028  0.549887768
     0.749991174  0.248981485  0.647695337
     0.000465504  0.000191114  0.647563526
     0.750000000  0.500000000  0.352744737
     0.000000000  0.750000000  0.352744737
     0.750000000  0.750000000  0.450914912
     0.000000000  0.500000000  0.450914912
     0.749662578  0.499961441  0.549692534
     0.000269337  0.750046070  0.549833944
     0.750306168  0.751916473  0.647158109
     0.001595128  0.500121368  0.647545492
     0.250000000  0.000000000  0.450914912
     0.500000000  0.250000000  0.450914912
     0.250000000  0.250000000  0.352744737
     0.500000000  0.000000000  0.352744737
     0.250049069  0.000078209  0.649787514
     0.500127593  0.249356709  0.649203131
     0.249914554  0.250166713  0.549538549
     0.500169157  0.999992330  0.549390485
     0.250000000  0.500000000  0.450914912
     0.500000000  0.750000000  0.450914912
     0.250000000  0.750000000  0.352744737
     0.500000000  0.500000000  0.352744737
     0.249913240  0.500173934  0.649926083
     0.500473676  0.750766696  0.649459711
     0.250005035  0.750030428  0.549558968
     0.500347780  0.500126233  0.549891970
     0.750000000  0.000000000  0.450914912
     0.000000000  0.250000000  0.450914912
     0.750000000  0.250000000  0.352744737
     0.000000000  0.000000000  0.352744737
     0.750421410  0.000188848  0.649582576
     0.000117772  0.250174635  0.649828321
     0.750285863  0.250350130  0.549614539
     0.000139280  0.000082115  0.549508659
     0.750000000  0.500000000  0.450914912
     0.000000000  0.750000000  0.450914912
     0.750000000  0.750000000  0.352744737
     0.000000000  0.500000000  0.352744737
     0.751593658  0.500390151  0.650209723
     0.000066645  0.750132319  0.649774329
     0.750279318  0.749856470  0.549540846
     0.999896708  0.500112018  0.549631900

  ion indices of the primitive-cell ions
   primitive index   ion index
                 1           1
                 2           2
                 3           3
                 4           4
                 5           5
                 6           6
                 7           7
                 8           8
                 9           9
                10          10
                11          11
                12          12
                13          13
                14          14
                15          15
                16          16
                17          17
                18          18
                19          19
                20          20
                21          21
                22          22
                23          23
                24          24
                25          25
                26          26
                27          27
                28          28
                29          29
                30          30
                31          31
                32          32
                33          33
                34          34
                35          35
[...]
   0.50000000  0.75000000  0.45091491
   0.25000000  0.75000000  0.35274474
   0.50000000  0.50000000  0.35274474
   0.24991324  0.50017393  0.64992608
   0.50047368  0.75076670  0.64945971
   0.25000504  0.75003043  0.54955897
   0.50034778  0.50012623  0.54989197
   0.75000000  0.00000000  0.45091491
   0.00000000  0.25000000  0.45091491
   0.75000000  0.25000000  0.35274474
   0.00000000  0.00000000  0.35274474
   0.75042141  0.00018885  0.64958258
   0.00011777  0.25017464  0.64982832
   0.75028586  0.25035013  0.54961454
   0.00013928  0.00008211  0.54950866
   0.75000000  0.50000000  0.45091491
   0.00000000  0.75000000  0.45091491
   0.75000000  0.75000000  0.35274474
   0.00000000  0.50000000  0.35274474
   0.75159366  0.50039015  0.65020972
   0.00006664  0.75013232  0.64977433
   0.75027932  0.74985647  0.54954085
   0.99989671  0.50011202  0.54963190

 position of ions in cartesian coordinates  (Angst):
   2.08727796  0.00000000  7.50000000
   4.17455591  2.08727796  7.50000000
   2.08727796  2.08727796  9.58727796
   4.17455591  0.00000000  9.58727796
   2.08936079  0.00110527 11.69017321
   4.17503454  2.09003353 11.69459238
   2.09043019  2.08575877 13.76942702
   4.17468858  0.00176423 13.76670661
   2.08727796  4.17455591  7.50000000
   4.17455591  6.26183387  7.50000000
   2.08727796  6.26183387  9.58727796
   4.17455591  4.17455591  9.58727796
   2.09196497  4.17520496 11.69324208
   4.17471301  6.26011900 11.69382311
   2.09036448  6.26554687 13.76974530
   4.16574506  4.17417650 13.80533391
   6.26183387  0.00000000  7.50000000
   0.00000000  2.08727796  7.50000000
   6.26183387  2.08727796  9.58727796
   0.00000000  0.00000000  9.58727796
   6.26238165  0.00227569 11.68799272
   0.00125685  2.08853056 11.69162237
   6.26176018  2.07877426 13.77119066
   0.00388654  0.00159563 13.76838812
   6.26183387  4.17455591  7.50000000
   0.00000000  6.26183387  7.50000000
   6.26183387  6.26183387  9.58727796
   0.00000000  4.17455591  9.58727796
   6.25901669  4.17423398 11.68747134
   0.00224873  6.26221851 11.69047797
   6.26439010  6.27783472 13.75976819
   0.01331790  4.17556923 13.76800467
   2.08727796  0.00000000  9.58727796
   4.17455591  2.08727796  9.58727796
   2.08727796  2.08727796  7.50000000
   4.17455591  0.00000000  7.50000000
   2.08768764  0.00065298 13.81567418
   4.17562120  2.08190705 13.80324911
   2.08656456  2.08866986 11.68419733
   4.17596822  8.34904779 11.68104922
   2.08727796  4.17455591  9.58727796
   4.17455591  6.26183387  9.58727796
   2.08727796  6.26183387  7.50000000
   4.17455591  4.17455591  7.50000000
   2.08655358  4.17600811 13.81862041
   4.17851068  6.26823510 13.80870447
   2.08732000  6.26208792 11.68463148
   4.17745957  4.17560985 11.69171171
   6.26183387  0.00000000  9.58727796
   0.00000000  2.08727796  9.58727796
   6.26183387  2.08727796  7.50000000
   0.00000000  0.00000000  7.50000000
   6.26535227  0.00157671 13.81131682
   0.00098329  2.08873601 13.81654180
   6.26422057  2.09020123 11.68581303
   0.00116286  0.00068558 11.68356181
   6.26183387  4.17455591  9.58727796
   0.00000000  6.26183387  9.58727796
   6.26183387  6.26183387  7.50000000
   0.00000000  4.17455591  7.50000000
   6.27513950  4.17781333 13.82465111
   0.00055642  6.26293862 13.81539383
   6.26416592  6.26063552 11.68424617
   8.34824943  4.17549116 11.68618214

--------------------------------------- Iteration      FINAL  ---------------------------------------

--------------------OUTCAR has been truncated-------------------------

[...]

--------------------OUTCAR has been truncated-------------------------

  DFT-D2 method for vdW energy calculation

  Parameters of vdW forcefield:
         C6(Jnm^6/mol)     R0(A)
   Mg       0.630          1.243
   O        0.700          1.342

  vdW correction parametrized for the method ü      

  IVDW =   1
  VDW_RADIUS =    50.000 A
  VDW_S6 =     1.050
  VDW_SR =     1.000
  VDW_D =    20.000
  LVDW_EWALD = F

  Number of pair interactions contributing to vdW energy:  742593
  Edisp (eV):   -5.30057

 VOLUME and BASIS-vectors are now :
  energy-cutoff  :      600.00
  volume of cell :     1482.11
      direct lattice vectors                 reciprocal lattice vectors
     8.349111827  0.000000000  0.000000000     0.119773219  0.000000000  0.000000000
     0.000000000  8.349111827  0.000000000     0.000000000  0.119773219  0.000000000
     0.000000000  0.000000000 21.261833870     0.000000000  0.000000000  0.047032632

  length of vectors
     8.349111827  8.349111827 21.261833870     0.119773219  0.119773219  0.047032632

 FORCES acting on ions:
    Electron-Ion                     Ewald-Force                    Non-Local-Force
   -.351E-01 -.886E-02 0.212E+04   0.357E-01 0.918E-02 -.212E+04   -.427E-03 -.237E-03 -.644E+01
   0.151E-01 -.128E+00 0.212E+04   -.161E-01 0.130E+00 -.212E+04   0.597E-03 -.109E-02 -.644E+01
   -.273E+00 -.515E+00 0.702E+03   0.274E+00 0.531E+00 -.702E+03   -.617E-04 -.101E-01 0.472E+00
   0.664E-01 -.561E-01 0.702E+03   -.671E-01 0.547E-01 -.703E+03   0.780E-03 0.105E-02 0.412E+00
   0.163E+00 0.825E-01 -.708E+03   -.187E+00 -.908E-01 0.708E+03   0.631E-02 0.202E-02 -.929E-01
   -.561E+00 -.190E+01 -.708E+03   0.617E+00 0.205E+01 0.709E+03   -.319E-01 -.118E+00 -.362E+00
   0.477E+00 -.813E+00 -.211E+04   -.630E+00 0.618E+00 0.210E+04   0.786E-01 0.159E+00 0.544E+01
   -.304E+00 0.528E+00 -.211E+04   0.225E+00 -.567E+00 0.210E+04   0.727E-01 0.128E-01 0.541E+01
   -.610E-01 0.976E-02 0.212E+04   0.629E-01 -.963E-02 -.212E+04   -.138E-02 -.104E-03 -.644E+01
   0.183E-01 0.128E+00 0.212E+04   -.195E-01 -.130E+00 -.212E+04   0.766E-03 0.938E-03 -.644E+01
   -.272E+00 0.527E+00 0.702E+03   0.283E+00 -.535E+00 -.702E+03   -.654E-02 0.472E-02 0.479E+00
   0.236E+00 0.706E-01 0.700E+03   -.242E+00 -.654E-01 -.701E+03   0.328E-02 -.349E-02 0.537E+00
   -.556E+00 -.737E-01 -.709E+03   0.650E+00 0.733E-01 0.709E+03   -.970E-01 0.185E-02 -.852E-01
   -.380E+00 0.193E+01 -.709E+03   0.411E+00 -.208E+01 0.709E+03   -.935E-02 0.116E+00 -.300E+00
   -.144E+00 0.823E+00 -.211E+04   0.507E-02 -.629E+00 0.210E+04   0.831E-01 -.160E+00 0.543E+01
   -.691E+01 -.499E+00 -.212E+04   0.701E+01 0.584E+00 0.211E+04   0.117E+00 -.438E-01 0.568E+01
   0.364E-01 -.116E-01 0.212E+04   -.363E-01 0.123E-01 -.212E+04   -.897E-04 -.556E-03 -.643E+01
   -.148E-01 -.102E+00 0.212E+04   0.161E-01 0.103E+00 -.212E+04   -.893E-03 -.286E-03 -.644E+01
   0.296E+00 -.353E+00 0.701E+03   -.290E+00 0.365E+00 -.702E+03   -.468E-02 -.812E-02 0.471E+00
   -.436E-01 -.551E-01 0.702E+03   0.585E-01 0.636E-01 -.703E+03   -.922E-02 -.531E-02 0.450E+00
   -.144E+00 -.438E-01 -.706E+03   0.154E+00 0.841E-01 0.706E+03   0.751E-03 -.397E-01 -.996E-01
   0.471E+00 -.758E+00 -.709E+03   -.526E+00 0.833E+00 0.709E+03   0.302E-01 -.528E-01 -.189E+00
   0.300E+00 -.574E+01 -.211E+04   -.790E-01 0.586E+01 0.210E+04   -.134E+00 0.562E-01 0.544E+01
   0.190E+00 -.312E-01 -.211E+04   -.114E+00 0.246E-01 0.210E+04   -.715E-01 0.247E-02 0.537E+01
   0.618E-01 0.126E-01 0.212E+04   -.631E-01 -.128E-01 -.212E+04   0.969E-03 0.163E-03 -.644E+01
   -.175E-01 0.103E+00 0.212E+04   0.193E-01 -.103E+00 -.212E+04   -.123E-02 -.239E-04 -.644E+01
   0.303E+00 0.366E+00 0.702E+03   -.301E+00 -.367E+00 -.702E+03   -.117E-02 0.141E-02 0.448E+00
   -.212E+00 0.751E-01 0.701E+03   0.230E+00 -.755E-01 -.702E+03   -.106E-01 0.377E-03 0.453E+00
   0.867E+00 -.534E-01 -.711E+03   -.926E+00 0.304E-01 0.711E+03   0.783E-01 0.288E-01 -.188E+00
   0.258E+00 0.783E+00 -.708E+03   -.288E+00 -.862E+00 0.708E+03   0.856E-02 0.548E-01 -.190E+00
   0.892E+00 0.654E+01 -.210E+04   -.729E+00 -.667E+01 0.210E+04   -.114E+00 -.878E-01 0.535E+01
   0.398E+01 -.893E-01 -.210E+04   -.438E+01 0.110E+00 0.210E+04   0.172E+00 -.911E-02 0.530E+01
   -.198E-01 -.170E-02 0.526E+03   0.141E-01 -.348E-02 -.526E+03   0.597E-02 0.597E-02 -.875E-01
   0.694E-02 -.475E+00 0.525E+03   -.112E-01 0.451E+00 -.525E+03   0.530E-02 0.289E-01 -.130E+00
   -.391E-01 -.914E-01 0.159E+04   0.391E-01 0.922E-01 -.160E+04   -.818E-05 -.104E-02 0.310E+01
   0.801E-02 -.851E-02 0.159E+04   -.941E-02 0.825E-02 -.160E+04   0.174E-02 0.330E-03 0.310E+01
   -.787E-01 0.749E-01 -.160E+04   0.485E-01 -.847E-01 0.161E+04   0.526E-01 0.159E-01 -.460E+01
   -.135E+01 -.271E+01 -.160E+04   0.146E+01 0.278E+01 0.160E+04   -.122E+00 -.112E-01 -.421E+01
   -.203E+00 -.647E+00 -.525E+03   0.191E+00 0.650E+00 0.524E+03   0.277E-01 -.614E-02 0.367E+00
   0.118E-01 0.432E-01 -.523E+03   0.151E-01 -.516E-01 0.523E+03   -.325E-01 0.141E-01 0.373E+00
   -.163E+00 0.229E-01 0.525E+03   0.132E+00 -.287E-01 -.525E+03   0.362E-01 0.697E-02 -.111E+00
   0.258E-01 0.484E+00 0.525E+03   -.264E-01 -.466E+00 -.525E+03   0.881E-03 -.231E-01 -.132E+00
   -.399E-01 0.908E-01 0.159E+04   0.406E-01 -.919E-01 -.160E+04   -.844E-03 0.143E-02 0.310E+01
   0.224E-01 0.860E-02 0.159E+04   -.239E-01 -.843E-02 -.160E+04   0.187E-02 -.212E-03 0.310E+01
   -.864E+00 -.102E+00 -.160E+04   0.732E+00 0.118E+00 0.161E+04   0.186E+00 -.224E-01 -.439E+01
   -.104E+01 0.278E+01 -.160E+04   0.119E+01 -.289E+01 0.160E+04   -.185E+00 0.631E-01 -.436E+01
   -.339E+00 0.603E+00 -.525E+03   0.330E+00 -.590E+00 0.525E+03   0.212E-01 -.104E-01 0.348E+00
   -.735E+00 -.496E-01 -.533E+03   0.820E+00 0.554E-01 0.533E+03   -.119E+00 -.111E-01 -.879E-01
   0.500E-01 -.664E-02 0.526E+03   -.611E-01 -.736E-02 -.526E+03   0.141E-01 0.163E-01 -.698E-01
   0.890E-02 -.306E+00 0.526E+03   -.139E-01 0.303E+00 -.525E+03   0.572E-02 0.342E-02 -.122E+00
   0.390E-01 -.772E-01 0.159E+04   -.392E-01 0.778E-01 -.160E+04   0.289E-03 -.796E-03 0.310E+01
   -.882E-02 -.933E-02 0.159E+04   0.978E-02 0.975E-02 -.160E+04   -.115E-02 -.522E-03 0.310E+01
   0.131E+00 -.482E+00 -.160E+04   -.922E-01 0.511E+00 0.161E+04   -.623E-01 -.114E-01 -.456E+01
   0.838E+00 -.711E+00 -.160E+04   -.989E+00 0.859E+00 0.161E+04   0.183E+00 -.176E+00 -.462E+01
   0.283E+00 -.134E+01 -.526E+03   -.268E+00 0.142E+01 0.526E+03   -.298E-01 -.112E+00 0.228E+00
   -.682E-01 -.890E-01 -.525E+03   0.584E-01 0.847E-01 0.524E+03   0.126E-01 0.589E-02 0.306E+00
   0.181E+00 0.297E-01 0.526E+03   -.163E+00 -.286E-01 -.526E+03   -.208E-01 -.104E-02 -.841E-01
   -.433E-02 0.321E+00 0.526E+03   -.100E-01 -.328E+00 -.526E+03   0.169E-01 0.816E-02 -.110E+00
   0.395E-01 0.765E-01 0.159E+04   -.406E-01 -.775E-01 -.160E+04   0.135E-02 0.126E-02 0.310E+01
   -.229E-01 0.913E-02 0.159E+04   0.240E-01 -.979E-02 -.160E+04   -.139E-02 0.843E-03 0.310E+01
   0.294E+01 -.371E+00 -.160E+04   -.283E+01 0.490E+00 0.161E+04   -.254E+00 -.134E+00 -.445E+01
   0.435E+00 0.837E+00 -.160E+04   -.569E+00 -.101E+01 0.161E+04   0.180E+00 0.198E+00 -.467E+01
   0.436E+00 0.143E+01 -.524E+03   -.424E+00 -.152E+01 0.524E+03   -.233E-01 0.128E+00 0.345E+00
   0.569E+00 0.673E-01 -.526E+03   -.693E+00 -.587E-01 0.525E+03   0.165E+00 -.110E-01 0.262E+00
   -.242E+00 0.144E+00 0.178E+02   -.773E-13 -.252E-12 -.341E-11   0.225E+00 -.131E+00 -.156E+02

 POSITION                                       TOTAL-FORCE (eV/Angst)
      2.08728      0.00000      7.50000         0.000097      0.000041      0.310607
      4.17456      2.08728      7.50000        -0.000310      0.000265      0.311572
      2.08728      2.08728      9.58728         0.000837      0.004783      0.055641
      4.17456      0.00000      9.58728         0.000146     -0.000222      0.054689
      2.08936      0.00111     11.69017        -0.015013     -0.005580     -0.012726
      4.17503      2.09003     11.69459         0.019857      0.019897     -0.041739
      2.09043      2.08576     13.76943        -0.061740     -0.020028      0.065506
      4.17469      0.00176     13.76671         0.000693     -0.023232      0.073266
      2.08728      4.17456      7.50000         0.000315     -0.000018      0.311117
      4.17456      6.26183      7.50000        -0.000346     -0.000294      0.312109
      2.08728      6.26183      9.58728         0.003602     -0.001833      0.055164
      4.17456      4.17456      9.58728        -0.002157      0.001228      0.069617
      2.09196      4.17520     11.69324        -0.011344      0.001463     -0.027350
      4.17471      6.26012     11.69382         0.019978     -0.019659     -0.020400
      2.09036      6.26555     13.76975        -0.044235      0.018481      0.069953
      4.16575      4.17418     13.80533         0.208804      0.034484     -0.185786
      6.26183      0.00000      7.50000        -0.000055      0.000116      0.309708
      0.00000      2.08728      7.50000         0.000291      0.000066      0.312018
      6.26183      2.08728      9.58728         0.001404      0.003260      0.061325
      0.00000      0.00000      9.58728         0.004389      0.002458      0.055268
      6.26238      0.00228     11.68799         0.010258     -0.002854     -0.011942
      0.00126      2.08853     11.69162        -0.020473      0.015850      0.010233
      6.26176      2.07877     13.77119         0.068716      0.163378      0.059074
      0.00389      0.00160     13.76839        -0.002389     -0.003694      0.090260
      6.26183      4.17456      7.50000        -0.000291     -0.000071      0.310279
      0.00000      6.26183      7.50000         0.000379     -0.000059      0.311400
      6.26183      6.26183      9.58728         0.000331      0.000270      0.062856
      0.00000      4.17456      9.58728         0.005405      0.000008      0.074283
      6.25902      4.17423     11.68747         0.024062      0.007872      0.150219
      0.00225      6.26222     11.69048        -0.019860     -0.017361      0.014454
      6.26439      6.27783     13.75977         0.035522     -0.208631      0.154745
      0.01332      4.17557     13.76800        -0.197005      0.009927      0.125059
      2.08728      0.00000      9.58728         0.000930      0.001558      0.080593
      4.17456      2.08728      9.58728         0.001815      0.009548      0.089911
      2.08728      2.08728      7.50000        -0.000022     -0.000406     -0.591698
      4.17456      0.00000      7.50000         0.000543      0.000093     -0.591435
      2.08769      0.00065     13.81567         0.030201      0.008277      0.028506
      4.17562      2.08191     13.80325        -0.026071      0.058283      0.180100
      2.08656      2.08867     11.68420         0.019021     -0.005209      0.034919
      4.17597      8.34905     11.68105        -0.009996      0.007827      0.049694
      2.08728      4.17456      9.58728         0.010373      0.002197      0.090068
      4.17456      6.26183      9.58728         0.000458     -0.007936      0.084828
      2.08728      6.26183      7.50000        -0.000311      0.000503     -0.591644
      4.17456      4.17456      7.50000         0.000598     -0.000099     -0.591818
      2.08655      4.17601     13.81862         0.082140     -0.009423      0.078811
      4.17851      6.26824     13.80870        -0.058628     -0.040242      0.122241
      2.08732      6.26209     11.68463         0.014410      0.001222      0.028452
      4.17746      4.17561     11.69171        -0.049970     -0.006979      0.004879
      6.26183      0.00000      9.58728         0.004970      0.004517      0.075961
      0.00000      2.08728      9.58728         0.001336      0.001163      0.076489
      6.26183      2.08728      7.50000         0.000061     -0.000307     -0.591088
      0.00000      0.00000      7.50000        -0.000389     -0.000198     -0.591229
      6.26535      0.00158     13.81132        -0.032984      0.017200      0.046506
      0.00098      2.08874     13.81654         0.057660     -0.052709      0.022398
      6.26422      2.09020     11.68581        -0.019627     -0.048648     -0.010342
      0.00116      0.00069     11.68356         0.004406      0.002318      0.020352
      6.26183      4.17456      9.58728        -0.005585     -0.000061      0.068802
      0.00000      6.26183      9.58728         0.004762      0.002236      0.074642
      6.26183      6.26183      7.50000         0.000431      0.000434     -0.590920
      0.00000      4.17456      7.50000        -0.000486      0.000268     -0.591267
      6.27514      4.17781     13.82465        -0.179703     -0.032818      0.019645
      0.00056      6.26294     13.81539         0.071187      0.057744      0.011843
      6.26417      6.26064     11.68425        -0.015430      0.053227     -0.018594
      8.34825      4.17549     11.68618         0.064034     -0.003891     -0.020083
    total drift:                                0.002357      0.001642      0.014936

  FREE ENERGIE OF THE ION-ELECTRON SYSTEM (eV)
  free  energy   TOTEN  =      -438.96501789 eV

  energy  without entropy=     -438.96501789  energy(sigma->0) =     -438.96501789