 vasp.6.3.0 20Jan22 (build Dec 25 2023 18:06:01) complex
 executed on        HPECrayEX_GCC date 2024.01.24  03:03:17

 INCAR:
   SYSTEM = MgO-rocksalt
   ISMEAR = 0
   SIGMA = 0.05
   EDIFF = 1E-8
   ALGO = ALL
   ISTART = 0
   IBRION = 5
   POTIM = 0.01
   NFREE = 2
   ISYM = 0
   DIPOL = 0.5 0.5 0.5
   IDIPOL = 3
   LDIPOL = .TRUE.
   GGA = PE
   IVDW = 21
   LDAU = .TRUE.
   LDAUTYPE = 2
   LDAUL = -1 -1 -1 2 -1
   LDAUU = 0.0 0.0 0.0 4.2 0.0
   LDAUPRINT = 1
   LMAXMIX = 4
   ENCUT = 600
   PREC = Accurate
   LASPH = .TRUE.
   LREAL = .FALSE.
   ISPIN = 1
   NELM = 200
   NELMIN = 8
   NCORE = 8
   KPAR = 1
   LWAVE = .FALSE.
   LCHARG = .FALSE.

 POTCAR:    PAW_PBE C 08Apr2002
 POTCAR:    PAW_PBE O 08Apr2002
 POTCAR:    PAW_PBE H 15Jun2001
 POTCAR:    PAW_PBE Ti_pv 07Sep2000
 POTCAR:    PAW_PBE O 08Apr2002
 POTCAR:    PAW_PBE C 08Apr2002
   VRHFIN =C: s2p2

   TITEL  = PAW_PBE C 08Apr2002
   POMASS =   12.011; ZVAL   =    4.000    mass and valenz
   ENMAX  =  400.000; ENMIN  =  300.000 eV

[...]

   TITEL  = PAW_PBE H 15Jun2001
   POMASS =    1.000; ZVAL   =    1.000    mass and valenz
   ENMAX  =  250.000; ENMIN  =  200.000 eV

   TITEL  = PAW_PBE Ti_pv 07Sep2000
   POMASS =   47.880; ZVAL   =   10.000    mass and valenz
   ENMAX  =  222.335; ENMIN  =  166.751 eV

   TITEL  = PAW_PBE O 08Apr2002
   POMASS =   16.000; ZVAL   =    6.000    mass and valenz
   ENMAX  =  400.000; ENMIN  =  300.000 eV

  PAW_PBE C 08Apr2002                   :
  PAW_PBE O 08Apr2002                   :
  PAW_PBE H 15Jun2001                   :
  PAW_PBE Ti_pv 07Sep2000               :
  PAW_PBE O 08Apr2002                   :

 POSCAR:  C  O  H Ti  O
  positions in direct lattice
 exchange correlation table for  LEXCH =        8
   RHO(1)=    0.500       N(1)  =     2000
   RHO(2)=  100.500       N(2)  =     4000

 ion  position               nearest neighbor table
   1  0.516  0.583  0.812-   3 1.09   5 1.10   6 1.10   2 1.45
   2  0.546  0.499  0.781-   4 1.02   1 1.45  86 2.15
   3  0.433  0.591  0.811-   1 1.09
   4  0.624  0.497  0.779-   2 1.02
   5  0.540  0.558  0.845-   1 1.10
   6  0.552  0.663  0.804-   1 1.10
   7  0.750  0.625  0.286-  87 1.98  88 1.98 147 1.98 148 1.98 169 2.00  90 2.00  17 3.03  37 3.03

   8  0.000  0.750  0.286-  89 1.98  90 1.98 109 1.98 110 1.98  91 2.00  38 3.03  18 3.03
   9  0.000  0.625  0.393-  92 1.98 152 1.98 151 1.98  91 1.98  93 2.00  94 2.00  19 3.03  39 3.03

[...]

  87  0.750  0.750  0.244-   7 1.98  17 1.98
  88  0.750  0.750  0.328-   7 1.98  17 1.98  10 2.00
  89  0.098  0.625  0.286-   8 1.98  38 1.98  47 2.00
  90  0.902  0.625  0.286-   8 1.98  38 1.98   7 2.00
  91  0.000  0.750  0.351-   9 1.98  19 1.98   8 2.00
  92  0.000  0.750  0.435-   9 1.98  19 1.98  12 2.00
  93  0.848  0.625  0.393-  10 1.98  40 1.98   9 2.00
  94  0.152  0.625  0.393-  50 1.98  80 1.98   9 2.00
  95  0.750  0.750  0.458-  11 1.98  21 1.98  10 2.00
  96  0.750  0.750  0.542-  11 1.98  21 1.98  14 2.08
  97  0.098  0.625  0.500-  12 1.98  42 1.98  51 2.00
  98  0.902  0.625  0.500-  12 1.98  42 1.98  11 2.00
  99  0.000  0.750  0.565-  23 1.94  13 1.94  12 2.01
 100  0.999  0.750  0.649-  16 1.86  13 2.03  23 2.03
 101  0.850  0.625  0.607-  13 1.98  14 2.00  44 2.00
 102  0.150  0.625  0.607-  13 1.97  54 2.00  84 2.01
 103  0.754  0.751  0.672-  14 1.93  15 2.08  25 2.10
 104  0.748  0.749  0.756-  15 1.87  25 1.89
 105  0.094  0.625  0.719-  46 1.97  16 1.97  55 2.07
 106  0.907  0.624  0.721-  46 1.97  16 1.98  15 2.05
 107  0.750  0.000  0.244-  17 1.98  27 1.98
 108  0.750  0.000  0.328-  17 1.98  27 1.98  20 2.00
 109  0.098  0.875  0.286-   8 1.98  18 1.98  57 2.00
 110  0.902  0.875  0.286-   8 1.98  18 1.98  17 2.00
 111  0.000  0.000  0.351-  19 1.98  29 1.98  18 2.00
 112  0.000  0.000  0.435-  19 1.98  29 1.98  22 2.00
 113  0.848  0.875  0.393-  10 1.98  20 1.98  19 2.00
 114  0.152  0.875  0.393-  50 1.98  60 1.98  19 2.00
 115  0.750  0.000  0.458-  21 1.98  31 1.98  20 2.00
 116  0.750  0.000  0.542-  21 1.98  31 1.98  24 2.09
 117  0.098  0.875  0.500-  12 1.98  22 1.98  61 2.00
 118  0.902  0.875  0.500-  12 1.98  22 1.98  21 2.00
 119  0.000  0.000  0.565-  23 1.94  33 1.94  22 2.01
 120  1.000  0.000  0.649-  26 1.86  23 2.03  33 2.03
 121  0.850  0.876  0.607-  23 1.98  24 2.00  14 2.00
 122  0.150  0.875  0.607-  23 1.97  54 2.00  64 2.00
 123  0.751  0.000  0.672-  24 1.93  25 2.10  35 2.10
 124  0.750  0.000  0.756-  25 1.87  35 1.87
 125  0.094  0.875  0.719-  16 1.97  26 1.97  65 2.07
 126  0.907  0.875  0.720-  16 1.97  26 1.97  25 2.06
 127  0.750  0.250  0.244-  27 1.98  37 1.98
 128  0.750  0.250  0.328-  27 1.98  37 1.98  30 2.00
 129  0.098  0.125  0.286-  18 1.98  28 1.98  67 2.00
 130  0.902  0.125  0.286-  18 1.98  28 1.98  27 2.00
 131  0.000  0.250  0.351-  29 1.98  39 1.98  28 2.00
 132  0.000  0.250  0.435-  29 1.98  39 1.98  32 2.00
 133  0.848  0.125  0.393-  20 1.98  30 1.98  29 2.00
 134  0.152  0.125  0.393-  60 1.98  70 1.98  29 2.00
 135  0.750  0.250  0.458-  31 1.98  41 1.98  30 2.00
 136  0.750  0.250  0.542-  31 1.98  41 1.98  34 2.08
 137  0.098  0.125  0.500-  22 1.98  32 1.98  71 2.00
 138  0.902  0.125  0.500-  22 1.98  32 1.98  31 2.00
 139  0.000  0.250  0.565-  33 1.94  43 1.94  32 2.01
 140  0.999  0.250  0.649-  36 1.86  43 2.03  33 2.03
 141  0.850  0.125  0.607-  33 1.98  24 2.00  34 2.00
 142  0.150  0.125  0.607-  33 1.97  64 2.00  74 2.00
 143  0.753  0.249  0.672-  34 1.93  45 2.08  35 2.11
 144  0.749  0.251  0.756-  45 1.87  35 1.88
 145  0.093  0.125  0.719-  36 1.97  26 1.97  75 2.07
 146  0.907  0.125  0.720-  36 1.97  26 1.97  35 2.06
[...]
 232  0.500  0.500  0.435-  49 1.98  79 1.98  82 2.00
 233  0.348  0.375  0.393-  70 1.98  80 1.98  79 2.00
 234  0.652  0.375  0.393-  30 1.98  40 1.98  79 2.00
 235  0.250  0.500  0.458-  51 1.98  81 1.98  80 2.00
 236  0.250  0.500  0.542-  51 1.98  81 1.98  84 2.09
 237  0.598  0.375  0.500-  72 1.98  82 1.98  41 2.00
 238  0.402  0.375  0.500-  72 1.98  82 1.98  81 2.00
 239  0.500  0.500  0.566-  53 1.94  83 1.95  82 2.01
 240  0.499  0.500  0.650-  86 1.97  53 2.00  83 2.00
 241  0.349  0.375  0.607-  83 1.98  74 2.00  84 2.00
 242  0.651  0.375  0.608-  83 1.99  34 2.00  44 2.00
 243  0.250  0.500  0.672-  84 1.92  55 2.10  85 2.11
 244  0.252  0.500  0.756-  55 1.88  85 1.88
 245  0.596  0.371  0.714-  76 1.95  86 1.99  45 2.04
 246  0.408  0.374  0.719-  76 1.96  86 1.98  85 2.06

IMPORTANT INFORMATION: All symmetrisations will be switched off!
NOSYMM: (Re-)initialisation of all symmetry stuff for point group C_1.

                                     Primitive cell

  volume of cell :    4886.2662

  direct lattice vectors                    reciprocal lattice vectors
    13.143747607  0.000000000  0.000000000     0.076081802  0.000000000  0.000000000
     0.000000000 12.104894358  0.000000000     0.000000000  0.082611212  0.000000000
     0.000000000  0.000000000 30.711208800     0.000000000  0.000000000  0.032561401

  length of vectors
    13.143747607 12.104894358 30.711208800     0.076081802  0.082611212  0.032561401

  position of ions in fractional coordinates (direct lattice)
     0.516310947  0.583373363  0.812109072
     0.546074397  0.498594228  0.781428185
     0.433370230  0.590557281  0.810844145
     0.623676317  0.496618205  0.778502948
     0.540467628  0.558403242  0.844856146
     0.552415000  0.662828040  0.803846602
     0.750000000  0.625000000  0.286010579
     0.000000000  0.750000000  0.286010579
     0.000000000  0.625000000  0.393005289
     0.750000000  0.750000000  0.393005289
     0.750000000  0.625000000  0.500000000
     0.000000000  0.750000000  0.500000000
     0.000176948  0.625126918  0.605123051
     0.750308454  0.750183433  0.609414514
     0.750632509  0.626591638  0.718651773
     0.999997427  0.750140482  0.709905407
     0.750000000  0.875000000  0.286010579
     0.000000000  0.000000000  0.286010579
     0.000000000  0.875000000  0.393005289
     0.750000000  0.000000000  0.393005289
     0.750000000  0.875000000  0.500000000
     0.000000000  0.000000000  0.500000000
     0.000029821  0.875118934  0.605165924
     0.749841846  0.000102336  0.609722184
     0.750079158  0.875512993  0.719986208
     0.000317935  0.000129453  0.709851969
     0.750000000  0.125000000  0.286010579
     0.000000000  0.250000000  0.286010579
     0.000000000  0.125000000  0.393005289
     0.750000000  0.250000000  0.393005289
     0.750000000  0.125000000  0.500000000
     0.000000000  0.250000000  0.500000000
     0.000020158  0.125102984  0.605174598
     0.750203524  0.250053152  0.609421230
     0.750029595  0.124676711  0.719990749
     0.000075858  0.250169984  0.709907970
     0.750000000  0.375000000  0.286010579
     0.000000000  0.500000000  0.286010579
     0.000000000  0.375000000  0.393005289
     0.750000000  0.500000000  0.393005289
     0.750000000  0.375000000  0.500000000
     0.000000000  0.500000000  0.500000000
     0.000163928  0.375112583  0.605121280
     0.750559524  0.500105946  0.609637346
     0.750848143  0.373521330  0.718801202
     0.001117058  0.500185314  0.709825679
     0.250000000  0.625000000  0.286010579
     0.500000000  0.750000000  0.286010579
     0.500000000  0.625000000  0.393005289
     0.250000000  0.750000000  0.393005289
     0.250000000  0.625000000  0.500000000
     0.500000000  0.750000000  0.500000000
     0.499985091  0.623151993  0.606213463
     0.250210682  0.750052680  0.609761222
     0.251164985  0.625299592  0.719978131
     0.499999231  0.750744751  0.708539634
     0.250000000  0.875000000  0.286010579
     0.500000000  0.000000000  0.286010579
     0.500000000  0.875000000  0.393005289
     0.250000000  0.000000000  0.393005289
[...]
     0.500000000  0.500000000  0.434805357
     0.347668537  0.375000000  0.393005289
     0.652331463  0.375000000  0.393005289
     0.250000000  0.500000000  0.458199933
     0.250000000  0.500000000  0.541800067
     0.597668537  0.375000000  0.500000000
     0.402331463  0.375000000  0.500000000
     0.500439467  0.499993611  0.565564188
     0.498990663  0.500287888  0.649774449
     0.349067892  0.375122889  0.607277884
     0.651132942  0.375088788  0.607899374
     0.250253439  0.500331254  0.672431632
     0.251538357  0.500365710  0.756190127
     0.596237001  0.371081514  0.714449862
     0.407700553  0.374200373  0.719232913

  ion indices of the primitive-cell ions
   primitive index   ion index
                 1           1
                 2           2
                 3           3
                 4           4
                 5           5
                 6           6
                 7           7
                 8           8
                 9           9
                10          10
                11          11
                12          12
                13          13
                14          14
                15          15
                16          16
                17          17
                18          18
                19          19
                20          20
                21          21
                22          22
                23          23
                24          24
[...]
      6.57765      6.05237     17.36916         0.000725      0.000296      0.009782
      6.55861      6.05593     19.95536        -0.000625     -0.001107     -0.005217
      4.58806      4.54082     18.65024         0.001994      0.000527      0.000762
      8.55833      4.54041     18.66932        -0.001078     -0.000564      0.002662
      3.28927      6.05646     20.65119        -0.001045     -0.000460      0.000457
      3.30616      6.05687     23.22351         0.002493     -0.001313      0.001261
      7.83679      4.49190     21.94162         0.003712     -0.001620     -0.001979
      5.35871      4.52966     22.08851        -0.002752     -0.000323     -0.000366
    total drift:                               -0.003101      0.000217     -0.004351

  FREE ENERGIE OF THE ION-ELECTRON SYSTEM (eV)
  free  energy   TOTEN  =     -1944.84327113 eV

  energy  without entropy=    -1944.84327113  energy(sigma->0) =    -1944.84327113

 d Force =-0.2604437E-04[-0.133E-02, 0.128E-02]  d Energy = 0.1929036E-03-0.219E-03
 d Force =-0.7533139E+01[-0.754E+01,-0.753E+01]  d Ewald  =-0.7533099E+01-0.397E-04

 Finite differences progress:
  Degree of freedom:  18/ 18
  Displacement:        2/  2
  Total:              36/ 36

 SECOND DERIVATIVES (NOT SYMMETRIZED)
               1X          1Y          1Z          2X          2Y          2Z          3X          3Y          3Z          4X          4Y          4Z          5X          5Y          5Z          6X          6Y          6Z
  1X   -55.681013   -2.305633   -3.053433    8.974790   -1.100527   -0.409320   30.140605   -0.728311    2.227487    0.241181   -2.614159   -2.189695    6.922524   -2.444227    6.763513    9.551347    8.818845   -2.842365
  1Y    -2.313465  -44.952431    6.309846   -3.128227   11.765998    6.086832   -1.645845    4.465556   -0.341780   -0.721791    0.504113    0.393146   -2.257529    6.648534   -6.997592    9.428947   21.246625   -5.683138
  1Z    -3.059242    6.311861  -47.864421   -2.196249    5.783906   11.260980    1.213066   -0.185903    4.440630   -0.916381    0.404400    0.529344    7.157032   -7.677561   24.357975   -2.727578   -5.467761    6.191720
  2X     8.974014   -3.134595   -2.200856  -41.548382    3.731792    4.867436    0.614668   -2.959582   -2.786340   27.386835    1.855801    0.841995   -0.449925    0.528600    0.104620   -0.614197    0.231810    0.762508
  2Y    -1.100683   11.757089    5.783006    3.732493  -19.837618  -11.691911   -0.361345    0.690000    0.740121   -0.738439    3.076529    1.316193   -0.026147    0.036671    0.655044   -1.216238    2.742132    2.646670
  2Z    -0.414808    6.093208   11.263176    4.869572  -11.694064  -24.221229   -0.362042    0.523362    0.452460   -2.301847    1.501419    3.994882   -1.316219    3.372513    2.549670   -0.032071    0.905997    0.061913
  3X    30.139484   -1.640269    1.218509    0.619440   -0.360995   -0.353257  -32.148202    2.086318   -1.126210   -0.223911   -0.061523    0.008718    0.575806    0.096701    0.009945    0.914534   -0.103079    0.193267
  3Y    -0.733226    4.460427   -0.190209   -2.958605    0.690472    0.520463    2.082620   -5.040172   -0.538139    0.208569    0.315035    0.188501   -0.915945   -0.002518   -0.120019    2.458818   -0.397873    0.144656
  3Z     2.230544   -0.348607    4.438976   -2.784206    0.740363    0.452907   -1.131888   -0.537168   -4.972193    0.163020    0.314858    0.187097    2.607800   -0.114853   -0.101764   -0.818641   -0.047393   -0.059148
  4X     0.243746   -0.716614   -0.909687   27.394826   -0.738808   -2.307455   -0.222478    0.208174    0.162173  -26.097873    0.951239   -0.228644   -0.003287    0.084282    0.116135   -0.046254    0.297281    0.131526
  4Y    -2.613620    0.505841    0.401172    1.863103    3.078514    1.502266   -0.061926    0.313932    0.315168    0.946891   -4.797538   -1.875799    0.047384   -0.075468    0.009731   -0.091453   -0.025946   -0.048280
  4Z    -2.191519    0.392182    0.518229    0.847998    1.320819    3.994434    0.005271    0.189348    0.188660   -0.234572   -1.875613   -5.365457   -0.106964   -0.011194    0.047756    0.040356   -0.014435   -0.100445
  5X     6.918143   -2.257215    7.146486   -0.456315   -0.027687   -1.321948    0.573599   -0.916218    2.612648    0.000311    0.048465   -0.111765   -6.677779    2.656525   -7.171949   -0.443093    0.560835   -1.269720
  5Y    -2.443657    6.648342   -7.666441    0.532868    0.036120    3.371724    0.097340   -0.001429   -0.114414    0.081544   -0.075545   -0.007095    2.659105   -7.250096    6.748199   -0.823286    0.647961   -2.248558
  5Z     6.767065   -7.010772   24.345899    0.112957    0.663137    2.550956    0.012997   -0.120660   -0.106650    0.111610    0.008541    0.047772   -7.185891    6.759960  -27.175886    0.317464   -0.333610    0.498166
  6X     9.549163    9.413138   -2.732543   -0.615287   -1.218485   -0.034166    0.911817    2.460418   -0.819499   -0.045152   -0.091699    0.037405   -0.443902   -0.822972    0.318237   -9.336480   -9.669940    3.039238
  6Y     8.822653   21.236084   -5.476651    0.232669    2.748364    0.903439   -0.101709   -0.397809   -0.051647    0.296456   -0.026157   -0.016445    0.560213    0.646641   -0.331654   -9.684792  -24.124460    5.111735
  6Z    -2.843780   -5.681391    6.189928    0.763237    2.650885    0.062932    0.190250    0.146030   -0.057938    0.130428   -0.049134   -0.100806   -1.271407   -2.248077    0.501423    3.041355    5.105292   -6.523584

 Eigenvectors and eigenvalues of the dynamical matrix

   1 f  =   92.855114 THz   583.425889 2PiTHz 3097.313214 cm-1   384.017723 meV
             X         Y         Z           dx          dy          dz
      6.786261  7.061673 24.940851    -0.292375    0.016922   -0.097880
      7.177464  6.035430 23.998604    -0.001805   -0.000030    0.001327
      5.696109  7.148633 24.902004     0.855369   -0.058920    0.034615
      8.197444  6.011511 23.908767     0.016846   -0.006252   -0.006462
      7.103770  6.759412 25.946553     0.101453   -0.118720    0.352388
      7.260803  8.023463 24.687101     0.047652    0.123025   -0.044549
      9.857811  7.565559  8.783731            0           0           0
      0.000000  9.078671  8.783731            0           0           0
      0.000000  7.565559 12.069667            0           0           0
      9.857811  9.078671 12.069667            0           0           0
      9.857811  7.565559 15.355604            0           0           0
      0.000000  9.078671 15.355604            0           0           0
      0.002326  7.567095 18.584060            0           0           0
      9.861865  9.080891 18.715856            0           0           0
      9.866124  7.584826 22.070665            0           0           0
     13.143714  9.080371 21.802053            0           0           0
      9.857811 10.591783  8.783731            0           0           0
      0.000000  0.000000  8.783731            0           0           0
      0.000000 10.591783 12.069667            0           0           0
      9.857811  0.000000 12.069667            0           0           0
      9.857811 10.591783 15.355604            0           0           0
      0.000000  0.000000 15.355604            0           0           0
      0.000392 10.593222 18.585377            0           0           0
      9.855732  0.001239 18.725305            0           0           0
      9.858851 10.597992 22.111647            0           0           0
      0.004179  0.001567 21.800412            0           0           0
      9.857811  1.513112  8.783731            0           0           0
      0.000000  3.026224  8.783731            0           0           0
      0.000000  1.513112 12.069667            0           0           0
      9.857811  3.026224 12.069667            0           0           0
      9.857811  1.513112 15.355604            0           0           0
      0.000000  3.026224 15.355604            0           0           0
      0.000265  1.514358 18.585643            0           0           0
      9.860486  3.026867 18.716063            0           0           0
      9.858200  1.509198 22.111786            0           0           0
      0.000997  3.028281 21.802132            0           0           0
      9.857811  4.539335  8.783731            0           0           0
      0.000000  6.052447  8.783731            0           0           0
      0.000000  4.539335 12.069667            0           0           0
      9.857811  6.052447 12.069667            0           0           0
      9.857811  4.539335 15.355604            0           0           0
      0.000000  6.052447 15.355604            0           0           0
      0.002155  4.540698 18.584006            0           0           0
      9.865165  6.053730 18.722700            0           0           0
      9.868958  4.521436 22.075254            0           0           0
      0.014682  6.054690 21.799605            0           0           0
      3.285937  7.565559  8.783731            0           0           0
      6.571874  9.078671  8.783731            0           0           0
      6.571874  7.565559 12.069667            0           0           0
      3.285937  9.078671 12.069667            0           0           0
      3.285937  7.565559 15.355604            0           0           0
      6.571874  9.078671 15.355604            0           0           0
      6.571678  7.543189 18.617548            0           0           0
      3.288706  9.079308 18.726504            0           0           0
      3.301249  7.569185 22.111399            0           0           0
      6.571864  9.087686 21.760109            0           0           0
      3.285937 10.591783  8.783731            0           0           0
      6.571874  0.000000  8.783731            0           0           0
      6.571874 10.591783 12.069667            0           0           0
      3.285937  0.000000 12.069667            0           0           0
[...]
      6.571874  6.052447 13.353398            0           0           0
      4.569667  4.539335 12.069667            0           0           0
      8.574080  4.539335 12.069667            0           0           0
      3.285937  6.052447 14.071874            0           0           0
      3.285937  6.052447 16.639335            0           0           0
      7.855604  4.539335 15.355604            0           0           0
      5.288143  4.539335 15.355604            0           0           0
      6.577650  6.052370 17.369160            0           0           0
      6.558607  6.055932 19.955359            0           0           0
      4.588060  4.540823 18.650238            0           0           0
      8.558327  4.540410 18.669325            0           0           0
      3.289268  6.056457 20.651188            0           0           0
      3.306157  6.056874 23.223513            0           0           0
      7.836789  4.491903 21.941619            0           0           0
      5.358713  4.529656 22.088512            0           0           0

[...]

  18 f  =    2.173540 THz    13.656756 2PiTHz   72.501497 cm-1     8.989036 meV
             X         Y         Z           dx          dy          dz
      6.786261  7.061673 24.940851    -0.416624   -0.635592    0.300044
      7.177464  6.035430 23.998604    -0.066254   -0.246812   -0.004668
      5.696109  7.148633 24.902004    -0.127051   -0.274656    0.071439
      8.197444  6.011511 23.908767    -0.016438   -0.010640    0.021395
      7.103770  6.759412 25.946553    -0.114764   -0.251012    0.064497
      7.260803  8.023463 24.687101    -0.204518   -0.117044    0.183594
      9.857811  7.565559  8.783731            0           0           0
      0.000000  9.078671  8.783731            0           0           0
      0.000000  7.565559 12.069667            0           0           0
      9.857811  9.078671 12.069667            0           0           0
      9.857811  7.565559 15.355604            0           0           0
      0.000000  9.078671 15.355604            0           0           0
      0.002326  7.567095 18.584060            0           0           0
      9.861865  9.080891 18.715856            0           0           0
      9.866124  7.584826 22.070665            0           0           0
     13.143714  9.080371 21.802053            0           0           0
      9.857811 10.591783  8.783731            0           0           0
      0.000000  0.000000  8.783731            0           0           0
      0.000000 10.591783 12.069667            0           0           0
      9.857811  0.000000 12.069667            0           0           0
      9.857811 10.591783 15.355604            0           0           0
      0.000000  0.000000 15.355604            0           0           0
      0.000392 10.593222 18.585377            0           0           0
      9.855732  0.001239 18.725305            0           0           0
      9.858851 10.597992 22.111647            0           0           0
      0.004179  0.001567 21.800412            0           0           0
      9.857811  1.513112  8.783731            0           0           0
      0.000000  3.026224  8.783731            0           0           0
      0.000000  1.513112 12.069667            0           0           0
      9.857811  3.026224 12.069667            0           0           0
      9.857811  1.513112 15.355604            0           0           0
      0.000000  3.026224 15.355604            0           0           0
      0.000265  1.514358 18.585643            0           0           0
      9.860486  3.026867 18.716063            0           0           0
      9.858200  1.509198 22.111786            0           0           0
      0.000997  3.028281 21.802132            0           0           0
      9.857811  4.539335  8.783731            0           0           0
      0.000000  6.052447  8.783731            0           0           0
      0.000000  4.539335 12.069667            0           0           0
      9.857811  6.052447 12.069667            0           0           0
      9.857811  4.539335 15.355604            0           0           0
      0.000000  6.052447 15.355604            0           0           0
      0.002155  4.540698 18.584006            0           0           0
      9.865165  6.053730 18.722700            0           0           0
      9.868958  4.521436 22.075254            0           0           0
      0.014682  6.054690 21.799605            0           0           0
      3.285937  7.565559  8.783731            0           0           0
      6.571874  9.078671  8.783731            0           0           0
      6.571874  7.565559 12.069667            0           0           0
      3.285937  9.078671 12.069667            0           0           0
      3.285937  7.565559 15.355604            0           0           0
      6.571874  9.078671 15.355604            0           0           0
      6.571678  7.543189 18.617548            0           0           0
      3.288706  9.079308 18.726504            0           0           0
      3.301249  7.569185 22.111399            0           0           0
      6.571864  9.087686 21.760109            0           0           0
      3.285937 10.591783  8.783731            0           0           0
      6.571874  0.000000  8.783731            0           0           0
      6.571874 10.591783 12.069667            0           0           0
      3.285937  0.000000 12.069667            0           0           0
[...]
      6.571874  6.052447 13.353398            0           0           0
      4.569667  4.539335 12.069667            0           0           0
      8.574080  4.539335 12.069667            0           0           0
      3.285937  6.052447 14.071874            0           0           0
      3.285937  6.052447 16.639335            0           0           0
      7.855604  4.539335 15.355604            0           0           0
      5.288143  4.539335 15.355604            0           0           0
      6.577650  6.052370 17.369160            0           0           0
      6.558607  6.055932 19.955359            0           0           0
      4.588060  4.540823 18.650238            0           0           0
      8.558327  4.540410 18.669325            0           0           0
      3.289268  6.056457 20.651188            0           0           0
      3.306157  6.056874 23.223513            0           0           0
      7.836789  4.491903 21.941619            0           0           0
      5.358713  4.529656 22.088512            0           0           0

 Finite differences POTIM=   1.0000000000000000E-002