 vasp.6.3.0 20Jan22 (build Apr  1 2022 16:44:48) complex
 executed on        HPECrayEX_GCC date 2023.01.23  22:00:20

 INCAR:
   SYSTEM = MgO-rocksalt
   ISMEAR = 0
   SIGMA = 0.05
   EDIFF = 1E-8
   ALGO = ALL
   ISTART = 0
   IBRION = 5
   POTIM = 0.01
   NFREE = 2
   ISYM = 0
   DIPOL = 0.5 0.5 0.5
   IDIPOL = 3
   LDIPOL = .TRUE.
   GGA = PE
   IVDW = 1
   VDW_C6 = 0.14 0.70 0.63 0.70
   VDW_R0 = 1.001 1.342 1.243 1.342
   ENCUT = 600
   PREC = Accurate
   LASPH = .TRUE.
   LREAL = .FALSE.
   ISPIN = 1
   NELM = 200
   NELMIN = 8
   NCORE = 8
   KPAR = 1
   LWAVE = .FALSE.
   LCHARG = .FALSE.

 POTCAR:    PAW_PBE H 15Jun2001
 POTCAR:    PAW_PBE O 08Apr2002
 POTCAR:    PAW_PBE Mg_pv 13Apr2007
 POTCAR:    PAW_PBE O 08Apr2002
 POTCAR:    PAW_PBE H 15Jun2001
   VRHFIN =H: ultrasoft test

   TITEL  = PAW_PBE H 15Jun2001
   POMASS =    1.000; ZVAL   =    1.000    mass and valenz
   ENMAX  =  250.000; ENMIN  =  200.000 eV

   TITEL  = PAW_PBE O 08Apr2002
   POMASS =   16.000; ZVAL   =    6.000    mass and valenz
   ENMAX  =  400.000; ENMIN  =  300.000 eV

   TITEL  = PAW_PBE Mg_pv 13Apr2007
   POMASS =   24.305; ZVAL   =    8.000    mass and valenz
   ENMAX  =  403.929; ENMIN  =  302.947 eV

   TITEL  = PAW_PBE O 08Apr2002
   POMASS =   16.000; ZVAL   =    6.000    mass and valenz
   ENMAX  =  400.000; ENMIN  =  300.000 eV

  PAW_PBE H 15Jun2001                   :
  PAW_PBE O 08Apr2002                   :
  PAW_PBE Mg_pv 13Apr2007               :
  PAW_PBE O 08Apr2002                   :

 POSCAR:  H  O Mg  O
  positions in direct lattice
 exchange correlation table for  LEXCH =        8
   RHO(1)=    0.500       N(1)  =     2000
   RHO(2)=  100.500       N(2)  =     4000

 ion  position               nearest neighbor table
   1  0.618  0.553  0.764-   3 0.97
   2  0.510  0.673  0.727-   3 1.01
   3  0.508  0.572  0.753-   1 0.97   2 1.01  19 2.23
   4  0.250  0.000  0.351-  36 2.12  38 2.12  39 2.12  46 2.12  55 2.12
   5  0.500  0.250  0.351-  37 2.12  38 2.12  39 2.12  47 2.12  54 2.12
   6  0.250  0.250  0.450-  38 2.12  37 2.12  36 2.12  44 2.12  53 2.12  42 2.12
   7  0.500  0.000  0.450-  39 2.12  37 2.12  36 2.12  45 2.12  52 2.12  43 2.12
   8  0.250  0.000  0.550-  42 2.11  50 2.12  43 2.12  59 2.12  36 2.13  40 2.14
   9  0.500  0.251  0.550-  42 2.12  51 2.12  58 2.12  43 2.13  37 2.13  41 2.14
  10  0.249  0.250  0.648-  42 2.11  57 2.11  40 2.11  48 2.12  41 2.13
  11  0.500  0.002  0.648-  41 2.08  49 2.09  43 2.10  40 2.12  56 2.13
  12  0.250  0.500  0.351-  44 2.12  38 2.12  46 2.12  47 2.12  63 2.12
  13  0.500  0.750  0.351-  45 2.12  39 2.12  46 2.12  47 2.12  62 2.12
  14  0.250  0.750  0.450-  46 2.12  44 2.12  45 2.12  36 2.12  61 2.12  50 2.12
  15  0.500  0.500  0.450-  47 2.12  44 2.12  45 2.12  37 2.12  60 2.12  51 2.14
  16  0.251  0.500  0.550-  51 2.11  48 2.12  42 2.12  50 2.12  67 2.13  44 2.14
  17  0.500  0.749  0.550-  51 2.10  50 2.11  66 2.11  43 2.12  45 2.14  49 2.19
  18  0.247  0.750  0.648-  50 2.10  65 2.10  40 2.12  48 2.12  49 2.14
  19  0.498  0.493  0.653-  41 2.08  48 2.12  64 2.15  51 2.19  49 2.22   3 2.23
  20  0.750  0.000  0.351-  52 2.12  39 2.12  54 2.12  55 2.12  62 2.12
  21  0.000  0.250  0.351-  53 2.12  38 2.12  54 2.12  55 2.12  63 2.12
  22  0.750  0.250  0.450-  54 2.12  52 2.12  53 2.12  37 2.12  60 2.12  58 2.12
  23  0.000  0.000  0.450-  59 2.12  55 2.12  53 2.12  36 2.12  52 2.12  61 2.12
  24  0.750  0.000  0.550-  58 2.11  43 2.11  59 2.12  66 2.12  52 2.12  56 2.15
  25  0.000  0.250  0.550-  42 2.12  67 2.12  58 2.12  59 2.12  53 2.12  57 2.15
  26  0.751  0.249  0.648-  58 2.10  57 2.11  56 2.11  41 2.13  64 2.13
  27  0.000  0.000  0.648-  59 2.11  40 2.11  57 2.11  56 2.11  65 2.12
  28  0.750  0.500  0.351-  60 2.12  54 2.12  47 2.12  62 2.12  63 2.12
  29  0.000  0.750  0.351-  61 2.12  55 2.12  46 2.12  62 2.12  63 2.12
  30  0.750  0.750  0.450-  62 2.12  52 2.12  60 2.12  61 2.12  45 2.12  66 2.12
  31  0.000  0.500  0.450-  67 2.12  63 2.12  60 2.12  61 2.12  44 2.12  53 2.12
  32  0.749  0.500  0.551-  51 2.11  58 2.11  66 2.12  67 2.12  60 2.14  64 2.15
  33  0.000  0.750  0.550-  67 2.11  59 2.12  50 2.12  61 2.12  66 2.12  65 2.15
  34  0.753  0.751  0.647-  66 2.08  65 2.09  56 2.11  64 2.12  49 2.14
  35  0.000  0.499  0.648-  48 2.10  67 2.10  64 2.11  57 2.12  65 2.13
  36  0.250  0.000  0.450-   4 2.12   6 2.12   7 2.12  14 2.12  23 2.12   8 2.13
  37  0.500  0.250  0.450-   5 2.12   6 2.12   7 2.12  15 2.12  22 2.12   9 2.13
  38  0.250  0.250  0.351-   6 2.12   5 2.12   4 2.12  12 2.12  21 2.12
  39  0.500  0.000  0.351-   7 2.12   5 2.12   4 2.12  13 2.12  20 2.12
  40  0.249  0.000  0.650-  27 2.11  10 2.11  18 2.12  11 2.12   8 2.14
  41  0.500  0.247  0.650-  19 2.08  11 2.08  26 2.13  10 2.13   9 2.14
  42  0.250  0.250  0.550-  10 2.11   8 2.11   9 2.12  25 2.12  16 2.12   6 2.12
  43  0.500  0.999  0.550-  11 2.10  24 2.11   8 2.12  17 2.12   7 2.12   9 2.13
  44  0.250  0.500  0.450-  12 2.12   6 2.12  14 2.12  15 2.12  31 2.12  16 2.14
  45  0.500  0.750  0.450-  13 2.12   7 2.12  14 2.12  15 2.12  30 2.12  17 2.14
  46  0.250  0.750  0.351-  14 2.12  12 2.12  13 2.12   4 2.12  29 2.12
  47  0.500  0.500  0.351-  15 2.12  12 2.12  13 2.12   5 2.12  28 2.12
  48  0.248  0.500  0.650-  35 2.10  16 2.12  19 2.12  18 2.12  10 2.12
  49  0.500  0.755  0.653-  11 2.09  18 2.14  34 2.14  17 2.19  19 2.22
  50  0.251  0.750  0.550-  18 2.10  17 2.11   8 2.12  33 2.12  16 2.12  14 2.12
  51  0.500  0.500  0.551-  17 2.10  32 2.11  16 2.11   9 2.12  15 2.14  19 2.19
  52  0.750  0.000  0.450-  20 2.12   7 2.12  22 2.12  23 2.12  30 2.12  24 2.12
  53  0.000  0.250  0.450-  21 2.12   6 2.12  22 2.12  23 2.12  31 2.12  25 2.12
  54  0.750  0.250  0.351-  22 2.12  20 2.12  21 2.12   5 2.12  28 2.12
  55  0.000  0.000  0.351-  23 2.12  20 2.12  21 2.12   4 2.12  29 2.12
  56  0.751  1.000  0.650-  34 2.11  26 2.11  27 2.11  11 2.13  24 2.15
  57  1.000  0.250  0.650-  26 2.11  10 2.11  27 2.11  35 2.12  25 2.15
  58  0.750  0.250  0.550-  26 2.10  24 2.11  32 2.11   9 2.12  25 2.12  22 2.12
  59  1.000  1.000  0.550-  27 2.11  23 2.12  33 2.12  24 2.12   8 2.12  25 2.12
  60  0.750  0.500  0.450-  28 2.12  22 2.12  15 2.12  30 2.12  31 2.12  32 2.14
  61  0.000  0.750  0.450-  29 2.12  23 2.12  14 2.12  30 2.12  31 2.12  33 2.12
  62  0.750  0.750  0.351-  30 2.12  20 2.12  28 2.12  29 2.12  13 2.12
  63  0.000  0.500  0.351-  31 2.12  21 2.12  28 2.12  29 2.12  12 2.12
  64  0.752  0.500  0.651-  35 2.11  34 2.12  26 2.13  32 2.15  19 2.15
  65  1.000  0.750  0.650-  34 2.09  18 2.10  27 2.12  35 2.13  33 2.15
  66  0.749  0.750  0.550-  34 2.08  17 2.11  32 2.12  24 2.12  30 2.12  33 2.12
  67  0.999  0.500  0.549-  35 2.10  33 2.11  31 2.12  25 2.12  32 2.12  16 2.13

IMPORTANT INFORMATION: All symmetrisations will be switched off!
NOSYMM: (Re-)initialisation of all symmetry stuff for point group C_1.

                                     Primitive cell

  volume of cell :    1530.6606

  direct lattice vectors                    reciprocal lattice vectors
     8.467142631  0.000000000  0.000000000     0.118103597  0.000000000  0.000000000
     0.000000000  8.467142631  0.000000000     0.000000000  0.118103597  0.000000000
     0.000000000  0.000000000 21.350356973     0.000000000  0.000000000  0.046837624

  length of vectors
     8.467142631  8.467142631 21.350356973     0.118103597  0.118103597  0.046837624

  position of ions in fractional coordinates (direct lattice)
     0.617739830  0.552759168  0.764359438
     0.509987036  0.672980996  0.727151448
     0.508231161  0.572241854  0.752770595
     0.250000000  0.000000000  0.351282183
     0.500000000  0.250000000  0.351282183
     0.250000000  0.250000000  0.450427394
     0.500000000  0.000000000  0.450427394
     0.250032233  0.000133176  0.550031420
     0.499751878  0.250569241  0.550283616
     0.248672518  0.249650048  0.648388025
     0.499592784  0.002211166  0.648337588
     0.250000000  0.500000000  0.351282183
     0.500000000  0.750000000  0.351282183
     0.250000000  0.750000000  0.450427394
     0.500000000  0.500000000  0.450427394
     0.250696861  0.499748779  0.550441205
     0.499693114  0.748975423  0.550434071
     0.247439825  0.750092154  0.648133305
     0.497686110  0.492583364  0.653325299
     0.750000000  0.000000000  0.351282183
     0.000000000  0.250000000  0.351282183
     0.750000000  0.250000000  0.450427394
     0.000000000  0.000000000  0.450427394
     0.749735738  0.000299530  0.549942025
     0.000003631  0.250160781  0.549883029
     0.750847309  0.249343149  0.648140532
     0.000047818  0.000439009  0.648231609
     0.750000000  0.500000000  0.351282183
     0.000000000  0.750000000  0.351282183
     0.750000000  0.750000000  0.450427394
     0.000000000  0.500000000  0.450427394
     0.748910228  0.499694347  0.550551900
     0.000184533  0.749747611  0.549795373
     0.752611674  0.750917130  0.647281604
     0.000424038  0.499481760  0.648066458
     0.250000000  0.000000000  0.450427394
     0.500000000  0.250000000  0.450427394
     0.250000000  0.250000000  0.351282183
     0.500000000  0.000000000  0.351282183
     0.249014116  0.000010190  0.650472934
     0.499930575  0.247495821  0.650345530
     0.249900408  0.249635554  0.549642234
     0.499989938  0.999335000  0.549799547
     0.250000000  0.500000000  0.450427394
     0.500000000  0.750000000  0.450427394
     0.250000000  0.750000000  0.351282183
     0.500000000  0.500000000  0.351282183
     0.247893604  0.499985578  0.649532219
     0.500000792  0.755258911  0.653170866
     0.250565688  0.750219015  0.549915226
     0.500143332  0.500447476  0.550800906
     0.750000000  0.000000000  0.450427394
     0.000000000  0.250000000  0.450427394
     0.750000000  0.250000000  0.351282183
     0.000000000  0.000000000  0.351282183
     0.750648718  0.999982229  0.650470985
     0.999705839  0.249538050  0.650444717
     0.749852917  0.249946874  0.549742972
     0.999788896  0.999773291  0.549544039
     0.750000000  0.500000000  0.450427394
     0.000000000  0.750000000  0.450427394
     0.750000000  0.750000000  0.351282183
     0.000000000  0.500000000  0.351282183
     0.751818255  0.500235192  0.651098599
     0.999754283  0.750403351  0.650334969
     0.749261569  0.749988074  0.549879739
     0.999492757  0.500135764  0.549490413

  ion indices of the primitive-cell ions
   primitive index   ion index
                 1           1
                 2           2
                 3           3
                 4           4
                 5           5
                 6           6
                 7           7
                 8           8
                 9           9
                10          10
                11          11
                12          12
                13          13
                14          14
                15          15
                16          16
                17          17
                18          18
                19          19
                20          20
                21          21
                22          22
                23          23
                24          24
[...]
      2.10555      2.11382     13.84332         0.001817      0.000077      0.000108
      4.23012      0.01872     13.84224         0.000868     -0.001567     -0.002104
      2.11679      4.23357      7.50000         0.001561     -0.000551      0.394511
      4.23357      6.35036      7.50000        -0.000276     -0.002151      0.395846
      2.11679      6.35036      9.61679         0.021948     -0.004804      0.016452
      4.23357      4.23357      9.61679         0.004805      0.006927      0.053382
      2.12269      4.23144     11.75212         0.001535      0.000788      0.001341
      4.23097      6.34168     11.75196         0.000206      0.001642      0.001962
      2.09511      6.35114     13.83788         0.003597      0.000513     -0.000874
      4.21398      4.17077     13.94873         0.002786     -0.002682     -0.012985
      6.35036      0.00000      7.50000        -0.000576      0.000700      0.390570
      0.00000      2.11679      7.50000         0.000137      0.000972      0.394964
      6.35036      2.11679      9.61679        -0.002674      0.017861      0.016217
      0.00000      0.00000      9.61679         0.003654      0.008838      0.007494
      6.34812      0.00254     11.74146        -0.001020      0.000289      0.000645
      0.00003      2.11815     11.74020         0.000505      0.001900      0.000567
      6.35753      2.11122     13.83803        -0.000789      0.001220     -0.001324
      0.00040      0.00372     13.83998         0.000606     -0.000022     -0.004097
      6.35036      4.23357      7.50000        -0.001717     -0.000658      0.398118
      0.00000      6.35036      7.50000         0.000318     -0.001032      0.387408
      6.35036      6.35036      9.61679        -0.022704     -0.017053      0.014341
      0.00000      4.23357      9.61679        -0.010492     -0.010037      0.034276
      6.34113      4.23098     11.75448        -0.000232      0.000754      0.000066
      0.00156      6.34822     11.73833         0.000909     -0.000985     -0.002873
      6.37247      6.35812     13.81969        -0.002479     -0.000490     -0.003215
      0.00359      4.22918     13.83645        -0.000436      0.001696     -0.001629
      2.11679      0.00000      9.61679        -0.000808     -0.009426      0.041567
      4.23357      2.11679      9.61679         0.001231      0.012284      0.073119
      2.11679      2.11679      7.50000        -0.000262     -0.001332     -0.476822
      4.23357      0.00000      7.50000         0.001110      0.000791     -0.475304
      2.10844      0.00009     13.88783        -0.000800      0.001974      0.002700
      4.23298      2.09558     13.88511         0.000674     -0.002423      0.003450
      2.11594      2.11370     11.73506         0.000110      0.001378      0.000557
      4.23349      8.46151     11.73842         0.001269      0.001006     -0.000400
      2.11679      4.23357      9.61679         0.019699      0.007400      0.068971
      4.23357      6.35036      9.61679        -0.000589     -0.018046      0.067380
      2.11679      6.35036      7.50000        -0.003569      0.001269     -0.475178
      4.23357      4.23357      7.50000        -0.001067     -0.001069     -0.479152
      2.09895      4.23345     13.86774        -0.004549     -0.000003      0.000140
      4.23358      6.39488     13.94543        -0.000905      0.018998     -0.019334
      2.12158      6.35221     11.74089        -0.000757      0.001143     -0.000556
      4.23478      4.23736     11.75980         0.000398     -0.000511     -0.000479
      6.35036      0.00000      9.61679        -0.002890     -0.005563      0.048889
      0.00000      2.11679      9.61679        -0.004917     -0.007367      0.034972
      6.35036      2.11679      7.50000         0.000178     -0.003391     -0.476540
      0.00000      0.00000      7.50000        -0.001222     -0.002362     -0.474684
      6.35585      8.46699     13.88779         0.002522      0.001751      0.003863
      8.46465      2.11287     13.88723         0.001493      0.003093      0.001039
      6.34911      2.11634     11.73721         0.000740      0.001036     -0.000097
      8.46536      8.46522     11.73296        -0.000035     -0.000717      0.003049
      6.35036      4.23357      9.61679        -0.026751      0.005614      0.063478
      0.00000      6.35036      9.61679        -0.001035      0.005987      0.056064
      6.35036      6.35036      7.50000         0.003589      0.003433     -0.474642
      0.00000      4.23357      7.50000         0.000787      0.002304     -0.476849
      6.36575      4.23556     13.90119         0.009009     -0.000833     -0.002739
      8.46506      6.35377     13.88488         0.001363      0.001082      0.004364
      6.34410      6.35026     11.74013         0.001731      0.001819      0.000044
      8.46285      4.23472     11.73182         0.000946      0.001334     -0.000348
    total drift:                               -0.002187     -0.000334      0.018390

  FREE ENERGIE OF THE ION-ELECTRON SYSTEM (eV)
  free  energy   TOTEN  =      -390.44946207 eV

  energy  without entropy=     -390.44946207  energy(sigma->0) =     -390.44946207

 d Force =-0.3404986E-05[-0.352E-02, 0.352E-02]  d Energy = 0.1908468E-04-0.225E-04
 d Force =-0.3420974E+02[-0.343E+02,-0.342E+02]  d Ewald  =-0.3420972E+02-0.126E-04

 Finite differences progress:
  Degree of freedom:   9/  9
  Displacement:        2/  2
  Total:              18/ 18

 SECOND DERIVATIVES (NOT SYMMETRIZED)
               1X          1Y          1Z          2X          2Y          2Z          3X          3Y          3Z
  1X   -43.460031    7.818687  -12.287787    0.354221    0.417602   -0.087964   42.895366   -8.360976   12.348126
  1Y     7.804355   -4.809508    3.665416   -3.489575    0.436749   -0.741410   -4.797204    4.208220   -2.714892
  1Z   -12.268489    3.664383   -4.802422    2.035654   -0.001550    0.373582    9.712125   -3.312277    4.111872
  2X     0.351471   -3.488679    2.034295   -5.977405   -0.077813   -0.634416    4.554950    3.335958   -1.184384
  2Y     0.417171    0.438251   -0.001681   -0.076558  -25.224641   11.305882   -0.537112   23.367479  -14.028256
  2Z    -0.088646   -0.741496    0.373572   -0.634300   11.293886   -8.687233    0.852147  -12.291285    9.379152
  3X    42.897546   -4.807243    9.730336    4.550840   -0.537961    0.853294  -47.784920    5.734833  -10.927232
  3Y    -8.348968    4.204500   -3.314518    3.339397   23.368526  -12.308795    5.728327  -28.911623   18.145516
  3Z    12.334582   -2.713309    4.106401   -1.186881  -14.020599    9.376911  -10.909186   18.133519  -17.596916

 Eigenvectors and eigenvalues of the dynamical matrix

   1 f  =  112.329178 THz   705.785040 2PiTHz 3746.898059 cm-1   464.555943 meV
             X         Y         Z           dx          dy          dz
      5.230491  4.680291 16.319347     0.913541   -0.182943    0.268987
      4.318133  5.698226 15.524943    -0.028883   -0.041337    0.015862
      4.303266  4.845253 16.071921    -0.220294    0.056160   -0.071717
      2.116786  0.000000  7.500000            0           0           0
      4.233571  2.116786  7.500000            0           0           0
      2.116786  2.116786  9.616786            0           0           0
      4.233571  0.000000  9.616786            0           0           0
      2.117059  0.001128 11.743367            0           0           0
      4.231470  2.121606 11.748752            0           0           0
      2.105546  2.113823 13.843316            0           0           0
      4.230123  0.018722 13.842239            0           0           0
      2.116786  4.233571  7.500000            0           0           0
      4.233571  6.350357  7.500000            0           0           0
      2.116786  6.350357  9.616786            0           0           0
      4.233571  4.233571  9.616786            0           0           0
      2.122686  4.231444 11.752116            0           0           0
      4.230973  6.341682 11.751964            0           0           0
      2.095108  6.351137 13.837877            0           0           0
      4.213979  4.170774 13.948728            0           0           0
      6.350357  0.000000  7.500000            0           0           0
      0.000000  2.116786  7.500000            0           0           0
      6.350357  2.116786  9.616786            0           0           0
      0.000000  0.000000  9.616786            0           0           0
      6.348119  0.002536 11.741459            0           0           0
      0.000031  2.118147 11.740199            0           0           0
      6.357531  2.111224 13.838032            0           0           0
      0.000405  0.003717 13.839976            0           0           0
      6.350357  4.233571  7.500000            0           0           0
      0.000000  6.350357  7.500000            0           0           0
      6.350357  6.350357  9.616786            0           0           0
      0.000000  4.233571  9.616786            0           0           0
      6.341130  4.230983 11.754480            0           0           0
      0.001562  6.348220 11.738327            0           0           0
      6.372470  6.358122 13.819693            0           0           0
      0.003590  4.229183 13.836450            0           0           0
      2.116786  0.000000  9.616786            0           0           0
      4.233571  2.116786  9.616786            0           0           0
      2.116786  2.116786  7.500000            0           0           0
      4.233571  0.000000  7.500000            0           0           0
      2.108438  0.000086 13.887829            0           0           0
      4.232983  2.095582 13.885109            0           0           0
      2.115942  2.113700 11.735058            0           0           0
      4.233486  8.461512 11.738417            0           0           0
      2.116786  4.233571  9.616786            0           0           0
      4.233571  6.350357  9.616786            0           0           0
      2.116786  6.350357  7.500000            0           0           0
      4.233571  4.233571  7.500000            0           0           0
      2.098951  4.233449 13.867745            0           0           0
      4.233578  6.394885 13.945431            0           0           0
      2.121575  6.352211 11.740886            0           0           0
      4.234785  4.237360 11.759796            0           0           0
      6.350357  0.000000  9.616786            0           0           0
      0.000000  2.116786  9.616786            0           0           0
      6.350357  2.116786  7.500000            0           0           0
      0.000000  0.000000  7.500000            0           0           0
      6.355850  8.466992 13.887788            0           0           0
      8.464652  2.112874 13.887227            0           0           0
      6.349112  2.116336 11.737209            0           0           0
      8.465355  8.465223 11.732961            0           0           0
      6.350357  4.233571  9.616786            0           0           0
      0.000000  6.350357  9.616786            0           0           0
      6.350357  6.350357  7.500000            0           0           0
      0.000000  4.233571  7.500000            0           0           0
      6.365752  4.235563 13.901188            0           0           0
      8.465062  6.353772 13.884884            0           0           0
      6.344105  6.350256 11.740129            0           0           0
      8.462848  4.234721 11.731816            0           0           0

[...]

   9 f  =    1.940620 THz    12.193272 2PiTHz   64.732099 cm-1     8.025754 meV
             X         Y         Z           dx          dy          dz
      5.230491  4.680291 16.319347     0.282822   -0.137153   -0.301031
      4.318133  5.698226 15.524943     0.106499   -0.049840    0.053464
      4.303266  4.845253 16.071921     0.838240   -0.301918    0.009819
      2.116786  0.000000  7.500000            0           0           0
      4.233571  2.116786  7.500000            0           0           0
      2.116786  2.116786  9.616786            0           0           0
      4.233571  0.000000  9.616786            0           0           0
      2.117059  0.001128 11.743367            0           0           0
      4.231470  2.121606 11.748752            0           0           0
      2.105546  2.113823 13.843316            0           0           0
      4.230123  0.018722 13.842239            0           0           0
      2.116786  4.233571  7.500000            0           0           0
      4.233571  6.350357  7.500000            0           0           0
      2.116786  6.350357  9.616786            0           0           0
      4.233571  4.233571  9.616786            0           0           0
      2.122686  4.231444 11.752116            0           0           0
      4.230973  6.341682 11.751964            0           0           0
      2.095108  6.351137 13.837877            0           0           0
      4.213979  4.170774 13.948728            0           0           0
      6.350357  0.000000  7.500000            0           0           0
      0.000000  2.116786  7.500000            0           0           0
      6.350357  2.116786  9.616786            0           0           0
      0.000000  0.000000  9.616786            0           0           0
      6.348119  0.002536 11.741459            0           0           0
      0.000031  2.118147 11.740199            0           0           0
      6.357531  2.111224 13.838032            0           0           0
      0.000405  0.003717 13.839976            0           0           0
      6.350357  4.233571  7.500000            0           0           0
      0.000000  6.350357  7.500000            0           0           0
      6.350357  6.350357  9.616786            0           0           0
      0.000000  4.233571  9.616786            0           0           0
      6.341130  4.230983 11.754480            0           0           0
      0.001562  6.348220 11.738327            0           0           0
      6.372470  6.358122 13.819693            0           0           0
      0.003590  4.229183 13.836450            0           0           0
      2.116786  0.000000  9.616786            0           0           0
      4.233571  2.116786  9.616786            0           0           0
      2.116786  2.116786  7.500000            0           0           0
      4.233571  0.000000  7.500000            0           0           0
      2.108438  0.000086 13.887829            0           0           0
      4.232983  2.095582 13.885109            0           0           0
      2.115942  2.113700 11.735058            0           0           0
      4.233486  8.461512 11.738417            0           0           0
      2.116786  4.233571  9.616786            0           0           0
      4.233571  6.350357  9.616786            0           0           0
      2.116786  6.350357  7.500000            0           0           0
      4.233571  4.233571  7.500000            0           0           0
      2.098951  4.233449 13.867745            0           0           0
      4.233578  6.394885 13.945431            0           0           0
      2.121575  6.352211 11.740886            0           0           0
      4.234785  4.237360 11.759796            0           0           0
      6.350357  0.000000  9.616786            0           0           0
      0.000000  2.116786  9.616786            0           0           0
      6.350357  2.116786  7.500000            0           0           0
      0.000000  0.000000  7.500000            0           0           0
      6.355850  8.466992 13.887788            0           0           0
      8.464652  2.112874 13.887227            0           0           0
      6.349112  2.116336 11.737209            0           0           0
      8.465355  8.465223 11.732961            0           0           0
      6.350357  4.233571  9.616786            0           0           0
      0.000000  6.350357  9.616786            0           0           0
      6.350357  6.350357  7.500000            0           0           0
      0.000000  4.233571  7.500000            0           0           0
      6.365752  4.235563 13.901188            0           0           0
      8.465062  6.353772 13.884884            0           0           0
      6.344105  6.350256 11.740129            0           0           0
      8.462848  4.234721 11.731816            0           0           0

 Finite differences POTIM=   1.0000000000000000E-002