 vasp.6.3.0 20Jan22 (build Aug 21 2024 11:13:42) complex
 executed on        HPECrayEX_GCC date 2024.11.26  18:59:00

 INCAR:
   SYSTEM = TiO2
   ISMEAR = 0
   SIGMA = 0.05
   EDIFF = 1E-4
   ALGO = ALL
   ISTART = 0
   IBRION = -1
   NSW = 0
   ISYM = 0
   ISIF = 2
   EDIFFG = -0.01
   DIPOL = 0.5 0.5 0.5
   IDIPOL = 3
   LDIPOL = .TRUE.
   GGA = PE
   IVDW = 21
   ENCUT = 600
   PREC = Accurate
   LASPH = .TRUE.
   LREAL = .FALSE.
   ISPIN = 1
   NELM = 200
   NELMIN = 8
   NCORE = 16
   KPAR = 1
   LWAVE = .FALSE.
   LCHARG = .FALSE.

 POTCAR:    PAW_PBE C 08Apr2002
 POTCAR:    PAW_PBE O 08Apr2002
 POTCAR:    PAW_PBE H 15Jun2001
 POTCAR:    PAW_PBE Ti_pv 07Sep2000
 POTCAR:    PAW_PBE O 08Apr2002
 POTCAR:    PAW_PBE C 08Apr2002
   VRHFIN =C: s2p2

   TITEL  = PAW_PBE C 08Apr2002
   POMASS =   12.011; ZVAL   =    4.000    mass and valenz
   ENMAX  =  400.000; ENMIN  =  300.000 eV

[...]

   TITEL  = PAW_PBE H 15Jun2001
   POMASS =    1.000; ZVAL   =    1.000    mass and valenz
   ENMAX  =  250.000; ENMIN  =  200.000 eV

   TITEL  = PAW_PBE Ti_pv 07Sep2000
   POMASS =   47.880; ZVAL   =   10.000    mass and valenz
   ENMAX  =  222.335; ENMIN  =  166.751 eV

   TITEL  = PAW_PBE O 08Apr2002
   POMASS =   16.000; ZVAL   =    6.000    mass and valenz
   ENMAX  =  400.000; ENMIN  =  300.000 eV

  PAW_PBE C 08Apr2002                   :
  PAW_PBE O 08Apr2002                   :
  PAW_PBE H 15Jun2001                   :
  PAW_PBE Ti_pv 07Sep2000               :
  PAW_PBE O 08Apr2002                   :

 POSCAR:  C  O  H Ti  O
  positions in direct lattice
 exchange correlation table for  LEXCH =        8
   RHO(1)=    0.500       N(1)  =     2000
   RHO(2)=  100.500       N(2)  =     4000

 ion  position               nearest neighbor table
   1  0.511  0.589  0.811-   3 1.09   5 1.10   6 1.10   2 1.45
   2  0.540  0.500  0.782-   4 1.00   1 1.45  86 2.17
   3  0.427  0.598  0.810-   1 1.09
   4  0.617  0.496  0.780-   2 1.00
   5  0.533  0.566  0.845-   1 1.10
   6  0.548  0.669  0.802-   1 1.10
   7  0.750  0.625  0.287-  87 1.96  88 1.96 147 1.96 148 1.96  90 1.98 169 1.98  17 2.97  37 2.97

   8  0.000  0.750  0.287-  89 1.96  90 1.96 109 1.96 110 1.96  91 1.98  38 2.97  18 2.97
   9  0.000  0.625  0.393-  91 1.96  92 1.96 151 1.96 152 1.96  93 1.98  94 1.98  19 2.97  39 2.97

[...]

  87  0.750  0.750  0.245-   7 1.96  17 1.96
  88  0.750  0.750  0.329-   7 1.96  17 1.96  10 1.98
  89  0.098  0.625  0.287-   8 1.96  38 1.96  47 1.98
  90  0.902  0.625  0.287-   8 1.96  38 1.96   7 1.98
  91  0.000  0.750  0.352-   9 1.96  19 1.96   8 1.98
  92  0.000  0.750  0.435-   9 1.96  19 1.96  12 1.98
  93  0.848  0.625  0.393-  10 1.96  40 1.96   9 1.98
  94  0.152  0.625  0.393-  50 1.96  80 1.96   9 1.98
  95  0.750  0.750  0.458-  11 1.96  21 1.96  10 1.98
  96  0.750  0.750  0.542-  11 1.96  21 1.96  14 2.10
  97  0.098  0.625  0.500-  12 1.96  42 1.96  51 1.98
  98  0.902  0.625  0.500-  12 1.96  42 1.96  11 1.98
  99  0.000  0.750  0.566-  23 1.90  13 1.90  12 2.01
 100  0.999  0.750  0.649-  16 1.81  13 2.02  23 2.03
 101  0.850  0.625  0.607-  13 1.97  44 1.97  14 1.98
 102  0.150  0.625  0.607-  13 1.94  54 1.98  84 1.99
 103  0.754  0.751  0.672-  14 1.87  15 2.08  25 2.10
 104  0.749  0.749  0.755-  15 1.84  25 1.84
 105  0.094  0.625  0.719-  46 1.95  16 1.96  55 2.03
 106  0.906  0.624  0.720-  46 1.95  16 1.96  15 2.03
 107  0.750  0.000  0.245-  17 1.96  27 1.96
 108  0.750  0.000  0.329-  17 1.96  27 1.96  20 1.98
 109  0.098  0.875  0.287-   8 1.96  18 1.96  57 1.98
 110  0.902  0.875  0.287-   8 1.96  18 1.96  17 1.98
 111  0.000  0.000  0.352-  19 1.96  29 1.96  18 1.98
 112  0.000  0.000  0.435-  19 1.96  29 1.96  22 1.98
 113  0.848  0.875  0.393-  10 1.96  20 1.96  19 1.98
 114  0.152  0.875  0.393-  50 1.96  60 1.96  19 1.98
 115  0.750  0.000  0.458-  21 1.96  31 1.96  20 1.98
 116  0.750  0.000  0.542-  21 1.96  31 1.96  24 2.11
 117  0.098  0.875  0.500-  12 1.96  22 1.96  61 1.98
 118  0.902  0.875  0.500-  12 1.96  22 1.96  21 1.98
 119  0.000  1.000  0.566-  33 1.90  23 1.90  22 2.01
 120  1.000  1.000  0.649-  26 1.81  23 2.02  33 2.02
 121  0.850  0.876  0.607-  23 1.95  14 1.98  24 1.98
 122  0.150  0.875  0.607-  23 1.96  64 1.97  54 1.98
 123  0.750  1.000  0.672-  24 1.88  35 2.09  25 2.10
 124  0.750  1.000  0.756-  35 1.83  25 1.84
 125  0.094  0.874  0.719-  16 1.94  26 1.95  65 2.05
 126  0.907  0.875  0.720-  16 1.95  26 1.95  25 2.04
 127  0.750  0.250  0.245-  27 1.96  37 1.96
 128  0.750  0.250  0.329-  27 1.96  37 1.96  30 1.98
 129  0.098  0.125  0.287-  18 1.96  28 1.96  67 1.98
 130  0.902  0.125  0.287-  18 1.96  28 1.96  27 1.98
 131  0.000  0.250  0.352-  29 1.96  39 1.96  28 1.98
 132  0.000  0.250  0.435-  29 1.96  39 1.96  32 1.98
 133  0.848  0.125  0.393-  20 1.96  30 1.96  29 1.98
 134  0.152  0.125  0.393-  60 1.96  70 1.96  29 1.98
 135  0.750  0.250  0.458-  31 1.96  41 1.96  30 1.98
 136  0.750  0.250  0.542-  31 1.96  41 1.96  34 2.10
 137  0.098  0.125  0.500-  22 1.96  32 1.96  71 1.98
 138  0.902  0.125  0.500-  22 1.96  32 1.96  31 1.98
 139  0.000  0.250  0.566-  33 1.90  43 1.90  32 2.01
 140  0.999  0.250  0.650-  36 1.81  43 2.02  33 2.03
 141  0.850  0.125  0.607-  33 1.96  34 1.98  24 1.98
 142  0.150  0.125  0.607-  33 1.95  64 1.98  74 1.99
 143  0.752  0.250  0.672-  34 1.88  45 2.07  35 2.11
 144  0.749  0.250  0.755-  45 1.83  35 1.85
 145  0.094  0.125  0.719-  36 1.94  26 1.95  75 2.05
 146  0.906  0.125  0.720-  36 1.95  26 1.95  35 2.04
[...]
 232  0.500  0.500  0.435-  49 1.96  79 1.96  82 1.98
 233  0.348  0.375  0.393-  70 1.96  80 1.96  79 1.98
 234  0.652  0.375  0.393-  30 1.96  40 1.96  79 1.98
 235  0.250  0.500  0.458-  51 1.96  81 1.96  80 1.98
 236  0.250  0.500  0.542-  51 1.96  81 1.96  84 2.11
 237  0.598  0.375  0.500-  72 1.96  82 1.96  41 1.98
 238  0.402  0.375  0.500-  72 1.96  82 1.96  81 1.98
 239  0.500  0.500  0.566-  53 1.90  83 1.90  82 2.01
 240  0.499  0.500  0.650-  86 1.92  83 1.98  53 1.98
 241  0.349  0.375  0.607-  84 1.97  74 1.97  83 1.98
 242  0.650  0.375  0.608-  83 1.95  34 1.98  44 1.99
 243  0.250  0.500  0.672-  84 1.87  55 2.09  85 2.11
 244  0.252  0.500  0.756-  55 1.84  85 1.84
 245  0.596  0.371  0.715-  76 1.92  86 1.97  45 2.03
 246  0.407  0.374  0.719-  86 1.93  76 1.95  85 2.04

IMPORTANT INFORMATION: All symmetrisations will be switched off!
NOSYMM: (Re-)initialisation of all symmetry stuff for point group C_1.

                                     Primitive cell

  volume of cell :    4740.1649

  direct lattice vectors                    reciprocal lattice vectors
    13.042933829  0.000000000  0.000000000     0.076669867  0.000000000  0.000000000
     0.000000000 11.878216733  0.000000000     0.000000000  0.084187721  0.000000000
     0.000000000  0.000000000 30.596159140     0.000000000  0.000000000  0.032683841

  length of vectors
    13.042933829 11.878216733 30.596159140     0.076669867  0.084187721  0.032683841

  position of ions in fractional coordinates (direct lattice)
     0.510519096  0.589272208  0.811491696
     0.540066063  0.500126764  0.781835080
     0.427115979  0.597656537  0.809585011
     0.616866388  0.495849325  0.780221188
     0.533460527  0.566257949  0.844821005
     0.547923946  0.669095882  0.802413349
     0.750000000  0.625000000  0.286853412
     0.000000000  0.750000000  0.286853412
     0.000000000  0.625000000  0.393426706
     0.750000000  0.750000000  0.393426706
     0.750000000  0.625000000  0.500000000
     0.000000000  0.750000000  0.500000000
     0.000894969  0.624976036  0.604434265
     0.750340284  0.749875810  0.610291194
     0.750884348  0.625722219  0.719170879
     0.000028877  0.750211979  0.708703241
     0.750000000  0.875000000  0.286853412
     0.000000000  0.000000000  0.286853412
     0.000000000  0.875000000  0.393426706
     0.750000000  0.000000000  0.393426706
     0.750000000  0.875000000  0.500000000
     0.000000000  0.000000000  0.500000000
     0.999398443  0.874965426  0.604484378
     0.749249702  0.000153633  0.610588765
     0.749882510  0.874893505  0.720283113
     0.000398598  0.999781004  0.708681335
     0.750000000  0.125000000  0.286853412
     0.000000000  0.250000000  0.286853412
     0.000000000  0.125000000  0.393426706
     0.750000000  0.250000000  0.393426706
     0.750000000  0.125000000  0.500000000
     0.000000000  0.250000000  0.500000000
     0.000147572  0.124893411  0.604507895
     0.750008814  0.249462154  0.610275268
     0.749717121  0.124014381  0.720342591
     0.000032340  0.249442449  0.708716800
     0.750000000  0.375000000  0.286853412
     0.000000000  0.500000000  0.286853412
     0.000000000  0.375000000  0.393426706
     0.750000000  0.500000000  0.393426706
     0.750000000  0.375000000  0.500000000
     0.000000000  0.500000000  0.500000000
     0.000103087  0.374912645  0.604427645
     0.751220984  0.500017726  0.610499117
     0.751393167  0.373063935  0.719355956
     0.000583192  0.499948857  0.708643400
     0.250000000  0.625000000  0.286853412
     0.500000000  0.750000000  0.286853412
     0.500000000  0.625000000  0.393426706
     0.250000000  0.750000000  0.393426706
     0.250000000  0.625000000  0.500000000
     0.500000000  0.750000000  0.500000000
     0.500357702  0.622578867  0.605809586
     0.250392109  0.750012952  0.610549924
     0.250073406  0.624985907  0.720169882
     0.501097434  0.749912700  0.707399408
     0.250000000  0.875000000  0.286853412
     0.500000000  0.000000000  0.286853412
     0.500000000  0.875000000  0.393426706
     0.250000000  0.000000000  0.393426706
[...]
     0.500000000  0.500000000  0.435151311
     0.347877722  0.375000000  0.393426706
     0.652122278  0.375000000  0.393426706
     0.250000000  0.500000000  0.458275395
     0.250000000  0.500000000  0.541724605
     0.597877722  0.375000000  0.500000000
     0.402122278  0.375000000  0.500000000
     0.500262283  0.499831593  0.565800911
     0.499173972  0.500161057  0.649922827
     0.349416402  0.374834467  0.607349233
     0.650447822  0.374872898  0.607744939
     0.249768799  0.500269397  0.671766192
     0.251650950  0.500009815  0.755659627
     0.596212819  0.371279663  0.715327750
     0.406613585  0.373880771  0.718656073

  ion indices of the primitive-cell ions
   primitive index   ion index
                 1           1
                 2           2
                 3           3
                 4           4
                 5           5
                 6           6
                 7           7
                 8           8
                 9           9
                10          10
                11          11
                12          12
                13          13
                14          14
                15          15
                16          16
                17          17
                18          18
                19          19
                20          20
                21          21
                22          22
                23          23
                24          24
                25          25
                26          26
                27          27
[...]
   O          53.271          3.919          9.979          1.84791065
   O          53.204          3.918          9.972          1.84674608
   O          52.715          3.912          9.927          1.83824285
   O          54.220          3.931         10.067          1.86430705
   O          53.378          3.920          9.989          1.84977032
   O          53.372          3.920          9.988          1.84966633
   O          53.752          3.925         10.024          1.85624370
   O          37.209          3.692          8.340          1.54440935
   O          53.466          3.921          9.997          1.85128727
   O          51.612          3.898          9.822          1.81890964

  vdW correction parametrized for the method pbe

  IVDW =  21
  VDW_RADIUS =    50.000 A
  VDW_IDAMPF =  0
  VDW_S6 =     1.000
  VDW_SR =     0.950
  VDW_D =    20.000
  LVDW_ONECELL = F F F
  LVDW_SAMETYPE T T T T T
  LVDW_EWALD = F

  Number of pair interactions contributing to vdW energy: 3395958
  Edisp (eV):  -34.94476

  FORCE on cell =-STRESS in cart. coord.  units (eV):
  Direction    XX          YY          ZZ          XY          YZ          ZX
  Alpha Z  4671.76807  4671.76807  4671.76807
  Ewald  965696.89957983164.34568************   -73.49506   134.91073   -76.35890
  Hartree************************************   -40.00400    78.82091   -49.10584
  E(xc)   -8645.22993 -8627.34838 -8654.61344    -0.10424     0.18995    -0.15918
  Local  ************************************   107.92403  -204.63131   122.11081
  n-local -5447.78497 -5370.69401 -5489.44954    -1.05024     1.84724    -0.59340
  augment  5227.96676  5211.60884  5232.69725     0.43117    -0.76749     0.12734
  Kinetic 28814.62666 28349.87487 28878.35267     6.29405   -10.49020     4.06502
  Fock        0.00000     0.00000     0.00000     0.00000     0.00000     0.00000
  vdW       -50.75846   -30.13778   -43.26836     0.00599     0.04783     0.15795
  Total       6.13350   -36.60747   -33.01816     0.00171    -0.07233     0.24380
  in kB       2.07313   -12.37334   -11.16015     0.00058    -0.02445     0.08240

 VOLUME and BASIS-vectors are now :
  energy-cutoff  :      600.00
  volume of cell :     4740.16
      direct lattice vectors                 reciprocal lattice vectors
    13.042933829  0.000000000  0.000000000     0.076669867  0.000000000  0.000000000
     0.000000000 11.878216733  0.000000000     0.000000000  0.084187721  0.000000000
     0.000000000  0.000000000 30.596159140     0.000000000  0.000000000  0.032683841

  length of vectors
    13.042933829 11.878216733 30.596159140     0.076669867  0.084187721  0.032683841

 FORCES acting on ions:
    Electron-Ion                     Ewald-Force                    Non-Local-Force
   0.386E+02 -.911E+02 -.160E+04   -.411E+02 0.961E+02 0.160E+04   0.254E+01 -.508E+01 -.471E+01
   0.217E+02 0.124E+03 -.249E+04   -.437E+02 -.150E+03 0.248E+04   0.220E+02 0.258E+02 0.987E+01
   0.583E+02 -.150E+02 -.391E+03   -.642E+02 0.155E+02 0.391E+03   0.588E+01 -.569E+00 0.269E+00
   -.688E+02 0.149E+02 -.424E+03   0.761E+02 -.155E+02 0.424E+03   -.738E+01 0.559E+00 0.411E+00
   -.113E+02 0.609E+01 -.383E+03   0.129E+02 -.749E+01 0.388E+03   -.152E+01 0.139E+01 -.537E+01
   -.184E+02 -.614E+02 -.389E+03   0.209E+02 0.663E+02 0.388E+03   -.251E+01 -.486E+01 0.130E+01
   -.195E+00 -.148E-01 0.376E+04   0.191E+00 0.150E-01 -.377E+04   0.111E-02 -.158E-04 0.429E+00
   -.573E-01 -.636E-01 0.394E+04   0.585E-01 0.638E-01 -.394E+04   -.261E-03 -.342E-04 -.389E+01
   -.214E+00 -.292E-01 0.193E+04   0.220E+00 0.294E-01 -.193E+04   -.877E-03 0.377E-04 -.445E-01
   -.387E+00 -.566E-01 0.192E+04   0.377E+00 0.572E-01 -.192E+04   0.234E-02 0.305E-04 0.209E+00
   -.772E+00 0.293E-01 0.158E+02   0.724E+00 -.481E-01 -.150E+02   0.811E-02 0.109E-02 -.123E+00
   -.101E+01 -.884E+00 0.225E+02   0.103E+01 0.889E+00 -.235E+02   -.551E-02 -.207E-02 0.347E+00
   -.319E+01 -.193E+01 -.184E+04   0.319E+01 0.194E+01 0.184E+04   -.181E-02 -.754E-02 0.642E-01
   -.788E+01 -.112E+02 -.188E+04   0.789E+01 0.112E+02 0.188E+04   -.140E-01 -.135E-01 -.858E-01
   -.100E+03 -.160E+02 -.367E+04   0.999E+02 0.158E+02 0.367E+04   0.186E+00 0.129E+00 -.112E-01
   -.604E+01 -.523E+01 -.374E+04   0.609E+01 0.524E+01 0.374E+04   -.537E-01 -.202E-01 0.919E+00
   -.203E+00 -.715E-01 0.376E+04   0.199E+00 0.718E-01 -.377E+04   0.115E-02 -.267E-05 0.429E+00
   -.546E-01 -.359E-01 0.394E+04   0.560E-01 0.359E-01 -.394E+04   -.277E-03 0.392E-05 -.389E+01
   -.189E+00 -.152E+00 0.193E+04   0.194E+00 0.152E+00 -.193E+04   -.893E-03 0.435E-04 -.446E-01
   -.469E+00 -.105E+00 0.192E+04   0.459E+00 0.105E+00 -.192E+04   0.216E-02 -.105E-03 0.209E+00
   -.204E+01 -.985E+00 0.143E+02   0.200E+01 0.101E+01 -.136E+02   0.688E-02 -.103E-02 -.125E+00
   -.817E+00 -.372E+00 0.211E+02   0.836E+00 0.373E+00 -.221E+02   -.503E-02 -.305E-03 0.345E+00
   -.541E+01 -.300E+01 -.185E+04   0.541E+01 0.302E+01 0.185E+04   0.116E-02 -.129E-01 0.587E-01
   -.575E+01 -.500E+00 -.190E+04   0.576E+01 0.493E+00 0.190E+04   -.133E-01 0.686E-02 -.102E+00
   -.300E+02 -.294E+02 -.372E+04   0.300E+02 0.294E+02 0.372E+04   0.497E-01 0.174E-01 -.133E+00
   -.517E+01 -.242E+01 -.375E+04   0.514E+01 0.242E+01 0.375E+04   0.255E-01 -.120E-02 0.960E+00
   -.197E+00 0.147E-01 0.376E+04   0.193E+00 -.151E-01 -.377E+04   0.110E-02 0.116E-04 0.429E+00
   -.572E-01 0.636E-01 0.394E+04   0.586E-01 -.638E-01 -.394E+04   -.284E-03 0.260E-04 -.389E+01
   -.189E+00 0.312E-01 0.193E+04   0.195E+00 -.314E-01 -.193E+04   -.972E-03 -.377E-04 -.446E-01
   -.347E+00 0.578E-01 0.192E+04   0.337E+00 -.586E-01 -.192E+04   0.221E-02 0.674E-04 0.209E+00
   -.186E+01 0.256E+00 0.137E+02   0.182E+01 -.290E+00 -.130E+02   0.827E-02 0.225E-02 -.125E+00
   -.100E+01 0.824E+00 0.218E+02   0.102E+01 -.832E+00 -.228E+02   -.574E-02 0.427E-02 0.349E+00
   -.163E+01 0.141E+01 -.185E+04   0.161E+01 -.142E+01 0.185E+04   0.443E-02 0.759E-02 0.649E-01
   -.732E+01 0.690E+01 -.189E+04   0.733E+01 -.689E+01 0.189E+04   -.947E-02 -.116E-01 -.104E+00
   -.218E+02 0.138E+02 -.373E+04   0.218E+02 -.138E+02 0.373E+04   0.468E-01 -.148E-01 -.155E+00
   -.495E+01 0.479E+01 -.375E+04   0.499E+01 -.480E+01 0.375E+04   -.497E-01 0.155E-01 0.920E+00
   -.189E+00 0.716E-01 0.376E+04   0.186E+00 -.718E-01 -.377E+04   0.110E-02 -.187E-04 0.429E+00
   -.597E-01 0.358E-01 0.394E+04   0.611E-01 -.359E-01 -.394E+04   -.258E-03 0.162E-04 -.389E+01
   -.217E+00 0.150E+00 0.193E+04   0.223E+00 -.150E+00 -.193E+04   -.985E-03 -.145E-03 -.445E-01
   -.268E+00 0.104E+00 0.192E+04   0.258E+00 -.103E+00 -.192E+04   0.198E-02 -.105E-03 0.209E+00
   -.559E+00 0.719E+00 0.151E+02   0.510E+00 -.694E+00 -.144E+02   0.914E-02 -.145E-02 -.123E+00
   -.108E+01 0.337E+00 0.232E+02   0.110E+01 -.338E+00 -.243E+02   -.578E-02 0.690E-03 0.346E+00
   -.537E+01 0.370E+01 -.184E+04   0.537E+01 -.371E+01 0.184E+04   -.134E-02 0.478E-02 0.628E-01
   -.687E+01 0.328E+01 -.188E+04   0.693E+01 -.328E+01 0.188E+04   -.637E-01 0.960E-02 -.835E-01
   -.830E+02 0.250E+02 -.368E+04   0.829E+02 -.248E+02 0.368E+04   0.118E+00 -.174E+00 -.625E-02
   -.834E+01 0.321E+01 -.374E+04   0.831E+01 -.321E+01 0.374E+04   0.284E-01 0.275E-02 0.868E+00
   0.196E+00 -.110E-01 0.376E+04   -.192E+00 0.110E-01 -.377E+04   -.110E-02 0.714E-06 0.428E+00
   0.563E-01 -.518E-01 0.394E+04   -.577E-01 0.522E-01 -.394E+04   0.264E-03 -.528E-04 -.389E+01
   0.195E+00 0.172E+00 0.193E+04   -.201E+00 -.160E+00 -.193E+04   0.743E-03 -.277E-02 -.462E-01
   0.409E+00 -.149E-01 0.192E+04   -.399E+00 0.156E-01 -.192E+04   -.221E-02 -.862E-04 0.205E+00
   0.150E+01 0.225E+00 0.136E+02   -.145E+01 -.236E+00 -.128E+02   -.120E-01 0.685E-03 -.131E+00
   0.872E+00 0.104E+01 0.271E+02   -.880E+00 -.112E+01 -.280E+02   -.200E-02 0.390E-01 0.265E+00
   0.352E+01 -.127E+02 -.183E+04   -.352E+01 0.128E+02 0.183E+04   0.469E-02 -.107E+00 0.451E-01
   0.142E+02 -.577E+01 -.190E+04   -.142E+02 0.576E+01 0.190E+04   -.172E-01 0.147E-01 -.864E-01
   0.631E+02 -.155E+02 -.369E+04   -.632E+02 0.155E+02 0.369E+04   0.815E-01 0.418E-02 -.155E+00
   0.262E+02 -.831E+02 -.365E+04   -.260E+02 0.832E+02 0.365E+04   -.181E+00 -.626E-01 0.111E+01
   0.204E+00 -.672E-01 0.376E+04   -.200E+00 0.678E-01 -.377E+04   -.111E-02 -.155E-04 0.428E+00
   0.537E-01 -.445E-01 0.394E+04   -.551E-01 0.446E-01 -.394E+04   0.272E-03 0.172E-04 -.389E+01
   0.167E+00 -.194E-01 0.193E+04   -.172E+00 0.203E-01 -.193E+04   0.731E-03 -.113E-02 -.473E-01
   0.491E+00 -.108E+00 0.192E+04   -.481E+00 0.108E+00 -.192E+04   -.220E-02 0.119E-03 0.204E+00
[...]
   -.531E+02 0.298E-01 0.115E+04   0.571E+02 -.308E-01 -.115E+04   -.354E+01 0.151E-02 0.151E+00
   0.533E+02 0.420E-01 0.115E+04   -.572E+02 -.427E-01 -.115E+04   0.355E+01 0.108E-02 0.159E+00
   0.366E+00 0.179E+00 0.509E+03   -.348E+00 -.180E+00 -.513E+03   -.243E-01 0.316E-02 0.413E+01
   0.215E+01 0.568E+00 -.508E+03   -.214E+01 -.561E+00 0.515E+03   -.295E-01 -.580E-02 -.704E+01
   -.545E+02 0.284E-01 0.143E+02   0.591E+02 -.315E-01 -.145E+02   -.503E+01 0.227E-01 0.246E+00
   0.553E+02 -.434E-01 0.136E+02   -.599E+02 0.356E-01 -.138E+02   0.507E+01 0.299E-01 0.230E+00
   0.115E+01 0.152E+01 -.601E+03   -.118E+01 -.158E+01 0.594E+03   0.310E-01 0.608E-01 0.686E+01
   0.110E+02 0.356E+01 -.158E+04   -.113E+02 -.343E+01 0.159E+04   0.367E+00 -.126E+00 -.224E+01
   -.278E+02 0.586E+01 -.111E+04   0.315E+02 -.611E+01 0.111E+04   -.366E+01 0.252E+00 0.111E+01
   0.234E+02 0.472E+01 -.111E+04   -.262E+02 -.470E+01 0.111E+04   0.275E+01 -.130E-01 0.686E+00
   0.208E+02 0.331E+01 -.178E+04   -.209E+02 -.340E+01 0.178E+04   0.284E-01 0.906E-01 -.207E+01
   0.580E+02 0.107E+02 -.268E+04   -.578E+02 -.108E+02 0.270E+04   -.196E+00 0.885E-01 -.203E+02
   -.517E+02 0.571E+02 -.220E+04   0.575E+02 -.567E+02 0.220E+04   -.586E+01 -.408E+00 -.874E+00
   0.711E+02 0.508E+02 -.227E+04   -.773E+02 -.511E+02 0.227E+04   0.618E+01 0.290E+00 -.328E+01
   -.165E+02 -.192E+02 0.875E+02   0.293E-11 -.213E-13 0.455E-12   0.165E+02 0.192E+02 -.876E+02

 POSITION                                       TOTAL-FORCE (eV/Angst)
      6.65867      6.99950     24.82853        -0.000392      0.000458     -0.003257
      7.04405      5.94061     23.92115         0.002031     -0.000620      0.004424
      5.57085      7.09909     24.77019         0.005645     -0.006461      0.002713
      8.04575      5.88981     23.87177        -0.002864     -0.006981     -0.004172
      6.95789      6.72613     25.84828         0.001300     -0.005079     -0.000266
      7.14654      7.94767     24.55077         0.001199     -0.005264      0.001058
      9.78220      7.42389      8.77661        -0.002632      0.000250     -3.426587
      0.00000      8.90866      8.77661         0.001018      0.000181      2.826463
      0.00000      7.42389     12.03735         0.004858      0.000261      0.514409
      9.78220      8.90866     12.03735        -0.007893      0.000682     -0.721948
      9.78220      7.42389     15.29808        -0.040407     -0.017750      0.620487
      0.00000      8.90866     15.29808         0.012140      0.002512     -0.695837
      0.01167      7.42360     18.49337         0.002848      0.005240     -0.000115
      9.78664      8.90719     18.67257         0.000457      0.002408      0.003372
      9.79373      7.43246     22.00387         0.000057      0.002723      0.002123
      0.00038      8.91118     21.68360        -0.000840      0.008422      0.007282
      9.78220     10.39344      8.77661        -0.002756      0.000303     -3.426639
      0.00000      0.00000      8.77661         0.001097      0.000060      2.826475
      0.00000     10.39344     12.03735         0.005060      0.000129      0.514758
      9.78220      0.00000     12.03735        -0.008315     -0.000327     -0.722255
      9.78220     10.39344     15.29808        -0.030758      0.025018      0.629054
      0.00000      0.00000     15.29808         0.014014      0.000787     -0.691581
     13.03509     10.39303     18.49490        -0.006631      0.003652      0.001260
      9.77241      0.00182     18.68167        -0.004502      0.000470      0.001661
      9.78067     10.39217     22.03790         0.004004      0.002374     -0.001690
      0.00520     11.87562     21.68293        -0.000700     -0.000559      0.010351
      9.78220      1.48478      8.77661        -0.002744     -0.000375     -3.426973
      0.00000      2.96955      8.77661         0.001127     -0.000166      2.826239
      0.00000      1.48478     12.03735         0.005233     -0.000298      0.514717
      9.78220      2.96955     12.03735        -0.007623     -0.000715     -0.722982
      9.78220      1.48478     15.29808        -0.030668     -0.031657      0.621410
      0.00000      2.96955     15.29808         0.014956     -0.003852     -0.695030
      0.00192      1.48351     18.49562        -0.006104     -0.003533     -0.000162
      9.78232      2.96317     18.67208        -0.001384     -0.002171      0.001079
      9.77851      1.47307     22.03972         0.002531     -0.002930     -0.001063
      0.00042      2.96293     21.68401         0.001546     -0.006492      0.007324
      9.78220      4.45433      8.77661        -0.002632     -0.000205     -3.426830
      0.00000      5.93911      8.77661         0.001192     -0.000084      2.826556
      0.00000      4.45433     12.03735         0.005232     -0.000063      0.514252
      9.78220      5.93911     12.03735        -0.007438      0.000322     -0.722539
      9.78220      4.45433     15.29808        -0.040599      0.024052      0.619852
      0.00000      5.93911     15.29808         0.012223     -0.000111     -0.697979
      0.00134      4.45329     18.49316         0.001051     -0.003128     -0.000837
      9.79813      5.93932     18.67893         0.004765      0.001086      0.003159
      9.80037      4.43133     22.00953        -0.000715      0.000487      0.001842
      0.00761      5.93850     21.68177         0.000528      0.001314      0.005792
      3.26073      7.42389      8.77661         0.002687      0.000031     -3.424573
      6.52147      8.90866      8.77661        -0.001066      0.000330      2.833378
      6.52147      7.42389     12.03735        -0.004713      0.009506      0.538865
      3.26073      8.90866     12.03735         0.007752      0.000700     -0.707924
      3.26073      7.42389     15.29808         0.038154     -0.010685      0.662928
      6.52147      8.90866     15.29808        -0.009382     -0.041637     -0.563414
      6.52613      7.39513     18.53545         0.005690     -0.002801      0.000388
      3.26585      8.90882     18.68048         0.000981      0.001863      0.004453
      3.26169      7.42372     22.03443         0.000024     -0.002645      0.006393
      6.53578      8.90763     21.64370         0.001205      0.004178      0.003243
      3.26073     10.39344      8.77661         0.002882      0.000592     -3.424607
      6.52147      0.00000      8.77661        -0.001070      0.000069      2.833367
      6.52147     10.39344     12.03735        -0.004697     -0.000193      0.540379
      3.26073      0.00000     12.03735         0.007994      0.000159     -0.706126
[...]
      6.52147      5.93911     13.31396         0.001933     -0.000753     -0.123709
      4.53735      4.45433     12.03735         0.421137      0.000569      0.053107
      8.50559      4.45433     12.03735        -0.415304      0.000402      0.055099
      3.26073      5.93911     14.02147        -0.006683      0.001862     -0.102119
      3.26073      5.93911     16.57469        -0.016148      0.001442      0.006619
      7.79808      4.45433     15.29808        -0.430121      0.019310      0.073490
      5.24485      4.45433     15.29808         0.456980      0.021806      0.075559
      6.52489      5.93711     17.31133         0.001037     -0.000205     -0.001804
      6.51069      5.94102     19.88514         0.000711      0.000124      0.000092
      4.55742      4.45237     18.58255         0.000391      0.001504      0.001674
      8.48375      4.45282     18.59466        -0.000890      0.003287      0.000046
      3.25772      5.94231     20.55347         0.002005      0.000335     -0.001858
      3.28227      5.93922     23.12028        -0.002447     -0.000242     -0.003093
      7.77636      4.41014     21.88628         0.001838      0.001066     -0.002236
      5.30343      4.44104     21.98812         0.001434      0.003298      0.001392
    total drift:                               -0.006195     -0.002636     -0.093734

  FREE ENERGIE OF THE ION-ELECTRON SYSTEM (eV)
  free  energy   TOTEN  =     -2186.34318315 eV

  energy  without entropy=    -2186.34318315  energy(sigma->0) =    -2186.34318315