 vasp.6.3.0 20Jan22 (build Apr  1 2022 16:44:48) complex
 executed on        HPECrayEX_GCC date 2022.11.14  12:26:43

 INCAR:
   SYSTEM = MgO-rocksalt
   ISMEAR = 0
   SIGMA = 0.05
   EDIFF = 1E-6
   ALGO = ALL
   ISTART = 0
   IBRION = -1
   NSW = 0
   ISYM = 0
   DIPOL = 0.5 0.5 0.5
   IDIPOL = 3
   LDIPOL = .TRUE.
   LHFCALC = .TRUE.
   GGA = B5
   AEXX = 0.2
   AGGAX = 0.72
   AGGAC = 0.81
   ALDAC = 0.19
   IVDW = 1
   VDW_S6 = 1.05
   VDW_C6 = 0.63 0.70
   VDW_R0 = 1.243 1.342
   ENCUT = 600
   PREC = Accurate
   LASPH = .TRUE.
   LREAL = .FALSE.
   ISPIN = 2
   MAGMOM = 0.0 0.0 0.0 0.0 0.0 0.0 0.0 0.0 0.0 0.0 0.0 0.0 0.0 0.0 0.0 0.0 0.0 0.0 0.0 0.0 0.0 0.0 0.0 0.0 0.0 0.0 0.0 0.0 0.0 0.0 0.0 0.0 0.0 0.0 0.0 0.0 0.0 0.0 0.0 0.0 0.0 0.0 0.0 0.0 0.0 0.0 0.0 0.0 0.0 0.0 0.0 0.0 0.0 0.0 0.0 0.0 0.0 0.0 0.0 0.0 0.0 0.0 0.0 0.0
   NELM = 200
   NELMIN = 8
   NCORE = 8
   KPAR = 1
   LWAVE = .FALSE.
   LCHARG = .FALSE.

 POTCAR:    PAW_PBE Mg_pv 13Apr2007
 POTCAR:    PAW_PBE O 08Apr2002
 POTCAR:    PAW_PBE Mg_pv 13Apr2007
   VRHFIN =Mg: p6s2

   TITEL  = PAW_PBE Mg_pv 13Apr2007
   POMASS =   24.305; ZVAL   =    8.000    mass and valenz
   ENMAX  =  403.929; ENMIN  =  302.947 eV

   TITEL  = PAW_PBE O 08Apr2002
   POMASS =   16.000; ZVAL   =    6.000    mass and valenz
   ENMAX  =  400.000; ENMIN  =  300.000 eV

  PAW_PBE Mg_pv 13Apr2007               :
  PAW_PBE O 08Apr2002                   :

 POSCAR: Mg  O
  positions in direct lattice
 exchange correlation table for  LEXCH =       12
   RHO(1)=    0.500       N(1)  =     2000
   RHO(2)=  100.500       N(2)  =     4000

 ion  position               nearest neighbor table
   1  0.250  0.000  0.352-  35 2.10  36 2.10  43 2.10  52 2.10  33 2.10
   2  0.500  0.250  0.352-  35 2.10  36 2.10  44 2.10  51 2.10  34 2.10
   3  0.250  0.250  0.451-  33 2.10  34 2.10  41 2.10  50 2.10  35 2.10  39 2.11
   4  0.500  0.000  0.451-  33 2.10  34 2.10  42 2.10  49 2.10  36 2.10  40 2.10
   5  0.250  0.000  0.550-  56 2.10  39 2.10  40 2.10  47 2.10  33 2.11  37 2.13
   6  0.500  0.250  0.550-  48 2.10  39 2.10  55 2.10  40 2.10  34 2.11  38 2.13
   7  0.250  0.250  0.648-  39 2.09  37 2.10  54 2.10  38 2.10  45 2.10
   8  0.500  0.000  0.647-  40 2.09  46 2.10  38 2.10  37 2.10  53 2.10
   9  0.250  0.500  0.352-  35 2.10  43 2.10  44 2.10  60 2.10  41 2.10
  10  0.500  0.750  0.352-  36 2.10  43 2.10  44 2.10  59 2.10  42 2.10
  11  0.250  0.750  0.451-  33 2.10  41 2.10  42 2.10  58 2.10  43 2.10  47 2.10
  12  0.500  0.500  0.451-  34 2.10  41 2.10  42 2.10  57 2.10  44 2.10  48 2.11
  13  0.250  0.500  0.550-  48 2.10  39 2.10  47 2.10  64 2.10  41 2.11  45 2.13
  14  0.500  0.750  0.550-  48 2.10  63 2.10  47 2.10  40 2.10  42 2.11  46 2.12
  15  0.250  0.750  0.647-  47 2.09  46 2.10  62 2.10  37 2.10  45 2.10
  16  0.500  0.500  0.648-  38 2.10  45 2.10  48 2.10  46 2.11  61 2.11
  17  0.750  0.000  0.352-  36 2.10  51 2.10  52 2.10  59 2.10  49 2.10
  18  0.000  0.250  0.352-  35 2.10  51 2.10  52 2.10  60 2.10  50 2.10
  19  0.750  0.250  0.451-  34 2.10  49 2.10  50 2.10  57 2.10  51 2.10  55 2.10
  20  0.000  0.000  0.451-  33 2.10  49 2.10  50 2.10  58 2.10  52 2.10  56 2.11
  21  0.750  1.000  0.550-  63 2.10  56 2.10  40 2.10  55 2.10  49 2.11  53 2.13
  22  0.000  0.250  0.550-  56 2.10  39 2.10  64 2.10  55 2.10  50 2.11  54 2.13
  23  0.750  0.250  0.647-  55 2.09  61 2.10  53 2.10  54 2.10  38 2.10
  24  1.000  1.000  0.648-  56 2.09  54 2.10  37 2.10  53 2.10  62 2.10
  25  0.750  0.500  0.352-  44 2.10  51 2.10  59 2.10  60 2.10  57 2.10
  26  0.000  0.750  0.352-  43 2.10  52 2.10  59 2.10  60 2.10  58 2.10
  27  0.750  0.750  0.451-  42 2.10  49 2.10  57 2.10  58 2.10  59 2.10  63 2.11
  28  0.000  0.500  0.451-  41 2.10  50 2.10  57 2.10  58 2.10  60 2.10  64 2.10
  29  0.750  0.500  0.550-  48 2.10  63 2.10  55 2.10  64 2.10  57 2.11  61 2.12
  30  1.000  0.750  0.550-  63 2.10  56 2.10  64 2.10  47 2.10  58 2.11  62 2.13
  31  0.750  0.750  0.648-  62 2.10  53 2.10  63 2.10  61 2.11  46 2.11
  32  0.000  0.500  0.647-  64 2.09  61 2.10  45 2.10  54 2.10  62 2.10
  33  0.250  0.000  0.451-   3 2.10   4 2.10  11 2.10  20 2.10   1 2.10   5 2.11
  34  0.500  0.250  0.451-   3 2.10   4 2.10  12 2.10  19 2.10   2 2.10   6 2.11
  35  0.250  0.250  0.352-   1 2.10   2 2.10   9 2.10  18 2.10   3 2.10
  36  0.500  0.000  0.352-   1 2.10   2 2.10  10 2.10  17 2.10   4 2.10
  37  0.250  0.000  0.650-   7 2.10  24 2.10   8 2.10  15 2.10   5 2.13
  38  0.500  0.250  0.650-   8 2.10   7 2.10  23 2.10  16 2.10   6 2.13
  39  0.250  0.250  0.550-   7 2.09  22 2.10   5 2.10  13 2.10   6 2.10   3 2.11
  40  0.500  0.000  0.549-   8 2.09   5 2.10  21 2.10   6 2.10  14 2.10   4 2.10
  41  0.250  0.500  0.451-   3 2.10  11 2.10  12 2.10  28 2.10   9 2.10  13 2.11
  42  0.500  0.750  0.451-   4 2.10  11 2.10  12 2.10  27 2.10  10 2.10  14 2.11
  43  0.250  0.750  0.352-   1 2.10   9 2.10  10 2.10  26 2.10  11 2.10
  44  0.500  0.500  0.352-   2 2.10   9 2.10  10 2.10  25 2.10  12 2.10
  45  0.250  0.500  0.650-  32 2.10   7 2.10  15 2.10  16 2.10  13 2.13
  46  0.499  0.751  0.649-   8 2.10  15 2.10  16 2.11  31 2.11  14 2.12
  47  0.250  0.750  0.549-  15 2.09   5 2.10  13 2.10  30 2.10  14 2.10  11 2.10
  48  0.500  0.500  0.550-   6 2.10  13 2.10  14 2.10  29 2.10  16 2.10  12 2.11
  49  0.750  0.000  0.451-   4 2.10  19 2.10  20 2.10  27 2.10  17 2.10  21 2.11
  50  0.000  0.250  0.451-   3 2.10  19 2.10  20 2.10  28 2.10  18 2.10  22 2.11
  51  0.750  0.250  0.352-   2 2.10  17 2.10  18 2.10  25 2.10  19 2.10
  52  0.000  0.000  0.352-   1 2.10  17 2.10  18 2.10  26 2.10  20 2.10
  53  0.750  1.000  0.650-  23 2.10  24 2.10   8 2.10  31 2.10  21 2.13
  54  0.000  0.250  0.650-  24 2.10   7 2.10  23 2.10  32 2.10  22 2.13
  55  0.750  0.250  0.549-  23 2.09  22 2.10   6 2.10  21 2.10  29 2.10  19 2.10
  56  1.000  1.000  0.550-  24 2.09   5 2.10  22 2.10  21 2.10  30 2.10  20 2.11
  57  0.750  0.500  0.451-  12 2.10  19 2.10  27 2.10  28 2.10  25 2.10  29 2.11
  58  0.000  0.750  0.451-  11 2.10  20 2.10  27 2.10  28 2.10  26 2.10  30 2.11
  59  0.750  0.750  0.352-  10 2.10  17 2.10  25 2.10  26 2.10  27 2.10
  60  0.000  0.500  0.352-   9 2.10  18 2.10  25 2.10  26 2.10  28 2.10
  61  0.751  0.499  0.649-  32 2.10  23 2.10  16 2.11  31 2.11  29 2.12
  62  1.000  0.750  0.650-  15 2.10  24 2.10  32 2.10  31 2.10  30 2.13
  63  0.750  0.750  0.550-  30 2.10  21 2.10  29 2.10  14 2.10  31 2.10  27 2.11
  64  0.000  0.500  0.549-  32 2.09  22 2.10  30 2.10  13 2.10  29 2.10  28 2.10

IMPORTANT INFORMATION: All symmetrisations will be switched off!
NOSYMM: (Re-)initialisation of all symmetry stuff for point group C_1.

                                     Primitive cell

  volume of cell :    1504.9259

  direct lattice vectors                    reciprocal lattice vectors
     8.404861995  0.000000000  0.000000000     0.118978753  0.000000000  0.000000000
     0.000000000  8.404861995  0.000000000     0.000000000  0.118978753  0.000000000
     0.000000000  0.000000000 21.303646496     0.000000000  0.000000000  0.046940321

  length of vectors
     8.404861995  8.404861995 21.303646496     0.118978753  0.118978753  0.046940321

  position of ions in fractional coordinates (direct lattice)
     0.250000000  0.000000000  0.352052406
     0.500000000  0.250000000  0.352052406
     0.250000000  0.250000000  0.450684135
     0.500000000  0.000000000  0.450684135
     0.249923310  0.000078096  0.549765924
     0.500048651  0.250277810  0.549820739
     0.250077788  0.250077774  0.647720210
     0.499830449  0.000308408  0.647475850
     0.250000000  0.500000000  0.352052406
     0.500000000  0.750000000  0.352052406
     0.250000000  0.750000000  0.450684135
     0.500000000  0.500000000  0.450684135
     0.250277762  0.500048639  0.549820801
     0.500020078  0.749980691  0.549814322
     0.249692672  0.750171242  0.647475788
     0.500212368  0.500212353  0.648326648
     0.750000000  0.000000000  0.352052406
     0.000000000  0.250000000  0.352052406
     0.750000000  0.250000000  0.450684135
     0.000000000  0.000000000  0.450684135
     0.749952476  0.999724318  0.549820532
     0.000078108  0.249923368  0.549765980
     0.750171541  0.249692721  0.647475874
     0.999924073  0.999924320  0.647720011
     0.750000000  0.500000000  0.352052406
     0.000000000  0.750000000  0.352052406
     0.750000000  0.750000000  0.450684135
     0.000000000  0.500000000  0.450684135
     0.749980770  0.500020117  0.549814343
     0.999724345  0.749952404  0.549820610
     0.749790556  0.749790489  0.648324447
     0.000308414  0.499830680  0.647475823
     0.250000000  0.000000000  0.450684135
     0.500000000  0.250000000  0.450684135
     0.250000000  0.250000000  0.352052406
     0.500000000  0.000000000  0.352052406
     0.249872651  0.000129224  0.649790115
     0.500108082  0.250077901  0.649846632
     0.250036081  0.250036171  0.549547182
     0.499937812  0.000213373  0.549460824
     0.250000000  0.500000000  0.450684135
     0.500000000  0.750000000  0.450684135
     0.250000000  0.750000000  0.352052406
     0.500000000  0.500000000  0.352052406
     0.250077853  0.500108189  0.649846530
     0.499240320  0.750761754  0.649353462
     0.249787584  0.750063084  0.549461146
     0.500034633  0.500034655  0.549612133
     0.750000000  0.000000000  0.450684135
     0.000000000  0.250000000  0.450684135
     0.750000000  0.250000000  0.352052406
     0.000000000  0.000000000  0.352052406
     0.749893939  0.999924042  0.649846159
     0.000129161  0.249872598  0.649790132
     0.750063208  0.249787662  0.549461125
     0.999965596  0.999965567  0.549546849
     0.750000000  0.500000000  0.450684135
     0.000000000  0.750000000  0.450684135
     0.750000000  0.750000000  0.352052406
     0.000000000  0.500000000  0.352052406
     0.750761802  0.499240426  0.649353395
     0.999924021  0.749893754  0.649846006
     0.749966486  0.749966404  0.549611906
     0.000213430  0.499937858  0.549460881

  ion indices of the primitive-cell ions
   primitive index   ion index
                 1           1
                 2           2
                 3           3
                 4           4
                 5           5
                 6           6
                 7           7
                 8           8
                 9           9
                10          10
                11          11
                12          12
                13          13
                14          14
                15          15
                16          16
                17          17
                18          18
                19          19
                20          20
                21          21
                22          22
                23          23
                24          24
                25          25
                26          26
                27          27
                28          28
                29          29
                30          30
                31          31
                32          32
                33          33
                34          34
                35          35
[...]
   0.50000000  0.75000000  0.45068414
   0.25000000  0.75000000  0.35205241
   0.50000000  0.50000000  0.35205241
   0.25007785  0.50010819  0.64984653
   0.49924032  0.75076175  0.64935346
   0.24978758  0.75006308  0.54946115
   0.50003463  0.50003466  0.54961213
   0.75000000  0.00000000  0.45068414
   0.00000000  0.25000000  0.45068414
   0.75000000  0.25000000  0.35205241
   0.00000000  0.00000000  0.35205241
   0.74989394  0.99992404  0.64984616
   0.00012916  0.24987260  0.64979013
   0.75006321  0.24978766  0.54946113
   0.99996560  0.99996557  0.54954685
   0.75000000  0.50000000  0.45068414
   0.00000000  0.75000000  0.45068414
   0.75000000  0.75000000  0.35205241
   0.00000000  0.50000000  0.35205241
   0.75076180  0.49924043  0.64935339
   0.99992402  0.74989375  0.64984601
   0.74996649  0.74996640  0.54961191
   0.00021343  0.49993786  0.54946088

 position of ions in cartesian coordinates  (Angst):
   2.10121550  0.00000000  7.50000000
   4.20243100  2.10121550  7.50000000
   2.10121550  2.10121550  9.60121550
   4.20243100  0.00000000  9.60121550
   2.10057093  0.00065639 11.71201889
   4.20283991  2.10355045 11.71318666
   2.10186929  2.10186918 13.79880238
   4.20100595  0.00259213 13.79359662
   2.10121550  4.20243100  7.50000000
   4.20243100  6.30364650  7.50000000
   2.10121550  6.30364650  9.60121550
   4.20243100  4.20243100  9.60121550
   2.10355005  4.20283980 11.71318797
   4.20259975  6.30348420 11.71304995
   2.09863245  6.30508576 13.79359530
   4.20421592  4.20421579 13.81172173
   6.30364650  0.00000000  7.50000000
   0.00000000  2.10121550  7.50000000
   6.30364650  2.10121550  9.60121550
   0.00000000  0.00000000  9.60121550
   6.30324707  8.40254492 11.71318225
   0.00065649  2.10057142 11.71202010
   6.30508827  2.09863287 13.79359714
   8.40422384  8.40422591 13.79879814
   6.30364650  4.20243100  7.50000000
   0.00000000  6.30364650  7.50000000
   6.30364650  6.30364650  9.60121550
   0.00000000  4.20243100  9.60121550
   6.30348487  4.20260008 11.71305039
   8.40254515  6.30324646 11.71318390
   6.30188615  6.30188558 13.81167483
   0.00259218  4.20100789 13.79359604
   2.10121550  0.00000000  9.60121550
   4.20243100  2.10121550  9.60121550
   2.10121550  2.10121550  7.50000000
   4.20243100  0.00000000  7.50000000
   2.10014515  0.00108611 13.84289890
   4.20333941  2.10187025 13.84410292
   2.10151876  2.10151951 11.70735889
   4.20190832  0.00179337 11.70551917
   2.10121550  4.20243100  9.60121550
   4.20243100  6.30364650  9.60121550
   2.10121550  6.30364650  7.50000000
   4.20243100  4.20243100  7.50000000
   2.10186984  4.20334031 13.84410076
   4.19604599  6.31004893 13.83359660
   2.09943017  6.30417671 11.70552603
   4.20272208  4.20272227 11.70874259
   6.30364650  0.00000000  9.60121550
   0.00000000  2.10121550  9.60121550
   6.30364650  2.10121550  7.50000000
   0.00000000  0.00000000  7.50000000
   6.30275506  8.40422358 13.84409284
   0.00108558  2.10014470 13.84289928
   6.30417775  2.09943083 11.70552557
   8.40457283  8.40457259 11.70735180
   6.30364650  4.20243100  9.60121550
   0.00000000  6.30364650  9.60121550
   6.30364650  6.30364650  7.50000000
   0.00000000  4.20243100  7.50000000
   6.31004934  4.19604688 13.83359517
   8.40422340  6.30275352 13.84408958
   6.30336481  6.30336413 11.70873776
   0.00179385  4.20190870 11.70552036

--------------------------------------- Iteration      FINAL  ---------------------------------------

--------------------OUTCAR has been truncated-------------------------

[...]

--------------------OUTCAR has been truncated-------------------------

  DFT-D2 method for vdW energy calculation

  Parameters of vdW forcefield:
         C6(Jnm^6/mol)     R0(A)
   Mg       0.630          1.243
   O        0.700          1.342

  vdW correction parametrized for the method »tþ      

  IVDW =   1
  VDW_RADIUS =    50.000 A
  VDW_S6 =     1.050
  VDW_SR =     1.000
  VDW_D =    20.000
  LVDW_EWALD = F

  Number of pair interactions contributing to vdW energy:  731240
  Edisp (eV):   -5.17230

 VOLUME and BASIS-vectors are now :
  energy-cutoff  :      600.00
  volume of cell :     1504.93
      direct lattice vectors                 reciprocal lattice vectors
     8.404861995  0.000000000  0.000000000     0.118978753  0.000000000  0.000000000
     0.000000000  8.404861995  0.000000000     0.000000000  0.118978753  0.000000000
     0.000000000  0.000000000 21.303646496     0.000000000  0.000000000  0.046940321

  length of vectors
     8.404861995  8.404861995 21.303646496     0.118978753  0.118978753  0.046940321

 FORCES acting on ions:
    Electron-Ion                     Ewald-Force                    Non-Local-Force
   -.107E-01 0.106E-01 0.209E+04   0.104E-01 -.103E-01 -.208E+04   0.206E-03 -.208E-03 -.641E+01
   -.993E-02 -.262E-01 0.209E+04   0.992E-02 0.272E-01 -.208E+04   0.165E-04 -.674E-03 -.642E+01
   -.105E+00 -.105E+00 0.692E+03   0.116E+00 0.116E+00 -.693E+03   -.645E-02 -.647E-02 0.409E+00
   -.104E+00 0.957E-01 0.693E+03   0.109E+00 -.787E-01 -.693E+03   -.320E-02 -.106E-01 0.377E+00
   0.224E-01 -.235E-01 -.697E+03   -.319E-01 0.331E-01 0.697E+03   0.863E-02 -.865E-02 -.196E+00
   0.574E-01 -.458E+00 -.698E+03   -.662E-01 0.502E+00 0.698E+03   0.578E-02 -.404E-01 -.186E+00
   -.304E+00 -.304E+00 -.208E+04   0.253E+00 0.253E+00 0.207E+04   0.377E-01 0.377E-01 0.550E+01
   -.449E+00 -.110E+00 -.208E+04   0.408E+00 0.765E-01 0.207E+04   0.329E-01 0.277E-01 0.548E+01
   -.262E-01 -.993E-02 0.209E+04   0.272E-01 0.991E-02 -.208E+04   -.675E-03 0.168E-04 -.642E+01
   -.281E-01 0.282E-01 0.209E+04   0.283E-01 -.284E-01 -.208E+04   -.156E-03 0.159E-03 -.641E+01
   -.961E-01 0.105E+00 0.693E+03   0.792E-01 -.109E+00 -.693E+03   0.106E-01 0.319E-02 0.377E+00
   -.921E-01 -.921E-01 0.692E+03   0.908E-01 0.907E-01 -.693E+03   0.175E-02 0.175E-02 0.415E+00
   -.458E+00 0.578E-01 -.698E+03   0.502E+00 -.667E-01 0.698E+03   -.404E-01 0.578E-02 -.186E+00
   -.573E+00 0.574E+00 -.697E+03   0.632E+00 -.633E+00 0.697E+03   -.480E-01 0.481E-01 -.338E+00
   0.108E+00 0.448E+00 -.208E+04   -.743E-01 -.407E+00 0.207E+04   -.275E-01 -.328E-01 0.548E+01
   -.108E+01 -.108E+01 -.208E+04   0.933E+00 0.932E+00 0.208E+04   0.118E+00 0.118E+00 0.567E+01
   0.100E-01 0.261E-01 0.209E+04   -.100E-01 -.271E-01 -.208E+04   -.168E-04 0.670E-03 -.642E+01
   0.106E-01 -.107E-01 0.209E+04   -.103E-01 0.104E-01 -.208E+04   -.210E-03 0.205E-03 -.641E+01
   0.105E+00 -.961E-01 0.693E+03   -.109E+00 0.792E-01 -.693E+03   0.318E-02 0.106E-01 0.377E+00
   0.105E+00 0.105E+00 0.692E+03   -.115E+00 -.115E+00 -.693E+03   0.641E-02 0.641E-02 0.409E+00
   -.572E-01 0.459E+00 -.698E+03   0.659E-01 -.503E+00 0.698E+03   -.569E-02 0.401E-01 -.186E+00
   -.234E-01 0.228E-01 -.697E+03   0.330E-01 -.323E-01 0.697E+03   -.865E-02 0.862E-02 -.196E+00
   0.449E+00 0.108E+00 -.208E+04   -.409E+00 -.745E-01 0.207E+04   -.329E-01 -.274E-01 0.548E+01
   0.304E+00 0.305E+00 -.208E+04   -.253E+00 -.254E+00 0.207E+04   -.377E-01 -.377E-01 0.550E+01
   0.282E-01 -.281E-01 0.209E+04   -.284E-01 0.283E-01 -.208E+04   0.158E-03 -.159E-03 -.641E+01
   0.261E-01 0.100E-01 0.209E+04   -.271E-01 -.100E-01 -.208E+04   0.672E-03 -.186E-04 -.642E+01
   0.925E-01 0.924E-01 0.692E+03   -.911E-01 -.911E-01 -.693E+03   -.178E-02 -.177E-02 0.415E+00
   0.957E-01 -.104E+00 0.693E+03   -.788E-01 0.109E+00 -.693E+03   -.107E-01 -.320E-02 0.377E+00
   0.574E+00 -.573E+00 -.697E+03   -.633E+00 0.632E+00 0.697E+03   0.481E-01 -.480E-01 -.338E+00
   0.459E+00 -.581E-01 -.698E+03   -.503E+00 0.668E-01 0.698E+03   0.401E-01 -.567E-02 -.186E+00
   0.109E+01 0.109E+01 -.208E+04   -.934E+00 -.934E+00 0.208E+04   -.119E+00 -.119E+00 0.567E+01
   -.110E+00 -.447E+00 -.208E+04   0.764E-01 0.407E+00 0.207E+04   0.277E-01 0.329E-01 0.548E+01
   -.125E-01 0.123E-01 0.519E+03   0.206E-01 -.205E-01 -.519E+03   -.996E-02 0.100E-01 -.757E-01
   0.504E-02 -.876E-01 0.519E+03   -.347E-02 0.696E-01 -.519E+03   -.223E-02 0.214E-01 -.935E-01
   -.157E-01 -.157E-01 0.157E+04   0.165E-01 0.165E-01 -.157E+04   -.102E-02 -.103E-02 0.312E+01
   -.152E-01 0.127E-01 0.157E+04   0.162E-01 -.123E-01 -.157E+04   -.123E-02 -.535E-03 0.312E+01
   -.191E-01 0.189E-01 -.158E+04   0.198E-01 -.195E-01 0.158E+04   0.430E-03 -.486E-03 -.461E+01
   -.159E+00 -.568E+00 -.158E+04   0.175E+00 0.583E+00 0.158E+04   -.167E-01 -.485E-02 -.454E+01
   -.222E+00 -.222E+00 -.518E+03   0.227E+00 0.226E+00 0.517E+03   -.290E-02 -.291E-02 0.284E+00
   -.184E+00 0.593E-01 -.516E+03   0.180E+00 -.637E-01 0.516E+03   0.424E-02 0.995E-03 0.345E+00
   -.877E-01 0.507E-02 0.519E+03   0.697E-01 -.350E-02 -.519E+03   0.214E-01 -.223E-02 -.935E-01
   -.117E+00 0.117E+00 0.519E+03   0.116E+00 -.117E+00 -.519E+03   0.215E-03 -.176E-03 -.815E-01
   -.128E-01 0.153E-01 0.157E+04   0.124E-01 -.163E-01 -.157E+04   0.535E-03 0.124E-02 0.312E+01
   -.142E-01 -.142E-01 0.157E+04   0.131E-01 0.131E-01 -.157E+04   0.128E-02 0.128E-02 0.312E+01
   -.568E+00 -.158E+00 -.158E+04   0.584E+00 0.175E+00 0.158E+04   -.487E-02 -.167E-01 -.454E+01
   -.121E+01 0.121E+01 -.158E+04   0.112E+01 -.112E+01 0.158E+04   0.144E+00 -.144E+00 -.430E+01
   -.612E-01 0.183E+00 -.516E+03   0.657E-01 -.180E+00 0.516E+03   -.106E-02 -.428E-02 0.345E+00
   -.231E+00 -.231E+00 -.520E+03   0.260E+00 0.260E+00 0.520E+03   -.277E-01 -.277E-01 0.143E+00
   -.474E-02 0.877E-01 0.519E+03   0.310E-02 -.697E-01 -.519E+03   0.231E-02 -.213E-01 -.934E-01
   0.123E-01 -.124E-01 0.519E+03   -.205E-01 0.206E-01 -.519E+03   0.100E-01 -.996E-02 -.758E-01
   0.153E-01 -.128E-01 0.157E+04   -.163E-01 0.124E-01 -.157E+04   0.124E-02 0.533E-03 0.312E+01
   0.156E-01 0.156E-01 0.157E+04   -.165E-01 -.165E-01 -.157E+04   0.102E-02 0.103E-02 0.312E+01
   0.159E+00 0.569E+00 -.158E+04   -.176E+00 -.584E+00 0.158E+04   0.168E-01 0.481E-02 -.454E+01
   0.183E-01 -.195E-01 -.158E+04   -.189E-01 0.202E-01 0.158E+04   -.524E-03 0.400E-03 -.461E+01
   0.184E+00 -.607E-01 -.516E+03   -.180E+00 0.653E-01 0.516E+03   -.429E-02 -.107E-02 0.345E+00
   0.223E+00 0.222E+00 -.518E+03   -.227E+00 -.227E+00 0.517E+03   0.287E-02 0.289E-02 0.284E+00
   0.117E+00 -.117E+00 0.519E+03   -.117E+00 0.116E+00 -.519E+03   -.176E-03 0.217E-03 -.816E-01
   0.877E-01 -.480E-02 0.519E+03   -.698E-01 0.316E-02 -.519E+03   -.213E-01 0.231E-02 -.935E-01
   0.142E-01 0.142E-01 0.157E+04   -.132E-01 -.132E-01 -.157E+04   -.128E-02 -.128E-02 0.312E+01
   0.127E-01 -.152E-01 0.157E+04   -.123E-01 0.162E-01 -.157E+04   -.536E-03 -.123E-02 0.312E+01
   0.121E+01 -.121E+01 -.158E+04   -.112E+01 0.112E+01 0.158E+04   -.144E+00 0.144E+00 -.430E+01
   0.568E+00 0.158E+00 -.158E+04   -.584E+00 -.175E+00 0.158E+04   0.480E-02 0.167E-01 -.454E+01
   0.231E+00 0.230E+00 -.520E+03   -.260E+00 -.259E+00 0.520E+03   0.277E-01 0.277E-01 0.143E+00
   0.595E-01 -.183E+00 -.516E+03   -.639E-01 0.180E+00 0.516E+03   0.987E-03 0.423E-02 0.345E+00
   0.186E-03 0.211E-03 0.173E+02   -.338E-13 0.282E-12 -.546E-11   -.138E-03 -.158E-03 -.152E+02

 POSITION                                       TOTAL-FORCE (eV/Angst)
      2.10122      0.00000      7.50000        -0.000044      0.000042      0.405495
      4.20243      2.10122      7.50000         0.000004      0.000191      0.406698
      2.10122      2.10122      9.60122         0.003027      0.003030      0.031240
      4.20243      0.00000      9.60122         0.001153      0.004903      0.032996
      2.10057      0.00066     11.71202        -0.000032      0.000026      0.003353
      4.20284      2.10355     11.71319        -0.002298      0.000028     -0.002766
      2.10187      2.10187     13.79880        -0.009041     -0.009043      0.007819
      4.20101      0.00259     13.79360        -0.004563     -0.002915      0.032255
      2.10122      4.20243      7.50000         0.000188      0.000004      0.406698
      4.20243      6.30365      7.50000         0.000027     -0.000031      0.405514
      2.10122      6.30365      9.60122        -0.004885     -0.001147      0.032934
      4.20243      4.20243      9.60122         0.000520      0.000523      0.034699
      2.10355      4.20284     11.71319         0.000030     -0.002299     -0.002783
      4.20260      6.30348     11.71305         0.005688     -0.005707     -0.003437
      2.09863      6.30509     13.79360         0.002946      0.004577      0.032264
      4.20422      4.20422     13.81172        -0.020753     -0.020752     -0.120487
      6.30365      0.00000      7.50000        -0.000003     -0.000190      0.406692
      0.00000      2.10122      7.50000         0.000042     -0.000043      0.405493
      6.30365      2.10122      9.60122        -0.001141     -0.004882      0.032932
      0.00000      0.00000      9.60122        -0.003005     -0.003005      0.031293
      6.30325      8.40254     11.71318         0.002285     -0.000037     -0.002778
      0.00066      2.10057     11.71202         0.000027     -0.000031      0.003340
      6.30509      2.09863     13.79360         0.004546      0.002944      0.032256
      8.40422      8.40423     13.79880         0.009079      0.009052      0.007858
      6.30365      4.20243      7.50000        -0.000029      0.000027      0.405510
      0.00000      6.30365      7.50000        -0.000190     -0.000005      0.406698
      6.30365      6.30365      9.60122        -0.000509     -0.000511      0.034630
      0.00000      4.20243      9.60122         0.004906      0.001154      0.033001
      6.30348      4.20260     11.71305        -0.005710      0.005687     -0.003443
      8.40255      6.30325     11.71318        -0.000038      0.002290     -0.002797
      6.30189      6.30189     13.81167         0.020711      0.020718     -0.120324
      0.00259      4.20101     13.79360        -0.002918     -0.004579      0.032257
      2.10122      0.00000      9.60122        -0.003241      0.003261      0.046242
      4.20243      2.10122      9.60122        -0.001026      0.006408      0.045944
      2.10122      2.10122      7.50000        -0.000344     -0.000343     -0.494370
      4.20243      0.00000      7.50000        -0.000417     -0.000167     -0.494261
      2.10015      0.00109     13.84290         0.001114     -0.001146     -0.018600
      4.20334      2.10187     13.84410        -0.002174      0.010627     -0.002296
      2.10152      2.10152     11.70736         0.001003      0.000995     -0.000572
      4.20191      0.00179     11.70552         0.001111     -0.003374      0.006386
      2.10122      4.20243      9.60122         0.006409     -0.001025      0.045945
      4.20243      6.30365      9.60122         0.000047     -0.000039      0.050169
      2.10122      6.30365      7.50000         0.000169      0.000419     -0.494368
      4.20243      4.20243      7.50000         0.000443      0.000444     -0.494505
      2.10187      4.20334     13.84410         0.010635     -0.002188     -0.002297
      4.19605      6.31005     13.83360         0.081376     -0.081395      0.092437
      2.09943      6.30418     11.70553         0.003351     -0.001092      0.006343
      4.20272      4.20272     11.70874        -0.002400     -0.002402      0.005228
      6.30365      0.00000      9.60122         0.001050     -0.006379      0.045937
      0.00000      2.10122      9.60122         0.003261     -0.003240      0.046244
      6.30365      2.10122      7.50000         0.000416      0.000166     -0.494367
      0.00000      0.00000      7.50000         0.000342      0.000341     -0.494275
      6.30276      8.40422     13.84409         0.002172     -0.010647     -0.002306
      0.00109      2.10014     13.84290        -0.001141      0.001129     -0.018600
      6.30418      2.09943     11.70553        -0.001103      0.003341      0.006354
      8.40457      8.40457     11.70735        -0.001020     -0.001015     -0.000554
      6.30365      4.20243      9.60122        -0.000038      0.000048      0.050169
      0.00000      6.30365      9.60122        -0.006378      0.001049      0.045940
      6.30365      6.30365      7.50000        -0.000443     -0.000443     -0.494609
      0.00000      4.20243      7.50000        -0.000168     -0.000420     -0.494266
      6.31005      4.19605     13.83360        -0.081392      0.081368      0.092468
      8.40422      6.30275     13.84409        -0.010651      0.002195     -0.002290
      6.30336      6.30336     11.70874         0.002393      0.002404      0.005252
      0.00179      4.20191     11.70552        -0.003379      0.001104      0.006370
    total drift:                                0.000048      0.000051      0.005398

  FREE ENERGIE OF THE ION-ELECTRON SYSTEM (eV)
  free  energy   TOTEN  =      -438.71929269 eV

  energy  without entropy=     -438.71929269  energy(sigma->0) =     -438.71929269