 vasp.6.3.0 20Jan22 (build Mar 11 2022 13:48:16) complex

 executed on             LinuxIFC date 2023.12.26  17:51:21

 INCAR:
   SYSTEM = MgO-rocksalt
   ISMEAR = 0
   SIGMA = 0.05
   EDIFF = 1E-6
   ALGO = ALL
   ISTART = 0
   IBRION = -1
   NSW = 0
   ISYM = 0
   DIPOL = 0.5 0.5 0.5
   IDIPOL = 3
   LDIPOL = .TRUE.
   GGA = RE
   IVDW = 13
   VDW_S8 = 1.7468
   VDW_A1 = 0.5363
   VDW_A2 = 3.0726
   ENCUT = 520
   PREC = Accurate
   LASPH = .TRUE.
   LREAL = Auto
   ISPIN = 1
   NELM = 200
   NELMIN = 8
   NCORE = 2
   KPAR = 1
   LWAVE = .FALSE.
   LCHARG = .FALSE.

 POTCAR:    PAW_PBE Mg_pv 13Apr2007
 POTCAR:    PAW_PBE O 08Apr2002
|           W    W    AA    RRRRR   N    N  II  N    N   GGGG   !!!           |
|           W    W   A  A   R    R  NN   N  II  NN   N  G    G  !!!           |
|           W    W  A    A  R    R  N N  N  II  N N  N  G       !!!           |
|           W WW W  AAAAAA  RRRRR   N  N N  II  N  N N  G  GGG   !            |
|           WW  WW  A    A  R   R   N   NN  II  N   NN  G    G                |
|           W    W  A    A  R    R  N    N  II  N    N   GGGG   !!!           |
|     For optimal performance we recommend to set                             |
|       NCORE = 2 up to number-of-cores-per-socket                            |
|     This setting can greatly improve the performance of VASP for DFT.       |
|     The default, NCORE=1 might be grossly inefficient on modern             |
|     multi-core architectures or massively parallel machines. Do your        |
|     Unfortunately you need to use the default for GW and RPA                |
|     calculations (for HF NCORE is supported but not extensively tested      |
|     yet).                                                                   |

   TITEL  = PAW_PBE Mg_pv 13Apr2007
   POMASS =   24.305; ZVAL   =    8.000    mass and valenz
   ENMAX  =  403.929; ENMIN  =  302.947 eV

   TITEL  = PAW_PBE O 08Apr2002
   POMASS =   16.000; ZVAL   =    6.000    mass and valenz
   ENMAX  =  400.000; ENMIN  =  300.000 eV

 Optimization of the real space projectors (new method)

 maximal supplied QI-value         = 18.90
 optimisation between [QCUT,QGAM] = [ 11.53, 23.24] = [ 37.21,151.29] Ry
 Optimized for a Real-space Cutoff    1.28 Angstroem

   l    n(q)    QCUT    max X(q) W(low)/X(q) W(high)/X(q)  e(spline)
   1      8    11.527     2.974    0.44E-04    0.56E-04    0.12E-06
   1      8    11.527     4.279    0.12E-03    0.12E-03    0.26E-06
   0      9    11.527    16.381    0.46E-04    0.64E-04    0.78E-07
   0      9    11.527     5.611    0.26E-04    0.43E-04    0.55E-07
   2      8    11.527     4.652    0.22E-03    0.72E-04    0.47E-07
 Optimization of the real space projectors (new method)

 maximal supplied QI-value         = 24.76
 optimisation between [QCUT,QGAM] = [ 11.64, 23.27] = [ 37.91,151.63] Ry
 Optimized for a Real-space Cutoff    1.14 Angstroem

   l    n(q)    QCUT    max X(q) W(low)/X(q) W(high)/X(q)  e(spline)
   0      8    11.635    20.381    0.10E-03    0.33E-03    0.24E-06
   0      8    11.635    15.268    0.11E-03    0.35E-03    0.26E-06
   1      7    11.635     5.964    0.24E-03    0.31E-03    0.30E-06
   1      7    11.635     5.382    0.22E-03    0.25E-03    0.26E-06
|               ----> ADVICE to this user running VASP <----                  |
|     You enforced a specific xc type in the INCAR file but a different       |
|     type was found in the POTCAR file.                                      |
|     I HOPE YOU KNOW WHAT YOU ARE DOING!                                     |

  PAW_PBE Mg_pv 13Apr2007               :
  PAW_PBE O 08Apr2002                   :

 POSCAR: Mg  O
  positions in direct lattice
|           W    W    AA    RRRRR   N    N  II  N    N   GGGG   !!!           |
|           W    W   A  A   R    R  NN   N  II  NN   N  G    G  !!!           |
|           W    W  A    A  R    R  N N  N  II  N N  N  G       !!!           |
|           W WW W  AAAAAA  RRRRR   N  N N  II  N  N N  G  GGG   !            |
|           WW  WW  A    A  R   R   N   NN  II  N   NN  G    G                |
|           W    W  A    A  R    R  N    N  II  N    N   GGGG   !!!           |
|     Specifying the vdW parameters                                           |
|     VDW_S8 = 1.747                                                          |
|     VDW_A1 = 0.536                                                          |
|     VDW_A2 = 3.073                                                          |
|     in the INCAR file will overwrite the defaults for revpbe. Please        |
|     make sure that is what you intended.                                    |

 ion  position               nearest neighbor table
   1  0.000  0.375  0.350- 129 2.14 132 2.14 139 2.14 163 2.14 212 2.14
   2  0.125  0.000  0.350- 130 2.14 131 2.14 140 2.14 147 2.14 164 2.14
   3  0.000  0.000  0.450- 131 2.14 130 2.14 137 2.14 161 2.14 210 2.14 135 2.14
   4  0.125  0.375  0.450- 132 2.14 129 2.14 138 2.14 145 2.14 162 2.14 136 2.14
   5  0.000  0.375  0.550- 167 2.14 143 2.14 216 2.14 136 2.14 129 2.14 133 2.16
   6  0.125  0.000  0.550- 151 2.14 144 2.14 168 2.14 135 2.14 130 2.14 134 2.16
   7  0.000  0.000  0.649- 135 2.12 134 2.14 214 2.14 165 2.14 141 2.14
   8  0.125  0.375  0.649- 136 2.12 142 2.14 166 2.14 149 2.14 133 2.14
   9  0.000  0.125  0.350- 137 2.14 131 2.14 139 2.14 140 2.14 220 2.14
  10  0.125  0.250  0.350- 138 2.14 132 2.14 139 2.14 140 2.14 155 2.14
  11  0.000  0.250  0.450- 139 2.14 137 2.14 138 2.14 129 2.14 218 2.14 143 2.14
  12  0.125  0.125  0.450- 140 2.14 137 2.14 138 2.14 130 2.14 153 2.14 144 2.14
  13  1.000  0.125  0.550- 143 2.14 224 2.14 144 2.14 135 2.14 137 2.14 141 2.16
  14  0.125  0.250  0.550- 159 2.14 136 2.14 144 2.14 143 2.14 138 2.14 142 2.16
  15  1.000  0.250  0.649- 143 2.12 141 2.14 133 2.14 222 2.14 142 2.14
  16  0.125  0.125  0.649- 144 2.12 157 2.14 142 2.14 141 2.14 134 2.14
  17  0.250  0.375  0.350- 145 2.14 132 2.14 148 2.14 155 2.14 179 2.14
  18  0.375  0.000  0.350- 146 2.14 147 2.14 156 2.14 180 2.14 195 2.14
  19  0.250  0.000  0.450- 147 2.14 146 2.14 130 2.14 153 2.14 177 2.14 151 2.14
  20  0.375  0.375  0.450- 152 2.13 148 2.14 145 2.14 154 2.14 178 2.14 193 2.14
  21  0.250  0.375  0.550- 152 2.13 183 2.14 159 2.14 136 2.14 145 2.14 149 2.17
  22  0.375  0.000  0.550- 160 2.14 199 2.14 151 2.14 184 2.14 146 2.14 150 2.16
  23  0.250  0.000  0.649- 151 2.12 157 2.14 150 2.14 181 2.14 134 2.14
  24  0.375  0.375  0.649- 152 2.13 197 2.13 182 2.14 158 2.14 149 2.14
  25  0.250  0.125  0.350- 153 2.14 147 2.14 140 2.14 155 2.14 156 2.14
  26  0.375  0.250  0.350- 154 2.14 148 2.14 155 2.14 156 2.14 203 2.14
  27  0.250  0.250  0.450- 155 2.14 145 2.14 153 2.14 154 2.14 138 2.14 159 2.14
  28  0.375  0.125  0.450- 156 2.14 153 2.14 154 2.14 146 2.14 201 2.14 160 2.14
  29  0.250  0.125  0.550- 159 2.14 160 2.14 144 2.14 151 2.14 153 2.14 157 2.16
  30  0.375  0.250  0.550- 152 2.13 207 2.14 159 2.14 160 2.14 154 2.14 158 2.16
  31  0.250  0.250  0.649- 159 2.12 158 2.13 149 2.14 157 2.14 142 2.14
  32  0.375  0.125  0.649- 160 2.12 158 2.13 205 2.14 157 2.14 150 2.14
  33  0.000  0.875  0.350- 161 2.14 131 2.14 164 2.14 171 2.14 244 2.14
  34  0.125  0.500  0.350- 162 2.14 132 2.14 163 2.14 172 2.14 179 2.14
  35  0.000  0.500  0.450- 163 2.14 162 2.14 129 2.14 169 2.14 242 2.14 167 2.14
  36  0.125  0.875  0.450- 164 2.14 161 2.14 130 2.14 170 2.14 177 2.14 168 2.14
  37  0.000  0.875  0.550- 248 2.14 175 2.14 135 2.14 168 2.14 161 2.14 165 2.16
  38  0.125  0.500  0.550- 183 2.13 136 2.14 167 2.14 176 2.14 162 2.14 166 2.16
  39  1.000  0.500  0.649- 167 2.12 133 2.14 173 2.14 246 2.14 166 2.14
  40  0.125  0.875  0.649- 168 2.12 174 2.14 134 2.14 165 2.14 181 2.14
  41  0.000  0.625  0.350- 169 2.14 163 2.14 171 2.14 172 2.14 252 2.14
  42  0.125  0.750  0.350- 170 2.14 164 2.14 171 2.14 172 2.14 187 2.14
  43  0.000  0.750  0.450- 171 2.14 169 2.14 170 2.14 161 2.14 250 2.14 175 2.14
  44  0.125  0.625  0.450- 172 2.14 169 2.14 170 2.14 162 2.14 185 2.14 176 2.14
  45  0.000  0.625  0.550- 256 2.14 176 2.14 167 2.14 175 2.14 169 2.14 173 2.16
  46  0.125  0.750  0.550- 176 2.14 191 2.14 175 2.14 168 2.14 170 2.14 174 2.16
  47  0.000  0.750  0.649- 175 2.12 254 2.14 165 2.14 174 2.14 173 2.14
  48  0.125  0.625  0.649- 176 2.12 189 2.14 166 2.14 174 2.14 173 2.14
  49  0.250  0.875  0.350- 177 2.14 164 2.14 147 2.14 180 2.14 187 2.14
  50  0.375  0.500  0.350- 178 2.14 148 2.14 179 2.14 188 2.14 227 2.14
  51  0.250  0.500  0.450- 179 2.14 162 2.14 178 2.14 145 2.14 185 2.14 183 2.14
  52  0.375  0.875  0.450- 180 2.14 177 2.14 146 2.14 186 2.14 225 2.14 184 2.14
  53  0.250  0.875  0.550- 184 2.14 191 2.14 151 2.14 168 2.14 177 2.14 181 2.16
  54  0.375  0.500  0.550- 231 2.13 152 2.14 192 2.14 183 2.14 178 2.14 182 2.16
  55  0.250  0.500  0.649- 183 2.12 182 2.13 149 2.14 189 2.14 166 2.14
  56  0.375  0.875  0.649- 184 2.12 181 2.14 229 2.14 190 2.14 150 2.14
  57  0.250  0.625  0.350- 185 2.14 179 2.14 172 2.14 187 2.14 188 2.14
  58  0.375  0.750  0.350- 186 2.14 180 2.14 187 2.14 188 2.14 235 2.14
  59  0.250  0.750  0.450- 187 2.14 177 2.14 185 2.14 186 2.14 170 2.14 191 2.14
  60  0.375  0.625  0.450- 188 2.14 185 2.14 186 2.14 178 2.14 233 2.14 192 2.14
[...]
 242  0.875  0.500  0.450- 114 2.14  84 2.14  35 2.14 115 2.14 124 2.14 118 2.14
 243  0.750  0.500  0.350- 115 2.14  98 2.14 114 2.14  81 2.14 121 2.14
 244  0.875  0.875  0.350- 116 2.14  82 2.14 113 2.14  33 2.14 122 2.14
 245  0.750  0.875  0.651- 104 2.14 127 2.14 120 2.14  87 2.14 117 2.16
 246  0.875  0.500  0.651- 128 2.14  88 2.14  39 2.14 119 2.14 118 2.16
 247  0.750  0.500  0.550- 119 2.12 118 2.13 125 2.14 115 2.14  85 2.14 102 2.14
 248  0.875  0.875  0.550- 120 2.12  37 2.14  86 2.14 117 2.14 126 2.14 116 2.14
 249  0.750  0.625  0.450- 121 2.14 115 2.14 108 2.14 123 2.14 124 2.14 125 2.14
 250  0.875  0.750  0.450- 122 2.14 116 2.14  43 2.14 123 2.14 124 2.14 126 2.14
 251  0.750  0.750  0.350- 123 2.14 113 2.14 121 2.14 122 2.14 106 2.14
 252  0.875  0.625  0.350- 124 2.14 114 2.14 121 2.14 122 2.14  41 2.14
 253  0.750  0.625  0.651- 127 2.14 128 2.14 119 2.14 112 2.14 125 2.16
 254  0.875  0.750  0.651- 120 2.14  47 2.14 128 2.14 127 2.14 126 2.16
 255  0.750  0.750  0.550- 127 2.12 126 2.14 117 2.14 125 2.14 110 2.14 123 2.14
 256  0.875  0.625  0.550- 128 2.12 126 2.14  45 2.14 125 2.14 118 2.14 124 2.14

IMPORTANT INFORMATION: All symmetrisations will be switched off!
NOSYMM: (Re-)initialisation of all symmetry stuff for point group C_1.

                                     Primitive cell

  volume of cell :    6254.6868

  direct lattice vectors                    reciprocal lattice vectors
    17.092227251  0.000000000  0.000000000     0.058506126  0.000000000  0.000000000
     0.000000000 17.092227251  0.000000000     0.000000000  0.058506126  0.000000000
     0.000000000  0.000000000 21.409585219     0.000000000  0.000000000  0.046708051

  length of vectors
    17.092227251 17.092227251 21.409585219     0.058506126  0.058506126  0.046708051

  position of ions in fractional coordinates (direct lattice)
[...]
   4.27473707  8.54605021 13.89552404
   6.40966995 14.95569435 13.89798098
   4.27305681 10.68264203  7.50000000
   6.40958522 12.81917044  7.50000000
   4.27305681 12.81917044  9.63652841
   6.40958522 10.68264203  9.63652841
[...]
  14.95569884  8.54611363  9.63652841
  12.81917044  8.54611363  7.50000000
  14.95569884 14.95569884  7.50000000
  12.81910491 14.95582605 13.94043473
  14.95559363  8.54640075 13.94119863
  12.82108962  8.54669525 11.77279630
  14.95577252 14.95591614 11.77378388
  12.81917044 10.68264203  9.63652841
  14.95569884 12.81917044  9.63652841
  12.81917044 12.81917044  7.50000000
  14.95569884 10.68264203  7.50000000
  12.81972867 10.68338684 13.94236776
  14.95583824 12.81945874 13.94015560
  12.81932694 12.81942376 11.77398300
  14.95584897 10.68291173 11.77401692

--------------------------------------- Iteration      FINAL  ---------------------------------------

--------------------OUTCAR has been truncated-------------------------

[...]

--------------------OUTCAR has been truncated-------------------------

  FORCE on cell =-STRESS in cart. coord.  units (eV):
  Direction    XX          YY          ZZ          XY          YZ          ZX
  Alpha Z  3402.85350  3402.85350  3402.85350
  Ewald  626170.77503626170.78391************    -0.00192     0.44733     0.11800
  Hartree666751.12822666751.13407************     0.00033     0.25449     0.06233
  E(xc)   -9844.79407 -9844.79405 -9876.64139    -0.00000     0.00155     0.00037
  Local  ************************************     0.00138    -0.70428    -0.17909
  n-local-11179.18609-11179.18619-11257.87660     0.00045     0.01424     0.00309
  augment  4185.84384  4185.84384  4149.93078     0.00002     0.00365     0.00062
  Kinetic 29146.94452 29146.94424 29322.38047     0.00019    -0.09044    -0.02430
  Fock        0.00000     0.00000     0.00000     0.00000     0.00000     0.00000
  vdW       -81.48250   -81.48250   -61.62411     0.00000    -0.00038    -0.00010
  Total    -171.86668  -171.86716   -45.76439     0.00046    -0.07384    -0.01907
  in kB     -44.02473   -44.02485   -11.72284     0.00012    -0.01892    -0.00489

 VOLUME and BASIS-vectors are now :
  energy-cutoff  :      520.00
  volume of cell :     6254.69
      direct lattice vectors                 reciprocal lattice vectors
    17.092227251  0.000000000  0.000000000     0.058506126  0.000000000  0.000000000
     0.000000000 17.092227251  0.000000000     0.000000000  0.058506126  0.000000000
     0.000000000  0.000000000 21.409585219     0.000000000  0.000000000  0.046708051

  length of vectors
    17.092227251 17.092227251 21.409585219     0.058506126  0.058506126  0.046708051

 FORCES acting on ions:
    Electron-Ion                     Ewald-Force                    Non-Local-Force
   -.223E-01 0.374E-01 0.201E+04   0.224E-01 -.371E-01 -.200E+04   -.940E-04 -.205E-03 -.709E+01
   0.598E-03 -.136E-01 0.201E+04   -.260E-02 0.117E-01 -.200E+04   0.153E-02 0.145E-02 -.709E+01
   -.243E-01 -.525E-01 0.666E+03   0.246E-01 0.500E-01 -.666E+03   -.205E-03 0.198E-02 0.426E+00
   0.147E+00 0.829E-01 0.665E+03   -.146E+00 -.820E-01 -.666E+03   -.824E-03 -.610E-03 0.440E+00
   -.566E-01 0.906E-01 -.670E+03   0.573E-01 -.907E-01 0.670E+03   -.125E-03 -.384E-03 -.336E+00
   0.246E-01 -.173E-01 -.670E+03   -.243E-01 0.168E-01 0.670E+03   -.257E-02 -.165E-02 -.335E+00
   -.259E-01 -.496E-01 -.200E+04   0.261E-01 0.515E-01 0.199E+04   -.184E-03 -.909E-03 0.632E+01
   0.895E-01 0.292E-01 -.200E+04   -.105E+00 -.261E-01 0.199E+04   0.792E-02 -.223E-02 0.629E+01
   -.158E-01 -.164E-02 0.201E+04   0.159E-01 -.844E-03 -.200E+04   -.879E-04 0.189E-02 -.709E+01
   0.523E-01 0.304E-01 0.201E+04   -.549E-01 -.317E-01 -.200E+04   0.197E-02 0.102E-02 -.709E+01
   -.457E-01 -.188E-01 0.666E+03   0.468E-01 0.184E-01 -.666E+03   -.736E-03 0.503E-03 0.432E+00
   0.288E-01 -.186E-01 0.666E+03   -.326E-01 0.145E-01 -.666E+03   0.291E-02 0.325E-02 0.431E+00
   -.471E-01 -.643E-01 -.670E+03   0.471E-01 0.613E-01 0.670E+03   0.367E-03 0.163E-02 -.339E+00
   0.242E+00 0.144E-01 -.670E+03   -.246E+00 -.108E-01 0.670E+03   -.305E-02 -.645E-02 -.336E+00
   -.868E-03 -.130E-01 -.200E+04   -.123E-02 0.187E-01 0.199E+04   0.171E-02 -.423E-02 0.631E+01
   0.102E+00 0.385E-01 -.200E+04   -.984E-01 -.287E-01 0.199E+04   -.496E-02 -.100E-01 0.631E+01
   0.146E+00 0.427E-01 0.201E+04   -.152E+00 -.429E-01 -.200E+04   0.458E-02 0.121E-03 -.709E+01
   0.174E-01 0.352E-01 0.201E+04   -.188E-01 -.378E-01 -.200E+04   0.106E-02 0.200E-02 -.709E+01
   -.184E-01 -.973E-03 0.666E+03   0.140E-01 -.225E-02 -.666E+03   0.347E-02 0.261E-02 0.431E+00
   0.182E+00 0.698E-01 0.667E+03   -.212E+00 -.704E-01 -.667E+03   0.230E-01 0.600E-03 0.425E+00
   0.140E+01 0.174E+00 -.671E+03   -.136E+01 -.180E+00 0.671E+03   -.610E-01 0.411E-02 -.251E+00
   -.253E-01 0.202E+00 -.670E+03   0.286E-01 -.207E+00 0.670E+03   -.561E-02 -.176E-02 -.337E+00
   0.206E-01 0.974E-01 -.200E+04   -.108E-01 -.941E-01 0.199E+04   -.936E-02 -.529E-02 0.631E+01
   0.256E+01 0.120E+00 -.200E+04   -.282E+01 -.157E+00 0.199E+04   0.117E+00 0.224E-01 0.645E+01
   0.525E-01 0.517E-01 0.201E+04   -.555E-01 -.547E-01 -.200E+04   0.232E-02 0.229E-02 -.709E+01
   0.110E+00 0.127E+00 0.201E+04   -.114E+00 -.130E+00 -.200E+04   0.277E-02 0.281E-02 -.709E+01
   0.219E+00 0.171E+00 0.666E+03   -.225E+00 -.171E+00 -.666E+03   0.493E-02 0.192E-03 0.451E+00
   0.144E+00 0.213E+00 0.666E+03   -.145E+00 -.218E+00 -.666E+03   0.809E-03 0.462E-02 0.449E+00
   0.134E+00 0.138E+00 -.670E+03   -.145E+00 -.150E+00 0.670E+03   0.526E-02 0.466E-02 -.310E+00
   0.909E+00 0.994E+00 -.670E+03   -.926E+00 -.100E+01 0.670E+03   -.244E-02 -.124E-01 -.244E+00
   0.582E+00 0.645E-01 -.200E+04   -.630E+00 -.473E-01 0.199E+04   0.206E-01 -.203E-01 0.629E+01
   0.530E-01 0.608E+00 -.200E+04   -.328E-01 -.656E+00 0.199E+04   -.220E-01 0.204E-01 0.628E+01
   -.150E-01 -.327E-01 0.201E+04   0.150E-01 0.329E-01 -.200E+04   -.594E-04 -.162E-03 -.709E+01
   0.616E-01 0.198E-01 0.201E+04   -.647E-01 -.186E-01 -.200E+04   0.241E-02 -.963E-03 -.709E+01
   -.653E-01 0.102E+00 0.666E+03   0.665E-01 -.100E+00 -.666E+03   -.686E-03 -.113E-02 0.434E+00
   -.238E-01 -.581E-01 0.666E+03   0.207E-01 0.596E-01 -.666E+03   0.240E-02 -.103E-02 0.425E+00
   -.440E-01 -.746E-01 -.670E+03   0.433E-01 0.742E-01 0.670E+03   0.892E-03 0.488E-03 -.328E+00
   0.422E+00 0.130E+00 -.670E+03   -.422E+00 -.132E+00 0.670E+03   -.815E-02 0.461E-02 -.326E+00
   0.607E-02 0.279E-01 -.200E+04   -.729E-02 -.343E-01 0.199E+04   0.898E-03 0.599E-02 0.631E+01
   -.470E-01 -.494E-01 -.200E+04   0.482E-01 0.487E-01 0.199E+04   -.590E-04 0.852E-03 0.632E+01
   -.253E-01 -.289E-02 0.201E+04   0.256E-01 0.499E-02 -.200E+04   -.214E-03 -.162E-02 -.709E+01
   0.821E-02 -.363E-01 0.201E+04   -.103E-01 0.384E-01 -.200E+04   0.161E-02 -.161E-02 -.709E+01
   -.353E-01 -.272E-01 0.666E+03   0.360E-01 0.307E-01 -.666E+03   -.458E-03 -.268E-02 0.424E+00
   0.861E-01 -.486E-02 0.666E+03   -.931E-01 0.867E-02 -.666E+03   0.515E-02 -.299E-02 0.432E+00
   -.545E-01 0.581E-01 -.670E+03   0.545E-01 -.542E-01 0.670E+03   0.137E-03 -.222E-02 -.339E+00
   0.766E-02 -.102E+00 -.670E+03   -.112E-01 0.103E+00 0.670E+03   0.186E-02 0.168E-02 -.338E+00
   -.154E-01 0.381E-01 -.200E+04   0.121E-01 -.385E-01 0.199E+04   0.282E-02 -.122E-02 0.632E+01
   0.151E+00 -.173E-01 -.200E+04   -.147E+00 0.618E-02 0.199E+04   -.665E-02 0.100E-01 0.631E+01
   0.295E-02 -.391E-01 0.201E+04   -.535E-02 0.394E-01 -.200E+04   0.184E-02 -.264E-03 -.709E+01
   0.114E+00 -.617E-01 0.201E+04   -.118E+00 0.652E-01 -.200E+04   0.288E-02 -.264E-02 -.709E+01
   0.184E+00 -.267E-01 0.666E+03   -.193E+00 0.257E-01 -.666E+03   0.744E-02 0.523E-03 0.438E+00
   -.425E-01 -.103E+00 0.666E+03   0.419E-01 0.105E+00 -.666E+03   0.578E-03 -.932E-03 0.432E+00
   -.533E-01 -.102E+00 -.670E+03   0.494E-01 0.101E+00 0.670E+03   0.234E-02 0.812E-03 -.338E+00
   0.868E+00 -.687E+00 -.669E+03   -.852E+00 0.696E+00 0.670E+03   -.352E-01 0.896E-02 -.309E+00
   0.946E+00 0.112E+00 -.200E+04   -.100E+01 -.122E+00 0.199E+04   0.166E-01 0.113E-01 0.629E+01
   -.384E-01 -.222E-01 -.200E+04   0.449E-01 0.207E-01 0.199E+04   -.486E-02 0.157E-02 0.631E+01
   0.668E-01 -.553E-01 0.201E+04   -.701E-01 0.582E-01 -.200E+04   0.248E-02 -.226E-02 -.709E+01
   0.232E-01 -.998E-01 0.201E+04   -.245E-01 0.103E+00 -.200E+04   0.104E-02 -.237E-02 -.709E+01
   0.359E-01 -.134E+00 0.666E+03   -.407E-01 0.141E+00 -.666E+03   0.368E-02 -.502E-02 0.431E+00
   0.124E+00 -.173E+00 0.666E+03   -.122E+00 0.182E+00 -.666E+03   -.944E-03 -.702E-02 0.441E+00
[...]
   -.869E-01 -.464E-02 0.151E+04   0.900E-01 0.510E-02 -.151E+04   -.428E-02 -.621E-03 0.343E+01
   -.131E-01 -.294E-01 0.151E+04   0.145E-01 0.296E-01 -.151E+04   -.193E-02 -.309E-03 0.343E+01
   -.225E-01 -.103E-01 -.152E+04   0.243E-01 0.113E-01 0.152E+04   -.107E-02 -.913E-03 -.488E+01
   0.108E+00 0.528E-01 -.152E+04   -.118E+00 -.485E-01 0.152E+04   0.521E-02 -.686E-02 -.492E+01
   -.194E-01 0.168E+00 -.496E+03   0.153E-01 -.163E+00 0.496E+03   -.219E-01 -.122E-01 0.355E+00
   0.153E-01 -.334E-01 -.497E+03   -.156E-01 0.315E-01 0.497E+03   -.899E-03 0.137E-02 0.278E+00
   -.117E+00 -.106E+00 0.499E+03   0.120E+00 0.109E+00 -.499E+03   -.420E-02 -.376E-02 -.633E-01
   -.551E-01 -.684E-01 0.499E+03   0.582E-01 0.710E-01 -.499E+03   -.422E-02 -.359E-02 -.810E-01
   -.224E-01 -.635E-01 0.151E+04   0.243E-01 0.657E-01 -.151E+04   -.262E-02 -.306E-02 0.343E+01
   -.556E-01 -.178E-01 0.151E+04   0.579E-01 0.195E-01 -.151E+04   -.315E-02 -.230E-02 0.343E+01
   0.304E-01 -.522E-02 -.152E+04   -.204E-01 0.182E-01 0.152E+04   -.237E-01 -.272E-01 -.495E+01
   0.709E-02 -.746E-02 -.152E+04   -.111E-01 0.374E-02 0.152E+04   0.346E-02 0.298E-02 -.487E+01
   0.200E-01 -.153E+00 -.497E+03   -.233E-01 0.158E+00 0.497E+03   0.327E-03 -.980E-02 0.269E+00
   -.143E+00 0.310E-01 -.497E+03   0.150E+00 -.338E-01 0.497E+03   -.101E-01 -.652E-03 0.268E+00
   -.351E-01 -.254E-01 0.599E+02   -.330E-11 0.548E-12 0.102E-11   0.334E-01 0.227E-01 -.600E+02

 POSITION                                       TOTAL-FORCE (eV/Angst)
      0.00000      6.40959      7.50000         0.000039      0.000084      0.500782
      2.13653      0.00000      7.50000        -0.000455     -0.000426      0.501319
      0.00000      0.00000      9.63653         0.000064     -0.000468      0.043345
      2.13653      6.40959      9.63653         0.000572      0.000301      0.043311
      0.00002      6.40970     11.78051         0.000509     -0.000518     -0.019468
      2.13677      0.00034     11.77996        -0.002198     -0.002037     -0.020365
      0.00002      0.00020     13.89784         0.000029      0.000924     -0.143808
      2.13740      6.40981     13.89881        -0.007314      0.000966     -0.137375
      0.00000      2.13653      7.50000         0.000029     -0.000570      0.501066
      2.13653      4.27306      7.50000        -0.000560     -0.000270      0.500680
      0.00000      4.27306      9.63653         0.000441      0.000090      0.043405
      2.13653      2.13653      9.63653        -0.000828     -0.000782      0.043068
     17.09221      2.13680     11.77990         0.000419     -0.001361     -0.019139
      2.13702      4.27352     11.78002        -0.007029     -0.002769     -0.017700
     17.09219      4.27333     13.89797        -0.000376      0.001431     -0.139963
      2.13679      2.13705     13.89819        -0.001578     -0.000194     -0.141701
      4.27306      6.40959      7.50000        -0.001267     -0.000001      0.500974
      6.40959      0.00000      7.50000        -0.000279     -0.000563      0.500711
      4.27306      0.00000      9.63653        -0.000913     -0.000601      0.042960
      6.40959      6.40959      9.63653        -0.006673      0.000007      0.028786
      4.27498      6.40971     11.78019        -0.023414     -0.001457     -0.020684
      6.40992      0.00052     11.78006        -0.002241     -0.006595     -0.017873
      4.27335      0.00042     13.89817         0.000507     -0.001910     -0.141396
      6.41717      6.41094     13.90010        -0.136299     -0.013959     -0.207924
      4.27306      2.13653      7.50000        -0.000704     -0.000695      0.500469
      6.40959      4.27306      7.50000        -0.000862     -0.000860      0.499801
      4.27306      4.27306      9.63653        -0.000929      0.000147      0.040153
      6.40959      2.13653      9.63653        -0.000070     -0.000744      0.040398
      4.27339      2.13697     11.78003        -0.006459     -0.006652     -0.019374
      6.41088      4.27466     11.78036        -0.018632     -0.019472     -0.042358
      4.27475      4.27410     13.89753        -0.026446     -0.002835     -0.129591
      6.41041      2.13833     13.89734        -0.001589     -0.026913     -0.128534
      0.00000     14.95570      7.50000         0.000023      0.000060      0.501483
      2.13653      8.54611      7.50000        -0.000682      0.000261      0.500890
      0.00000      8.54611      9.63653         0.000482      0.000282      0.042576
      2.13653     14.95570      9.63653        -0.000674      0.000426      0.043253
      0.00001     14.95585     11.77979         0.000195      0.000076     -0.020945
      2.13675      8.54588     11.77991        -0.007977      0.002217     -0.017980
     17.09220      8.54617     13.89823        -0.000322     -0.000372     -0.140811
      2.13654     14.95585     13.89782         0.001115      0.000218     -0.144045
      0.00000     10.68264      7.50000         0.000062      0.000487      0.501146
      2.13653     12.81917      7.50000        -0.000481      0.000500      0.501228
      0.00000     12.81917      9.63653         0.000174      0.000825      0.043067
      2.13653     10.68264      9.63653        -0.001782      0.000816      0.042347
      0.00002     10.68259     11.77992         0.000109      0.001609     -0.018989
      2.13663     12.81912     11.77986        -0.001605      0.002318     -0.020092
      0.00003     12.81941     13.89774        -0.000524     -0.001634     -0.143873
      2.13675     10.68265     13.89807        -0.002517     -0.001036     -0.140717
      4.27306     14.95570      7.50000        -0.000546      0.000075      0.501067
      6.40959      8.54611      7.50000        -0.000865      0.000828      0.499799
      4.27306      8.54611      9.63653        -0.001575     -0.000506      0.039020
      6.40959     14.95570      9.63653         0.000028      0.000691      0.043054
      4.27322     14.95584     11.77986        -0.001536      0.000182     -0.018919
      6.41131      8.54497     11.78055        -0.018274      0.016731     -0.055479
      4.27474      8.54605     13.89552        -0.038838      0.001405     -0.123422
      6.40967     14.95569     13.89798         0.001597      0.000109     -0.139900
      4.27306     10.68264      7.50000        -0.000742      0.000690      0.500250
      6.40959     12.81917      7.50000        -0.000261      0.000684      0.500721
      4.27306     12.81917      9.63653        -0.001087      0.001772      0.042340
      6.40959     10.68264      9.63653         0.000494      0.001571      0.037930
[...]
     14.95570      8.54611      9.63653         0.000630     -0.000449      0.037533
     12.81917      8.54611      7.50000        -0.001169     -0.000144     -0.354215
     14.95570     14.95570      7.50000        -0.000528     -0.000077     -0.355147
     12.81910     14.95583     13.94043         0.000687      0.000086     -0.048046
     14.95559      8.54640     13.94120        -0.005122     -0.002531     -0.059191
     12.82109      8.54670     11.77280        -0.025654     -0.006926     -0.005068
     14.95577     14.95592     11.77378        -0.001197     -0.000563     -0.014807
     12.81917     10.68264      9.63653        -0.001048     -0.000879      0.038003
     14.95570     12.81917      9.63653        -0.001115     -0.000930      0.037379
     12.81917     12.81917      7.50000        -0.000718     -0.000836     -0.354580
     14.95570     10.68264      7.50000        -0.000870     -0.000622     -0.354630
     12.81973     10.68339     13.94237        -0.013580     -0.014098     -0.068360
     14.95584     12.81946     13.94016        -0.000481     -0.000707     -0.046942
     12.81933     12.81942     11.77398        -0.002944     -0.003893     -0.017964
     14.95585     10.68291     11.77402        -0.003543     -0.003347     -0.017897
    total drift:                               -0.001699     -0.002691     -0.094905

  FREE ENERGIE OF THE ION-ELECTRON SYSTEM (eV)
  free  energy   TOTEN  =     -1481.22180908 eV

  energy  without entropy=    -1481.22180908  energy(sigma->0) =    -1481.22180908