 vasp.6.3.0 20Jan22 (build Mar 11 2022 13:48:16) complex

 executed on             LinuxIFC date 2024.01.23  07:11:08

 INCAR:
   SYSTEM = TiO2
   ISMEAR = 0
   SIGMA = 0.05
   EDIFF = 1E-5
   ALGO = ALL
   ISTART = 0
   IBRION = -1
   NSW = 0
   ISYM = 0
   ISIF = 2
   EDIFFG = -0.01
   DIPOL = 0.5 0.5 0.5
   IDIPOL = 3
   LDIPOL = .TRUE.
   GGA = PE
   IVDW = 21
   LDAU = .TRUE.
   LDAUTYPE = 2
   LDAUL = -1 -1 2 -1
   LDAUU = 0.0 0.0 4.2 0.0
   LDAUPRINT = 1
   LMAXMIX = 4
   ENCUT = 600
   PREC = Accurate
   LASPH = .TRUE.
   LREAL = .FALSE.
   ISPIN = 1
   NELM = 200
   NELMIN = 8
   NCORE = 2
   KPAR = 1
   LWAVE = .FALSE.
   LCHARG = .FALSE.

 POTCAR:    PAW_PBE H 15Jun2001
 POTCAR:    PAW_PBE O 08Apr2002
 POTCAR:    PAW_PBE Ti_pv 07Sep2000
 POTCAR:    PAW_PBE O 08Apr2002
|           W    W    AA    RRRRR   N    N  II  N    N   GGGG   !!!           |
|           W    W   A  A   R    R  NN   N  II  NN   N  G    G  !!!           |
|           W    W  A    A  R    R  N N  N  II  N N  N  G       !!!           |
|           W WW W  AAAAAA  RRRRR   N  N N  II  N  N N  G  GGG   !            |
|           WW  WW  A    A  R   R   N   NN  II  N   NN  G    G                |
|           W    W  A    A  R    R  N    N  II  N    N   GGGG   !!!           |
|     For optimal performance we recommend to set                             |
|       NCORE = 2 up to number-of-cores-per-socket                            |
|     This setting can greatly improve the performance of VASP for DFT.       |
|     The default, NCORE=1 might be grossly inefficient on modern             |
|     multi-core architectures or massively parallel machines. Do your        |
|     Unfortunately you need to use the default for GW and RPA                |
|     calculations (for HF NCORE is supported but not extensively tested      |
|     yet).                                                                   |

   TITEL  = PAW_PBE H 15Jun2001
   POMASS =    1.000; ZVAL   =    1.000    mass and valenz
   ENMAX  =  250.000; ENMIN  =  200.000 eV

   TITEL  = PAW_PBE O 08Apr2002
   POMASS =   16.000; ZVAL   =    6.000    mass and valenz
   ENMAX  =  400.000; ENMIN  =  300.000 eV

   TITEL  = PAW_PBE Ti_pv 07Sep2000
   POMASS =   47.880; ZVAL   =   10.000    mass and valenz
   ENMAX  =  222.335; ENMIN  =  166.751 eV

   TITEL  = PAW_PBE O 08Apr2002
   POMASS =   16.000; ZVAL   =    6.000    mass and valenz
   ENMAX  =  400.000; ENMIN  =  300.000 eV

  PAW_PBE H 15Jun2001                   :
  PAW_PBE O 08Apr2002                   :
  PAW_PBE Ti_pv 07Sep2000               :
  PAW_PBE O 08Apr2002                   :

 POSCAR:  H  O Ti  O
  positions in direct lattice
 exchange correlation table for  LEXCH =        8
   RHO(1)=    0.500       N(1)  =     2000
   RHO(2)=  100.500       N(2)  =     4000

 ion  position               nearest neighbor table
   1  0.524  0.548  0.802-   3 0.97
   2  0.625  0.496  0.779-   3 1.03
   3  0.547  0.491  0.782-   1 0.97   2 1.03  83 2.18
   4  0.750  0.625  0.286-  84 1.98  85 1.98 144 1.98 145 1.98 166 2.00  87 2.00  14 3.03  34 3.03

   5  0.000  0.750  0.286-  86 1.98  87 1.98 106 1.98 107 1.98  88 2.00  35 3.03  15 3.03
   6  0.000  0.625  0.393-  89 1.98 149 1.98 148 1.98  88 1.98  90 2.00  91 2.00  16 3.03  36 3.03

[...]

  84  0.750  0.750  0.244-   4 1.98  14 1.98
  85  0.750  0.750  0.328-   4 1.98  14 1.98   7 2.00
  86  0.098  0.625  0.286-   5 1.98  35 1.98  44 2.00
  87  0.902  0.625  0.286-   5 1.98  35 1.98   4 2.00
  88  0.000  0.750  0.351-   6 1.98  16 1.98   5 2.00
  89  0.000  0.750  0.435-   6 1.98  16 1.98   9 2.00
  90  0.848  0.625  0.393-   7 1.98  37 1.98   6 2.00
  91  0.152  0.625  0.393-  47 1.98  77 1.98   6 2.00
  92  0.750  0.750  0.458-   8 1.98  18 1.98   7 2.00
  93  0.750  0.750  0.542-   8 1.98  18 1.98  11 2.08
  94  0.098  0.625  0.500-   9 1.98  39 1.98  48 2.00
  95  0.902  0.625  0.500-   9 1.98  39 1.98   8 2.00
  96  0.000  0.750  0.565-  20 1.94  10 1.94   9 2.01
  97  0.999  0.750  0.649-  13 1.86  10 2.03  20 2.03
  98  0.850  0.625  0.607-  10 1.98  11 2.00  41 2.00
  99  0.150  0.625  0.607-  10 1.97  51 2.00  81 2.01
 100  0.754  0.751  0.672-  11 1.93  12 2.08  22 2.11
 101  0.748  0.749  0.756-  12 1.87  22 1.89
 102  0.094  0.625  0.719-  43 1.97  13 1.97  52 2.07
 103  0.906  0.624  0.721-  43 1.97  13 1.98  12 2.05
 104  0.750  0.000  0.244-  14 1.98  24 1.98
 105  0.750  0.000  0.328-  14 1.98  24 1.98  17 2.00
 106  0.098  0.875  0.286-   5 1.98  15 1.98  54 2.00
 107  0.902  0.875  0.286-   5 1.98  15 1.98  14 2.00
 108  0.000  0.000  0.351-  16 1.98  26 1.98  15 2.00
 109  0.000  0.000  0.435-  16 1.98  26 1.98  19 2.00
 110  0.848  0.875  0.393-   7 1.98  17 1.98  16 2.00
 111  0.152  0.875  0.393-  47 1.98  57 1.98  16 2.00
 112  0.750  0.000  0.458-  18 1.98  28 1.98  17 2.00
 113  0.750  0.000  0.542-  18 1.98  28 1.98  21 2.09
 114  0.098  0.875  0.500-   9 1.98  19 1.98  58 2.00
 115  0.902  0.875  0.500-   9 1.98  19 1.98  18 2.00
 116  0.000  1.000  0.565-  20 1.94  30 1.94  19 2.01
 117  0.999  0.000  0.649-  23 1.86  20 2.03  30 2.03
 118  0.849  0.875  0.607-  20 1.98  21 2.00  11 2.00
 119  0.150  0.875  0.607-  20 1.98  51 2.00  61 2.00
 120  0.750  1.000  0.672-  21 1.93  32 2.10  22 2.10
 121  0.750  1.000  0.756-  22 1.87  32 1.87
 122  0.093  0.875  0.719-  13 1.97  23 1.97  62 2.07
 123  0.907  0.875  0.720-  13 1.97  23 1.97  22 2.06
 124  0.750  0.250  0.244-  24 1.98  34 1.98
 125  0.750  0.250  0.328-  24 1.98  34 1.98  27 2.00
 126  0.098  0.125  0.286-  15 1.98  25 1.98  64 2.00
 127  0.902  0.125  0.286-  15 1.98  25 1.98  24 2.00
 128  0.000  0.250  0.351-  26 1.98  36 1.98  25 2.00
 129  0.000  0.250  0.435-  26 1.98  36 1.98  29 2.00
 130  0.848  0.125  0.393-  17 1.98  27 1.98  26 2.00
 131  0.152  0.125  0.393-  57 1.98  67 1.98  26 2.00
 132  0.750  0.250  0.458-  28 1.98  38 1.98  27 2.00
 133  0.750  0.250  0.542-  28 1.98  38 1.98  31 2.08
 134  0.098  0.125  0.500-  19 1.98  29 1.98  68 2.00
 135  0.902  0.125  0.500-  19 1.98  29 1.98  28 2.00
 136  0.000  0.250  0.565-  30 1.94  40 1.94  29 2.01
 137  0.999  0.250  0.649-  33 1.86  40 2.03  30 2.03
 138  0.849  0.125  0.607-  30 1.98  21 2.00  31 2.00
 139  0.150  0.125  0.607-  30 1.97  61 2.00  71 2.00
 140  0.753  0.249  0.672-  31 1.93  42 2.08  32 2.11
 141  0.749  0.251  0.756-  42 1.87  32 1.88
 142  0.093  0.125  0.719-  33 1.97  23 1.97  72 2.07
 143  0.907  0.125  0.720-  33 1.97  23 1.97  32 2.06
[...]
 229  0.500  0.500  0.435-  46 1.98  76 1.98  79 2.00
 230  0.348  0.375  0.393-  67 1.98  77 1.98  76 2.00
 231  0.652  0.375  0.393-  27 1.98  37 1.98  76 2.00
 232  0.250  0.500  0.458-  48 1.98  78 1.98  77 2.00
 233  0.250  0.500  0.542-  48 1.98  78 1.98  81 2.09
 234  0.598  0.375  0.500-  69 1.98  79 1.98  38 2.00
 235  0.402  0.375  0.500-  69 1.98  79 1.98  78 2.00
 236  0.500  0.500  0.566-  50 1.94  80 1.95  79 2.02
 237  0.498  0.500  0.650-  83 1.96  50 2.00  80 2.01
 238  0.349  0.375  0.607-  80 1.98  81 2.00  71 2.00
 239  0.651  0.375  0.608-  80 1.99  31 2.00  41 2.00
 240  0.250  0.500  0.672-  81 1.92  52 2.10  82 2.11
 241  0.251  0.500  0.756-  52 1.88  82 1.88
 242  0.596  0.371  0.714-  73 1.95  83 1.99  42 2.04
 243  0.407  0.374  0.719-  73 1.96  83 1.97  82 2.06

IMPORTANT INFORMATION: All symmetrisations will be switched off!
NOSYMM: (Re-)initialisation of all symmetry stuff for point group C_1.

                                     Primitive cell

  volume of cell :    4886.2662

  direct lattice vectors                    reciprocal lattice vectors
    13.143747607  0.000000000  0.000000000     0.076081802  0.000000000  0.000000000
     0.000000000 12.104894358  0.000000000     0.000000000  0.082611212  0.000000000
     0.000000000  0.000000000 30.711208800     0.000000000  0.000000000  0.032561401

  length of vectors
    13.143747607 12.104894358 30.711208800     0.076081802  0.082611212  0.032561401

  position of ions in fractional coordinates (direct lattice)
     0.523779667  0.547759811  0.802295717
     0.624561519  0.496000023  0.779406385
     0.546823706  0.491416395  0.781978444
     0.750000000  0.625000000  0.286010579
     0.000000000  0.750000000  0.286010579
     0.000000000  0.625000000  0.393005289
     0.750000000  0.750000000  0.393005289
     0.750000000  0.625000000  0.500000000
     0.000000000  0.750000000  0.500000000
     0.999945745  0.625041927  0.605118707
     0.750074996  0.750084069  0.609430702
     0.750276032  0.626431096  0.718728932
     0.999655801  0.749975851  0.709925787
     0.750000000  0.875000000  0.286010579
     0.000000000  0.000000000  0.286010579
     0.000000000  0.875000000  0.393005289
     0.750000000  0.000000000  0.393005289
     0.750000000  0.875000000  0.500000000
     0.000000000  0.000000000  0.500000000
     0.999781052  0.875022523  0.605194784
     0.749559362  0.000019231  0.609745203
     0.749779647  0.875346292  0.720004365
     0.999922868  0.000011941  0.709866274
     0.750000000  0.125000000  0.286010579
     0.000000000  0.250000000  0.286010579
     0.000000000  0.125000000  0.393005289
     0.750000000  0.250000000  0.393005289
     0.750000000  0.125000000  0.500000000
     0.000000000  0.250000000  0.500000000
     0.999776506  0.125005035  0.605179858
     0.750036161  0.249961080  0.609407189
     0.749727382  0.124536969  0.719987910
     0.999703669  0.250040866  0.709913436
     0.750000000  0.375000000  0.286010579
     0.000000000  0.500000000  0.286010579
     0.000000000  0.375000000  0.393005289
     0.750000000  0.500000000  0.393005289
     0.750000000  0.375000000  0.500000000
     0.000000000  0.500000000  0.500000000
     0.999938142  0.375018125  0.605122162
     0.750366203  0.500037334  0.609651467
     0.750536168  0.373378327  0.718723720
     0.000747012  0.500061093  0.709837374
     0.250000000  0.625000000  0.286010579
     0.500000000  0.750000000  0.286010579
     0.500000000  0.625000000  0.393005289
     0.250000000  0.750000000  0.393005289
     0.250000000  0.625000000  0.500000000
     0.500000000  0.750000000  0.500000000
     0.499718577  0.623125773  0.606155274
     0.250013493  0.749934616  0.609792094
     0.250876107  0.625118178  0.720144479
     0.499668055  0.750689342  0.708602357
     0.250000000  0.875000000  0.286010579
     0.500000000  0.000000000  0.286010579
     0.500000000  0.875000000  0.393005289
     0.250000000  0.000000000  0.393005289
     0.250000000  0.875000000  0.500000000
     0.500000000  0.000000000  0.500000000
     0.499409837  0.874456101  0.604298336
[...]
     0.500000000  0.500000000  0.434805357
     0.347668537  0.375000000  0.393005289
     0.652331463  0.375000000  0.393005289
     0.250000000  0.500000000  0.458199933
     0.250000000  0.500000000  0.541800067
     0.597668537  0.375000000  0.500000000
     0.402331463  0.375000000  0.500000000
     0.500326220  0.499854426  0.565617891
     0.498345562  0.500401799  0.649900702
     0.348879159  0.375067205  0.607270082
     0.650846232  0.375049777  0.607984090
     0.250228490  0.500357978  0.672435622
     0.250680425  0.499974609  0.756154968
     0.596050209  0.370936448  0.713775631
[...]
   O          58.273          3.978         10.437          1.93272346
   O          58.223          3.978         10.432          1.93190339
   O          58.153          3.977         10.426          1.93073109
   O          58.940          3.986         10.496          1.94374757
   O          58.516          3.981         10.458          1.93675215
   O          58.432          3.980         10.451          1.93535883
   O          59.647          3.994         10.559          1.95537230
   O          39.405          3.727          8.582          1.58931939
   O          56.903          3.962         10.313          1.90986868
   O          55.779          3.949         10.211          1.89091966

  vdW correction parametrized for the method pbe

  IVDW =  21
  VDW_RADIUS =    50.000 A
  VDW_IDAMPF =  0
  VDW_S6 =     1.000
  VDW_SR =     0.950
  VDW_D =    20.000
  LVDW_ONECELL = F F F
  LVDW_SAMETYPE T T T T
  LVDW_EWALD = F

  Number of pair interactions contributing to vdW energy: 3214776
  Edisp (eV):  -33.36928

  FORCE on cell =-STRESS in cart. coord.  units (eV):
  Direction    XX          YY          ZZ          XY          YZ          ZX
  Alpha Z  4507.55820  4507.55820  4507.55820
  Ewald  942423.91489959535.45621************   -23.05213    40.58964   -65.21666
  Hartree983007.95623992263.24199************    -5.94928     7.33975   -32.11488
  E(xc)   -8592.32504 -8575.85806 -8601.67431    -0.06918     0.16631    -0.23843
  Local  ************************************    23.72362   -36.10254    91.34892
  n-local -5251.19540 -5129.68378 -5290.25996    -0.30449     0.04034    -0.19889
  augment  5275.80691  5269.54960  5279.27954     0.33549    -0.77994     0.06148
  Kinetic 28611.26594 28069.51062 28668.14294     5.27671   -11.28599     6.70033
  Fock        0.00000     0.00000     0.00000     0.00000     0.00000     0.00000
  vdW       -48.51191   -38.52541   -41.13006    -0.00676    -0.01495     0.18213
  Total      10.37541   -41.12093   -28.12659    -0.04603    -0.04738     0.52399
  in kB       3.40203   -13.48331    -9.22254    -0.01509    -0.01554     0.17181

 VOLUME and BASIS-vectors are now :
  energy-cutoff  :      600.00
  volume of cell :     4886.27
      direct lattice vectors                 reciprocal lattice vectors
    13.143747607  0.000000000  0.000000000     0.076081802  0.000000000  0.000000000
     0.000000000 12.104894358  0.000000000     0.000000000  0.082611212  0.000000000
     0.000000000  0.000000000 30.711208800     0.000000000  0.000000000  0.032561401

  length of vectors
    13.143747607 12.104894358 30.711208800     0.076081802  0.082611212  0.032561401

 FORCES acting on ions:
    Electron-Ion                     Ewald-Force                    Non-Local-Force
   0.316E+02 -.606E+02 -.443E+03   -.344E+02 0.664E+02 0.448E+03   0.278E+01 -.576E+01 -.546E+01
   -.534E+02 -.174E+01 -.421E+03   0.599E+02 0.191E+01 0.421E+03   -.654E+01 -.168E+00 0.482E+00
   0.580E+02 0.394E+02 -.250E+04   -.734E+02 -.708E+02 0.249E+04   0.153E+02 0.314E+02 0.114E+02
   -.101E+00 -.200E-01 0.365E+04   0.972E-01 0.202E-01 -.366E+04   0.112E-02 -.295E-04 0.821E+00
   -.617E-01 -.347E-01 0.383E+04   0.636E-01 0.348E-01 -.382E+04   -.474E-03 -.111E-04 -.474E+01
   -.256E+00 -.573E-01 0.187E+04   0.265E+00 0.567E-01 -.187E+04   -.189E-02 0.199E-03 -.130E+00
   -.245E+00 -.281E-01 0.186E+04   0.235E+00 0.285E-01 -.186E+04   0.260E-02 -.984E-05 0.286E+00
   -.362E-01 -.174E+00 0.723E+01   -.115E-01 0.153E+00 -.676E+01   0.119E-01 0.353E-02 -.116E+00
   -.142E+01 -.635E+00 0.145E+02   0.144E+01 0.638E+00 -.153E+02   -.739E-02 -.289E-02 0.265E+00
   -.684E+01 -.204E+01 -.181E+04   0.684E+01 0.204E+01 0.181E+04   0.838E-03 -.689E-02 0.444E+00
   -.283E+01 -.769E+01 -.185E+04   0.286E+01 0.770E+01 0.185E+04   -.267E-01 -.384E-02 -.614E+00
   -.734E+02 -.150E+02 -.359E+04   0.731E+02 0.150E+02 0.359E+04   0.360E+00 -.717E-01 -.825E+00
   -.556E+01 -.321E+01 -.367E+04   0.566E+01 0.325E+01 0.366E+04   -.104E+00 -.596E-01 0.217E+01
   -.111E+00 -.237E-01 0.365E+04   0.107E+00 0.240E-01 -.366E+04   0.121E-02 -.381E-04 0.821E+00
   -.584E-01 -.152E-02 0.383E+04   0.603E-01 0.160E-02 -.382E+04   -.469E-03 -.125E-04 -.474E+01
   -.217E+00 -.634E-01 0.187E+04   0.225E+00 0.627E-01 -.187E+04   -.177E-02 0.156E-03 -.130E+00
   -.330E+00 -.110E-01 0.186E+04   0.320E+00 0.107E-01 -.186E+04   0.258E-02 0.256E-04 0.286E+00
   -.126E+01 -.535E+00 0.608E+01   0.122E+01 0.568E+00 -.560E+01   0.956E-02 -.524E-02 -.118E+00
   -.991E+00 0.214E-01 0.136E+02   0.101E+01 -.232E-01 -.144E+02   -.760E-02 0.585E-03 0.265E+00
   -.388E+01 -.145E+01 -.182E+04   0.389E+01 0.146E+01 0.182E+04   -.543E-02 -.131E-01 0.460E+00
   -.160E+01 0.244E+00 -.186E+04   0.163E+01 -.243E+00 0.186E+04   -.339E-01 -.167E-02 -.628E+00
   -.143E+02 -.148E+02 -.363E+04   0.142E+02 0.148E+02 0.363E+04   0.613E-01 -.281E-01 -.106E+01
   -.538E+01 0.454E+00 -.367E+04   0.536E+01 -.452E+00 0.366E+04   0.323E-01 -.508E-02 0.220E+01
   -.109E+00 0.200E-01 0.365E+04   0.106E+00 -.203E-01 -.366E+04   0.119E-02 0.411E-04 0.821E+00
   -.619E-01 0.347E-01 0.383E+04   0.638E-01 -.348E-01 -.382E+04   -.485E-03 0.166E-04 -.474E+01
   -.217E+00 0.602E-01 0.187E+04   0.225E+00 -.597E-01 -.187E+04   -.182E-02 -.132E-03 -.130E+00
   -.224E+00 0.276E-01 0.186E+04   0.215E+00 -.280E-01 -.186E+04   0.253E-02 0.880E-05 0.286E+00
   -.117E+01 0.489E+00 0.612E+01   0.113E+01 -.528E+00 -.564E+01   0.998E-02 0.613E-02 -.117E+00
   -.141E+01 0.657E+00 0.146E+02   0.143E+01 -.658E+00 -.154E+02   -.747E-02 0.147E-02 0.266E+00
   -.344E+01 0.163E+01 -.182E+04   0.345E+01 -.165E+01 0.182E+04   -.824E-02 0.147E-01 0.458E+00
   -.311E+01 0.753E+01 -.185E+04   0.314E+01 -.754E+01 0.185E+04   -.270E-01 0.764E-02 -.618E+00
   -.143E+02 0.159E+02 -.363E+04   0.143E+02 -.159E+02 0.363E+04   0.633E-01 0.349E-01 -.106E+01
   -.544E+01 0.324E+01 -.367E+04   0.554E+01 -.329E+01 0.366E+04   -.102E+00 0.595E-01 0.217E+01
   -.991E-01 0.237E-01 0.365E+04   0.957E-01 -.239E-01 -.366E+04   0.111E-02 0.216E-04 0.821E+00
   -.651E-01 0.156E-02 0.383E+04   0.670E-01 -.163E-02 -.382E+04   -.487E-03 0.140E-04 -.474E+01
   -.257E+00 0.605E-01 0.187E+04   0.266E+00 -.597E-01 -.187E+04   -.192E-02 -.199E-03 -.130E+00
   -.143E+00 0.115E-01 0.186E+04   0.134E+00 -.113E-01 -.186E+04   0.233E-02 -.384E-04 0.286E+00
   0.692E-01 0.217E+00 0.720E+01   -.119E+00 -.191E+00 -.673E+01   0.123E-01 -.424E-02 -.115E+00
   -.156E+01 -.479E-02 0.155E+02   0.159E+01 0.534E-02 -.163E+02   -.947E-02 -.405E-03 0.260E+00
   -.656E+01 0.188E+01 -.181E+04   0.657E+01 -.188E+01 0.181E+04   -.943E-03 0.467E-02 0.448E+00
   -.385E+01 -.165E+00 -.184E+04   0.393E+01 0.165E+00 0.184E+04   -.799E-01 0.189E-03 -.655E+00
   -.748E+02 0.138E+02 -.359E+04   0.745E+02 -.139E+02 0.359E+04   0.319E+00 0.722E-01 -.829E+00
   -.923E+01 -.400E+00 -.366E+04   0.919E+01 0.399E+00 0.366E+04   0.418E-01 0.312E-02 0.211E+01
   0.102E+00 -.152E-01 0.365E+04   -.988E-01 0.150E-01 -.366E+04   -.113E-02 0.308E-04 0.820E+00
   0.601E-01 -.193E-01 0.383E+04   -.620E-01 0.197E-01 -.382E+04   0.477E-03 -.969E-04 -.475E+01
   0.218E+00 0.112E+00 0.187E+04   -.226E+00 -.101E+00 -.187E+04   0.182E-02 -.288E-02 -.135E+00
   0.282E+00 0.297E-01 0.186E+04   -.273E+00 -.297E-01 -.186E+04   -.252E-02 -.362E-04 0.278E+00
   0.116E+01 0.949E-01 0.461E+01   -.111E+01 -.112E+00 -.405E+01   -.131E-01 0.297E-02 -.135E+00
   0.773E+00 0.852E+00 0.177E+02   -.787E+00 -.931E+00 -.182E+02   0.123E-03 0.344E-01 0.175E+00
   0.181E+01 -.934E+01 -.181E+04   -.185E+01 0.924E+01 0.181E+04   0.461E-01 0.964E-01 0.291E+00
   0.101E+02 -.410E+01 -.186E+04   -.101E+02 0.408E+01 0.186E+04   -.437E-01 0.239E-01 -.648E+00
   0.334E+02 -.125E+02 -.361E+04   -.334E+02 0.125E+02 0.362E+04   0.541E-01 -.620E-02 -.115E+01
   0.214E+02 -.534E+02 -.362E+04   -.212E+02 0.533E+02 0.362E+04   -.222E+00 0.702E-01 0.230E+01
   0.112E+00 -.190E-01 0.365E+04   -.109E+00 0.190E-01 -.366E+04   -.120E-02 0.553E-05 0.820E+00
   0.569E-01 -.395E-02 0.383E+04   -.588E-01 0.402E-02 -.382E+04   0.469E-03 -.802E-05 -.475E+01
   0.182E+00 0.705E-01 0.187E+04   -.190E+00 -.702E-01 -.187E+04   0.169E-02 -.558E-03 -.136E+00
   0.364E+00 -.130E-01 0.186E+04   -.354E+00 0.129E-01 -.186E+04   -.266E-02 0.286E-04 0.279E+00
   0.215E+01 0.336E-01 0.447E+01   -.212E+01 -.352E-01 -.393E+01   -.724E-02 0.726E-05 -.132E+00
   0.328E+00 -.164E+00 0.207E+02   -.345E+00 0.166E+00 -.215E+02   0.404E-02 -.172E-02 0.179E+00
   -.127E+01 -.900E+01 -.179E+04   0.123E+01 0.892E+01 0.179E+04   0.496E-01 0.921E-01 0.294E+00
[...]
   -.494E+02 -.276E-01 0.112E+04   0.532E+02 0.270E-01 -.112E+04   -.336E+01 0.713E-03 0.172E+00
   0.496E+02 -.111E-01 0.112E+04   -.534E+02 0.103E-01 -.112E+04   0.338E+01 0.116E-02 0.183E+00
   0.252E+00 0.245E-01 0.487E+03   -.234E+00 -.249E-01 -.491E+03   -.243E-01 0.713E-03 0.413E+01
   0.160E+01 0.141E+00 -.493E+03   -.153E+01 -.142E+00 0.499E+03   -.960E-01 0.233E-03 -.618E+01
   -.503E+02 -.293E+00 0.827E+01   0.546E+02 0.286E+00 -.838E+01   -.467E+01 0.254E-01 0.154E+00
   0.512E+02 -.388E+00 0.791E+01   -.556E+02 0.379E+00 -.802E+01   0.474E+01 0.303E-01 0.144E+00
   -.491E+00 0.650E+00 -.604E+03   0.646E+00 -.748E+00 0.598E+03   -.155E+00 0.978E-01 0.599E+01
   0.149E+02 -.158E+01 -.156E+04   -.156E+02 0.160E+01 0.156E+04   0.680E+00 -.212E-01 -.248E+01
   -.246E+02 0.220E+01 -.109E+04   0.277E+02 -.233E+01 0.109E+04   -.305E+01 0.129E+00 0.890E+00
   0.297E+02 0.336E+01 -.110E+04   -.328E+02 -.342E+01 0.109E+04   0.317E+01 0.661E-01 0.272E+00
   0.129E+02 -.838E+00 -.174E+04   -.128E+02 0.842E+00 0.174E+04   -.789E-01 -.403E-02 -.146E+01
   0.358E+02 0.787E+00 -.262E+04   -.359E+02 -.875E+00 0.264E+04   0.780E-01 0.869E-01 -.209E+02
   -.423E+02 0.460E+02 -.213E+04   0.481E+02 -.460E+02 0.213E+04   -.585E+01 -.540E-01 0.211E+00
   0.641E+02 0.278E+02 -.223E+04   -.703E+02 -.275E+02 0.223E+04   0.616E+01 -.344E+00 -.357E+01
   -.851E+01 -.254E+02 0.869E+02   0.423E-11 0.291E-12 -.309E-10   0.851E+01 0.254E+02 -.869E+02

 POSITION                                       TOTAL-FORCE (eV/Angst)
      6.88443      6.63057     24.63947         0.006228      0.004279     -0.002540
      8.20908      6.00403     23.93651        -0.003060      0.003666     -0.000103
      7.18731      5.94854     24.01550         0.007470     -0.002128     -0.002643
      9.85781      7.56556      8.78373        -0.002248      0.000160     -3.245321
      0.00000      9.07867      8.78373         0.001479      0.000080      2.636420
      0.00000      7.56556     12.06967         0.006706     -0.000452      0.481703
      9.85781      9.07867     12.06967        -0.007010      0.000391     -0.745255
      9.85781      7.56556     15.35560        -0.036446     -0.018047      0.354425
      0.00000      9.07867     15.35560         0.017959      0.000826     -0.517677
     13.14303      7.56607     18.58393         0.002045     -0.000654      0.000467
      9.85880      9.07969     18.71635        -0.000579     -0.000175      0.000121
      9.86144      7.58288     22.07303         0.000371     -0.002457     -0.001069
     13.13922      9.07838     21.80268         0.001962     -0.001126      0.000838
      9.85781     10.59178      8.78373        -0.002397      0.000299     -3.245338
      0.00000      0.00000      8.78373         0.001418      0.000072      2.636152
      0.00000     10.59178     12.06967         0.006324     -0.000483      0.481260
      9.85781      0.00000     12.06967        -0.007259     -0.000219     -0.745373
      9.85781     10.59178     15.35560        -0.026724      0.027783      0.362994
      0.00000      0.00000     15.35560         0.016550     -0.001140     -0.512440
     13.14087     10.59206     18.58626         0.002517     -0.001110     -0.000607
      9.85202      0.00023     18.72601         0.004218     -0.000419     -0.001614
      9.85491     10.59597     22.11220         0.000722      0.000903      0.000198
     13.14273      0.00014     21.80085         0.004768     -0.001634     -0.000308
      9.85781      1.51311      8.78373        -0.002409     -0.000258     -3.245496
      0.00000      3.02622      8.78373         0.001456     -0.000076      2.636269
      0.00000      1.51311     12.06967         0.006413      0.000365      0.481118
      9.85781      3.02622     12.06967        -0.006856     -0.000371     -0.745906
      9.85781      1.51311     15.35560        -0.026595     -0.031884      0.360313
      0.00000      3.02622     15.35560         0.018946      0.000466     -0.518384
     13.14081      1.51317     18.58580         0.002331     -0.000147     -0.000836
      9.85829      3.02575     18.71563        -0.001627      0.000089      0.002199
      9.85423      1.50751     22.11170         0.000761     -0.002843     -0.000771
     13.13985      3.02672     21.80230         0.000409      0.000419      0.001152
      9.85781      4.53934      8.78373        -0.002264     -0.000207     -3.245469
      0.00000      6.05245      8.78373         0.001465     -0.000058      2.636486
      0.00000      4.53934     12.06967         0.006798      0.000557      0.481618
      9.85781      6.05245     12.06967        -0.006562      0.000182     -0.745567
      9.85781      4.53934     15.35560        -0.037815      0.021998      0.352075
      0.00000      6.05245     15.35560         0.018965      0.000194     -0.521449
     13.14293      4.53955     18.58403         0.001843      0.001163     -0.000121
      9.86262      6.05290     18.72313         0.000000     -0.000243      0.000385
      9.86486      4.51971     22.07287         0.000428      0.003314     -0.000312
      0.00982      6.05319     21.79996        -0.001133      0.000939      0.001225
      3.28594      7.56556      8.78373         0.002294     -0.000096     -3.242427
      6.57187      9.07867      8.78373        -0.001431      0.000309      2.642005
      6.57187      7.56556     12.06967        -0.006490      0.008238      0.500804
      3.28594      9.07867     12.06967         0.006853     -0.000082     -0.725427
      3.28594      7.56556     15.35560         0.035838     -0.014549      0.420410
      6.57187      9.07867     15.35560        -0.014019     -0.043177     -0.409511
      6.56817      7.54287     18.61576         0.000669      0.003984     -0.000146
      3.28611      9.07788     18.72745         0.001358      0.001506     -0.000700
      3.29745      7.56699     22.11651         0.000429      0.004476     -0.003187
      6.56751      9.08702     21.76203         0.002093     -0.003361     -0.001070
      3.28594     10.59178      8.78373         0.002431      0.000056     -3.242727
      6.57187      0.00000      8.78373        -0.001426      0.000054      2.642061
      6.57187     10.59178     12.06967        -0.006146     -0.000226      0.502330
      3.28594      0.00000     12.06967         0.007153     -0.000090     -0.726972
      3.28594     10.59178     15.35560         0.023810     -0.001623      0.410096
      6.57187      0.00000     15.35560        -0.012740      0.000147     -0.599725
      6.56412     10.58520     18.55873         0.000679      0.000116     -0.001147
[...]
      6.57187      6.05245     13.35340         0.002473     -0.000296     -0.167064
      4.56967      4.53934     12.06967         0.397149      0.000106      0.057999
      8.57408      4.53934     12.06967        -0.389853      0.000376      0.060713
      3.28594      6.05245     14.07187        -0.006362      0.000378     -0.013828
      3.28594      6.05245     16.63933        -0.024527     -0.000931      0.145307
      7.85560      4.53934     15.35560        -0.281197      0.018931      0.037389
      5.28814      4.53934     15.35560         0.316994      0.021204      0.037651
      6.57616      6.05069     17.37081         0.000385     -0.000112     -0.002337
      6.55013      6.05731     19.95924         0.001097     -0.000849      0.000198
      4.58558      4.54015     18.65000         0.001212     -0.001598      0.002703
      8.55456      4.53994     18.67193         0.002013     -0.000375     -0.000976
      3.28894      6.05678     20.65131         0.002247     -0.000358      0.004408
      3.29488      6.05214     23.22243         0.000470     -0.000928      0.002211
      7.83433      4.49015     21.92091         0.003378     -0.002614      0.003018
      5.35536      4.52869     22.08837         0.001065     -0.000312      0.002079
    total drift:                               -0.002274      0.000557      0.011668

  FREE ENERGIE OF THE ION-ELECTRON SYSTEM (eV)
  free  energy   TOTEN  =     -1928.58069456 eV

  energy  without entropy=    -1928.58069456  energy(sigma->0) =    -1928.58069456