 vasp.6.4.1 05Apr23 (build Sep 19 2024 10:44:22) complex

 executed on             LinuxIFC date 2024.10.19  21:23:06

 INCAR:
   SYSTEM = TiO2
   ISMEAR = 0
   SIGMA = 0.05
   EDIFF = 1E-7
   ALGO = ALL
   ISTART = 0
   IBRION = 2
   NSW = 1000
   ISYM = 0
   ISIF = 2
   EDIFFG = -0.01
   DIPOL = 0.5 0.5 0.5
   IDIPOL = 3
   LDIPOL = .TRUE.
   GGA = RE
   AGGAC = 0.0
   LUSE_VDW = .TRUE.
   LASPH = .TRUE.
   ENCUT = 600
   PREC = Accurate
   LASPH = .TRUE.
   LREAL = .FALSE.
   ISPIN = 1
   NELM = 200
   NELMIN = 8
   NCORE = 8
   KPAR = 1
   LWAVE = .FALSE.
   LCHARG = .FALSE.

 POTCAR:    PAW_PBE C 08Apr2002
 POTCAR:    PAW_PBE H 15Jun2001
 POTCAR:    PAW_PBE Ti_pv 07Sep2000
 POTCAR:    PAW_PBE O 08Apr2002
|           W    W    AA    RRRRR   N    N  II  N    N   GGGG   !!!           |
|           W    W   A  A   R    R  NN   N  II  NN   N  G    G  !!!           |
|           W    W  A    A  R    R  N N  N  II  N N  N  G       !!!           |
|           W WW W  AAAAAA  RRRRR   N  N N  II  N  N N  G  GGG   !            |
|           WW  WW  A    A  R   R   N   NN  II  N   NN  G    G                |
|           W    W  A    A  R    R  N    N  II  N    N   GGGG   !!!           |
|     For optimal performance we recommend to set                             |
|       NCORE = 2 up to number-of-cores-per-socket                            |
|     This setting can greatly improve the performance of VASP for DFT.       |
|     The default, NCORE=1 might be grossly inefficient on modern             |
|     multi-core architectures or massively parallel machines. Do your        |
|     Unfortunately you need to use the default for GW and RPA                |
|     calculations (for HF NCORE is supported but not extensively tested      |
|     yet).                                                                   |

   TITEL  = PAW_PBE C 08Apr2002
   POMASS =   12.011; ZVAL   =    4.000    mass and valenz
   ENMAX  =  400.000; ENMIN  =  300.000 eV

   TITEL  = PAW_PBE H 15Jun2001
   POMASS =    1.000; ZVAL   =    1.000    mass and valenz
   ENMAX  =  250.000; ENMIN  =  200.000 eV

   TITEL  = PAW_PBE Ti_pv 07Sep2000
   POMASS =   47.880; ZVAL   =   10.000    mass and valenz
   ENMAX  =  222.335; ENMIN  =  166.751 eV

   TITEL  = PAW_PBE O 08Apr2002
   POMASS =   16.000; ZVAL   =    6.000    mass and valenz
   ENMAX  =  400.000; ENMIN  =  300.000 eV

  PAW_PBE C 08Apr2002                   :
  PAW_PBE H 15Jun2001                   :
  PAW_PBE Ti_pv 07Sep2000               :
  PAW_PBE O 08Apr2002                   :

 POSCAR:  C  H Ti  O
  positions in direct lattice
 exchange correlation table for  LEXCH =       40
   RHO(1)=    0.500       N(1)  =     2000
   RHO(2)=  100.500       N(2)  =     4000

 ion  position               nearest neighbor table
   1  0.500  0.500  0.813-   2 1.10   3 1.10   4 1.10   5 1.10
   2  0.496  0.575  0.833-   1 1.10
   3  0.504  0.425  0.833-   1 1.10
   4  0.569  0.504  0.793-   1 1.10
   5  0.431  0.496  0.793-   1 1.10
   6  0.750  0.625  0.285-  86 1.98 146 1.98  87 1.98 147 1.98 168 2.02  89 2.02  16 3.00  36 3.00

   7  0.000  0.750  0.285-  88 1.98  89 1.98 108 1.98 109 1.98  90 2.02  37 3.00  17 3.00
   8  0.000  0.625  0.393-  90 1.98 150 1.98  91 1.98 151 1.98  92 2.02  93 2.02  18 3.00  38 3.00

[...]

  85  0.500  0.500  0.710- 239 1.83 185 1.97 245 1.97 184 1.97 244 1.97  75 3.00  55 3.00
  86  0.750  0.750  0.243-   6 1.98  16 1.98
  87  0.750  0.750  0.327-   6 1.98  16 1.98   9 2.02
  88  0.098  0.625  0.285-   7 1.98  37 1.98  46 2.02
  89  0.902  0.625  0.285-   7 1.98  37 1.98   6 2.02
  90  0.000  0.750  0.351-   8 1.98  18 1.98   7 2.02
  91  0.000  0.750  0.434-   8 1.98  18 1.98  11 2.02
  92  0.848  0.625  0.393-   9 1.98  39 1.98   8 2.02
  93  0.152  0.625  0.393-  49 1.98  79 1.98   8 2.02
  94  0.750  0.750  0.458-  10 1.98  20 1.98   9 2.02
  95  0.750  0.750  0.542-  10 1.98  20 1.98  13 2.17
  96  0.098  0.625  0.500-  11 1.98  41 1.98  50 2.02
  97  0.902  0.625  0.500-  11 1.98  41 1.98  10 2.02
  98  0.000  0.750  0.567-  12 1.92  22 1.92  11 2.05
  99  0.000  0.750  0.651-  15 1.83  22 2.05  12 2.05
 100  0.850  0.625  0.608-  12 1.99  13 2.00  43 2.00
 101  0.150  0.625  0.608-  12 1.99  83 2.00  53 2.00
 102  0.750  0.750  0.673-  13 1.88  14 2.13  24 2.13
 103  0.750  0.750  0.758-  24 1.85  14 1.85
 104  0.094  0.625  0.721-  45 1.97  15 1.97  54 2.07
 105  0.906  0.625  0.721-  15 1.97  45 1.97  14 2.07
 106  0.750  0.000  0.243-  16 1.98  26 1.98
 107  0.750  0.000  0.327-  16 1.98  26 1.98  19 2.02
 108  0.098  0.875  0.285-   7 1.98  17 1.98  56 2.02
 109  0.902  0.875  0.285-   7 1.98  17 1.98  16 2.02
 110  0.000  0.000  0.351-  18 1.98  28 1.98  17 2.02
 111  0.000  0.000  0.434-  18 1.98  28 1.98  21 2.02
 112  0.848  0.875  0.393-   9 1.98  19 1.98  18 2.02
 113  0.152  0.875  0.393-  49 1.98  59 1.98  18 2.02
 114  0.750  0.000  0.458-  20 1.98  30 1.98  19 2.02
 115  0.750  0.000  0.542-  20 1.98  30 1.98  23 2.17
 116  0.098  0.875  0.500-  11 1.98  21 1.98  60 2.02
 117  0.902  0.875  0.500-  11 1.98  21 1.98  20 2.02
 118  0.000  0.000  0.567-  32 1.92  22 1.92  21 2.05
 119  0.000  0.000  0.651-  25 1.83  32 2.05  22 2.05
 120  0.850  0.875  0.608-  22 1.99  13 2.00  23 2.00
 121  0.150  0.875  0.608-  22 1.99  63 2.00  53 2.00
 122  0.750  0.000  0.673-  23 1.88  34 2.13  24 2.13
 123  0.750  1.000  0.758-  24 1.85  34 1.85
 124  0.094  0.875  0.721-  25 1.97  15 1.97  64 2.07
 125  0.906  0.875  0.721-  15 1.97  25 1.97  24 2.07
 126  0.750  0.250  0.243-  26 1.98  36 1.98
 127  0.750  0.250  0.327-  26 1.98  36 1.98  29 2.02
 128  0.098  0.125  0.285-  17 1.98  27 1.98  66 2.02
 129  0.902  0.125  0.285-  17 1.98  27 1.98  26 2.02
 130  0.000  0.250  0.351-  28 1.98  38 1.98  27 2.02
 131  0.000  0.250  0.434-  28 1.98  38 1.98  31 2.02
 132  0.848  0.125  0.393-  19 1.98  29 1.98  28 2.02
 133  0.152  0.125  0.393-  59 1.98  69 1.98  28 2.02
 134  0.750  0.250  0.458-  30 1.98  40 1.98  29 2.02
 135  0.750  0.250  0.542-  30 1.98  40 1.98  33 2.17
 136  0.098  0.125  0.500-  21 1.98  31 1.98  70 2.02
 137  0.902  0.125  0.500-  21 1.98  31 1.98  30 2.02
 138  0.000  0.250  0.567-  32 1.92  42 1.92  31 2.05
 139  0.000  0.250  0.651-  35 1.83  42 2.05  32 2.05
 140  0.850  0.125  0.608-  32 1.99  23 2.00  33 2.00
 141  0.150  0.125  0.608-  32 1.99  73 2.00  63 2.00
 142  0.750  0.250  0.673-  33 1.88  34 2.13  44 2.13
 143  0.750  0.250  0.758-  44 1.85  34 1.85
 144  0.094  0.125  0.721-  25 1.97  35 1.97  74 2.07
[...]
 231  0.500  0.500  0.434-  48 1.98  78 1.98  81 2.02
 232  0.348  0.375  0.393-  69 1.98  79 1.98  78 2.02
 233  0.652  0.375  0.393-  29 1.98  39 1.98  78 2.02
 234  0.250  0.500  0.458-  50 1.98  80 1.98  79 2.02
 235  0.250  0.500  0.542-  50 1.98  80 1.98  83 2.17
 236  0.598  0.375  0.500-  71 1.98  81 1.98  40 2.02
 237  0.402  0.375  0.500-  71 1.98  81 1.98  80 2.02
 238  0.500  0.500  0.567-  52 1.92  82 1.92  81 2.05
 239  0.500  0.500  0.651-  85 1.83  82 2.05  52 2.05
 240  0.350  0.375  0.608-  82 1.99  83 2.00  73 2.00
 241  0.650  0.375  0.608-  82 1.99  33 2.00  43 2.00
 242  0.250  0.500  0.673-  83 1.88  84 2.13  54 2.13
 243  0.250  0.500  0.758-  54 1.85  84 1.85
 244  0.594  0.375  0.721-  75 1.97  85 1.97  44 2.07
 245  0.406  0.375  0.721-  85 1.97  75 1.97  84 2.07

IMPORTANT INFORMATION: All symmetrisations will be switched off!
NOSYMM: (Re-)initialisation of all symmetry stuff for point group C_1.

                                     Primitive cell

  volume of cell :    4896.0359

  direct lattice vectors                    reciprocal lattice vectors
    13.251808214  0.000000000  0.000000000     0.075461400  0.000000000  0.000000000
     0.000000000 11.981455428  0.000000000     0.000000000  0.083462314  0.000000000
     0.000000000  0.000000000 30.836130416     0.000000000  0.000000000  0.032429491

  length of vectors
    13.251808214 11.981455428 30.836130416     0.075461400  0.083462314  0.032429491

  position of ions in fractional coordinates (direct lattice)
     0.500061663  0.500001941  0.812918883
     0.496186782  0.574809805  0.833326579
     0.503943977  0.425191710  0.833330382
     0.569253606  0.504232130  0.793398056
     0.430854078  0.495758339  0.793404619
     0.750000000  0.625000000  0.285125305
     0.000000000  0.750000000  0.285125305
     0.000000000  0.625000000  0.392562653
     0.750000000  0.750000000  0.392562653
     0.750000000  0.625000000  0.500000000
     0.000000000  0.750000000  0.500000000
     0.999999783  0.625000001  0.605415143
     0.750000059  0.750000045  0.612299575
     0.749999979  0.624999985  0.722555212
     0.999999987  0.749999999  0.710254076
     0.750000000  0.875000000  0.285125305
     0.000000000  0.000000000  0.285125305
     0.000000000  0.875000000  0.392562653
     0.750000000  0.000000000  0.392562653
     0.750000000  0.875000000  0.500000000
     0.000000000  0.000000000  0.500000000
     0.000000096  0.875000007  0.605415150
     0.749999916  0.999999960  0.612299606
     0.750000032  0.874999978  0.722555251
     0.000000049  0.000000006  0.710254087
     0.750000000  0.125000000  0.285125305
     0.000000000  0.250000000  0.285125305
     0.000000000  0.125000000  0.392562653
     0.750000000  0.250000000  0.392562653
     0.750000000  0.125000000  0.500000000
     0.000000000  0.250000000  0.500000000
     0.999999563  0.124999999  0.605415157
     0.749999603  0.250000064  0.612299578
     0.750000031  0.125000000  0.722555226
     0.000000041  0.250000001  0.710254079
     0.750000000  0.375000000  0.285125305
     0.000000000  0.500000000  0.285125305
     0.000000000  0.375000000  0.392562653
     0.750000000  0.500000000  0.392562653
     0.750000000  0.375000000  0.500000000
     0.000000000  0.500000000  0.500000000
     0.999999638  0.374999995  0.605415153
     0.749999749  0.499999924  0.612299590
     0.750000054  0.374999970  0.722555241
     0.000000014  0.499999998  0.710254077
     0.250000000  0.625000000  0.285125305
     0.500000000  0.750000000  0.285125305
     0.500000000  0.625000000  0.392562653
     0.250000000  0.750000000  0.392562653
     0.250000000  0.625000000  0.500000000
     0.500000000  0.750000000  0.500000000
     0.499999981  0.624999999  0.605415145
     0.250000064  0.749999950  0.612299588
     0.249999988  0.624999978  0.722555237
     0.500000009  0.750000003  0.710254081
     0.250000000  0.875000000  0.285125305
     0.500000000  0.000000000  0.285125305
     0.500000000  0.875000000  0.392562653
     0.250000000  0.000000000  0.392562653
     0.250000000  0.875000000  0.500000000
[...]
     0.500000000  0.500000000  0.434466779
     0.347508286  0.375000000  0.392562653
     0.652491714  0.375000000  0.392562653
     0.250000000  0.500000000  0.458095874
     0.250000000  0.500000000  0.541904126
     0.597508286  0.375000000  0.500000000
     0.402491714  0.375000000  0.500000000
     0.500000026  0.499999998  0.566523431
     0.500000050  0.500000001  0.650778877
     0.349910089  0.375000000  0.608432961
     0.650090245  0.374999990  0.608432981
     0.250000017  0.499999978  0.673369700
     0.250000013  0.499999980  0.757689651
[...]
   4.63694139  4.49304579 18.76171815
   8.61487125  4.49304567 18.76171875
   3.31295227  5.99072745 20.76411590
   3.31295223  5.99072748 23.36421690
   7.86747301  4.49304585 22.23209707
   5.38433593  4.49304573 22.23209688

--------------------------------------- Iteration      FINAL  ---------------------------------------

--------------------OUTCAR has been truncated-------------------------

[...]

--------------------OUTCAR has been truncated-------------------------

  FORCE on cell =-STRESS in cart. coord.  units (eV):
  Direction    XX          YY          ZZ          XY          YZ          ZX
  Alpha Z  4499.37619  4499.37619  4499.37619
  Ewald  931226.95687949328.58595************    -0.20352    -0.01909    20.76203
  Hartree972249.74839982219.33570************    -0.11527    -0.02538    11.37368
  E(xc)   -8820.19026 -8793.43237 -8819.97887    -0.00007     0.00008     0.04927
  Local  ************************************     0.32859     0.04663   -32.08621
  n-local -5456.77156 -5376.45399 -5493.85321    -0.00133     0.00009     0.34380
  augment  5303.03729  5284.96733  5307.81238    -0.00119    -0.00005     0.03945
  Kinetic 28696.43646 28223.03152 28730.98820    -0.00768    -0.00085    -1.19284
  Fock        0.00000     0.00000     0.00000     0.00000     0.00000     0.00000
  Total      11.64370   -32.29453   -34.23193    -0.00047     0.00142    -0.71082
  in kB       3.81028   -10.56805   -11.20205    -0.00015     0.00047    -0.23261

 VOLUME and BASIS-vectors are now :
  energy-cutoff  :      600.00
  volume of cell :     4896.04
      direct lattice vectors                 reciprocal lattice vectors
    13.251808214  0.000000000  0.000000000     0.075461400  0.000000000  0.000000000
     0.000000000 11.981455428  0.000000000     0.000000000  0.083462314  0.000000000
     0.000000000  0.000000000 30.836130416     0.000000000  0.000000000  0.032429491

  length of vectors
    13.251808214 11.981455428 30.836130416     0.075461400  0.083462314  0.032429491

 FORCES acting on ions:
    Electron-Ion                     Ewald-Force                    Non-Local-Force
   -.215E+00 0.798E-02 -.136E+04   0.200E+00 -.955E-02 0.136E+04   0.121E-01 -.181E-02 -.381E+00
   0.146E+01 -.433E+02 -.334E+03   -.164E+01 0.480E+02 0.337E+03   0.172E+00 -.465E+01 -.331E+01
   -.151E+01 0.433E+02 -.333E+03   0.168E+01 -.480E+02 0.337E+03   -.170E+00 0.465E+01 -.331E+01
   -.373E+02 -.157E+01 -.349E+03   0.421E+02 0.174E+01 0.346E+03   -.478E+01 -.169E+00 0.306E+01
   0.371E+02 0.158E+01 -.349E+03   -.419E+02 -.175E+01 0.346E+03   0.478E+01 0.169E+00 0.306E+01
   -.139E+00 -.479E-01 0.363E+04   0.139E+00 0.480E-01 -.364E+04   -.682E-04 -.325E-05 0.357E+00
   -.303E-02 -.618E-01 0.381E+04   0.304E-02 0.618E-01 -.380E+04   -.116E-04 -.209E-05 -.366E+01
   -.867E-01 -.619E-01 0.185E+04   0.875E-01 0.615E-01 -.185E+04   -.247E-03 0.835E-04 -.472E-01
   -.547E-01 -.792E-01 0.184E+04   0.544E-01 0.794E-01 -.185E+04   -.460E-03 -.151E-05 0.201E+00
   0.956E+00 -.298E+00 -.430E+01   -.974E+00 0.298E+00 0.512E+01   -.113E-02 -.243E-04 -.125E+00
   -.261E+01 -.400E+00 0.506E+01   0.266E+01 0.401E+00 -.613E+01   -.184E-01 -.784E-03 0.378E+00
   -.318E+02 -.116E+01 -.179E+04   0.317E+02 0.116E+01 0.179E+04   0.158E+00 -.541E-03 0.210E+00
   -.143E+02 -.289E+01 -.185E+04   0.142E+02 0.289E+01 0.185E+04   0.191E+00 0.998E-04 -.282E+00
   -.270E+02 -.114E+02 -.359E+04   0.270E+02 0.114E+02 0.359E+04   -.101E-01 0.186E-02 -.326E+00
   -.101E+01 -.436E+01 -.363E+04   0.101E+01 0.436E+01 0.363E+04   -.425E-02 -.864E-03 0.100E+01
   -.132E+00 -.473E-01 0.363E+04   0.132E+00 0.474E-01 -.364E+04   -.435E-04 -.493E-05 0.357E+00
   -.311E-02 0.460E-03 0.381E+04   0.312E-02 -.461E-03 -.380E+04   -.110E-04 0.287E-06 -.366E+01
   -.888E-01 -.575E-01 0.185E+04   0.897E-01 0.573E-01 -.185E+04   -.243E-03 0.538E-04 -.472E-01
   -.587E-01 0.211E-02 0.184E+04   0.583E-01 -.209E-02 -.185E+04   -.414E-03 -.580E-06 0.201E+00
   0.930E+00 -.294E+00 -.492E+01   -.949E+00 0.298E+00 0.574E+01   -.811E-03 -.188E-03 -.126E+00
   -.264E+01 0.102E-01 0.465E+01   0.269E+01 -.109E-01 -.572E+01   -.183E-01 0.245E-03 0.378E+00
   -.319E+02 -.976E+00 -.179E+04   0.318E+02 0.976E+00 0.179E+04   0.161E+00 -.153E-02 0.209E+00
   -.132E+02 0.899E-02 -.186E+04   0.131E+02 -.819E-02 0.186E+04   0.189E+00 -.129E-03 -.280E+00
   -.115E+02 -.820E+01 -.361E+04   0.115E+02 0.821E+01 0.361E+04   0.229E-02 -.789E-03 -.331E+00
   -.107E+01 -.401E-01 -.363E+04   0.107E+01 0.394E-01 0.363E+04   -.467E-02 0.179E-03 0.100E+01
   -.132E+00 0.478E-01 0.364E+04   0.132E+00 -.480E-01 -.364E+04   -.422E-04 0.458E-05 0.357E+00
   -.295E-02 0.618E-01 0.381E+04   0.296E-02 -.618E-01 -.380E+04   -.107E-04 0.191E-05 -.366E+01
   -.879E-01 0.614E-01 0.185E+04   0.887E-01 -.612E-01 -.185E+04   -.236E-03 -.544E-04 -.472E-01
   -.549E-01 0.794E-01 0.184E+04   0.546E-01 -.796E-01 -.185E+04   -.455E-03 0.168E-05 0.201E+00
   0.922E+00 0.309E+00 -.491E+01   -.942E+00 -.313E+00 0.573E+01   -.699E-03 0.171E-03 -.126E+00
   -.259E+01 0.406E+00 0.510E+01   0.264E+01 -.406E+00 -.617E+01   -.184E-01 0.446E-03 0.378E+00
   -.317E+02 0.104E+01 -.179E+04   0.317E+02 -.104E+01 0.179E+04   0.160E+00 0.139E-02 0.209E+00
   -.144E+02 0.291E+01 -.185E+04   0.143E+02 -.291E+01 0.185E+04   0.192E+00 0.968E-04 -.282E+00
   -.115E+02 0.818E+01 -.361E+04   0.115E+02 -.818E+01 0.361E+04   0.290E-02 0.704E-03 -.332E+00
   -.994E+00 0.441E+01 -.363E+04   0.997E+00 -.441E+01 0.363E+04   -.477E-02 0.921E-03 0.100E+01
   -.139E+00 0.473E-01 0.363E+04   0.139E+00 -.474E-01 -.364E+04   -.666E-04 0.354E-05 0.357E+00
   -.287E-02 -.462E-03 0.381E+04   0.288E-02 0.463E-03 -.380E+04   -.111E-04 -.882E-08 -.366E+01
   -.859E-01 0.580E-01 0.185E+04   0.867E-01 -.576E-01 -.185E+04   -.240E-03 -.829E-04 -.472E-01
   -.501E-01 -.228E-02 0.184E+04   0.501E-01 0.226E-02 -.185E+04   -.536E-03 0.342E-06 0.201E+00
   0.950E+00 0.283E+00 -.428E+01   -.968E+00 -.283E+00 0.509E+01   -.120E-02 0.420E-04 -.125E+00
   -.257E+01 -.169E-01 0.559E+01   0.262E+01 0.167E-01 -.666E+01   -.185E-01 0.992E-04 0.375E+00
   -.317E+02 0.111E+01 -.179E+04   0.316E+02 -.111E+01 0.179E+04   0.159E+00 0.491E-03 0.210E+00
   -.152E+02 -.944E-02 -.185E+04   0.151E+02 0.910E-02 0.185E+04   0.189E+00 -.296E-04 -.283E+00
   -.269E+02 0.115E+02 -.359E+04   0.269E+02 -.115E+02 0.359E+04   -.932E-02 -.156E-02 -.327E+00
   -.914E+00 -.185E-01 -.363E+04   0.916E+00 0.195E-01 0.363E+04   -.490E-02 -.209E-03 0.993E+00
   0.147E+00 -.481E-01 0.363E+04   -.147E+00 0.482E-01 -.364E+04   -.309E-04 -.643E-05 0.357E+00
   -.505E-02 -.731E-01 0.381E+04   0.493E-02 0.733E-01 -.380E+04   0.185E-05 -.216E-04 -.366E+01
   -.982E-01 -.512E-01 0.185E+04   0.988E-01 0.530E-01 -.185E+04   -.183E-03 -.344E-03 -.472E-01
   0.236E+00 -.819E-01 0.184E+04   -.236E+00 0.821E-01 -.185E+04   -.509E-03 -.299E-05 0.201E+00
   0.210E+01 -.318E+00 -.425E+01   -.212E+01 0.319E+00 0.506E+01   -.120E-02 -.935E-04 -.125E+00
   -.268E+01 -.393E+00 0.627E+01   0.273E+01 0.389E+00 -.732E+01   -.179E-01 0.326E-02 0.374E+00
   -.316E+02 -.244E+01 -.178E+04   0.315E+02 0.245E+01 0.178E+04   0.163E+00 -.638E-02 0.208E+00
   -.713E+01 -.275E+01 -.185E+04   0.699E+01 0.275E+01 0.185E+04   0.192E+00 -.130E-02 -.280E+00
   0.261E+02 -.117E+02 -.359E+04   -.261E+02 0.117E+02 0.359E+04   -.729E-02 0.143E-02 -.328E+00
   -.110E+01 -.260E+02 -.360E+04   0.110E+01 0.260E+02 0.360E+04   -.451E-02 0.241E-03 0.102E+01
   0.140E+00 -.474E-01 0.364E+04   -.140E+00 0.475E-01 -.364E+04   -.578E-04 -.327E-05 0.357E+00
   -.497E-02 0.454E-03 0.381E+04   0.485E-02 -.451E-03 -.380E+04   0.538E-07 -.364E-06 -.366E+01
   -.968E-01 -.498E-01 0.185E+04   0.974E-01 0.508E-01 -.185E+04   -.199E-03 -.231E-03 -.473E-01
   0.240E+00 0.322E-02 0.184E+04   -.240E+00 -.323E-02 -.185E+04   -.564E-03 -.572E-05 0.201E+00
   0.215E+01 -.313E+00 -.491E+01   -.217E+01 0.316E+00 0.573E+01   -.129E-02 -.153E-03 -.126E+00
[...]
   -.560E+02 0.313E-01 0.111E+04   0.601E+02 -.315E-01 -.111E+04   -.376E+01 0.350E-03 0.160E+00
   0.560E+02 0.309E-01 0.111E+04   -.602E+02 -.311E-01 -.111E+04   0.376E+01 0.388E-03 0.160E+00
   0.511E+00 -.513E-02 0.486E+03   -.522E+00 0.534E-02 -.491E+03   0.160E-01 -.495E-03 0.433E+01
   -.720E-01 -.106E-01 -.507E+03   0.355E+00 0.996E-02 0.515E+03   -.286E+00 0.698E-03 -.750E+01
   -.580E+02 0.112E+00 0.221E+01   0.629E+02 -.113E+00 -.243E+01   -.538E+01 0.443E-02 0.319E+00
   0.577E+02 0.113E+00 0.526E+01   -.627E+02 -.113E+00 -.558E+01   0.540E+01 0.452E-02 0.437E+00
   -.189E+02 -.148E-01 -.598E+03   0.207E+02 0.185E-01 0.591E+03   -.181E+01 -.456E-02 0.669E+01
   -.113E+02 0.973E-01 -.153E+04   0.125E+02 -.103E+00 0.152E+04   -.116E+01 0.377E-02 0.281E+01
   0.105E+02 0.146E+01 -.108E+04   -.121E+02 -.147E+01 0.108E+04   0.160E+01 0.138E-01 0.729E+00
   0.673E+02 0.135E+01 -.108E+04   -.749E+02 -.136E+01 0.108E+04   0.760E+01 0.911E-02 0.127E+01
   0.224E+01 -.224E-01 -.173E+04   -.170E+01 0.256E-01 0.174E+04   -.540E+00 -.366E-02 -.240E+01
   0.330E+02 0.228E-01 -.260E+04   -.330E+02 -.265E-01 0.262E+04   0.626E-01 0.342E-02 -.204E+02
   -.382E+02 0.157E+02 -.222E+04   0.442E+02 -.157E+02 0.223E+04   -.604E+01 -.119E-01 -.381E+01
   0.367E+02 0.158E+02 -.222E+04   -.425E+02 -.157E+02 0.223E+04   0.580E+01 -.176E-01 -.383E+01
   -.439E+02 -.820E-03 0.943E+02   0.163E-12 -.420E-11 -.455E-12   0.439E+02 0.100E-02 -.943E+02

 POSITION                                       TOTAL-FORCE (eV/Angst)
      6.62686      5.99080     25.51970        -0.002868     -0.003358     -0.001912
      6.59399      6.88382     26.15201         0.000418      0.006691     -0.006167
      6.65945      5.09766     26.15204         0.000627     -0.003839     -0.007777
      7.53409      6.02333     24.90557        -0.002330     -0.000447     -0.007138
      5.72003      5.95816     24.90498         0.006255      0.001071     -0.005260
      9.93886      7.48841      8.79216         0.000123      0.000105     -3.341587
      0.00000      8.98609      8.79216         0.000078      0.000040      2.736797
      0.00000      7.48841     12.10511         0.000693     -0.000291      0.492459
      9.93886      8.98609     12.10511        -0.000641      0.000191     -0.680884
      9.93886      7.48841     15.41807        -0.019379      0.000073      0.689173
      0.00000      8.98609     15.41807         0.030580      0.000469     -0.697901
     -0.12016      7.48844     18.66231        -0.000186      0.000247      0.000293
      9.84724      8.98607     18.87531        -0.003463      0.001086      0.002835
      9.95407      7.48903     22.27314        -0.003382      0.001504      0.000360
      0.01225      8.98705     21.89349        -0.002111     -0.000958      0.001364
      9.93886     10.48377      8.79216         0.000080      0.000104     -3.341569
      0.00000      0.00000      8.79216         0.000077     -0.000001      2.736761
      0.00000     10.48377     12.10511         0.000720     -0.000172      0.492160
      9.93886      0.00000     12.10511        -0.000780      0.000012     -0.680717
      9.93886     10.48377     15.41807        -0.019884      0.003686      0.691661
      0.00000      0.00000     15.41807         0.030557     -0.000519     -0.697596
     -0.12088     10.48386     18.66303         0.004938     -0.001061     -0.001349
      9.84722      0.00001     18.87631        -0.007245      0.000761      0.003511
      9.95090     10.48385     22.27597         0.000723      0.002233      0.002631
      0.01201     -0.00002     21.89341        -0.001447     -0.000501      0.003583
      9.93886      1.49768      8.79216         0.000080     -0.000116     -3.341562
      0.00000      2.99536      8.79216         0.000077     -0.000042      2.736802
      0.00000      1.49768     12.10511         0.000701      0.000172      0.492133
      9.93886      2.99536     12.10511        -0.000652     -0.000193     -0.680898
      9.93886      1.49768     15.41807        -0.020132     -0.003753      0.691562
      0.00000      2.99536     15.41807         0.030266      0.000128     -0.698470
     -0.12037      1.49759     18.66275         0.000901      0.000331      0.000029
      9.84744      2.99541     18.87519        -0.001233     -0.001725      0.003296
      9.95063      1.49772     22.27582         0.000249     -0.001235      0.003297
      0.01175      2.99443     21.89339        -0.001943      0.000739      0.000168
      9.93886      4.49305      8.79216         0.000123     -0.000096     -3.341581
      0.00000      5.99073      8.79216         0.000079     -0.000000      2.736828
      0.00000      4.49305     12.10511         0.000674      0.000289      0.492470
      9.93886      5.99073     12.10511        -0.000511     -0.000013     -0.681159
      9.93886      4.49305     15.41807        -0.019234     -0.000008      0.689076
      0.00000      5.99073     15.41807         0.030359     -0.000086     -0.698588
     -0.11999      4.49302     18.66251        -0.001312      0.000494     -0.001109
      9.84738      5.99066     18.87530         0.002794     -0.000394      0.000136
      9.95352      4.49265     22.27327        -0.003118     -0.002373      0.001459
      0.01205      5.99069     21.89325        -0.002588      0.000720      0.001033
      3.31295      7.48841      8.79216         0.000003      0.000098     -3.341474
      6.62590      8.98609      8.79216        -0.000038      0.000108      2.737007
      6.62590      7.48841     12.10511         0.000413      0.001459      0.492109
      3.31295      8.98609     12.10511        -0.000469      0.000226     -0.680450
      3.31295      7.48841     15.41807        -0.017992      0.000805      0.690242
      6.62590      8.98609     15.41807         0.029815     -0.001074     -0.690028
      6.50493      7.48724     18.66618         0.004967      0.000306      0.002067
      3.22093      8.98630     18.87549        -0.004493      0.000469      0.000623
      3.32512      7.48892     22.27324         0.002945      0.001529      0.001475
      6.63825      8.98523     21.89188        -0.004318     -0.003369      0.002564
      3.31295     10.48377      8.79216         0.000043      0.000082     -3.341408
      6.62590      0.00000      8.79216        -0.000039      0.000002      2.737071
      6.62590     10.48377     12.10511         0.000399      0.000761      0.493283
      3.31295      0.00000     12.10511        -0.000330     -0.000017     -0.680350
      3.31295     10.48377     15.41807        -0.018141      0.003343      0.692870
[...]
      6.62590      5.99073     13.39727        -0.000892      0.000009     -0.095425
      4.60511      4.49305     12.10511         0.421008      0.000115      0.050178
      8.64670      4.49305     12.10511        -0.420017      0.000149      0.050097
      3.31295      5.99073     14.12590         0.005564     -0.000285     -0.127163
      3.31295      5.99073     16.71023        -0.002607      0.000041     -0.045491
      7.91807      4.49305     15.41807        -0.470784      0.003752      0.101976
      5.33374      4.49305     15.41807         0.471092      0.003839      0.108484
      6.62651      5.99085     17.46745         0.000400     -0.000850     -0.008134
      6.62807      5.99090     20.06470        -0.003349     -0.001847     -0.002631
      4.63849      4.49307     18.75103         0.002235      0.001311      0.001916
      8.63077      4.49300     18.76381        -0.003958      0.001972      0.000130
      3.31187      5.99091     20.75715         0.004534     -0.000528      0.000457
      3.32633      5.99049     23.35749        -0.002117     -0.000322      0.001624
      7.87849      4.49019     22.21649        -0.001011      0.002447      0.001903
      5.39208      4.48980     22.21777        -0.001966      0.001761      0.001748
    total drift:                               -0.021607      0.000180      0.024569

  FREE ENERGIE OF THE ION-ELECTRON SYSTEM (eV)
  free  energy   TOTEN  =     -1588.80158540 eV

  energy  without entropy=    -1588.80158540  energy(sigma->0) =    -1588.80158540

 d Force = 0.8025517E-04[ 0.529E-04, 0.108E-03]  d Energy = 0.7482010E-04 0.544E-05
 d Force =-0.2716502E+02[-0.272E+02,-0.272E+02]  d Ewald  =-0.2716502E+02 0.525E-06

 Conjugate gradient step on ions:
 trial-energy change:   -0.000075  1 .order   -0.000080   -0.000108   -0.000053
  (g-gl).g = 0.168E-03      g.g   = 0.179E-03  gl.gl    = 0.199E-03
 g(Force)  = 0.179E-03   g(Stress)= 0.000E+00 ortho     = 0.851E-05
 gamma     =   0.84243
 trial     =   0.57785
 opt step  =   1.13740  (harmonic =   1.13740) maximal distance =0.00043426
 next E    = -1588.801616   (d E  =  -0.00011)

 reached required accuracy - stopping structural energy minimisation