 vasp.6.3.0 20Jan22 (build Apr  1 2022 16:44:48) complex
 executed on        HPECrayEX_GCC date 2023.02.26  11:41:26

 INCAR:
   SYSTEM = MgO-rocksalt
   ISMEAR = 0
   SIGMA = 0.05
   EDIFF = 1E-7
   ALGO = ALL
   ISTART = 0
   IBRION = 2
   NSW = 1000
   ISYM = 0
   ISIF = 2
   EDIFFG = -0.01
   DIPOL = 0.5 0.5 0.5
   IDIPOL = 3
   LDIPOL = .TRUE.
   GGA = RE
   IVDW = 13
   VDW_S8 = 1.7468
   VDW_A1 = 0.5363
   VDW_A2 = 3.0726
   ENCUT = 600
   PREC = Accurate
   LASPH = .TRUE.
   LREAL = .FALSE.
   ISPIN = 1
   NELM = 200
   NELMIN = 8
   NCORE = 8
   KPAR = 1
   LWAVE = .FALSE.
   LCHARG = .FALSE.

 POTCAR:    PAW_PBE N 08Apr2002
 POTCAR:    PAW_PBE O 08Apr2002
 POTCAR:    PAW_PBE Mg_pv 13Apr2007
 POTCAR:    PAW_PBE O 08Apr2002
 POTCAR:    PAW_PBE N 08Apr2002
   VRHFIN =N: s2p3

   TITEL  = PAW_PBE N 08Apr2002
   POMASS =   14.001; ZVAL   =    5.000    mass and valenz
   ENMAX  =  400.000; ENMIN  =  300.000 eV

[...]

   TITEL  = PAW_PBE Mg_pv 13Apr2007
   POMASS =   24.305; ZVAL   =    8.000    mass and valenz
   ENMAX  =  403.929; ENMIN  =  302.947 eV

   TITEL  = PAW_PBE O 08Apr2002
   POMASS =   16.000; ZVAL   =    6.000    mass and valenz
   ENMAX  =  400.000; ENMIN  =  300.000 eV

  PAW_PBE N 08Apr2002                   :
  PAW_PBE O 08Apr2002                   :
  PAW_PBE Mg_pv 13Apr2007               :
  PAW_PBE O 08Apr2002                   :

 POSCAR:  N  O Mg  O
  positions in direct lattice
|           W    W    AA    RRRRR   N    N  II  N    N   GGGG   !!!           |
|           W    W   A  A   R    R  NN   N  II  NN   N  G    G  !!!           |
|           W    W  A    A  R    R  N N  N  II  N N  N  G       !!!           |
|           W WW W  AAAAAA  RRRRR   N  N N  II  N  N N  G  GGG   !            |
|           WW  WW  A    A  R   R   N   NN  II  N   NN  G    G                |
|           W    W  A    A  R    R  N    N  II  N    N   GGGG   !!!           |
|     Specifying the vdW parameters                                           |
|     VDW_S8 = 1.747                                                          |
|     VDW_A1 = 0.536                                                          |
|     VDW_A2 = 3.073                                                          |
|     in the INCAR file will overwrite the defaults for revpbe. Please        |
|     make sure that is what you intended.                                    |

 ion  position               nearest neighbor table
   1  0.493  0.520  0.766-   2 1.14
   2  0.471  0.594  0.810-   1 1.14   3 1.20
   3  0.448  0.673  0.856-   2 1.20
   4  0.000  0.750  0.352-  36 2.11  38 2.11  39 2.11  46 2.11  55 2.11
   5  0.250  0.000  0.352-  37 2.11  38 2.11  39 2.11  47 2.11  54 2.11
   6  0.000  0.000  0.451-  38 2.11  37 2.11  36 2.11  44 2.11  53 2.11  42 2.12
   7  0.250  0.750  0.451-  39 2.11  37 2.11  36 2.11  45 2.11  52 2.11  43 2.12
   8  0.000  0.750  0.550-  42 2.11  43 2.11  50 2.11  59 2.11  36 2.13  40 2.15
   9  0.250  0.000  0.550-  42 2.11  43 2.11  51 2.11  58 2.11  37 2.13  41 2.15
  10  0.000  0.000  0.649-  40 2.11  41 2.11  48 2.11  57 2.11  42 2.11
  11  0.250  0.750  0.649-  40 2.11  41 2.11  49 2.11  56 2.11  43 2.11
  12  0.000  0.250  0.352-  44 2.11  38 2.11  46 2.11  47 2.11  63 2.11
  13  0.250  0.500  0.352-  45 2.11  39 2.11  46 2.11  47 2.11  62 2.11
  14  0.000  0.500  0.451-  46 2.11  44 2.11  45 2.11  36 2.11  61 2.11  50 2.12
  15  0.250  0.250  0.451-  47 2.11  44 2.11  45 2.11  37 2.11  60 2.11  51 2.12
  16  0.000  0.250  0.550-  42 2.11  50 2.11  51 2.11  67 2.11  44 2.13  48 2.15
  17  0.250  0.500  0.550-  43 2.11  50 2.11  51 2.11  66 2.11  45 2.13  49 2.15
  18  0.000  0.500  0.649-  40 2.11  48 2.11  49 2.11  65 2.11  50 2.11
  19  0.250  0.250  0.649-  41 2.11  48 2.11  49 2.11  64 2.11  51 2.11
  20  0.500  0.750  0.352-  52 2.11  39 2.11  54 2.11  55 2.11  62 2.11
  21  0.750  0.000  0.352-  53 2.11  38 2.11  54 2.11  55 2.11  63 2.11
  22  0.500  0.000  0.451-  54 2.11  52 2.11  53 2.11  37 2.11  60 2.11  58 2.12
  23  0.750  0.750  0.451-  55 2.11  52 2.11  53 2.11  36 2.11  61 2.11  59 2.12
  24  0.500  0.750  0.550-  43 2.11  58 2.11  59 2.11  66 2.11  52 2.13  56 2.15
  25  0.750  0.000  0.550-  42 2.11  58 2.11  59 2.11  67 2.11  53 2.13  57 2.15
  26  0.500  0.000  0.649-  41 2.11  56 2.11  57 2.11  64 2.11  58 2.11
  27  0.750  0.750  0.649-  40 2.11  56 2.11  57 2.11  65 2.11  59 2.11
  28  0.500  0.250  0.352-  60 2.11  54 2.11  47 2.11  62 2.11  63 2.11
  29  0.750  0.500  0.352-  61 2.11  55 2.11  46 2.11  62 2.11  63 2.11
  30  0.500  0.500  0.451-  62 2.11  52 2.11  60 2.11  61 2.11  45 2.11  66 2.12
  31  0.750  0.250  0.451-  63 2.11  53 2.11  60 2.11  61 2.11  44 2.11  67 2.12
  32  0.500  0.250  0.550-  51 2.11  58 2.11  66 2.11  67 2.11  60 2.13  64 2.15
  33  0.750  0.500  0.550-  50 2.11  59 2.11  66 2.11  67 2.11  61 2.13  65 2.15
  34  0.500  0.500  0.649-  49 2.11  56 2.11  64 2.11  65 2.11  66 2.11
  35  0.750  0.250  0.649-  48 2.11  57 2.11  64 2.11  65 2.11  67 2.11
  36  0.000  0.750  0.451-   4 2.11   6 2.11   7 2.11  14 2.11  23 2.11   8 2.13
  37  0.250  0.000  0.451-   5 2.11   6 2.11   7 2.11  15 2.11  22 2.11   9 2.13
  38  0.000  0.000  0.352-   6 2.11   5 2.11   4 2.11  12 2.11  21 2.11
  39  0.250  0.750  0.352-   7 2.11   5 2.11   4 2.11  13 2.11  20 2.11
  40  0.000  0.750  0.651-  10 2.11  11 2.11  18 2.11  27 2.11   8 2.15
  41  0.250  0.000  0.651-  10 2.11  11 2.11  19 2.11  26 2.11   9 2.15
  42  0.000  0.000  0.550-   8 2.11   9 2.11  16 2.11  25 2.11  10 2.11   6 2.12
  43  0.250  0.750  0.550-   8 2.11   9 2.11  17 2.11  24 2.11  11 2.11   7 2.12
  44  0.000  0.250  0.451-  12 2.11   6 2.11  14 2.11  15 2.11  31 2.11  16 2.13
  45  0.250  0.500  0.451-  13 2.11   7 2.11  14 2.11  15 2.11  30 2.11  17 2.13
  46  0.000  0.500  0.352-  14 2.11  12 2.11  13 2.11   4 2.11  29 2.11
  47  0.250  0.250  0.352-  15 2.11  12 2.11  13 2.11   5 2.11  28 2.11
  48  0.000  0.250  0.651-  10 2.11  18 2.11  19 2.11  35 2.11  16 2.15
  49  0.250  0.500  0.651-  11 2.11  18 2.11  19 2.11  34 2.11  17 2.15
  50  0.000  0.500  0.550-   8 2.11  16 2.11  17 2.11  33 2.11  18 2.11  14 2.12
  51  0.250  0.250  0.550-   9 2.11  16 2.11  17 2.11  32 2.11  19 2.11  15 2.12
  52  0.500  0.750  0.451-  20 2.11   7 2.11  22 2.11  23 2.11  30 2.11  24 2.13
  53  0.750  0.000  0.451-  21 2.11   6 2.11  22 2.11  23 2.11  31 2.11  25 2.13
  54  0.500  0.000  0.352-  22 2.11  20 2.11  21 2.11   5 2.11  28 2.11
  55  0.750  0.750  0.352-  23 2.11  20 2.11  21 2.11   4 2.11  29 2.11
  56  0.500  0.750  0.651-  11 2.11  26 2.11  27 2.11  34 2.11  24 2.15
  57  0.750  0.000  0.651-  10 2.11  26 2.11  27 2.11  35 2.11  25 2.15
  58  0.500  0.000  0.550-   9 2.11  24 2.11  25 2.11  32 2.11  26 2.11  22 2.12
  59  0.750  0.750  0.550-   8 2.11  24 2.11  25 2.11  33 2.11  27 2.11  23 2.12
  60  0.500  0.250  0.451-  28 2.11  22 2.11  15 2.11  30 2.11  31 2.11  32 2.13
  61  0.750  0.500  0.451-  29 2.11  23 2.11  14 2.11  30 2.11  31 2.11  33 2.13
  62  0.500  0.500  0.352-  30 2.11  20 2.11  28 2.11  29 2.11  13 2.11
  63  0.750  0.250  0.352-  31 2.11  21 2.11  28 2.11  29 2.11  12 2.11
  64  0.500  0.250  0.651-  19 2.11  26 2.11  34 2.11  35 2.11  32 2.15
  65  0.750  0.500  0.651-  18 2.11  27 2.11  34 2.11  35 2.11  33 2.15
  66  0.500  0.500  0.550-  17 2.11  24 2.11  32 2.11  33 2.11  34 2.11  30 2.12
  67  0.750  0.250  0.550-  16 2.11  25 2.11  32 2.11  33 2.11  35 2.11  31 2.12

IMPORTANT INFORMATION: All symmetrisations will be switched off!
NOSYMM: (Re-)initialisation of all symmetry stuff for point group C_1.

                                     Primitive cell

  volume of cell :    1519.8199

  direct lattice vectors                    reciprocal lattice vectors
     8.440984654  0.000000000  0.000000000     0.118469591  0.000000000  0.000000000
     0.000000000  8.440984654  0.000000000     0.000000000  0.118469591  0.000000000
     0.000000000  0.000000000 21.330738491     0.000000000  0.000000000  0.046880702

  length of vectors
     8.440984654  8.440984654 21.330738491     0.118469591  0.118469591  0.046880702

  position of ions in fractional coordinates (direct lattice)
     0.493210163  0.519501561  0.766066603
     0.471081529  0.594056392  0.810027792
     0.447687332  0.672841484  0.855966596
     0.000000000  0.750000000  0.351605267
     0.250000000  0.000000000  0.351605267
     0.000000000  0.000000000  0.450535089
     0.250000000  0.750000000  0.450535089
     0.000000000  0.750000000  0.550171424
     0.250000000  0.000000000  0.550171424
     0.000000000  0.000000000  0.648861363
     0.250000000  0.750000000  0.648861363
     0.000000000  0.250000000  0.351605267
     0.250000000  0.500000000  0.351605267
     0.000000000  0.500000000  0.450535089
     0.250000000  0.250000000  0.450535089
     0.000000000  0.250000000  0.550171424
     0.250000000  0.500000000  0.550171424
     0.000000000  0.500000000  0.648861363
     0.250000000  0.250000000  0.648861363
     0.500000000  0.750000000  0.351605267
     0.750000000  0.000000000  0.351605267
     0.500000000  0.000000000  0.450535089
     0.750000000  0.750000000  0.450535089
     0.500000000  0.750000000  0.550171424
     0.750000000  0.000000000  0.550171424
     0.500000000  0.000000000  0.648861363
     0.750000000  0.750000000  0.648861363
     0.500000000  0.250000000  0.351605267
     0.750000000  0.500000000  0.351605267
     0.500000000  0.500000000  0.450535089
     0.750000000  0.250000000  0.450535089
     0.500000000  0.250000000  0.550171424
     0.750000000  0.500000000  0.550171424
     0.500000000  0.500000000  0.648861363
     0.750000000  0.250000000  0.648861363
     0.000000000  0.750000000  0.450535089
     0.250000000  0.000000000  0.450535089
     0.000000000  0.000000000  0.351605267
     0.250000000  0.750000000  0.351605267
     0.000000000  0.750000000  0.651006323
     0.250000000  0.000000000  0.651006323
     0.000000000  0.000000000  0.549890244
     0.250000000  0.750000000  0.549890244
     0.000000000  0.250000000  0.450535089
     0.250000000  0.500000000  0.450535089
     0.000000000  0.500000000  0.351605267
     0.250000000  0.250000000  0.351605267
     0.000000000  0.250000000  0.651006323
     0.250000000  0.500000000  0.651006323
     0.000000000  0.500000000  0.549890244
     0.250000000  0.250000000  0.549890244
     0.500000000  0.750000000  0.450535089
     0.750000000  0.000000000  0.450535089
     0.500000000  0.000000000  0.351605267
     0.750000000  0.750000000  0.351605267
     0.500000000  0.750000000  0.651006323
     0.750000000  0.000000000  0.651006323
     0.500000000  0.000000000  0.549890244
     0.750000000  0.750000000  0.549890244
     0.500000000  0.250000000  0.450535089
     0.750000000  0.500000000  0.450535089
     0.500000000  0.500000000  0.351605267
     0.750000000  0.250000000  0.351605267
     0.500000000  0.250000000  0.651006323
     0.750000000  0.500000000  0.651006323
     0.500000000  0.500000000  0.549890244
     0.750000000  0.250000000  0.549890244

  ion indices of the primitive-cell ions
   primitive index   ion index
                 1           1
                 2           2
[...]
   2.11024616  4.22049233 11.73556278
   0.00000000  4.22049233 13.84069205
   2.11024616  2.11024616 13.84069205
   4.22049233  6.33073849  7.50000000
   6.33073849  0.00000000  7.50000000
   4.22049233  0.00000000  9.61024616
   6.33073849  6.33073849  9.61024616
   4.22049233  6.33073849 11.73556278
   6.33073849  0.00000000 11.73556278
   4.22049233  0.00000000 13.84069205
   6.33073849  6.33073849 13.84069205
   4.22049233  2.11024616  7.50000000
   6.33073849  4.22049233  7.50000000
   4.22049233  4.22049233  9.61024616
   6.33073849  2.11024616  9.61024616
   4.22049233  2.11024616 11.73556278
   6.33073849  4.22049233 11.73556278
   4.22049233  4.22049233 13.84069205
   6.33073849  2.11024616 13.84069205
   0.00000000  6.33073849  9.61024616
   2.11024616  0.00000000  9.61024616
   0.00000000  0.00000000  7.50000000
   2.11024616  6.33073849  7.50000000
   0.00000000  6.33073849 13.88644563
   2.11024616  0.00000000 13.88644563
   0.00000000  0.00000000 11.72956500
   2.11024616  6.33073849 11.72956500
   0.00000000  2.11024616  9.61024616
   2.11024616  4.22049233  9.61024616
   0.00000000  4.22049233  7.50000000
   2.11024616  2.11024616  7.50000000
   0.00000000  2.11024616 13.88644563
   2.11024616  4.22049233 13.88644563
   0.00000000  4.22049233 11.72956500
   2.11024616  2.11024616 11.72956500
   4.22049233  6.33073849  9.61024616
   6.33073849  0.00000000  9.61024616
   4.22049233  0.00000000  7.50000000
   6.33073849  6.33073849  7.50000000
   4.22049233  6.33073849 13.88644563
   6.33073849  0.00000000 13.88644563
   4.22049233  0.00000000 11.72956500
   6.33073849  6.33073849 11.72956500
   4.22049233  2.11024616  9.61024616
   6.33073849  4.22049233  9.61024616
   4.22049233  4.22049233  7.50000000
   6.33073849  2.11024616  7.50000000
   4.22049233  2.11024616 13.88644563
   6.33073849  4.22049233 13.88644563
   4.22049233  4.22049233 11.72956500
   6.33073849  2.11024616 11.72956500

--------------------------------------- Iteration      FINAL  ---------------------------------------

--------------------OUTCAR has been truncated-------------------------

[...]

--------------------OUTCAR has been truncated-------------------------

  FORCE on cell =-STRESS in cart. coord.  units (eV):
  Direction    XX          YY          ZZ          XY          YZ          ZX
  Alpha Z   926.74691   926.74691   926.74691
  Ewald  154509.76917154757.31269************   -75.89007   382.16844  -114.44771
  Hartree165180.67055165300.78225************   -34.12593   174.44832   -52.59917
  E(xc)   -2538.79769 -2537.96818 -2544.86910    -0.27104     1.33782    -0.39892
  Local  ************************328834.32124   102.15159  -517.95518   155.55630
  n-local -2839.77898 -2841.23009 -2863.98490     0.47032    -2.35091     0.70066
  augment  1055.43684  1054.59461  1044.00968     0.27715    -1.32437     0.39241
  Kinetic  7657.86611  7635.47382  7645.49679     7.36540   -36.25759    10.79049
  Fock        0.00000     0.00000     0.00000     0.00000     0.00000     0.00000
  vdW       -21.64918   -21.67313   -16.95804     0.00644    -0.03474     0.01118
  Total     -26.21327   -26.20721    -1.85121    -0.01614     0.03179     0.00524
  in kB     -27.63374   -27.62736    -1.95152    -0.01701     0.03351     0.00553

 VOLUME and BASIS-vectors are now :
  energy-cutoff  :      600.00
  volume of cell :     1519.82
      direct lattice vectors                 reciprocal lattice vectors
     8.440984654  0.000000000  0.000000000     0.118469591  0.000000000  0.000000000
     0.000000000  8.440984654  0.000000000     0.000000000  0.118469591  0.000000000
     0.000000000  0.000000000 21.330738491     0.000000000  0.000000000  0.046880702

  length of vectors
     8.440984654  8.440984654 21.330738491     0.118469591  0.118469591  0.046880702

 FORCES acting on ions:
    Electron-Ion                     Ewald-Force                    Non-Local-Force
   -.482E+02 0.161E+03 -.108E+04   0.563E+02 -.189E+03 0.104E+04   -.811E+01 0.273E+02 0.397E+02
   -.442E+01 0.146E+02 -.106E+04   0.429E+01 -.141E+02 0.106E+04   0.121E+00 -.491E+00 -.355E+00
   0.505E+02 -.169E+03 -.125E+04   -.612E+02 0.205E+03 0.130E+04   0.107E+02 -.360E+02 -.526E+02
   0.541E-01 -.159E+00 0.208E+04   -.545E-01 0.157E+00 -.207E+04   0.221E-03 0.131E-02 -.715E+01
   0.214E+00 -.143E+00 0.208E+04   -.211E+00 0.143E+00 -.207E+04   -.161E-02 -.536E-03 -.715E+01
   0.155E+00 -.412E+00 0.726E+03   -.159E+00 0.422E+00 -.726E+03   0.255E-02 -.740E-02 0.539E+00
   0.776E+00 -.597E+00 0.728E+03   -.748E+00 0.575E+00 -.729E+03   -.202E-01 0.149E-01 0.545E+00
   0.805E+00 -.349E+01 -.616E+03   -.816E+00 0.346E+01 0.616E+03   0.108E-01 0.263E-01 -.113E+00
   0.421E+01 -.206E+01 -.617E+03   -.418E+01 0.209E+01 0.617E+03   -.259E-01 -.257E-01 -.125E+00
   0.222E+01 -.562E+01 -.197E+04   -.223E+01 0.564E+01 0.197E+04   0.439E-02 -.217E-01 0.609E+01
   0.300E+02 -.240E+02 -.193E+04   -.301E+02 0.240E+02 0.192E+04   0.935E-01 -.530E-01 0.618E+01
   0.492E-01 0.159E+00 0.208E+04   -.494E-01 -.157E+00 -.207E+04   0.101E-03 -.134E-02 -.716E+01
   0.225E+00 0.143E+00 0.208E+04   -.220E+00 -.144E+00 -.207E+04   -.360E-02 0.474E-03 -.717E+01
   0.182E+00 0.414E+00 0.727E+03   -.180E+00 -.424E+00 -.728E+03   -.127E-02 0.697E-02 0.490E+00
   0.675E+00 0.591E+00 0.727E+03   -.662E+00 -.569E+00 -.728E+03   -.886E-02 -.157E-01 0.525E+00
   0.576E+00 0.346E+01 -.620E+03   -.581E+00 -.344E+01 0.620E+03   0.467E-02 -.252E-01 -.138E+00
   0.615E+01 0.216E+01 -.609E+03   -.603E+01 -.219E+01 0.609E+03   -.126E+00 0.255E-01 -.279E+00
   0.355E+01 0.602E+01 -.196E+04   -.359E+01 -.605E+01 0.195E+04   0.386E-01 0.221E-01 0.610E+01
   0.220E+02 0.219E+02 -.195E+04   -.220E+02 -.220E+02 0.195E+04   -.129E-01 0.509E-01 0.616E+01
   -.545E-01 -.171E+00 0.208E+04   0.547E-01 0.166E+00 -.207E+04   -.164E-03 0.339E-02 -.717E+01
   -.214E+00 -.138E+00 0.208E+04   0.211E+00 0.138E+00 -.207E+04   0.162E-02 -.414E-03 -.716E+01
   -.157E+00 -.511E+00 0.728E+03   0.160E+00 0.503E+00 -.728E+03   -.227E-02 0.595E-02 0.490E+00
   -.774E+00 -.569E+00 0.728E+03   0.744E+00 0.552E+00 -.728E+03   0.211E-01 0.120E-01 0.544E+00
   -.856E+00 -.541E+01 -.607E+03   0.867E+00 0.528E+01 0.607E+03   -.103E-01 0.120E+00 -.163E+00
   -.419E+01 -.183E+01 -.618E+03   0.416E+01 0.185E+01 0.618E+03   0.258E-01 -.195E-01 -.128E+00
   -.249E+01 -.115E+02 -.195E+04   0.249E+01 0.116E+02 0.194E+04   -.412E-02 -.137E+00 0.610E+01
   -.289E+02 -.218E+02 -.194E+04   0.290E+02 0.218E+02 0.193E+04   -.892E-01 -.173E-01 0.617E+01
   -.493E-01 0.170E+00 0.208E+04   0.495E-01 -.166E+00 -.207E+04   -.114E-03 -.316E-02 -.717E+01
   -.225E+00 0.138E+00 0.208E+04   0.220E+00 -.139E+00 -.207E+04   0.355E-02 0.421E-03 -.717E+01
   -.183E+00 0.511E+00 0.728E+03   0.183E+00 -.508E+00 -.729E+03   0.534E-03 -.282E-02 0.586E+00
   -.674E+00 0.565E+00 0.727E+03   0.661E+00 -.547E+00 -.728E+03   0.867E-02 -.119E-01 0.516E+00
   -.602E+00 0.533E+01 -.610E+03   0.607E+00 -.521E+01 0.611E+03   -.445E-02 -.120E+00 -.472E+00
   -.612E+01 0.191E+01 -.610E+03   0.599E+01 -.193E+01 0.610E+03   0.126E+00 0.195E-01 -.367E+00
   -.589E+01 0.181E+02 -.186E+04   0.594E+01 -.182E+02 0.186E+04   -.420E-01 0.154E+00 0.529E+01
   -.216E+02 0.203E+02 -.196E+04   0.216E+02 -.203E+02 0.195E+04   0.128E-01 0.191E-01 0.615E+01
   0.124E+00 -.473E+00 0.545E+03   -.123E+00 0.461E+00 -.545E+03   -.119E-02 0.160E-01 -.611E-01
   0.583E+00 -.312E+00 0.545E+03   -.572E+00 0.314E+00 -.545E+03   -.163E-01 -.221E-02 -.711E-01
   0.377E-01 -.100E+00 0.156E+04   -.382E-01 0.102E+00 -.157E+04   0.682E-03 -.221E-02 0.341E+01
   0.169E+00 -.124E+00 0.156E+04   -.164E+00 0.120E+00 -.157E+04   -.635E-02 0.507E-02 0.341E+01
   0.297E+01 -.909E+01 -.149E+04   -.298E+01 0.905E+01 0.150E+04   0.123E-01 0.415E-01 -.493E+01
   0.116E+02 -.750E+01 -.149E+04   -.116E+02 0.752E+01 0.150E+04   -.480E-01 -.229E-01 -.493E+01
   0.470E+00 -.125E+01 -.461E+03   -.472E+00 0.126E+01 0.461E+03   0.221E-02 -.117E-01 0.253E+00
   0.403E+01 -.334E+01 -.451E+03   -.402E+01 0.333E+01 0.451E+03   -.709E-02 0.154E-01 0.414E+00
   0.104E+00 0.473E+00 0.544E+03   -.105E+00 -.462E+00 -.544E+03   0.221E-02 -.149E-01 -.889E-01
   0.669E+00 0.318E+00 0.546E+03   -.687E+00 -.321E+00 -.545E+03   0.238E-01 0.457E-02 -.132E+00
   0.403E-01 0.101E+00 0.156E+04   -.403E-01 -.102E+00 -.157E+04   0.925E-04 0.224E-02 0.341E+01
   0.158E+00 0.123E+00 0.156E+04   -.155E+00 -.120E+00 -.157E+04   -.402E-02 -.494E-02 0.341E+01
   0.175E+01 0.876E+01 -.150E+04   -.175E+01 -.872E+01 0.150E+04   0.213E-02 -.458E-01 -.493E+01
   0.322E+02 0.917E+01 -.146E+04   -.320E+02 -.919E+01 0.146E+04   -.230E+00 0.134E-01 -.493E+01
   0.550E+00 0.127E+01 -.455E+03   -.556E+00 -.128E+01 0.455E+03   0.717E-02 0.896E-02 0.306E+00
   0.358E+01 0.326E+01 -.455E+03   -.355E+01 -.325E+01 0.455E+03   -.315E-01 -.185E-01 0.311E+00
   -.128E+00 -.559E+00 0.546E+03   0.129E+00 0.580E+00 -.546E+03   -.109E-02 -.271E-01 -.136E+00
   -.583E+00 -.293E+00 0.545E+03   0.572E+00 0.296E+00 -.545E+03   0.156E-01 -.555E-02 -.801E-01
   -.377E-01 -.111E+00 0.156E+04   0.382E-01 0.111E+00 -.157E+04   -.700E-03 -.134E-03 0.341E+01
   -.168E+00 -.121E+00 0.156E+04   0.164E+00 0.118E+00 -.157E+04   0.625E-02 0.437E-02 0.341E+01
   -.395E+01 -.311E+02 -.144E+04   0.396E+01 0.309E+02 0.145E+04   -.573E-02 0.266E+00 -.487E+01
   -.114E+02 -.622E+01 -.150E+04   0.113E+02 0.623E+01 0.150E+04   0.487E-01 -.138E-01 -.493E+01
   -.484E+00 -.162E+01 -.454E+03   0.486E+00 0.165E+01 0.454E+03   -.219E-02 -.276E-01 0.307E+00
   -.399E+01 -.323E+01 -.453E+03   0.399E+01 0.321E+01 0.453E+03   0.795E-02 0.228E-01 0.371E+00
   -.104E+00 0.548E+00 0.545E+03   0.105E+00 -.562E+00 -.545E+03   -.172E-02 0.188E-01 -.134E+00
   -.665E+00 0.294E+00 0.545E+03   0.682E+00 -.297E+00 -.545E+03   -.218E-01 0.530E-02 -.133E+00
   -.405E-01 0.112E+00 0.156E+04   0.405E-01 -.112E+00 -.157E+04   0.468E-06 -.229E-03 0.340E+01
   -.158E+00 0.121E+00 0.156E+04   0.155E+00 -.118E+00 -.157E+04   0.403E-02 -.435E-02 0.341E+01
   -.210E+01 0.268E+02 -.147E+04   0.210E+01 -.266E+02 0.147E+04   -.275E-02 -.185E+00 -.498E+01
   -.306E+02 0.746E+01 -.146E+04   0.305E+02 -.747E+01 0.147E+04   0.207E+00 0.111E-01 -.496E+01
   -.591E+00 0.172E+01 -.452E+03   0.598E+00 -.174E+01 0.452E+03   -.863E-02 0.308E-01 -.254E+00
   -.356E+01 0.317E+01 -.456E+03   0.354E+01 -.315E+01 0.455E+03   0.309E-01 -.247E-01 0.300E+00
   -.272E+01 0.914E+01 0.309E+02   0.114E-12 0.711E-13 0.284E-12   0.272E+01 -.914E+01 -.309E+02

 POSITION                                       TOTAL-FORCE (eV/Angst)
      4.16477      4.38428     16.34167         0.002288     -0.002066      0.002539
      3.97688      5.01568     17.27706        -0.000866      0.005760      0.003214
      3.77775      5.68325     18.25422        -0.000816      0.003593     -0.006962
      0.00000      6.33074      7.50000        -0.000068     -0.000553      0.336135
      2.11025      0.00000      7.50000         0.000692      0.000222      0.336840
      0.00000      0.00000      9.61025        -0.001022      0.003014      0.071251
      2.11025      6.33074      9.61025         0.007989     -0.006151      0.073891
     -0.00039      6.33027     11.73262        -0.000475     -0.002996      0.003386
      2.11075      0.00071     11.73296         0.002669      0.001757      0.002877
     -0.00021      0.00066     13.83888         0.000160     -0.000688     -0.005360
      2.10856      6.33162     13.83021        -0.000974     -0.000383      0.001076
      0.00000      2.11025      7.50000        -0.000069      0.000529      0.338222
      2.11025      4.22049      7.50000         0.001196     -0.000151      0.339591
      0.00000      4.22049      9.61025         0.000356     -0.002759      0.085307
      2.11025      2.11025      9.61025         0.004426      0.006736      0.077019
     -0.00006      2.11085     11.73364        -0.000672      0.002256      0.001425
      2.11418      4.21996     11.73800         0.002271     -0.001973     -0.002672
     -0.00075      4.22002     13.83502        -0.000651     -0.000105      0.000844
      2.11085      2.11002     13.83647         0.002378      0.000019      0.000681
      4.22049      6.33074      7.50000         0.000052     -0.001089      0.339615
      6.33074      0.00000      7.50000        -0.000683      0.000181      0.337473
      4.22049      0.00000      9.61025         0.000894     -0.001793      0.085539
      6.33074      6.33074      9.61025        -0.008464     -0.005338      0.074985
      4.22065      6.32663     11.73819         0.000520     -0.002553     -0.002685
      6.33016      0.00039     11.73335        -0.002605      0.001947      0.002260
      4.22050      0.00240     13.83511        -0.000088      0.001999      0.000883
      6.33163      6.33057     13.83328         0.000953     -0.001356      0.000695
      4.22049      2.11025      7.50000         0.000056      0.001041      0.339591
      6.33074      4.22049      7.50000        -0.001148     -0.000152      0.339610
      4.22049      4.22049      9.61025         0.000103      0.000051      0.095525
      6.33074      2.11025      9.61025        -0.004322      0.005356      0.078206
      4.22062      2.11357     11.73849         0.000392      0.002056     -0.002340
      6.32697      4.22001     11.73822        -0.002207     -0.001853     -0.002613
      4.22203      4.21469     13.88557         0.000744     -0.002689     -0.004880
      6.33026      2.11020     13.83687        -0.002476      0.001062      0.000861
      0.00000      6.33074      9.61025        -0.000167      0.004682      0.079862
      2.11025      0.00000      9.61025        -0.004756     -0.001008      0.078500
      0.00000      0.00000      7.50000         0.000195     -0.000618     -0.499401
      2.11025      6.33074      7.50000        -0.001821      0.001467     -0.500382
      0.00010      6.33184     13.88742         0.000121      0.002573      0.002060
      2.10898     -0.00067     13.88725        -0.002852     -0.000849      0.001471
      0.00002     -0.00025     11.72933         0.000368     -0.001569     -0.001208
      2.11015      6.33115     11.72901        -0.002197      0.002673      0.000486
      0.00000      2.11025      9.61025         0.000679     -0.004386      0.076467
      2.11025      4.22049      9.61025         0.005355      0.001623      0.085505
      0.00000      4.22049      7.50000         0.000028      0.000642     -0.500880
      2.11025      2.11025      7.50000        -0.001154     -0.001409     -0.501219
      0.00018      2.10931     13.88746         0.000249     -0.003331      0.000013
      2.10335      4.22178     13.88638         0.000048      0.000722      0.000131
      0.00038      4.22085     11.72814         0.000831      0.000907     -0.002912
      2.10941      2.10999     11.72889        -0.004111     -0.003039      0.002394
      4.22049      6.33074      9.61025        -0.000396     -0.006247      0.084972
      6.33074      0.00000      9.61025         0.004590     -0.001838      0.077722
      4.22049      0.00000      7.50000        -0.000198     -0.000029     -0.500860
      6.33074      6.33074      7.50000         0.001794      0.001266     -0.500678
      4.21973      6.33788     13.89233        -0.000194     -0.000135     -0.000648
      6.33181     -0.00076     13.88765         0.002925     -0.000979      0.000874
      4.22040     -0.00147     11.72820        -0.000302     -0.002999     -0.003256
      6.33064      6.33128     11.72929         0.002262      0.003338      0.001107
      4.22049      2.11025      9.61025        -0.000558      0.004160      0.087788
      6.33074      4.22049      9.61025        -0.004836      0.001805      0.086598
      4.22049      4.22049      7.50000         0.000004     -0.000067     -0.503207
      6.33074      2.11025      7.50000         0.001160     -0.001240     -0.501468
      4.22037      2.10260     13.87876        -0.000418      0.000174      0.000709
      6.33760      4.22119     13.88280        -0.000120      0.000940      0.000384
      4.22028      4.22121     11.73710        -0.001011      0.003329      0.004364
      6.33162      2.10962     11.72865         0.003948     -0.003490      0.002684
    total drift:                               -0.000122     -0.000588      0.002233

  FREE ENERGIE OF THE ION-ELECTRON SYSTEM (eV)
  free  energy   TOTEN  =      -392.38007457 eV

  energy  without entropy=     -392.38007457  energy(sigma->0) =     -392.38007457

 d Force = 0.2684916E-05[ 0.182E-06, 0.519E-05]  d Energy = 0.2804427E-05-0.120E-06
 d Force =-0.2264710E+00[-0.226E+00,-0.226E+00]  d Ewald  =-0.2264707E+00-0.343E-06

 reached required accuracy - stopping structural energy minimisation