 vasp.6.3.0 20Jan22 (build Mar 11 2022 13:48:16) complex

 executed on             LinuxIFC date 2024.02.15  19:47:12

 INCAR:
   SYSTEM = Oxide-Surface
   ISMEAR = 0
   SIGMA = 0.05
   EDIFF = 1E-5
   ALGO = ALL
   ISTART = 0
   IBRION = -1
   NSW = 0
   ISYM = 2
   DIPOL = 0.5 0.5 0.5
   IDIPOL = 3
   LDIPOL = .TRUE.
   GGA = PE
   IVDW = 263
   ENCUT = 600
   PREC = Accurate
   LASPH = .TRUE.
   LREAL = .FALSE.
   ISPIN = 1
   NELM = 200
   NELMIN = 8
   NCORE = 19
   KPAR = 1
   LWAVE = .FALSE.
   LCHARG = .FALSE.

 POTCAR:    PAW_PBE H 15Jun2001
 POTCAR:    PAW_PBE O 08Apr2002
 POTCAR:    PAW_PBE Ti_pv 07Sep2000
 POTCAR:    PAW_PBE O 08Apr2002
 POTCAR:    PAW_PBE H 15Jun2001
   VRHFIN =H: ultrasoft test

   TITEL  = PAW_PBE H 15Jun2001
   POMASS =    1.000; ZVAL   =    1.000    mass and valenz
   ENMAX  =  250.000; ENMIN  =  200.000 eV

   TITEL  = PAW_PBE O 08Apr2002
   POMASS =   16.000; ZVAL   =    6.000    mass and valenz
   ENMAX  =  400.000; ENMIN  =  300.000 eV

   TITEL  = PAW_PBE Ti_pv 07Sep2000
   POMASS =   47.880; ZVAL   =   10.000    mass and valenz
   ENMAX  =  222.335; ENMIN  =  166.751 eV

   TITEL  = PAW_PBE O 08Apr2002
   POMASS =   16.000; ZVAL   =    6.000    mass and valenz
   ENMAX  =  400.000; ENMIN  =  300.000 eV

  PAW_PBE H 15Jun2001                   :
  PAW_PBE O 08Apr2002                   :
  PAW_PBE Ti_pv 07Sep2000               :
  PAW_PBE O 08Apr2002                   :

 POSCAR:  H  O Ti  O
  positions in direct lattice
 exchange correlation table for  LEXCH =        8
   RHO(1)=    0.500       N(1)  =     2000
   RHO(2)=  100.500       N(2)  =     4000

 ion  position               nearest neighbor table
   1  0.511  0.550  0.802-   3 0.97
   2  0.614  0.496  0.783-   3 1.00
   3  0.537  0.491  0.783-   1 0.97   2 1.00  83 2.23
   4  0.750  0.625  0.287-  85 1.95 145 1.95 144 1.95  84 1.95  87 1.98 166 1.98  14 2.96  34 2.96

   5  0.000  0.750  0.287-  86 1.95  87 1.95 106 1.95 107 1.95  88 1.98  35 2.96  15 2.96
   6  0.000  0.625  0.394-  88 1.95 148 1.95  89 1.95 149 1.95  90 1.98  91 1.98  16 2.96  36 2.96

[...]

  84  0.750  0.750  0.245-   4 1.95  14 1.95
  85  0.750  0.750  0.329-   4 1.95  14 1.95   7 1.98
  86  0.098  0.625  0.287-   5 1.95  35 1.95  44 1.98
  87  0.902  0.625  0.287-   5 1.95  35 1.95   4 1.98
  88  0.000  0.750  0.352-   6 1.95  16 1.95   5 1.98
  89  0.000  0.750  0.435-   6 1.95  16 1.95   9 1.98
  90  0.848  0.625  0.394-   7 1.95  37 1.95   6 1.98
  91  0.152  0.625  0.394-  47 1.95  77 1.95   6 1.98
  92  0.750  0.750  0.458-   8 1.95  18 1.95   7 1.98
  93  0.750  0.750  0.542-   8 1.95  18 1.95  11 2.10
  94  0.098  0.625  0.500-   9 1.95  39 1.95  48 1.98
  95  0.902  0.625  0.500-   9 1.95  39 1.95   8 1.98
  96  0.001  0.750  0.565-  20 1.90  10 1.90   9 2.00
  97  0.000  0.750  0.649-  13 1.81  10 2.02  20 2.02
  98  0.851  0.625  0.607-  11 1.93  41 1.93  10 2.03
  99  0.151  0.625  0.607-  10 1.87  51 2.02  81 2.02
 100  0.754  0.751  0.671-  11 1.87  12 2.08  22 2.09
 101  0.750  0.749  0.756-  12 1.83  22 1.84
 102  0.095  0.625  0.719-  43 1.94  13 1.95  52 2.03
 103  0.907  0.624  0.720-  43 1.95  13 1.96  12 2.02
 104  0.750  0.000  0.245-  14 1.95  24 1.95
 105  0.750  0.000  0.329-  14 1.95  24 1.95  17 1.98
 106  0.098  0.875  0.287-   5 1.95  15 1.95  54 1.98
 107  0.902  0.875  0.287-   5 1.95  15 1.95  14 1.98
 108  0.000  0.000  0.352-  16 1.95  26 1.95  15 1.98
 109  0.000  0.000  0.435-  16 1.95  26 1.95  19 1.98
 110  0.848  0.875  0.394-   7 1.95  17 1.95  16 1.98
 111  0.152  0.875  0.394-  47 1.95  57 1.95  16 1.98
 112  0.750  0.000  0.458-  18 1.95  28 1.95  17 1.98
 113  0.750  0.000  0.542-  18 1.95  28 1.95  21 2.10
 114  0.098  0.875  0.500-   9 1.95  19 1.95  58 1.98
 115  0.902  0.875  0.500-   9 1.95  19 1.95  18 1.98
 116  0.001  1.000  0.565-  30 1.90  20 1.90  19 2.00
 117  0.000  1.000  0.649-  23 1.81  20 2.02  30 2.02
 118  0.851  0.875  0.607-  21 1.93  11 1.93  20 2.04
 119  0.151  0.875  0.607-  20 1.87  51 2.02  61 2.02
 120  0.752  1.000  0.672-  21 1.87  32 2.09  22 2.10
 121  0.751  1.000  0.756-  32 1.83  22 1.84
 122  0.095  0.875  0.718-  13 1.94  23 1.95  62 2.04
 123  0.907  0.875  0.719-  13 1.94  23 1.95  22 2.04
 124  0.750  0.250  0.245-  24 1.95  34 1.95
 125  0.750  0.250  0.329-  24 1.95  34 1.95  27 1.98
 126  0.098  0.125  0.287-  15 1.95  25 1.95  64 1.98
 127  0.902  0.125  0.287-  15 1.95  25 1.95  24 1.98
 128  0.000  0.250  0.352-  26 1.95  36 1.95  25 1.98
 129  0.000  0.250  0.435-  26 1.95  36 1.95  29 1.98
 130  0.848  0.125  0.394-  17 1.95  27 1.95  26 1.98
 131  0.152  0.125  0.394-  57 1.95  67 1.95  26 1.98
 132  0.750  0.250  0.458-  28 1.95  38 1.95  27 1.98
 133  0.750  0.250  0.542-  28 1.95  38 1.95  31 2.10
 134  0.098  0.125  0.500-  19 1.95  29 1.95  68 1.98
 135  0.902  0.125  0.500-  19 1.95  29 1.95  28 1.98
 136  0.001  0.250  0.565-  40 1.90  30 1.90  29 2.00
 137  0.000  0.250  0.649-  33 1.81  40 2.02  30 2.02
 138  0.851  0.125  0.607-  21 1.93  31 1.93  30 2.04
 139  0.151  0.125  0.607-  30 1.87  61 2.02  71 2.02
 140  0.754  0.250  0.671-  31 1.87  42 2.07  32 2.10
 141  0.750  0.251  0.756-  42 1.83  32 1.84
 142  0.095  0.125  0.719-  33 1.94  23 1.95  72 2.04
 143  0.907  0.125  0.719-  33 1.94  23 1.95  32 2.04
[...]
 229  0.500  0.500  0.435-  46 1.95  76 1.95  79 1.98
 230  0.348  0.375  0.394-  67 1.95  77 1.95  76 1.98
 231  0.652  0.375  0.394-  27 1.95  37 1.95  76 1.98
 232  0.250  0.500  0.458-  48 1.95  78 1.95  77 1.98
 233  0.250  0.500  0.542-  48 1.95  78 1.95  81 2.11
 234  0.598  0.375  0.500-  69 1.95  79 1.95  38 1.98
 235  0.402  0.375  0.500-  69 1.95  79 1.95  78 1.98
 236  0.501  0.500  0.566-  50 1.90  80 1.90  79 2.00
 237  0.500  0.500  0.650-  83 1.89  50 1.99  80 1.99
 238  0.350  0.375  0.607-  71 1.92  81 1.93  80 2.04
 239  0.651  0.375  0.608-  80 1.87  31 2.02  41 2.02
 240  0.251  0.500  0.672-  81 1.86  52 2.09  82 2.10
 241  0.252  0.500  0.756-  82 1.84  52 1.84
 242  0.598  0.371  0.714-  73 1.92  83 1.96  42 2.02
 243  0.407  0.374  0.718-  83 1.93  73 1.94  82 2.03

  LATTYP: Found a simple orthorhombic cell.
 ALAT       =    11.8303781148
 B/A-ratio  =     1.0992024327
 C/A-ratio  =     2.5825673970

  Lattice vectors:

 A1 = (   0.0000000000, -11.8303781148,   0.0000000000)
 A2 = (  13.0039804036,   0.0000000000,   0.0000000000)
 A3 = (   0.0000000000,   0.0000000000,  30.5527488131)

Analysis of symmetry for initial positions (statically):
 Subroutine PRICEL returns:
 Original cell was already a primitive cell.

 Routine SETGRP: Setting up the symmetry group for a
 simple orthorhombic supercell.

 Subroutine GETGRP returns: Found  1 space group operations
 (whereof  1 operations were pure point group operations)
 out of a pool of  8 trial point group operations.

The static configuration has the point symmetry C_1 .

Analysis of symmetry for dynamics (positions and initial velocities):
 Subroutine PRICEL returns:
 Original cell was already a primitive cell.

[...]

The dynamic configuration has the point symmetry C_1 .

Analysis of constrained symmetry for selective dynamics:
 Subroutine PRICEL returns:
 Original cell was already a primitive cell.

 Routine SETGRP: Setting up the symmetry group for a
 simple orthorhombic supercell.

 Subroutine GETGRP returns: Found  1 space group operations
 (whereof  1 operations were pure point group operations)
 out of a pool of  8 trial point group operations.

The constrained configuration has the point symmetry C_1 .

 Subroutine INISYM returns: Found  1 space group operations
 (whereof  1 operations are pure point group operations),
 and found     1 'primitive' translations

                                     Primitive cell

  volume of cell :    4700.2961

  direct lattice vectors                    reciprocal lattice vectors
    13.003980404  0.000000000  0.000000000     0.076899531  0.000000000  0.000000000
     0.000000000 11.830378115  0.000000000     0.000000000  0.084528152  0.000000000
     0.000000000  0.000000000 30.552748813     0.000000000  0.000000000  0.032730279

  length of vectors
    13.003980404 11.830378115 30.552748813     0.076899531  0.084528152  0.032730279

  position of ions in fractional coordinates (direct lattice)
     0.510874486  0.549744949  0.802031162
     0.613779755  0.496082292  0.783151407
     0.537360385  0.491119463  0.782809003
     0.750000000  0.625000000  0.287188045
     0.000000000  0.750000000  0.287188045
     0.000000000  0.625000000  0.393594023
     0.750000000  0.750000000  0.393594023
     0.750000000  0.625000000  0.500000000
     0.000000000  0.750000000  0.500000000
     0.007153851  0.625014308  0.604051248
     0.756304002  0.750075782  0.610262489
     0.751644692  0.625562917  0.719252858
     0.000794862  0.750172552  0.708180947
     0.750000000  0.875000000  0.287188045
     0.000000000  0.000000000  0.287188045
     0.000000000  0.875000000  0.393594023
     0.750000000  0.000000000  0.393594023
     0.750000000  0.875000000  0.500000000
     0.000000000  0.000000000  0.500000000
     0.007277969  0.874988203  0.604120477
     0.755823970  0.999936719  0.610540702
     0.750558456  0.874801778  0.720210742
     0.000972366  0.999860664  0.708137749
     0.750000000  0.125000000  0.287188045
     0.000000000  0.250000000  0.287188045
     0.000000000  0.125000000  0.393594023
     0.750000000  0.250000000  0.393594023
     0.750000000  0.125000000  0.500000000
     0.000000000  0.250000000  0.500000000
     0.007298258  0.124917644  0.604100230
     0.756284959  0.249808457  0.610237489
     0.750454270  0.124164987  0.720199614
     0.000891816  0.249547152  0.708163781
     0.750000000  0.375000000  0.287188045
     0.000000000  0.500000000  0.287188045
     0.000000000  0.375000000  0.393594023
     0.750000000  0.500000000  0.393594023
     0.750000000  0.375000000  0.500000000
     0.000000000  0.500000000  0.500000000
     0.007178713  0.374943068  0.604052437
     0.756563247  0.499958319  0.610421053
     0.752182607  0.373375021  0.719287257
     0.001629605  0.499997807  0.708113155
     0.250000000  0.625000000  0.287188045
     0.500000000  0.750000000  0.287188045
     0.500000000  0.625000000  0.393594023
     0.250000000  0.750000000  0.393594023
     0.250000000  0.625000000  0.500000000
     0.500000000  0.750000000  0.500000000
     0.507320083  0.622908111  0.605197857
     0.256313719  0.749863999  0.610535728
     0.251324883  0.625073828  0.720260147
     0.501526304  0.750046487  0.706999378
     0.250000000  0.875000000  0.287188045
     0.500000000  0.000000000  0.287188045
     0.500000000  0.875000000  0.393594023
     0.250000000  0.000000000  0.393594023
     0.250000000  0.875000000  0.500000000
     0.500000000  0.000000000  0.500000000
     0.507087916  0.874087949  0.603151519
[...]
     0.500000000  0.500000000  0.435304973
     0.347999548  0.375000000  0.393594023
     0.652000452  0.375000000  0.393594023
     0.250000000  0.500000000  0.458289049
     0.250000000  0.500000000  0.541710951
     0.597999548  0.375000000  0.500000000
     0.402000452  0.375000000  0.500000000
     0.501117386  0.499778844  0.565532930
[...]
   O          19.900          3.263          5.546          2.478          2.428          1.037
   O          20.194          3.271          5.585          2.509          2.523          1.044
   O          20.103          3.268          5.573          2.548          2.642          1.042
   O          20.177          3.270          5.584          2.540          2.617          1.044
   O          20.487          3.278          5.626          2.542          2.622          1.051
   O          19.277          3.248          5.469          2.695          3.126          1.025
   O          19.807          3.260          5.533          2.619          2.867          1.034
   O          19.857          3.262          5.540          2.644          2.951          1.036

  vdW correction parametrized for the method pbe

  IVDW = 263
  VDW_RADIUS =    50.000 A
  VDW_SR =     0.830
  VDW_D =     6.000
  SCSRAD =   120.000 A
  LVDWSCS = T
  LSCSGRAD = T
  LSCALER0 = T
  ITIM =  1
  Edisp (eV):  -67.13602

  FORCE on cell =-STRESS in cart. coord.  units (eV):
  Direction    XX          YY          ZZ          XY          YZ          ZX
  Alpha Z  4685.90249  4685.90249  4685.90249
  Ewald  979554.02592996997.29157************   -25.82525    39.48440   -37.36920
  Hartree************************************    -6.71489     7.24469   -21.48126
  E(xc)   -8631.18745 -8613.48602 -8640.72940    -0.08301     0.16290    -0.14946
  Local  ************************************    26.56022   -35.12349    54.76370
  n-local -5431.66201 -5355.82389 -5475.32058    -0.31688     0.06890    -0.06462
  augment  5226.08548  5208.92873  5231.30543     0.37748    -0.78421     0.06679
  Kinetic 28761.01224 28304.53832 28823.56405     5.98277   -10.95723     4.17588
  Fock        0.00000     0.00000     0.00000     0.00000     0.00000     0.00000
  vdW      -102.68782  -100.46557   -86.74821     0.00165     0.01323    -0.08292
  Total      -8.39266   -59.81388   -49.58957    -0.01792     0.10918    -0.14110
  in kB      -2.86078   -20.38860   -16.90346    -0.00611     0.03722    -0.04810

 VOLUME and BASIS-vectors are now :
  energy-cutoff  :      600.00
  volume of cell :     4700.30
      direct lattice vectors                 reciprocal lattice vectors
    13.003980404  0.000000000  0.000000000     0.076899531  0.000000000  0.000000000
     0.000000000 11.830378115  0.000000000     0.000000000  0.084528152  0.000000000
     0.000000000  0.000000000 30.552748813     0.000000000  0.000000000  0.032730279

  length of vectors
    13.003980404 11.830378115 30.552748813     0.076899531  0.084528152  0.032730279

 FORCES acting on ions:
    Electron-Ion                     Ewald-Force                    Non-Local-Force
   0.343E+02 -.617E+02 -.453E+03   -.376E+02 0.676E+02 0.458E+03   0.319E+01 -.590E+01 -.514E+01
   -.636E+02 -.241E+01 -.436E+03   0.714E+02 0.265E+01 0.436E+03   -.772E+01 -.243E+00 0.206E-04
   0.531E+02 0.402E+02 -.258E+04   -.720E+02 -.722E+02 0.256E+04   0.188E+02 0.321E+02 0.146E+02
   -.107E+00 -.153E-01 0.380E+04   0.103E+00 0.155E-01 -.380E+04   0.966E-03 -.953E-05 0.437E+00
   -.500E-01 -.301E-01 0.398E+04   0.513E-01 0.302E-01 -.397E+04   -.239E-03 -.152E-04 -.389E+01
   -.142E+00 -.483E-01 0.194E+04   0.148E+00 0.484E-01 -.194E+04   -.946E-03 0.676E-04 -.432E-01
   -.339E+00 -.987E-02 0.193E+04   0.330E+00 0.102E-01 -.193E+04   0.249E-02 0.485E-04 0.208E+00
   -.130E+01 -.119E+00 0.213E+01   0.126E+01 0.104E+00 -.136E+01   0.102E-01 0.913E-03 -.129E+00
   0.153E+01 -.656E+00 0.109E+02   -.153E+01 0.660E+00 -.119E+02   -.139E-02 -.222E-02 0.341E+00
   0.135E+02 -.183E+01 -.187E+04   -.137E+02 0.184E+01 0.187E+04   0.489E-01 -.799E-02 0.675E-01
   0.371E+01 -.713E+01 -.193E+04   -.376E+01 0.714E+01 0.193E+04   -.353E-01 -.871E-02 -.810E-01
   -.685E+02 -.172E+02 -.374E+04   0.684E+02 0.171E+02 0.374E+04   0.168E+00 0.120E+00 -.543E-03
   -.519E+01 -.232E+01 -.379E+04   0.523E+01 0.232E+01 0.379E+04   -.426E-01 -.147E-01 0.922E+00
   -.117E+00 -.200E-01 0.380E+04   0.114E+00 0.202E-01 -.380E+04   0.101E-02 -.929E-06 0.437E+00
   -.476E-01 -.233E-02 0.398E+04   0.488E-01 0.238E-02 -.397E+04   -.238E-03 -.645E-05 -.389E+01
   -.111E+00 -.612E-01 0.194E+04   0.116E+00 0.609E-01 -.194E+04   -.913E-03 0.503E-04 -.432E-01
   -.429E+00 -.154E-01 0.193E+04   0.420E+00 0.151E-01 -.193E+04   0.239E-02 -.909E-05 0.208E+00
   -.264E+01 -.462E+00 0.115E+01   0.262E+01 0.485E+00 -.382E+00   0.792E-02 -.996E-03 -.131E+00
   0.193E+01 -.326E-01 0.100E+02   -.193E+01 0.296E-01 -.111E+02   -.138E-02 0.137E-02 0.339E+00
   0.164E+02 -.146E+01 -.188E+04   -.166E+02 0.147E+01 0.188E+04   0.489E-01 -.709E-02 0.751E-01
   0.545E+01 0.305E-01 -.194E+04   -.549E+01 -.277E-01 0.194E+04   -.438E-01 -.227E-02 -.857E-01
   -.153E+02 -.164E+02 -.378E+04   0.153E+02 0.164E+02 0.378E+04   0.530E-01 0.874E-02 -.118E+00
   -.461E+01 0.304E+00 -.380E+04   0.459E+01 -.303E+00 0.380E+04   0.231E-01 -.139E-02 0.960E+00
   -.116E+00 0.153E-01 0.380E+04   0.112E+00 -.156E-01 -.380E+04   0.997E-03 0.220E-04 0.437E+00
   -.502E-01 0.301E-01 0.398E+04   0.515E-01 -.302E-01 -.397E+04   -.246E-03 0.148E-04 -.389E+01
   -.111E+00 0.509E-01 0.194E+04   0.116E+00 -.509E-01 -.194E+04   -.970E-03 -.619E-04 -.431E-01
   -.320E+00 0.927E-02 0.193E+04   0.311E+00 -.954E-02 -.193E+04   0.241E-02 -.527E-04 0.208E+00
   -.258E+01 0.382E+00 0.116E+01   0.255E+01 -.412E+00 -.387E+00   0.856E-02 0.175E-02 -.130E+00
   0.156E+01 0.633E+00 0.109E+02   -.156E+01 -.635E+00 -.120E+02   -.175E-02 0.222E-02 0.342E+00
   0.171E+02 0.153E+01 -.188E+04   -.173E+02 -.154E+01 0.188E+04   0.516E-01 0.805E-02 0.738E-01
   0.350E+01 0.681E+01 -.193E+04   -.355E+01 -.682E+01 0.193E+04   -.364E-01 0.345E-02 -.878E-01
   -.154E+02 0.143E+02 -.378E+04   0.154E+02 -.142E+02 0.378E+04   0.552E-01 -.171E-01 -.121E+00
   -.467E+01 0.221E+01 -.379E+04   0.470E+01 -.220E+01 0.379E+04   -.364E-01 0.104E-01 0.919E+00
   -.105E+00 0.201E-01 0.380E+04   0.102E+00 -.202E-01 -.380E+04   0.959E-03 -.115E-04 0.437E+00
   -.526E-01 0.235E-02 0.398E+04   0.539E-01 -.241E-02 -.397E+04   -.246E-03 0.642E-05 -.389E+01
   -.143E+00 0.587E-01 0.194E+04   0.149E+00 -.585E-01 -.194E+04   -.983E-03 -.119E-03 -.432E-01
   -.232E+00 0.160E-01 0.193E+04   0.224E+00 -.157E-01 -.193E+04   0.226E-02 -.205E-04 0.208E+00
   -.120E+01 0.207E+00 0.203E+01   0.116E+01 -.184E+00 -.127E+01   0.104E-01 -.123E-02 -.128E+00
   0.137E+01 -.836E-02 0.117E+02   -.137E+01 0.831E-02 -.128E+02   -.245E-02 0.393E-03 0.340E+00
   0.139E+02 0.191E+01 -.187E+04   -.141E+02 -.191E+01 0.187E+04   0.476E-01 0.454E-02 0.721E-01
   0.243E+01 -.171E-01 -.192E+04   -.244E+01 0.180E-01 0.192E+04   -.796E-01 -.168E-02 -.790E-01
   -.685E+02 0.139E+02 -.374E+04   0.684E+02 -.137E+02 0.374E+04   0.121E+00 -.154E+00 0.269E-02
   -.730E+01 0.248E+00 -.379E+04   0.726E+01 -.251E+00 0.379E+04   0.381E-01 0.148E-02 0.873E+00
   0.101E+00 -.115E-01 0.380E+04   -.976E-01 0.114E-01 -.380E+04   -.885E-03 0.821E-05 0.437E+00
   0.558E-01 -.135E-01 0.398E+04   -.570E-01 0.138E-01 -.397E+04   0.237E-03 -.458E-04 -.389E+01
   0.275E+00 0.129E+00 0.194E+04   -.280E+00 -.118E+00 -.194E+04   0.512E-03 -.254E-02 -.448E-01
   0.210E+00 0.350E-01 0.193E+04   -.202E+00 -.347E-01 -.193E+04   -.137E-02 -.383E-04 0.204E+00
   -.108E+00 0.112E+00 -.854E-01   0.156E+00 -.125E+00 0.906E+00   -.744E-02 0.862E-03 -.139E+00
   0.349E+01 0.108E+01 0.142E+02   -.351E+01 -.116E+01 -.151E+02   0.167E-02 0.373E-01 0.272E+00
   0.209E+02 -.115E+02 -.187E+04   -.210E+02 0.116E+02 0.187E+04   0.367E-01 -.781E-01 0.434E-01
   0.181E+02 -.491E+01 -.194E+04   -.182E+02 0.491E+01 0.194E+04   -.426E-01 0.733E-02 -.835E-01
   0.368E+02 -.141E+02 -.376E+04   -.369E+02 0.141E+02 0.376E+04   0.673E-01 0.406E-02 -.147E+00
   0.197E+02 -.546E+02 -.375E+04   -.196E+02 0.547E+02 0.375E+04   -.137E+00 -.447E-01 0.103E+01
   0.111E+00 -.163E-01 0.380E+04   -.108E+00 0.165E-01 -.380E+04   -.944E-03 0.140E-05 0.437E+00
   0.535E-01 -.461E-02 0.398E+04   -.547E-01 0.463E-02 -.397E+04   0.236E-03 -.281E-05 -.389E+01
   0.248E+00 0.807E-01 0.194E+04   -.253E+00 -.799E-01 -.194E+04   0.615E-03 -.116E-02 -.454E-01
   0.296E+00 -.175E-01 0.193E+04   -.287E+00 0.173E-01 -.193E+04   -.145E-02 0.526E-04 0.204E+00
   0.964E+00 -.141E-01 -.355E+00   -.929E+00 0.186E-01 0.117E+01   -.304E-02 -.660E-03 -.137E+00
   0.306E+01 -.241E+00 0.172E+02   -.309E+01 0.237E+00 -.183E+02   0.898E-02 0.531E-03 0.298E+00
   0.174E+02 -.103E+02 -.185E+04   -.175E+02 0.104E+02 0.185E+04   0.330E-01 -.180E-01 -.688E-01
[...]
   -.532E+02 -.308E-01 0.116E+04   0.572E+02 0.301E-01 -.116E+04   -.356E+01 0.882E-03 0.153E+00
   0.533E+02 -.184E-01 0.116E+04   -.573E+02 0.178E-01 -.116E+04   0.357E+01 0.806E-03 0.159E+00
   -.427E-01 0.341E-01 0.508E+03   0.639E-01 -.344E-01 -.512E+03   -.309E-01 0.572E-03 0.416E+01
   0.250E+01 0.197E+00 -.524E+03   -.277E+01 -.193E+00 0.531E+03   0.256E+00 -.654E-02 -.711E+01
   -.548E+02 -.338E+00 0.795E+01   0.594E+02 0.336E+00 -.816E+01   -.507E+01 0.206E-01 0.275E+00
   0.557E+02 -.424E+00 0.500E+01   -.603E+02 0.420E+00 -.516E+01   0.510E+01 0.239E-01 0.242E+00
   0.122E+02 0.603E+00 -.621E+03   -.133E+02 -.692E+00 0.614E+03   0.108E+01 0.876E-01 0.678E+01
   0.197E+02 -.189E+01 -.161E+04   -.210E+02 0.196E+01 0.161E+04   0.136E+01 -.690E-01 -.122E+01
   -.495E+02 0.198E+01 -.113E+04   0.558E+02 -.202E+01 0.113E+04   -.622E+01 0.456E-01 0.131E+01
   0.930E+00 0.407E+01 -.114E+04   -.875E+00 -.422E+01 0.114E+04   -.323E-02 0.141E+00 0.411E+00
   0.184E+02 -.533E+00 -.181E+04   -.188E+02 0.514E+00 0.182E+04   0.378E+00 0.191E-01 -.211E+01
   0.368E+02 0.611E+00 -.273E+04   -.367E+02 -.670E+00 0.275E+04   -.174E+00 0.596E-01 -.206E+02
   -.475E+02 0.418E+02 -.223E+04   0.535E+02 -.415E+02 0.223E+04   -.598E+01 -.286E+00 -.476E+00
   0.635E+02 0.337E+02 -.231E+04   -.696E+02 -.338E+02 0.231E+04   0.614E+01 0.545E-01 -.317E+01
   0.134E+02 -.268E+02 0.777E+02   -.273E-11 -.207E-11 0.423E-10   -.134E+02 0.268E+02 -.778E+02

 POSITION                                       TOTAL-FORCE (eV/Angst)
      6.64340      6.50369     24.50426        -0.038977      0.034911      0.027992
      7.98158      5.86884     23.92743         0.107478     -0.009832     -0.038212
      6.98782      5.81013     23.91697        -0.063130     -0.015970     -0.090805
      9.75299      7.39399      8.77438        -0.002275      0.000123     -3.383384
      0.00000      8.87278      8.77438         0.001059      0.000110      2.915417
      0.00000      7.39399     12.02538         0.004239      0.000170      0.524208
      9.75299      8.87278     12.02538        -0.006603      0.000350     -0.712485
      9.75299      7.39399     15.27637        -0.031571     -0.014201      0.629345
      0.00000      8.87278     15.27637        -0.001560      0.001785     -0.727115
      0.09303      7.39416     18.45543        -0.049035      0.000714      0.047329
      9.83496      8.87368     18.64520        -0.026704     -0.001375     -0.052760
      9.77437      7.40065     21.97515         0.000617     -0.001550     -0.030721
      0.01034      8.87482     21.63687        -0.002329     -0.001076     -0.053380
      9.75299     10.35158      8.77438        -0.002346      0.000201     -3.383436
      0.00000      0.00000      8.77438         0.001050      0.000064      2.915245
      0.00000     10.35158     12.02538         0.004083     -0.000166      0.524346
      9.75299      0.00000     12.02538        -0.006792     -0.000335     -0.713205
      9.75299     10.35158     15.27637        -0.019230      0.021944      0.636201
      0.00000      0.00000     15.27637        -0.001950     -0.001653     -0.725053
      0.09464     10.35144     18.45754        -0.054260      0.000378      0.047306
      9.82872     11.82963     18.65370        -0.028381     -0.000098     -0.054476
      9.76025     10.34924     22.00442         0.004249      0.003813     -0.032677
      0.01264     11.82873     21.63555        -0.003020     -0.000279     -0.053262
      9.75299      1.47880      8.77438        -0.002333     -0.000206     -3.383640
      0.00000      2.95759      8.77438         0.001073     -0.000079      2.915253
      0.00000      1.47880     12.02538         0.004184     -0.000093      0.524093
      9.75299      2.95759     12.02538        -0.006400     -0.000296     -0.713557
      9.75299      1.47880     15.27637        -0.017985     -0.028273      0.632021
      0.00000      2.95759     15.27637        -0.000143     -0.000554     -0.727920
      0.09491      1.47782     18.45692        -0.053503     -0.001196      0.046394
      9.83471      2.95533     18.64443        -0.029786      0.001511     -0.052232
      9.75889      1.46892     22.00408         0.003848     -0.000265     -0.033284
      0.01160      2.95224     21.63635        -0.002384      0.001446     -0.052287
      9.75299      4.43639      8.77438        -0.002258     -0.000068     -3.383576
      0.00000      5.91519      8.77438         0.001087     -0.000037      2.915424
      0.00000      4.43639     12.02538         0.004359      0.000142      0.524029
      9.75299      5.91519     12.02538        -0.006334      0.000333     -0.712593
      9.75299      4.43639     15.27637        -0.032697      0.020552      0.625935
      0.00000      5.91519     15.27637        -0.000433      0.000340     -0.730366
      0.09335      4.43572     18.45546        -0.050884     -0.000079      0.047450
      9.83833      5.91470     18.65004        -0.024152     -0.001812     -0.062229
      9.78137      4.41717     21.97620        -0.004349      0.002101     -0.030342
      0.02119      5.91516     21.63480        -0.003080     -0.000907     -0.048012
      3.25100      7.39399      8.77438         0.002366     -0.000031     -3.381416
      6.50199      8.87278      8.77438        -0.000919      0.000263      2.921086
      6.50199      7.39399     12.02538        -0.004722      0.008672      0.544625
      3.25100      8.87278     12.02538         0.006891      0.000277     -0.698784
      3.25100      7.39399     15.27637         0.036937     -0.011264      0.674680
      6.50199      8.87278     15.27637        -0.023230     -0.038578     -0.617358
      6.59718      7.36924     18.49046        -0.053232      0.008867      0.034458
      3.33310      8.87117     18.65354        -0.028580     -0.001940     -0.056912
      3.26822      7.39486     22.00593        -0.004168     -0.000034     -0.028014
      6.52184      8.87333     21.60077        -0.009972      0.003298     -0.045481
      3.25100     10.35158      8.77438         0.002457      0.000194     -3.381588
      6.50199      0.00000      8.77438        -0.000886      0.000034      2.921170
      6.50199     10.35158     12.02538        -0.004944     -0.000230      0.546467
      3.25100      0.00000     12.02538         0.007191     -0.000110     -0.699324
      3.25100     10.35158     15.27637         0.030083      0.003980      0.669498
      6.50199      0.00000     15.27637        -0.028214     -0.002939     -0.791357
      6.59416     10.34079     18.42794        -0.052234     -0.001912      0.057326
[...]
      6.50199      5.91519     13.29976         0.003585     -0.000735     -0.051951
      4.52538      4.43639     12.02538         0.500038      0.000237      0.047647
      8.47860      4.43639     12.02538        -0.494901      0.000262      0.049374
      3.25100      5.91519     14.00199        -0.009609      0.000338     -0.177728
      3.25100      5.91519     16.55076         0.000697     -0.002440      0.119722
      7.77637      4.43639     15.27637        -0.359489      0.019188      0.062917
      5.22761      4.43639     15.27637         0.392868      0.020782      0.086973
      6.51652      5.91257     17.27859         0.007208     -0.000944     -0.095216
      6.49826      5.91976     19.84679         0.018860      0.000604      0.028871
      4.55649      4.43633     18.54881         0.084534     -0.003912      0.005548
      8.46983      4.43629     18.56617        -0.030016     -0.006135      0.001141
      3.26637      5.91968     20.51974         0.007798      0.000615     -0.010433
      3.28156      5.91325     23.09083        -0.004901      0.000756     -0.072439
      7.77014      4.39492     21.81608         0.045665     -0.018423      0.023335
      5.29699      4.42315     21.93300        -0.055753     -0.011547      0.005950
    total drift:                               -0.010109     -0.003395     -0.079267

  FREE ENERGIE OF THE ION-ELECTRON SYSTEM (eV)
  free  energy   TOTEN  =     -2201.98556748 eV

  energy  without entropy=    -2201.98556748  energy(sigma->0) =    -2201.98556748