 vasp.6.3.0 20Jan22 (build Apr  1 2022 16:44:48) complex
 executed on        HPECrayEX_GCC date 2023.02.21  23:13:02

 INCAR:
   SYSTEM = MgO-rocksalt
   ISMEAR = 0
   SIGMA = 0.05
   EDIFF = 1E-8
   ALGO = ALL
   ISTART = 0
   IBRION = 5
   POTIM = 0.01
   NFREE = 2
   ISYM = 0
   DIPOL = 0.5 0.5 0.5
   IDIPOL = 3
   LDIPOL = .TRUE.
   GGA = PE
   IVDW = 1
   VDW_C6 = 1.75 0.14 0.63 0.70
   VDW_R0 = 1.452 1.001 1.243 1.342
   ENCUT = 520
   PREC = Accurate
   LASPH = .TRUE.
   LREAL = Auto
   ISPIN = 1
   NELM = 200
   NELMIN = 8
   NCORE = 8
   KPAR = 1
   LWAVE = .FALSE.
   LCHARG = .FALSE.

 POTCAR:    PAW_PBE C 08Apr2002
 POTCAR:    PAW_PBE H 15Jun2001
 POTCAR:    PAW_PBE Mg 13Apr2007
 POTCAR:    PAW_PBE O 08Apr2002
 POTCAR:    PAW_PBE C 08Apr2002
   VRHFIN =C: s2p2

   TITEL  = PAW_PBE C 08Apr2002
   POMASS =   12.011; ZVAL   =    4.000    mass and valenz
   ENMAX  =  400.000; ENMIN  =  300.000 eV

   TITEL  = PAW_PBE H 15Jun2001
   POMASS =    1.000; ZVAL   =    1.000    mass and valenz
   ENMAX  =  250.000; ENMIN  =  200.000 eV

[...]

   TITEL  = PAW_PBE O 08Apr2002
   POMASS =   16.000; ZVAL   =    6.000    mass and valenz
   ENMAX  =  400.000; ENMIN  =  300.000 eV

 Optimization of the real space projectors (new method)

 maximal supplied QI-value         = 25.13
 optimisation between [QCUT,QGAM] = [ 11.56, 23.12] = [ 37.43,149.72] Ry
 Optimized for a Real-space Cutoff    1.04 Angstroem

   l    n(q)    QCUT    max X(q) W(low)/X(q) W(high)/X(q)  e(spline)
   0      7    11.561   115.676    0.20E-03    0.60E-03    0.21E-06
   0      7    11.561    87.132    0.20E-03    0.59E-03    0.21E-06
   1      7    11.561     4.429    0.23E-03    0.35E-03    0.15E-06
   1      7    11.561     2.733    0.18E-03    0.25E-03    0.12E-06
 Optimization of the real space projectors (new method)

[...]

   l    n(q)    QCUT    max X(q) W(low)/X(q) W(high)/X(q)  e(spline)
   0      9    11.527    28.265    0.62E-04    0.53E-04    0.73E-07
   0      9    11.527    10.429    0.52E-04    0.40E-04    0.58E-07
   1      8    11.527    13.073    0.98E-04    0.18E-03    0.86E-07
   1      8    11.527     9.625    0.79E-04    0.15E-03    0.74E-07
   2      8    11.527     4.652    0.22E-03    0.72E-04    0.47E-07
 Optimization of the real space projectors (new method)

 maximal supplied QI-value         = 24.76
 optimisation between [QCUT,QGAM] = [ 11.64, 23.27] = [ 37.91,151.63] Ry
 Optimized for a Real-space Cutoff    1.14 Angstroem

   l    n(q)    QCUT    max X(q) W(low)/X(q) W(high)/X(q)  e(spline)
   0      8    11.635    20.381    0.10E-03    0.33E-03    0.24E-06
   0      8    11.635    15.268    0.11E-03    0.35E-03    0.26E-06
   1      7    11.635     5.964    0.24E-03    0.31E-03    0.30E-06
   1      7    11.635     5.382    0.22E-03    0.25E-03    0.26E-06
  PAW_PBE C 08Apr2002                   :
  PAW_PBE H 15Jun2001                   :
  PAW_PBE Mg 13Apr2007                  :
  PAW_PBE O 08Apr2002                   :

 POSCAR:  C  H Mg  O
  positions in direct lattice
 exchange correlation table for  LEXCH =        8
   RHO(1)=    0.500       N(1)  =     2000
   RHO(2)=  100.500       N(2)  =     4000

 ion  position               nearest neighbor table
   1  0.478  0.469  0.794-   7 1.09   2 1.40   6 1.40
   2  0.560  0.459  0.793-   8 1.09   1 1.40   3 1.40
   3  0.593  0.383  0.795-   9 1.09   4 1.40   2 1.40
   4  0.543  0.317  0.799-  10 1.09   3 1.40   5 1.40
   5  0.461  0.327  0.800-  11 1.09   6 1.40   4 1.40
   6  0.429  0.403  0.798-  12 1.09   5 1.40   1 1.40
   7  0.453  0.528  0.793-   1 1.09
   8  0.599  0.510  0.789-   2 1.09
   9  0.657  0.375  0.793-   3 1.09
  10  0.569  0.258  0.800-   4 1.09
  11  0.423  0.276  0.803-   5 1.09
  12  0.365  0.411  0.799-   6 1.09
  13  0.125  0.000  0.351- 141 2.12 143 2.12 144 2.12 160 2.12 183 2.12  16 2.99  32 2.99  55 2.99
                            15 2.99  54 2.99  30 2.99  70 2.99  14 2.99
  14  0.250  0.125  0.351- 142 2.12 143 2.12 144 2.12 152 2.12 159 2.12  16 2.99  24 2.99  31 2.99
                            15 2.99  29 2.99  21 2.99  37 2.99  13 2.99
  15  0.125  0.125  0.450- 147 2.11 143 2.12 141 2.12 142 2.12 149 2.12 158 2.12  21 2.99  30 2.99
                            13 2.99  14 2.99  32 2.99  40 2.99  24 2.99  16 2.99  17 3.00  34 3.00
  16  0.250  0.000  0.450- 148 2.11 144 2.12 141 2.12 142 2.12 157 2.12 182 2.12  29 2.99  54 2.99
                            13 2.99  14 2.99  55 2.99  71 2.99  31 2.99  15 2.99  58 3.00  17 3.00
  17  0.125  0.000  0.550- 147 2.12 164 2.12 187 2.12 148 2.12 141 2.12 145 2.14  59 2.97  36 2.97
                            20 2.98  19 2.98  34 2.99  74 2.99  58 2.99  18 2.99  15 3.00  16 3.00
  18  0.250  0.125  0.550- 163 2.12 156 2.12 148 2.12 147 2.12 142 2.12 146 2.14  35 2.97  28 2.97
                            20 2.97  19 2.98  25 2.99  33 2.99  17 2.99  41 3.00  24 3.00  31 3.00
  19  0.125  0.125  0.648- 147 2.10 146 2.12 153 2.12 145 2.12 162 2.12  25 2.97  18 2.98  17 2.98
                            34 2.98  20 2.99  44 2.99  36 2.99  28 2.99
  20  0.250  0.000  0.648- 148 2.10 146 2.12 161 2.12 186 2.12 145 2.12  33 2.97  18 2.97  58 2.98
                            17 2.98  19 2.99  75 2.99  59 2.99  35 2.99
  21  0.125  0.250  0.351- 149 2.12 143 2.12 151 2.12 152 2.12 168 2.12  23 2.99  24 2.99  40 2.99
                            15 2.99  30 2.99  38 2.99  14 2.99  22 2.99
  22  0.250  0.375  0.351- 150 2.12 151 2.12 152 2.12 167 2.12 176 2.12  24 2.99  39 2.99  48 2.99
                            23 2.99  45 2.99  37 2.99  61 2.99  21 2.99
  23  0.125  0.375  0.450- 155 2.11 151 2.12 149 2.12 150 2.12 166 2.12 173 2.12  38 2.99  45 2.99
                            21 2.99  22 2.99  48 2.99  64 2.99  40 2.99  24 2.99  49 3.00  25 3.00
  24  0.250  0.250  0.450- 156 2.11 152 2.12 150 2.12 142 2.12 149 2.12 165 2.12  22 2.99  37 2.99
                            14 2.99  21 2.99  15 2.99  39 2.99  23 2.99  31 2.99  18 3.00  25 3.00
  25  0.125  0.250  0.550- 156 2.12 155 2.12 172 2.12 147 2.12 149 2.12 153 2.14  28 2.97  27 2.97
                            19 2.97  44 2.98  18 2.99  42 2.99  34 2.99  26 3.00  24 3.00  23 3.00
  26  0.250  0.375  0.550- 171 2.11 180 2.12 156 2.12 155 2.12 150 2.12 154 2.15  52 2.97  28 2.97
                            27 2.98  43 2.98  41 2.99  65 2.99  39 3.00  49 3.00  25 3.00  48 3.00
  27  0.125  0.375  0.648- 155 2.10 177 2.12 153 2.12 154 2.12 170 2.12  25 2.97  49 2.98  42 2.98
                            26 2.98  28 2.99  52 2.99  68 2.99  44 2.99
  28  0.250  0.250  0.648- 156 2.10 169 2.12 154 2.12 153 2.12 146 2.12  26 2.97  41 2.97  18 2.97
                            25 2.97  35 2.99  27 2.99  19 2.99  43 3.00
  29  0.375  0.000  0.351- 157 2.12 144 2.12 159 2.12 199 2.12 224 2.12  31 2.99  71 2.99  96 2.99
                            16 2.99  94 2.99  54 2.99 134 2.99  14 2.99
  30  0.000  0.125  0.351- 158 2.12 143 2.12 160 2.12 168 2.12 223 2.12  32 2.99  40 2.99  95 2.99
                            15 2.99  93 2.99  13 2.99 101 2.99  21 2.99
  31  0.375  0.125  0.450- 163 2.11 159 2.12 142 2.12 157 2.12 165 2.12 222 2.12  37 2.99  94 2.99
                            14 2.99  29 2.99  96 2.99 104 2.99  24 2.99  16 2.99  18 3.00  33 3.00
  32  0.000  0.000  0.450- 164 2.12 160 2.12 141 2.12 158 2.12 198 2.12 221 2.12  70 2.99  93 2.99
                            13 2.99  30 2.99  95 2.99 135 2.99  15 2.99  55 2.99  74 3.00  97 3.00
  33  0.375  0.000  0.550- 163 2.12 228 2.12 203 2.12 148 2.12 157 2.12 161 2.14  35 2.97 100 2.97
                            20 2.97  75 2.98 138 2.99  18 2.99  58 2.99  98 2.99  31 3.00  96 3.00
  34  0.000  0.125  0.550- 164 2.12 227 2.12 147 2.12 172 2.12 158 2.12 162 2.14  36 2.97  99 2.97
                            44 2.98  19 2.98  17 2.99  97 2.99  25 2.99 105 2.99  15 3.00  40 3.00
  35  0.375  0.125  0.648- 163 2.10 169 2.11 226 2.12 146 2.12 161 2.12  98 2.97  41 2.97  18 2.97
                            33 2.97  28 2.99 100 2.99  20 2.99 108 3.00
  36  0.000  0.000  0.648- 164 2.10 162 2.12 202 2.12 145 2.12 225 2.12  34 2.97  17 2.97  74 2.98
                            97 2.98 139 2.99  59 2.99  99 2.99  19 2.99
  37  0.375  0.250  0.351- 165 2.12 159 2.12 152 2.12 167 2.12 232 2.12  31 2.99  39 2.99 104 2.99
                            24 2.99  94 2.99 102 2.99  22 2.99  14 2.99
  38  0.000  0.375  0.351- 166 2.12 151 2.12 168 2.12 192 2.12 231 2.12  40 2.99  64 2.99 103 2.99
                            23 2.99 101 2.99  45 2.99 125 2.99  21 2.99
  39  0.375  0.375  0.450- 171 2.11 167 2.12 150 2.12 165 2.12 189 2.12 230 2.12  61 2.99 102 2.99
                            22 2.99  37 2.99 104 2.99 128 2.99  24 2.99  48 2.99  26 3.00  41 3.00
  40  0.000  0.250  0.450- 172 2.11 168 2.12 166 2.12 149 2.12 158 2.12 229 2.12  38 2.99 101 2.99
                            21 2.99  30 2.99  15 2.99 103 2.99  23 2.99  95 2.99 105 3.00  34 3.00
  41  0.375  0.250  0.550- 171 2.11 236 2.11 156 2.12 163 2.12 165 2.12 169 2.14  35 2.97  28 2.97
                           108 2.98  43 2.98  26 2.99  98 2.99 106 2.99  39 3.00 104 3.00  18 3.00
  42  0.000  0.375  0.550- 196 2.12 172 2.12 155 2.12 235 2.12 166 2.12 170 2.14  68 2.97  44 2.97
                           107 2.97  27 2.98 129 2.99  49 2.99 105 2.99  25 2.99  23 3.00  64 3.00
  43  0.376  0.375  0.648- 234 2.11 171 2.11 193 2.12 169 2.12 154 2.13 106 2.97  65 2.98  41 2.98
                           132 2.98 108 2.98  26 2.98  52 3.00  28 3.00
  44  0.000  0.250  0.648- 172 2.10 170 2.12 162 2.12 233 2.12 153 2.12  42 2.97  34 2.98  25 2.98
                           105 2.98  19 2.99  99 2.99 107 2.99  27 2.99
  45  0.125  0.500  0.351- 173 2.12 151 2.12 175 2.12 176 2.12 192 2.12  47 2.99  48 2.99  64 2.99
                            23 2.99  38 2.99  62 2.99  46 2.99  22 2.99
  46  0.250  0.625  0.351- 174 2.12 175 2.12 176 2.12 184 2.12 191 2.12  48 2.99  56 2.99  63 2.99
                            47 2.99  61 2.99  53 2.99  69 2.99  45 2.99
  47  0.125  0.625  0.450- 179 2.11 175 2.12 173 2.12 174 2.12 181 2.12 190 2.12  53 2.99  62 2.99
                            45 2.99  46 2.99  64 2.99  72 2.99  56 2.99  48 2.99  50 3.00  49 3.00
  48  0.250  0.500  0.450- 180 2.11 176 2.12 174 2.12 150 2.12 173 2.12 189 2.12  46 2.99  61 2.99
                            22 2.99  45 2.99  23 2.99  63 2.99  39 2.99  47 2.99  50 3.00  49 3.00
  49  0.125  0.500  0.550- 180 2.12 155 2.12 196 2.12 179 2.12 173 2.12 177 2.14  52 2.97  68 2.98
                            27 2.98  51 2.98  42 2.99  50 2.99  66 2.99  26 3.00  23 3.00  48 3.00
  50  0.250  0.625  0.550- 180 2.12 195 2.12 179 2.12 188 2.12 174 2.12 178 2.14  67 2.97  52 2.97
                            51 2.98  60 2.98  49 2.99  57 2.99  73 2.99  48 3.00  63 3.00  47 3.00
  51  0.125  0.625  0.648- 179 2.10 178 2.12 177 2.12 194 2.12 185 2.12  57 2.97  66 2.97  50 2.98
                            49 2.98  60 2.99  76 2.99  68 2.99  52 2.99
  52  0.250  0.500  0.647- 180 2.09 193 2.11 154 2.12 177 2.12 178 2.12  26 2.97  50 2.97  65 2.97
                            49 2.97  67 2.99  27 2.99  51 2.99  43 3.00
[...]

[...]

  34 f  =    0.884046 THz     5.554624 2PiTHz   29.488597 cm-1     3.656118 meV
             X         Y         Z           dx          dy          dz
      8.099799  7.941048 16.959704     0.176195   -0.066433    0.413873
      9.487545  7.772947 16.923535     0.173960    0.005318    0.155144
     10.037377  6.485760 16.966626     0.239363    0.028872   -0.051707
      9.199517  5.369179 17.049726     0.311530   -0.022815    0.004450
      7.810038  5.537223 17.088437     0.313890   -0.097148    0.259332
      7.261510  6.822173 17.040526     0.246652   -0.118037    0.459208
      7.669855  8.943253 16.925074     0.034132   -0.024845    0.165023
     10.142819  8.641078 16.852595     0.035431    0.011830    0.032732
     11.121538  6.354845 16.938579     0.069680    0.023967   -0.073463
      9.631758  4.367764 17.079844     0.107417   -0.000400   -0.045907
      7.155127  4.666633 17.147353     0.105359   -0.038358    0.087925
      6.178601  6.956243 17.067789     0.070802   -0.050196    0.189337
      2.116786  0.000000  7.500000            0           0           0
      4.233571  2.116786  7.500000            0           0           0
      2.116786  2.116786  9.616786            0           0           0
      4.233571  0.000000  9.616786            0           0           0
      2.116854  0.000346 11.738455            0           0           0
      4.234059  2.117283 11.738104            0           0           0
      2.117394  2.117359 13.828801            0           0           0
      4.234100  0.000601 13.828520            0           0           0
      2.116786  4.233571  7.500000            0           0           0
      4.233571  6.350357  7.500000            0           0           0
      2.116786  6.350357  9.616786            0           0           0
      4.233571  4.233571  9.616786            0           0           0
      2.117217  4.233891 11.738288            0           0           0
      4.236243  6.350744 11.738377            0           0           0
      2.117619  6.350641 13.828565            0           0           0
      4.235227  4.235016 13.826826            0           0           0
      6.350357  0.000000  7.500000            0           0           0
      0.000000  2.116786  7.500000            0           0           0
      6.350357  2.116786  9.616786            0           0           0
      0.000000  0.000000  9.616786            0           0           0
      6.350793  0.000564 11.738239            0           0           0
      0.000173  2.116807 11.738492            0           0           0
      6.351650  2.118439 13.826350            0           0           0
      0.000230  0.000440 13.828996            0           0           0
      6.350357  4.233571  7.500000            0           0           0
      0.000000  6.350357  7.500000            0           0           0
      6.350357  6.350357  9.616786            0           0           0
      0.000000  4.233571  9.616786            0           0           0
      6.352381  4.236038 11.738479            0           0           0
      0.000106  6.350435 11.738567            0           0           0
      6.360506  6.352346 13.833948            0           0           0
      0.000179  4.233898 13.828618            0           0           0
      2.116786  8.467143  7.500000            0           0           0
      4.233571 10.583928  7.500000            0           0           0
      2.116786 10.583928  9.616786            0           0           0
      4.233571  8.467143  9.616786            0           0           0
      2.116847  8.467069 11.737598            0           0           0
      4.233618 10.583829 11.737212            0           0           0
      2.116950 10.584184 13.828054            0           0           0
      4.234543  8.467127 13.823899            0           0           0
      2.116786 12.700714  7.500000            0           0           0
      4.233571 14.817500  7.500000            0           0           0
      2.116786 14.817500  9.616786            0           0           0
      4.233571 12.700714  9.616786            0           0           0
      2.116815 12.700980 11.738137            0           0           0
      4.233739 14.817851 11.738285            0           0           0
      2.117108 14.817885 13.828833            0           0           0
      4.233628 12.700782 13.828156            0           0           0
[...]
      8.467143 10.583928  9.616786            0           0           0
     14.817500 10.583928  7.500000            0           0           0
      8.467143  8.467143  7.500000            0           0           0
     14.817592  8.467569 13.879277            0           0           0
      8.467339 10.583938 13.886846            0           0           0
     14.818160 10.584447 11.730112            0           0           0
      8.466963  8.472447 11.729760            0           0           0
     14.817500 12.700714  9.616786            0           0           0
      8.467143 14.817500  9.616786            0           0           0
     14.817500 14.817500  7.500000            0           0           0
      8.467143 12.700714  7.500000            0           0           0
     14.818254 12.701435 13.879502            0           0           0
      8.467225 14.817435 13.879994            0           0           0
     14.817919 14.817983 11.730505            0           0           0
      8.467109 12.700396 11.730854            0           0           0

  35 f/i=    1.551098 THz     9.745834 2PiTHz   51.739051 cm-1     6.414822 meV
             X         Y         Z           dx          dy          dz
      8.099799  7.941048 16.959704    -0.314588   -0.332082   -0.168576
      9.487545  7.772947 16.923535    -0.274933   -0.051476   -0.161702
     10.037377  6.485760 16.966626    -0.018881    0.060843   -0.088804
      9.199517  5.369179 17.049726     0.203628   -0.103164   -0.012936
      7.810038  5.537223 17.088437     0.172909   -0.380935   -0.004161
      7.261510  6.822173 17.040526    -0.086110   -0.495814   -0.080642
      7.669855  8.943253 16.925074    -0.150253   -0.122048   -0.066001
     10.142819  8.641078 16.852595    -0.129673    0.021782   -0.062195
     11.121538  6.354845 16.938579     0.002022    0.078713   -0.025652
      9.631758  4.367764 17.079844     0.116677   -0.004126    0.011543
      7.155127  4.666633 17.147353     0.100051   -0.146287    0.017960
      6.178601  6.956243 17.067789    -0.032789   -0.205198   -0.020910
      2.116786  0.000000  7.500000            0           0           0
      4.233571  2.116786  7.500000            0           0           0
      2.116786  2.116786  9.616786            0           0           0
      4.233571  0.000000  9.616786            0           0           0
      2.116854  0.000346 11.738455            0           0           0
      4.234059  2.117283 11.738104            0           0           0
      2.117394  2.117359 13.828801            0           0           0
      4.234100  0.000601 13.828520            0           0           0
      2.116786  4.233571  7.500000            0           0           0
      4.233571  6.350357  7.500000            0           0           0
      2.116786  6.350357  9.616786            0           0           0
      4.233571  4.233571  9.616786            0           0           0
      2.117217  4.233891 11.738288            0           0           0
      4.236243  6.350744 11.738377            0           0           0
      2.117619  6.350641 13.828565            0           0           0
      4.235227  4.235016 13.826826            0           0           0
      6.350357  0.000000  7.500000            0           0           0
      0.000000  2.116786  7.500000            0           0           0
      6.350357  2.116786  9.616786            0           0           0
      0.000000  0.000000  9.616786            0           0           0
      6.350793  0.000564 11.738239            0           0           0
      0.000173  2.116807 11.738492            0           0           0
      6.351650  2.118439 13.826350            0           0           0
      0.000230  0.000440 13.828996            0           0           0
      6.350357  4.233571  7.500000            0           0           0
      0.000000  6.350357  7.500000            0           0           0
      6.350357  6.350357  9.616786            0           0           0
      0.000000  4.233571  9.616786            0           0           0
      6.352381  4.236038 11.738479            0           0           0
      0.000106  6.350435 11.738567            0           0           0
      6.360506  6.352346 13.833948            0           0           0
      0.000179  4.233898 13.828618            0           0           0
      2.116786  8.467143  7.500000            0           0           0
      4.233571 10.583928  7.500000            0           0           0
      2.116786 10.583928  9.616786            0           0           0
      4.233571  8.467143  9.616786            0           0           0
      2.116847  8.467069 11.737598            0           0           0
      4.233618 10.583829 11.737212            0           0           0
      2.116950 10.584184 13.828054            0           0           0
      4.234543  8.467127 13.823899            0           0           0
      2.116786 12.700714  7.500000            0           0           0
      4.233571 14.817500  7.500000            0           0           0
      2.116786 14.817500  9.616786            0           0           0
      4.233571 12.700714  9.616786            0           0           0
      2.116815 12.700980 11.738137            0           0           0
      4.233739 14.817851 11.738285            0           0           0
      2.117108 14.817885 13.828833            0           0           0
      4.233628 12.700782 13.828156            0           0           0
[...]
      8.467143 10.583928  9.616786            0           0           0
     14.817500 10.583928  7.500000            0           0           0
      8.467143  8.467143  7.500000            0           0           0
     14.817592  8.467569 13.879277            0           0           0
      8.467339 10.583938 13.886846            0           0           0
     14.818160 10.584447 11.730112            0           0           0
      8.466963  8.472447 11.729760            0           0           0
     14.817500 12.700714  9.616786            0           0           0
      8.467143 14.817500  9.616786            0           0           0
     14.817500 14.817500  7.500000            0           0           0
      8.467143 12.700714  7.500000            0           0           0
     14.818254 12.701435 13.879502            0           0           0
      8.467225 14.817435 13.879994            0           0           0
     14.817919 14.817983 11.730505            0           0           0
      8.467109 12.700396 11.730854            0           0           0

  36 f/i=    1.865047 THz    11.718434 2PiTHz   62.211259 cm-1     7.713210 meV
             X         Y         Z           dx          dy          dz
      8.099799  7.941048 16.959704    -0.149196    0.240506   -0.109239
      9.487545  7.772947 16.923535    -0.127882    0.427654   -0.168879
     10.037377  6.485760 16.966626     0.044526    0.502577   -0.124058
      9.199517  5.369179 17.049726     0.190674    0.400627    0.004476
      7.810038  5.537223 17.088437     0.168925    0.212851    0.063989
      7.261510  6.822173 17.040526    -0.001042    0.136199    0.002597
      7.669855  8.943253 16.925074    -0.081777    0.052192   -0.042800
     10.142819  8.641078 16.852595    -0.071049    0.146887   -0.072511
     11.121538  6.354845 16.938579     0.017258    0.183682   -0.050302
      9.631758  4.367764 17.079844     0.093547    0.132577    0.013307
      7.155127  4.666633 17.147353     0.083409    0.037125    0.046292
      6.178601  6.956243 17.067789    -0.004865   -0.000301    0.013211
      2.116786  0.000000  7.500000            0           0           0
      4.233571  2.116786  7.500000            0           0           0
      2.116786  2.116786  9.616786            0           0           0
      4.233571  0.000000  9.616786            0           0           0
      2.116854  0.000346 11.738455            0           0           0
      4.234059  2.117283 11.738104            0           0           0
      2.117394  2.117359 13.828801            0           0           0
      4.234100  0.000601 13.828520            0           0           0
      2.116786  4.233571  7.500000            0           0           0
      4.233571  6.350357  7.500000            0           0           0
      2.116786  6.350357  9.616786            0           0           0
      4.233571  4.233571  9.616786            0           0           0
      2.117217  4.233891 11.738288            0           0           0
      4.236243  6.350744 11.738377            0           0           0
      2.117619  6.350641 13.828565            0           0           0
      4.235227  4.235016 13.826826            0           0           0
      6.350357  0.000000  7.500000            0           0           0
      0.000000  2.116786  7.500000            0           0           0
      6.350357  2.116786  9.616786            0           0           0
      0.000000  0.000000  9.616786            0           0           0
      6.350793  0.000564 11.738239            0           0           0
      0.000173  2.116807 11.738492            0           0           0
      6.351650  2.118439 13.826350            0           0           0
      0.000230  0.000440 13.828996            0           0           0
      6.350357  4.233571  7.500000            0           0           0
      0.000000  6.350357  7.500000            0           0           0
      6.350357  6.350357  9.616786            0           0           0
      0.000000  4.233571  9.616786            0           0           0
      6.352381  4.236038 11.738479            0           0           0
      0.000106  6.350435 11.738567            0           0           0
      6.360506  6.352346 13.833948            0           0           0
      0.000179  4.233898 13.828618            0           0           0
      2.116786  8.467143  7.500000            0           0           0
      4.233571 10.583928  7.500000            0           0           0
      2.116786 10.583928  9.616786            0           0           0
      4.233571  8.467143  9.616786            0           0           0
      2.116847  8.467069 11.737598            0           0           0
      4.233618 10.583829 11.737212            0           0           0
      2.116950 10.584184 13.828054            0           0           0
      4.234543  8.467127 13.823899            0           0           0
      2.116786 12.700714  7.500000            0           0           0
      4.233571 14.817500  7.500000            0           0           0
      2.116786 14.817500  9.616786            0           0           0
      4.233571 12.700714  9.616786            0           0           0
      2.116815 12.700980 11.738137            0           0           0
      4.233739 14.817851 11.738285            0           0           0
      2.117108 14.817885 13.828833            0           0           0
      4.233628 12.700782 13.828156            0           0           0
[...]
      8.467143 10.583928  9.616786            0           0           0
     14.817500 10.583928  7.500000            0           0           0
      8.467143  8.467143  7.500000            0           0           0
     14.817592  8.467569 13.879277            0           0           0
      8.467339 10.583938 13.886846            0           0           0
     14.818160 10.584447 11.730112            0           0           0
      8.466963  8.472447 11.729760            0           0           0
     14.817500 12.700714  9.616786            0           0           0
      8.467143 14.817500  9.616786            0           0           0
     14.817500 14.817500  7.500000            0           0           0
      8.467143 12.700714  7.500000            0           0           0
     14.818254 12.701435 13.879502            0           0           0
      8.467225 14.817435 13.879994            0           0           0
     14.817919 14.817983 11.730505            0           0           0
      8.467109 12.700396 11.730854            0           0           0

 Finite differences POTIM=   1.0000000000000000E-002