 vasp.6.3.0 20Jan22 (build Apr  1 2022 16:44:48) complex
 executed on        HPECrayEX_GCC date 2022.11.13  17:13:18

 INCAR:
   SYSTEM = MgO-rocksalt
   ISMEAR = 0
   SIGMA = 0.05
   EDIFF = 1E-6
   ALGO = ALL
   ISTART = 0
   IBRION = -1
   NSW = 0
   ISYM = 0
   DIPOL = 0.5 0.5 0.5
   IDIPOL = 3
   LDIPOL = .TRUE.
   LHFCALC = .TRUE.
   GGA = B5
   AEXX = 0.2
   AGGAX = 0.72
   AGGAC = 0.81
   ALDAC = 0.19
   IVDW = 1
   VDW_S6 = 1.05
   VDW_C6 = 0.63 0.70
   VDW_R0 = 1.243 1.342
   ENCUT = 600
   PREC = Accurate
   LASPH = .TRUE.
   LREAL = .FALSE.
   ISPIN = 2
   MAGMOM = 0.0 0.0 0.0 0.0 0.0 0.0 0.0 0.0 0.0 0.0 0.0 0.0 0.0 0.0 0.0 0.0 0.0 0.0 0.0 0.0 0.0 0.0 0.0 0.0 0.0 0.0 0.0 0.0 0.0 0.0 0.0 0.0 0.0 0.0 0.0 0.0 0.0 0.0 0.0 0.0 0.0 0.0 0.0 0.0 0.0 0.0 0.0 0.0 0.0 0.0 0.0 0.0 0.0 0.0 0.0 0.0 0.0 0.0 0.0 0.0 0.0 0.0 0.0 0.0
   NELM = 200
   NELMIN = 8
   NCORE = 8
   KPAR = 1
   LWAVE = .FALSE.
   LCHARG = .FALSE.

 POTCAR:    PAW_PBE Mg_pv 13Apr2007
 POTCAR:    PAW_PBE O 08Apr2002
 POTCAR:    PAW_PBE Mg_pv 13Apr2007
   VRHFIN =Mg: p6s2

   TITEL  = PAW_PBE Mg_pv 13Apr2007
   POMASS =   24.305; ZVAL   =    8.000    mass and valenz
   ENMAX  =  403.929; ENMIN  =  302.947 eV

   TITEL  = PAW_PBE O 08Apr2002
   POMASS =   16.000; ZVAL   =    6.000    mass and valenz
   ENMAX  =  400.000; ENMIN  =  300.000 eV

  PAW_PBE Mg_pv 13Apr2007               :
  PAW_PBE O 08Apr2002                   :

 POSCAR: Mg  O
  positions in direct lattice
 exchange correlation table for  LEXCH =       12
   RHO(1)=    0.500       N(1)  =     2000
   RHO(2)=  100.500       N(2)  =     4000

 ion  position               nearest neighbor table
   1  0.250  0.000  0.351-  33 2.12  35 2.12  36 2.12  43 2.12  52 2.12
   2  0.500  0.250  0.351-  34 2.12  35 2.12  36 2.12  44 2.12  51 2.12
   3  0.250  0.250  0.450-  35 2.12  34 2.12  33 2.12  41 2.12  50 2.12  39 2.12
   4  0.500  0.000  0.450-  36 2.12  34 2.12  33 2.12  42 2.12  49 2.12  40 2.12
   5  0.250  0.000  0.550-  56 2.12  39 2.12  47 2.12  40 2.12  33 2.13  37 2.15
   6  0.500  0.250  0.550-  48 2.11  39 2.12  55 2.12  40 2.12  34 2.13  38 2.15
   7  0.250  0.250  0.649-  39 2.11  37 2.12  54 2.12  45 2.12  38 2.12
   8  0.500  0.001  0.648-  40 2.10  38 2.11  46 2.11  37 2.12  53 2.12
   9  0.250  0.500  0.351-  41 2.12  35 2.12  43 2.12  44 2.12  60 2.12
  10  0.500  0.750  0.351-  42 2.12  36 2.12  43 2.12  44 2.12  59 2.12
  11  0.250  0.750  0.450-  43 2.12  41 2.12  42 2.12  33 2.12  58 2.12  47 2.12
  12  0.500  0.500  0.450-  44 2.12  41 2.12  42 2.12  34 2.12  57 2.12  48 2.13
  13  0.250  0.500  0.550-  48 2.11  39 2.12  47 2.12  64 2.12  41 2.13  45 2.15
  14  0.500  0.750  0.550-  48 2.11  63 2.11  47 2.12  40 2.12  42 2.13  46 2.13
  15  0.249  0.750  0.648-  47 2.10  62 2.11  46 2.11  37 2.12  45 2.12
  16  0.500  0.500  0.650-  45 2.12  38 2.12  48 2.13  46 2.13  61 2.13
  17  0.750  0.000  0.351-  49 2.12  36 2.12  51 2.12  52 2.12  59 2.12
  18  0.000  0.250  0.351-  50 2.12  35 2.12  51 2.12  52 2.12  60 2.12
  19  0.750  0.250  0.450-  51 2.12  49 2.12  50 2.12  34 2.12  57 2.12  55 2.12
  20  0.000  0.000  0.450-  52 2.12  49 2.12  50 2.12  33 2.12  58 2.12  56 2.12
  21  0.750  1.000  0.550-  63 2.11  56 2.12  40 2.12  55 2.12  49 2.13  53 2.15
  22  0.000  0.250  0.550-  56 2.12  39 2.12  55 2.12  64 2.12  50 2.13  54 2.15
  23  0.750  0.249  0.648-  55 2.10  53 2.11  61 2.11  54 2.12  38 2.12
  24  0.000  0.000  0.649-  56 2.11  37 2.12  54 2.12  53 2.12  62 2.12
  25  0.750  0.500  0.351-  57 2.12  51 2.12  44 2.12  59 2.12  60 2.12
  26  0.000  0.750  0.351-  58 2.12  52 2.12  43 2.12  59 2.12  60 2.12
  27  0.750  0.750  0.450-  59 2.12  49 2.12  57 2.12  58 2.12  42 2.12  63 2.13
  28  0.000  0.500  0.450-  60 2.12  50 2.12  57 2.12  58 2.12  41 2.12  64 2.12
  29  0.750  0.500  0.550-  48 2.11  63 2.11  55 2.12  64 2.12  57 2.13  61 2.13
  30  1.000  0.750  0.550-  63 2.11  56 2.12  64 2.12  47 2.12  58 2.13  62 2.15
  31  0.750  0.750  0.650-  53 2.12  62 2.12  63 2.13  46 2.13  61 2.13
  32  0.001  0.500  0.648-  64 2.10  45 2.11  61 2.11  54 2.12  62 2.12
  33  0.250  0.000  0.450-   1 2.12   3 2.12   4 2.12  11 2.12  20 2.12   5 2.13
  34  0.500  0.250  0.450-   2 2.12   3 2.12   4 2.12  12 2.12  19 2.12   6 2.13
  35  0.250  0.250  0.351-   3 2.12   2 2.12   1 2.12   9 2.12  18 2.12
  36  0.500  0.000  0.351-   4 2.12   2 2.12   1 2.12  10 2.12  17 2.12
  37  0.250  0.000  0.651-  24 2.12   7 2.12  15 2.12   8 2.12   5 2.15
  38  0.500  0.250  0.651-   8 2.11  16 2.12   7 2.12  23 2.12   6 2.15
  39  0.250  0.250  0.550-   7 2.11  22 2.12   5 2.12  13 2.12   6 2.12   3 2.12
  40  0.500  0.000  0.550-   8 2.10   5 2.12  21 2.12   6 2.12  14 2.12   4 2.12
  41  0.250  0.500  0.450-   9 2.12   3 2.12  11 2.12  12 2.12  28 2.12  13 2.13
  42  0.500  0.750  0.450-  10 2.12   4 2.12  11 2.12  12 2.12  27 2.12  14 2.13
  43  0.250  0.750  0.351-  11 2.12   9 2.12  10 2.12   1 2.12  26 2.12
  44  0.500  0.500  0.351-  12 2.12   9 2.12  10 2.12   2 2.12  25 2.12
  45  0.250  0.500  0.651-  32 2.11  16 2.12   7 2.12  15 2.12  13 2.15
  46  0.498  0.752  0.650-  15 2.11   8 2.11  14 2.13  16 2.13  31 2.13
  47  0.250  0.750  0.550-  15 2.10   5 2.12  13 2.12  30 2.12  14 2.12  11 2.12
  48  0.500  0.500  0.550-   6 2.11  13 2.11  14 2.11  29 2.11  12 2.13  16 2.13
  49  0.750  0.000  0.450-  17 2.12   4 2.12  19 2.12  20 2.12  27 2.12  21 2.13
  50  0.000  0.250  0.450-  18 2.12   3 2.12  19 2.12  20 2.12  28 2.12  22 2.13
  51  0.750  0.250  0.351-  19 2.12  17 2.12  18 2.12   2 2.12  25 2.12
  52  0.000  0.000  0.351-  20 2.12  17 2.12  18 2.12   1 2.12  26 2.12
  53  0.750  1.000  0.651-  23 2.11  31 2.12  24 2.12   8 2.12  21 2.15
  54  0.000  0.250  0.651-  24 2.12   7 2.12  23 2.12  32 2.12  22 2.15
  55  0.750  0.250  0.550-  23 2.10  22 2.12   6 2.12  21 2.12  29 2.12  19 2.12
  56  1.000  1.000  0.550-  24 2.11   5 2.12  22 2.12  30 2.12  21 2.12  20 2.12
  57  0.750  0.500  0.450-  25 2.12  19 2.12  12 2.12  27 2.12  28 2.12  29 2.13
  58  0.000  0.750  0.450-  26 2.12  20 2.12  11 2.12  27 2.12  28 2.12  30 2.13
  59  0.750  0.750  0.351-  27 2.12  17 2.12  25 2.12  26 2.12  10 2.12
  60  0.000  0.500  0.351-  28 2.12  18 2.12  25 2.12  26 2.12   9 2.12
  61  0.752  0.498  0.650-  23 2.11  32 2.11  29 2.13  16 2.13  31 2.13
  62  1.000  0.750  0.651-  15 2.11  31 2.12  24 2.12  32 2.12  30 2.15
  63  0.750  0.750  0.550-  21 2.11  30 2.11  29 2.11  14 2.11  27 2.13  31 2.13
  64  0.000  0.500  0.550-  32 2.10  22 2.12  30 2.12  13 2.12  29 2.12  28 2.12

IMPORTANT INFORMATION: All symmetrisations will be switched off!
NOSYMM: (Re-)initialisation of all symmetry stuff for point group C_1.

                                     Primitive cell

  volume of cell :    1530.6606

  direct lattice vectors                    reciprocal lattice vectors
     8.467142631  0.000000000  0.000000000     0.118103597  0.000000000  0.000000000
     0.000000000  8.467142631  0.000000000     0.000000000  0.118103597  0.000000000
     0.000000000  0.000000000 21.350356973     0.000000000  0.000000000  0.046837624

  length of vectors
     8.467142631  8.467142631 21.350356973     0.118103597  0.118103597  0.046837624

  position of ions in fractional coordinates (direct lattice)
     0.250000000  0.000000000  0.351282183
     0.500000000  0.250000000  0.351282183
     0.250000000  0.250000000  0.450427394
     0.500000000  0.000000000  0.450427394
     0.249937844  0.000062152  0.550128748
     0.500029213  0.250463329  0.550227208
     0.249978371  0.249978371  0.648557316
     0.499657893  0.000976693  0.648276515
     0.250000000  0.500000000  0.351282183
     0.500000000  0.750000000  0.351282183
     0.250000000  0.750000000  0.450427394
     0.500000000  0.500000000  0.450427394
     0.250463325  0.500029211  0.550227207
     0.500113427  0.749886564  0.549984896
     0.249023307  0.750342106  0.648276541
     0.499941778  0.499941778  0.649861115
     0.750000000  0.000000000  0.351282183
     0.000000000  0.250000000  0.351282183
     0.750000000  0.250000000  0.450427394
     0.000000000  0.000000000  0.450427394
     0.749970793  0.999536681  0.550227223
     0.000062151  0.249937845  0.550128747
     0.750342106  0.249023306  0.648276540
     0.000021631  0.000021630  0.648557307
     0.750000000  0.500000000  0.351282183
     0.000000000  0.750000000  0.351282183
     0.750000000  0.750000000  0.450427394
     0.000000000  0.500000000  0.450427394
     0.749886565  0.500113427  0.549984896
     0.999536682  0.749970793  0.550227222
     0.750058217  0.750058218  0.649861111
     0.000976693  0.499657895  0.648276516
     0.250000000  0.000000000  0.450427394
     0.500000000  0.250000000  0.450427394
     0.250000000  0.250000000  0.351282183
     0.500000000  0.000000000  0.351282183
     0.249771214  0.000228785  0.650770012
     0.500158286  0.250064556  0.650845058
     0.250039319  0.250039320  0.549855041
     0.499931256  0.000240257  0.549738904
     0.250000000  0.500000000  0.450427394
     0.500000000  0.750000000  0.450427394
     0.250000000  0.750000000  0.351282183
     0.500000000  0.500000000  0.351282183
     0.250064556  0.500158284  0.650845058
     0.498164512  0.751835479  0.649835775
     0.249759742  0.750068747  0.549738913
     0.500139030  0.500139030  0.550073341
     0.750000000  0.000000000  0.450427394
     0.000000000  0.250000000  0.450427394
     0.750000000  0.250000000  0.351282183
     0.000000000  0.000000000  0.351282183
     0.749841717  0.999935442  0.650845058
     0.000228784  0.249771214  0.650770012
     0.750068747  0.249759743  0.549738913
     0.999960680  0.999960680  0.549855042
     0.750000000  0.500000000  0.450427394
     0.000000000  0.750000000  0.450427394
     0.750000000  0.750000000  0.351282183
     0.000000000  0.500000000  0.351282183
     0.751835480  0.498164511  0.649835775
     0.999935443  0.749841715  0.650845058
     0.749860971  0.749860970  0.550073347
     0.000240256  0.499931255  0.549738905

  ion indices of the primitive-cell ions
   primitive index   ion index
                 1           1
                 2           2
                 3           3
                 4           4
                 5           5
                 6           6
                 7           7
                 8           8
                 9           9
                10          10
                11          11
                12          12
                13          13
                14          14
                15          15
                16          16
                17          17
                18          18
                19          19
                20          20
                21          21
                22          22
                23          23
                24          24
                25          25
                26          26
                27          27
                28          28
                29          29
                30          30
                31          31
                32          32
                33          33
                34          34
                35          35
[...]
   0.50000000  0.75000000  0.45042739
   0.25000000  0.75000000  0.35128218
   0.50000000  0.50000000  0.35128218
   0.25006456  0.50015828  0.65084506
   0.49816451  0.75183548  0.64983578
   0.24975974  0.75006875  0.54973891
   0.50013903  0.50013903  0.55007334
   0.75000000  0.00000000  0.45042739
   0.00000000  0.25000000  0.45042739
   0.75000000  0.25000000  0.35128218
   0.00000000  0.00000000  0.35128218
   0.74984172  0.99993544  0.65084506
   0.00022878  0.24977121  0.65077001
   0.75006875  0.24975974  0.54973891
   0.99996068  0.99996068  0.54985504
   0.75000000  0.50000000  0.45042739
   0.00000000  0.75000000  0.45042739
   0.75000000  0.75000000  0.35128218
   0.00000000  0.50000000  0.35128218
   0.75183548  0.49816451  0.64983578
   0.99993544  0.74984172  0.65084506
   0.74986097  0.74986097  0.55007335
   0.00024026  0.49993125  0.54973890

 position of ions in cartesian coordinates  (Angst):
   2.11678566  0.00000000  7.50000000
   4.23357132  2.11678566  7.50000000
   2.11678566  2.11678566  9.61678566
   4.23357132  0.00000000  9.61678566
   2.11625937  0.00052625 11.74544514
   4.23381867  2.12070873 11.74754731
   2.11660252  2.11660252 13.84693021
   4.23067465  0.00826980 13.84093502
   2.11678566  4.23357132  7.50000000
   4.23357132  6.35035697  7.50000000
   2.11678566  6.35035697  9.61678566
   4.23357132  4.23357132  9.61678566
   2.12070869  4.23381865 11.74754729
   4.23453172  6.34939650 11.74237386
   2.10851586  6.35325363 13.84093556
   4.23307834  4.23307834 13.87476680
   6.35035697  0.00000000  7.50000000
   0.00000000  2.11678566  7.50000000
   6.35035697  2.11678566  9.61678566
   0.00000000  0.00000000  9.61678566
   6.35010967  8.46321965 11.74754762
   0.00052625  2.11625938 11.74544514
   6.35325363  2.10851585 13.84093556
   0.00018315  0.00018314 13.84693003
   6.35035697  4.23357132  7.50000000
   0.00000000  6.35035697  7.50000000
   6.35035697  6.35035697  9.61678566
   0.00000000  4.23357132  9.61678566
   6.34939651  4.23453172 11.74237386
   8.46321965  6.35010968 11.74754761
   6.35084990  6.35084991 13.87476670
   0.00826980  4.23067466 13.84093502
   2.11678566  0.00000000  9.61678566
   4.23357132  2.11678566  9.61678566
   2.11678566  2.11678566  7.50000000
   4.23357132  0.00000000  7.50000000
   2.11484849  0.00193715 13.89417207
   4.23491154  2.11733227 13.89577433
   2.11711858  2.11711859 11.73960142
   4.23298925  0.00203429 11.73712185
   2.11678566  4.23357132  9.61678566
   4.23357132  6.35035697  9.61678566
   2.11678566  6.35035697  7.50000000
   4.23357132  4.23357132  7.50000000
   2.11733226  4.23491153 13.89577432
   4.21802997  6.36589824 13.87422578
   2.11475136  6.35093906 11.73712204
   4.23474850  4.23474850 11.74426220
   6.35035697  0.00000000  9.61678566
   0.00000000  2.11678566  9.61678566
   6.35035697  2.11678566  7.50000000
   0.00000000  0.00000000  7.50000000
   6.34901677  8.46659601 13.89577431
   0.00193715  2.11484849 13.89417206
   6.35093906  2.11475137 11.73712203
   8.46680971  8.46680971 11.73960142
   6.35035697  4.23357132  9.61678566
   0.00000000  6.35035697  9.61678566
   6.35035697  6.35035697  7.50000000
   0.00000000  4.23357132  7.50000000
   6.36589824  4.21802997 13.87422577
   8.46659601  6.34901675 13.89577431
   6.34917979  6.34917979 11.74426232
   0.00203428  4.23298924 11.73712186

--------------------------------------- Iteration      FINAL  ---------------------------------------

--------------------OUTCAR has been truncated-------------------------

[...]

--------------------OUTCAR has been truncated-------------------------

  DFT-D2 method for vdW energy calculation

  Parameters of vdW forcefield:
         C6(Jnm^6/mol)     R0(A)
   Mg       0.630          1.243
   O        0.700          1.342

  vdW correction parametrized for the method aÿ      

  IVDW =   1
  VDW_RADIUS =    50.000 A
  VDW_S6 =     1.050
  VDW_SR =     1.000
  VDW_D =    20.000
  LVDW_EWALD = F

  Number of pair interactions contributing to vdW energy:  719076
  Edisp (eV):   -5.01457

 VOLUME and BASIS-vectors are now :
  energy-cutoff  :      600.00
  volume of cell :     1530.66
      direct lattice vectors                 reciprocal lattice vectors
     8.467142631  0.000000000  0.000000000     0.118103597  0.000000000  0.000000000
     0.000000000  8.467142631  0.000000000     0.000000000  0.118103597  0.000000000
     0.000000000  0.000000000 21.350356973     0.000000000  0.000000000  0.046837624

  length of vectors
     8.467142631  8.467142631 21.350356973     0.118103597  0.118103597  0.046837624

 FORCES acting on ions:
    Electron-Ion                     Ewald-Force                    Non-Local-Force
   -.847E-02 0.847E-02 0.205E+04   0.653E-02 -.653E-02 -.205E+04   0.131E-02 -.131E-02 -.638E+01
   -.883E-02 -.382E-01 0.205E+04   0.709E-02 0.385E-01 -.205E+04   0.116E-02 -.296E-03 -.638E+01
   -.222E+00 -.222E+00 0.680E+03   0.237E+00 0.237E+00 -.680E+03   -.954E-02 -.953E-02 0.447E+00
   -.246E+00 -.405E-01 0.680E+03   0.257E+00 0.887E-01 -.680E+03   -.667E-02 -.303E-01 0.382E+00
   -.540E-01 0.540E-01 -.684E+03   0.794E-01 -.793E-01 0.684E+03   -.159E-01 0.159E-01 -.165E+00
   -.148E+00 -.107E+01 -.686E+03   0.180E+00 0.116E+01 0.686E+03   -.174E-01 -.769E-01 -.144E+00
   -.100E+01 -.100E+01 -.204E+04   0.853E+00 0.853E+00 0.203E+04   0.120E+00 0.120E+00 0.544E+01
   -.121E+01 0.119E+01 -.204E+04   0.108E+01 -.137E+01 0.203E+04   0.103E+00 0.103E+00 0.546E+01
   -.382E-01 -.883E-02 0.205E+04   0.385E-01 0.709E-02 -.205E+04   -.292E-03 0.116E-02 -.638E+01
   -.410E-01 0.410E-01 0.205E+04   0.402E-01 -.402E-01 -.205E+04   0.472E-03 -.475E-03 -.637E+01
   0.406E-01 0.246E+00 0.680E+03   -.887E-01 -.256E+00 -.680E+03   0.303E-01 0.667E-02 0.382E+00
   0.553E-01 0.553E-01 0.679E+03   -.798E-01 -.798E-01 -.679E+03   0.166E-01 0.166E-01 0.472E+00
   -.107E+01 -.148E+00 -.686E+03   0.116E+01 0.180E+00 0.686E+03   -.769E-01 -.174E-01 -.144E+00
   -.137E+01 0.137E+01 -.683E+03   0.146E+01 -.146E+01 0.683E+03   -.803E-01 0.803E-01 -.465E+00
   -.119E+01 0.121E+01 -.204E+04   0.137E+01 -.108E+01 0.203E+04   -.103E+00 -.103E+00 0.546E+01
   -.461E+01 -.461E+01 -.205E+04   0.432E+01 0.432E+01 0.204E+04   0.282E+00 0.282E+00 0.583E+01
   0.883E-02 0.382E-01 0.205E+04   -.709E-02 -.385E-01 -.205E+04   -.116E-02 0.295E-03 -.638E+01
   0.847E-02 -.847E-02 0.205E+04   -.653E-02 0.653E-02 -.205E+04   -.131E-02 0.131E-02 -.638E+01
   0.246E+00 0.406E-01 0.680E+03   -.256E+00 -.887E-01 -.680E+03   0.667E-02 0.303E-01 0.382E+00
   0.222E+00 0.222E+00 0.680E+03   -.237E+00 -.237E+00 -.680E+03   0.954E-02 0.954E-02 0.447E+00
   0.148E+00 0.107E+01 -.686E+03   -.180E+00 -.116E+01 0.686E+03   0.174E-01 0.769E-01 -.144E+00
   0.540E-01 -.540E-01 -.684E+03   -.793E-01 0.794E-01 0.684E+03   0.159E-01 -.159E-01 -.165E+00
   0.121E+01 -.119E+01 -.204E+04   -.108E+01 0.137E+01 0.203E+04   -.103E+00 -.103E+00 0.546E+01
   0.100E+01 0.100E+01 -.204E+04   -.853E+00 -.853E+00 0.203E+04   -.120E+00 -.120E+00 0.544E+01
   0.410E-01 -.410E-01 0.205E+04   -.402E-01 0.402E-01 -.205E+04   -.472E-03 0.470E-03 -.637E+01
   0.382E-01 0.883E-02 0.205E+04   -.385E-01 -.709E-02 -.205E+04   0.296E-03 -.116E-02 -.638E+01
   -.553E-01 -.553E-01 0.679E+03   0.798E-01 0.798E-01 -.679E+03   -.166E-01 -.166E-01 0.472E+00
   -.405E-01 -.246E+00 0.680E+03   0.887E-01 0.257E+00 -.680E+03   -.303E-01 -.667E-02 0.382E+00
   0.137E+01 -.137E+01 -.683E+03   -.146E+01 0.146E+01 0.683E+03   0.803E-01 -.803E-01 -.465E+00
   0.107E+01 0.148E+00 -.686E+03   -.116E+01 -.180E+00 0.686E+03   0.769E-01 0.174E-01 -.144E+00
   0.461E+01 0.461E+01 -.205E+04   -.432E+01 -.432E+01 0.204E+04   -.282E+00 -.282E+00 0.583E+01
   0.119E+01 -.121E+01 -.204E+04   -.137E+01 0.108E+01 0.203E+04   0.103E+00 0.103E+00 0.546E+01
   0.105E-01 -.105E-01 0.509E+03   -.903E-04 0.825E-04 -.509E+03   -.129E-01 0.129E-01 -.877E-01
   0.873E-02 -.162E+00 0.509E+03   -.336E-02 0.126E+00 -.509E+03   -.689E-02 0.436E-01 -.119E+00
   -.303E-01 -.303E-01 0.154E+04   0.312E-01 0.312E-01 -.155E+04   -.116E-02 -.116E-02 0.313E+01
   -.306E-01 0.285E-02 0.154E+04   0.317E-01 0.508E-03 -.155E+04   -.129E-02 -.417E-02 0.313E+01
   -.393E+00 0.393E+00 -.155E+04   0.461E+00 -.461E+00 0.156E+04   -.753E-01 0.753E-01 -.467E+01
   -.546E+00 -.175E+01 -.155E+04   0.604E+00 0.181E+01 0.156E+04   -.654E-01 -.391E-01 -.450E+01
   -.446E+00 -.446E+00 -.507E+03   0.440E+00 0.440E+00 0.507E+03   0.733E-02 0.733E-02 0.374E+00
   -.553E+00 0.177E+00 -.506E+03   0.559E+00 -.243E+00 0.505E+03   -.498E-02 0.801E-01 0.380E+00
   -.162E+00 0.872E-02 0.509E+03   0.126E+00 -.335E-02 -.509E+03   0.436E-01 -.689E-02 -.119E+00
   -.195E+00 0.195E+00 0.509E+03   0.185E+00 -.185E+00 -.509E+03   0.117E-01 -.117E-01 -.553E-01
   -.285E-02 0.307E-01 0.154E+04   -.510E-03 -.317E-01 -.155E+04   0.417E-02 0.129E-02 0.313E+01
   -.494E-02 -.494E-02 0.154E+04   0.667E-03 0.667E-03 -.155E+04   0.534E-02 0.534E-02 0.313E+01
   -.175E+01 -.546E+00 -.155E+04   0.181E+01 0.604E+00 0.156E+04   -.391E-01 -.654E-01 -.450E+01
   -.378E+01 0.378E+01 -.154E+04   0.367E+01 -.367E+01 0.155E+04   0.255E+00 -.255E+00 -.393E+01
   -.177E+00 0.553E+00 -.506E+03   0.243E+00 -.559E+00 0.505E+03   -.801E-01 0.498E-02 0.380E+00
   -.476E+00 -.476E+00 -.514E+03   0.548E+00 0.548E+00 0.514E+03   -.845E-01 -.845E-01 -.163E-01
   -.873E-02 0.162E+00 0.509E+03   0.336E-02 -.126E+00 -.509E+03   0.689E-02 -.436E-01 -.119E+00
   -.105E-01 0.105E-01 0.509E+03   0.826E-04 -.920E-04 -.509E+03   0.129E-01 -.129E-01 -.877E-01
   0.306E-01 -.285E-02 0.154E+04   -.317E-01 -.511E-03 -.155E+04   0.129E-02 0.417E-02 0.313E+01
   0.303E-01 0.303E-01 0.154E+04   -.312E-01 -.312E-01 -.155E+04   0.116E-02 0.116E-02 0.313E+01
   0.546E+00 0.175E+01 -.155E+04   -.604E+00 -.181E+01 0.156E+04   0.654E-01 0.391E-01 -.450E+01
   0.393E+00 -.393E+00 -.155E+04   -.461E+00 0.461E+00 0.156E+04   0.753E-01 -.753E-01 -.467E+01
   0.553E+00 -.177E+00 -.506E+03   -.559E+00 0.243E+00 0.505E+03   0.498E-02 -.801E-01 0.380E+00
   0.446E+00 0.446E+00 -.507E+03   -.440E+00 -.440E+00 0.507E+03   -.733E-02 -.733E-02 0.374E+00
   0.195E+00 -.195E+00 0.509E+03   -.185E+00 0.185E+00 -.509E+03   -.117E-01 0.117E-01 -.553E-01
   0.162E+00 -.874E-02 0.509E+03   -.126E+00 0.336E-02 -.509E+03   -.436E-01 0.689E-02 -.119E+00
   0.493E-02 0.494E-02 0.154E+04   -.664E-03 -.664E-03 -.155E+04   -.534E-02 -.534E-02 0.313E+01
   0.285E-02 -.307E-01 0.154E+04   0.508E-03 0.317E-01 -.155E+04   -.417E-02 -.129E-02 0.313E+01
   0.378E+01 -.378E+01 -.154E+04   -.367E+01 0.367E+01 0.155E+04   -.255E+00 0.255E+00 -.393E+01
   0.175E+01 0.546E+00 -.155E+04   -.181E+01 -.604E+00 0.156E+04   0.391E-01 0.654E-01 -.450E+01
   0.476E+00 0.476E+00 -.514E+03   -.548E+00 -.548E+00 0.514E+03   0.845E-01 0.845E-01 -.163E-01
   0.177E+00 -.553E+00 -.506E+03   -.243E+00 0.559E+00 0.505E+03   0.801E-01 -.498E-02 0.380E+00
   0.100E-05 0.468E-05 0.157E+02   -.777E-12 0.227E-12 0.318E-11   -.125E-04 -.520E-05 -.138E+02

 POSITION                                       TOTAL-FORCE (eV/Angst)
      2.11679      0.00000      7.50000        -0.000477      0.000477      0.510338
      4.23357      2.11679      7.50000        -0.000443     -0.000029      0.512341
      2.11679      2.11679      9.61679         0.004102      0.004107      0.027049
      4.23357      0.00000      9.61679         0.002863      0.013896      0.035265
      2.11626      0.00053     11.74545         0.007576     -0.007569     -0.021263
      4.23382      2.12071     11.74755         0.011292      0.005046     -0.034964
      2.11660      2.11660     13.84693        -0.017671     -0.017669     -0.094308
      4.23067      0.00827     13.84094        -0.019069     -0.063252     -0.082987
      2.11679      4.23357      7.50000        -0.000027     -0.000443      0.512351
      4.23357      6.35036      7.50000        -0.000287      0.000286      0.507571
      2.11679      6.35036      9.61679        -0.013898     -0.002858      0.035232
      4.23357      4.23357      9.61679        -0.005837     -0.005839      0.033658
      2.12071      4.23382     11.74755         0.005043      0.011289     -0.034961
      4.23453      6.34940     11.74237         0.003733     -0.003740      0.051735
      2.10852      6.35325     13.84094         0.063231      0.019063     -0.082957
      4.23308      4.23308     13.87477         0.015200      0.015202     -0.360735
      6.35036      0.00000      7.50000         0.000442      0.000028      0.512349
      0.00000      2.11679      7.50000         0.000475     -0.000476      0.510350
      6.35036      2.11679      9.61679        -0.002856     -0.013898      0.035233
      0.00000      0.00000      9.61679        -0.004106     -0.004103      0.027079
      6.35011      8.46322     11.74755        -0.011280     -0.005029     -0.034997
      0.00053      2.11626     11.74545        -0.007569      0.007575     -0.021263
      6.35325      2.10852     13.84094         0.019063      0.063235     -0.082941
      0.00018      0.00018     13.84693         0.017675      0.017675     -0.094237
      6.35036      4.23357      7.50000         0.000291     -0.000290      0.507570
      0.00000      6.35036      7.50000         0.000029      0.000442      0.512347
      6.35036      6.35036      9.61679         0.005839      0.005839      0.033628
      0.00000      4.23357      9.61679         0.013896      0.002858      0.035264
      6.34940      4.23453     11.74237        -0.003738      0.003735      0.051736
      8.46322      6.35011     11.74755        -0.005033     -0.011284     -0.034996
      6.35085      6.35085     13.87477        -0.015215     -0.015211     -0.360763
      0.00827      4.23067     13.84094        -0.063253     -0.019066     -0.083009
      2.11679      0.00000      9.61679        -0.004410      0.004411      0.049458
      4.23357      2.11679      9.61679        -0.002528      0.013396      0.048811
      2.11679      2.11679      7.50000        -0.000396     -0.000398     -0.393562
      4.23357      0.00000      7.50000        -0.000448     -0.001382     -0.392673
      2.11485      0.00194     13.89417        -0.016993      0.016984     -0.129302
      4.23491      2.11733     13.89577        -0.016393      0.016405     -0.086197
      2.11712      2.11712     11.73960         0.002771      0.002773      0.026835
      4.23299      0.00203     11.73712         0.000410      0.024825      0.018265
      2.11679      4.23357      9.61679         0.013392     -0.002530      0.048807
      4.23357      6.35036      9.61679         0.003605     -0.003604      0.047480
      2.11679      6.35036      7.50000         0.001384      0.000454     -0.392637
      4.23357      4.23357      7.50000         0.001808      0.001809     -0.392392
      2.11733      4.23491     13.89577         0.016403     -0.016391     -0.086196
      4.21803      6.36590     13.87423         0.178074     -0.178069      0.106459
      2.11475      6.35094     11.73712        -0.024838     -0.000409      0.018270
      4.23475      4.23475     11.74426        -0.024356     -0.024355     -0.004770
      6.35036      0.00000      9.61679         0.002529     -0.013392      0.048809
      0.00000      2.11679      9.61679         0.004410     -0.004409      0.049460
      6.35036      2.11679      7.50000         0.000453      0.001380     -0.392633
      0.00000      0.00000      7.50000         0.000395      0.000397     -0.393598
      6.34902      8.46660     13.89577         0.016407     -0.016405     -0.086200
      0.00194      2.11485     13.89417         0.016986     -0.016994     -0.129303
      6.35094      2.11475     11.73712        -0.000402     -0.024837      0.018270
      8.46681      8.46681     11.73960        -0.002776     -0.002774      0.026803
      6.35036      4.23357      9.61679        -0.003604      0.003604      0.047481
      0.00000      6.35036      9.61679        -0.013392      0.002528      0.048810
      6.35036      6.35036      7.50000        -0.001809     -0.001804     -0.392354
      0.00000      4.23357      7.50000        -0.001381     -0.000453     -0.392675
      6.36590      4.21803     13.87423        -0.178070      0.178076      0.106457
      8.46660      6.34902     13.89577        -0.016399      0.016406     -0.086197
      6.34918      6.34918     11.74426         0.024351      0.024352     -0.004771
      0.00203      4.23299     11.73712         0.024827      0.000407      0.018268
    total drift:                               -0.000033     -0.000022      0.018471

  FREE ENERGIE OF THE ION-ELECTRON SYSTEM (eV)
  free  energy   TOTEN  =      -438.17396667 eV

  energy  without entropy=     -438.17396667  energy(sigma->0) =     -438.17396667