 vasp.6.3.0 20Jan22 (build Apr  1 2022 16:44:48) gamma-only
 executed on        HPECrayEX_GCC date 2023.02.21  02:03:43

 INCAR:
   SYSTEM = MgO-rocksalt
   ISMEAR = 0
   SIGMA = 0.05
   EDIFF = 1E-6
   ALGO = ALL
   ISTART = 0
   IBRION = -1
   NSW = 0
   ISYM = 0
   DIPOL = 0.5 0.5 0.5
   IDIPOL = 3
   LDIPOL = .TRUE.
   GGA = MK
   LUSE_VDW = .TRUE.
   PARAM1 = 0.1234
   PARAM2 = 0.711357
   ZAB_VDW = -1.8867
   AGGAC = 0.0
   ENCUT = 520
   PREC = Accurate
   LASPH = .TRUE.
   LREAL = Auto
   ISPIN = 1
   NELM = 200
   NELMIN = 8
   NCORE = 8
   KPAR = 1
   LWAVE = .FALSE.
   LCHARG = .FALSE.

 POTCAR:    PAW_PBE Mg_pv 13Apr2007
 POTCAR:    PAW_PBE O 08Apr2002
|               ----> ADVICE to this user running VASP <----                  |
|     You have switched on vdW-DFT.                                           |
|     This routine was written and supplied by Jiri Klimes. We recommend      |
|     that you carefully read and cite the following publications:            |
|       J. Klimes, D.R. Bowler, A. Michelides                                 |
|          J. Phys.: Cond Matt. 22 022201 (2010)                              |
|       J. Klimes, D.R. Bowler, A. Michelides                                 |
|          Phys. Rev. B. 83, 195131 (2011)                                    |
|     and references therein.                                                 |

   TITEL  = PAW_PBE Mg_pv 13Apr2007
   POMASS =   24.305; ZVAL   =    8.000    mass and valenz
   ENMAX  =  403.929; ENMIN  =  302.947 eV

   TITEL  = PAW_PBE O 08Apr2002
   POMASS =   16.000; ZVAL   =    6.000    mass and valenz
   ENMAX  =  400.000; ENMIN  =  300.000 eV

 Optimization of the real space projectors (new method)

 maximal supplied QI-value         = 18.90
 optimisation between [QCUT,QGAM] = [ 11.53, 23.24] = [ 37.21,151.29] Ry
 Optimized for a Real-space Cutoff    1.28 Angstroem

   l    n(q)    QCUT    max X(q) W(low)/X(q) W(high)/X(q)  e(spline)
   1      8    11.527     2.974    0.44E-04    0.56E-04    0.12E-06
   1      8    11.527     4.279    0.12E-03    0.12E-03    0.26E-06
   0      9    11.527    16.381    0.46E-04    0.64E-04    0.78E-07
   0      9    11.527     5.611    0.26E-04    0.43E-04    0.55E-07
   2      8    11.527     4.652    0.22E-03    0.72E-04    0.47E-07
 Optimization of the real space projectors (new method)

 maximal supplied QI-value         = 24.76
 optimisation between [QCUT,QGAM] = [ 11.64, 23.27] = [ 37.91,151.63] Ry
 Optimized for a Real-space Cutoff    1.14 Angstroem

   l    n(q)    QCUT    max X(q) W(low)/X(q) W(high)/X(q)  e(spline)
   0      8    11.635    20.381    0.10E-03    0.33E-03    0.24E-06
   0      8    11.635    15.268    0.11E-03    0.35E-03    0.26E-06
   1      7    11.635     5.964    0.24E-03    0.31E-03    0.30E-06
   1      7    11.635     5.382    0.22E-03    0.25E-03    0.26E-06
|               ----> ADVICE to this user running VASP <----                  |
|     You enforced a specific xc type in the INCAR file but a different       |
|     type was found in the POTCAR file.                                      |
|     I HOPE YOU KNOW WHAT YOU ARE DOING!                                     |

  PAW_PBE Mg_pv 13Apr2007               :
  PAW_PBE O 08Apr2002                   :

 POSCAR: Mg  O
  positions in direct lattice
 exchange correlation table for  LEXCH =       43
   RHO(1)=    0.500       N(1)  =     2000
   RHO(2)=  100.500       N(2)  =     4000

 ion  position               nearest neighbor table
   1  0.125  0.000  0.352- 129 2.11 131 2.11 132 2.11 148 2.11 171 2.11
   2  0.250  0.125  0.352- 130 2.11 131 2.11 132 2.11 140 2.11 147 2.11
   3  0.125  0.125  0.451- 135 2.11 131 2.11 129 2.11 130 2.11 137 2.11 146 2.11
   4  0.250  0.000  0.451- 136 2.11 132 2.11 129 2.11 130 2.11 145 2.11 170 2.11
   5  0.125  1.000  0.550- 136 2.11 135 2.11 175 2.11 152 2.11 129 2.11 133 2.14
   6  0.250  0.125  0.549- 144 2.11 151 2.11 130 2.11 135 2.11 136 2.11 134 2.14
   7  0.125  0.125  0.648- 135 2.10 134 2.10 150 2.11 141 2.11 133 2.11
   8  0.250  1.000  0.648- 136 2.10 134 2.10 174 2.11 149 2.11 133 2.11
   9  0.125  0.250  0.352- 137 2.11 131 2.11 139 2.11 140 2.11 156 2.11
  10  0.250  0.375  0.352- 138 2.11 139 2.11 140 2.11 155 2.11 164 2.11
  11  0.125  0.375  0.451- 143 2.11 139 2.11 137 2.11 138 2.11 154 2.11 161 2.11
  12  0.250  0.250  0.451- 144 2.11 140 2.11 138 2.11 130 2.11 137 2.11 153 2.11
  13  0.125  0.250  0.550- 144 2.10 160 2.11 143 2.11 137 2.11 135 2.11 141 2.14
  14  0.250  0.375  0.550- 159 2.10 144 2.11 168 2.11 138 2.12 143 2.12 142 2.14
  15  0.125  0.375  0.647- 142 2.09 143 2.09 158 2.11 165 2.11 141 2.12
  16  0.250  0.250  0.647- 144 2.08 157 2.09 141 2.11 134 2.12 142 2.12
  17  0.375  0.000  0.352- 145 2.11 132 2.11 147 2.11 187 2.11 212 2.11
  18  0.000  0.125  0.352- 146 2.11 131 2.11 148 2.11 156 2.11 211 2.11
  19  0.375  0.125  0.451- 151 2.11 147 2.11 130 2.11 145 2.11 153 2.11 210 2.11
  20  0.000  0.000  0.451- 148 2.11 146 2.11 129 2.11 186 2.11 209 2.11 152 2.11
  21  0.375  1.000  0.550- 151 2.10 191 2.11 216 2.11 145 2.11 136 2.11 149 2.14
  22  0.000  0.125  0.550- 135 2.11 215 2.11 152 2.11 160 2.11 146 2.11 150 2.14
  23  0.375  0.125  0.647- 151 2.08 157 2.09 149 2.11 134 2.11 214 2.12
  24  0.000  1.000  0.648- 152 2.10 133 2.11 213 2.11 190 2.11 150 2.11
  25  0.375  0.250  0.352- 153 2.11 147 2.11 140 2.11 155 2.11 220 2.11
  26  0.000  0.375  0.352- 154 2.11 139 2.11 156 2.11 180 2.11 219 2.11
  27  0.375  0.375  0.451- 155 2.11 153 2.11 138 2.11 177 2.11 218 2.11 159 2.12
  28  0.000  0.250  0.451- 156 2.11 146 2.11 154 2.11 137 2.11 217 2.11 160 2.11
  29  0.375  0.251  0.550- 224 2.10 159 2.10 157 2.12 144 2.13 151 2.13 153 2.13
  30  1.000  0.375  0.550- 223 2.11 143 2.11 184 2.11 160 2.11 154 2.11 158 2.14
  31  0.374  0.375  0.651- 222 2.12 142 2.12 157 2.13 181 2.14 159 2.16
  32  0.000  0.250  0.648- 160 2.10 141 2.11 221 2.11 150 2.11 158 2.11
  33  0.125  0.500  0.352- 161 2.11 139 2.11 163 2.11 164 2.11 180 2.11
  34  0.250  0.625  0.352- 162 2.11 163 2.11 164 2.11 172 2.11 179 2.11
  35  0.125  0.625  0.451- 167 2.11 163 2.11 161 2.11 162 2.11 169 2.11 178 2.11
  36  0.250  0.500  0.451- 168 2.11 164 2.11 162 2.11 138 2.11 161 2.11 177 2.11
  37  0.125  0.500  0.550- 168 2.10 184 2.11 143 2.11 167 2.11 161 2.11 165 2.14
  38  0.250  0.625  0.549- 183 2.11 168 2.11 162 2.11 176 2.11 167 2.11 166 2.14
  39  0.125  0.625  0.648- 167 2.10 166 2.10 182 2.11 165 2.11 173 2.11
  40  0.250  0.500  0.647- 168 2.08 181 2.09 165 2.11 166 2.11 142 2.12
  41  0.125  0.750  0.352- 169 2.11 163 2.11 171 2.11 172 2.11 188 2.11
  42  0.250  0.875  0.352- 170 2.11 132 2.11 171 2.11 172 2.11 187 2.11
  43  0.125  0.875  0.451- 175 2.11 171 2.11 170 2.11 129 2.11 169 2.11 186 2.11
  44  0.250  0.750  0.451- 176 2.11 172 2.11 170 2.11 162 2.11 169 2.11 185 2.11
  45  0.125  0.750  0.550- 176 2.11 167 2.11 192 2.11 175 2.11 169 2.11 173 2.14
  46  0.250  0.875  0.550- 176 2.11 136 2.11 191 2.11 175 2.11 170 2.11 174 2.14
  47  0.125  0.875  0.648- 175 2.10 173 2.11 133 2.11 190 2.11 174 2.11
  48  0.250  0.750  0.648- 176 2.10 166 2.10 174 2.11 189 2.11 173 2.11
  49  0.375  0.500  0.352- 177 2.11 164 2.11 155 2.11 179 2.11 244 2.11
  50  0.000  0.625  0.352- 178 2.11 163 2.11 180 2.11 188 2.11 243 2.11
  51  0.375  0.625  0.451- 183 2.11 179 2.11 162 2.11 177 2.11 185 2.11 242 2.11
  52  0.000  0.500  0.451- 180 2.11 161 2.11 178 2.11 154 2.11 241 2.11 184 2.11
  53  0.376  0.500  0.550- 248 2.10 159 2.10 181 2.12 183 2.13 168 2.13 177 2.13
  54  1.000  0.625  0.550- 247 2.11 167 2.11 184 2.11 192 2.11 178 2.11 182 2.14
  55  0.375  0.625  0.647- 183 2.09 181 2.09 189 2.11 166 2.12 246 2.12
  56  1.000  0.500  0.648- 184 2.09 245 2.11 165 2.11 182 2.11 158 2.11
  57  0.375  0.750  0.352- 185 2.11 179 2.11 172 2.11 187 2.11 252 2.11
  58  0.000  0.875  0.352- 186 2.11 171 2.11 148 2.11 188 2.11 251 2.11
  59  0.375  0.875  0.451- 187 2.11 170 2.11 185 2.11 145 2.11 250 2.11 191 2.11
  60  0.000  0.750  0.451- 192 2.11 188 2.11 186 2.11 169 2.11 178 2.11 249 2.11
[...]
 242  0.500  0.625  0.451- 114 2.11  99 2.11  51 2.11 116 2.11 124 2.11 118 2.12
 243  0.875  0.625  0.352- 115 2.11  98 2.11 113 2.11  50 2.11 121 2.11
 244  0.500  0.500  0.352- 116 2.11  90 2.11  97 2.11 114 2.11  49 2.11
 245  0.875  0.500  0.650-  56 2.11 119 2.11 104 2.11  95 2.12 117 2.14
 246  0.500  0.626  0.650- 128 2.09  55 2.12 103 2.12 120 2.12 118 2.14
 247  0.875  0.625  0.549- 119 2.10  54 2.11 125 2.11 115 2.11 102 2.11 117 2.11
 248  0.500  0.500  0.550- 118 2.10 101 2.10  53 2.10  94 2.12 116 2.12 120 2.16
 249  0.875  0.750  0.451- 121 2.11 108 2.11 115 2.11  60 2.11 123 2.11 125 2.11
 250  0.500  0.875  0.451- 122 2.11  84 2.11 107 2.11  59 2.11 124 2.11 126 2.11
 251  0.875  0.875  0.352- 123 2.11  81 2.11 106 2.11 121 2.11  58 2.11
 252  0.500  0.750  0.352- 124 2.11 105 2.11 114 2.11 122 2.11  57 2.11
 253  0.875  0.750  0.650-  64 2.11 127 2.11 119 2.11 112 2.11 125 2.14
 254  0.500  0.875  0.650- 128 2.11  88 2.11  63 2.11 111 2.11 126 2.14
 255  0.875  0.875  0.549- 127 2.10  62 2.11  85 2.11 125 2.11 123 2.11 110 2.11
 256  0.500  0.750  0.549- 128 2.09 126 2.11 124 2.11 109 2.11  61 2.11 118 2.12

IMPORTANT INFORMATION: All symmetrisations will be switched off!
NOSYMM: (Re-)initialisation of all symmetry stuff for point group C_1.

                                     Primitive cell

  volume of cell :    6078.6138

  direct lattice vectors                    reciprocal lattice vectors
    16.881164524  0.000000000  0.000000000     0.059237619  0.000000000  0.000000000
     0.000000000 16.881164524  0.000000000     0.000000000  0.059237619  0.000000000
     0.000000000  0.000000000 21.330436697     0.000000000  0.000000000  0.046881366

  length of vectors
    16.881164524 16.881164524 21.330436697     0.059237619  0.059237619  0.046881366

  position of ions in fractional coordinates (direct lattice)
     0.125000000  0.000000000  0.351610242
     0.250000000  0.125000000  0.351610242
     0.125000000  0.125000000  0.450536747
     0.250000000  0.000000000  0.450536747
     0.124954114  0.999961650  0.549628944
     0.249964636  0.124995033  0.549476373
     0.124888681  0.124817387  0.647664354
     0.249801619  0.999873187  0.647643646
     0.125000000  0.250000000  0.351610242
     0.250000000  0.375000000  0.351610242
     0.125000000  0.375000000  0.450536747
     0.250000000  0.250000000  0.450536747
     0.124967646  0.250025796  0.549554666
     0.250422572  0.374999272  0.549908455
     0.124881650  0.375038822  0.647482090
     0.249779941  0.249700610  0.646998511
     0.375000000  0.000000000  0.351610242
     0.000000000  0.125000000  0.351610242
     0.375000000  0.125000000  0.450536747
     0.000000000  0.000000000  0.450536747
     0.375007962  0.999943521  0.549549712
     0.000006756  0.124945643  0.549628123
     0.374657861  0.124756128  0.646889352
     0.000006010  0.999893578  0.647765300
     0.375000000  0.250000000  0.351610242
     0.000000000  0.375000000  0.351610242
     0.375000000  0.375000000  0.450536747
     0.000000000  0.250000000  0.450536747
[...]
   6.33994837  8.43272602 11.73922140
  16.88111441 10.55146966 11.72388717
   6.32577869 10.55480497 13.80139422
  16.88109227  8.44303580 13.81638271
   6.33043670 12.66087339  7.50000000
   0.00000000 14.77101896  7.50000000
   6.33043670 14.77101896  9.61014557
   0.00000000 12.66087339  9.61014557
[...]
   8.44058226 10.55072783  9.61014557
  14.77101896 10.55072783  7.50000000
   8.44058226  8.44058226  7.50000000
  14.77452581  8.44455354 13.86402930
   8.44110955 10.57383848 13.86643238
  14.77343202 10.55262597 11.71935334
   8.44143621  8.44726945 11.73338450
  14.77101896 12.66087339  9.61014557
   8.44058226 14.77101896  9.61014557
  14.77101896 14.77101896  7.50000000
   8.44058226 12.66087339  7.50000000
  14.77411412 12.66408943 13.86114513
   8.44054094 14.77069509 13.86393360
  14.77233545 14.77130209 11.71978334
   8.44075009 12.66463089 11.71857389

--------------------------------------- Iteration      FINAL  ---------------------------------------

--------------------OUTCAR has been truncated-------------------------

[...]

--------------------OUTCAR has been truncated-------------------------

  FORCE on cell =-STRESS in cart. coord.  units (eV):
  Direction    XX          YY          ZZ          XY          YZ          ZX
  Alpha Z  3501.42050  3501.42050  3501.42050
  Ewald  647254.67291647254.69080************     0.00994    -0.15305     0.07774
  Hartree687373.63744687373.61677************     0.00604    -0.08936     0.04773
  E(xc)   -9824.39818 -9824.39816 -9824.67452     0.00000    -0.00017     0.00011
  Local  ************************************    -0.01571     0.24073    -0.12720
  n-local-11319.34865-11319.33191-11394.55177    -0.00091    -0.00315     0.00167
  augment  4204.48982  4204.48576  4167.68303     0.00002    -0.00049     0.00077
  Kinetic 29214.02408 29214.02393 29369.69845    -0.00017     0.02881    -0.01547
  Fock        0.00000     0.00000     0.00000     0.00000     0.00000     0.00000
  Total    -108.37706  -108.36107     4.51056    -0.00080     0.02332    -0.01465
  in kB     -28.56560   -28.56139     1.18888    -0.00021     0.00615    -0.00386

 VOLUME and BASIS-vectors are now :
  energy-cutoff  :      520.00
  volume of cell :     6078.61
      direct lattice vectors                 reciprocal lattice vectors
    16.881164524  0.000000000  0.000000000     0.059237619  0.000000000  0.000000000
     0.000000000 16.881164524  0.000000000     0.000000000  0.059237619  0.000000000
     0.000000000  0.000000000 21.330436697     0.000000000  0.000000000  0.046881366

  length of vectors
    16.881164524 16.881164524 21.330436697     0.059237619  0.059237619  0.046881366

 FORCES acting on ions:
    Electron-Ion                     Ewald-Force                    Non-Local-Force
   -.341E+00 -.348E+00 0.207E+04   0.331E+00 0.339E+00 -.206E+04   0.744E-02 0.740E-02 -.680E+01
   -.950E+00 -.976E+00 0.207E+04   0.940E+00 0.966E+00 -.206E+04   0.804E-02 0.784E-02 -.678E+01
   -.751E+00 -.904E+00 0.688E+03   0.714E+00 0.874E+00 -.688E+03   0.278E-01 0.225E-01 0.338E+00
   -.868E+00 -.787E+00 0.688E+03   0.835E+00 0.749E+00 -.688E+03   0.246E-01 0.282E-01 0.336E+00
   -.599E+00 -.706E+00 -.689E+03   0.574E+00 0.674E+00 0.690E+03   0.170E-01 0.234E-01 -.267E+00
   -.169E+01 -.175E+01 -.687E+03   0.158E+01 0.165E+01 0.688E+03   0.617E-01 0.552E-01 -.166E+00
   -.499E-01 -.143E+01 -.206E+04   0.788E-01 0.141E+01 0.205E+04   -.465E-01 0.132E-01 0.587E+01
   -.133E+01 -.892E-01 -.206E+04   0.131E+01 0.123E+00 0.205E+04   0.132E-01 -.498E-01 0.587E+01
   -.799E+00 -.520E+00 0.207E+04   0.792E+00 0.512E+00 -.206E+04   0.551E-02 0.623E-02 -.679E+01
   -.165E+01 -.387E-01 0.207E+04   0.164E+01 0.386E-01 -.206E+04   0.447E-03 -.795E-04 -.679E+01
   -.220E+01 -.629E-01 0.687E+03   0.220E+01 0.613E-01 -.687E+03   0.783E-02 0.116E-02 0.345E+00
   -.387E+01 -.215E+01 0.687E+03   0.387E+01 0.215E+01 -.687E+03   0.399E-02 -.466E-03 0.346E+00
   -.560E+00 -.122E+01 -.689E+03   0.501E+00 0.119E+01 0.690E+03   0.121E-01 0.155E-01 -.187E+00
   -.430E+01 -.220E+00 -.693E+03   0.445E+01 0.221E+00 0.693E+03   -.228E+00 0.182E-02 -.153E+00
   0.116E+01 0.416E-01 -.205E+04   -.117E+01 -.352E-01 0.205E+04   -.687E-01 -.832E-02 0.579E+01
   0.109E+01 -.272E+01 -.205E+04   -.132E+01 0.241E+01 0.204E+04   0.434E-01 0.249E+00 0.585E+01
   -.482E+00 -.797E+00 0.207E+04   0.474E+00 0.789E+00 -.206E+04   0.604E-02 0.604E-02 -.679E+01
   -.407E-02 -.470E+00 0.207E+04   0.430E-02 0.457E+00 -.206E+04   -.170E-03 0.987E-02 -.680E+01
   -.205E+01 -.391E+01 0.686E+03   0.205E+01 0.392E+01 -.687E+03   0.222E-03 0.138E-02 0.349E+00
   -.717E-02 -.418E+00 0.688E+03   0.695E-02 0.399E+00 -.688E+03   0.132E-03 0.143E-01 0.355E+00
   -.105E+01 -.652E+00 -.689E+03   0.101E+01 0.585E+00 0.689E+03   0.133E-01 0.236E-01 -.191E+00
   0.201E-01 -.115E+01 -.690E+03   -.169E-01 0.112E+01 0.690E+03   -.364E-02 0.268E-01 -.258E+00
   -.298E+01 -.861E-01 -.205E+04   0.264E+01 -.237E+00 0.204E+04   0.270E+00 0.143E+00 0.587E+01
   0.400E-02 -.103E+01 -.206E+04   -.231E-02 0.101E+01 0.205E+04   -.182E-02 0.236E-01 0.591E+01
   -.122E+01 -.127E+01 0.207E+04   0.122E+01 0.127E+01 -.206E+04   -.708E-03 -.136E-02 -.679E+01
   -.396E-02 -.270E-01 0.207E+04   0.394E-02 0.269E-01 -.206E+04   0.114E-04 -.202E-04 -.679E+01
   -.476E+01 -.110E+00 0.680E+03   0.482E+01 0.117E+00 -.680E+03   -.346E-01 -.513E-02 0.609E+00
   -.641E-02 -.600E+00 0.688E+03   0.100E-01 0.581E+00 -.688E+03   -.265E-02 0.145E-01 0.360E+00
   -.480E+01 -.467E+01 -.695E+03   0.498E+01 0.486E+01 0.696E+03   -.235E+00 -.250E+00 -.355E+00
   -.555E-01 -.193E-01 -.690E+03   0.561E-01 0.165E-01 0.691E+03   0.689E-03 0.356E-03 -.229E+00
   -.411E+01 -.911E+00 -.208E+04   0.336E+01 0.827E+00 0.208E+04   0.562E+00 0.893E-01 0.674E+01
   -.332E-02 -.133E+01 -.206E+04   0.488E-02 0.129E+01 0.205E+04   -.147E-02 0.416E-01 0.587E+01
   -.810E+00 0.486E+00 0.207E+04   0.803E+00 -.478E+00 -.206E+04   0.538E-02 -.621E-02 -.679E+01
   -.962E+00 0.989E+00 0.207E+04   0.953E+00 -.978E+00 -.206E+04   0.716E-02 -.817E-02 -.678E+01
   -.808E+00 0.930E+00 0.688E+03   0.772E+00 -.895E+00 -.688E+03   0.264E-01 -.260E-01 0.337E+00
   -.389E+01 0.208E+01 0.686E+03   0.390E+01 -.208E+01 -.687E+03   -.411E-02 -.124E-02 0.352E+00
   -.799E+00 0.117E+01 -.689E+03   0.730E+00 -.113E+01 0.689E+03   0.271E-01 -.161E-01 -.196E+00
   -.165E+01 0.182E+01 -.688E+03   0.156E+01 -.172E+01 0.688E+03   0.478E-01 -.566E-01 -.169E+00
   -.131E+00 0.143E+01 -.206E+04   0.161E+00 -.142E+01 0.205E+04   -.470E-01 -.920E-02 0.587E+01
   -.203E-02 0.315E+01 -.205E+04   -.329E+00 -.282E+01 0.204E+04   0.153E+00 -.273E+00 0.587E+01
   -.350E+00 0.383E+00 0.207E+04   0.341E+00 -.373E+00 -.206E+04   0.704E-02 -.758E-02 -.680E+01
   -.452E+00 0.261E-01 0.207E+04   0.439E+00 -.266E-01 -.206E+04   0.964E-02 0.293E-03 -.680E+01
   -.402E+00 0.423E-01 0.688E+03   0.383E+00 -.425E-01 -.689E+03   0.142E-01 0.111E-03 0.336E+00
   -.881E+00 0.861E+00 0.688E+03   0.850E+00 -.822E+00 -.688E+03   0.233E-01 -.282E-01 0.343E+00
   -.686E+00 0.751E+00 -.689E+03   0.655E+00 -.723E+00 0.690E+03   0.215E-01 -.199E-01 -.269E+00
   -.104E+01 0.739E-01 -.690E+03   0.101E+01 -.742E-01 0.690E+03   0.224E-01 0.839E-03 -.257E+00
   -.983E+00 -.892E-02 -.206E+04   0.958E+00 0.909E-02 0.205E+04   0.243E-01 0.339E-03 0.589E+01
   -.135E+01 0.214E+00 -.206E+04   0.133E+01 -.238E+00 0.205E+04   0.124E-01 0.393E-01 0.588E+01
   -.122E+01 0.122E+01 0.207E+04   0.123E+01 -.122E+01 -.206E+04   -.182E-02 0.299E-03 -.679E+01
   -.172E-02 0.479E+00 0.207E+04   0.158E-02 -.466E+00 -.206E+04   0.103E-03 -.981E-02 -.680E+01
   -.208E+01 0.396E+01 0.686E+03   0.208E+01 -.397E+01 -.687E+03   -.105E-02 -.244E-02 0.348E+00
   0.636E-03 0.551E+00 0.687E+03   -.307E-02 -.531E+00 -.688E+03   0.185E-02 -.149E-01 0.381E+00
   -.453E+01 0.483E+01 -.696E+03   0.472E+01 -.501E+01 0.696E+03   -.248E+00 0.240E+00 -.348E+00
   0.618E-02 0.110E+01 -.690E+03   -.843E-02 -.107E+01 0.690E+03   0.219E-02 -.238E-01 -.260E+00
   -.253E+01 -.921E+00 -.205E+04   0.223E+01 0.116E+01 0.204E+04   0.237E+00 -.473E-01 0.585E+01
   -.232E-01 0.136E+01 -.206E+04   0.218E-01 -.132E+01 0.205E+04   0.178E-02 -.429E-01 0.589E+01
   -.490E+00 0.844E+00 0.207E+04   0.482E+00 -.837E+00 -.206E+04   0.607E-02 -.526E-02 -.679E+01
   -.316E-02 0.182E-01 0.207E+04   0.315E-02 -.181E-01 -.206E+04   0.117E-04 -.957E-04 -.681E+01
   -.559E+00 0.701E-01 0.688E+03   0.537E+00 -.731E-01 -.688E+03   0.164E-01 0.202E-02 0.362E+00
   -.279E-03 0.478E+00 0.688E+03   0.345E-03 -.458E+00 -.688E+03   -.108E-04 -.150E-01 0.341E+00
[...]
   0.404E+00 0.446E+00 0.156E+04   -.398E+00 -.438E+00 -.156E+04   -.613E-02 -.144E-01 0.361E+01
   0.168E-02 0.108E+01 0.155E+04   -.177E-02 -.108E+01 -.156E+04   0.138E-03 0.407E-02 0.360E+01
   0.972E+00 0.111E+01 -.156E+04   -.938E+00 -.113E+01 0.157E+04   -.740E-01 -.176E-02 -.532E+01
   -.303E+00 0.561E+01 -.156E+04   0.283E+00 -.530E+01 0.157E+04   0.294E-01 -.619E+00 -.493E+01
   0.931E+00 0.114E+01 -.512E+03   -.939E+00 -.114E+01 0.512E+03   -.132E-01 -.126E-01 0.170E+00
   -.952E-01 0.652E+01 -.524E+03   0.100E+00 -.659E+01 0.525E+03   -.659E-02 -.250E-01 0.356E-01
   0.350E+00 0.418E+00 0.516E+03   -.347E+00 -.414E+00 -.516E+03   -.247E-02 -.576E-02 -.820E-01
   0.114E-01 0.386E-01 0.516E+03   -.109E-01 -.420E-01 -.516E+03   -.622E-03 0.318E-02 -.559E-01
   0.207E+00 0.179E-01 0.156E+04   -.202E+00 -.180E-01 -.156E+04   -.458E-02 0.338E-02 0.360E+01
   -.310E-03 0.747E+00 0.155E+04   -.146E-04 -.742E+00 -.156E+04   0.447E-03 -.694E-02 0.361E+01
   0.776E+00 0.766E+00 -.156E+04   -.794E+00 -.784E+00 0.157E+04   0.856E-02 0.735E-02 -.517E+01
   -.434E-02 -.232E-02 -.156E+04   0.419E-02 0.261E-02 0.157E+04   0.380E-03 -.701E-03 -.527E+01
   0.592E+00 0.630E-01 -.512E+03   -.598E+00 -.624E-01 0.512E+03   -.195E-02 -.219E-02 0.163E+00
   0.783E-02 0.316E+01 -.511E+03   -.632E-02 -.325E+01 0.511E+03   -.239E-02 0.278E-01 0.327E+00
   0.189E-01 0.425E-01 0.603E+02   0.240E-11 0.241E-11 0.391E-10   -.176E-01 -.544E-01 -.605E+02

 POSITION                                       TOTAL-FORCE (eV/Angst)
      2.11015      0.00000      7.50000        -0.002127     -0.002161      0.320228
      4.22029      2.11015      7.50000        -0.002355     -0.002056      0.316432
      2.11015      2.11015      9.61015        -0.009750     -0.007229      0.007437
      4.22029      0.00000      9.61015        -0.008240     -0.009757      0.007592
      2.10937     16.88052     11.72383        -0.008011     -0.008552      0.047737
      4.21969      2.11006     11.72057        -0.045327     -0.047649      0.040672
      2.10827      2.10706     13.81496        -0.017106     -0.006761      0.089420
      4.21694     16.87902     13.81452        -0.005038     -0.015783      0.093647
      2.11015      4.22029      7.50000        -0.001562     -0.001698      0.317963
      4.22029      6.33044      7.50000        -0.000341     -0.000110      0.316726
      2.11015      6.33044      9.61015         0.003807     -0.000436      0.008929
      4.22029      4.22029      9.61015         0.007433      0.002475      0.002147
      2.10960      4.22073     11.72224        -0.045219     -0.019216      0.048764
      4.22742      6.33042     11.72979        -0.080200      0.002919     -0.031418
      2.10815      6.33109     13.81108        -0.084598     -0.001781      0.136319
      4.21658      4.21524     13.80076        -0.185366     -0.064486      0.164455
      6.33044      0.00000      7.50000        -0.001790     -0.001820      0.317321
      0.00000      2.11015      7.50000         0.000046     -0.002756      0.319830
      6.33044      2.11015      9.61015         0.002033      0.008904      0.003117
      0.00000      0.00000      9.61015        -0.000091     -0.004531      0.014432
      6.33057     16.88021     11.72214        -0.020264     -0.042149      0.048762
      0.00011      2.10923     11.72381        -0.000383     -0.007301      0.050079
      6.32466      2.10603     13.79843        -0.068143     -0.176512      0.180446
      0.00010     16.87937     13.81712        -0.000126      0.000624      0.076542
      6.33044      4.22029      7.50000         0.000106      0.000498      0.316963
      0.00000      6.33044      7.50000        -0.000011     -0.000034      0.317864
      6.33044      6.33044      9.61015         0.023224      0.002297      0.025816
      0.00000      4.22029      9.61015         0.000931     -0.004657      0.008098
      6.33827      4.22936     11.73865        -0.051622     -0.056778     -0.118456
     16.88114      6.33073     11.72364         0.001228     -0.002343      0.052643
      6.32132      6.33039     13.89101        -0.182250      0.004686     -0.506963
      0.00012      4.21815     13.81577         0.000092      0.000069      0.094493
      2.11015      8.44058      7.50000        -0.001612      0.001790      0.317109
      4.22029     10.55073      7.50000        -0.002079      0.002589      0.316508
      2.11015     10.55073      9.61015        -0.009098      0.009032      0.008058
      4.22029      8.44058      9.61015         0.010667     -0.001720      0.004200
      2.10932      8.44059     11.72218        -0.040980      0.019047      0.049876
      4.22024     10.55144     11.72086        -0.046270      0.044611      0.039112
      2.10804     10.55424     13.81493        -0.016255      0.005135      0.089816
      4.21695      8.44664     13.79892        -0.174447      0.062770      0.179050
      2.11015     12.66087      7.50000        -0.001926      0.002284      0.320601
      4.22029     14.77102      7.50000        -0.002813     -0.000207      0.320263
      2.11015     14.77102      9.61015        -0.004434     -0.000091      0.013782
      4.22029     12.66087      9.61015        -0.007772      0.010027      0.008513
      2.10941     12.66172     11.72398        -0.009750      0.007985      0.045152
      4.21936     14.77103     11.72382        -0.009058      0.000587      0.048413
      2.10822     14.77103     13.81696        -0.000299      0.000547      0.074489
      4.21712     12.66310     13.81489        -0.005214      0.015078      0.090531
      6.33044      8.44058      7.50000         0.000496     -0.000106      0.317111
      0.00000     10.55073      7.50000        -0.000040      0.003007      0.319713
      6.33044     10.55073      9.61015         0.002340     -0.007909      0.002650
      0.00000      8.44058      9.61015        -0.000591      0.005037      0.008344
      6.33995      8.43273     11.73922        -0.054326      0.053606     -0.119649
     16.88111     10.55147     11.72389        -0.000075      0.011496      0.049586
      6.32578     10.55480     13.80139        -0.067151      0.187985      0.162907
     16.88109      8.44304     13.81638         0.000379     -0.002055      0.093743
      6.33044     12.66087      7.50000        -0.001880      0.001703      0.317928
      0.00000     14.77102      7.50000        -0.000005     -0.000010      0.321270
      6.33044     14.77102      9.61015        -0.005647     -0.000905      0.007675
      0.00000     12.66087      9.61015         0.000049      0.004759      0.014541
[...]
      8.44058     10.55073      9.61015         0.000195     -0.014117      0.053983
     14.77102     10.55073      7.50000         0.000649     -0.006284     -0.402858
      8.44058      8.44058      7.50000         0.000040      0.001253     -0.407781
     14.77453      8.44455     13.86403        -0.040465     -0.022654     -0.088481
      8.44111     10.57384     13.86643         0.009855     -0.303109      0.009709
     14.77343     10.55263     11.71935        -0.020707     -0.017063     -0.039330
      8.44144      8.44727     11.73338        -0.001605     -0.101613      0.133036
     14.77102     12.66087      9.61015         0.000721     -0.001747      0.015204
      8.44058     14.77102      9.61015        -0.000182     -0.000226      0.020349
     14.77102     14.77102      7.50000         0.001063      0.003327     -0.405181
      8.44058     12.66087      7.50000         0.000118     -0.001873     -0.402510
     14.77411     12.66409     13.86115        -0.009100     -0.010582     -0.045901
      8.44054     14.77070     13.86393         0.000228     -0.000371     -0.075540
     14.77234     14.77130     11.71978        -0.008068     -0.001587     -0.039477
      8.44075     12.66463     11.71857        -0.000894     -0.057640     -0.015595
    total drift:                                0.001296     -0.011814     -0.147728

  FREE ENERGIE OF THE ION-ELECTRON SYSTEM (eV)
  free  energy   TOTEN  =     -1059.02226770 eV

  energy  without entropy=    -1059.02226770  energy(sigma->0) =    -1059.02226770