 vasp.6.3.0 20Jan22 (build Dec 25 2023 18:06:01) complex
 executed on        HPECrayEX_GCC date 2024.01.24  03:03:17

 INCAR:
   SYSTEM = MgO-rocksalt
   ISMEAR = 0
   SIGMA = 0.05
   EDIFF = 1E-8
   ALGO = ALL
   ISTART = 0
   IBRION = 5
   POTIM = 0.01
   NFREE = 2
   ISYM = 0
   DIPOL = 0.5 0.5 0.5
   IDIPOL = 3
   LDIPOL = .TRUE.
   GGA = MK
   LUSE_VDW = .TRUE.
   PARAM1 = 0.1234
   PARAM2 = 0.711357
   ZAB_VDW = -1.8867
   AGGAC = 0.0
   ENCUT = 600
   PREC = Accurate
   LASPH = .TRUE.
   LREAL = .FALSE.
   ISPIN = 1
   NELM = 200
   NELMIN = 8
   NCORE = 8
   KPAR = 1
   LWAVE = .FALSE.
   LCHARG = .FALSE.

 POTCAR:    PAW_PBE C 08Apr2002
 POTCAR:    PAW_PBE O 08Apr2002
 POTCAR:    PAW_PBE Ti_pv 07Sep2000
 POTCAR:    PAW_PBE O 08Apr2002
|               ----> ADVICE to this user running VASP <----                  |
|     You have switched on vdW-DFT.                                           |
|     This routine was written and supplied by Jiri Klimes. We recommend      |
|     that you carefully read and cite the following publications:            |
|       J. Klimes, D.R. Bowler, A. Michelides                                 |
|          J. Phys.: Cond Matt. 22 022201 (2010)                              |
|       J. Klimes, D.R. Bowler, A. Michelides                                 |
|          Phys. Rev. B. 83, 195131 (2011)                                    |
|     and references therein.                                                 |

   TITEL  = PAW_PBE C 08Apr2002
   POMASS =   12.011; ZVAL   =    4.000    mass and valenz
   ENMAX  =  400.000; ENMIN  =  300.000 eV

[...]

   TITEL  = PAW_PBE Ti_pv 07Sep2000
   POMASS =   47.880; ZVAL   =   10.000    mass and valenz
   ENMAX  =  222.335; ENMIN  =  166.751 eV

   TITEL  = PAW_PBE O 08Apr2002
   POMASS =   16.000; ZVAL   =    6.000    mass and valenz
   ENMAX  =  400.000; ENMIN  =  300.000 eV

  PAW_PBE C 08Apr2002                   :
  PAW_PBE O 08Apr2002                   :
  PAW_PBE Ti_pv 07Sep2000               :
  PAW_PBE O 08Apr2002                   :

 POSCAR:  C  O Ti  O
  positions in direct lattice
 exchange correlation table for  LEXCH =       43
   RHO(1)=    0.500       N(1)  =     2000
   RHO(2)=  100.500       N(2)  =     4000

 ion  position               nearest neighbor table
   1  0.500  0.604  0.802-   2 1.17   3 1.18
   2  0.500  0.700  0.811-   1 1.17
   3  0.500  0.507  0.792-   1 1.18  83 2.53
   4  0.750  0.625  0.287-  84 1.96  85 1.96 144 1.96 145 1.96 166 1.99  87 1.99  14 2.96  34 2.96

   5  0.000  0.750  0.287-  87 1.96 107 1.96 106 1.96  86 1.96  88 1.99  35 2.96  15 2.96
   6  0.000  0.625  0.393-  88 1.96  89 1.96 148 1.96 149 1.96  90 1.99  91 1.99  16 2.96  36 2.96

[...]

  84  0.750  0.750  0.245-   4 1.96  14 1.96
  85  0.750  0.750  0.328-   4 1.96  14 1.96   7 1.99
  86  0.098  0.625  0.287-   5 1.96  35 1.96  44 1.99
  87  0.902  0.625  0.287-   5 1.96  35 1.96   4 1.99
  88  0.000  0.750  0.352-   6 1.96  16 1.96   5 1.99
  89  0.000  0.750  0.435-   6 1.96  16 1.96   9 1.99
  90  0.848  0.625  0.393-   7 1.96  37 1.96   6 1.99
  91  0.152  0.625  0.393-  47 1.96  77 1.96   6 1.99
  92  0.750  0.750  0.458-   8 1.96  18 1.96   7 1.99
  93  0.750  0.750  0.542-   8 1.96  18 1.96  11 2.11
  94  0.098  0.625  0.500-   9 1.96  39 1.96  48 1.99
  95  0.902  0.625  0.500-   9 1.96  39 1.96   8 1.99
  96  1.000  0.750  0.565-  10 1.90  20 1.90   9 2.01
  97  1.000  0.750  0.649-  13 1.82  10 2.02  20 2.02
  98  0.850  0.625  0.607-  10 1.96  11 1.98  41 1.98
  99  0.150  0.625  0.607-  10 1.96  51 1.98  81 1.98
 100  0.750  0.750  0.672-  11 1.87  12 2.09  22 2.10
 101  0.750  0.750  0.756-  12 1.83  22 1.83
 102  0.094  0.625  0.719-  43 1.95  13 1.95  52 2.04
 103  0.906  0.625  0.719-  43 1.95  13 1.95  12 2.04
 104  0.750  0.000  0.245-  14 1.96  24 1.96
 105  0.750  0.000  0.328-  14 1.96  24 1.96  17 1.99
 106  0.098  0.875  0.287-   5 1.96  15 1.96  54 1.99
 107  0.902  0.875  0.287-   5 1.96  15 1.96  14 1.99
 108  0.000  0.000  0.352-  16 1.96  26 1.96  15 1.99
 109  0.000  0.000  0.435-  16 1.96  26 1.96  19 1.99
 110  0.848  0.875  0.393-   7 1.96  17 1.96  16 1.99
 111  0.152  0.875  0.393-  47 1.96  57 1.96  16 1.99
 112  0.750  0.000  0.458-  18 1.96  28 1.96  17 1.99
 113  0.750  0.000  0.542-  18 1.96  28 1.96  21 2.11
 114  0.098  0.875  0.500-   9 1.96  19 1.96  58 1.99
 115  0.902  0.875  0.500-   9 1.96  19 1.96  18 1.99
 116  1.000  0.000  0.565-  30 1.90  20 1.90  19 2.01
 117  1.000  0.000  0.649-  23 1.82  30 2.02  20 2.02
 118  0.850  0.875  0.607-  20 1.96  11 1.98  21 1.98
 119  0.150  0.875  0.607-  20 1.96  51 1.98  61 1.98
 120  0.750  0.000  0.672-  21 1.87  22 2.10  32 2.10
 121  0.750  0.000  0.756-  22 1.83  32 1.83
 122  0.094  0.875  0.719-  13 1.95  23 1.95  62 2.04
 123  0.906  0.875  0.719-  13 1.95  23 1.95  22 2.04
 124  0.750  0.250  0.245-  24 1.96  34 1.96
 125  0.750  0.250  0.328-  24 1.96  34 1.96  27 1.99
 126  0.098  0.125  0.287-  15 1.96  25 1.96  64 1.99
 127  0.902  0.125  0.287-  15 1.96  25 1.96  24 1.99
 128  0.000  0.250  0.352-  26 1.96  36 1.96  25 1.99
 129  0.000  0.250  0.435-  26 1.96  36 1.96  29 1.99
 130  0.848  0.125  0.393-  17 1.96  27 1.96  26 1.99
 131  0.152  0.125  0.393-  57 1.96  67 1.96  26 1.99
 132  0.750  0.250  0.458-  28 1.96  38 1.96  27 1.99
 133  0.750  0.250  0.542-  28 1.96  38 1.96  31 2.11
 134  0.098  0.125  0.500-  19 1.96  29 1.96  68 1.99
 135  0.902  0.125  0.500-  19 1.96  29 1.96  28 1.99
 136  1.000  0.250  0.565-  40 1.90  30 1.90  29 2.01
 137  1.000  0.250  0.649-  33 1.82  40 2.02  30 2.02
 138  0.850  0.125  0.607-  30 1.96  21 1.98  31 1.98
 139  0.150  0.125  0.607-  30 1.96  61 1.98  71 1.98
 140  0.751  0.250  0.672-  31 1.87  32 2.10  42 2.10
 141  0.750  0.250  0.756-  42 1.83  32 1.83
 142  0.094  0.125  0.719-  33 1.95  23 1.95  72 2.04
 143  0.906  0.125  0.719-  33 1.95  23 1.95  32 2.04
[...]
 229  0.500  0.500  0.435-  46 1.96  76 1.96  79 1.99
 230  0.348  0.375  0.393-  67 1.96  77 1.96  76 1.99
 231  0.652  0.375  0.393-  27 1.96  37 1.96  76 1.99
 232  0.250  0.500  0.458-  48 1.96  78 1.96  77 1.99
 233  0.250  0.500  0.542-  48 1.96  78 1.96  81 2.11
 234  0.598  0.375  0.500-  69 1.96  79 1.96  38 1.99
 235  0.402  0.375  0.500-  69 1.96  79 1.96  78 1.99
 236  0.500  0.500  0.566-  80 1.90  50 1.90  79 2.01
 237  0.500  0.500  0.650-  83 1.84  50 2.01  80 2.01
 238  0.350  0.375  0.607-  80 1.96  81 1.98  71 1.98
 239  0.650  0.375  0.607-  80 1.96  41 1.98  31 1.98
 240  0.249  0.500  0.672-  81 1.87  52 2.10  82 2.10
 241  0.251  0.500  0.756-  82 1.83  52 1.84
 242  0.594  0.374  0.718-  83 1.94  73 1.94  42 2.04
 243  0.406  0.374  0.718-  83 1.94  73 1.94  82 2.04

IMPORTANT INFORMATION: All symmetrisations will be switched off!
NOSYMM: (Re-)initialisation of all symmetry stuff for point group C_1.

                                     Primitive cell

  volume of cell :    4737.1524

  direct lattice vectors                    reciprocal lattice vectors
    13.061127704  0.000000000  0.000000000     0.076563067  0.000000000  0.000000000
     0.000000000 11.845298948  0.000000000     0.000000000  0.084421677  0.000000000
     0.000000000  0.000000000 30.618975621     0.000000000  0.000000000  0.032659486

  length of vectors
    13.061127704 11.845298948 30.618975621     0.076563067  0.084421677  0.032659486

  position of ions in fractional coordinates (direct lattice)
     0.499999838  0.603651093  0.802422301
     0.499999982  0.699618826  0.811467949
     0.499999635  0.507314297  0.792424875
     0.750000000  0.625000000  0.286715143
     0.000000000  0.750000000  0.286715143
     0.000000000  0.625000000  0.393357571
     0.750000000  0.750000000  0.393357571
     0.750000000  0.625000000  0.500000000
     0.000000000  0.750000000  0.500000000
     0.000018273  0.625054340  0.604454167
     0.750043058  0.750080722  0.610637700
     0.750153036  0.625326746  0.720096565
     0.999998416  0.750201101  0.708612907
     0.750000000  0.875000000  0.286715143
     0.000000000  0.000000000  0.286715143
     0.000000000  0.875000000  0.393357571
     0.750000000  0.000000000  0.393357571
     0.750000000  0.875000000  0.500000000
     0.000000000  0.000000000  0.500000000
     0.000018501  0.875049095  0.604479124
     0.749993294  0.000054474  0.610732695
     0.749862558  0.875194571  0.720435615
     0.999998412  0.000069978  0.708620513
     0.750000000  0.125000000  0.286715143
     0.000000000  0.250000000  0.286715143
     0.000000000  0.125000000  0.393357571
     0.750000000  0.250000000  0.393357571
     0.750000000  0.125000000  0.500000000
     0.000000000  0.250000000  0.500000000
     0.000018241  0.125011926  0.604483464
     0.750055332  0.250011897  0.610726761
     0.749928399  0.125151515  0.720415545
     0.999998444  0.249998092  0.708623066
     0.750000000  0.375000000  0.286715143
     0.000000000  0.500000000  0.286715143
     0.000000000  0.375000000  0.393357571
     0.750000000  0.500000000  0.393357571
     0.750000000  0.375000000  0.500000000
     0.000000000  0.500000000  0.500000000
     0.000018195  0.375020600  0.604459652
     0.750084895  0.500031312  0.610662926
     0.750233710  0.375184014  0.720352467
     0.999998430  0.500153264  0.708605034
     0.250000000  0.625000000  0.286715143
     0.500000000  0.750000000  0.286715143
     0.500000000  0.625000000  0.393357571
     0.250000000  0.750000000  0.393357571
     0.250000000  0.625000000  0.500000000
     0.500000000  0.750000000  0.500000000
     0.500018582  0.624457216  0.604859463
     0.249986120  0.750080570  0.610637707
     0.249843768  0.625326778  0.720096565
     0.499998363  0.750691837  0.708260081
     0.250000000  0.875000000  0.286715143
     0.500000000  0.000000000  0.286715143
     0.500000000  0.875000000  0.393357571
     0.250000000  0.000000000  0.393357571
     0.250000000  0.875000000  0.500000000
     0.500000000  0.000000000  0.500000000
     0.500018594  0.874771678  0.604183376
[...]
     0.500000000  0.500000000  0.435126570
     0.347918341  0.375000000  0.393357571
     0.652081659  0.375000000  0.393357571
     0.250000000  0.500000000  0.458231001
     0.250000000  0.500000000  0.541768999
     0.597918341  0.375000000  0.500000000
     0.402081659  0.375000000  0.500000000
     0.499997587  0.499965936  0.565617539
     0.499998049  0.500080536  0.649684440
     0.349956053  0.375053532  0.607371547
     0.650038370  0.375053525  0.607370671
     0.249225740  0.500124069  0.671769354
     0.251421383  0.500388591  0.755619684
     0.594343667  0.374015738  0.718102742
     0.405653562  0.374015851  0.718102865

  ion indices of the primitive-cell ions
   primitive index   ion index
                 1           1
                 2           2
                 3           3
                 4           4
                 5           5
                 6           6
                 7           7
                 8           8
                 9           9
                10          10
                11          11
                12          12
                13          13
                14          14
[...]
      9.79657      2.96147     18.69983        -0.000804      0.000339      0.002152
      9.79491      1.48246     22.05839        -0.000569      0.002538     -0.000735
     13.06111      2.96130     21.69731        -0.000016     -0.000607      0.003057
      9.79585      4.44199      8.77892        -0.000434     -0.000406     -3.479896
      0.00000      5.92265      8.77892         0.000001     -0.000081      2.774854
      0.00000      4.44199     12.04421        -0.000002     -0.000266      0.519350
      9.79585      5.92265     12.04421        -0.001285     -0.000357     -0.709780
      9.79585      4.44199     15.30949        -0.008297     -0.010516      0.660091
      0.00000      5.92265     15.30949        -0.000092     -0.002157     -0.709933
      0.00024      4.44223     18.50794         0.000145      0.000330      0.001577
      9.79695      5.92302     18.69787        -0.000555     -0.000660      0.000523
      9.79890      4.44417     22.05645        -0.001600     -0.005010      0.000159
     13.06111      5.92446     21.69676        -0.000015     -0.004045     -0.001260
      3.26528      7.40331      8.77892         0.000433      0.000057     -3.479988
      6.53056      8.88397      8.77892         0.000001      0.000276      2.776298
      6.53056      7.40331     12.04421        -0.000000      0.003403      0.523186
      3.26528      8.88397     12.04421         0.001523      0.000569     -0.710169
      3.26528      7.40331     15.30949         0.008095     -0.001711      0.651955
      6.53056      8.88397     15.30949        -0.000091     -0.008477     -0.676206
      6.53081      7.39688     18.52018         0.000148     -0.002765      0.003653
      3.26510      8.88493     18.69710         0.001232     -0.000837     -0.001088
      3.26324      7.40718     22.04862         0.002072     -0.002873     -0.001720
      6.53054      8.89217     21.68620        -0.000018     -0.004144     -0.005335
      3.26528     10.36464      8.77892         0.000509      0.000385     -3.479969
      6.53056      0.00000      8.77892         0.000001      0.000070      2.776385
      6.53056     10.36464     12.04421        -0.000001      0.001683      0.525327
      3.26528      0.00000     12.04421         0.001786      0.000300     -0.708572
      3.26528     10.36464     15.30949         0.005983      0.013007      0.659200
      6.53056      0.00000     15.30949        -0.000094      0.002338     -0.727391
      6.53081     10.36193     18.49948         0.000150      0.001107      0.001523
[...]
      6.53056      5.92265     13.32313         0.000001      0.000148     -0.120821
      4.54421      4.44199     12.04421         0.420311      0.000493      0.049977
      8.51692      4.44199     12.04421        -0.420313      0.000493      0.049977
      3.26528      5.92265     14.03056        -0.001608      0.002480     -0.097077
      3.26528      5.92265     16.58841         0.000256      0.002110      0.007815
      7.80949      4.44199     15.30949        -0.456245      0.010347      0.085942
      5.25164      4.44199     15.30949         0.456217      0.010347      0.085869
      6.53053      5.92225     17.31863        -0.000016      0.000113     -0.000233
      6.53054      5.92360     19.89267        -0.000011      0.001153     -0.007875
      4.57082      4.44262     18.59709        -0.001349      0.000155     -0.000524
      8.49023      4.44262     18.59707         0.001298      0.000152     -0.000540
      3.25517      5.92412     20.56889         0.001107      0.000721      0.000315
      3.28385      5.92725     23.13630         0.000403      0.002803      0.001269
      7.76280      4.43033     21.98757         0.001803     -0.001928     -0.002035
      5.29829      4.43033     21.98757        -0.001825     -0.001927     -0.002033
    total drift:                               -0.000220      0.004742     -0.018712

  FREE ENERGIE OF THE ION-ELECTRON SYSTEM (eV)
  free  energy   TOTEN  =     -1759.45543820 eV

  energy  without entropy=    -1759.45543820  energy(sigma->0) =    -1759.45543820

 d Force =-0.9501717E-04[-0.211E-02, 0.192E-02]  d Energy =-0.6707387E-04-0.279E-04
 d Force =-0.4813882E+02[-0.482E+02,-0.481E+02]  d Ewald  =-0.4813855E+02-0.271E-03

 Finite differences progress:
  Degree of freedom:   9/  9
  Displacement:        2/  2
  Total:              18/ 18

 SECOND DERIVATIVES (NOT SYMMETRIZED)
               1X          1Y          1Z          2X          2Y          2Z          3X          3Y          3Z
  1X   -11.446920   -0.000602    0.000255    5.891150   -0.000376    0.000603    5.705738    0.000514    0.000806
  1Y     0.003898 -165.591771  -40.147747    0.001754   85.752225   20.118600    0.002137   78.430297   18.818349
  1Z    -0.000059  -40.084844  -22.835655    0.000116   19.475524   10.805884    0.000024   20.139106   11.327295
  2X     5.894689   -0.007885   -0.005786   -3.191209    0.000046   -0.003980   -2.800931    0.001178   -0.002139
  2Y     0.000997   85.738968   19.514352    0.004053  -91.759914  -22.142642    0.000172    6.240057    3.215702
  2Z    -0.000119   20.079546   10.793461   -0.000298  -22.113149   -8.612342    0.000086    1.769519   -2.280269
  3X     5.697837   -0.000580   -0.002441   -2.802177   -0.000790    0.003460   -3.574138   -0.000366   -0.001139
  3Y    -0.001263   78.414076   20.189179    0.000160    6.235352    1.769415   -0.000185  -84.861123  -21.347261
  3Z     0.000085   18.780947   11.317437    0.000026    3.217640   -2.279189   -0.000271  -21.320560  -10.081436

 Eigenvectors and eigenvalues of the dynamical matrix

   1 f  =   70.049180 THz   440.131979 2PiTHz 2336.589135 cm-1   289.700000 meV
             X         Y         Z           dx          dy          dz
      6.530562  7.150428 24.569349    -0.000006    0.826459    0.215762
      6.530564  8.287194 24.846317     0.000014   -0.376455   -0.095310
      6.530559  6.009290 24.263238    -0.000001   -0.334866   -0.086460
      9.795846  7.403312  8.778924            0           0           0
      0.000000  8.883974  8.778924            0           0           0
      0.000000  7.403312 12.044206            0           0           0
      9.795846  8.883974 12.044206            0           0           0
      9.795846  7.403312 15.309488            0           0           0
      0.000000  8.883974 15.309488            0           0           0
      0.000239  7.403956 18.507767            0           0           0
      9.796408  8.884930 18.697101            0           0           0
      9.797845  7.407182 22.048619            0           0           0
     13.061107  8.886356 21.697001            0           0           0
      9.795846 10.364637  8.778924            0           0           0
      0.000000  0.000000  8.778924            0           0           0
      0.000000 10.364637 12.044206            0           0           0
      9.795846  0.000000 12.044206            0           0           0
      9.795846 10.364637 15.309488            0           0           0
      0.000000  0.000000 15.309488            0           0           0
      0.000242 10.365218 18.508532            0           0           0
      9.795758  0.000645 18.700009            0           0           0
      9.794051 10.366941 22.059001            0           0           0
     13.061107  0.000829 21.697234            0           0           0
      9.795846  1.480662  8.778924            0           0           0
      0.000000  2.961325  8.778924            0           0           0
      0.000000  1.480662 12.044206            0           0           0
      9.795846  2.961325 12.044206            0           0           0
      9.795846  1.480662 15.309488            0           0           0
      0.000000  2.961325 15.309488            0           0           0
      0.000238  1.480804 18.508664            0           0           0
      9.796568  2.961466 18.699828            0           0           0
      9.794911  1.482457 22.058386            0           0           0
     13.061107  2.961302 21.697312            0           0           0
      9.795846  4.441987  8.778924            0           0           0
      0.000000  5.922649  8.778924            0           0           0
      0.000000  4.441987 12.044206            0           0           0
      9.795846  5.922649 12.044206            0           0           0
      9.795846  4.441987 15.309488            0           0           0
      0.000000  5.922649 15.309488            0           0           0
      0.000238  4.442231 18.507935            0           0           0
      9.796955  5.923020 18.697873            0           0           0
      9.798898  4.444167 22.056455            0           0           0
     13.061107  5.924465 21.696760            0           0           0
      3.265282  7.403312  8.778924            0           0           0
      6.530564  8.883974  8.778924            0           0           0
      6.530564  7.403312 12.044206            0           0           0
      3.265282  8.883974 12.044206            0           0           0
      3.265282  7.403312 15.309488            0           0           0
      6.530564  8.883974 15.309488            0           0           0
      6.530807  7.396882 18.520177            0           0           0
      3.265101  8.884929 18.697101            0           0           0
      3.263241  7.407183 22.048619            0           0           0
      6.530542  8.892169 21.686198            0           0           0
      3.265282 10.364637  8.778924            0           0           0
      6.530564  0.000000  8.778924            0           0           0
      6.530564 10.364637 12.044206            0           0           0
      3.265282  0.000000 12.044206            0           0           0
      3.265282 10.364637 15.309488            0           0           0
      6.530564  0.000000 15.309488            0           0           0
      6.530807 10.361932 18.499476            0           0           0
[...]
      6.530564  5.922649 13.323130            0           0           0
      4.544206  4.441987 12.044206            0           0           0
      8.516922  4.441987 12.044206            0           0           0
      3.265282  5.922649 14.030564            0           0           0
      3.265282  5.922649 16.588412            0           0           0
      7.809488  4.441987 15.309488            0           0           0
      5.251640  4.441987 15.309488            0           0           0
      6.530532  5.922246 17.318630            0           0           0
      6.530538  5.923603 19.892672            0           0           0
      4.570821  4.442621 18.597095            0           0           0
      8.490234  4.442621 18.597068            0           0           0
      3.255169  5.924119 20.568889            0           0           0
      3.283847  5.927252 23.136301            0           0           0
      7.762799  4.430328 21.987570            0           0           0
      5.298293  4.430330 21.987574            0           0           0

[...]

   9 f  =    1.124694 THz     7.066658 2PiTHz   37.515740 cm-1     4.651357 meV
             X         Y         Z           dx          dy          dz
      6.530562  7.150428 24.569349     0.051942    0.334814   -0.218178
      6.530564  8.287194 24.846317     0.095081    0.498879   -0.688843
      6.530559  6.009290 24.263238     0.021334    0.278371    0.165014
      9.795846  7.403312  8.778924            0           0           0
      0.000000  8.883974  8.778924            0           0           0
      0.000000  7.403312 12.044206            0           0           0
      9.795846  8.883974 12.044206            0           0           0
      9.795846  7.403312 15.309488            0           0           0
      0.000000  8.883974 15.309488            0           0           0
      0.000239  7.403956 18.507767            0           0           0
      9.796408  8.884930 18.697101            0           0           0
      9.797845  7.407182 22.048619            0           0           0
     13.061107  8.886356 21.697001            0           0           0
      9.795846 10.364637  8.778924            0           0           0
      0.000000  0.000000  8.778924            0           0           0
      0.000000 10.364637 12.044206            0           0           0
      9.795846  0.000000 12.044206            0           0           0
      9.795846 10.364637 15.309488            0           0           0
      0.000000  0.000000 15.309488            0           0           0
      0.000242 10.365218 18.508532            0           0           0
      9.795758  0.000645 18.700009            0           0           0
      9.794051 10.366941 22.059001            0           0           0
     13.061107  0.000829 21.697234            0           0           0
      9.795846  1.480662  8.778924            0           0           0
      0.000000  2.961325  8.778924            0           0           0
      0.000000  1.480662 12.044206            0           0           0
      9.795846  2.961325 12.044206            0           0           0
      9.795846  1.480662 15.309488            0           0           0
      0.000000  2.961325 15.309488            0           0           0
      0.000238  1.480804 18.508664            0           0           0
      9.796568  2.961466 18.699828            0           0           0
      9.794911  1.482457 22.058386            0           0           0
     13.061107  2.961302 21.697312            0           0           0
      9.795846  4.441987  8.778924            0           0           0
      0.000000  5.922649  8.778924            0           0           0
      0.000000  4.441987 12.044206            0           0           0
      9.795846  5.922649 12.044206            0           0           0
      9.795846  4.441987 15.309488            0           0           0
      0.000000  5.922649 15.309488            0           0           0
      0.000238  4.442231 18.507935            0           0           0
      9.796955  5.923020 18.697873            0           0           0
      9.798898  4.444167 22.056455            0           0           0
     13.061107  5.924465 21.696760            0           0           0
      3.265282  7.403312  8.778924            0           0           0
      6.530564  8.883974  8.778924            0           0           0
      6.530564  7.403312 12.044206            0           0           0
      3.265282  8.883974 12.044206            0           0           0
      3.265282  7.403312 15.309488            0           0           0
      6.530564  8.883974 15.309488            0           0           0
      6.530807  7.396882 18.520177            0           0           0
      3.265101  8.884929 18.697101            0           0           0
      3.263241  7.407183 22.048619            0           0           0
      6.530542  8.892169 21.686198            0           0           0
      3.265282 10.364637  8.778924            0           0           0
      6.530564  0.000000  8.778924            0           0           0
      6.530564 10.364637 12.044206            0           0           0
      3.265282  0.000000 12.044206            0           0           0
      3.265282 10.364637 15.309488            0           0           0
      6.530564  0.000000 15.309488            0           0           0
      6.530807 10.361932 18.499476            0           0           0
[...]
      6.530564  5.922649 13.323130            0           0           0
      4.544206  4.441987 12.044206            0           0           0
      8.516922  4.441987 12.044206            0           0           0
      3.265282  5.922649 14.030564            0           0           0
      3.265282  5.922649 16.588412            0           0           0
      7.809488  4.441987 15.309488            0           0           0
      5.251640  4.441987 15.309488            0           0           0
      6.530532  5.922246 17.318630            0           0           0
      6.530538  5.923603 19.892672            0           0           0
      4.570821  4.442621 18.597095            0           0           0
      8.490234  4.442621 18.597068            0           0           0
      3.255169  5.924119 20.568889            0           0           0
      3.283847  5.927252 23.136301            0           0           0
      7.762799  4.430328 21.987570            0           0           0
      5.298293  4.430330 21.987574            0           0           0

 Finite differences POTIM=   1.0000000000000000E-002