 vasp.6.3.0 20Jan22 (build Apr  1 2022 16:44:48) complex
 executed on        HPECrayEX_GCC date 2023.04.06  22:13:29

 INCAR:
   SYSTEM = MgO-rocksalt
   ISMEAR = 0
   SIGMA = 0.05
   EDIFF = 1E-7
   ALGO = ALL
   ISTART = 0
   IBRION = 2
   NSW = 1000
   ISYM = 0
   ISIF = 2
   EDIFFG = -0.01
   DIPOL = 0.5 0.5 0.5
   IDIPOL = 3
   LDIPOL = .TRUE.
   GGA = PE
   IVDW = 21
   LDAU = .TRUE.
   LDAUTYPE = 2
   LDAUL = 2 -1
   LDAUU = 4.2 0.0
   LDAUPRINT = 1
   LMAXMIX = 4
   ENCUT = 600
   PREC = Accurate
   LASPH = .TRUE.
   LREAL = .FALSE.
   ISPIN = 1
   NELM = 200
   NELMIN = 8
   NCORE = 8
   KPAR = 1
   LWAVE = .FALSE.
   LCHARG = .FALSE.

 POTCAR:    PAW_PBE Ti_pv 07Sep2000
 POTCAR:    PAW_PBE O 08Apr2002
 POTCAR:    PAW_PBE Ti_pv 07Sep2000
   VRHFIN =Ti: d3 s1

   TITEL  = PAW_PBE Ti_pv 07Sep2000
   POMASS =   47.880; ZVAL   =   10.000    mass and valenz
   ENMAX  =  222.335; ENMIN  =  166.751 eV

   TITEL  = PAW_PBE O 08Apr2002
   POMASS =   16.000; ZVAL   =    6.000    mass and valenz
   ENMAX  =  400.000; ENMIN  =  300.000 eV

  PAW_PBE Ti_pv 07Sep2000               :
  PAW_PBE O 08Apr2002                   :

 POSCAR: Ti  O
  positions in direct lattice
 exchange correlation table for  LEXCH =        8
   RHO(1)=    0.500       N(1)  =     2000
   RHO(2)=  100.500       N(2)  =     4000

 ion  position               nearest neighbor table
   1  0.804  0.833  0.293-  85 1.97  51 1.97  53 1.97  50 2.01  52 2.01  18 3.09   4 3.09   2 3.09

   2  0.588  0.667  0.325-  49 1.97 116 1.97  52 1.97  54 1.97  53 2.01  55 2.01  33 3.09   3 3.09
                             1 3.09   7 3.09
   3  0.304  0.667  0.293- 121 1.97  55 1.97  57 1.97  49 2.01  56 2.01  36 3.09   2 3.09   4 3.09

   4  0.088  0.833  0.325-  50 1.97  88 1.97  56 1.97  58 1.97  57 2.01  51 2.01  19 3.09   1 3.09
                             3 3.09   5 3.09
   5  0.941  0.833  0.420-  93 1.97  59 1.97  61 1.97  51 1.97  58 2.01  60 2.01  22 3.09   8 3.09
                             6 3.09   4 3.09
   6  0.726  0.667  0.452-  62 1.97 124 1.97  54 1.97  60 1.97  61 2.01  63 2.01  11 3.09  37 3.09
                             7 3.09   5 3.09
   7  0.441  0.667  0.420- 129 1.97  63 1.97  65 1.97  55 1.97  64 2.01  54 2.01  40 3.09   6 3.09
                             8 3.09   2 3.09
   8  0.226  0.833  0.452-  66 1.97  96 1.97  58 1.97  64 1.97  65 2.01  59 2.01   9 3.09  23 3.09
                             5 3.09   7 3.09
   9  0.078  0.833  0.548-  59 1.97 101 1.97  67 1.97  69 1.97  66 2.01  68 2.01   8 3.09  26 3.09
                            12 3.09  10 3.09
  10  0.863  0.667  0.580- 132 1.97  62 1.97  68 1.97  70 1.97  71 2.01  69 2.01  41 3.09  11 3.09
                             9 3.09  15 3.09
  11  0.578  0.667  0.548-  63 1.97 137 1.97  71 1.97  73 1.97  62 2.01  72 2.01   6 3.09  44 3.09
                            10 3.09  12 3.09
  12  0.363  0.833  0.580- 104 1.97  66 1.97  72 1.97  74 1.97  73 2.01  67 2.01  27 3.09   9 3.09
                            11 3.09  13 3.09
  13  0.216  0.833  0.675-  75 1.97 109 1.97  77 1.97  67 1.97  76 2.01  74 2.01  30 3.09  16 3.09
                            14 3.09  12 3.09
  14  0.000  0.667  0.707- 140 1.97  70 1.97  76 1.97  78 2.01  77 2.01  45 3.09  15 3.09  13 3.09

[...]

  17  0.804  0.167  0.293-  85 1.97  83 1.97 117 1.97  82 2.01  84 2.01  18 3.09  20 3.09  34 3.09

[...]

  36  0.088  0.500  0.325- 114 1.97  56 1.97 120 1.97 122 1.97 121 2.01 115 2.01   3 3.09  35 3.09
                            33 3.09  37 3.09
  37  0.941  0.500  0.420-  61 1.97 125 1.97 123 1.97 115 1.97 124 2.01 122 2.01   6 3.09  38 3.09
                            40 3.09  36 3.09
  38  0.726  0.333  0.452- 126 1.97 124 1.97 118 1.97  92 1.97 125 2.01 127 2.01  43 3.09  37 3.09
                            39 3.09  21 3.09
  39  0.441  0.333  0.420- 129 1.97 127 1.97  97 1.97 119 1.97 128 2.01 118 2.01  40 3.09  38 3.09
                            24 3.09  34 3.09
  40  0.226  0.500  0.452- 130 1.97 128 1.97  64 1.97 122 1.97 129 2.01 123 2.01  41 3.09  39 3.09
                             7 3.09  37 3.09
  41  0.078  0.500  0.548- 123 1.97  69 1.97 133 1.97 131 1.97 132 2.01 130 2.01  40 3.09  10 3.09
                            42 3.09  44 3.09
  42  0.863  0.333  0.580- 132 1.97 126 1.97 100 1.97 134 1.97 133 2.01 135 2.01  41 3.09  43 3.09
                            25 3.09  47 3.09
  43  0.578  0.333  0.548- 127 1.97 137 1.97 135 1.97 105 1.97 136 2.01 126 2.01  38 3.09  44 3.09
                            42 3.09  28 3.09
  44  0.363  0.500  0.580-  72 1.97 136 1.97 130 1.97 138 1.97 137 2.01 131 2.01  11 3.09  43 3.09
                            41 3.09  45 3.09
  45  0.216  0.500  0.675- 139 1.97  77 1.97 141 1.97 131 1.97 140 2.01 138 2.01  14 3.09  46 3.09
                            48 3.09  44 3.09
  46  0.000  0.333  0.707- 140 1.97 134 1.97 108 1.97 142 2.01 141 2.01  45 3.09  47 3.09  29 3.09

  47  0.716  0.333  0.675- 142 1.97 144 1.97 112 1.97 135 1.97 143 2.01 134 2.01  48 3.09  46 3.09
                            32 3.09  42 3.09
  48  0.500  0.500  0.707-  79 1.97 143 1.97 138 1.97 139 2.01 144 2.01  47 3.09  15 3.09  45 3.09

  49  0.483  0.667  0.267-   2 1.97   3 2.01
  50  0.983  0.833  0.267-   4 1.97   1 2.01
  51  0.909  0.833  0.351-   1 1.97   5 1.97   4 2.01
  52  0.625  0.833  0.319-  18 1.97   2 1.97   1 2.01
  53  0.768  0.667  0.298-  33 1.97   1 1.97   2 2.01
  54  0.621  0.667  0.394-   6 1.97   2 1.97   7 2.01
  55  0.409  0.667  0.351-   3 1.97   7 1.97   2 2.01
  56  0.125  0.667  0.319-  36 1.97   4 1.97   3 2.01
  57  0.268  0.833  0.298-  19 1.97   3 1.97   4 2.01
  58  0.121  0.833  0.394-   8 1.97   4 1.97   5 2.01
  59  0.046  0.833  0.479-   9 1.97   5 1.97   8 2.01
  60  0.762  0.833  0.447-  22 1.97   6 1.97   5 2.01
  61  0.905  0.667  0.426-  37 1.97   5 1.97   6 2.01
  62  0.758  0.667  0.521-   6 1.97  10 1.97  11 2.01
  63  0.546  0.667  0.479-  11 1.97   7 1.97   6 2.01
  64  0.262  0.667  0.447-  40 1.97   8 1.97   7 2.01
  65  0.405  0.833  0.426-  23 1.97   7 1.97   8 2.01
  66  0.258  0.833  0.521-   8 1.97  12 1.97   9 2.01
  67  0.183  0.833  0.606-   9 1.97  13 1.97  12 2.01
  68  0.899  0.833  0.574-  26 1.97  10 1.97   9 2.01
  69  0.042  0.667  0.553-  41 1.97   9 1.97  10 2.01
  70  0.895  0.667  0.649-  14 1.97  10 1.97  15 2.01
  71  0.683  0.667  0.606-  11 1.97  15 1.97  10 2.01
  72  0.399  0.667  0.574-  44 1.97  12 1.97  11 2.01
  73  0.542  0.833  0.553-  27 1.97  11 1.97  12 2.01
  74  0.395  0.833  0.649-  16 1.97  12 1.97  13 2.01
  75  0.321  0.833  0.733-  13 1.97  16 2.01
  76  0.036  0.833  0.702-  30 1.97  14 1.97  13 2.01
  77  0.179  0.667  0.681-  45 1.97  13 1.97  14 2.01
  78  0.821  0.667  0.733-  15 1.97  14 2.01
  79  0.536  0.667  0.702-  48 1.97  16 1.97  15 2.01
  80  0.679  0.833  0.681-  31 1.97  15 1.97  16 2.01
  81  0.483  0.000  0.267-  18 1.97  19 2.01
  82  0.983  0.167  0.267-  20 1.97  17 2.01
  83  0.909  0.167  0.351-  17 1.97  21 1.97  20 2.01
  84  0.625  0.167  0.319-  18 1.97  34 1.97  17 2.01
  85  0.768  0.000  0.298-   1 1.97  17 1.97  18 2.01
  86  0.621  0.000  0.394-  22 1.97  18 1.97  23 2.01
  87  0.409  0.000  0.351-  19 1.97  23 1.97  18 2.01
  88  0.125  0.000  0.319-   4 1.97  20 1.97  19 2.01
  89  0.268  0.167  0.298-  19 1.97  35 1.97  20 2.01
  90  0.121  0.167  0.394-  24 1.97  20 1.97  21 2.01
  91  0.046  0.167  0.479-  25 1.97  21 1.97  24 2.01
  92  0.762  0.167  0.447-  22 1.97  38 1.97  21 2.01
  93  0.905  0.000  0.426-   5 1.97  21 1.97  22 2.01
  94  0.758  0.000  0.521-  22 1.97  26 1.97  27 2.01
  95  0.546  0.000  0.479-  27 1.97  23 1.97  22 2.01
  96  0.262  0.000  0.447-   8 1.97  24 1.97  23 2.01
  97  0.405  0.167  0.426-  23 1.97  39 1.97  24 2.01
  98  0.258  0.167  0.521-  24 1.97  28 1.97  25 2.01
  99  0.183  0.167  0.606-  25 1.97  29 1.97  28 2.01
 100  0.899  0.167  0.574-  26 1.97  42 1.97  25 2.01
 101  0.042  0.000  0.553-   9 1.97  25 1.97  26 2.01
 102  0.895  0.000  0.649-  30 1.97  26 1.97  31 2.01
 103  0.683  0.000  0.606-  27 1.97  31 1.97  26 2.01
 104  0.399  0.000  0.574-  12 1.97  28 1.97  27 2.01
 105  0.542  0.167  0.553-  27 1.97  43 1.97  28 2.01
 106  0.395  0.167  0.649-  32 1.97  28 1.97  29 2.01
 107  0.321  0.167  0.733-  29 1.97  32 2.01
 108  0.036  0.167  0.702-  30 1.97  46 1.97  29 2.01
[...]
 130  0.258  0.500  0.521-  40 1.97  44 1.97  41 2.01
 131  0.183  0.500  0.606-  41 1.97  45 1.97  44 2.01
 132  0.899  0.500  0.574-  10 1.97  42 1.97  41 2.01
 133  0.042  0.333  0.553-  41 1.97  25 1.97  42 2.01
 134  0.895  0.333  0.649-  46 1.97  42 1.97  47 2.01
 135  0.683  0.333  0.606-  43 1.97  47 1.97  42 2.01
 136  0.399  0.333  0.574-  44 1.97  28 1.97  43 2.01
 137  0.542  0.500  0.553-  11 1.97  43 1.97  44 2.01
 138  0.395  0.500  0.649-  48 1.97  44 1.97  45 2.01
 139  0.321  0.500  0.733-  45 1.97  48 2.01
 140  0.036  0.500  0.702-  14 1.97  46 1.97  45 2.01
 141  0.179  0.333  0.681-  45 1.97  29 1.97  46 2.01
 142  0.821  0.333  0.733-  47 1.97  46 2.01
 143  0.536  0.333  0.702-  48 1.97  32 1.97  47 2.01
 144  0.679  0.500  0.681-  15 1.97  47 1.97  48 2.01

IMPORTANT INFORMATION: All symmetrisations will be switched off!
NOSYMM: (Re-)initialisation of all symmetry stuff for point group C_1.

                                     Primitive cell

  volume of cell :    3393.6075

  direct lattice vectors                    reciprocal lattice vectors
    10.417029087  0.000000000  0.000000000     0.095996660 -0.000000000  0.000000000
     0.000000000 11.576961846  0.000000000     0.000000000  0.086378448  0.000000000
     0.000000000  0.000000000 28.139937787     0.000000000  0.000000000  0.035536681

  length of vectors
    10.417029087 11.576961846 28.139937787     0.095996660  0.086378448  0.035536681

  position of ions in fractional coordinates (direct lattice)
     0.803992356  0.833333333  0.293009548
     0.588300636  0.666666667  0.324854233
     0.303992356  0.666666667  0.293009548
     0.088300636  0.833333333  0.324854233
     0.941225477  0.833333333  0.420388288
     0.725533758  0.666666667  0.452232973
     0.441225477  0.666666667  0.420388288
     0.225533758  0.833333333  0.452232973
     0.078458599  0.833333333  0.547767027
     0.862766879  0.666666667  0.579611712
     0.578458599  0.666666667  0.547767027
     0.362766879  0.833333333  0.579611712
     0.215691720  0.833333333  0.675145767
     1.000000000  0.666666667  0.706990452
     0.715691720  0.666666667  0.675145767
     0.500000000  0.833333333  0.706990452
     0.803992356  0.166666667  0.293009548
     0.588300636  0.000000000  0.324854233
     0.303992356  0.000000000  0.293009548
     0.088300636  0.166666667  0.324854233
     0.941225477  0.166666667  0.420388288
     0.725533758  0.000000000  0.452232973
     0.441225477  0.000000000  0.420388288
     0.225533758  0.166666667  0.452232973
     0.078458599  0.166666667  0.547767027
     0.862766879  0.000000000  0.579611712
     0.578458599  0.000000000  0.547767027
     0.362766879  0.166666667  0.579611712
     0.215691720  0.166666667  0.675145767
     0.000000000  0.000000000  0.706990452
     0.715691720  0.000000000  0.675145767
[...]
   O          58.027          3.975         10.415          1.92863681
   O          38.382          3.711          8.470          1.56854650
   O          54.185          3.930         10.064          1.86370796
   O          58.027          3.975         10.415          1.92863720

  Number of pair interactions contributing to vdW energy: 1602798
  Edisp (eV):  -16.99622

  FORCE on cell =-STRESS in cart. coord.  units (eV):
  Direction    XX          YY          ZZ          XY          YZ          ZX
  Alpha Z  2320.65960  2320.65960  2320.65960
  Ewald  469484.31552462640.14598************     0.00038    -0.00017 -2314.47145
  Hartree490328.83958486246.82918************     0.00019    -0.00008 -1476.92498
  E(xc)   -5125.49350 -5129.86671 -5135.95526     0.00000    -0.00000    -1.97888
  Local  ************************968147.67532    -0.00056     0.00025  3791.95698
  n-local -3118.18603 -3111.15548 -3152.45865     0.00000    -0.00000    -2.41466
  augment  3164.73248  3158.49397  3149.63004     0.00000     0.00000    -1.99330
  Kinetic 16884.08106 16991.38384 17032.91300    -0.00002     0.00001    -0.77265
  Fock        0.00000     0.00000     0.00000     0.00000     0.00000     0.00000
  vdW       -21.94678   -25.26482   -20.64120     0.00000    -0.00000    -0.17675
  Total     -39.24465   -15.88258   -13.81287    -0.00001     0.00001    -6.77570
  in kB     -18.52804    -7.49842    -6.52128    -0.00000     0.00000    -3.19892

 VOLUME and BASIS-vectors are now :
  energy-cutoff  :      600.00
  volume of cell :     3393.61
      direct lattice vectors                 reciprocal lattice vectors
    10.417029087  0.000000000  0.000000000     0.095996660 -0.000000000  0.000000000
     0.000000000 11.576961846  0.000000000     0.000000000  0.086378448  0.000000000
     0.000000000  0.000000000 28.139937787     0.000000000  0.000000000  0.035536681

  length of vectors
    10.417029087 11.576961846 28.139937787     0.095996660  0.086378448  0.035536681

 FORCES acting on ions:
    Electron-Ion                     Ewald-Force                    Non-Local-Force
   0.646E+01 -.564E-05 0.324E+04   -.141E+01 0.524E-05 -.323E+04   -.153E+01 0.135E-06 -.431E+01
   0.276E+01 -.471E-05 0.266E+04   -.436E+01 0.402E-05 -.266E+04   0.969E-01 0.187E-06 0.137E+00
   0.646E+01 -.577E-05 0.324E+04   -.141E+01 0.540E-05 -.323E+04   -.153E+01 0.101E-06 -.431E+01
   0.276E+01 0.494E-06 0.266E+04   -.436E+01 -.152E-05 -.266E+04   0.969E-01 0.251E-06 0.137E+00
   -.498E-01 -.329E-04 0.120E+04   -.211E-01 0.326E-04 -.120E+04   0.773E-01 0.136E-05 -.122E+00
   -.566E+00 0.218E-04 0.737E+03   0.514E+00 -.247E-04 -.737E+03   0.590E-01 0.127E-05 0.236E-01
   -.495E-01 -.119E-03 0.120E+04   -.215E-01 0.117E-03 -.120E+04   0.773E-01 0.306E-05 -.122E+00
   -.566E+00 0.233E-03 0.737E+03   0.515E+00 -.235E-03 -.737E+03   0.590E-01 -.271E-05 0.236E-01
   -.362E+01 0.135E-03 -.762E+03   0.347E+01 -.131E-03 0.762E+03   0.157E+00 -.307E-05 0.464E-01
   0.100E+01 -.266E-04 -.119E+04   -.112E+01 0.188E-04 0.119E+04   0.144E+00 0.211E-05 0.233E-01
   -.362E+01 0.820E-04 -.762E+03   0.347E+01 -.822E-04 0.762E+03   0.157E+00 0.211E-05 0.464E-01
   0.100E+01 0.207E-03 -.119E+04   -.112E+01 -.213E-03 0.119E+04   0.144E+00 0.211E-05 0.233E-01
   0.184E+02 0.766E-04 -.269E+04   -.189E+02 -.711E-04 0.269E+04   0.484E+00 0.176E-06 -.543E+00
   -.594E+02 0.684E-04 -.310E+04   0.583E+02 -.621E-04 0.310E+04   0.118E+01 -.375E-05 0.192E+01
   0.184E+02 -.272E-04 -.269E+04   -.189E+02 0.309E-04 0.269E+04   0.484E+00 0.123E-05 -.543E+00
   -.594E+02 0.104E-03 -.310E+04   0.583E+02 -.111E-03 0.310E+04   0.118E+01 0.250E-05 0.192E+01
   0.646E+01 0.390E-07 0.324E+04   -.141E+01 0.680E-06 -.323E+04   -.153E+01 -.220E-06 -.431E+01
   0.276E+01 0.100E-04 0.266E+04   -.436E+01 -.101E-04 -.266E+04   0.969E-01 0.421E-08 0.137E+00
   0.646E+01 0.115E-04 0.324E+04   -.141E+01 -.120E-04 -.323E+04   -.153E+01 0.184E-06 -.431E+01
   0.276E+01 0.249E-05 0.266E+04   -.436E+01 -.187E-05 -.266E+04   0.969E-01 -.189E-06 0.137E+00
   -.497E-01 -.104E-03 0.120E+04   -.212E-01 0.107E-03 -.120E+04   0.773E-01 0.124E-05 -.122E+00
   -.566E+00 0.724E-05 0.737E+03   0.514E+00 -.148E-05 -.737E+03   0.590E-01 -.137E-05 0.236E-01
   -.496E-01 0.896E-05 0.120E+04   -.213E-01 -.194E-04 -.120E+04   0.773E-01 0.274E-05 -.122E+00
   -.566E+00 -.234E-04 0.737E+03   0.515E+00 0.268E-04 -.737E+03   0.590E-01 -.628E-07 0.236E-01
   -.362E+01 0.140E-04 -.762E+03   0.347E+01 -.183E-04 0.762E+03   0.157E+00 0.424E-06 0.464E-01
   0.999E+00 -.862E-04 -.119E+04   -.112E+01 0.942E-04 0.119E+04   0.144E+00 -.117E-05 0.233E-01
   -.362E+01 -.626E-04 -.762E+03   0.347E+01 0.716E-04 0.762E+03   0.157E+00 -.625E-06 0.464E-01
   0.100E+01 -.264E-03 -.119E+04   -.112E+01 0.273E-03 0.119E+04   0.144E+00 0.522E-07 0.233E-01
   0.184E+02 0.902E-04 -.269E+04   -.189E+02 -.918E-04 0.269E+04   0.484E+00 -.178E-05 -.543E+00
   -.594E+02 -.428E-04 -.310E+04   0.583E+02 0.523E-04 0.310E+04   0.118E+01 -.149E-05 0.192E+01
   0.184E+02 0.979E-04 -.269E+04   -.189E+02 -.105E-03 0.269E+04   0.484E+00 0.349E-06 -.543E+00
   -.594E+02 -.211E-03 -.310E+04   0.583E+02 0.213E-03 0.310E+04   0.118E+01 0.165E-05 0.192E+01
   0.646E+01 0.536E-05 0.324E+04   -.141E+01 -.566E-05 -.323E+04   -.153E+01 0.103E-06 -.431E+01
   0.276E+01 -.119E-04 0.266E+04   -.436E+01 0.128E-04 -.266E+04   0.969E-01 -.299E-06 0.137E+00
   0.646E+01 -.825E-05 0.324E+04   -.141E+01 0.915E-05 -.323E+04   -.153E+01 -.270E-06 -.431E+01
   0.276E+01 -.111E-05 0.266E+04   -.436E+01 0.138E-05 -.266E+04   0.969E-01 -.122E-07 0.137E+00
   -.495E-01 -.295E-04 0.120E+04   -.214E-01 0.250E-04 -.120E+04   0.773E-01 0.132E-05 -.122E+00
   -.566E+00 -.228E-04 0.737E+03   0.514E+00 0.211E-04 -.737E+03   0.590E-01 0.277E-06 0.236E-01
   -.497E-01 -.288E-03 0.120E+04   -.212E-01 0.298E-03 -.120E+04   0.773E-01 0.264E-05 -.122E+00
   -.567E+00 0.602E-04 0.737E+03   0.515E+00 -.573E-04 -.737E+03   0.590E-01 -.175E-05 0.236E-01
   -.362E+01 -.308E-04 -.762E+03   0.347E+01 0.323E-04 0.762E+03   0.157E+00 -.173E-06 0.464E-01
   0.999E+00 -.610E-04 -.119E+04   -.112E+01 0.588E-04 0.119E+04   0.144E+00 0.207E-05 0.233E-01
   -.362E+01 -.706E-05 -.762E+03   0.347E+01 -.353E-06 0.762E+03   0.157E+00 -.853E-06 0.464E-01
   0.100E+01 -.733E-04 -.119E+04   -.112E+01 0.709E-04 0.119E+04   0.144E+00 0.178E-05 0.233E-01
   0.184E+02 -.150E-03 -.269E+04   -.189E+02 0.147E-03 0.269E+04   0.484E+00 0.715E-06 -.543E+00
   -.594E+02 0.159E-03 -.310E+04   0.583E+02 -.172E-03 0.310E+04   0.118E+01 -.736E-07 0.192E+01
   0.184E+02 -.145E-03 -.269E+04   -.189E+02 0.148E-03 0.269E+04   0.484E+00 0.699E-06 -.543E+00
   -.594E+02 -.238E-04 -.310E+04   0.583E+02 0.260E-04 0.310E+04   0.118E+01 -.748E-06 0.192E+01
   -.341E+02 -.141E-05 0.219E+04   0.393E+02 0.118E-05 -.220E+04   -.693E+01 0.285E-06 0.177E+02
   -.341E+02 -.124E-05 0.219E+04   0.393E+02 0.100E-05 -.220E+04   -.693E+01 0.303E-06 0.177E+02
   0.830E+02 -.166E-04 0.132E+04   -.879E+02 0.124E-04 -.132E+04   0.410E+01 0.541E-05 -.396E+01
   0.749E+02 -.129E-05 0.161E+04   -.819E+02 0.950E-06 -.161E+04   0.741E+01 0.686E-06 -.281E+01
   -.866E+02 0.874E-06 0.186E+04   0.937E+02 -.132E-05 -.186E+04   -.691E+01 0.106E-05 -.287E+00
   -.766E+02 -.150E-04 0.101E+04   0.828E+02 0.138E-04 -.101E+04   -.628E+01 0.203E-05 0.384E+01
   0.830E+02 -.205E-04 0.132E+04   -.879E+02 0.210E-04 -.132E+04   0.410E+01 -.231E-06 -.396E+01
   0.749E+02 -.637E-05 0.161E+04   -.819E+02 0.616E-05 -.161E+04   0.741E+01 0.463E-06 -.281E+01
   -.866E+02 0.399E-05 0.186E+04   0.937E+02 -.459E-05 -.186E+04   -.691E+01 0.138E-05 -.287E+00
   -.766E+02 0.345E-04 0.101E+04   0.828E+02 -.381E-04 -.101E+04   -.628E+01 0.394E-05 0.384E+01
   0.803E+02 -.254E-04 0.149E+03   -.868E+02 0.395E-04 -.145E+03   0.648E+01 -.164E-04 -.385E+01
   0.794E+02 0.136E-03 0.452E+03   -.859E+02 -.146E-03 -.449E+03   0.648E+01 0.323E-05 -.284E+01
[...]
   0.855E+02 -.379E-04 -.104E+04   -.920E+02 0.408E-04 0.104E+04   0.658E+01 -.351E-05 -.585E+01
   0.788E+02 0.552E-04 -.711E+03   -.853E+02 -.534E-04 0.714E+03   0.653E+01 -.638E-05 -.291E+01
   -.811E+02 -.232E-04 -.457E+03   0.875E+02 0.229E-04 0.454E+03   -.633E+01 0.276E-05 0.270E+01
   -.641E+02 -.263E-04 -.127E+04   0.670E+02 0.239E-04 0.127E+04   -.285E+01 0.327E-05 0.782E+01
   0.855E+02 0.101E-04 -.104E+04   -.920E+02 -.131E-04 0.104E+04   0.658E+01 0.290E-05 -.585E+01
   0.788E+02 0.332E-04 -.711E+03   -.853E+02 -.419E-04 0.714E+03   0.653E+01 0.521E-05 -.291E+01
   -.811E+02 -.101E-03 -.457E+03   0.875E+02 0.102E-03 0.454E+03   -.633E+01 0.608E-05 0.270E+01
   -.641E+02 0.421E-05 -.127E+04   0.670E+02 -.877E-05 0.127E+04   -.285E+01 0.505E-05 0.782E+01
   0.510E+02 -.393E-04 -.221E+04   -.571E+02 0.355E-04 0.223E+04   0.614E+01 0.473E-05 -.212E+02
   0.605E+02 -.214E-03 -.195E+04   -.650E+02 0.226E-03 0.196E+04   0.456E+01 -.378E-05 -.772E+01
   -.646E+02 0.720E-04 -.161E+04   0.701E+02 -.776E-04 0.160E+04   -.549E+01 0.613E-05 0.304E+01
   0.510E+02 -.412E-04 -.221E+04   -.571E+02 0.380E-04 0.223E+04   0.614E+01 0.406E-05 -.212E+02
   0.605E+02 -.134E-03 -.195E+04   -.650E+02 0.138E-03 0.196E+04   0.456E+01 -.227E-05 -.772E+01
   -.646E+02 0.998E-04 -.161E+04   0.701E+02 -.109E-03 0.160E+04   -.549E+01 0.632E-05 0.304E+01
   -.120E+02 -.634E-04 0.731E+02   -.682E-12 0.153E-11 -.146E-10   0.121E+02 0.610E-04 -.731E+02

 POSITION                                       TOTAL-FORCE (eV/Angst)
      8.37521      9.64747      8.24527         3.538295     -0.000000      1.508985
      6.12834      7.71797      9.14138        -1.513894     -0.000000     -1.569266
      3.16670      7.71797      8.24527         3.538299     -0.000000      1.508988
      0.91983      9.64747      9.14138        -1.513890     -0.000001     -1.569266
      9.81075      9.64747     11.85234        -0.000199      0.000001     -0.000983
      7.54632      7.71797     12.70984         0.000139     -0.000002      0.002130
      4.60224      7.71797     11.85234        -0.000217      0.000001     -0.000981
      2.33780      9.64747     12.70984         0.000166     -0.000005      0.002137
      0.85146      9.64747     15.46041        -0.000919      0.000001     -0.001264
      8.98528      7.71797     16.26261         0.004567     -0.000006     -0.008564
      6.05997      7.71797     15.46041        -0.000964      0.000002     -0.001271
      3.77676      9.64747     16.26261         0.004546     -0.000004     -0.008561
      2.37034      9.64747     19.13466        -0.003671      0.000006      0.004524
      0.00726      7.71797     19.77345         0.002488      0.000003      0.002288
      7.57886      7.71797     19.13466        -0.003690      0.000005      0.004508
      5.21578      9.64747     19.77345         0.002386     -0.000005      0.002294
      8.37521      1.92949      8.24527         3.538296      0.000001      1.508986
      6.12834      0.00000      9.14138        -1.513892     -0.000000     -1.569265
      3.16670      0.00000      8.24527         3.538297     -0.000000      1.508986
      0.91983      1.92949      9.14138        -1.513892      0.000000     -1.569268
      9.81076      1.92949     11.85234        -0.000206      0.000004     -0.000980
      7.54632     -0.00000     12.70984         0.000131      0.000004      0.002138
      4.60224      0.00000     11.85234        -0.000204     -0.000008     -0.000970
      2.33780      1.92949     12.70984         0.000158      0.000003      0.002147
      0.85146      1.92949     15.46041        -0.000929     -0.000004     -0.001268
      8.98528     -0.00000     16.26261         0.004564      0.000007     -0.008567
      6.05997     -0.00000     15.46041        -0.000950      0.000008     -0.001285
      3.77676      1.92949     16.26261         0.004552      0.000009     -0.008575
      2.37034      1.92949     19.13466        -0.003693     -0.000003      0.004529
      0.00726     -0.00000     19.77345         0.002480      0.000008      0.002303
      7.57886      0.00000     19.13466        -0.003671     -0.000007      0.004516
      5.21578      1.92949     19.77345         0.002375      0.000004      0.002302
      8.37521      5.78848      8.24527         3.538296     -0.000000      1.508987
      6.12834      3.85899      9.14138        -1.513891      0.000001     -1.569263
      3.16670      3.85899      8.24527         3.538298      0.000001      1.508986
      0.91983      5.78848      9.14138        -1.513892      0.000000     -1.569267
      9.81076      5.78848     11.85234        -0.000211     -0.000003     -0.000990
      7.54632      3.85899     12.70984         0.000128     -0.000001      0.002127
      4.60224      3.85899     11.85234        -0.000201      0.000012     -0.000970
      2.33780      5.78848     12.70984         0.000172      0.000001      0.002132
      0.85146      5.78848     15.46041        -0.000927      0.000001     -0.001258
      8.98528      3.85899     16.26261         0.004569     -0.000000     -0.008562
      6.05997      3.85899     15.46041        -0.000972     -0.000008     -0.001281
      3.77676      5.78848     16.26261         0.004554     -0.000001     -0.008557
      2.37034      5.78848     19.13466        -0.003674     -0.000003      0.004509
      0.00726      3.85899     19.77345         0.002486     -0.000013      0.002303
      7.57886      3.85899     19.13466        -0.003680      0.000004      0.004518
      5.21578      5.78848     19.77345         0.002394      0.000001      0.002285
      5.03536      7.71797      7.50000        -1.756176      0.000000      0.962208
     10.24388      9.64747      7.50000        -1.756177      0.000000      0.962208
      9.46820      9.64747      9.88665        -0.831159      0.000001     -0.108013
      6.50655      9.64747      8.99054         0.371076      0.000000     -0.105194
      7.99701      7.71797      8.39611         0.243259      0.000001     -1.063503
      6.46492      7.71797     11.08443        -0.067318      0.000001      0.376726
      4.25968      7.71797      9.88665        -0.831159      0.000000     -0.108019
      1.29803      7.71797      8.99054         0.371075      0.000000     -0.105193
      2.78849      9.64747      8.39611         0.243258      0.000001     -1.063503
      1.25641      9.64747     11.08443        -0.067329      0.000000      0.376724
      0.48823      9.64747     13.48748        -0.002613     -0.000002      0.000783
      7.93788      9.64747     12.57874        -0.001862     -0.000006      0.000808
[...]
      2.70069      5.78848     14.66031        -0.000489      0.000000      0.005306
      1.97248      5.78848     17.08939        -0.006525     -0.000001     -0.000622
      9.38466      5.78848     16.15377         0.008066     -0.000005     -0.004403
      0.47114      3.85899     15.57299         0.001610      0.000002      0.001725
      9.44593      3.85899     18.20674         0.003670      0.000001      0.006486
      7.18100      3.85899     17.08939        -0.006512     -0.000000     -0.000599
      4.17615      3.85899     16.15378         0.008076     -0.000004     -0.004405
      5.67966      5.78848     15.57299         0.001624      0.000008      0.001722
      4.23742      5.78848     18.20674         0.003704      0.000000      0.006520
      3.56327      5.78848     20.62123         0.001490      0.000001     -0.009471
      0.51522      5.78848     19.97044         0.006029      0.000009     -0.003741
      1.96483      3.85899     19.17753         0.002485      0.000001     -0.000866
      8.77178      3.85899     20.62123         0.001445      0.000001     -0.009465
      5.72373      3.85899     19.97044         0.006049      0.000002     -0.003744
      7.17334      5.78848     19.17753         0.002495     -0.000003     -0.000865
    total drift:                                0.005807     -0.000002      0.001059

  FREE ENERGIE OF THE ION-ELECTRON SYSTEM (eV)
  free  energy   TOTEN  =     -1144.86096510 eV

  energy  without entropy=    -1144.86096510  energy(sigma->0) =    -1144.86096510

 d Force = 0.1322962E-03[ 0.433E-04, 0.221E-03]  d Energy = 0.9404835E-04 0.382E-04
 d Force =-0.3138230E+02[-0.314E+02,-0.314E+02]  d Ewald  =-0.3138231E+02 0.471E-05

 Conjugate gradient step on ions:
 trial-energy change:   -0.000094  1 .order   -0.000132   -0.000221   -0.000043
  (g-gl).g = 0.380E-03      g.g   = 0.328E-03  gl.gl    = 0.371E-03
 g(Force)  = 0.328E-03   g(Stress)= 0.000E+00 ortho     =-0.268E-04
 gamma     =   1.02344
 trial     =   0.73510
 opt step  =   0.91365  (harmonic =   0.91365) maximal distance =0.00174052
 next E    = -1144.861009   (d E  =  -0.00014)

 reached required accuracy - stopping structural energy minimisation