 vasp.6.3.0 20Jan22 (build Apr  1 2022 16:44:48) complex
 executed on        HPECrayEX_GCC date 2022.11.13  19:18:10

 INCAR:
   SYSTEM = MgO-rocksalt
   ISMEAR = 0
   SIGMA = 0.05
   EDIFF = 1E-6
   ALGO = ALL
   ISTART = 0
   IBRION = -1
   NSW = 0
   ISYM = 0
   DIPOL = 0.5 0.5 0.5
   IDIPOL = 3
   LDIPOL = .TRUE.
   LHFCALC = .TRUE.
   GGA = B5
   AEXX = 0.2
   AGGAX = 0.72
   AGGAC = 0.81
   ALDAC = 0.19
   IVDW = 1
   VDW_S6 = 1.05
   VDW_C6 = 0.63 0.70
   VDW_R0 = 1.243 1.342
   ENCUT = 600
   PREC = Accurate
   LASPH = .TRUE.
   LREAL = .FALSE.
   ISPIN = 2
   MAGMOM = 0.0 0.0 0.0 0.0 0.0 0.0 0.0 0.0 0.0 0.0 0.0 0.0 0.0 0.0 0.0 0.0 0.0 0.0 0.0 0.0 0.0 0.0 0.0 0.0 0.0 0.0 0.0 0.0 0.0 0.0 0.0 0.0 0.0 0.0 0.0 0.0 0.0 0.0 0.0 0.0 0.0 0.0 0.0 0.0 0.0 0.0 0.0 0.0 0.0 0.0 0.0 0.0 0.0 0.0 0.0 0.0 0.0 0.0 0.0 0.0 0.0 0.0 0.0 0.0
   NELM = 200
   NELMIN = 8
   NCORE = 8
   KPAR = 1
   LWAVE = .FALSE.
   LCHARG = .FALSE.

 POTCAR:    PAW_PBE Mg_pv 13Apr2007
 POTCAR:    PAW_PBE O 08Apr2002
 POTCAR:    PAW_PBE Mg_pv 13Apr2007
   VRHFIN =Mg: p6s2

   TITEL  = PAW_PBE Mg_pv 13Apr2007
   POMASS =   24.305; ZVAL   =    8.000    mass and valenz
   ENMAX  =  403.929; ENMIN  =  302.947 eV

   TITEL  = PAW_PBE O 08Apr2002
   POMASS =   16.000; ZVAL   =    6.000    mass and valenz
   ENMAX  =  400.000; ENMIN  =  300.000 eV

  PAW_PBE Mg_pv 13Apr2007               :
  PAW_PBE O 08Apr2002                   :

 POSCAR: Mg  O
  positions in direct lattice
 exchange correlation table for  LEXCH =       12
   RHO(1)=    0.500       N(1)  =     2000
   RHO(2)=  100.500       N(2)  =     4000

 ion  position               nearest neighbor table
   1  0.000  0.750  0.350-  33 2.14  35 2.14  36 2.14  43 2.14  52 2.14
   2  0.250  0.000  0.350-  34 2.14  35 2.14  36 2.14  44 2.14  51 2.14
   3  0.000  0.000  0.450-  35 2.14  34 2.14  33 2.14  41 2.14  50 2.14  39 2.14
   4  0.250  0.750  0.450-  36 2.14  34 2.14  33 2.14  42 2.14  49 2.14  40 2.14
   5  1.000  0.750  0.550-  56 2.14  47 2.14  40 2.14  39 2.14  33 2.15  37 2.16
   6  0.250  0.000  0.550-  48 2.14  55 2.14  40 2.14  39 2.14  34 2.15  38 2.16
   7  0.000  0.000  0.650-  39 2.13  38 2.14  54 2.14  45 2.14  37 2.14
   8  0.250  0.750  0.649-  40 2.12  38 2.13  37 2.13  53 2.14  46 2.14
   9  0.000  0.250  0.350-  41 2.14  35 2.14  43 2.14  44 2.14  60 2.14
  10  0.250  0.500  0.350-  42 2.14  36 2.14  43 2.14  44 2.14  59 2.14
  11  0.000  0.500  0.450-  43 2.14  41 2.14  42 2.14  33 2.14  58 2.14  47 2.14
  12  0.250  0.250  0.450-  44 2.14  41 2.14  42 2.14  34 2.14  57 2.14  48 2.14
  13  0.000  0.250  0.550-  48 2.14  47 2.14  64 2.14  39 2.14  41 2.15  45 2.16
  14  0.250  0.500  0.550-  63 2.13  48 2.14  40 2.14  47 2.14  42 2.15  46 2.16
  15  0.000  0.500  0.649-  47 2.13  46 2.13  62 2.13  45 2.14  37 2.14
  16  0.250  0.250  0.650-  48 2.13  38 2.13  45 2.13  61 2.14  46 2.14
  17  0.500  0.750  0.350-  49 2.14  36 2.14  51 2.14  52 2.14  59 2.14
  18  0.750  0.000  0.350-  50 2.14  35 2.14  51 2.14  52 2.14  60 2.14
  19  0.500  0.000  0.450-  51 2.14  49 2.14  50 2.14  34 2.14  57 2.14  55 2.14
  20  0.750  0.750  0.450-  52 2.14  49 2.14  50 2.14  33 2.14  58 2.14  56 2.14
  21  0.500  0.750  0.550-  63 2.13  56 2.14  40 2.14  55 2.14  49 2.15  53 2.16
  22  0.750  1.000  0.550-  56 2.14  55 2.14  64 2.14  39 2.14  50 2.15  54 2.16
  23  0.500  0.000  0.649-  55 2.13  61 2.13  53 2.13  38 2.14  54 2.14
  24  0.750  0.750  0.650-  56 2.13  54 2.13  37 2.13  53 2.14  62 2.14
  25  0.500  0.250  0.350-  57 2.14  51 2.14  44 2.14  59 2.14  60 2.14
  26  0.750  0.500  0.350-  58 2.14  52 2.14  43 2.14  59 2.14  60 2.14
  27  0.500  0.500  0.450-  59 2.14  49 2.14  57 2.14  58 2.14  42 2.14  63 2.15
  28  0.750  0.250  0.450-  60 2.14  50 2.14  57 2.14  58 2.14  41 2.14  64 2.14
  29  0.500  0.250  0.550-  63 2.13  48 2.14  64 2.14  55 2.14  57 2.15  61 2.16
  30  0.750  0.500  0.550-  63 2.13  56 2.14  64 2.14  47 2.14  58 2.15  62 2.16
  31  0.500  0.500  0.652-  46 2.14  62 2.14  61 2.14  53 2.14  63 2.17
  32  0.750  0.250  0.649-  64 2.12  54 2.13  45 2.13  61 2.14  62 2.14
  33  0.000  0.750  0.450-   1 2.14   3 2.14   4 2.14  11 2.14  20 2.14   5 2.15
  34  0.250  0.000  0.450-   2 2.14   3 2.14   4 2.14  12 2.14  19 2.14   6 2.15
  35  0.000  0.000  0.350-   3 2.14   2 2.14   1 2.14   9 2.14  18 2.14
  36  0.250  0.750  0.350-   4 2.14   2 2.14   1 2.14  10 2.14  17 2.14
  37  1.000  0.750  0.651-   8 2.13  24 2.13   7 2.14  15 2.14   5 2.16
  38  0.250  0.000  0.651-   8 2.13  16 2.13   7 2.14  23 2.14   6 2.16
  39  1.000  1.000  0.550-   7 2.13  22 2.14   6 2.14   5 2.14  13 2.14   3 2.14
  40  0.250  0.750  0.550-   8 2.12   5 2.14   6 2.14  14 2.14  21 2.14   4 2.14
  41  0.000  0.250  0.450-   9 2.14   3 2.14  11 2.14  12 2.14  28 2.14  13 2.15
  42  0.250  0.500  0.450-  10 2.14   4 2.14  11 2.14  12 2.14  27 2.14  14 2.15
  43  0.000  0.500  0.350-  11 2.14   9 2.14  10 2.14   1 2.14  26 2.14
  44  0.250  0.250  0.350-  12 2.14   9 2.14  10 2.14   2 2.14  25 2.14
  45  0.000  0.250  0.651-  32 2.13  16 2.13   7 2.14  15 2.14  13 2.16
  46  0.249  0.500  0.651-  15 2.13   8 2.14  16 2.14  31 2.14  14 2.16
  47  0.000  0.500  0.550-  15 2.13  13 2.14   5 2.14  11 2.14  14 2.14  30 2.14
  48  0.250  0.250  0.550-  16 2.13  13 2.14   6 2.14  14 2.14  29 2.14  12 2.14
  49  0.500  0.750  0.450-  17 2.14   4 2.14  19 2.14  20 2.14  27 2.14  21 2.15
  50  0.750  0.000  0.450-  18 2.14   3 2.14  19 2.14  20 2.14  28 2.14  22 2.15
  51  0.500  0.000  0.350-  19 2.14  17 2.14  18 2.14   2 2.14  25 2.14
  52  0.750  0.750  0.350-  20 2.14  17 2.14  18 2.14   1 2.14  26 2.14
  53  0.500  0.751  0.651-  23 2.13   8 2.14  24 2.14  31 2.14  21 2.16
  54  0.750  1.000  0.651-  32 2.13  24 2.13   7 2.14  23 2.14  22 2.16
  55  0.500  0.000  0.550-  23 2.13  22 2.14   6 2.14  19 2.14  29 2.14  21 2.14
  56  0.750  0.750  0.550-  24 2.13   5 2.14  22 2.14  30 2.14  21 2.14  20 2.14
  57  0.500  0.250  0.450-  25 2.14  19 2.14  12 2.14  27 2.14  28 2.14  29 2.15
  58  0.750  0.500  0.450-  26 2.14  20 2.14  11 2.14  27 2.14  28 2.14  30 2.15
  59  0.500  0.500  0.350-  27 2.14  17 2.14  25 2.14  26 2.14  10 2.14
  60  0.750  0.250  0.350-  28 2.14  18 2.14  25 2.14  26 2.14   9 2.14
  61  0.500  0.249  0.651-  23 2.13  32 2.14  16 2.14  31 2.14  29 2.16
  62  0.751  0.500  0.651-  15 2.13  32 2.14  24 2.14  31 2.14  30 2.16
  63  0.500  0.500  0.550-  14 2.13  30 2.13  29 2.13  21 2.13  27 2.15  31 2.17
  64  0.750  0.250  0.550-  32 2.12  13 2.14  22 2.14  30 2.14  29 2.14  28 2.14

IMPORTANT INFORMATION: All symmetrisations will be switched off!
NOSYMM: (Re-)initialisation of all symmetry stuff for point group C_1.

                                     Primitive cell

  volume of cell :    1563.6717

  direct lattice vectors                    reciprocal lattice vectors
     8.546113626  0.000000000  0.000000000     0.117012252  0.000000000  0.000000000
     0.000000000  8.546113626  0.000000000     0.000000000  0.117012252  0.000000000
     0.000000000  0.000000000 21.409585219     0.000000000  0.000000000  0.046708051

  length of vectors
     8.546113626  8.546113626 21.409585219     0.117012252  0.117012252  0.046708051

  position of ions in fractional coordinates (direct lattice)
     0.000000000  0.750000000  0.350310383
     0.250000000  0.000000000  0.350310383
     0.000000000  0.000000000  0.450103461
     0.250000000  0.750000000  0.450103461
     0.999893820  0.749954275  0.550323455
     0.250045644  0.000106188  0.550323218
     0.000000003  0.000000004  0.649520562
     0.249562891  0.750438804  0.649261804
     0.000000000  0.250000000  0.350310383
     0.250000000  0.500000000  0.350310383
     0.000000000  0.500000000  0.450103461
     0.250000000  0.250000000  0.450103461
     0.000106185  0.250045725  0.550323448
     0.250469081  0.500018785  0.550485322
     0.000000002  0.499999992  0.649484959
     0.249865881  0.249864175  0.649561989
     0.500000000  0.750000000  0.350310383
     0.750000000  0.000000000  0.350310383
     0.500000000  0.000000000  0.450103461
     0.750000000  0.750000000  0.450103461
     0.499981206  0.749531432  0.550485477
     0.749954353  0.999893820  0.550323226
     0.499999992  0.000000002  0.649483998
     0.750134115  0.750135821  0.649561974
     0.500000000  0.250000000  0.350310383
     0.750000000  0.500000000  0.350310383
     0.500000000  0.500000000  0.450103461
     0.750000000  0.250000000  0.450103461
     0.500018779  0.250468567  0.550485457
     0.749530914  0.499981207  0.550485342
     0.499999989  0.499999989  0.651644233
     0.750437103  0.249561192  0.649261805
     0.000000000  0.750000000  0.450103461
     0.250000000  0.000000000  0.450103461
     0.000000000  0.000000000  0.350310383
     0.250000000  0.750000000  0.350310383
     0.999909135  0.750215773  0.651410347
     0.249783456  0.000090865  0.651410081
     0.999999998  0.999999997  0.550061661
     0.249907616  0.750091470  0.550081592
     0.000000000  0.250000000  0.450103461
     0.250000000  0.500000000  0.450103461
     0.000000000  0.500000000  0.350310383
     0.250000000  0.250000000  0.350310383
     0.000090872  0.249784227  0.651410341
     0.249086439  0.500312904  0.651321586
     0.000000004  0.500000000  0.550078461
     0.250032923  0.250033826  0.550159857
     0.500000000  0.750000000  0.450103461
     0.750000000  0.000000000  0.450103461
     0.500000000  0.000000000  0.350310383
     0.750000000  0.750000000  0.350310383
     0.499687120  0.750915546  0.651319077
     0.750216541  0.999909144  0.651410086
     0.500000001  0.000000003  0.550077539
     0.749967080  0.749966179  0.550159864
     0.500000000  0.250000000  0.450103461
     0.750000000  0.500000000  0.450103461
     0.500000000  0.500000000  0.350310383
     0.750000000  0.250000000  0.350310383
     0.500312863  0.249084455  0.651319091
     0.750913555  0.499687079  0.651321572
     0.499999992  0.499999991  0.550476767
     0.750092376  0.249908521  0.550081592

  ion indices of the primitive-cell ions
   primitive index   ion index
                 1           1
                 2           2
                 3           3
                 4           4
                 5           5
                 6           6
                 7           7
                 8           8
                 9           9
                10          10
                11          11
                12          12
                13          13
                14          14
                15          15
                16          16
                17          17
                18          18
                19          19
                20          20
                21          21
                22          22
                23          23
                24          24
                25          25
                26          26
                27          27
                28          28
                29          29
                30          30
                31          31
                32          32
                33          33
                34          34
                35          35
[...]
   0.25000000  0.50000000  0.45010346
   0.00000000  0.50000000  0.35031038
   0.25000000  0.25000000  0.35031038
   0.00009087  0.24978423  0.65141034
   0.24908644  0.50031290  0.65132159
   0.00000000  0.50000000  0.55007846
   0.25003292  0.25003383  0.55015986
   0.50000000  0.75000000  0.45010346
   0.75000000  0.00000000  0.45010346
   0.50000000  0.00000000  0.35031038
   0.75000000  0.75000000  0.35031038
   0.49968712  0.75091555  0.65131908
   0.75021654  0.99990914  0.65141009
   0.50000000  0.00000000  0.55007754
   0.74996708  0.74996618  0.55015986
   0.50000000  0.25000000  0.45010346
   0.75000000  0.50000000  0.45010346
   0.50000000  0.50000000  0.35031038
   0.75000000  0.25000000  0.35031038
   0.50031286  0.24908445  0.65131909
   0.75091356  0.49968708  0.65132157
   0.49999999  0.49999999  0.55047677
   0.75009238  0.24990852  0.55008159

 position of ions in cartesian coordinates  (Angst):
   0.00000000  6.40958522  7.50000000
   2.13652841  0.00000000  7.50000000
   0.00000000  0.00000000  9.63652841
   2.13652841  6.40958522  9.63652841
   8.54520620  6.40919445 11.78219691
   2.13691849  0.00090749 11.78219183
   0.00000002  0.00000003 13.90596583
   2.13279282  6.41333529 13.90042593
   0.00000000  2.13652841  7.50000000
   2.13652841  4.27305681  7.50000000
   0.00000000  4.27305681  9.63652841
   2.13652841  2.13652841  9.63652841
   0.00090747  2.13691918 11.78219675
   2.14053723  4.27321735 11.78566241
   0.00000002  4.27305674 13.90520357
   2.13538221  2.13536763 13.90685276
   4.27305681  6.40958522  7.50000000
   6.40958522  0.00000000  7.50000000
   4.27305681  0.00000000  9.63652841
   6.40958522  6.40958522  9.63652841
   4.27289620  6.40558079 11.78566574
   6.40919511  8.54520620 11.78219200
   4.27305675  0.00000002 13.90518299
   6.41073138  6.41074596 13.90685244
   4.27305681  2.13652841  7.50000000
   6.40958522  4.27305681  7.50000000
   4.27305681  4.27305681  9.63652841
   6.40958522  2.13652841  9.63652841
   4.27321730  2.14053283 11.78566531
   6.40557636  4.27289620 11.78566284
   4.27305672  4.27305672 13.95143274
   6.41332075  2.13277830 13.90042594
   0.00000000  6.40958522  9.63652841
   2.13652841  0.00000000  9.63652841
   0.00000000  0.00000000  7.50000000
   2.13652841  6.40958522  7.50000000
   8.54533708  6.41142924 13.94642533
   2.13467779  0.00077654 13.94641963
   8.54611361  8.54611360 11.77659201
   2.13573888  6.41036694 11.77701872
   0.00000000  2.13652841  9.63652841
   2.13652841  4.27305681  9.63652841
   0.00000000  4.27305681  7.50000000
   2.13652841  2.13652841  7.50000000
   0.00077660  2.13468439 13.94642520
   2.12872101  4.27573093 13.94452500
   0.00000003  4.27305681 11.77695168
   2.13680977  2.13681749 11.77869435
   4.27305681  6.40958522  9.63652841
   6.40958522  0.00000000  9.63652841
   4.27305681  0.00000000  7.50000000
   6.40958522  6.40958522  7.50000000
   4.27038291  6.41740958 13.94447128
   6.41143580  8.54533716 13.94641975
   4.27305682  0.00000002 11.77693195
   6.40930388  6.40929618 11.77869450
   4.27305681  2.13652841  9.63652841
   6.40958522  4.27305681  9.63652841
   4.27305681  4.27305681  7.50000000
   6.40958522  2.13652841  7.50000000
   4.27573057  2.12870405 13.94447158
   6.41739257  4.27038256 13.94452470
   4.27305675  4.27305674 11.78547925
   6.41037467  2.13574662 11.77701872

--------------------------------------- Iteration      FINAL  ---------------------------------------

--------------------OUTCAR has been truncated-------------------------

[...]

--------------------OUTCAR has been truncated-------------------------

  DFT-D2 method for vdW energy calculation

  Parameters of vdW forcefield:
         C6(Jnm^6/mol)     R0(A)
   Mg       0.630          1.243
   O        0.700          1.342

  vdW correction parametrized for the method dü      

  IVDW =   1
  VDW_RADIUS =    50.000 A
  VDW_S6 =     1.050
  VDW_SR =     1.000
  VDW_D =    20.000
  LVDW_EWALD = F

  Number of pair interactions contributing to vdW energy:  705326
  Edisp (eV):   -4.82974

 VOLUME and BASIS-vectors are now :
  energy-cutoff  :      600.00
  volume of cell :     1563.67
      direct lattice vectors                 reciprocal lattice vectors
     8.546113626  0.000000000  0.000000000     0.117012252  0.000000000  0.000000000
     0.000000000  8.546113626  0.000000000     0.000000000  0.117012252  0.000000000
     0.000000000  0.000000000 21.409585219     0.000000000  0.000000000  0.046708051

  length of vectors
     8.546113626  8.546113626 21.409585219     0.117012252  0.117012252  0.046708051

 FORCES acting on ions:
    Electron-Ion                     Ewald-Force                    Non-Local-Force
   0.545E-02 0.891E-01 0.201E+04   -.584E-02 -.898E-01 -.200E+04   0.272E-03 0.381E-03 -.633E+01
   -.888E-01 -.545E-02 0.201E+04   0.895E-01 0.583E-02 -.200E+04   -.385E-03 -.257E-03 -.633E+01
   0.164E-04 0.221E-04 0.665E+03   -.139E-04 -.122E-04 -.665E+03   -.642E-05 -.771E-05 0.396E+00
   -.437E+00 0.438E+00 0.665E+03   0.441E+00 -.442E+00 -.665E+03   -.314E-02 0.317E-02 0.408E+00
   0.165E+00 0.563E+00 -.668E+03   -.177E+00 -.589E+00 0.668E+03   0.107E-01 0.195E-01 -.199E+00
   -.560E+00 -.165E+00 -.668E+03   0.586E+00 0.177E+00 0.668E+03   -.193E-01 -.107E-01 -.199E+00
   0.157E-04 0.237E-04 -.199E+04   -.172E-04 -.148E-04 0.199E+04   -.537E-05 -.125E-04 0.552E+01
   -.141E+01 0.141E+01 -.199E+04   0.130E+01 -.130E+01 0.199E+04   0.973E-01 -.974E-01 0.556E+01
   -.542E-02 -.891E-01 0.201E+04   0.583E-02 0.898E-01 -.200E+04   -.285E-03 -.379E-03 -.633E+01
   -.994E-01 0.617E-02 0.201E+04   0.102E+00 -.622E-02 -.200E+04   -.156E-02 0.382E-04 -.634E+01
   0.440E-04 -.230E-04 0.664E+03   -.307E-04 0.135E-04 -.665E+03   -.102E-04 0.651E-05 0.380E+00
   -.430E+00 -.431E+00 0.664E+03   0.442E+00 0.443E+00 -.665E+03   -.718E-02 -.722E-02 0.432E+00
   -.165E+00 -.563E+00 -.668E+03   0.177E+00 0.589E+00 0.668E+03   -.107E-01 -.195E-01 -.199E+00
   -.120E+01 0.177E+00 -.670E+03   0.131E+01 -.193E+00 0.670E+03   -.107E+00 0.137E-01 -.290E+00
   0.199E-04 -.401E-04 -.199E+04   -.132E-04 0.281E-04 0.199E+04   -.123E-04 0.904E-05 0.554E+01
   -.174E+01 -.174E+01 -.199E+04   0.156E+01 0.156E+01 0.199E+04   0.149E+00 0.149E+00 0.562E+01
   -.617E-02 0.997E-01 0.201E+04   0.623E-02 -.102E+00 -.200E+04   -.477E-04 0.156E-02 -.634E+01
   0.888E-01 0.541E-02 0.201E+04   -.895E-01 -.584E-02 -.200E+04   0.384E-03 0.299E-03 -.633E+01
   -.108E-04 0.185E-04 0.664E+03   0.136E-04 -.290E-04 -.665E+03   -.611E-05 0.540E-05 0.380E+00
   0.430E+00 0.431E+00 0.664E+03   -.442E+00 -.443E+00 -.665E+03   0.720E-02 0.721E-02 0.432E+00
   -.177E+00 0.121E+01 -.670E+03   0.193E+00 -.132E+01 0.670E+03   -.137E-01 0.107E+00 -.291E+00
   0.560E+00 0.165E+00 -.668E+03   -.586E+00 -.177E+00 0.668E+03   0.193E-01 0.107E-01 -.199E+00
   -.142E-04 0.688E-05 -.199E+04   0.202E-04 -.525E-05 0.199E+04   0.521E-05 -.278E-05 0.554E+01
   0.174E+01 0.174E+01 -.199E+04   -.156E+01 -.156E+01 0.199E+04   -.149E+00 -.149E+00 0.562E+01
   0.614E-02 -.997E-01 0.201E+04   -.622E-02 0.102E+00 -.200E+04   0.576E-04 -.156E-02 -.634E+01
   0.994E-01 -.614E-02 0.201E+04   -.102E+00 0.623E-02 -.200E+04   0.156E-02 -.633E-04 -.634E+01
   -.376E-04 -.208E-04 0.663E+03   0.312E-04 0.310E-04 -.663E+03   0.385E-06 -.565E-05 0.491E+00
   0.437E+00 -.438E+00 0.665E+03   -.441E+00 0.442E+00 -.665E+03   0.313E-02 -.316E-02 0.408E+00
   0.177E+00 -.121E+01 -.670E+03   -.193E+00 0.132E+01 0.670E+03   0.137E-01 -.107E+00 -.291E+00
   0.120E+01 -.177E+00 -.670E+03   -.131E+01 0.193E+00 0.670E+03   0.107E+00 -.137E-01 -.290E+00
   -.262E-04 -.364E-04 -.201E+04   0.231E-04 0.329E-04 0.200E+04   0.586E-05 0.109E-04 0.588E+01
   0.141E+01 -.141E+01 -.199E+04   -.130E+01 0.130E+01 0.199E+04   -.973E-01 0.974E-01 0.556E+01
   0.299E-01 0.259E+00 0.498E+03   -.212E-01 -.263E+00 -.498E+03   -.104E-01 0.518E-02 -.811E-01
   -.258E+00 -.298E-01 0.498E+03   0.262E+00 0.212E-01 -.498E+03   -.521E-02 0.104E-01 -.810E-01
   -.203E-06 0.807E-05 0.151E+04   -.270E-05 -.255E-05 -.151E+04   0.353E-05 -.174E-04 0.315E+01
   -.712E-01 0.714E-01 0.151E+04   0.726E-01 -.728E-01 -.151E+04   -.178E-02 0.178E-02 0.315E+01
   0.205E+00 0.647E+00 -.151E+04   -.216E+00 -.688E+00 0.152E+04   0.909E-02 0.315E-01 -.442E+01
   -.646E+00 -.204E+00 -.151E+04   0.687E+00 0.216E+00 0.152E+04   -.313E-01 -.911E-02 -.442E+01
   0.993E-05 0.947E-05 -.496E+03   -.854E-05 -.221E-05 0.496E+03   0.286E-05 -.178E-05 0.260E+00
   -.669E+00 0.671E+00 -.495E+03   0.669E+00 -.671E+00 0.495E+03   0.158E-02 -.149E-02 0.363E+00
   -.298E-01 -.259E+00 0.498E+03   0.212E-01 0.263E+00 -.498E+03   0.103E-01 -.518E-02 -.811E-01
   -.301E+00 0.410E-01 0.497E+03   0.275E+00 -.407E-01 -.497E+03   0.315E-01 -.521E-03 -.108E+00
   0.103E-04 -.136E-04 0.151E+04   -.418E-05 0.258E-05 -.151E+04   -.478E-05 0.182E-04 0.315E+01
   -.717E-01 -.719E-01 0.151E+04   0.728E-01 0.731E-01 -.151E+04   -.142E-02 -.144E-02 0.315E+01
   -.204E+00 -.647E+00 -.151E+04   0.216E+00 0.688E+00 0.152E+04   -.910E-02 -.315E-01 -.442E+01
   -.237E+01 0.342E+00 -.151E+04   0.232E+01 -.305E+00 0.152E+04   0.131E+00 -.555E-01 -.411E+01
   0.269E-04 -.151E-04 -.496E+03   -.202E-04 0.106E-04 0.495E+03   0.533E-05 0.232E-05 0.304E+00
   -.703E+00 -.705E+00 -.497E+03   0.710E+00 0.712E+00 0.497E+03   -.619E-02 -.628E-02 0.293E+00
   -.411E-01 0.303E+00 0.497E+03   0.407E-01 -.276E+00 -.497E+03   0.515E-03 -.315E-01 -.108E+00
   0.258E+00 0.298E-01 0.498E+03   -.262E+00 -.212E-01 -.498E+03   0.521E-02 -.103E-01 -.810E-01
   -.656E-05 -.258E-05 0.151E+04   0.271E-05 -.402E-05 -.151E+04   -.334E-05 0.102E-04 0.315E+01
   0.717E-01 0.719E-01 0.151E+04   -.728E-01 -.731E-01 -.151E+04   0.145E-02 0.144E-02 0.315E+01
   -.342E+00 0.238E+01 -.151E+04   0.305E+00 -.233E+01 0.152E+04   0.555E-01 -.130E+00 -.411E+01
   0.646E+00 0.205E+00 -.151E+04   -.687E+00 -.216E+00 0.152E+04   0.313E-01 0.909E-02 -.442E+01
   -.748E-05 0.139E-04 -.496E+03   0.579E-05 -.133E-04 0.495E+03   -.183E-05 0.694E-06 0.304E+00
   0.703E+00 0.705E+00 -.497E+03   -.710E+00 -.712E+00 0.497E+03   0.619E-02 0.628E-02 0.293E+00
   0.410E-01 -.303E+00 0.497E+03   -.407E-01 0.276E+00 -.497E+03   -.510E-03 0.315E-01 -.108E+00
   0.301E+00 -.411E-01 0.497E+03   -.275E+00 0.407E-01 -.497E+03   -.315E-01 0.505E-03 -.108E+00
   -.123E-04 0.310E-05 0.151E+04   0.420E-05 0.406E-05 -.151E+04   0.629E-05 -.114E-04 0.315E+01
   0.712E-01 -.714E-01 0.151E+04   -.726E-01 0.728E-01 -.151E+04   0.175E-02 -.177E-02 0.315E+01
   0.342E+00 -.238E+01 -.151E+04   -.305E+00 0.233E+01 0.152E+04   -.555E-01 0.130E+00 -.411E+01
   0.237E+01 -.342E+00 -.151E+04   -.232E+01 0.305E+00 0.152E+04   -.131E+00 0.555E-01 -.411E+01
   -.260E-04 -.266E-04 -.505E+03   0.211E-04 0.255E-04 0.505E+03   -.220E-05 -.532E-06 -.154E+00
   0.669E+00 -.671E+00 -.495E+03   -.669E+00 0.671E+00 0.495E+03   -.158E-02 0.149E-02 0.363E+00
   0.161E-04 0.595E-05 0.138E+02   0.308E-12 -.889E-13 -.387E-11   -.193E-04 0.479E-06 -.121E+02

 POSITION                                       TOTAL-FORCE (eV/Angst)
      0.00000      6.40959      7.50000        -0.000087     -0.000199      0.630735
      2.13653      0.00000      7.50000         0.000196      0.000090      0.630695
      0.00000      0.00000      9.63653        -0.000003      0.000002      0.019354
      2.13653      6.40959      9.63653         0.001217     -0.001222      0.022363
      8.54521      6.40919     11.78220        -0.000048     -0.004404     -0.008604
      2.13692      0.00091     11.78219         0.004347      0.000060     -0.008641
      0.00000      0.00000     13.90597        -0.000007     -0.000004     -0.277065
      2.13279      6.41334     13.90043        -0.003696      0.003530     -0.257610
      0.00000      2.13653      7.50000         0.000096      0.000205      0.630638
      2.13653      4.27306      7.50000         0.000552     -0.000006      0.631654
      0.00000      4.27306      9.63653         0.000003     -0.000003      0.032058
      2.13653      2.13653      9.63653         0.003651      0.003666      0.021548
      0.00091      2.13692     11.78220         0.000065      0.004400     -0.008616
      2.14054      4.27322     11.78566        -0.003949     -0.001625     -0.007706
      0.00000      4.27306     13.90520        -0.000004     -0.000002     -0.278884
      2.13538      2.13537     13.90685        -0.017081     -0.016911     -0.303571
      4.27306      6.40959      7.50000         0.000002     -0.000556      0.631647
      6.40959      0.00000      7.50000        -0.000192     -0.000096      0.630664
      4.27306      0.00000      9.63653        -0.000003     -0.000004      0.032019
      6.40959      6.40959      9.63653        -0.003656     -0.003661      0.021535
      4.27290      6.40558     11.78567         0.001617      0.003879     -0.007817
      6.40920      8.54521     11.78219        -0.004352     -0.000052     -0.008649
      4.27306      0.00000     13.90518         0.000010     -0.000003     -0.278892
      6.41073      6.41075     13.90685         0.017079      0.016917     -0.303513
      4.27306      2.13653      7.50000        -0.000015      0.000557      0.631634
      6.40959      4.27306      7.50000        -0.000552      0.000017      0.631638
      4.27306      4.27306      9.63653        -0.000006      0.000003      0.027298
      6.40959      2.13653      9.63653        -0.001215      0.001224      0.022382
      4.27322      2.14053     11.78567        -0.001626     -0.003883     -0.007811
      6.40558      4.27290     11.78566         0.003947      0.001620     -0.007697
      4.27306      4.27306     13.95143         0.000001      0.000009     -0.589506
      6.41332      2.13278     13.90043         0.003701     -0.003536     -0.257567
      0.00000      6.40959      9.63653        -0.003206      0.001671      0.034379
      2.13653      0.00000      9.63653        -0.001686      0.003210      0.034389
      0.00000      0.00000      7.50000         0.000001     -0.000014     -0.273187
      2.13653      6.40959      7.50000        -0.000606      0.000609     -0.273489
      8.54534      6.41143     13.94643        -0.000988     -0.005734     -0.154698
      2.13468      0.00078     13.94642         0.005854      0.000965     -0.154755
      8.54611      8.54611     11.77659         0.000005      0.000005      0.016908
      2.13574      6.41037     11.77702         0.001658     -0.001590      0.019600
      0.00000      2.13653      9.63653         0.003212     -0.001671      0.034391
      2.13653      4.27306      9.63653         0.009082     -0.000288      0.041027
      0.00000      4.27306      7.50000         0.000001      0.000009     -0.273576
      2.13653      2.13653      7.50000        -0.000468     -0.000480     -0.273545
      0.00078      2.13468     13.94643         0.000970      0.005739     -0.154762
      2.12872      4.27573     13.94453         0.099930     -0.026648     -0.065297
      0.00000      4.27306     11.77695         0.000013     -0.000002      0.021244
      2.13681      2.13682     11.77869        -0.000319     -0.000386      0.013803
      4.27306      6.40959      9.63653         0.000277     -0.009100      0.041035
      6.40959      0.00000      9.63653         0.001685     -0.003204      0.034395
      4.27306      0.00000      7.50000        -0.000008      0.000005     -0.273552
      6.40959      6.40959      7.50000         0.000485      0.000481     -0.273542
      4.27038      6.41741     13.94447         0.026676     -0.099910     -0.064982
      6.41144      8.54534     13.94642        -0.005858     -0.000996     -0.154680
      4.27306      0.00000     11.77693        -0.000004      0.000001      0.021354
      6.40930      6.40930     11.77869         0.000314      0.000389      0.013804
      4.27306      2.13653      9.63653        -0.000277      0.009094      0.041020
      6.40959      4.27306      9.63653        -0.009087      0.000270      0.041028
      4.27306      4.27306      7.50000        -0.000001     -0.000006     -0.274343
      6.40959      2.13653      7.50000         0.000595     -0.000599     -0.273490
      4.27573      2.12870     13.94447        -0.026647      0.099918     -0.065018
      6.41739      4.27038     13.94452        -0.099932      0.026671     -0.065230
      4.27306      4.27306     11.78548        -0.000008     -0.000002      0.004470
      6.41037      2.13575     11.77702        -0.001657      0.001581      0.019588
    total drift:                               -0.000006      0.000006      0.009350

  FREE ENERGIE OF THE ION-ELECTRON SYSTEM (eV)
  free  energy   TOTEN  =      -437.14416584 eV

  energy  without entropy=     -437.14416584  energy(sigma->0) =     -437.14416584