 vasp.6.3.0 20Jan22 (build Aug 21 2024 11:13:42) complex
 executed on        HPECrayEX_GCC date 2024.08.27  13:36:32

 INCAR:
   SYSTEM = MgO-rocksalt
   ISMEAR = 0
   SIGMA = 0.05
   EDIFF = 1E-6
   ALGO = ALL
   ISTART = 0
   IBRION = -1
   NSW = 0
   ISYM = 0
   DIPOL = 0.5 0.5 0.5
   IDIPOL = 3
   LDIPOL = .TRUE.
   GGA = RE
   AGGAC = 0.0
   LUSE_VDW = .TRUE.
   LASPH = .TRUE.
   ENCUT = 600
   PREC = Accurate
   LASPH = .TRUE.
   LREAL = .FALSE.
   ISPIN = 1
   NELM = 200
   NELMIN = 8
   NCORE = 8
   KPAR = 1
   LWAVE = .FALSE.
   LCHARG = .FALSE.

 POTCAR:    PAW_PBE Mg_pv 13Apr2007
 POTCAR:    PAW_PBE O 08Apr2002
|               ----> ADVICE to this user running VASP <----                  |
|     You have switched on vdW-DFT.                                           |
|     This routine was written and supplied by Jiri Klimes. We recommend      |
|     that you carefully read and cite the following publications:            |
|       J. Klimes, D.R. Bowler, A. Michelides                                 |
|          J. Phys.: Cond Matt. 22 022201 (2010)                              |
|       J. Klimes, D.R. Bowler, A. Michelides                                 |
|          Phys. Rev. B. 83, 195131 (2011)                                    |
|     and references therein.                                                 |

   TITEL  = PAW_PBE Mg_pv 13Apr2007
   POMASS =   24.305; ZVAL   =    8.000    mass and valenz
   ENMAX  =  403.929; ENMIN  =  302.947 eV

   TITEL  = PAW_PBE O 08Apr2002
   POMASS =   16.000; ZVAL   =    6.000    mass and valenz
   ENMAX  =  400.000; ENMIN  =  300.000 eV

  PAW_PBE Mg_pv 13Apr2007               :
  PAW_PBE O 08Apr2002                   :

 POSCAR: Mg  O
  positions in direct lattice
 exchange correlation table for  LEXCH =       40
   RHO(1)=    0.500       N(1)  =     2000
   RHO(2)=  100.500       N(2)  =     4000

 ion  position               nearest neighbor table
   1  0.000  0.750  0.350-  33 2.14  35 2.14  36 2.14  43 2.14  52 2.14
   2  0.250  0.000  0.350-  34 2.14  35 2.14  36 2.14  44 2.14  51 2.14
   3  0.000  0.000  0.450-  35 2.14  34 2.14  33 2.14  41 2.14  50 2.14  39 2.14
   4  0.250  0.750  0.450-  36 2.14  34 2.14  33 2.14  42 2.14  49 2.14  40 2.14
   5  0.000  0.750  0.550-  47 2.14  39 2.14  40 2.14  56 2.14  33 2.15  37 2.16
   6  0.250  1.000  0.550-  55 2.14  40 2.14  48 2.14  39 2.14  34 2.15  38 2.16
   7  0.000  1.000  0.650-  39 2.13  38 2.14  54 2.14  45 2.14  37 2.14
   8  0.250  0.750  0.649-  40 2.13  37 2.14  38 2.14  46 2.14  53 2.14
   9  0.000  0.250  0.350-  41 2.14  35 2.14  43 2.14  44 2.14  60 2.14
  10  0.250  0.500  0.350-  42 2.14  36 2.14  43 2.14  44 2.14  59 2.14
  11  0.000  0.500  0.450-  43 2.14  41 2.14  42 2.14  33 2.14  58 2.14  47 2.14
  12  0.250  0.250  0.450-  44 2.14  41 2.14  42 2.14  34 2.14  57 2.14  48 2.14
  13  1.000  0.250  0.550-  47 2.14  39 2.14  48 2.14  64 2.14  41 2.15  45 2.16
  14  0.250  0.500  0.550-  63 2.14  40 2.14  48 2.14  47 2.14  42 2.15  46 2.16
  15  1.000  0.500  0.650-  47 2.13  45 2.14  37 2.14  62 2.14  46 2.14
  16  0.250  0.250  0.649-  48 2.13  45 2.14  38 2.14  46 2.14  61 2.14
  17  0.500  0.750  0.350-  49 2.14  36 2.14  51 2.14  52 2.14  59 2.14
  18  0.750  0.000  0.350-  50 2.14  35 2.14  51 2.14  52 2.14  60 2.14
  19  0.500  0.000  0.450-  51 2.14  49 2.14  50 2.14  34 2.14  57 2.14  55 2.14
  20  0.750  0.750  0.450-  52 2.14  49 2.14  50 2.14  33 2.14  58 2.14  56 2.14
  21  0.500  0.750  0.550-  56 2.14  40 2.14  63 2.14  55 2.14  49 2.15  53 2.16
  22  0.750  1.000  0.550-  55 2.14  56 2.14  64 2.14  39 2.14  50 2.15  54 2.16
  23  0.500  1.000  0.650-  55 2.13  61 2.14  53 2.14  38 2.14  54 2.14
  24  0.750  0.750  0.649-  56 2.13  37 2.14  54 2.14  62 2.14  53 2.14
  25  0.500  0.250  0.350-  57 2.14  51 2.14  44 2.14  59 2.14  60 2.14
  26  0.750  0.500  0.350-  58 2.14  52 2.14  43 2.14  59 2.14  60 2.14
  27  0.500  0.500  0.450-  59 2.14  49 2.14  57 2.14  58 2.14  42 2.14  63 2.14
  28  0.750  0.250  0.450-  60 2.14  50 2.14  57 2.14  58 2.14  41 2.14  64 2.14
  29  0.500  0.250  0.550-  64 2.14  48 2.14  63 2.14  55 2.14  57 2.15  61 2.16
  30  0.750  0.500  0.550-  63 2.14  56 2.14  64 2.14  47 2.14  58 2.15  62 2.16
  31  0.500  0.500  0.650-  63 2.13  62 2.14  46 2.14  61 2.14  53 2.14
  32  0.750  0.250  0.649-  64 2.13  45 2.14  54 2.14  62 2.14  61 2.14
  33  0.000  0.750  0.450-   1 2.14   3 2.14   4 2.14  11 2.14  20 2.14   5 2.15
  34  0.250  0.000  0.450-   2 2.14   3 2.14   4 2.14  12 2.14  19 2.14   6 2.15
  35  0.000  0.000  0.350-   3 2.14   2 2.14   1 2.14   9 2.14  18 2.14
  36  0.250  0.750  0.350-   4 2.14   2 2.14   1 2.14  10 2.14  17 2.14
  37  0.000  0.750  0.651-  15 2.14   8 2.14  24 2.14   7 2.14   5 2.16
  38  0.250  1.000  0.652-   7 2.14  16 2.14   8 2.14  23 2.14   6 2.16
  39  0.000  1.000  0.550-   7 2.13   6 2.14  22 2.14   5 2.14  13 2.14   3 2.14
  40  0.250  0.750  0.550-   8 2.13  21 2.14  14 2.14   6 2.14   5 2.14   4 2.14
  41  0.000  0.250  0.450-   9 2.14   3 2.14  11 2.14  12 2.14  28 2.14  13 2.15
  42  0.250  0.500  0.450-  10 2.14   4 2.14  11 2.14  12 2.14  27 2.14  14 2.15
  43  0.000  0.500  0.350-  11 2.14   9 2.14  10 2.14   1 2.14  26 2.14
  44  0.250  0.250  0.350-  12 2.14   9 2.14  10 2.14   2 2.14  25 2.14
  45  1.000  0.250  0.651-  15 2.14  16 2.14  32 2.14   7 2.14  13 2.16
  46  0.250  0.500  0.652-  15 2.14  31 2.14  16 2.14   8 2.14  14 2.16
  47  1.000  0.500  0.550-  15 2.13   5 2.14  13 2.14  30 2.14  14 2.14  11 2.14
  48  0.250  0.250  0.550-  16 2.13  29 2.14  14 2.14   6 2.14  13 2.14  12 2.14
  49  0.500  0.750  0.450-  17 2.14   4 2.14  19 2.14  20 2.14  27 2.14  21 2.15
  50  0.750  0.000  0.450-  18 2.14   3 2.14  19 2.14  20 2.14  28 2.14  22 2.15
  51  0.500  0.000  0.350-  19 2.14  17 2.14  18 2.14   2 2.14  25 2.14
  52  0.750  0.750  0.350-  20 2.14  17 2.14  18 2.14   1 2.14  26 2.14
  53  0.500  0.750  0.652-  23 2.14  31 2.14  24 2.14   8 2.14  21 2.16
  54  0.750  1.000  0.652-   7 2.14  24 2.14  32 2.14  23 2.14  22 2.16
  55  0.500  1.000  0.550-  23 2.13  22 2.14   6 2.14  29 2.14  21 2.14  19 2.14
  56  0.750  0.750  0.550-  24 2.13  21 2.14  30 2.14  22 2.14   5 2.14  20 2.14
  57  0.500  0.250  0.450-  25 2.14  19 2.14  12 2.14  27 2.14  28 2.14  29 2.15
  58  0.750  0.500  0.450-  26 2.14  20 2.14  11 2.14  27 2.14  28 2.14  30 2.15
  59  0.500  0.500  0.350-  27 2.14  17 2.14  25 2.14  26 2.14  10 2.14
  60  0.750  0.250  0.350-  28 2.14  18 2.14  25 2.14  26 2.14   9 2.14
  61  0.500  0.250  0.652-  23 2.14  31 2.14  32 2.14  16 2.14  29 2.16
  62  0.750  0.500  0.652-  15 2.14  31 2.14  32 2.14  24 2.14  30 2.16
  63  0.500  0.500  0.550-  31 2.13  30 2.14  14 2.14  21 2.14  29 2.14  27 2.14
  64  0.750  0.250  0.550-  32 2.13  29 2.14  30 2.14  22 2.14  13 2.14  28 2.14

IMPORTANT INFORMATION: All symmetrisations will be switched off!
NOSYMM: (Re-)initialisation of all symmetry stuff for point group C_1.

                                     Primitive cell

  volume of cell :    1563.6717

  direct lattice vectors                    reciprocal lattice vectors
     8.546113626  0.000000000  0.000000000     0.117012252  0.000000000  0.000000000
     0.000000000  8.546113626  0.000000000     0.000000000  0.117012252  0.000000000
     0.000000000  0.000000000 21.409585219     0.000000000  0.000000000  0.046708051

  length of vectors
     8.546113626  8.546113626 21.409585219     0.117012252  0.117012252  0.046708051

  position of ions in fractional coordinates (direct lattice)
     0.000000000  0.750000000  0.350310383
     0.250000000  0.000000000  0.350310383
     0.000000000  0.000000000  0.450103461
     0.250000000  0.750000000  0.450103461
     0.000000007  0.749980482  0.550432276
     0.250008357  0.999999967  0.550447732
     0.000000003  0.999999999  0.649617973
     0.249982409  0.750015029  0.649414934
     0.000000000  0.250000000  0.350310383
     0.250000000  0.500000000  0.350310383
     0.000000000  0.500000000  0.450103461
     0.250000000  0.250000000  0.450103461
     0.999999997  0.250019482  0.550432262
     0.250037239  0.499999992  0.550469826
     0.999999967  0.499999963  0.649654673
     0.249982376  0.249984939  0.649414905
     0.500000000  0.750000000  0.350310383
     0.750000000  0.000000000  0.350310383
     0.500000000  0.000000000  0.450103461
     0.750000000  0.750000000  0.450103461
     0.500000002  0.749987509  0.550474791
     0.749991634  0.999999961  0.550447738
     0.499999989  0.999999990  0.649718202
     0.750017586  0.750014997  0.649414946
     0.500000000  0.250000000  0.350310383
     0.750000000  0.500000000  0.350310383
     0.500000000  0.500000000  0.450103461
     0.750000000  0.250000000  0.450103461
     0.500000001  0.250012460  0.550474776
     0.749962768  0.500000003  0.550469829
     0.500000003  0.499999971  0.649766482
     0.750017607  0.249984948  0.649414911
     0.000000000  0.750000000  0.450103461
     0.250000000  0.000000000  0.450103461
     0.000000000  0.000000000  0.350310383
     0.250000000  0.750000000  0.350310383
     0.000000013  0.749988030  0.651497110
     0.249925099  0.999999986  0.651512329
     0.000000012  0.999999968  0.550128539
     0.250035447  0.749992776  0.550136681
     0.000000000  0.250000000  0.450103461
     0.250000000  0.500000000  0.450103461
     0.000000000  0.500000000  0.350310383
     0.250000000  0.250000000  0.350310383
     0.999999995  0.250011948  0.651497070
     0.249995063  0.499999960  0.651552416
     0.999999993  0.499999998  0.550147130
     0.250035440  0.250007185  0.550136668
     0.500000000  0.750000000  0.450103461
     0.750000000  0.000000000  0.450103461
     0.500000000  0.000000000  0.350310383
     0.750000000  0.750000000  0.350310383
     0.500000004  0.750030262  0.651595830
     0.750074884  0.999999972  0.651512336
     0.500000004  0.999999985  0.550212568
     0.749964548  0.749992777  0.550136690
     0.500000000  0.250000000  0.450103461
     0.750000000  0.500000000  0.450103461
     0.500000000  0.500000000  0.350310383
     0.750000000  0.250000000  0.350310383
     0.500000005  0.249969713  0.651595801
     0.750004912  0.499999971  0.651552414
     0.500000011  0.499999996  0.550229818
     0.749964553  0.250007186  0.550136668

  ion indices of the primitive-cell ions
   primitive index   ion index
                 1           1
                 2           2
                 3           3
                 4           4
                 5           5
                 6           6
                 7           7
                 8           8
                 9           9
                10          10
                11          11
                12          12
                13          13
                14          14
                15          15
                16          16
                17          17
                18          18
                19          19
                20          20
                21          21
                22          22
                23          23
                24          24
                25          25
                26          26
[...]
   0.50000000  0.25000000  0.45010346
   0.75000000  0.50000000  0.45010346
   0.50000000  0.50000000  0.35031038
   0.75000000  0.25000000  0.35031038
   0.50000001  0.24996971  0.65159580
   0.75000491  0.49999997  0.65155241
   0.50000001  0.50000000  0.55022982
   0.74996455  0.25000719  0.55013667

 position of ions in cartesian coordinates  (Angst):
   0.00000000  6.40958522  7.50000000
   2.13652841  0.00000000  7.50000000
   0.00000000  0.00000000  9.63652841
   2.13652841  6.40958522  9.63652841
   0.00000006  6.40941842 11.78452671
   2.13659983  8.54611334 11.78485762
   0.00000002  8.54611362 13.90805135
   2.13637807  6.40971366 13.90370437
   0.00000000  2.13652841  7.50000000
   2.13652841  4.27305681  7.50000000
   0.00000000  4.27305681  9.63652841
   2.13652841  2.13652841  9.63652841
   8.54611360  2.13669490 11.78452641
   2.13684666  4.27305674 11.78533064
   8.54611334  4.27305649 13.90883708
   2.13637779  2.13639969 13.90370376
   4.27305681  6.40958522  7.50000000
   6.40958522  0.00000000  7.50000000
   4.27305681  0.00000000  9.63652841
   6.40958522  6.40958522  9.63652841
   4.27305683  6.40947847 11.78543695
   6.40951372  8.54611330 11.78485775
   4.27305672  8.54611354 13.91019722
   6.40973551  6.40971338 13.90370463
   4.27305681  2.13652841  7.50000000
   6.40958522  4.27305681  7.50000000
   4.27305681  4.27305681  9.63652841
   6.40958522  2.13652841  9.63652841
   4.27305682  2.13663489 11.78543662
   6.40926703  4.27305684 11.78533071
   4.27305684  4.27305657 13.91123086
   6.40973569  2.13639977 13.90370387
   0.00000000  6.40958522  9.63652841
   2.13652841  0.00000000  9.63652841
   0.00000000  0.00000000  7.50000000
   2.13652841  6.40958522  7.50000000
   0.00000011  6.40948293 13.94828290
   2.13588829  8.54611351 13.94860872
   0.00000010  8.54611335 11.77802383
   2.13683134  6.40952349 11.77819816
   0.00000000  2.13652841  9.63652841
   2.13652841  4.27305681  9.63652841
   0.00000000  4.27305681  7.50000000
   2.13652841  2.13652841  7.50000000
   8.54611358  2.13663052 13.94828203
   2.13648621  4.27305647 13.94946698
   8.54611356  4.27305679 11.77842186
   2.13683128  2.13658981 11.77819787
   4.27305681  6.40958522  9.63652841
   6.40958522  0.00000000  9.63652841
   4.27305681  0.00000000  7.50000000
   6.40958522  6.40958522  7.50000000
   4.27305685  6.40984384 13.95039644
   6.41022519  8.54611339 13.94860888
   4.27305684  8.54611349 11.77982286
   6.40928225  6.40952349 11.77819835
   4.27305681  2.13652841  9.63652841
   6.40958522  4.27305681  9.63652841
   4.27305681  4.27305681  7.50000000
   6.40958522  2.13652841  7.50000000
   4.27305686  2.13626957 13.95039583
   6.40962719  4.27305656 13.94946693
   4.27305691  4.27305678 11.78019217
   6.40928228  2.13658982 11.77819788

--------------------------------------- Iteration      FINAL  ---------------------------------------

--------------------OUTCAR has been truncated-------------------------

[...]

--------------------OUTCAR has been truncated-------------------------

  FORCE on cell =-STRESS in cart. coord.  units (eV):
  Direction    XX          YY          ZZ          XY          YZ          ZX
  Alpha Z   850.71337   850.71337   850.71337
  Ewald  156252.83197156252.83681************     0.00000    -0.00006    -0.00002
  Hartree166352.82936166352.83256************    -0.00000    -0.00004    -0.00001
  E(xc)   -2518.34035 -2518.34035 -2520.80986     0.00000    -0.00000    -0.00000
  Local  ************************332498.83844     0.00001     0.00010     0.00003
  n-local -2815.73541 -2815.73537 -2834.32437     0.00000    -0.00000    -0.00000
  augment  1078.41584  1078.41585  1069.83021    -0.00000    -0.00000    -0.00000
  Kinetic  7305.82396  7305.82384  7344.02661    -0.00001     0.00001     0.00000
  Fock        0.00000     0.00000     0.00000     0.00000     0.00000     0.00000
  Total     -30.68253   -30.68258    -2.50279    -0.00000     0.00001     0.00000
  in kB     -31.43810   -31.43815    -2.56442    -0.00000     0.00001     0.00000

 VOLUME and BASIS-vectors are now :
  energy-cutoff  :      600.00
  volume of cell :     1563.67
      direct lattice vectors                 reciprocal lattice vectors
     8.546113626  0.000000000  0.000000000     0.117012252  0.000000000  0.000000000
     0.000000000  8.546113626  0.000000000     0.000000000  0.117012252  0.000000000
     0.000000000  0.000000000 21.409585219     0.000000000  0.000000000  0.046708051

  length of vectors
     8.546113626  8.546113626 21.409585219     0.117012252  0.117012252  0.046708051

 FORCES acting on ions:
    Electron-Ion                     Ewald-Force                    Non-Local-Force
   -.276E-07 0.833E-02 0.201E+04   -.211E-05 -.853E-02 -.200E+04   -.895E-06 0.158E-03 -.640E+01
   -.243E-01 0.643E-05 0.201E+04   0.245E-01 -.470E-05 -.200E+04   -.159E-03 0.190E-06 -.640E+01
   0.191E-04 0.181E-04 0.664E+03   -.196E-04 -.182E-04 -.665E+03   -.168E-05 -.889E-06 0.439E+00
   -.870E-01 0.330E-01 0.664E+03   0.903E-01 -.349E-01 -.665E+03   -.239E-02 0.135E-02 0.453E+00
   0.328E-04 0.229E-01 -.669E+03   -.333E-04 -.277E-01 0.669E+03   -.883E-06 0.510E-02 -.287E+00
   -.123E+00 -.547E-05 -.669E+03   0.130E+00 0.153E-05 0.669E+03   -.499E-02 0.466E-05 -.291E+00
   0.547E-04 0.187E-04 -.199E+04   -.537E-04 -.239E-04 0.199E+04   -.136E-05 0.386E-06 0.556E+01
   0.171E-02 0.222E-01 -.199E+04   -.781E-02 -.189E-01 0.199E+04   0.585E-02 -.369E-02 0.555E+01
   0.313E-05 -.832E-02 0.201E+04   -.152E-05 0.853E-02 -.200E+04   0.348E-06 -.159E-03 -.640E+01
   -.227E-01 -.783E-05 0.201E+04   0.229E-01 0.474E-05 -.200E+04   -.205E-03 0.805E-06 -.641E+01
   -.973E-06 -.181E-04 0.664E+03   0.312E-07 0.201E-04 -.665E+03   0.144E-05 0.150E-06 0.445E+00
   -.870E-01 -.330E-01 0.664E+03   0.903E-01 0.349E-01 -.665E+03   -.239E-02 -.135E-02 0.453E+00
   0.134E-04 -.229E-01 -.669E+03   -.141E-04 0.277E-01 0.669E+03   0.110E-05 -.510E-02 -.287E+00
   -.259E-01 -.635E-05 -.669E+03   0.362E-01 0.898E-05 0.670E+03   -.106E-01 -.413E-05 -.289E+00
   -.878E-04 -.740E-04 -.199E+04   0.873E-04 0.766E-04 0.199E+04   0.272E-05 0.177E-05 0.557E+01
   0.162E-02 -.221E-01 -.199E+04   -.772E-02 0.188E-01 0.199E+04   0.585E-02 0.368E-02 0.555E+01
   -.835E-06 0.679E-02 0.201E+04   0.181E-05 -.702E-02 -.200E+04   -.357E-06 0.168E-03 -.641E+01
   0.243E-01 0.398E-05 0.201E+04   -.245E-01 -.524E-05 -.200E+04   0.160E-03 0.368E-06 -.640E+01
   -.912E-05 0.231E-04 0.664E+03   0.820E-05 -.218E-04 -.665E+03   0.270E-05 -.428E-06 0.464E+00
   0.869E-01 0.330E-01 0.664E+03   -.903E-01 -.349E-01 -.665E+03   0.239E-02 0.135E-02 0.453E+00
   0.219E-04 0.117E-01 -.669E+03   -.175E-04 -.126E-01 0.670E+03   -.289E-05 0.166E-02 -.280E+00
   0.123E+00 -.104E-04 -.669E+03   -.130E+00 0.860E-05 0.669E+03   0.500E-02 0.195E-05 -.291E+00
   -.132E-05 -.320E-04 -.200E+04   0.453E-05 0.377E-04 0.199E+04   -.221E-06 -.269E-05 0.558E+01
   -.178E-02 0.221E-01 -.199E+04   0.787E-02 -.188E-01 0.199E+04   -.585E-02 -.369E-02 0.555E+01
   -.382E-05 -.679E-02 0.201E+04   0.133E-05 0.702E-02 -.200E+04   0.121E-05 -.167E-03 -.641E+01
   0.227E-01 -.561E-05 0.201E+04   -.229E-01 0.522E-05 -.200E+04   0.206E-03 -.909E-06 -.641E+01
   0.265E-05 -.188E-04 0.664E+03   -.829E-06 0.196E-04 -.664E+03   -.202E-05 -.204E-05 0.470E+00
   0.869E-01 -.330E-01 0.664E+03   -.903E-01 0.349E-01 -.665E+03   0.239E-02 -.135E-02 0.453E+00
   0.169E-04 -.117E-01 -.669E+03   -.145E-04 0.126E-01 0.670E+03   -.139E-05 -.166E-02 -.280E+00
   0.259E-01 0.157E-04 -.669E+03   -.362E-01 -.149E-04 0.670E+03   0.106E-01 -.119E-05 -.289E+00
   0.949E-04 -.775E-05 -.200E+04   -.928E-04 0.134E-05 0.199E+04   -.638E-06 0.652E-05 0.558E+01
   -.168E-02 -.221E-01 -.199E+04   0.777E-02 0.188E-01 0.199E+04   -.585E-02 0.368E-02 0.555E+01
   0.105E-04 0.255E-01 0.498E+03   -.106E-04 -.247E-01 -.498E+03   -.356E-06 -.975E-03 -.752E-01
   -.860E-01 0.101E-04 0.498E+03   0.833E-01 -.861E-05 -.498E+03   0.396E-02 -.332E-05 -.780E-01
   0.246E-05 0.141E-05 0.151E+04   -.193E-05 -.380E-05 -.151E+04   0.177E-05 0.938E-06 0.358E+01
   -.172E-01 0.575E-02 0.151E+04   0.175E-01 -.599E-02 -.151E+04   -.372E-03 0.341E-03 0.357E+01
   0.107E-04 -.934E-02 -.151E+04   -.126E-04 0.120E-01 0.152E+04   -.375E-06 -.246E-02 -.500E+01
   -.830E-01 -.128E-04 -.151E+04   0.914E-01 0.141E-04 0.152E+04   -.503E-02 0.296E-05 -.500E+01
   0.535E-04 0.546E-05 -.496E+03   -.550E-04 -.565E-05 0.496E+03   -.325E-06 -.208E-07 0.270E+00
   -.299E-01 0.242E-01 -.496E+03   0.260E-01 -.224E-01 0.496E+03   0.234E-02 -.191E-02 0.332E+00
   0.600E-05 -.255E-01 0.498E+03   -.468E-05 0.247E-01 -.498E+03   -.475E-06 0.971E-03 -.752E-01
   -.713E-01 -.184E-04 0.498E+03   0.677E-01 0.144E-04 -.498E+03   0.509E-02 0.312E-06 -.825E-01
   -.492E-06 -.454E-05 0.151E+04   -.786E-06 0.379E-05 -.151E+04   0.541E-06 -.104E-05 0.357E+01
   -.172E-01 -.575E-02 0.151E+04   0.175E-01 0.599E-02 -.151E+04   -.371E-03 -.339E-03 0.357E+01
   0.172E-05 0.938E-02 -.151E+04   -.247E-06 -.120E-01 0.152E+04   -.250E-05 0.245E-02 -.500E+01
   0.567E-01 -.433E-04 -.151E+04   -.564E-01 0.434E-04 0.152E+04   -.906E-03 0.266E-06 -.500E+01
   -.375E-04 -.418E-05 -.497E+03   0.384E-04 0.571E-05 0.496E+03   -.138E-05 0.151E-05 0.267E+00
   -.299E-01 -.242E-01 -.496E+03   0.260E-01 0.224E-01 0.496E+03   0.234E-02 0.191E-02 0.332E+00
   -.125E-05 0.178E-01 0.498E+03   0.448E-05 -.171E-01 -.498E+03   -.772E-06 -.103E-02 -.822E-01
   0.860E-01 0.102E-04 0.498E+03   -.833E-01 -.110E-04 -.498E+03   -.396E-02 -.329E-05 -.780E-01
   -.315E-05 0.373E-05 0.151E+04   0.163E-05 -.383E-05 -.151E+04   0.714E-06 0.184E-05 0.357E+01
   0.172E-01 0.574E-02 0.151E+04   -.175E-01 -.599E-02 -.151E+04   0.371E-03 0.340E-03 0.357E+01
   0.409E-04 0.163E-01 -.151E+04   -.384E-04 -.212E-01 0.152E+04   -.172E-05 0.421E-02 -.500E+01
   0.830E-01 -.184E-04 -.151E+04   -.913E-01 0.169E-04 0.152E+04   0.503E-02 0.301E-05 -.500E+01
   0.770E-05 0.179E-04 -.497E+03   -.469E-05 -.893E-05 0.497E+03   -.188E-05 -.193E-05 0.251E+00
   0.298E-01 0.242E-01 -.496E+03   -.260E-01 -.224E-01 0.496E+03   -.234E-02 -.191E-02 0.332E+00
   -.297E-05 -.178E-01 0.498E+03   0.216E-05 0.171E-01 -.498E+03   0.579E-06 0.103E-02 -.822E-01
   0.713E-01 -.155E-04 0.498E+03   -.677E-01 0.149E-04 -.498E+03   -.509E-02 -.521E-06 -.825E-01
   -.158E-05 -.731E-06 0.151E+04   0.718E-06 0.375E-05 -.151E+04   0.469E-06 -.566E-06 0.357E+01
   0.172E-01 -.575E-02 0.151E+04   -.175E-01 0.599E-02 -.151E+04   0.372E-03 -.340E-03 0.357E+01
   0.370E-04 -.163E-01 -.151E+04   -.408E-04 0.212E-01 0.152E+04   0.218E-05 -.421E-02 -.500E+01
   -.567E-01 0.113E-04 -.151E+04   0.563E-01 -.134E-04 0.152E+04   0.918E-03 0.264E-05 -.500E+01
   0.313E-04 0.748E-05 -.497E+03   -.309E-04 -.945E-05 0.497E+03   -.229E-05 0.191E-05 0.243E+00
   0.299E-01 -.242E-01 -.496E+03   -.260E-01 0.224E-01 0.496E+03   -.234E-02 0.191E-02 0.332E+00
   -.128E-04 -.205E-04 0.151E+02   -.443E-12 -.967E-13 -.250E-11   0.202E-04 0.661E-05 -.151E+02

 POSITION                                       TOTAL-FORCE (eV/Angst)
      0.00000      6.40959      7.50000        -0.000003     -0.000051      0.324245
      2.13653      0.00000      7.50000         0.000044      0.000002      0.324267
      0.00000      0.00000      9.63653        -0.000002     -0.000001      0.025639
      2.13653      6.40959      9.63653         0.000923     -0.000535      0.024204
      0.00000      6.40942     11.78453        -0.000002      0.000315     -0.000285
      2.13660      8.54611     11.78486         0.001277      0.000001     -0.001059
      0.00000      8.54611     13.90805        -0.000000     -0.000005      0.012536
      2.13638      6.40971     13.90370        -0.000211     -0.000398      0.039809
      0.00000      2.13653      7.50000         0.000002      0.000052      0.324242
      2.13653      4.27306      7.50000         0.000049     -0.000002      0.324433
      0.00000      4.27306      9.63653         0.000000      0.000002      0.026489
      2.13653      2.13653      9.63653         0.000925      0.000537      0.024203
      8.54611      2.13669     11.78453         0.000000     -0.000316     -0.000286
      2.13685      4.27306     11.78533        -0.000318     -0.000001     -0.002662
      8.54611      4.27306     13.90884         0.000002      0.000005      0.010346
      2.13638      2.13640     13.90370        -0.000204      0.000397      0.039815
      4.27306      6.40959      7.50000         0.000000     -0.000057      0.324356
      6.40959      0.00000      7.50000        -0.000043     -0.000001      0.324265
      4.27306      0.00000      9.63653         0.000002      0.000001      0.028573
      6.40959      6.40959      9.63653        -0.000923     -0.000534      0.024205
      4.27306      6.40948     11.78544         0.000001      0.000719     -0.001175
      6.40951      8.54611     11.78486        -0.001275      0.000000     -0.001061
      4.27306      8.54611     13.91020         0.000003      0.000003      0.005896
      6.40974      6.40971     13.90370         0.000209     -0.000396      0.039809
      4.27306      2.13653      7.50000        -0.000001      0.000058      0.324358
      6.40959      4.27306      7.50000        -0.000049     -0.000001      0.324435
      4.27306      4.27306      9.63653        -0.000000     -0.000001      0.028634
      6.40959      2.13653      9.63653        -0.000926      0.000533      0.024204
      4.27306      2.13663     11.78544         0.000001     -0.000720     -0.001175
      6.40927      4.27306     11.78533         0.000315     -0.000000     -0.002659
      4.27306      4.27306     13.91123         0.000001      0.000000      0.003026
      6.40974      2.13640     13.90370         0.000200      0.000395      0.039812
      0.00000      6.40959      9.63653        -0.000001     -0.000252      0.053263
      2.13653      0.00000      9.63653         0.001313     -0.000002      0.054001
      0.00000      0.00000      7.50000         0.000002     -0.000001     -0.397192
      2.13653      6.40959      7.50000        -0.000109      0.000099     -0.397265
      0.00000      6.40948     13.94828        -0.000002      0.000172     -0.023560
      2.13589      8.54611     13.94861         0.003276      0.000004     -0.022547
      0.00000      8.54611     11.77802        -0.000002     -0.000000     -0.000421
      2.13683      6.40952     11.77820        -0.001525     -0.000112     -0.004851
      0.00000      2.13653      9.63653         0.000001      0.000250      0.053262
      2.13653      4.27306      9.63653         0.001500     -0.000004      0.054821
      0.00000      4.27306      7.50000        -0.000001     -0.000002     -0.397288
      2.13653      2.13653      7.50000        -0.000103     -0.000100     -0.397265
      8.54611      2.13663     13.94828        -0.000001     -0.000181     -0.023559
      2.13649      4.27306     13.94947        -0.000549      0.000001     -0.024921
      8.54611      4.27306     11.77842        -0.000001      0.000003     -0.000855
      2.13683      2.13659     11.77820        -0.001526      0.000118     -0.004851
      4.27306      6.40959      9.63653         0.000002     -0.000280      0.055451
      6.40959      0.00000      9.63653        -0.001312     -0.000004      0.054004
      4.27306      0.00000      7.50000        -0.000001      0.000002     -0.397217
      6.40959      6.40959      7.50000         0.000105      0.000095     -0.397264
      4.27306      6.40984     13.95040         0.000001     -0.000683     -0.027107
      6.41023      8.54611     13.94861        -0.003272      0.000002     -0.022548
      4.27306      8.54611     11.77982         0.000001      0.000007     -0.010366
      6.40928      6.40952     11.77820         0.001526     -0.000113     -0.004855
      4.27306      2.13653      9.63653        -0.000000      0.000280      0.055450
      6.40959      4.27306      9.63653        -0.001502     -0.000001      0.054821
      4.27306      4.27306      7.50000        -0.000001      0.000003     -0.397332
      6.40959      2.13653      7.50000         0.000109     -0.000098     -0.397264
      4.27306      2.13627     13.95040        -0.000002      0.000677     -0.027106
      6.40963      4.27306     13.94947         0.000550      0.000001     -0.024920
      4.27306      4.27306     11.78019        -0.000002      0.000000     -0.011109
      6.40928      2.13659     11.77820         0.001526      0.000116     -0.004850
    total drift:                                0.000007     -0.000014      0.022219

  FREE ENERGIE OF THE ION-ELECTRON SYSTEM (eV)
  free  energy   TOTEN  =      -227.13612327 eV

  energy  without entropy=     -227.13612327  energy(sigma->0) =     -227.13612327