 vasp.6.3.0 20Jan22 (build Apr  1 2022 16:44:48) complex
 executed on        HPECrayEX_GCC date 2022.11.13  17:28:38

 INCAR:
   SYSTEM = MgO-rocksalt
   ISMEAR = 0
   SIGMA = 0.05
   EDIFF = 1E-6
   ALGO = ALL
   ISTART = 0
   IBRION = -1
   NSW = 0
   ISYM = 0
   DIPOL = 0.5 0.5 0.5
   IDIPOL = 3
   LDIPOL = .TRUE.
   LHFCALC = .TRUE.
   GGA = B5
   AEXX = 0.2
   AGGAX = 0.72
   AGGAC = 0.81
   ALDAC = 0.19
   IVDW = 1
   VDW_S6 = 1.05
   VDW_C6 = 0.63 0.70
   VDW_R0 = 1.243 1.342
   ENCUT = 600
   PREC = Accurate
   LASPH = .TRUE.
   LREAL = .FALSE.
   ISPIN = 1
   NELM = 200
   NELMIN = 8
   NCORE = 8
   KPAR = 1
   LWAVE = .FALSE.
   LCHARG = .FALSE.

 POTCAR:    PAW_PBE Mg_pv 13Apr2007
 POTCAR:    PAW_PBE O 08Apr2002
 POTCAR:    PAW_PBE Mg_pv 13Apr2007
   VRHFIN =Mg: p6s2

   TITEL  = PAW_PBE Mg_pv 13Apr2007
   POMASS =   24.305; ZVAL   =    8.000    mass and valenz
   ENMAX  =  403.929; ENMIN  =  302.947 eV

   TITEL  = PAW_PBE O 08Apr2002
   POMASS =   16.000; ZVAL   =    6.000    mass and valenz
   ENMAX  =  400.000; ENMIN  =  300.000 eV

  PAW_PBE Mg_pv 13Apr2007               :
  PAW_PBE O 08Apr2002                   :

 POSCAR: Mg  O
  positions in direct lattice
 exchange correlation table for  LEXCH =       12
   RHO(1)=    0.500       N(1)  =     2000
   RHO(2)=  100.500       N(2)  =     4000

 ion  position               nearest neighbor table
   1  0.250  0.000  0.352-  35 2.10  36 2.10  43 2.10  52 2.10  33 2.10
   2  0.500  0.250  0.352-  35 2.10  36 2.10  44 2.10  51 2.10  34 2.10
   3  0.250  0.250  0.451-  33 2.10  34 2.10  41 2.10  50 2.10  35 2.10  39 2.11
   4  0.500  0.000  0.451-  33 2.10  34 2.10  42 2.10  49 2.10  36 2.10  40 2.11
   5  0.250  0.000  0.550-  56 2.10  39 2.10  40 2.10  47 2.10  33 2.11  37 2.12
   6  0.500  0.250  0.550-  40 2.10  39 2.10  55 2.10  48 2.10  34 2.11  38 2.16
   7  0.248  0.250  0.648-  54 2.08  39 2.10  37 2.10  45 2.10  38 2.12
   8  0.500  0.998  0.648-  46 2.08  40 2.09  37 2.10  53 2.10  38 2.12
   9  0.250  0.500  0.352-  35 2.10  43 2.10  44 2.10  60 2.10  41 2.10
  10  0.500  0.750  0.352-  36 2.10  43 2.10  44 2.10  59 2.10  42 2.10
  11  0.250  0.750  0.451-  33 2.10  41 2.10  42 2.10  58 2.10  43 2.10  47 2.10
  12  0.500  0.500  0.451-  34 2.10  41 2.10  42 2.10  57 2.10  44 2.10  48 2.11
  13  0.250  0.500  0.550-  39 2.10  64 2.10  47 2.10  48 2.10  41 2.11  45 2.13
  14  0.500  0.750  0.550-  63 2.10  47 2.10  40 2.10  48 2.11  42 2.11  46 2.12
  15  0.250  0.750  0.648-  47 2.10  62 2.10  37 2.10  45 2.10  46 2.11
  16  0.500  0.503  0.648-  46 2.08  48 2.09  45 2.10  61 2.10  38 2.13
  17  0.750  0.000  0.352-  36 2.10  51 2.10  52 2.10  59 2.10  49 2.10
  18  0.000  0.250  0.352-  35 2.10  51 2.10  52 2.10  60 2.10  50 2.10
  19  0.750  0.250  0.451-  34 2.10  49 2.10  50 2.10  57 2.10  51 2.10  55 2.11
  20  0.000  0.000  0.451-  33 2.10  49 2.10  50 2.10  58 2.10  52 2.10  56 2.11
  21  0.750  0.000  0.550-  56 2.10  55 2.10  40 2.10  63 2.10  49 2.11  53 2.12
  22  1.000  0.250  0.550-  56 2.10  64 2.10  55 2.11  39 2.11  50 2.11  54 2.12
  23  0.752  0.250  0.648-  54 2.08  55 2.10  53 2.10  61 2.10  38 2.12
  24  1.000  1.000  0.648-  56 2.10  62 2.10  53 2.10  37 2.10  54 2.10
  25  0.750  0.500  0.352-  44 2.10  51 2.10  59 2.10  60 2.10  57 2.10
  26  0.000  0.750  0.352-  43 2.10  52 2.10  59 2.10  60 2.10  58 2.10
  27  0.750  0.750  0.451-  42 2.10  49 2.10  57 2.10  58 2.10  59 2.10  63 2.10
  28  0.000  0.500  0.451-  41 2.10  50 2.10  57 2.10  58 2.10  60 2.10  64 2.11
  29  0.750  0.500  0.550-  55 2.10  64 2.10  63 2.10  48 2.10  57 2.11  61 2.13
  30  0.000  0.750  0.550-  56 2.10  47 2.10  63 2.10  64 2.10  58 2.11  62 2.13
  31  0.750  0.750  0.648-  63 2.10  62 2.10  53 2.10  61 2.10  46 2.11
  32  1.000  0.500  0.648-  64 2.10  62 2.10  61 2.10  45 2.10  54 2.10
  33  0.250  0.000  0.451-   3 2.10   4 2.10  11 2.10  20 2.10   1 2.10   5 2.11
  34  0.500  0.250  0.451-   3 2.10   4 2.10  12 2.10  19 2.10   2 2.10   6 2.11
  35  0.250  0.250  0.352-   1 2.10   2 2.10   9 2.10  18 2.10   3 2.10
  36  0.500  0.000  0.352-   1 2.10   2 2.10  10 2.10  17 2.10   4 2.10
  37  0.250  0.000  0.649-   7 2.10  15 2.10   8 2.10  24 2.10   5 2.12
  38  0.500  0.250  0.651-  23 2.12   7 2.12   8 2.12  16 2.13   6 2.16
  39  0.250  0.250  0.550-   7 2.10   6 2.10  13 2.10   5 2.10  22 2.11   3 2.11
  40  0.500  0.001  0.550-   8 2.09   6 2.10  21 2.10   5 2.10  14 2.10   4 2.11
  41  0.250  0.500  0.451-   3 2.10  11 2.10  12 2.10  28 2.10   9 2.10  13 2.11
  42  0.500  0.750  0.451-   4 2.10  11 2.10  12 2.10  27 2.10  10 2.10  14 2.11
  43  0.250  0.750  0.352-   1 2.10   9 2.10  10 2.10  26 2.10  11 2.10
  44  0.500  0.500  0.352-   2 2.10   9 2.10  10 2.10  25 2.10  12 2.10
  45  0.250  0.500  0.650-  16 2.10   7 2.10  32 2.10  15 2.10  13 2.13
  46  0.500  0.750  0.649-  16 2.08   8 2.08  15 2.11  31 2.11  14 2.12
  47  0.250  0.750  0.549-  15 2.10  14 2.10  13 2.10  30 2.10   5 2.10  11 2.10
  48  0.500  0.500  0.550-  16 2.09   6 2.10  13 2.10  29 2.10  14 2.11  12 2.11
  49  0.750  0.000  0.451-   4 2.10  19 2.10  20 2.10  27 2.10  17 2.10  21 2.11
  50  0.000  0.250  0.451-   3 2.10  19 2.10  20 2.10  28 2.10  18 2.10  22 2.11
  51  0.750  0.250  0.352-   2 2.10  17 2.10  18 2.10  25 2.10  19 2.10
  52  0.000  0.000  0.352-   1 2.10  17 2.10  18 2.10  26 2.10  20 2.10
  53  0.750  0.000  0.649-  23 2.10  31 2.10   8 2.10  24 2.10  21 2.12
  54  0.000  0.250  0.649-   7 2.08  23 2.08  32 2.10  24 2.10  22 2.12
  55  0.750  0.250  0.550-  23 2.10   6 2.10  29 2.10  21 2.10  22 2.11  19 2.11
  56  0.000  0.000  0.549-  24 2.10  22 2.10   5 2.10  21 2.10  30 2.10  20 2.11
  57  0.750  0.500  0.451-  12 2.10  19 2.10  27 2.10  28 2.10  25 2.10  29 2.11
  58  0.000  0.750  0.451-  11 2.10  20 2.10  27 2.10  28 2.10  26 2.10  30 2.11
  59  0.750  0.750  0.352-  10 2.10  17 2.10  25 2.10  26 2.10  27 2.10
  60  0.000  0.500  0.352-   9 2.10  18 2.10  25 2.10  26 2.10  28 2.10
  61  0.750  0.500  0.650-  16 2.10  23 2.10  32 2.10  31 2.10  29 2.13
  62  1.000  0.750  0.650-  31 2.10  15 2.10  32 2.10  24 2.10  30 2.13
  63  0.750  0.750  0.549-  31 2.10  14 2.10  29 2.10  30 2.10  21 2.10  27 2.10
  64  0.000  0.500  0.550-  32 2.10  13 2.10  29 2.10  22 2.10  30 2.10  28 2.11

IMPORTANT INFORMATION: All symmetrisations will be switched off!
NOSYMM: (Re-)initialisation of all symmetry stuff for point group C_1.

                                     Primitive cell

  volume of cell :    1504.9259

  direct lattice vectors                    reciprocal lattice vectors
     8.404861995  0.000000000  0.000000000     0.118978753  0.000000000  0.000000000
     0.000000000  8.404861995  0.000000000     0.000000000  0.118978753  0.000000000
     0.000000000  0.000000000 21.303646496     0.000000000  0.000000000  0.046940321

  length of vectors
     8.404861995  8.404861995 21.303646496     0.118978753  0.118978753  0.046940321

  position of ions in fractional coordinates (direct lattice)
     0.250000000  0.000000000  0.352052406
     0.500000000  0.250000000  0.352052406
     0.250000000  0.250000000  0.450684135
     0.500000000  0.000000000  0.450684135
     0.249928122  0.000122343  0.549902155
     0.499999898  0.250083556  0.549811164
     0.247720198  0.249811540  0.648117795
     0.499999882  0.997848412  0.647953073
     0.250000000  0.500000000  0.352052406
     0.500000000  0.750000000  0.352052406
     0.250000000  0.750000000  0.450684135
     0.500000000  0.500000000  0.450684135
     0.249882268  0.500042327  0.549923847
     0.499999958  0.750280220  0.549686806
     0.249517981  0.750393661  0.647842499
     0.499999914  0.503245398  0.647657443
     0.750000000  0.000000000  0.352052406
     0.000000000  0.250000000  0.352052406
     0.750000000  0.250000000  0.450684135
     0.000000000  0.000000000  0.450684135
     0.750071788  0.000122390  0.549902152
     0.999999973  0.250043953  0.549794184
     0.752279559  0.249811674  0.648117828
     0.999999920  0.999766564  0.647985200
     0.750000000  0.500000000  0.352052406
     0.000000000  0.750000000  0.352052406
     0.750000000  0.750000000  0.450684135
     0.000000000  0.500000000  0.450684135
     0.750117700  0.500042376  0.549923847
     0.000000020  0.750127535  0.549782934
     0.750482182  0.750393849  0.647842550
     0.999999954  0.500472181  0.647913231
     0.250000000  0.000000000  0.450684135
     0.500000000  0.250000000  0.450684135
     0.250000000  0.250000000  0.352052406
     0.500000000  0.000000000  0.352052406
     0.250132807  0.000189693  0.649387276
     0.499999972  0.250275804  0.651035172
     0.250455420  0.250170577  0.549735137
     0.499999978  0.000593894  0.549667555
     0.250000000  0.500000000  0.450684135
     0.500000000  0.750000000  0.450684135
     0.250000000  0.750000000  0.352052406
     0.500000000  0.500000000  0.352052406
     0.250224432  0.500030670  0.649715275
     0.499999798  0.750262334  0.649374510
     0.250061541  0.750003657  0.549490948
     0.499999944  0.499710114  0.549694101
     0.750000000  0.000000000  0.450684135
     0.000000000  0.250000000  0.450684135
     0.750000000  0.250000000  0.352052406
     0.000000000  0.000000000  0.352052406
     0.749867205  0.000189604  0.649387317
     0.000000056  0.250148451  0.649489171
     0.749544579  0.250170481  0.549735142
     0.000000041  0.000138678  0.549493724
     0.750000000  0.500000000  0.450684135
     0.000000000  0.750000000  0.450684135
     0.750000000  0.750000000  0.352052406
     0.000000000  0.500000000  0.352052406
     0.749775489  0.500030448  0.649715262
     0.999999850  0.750072031  0.649593709
     0.749938292  0.750003593  0.549490869
     0.000000050  0.499978261  0.549541790

  ion indices of the primitive-cell ions
   primitive index   ion index
                 1           1
                 2           2
                 3           3
                 4           4
                 5           5
                 6           6
                 7           7
                 8           8
                 9           9
                10          10
                11          11
                12          12
                13          13
                14          14
                15          15
                16          16
                17          17
                18          18
                19          19
                20          20
                21          21
                22          22
                23          23
                24          24
                25          25
                26          26
                27          27
                28          28
                29          29
                30          30
                31          31
                32          32
                33          33
                34          34
                35          35
                36          36
                37          37
                38          38
                39          39
                40          40
                41          41
                42          42
                43          43
                44          44
[...]
   0.50000000  0.75000000  0.45068414
   0.25000000  0.75000000  0.35205241
   0.50000000  0.50000000  0.35205241
   0.25022443  0.50003067  0.64971527
   0.49999980  0.75026233  0.64937451
   0.25006154  0.75000366  0.54949095
   0.49999994  0.49971011  0.54969410
   0.75000000  0.00000000  0.45068414
   0.00000000  0.25000000  0.45068414
   0.75000000  0.25000000  0.35205241
   0.00000000  0.00000000  0.35205241
   0.74986720  0.00018960  0.64938732
   0.00000006  0.25014845  0.64948917
   0.74954458  0.25017048  0.54973514
   0.00000004  0.00013868  0.54949372
   0.75000000  0.50000000  0.45068414
   0.00000000  0.75000000  0.45068414
   0.75000000  0.75000000  0.35205241
   0.00000000  0.50000000  0.35205241
   0.74977549  0.50003045  0.64971526
   0.99999985  0.75007203  0.64959371
   0.74993829  0.75000359  0.54949087
   0.00000005  0.49997826  0.54954179

 position of ions in cartesian coordinates  (Angst):
   2.10121550  0.00000000  7.50000000
   4.20243100  2.10121550  7.50000000
   2.10121550  2.10121550  9.60121550
   4.20243100  0.00000000  9.60121550
   2.10061137  0.00102828 11.71492112
   4.20243014  2.10191778 11.71298268
   2.08205408  2.09963152 13.80727239
   4.20243001  8.38677820 13.80376322
   2.10121550  4.20243100  7.50000000
   4.20243100  6.30364650  7.50000000
   2.10121550  6.30364650  9.60121550
   4.20243100  4.20243100  9.60121550
   2.10022598  4.20278675 11.71538323
   4.20243064  6.30600171 11.71033341
   2.09716420  6.30695517 13.80140759
   4.20243028  4.22970812 13.79746521
   6.30364650  0.00000000  7.50000000
   0.00000000  2.10121550  7.50000000
   6.30364650  2.10121550  9.60121550
   0.00000000  0.00000000  9.60121550
   6.30424986  0.00102867 11.71492106
   8.40486177  2.10158492 11.71262094
   6.32280588  2.09963265 13.80727310
   8.40486133  8.40290000 13.80444764
   6.30364650  4.20243100  7.50000000
   0.00000000  6.30364650  7.50000000
   6.30364650  6.30364650  9.60121550
   0.00000000  4.20243100  9.60121550
   6.30463575  4.20278716 11.71538324
   0.00000017  6.30471841 11.71238127
   6.30769917  6.30695674 13.80140867
   8.40486161  4.20639962 13.80291444
   2.10121550  0.00000000  9.60121550
   4.20243100  2.10121550  9.60121550
   2.10121550  2.10121550  7.50000000
   4.20243100  0.00000000  7.50000000
   2.10233172  0.00159434 13.83431696
   4.20243076  2.10353359 13.86942317
   2.10504324  2.10264918 11.71136303
   4.20243081  0.00499160 11.70992329
   2.10121550  4.20243100  9.60121550
   4.20243100  6.30364650  9.60121550
   2.10121550  6.30364650  7.50000000
   4.20243100  4.20243100  7.50000000
   2.10310181  4.20268877 13.84130453
   4.20242930  6.30585138 13.83404500
   2.10173275  6.30367723 11.70616092
   4.20243052  4.19999455 11.71048882
   6.30364650  0.00000000  9.60121550
   0.00000000  2.10121550  9.60121550
   6.30364650  2.10121550  7.50000000
   0.00000000  0.00000000  7.50000000
   6.30253037  0.00159360 13.83431784
   0.00000047  2.10246321 13.83648770
   6.29981875  2.10264837 11.71136313
   0.00000034  0.00116557 11.70622004
   6.30364650  4.20243100  9.60121550
   0.00000000  6.30364650  9.60121550
   6.30364650  6.30364650  7.50000000
   0.00000000  4.20243100  7.50000000
   6.30175951  4.20268691 13.84130426
   8.40486074  6.30425191 13.83871474
   6.30312785  6.30367670 11.70615922
   0.00000042  4.20224828 11.70724403

--------------------------------------- Iteration      FINAL  ---------------------------------------

--------------------OUTCAR has been truncated-------------------------

[...]

--------------------OUTCAR has been truncated-------------------------

  DFT-D2 method for vdW energy calculation

  Parameters of vdW forcefield:
         C6(Jnm^6/mol)     R0(A)
   Mg       0.630          1.243
   O        0.700          1.342

  vdW correction parametrized for the method e_ÿ      

  IVDW =   1
  VDW_RADIUS =    50.000 A
  VDW_S6 =     1.050
  VDW_SR =     1.000
  VDW_D =    20.000
  LVDW_EWALD = F

  Number of pair interactions contributing to vdW energy:  731234
  Edisp (eV):   -5.17026

 VOLUME and BASIS-vectors are now :
  energy-cutoff  :      600.00
  volume of cell :     1504.93
      direct lattice vectors                 reciprocal lattice vectors
     8.404861995  0.000000000  0.000000000     0.118978753  0.000000000  0.000000000
     0.000000000  8.404861995  0.000000000     0.000000000  0.118978753  0.000000000
     0.000000000  0.000000000 21.303646496     0.000000000  0.000000000  0.046940321

  length of vectors
     8.404861995  8.404861995 21.303646496     0.118978753  0.118978753  0.046940321

 FORCES acting on ions:
    Electron-Ion                     Ewald-Force                    Non-Local-Force
   -.628E-01 -.107E+00 0.209E+04   0.640E-01 0.109E+00 -.208E+04   -.755E-03 -.167E-02 -.642E+01
   -.171E-04 -.252E-01 0.209E+04   0.134E-04 0.259E-01 -.208E+04   0.169E-06 -.532E-03 -.643E+01
   -.240E+00 -.743E-01 0.691E+03   0.278E+00 0.842E-01 -.692E+03   -.251E-01 -.643E-02 0.427E+00
   -.365E-04 -.445E+00 0.692E+03   0.322E-04 0.499E+00 -.692E+03   -.418E-06 -.351E-01 0.413E+00
   -.103E+01 -.125E+01 -.696E+03   0.111E+01 0.136E+01 0.696E+03   -.440E-01 -.705E-01 -.346E+00
   -.402E-03 -.398E+00 -.704E+03   0.388E-03 0.387E+00 0.704E+03   0.170E-04 0.141E-01 -.188E+00
   -.895E+01 -.111E+01 -.208E+04   0.937E+01 0.115E+01 0.207E+04   -.498E-01 0.496E-03 0.555E+01
   -.508E-03 -.920E+01 -.208E+04   0.488E-03 0.954E+01 0.207E+04   0.324E-04 0.642E-02 0.557E+01
   -.647E-01 0.107E+00 0.209E+04   0.657E-01 -.109E+00 -.208E+04   -.645E-03 0.142E-02 -.642E+01
   -.658E-05 0.274E-01 0.209E+04   0.435E-05 -.273E-01 -.208E+04   -.828E-06 -.509E-04 -.640E+01
   -.139E+00 0.104E+00 0.693E+03   0.128E+00 -.108E+00 -.693E+03   0.761E-02 0.258E-02 0.392E+00
   -.736E-04 0.451E+00 0.691E+03   0.690E-04 -.488E+00 -.692E+03   0.105E-05 0.252E-01 0.420E+00
   -.102E+01 0.125E+01 -.698E+03   0.109E+01 -.136E+01 0.698E+03   -.347E-01 0.740E-01 -.297E+00
   -.197E-03 0.272E+00 -.693E+03   0.204E-03 -.257E+00 0.693E+03   -.817E-05 -.199E-01 -.162E+00
   -.253E+00 0.860E+00 -.208E+04   0.762E-01 -.881E+00 0.207E+04   0.159E+00 -.101E-01 0.565E+01
   -.398E-03 0.106E+02 -.208E+04   0.374E-03 -.110E+02 0.207E+04   0.149E-04 -.933E-01 0.549E+01
   0.628E-01 -.107E+00 0.209E+04   -.640E-01 0.109E+00 -.208E+04   0.746E-03 -.166E-02 -.642E+01
   0.152E-04 -.238E-01 0.209E+04   -.126E-04 0.244E-01 -.208E+04   -.129E-05 -.445E-03 -.640E+01
   0.240E+00 -.743E-01 0.691E+03   -.278E+00 0.843E-01 -.692E+03   0.252E-01 -.642E-02 0.427E+00
   0.705E-04 -.342E+00 0.693E+03   -.704E-04 0.343E+00 -.693E+03   -.420E-06 -.227E-03 0.395E+00
   0.103E+01 -.125E+01 -.696E+03   -.111E+01 0.136E+01 0.696E+03   0.440E-01 -.705E-01 -.346E+00
   0.190E-03 -.232E+00 -.694E+03   -.195E-03 0.239E+00 0.694E+03   0.465E-05 -.318E-02 -.178E+00
   0.895E+01 -.111E+01 -.208E+04   -.937E+01 0.115E+01 0.207E+04   0.498E-01 0.420E-03 0.555E+01
   -.110E-03 -.191E+00 -.208E+04   0.120E-03 0.288E-01 0.207E+04   0.119E-04 0.137E+00 0.568E+01
   0.647E-01 0.107E+00 0.209E+04   -.657E-01 -.109E+00 -.208E+04   0.646E-03 0.143E-02 -.642E+01
   0.669E-05 0.250E-01 0.209E+04   -.626E-05 -.254E-01 -.208E+04   0.468E-05 0.242E-03 -.641E+01
   0.139E+00 0.104E+00 0.693E+03   -.128E+00 -.108E+00 -.693E+03   -.761E-02 0.258E-02 0.392E+00
   0.756E-04 0.333E+00 0.692E+03   -.749E-04 -.328E+00 -.693E+03   0.344E-06 -.317E-02 0.410E+00
   0.102E+01 0.125E+01 -.698E+03   -.109E+01 -.136E+01 0.698E+03   0.347E-01 0.740E-01 -.297E+00
   0.428E-03 0.368E+00 -.695E+03   -.399E-03 -.364E+00 0.696E+03   -.252E-04 -.841E-02 -.157E+00
   0.255E+00 0.861E+00 -.208E+04   -.776E-01 -.882E+00 0.207E+04   -.159E+00 -.102E-01 0.565E+01
   0.114E-03 0.250E+00 -.208E+04   -.129E-03 -.879E-01 0.207E+04   0.462E-05 -.139E+00 0.562E+01
   -.255E+00 -.376E+00 0.519E+03   0.260E+00 0.373E+00 -.518E+03   -.491E-02 0.305E-02 -.105E+00
   -.799E-04 -.887E-01 0.518E+03   0.818E-04 0.823E-01 -.518E+03   -.457E-05 0.811E-02 -.123E+00
   -.497E-01 -.179E-01 0.157E+04   0.539E-01 0.185E-01 -.157E+04   -.531E-02 -.749E-03 0.312E+01
   -.774E-05 -.836E-01 0.157E+04   0.596E-05 0.888E-01 -.157E+04   0.347E-06 -.648E-02 0.312E+01
   -.138E+01 -.142E+01 -.157E+04   0.163E+01 0.165E+01 0.158E+04   -.293E+00 -.269E+00 -.428E+01
   0.737E-04 -.103E+01 -.158E+04   -.103E-03 0.119E+01 0.159E+04   0.852E-05 -.171E+00 -.470E+01
   -.172E+01 -.237E+00 -.520E+03   0.186E+01 0.245E+00 0.519E+03   -.193E+00 -.138E-01 0.155E+00
   -.137E-03 -.205E+01 -.519E+03   0.129E-03 0.220E+01 0.518E+03   0.214E-06 -.204E+00 0.182E+00
   -.270E+00 0.381E+00 0.518E+03   0.277E+00 -.386E+00 -.518E+03   -.783E-02 0.605E-02 -.114E+00
   0.819E-05 0.133E+00 0.519E+03   -.207E-05 -.147E+00 -.519E+03   -.105E-04 0.154E-01 -.376E-01
   -.380E-01 0.183E-01 0.157E+04   0.370E-01 -.190E-01 -.157E+04   0.129E-02 0.982E-03 0.312E+01
   -.917E-05 0.821E-01 0.157E+04   0.784E-05 -.878E-01 -.157E+04   -.136E-05 0.721E-02 0.312E+01
   -.127E+01 0.169E+01 -.158E+04   0.151E+01 -.196E+01 0.158E+04   -.301E+00 0.317E+00 -.443E+01
   -.813E-03 -.360E+00 -.157E+04   0.849E-03 0.389E+00 0.158E+04   -.839E-05 -.768E-02 -.428E+01
   -.357E-01 0.244E+00 -.516E+03   0.533E-01 -.252E+00 0.516E+03   -.239E-01 0.134E-01 0.306E+00
   -.250E-03 0.211E+01 -.518E+03   0.256E-03 -.225E+01 0.518E+03   -.692E-05 0.194E+00 0.254E+00
   0.255E+00 -.376E+00 0.519E+03   -.260E+00 0.373E+00 -.518E+03   0.491E-02 0.306E-02 -.105E+00
   0.442E-04 -.782E-01 0.519E+03   -.423E-04 0.753E-01 -.519E+03   -.165E-06 0.370E-02 -.580E-01
   0.497E-01 -.179E-01 0.157E+04   -.539E-01 0.185E-01 -.157E+04   0.531E-02 -.750E-03 0.312E+01
   0.528E-05 -.716E-01 0.157E+04   -.690E-05 0.717E-01 -.157E+04   -.356E-07 -.157E-03 0.312E+01
   0.138E+01 -.142E+01 -.157E+04   -.163E+01 0.165E+01 0.158E+04   0.293E+00 -.269E+00 -.428E+01
   0.405E-03 -.341E+00 -.157E+04   -.443E-03 0.398E+00 0.158E+04   0.150E-04 -.684E-01 -.422E+01
   0.172E+01 -.237E+00 -.520E+03   -.186E+01 0.245E+00 0.519E+03   0.193E+00 -.138E-01 0.155E+00
   0.282E-03 -.287E+00 -.516E+03   -.283E-03 0.296E+00 0.516E+03   -.106E-05 -.126E-01 0.284E+00
   0.270E+00 0.381E+00 0.518E+03   -.277E+00 -.387E+00 -.518E+03   0.782E-02 0.604E-02 -.114E+00
   0.293E-04 0.108E+00 0.519E+03   -.325E-04 -.113E+00 -.519E+03   0.372E-05 0.471E-02 -.674E-01
   0.380E-01 0.183E-01 0.157E+04   -.370E-01 -.190E-01 -.157E+04   -.129E-02 0.979E-03 0.312E+01
   0.131E-04 0.707E-01 0.157E+04   -.806E-05 -.710E-01 -.157E+04   -.132E-05 0.387E-03 0.312E+01
   0.127E+01 0.169E+01 -.158E+04   -.151E+01 -.196E+01 0.158E+04   0.301E+00 0.317E+00 -.443E+01
   -.366E-03 0.273E+00 -.158E+04   0.411E-03 -.322E+00 0.158E+04   -.250E-04 0.614E-01 -.433E+01
   0.355E-01 0.244E+00 -.516E+03   -.531E-01 -.252E+00 0.516E+03   0.239E-01 0.134E-01 0.306E+00
   0.255E-03 0.177E+00 -.517E+03   -.254E-03 -.179E+00 0.517E+03   -.559E-05 0.101E-01 0.301E+00
   -.349E-04 0.212E+00 0.160E+02   -.525E-13 -.580E-13 -.750E-11   0.185E-04 -.192E+00 -.140E+02

 POSITION                                       TOTAL-FORCE (eV/Angst)
      2.10122      0.00000      7.50000         0.000326      0.000615      0.405979
      4.20243      2.10122      7.50000        -0.000003      0.000149      0.408864
      2.10122      2.10122      9.60122         0.009794      0.002663      0.050655
      4.20243      0.00000      9.60122        -0.000005      0.014997      0.045983
      2.10061      0.00103     11.71492         0.028509      0.027272     -0.023583
      4.20243      2.10192     11.71298         0.000004      0.004481      0.180555
      2.08205      2.09963     13.80727         0.335019      0.042824     -0.046820
      4.20243      8.38678     13.80376         0.000015      0.323575     -0.040463
      2.10122      4.20243      7.50000         0.000309     -0.000653      0.406600
      4.20243      6.30365      7.50000        -0.000003     -0.000085      0.402521
      2.10122      6.30365      9.60122        -0.003092     -0.000973      0.030826
      4.20243      4.20243      9.60122        -0.000003     -0.009396      0.050507
      2.10023      4.20279     11.71538         0.029804     -0.027212     -0.006077
      4.20243      6.30600     11.71033        -0.000003     -0.005726     -0.038960
      2.09716      6.30696     13.80141        -0.002753     -0.029796     -0.070875
      4.20243      4.22971     13.79747        -0.000007     -0.380532      0.031895
      6.30365      0.00000      7.50000        -0.000330      0.000627      0.405977
      0.00000      2.10122      7.50000         0.000002      0.000132      0.403451
      6.30365      2.10122      9.60122        -0.009792      0.002664      0.050663
      0.00000      0.00000      9.60122        -0.000000      0.000433      0.029710
      6.30425      0.00103     11.71492        -0.028506      0.027267     -0.023587
      8.40486      2.10158     11.71262         0.000001      0.003126     -0.041593
      6.32281      2.09963     13.80727        -0.334991      0.042837     -0.046829
      8.40486      8.40290     13.80445         0.000023     -0.011413     -0.103319
      6.30365      4.20243      7.50000        -0.000304     -0.000644      0.406602
      0.00000      6.30365      7.50000         0.000006     -0.000163      0.404878
      6.30365      6.30365      9.60122         0.003091     -0.000972      0.030824
      0.00000      4.20243      9.60122         0.000001      0.001414      0.032261
      6.30464      4.20279     11.71538        -0.029803     -0.027223     -0.006084
      0.00000      6.30472     11.71238         0.000003     -0.005215     -0.031304
      6.30770      6.30696     13.80141         0.002708     -0.029804     -0.070877
      8.40486      4.20640     13.80291        -0.000009      0.009140     -0.065877
      2.10122      0.00000      9.60122        -0.000803      0.001364      0.051914
      4.20243      2.10122      9.60122        -0.000003      0.002769      0.035730
      2.10122      2.10122      7.50000        -0.001792     -0.000291     -0.495183
      4.20243      0.00000      7.50000        -0.000001     -0.002214     -0.494644
      2.10233      0.00159     13.83432        -0.090747     -0.081757      0.104418
      4.20243      2.10353     13.86942        -0.000020     -0.028884     -0.131824
      2.10504      2.10265     11.71136        -0.081464     -0.008288     -0.035359
      4.20243      0.00499     11.70992        -0.000008     -0.081408     -0.031649
      2.10122      4.20243      9.60122        -0.001569      0.001269      0.051047
      4.20243      6.30365      9.60122        -0.000006      0.003944      0.052621
      2.10122      6.30365      7.50000         0.000439      0.000298     -0.493906
      4.20243      4.20243      7.50000        -0.000003      0.002407     -0.494864
      2.10310      4.20269     13.84130        -0.098648      0.091764      0.042971
      4.20243      6.30585     13.83405         0.000029      0.020971      0.092995
      2.10173      6.30368     11.70616        -0.009437      0.007036      0.026146
      4.20243      4.19999     11.71049        -0.000001      0.080081     -0.044461
      6.30365      0.00000      9.60122         0.000806      0.001365      0.051914
      0.00000      2.10122      9.60122         0.000002      0.001286      0.057318
      6.30365      2.10122      7.50000         0.001796     -0.000296     -0.495185
      0.00000      0.00000      7.50000        -0.000001     -0.000091     -0.493981
      6.30253      0.00159     13.83432         0.090698     -0.081791      0.104423
      0.00000      2.10246     13.83649        -0.000022     -0.020682      0.104640
      6.29982      2.10265     11.71136         0.081462     -0.008270     -0.035353
      0.00000      0.00117     11.70622        -0.000002     -0.006163      0.032617
      6.30365      4.20243      9.60122         0.001573      0.001266      0.051054
      0.00000      6.30365      9.60122         0.000001      0.000905      0.051209
      6.30365      6.30365      7.50000        -0.000435      0.000292     -0.493913
      0.00000      4.20243      7.50000         0.000004      0.000089     -0.494258
      6.30176      4.20269     13.84130         0.098684      0.091766      0.043034
      8.40486      6.30425     13.83871         0.000018      0.020207      0.069030
      6.30313      6.30368     11.70616         0.009449      0.007043      0.026170
      0.00000      4.20225     11.70724        -0.000005      0.009606      0.022830
    total drift:                               -0.000013      0.002719      0.008106

  FREE ENERGIE OF THE ION-ELECTRON SYSTEM (eV)
  free  energy   TOTEN  =      -438.70259635 eV

  energy  without entropy=     -438.70259635  energy(sigma->0) =     -438.70259635