 vasp.6.3.0 20Jan22 (build Apr  1 2022 16:44:48) complex
 executed on        HPECrayEX_GCC date 2023.02.21  23:06:05

 INCAR:
   SYSTEM = MgO-rocksalt
   ISMEAR = 0
   SIGMA = 0.05
   EDIFF = 1E-8
   ALGO = ALL
   ISTART = 0
   IBRION = 5
   POTIM = 0.01
   NFREE = 2
   ISYM = 0
   DIPOL = 0.5 0.5 0.5
   IDIPOL = 3
   LDIPOL = .TRUE.
   GGA = RE
   IVDW = 13
   VDW_S8 = 1.7468
   VDW_A1 = 0.5363
   VDW_A2 = 3.0726
   ENCUT = 520
   PREC = Accurate
   LASPH = .TRUE.
   LREAL = Auto
   ISPIN = 1
   NELM = 200
   NELMIN = 8
   NCORE = 8
   KPAR = 1
   LWAVE = .FALSE.
   LCHARG = .FALSE.

 POTCAR:    PAW_PBE C 08Apr2002
 POTCAR:    PAW_PBE O 08Apr2002
 POTCAR:    PAW_PBE H 15Jun2001
 POTCAR:    PAW_PBE Mg_pv 13Apr2007
 POTCAR:    PAW_PBE O 08Apr2002
 POTCAR:    PAW_PBE C 08Apr2002
   VRHFIN =C: s2p2

   TITEL  = PAW_PBE C 08Apr2002
   POMASS =   12.011; ZVAL   =    4.000    mass and valenz
   ENMAX  =  400.000; ENMIN  =  300.000 eV

[...]

   TITEL  = PAW_PBE H 15Jun2001
   POMASS =    1.000; ZVAL   =    1.000    mass and valenz
   ENMAX  =  250.000; ENMIN  =  200.000 eV

   TITEL  = PAW_PBE Mg_pv 13Apr2007
   POMASS =   24.305; ZVAL   =    8.000    mass and valenz
   ENMAX  =  403.929; ENMIN  =  302.947 eV

   TITEL  = PAW_PBE O 08Apr2002
   POMASS =   16.000; ZVAL   =    6.000    mass and valenz
   ENMAX  =  400.000; ENMIN  =  300.000 eV

 Optimization of the real space projectors (new method)

 maximal supplied QI-value         = 25.13
 optimisation between [QCUT,QGAM] = [ 11.56, 23.12] = [ 37.43,149.72] Ry
 Optimized for a Real-space Cutoff    1.04 Angstroem

   l    n(q)    QCUT    max X(q) W(low)/X(q) W(high)/X(q)  e(spline)
   0      7    11.561   115.676    0.20E-03    0.60E-03    0.21E-06
   0      7    11.561    87.132    0.20E-03    0.59E-03    0.21E-06
   1      7    11.561     4.429    0.23E-03    0.35E-03    0.15E-06
   1      7    11.561     2.733    0.18E-03    0.25E-03    0.12E-06
 Optimization of the real space projectors (new method)

[...]

   l    n(q)    QCUT    max X(q) W(low)/X(q) W(high)/X(q)  e(spline)
   1      8    11.527     2.974    0.44E-04    0.56E-04    0.12E-06
   1      8    11.527     4.279    0.12E-03    0.12E-03    0.26E-06
   0      9    11.527    16.381    0.46E-04    0.64E-04    0.78E-07
   0      9    11.527     5.611    0.26E-04    0.43E-04    0.55E-07
   2      8    11.527     4.652    0.22E-03    0.72E-04    0.47E-07
 Optimization of the real space projectors (new method)

 maximal supplied QI-value         = 24.76
 optimisation between [QCUT,QGAM] = [ 11.64, 23.27] = [ 37.91,151.63] Ry
 Optimized for a Real-space Cutoff    1.14 Angstroem

   l    n(q)    QCUT    max X(q) W(low)/X(q) W(high)/X(q)  e(spline)
   0      8    11.635    20.381    0.10E-03    0.33E-03    0.24E-06
   0      8    11.635    15.268    0.11E-03    0.35E-03    0.26E-06
   1      7    11.635     5.964    0.24E-03    0.31E-03    0.30E-06
   1      7    11.635     5.382    0.22E-03    0.25E-03    0.26E-06
|               ----> ADVICE to this user running VASP <----                  |
|     You enforced a specific xc type in the INCAR file but a different       |
|     type was found in the POTCAR file.                                      |
|     I HOPE YOU KNOW WHAT YOU ARE DOING!                                     |

  PAW_PBE C 08Apr2002                   :
  PAW_PBE O 08Apr2002                   :
  PAW_PBE H 15Jun2001                   :
  PAW_PBE Mg_pv 13Apr2007               :
  PAW_PBE O 08Apr2002                   :

 POSCAR:  C  O  H Mg  O
  positions in direct lattice
|           W    W    AA    RRRRR   N    N  II  N    N   GGGG   !!!           |
|           W    W   A  A   R    R  NN   N  II  NN   N  G    G  !!!           |
|           W    W  A    A  R    R  N N  N  II  N N  N  G       !!!           |
|           W WW W  AAAAAA  RRRRR   N  N N  II  N  N N  G  GGG   !            |
|           WW  WW  A    A  R   R   N   NN  II  N   NN  G    G                |
|           W    W  A    A  R    R  N    N  II  N    N   GGGG   !!!           |
|     Specifying the vdW parameters                                           |
|     VDW_S8 = 1.747                                                          |
|     VDW_A1 = 0.536                                                          |
|     VDW_A2 = 3.073                                                          |
|     in the INCAR file will overwrite the defaults for revpbe. Please        |
|     make sure that is what you intended.                                    |

 ion  position               nearest neighbor table
   1  0.528  0.556  0.794-  12 1.10  11 1.10   9 1.10   5 1.44
   2  0.319  0.401  0.795-  16 1.10  15 1.10  13 1.10   6 1.44
   3  0.474  0.194  0.795-  20 1.10  19 1.10  17 1.10   7 1.44
   4  0.681  0.347  0.794-  24 1.10  23 1.10  21 1.10   8 1.44
   5  0.508  0.488  0.757-  10 1.00   1 1.44
   6  0.387  0.383  0.757-  14 1.00   2 1.44
   7  0.492  0.262  0.757-  18 1.00   3 1.44
   8  0.613  0.367  0.757-  22 1.00   4 1.44
   9  0.520  0.543  0.845-   1 1.10
  10  0.552  0.449  0.759-   5 1.00
  11  0.590  0.574  0.786-   1 1.10
  12  0.489  0.605  0.780-   1 1.10
  13  0.333  0.392  0.845-   2 1.10
  14  0.426  0.427  0.760-   6 1.00
  15  0.301  0.463  0.788-   2 1.10
  16  0.271  0.362  0.781-   2 1.10
  17  0.484  0.208  0.845-   3 1.10
  18  0.448  0.301  0.759-   7 1.00
  19  0.412  0.176  0.788-   3 1.10
  20  0.513  0.146  0.781-   3 1.10
  21  0.669  0.355  0.844-   4 1.10
  22  0.574  0.323  0.759-   8 1.00
  23  0.699  0.285  0.786-   4 1.10
  24  0.730  0.385  0.779-   4 1.10
  25  0.000  0.375  0.352- 153 2.11 156 2.11 163 2.11 187 2.11 236 2.11
  26  0.125  0.000  0.352- 154 2.11 155 2.11 164 2.11 171 2.11 188 2.11
  27  0.000  0.000  0.451- 155 2.11 154 2.11 161 2.11 185 2.11 234 2.11 159 2.11
  28  0.125  0.375  0.451- 160 2.11 156 2.11 153 2.11 162 2.11 169 2.11 186 2.11
  29  0.000  0.375  0.550- 240 2.11 160 2.11 191 2.11 167 2.11 153 2.11 157 2.15
  30  0.125  1.000  0.550- 168 2.11 175 2.11 159 2.11 192 2.11 154 2.11 158 2.15
  31  0.000  1.000  0.648- 159 2.10 158 2.11 238 2.11 189 2.11 165 2.11
  32  0.125  0.375  0.647- 173 2.09 160 2.09 157 2.11 190 2.11 166 2.11
  33  0.000  0.125  0.352- 161 2.11 155 2.11 163 2.11 164 2.11 244 2.11
  34  0.125  0.250  0.352- 162 2.11 156 2.11 163 2.11 164 2.11 179 2.11
  35  0.000  0.250  0.451- 167 2.11 163 2.11 162 2.11 153 2.11 161 2.11 242 2.11
  36  0.125  0.125  0.451- 168 2.11 164 2.11 162 2.11 154 2.11 161 2.11 177 2.11
  37  0.000  0.125  0.550- 248 2.11 168 2.11 167 2.11 159 2.11 161 2.11 165 2.15
  38  0.125  0.250  0.550- 183 2.10 167 2.11 160 2.11 162 2.11 168 2.11 166 2.15
  39  0.000  0.250  0.648- 167 2.10 246 2.11 166 2.11 165 2.11 157 2.11
  40  0.125  0.125  0.648- 168 2.10 181 2.10 165 2.11 166 2.11 158 2.11
  41  0.250  0.375  0.352- 169 2.11 156 2.11 172 2.11 179 2.11 203 2.11
  42  0.375  0.000  0.352- 170 2.11 171 2.11 180 2.11 204 2.11 219 2.11
  43  0.250  0.000  0.451- 175 2.11 171 2.11 154 2.11 170 2.11 177 2.11 201 2.11
  44  0.375  0.375  0.451- 172 2.11 169 2.11 178 2.11 202 2.11 217 2.11 176 2.12
  45  0.250  0.375  0.550- 176 2.10 183 2.11 207 2.11 169 2.12 160 2.12 173 2.14
  46  0.375  1.000  0.550- 184 2.10 208 2.11 223 2.11 170 2.11 175 2.11 174 2.15
  47  0.250  1.000  0.648- 175 2.10 181 2.10 205 2.11 174 2.11 158 2.11
  48  0.375  0.375  0.651- 221 2.12 173 2.12 182 2.13 206 2.14 176 2.16
  49  0.250  0.125  0.352- 177 2.11 171 2.11 164 2.11 179 2.11 180 2.11
  50  0.375  0.250  0.352- 178 2.11 172 2.11 179 2.11 180 2.11 227 2.11
  51  0.250  0.250  0.451- 183 2.11 179 2.11 177 2.11 178 2.11 162 2.11 169 2.11
  52  0.375  0.125  0.451- 184 2.11 180 2.11 178 2.11 170 2.11 177 2.11 225 2.11
  53  0.250  0.125  0.549- 183 2.11 184 2.11 177 2.11 168 2.11 175 2.11 181 2.15
  54  0.375  0.251  0.550- 231 2.10 176 2.10 182 2.12 183 2.13 184 2.13 178 2.13
  55  0.250  0.250  0.647- 182 2.09 183 2.09 166 2.11 173 2.11 181 2.12
  56  0.375  0.125  0.647- 184 2.08 182 2.09 174 2.11 229 2.12 181 2.12
  57  0.000  0.875  0.352- 185 2.11 155 2.11 188 2.11 195 2.11 268 2.11
  58  0.125  0.500  0.352- 186 2.11 156 2.11 187 2.11 196 2.11 203 2.11
  59  0.000  0.500  0.451- 187 2.11 186 2.11 153 2.11 193 2.11 266 2.11 191 2.11
  60  0.125  0.875  0.451- 192 2.11 188 2.11 154 2.11 185 2.11 194 2.11 201 2.11
[...]
 266  0.875  0.500  0.451- 138 2.11 108 2.11  59 2.11 139 2.11 148 2.11 142 2.11
 267  0.750  0.500  0.352- 139 2.11 122 2.11 138 2.11 105 2.11 145 2.11
 268  0.875  0.875  0.352- 140 2.11 106 2.11 137 2.11  57 2.11 146 2.11
 269  0.750  0.875  0.650- 111 2.11 151 2.11 144 2.11 128 2.11 141 2.15
 270  0.875  0.500  0.650-  63 2.11 152 2.11 143 2.11 112 2.11 142 2.15
 271  0.750  0.500  0.549- 143 2.09 142 2.10 139 2.11 149 2.11 109 2.11 126 2.13
 272  0.875  0.875  0.549- 144 2.10 140 2.11  61 2.11 110 2.11 150 2.11 141 2.11
 273  0.750  0.625  0.451- 145 2.11 139 2.11 132 2.11 147 2.11 148 2.11 149 2.11
 274  0.875  0.750  0.451- 146 2.11 140 2.11  67 2.11 147 2.11 148 2.11 150 2.11
 275  0.750  0.750  0.352- 147 2.11 137 2.11 145 2.11 146 2.11 130 2.11
 276  0.875  0.625  0.352- 148 2.11 138 2.11 145 2.11 146 2.11  65 2.11
 277  0.750  0.625  0.650- 151 2.10 152 2.11 136 2.11 143 2.12 149 2.15
 278  0.875  0.750  0.650- 144 2.11  71 2.11 152 2.11 151 2.11 150 2.15
 279  0.750  0.750  0.549- 151 2.10 141 2.11 150 2.11 147 2.11 149 2.11 134 2.11
 280  0.875  0.625  0.549- 152 2.10  69 2.11 150 2.11 148 2.11 142 2.11 149 2.11

IMPORTANT INFORMATION: All symmetrisations will be switched off!
NOSYMM: (Re-)initialisation of all symmetry stuff for point group C_1.

                                     Primitive cell

  volume of cell :    6079.2794

  direct lattice vectors                    reciprocal lattice vectors
    16.881969308  0.000000000  0.000000000     0.059234796  0.000000000  0.000000000
     0.000000000 16.881969308  0.000000000     0.000000000  0.059234796  0.000000000
     0.000000000  0.000000000 21.330738491     0.000000000  0.000000000  0.046880702

  length of vectors
    16.881969308 16.881969308 21.330738491     0.059234796  0.059234796  0.046880702

  position of ions in fractional coordinates (direct lattice)
     0.528222681  0.556132492  0.794340469
     0.319301119  0.401045437  0.795271378
     0.474238084  0.194175506  0.795401519
     0.681254642  0.346584835  0.794092045
     0.508242562  0.487837687  0.756771032
     0.387157520  0.382643661  0.756737555
     0.492196414  0.261853267  0.756566724
     0.613019269  0.366623831  0.756507484
     0.520044209  0.543441352  0.844589678
     0.552349315  0.448679195  0.759487494
     0.590049919  0.573673351  0.785699544
     0.489407581  0.604710593  0.779693838
     0.332961680  0.391879586  0.845252345
     0.426056281  0.426945773  0.759692949
     0.300841607  0.462820698  0.787703868
     0.270934155  0.361966174  0.780625921
     0.483807297  0.208086506  0.845291735
     0.447841908  0.300744467  0.759499169
     0.412433735  0.175546937  0.788196765
     0.513330454  0.145840181  0.780702366
     0.668657795  0.355176649  0.844320077
     0.573712673  0.322605410  0.759220498
     0.698548975  0.284636958  0.785697791
[...]

[...]

  70 f  =    1.263293 THz     7.937502 2PiTHz   42.138906 cm-1     5.224556 meV
             X         Y         Z           dx          dy          dz
      8.917439  9.388612 16.943869     0.179867    0.545223   -0.479236
      5.390432  6.770437 16.963726     0.009733    0.131108   -0.010580
      8.006073  3.278065 16.966502    -0.124091    0.066330   -0.030059
     11.500920  5.851035 16.938570    -0.002259   -0.052550   -0.052132
      8.580135  8.235661 16.142485     0.086662    0.306604   -0.056409
      6.535981  6.459779 16.141771     0.037022    0.158700    0.017083
      8.309245  4.420599 16.138127    -0.029090    0.062521   -0.013454
     10.348972  6.189332 16.136863    -0.012052    0.097057    0.015545
      8.779370  9.174360 18.015722     0.035936    0.278712   -0.116271
      9.324744  7.574588 16.200429     0.021419    0.081660    0.012232
      9.961205  9.684736 16.759552     0.064579    0.099005   -0.160385
      8.262164 10.208706 16.631445     0.085150    0.144080   -0.240243
      5.621049  6.615699 18.029857     0.005131    0.065295    0.000294
      7.192669  7.207685 16.204812    -0.004265    0.048548   -0.005012
      5.078799  7.813325 16.802305    -0.015157    0.028776   -0.026369
      4.573902  6.110702 16.651327     0.015313    0.016217    0.010323
      8.167620  3.512910 18.030697    -0.038813    0.012692   -0.006836
      7.560453  5.077159 16.200678     0.004125    0.027444   -0.005745
      6.962694  2.963578 16.812819    -0.041209    0.041024   -0.017340
      8.666029  2.462069 16.652958    -0.049637    0.007189   -0.006707
     11.288260  5.996081 18.009971     0.021938   -0.007693   -0.011556
      9.685400  5.446215 16.194734    -0.013989    0.035159    0.003691
     11.792882  4.805232 16.759514    -0.040362   -0.025541   -0.019616
     12.323021  6.501957 16.621680     0.016710   -0.043901   -0.029188
      0.000000  6.330738  7.500000            0           0           0
      2.110246  0.000000  7.500000            0           0           0
      0.000000  0.000000  9.610246            0           0           0
      2.110246  6.330738  9.610246            0           0           0
      0.000149  6.331051 11.723092            0           0           0
      2.109764 16.881605 11.723978            0           0           0
      0.000062 16.880610 13.817990            0           0           0
      2.109181  6.330794 13.811490            0           0           0
      0.000000  2.110246  7.500000            0           0           0
      2.110246  4.220492  7.500000            0           0           0
      0.000000  4.220492  9.610246            0           0           0
      2.110246  2.110246  9.610246            0           0           0
      0.000066  2.109631 11.723957            0           0           0
      2.109866  4.220742 11.722037            0           0           0
      0.000038  4.218983 13.816501            0           0           0
      2.109061  2.107915 13.816312            0           0           0
      4.220492  6.330738  7.500000            0           0           0
      6.330738  0.000000  7.500000            0           0           0
      4.220492  0.000000  9.610246            0           0           0
      6.330738  6.330738  9.610246            0           0           0
      4.227926  6.330157 11.728604            0           0           0
      6.331068 16.881313 11.721966            0           0           0
      4.218303 16.880553 13.816046            0           0           0
      6.324742  6.329483 13.886684            0           0           0
      4.220492  2.110246  7.500000            0           0           0
      6.330738  4.220492  7.500000            0           0           0
      4.220492  4.220492  9.610246            0           0           0
      6.330738  2.110246  9.610246            0           0           0
      4.220415  2.110177 11.721090            0           0           0
      6.338832  4.228997 11.737024            0           0           0
      4.219074  4.216580 13.802057            0           0           0
      6.327540  2.108309 13.800760            0           0           0
      0.000000 14.771723  7.500000            0           0           0
      2.110246  8.440985  7.500000            0           0           0
      0.000000  8.440985  9.610246            0           0           0
      2.110246 14.771723  9.610246            0           0           0
[...]
     14.771723  8.440985  9.610246            0           0           0
     12.661477  8.440985  7.500000            0           0           0
     14.771723 14.771723  7.500000            0           0           0
     12.663699 14.771604 13.870134            0           0           0
     14.774632  8.444574 13.871858            0           0           0
     12.668150  8.444038 11.715305            0           0           0
     14.772642 14.771574 11.719451            0           0           0
     12.661477 10.551231  9.610246            0           0           0
     14.771723 12.661477  9.610246            0           0           0
     12.661477 12.661477  7.500000            0           0           0
     14.771723 10.551231  7.500000            0           0           0
     12.668134 10.558718 13.870606            0           0           0
     14.774292 12.663944 13.870306            0           0           0
     12.663162 12.663172 11.719129            0           0           0
     14.773538 10.553064 11.719120            0           0           0

  71 f/i=    0.633776 THz     3.982131 2PiTHz   21.140488 cm-1     2.621085 meV
             X         Y         Z           dx          dy          dz
      8.917439  9.388612 16.943869    -0.019599    0.087614   -0.078605
      5.390432  6.770437 16.963726    -0.014948    0.000338    0.000976
      8.006073  3.278065 16.966502     0.540158    0.155834    0.327857
     11.500920  5.851035 16.938570    -0.160389    0.361006    0.248068
      8.580135  8.235661 16.142485    -0.058908    0.068762   -0.027547
      6.535981  6.459779 16.141771    -0.001393   -0.017045    0.028513
      8.309245  4.420599 16.138127     0.113826    0.068570    0.047006
     10.348972  6.189332 16.136863    -0.063727    0.165300    0.017585
      8.779370  9.174360 18.015722    -0.008300    0.041044   -0.019755
      9.324744  7.574588 16.200429    -0.014763    0.014617   -0.005158
      9.961205  9.684736 16.759552    -0.002584    0.013161   -0.025325
      8.262164 10.208706 16.631445     0.002808    0.027488   -0.034386
      5.621049  6.615699 18.029857    -0.006356    0.014765    0.002919
      7.192669  7.207685 16.204812    -0.005932    0.001118    0.001443
      5.078799  7.813325 16.802305    -0.009294   -0.003538   -0.013441
      4.573902  6.110702 16.651327    -0.000223   -0.007994    0.006708
      8.167620  3.512910 18.030697     0.158266    0.129600    0.075518
      7.560453  5.077159 16.200678     0.003221   -0.012791    0.023901
      6.962694  2.963578 16.812819     0.184320   -0.070583    0.139195
      8.666029  2.462069 16.652958     0.229696    0.088561    0.135994
     11.288260  5.996081 18.009971    -0.114450    0.095472    0.059318
      9.685400  5.446215 16.194734    -0.009821    0.032805    0.004258
     11.792882  4.805232 16.759514     0.024255    0.120627    0.090413
     12.323021  6.501957 16.621680    -0.062912    0.149315    0.120436
      0.000000  6.330738  7.500000            0           0           0
      2.110246  0.000000  7.500000            0           0           0
      0.000000  0.000000  9.610246            0           0           0
      2.110246  6.330738  9.610246            0           0           0
      0.000149  6.331051 11.723092            0           0           0
      2.109764 16.881605 11.723978            0           0           0
      0.000062 16.880610 13.817990            0           0           0
      2.109181  6.330794 13.811490            0           0           0
      0.000000  2.110246  7.500000            0           0           0
      2.110246  4.220492  7.500000            0           0           0
      0.000000  4.220492  9.610246            0           0           0
      2.110246  2.110246  9.610246            0           0           0
      0.000066  2.109631 11.723957            0           0           0
      2.109866  4.220742 11.722037            0           0           0
      0.000038  4.218983 13.816501            0           0           0
      2.109061  2.107915 13.816312            0           0           0
      4.220492  6.330738  7.500000            0           0           0
      6.330738  0.000000  7.500000            0           0           0
      4.220492  0.000000  9.610246            0           0           0
      6.330738  6.330738  9.610246            0           0           0
      4.227926  6.330157 11.728604            0           0           0
      6.331068 16.881313 11.721966            0           0           0
      4.218303 16.880553 13.816046            0           0           0
      6.324742  6.329483 13.886684            0           0           0
      4.220492  2.110246  7.500000            0           0           0
      6.330738  4.220492  7.500000            0           0           0
      4.220492  4.220492  9.610246            0           0           0
      6.330738  2.110246  9.610246            0           0           0
      4.220415  2.110177 11.721090            0           0           0
      6.338832  4.228997 11.737024            0           0           0
      4.219074  4.216580 13.802057            0           0           0
      6.327540  2.108309 13.800760            0           0           0
      0.000000 14.771723  7.500000            0           0           0
      2.110246  8.440985  7.500000            0           0           0
      0.000000  8.440985  9.610246            0           0           0
      2.110246 14.771723  9.610246            0           0           0
[...]
     14.771723  8.440985  9.610246            0           0           0
     12.661477  8.440985  7.500000            0           0           0
     14.771723 14.771723  7.500000            0           0           0
     12.663699 14.771604 13.870134            0           0           0
     14.774632  8.444574 13.871858            0           0           0
     12.668150  8.444038 11.715305            0           0           0
     14.772642 14.771574 11.719451            0           0           0
     12.661477 10.551231  9.610246            0           0           0
     14.771723 12.661477  9.610246            0           0           0
     12.661477 12.661477  7.500000            0           0           0
     14.771723 10.551231  7.500000            0           0           0
     12.668134 10.558718 13.870606            0           0           0
     14.774292 12.663944 13.870306            0           0           0
     12.663162 12.663172 11.719129            0           0           0
     14.773538 10.553064 11.719120            0           0           0

  72 f/i=    0.900253 THz     5.656456 2PiTHz   30.029205 cm-1     3.723145 meV
             X         Y         Z           dx          dy          dz
      8.917439  9.388612 16.943869     0.005980    0.007913    0.018793
      5.390432  6.770437 16.963726     0.030687    0.076170   -0.024077
      8.006073  3.278065 16.966502     0.409150    0.099444    0.234505
     11.500920  5.851035 16.938570     0.189266   -0.493670   -0.369570
      8.580135  8.235661 16.142485     0.089310   -0.019357    0.025047
      6.535981  6.459779 16.141771     0.034001   -0.013932    0.007144
      8.309245  4.420599 16.138127     0.068942    0.030424    0.013440
     10.348972  6.189332 16.136863     0.114600   -0.076729   -0.076124
      8.779370  9.174360 18.015722     0.008594   -0.000499    0.005678
      9.324744  7.574588 16.200429     0.035769    0.013008    0.003629
      9.961205  9.684736 16.759552    -0.004710    0.022949    0.002848
      8.262164 10.208706 16.631445    -0.015499   -0.011030    0.006726
      5.621049  6.615699 18.029857     0.000076    0.026402   -0.004413
      7.192669  7.207685 16.204812     0.019885   -0.013897    0.000787
      5.078799  7.813325 16.802305     0.027687    0.026062   -0.016966
      4.573902  6.110702 16.651327    -0.000204    0.033211   -0.006970
      8.167620  3.512910 18.030697     0.134735    0.090118    0.051484
      7.560453  5.077159 16.200678    -0.001706   -0.015449    0.015842
      6.962694  2.963578 16.812819     0.135869   -0.052623    0.113983
      8.666029  2.462069 16.652958     0.165270    0.058594    0.088748
     11.288260  5.996081 18.009971     0.149631   -0.120593   -0.090627
      9.685400  5.446215 16.194734    -0.007436    0.011075   -0.025379
     11.792882  4.805232 16.759514    -0.077206   -0.175730   -0.128629
     12.323021  6.501957 16.621680     0.102074   -0.233997   -0.171046
      0.000000  6.330738  7.500000            0           0           0
      2.110246  0.000000  7.500000            0           0           0
      0.000000  0.000000  9.610246            0           0           0
      2.110246  6.330738  9.610246            0           0           0
      0.000149  6.331051 11.723092            0           0           0
      2.109764 16.881605 11.723978            0           0           0
      0.000062 16.880610 13.817990            0           0           0
      2.109181  6.330794 13.811490            0           0           0
      0.000000  2.110246  7.500000            0           0           0
      2.110246  4.220492  7.500000            0           0           0
      0.000000  4.220492  9.610246            0           0           0
      2.110246  2.110246  9.610246            0           0           0
      0.000066  2.109631 11.723957            0           0           0
      2.109866  4.220742 11.722037            0           0           0
      0.000038  4.218983 13.816501            0           0           0
      2.109061  2.107915 13.816312            0           0           0
      4.220492  6.330738  7.500000            0           0           0
      6.330738  0.000000  7.500000            0           0           0
      4.220492  0.000000  9.610246            0           0           0
      6.330738  6.330738  9.610246            0           0           0
      4.227926  6.330157 11.728604            0           0           0
      6.331068 16.881313 11.721966            0           0           0
      4.218303 16.880553 13.816046            0           0           0
      6.324742  6.329483 13.886684            0           0           0
      4.220492  2.110246  7.500000            0           0           0
      6.330738  4.220492  7.500000            0           0           0
      4.220492  4.220492  9.610246            0           0           0
      6.330738  2.110246  9.610246            0           0           0
      4.220415  2.110177 11.721090            0           0           0
      6.338832  4.228997 11.737024            0           0           0
      4.219074  4.216580 13.802057            0           0           0
      6.327540  2.108309 13.800760            0           0           0
      0.000000 14.771723  7.500000            0           0           0
      2.110246  8.440985  7.500000            0           0           0
      0.000000  8.440985  9.610246            0           0           0
      2.110246 14.771723  9.610246            0           0           0
[...]
     14.771723  8.440985  9.610246            0           0           0
     12.661477  8.440985  7.500000            0           0           0
     14.771723 14.771723  7.500000            0           0           0
     12.663699 14.771604 13.870134            0           0           0
     14.774632  8.444574 13.871858            0           0           0
     12.668150  8.444038 11.715305            0           0           0
     14.772642 14.771574 11.719451            0           0           0
     12.661477 10.551231  9.610246            0           0           0
     14.771723 12.661477  9.610246            0           0           0
     12.661477 12.661477  7.500000            0           0           0
     14.771723 10.551231  7.500000            0           0           0
     12.668134 10.558718 13.870606            0           0           0
     14.774292 12.663944 13.870306            0           0           0
     12.663162 12.663172 11.719129            0           0           0
     14.773538 10.553064 11.719120            0           0           0

 Finite differences POTIM=   1.0000000000000000E-002