 vasp.6.3.0 20Jan22 (build Apr  1 2022 16:44:48) complex
 executed on        HPECrayEX_GCC date 2023.02.23  12:06:33

 INCAR:
   SYSTEM = MgO-rocksalt
   ISMEAR = 0
   SIGMA = 0.05
   EDIFF = 1E-6
   ALGO = ALL
   ISTART = 0
   IBRION = -1
   NSW = 0
   ISYM = 0
   DIPOL = 0.5 0.5 0.5
   IDIPOL = 3
   LDIPOL = .TRUE.
   LHFCALC = .TRUE.
   GGA = B5
   AEXX = 0.2
   AGGAX = 0.72
   AGGAC = 0.81
   ALDAC = 0.19
   IVDW = 1
   VDW_S6 = 1.05
   VDW_C6 = 0.63 0.70
   VDW_R0 = 1.243 1.342
   ENCUT = 600
   PREC = Accurate
   LASPH = .TRUE.
   LREAL = .FALSE.
   ISPIN = 1
   NELM = 200
   NELMIN = 8
   NCORE = 8
   KPAR = 1
   LWAVE = .FALSE.
   LCHARG = .FALSE.

 POTCAR:    PAW_PBE Mg_pv 13Apr2007
 POTCAR:    PAW_PBE O 08Apr2002
 POTCAR:    PAW_PBE Mg_pv 13Apr2007
   VRHFIN =Mg: p6s2

   TITEL  = PAW_PBE Mg_pv 13Apr2007
   POMASS =   24.305; ZVAL   =    8.000    mass and valenz
   ENMAX  =  403.929; ENMIN  =  302.947 eV

   TITEL  = PAW_PBE O 08Apr2002
   POMASS =   16.000; ZVAL   =    6.000    mass and valenz
   ENMAX  =  400.000; ENMIN  =  300.000 eV

  PAW_PBE Mg_pv 13Apr2007               :
  PAW_PBE O 08Apr2002                   :

 POSCAR: Mg  O
  positions in direct lattice
 exchange correlation table for  LEXCH =       12
   RHO(1)=    0.500       N(1)  =     2000
   RHO(2)=  100.500       N(2)  =     4000

 ion  position               nearest neighbor table
   1  0.250  0.000  0.353-  35 2.09  36 2.09  43 2.09  52 2.09  33 2.09
   2  0.500  0.250  0.353-  35 2.09  36 2.09  44 2.09  51 2.09  34 2.09
   3  0.250  0.250  0.451-  33 2.09  34 2.09  41 2.09  50 2.09  35 2.09  39 2.09
   4  0.500  0.000  0.451-  33 2.09  34 2.09  42 2.09  49 2.09  36 2.09  40 2.09
   5  0.250  1.000  0.549-  40 2.09  47 2.09  39 2.09  56 2.09  33 2.09  37 2.13
   6  0.500  0.251  0.550-  48 2.08  39 2.09  55 2.09  40 2.10  34 2.11  38 2.12
   7  0.250  0.250  0.646-  39 2.07  37 2.09  54 2.09  38 2.09  45 2.09
   8  0.500  1.000  0.647-  38 2.06  46 2.06  40 2.07  37 2.09  53 2.09
   9  0.250  0.500  0.353-  35 2.09  43 2.09  44 2.09  60 2.09  41 2.09
  10  0.500  0.750  0.353-  36 2.09  43 2.09  44 2.09  59 2.09  42 2.09
  11  0.250  0.750  0.451-  33 2.09  41 2.09  42 2.09  58 2.09  43 2.09  47 2.09
  12  0.500  0.500  0.451-  34 2.09  41 2.09  42 2.09  57 2.09  44 2.09  48 2.11
  13  0.251  0.500  0.550-  48 2.08  47 2.09  39 2.09  64 2.10  41 2.11  45 2.12
  14  0.500  0.749  0.550-  48 2.08  47 2.09  63 2.09  40 2.10  42 2.11  46 2.12
  15  0.250  0.750  0.647-  47 2.07  62 2.09  37 2.09  45 2.09  46 2.09
  16  0.500  0.499  0.654-  38 2.11  45 2.11  61 2.11  46 2.12  48 2.20
  17  0.750  0.000  0.353-  36 2.09  51 2.09  52 2.09  59 2.09  49 2.09
  18  0.000  0.250  0.353-  35 2.09  51 2.09  52 2.09  60 2.09  50 2.09
  19  0.750  0.250  0.451-  34 2.09  49 2.09  50 2.09  57 2.09  51 2.09  55 2.09
  20  0.000  0.000  0.451-  33 2.09  49 2.09  50 2.09  58 2.09  52 2.09  56 2.09
  21  0.750  1.000  0.549-  40 2.09  63 2.09  55 2.09  56 2.09  49 2.09  53 2.13
  22  0.000  0.250  0.549-  64 2.09  39 2.09  55 2.09  56 2.09  50 2.09  54 2.13
  23  0.750  0.250  0.646-  55 2.07  53 2.09  54 2.09  38 2.09  61 2.09
  24  0.000  1.000  0.647-  56 2.08  37 2.08  53 2.08  62 2.08  54 2.08
  25  0.750  0.500  0.353-  44 2.09  51 2.09  59 2.09  60 2.09  57 2.09
  26  0.000  0.750  0.353-  43 2.09  52 2.09  59 2.09  60 2.09  58 2.09
  27  0.750  0.750  0.451-  42 2.09  49 2.09  57 2.09  58 2.09  59 2.09  63 2.09
  28  0.000  0.500  0.451-  41 2.09  50 2.09  57 2.09  58 2.09  60 2.09  64 2.09
  29  0.749  0.500  0.550-  48 2.08  63 2.09  55 2.09  64 2.10  57 2.11  61 2.12
  30  0.000  0.750  0.549-  64 2.09  47 2.09  63 2.09  56 2.09  58 2.09  62 2.13
  31  0.750  0.750  0.647-  63 2.07  62 2.09  53 2.09  61 2.09  46 2.09
  32  0.000  0.500  0.647-  45 2.06  61 2.06  64 2.07  54 2.09  62 2.09
  33  0.250  0.000  0.451-   3 2.09   4 2.09  11 2.09  20 2.09   1 2.09   5 2.09
  34  0.500  0.250  0.451-   3 2.09   4 2.09  12 2.09  19 2.09   2 2.09   6 2.11
  35  0.250  0.250  0.353-   1 2.09   2 2.09   9 2.09  18 2.09   3 2.09
  36  0.500  0.000  0.353-   1 2.09   2 2.09  10 2.09  17 2.09   4 2.09
  37  0.249  1.000  0.650-  24 2.08   7 2.09  15 2.09   8 2.09   5 2.13
  38  0.500  0.247  0.650-   8 2.06   7 2.09  23 2.09  16 2.11   6 2.12
  39  0.250  0.250  0.549-   7 2.07  22 2.09   5 2.09  13 2.09   6 2.09   3 2.09
  40  0.500  1.000  0.549-   8 2.07   5 2.09  21 2.09   4 2.09  14 2.10   6 2.10
  41  0.250  0.500  0.451-   3 2.09  11 2.09  12 2.09  28 2.09   9 2.09  13 2.11
  42  0.500  0.750  0.451-   4 2.09  11 2.09  12 2.09  27 2.09  10 2.09  14 2.11
  43  0.250  0.750  0.353-   1 2.09   9 2.09  10 2.09  26 2.09  11 2.09
  44  0.500  0.500  0.353-   2 2.09   9 2.09  10 2.09  25 2.09  12 2.09
  45  0.247  0.500  0.650-  32 2.06   7 2.09  15 2.09  16 2.11  13 2.12
  46  0.500  0.753  0.650-   8 2.06  15 2.09  31 2.09  16 2.12  14 2.12
  47  0.250  0.750  0.549-  15 2.07   5 2.09  30 2.09  14 2.09  13 2.09  11 2.09
  48  0.500  0.500  0.550-  14 2.08  13 2.08  29 2.08   6 2.08  12 2.11  16 2.20
  49  0.750  0.000  0.451-   4 2.09  19 2.09  20 2.09  27 2.09  17 2.09  21 2.09
  50  0.000  0.250  0.451-   3 2.09  19 2.09  20 2.09  28 2.09  18 2.09  22 2.09
  51  0.750  0.250  0.353-   2 2.09  17 2.09  18 2.09  25 2.09  19 2.09
  52  0.000  0.000  0.353-   1 2.09  17 2.09  18 2.09  26 2.09  20 2.09
  53  0.751  1.000  0.650-  24 2.08  23 2.09  31 2.09   8 2.09  21 2.13
  54  1.000  0.249  0.650-  24 2.08  23 2.09   7 2.09  32 2.09  22 2.13
  55  0.750  0.250  0.549-  23 2.07  22 2.09  21 2.09  29 2.09   6 2.09  19 2.09
  56  1.000  1.000  0.549-  24 2.08  30 2.09  21 2.09   5 2.09  22 2.09  20 2.09
  57  0.750  0.500  0.451-  12 2.09  19 2.09  27 2.09  28 2.09  25 2.09  29 2.11
  58  0.000  0.750  0.451-  11 2.09  20 2.09  27 2.09  28 2.09  26 2.09  30 2.09
  59  0.750  0.750  0.353-  10 2.09  17 2.09  25 2.09  26 2.09  27 2.09
  60  0.000  0.500  0.353-   9 2.09  18 2.09  25 2.09  26 2.09  28 2.09
  61  0.753  0.500  0.650-  32 2.06  23 2.09  31 2.09  16 2.11  29 2.12
  62  0.000  0.750  0.650-  24 2.08  15 2.09  31 2.09  32 2.09  30 2.13
  63  0.750  0.750  0.549-  31 2.07  21 2.09  30 2.09  14 2.09  29 2.09  27 2.09
  64  1.000  0.500  0.549-  32 2.07  30 2.09  22 2.09  28 2.09  13 2.10  29 2.10

IMPORTANT INFORMATION: All symmetrisations will be switched off!
NOSYMM: (Re-)initialisation of all symmetry stuff for point group C_1.

                                     Primitive cell

  volume of cell :    1482.1129

  direct lattice vectors                    reciprocal lattice vectors
     8.349111827  0.000000000  0.000000000     0.119773219  0.000000000  0.000000000
     0.000000000  8.349111827  0.000000000     0.000000000  0.119773219  0.000000000
     0.000000000  0.000000000 21.261833870     0.000000000  0.000000000  0.047032632

  length of vectors
     8.349111827  8.349111827 21.261833870     0.119773219  0.119773219  0.047032632

  position of ions in fractional coordinates (direct lattice)
     0.250000000  0.000000000  0.352744737
     0.500000000  0.250000000  0.352744737
     0.250000000  0.250000000  0.450914912
     0.500000000  0.000000000  0.450914912
     0.250241521  0.999852019  0.549425689
     0.499999991  0.251173336  0.550064705
     0.249816100  0.249518696  0.646453322
     0.499999995  0.999947057  0.646640786
     0.250000000  0.500000000  0.352744737
     0.500000000  0.750000000  0.352744737
     0.250000000  0.750000000  0.450914912
     0.500000000  0.500000000  0.450914912
     0.251294837  0.499902807  0.550101292
     0.499999987  0.748589101  0.550136386
     0.249725120  0.749964047  0.646594566
     0.499999990  0.499299627  0.653718045
     0.750000000  0.000000000  0.352744737
     0.000000000  0.250000000  0.352744737
     0.750000000  0.250000000  0.450914912
     0.000000000  0.000000000  0.450914912
     0.749758481  0.999852019  0.549425694
     0.000000001  0.250139739  0.549410008
     0.750183928  0.249518656  0.646453330
     0.000000011  0.999812331  0.646859903
     0.750000000  0.500000000  0.352744737
     0.000000000  0.750000000  0.352744737
     0.750000000  0.750000000  0.450914912
     0.000000000  0.500000000  0.450914912
     0.748705147  0.499902799  0.550101320
     0.000000007  0.749653645  0.549440778
     0.750274880  0.749964037  0.646594565
     0.000000004  0.499808807  0.646641937
     0.250000000  0.000000000  0.450914912
     0.500000000  0.250000000  0.450914912
     0.250000000  0.250000000  0.352744737
     0.500000000  0.000000000  0.352744737
     0.249341906  0.999821562  0.649647230
     0.500000001  0.246907488  0.649538072
     0.249823383  0.249736854  0.549326585
     0.500000001  0.999820557  0.549201932
     0.250000000  0.500000000  0.450914912
     0.500000000  0.750000000  0.450914912
     0.250000000  0.750000000  0.352744737
     0.500000000  0.500000000  0.352744737
     0.247100965  0.499711860  0.649718488
     0.499999994  0.752763448  0.649929994
     0.249896948  0.750024345  0.549391267
     0.499999991  0.499944311  0.550314141
     0.750000000  0.000000000  0.450914912
     0.000000000  0.250000000  0.450914912
     0.750000000  0.250000000  0.352744737
     0.000000000  0.000000000  0.352744737
     0.750658103  0.999821557  0.649647233
     1.000000000  0.249161556  0.649662430
     0.750176605  0.249736847  0.549326583
     0.999999999  0.999889355  0.549259896
     0.750000000  0.500000000  0.450914912
     0.000000000  0.750000000  0.450914912
     0.750000000  0.750000000  0.352744737
     0.000000000  0.500000000  0.352744737
     0.752899038  0.499711846  0.649718504
     0.000000004  0.750465346  0.649634572
     0.750103045  0.750024345  0.549391264
     0.999999995  0.499905498  0.549200586

  ion indices of the primitive-cell ions
   primitive index   ion index
                 1           1
                 2           2
                 3           3
                 4           4
                 5           5
                 6           6
                 7           7
                 8           8
                 9           9
                10          10
                11          11
                12          12
                13          13
                14          14
                15          15
                16          16
                17          17
                18          18
                19          19
                20          20
                21          21
                22          22
                23          23
                24          24
                25          25
                26          26
                27          27
                28          28
                29          29
                30          30
                31          31
                32          32
                33          33
                34          34
                35          35
                36          36
                37          37
                38          38
                39          39
                40          40
                41          41
                42          42
                43          43
                44          44
[...]
   0.50000000  0.75000000  0.45091491
   0.25000000  0.75000000  0.35274474
   0.50000000  0.50000000  0.35274474
   0.24710096  0.49971186  0.64971849
   0.49999999  0.75276345  0.64992999
   0.24989695  0.75002434  0.54939127
   0.49999999  0.49994431  0.55031414
   0.75000000  0.00000000  0.45091491
   0.00000000  0.25000000  0.45091491
   0.75000000  0.25000000  0.35274474
   0.00000000  0.00000000  0.35274474
   0.75065810  0.99982156  0.64964723
   1.00000000  0.24916156  0.64966243
   0.75017660  0.24973685  0.54932658
   1.00000000  0.99988935  0.54925990
   0.75000000  0.50000000  0.45091491
   0.00000000  0.75000000  0.45091491
   0.75000000  0.75000000  0.35274474
   0.00000000  0.50000000  0.35274474
   0.75289904  0.49971185  0.64971850
   0.00000000  0.75046535  0.64963457
   0.75010304  0.75002435  0.54939126
   1.00000000  0.49990550  0.54920059

 position of ions in cartesian coordinates  (Angst):
   2.08727796  0.00000000  7.50000000
   4.17455591  2.08727796  7.50000000
   2.08727796  2.08727796  9.58727796
   4.17455591  0.00000000  9.58727796
   2.08929444  8.34787632 11.68179773
   4.17455584  2.09707427 11.69538437
   2.08574255  2.08325950 13.74478314
   4.17455587  8.34866980 13.74876896
   2.08727796  4.17455591  7.50000000
   4.17455591  6.26183387  7.50000000
   2.08727796  6.26183387  9.58727796
   4.17455591  4.17455591  9.58727796
   2.09808870  4.17374444 11.69616229
   4.17455581  6.25005412 11.69690844
   2.08498295  6.26153370 13.74778625
   4.17455583  4.16870842 13.89924448
   6.26183387  0.00000000  7.50000000
   0.00000000  2.08727796  7.50000000
   6.26183387  2.08727796  9.58727796
   0.00000000  0.00000000  9.58727796
   6.25981740  8.34787632 11.68179782
   0.00000001  2.08844466 11.68146432
   6.26336951  2.08325916 13.74478331
   0.00000010  8.34754496 13.75342779
   6.26183387  4.17455591  7.50000000
   0.00000000  6.26183387  7.50000000
   6.26183387  6.26183387  9.58727796
   0.00000000  4.17455591  9.58727796
   6.25102299  4.17374437 11.69616288
   0.00000006  6.25894212 11.68211855
   6.26412888  6.26153361 13.74778622
   0.00000003  4.17295962 13.74879344
   2.08727796  0.00000000  9.58727796
   4.17455591  2.08727796  9.58727796
   2.08727796  2.08727796  7.50000000
   4.17455591  0.00000000  7.50000000
   2.08178345  8.34762203 13.81269148
   4.17455592  2.06145823 13.81037057
   2.08580336  2.08508092 11.67969058
   4.17455592  8.34761364 11.67704024
   2.08727796  4.17455591  9.58727796
   4.17455591  6.26183387  9.58727796
   2.08727796  6.26183387  7.50000000
   4.17455591  4.17455591  7.50000000
   2.06307359  4.17215020 13.81420656
   4.17455586  6.28490620 13.81870356
   2.08641756  6.26203713 11.68106585
   4.17455584  4.17409096 11.70068783
   6.26183387  0.00000000  9.58727796
   0.00000000  2.08727796  9.58727796
   6.26183387  2.08727796  7.50000000
   0.00000000  0.00000000  7.50000000
   6.26732844  8.34762199 13.81269153
   8.34911183  2.08027770 13.81301467
   6.26330836  2.08508086 11.67969056
   8.34911182  8.34818804 11.67827267
   6.26183387  4.17455591  9.58727796
   0.00000000  6.26183387  9.58727796
   6.26183387  6.26183387  7.50000000
   0.00000000  4.17455591  7.50000000
   6.28603826  4.17215008 13.81420688
   0.00000004  6.26571909 13.81242234
   6.26269420  6.26203713 11.68106579
   8.34911179  4.17376691 11.67701162

--------------------------------------- Iteration      FINAL  ---------------------------------------

--------------------OUTCAR has been truncated-------------------------

[...]

--------------------OUTCAR has been truncated-------------------------

  DFT-D2 method for vdW energy calculation

  Parameters of vdW forcefield:
         C6(Jnm^6/mol)     R0(A)
   Mg       0.630          1.243
   O        0.700          1.342

  vdW correction parametrized for the method QCþ      

  IVDW =   1
  VDW_RADIUS =    50.000 A
  VDW_S6 =     1.050
  VDW_SR =     1.000
  VDW_D =    20.000
  LVDW_EWALD = F

  Number of pair interactions contributing to vdW energy:  742644
  Edisp (eV):   -5.30482

 VOLUME and BASIS-vectors are now :
  energy-cutoff  :      600.00
  volume of cell :     1482.11
      direct lattice vectors                 reciprocal lattice vectors
     8.349111827  0.000000000  0.000000000     0.119773219  0.000000000  0.000000000
     0.000000000  8.349111827  0.000000000     0.000000000  0.119773219  0.000000000
     0.000000000  0.000000000 21.261833870     0.000000000  0.000000000  0.047032632

  length of vectors
     8.349111827  8.349111827 21.261833870     0.119773219  0.119773219  0.047032632

 FORCES acting on ions:
    Electron-Ion                     Ewald-Force                    Non-Local-Force
   -.289E+00 0.321E-01 0.212E+04   0.294E+00 -.329E-01 -.212E+04   -.324E-02 0.589E-03 -.643E+01
   -.442E-05 -.367E+00 0.212E+04   0.521E-05 0.376E+00 -.212E+04   -.281E-05 -.595E-02 -.645E+01
   -.156E+01 -.158E+01 0.703E+03   0.160E+01 0.162E+01 -.703E+03   -.256E-01 -.262E-01 0.437E+00
   -.146E-04 0.133E+00 0.703E+03   0.146E-04 -.150E+00 -.703E+03   -.710E-06 0.107E-01 0.331E+00
   -.104E+01 0.271E+00 -.705E+03   0.102E+01 -.285E+00 0.706E+03   -.997E-02 0.110E-01 -.842E-01
   -.371E-04 -.473E+01 -.713E+03   0.393E-04 0.509E+01 0.713E+03   -.122E-05 -.342E+00 -.237E+00
   -.249E+01 -.280E+01 -.210E+04   0.196E+01 0.231E+01 0.209E+04   0.376E+00 0.357E+00 0.530E+01
   -.279E-04 0.594E+00 -.210E+04   0.314E-04 -.638E+00 0.209E+04   0.253E-05 0.171E-01 0.508E+01
   -.367E+00 -.331E-01 0.212E+04   0.375E+00 0.334E-01 -.212E+04   -.614E-02 -.180E-03 -.645E+01
   -.467E-05 0.367E+00 0.212E+04   0.564E-05 -.376E+00 -.212E+04   -.105E-05 0.632E-02 -.645E+01
   -.158E+01 0.156E+01 0.702E+03   0.163E+01 -.161E+01 -.703E+03   -.338E-01 0.329E-01 0.454E+00
   -.369E-04 -.162E+00 0.698E+03   0.423E-04 0.169E+00 -.698E+03   -.779E-06 -.448E-02 0.629E+00
   -.476E+01 -.284E+00 -.714E+03   0.513E+01 0.298E+00 0.714E+03   -.344E+00 -.110E-01 -.215E+00
   -.488E-04 0.482E+01 -.715E+03   0.541E-04 -.519E+01 0.716E+03   0.146E-05 0.344E+00 -.185E+00
   -.318E+01 0.286E+01 -.210E+04   0.273E+01 -.236E+01 0.209E+04   0.334E+00 -.355E+00 0.530E+01
   -.299E-04 -.155E+01 -.216E+04   0.368E-04 0.153E+01 0.215E+04   0.305E-05 0.608E-01 0.633E+01
   0.289E+00 0.321E-01 0.212E+04   -.294E+00 -.329E-01 -.212E+04   0.324E-02 0.589E-03 -.643E+01
   0.818E-05 -.289E+00 0.212E+04   -.523E-05 0.294E+00 -.212E+04   -.443E-06 -.307E-02 -.643E+01
   0.156E+01 -.158E+01 0.703E+03   -.160E+01 0.162E+01 -.703E+03   0.256E-01 -.262E-01 0.437E+00
   0.168E-04 0.112E+00 0.704E+03   -.138E-04 -.117E+00 -.705E+03   0.175E-05 0.263E-02 0.358E+00
   0.104E+01 0.271E+00 -.705E+03   -.102E+01 -.285E+00 0.706E+03   0.997E-02 0.110E-01 -.842E-01
   0.419E-04 -.104E+01 -.705E+03   -.366E-04 0.102E+01 0.705E+03   -.135E-05 -.962E-02 -.726E-01
   0.249E+01 -.280E+01 -.210E+04   -.196E+01 0.231E+01 0.209E+04   -.376E+00 0.357E+00 0.530E+01
   0.170E-04 0.315E-01 -.210E+04   -.115E-04 -.901E-02 0.210E+04   -.197E-05 -.156E-01 0.517E+01
   0.367E+00 -.330E-01 0.212E+04   -.375E+00 0.334E-01 -.212E+04   0.614E-02 -.183E-03 -.645E+01
   0.739E-05 0.289E+00 0.212E+04   -.567E-05 -.294E+00 -.212E+04   0.158E-05 0.339E-02 -.643E+01
   0.158E+01 0.156E+01 0.702E+03   -.163E+01 -.161E+01 -.703E+03   0.338E-01 0.329E-01 0.454E+00
   0.376E-04 -.134E+00 0.703E+03   -.431E-04 0.130E+00 -.703E+03   0.131E-05 0.270E-02 0.331E+00
   0.476E+01 -.284E+00 -.714E+03   -.513E+01 0.298E+00 0.714E+03   0.344E+00 -.110E-01 -.215E+00
   0.585E-04 0.103E+01 -.705E+03   -.590E-04 -.102E+01 0.706E+03   -.166E-05 0.104E-01 -.928E-01
   0.318E+01 0.286E+01 -.210E+04   -.273E+01 -.236E+01 0.209E+04   -.334E+00 -.355E+00 0.530E+01
   0.110E-04 -.156E-01 -.210E+04   -.642E-05 -.128E-01 0.209E+04   -.283E-05 0.186E-01 0.508E+01
   -.736E+00 0.953E-01 0.528E+03   0.745E+00 -.872E-01 -.528E+03   -.113E-01 -.978E-02 -.390E-01
   -.146E-04 -.118E+01 0.525E+03   0.161E-04 0.112E+01 -.524E+03   -.445E-05 0.686E-01 -.142E+00
   -.250E+00 -.251E+00 0.159E+04   0.256E+00 0.258E+00 -.160E+04   -.738E-02 -.834E-02 0.310E+01
   -.138E-04 0.256E-01 0.159E+04   0.298E-05 -.268E-01 -.160E+04   0.711E-05 0.136E-02 0.310E+01
   -.101E+01 0.256E+00 -.161E+04   0.104E+01 -.291E+00 0.161E+04   0.243E-01 0.348E-01 -.508E+01
   -.338E-04 -.712E+01 -.160E+04   0.414E-04 0.687E+01 0.160E+04   0.267E-06 0.558E+00 -.418E+01
   -.211E+01 -.219E+01 -.522E+03   0.206E+01 0.214E+01 0.522E+03   0.709E-01 0.691E-01 0.536E+00
   -.168E-04 0.301E+00 -.521E+03   0.214E-04 -.304E+00 0.520E+03   -.248E-05 0.716E-02 0.480E+00
   -.117E+01 -.118E+00 0.525E+03   0.111E+01 0.123E+00 -.524E+03   0.758E-01 -.555E-02 -.153E+00
   -.133E-04 0.116E+01 0.524E+03   0.195E-04 -.109E+01 -.524E+03   0.262E-05 -.829E-01 -.164E+00
   -.253E+00 0.252E+00 0.159E+04   0.260E+00 -.258E+00 -.160E+04   -.890E-02 0.789E-02 0.310E+01
   -.147E-04 -.254E-01 0.159E+04   0.555E-05 0.268E-01 -.160E+04   0.694E-05 -.178E-02 0.309E+01
   -.748E+01 -.244E+00 -.160E+04   0.727E+01 0.254E+00 0.160E+04   0.529E+00 -.891E-02 -.423E+01
   -.243E-04 0.794E+01 -.160E+04   0.342E-04 -.775E+01 0.161E+04   -.134E-05 -.506E+00 -.429E+01
   -.229E+01 0.221E+01 -.523E+03   0.224E+01 -.216E+01 0.523E+03   0.649E-01 -.674E-01 0.512E+00
   -.327E-04 -.377E+00 -.549E+03   0.356E-04 0.381E+00 0.550E+03   -.209E-06 -.890E-02 -.895E+00
   0.736E+00 0.953E-01 0.528E+03   -.745E+00 -.872E-01 -.528E+03   0.113E-01 -.979E-02 -.390E-01
   0.162E-04 -.745E+00 0.528E+03   -.156E-04 0.759E+00 -.528E+03   0.249E-05 -.174E-01 -.388E-01
   0.250E+00 -.251E+00 0.159E+04   -.256E+00 0.258E+00 -.160E+04   0.738E-02 -.833E-02 0.310E+01
   0.126E-04 0.231E-01 0.160E+04   -.297E-05 -.230E-01 -.160E+04   -.612E-05 -.899E-04 0.311E+01
   0.101E+01 0.257E+00 -.161E+04   -.104E+01 -.291E+00 0.161E+04   -.243E-01 0.348E-01 -.508E+01
   -.272E-04 -.102E+01 -.161E+04   0.336E-04 0.105E+01 0.161E+04   -.478E-06 0.241E-01 -.510E+01
   0.211E+01 -.219E+01 -.522E+03   -.206E+01 0.214E+01 0.522E+03   -.709E-01 0.691E-01 0.536E+00
   0.138E-04 0.997E-01 -.523E+03   -.145E-04 -.957E-01 0.523E+03   0.192E-05 -.412E-02 0.181E+00
   0.117E+01 -.118E+00 0.525E+03   -.111E+01 0.123E+00 -.524E+03   -.758E-01 -.554E-02 -.153E+00
   0.189E-04 0.727E+00 0.528E+03   -.195E-04 -.731E+00 -.528E+03   -.153E-05 0.510E-02 -.386E-01
   0.253E+00 0.252E+00 0.159E+04   -.260E+00 -.258E+00 -.160E+04   0.890E-02 0.789E-02 0.310E+01
   0.513E-05 -.228E-01 0.159E+04   -.560E-05 0.230E-01 -.160E+04   -.328E-05 -.240E-03 0.310E+01
   0.748E+01 -.244E+00 -.160E+04   -.727E+01 0.254E+00 0.160E+04   -.529E+00 -.890E-02 -.423E+01
   0.284E-04 0.996E+00 -.160E+04   -.261E-04 -.102E+01 0.161E+04   0.242E-05 -.332E-01 -.506E+01
   0.229E+01 0.221E+01 -.523E+03   -.224E+01 -.216E+01 0.523E+03   -.649E-01 -.674E-01 0.512E+00
   0.463E-04 -.103E+00 -.521E+03   -.469E-04 0.100E+00 0.520E+03   0.248E-05 0.250E-02 0.481E+00
   0.214E-04 -.166E+00 0.197E+02   0.213E-12 0.475E-12 0.250E-11   -.207E-04 0.149E+00 -.173E+02

 POSITION                                       TOTAL-FORCE (eV/Angst)
      2.08728      0.00000      7.50000         0.001319     -0.000128      0.308794
      4.17456      2.08728      7.50000        -0.000003      0.002024      0.312686
      2.08728      2.08728      9.58728         0.012306      0.012183      0.035258
      4.17456      0.00000      9.58728        -0.000001     -0.004571      0.057107
      2.08929      8.34788     11.68180        -0.024306     -0.001765      0.055687
      4.17456      2.09707     11.69538         0.000000     -0.008054     -0.038478
      2.08574      2.08326     13.74478        -0.112044     -0.094947      0.250472
      4.17456      8.34867     13.74877         0.000007     -0.023063      0.273825
      2.08728      4.17456      7.50000         0.001992      0.000164      0.313360
      4.17456      6.26183      7.50000        -0.000000     -0.001988      0.314080
      2.08728      6.26183      9.58728         0.015478     -0.015531      0.038887
      4.17456      4.17456      9.58728         0.000005      0.001567      0.072553
      2.09809      4.17374     11.69616        -0.007726      0.001999     -0.031005
      4.17456      6.25005     11.69691         0.000008      0.007750     -0.021970
      2.08498      6.26153     13.74779        -0.081174      0.101025      0.242110
      4.17456      4.16871     13.89924         0.000011      0.044300     -0.769471
      6.26183      0.00000      7.50000        -0.001324     -0.000125      0.308782
      0.00000      2.08728      7.50000         0.000003      0.001365      0.308968
      6.26183      2.08728      9.58728        -0.012307      0.012196      0.035259
      0.00000      0.00000      9.58728         0.000006     -0.001322      0.036873
      6.25982      8.34788     11.68180         0.024302     -0.001776      0.055690
      0.00000      2.08844     11.68146         0.000006     -0.024745      0.057357
      6.26337      2.08326     13.74478         0.112029     -0.094946      0.250511
      0.00000      8.34754     13.75343         0.000004      0.005135      0.226616
      6.26183      4.17456      7.50000        -0.001993      0.000176      0.313334
      0.00000      6.26183      7.50000         0.000003     -0.001314      0.308610
      6.26183      6.26183      9.58728        -0.015477     -0.015530      0.038888
      0.00000      4.17456      9.58728        -0.000004     -0.001190      0.056994
      6.25102      4.17374     11.69616         0.007722      0.002005     -0.031006
      0.00000      6.25894     11.68212        -0.000003      0.024265      0.053460
      6.26413      6.26153     13.74779         0.081160      0.101024      0.242109
      0.00000      4.17296     13.74879         0.000002     -0.007400      0.272633
      2.08728      0.00000      9.58728        -0.004474     -0.003006      0.050601
      4.17456      2.08728      9.58728        -0.000004      0.019966      0.088513
      2.08728      2.08728      7.50000        -0.002489     -0.002753     -0.591324
      4.17456      0.00000      7.50000        -0.000003      0.000504     -0.591820
      2.08178      8.34762     13.81269         0.060004      0.004913     -0.105135
      4.17456      2.06146     13.81037         0.000008      0.399397      0.165132
      2.08580      2.08508     11.67969         0.033453      0.030989      0.004636
      4.17456      8.34761     11.67704         0.000002      0.005226      0.029503
      2.08728      4.17456      9.58728         0.022080     -0.001438      0.088570
      4.17456      6.26183      9.58728         0.000009     -0.024199      0.088537
      2.08728      6.26183      7.50000        -0.002993      0.002708     -0.591606
      4.17456      4.17456      7.50000        -0.000002     -0.000543     -0.595699
      2.06307      4.17215     13.81421         0.401914      0.000326      0.142765
      4.17456      6.28491     13.81870         0.000009     -0.409714      0.116061
      2.08642      6.26204     11.68107         0.027250     -0.030444      0.001036
      4.17456      4.17409     11.70069         0.000003     -0.005879      0.049102
      6.26183      0.00000      9.58728         0.004474     -0.003027      0.050604
      0.00000      2.08728      9.58728         0.000004     -0.006232      0.048649
      6.26183      2.08728      7.50000         0.002485     -0.002759     -0.591332
      0.00000      0.00000      7.50000         0.000003      0.000025     -0.589006
      6.26733      8.34762     13.81269        -0.060014      0.004910     -0.105141
      8.34911      2.08028     13.81301         0.000006      0.059806     -0.112156
      6.26331      2.08508     11.67969        -0.033456      0.030993      0.004647
      8.34911      8.34819     11.67827         0.000002     -0.000594     -0.038228
      6.26183      4.17456      9.58728        -0.022084     -0.001426      0.088578
      0.00000      6.26183      9.58728        -0.000003      0.002706      0.052733
      6.26183      6.26183      7.50000         0.002989      0.002700     -0.591601
      0.00000      4.17456      7.50000        -0.000003     -0.000038     -0.591820
      6.28604      4.17215     13.81421        -0.401923      0.000323      0.142763
      0.00000      6.26572     13.81242         0.000005     -0.062010     -0.097731
      6.26269      6.26204     11.68107        -0.027253     -0.030444      0.001032
      8.34911      4.17377     11.67701         0.000002      0.000231      0.030165
    total drift:                               -0.000001     -0.003932      0.000633

  FREE ENERGIE OF THE ION-ELECTRON SYSTEM (eV)
  free  energy   TOTEN  =      -438.88331472 eV

  energy  without entropy=     -438.88331472  energy(sigma->0) =     -438.88331472