 vasp.6.3.0 20Jan22 (build Aug 21 2024 11:13:42) complex
 executed on        HPECrayEX_GCC date 2024.11.26  19:51:53

 INCAR:
   SYSTEM = TiO2
   ISMEAR = 0
   SIGMA = 0.05
   EDIFF = 1E-4
   ALGO = ALL
   ISTART = 0
   IBRION = -1
   NSW = 0
   ISYM = 0
   ISIF = 2
   EDIFFG = -0.01
   DIPOL = 0.5 0.5 0.5
   IDIPOL = 3
   LDIPOL = .TRUE.
   METAGGA = R2SCAN
   LUSE_VDW = .TRUE.
   BPARAM = 11.95
   CPARAM = 0.0093
   LASPH = .TRUE.
   ENCUT = 600
   PREC = Accurate
   LASPH = .TRUE.
   LREAL = .FALSE.
   ISPIN = 1
   NELM = 200
   NELMIN = 8
   NCORE = 16
   KPAR = 1
   LWAVE = .FALSE.
   LCHARG = .FALSE.

 POTCAR:    PAW_PBE H 15Jun2001
 POTCAR:    PAW_PBE O 08Apr2002
 POTCAR:    PAW_PBE Ti_pv 07Sep2000
 POTCAR:    PAW_PBE O 08Apr2002
|               ----> ADVICE to this user running VASP <----                  |
|     You have switched on vdW-DFT.                                           |
|     This routine was written and supplied by Jiri Klimes. We recommend      |
|     that you carefully read and cite the following publications:            |
|       J. Klimes, D.R. Bowler, A. Michelides                                 |
|          J. Phys.: Cond Matt. 22 022201 (2010)                              |
|       J. Klimes, D.R. Bowler, A. Michelides                                 |
|          Phys. Rev. B. 83, 195131 (2011)                                    |
|     and references therein.                                                 |

   TITEL  = PAW_PBE H 15Jun2001
   POMASS =    1.000; ZVAL   =    1.000    mass and valenz
   ENMAX  =  250.000; ENMIN  =  200.000 eV

   TITEL  = PAW_PBE O 08Apr2002
   POMASS =   16.000; ZVAL   =    6.000    mass and valenz
   ENMAX  =  400.000; ENMIN  =  300.000 eV

   TITEL  = PAW_PBE Ti_pv 07Sep2000
   POMASS =   47.880; ZVAL   =   10.000    mass and valenz
   ENMAX  =  222.335; ENMIN  =  166.751 eV

   TITEL  = PAW_PBE O 08Apr2002
   POMASS =   16.000; ZVAL   =    6.000    mass and valenz
   ENMAX  =  400.000; ENMIN  =  300.000 eV

  PAW_PBE H 15Jun2001                   :
  PAW_PBE O 08Apr2002                   :
  PAW_PBE Ti_pv 07Sep2000               :
  PAW_PBE O 08Apr2002                   :

 POSCAR:  H  O Ti  O
  positions in direct lattice

 METAGGA = R2SCA    LMAXTAU =  6    LMIXTAU =  F

 ion  position               nearest neighbor table
   1  0.510  0.551  0.802-   3 0.98
   2  0.613  0.497  0.783-   3 1.00
   3  0.537  0.493  0.782-   1 0.98   2 1.00  83 2.19
   4  0.750  0.625  0.287-  84 1.96  85 1.96 144 1.96 145 1.96  87 1.99 166 1.99  14 2.96  34 2.96

   5  0.000  0.750  0.287-  86 1.96  87 1.96 106 1.96 107 1.96  88 1.99  35 2.96  15 2.96
   6  0.000  0.625  0.393-  88 1.96  89 1.96 148 1.96 149 1.96  90 1.99  91 1.99  16 2.96  36 2.96

[...]

  84  0.750  0.750  0.245-   4 1.96  14 1.96
  85  0.750  0.750  0.328-   4 1.96  14 1.96   7 1.99
  86  0.098  0.625  0.287-   5 1.96  35 1.96  44 1.99
  87  0.902  0.625  0.287-   5 1.96  35 1.96   4 1.99
  88  0.000  0.750  0.352-   6 1.96  16 1.96   5 1.99
  89  0.000  0.750  0.435-   6 1.96  16 1.96   9 1.99
  90  0.848  0.625  0.393-   7 1.96  37 1.96   6 1.99
  91  0.152  0.625  0.393-  47 1.96  77 1.96   6 1.99
  92  0.750  0.750  0.458-   8 1.96  18 1.96   7 1.99
  93  0.750  0.750  0.542-   8 1.96  18 1.96  11 2.10
  94  0.098  0.625  0.500-   9 1.96  39 1.96  48 1.99
  95  0.902  0.625  0.500-   9 1.96  39 1.96   8 1.99
  96  0.000  0.750  0.566-  20 1.90  10 1.90   9 2.01
  97  0.999  0.750  0.649-  13 1.82  10 2.02  20 2.02
  98  0.850  0.625  0.607-  10 1.96  41 1.97  11 1.97
  99  0.150  0.625  0.607-  10 1.95  51 1.98  81 1.98
 100  0.753  0.751  0.672-  11 1.88  12 2.08  22 2.09
 101  0.749  0.749  0.755-  12 1.83  22 1.84
 102  0.094  0.625  0.719-  43 1.95  13 1.95  52 2.04
 103  0.906  0.624  0.720-  43 1.95  13 1.96  12 2.03
 104  0.750  0.000  0.245-  14 1.96  24 1.96
 105  0.750  0.000  0.328-  14 1.96  24 1.96  17 1.99
 106  0.098  0.875  0.287-   5 1.96  15 1.96  54 1.99
 107  0.902  0.875  0.287-   5 1.96  15 1.96  14 1.99
 108  0.000  0.000  0.352-  16 1.96  26 1.96  15 1.99
 109  0.000  0.000  0.435-  16 1.96  26 1.96  19 1.99
 110  0.848  0.875  0.393-   7 1.96  17 1.96  16 1.99
 111  0.152  0.875  0.393-  47 1.96  57 1.96  16 1.99
 112  0.750  0.000  0.458-  18 1.96  28 1.96  17 1.99
 113  0.750  0.000  0.542-  18 1.96  28 1.96  21 2.11
 114  0.098  0.875  0.500-   9 1.96  19 1.96  58 1.99
 115  0.902  0.875  0.500-   9 1.96  19 1.96  18 1.99
 116  0.000  1.000  0.566-  30 1.90  20 1.90  19 2.01
 117  1.000  1.000  0.649-  23 1.82  20 2.02  30 2.02
 118  0.850  0.875  0.607-  20 1.96  21 1.98  11 1.98
 119  0.150  0.875  0.607-  20 1.95  61 1.98  51 1.98
 120  0.750  1.000  0.672-  21 1.88  32 2.09  22 2.09
 121  0.750  1.000  0.756-  32 1.83  22 1.83
 122  0.094  0.875  0.719-  13 1.94  23 1.95  62 2.05
 123  0.906  0.875  0.720-  13 1.95  23 1.95  22 2.04
 124  0.750  0.250  0.245-  24 1.96  34 1.96
 125  0.750  0.250  0.328-  24 1.96  34 1.96  27 1.99
 126  0.098  0.125  0.287-  15 1.96  25 1.96  64 1.99
 127  0.902  0.125  0.287-  15 1.96  25 1.96  24 1.99
 128  0.000  0.250  0.352-  26 1.96  36 1.96  25 1.99
 129  0.000  0.250  0.435-  26 1.96  36 1.96  29 1.99
 130  0.848  0.125  0.393-  17 1.96  27 1.96  26 1.99
 131  0.152  0.125  0.393-  57 1.96  67 1.96  26 1.99
 132  0.750  0.250  0.458-  28 1.96  38 1.96  27 1.99
 133  0.750  0.250  0.542-  28 1.96  38 1.96  31 2.10
 134  0.098  0.125  0.500-  19 1.96  29 1.96  68 1.99
 135  0.902  0.125  0.500-  19 1.96  29 1.96  28 1.99
 136  0.000  0.250  0.566-  30 1.90  40 1.90  29 2.01
 137  0.999  0.250  0.649-  33 1.82  40 2.02  30 2.02
 138  0.850  0.125  0.607-  30 1.97  21 1.97  31 1.98
 139  0.149  0.125  0.607-  30 1.95  61 1.98  71 1.98
 140  0.752  0.250  0.672-  31 1.88  42 2.07  32 2.10
 141  0.749  0.251  0.755-  42 1.83  32 1.84
 142  0.094  0.125  0.719-  33 1.94  23 1.95  72 2.05
 143  0.906  0.125  0.719-  33 1.95  23 1.95  32 2.04
[...]
 229  0.500  0.500  0.435-  46 1.96  76 1.96  79 1.99
 230  0.348  0.375  0.393-  67 1.96  77 1.96  76 1.99
 231  0.652  0.375  0.393-  27 1.96  37 1.96  76 1.99
 232  0.250  0.500  0.458-  48 1.96  78 1.96  77 1.99
 233  0.250  0.500  0.542-  48 1.96  78 1.96  81 2.11
 234  0.598  0.375  0.500-  69 1.96  79 1.96  38 1.99
 235  0.402  0.375  0.500-  69 1.96  79 1.96  78 1.99
 236  0.500  0.500  0.566-  50 1.90  80 1.90  79 2.01
 237  0.499  0.500  0.650-  83 1.91  50 1.99  80 1.99
 238  0.349  0.375  0.607-  71 1.97  81 1.97  80 1.97
 239  0.650  0.375  0.608-  80 1.96  31 1.98  41 1.98
 240  0.250  0.500  0.672-  81 1.87  52 2.09  82 2.10
 241  0.251  0.500  0.756-  82 1.84  52 1.84
 242  0.596  0.372  0.715-  73 1.92  83 1.96  42 2.03
 243  0.406  0.374  0.718-  83 1.94  73 1.94  82 2.04

IMPORTANT INFORMATION: All symmetrisations will be switched off!
NOSYMM: (Re-)initialisation of all symmetry stuff for point group C_1.

                                     Primitive cell

  volume of cell :    4737.1735

  direct lattice vectors                    reciprocal lattice vectors
    13.061198858  0.000000000  0.000000000     0.076562650  0.000000000  0.000000000
     0.000000000 11.845266045  0.000000000     0.000000000  0.084421911  0.000000000
     0.000000000  0.000000000 30.619030317     0.000000000  0.000000000  0.032659427

  length of vectors
    13.061198858 11.845266045 30.619030317     0.076562650  0.084421911  0.032659427

  position of ions in fractional coordinates (direct lattice)
     0.509706508  0.550846622  0.801723411
     0.613399889  0.497049055  0.782830029
     0.536819371  0.492671430  0.782359263
     0.750000000  0.625000000  0.286714362
     0.000000000  0.750000000  0.286714362
     0.000000000  0.625000000  0.393357181
     0.750000000  0.750000000  0.393357181
     0.750000000  0.625000000  0.500000000
     0.000000000  0.750000000  0.500000000
     0.000436741  0.625054834  0.604472472
     0.750386817  0.750126797  0.610301398
     0.750778184  0.625893765  0.719283845
     0.999877768  0.750289182  0.708762741
     0.750000000  0.875000000  0.286714362
     0.000000000  0.000000000  0.286714362
     0.000000000  0.875000000  0.393357181
     0.750000000  0.000000000  0.393357181
     0.750000000  0.875000000  0.500000000
     0.000000000  0.000000000  0.500000000
     0.000111469  0.875025512  0.604522587
     0.749814054  0.000080575  0.610537837
     0.749646222  0.875112233  0.720200438
     0.000014971  0.999938576  0.708716497
     0.750000000  0.125000000  0.286714362
     0.000000000  0.250000000  0.286714362
     0.000000000  0.125000000  0.393357181
     0.750000000  0.250000000  0.393357181
     0.750000000  0.125000000  0.500000000
     0.000000000  0.250000000  0.500000000
     0.000327292  0.124950981  0.604512481
     0.750195349  0.249723959  0.610313370
     0.749486918  0.124409456  0.720225431
     0.999892439  0.249617705  0.708751743
     0.750000000  0.375000000  0.286714362
     0.000000000  0.500000000  0.286714362
     0.000000000  0.375000000  0.393357181
     0.750000000  0.500000000  0.393357181
     0.750000000  0.375000000  0.500000000
     0.000000000  0.500000000  0.500000000
     0.000270257  0.374976463  0.604466953
     0.750947056  0.499977761  0.610509390
     0.751252292  0.373592116  0.719401779
     0.000597591  0.500080229  0.708684882
     0.250000000  0.625000000  0.286714362
     0.500000000  0.750000000  0.286714362
     0.500000000  0.625000000  0.393357181
     0.250000000  0.750000000  0.393357181
     0.250000000  0.625000000  0.500000000
     0.500000000  0.750000000  0.500000000
     0.500466847  0.622767592  0.605654704
     0.250442071  0.749878821  0.610599403
     0.250288396  0.625199599  0.720347351
     0.500601204  0.750235065  0.707514527
     0.250000000  0.875000000  0.286714362
     0.500000000  0.000000000  0.286714362
     0.500000000  0.875000000  0.393357181
     0.250000000  0.000000000  0.393357181
     0.250000000  0.875000000  0.500000000
     0.500000000  0.000000000  0.500000000
     0.499890448  0.874081156  0.603497399
[...]
     0.500000000  0.500000000  0.435125836
     0.347917178  0.375000000  0.393357181
     0.652082822  0.375000000  0.393357181
     0.250000000  0.500000000  0.458231344
     0.250000000  0.500000000  0.541768656
     0.597917178  0.375000000  0.500000000
     0.402082822  0.375000000  0.500000000
     0.500166543  0.499817188  0.565701111
     0.498805016  0.500385534  0.649937461
     0.349433259  0.374932637  0.607332980
     0.650291201  0.374997096  0.607775438
     0.249991446  0.500438514  0.671914020
     0.251221241  0.499935740  0.755693254
     0.596208134  0.371503899  0.714771152
     0.406362467  0.373983088  0.718346087

  ion indices of the primitive-cell ions
   primitive index   ion index
                 1           1
                 2           2
                 3           3
                 4           4
                 5           5
                 6           6
                 7           7
                 8           8
                 9           9
                10          10
                11          11
                12          12
                13          13
[...]
   6.53845187  8.88673395 21.66340876
   3.26529971 10.36460779  8.77891573
   6.53059943  0.00000000  8.77891573
   6.53059943 10.36460779 12.04421544
   3.26529971  0.00000000 12.04421544
   3.26529971 10.36460779 15.30951516
   6.53059943  0.00000000 15.30951516
   6.52916855 10.35372383 18.47850516
[...]
   6.53059943  5.92263302 13.32313117
   4.54421544  4.44197477 12.04421544
   8.51698341  4.44197477 12.04421544
   3.26529971  5.92263302 14.03059943
   3.26529971  5.92263302 16.58843089
   7.80951516  4.44197477 15.30951516
   5.25168370  4.44197477 15.30951516
   6.53277468  5.92046756 17.32121947
   6.51499151  5.92719978 19.90045482
   4.56401728  4.44117683 18.59594693
   8.49358269  4.44194037 18.60949455
   3.26518799  5.92782734 20.57335573
   3.28125059  5.92187185 23.13859464
   7.78719300  4.40056252 21.88559958
   5.30758099  4.42992917 21.99506061

--------------------------------------- Iteration      FINAL  ---------------------------------------

--------------------OUTCAR has been truncated-------------------------

[...]

--------------------OUTCAR has been truncated-------------------------

  FORCE on cell =-STRESS in cart. coord.  units (eV):
  Direction    XX          YY          ZZ          XY          YZ          ZX
  Alpha Z  4649.42423  4649.42423  4649.42423
  Ewald  971895.19201989519.98863************   -27.79762    38.92826   -50.21794
  Hartree************************************    -7.54711     6.88074   -25.08774
  E(xc)   -9157.86531 -9166.54607 -9155.27249     0.14874    -0.24416     0.02608
  Local  ************************************    29.10640   -34.21030    70.64819
  n-local -5209.18632 -5115.80228 -5250.73625    -0.34707     0.10299    -0.18287
  augment  5524.66658  5493.62418  5529.72846     0.41951    -0.81374     0.15253
  Kinetic 28768.91321 28312.14343 28831.48499     6.11107   -10.85994     5.16317
  Fock        0.00000     0.00000     0.00000     0.00000     0.00000     0.00000
  Total     -49.37178   -87.71710   -81.37342     0.09392    -0.21615     0.50141
  in kB     -16.69822   -29.66713   -27.52161     0.03176    -0.07311     0.16958

 VOLUME and BASIS-vectors are now :
  energy-cutoff  :      600.00
  volume of cell :     4737.17
      direct lattice vectors                 reciprocal lattice vectors
    13.061198858  0.000000000  0.000000000     0.076562650  0.000000000  0.000000000
     0.000000000 11.845266045  0.000000000     0.000000000  0.084421911  0.000000000
     0.000000000  0.000000000 30.619030317     0.000000000  0.000000000  0.032659427

  length of vectors
    13.061198858 11.845266045 30.619030317     0.076562650  0.084421911  0.032659427

 FORCES acting on ions:
    Electron-Ion                     Ewald-Force                    Non-Local-Force
   0.349E+02 -.610E+02 -.452E+03   -.380E+02 0.665E+02 0.457E+03   0.325E+01 -.581E+01 -.514E+01
   -.631E+02 -.198E+01 -.434E+03   0.703E+02 0.215E+01 0.434E+03   -.760E+01 -.183E+00 -.446E-01
   0.509E+02 0.381E+02 -.257E+04   -.690E+02 -.698E+02 0.255E+04   0.183E+02 0.321E+02 0.145E+02
   -.106E+00 -.116E-01 0.377E+04   0.102E+00 0.116E-01 -.377E+04   0.974E-03 0.124E-04 0.429E+00
   -.514E-01 -.260E-01 0.395E+04   0.526E-01 0.261E-01 -.394E+04   -.432E-04 -.545E-05 -.402E+01
   -.211E+00 -.274E-01 0.192E+04   0.217E+00 0.272E-01 -.192E+04   -.116E-02 0.901E-04 -.615E-01
   -.270E+00 0.107E-01 0.192E+04   0.259E+00 -.104E-01 -.192E+04   0.248E-02 0.295E-04 0.226E+00
   -.226E+00 0.494E-03 0.323E+01   0.179E+00 -.218E-01 -.247E+01   0.869E-02 0.133E-02 -.121E+00
   -.109E+01 -.502E+00 0.113E+02   0.111E+01 0.505E+00 -.124E+02   -.389E-02 -.213E-02 0.351E+00
   -.436E+01 -.182E+01 -.186E+04   0.437E+01 0.183E+01 0.186E+04   -.115E-01 -.459E-02 0.172E+00
   -.365E+01 -.711E+01 -.191E+04   0.367E+01 0.711E+01 0.191E+04   -.141E-01 -.428E-02 -.185E+00
   -.704E+02 -.153E+02 -.371E+04   0.702E+02 0.151E+02 0.371E+04   0.203E+00 0.115E+00 -.132E+00
   -.480E+01 -.213E+01 -.377E+04   0.487E+01 0.215E+01 0.377E+04   -.579E-01 -.239E-01 0.116E+01
   -.116E+00 -.186E-01 0.377E+04   0.112E+00 0.189E-01 -.377E+04   0.989E-03 -.430E-05 0.429E+00
   -.489E-01 -.380E-02 0.395E+04   0.501E-01 0.389E-02 -.394E+04   -.540E-05 0.405E-05 -.401E+01
   -.181E+00 -.488E-01 0.192E+04   0.188E+00 0.488E-01 -.192E+04   -.114E-02 0.409E-04 -.615E-01
   -.354E+00 -.260E-01 0.192E+04   0.344E+00 0.257E-01 -.192E+04   0.240E-02 -.241E-05 0.226E+00
   -.147E+01 -.409E+00 0.242E+01   0.143E+01 0.430E+00 -.165E+01   0.710E-02 -.951E-03 -.121E+00
   -.777E+00 -.425E-01 0.106E+02   0.792E+00 0.414E-01 -.117E+02   -.284E-02 0.415E-03 0.348E+00
   -.246E+01 -.133E+01 -.187E+04   0.246E+01 0.134E+01 0.187E+04   -.333E-02 -.825E-02 0.171E+00
   -.204E+01 0.600E+00 -.192E+04   0.206E+01 -.600E+00 0.192E+04   -.228E-01 -.173E-03 -.187E+00
   -.160E+02 -.155E+02 -.375E+04   0.160E+02 0.155E+02 0.375E+04   0.581E-01 0.138E-01 -.269E+00
   -.486E+01 0.154E+00 -.377E+04   0.484E+01 -.151E+00 0.377E+04   0.230E-01 -.824E-03 0.120E+01
   -.114E+00 0.115E-01 0.377E+04   0.111E+00 -.116E-01 -.377E+04   0.102E-02 0.164E-05 0.429E+00
   -.513E-01 0.260E-01 0.395E+04   0.525E-01 -.261E-01 -.394E+04   -.117E-04 0.273E-04 -.401E+01
   -.179E+00 0.283E-01 0.192E+04   0.185E+00 -.284E-01 -.192E+04   -.114E-02 -.160E-04 -.615E-01
   -.249E+00 -.103E-01 0.192E+04   0.239E+00 0.994E-02 -.192E+04   0.239E-02 0.356E-05 0.226E+00
   -.141E+01 0.233E+00 0.231E+01   0.137E+01 -.256E+00 -.155E+01   0.798E-02 0.124E-02 -.122E+00
   -.104E+01 0.503E+00 0.112E+02   0.105E+01 -.505E+00 -.123E+02   -.330E-02 0.177E-02 0.352E+00
   -.787E+00 0.129E+01 -.187E+04   0.788E+00 -.129E+01 0.187E+04   -.678E-02 0.804E-02 0.172E+00
   -.438E+01 0.601E+01 -.191E+04   0.440E+01 -.600E+01 0.191E+04   -.140E-01 -.809E-03 -.192E+00
   -.158E+02 0.145E+02 -.375E+04   0.158E+02 -.145E+02 0.375E+04   0.568E-01 -.697E-02 -.277E+00
   -.419E+01 0.193E+01 -.377E+04   0.425E+01 -.194E+01 0.377E+04   -.549E-01 0.217E-01 0.116E+01
   -.104E+00 0.186E-01 0.377E+04   0.101E+00 -.188E-01 -.377E+04   0.990E-03 -.609E-04 0.429E+00
   -.537E-01 0.385E-02 0.395E+04   0.550E-01 -.390E-02 -.394E+04   -.184E-05 0.158E-04 -.402E+01
   -.209E+00 0.479E-01 0.192E+04   0.216E+00 -.476E-01 -.192E+04   -.120E-02 -.899E-04 -.615E-01
   -.167E+00 0.256E-01 0.192E+04   0.157E+00 -.253E-01 -.192E+04   0.220E-02 -.599E-04 0.226E+00
   -.144E+00 0.180E+00 0.308E+01   0.956E-01 -.158E+00 -.231E+01   0.922E-02 -.126E-02 -.121E+00
   -.117E+01 0.445E-01 0.120E+02   0.119E+01 -.442E-01 -.131E+02   -.508E-02 -.189E-03 0.349E+00
   -.433E+01 0.194E+01 -.186E+04   0.434E+01 -.194E+01 0.186E+04   -.751E-02 0.355E-02 0.174E+00
   -.354E+01 0.836E-01 -.190E+04   0.361E+01 -.878E-01 0.190E+04   -.617E-01 0.375E-02 -.188E+00
   -.698E+02 0.136E+02 -.371E+04   0.697E+02 -.134E+02 0.371E+04   0.145E+00 -.134E+00 -.134E+00
   -.729E+01 0.152E+00 -.376E+04   0.726E+01 -.157E+00 0.376E+04   0.307E-01 0.241E-02 0.110E+01
   0.107E+00 -.796E-02 0.377E+04   -.103E+00 0.791E-02 -.377E+04   -.123E-02 0.187E-04 0.429E+00
   0.498E-01 -.102E-01 0.395E+04   -.516E-01 0.106E-01 -.394E+04   0.540E-03 -.238E-04 -.402E+01
   0.185E+00 0.146E+00 0.192E+04   -.191E+00 -.135E+00 -.192E+04   0.918E-03 -.247E-02 -.639E-01
   0.295E+00 0.542E-01 0.192E+04   -.285E+00 -.541E-01 -.192E+04   -.194E-02 -.552E-04 0.221E+00
   0.109E+01 0.184E+00 0.106E+01   -.104E+01 -.198E+00 -.231E+00   -.122E-01 0.947E-03 -.131E+00
   0.730E+00 0.122E+01 0.147E+02   -.745E+00 -.130E+01 -.156E+02   0.135E-02 0.373E-01 0.273E+00
   0.356E+01 -.118E+02 -.186E+04   -.356E+01 0.119E+02 0.186E+04   -.249E-02 -.781E-01 0.101E+00
   0.109E+02 -.484E+01 -.192E+04   -.108E+02 0.483E+01 0.192E+04   -.296E-01 0.163E-01 -.178E+00
   0.361E+02 -.137E+02 -.373E+04   -.361E+02 0.137E+02 0.373E+04   0.740E-01 0.391E-02 -.299E+00
   0.212E+02 -.553E+02 -.372E+04   -.211E+02 0.554E+02 0.372E+04   -.175E+00 -.164E-01 0.127E+01
   0.117E+00 -.148E-01 0.377E+04   -.113E+00 0.149E-01 -.377E+04   -.127E-02 0.124E-04 0.429E+00
   0.474E-01 -.629E-02 0.395E+04   -.491E-01 0.635E-02 -.394E+04   0.510E-03 0.125E-04 -.402E+01
   0.157E+00 0.868E-01 0.192E+04   -.164E+00 -.860E-01 -.192E+04   0.855E-03 -.967E-03 -.647E-01
   0.377E+00 -.240E-01 0.192E+04   -.367E+00 0.239E-01 -.192E+04   -.199E-02 0.510E-04 0.221E+00
   0.215E+01 0.427E-01 0.962E+00   -.211E+01 -.404E-01 -.147E+00   -.632E-02 -.467E-03 -.129E+00
   0.298E+00 -.250E+00 0.179E+02   -.314E+00 0.251E+00 -.190E+02   0.378E-02 -.164E-02 0.297E+00
   -.183E-01 -.107E+02 -.183E+04   -.128E-02 0.107E+02 0.183E+04   0.186E-01 -.720E-02 0.152E-01
[...]
   -.542E+02 -.346E-01 0.115E+04   0.583E+02 0.339E-01 -.115E+04   -.380E+01 0.812E-03 0.173E+00
   0.543E+02 -.209E-01 0.115E+04   -.585E+02 0.202E-01 -.115E+04   0.381E+01 0.896E-03 0.182E+00
   0.249E+00 0.435E-01 0.505E+03   -.230E+00 -.438E-01 -.509E+03   -.262E-01 0.664E-03 0.446E+01
   0.159E+01 0.227E+00 -.519E+03   -.156E+01 -.226E+00 0.526E+03   -.536E-01 -.245E-02 -.748E+01
   -.555E+02 -.329E+00 0.702E+01   0.604E+02 0.325E+00 -.721E+01   -.541E+01 0.243E-01 0.268E+00
   0.563E+02 -.407E+00 0.657E+01   -.613E+02 0.400E+00 -.675E+01   0.546E+01 0.282E-01 0.250E+00
   0.101E+01 0.566E+00 -.614E+03   -.106E+01 -.642E+00 0.607E+03   0.495E-01 0.767E-01 0.720E+01
   0.115E+02 -.147E+01 -.160E+04   -.120E+02 0.153E+01 0.161E+04   0.487E+00 -.577E-01 -.195E+01
   -.283E+02 0.282E+01 -.112E+04   0.320E+02 -.297E+01 0.112E+04   -.371E+01 0.155E+00 0.116E+01
   0.266E+02 0.298E+01 -.112E+04   -.297E+02 -.304E+01 0.112E+04   0.307E+01 0.580E-01 0.702E+00
   0.141E+02 -.724E+00 -.180E+04   -.141E+02 0.727E+00 0.180E+04   -.310E-01 -.354E-02 -.211E+01
   0.366E+02 0.736E+00 -.271E+04   -.364E+02 -.797E+00 0.273E+04   -.144E+00 0.622E-01 -.214E+02
   -.486E+02 0.434E+02 -.222E+04   0.550E+02 -.431E+02 0.222E+04   -.649E+01 -.278E+00 -.763E+00
   0.650E+02 0.343E+02 -.229E+04   -.715E+02 -.344E+02 0.229E+04   0.662E+01 0.104E+00 -.335E+01
   -.106E+02 -.269E+02 0.816E+02   0.519E-11 -.554E-12 -.168E-10   0.106E+02 0.269E+02 -.815E+02

 POSITION                                       TOTAL-FORCE (eV/Angst)
      6.65738      6.52492     24.54799         0.183069     -0.322475     -0.283546
      8.01174      5.88768     23.96950        -0.426850     -0.013128     -0.047881
      7.01150      5.83582     23.95508         0.250145      0.330717      0.143191
      9.79590      7.40329      8.77892        -0.002795     -0.000004     -3.672291
      0.00000      8.88395      8.77892         0.000985      0.000075      3.055075
      0.00000      7.40329     12.04422         0.005275     -0.000062      0.524017
      9.79590      8.88395     12.04422        -0.007905      0.000320     -0.747528
      9.79590      7.40329     15.30952        -0.038062     -0.019804      0.635123
      0.00000      8.88395     15.30952         0.013032      0.000632     -0.750067
      0.00570      7.40394     18.50836         0.001735     -0.001810      0.029658
      9.80095      8.88545     18.68684         0.004021     -0.001809     -0.010081
      9.80606      7.41388     22.02377        -0.033546      0.013463     -0.012324
     13.05960      8.88737     21.70163         0.005737      0.000351     -0.045156
      9.79590     10.36461      8.77892        -0.002915      0.000195     -3.672149
      0.00000      0.00000      8.77892         0.001060      0.000067      3.054987
      0.00000     10.36461     12.04422         0.005126      0.000015      0.524120
      9.79590      0.00000     12.04422        -0.008103     -0.000248     -0.748397
      9.79590     10.36461     15.30952        -0.027178      0.020624      0.636962
      0.00000      0.00000     15.30952         0.012198     -0.000661     -0.748930
      0.00146     10.36491     18.50990         0.002411      0.000713      0.031132
      9.79347      0.00095     18.69408        -0.005022     -0.000442      0.001381
      9.79128     10.36594     22.05184        -0.002380      0.001687      0.008679
      0.00020     11.84454     21.70021         0.007887      0.001353     -0.048146
      9.79590      1.48066      8.77892        -0.002838     -0.000149     -3.672459
      0.00000      2.96132      8.77892         0.001050     -0.000109      3.054986
      0.00000      1.48066     12.04422         0.005209     -0.000190      0.524000
      9.79590      2.96132     12.04422        -0.007648     -0.000364     -0.747885
      9.79590      1.48066     15.30952        -0.026368     -0.021692      0.635462
      0.00000      2.96132     15.30952         0.013411     -0.000186     -0.750096
      0.00427      1.48008     18.50959        -0.002521      0.000417      0.031604
      9.79845      2.95805     18.68720         0.003568      0.005172     -0.008938
      9.78920      1.47366     22.05260        -0.002698      0.002951      0.008461
     13.05979      2.95679     21.70129         0.004730      0.000529     -0.045137
      9.79590      4.44197      8.77892        -0.002708     -0.000278     -3.672362
      0.00000      5.92263      8.77892         0.001111     -0.000067      3.055126
      0.00000      4.44197     12.04422         0.005348      0.000160      0.523940
      9.79590      5.92263     12.04422        -0.007484      0.000175     -0.747038
      9.79590      4.44197     15.30952        -0.038691      0.020610      0.635767
      0.00000      5.92263     15.30952         0.013633      0.000035     -0.749662
      0.00353      4.44170     18.50819         0.001654      0.000240      0.030416
      9.80827      5.92237     18.69321         0.008043     -0.000623     -0.001525
      9.81226      4.42530     22.02738        -0.037813     -0.008848     -0.015264
      0.00781      5.92358     21.69924         0.009212     -0.001867     -0.040012
      3.26530      7.40329      8.77892         0.002416     -0.000062     -3.669944
      6.53060      8.88395      8.77892        -0.001353      0.000305      3.061650
      6.53060      7.40329     12.04422        -0.005491      0.008742      0.546830
      3.26530      8.88395     12.04422         0.007508      0.000107     -0.731234
      3.26530      7.40329     15.30952         0.039174     -0.012944      0.687516
      6.53060      8.88395     15.30952        -0.013818     -0.047218     -0.626628
      6.53670      7.37685     18.54456        -0.007671      0.025089      0.012183
      3.27107      8.88251     18.69596         0.005198     -0.001463     -0.001634
      3.26907      7.40566     22.05634         0.017529      0.000260      0.005889
      6.53845      8.88673     21.66341         0.002951     -0.006465     -0.047026
      3.26530     10.36461      8.77892         0.002559      0.000154     -3.670011
      6.53060      0.00000      8.77892        -0.001347      0.000049      3.061712
      6.53060     10.36461     12.04422        -0.005429     -0.000220      0.548487
      3.26530      0.00000     12.04422         0.007695     -0.000137     -0.732016
      3.26530     10.36461     15.30952         0.027151      0.001703      0.679440
      6.53060      0.00000     15.30952        -0.012060     -0.000575     -0.811404
      6.52917     10.35372     18.47851        -0.000630      0.003010      0.033405
[...]
      6.53060      5.92263     13.32313         0.001914     -0.000735     -0.178839
      4.54422      4.44197     12.04422         0.387427      0.000116      0.054660
      8.51698      4.44197     12.04422        -0.381695      0.000211      0.056900
      3.26530      5.92263     14.03060        -0.007317      0.000371     -0.048519
      3.26530      5.92263     16.58843        -0.019508     -0.001621     -0.062524
      7.80952      4.44197     15.30952        -0.482223      0.019506      0.076538
      5.25168      4.44197     15.30952         0.509070      0.021211      0.075150
      6.53277      5.92047     17.32122         0.002465      0.001081      0.036123
      6.51499      5.92720     19.90045         0.000958     -0.001429     -0.058016
      4.56402      4.44118     18.59595        -0.036875      0.005335      0.010688
      8.49358      4.44194     18.60949         0.036162      0.007283      0.006191
      3.26519      5.92783     20.57336        -0.003927     -0.001346      0.019054
      3.28125      5.92187     23.13859        -0.002940      0.001419     -0.202150
      7.78719      4.40056     21.88560        -0.083711     -0.006278     -0.014455
      5.30758      4.42993     21.99506         0.090166     -0.006800     -0.041447
    total drift:                                0.034525      0.006441      0.066399

  FREE ENERGIE OF THE ION-ELECTRON SYSTEM (eV)
  free  energy   TOTEN  =     -2726.18631338 eV

  energy  without entropy=    -2726.18631338  energy(sigma->0) =    -2726.18631338