 vasp.6.3.0 20Jan22 (build Apr  1 2022 16:44:48) complex
 executed on        HPECrayEX_GCC date 2022.10.17  15:41:24

 INCAR:
   SYSTEM = MgO-rocksalt
   ISMEAR = 0
   SIGMA = 0.05
   EDIFF = 1E-8
   ALGO = ALL
   ISTART = 0
   IBRION = 2
   NSW = 1000
   ISYM = 0
   ISIF = 2
   EDIFFG = -0.01
   DIPOL = 0.5 0.5 0.5
   IDIPOL = 3
   LDIPOL = .TRUE.
   LHFCALC = .TRUE.
   GGA = B5
   AEXX = 0.2
   AGGAX = 0.72
   AGGAC = 0.81
   ALDAC = 0.19
   IVDW = 1
   VDW_S6 = 1.05
   VDW_C6 = 1.75 0.14 0.63 0.70
   VDW_R0 = 1.452 1.001 1.243 1.342
   ENCUT = 600
   PREC = Accurate
   LASPH = .TRUE.
   LREAL = .FALSE.
   ISPIN = 1
   NELM = 200
   NELMIN = 8
   NCORE = 8
   KPAR = 1
   LWAVE = .FALSE.
   LCHARG = .FALSE.

 POTCAR:    PAW_PBE C 08Apr2002
 POTCAR:    PAW_PBE H 15Jun2001
 POTCAR:    PAW_PBE Mg_pv 13Apr2007
 POTCAR:    PAW_PBE O 08Apr2002
 POTCAR:    PAW_PBE C 08Apr2002
   VRHFIN =C: s2p2

   TITEL  = PAW_PBE C 08Apr2002
   POMASS =   12.011; ZVAL   =    4.000    mass and valenz
   ENMAX  =  400.000; ENMIN  =  300.000 eV

   TITEL  = PAW_PBE H 15Jun2001
   POMASS =    1.000; ZVAL   =    1.000    mass and valenz
   ENMAX  =  250.000; ENMIN  =  200.000 eV

   TITEL  = PAW_PBE Mg_pv 13Apr2007
   POMASS =   24.305; ZVAL   =    8.000    mass and valenz
   ENMAX  =  403.929; ENMIN  =  302.947 eV

   TITEL  = PAW_PBE O 08Apr2002
   POMASS =   16.000; ZVAL   =    6.000    mass and valenz
   ENMAX  =  400.000; ENMIN  =  300.000 eV

  PAW_PBE C 08Apr2002                   :
  PAW_PBE H 15Jun2001                   :
  PAW_PBE Mg_pv 13Apr2007               :
  PAW_PBE O 08Apr2002                   :

 POSCAR:  C  H Mg  O
  positions in direct lattice
  velocities in cartesian coordinates
 exchange correlation table for  LEXCH =       12
   RHO(1)=    0.500       N(1)  =     2000
   RHO(2)=  100.500       N(2)  =     4000

 ion  position               nearest neighbor table
   1  0.506  0.498  0.794-   5 1.09   3 1.09   4 1.09   2 1.53
   2  0.676  0.499  0.819-   6 1.09   8 1.09   7 1.09   1 1.53
   3  0.486  0.392  0.765-   1 1.09
   4  0.483  0.604  0.765-   1 1.09
   5  0.418  0.496  0.831-   1 1.09
   6  0.761  0.501  0.781-   2 1.09
   7  0.700  0.394  0.848-   2 1.09
   8  0.697  0.604  0.849-   2 1.09
   9  0.250  0.000  0.352-  43 2.10  44 2.10  51 2.10  60 2.10  41 2.10
  10  0.500  0.250  0.352-  43 2.10  44 2.10  52 2.10  59 2.10  42 2.10
  11  0.250  0.250  0.451-  41 2.10  42 2.10  49 2.10  58 2.10  43 2.10  47 2.11
  12  0.500  0.000  0.451-  41 2.10  42 2.10  50 2.10  57 2.10  44 2.10  48 2.11
  13  0.250  1.000  0.550-  55 2.10  47 2.10  48 2.10  64 2.10  41 2.11  45 2.13
  14  0.500  0.250  0.550-  56 2.10  47 2.10  63 2.10  48 2.10  42 2.11  46 2.13
  15  0.250  0.250  0.648-  47 2.09  62 2.10  53 2.10  45 2.10  46 2.10
  16  0.500  1.000  0.648-  48 2.09  46 2.10  54 2.10  45 2.10  61 2.10
  17  0.250  0.500  0.352-  43 2.10  51 2.10  52 2.10  68 2.10  49 2.10
  18  0.500  0.750  0.352-  44 2.10  51 2.10  52 2.10  67 2.10  50 2.10
  19  0.250  0.750  0.451-  41 2.10  49 2.10  50 2.10  66 2.10  51 2.10  55 2.11
  20  0.500  0.500  0.451-  42 2.10  49 2.10  50 2.10  65 2.10  52 2.10  56 2.11
  21  0.250  0.500  0.550-  56 2.10  47 2.10  55 2.10  72 2.10  49 2.11  53 2.12
  22  0.500  0.750  0.550-  56 2.10  55 2.10  71 2.10  48 2.10  50 2.11  54 2.13
  23  0.250  0.750  0.648-  55 2.09  70 2.10  53 2.10  45 2.10  54 2.10
  24  0.500  0.500  0.649-  53 2.10  54 2.10  46 2.10  69 2.11  56 2.11
  25  0.750  0.000  0.352-  44 2.10  59 2.10  60 2.10  67 2.10  57 2.10
  26  0.000  0.250  0.352-  43 2.10  59 2.10  60 2.10  68 2.10  58 2.10
  27  0.750  0.250  0.451-  42 2.10  57 2.10  58 2.10  65 2.10  59 2.10  63 2.11
  28  0.000  0.000  0.451-  41 2.10  57 2.10  58 2.10  66 2.10  60 2.10  64 2.11
  29  0.750  1.000  0.550-  48 2.10  71 2.10  63 2.10  64 2.10  57 2.11  61 2.13
  30  1.000  0.250  0.550-  72 2.10  47 2.10  63 2.10  64 2.10  58 2.11  62 2.13
  31  0.750  0.250  0.648-  63 2.09  62 2.10  61 2.10  69 2.10  46 2.10
  32  1.000  1.000  0.648-  64 2.09  45 2.10  70 2.10  62 2.10  61 2.10
  33  0.750  0.500  0.352-  52 2.10  59 2.10  67 2.10  68 2.10  65 2.10
  34  0.000  0.750  0.352-  51 2.10  60 2.10  67 2.10  68 2.10  66 2.10
  35  0.750  0.750  0.451-  50 2.10  57 2.10  65 2.10  66 2.10  67 2.10  71 2.11
  36  0.000  0.500  0.451-  49 2.10  58 2.10  65 2.10  66 2.10  68 2.10  72 2.11
  37  0.750  0.500  0.550-  56 2.10  71 2.10  63 2.10  72 2.10  65 2.11  69 2.13
  38  1.000  0.750  0.550-  72 2.10  71 2.10  55 2.10  64 2.10  66 2.11  70 2.13
  39  0.750  0.750  0.648-  71 2.09  70 2.10  61 2.10  69 2.10  54 2.10
  40  0.000  0.500  0.648-  72 2.09  53 2.10  69 2.10  62 2.10  70 2.10
  41  0.250  0.000  0.451-  11 2.10  12 2.10  19 2.10  28 2.10   9 2.10  13 2.11
  42  0.500  0.250  0.451-  11 2.10  12 2.10  20 2.10  27 2.10  10 2.10  14 2.11
  43  0.250  0.250  0.352-   9 2.10  10 2.10  17 2.10  26 2.10  11 2.10
  44  0.500  0.000  0.352-   9 2.10  10 2.10  18 2.10  25 2.10  12 2.10
  45  0.250  1.000  0.650-  32 2.10  15 2.10  23 2.10  16 2.10  13 2.13
  46  0.500  0.250  0.650-  16 2.10  31 2.10  15 2.10  24 2.10  14 2.13
  47  0.250  0.250  0.550-  15 2.09  13 2.10  14 2.10  30 2.10  21 2.10  11 2.11
  48  0.500  1.000  0.550-  16 2.09  29 2.10  13 2.10  22 2.10  14 2.10  12 2.11
  49  0.250  0.500  0.451-  11 2.10  19 2.10  20 2.10  36 2.10  17 2.10  21 2.11
  50  0.500  0.750  0.451-  12 2.10  19 2.10  20 2.10  35 2.10  18 2.10  22 2.11
  51  0.250  0.750  0.352-   9 2.10  17 2.10  18 2.10  34 2.10  19 2.10
  52  0.500  0.500  0.352-  10 2.10  17 2.10  18 2.10  33 2.10  20 2.10
  53  0.250  0.500  0.650-  40 2.10  15 2.10  23 2.10  24 2.10  21 2.12
  54  0.500  0.750  0.650-  16 2.10  39 2.10  24 2.10  23 2.10  22 2.13
  55  0.250  0.750  0.550-  23 2.09  13 2.10  22 2.10  38 2.10  21 2.10  19 2.11
  56  0.500  0.500  0.550-  37 2.10  22 2.10  14 2.10  21 2.10  24 2.11  20 2.11
  57  0.750  0.000  0.451-  12 2.10  27 2.10  28 2.10  35 2.10  25 2.10  29 2.11
  58  0.000  0.250  0.451-  11 2.10  27 2.10  28 2.10  36 2.10  26 2.10  30 2.11
  59  0.750  0.250  0.352-  10 2.10  25 2.10  26 2.10  33 2.10  27 2.10
  60  0.000  0.000  0.352-   9 2.10  25 2.10  26 2.10  34 2.10  28 2.10
  61  0.750  1.000  0.650-  31 2.10  39 2.10  32 2.10  16 2.10  29 2.13
  62  1.000  0.250  0.650-  15 2.10  31 2.10  32 2.10  40 2.10  30 2.13
  63  0.750  0.250  0.550-  31 2.09  29 2.10  14 2.10  30 2.10  37 2.10  27 2.11
  64  1.000  1.000  0.550-  32 2.09  29 2.10  30 2.10  38 2.10  13 2.10  28 2.11
  65  0.750  0.500  0.451-  20 2.10  27 2.10  35 2.10  36 2.10  33 2.10  37 2.11
  66  0.000  0.750  0.451-  19 2.10  28 2.10  35 2.10  36 2.10  34 2.10  38 2.11
  67  0.750  0.750  0.352-  18 2.10  25 2.10  33 2.10  34 2.10  35 2.10
  68  0.000  0.500  0.352-  17 2.10  26 2.10  33 2.10  34 2.10  36 2.10
  69  0.750  0.500  0.650-  40 2.10  39 2.10  31 2.10  24 2.11  37 2.13
  70  1.000  0.750  0.650-  23 2.10  39 2.10  32 2.10  40 2.10  38 2.13
  71  0.750  0.750  0.550-  39 2.09  29 2.10  22 2.10  38 2.10  37 2.10  35 2.11
  72  1.000  0.500  0.549-  40 2.09  38 2.10  30 2.10  37 2.10  21 2.10  36 2.11

IMPORTANT INFORMATION: All symmetrisations will be switched off!
NOSYMM: (Re-)initialisation of all symmetry stuff for point group C_1.

                                     Primitive cell

  volume of cell :    1504.9259

  direct lattice vectors                    reciprocal lattice vectors
     8.404861995  0.000000000  0.000000000     0.118978753  0.000000000  0.000000000
     0.000000000  8.404861995  0.000000000     0.000000000  0.118978753  0.000000000
     0.000000000  0.000000000 21.303646496     0.000000000  0.000000000  0.046940321

  length of vectors
     8.404861995  8.404861995 21.303646496     0.118978753  0.118978753  0.046940321

  position of ions in fractional coordinates (direct lattice)
     0.506059684  0.497653798  0.793733031
     0.675960454  0.499341726  0.819378199
     0.485807002  0.392311550  0.764650082
     0.482985002  0.603757985  0.765412264
     0.417955583  0.495617823  0.831420814
     0.761466011  0.500951908  0.780806734
     0.699575574  0.394176223  0.848049863
     0.697025226  0.604136474  0.848557106
     0.250000000  0.000000000  0.352052406
     0.500000000  0.250000000  0.352052406
     0.250000000  0.250000000  0.450684135
     0.500000000  0.000000000  0.450684135
     0.249987617  0.999973379  0.549801438
     0.499944948  0.250159627  0.549914490
     0.249702688  0.249970454  0.647634103
     0.499891643  0.999951661  0.647704833
     0.250000000  0.500000000  0.352052406
     0.500000000  0.750000000  0.352052406
     0.250000000  0.750000000  0.450684135
     0.500000000  0.500000000  0.450684135
     0.250143474  0.499974721  0.549891072
     0.499943917  0.749784549  0.549914972
     0.249704188  0.749946596  0.647637165
     0.499688695  0.499964975  0.648604170
     0.750000000  0.000000000  0.352052406
     0.000000000  0.250000000  0.352052406
     0.750000000  0.250000000  0.450684135
     0.000000000  0.000000000  0.450684135
     0.749917270  0.999971385  0.549811156
     0.999949898  0.249996234  0.549783689
     0.750082904  0.249876400  0.647655261
     0.999936095  0.999957930  0.647749792
     0.750000000  0.500000000  0.352052406
     0.000000000  0.750000000  0.352052406
     0.750000000  0.750000000  0.450684135
     0.000000000  0.500000000  0.450684135
     0.749750968  0.499976430  0.549932134
     0.999946746  0.749951288  0.549786100
     0.750068751  0.750038571  0.647666000
     0.000118166  0.499956931  0.647601456
     0.250000000  0.000000000  0.450684135
     0.500000000  0.250000000  0.450684135
     0.250000000  0.250000000  0.352052406
     0.500000000  0.000000000  0.352052406
     0.249858117  0.999961029  0.649809707
     0.499903987  0.249701104  0.649943126
     0.249960772  0.249897037  0.549536295
     0.499969806  0.999969150  0.549561505
     0.250000000  0.500000000  0.450684135
     0.500000000  0.750000000  0.450684135
     0.250000000  0.750000000  0.352052406
     0.500000000  0.500000000  0.352052406
     0.249630321  0.499958220  0.649599728
     0.499893631  0.750196175  0.649957337
     0.249960190  0.750053169  0.549538129
     0.500007085  0.499975920  0.549723828
     0.750000000  0.000000000  0.450684135
     0.000000000  0.250000000  0.450684135
     0.750000000  0.250000000  0.352052406
     0.000000000  0.000000000  0.352052406
     0.749972657  0.999960511  0.649820157
     0.999893437  0.249922337  0.649777860
     0.749936944  0.249946815  0.549570084
     0.999938997  0.999974063  0.549543729
     0.750000000  0.500000000  0.450684135
     0.000000000  0.750000000  0.450684135
     0.750000000  0.750000000  0.352052406
     0.000000000  0.500000000  0.352052406
     0.750180738  0.499958550  0.649896168
     0.999891842  0.749996983  0.649782843
     0.749933149  0.750003208  0.549573369
     0.999890240  0.499976801  0.549497706

  ion indices of the primitive-cell ions
   primitive index   ion index
                 1           1
                 2           2
                 3           3
                 4           4
                 5           5
[...]
   4.20217722  8.40460270 11.70766404
   2.10121550  4.20243100  9.60121550
   4.20243100  6.30364650  9.60121550
   2.10121550  6.30364650  7.50000000
   4.20243100  4.20243100  7.50000000
   2.09810839  4.20207984 13.83884296
   4.20153698  6.30529532 13.84646134
   2.10088090  6.30409337 11.70716604
   4.20249055  4.20222861 11.71112210
   6.30364650  0.00000000  9.60121550
   0.00000000  2.10121550  9.60121550
   6.30364650  2.10121550  7.50000000
   0.00000000  0.00000000  7.50000000
   6.30341668  8.40453010 13.84353891
   8.40396635  2.10056276 13.84263783
   6.30311652  2.10076849 11.70784679
   8.40434927  8.40464400 11.70728534
   6.30364650  4.20243100  9.60121550
   0.00000000  6.30364650  9.60121550
   6.30364650  6.30364650  7.50000000
   0.00000000  4.20243100  7.50000000
   6.30516557  4.20208262 13.84515821
   8.40395295  6.30362114 13.84274399
   6.30308462  6.30367346 11.70791678
   8.40393948  4.20223601 11.70630488

--------------------------------------- Iteration      FINAL  ---------------------------------------

--------------------OUTCAR has been truncated-------------------------

[...]

--------------------OUTCAR has been truncated-------------------------

  Number of pair interactions contributing to vdW energy:  921306
  Edisp (eV):   -5.46016

  FORCE on cell =-STRESS in cart. coord.  units (eV):
  Direction    XX          YY          ZZ          XY          YZ          ZX
  Alpha Z   928.64058   928.64058   928.64058
  Ewald  158224.33184158071.26264************     1.22914     0.29738    50.65125
  Hartree168552.81011168431.78364************     0.93721     0.27102    38.36705
  E(xc)   -2041.84954 -2041.82199 -2045.00527    -0.00010     0.00066    -0.00253
  Local  ************************336347.36258    -2.23368    -0.60556   -91.20403
  n-local -1193.81313 -1194.96828 -1217.37109     0.01086    -0.00292     0.45588
  augment   896.80534   896.73638   886.50820     0.00074    -0.00041     0.02273
  Kinetic  7529.12185  7524.29223  7562.65428     0.05329     0.06909     1.78158
  Fock    -2007.97569 -2008.14963 -2004.89312     0.00180     0.00079     0.06671
  vdW        -7.70059    -7.61451    -6.74841    -0.00095    -0.00007    -0.03227
  Total     -30.87178   -30.92728    -2.59117    -0.00169     0.02997     0.10636
  in kB     -32.86678   -32.92587    -2.75862    -0.00180     0.03191     0.11324

 VOLUME and BASIS-vectors are now :
  energy-cutoff  :      600.00
  volume of cell :     1504.93
      direct lattice vectors                 reciprocal lattice vectors
     8.404861995  0.000000000  0.000000000     0.118978753  0.000000000  0.000000000
     0.000000000  8.404861995  0.000000000     0.000000000  0.118978753  0.000000000
     0.000000000  0.000000000 21.303646496     0.000000000  0.000000000  0.046940321

  length of vectors
     8.404861995  8.404861995 21.303646496     0.118978753  0.118978753  0.046940321

 FORCES acting on ions:
    Electron-Ion                     Ewald-Force                    Non-Local-Force
   0.690E+02 0.697E+00 -.919E+03   -.688E+02 -.714E+00 0.919E+03   -.149E+00 0.164E-01 -.164E+00
   -.690E+02 -.689E+00 -.861E+03   0.691E+02 0.695E+00 0.861E+03   -.198E+00 -.548E-02 0.206E+00
   0.173E+02 0.470E+02 -.232E+03   -.182E+02 -.517E+02 0.229E+03   0.898E+00 0.456E+01 0.309E+01
   0.185E+02 -.472E+02 -.232E+03   -.196E+02 0.519E+02 0.229E+03   0.102E+01 -.459E+01 0.300E+01
   0.468E+02 0.993E+00 -.235E+03   -.507E+02 -.108E+01 0.239E+03   0.380E+01 0.877E-01 -.407E+01
   -.462E+02 -.810E+00 -.210E+03   0.500E+02 0.881E+00 0.206E+03   -.369E+01 -.688E-01 0.424E+01
   -.186E+02 0.466E+02 -.213E+03   0.197E+02 -.513E+02 0.216E+03   -.105E+01 0.449E+01 -.312E+01
   -.175E+02 -.466E+02 -.213E+03   0.185E+02 0.512E+02 0.216E+03   -.939E+00 -.448E+01 -.317E+01
   0.122E+00 0.325E-02 0.210E+04   -.121E+00 -.331E-02 -.210E+04   -.625E-03 0.457E-04 -.641E+01
   0.819E-01 0.225E+00 0.210E+04   -.819E-01 -.223E+00 -.210E+04   -.403E-04 -.121E-02 -.642E+01
   0.488E+00 0.775E+00 0.733E+03   -.479E+00 -.772E+00 -.734E+03   -.576E-02 -.129E-02 0.403E+00
   0.246E+00 0.103E-01 0.733E+03   -.249E+00 -.117E-01 -.734E+03   0.198E-02 0.876E-03 0.401E+00
   0.254E+01 0.494E-01 -.633E+03   -.253E+01 -.496E-01 0.633E+03   -.102E-01 0.210E-03 -.200E+00
   0.152E+01 0.549E+01 -.625E+03   -.152E+01 -.544E+01 0.625E+03   -.271E-03 -.463E-01 -.230E+00
   0.165E+02 0.190E+02 -.199E+04   -.166E+02 -.190E+02 0.198E+04   0.650E-01 -.214E-02 0.554E+01
   0.453E+01 0.306E+00 -.199E+04   -.454E+01 -.304E+00 0.199E+04   0.756E-02 -.157E-02 0.550E+01
   0.135E+00 -.340E-02 0.210E+04   -.133E+00 0.336E-02 -.210E+04   -.112E-02 0.307E-04 -.641E+01
   0.818E-01 -.225E+00 0.210E+04   -.817E-01 0.223E+00 -.210E+04   -.394E-04 0.130E-02 -.642E+01
   0.489E+00 -.779E+00 0.733E+03   -.480E+00 0.775E+00 -.734E+03   -.570E-02 0.258E-02 0.403E+00
   0.312E+00 -.154E-01 0.735E+03   -.307E+00 0.143E-01 -.735E+03   -.379E-02 0.585E-03 0.441E+00
   0.413E+01 -.528E-01 -.624E+03   -.408E+01 0.531E-01 0.625E+03   -.501E-01 -.265E-03 -.356E+00
   0.152E+01 -.549E+01 -.625E+03   -.152E+01 0.544E+01 0.625E+03   -.493E-03 0.462E-01 -.225E+00
   0.163E+02 -.190E+02 -.199E+04   -.163E+02 0.190E+02 0.198E+04   0.621E-01 0.206E-02 0.554E+01
   0.115E+02 -.467E+00 -.192E+04   -.115E+02 0.475E+00 0.192E+04   0.640E-01 -.687E-02 0.545E+01
   -.122E+00 0.335E-02 0.210E+04   0.121E+00 -.342E-02 -.210E+04   0.767E-03 0.503E-04 -.641E+01
   -.823E-01 0.212E+00 0.210E+04   0.819E-01 -.211E+00 -.210E+04   0.203E-03 -.695E-03 -.641E+01
   -.498E+00 0.844E+00 0.734E+03   0.484E+00 -.832E+00 -.734E+03   0.862E-02 -.742E-02 0.415E+00
   -.254E+00 0.117E-01 0.732E+03   0.253E+00 -.129E-01 -.733E+03   0.373E-03 0.772E-03 0.404E+00
   -.255E+01 0.543E-01 -.631E+03   0.254E+01 -.549E-01 0.631E+03   0.111E-01 0.664E-03 -.204E+00
   -.151E+01 0.388E+01 -.630E+03   0.151E+01 -.387E+01 0.631E+03   0.664E-03 -.606E-02 -.200E+00
   -.167E+02 0.257E+02 -.197E+04   0.168E+02 -.258E+02 0.197E+04   -.632E-01 0.306E-01 0.554E+01
   -.447E+01 0.117E+00 -.201E+04   0.448E+01 -.117E+00 0.200E+04   -.740E-02 0.128E-04 0.550E+01
   -.136E+00 -.351E-02 0.210E+04   0.134E+00 0.347E-02 -.210E+04   0.131E-02 0.274E-04 -.642E+01
   -.822E-01 -.212E+00 0.210E+04   0.818E-01 0.211E+00 -.210E+04   0.212E-03 0.774E-03 -.641E+01
   -.499E+00 -.848E+00 0.734E+03   0.485E+00 0.835E+00 -.734E+03   0.870E-02 0.871E-02 0.416E+00
   -.321E+00 -.156E-01 0.734E+03   0.311E+00 0.147E-01 -.734E+03   0.639E-02 0.531E-03 0.378E+00
   -.416E+01 -.578E-01 -.621E+03   0.410E+01 0.587E-01 0.622E+03   0.513E-01 -.721E-03 -.272E+00
   -.150E+01 -.388E+01 -.630E+03   0.150E+01 0.387E+01 0.631E+03   0.797E-03 0.616E-02 -.199E+00
   -.165E+02 -.257E+02 -.197E+04   0.165E+02 0.257E+02 0.197E+04   -.606E-01 -.301E-01 0.554E+01
   -.107E+02 -.130E+00 -.198E+04   0.108E+02 0.130E+00 0.198E+04   -.677E-01 0.461E-04 0.552E+01
   0.346E+00 0.782E-02 0.549E+03   -.341E+00 -.648E-02 -.549E+03   -.602E-02 -.159E-02 -.825E-01
   0.198E+00 0.699E+00 0.550E+03   -.197E+00 -.706E+00 -.550E+03   -.187E-02 0.788E-02 -.101E+00
   0.960E-01 0.160E+00 0.158E+04   -.945E-01 -.159E+00 -.158E+04   -.199E-02 -.135E-02 0.312E+01
   0.585E-01 0.254E-02 0.158E+04   -.587E-01 -.252E-02 -.158E+04   0.147E-03 -.311E-04 0.312E+01
   0.703E+01 0.143E+00 -.152E+04   -.700E+01 -.144E+00 0.153E+04   -.231E-01 0.836E-03 -.456E+01
   0.588E+01 0.254E+02 -.149E+04   -.587E+01 -.253E+02 0.150E+04   -.304E-02 -.663E-01 -.456E+01
   0.241E+01 0.317E+01 -.466E+03   -.241E+01 -.316E+01 0.465E+03   -.188E-02 -.129E-01 0.314E+00
   0.915E+00 0.482E-01 -.466E+03   -.918E+00 -.478E-01 0.466E+03   0.247E-02 -.328E-03 0.309E+00
   0.436E+00 -.124E-01 0.550E+03   -.445E+00 0.137E-01 -.550E+03   0.104E-01 -.144E-02 -.965E-01
   0.198E+00 -.704E+00 0.550E+03   -.196E+00 0.714E+00 -.550E+03   -.192E-02 -.113E-01 -.101E+00
   0.961E-01 -.160E+00 0.158E+04   -.945E-01 0.159E+00 -.158E+04   -.199E-02 0.126E-02 0.312E+01
   0.652E-01 -.244E-02 0.158E+04   -.644E-01 0.250E-02 -.158E+04   -.990E-03 -.713E-04 0.311E+01
   0.204E+02 -.171E+00 -.150E+04   -.203E+02 0.170E+00 0.150E+04   -.821E-01 0.887E-03 -.462E+01
   0.583E+01 -.252E+02 -.149E+04   -.583E+01 0.252E+02 0.150E+04   -.356E-02 0.641E-01 -.456E+01
   0.240E+01 -.317E+01 -.466E+03   -.240E+01 0.315E+01 0.465E+03   -.119E-02 0.140E-01 0.314E+00
   0.136E+01 -.443E-01 -.460E+03   -.137E+01 0.427E-01 0.460E+03   0.527E-02 0.153E-02 0.103E+00
   -.355E+00 0.834E-02 0.549E+03   0.354E+00 -.686E-02 -.549E+03   0.471E-03 -.175E-02 -.791E-01
   -.207E+00 0.607E+00 0.549E+03   0.211E+00 -.600E+00 -.549E+03   -.468E-02 -.887E-02 -.751E-01
   -.959E-01 0.166E+00 0.158E+04   0.944E-01 -.164E+00 -.158E+04   0.179E-02 -.248E-02 0.312E+01
   -.584E-01 0.260E-02 0.158E+04   0.586E-01 -.258E-02 -.158E+04   -.300E-03 -.239E-04 0.312E+01
   -.708E+01 0.164E+00 -.152E+04   0.705E+01 -.165E+00 0.152E+04   0.214E-01 0.821E-03 -.456E+01
   -.570E+01 0.112E+02 -.152E+04   0.569E+01 -.112E+02 0.152E+04   0.875E-02 -.149E-01 -.456E+01
   -.242E+01 0.364E+01 -.463E+03   0.242E+01 -.363E+01 0.463E+03   0.143E-02 -.803E-02 0.324E+00
   -.907E+00 0.344E-01 -.470E+03   0.910E+00 -.348E-01 0.470E+03   -.238E-02 0.385E-03 0.275E+00
   -.446E+00 -.130E-01 0.550E+03   0.460E+00 0.141E-01 -.550E+03   -.167E-01 -.131E-02 -.109E+00
   -.207E+00 -.612E+00 0.549E+03   0.211E+00 0.608E+00 -.549E+03   -.498E-02 0.579E-02 -.754E-01
   -.959E-01 -.166E+00 0.158E+04   0.945E-01 0.164E+00 -.158E+04   0.178E-02 0.239E-02 0.312E+01
   -.650E-01 -.250E-02 0.158E+04   0.643E-01 0.255E-02 -.158E+04   0.827E-03 -.641E-04 0.312E+01
   -.209E+02 -.205E+00 -.148E+04   0.208E+02 0.204E+00 0.148E+04   0.703E-01 0.141E-02 -.460E+01
   -.568E+01 -.112E+02 -.152E+04   0.567E+01 0.111E+02 0.152E+04   0.978E-02 0.169E-01 -.456E+01
   -.241E+01 -.364E+01 -.464E+03   0.240E+01 0.363E+01 0.463E+03   0.849E-03 0.915E-02 0.322E+00
   -.134E+01 -.295E-01 -.464E+03   0.134E+01 0.285E-01 0.464E+03   -.379E-02 0.878E-03 0.310E+00
   0.333E+00 -.133E-01 0.181E+02   0.284E-13 -.156E-12 -.568E-11   -.320E+00 0.107E-01 -.159E+02

 POSITION                                       TOTAL-FORCE (eV/Angst)
      4.25314      4.18274     16.90923         0.007570     -0.000559      0.000970
      5.68165      4.19686     17.45604        -0.002650      0.001119     -0.006928
      4.08315      3.29737     16.28982        -0.000019     -0.000380     -0.003254
      4.05945      5.07443     16.30605         0.001045      0.000770     -0.004944
      3.51290      4.16562     17.71218        -0.000976      0.001462     -0.004812
      6.40009      4.21044     16.63406         0.004114      0.000332      0.003607
      5.87983      3.31313     18.06645         0.002065     -0.001469      0.001248
      5.85840      5.07758     18.07729         0.001850      0.000524      0.001463
      2.10122      0.00000      7.50000         0.000320      0.000032      0.405348
      4.20243      2.10122      7.50000         0.000099      0.000546      0.406158
      2.10122      2.10122      9.60122         0.002632      0.001099      0.034975
      4.20243      0.00000      9.60122        -0.000858     -0.000386      0.039713
      2.10112      8.40464     11.71279         0.000127      0.000081      0.000376
      4.20198      2.10255     11.71520         0.000155      0.000014      0.000770
      2.09872      2.10096     13.79698         0.000111     -0.000117      0.000275
      4.20152      8.40446     13.79847        -0.000159      0.000136     -0.000083
      2.10122      4.20243      7.50000         0.000512      0.000035      0.405875
      4.20243      6.30365      7.50000         0.000100     -0.000483      0.406168
      2.10122      6.30365      9.60122         0.002577     -0.001677      0.035038
      4.20243      4.20243      9.60122         0.001353     -0.000303      0.042758
      2.10243      4.20222     11.71468         0.000189      0.000082      0.000229
      4.20197      6.30184     11.71521         0.000144      0.000152      0.000768
      2.09874      6.30321     13.79704         0.000103      0.000370      0.000226
      4.19984      4.20214     13.81767         0.000541      0.000128      0.001427
      6.30365      0.00000      7.50000        -0.000265      0.000029      0.404898
      0.00000      2.10122      7.50000        -0.000047      0.000388      0.404859
      6.30365      2.10122      9.60122        -0.003962      0.003446      0.035801
      0.00000      0.00000      9.60122        -0.000252     -0.000352      0.032828
      6.30294      8.40462     11.71299        -0.000189      0.000104      0.000346
      8.40443      2.10119     11.71240        -0.000264      0.000131      0.000340
      6.30433      2.10019     13.79743        -0.000234      0.000329      0.000461
      8.40432      8.40451     13.79944        -0.000013      0.000160      0.000392
      6.30365      4.20243      7.50000        -0.000429      0.000037      0.406640
      0.00000      6.30365      7.50000        -0.000050     -0.000320      0.404870
      6.30365      6.30365      9.60122        -0.003994     -0.004032      0.035840
      0.00000      4.20243      9.60122        -0.002722     -0.000245      0.038897
      6.30155      4.20223     11.71558        -0.000123      0.000076      0.000616
      8.40440      6.30324     11.71245        -0.000254      0.000098      0.000329
      6.30422      6.30397     13.79766        -0.000243     -0.000036      0.000429
      0.00097      4.20207     13.79627        -0.000333      0.000171     -0.000189
      2.10122      0.00000      9.60122        -0.001803     -0.000429      0.048466
      4.20243      2.10122      9.60122        -0.000337      0.002274      0.054915
      2.10122      2.10122      7.50000        -0.000630     -0.000409     -0.494331
      4.20243      0.00000      7.50000         0.000091      0.000030     -0.494252
      2.10002      8.40454     13.84331        -0.000130      0.000119     -0.000015
      4.20161      2.09870     13.84616        -0.000232     -0.000083      0.000236
      2.10088      2.10036     11.70714        -0.000024      0.000260      0.000451
      4.20217      8.40460     11.70768        -0.000043      0.000069      0.000554
      2.10122      4.20243      9.60122         0.003311     -0.000374      0.053912
      4.20243      6.30365      9.60122        -0.000351     -0.003209      0.054871
      2.10122      6.30365      7.50000        -0.000632      0.000462     -0.494334
      4.20243      4.20243      7.50000        -0.000290      0.000017     -0.495195
      2.09810      4.20208     13.83884        -0.000185      0.000141      0.000222
      4.20153      6.30530     13.84646        -0.000228      0.000285      0.000239
      2.10088      6.30408     11.70718         0.000008     -0.000081      0.000442
      4.20248      4.20223     11.71115        -0.000218      0.000097      0.000883
      6.30365      0.00000      9.60122         0.000273     -0.000473      0.050915
      0.00000      2.10122      9.60122        -0.001521     -0.002919      0.049204
      6.30365      2.10122      7.50000         0.000642     -0.000786     -0.494395
      0.00000      0.00000      7.50000        -0.000060      0.000033     -0.493606
      6.30342      8.40453     13.84354         0.000014      0.000124      0.000257
      8.40398      2.10057     13.84264         0.000123      0.000258      0.000132
      6.30312      2.10077     11.70785        -0.000028      0.000018      0.000341
      8.40435      8.40465     11.70729        -0.000055      0.000085      0.000304
      6.30365      4.20243      9.60122        -0.005087     -0.000336      0.053667
      0.00000      6.30365      9.60122        -0.001612      0.002106      0.049353
      6.30365      6.30365      7.50000         0.000640      0.000841     -0.494398
      0.00000      4.20243      7.50000         0.000327      0.000020     -0.494315
      6.30518      4.20209     13.84515         0.000186      0.000139     -0.000258
      8.40396      6.30362     13.84274         0.000121     -0.000004      0.000115
      6.30309      6.30368     11.70792        -0.000041      0.000157      0.000335
      8.40396      4.20224     11.70632         0.000198      0.000072      0.000562
    total drift:                               -0.003263     -0.003103     -0.001246

  FREE ENERGIE OF THE ION-ELECTRON SYSTEM (eV)
  free  energy   TOTEN  =      -485.11759539 eV

  energy  without entropy=     -485.11759539  energy(sigma->0) =     -485.11759539

 d Force = 0.5052877E-04[ 0.811E-05, 0.929E-04]  d Energy = 0.4635782E-04 0.417E-05
 d Force =-0.5189813E+00[-0.519E+00,-0.519E+00]  d Ewald  =-0.5189813E+00-0.453E-07

 reached required accuracy - stopping structural energy minimisation