 vasp.6.3.0 20Jan22 (build Apr  1 2022 16:44:48) complex
 executed on        HPECrayEX_GCC date 2022.10.25  01:16:45

 INCAR:
   SYSTEM = MgO-rocksalt
   ISMEAR = 0
   SIGMA = 0.05
   EDIFF = 1E-6
   ALGO = ALL
   ISTART = 0
   IBRION = -1
   NSW = 0
   ISYM = 0
   DIPOL = 0.5 0.5 0.5
   IDIPOL = 3
   LDIPOL = .TRUE.
   LHFCALC = .TRUE.
   GGA = B5
   AEXX = 0.2
   AGGAX = 0.72
   AGGAC = 0.81
   ALDAC = 0.19
   IVDW = 1
   VDW_S6 = 1.05
   VDW_C6 = 0.63 0.70
   VDW_R0 = 1.243 1.342
   ENCUT = 600
   PREC = Accurate
   LASPH = .TRUE.
   LREAL = .FALSE.
   ISPIN = 1
   NELM = 200
   NELMIN = 8
   NCORE = 8
   KPAR = 1
   LWAVE = .FALSE.
   LCHARG = .FALSE.

 POTCAR:    PAW_PBE Mg_pv 13Apr2007
 POTCAR:    PAW_PBE O 08Apr2002
 POTCAR:    PAW_PBE Mg_pv 13Apr2007
   VRHFIN =Mg: p6s2

   TITEL  = PAW_PBE Mg_pv 13Apr2007
   POMASS =   24.305; ZVAL   =    8.000    mass and valenz
   ENMAX  =  403.929; ENMIN  =  302.947 eV

   TITEL  = PAW_PBE O 08Apr2002
   POMASS =   16.000; ZVAL   =    6.000    mass and valenz
   ENMAX  =  400.000; ENMIN  =  300.000 eV

  PAW_PBE Mg_pv 13Apr2007               :
  PAW_PBE O 08Apr2002                   :

 POSCAR: Mg  O
  positions in direct lattice
 exchange correlation table for  LEXCH =       12
   RHO(1)=    0.500       N(1)  =     2000
   RHO(2)=  100.500       N(2)  =     4000

 ion  position               nearest neighbor table
   1  0.250  0.000  0.353-  35 2.09  36 2.09  52 2.09  33 2.09  43 2.09
   2  0.500  0.250  0.353-  51 2.09  36 2.09  44 2.09  35 2.09  34 2.09
   3  0.250  0.250  0.451-  33 2.09  34 2.09  41 2.09  50 2.09  35 2.09  39 2.10
   4  0.500  0.000  0.451-  49 2.09  34 2.09  33 2.09  36 2.09  42 2.09  40 2.10
   5  0.250  0.000  0.550-  39 2.09  47 2.09  40 2.09  56 2.09  33 2.10  37 2.12
   6  0.500  0.250  0.550-  48 2.09  55 2.09  39 2.09  40 2.09  34 2.10  38 2.12
   7  0.250  0.250  0.647-  39 2.08  54 2.09  45 2.09  37 2.09  38 2.09
   8  0.500  1.000  0.647-  40 2.08  46 2.08  38 2.08  37 2.09  53 2.09
   9  0.250  0.500  0.353-  43 2.09  35 2.09  44 2.09  60 2.09  41 2.09
  10  0.500  0.750  0.353-  44 2.09  59 2.09  43 2.09  42 2.09  36 2.09
  11  0.250  0.750  0.451-  41 2.09  42 2.09  58 2.09  43 2.09  33 2.09  47 2.10
  12  0.500  0.500  0.451-  42 2.09  57 2.09  34 2.09  41 2.09  44 2.09  48 2.10
  13  0.250  0.500  0.550-  48 2.09  47 2.09  39 2.09  64 2.09  41 2.10  45 2.12
  14  0.500  0.750  0.550-  48 2.09  63 2.09  47 2.09  40 2.09  42 2.10  46 2.12
  15  0.250  0.750  0.647-  47 2.08  62 2.09  45 2.09  37 2.09  46 2.09
  16  0.500  0.500  0.648-  45 2.09  46 2.09  38 2.09  61 2.09  48 2.09
  17  0.750  0.000  0.353-  36 2.09  51 2.09  49 2.09  52 2.09  59 2.09
  18  0.000  0.250  0.353-  35 2.09  52 2.09  60 2.09  50 2.09  51 2.09
  19  0.750  0.250  0.451-  34 2.09  49 2.09  57 2.09  51 2.09  50 2.09  55 2.10
  20  0.000  0.000  0.451-  33 2.09  50 2.09  52 2.09  49 2.09  58 2.09  56 2.10
  21  0.750  0.000  0.550-  63 2.09  55 2.09  40 2.09  56 2.09  49 2.10  53 2.12
  22  1.000  0.250  0.550-  64 2.09  55 2.09  39 2.09  56 2.09  50 2.10  54 2.12
  23  0.750  0.250  0.647-  55 2.08  54 2.09  53 2.09  61 2.09  38 2.09
  24  1.000  0.000  0.647-  56 2.08  37 2.09  53 2.09  54 2.09  62 2.09
  25  0.750  0.500  0.353-  44 2.09  59 2.09  51 2.09  57 2.09  60 2.09
  26  0.000  0.750  0.353-  60 2.09  43 2.09  58 2.09  59 2.09  52 2.09
  27  0.750  0.750  0.451-  42 2.09  57 2.09  59 2.09  58 2.09  49 2.09  63 2.10
  28  0.000  0.500  0.451-  58 2.09  50 2.09  41 2.09  60 2.09  57 2.09  64 2.09
  29  0.750  0.500  0.550-  48 2.09  63 2.09  55 2.09  64 2.09  57 2.10  61 2.12
  30  1.000  0.750  0.550-  64 2.09  63 2.09  47 2.09  56 2.09  58 2.10  62 2.12
  31  0.750  0.750  0.647-  63 2.08  62 2.09  53 2.09  61 2.09  46 2.09
  32  0.000  0.500  0.647-  64 2.08  45 2.08  61 2.09  62 2.09  54 2.09
  33  0.250  0.000  0.451-   3 2.09   4 2.09  20 2.09   1 2.09  11 2.09   5 2.10
  34  0.500  0.250  0.451-  19 2.09   4 2.09  12 2.09   3 2.09   2 2.09   6 2.10
  35  0.250  0.250  0.353-   1 2.09   2 2.09   9 2.09  18 2.09   3 2.09
  36  0.500  0.000  0.353-  17 2.09   2 2.09   1 2.09   4 2.09  10 2.09
  37  0.250  0.000  0.650-  24 2.09  15 2.09   7 2.09   8 2.09   5 2.12
  38  0.500  0.250  0.650-   8 2.08  23 2.09   7 2.09  16 2.09   6 2.12
  39  0.250  0.250  0.549-   7 2.08   5 2.09  22 2.09   6 2.09  13 2.09   3 2.10
  40  0.500  1.000  0.549-   8 2.08  21 2.09   5 2.09  14 2.09   6 2.09   4 2.10
  41  0.250  0.500  0.451-  11 2.09   3 2.09  12 2.09  28 2.09   9 2.09  13 2.10
  42  0.500  0.750  0.451-  12 2.09  27 2.09  11 2.09  10 2.09   4 2.09  14 2.10
  43  0.250  0.750  0.353-   9 2.09  10 2.09  26 2.09  11 2.09   1 2.09
  44  0.500  0.500  0.353-  10 2.09  25 2.09   2 2.09   9 2.09  12 2.09
  45  0.250  0.500  0.649-  32 2.08   7 2.09  15 2.09  16 2.09  13 2.12
  46  0.500  0.750  0.650-   8 2.08  31 2.09  15 2.09  16 2.09  14 2.12
  47  0.250  0.750  0.549-  15 2.08   5 2.09  30 2.09  14 2.09  13 2.09  11 2.10
  48  0.500  0.500  0.550-  29 2.09  14 2.09   6 2.09  13 2.09  16 2.09  12 2.10
  49  0.750  0.000  0.451-   4 2.09  19 2.09  17 2.09  20 2.09  27 2.09  21 2.10
  50  0.000  0.250  0.451-   3 2.09  20 2.09  28 2.09  18 2.09  19 2.09  22 2.10
  51  0.750  0.250  0.353-   2 2.09  17 2.09  25 2.09  19 2.09  18 2.09
  52  0.000  0.000  0.353-   1 2.09  18 2.09  20 2.09  17 2.09  26 2.09
  53  0.750  0.000  0.650-  23 2.09  31 2.09  24 2.09   8 2.09  21 2.12
  54  1.000  0.250  0.650-  23 2.09   7 2.09  24 2.09  32 2.09  22 2.12
  55  0.750  0.250  0.549-  23 2.08  21 2.09  22 2.09   6 2.09  29 2.09  19 2.10
  56  1.000  0.000  0.549-  24 2.08  21 2.09  30 2.09  22 2.09   5 2.09  20 2.10
  57  0.750  0.500  0.451-  12 2.09  27 2.09  19 2.09  25 2.09  28 2.09  29 2.10
  58  0.000  0.750  0.451-  28 2.09  11 2.09  26 2.09  27 2.09  20 2.09  30 2.10
  59  0.750  0.750  0.353-  10 2.09  25 2.09  27 2.09  26 2.09  17 2.09
  60  0.000  0.500  0.353-  26 2.09  18 2.09   9 2.09  28 2.09  25 2.09
  61  0.750  0.500  0.650-  32 2.09  23 2.09  31 2.09  16 2.09  29 2.12
  62  1.000  0.750  0.650-  31 2.09  15 2.09  24 2.09  32 2.09  30 2.12
  63  0.750  0.750  0.549-  31 2.08  21 2.09  30 2.09  14 2.09  29 2.09  27 2.10
  64  1.000  0.500  0.549-  32 2.08  22 2.09  30 2.09  29 2.09  13 2.09  28 2.09

IMPORTANT INFORMATION: All symmetrisations will be switched off!
NOSYMM: (Re-)initialisation of all symmetry stuff for point group C_1.

                                     Primitive cell

  volume of cell :    1482.1129

  direct lattice vectors                    reciprocal lattice vectors
     8.349111827  0.000000000  0.000000000     0.119773219  0.000000000  0.000000000
     0.000000000  8.349111827  0.000000000     0.000000000  0.119773219  0.000000000
     0.000000000  0.000000000 21.261833870     0.000000000  0.000000000  0.047032632

  length of vectors
     8.349111827  8.349111827 21.261833870     0.119773219  0.119773219  0.047032632

  position of ions in fractional coordinates (direct lattice)
     0.250000245  0.000000000  0.352744737
     0.500000489  0.250000245  0.352744737
     0.250000245  0.250000245  0.450915008
     0.500000489  0.000000000  0.450915008
     0.250008629  0.000003593  0.549732919
     0.499984919  0.250161939  0.549800176
     0.249803817  0.250039770  0.647312931
     0.499962162  0.999998583  0.647322337
     0.250000245  0.500000489  0.352744737
     0.500000489  0.749999536  0.352744737
     0.250000245  0.749999536  0.450915008
     0.500000489  0.500000489  0.450915008
     0.250166730  0.500004083  0.549787477
     0.499984919  0.749846227  0.549799705
     0.249802619  0.749976780  0.647312931
     0.499831609  0.500038817  0.648113426
     0.749999536  0.000000000  0.352744737
     0.000000000  0.250000245  0.352744737
     0.749999536  0.250000245  0.450915008
     0.000000000  0.000000000  0.450915008
     0.749969593  0.000001198  0.549731038
     0.999978222  0.250017013  0.549715517
     0.750085773  0.249952335  0.647328452
     0.999980836  0.000005989  0.647438038
     0.749999536  0.500000489  0.352744737
     0.000000000  0.749999536  0.352744737
     0.749999536  0.749999536  0.450915008
     0.000000000  0.500000489  0.450915008
     0.749809097  0.500005280  0.549809582
     0.999974629  0.749988757  0.549717398
     0.750074994  0.750059423  0.647339269
     0.000155705  0.500006478  0.647242382
     0.250000245  0.000000000  0.450915008
     0.500000489  0.250000245  0.450915008
     0.250000245  0.250000245  0.352744737
     0.500000489  0.000000000  0.352744737
     0.249924788  0.000007186  0.649664092
     0.499964557  0.249636134  0.649658448
     0.249976290  0.249931974  0.549454486
     0.499998094  0.999998802  0.549453075
     0.250000245  0.500000489  0.450915008
     0.500000489  0.749999536  0.450915008
     0.250000245  0.749999536  0.352744737
     0.500000489  0.500000489  0.352744737
     0.249684043  0.500006478  0.649390833
     0.499956173  0.750363647  0.649672558
     0.249976290  0.750074994  0.549455897
     0.500016060  0.500006478  0.549623333
     0.749999536  0.000000000  0.450915008
     0.000000000  0.250000245  0.450915008
     0.749999536  0.250000245  0.352744737
     0.000000000  0.000000000  0.352744737
     0.750015107  0.000007186  0.649657037
     0.999936301  0.250003838  0.649639635
     0.749987559  0.249958324  0.549477532
     0.999979420  0.000002395  0.549485998
     0.749999536  0.500000489  0.450915008
     0.000000000  0.749999536  0.450915008
     0.749999536  0.749999536  0.352744737
     0.000000000  0.500000489  0.352744737
     0.750255851  0.500004083  0.649567675
     0.999935104  0.750007921  0.649642928
     0.749983966  0.750048643  0.549480354
     0.999955684  0.500002885  0.549404161

  ion indices of the primitive-cell ions
   primitive index   ion index
                 1           1
                 2           2
                 3           3
                 4           4
                 5           5
                 6           6
                 7           7
                 8           8
                 9           9
                10          10
                11          11
                12          12
                13          13
                14          14
                15          15
                16          16
                17          17
                18          18
                19          19
                20          20
                21          21
                22          22
                23          23
                24          24
                25          25
                26          26
                27          27
                28          28
                29          29
                30          30
                31          31
                32          32
                33          33
                34          34
                35          35
                36          36
                37          37
                38          38
                39          39
                40          40
                41          41
                42          42
                43          43
                44          44
[...]
   0.50000049  0.74999954  0.45091501
   0.25000024  0.74999954  0.35274474
   0.50000049  0.50000049  0.35274474
   0.24968404  0.50000648  0.64939083
   0.49995617  0.75036365  0.64967256
   0.24997629  0.75007499  0.54945590
   0.50001606  0.50000648  0.54962333
   0.74999954  0.00000000  0.45091501
   0.00000000  0.25000024  0.45091501
   0.74999954  0.25000024  0.35274474
   0.00000000  0.00000000  0.35274474
   0.75001511  0.00000719  0.64965704
   0.99993630  0.25000384  0.64963964
   0.74998756  0.24995832  0.54947753
   0.99997942  0.00000240  0.54948600
   0.74999954  0.50000049  0.45091501
   0.00000000  0.74999954  0.45091501
   0.74999954  0.74999954  0.35274474
   0.00000000  0.50000049  0.35274474
   0.75025585  0.50000408  0.64956768
   0.99993510  0.75000792  0.64964293
   0.74998397  0.75004864  0.54948035
   0.99995568  0.50000288  0.54940416

 position of ions in cartesian coordinates  (Angst):
   2.08728000  0.00000000  7.50000000
   4.17456000  2.08728000  7.50000000
   2.08728000  2.08728000  9.58728000
   4.17456000  0.00000000  9.58728000
   2.08735000  0.00003000 11.68833000
   4.17443000  2.08863000 11.68976000
   2.08564000  2.08761000 13.76306000
   4.17424000  8.34910000 13.76326000
   2.08728000  4.17456000  7.50000000
   4.17456000  6.26183000  7.50000000
   2.08728000  6.26183000  9.58728000
   4.17456000  4.17456000  9.58728000
   2.08867000  4.17459000 11.68949000
   4.17443000  6.26055000 11.68975000
   2.08563000  6.26164000 13.76306000
   4.17315000  4.17488000 13.78008000
   6.26183000  0.00000000  7.50000000
   0.00000000  2.08728000  7.50000000
   6.26183000  2.08728000  9.58728000
   0.00000000  0.00000000  9.58728000
   6.26158000  0.00001000 11.68829000
   8.34893000  2.08742000 11.68796000
   6.26255000  2.08688000 13.76339000
   8.34895183  0.00005000 13.76572000
   6.26183000  4.17456000  7.50000000
   0.00000000  6.26183000  7.50000000
   6.26183000  6.26183000  9.58728000
   0.00000000  4.17456000  9.58728000
   6.26024000  4.17460000 11.68996000
   8.34890000  6.26174000 11.68800000
   6.26246000  6.26233000 13.76362000
   0.00130000  4.17461000 13.76156000
   2.08728000  0.00000000  9.58728000
   4.17456000  2.08728000  9.58728000
   2.08728000  2.08728000  7.50000000
   4.17456000  0.00000000  7.50000000
   2.08665000  0.00006000 13.81305000
   4.17426000  2.08424000 13.81293000
   2.08708000  2.08671000 11.68241000
   4.17454000  8.34910183 11.68238000
   2.08728000  4.17456000  9.58728000
   4.17456000  6.26183000  9.58728000
   2.08728000  6.26183000  7.50000000
   4.17456000  4.17456000  7.50000000
   2.08464000  4.17461000 13.80724000
   4.17419000  6.26487000 13.81323000
   2.08708000  6.26246000 11.68244000
   4.17469000  4.17461000 11.68600000
   6.26183000  0.00000000  9.58728000
   0.00000000  2.08728000  9.58728000
   6.26183000  2.08728000  7.50000000
   0.00000000  0.00000000  7.50000000
   6.26196000  0.00006000 13.81290000
   8.34858000  2.08731000 13.81253000
   6.26173000  2.08693000 11.68290000
   8.34894000  0.00002000 11.68308000
   6.26183000  4.17456000  9.58728000
   0.00000000  6.26183000  9.58728000
   6.26183000  6.26183000  7.50000000
   0.00000000  4.17456000  7.50000000
   6.26397000  4.17459000 13.81100000
   8.34857000  6.26190000 13.81260000
   6.26170000  6.26224000 11.68296000
   8.34874183  4.17458000 11.68134000

--------------------------------------- Iteration      FINAL  ---------------------------------------

--------------------OUTCAR has been truncated-------------------------

[...]

--------------------OUTCAR has been truncated-------------------------

  DFT-D2 method for vdW energy calculation

  Parameters of vdW forcefield:
         C6(Jnm^6/mol)     R0(A)
   Mg       0.630          1.243
   O        0.700          1.342

  vdW correction parametrized for the method Oôþ      

  IVDW =   1
  VDW_RADIUS =    50.000 A
  VDW_S6 =     1.050
  VDW_SR =     1.000
  VDW_D =    20.000
  LVDW_EWALD = F

  Number of pair interactions contributing to vdW energy:  742606
  Edisp (eV):   -5.30550

 VOLUME and BASIS-vectors are now :
  energy-cutoff  :      600.00
  volume of cell :     1482.11
      direct lattice vectors                 reciprocal lattice vectors
     8.349111827  0.000000000  0.000000000     0.119773219  0.000000000  0.000000000
     0.000000000  8.349111827  0.000000000     0.000000000  0.119773219  0.000000000
     0.000000000  0.000000000 21.261833870     0.000000000  0.000000000  0.047032632

  length of vectors
     8.349111827  8.349111827 21.261833870     0.119773219  0.119773219  0.047032632

 FORCES acting on ions:
    Electron-Ion                     Ewald-Force                    Non-Local-Force
   -.347E-01 0.321E-04 0.212E+04   0.351E-01 0.166E-04 -.212E+04   -.238E-03 -.353E-04 -.644E+01
   -.636E-02 -.351E-01 0.212E+04   0.657E-02 0.360E-01 -.212E+04   -.202E-03 -.622E-03 -.644E+01
   -.208E+00 -.130E+00 0.702E+03   0.212E+00 0.130E+00 -.703E+03   -.294E-02 0.741E-03 0.434E+00
   -.212E-01 -.311E-02 0.702E+03   0.199E-01 0.321E-02 -.703E+03   0.786E-03 -.477E-04 0.424E+00
   -.101E+00 -.399E-02 -.709E+03   0.101E+00 0.440E-02 0.709E+03   -.133E-02 -.242E-03 -.174E+00
   -.707E-01 -.432E+00 -.710E+03   0.761E-01 0.472E+00 0.710E+03   -.377E-02 -.388E-01 -.201E+00
   -.650E+00 -.202E-01 -.211E+04   0.609E+00 -.588E-01 0.210E+04   0.430E-01 0.497E-01 0.537E+01
   0.442E-01 -.251E-01 -.211E+04   -.510E-01 0.291E-01 0.210E+04   0.475E-02 -.255E-02 0.532E+01
   -.529E-01 0.310E-02 0.212E+04   0.540E-01 -.299E-02 -.212E+04   -.792E-03 -.142E-03 -.644E+01
   -.644E-02 0.321E-01 0.212E+04   0.663E-02 -.331E-01 -.212E+04   -.191E-03 0.781E-03 -.644E+01
   -.202E+00 0.128E+00 0.702E+03   0.207E+00 -.127E+00 -.703E+03   -.291E-02 -.775E-03 0.435E+00
   -.482E-01 0.612E-02 0.702E+03   0.522E-01 -.580E-02 -.702E+03   -.263E-02 -.283E-03 0.474E+00
   -.562E+00 0.731E-02 -.708E+03   0.620E+00 -.775E-02 0.709E+03   -.519E-01 0.198E-03 -.253E+00
   -.738E-01 0.424E+00 -.710E+03   0.798E-01 -.463E+00 0.710E+03   -.436E-02 0.382E-01 -.194E+00
   -.608E+00 0.113E-01 -.211E+04   0.564E+00 0.680E-01 0.210E+04   0.446E-01 -.500E-01 0.537E+01
   -.477E+00 0.129E+00 -.211E+04   0.500E+00 -.126E+00 0.211E+04   -.171E-02 -.593E-02 0.550E+01
   0.316E-01 0.744E-04 0.212E+04   -.322E-01 -.312E-04 -.212E+04   0.444E-03 -.409E-04 -.644E+01
   0.931E-02 -.169E-01 0.212E+04   -.945E-02 0.171E-01 -.212E+04   0.809E-04 -.792E-04 -.644E+01
   0.202E+00 -.155E+00 0.702E+03   -.208E+00 0.160E+00 -.703E+03   0.420E-02 -.289E-02 0.440E+00
   0.212E-01 0.331E-02 0.702E+03   -.206E-01 -.317E-02 -.703E+03   -.407E-03 -.996E-04 0.439E+00
   0.938E-01 -.170E-02 -.709E+03   -.950E-01 0.128E-02 0.709E+03   0.232E-02 0.496E-03 -.178E+00
   0.811E-01 0.834E-01 -.708E+03   -.874E-01 -.944E-01 0.709E+03   0.430E-02 0.572E-02 -.163E+00
   0.607E+00 -.487E+00 -.211E+04   -.560E+00 0.447E+00 0.210E+04   -.451E-01 0.332E-01 0.536E+01
   -.250E-01 -.409E-02 -.211E+04   0.287E-01 0.404E-02 0.210E+04   -.373E-02 0.423E-04 0.535E+01
   0.498E-01 0.304E-02 0.212E+04   -.511E-01 -.292E-02 -.212E+04   0.999E-03 -.153E-03 -.644E+01
   0.935E-02 0.139E-01 0.212E+04   -.950E-02 -.141E-01 -.212E+04   0.868E-04 0.237E-03 -.644E+01
   0.196E+00 0.153E+00 0.702E+03   -.203E+00 -.158E+00 -.703E+03   0.430E-02 0.286E-02 0.441E+00
   0.472E-01 0.184E-03 0.703E+03   -.520E-01 0.117E-04 -.703E+03   0.309E-02 -.181E-03 0.411E+00
   0.543E+00 0.279E-02 -.709E+03   -.600E+00 -.266E-02 0.710E+03   0.513E-01 -.263E-03 -.234E+00
   0.860E-01 -.828E-01 -.708E+03   -.929E-01 0.941E-01 0.709E+03   0.478E-02 -.594E-02 -.163E+00
   0.561E+00 0.473E+00 -.211E+04   -.509E+00 -.432E+00 0.210E+04   -.471E-01 -.332E-01 0.536E+01
   0.626E+00 0.503E-02 -.211E+04   -.645E+00 -.501E-02 0.210E+04   -.668E-02 -.791E-04 0.534E+01
   -.803E-01 0.959E-03 0.526E+03   0.838E-01 -.105E-02 -.526E+03   -.438E-02 0.839E-04 -.960E-01
   -.324E-01 -.126E+00 0.526E+03   0.329E-01 0.115E+00 -.526E+03   -.665E-03 0.131E-01 -.103E+00
   -.335E-01 -.192E-01 0.160E+04   0.342E-01 0.193E-01 -.160E+04   -.973E-03 -.139E-03 0.310E+01
   -.320E-02 -.214E-03 0.160E+04   0.301E-02 0.206E-03 -.160E+04   0.164E-03 -.560E-06 0.310E+01
   -.159E+00 -.152E-01 -.160E+04   0.190E+00 0.165E-01 0.161E+04   -.307E-01 -.152E-02 -.471E+01
   -.145E-01 -.858E+00 -.160E+04   0.231E-01 0.826E+00 0.161E+04   -.120E-01 0.713E-01 -.461E+01
   -.295E+00 -.972E-01 -.525E+03   0.298E+00 0.969E-01 0.525E+03   -.233E-02 0.527E-02 0.301E+00
   -.838E-03 -.120E-01 -.525E+03   0.157E-02 0.138E-01 0.525E+03   -.163E-02 -.175E-02 0.299E+00
   -.187E+00 0.218E-02 0.526E+03   0.176E+00 -.258E-02 -.526E+03   0.138E-01 0.420E-03 -.994E-01
   -.327E-01 0.125E+00 0.526E+03   0.333E-01 -.114E+00 -.526E+03   -.691E-03 -.128E-01 -.103E+00
   -.330E-01 0.168E-01 0.160E+04   0.337E-01 -.168E-01 -.160E+04   -.978E-03 0.102E-03 0.310E+01
   -.569E-02 0.263E-02 0.159E+04   0.605E-02 -.274E-02 -.160E+04   -.522E-03 0.636E-04 0.310E+01
   -.838E+00 0.206E-01 -.160E+04   0.827E+00 -.213E-01 0.161E+04   0.393E-01 0.762E-03 -.455E+01
   -.174E-01 0.772E+00 -.160E+04   0.246E-01 -.733E+00 0.161E+04   -.102E-01 -.760E-01 -.461E+01
   -.284E+00 0.945E-01 -.525E+03   0.285E+00 -.940E-01 0.525E+03   -.124E-02 -.544E-02 0.302E+00
   -.148E+00 0.186E-01 -.529E+03   0.153E+00 -.205E-01 0.529E+03   -.743E-02 0.201E-02 0.120E+00
   0.763E-01 0.938E-03 0.526E+03   -.788E-01 -.901E-03 -.526E+03   0.320E-02 -.593E-04 -.935E-01
   0.315E-01 -.160E-01 0.526E+03   -.301E-01 0.197E-01 -.526E+03   -.181E-02 -.483E-02 -.892E-01
   0.311E-01 -.217E-01 0.160E+04   -.317E-01 0.224E-01 -.160E+04   0.838E-03 -.824E-03 0.310E+01
   0.564E-02 0.279E-03 0.160E+04   -.554E-02 -.286E-03 -.160E+04   -.139E-03 -.386E-05 0.310E+01
   0.136E+00 -.891E-02 -.160E+04   -.160E+00 0.104E-01 0.161E+04   0.243E-01 -.180E-02 -.470E+01
   0.742E-01 -.163E-01 -.160E+04   -.960E-01 0.115E-01 0.161E+04   0.264E-01 0.719E-02 -.470E+01
   0.288E+00 -.229E+00 -.525E+03   -.289E+00 0.232E+00 0.525E+03   0.153E-02 0.156E-03 0.294E+00
   -.145E-02 0.259E-02 -.526E+03   0.303E-02 -.233E-02 0.526E+03   -.105E-02 -.285E-03 0.250E+00
   0.183E+00 0.181E-02 0.526E+03   -.171E+00 -.228E-02 -.526E+03   -.152E-01 0.511E-03 -.107E+00
   0.315E-01 0.141E-01 0.526E+03   -.299E-01 -.180E-01 -.526E+03   -.207E-02 0.510E-02 -.892E-01
   0.307E-01 0.193E-01 0.160E+04   -.312E-01 -.198E-01 -.160E+04   0.835E-03 0.784E-03 0.310E+01
   0.811E-02 0.215E-02 0.160E+04   -.856E-02 -.226E-02 -.160E+04   0.541E-03 0.665E-04 0.310E+01
   0.701E+00 0.203E-01 -.160E+04   -.673E+00 -.221E-01 0.161E+04   -.552E-01 0.204E-02 -.460E+01
   0.850E-01 0.149E-01 -.160E+04   -.108E+00 -.982E-02 0.161E+04   0.270E-01 -.746E-02 -.470E+01
   0.275E+00 0.228E+00 -.526E+03   -.276E+00 -.231E+00 0.525E+03   0.641E-03 -.361E-03 0.292E+00
   0.159E+00 -.248E-02 -.525E+03   -.164E+00 0.204E-02 0.524E+03   0.753E-02 0.539E-03 0.318E+00
   0.106E-01 0.152E-01 0.200E+02   0.245E-12 -.391E-12 -.750E-11   -.101E-01 -.140E-01 -.176E+02

 POSITION                                       TOTAL-FORCE (eV/Angst)
      2.08728      0.00000      7.50000         0.000116      0.000011      0.311539
      4.17456      2.08728      7.50000        -0.000003      0.000187      0.311659
      2.08728      2.08728      9.58728         0.001384      0.000052      0.050649
      4.17456      0.00000      9.58728        -0.000409      0.000036      0.054912
      2.08735      0.00003     11.68833        -0.001852      0.000132      0.023167
      4.17443      2.08863     11.68976         0.001125     -0.002154      0.018960
      2.08564      2.08761     13.76306         0.005461     -0.022959      0.127160
      4.17424      8.34910     13.76326        -0.001383      0.001098      0.141571
      2.08728      4.17456      7.50000         0.000248     -0.000044      0.311297
      4.17456      6.26183      7.50000        -0.000003     -0.000151      0.311628
      2.08728      6.26183      9.58728         0.001341      0.000100      0.050631
      4.17456      4.17456      9.58728         0.000988      0.000009      0.056430
      2.08867      4.17459     11.68949         0.000504     -0.000209      0.002771
      4.17443      6.26055     11.68975         0.001160      0.002192      0.018267
      2.08563      6.26164     13.76306         0.004260      0.022809      0.127677
      4.17315      4.17488     13.78008         0.018883     -0.003401      0.002779
      6.26183      0.00000      7.50000        -0.000064     -0.000001      0.311297
      0.00000      2.08728      7.50000        -0.000039      0.000057      0.311165
      6.26183      2.08728      9.58728        -0.001921      0.001507      0.052076
      0.00000      0.00000      9.58728         0.000167      0.000031      0.051505
      6.26158      0.00001     11.68829         0.001264      0.000113      0.024144
      8.34893      2.08742     11.68796        -0.001494     -0.004343      0.020407
      6.26255      2.08688     13.76339        -0.001700     -0.003787      0.131652
      8.34895      0.00005     13.76572        -0.000286     -0.000012      0.118310
      6.26183      4.17456      7.50000        -0.000195     -0.000054      0.311865
      0.00000      6.26183      7.50000        -0.000046     -0.000014      0.311127
      6.26183      6.26183      9.58728        -0.001941     -0.001379      0.052044
      0.00000      4.17456      9.58728        -0.001294     -0.000006      0.052205
      6.26024      4.17460     11.68996        -0.000347     -0.000150      0.015026
      8.34890      6.26174     11.68800        -0.001514      0.004396      0.020418
      6.26246      6.26233     13.76362         0.000164      0.003944      0.130363
      0.00130      4.17461     13.76156        -0.024653     -0.000057      0.139949
      2.08728      0.00000      9.58728        -0.001550      0.000006      0.067152
      4.17456      2.08728      9.58728        -0.000155      0.004057      0.072616
      2.08728      2.08728      7.50000        -0.000335     -0.000057     -0.591011
      4.17456      0.00000      7.50000         0.000001     -0.000011     -0.591081
      2.08665      0.00006     13.81305        -0.004634     -0.000357      0.002428
      4.17426      2.08424     13.81293        -0.005142      0.050951      0.031672
      2.08708      2.08671     11.68241        -0.000200      0.005821      0.001882
      4.17454      8.34910     11.68238        -0.001150     -0.000158      0.002343
      2.08728      4.17456      9.58728         0.004357      0.000069      0.072590
      4.17456      6.26183      9.58728        -0.000173     -0.003896      0.072558
      2.08728      6.26183      7.50000        -0.000328      0.000106     -0.591001
      4.17456      4.17456      7.50000        -0.000239     -0.000040     -0.591414
      2.08464      4.17461     13.80724         0.036121      0.000193      0.066922
      4.17419      6.26487     13.81323        -0.004447     -0.049207      0.030135
      2.08708      6.26246     11.68244         0.000002     -0.005822      0.002037
      4.17469      4.17461     11.68600        -0.003504      0.000309     -0.000911
      6.26183      0.00000      9.58728         0.001272     -0.000033      0.067970
      0.00000      2.08728      9.58728        -0.000636     -0.001849      0.067646
      6.26183      2.08728      7.50000         0.000366     -0.000288     -0.591057
      0.00000      0.00000      7.50000        -0.000048     -0.000014     -0.590840
      6.26196      0.00006     13.81290         0.003281     -0.000608      0.004925
      8.34858      2.08731     13.81253         0.008275      0.003356      0.006118
      6.26173      2.08693     11.68290        -0.000011      0.002968     -0.002981
      8.34894      0.00002     11.68308         0.000429     -0.000069     -0.004469
      6.26183      4.17456      9.58728        -0.004720      0.000100      0.072249
      0.00000      6.26183      9.58728        -0.000714      0.001996      0.067857
      6.26183      6.26183      7.50000         0.000376      0.000348     -0.591060
      0.00000      4.17456      7.50000         0.000174     -0.000044     -0.590956
      6.26397      4.17459     13.81100        -0.036152      0.000557      0.041288
      8.34857      6.26190     13.81260         0.008098     -0.003412      0.005960
      6.26170      6.26224     11.68296        -0.000132     -0.003089     -0.002670
      8.34874      4.17458     11.68134         0.003593      0.000167      0.008452
    total drift:                               -0.000473      0.000099      0.022217

  FREE ENERGIE OF THE ION-ELECTRON SYSTEM (eV)
  free  energy   TOTEN  =      -438.97098345 eV

  energy  without entropy=     -438.97098345  energy(sigma->0) =     -438.97098345