 vasp.6.3.0 20Jan22 (build Apr  1 2022 16:44:48) complex
 executed on        HPECrayEX_GCC date 2023.01.23  22:22:03

 INCAR:
   SYSTEM = MgO-rocksalt
   ISMEAR = 0
   SIGMA = 0.05
   EDIFF = 1E-8
   ALGO = ALL
   ISTART = 0
   IBRION = 5
   POTIM = 0.01
   NFREE = 2
   ISYM = 0
   DIPOL = 0.5 0.5 0.5
   IDIPOL = 3
   LDIPOL = .TRUE.
   GGA = PE
   IVDW = 1
   VDW_C6 = 1.23 0.70 0.63 0.70
   VDW_R0 = 1.397 1.342 1.243 1.342
   ENCUT = 600
   PREC = Accurate
   LASPH = .TRUE.
   LREAL = .FALSE.
   ISPIN = 2
   MAGMOM = 1.0 0.0 0.0 0.0 0.0 0.0 0.0 0.0 0.0 0.0 0.0 0.0 0.0 0.0 0.0 0.0 0.0 0.0 0.0 0.0 0.0 0.0 0.0 0.0 0.0 0.0 0.0 0.0 0.0 0.0 0.0 0.0 0.0 0.0 0.0 0.0 0.0 0.0 0.0 0.0 0.0 0.0 0.0 0.0 0.0 0.0 0.0 0.0 0.0 0.0 0.0 0.0 0.0 0.0 0.0 0.0 0.0 0.0 0.0 0.0 0.0 0.0 0.0 0.0 0.0 0.0
   NELM = 200
   NELMIN = 8
   NCORE = 8
   KPAR = 1
   LWAVE = .FALSE.
   LCHARG = .FALSE.

 POTCAR:    PAW_PBE N 08Apr2002
 POTCAR:    PAW_PBE O 08Apr2002
 POTCAR:    PAW_PBE Mg_pv 13Apr2007
 POTCAR:    PAW_PBE O 08Apr2002
 POTCAR:    PAW_PBE N 08Apr2002
   VRHFIN =N: s2p3

   TITEL  = PAW_PBE N 08Apr2002
   POMASS =   14.001; ZVAL   =    5.000    mass and valenz
   ENMAX  =  400.000; ENMIN  =  300.000 eV

[...]

   TITEL  = PAW_PBE Mg_pv 13Apr2007
   POMASS =   24.305; ZVAL   =    8.000    mass and valenz
   ENMAX  =  403.929; ENMIN  =  302.947 eV

   TITEL  = PAW_PBE O 08Apr2002
   POMASS =   16.000; ZVAL   =    6.000    mass and valenz
   ENMAX  =  400.000; ENMIN  =  300.000 eV

  PAW_PBE N 08Apr2002                   :
  PAW_PBE O 08Apr2002                   :
  PAW_PBE Mg_pv 13Apr2007               :
  PAW_PBE O 08Apr2002                   :

 POSCAR:  N  O Mg  O
  positions in direct lattice
 exchange correlation table for  LEXCH =        8
   RHO(1)=    0.500       N(1)  =     2000
   RHO(2)=  100.500       N(2)  =     4000

 ion  position               nearest neighbor table
   1  0.507  0.508  0.763-   2 1.17
   2  0.438  0.442  0.803-   1 1.17
   3  0.250  0.000  0.351-  35 2.12  37 2.12  38 2.12  45 2.12  54 2.12
   4  0.500  0.250  0.351-  36 2.12  37 2.12  38 2.12  46 2.12  53 2.12
   5  0.250  0.250  0.450-  37 2.12  36 2.12  35 2.12  43 2.12  52 2.12  41 2.12
   6  0.500  0.000  0.450-  38 2.12  36 2.12  35 2.12  44 2.12  51 2.12  42 2.12
   7  0.250  1.000  0.550-  42 2.12  41 2.12  49 2.12  58 2.12  35 2.13  39 2.15
   8  0.500  0.250  0.550-  50 2.11  41 2.12  57 2.12  42 2.12  36 2.13  40 2.14
   9  0.250  0.250  0.648-  41 2.10  56 2.12  39 2.12  47 2.12  40 2.12
  10  0.500  0.000  0.648-  42 2.11  40 2.11  48 2.11  39 2.12  55 2.12
  11  0.250  0.500  0.351-  43 2.12  37 2.12  45 2.12  46 2.12  62 2.12
  12  0.500  0.750  0.351-  44 2.12  38 2.12  45 2.12  46 2.12  61 2.12
  13  0.250  0.750  0.450-  45 2.12  43 2.12  44 2.12  35 2.12  60 2.12  49 2.12
  14  0.500  0.500  0.450-  46 2.12  43 2.12  44 2.12  36 2.12  59 2.12  50 2.13
  15  0.250  0.500  0.550-  50 2.11  41 2.12  49 2.12  66 2.12  43 2.13  47 2.14
  16  0.500  0.750  0.550-  50 2.11  65 2.12  49 2.12  42 2.12  44 2.13  48 2.15
  17  0.250  0.750  0.648-  49 2.10  64 2.11  39 2.12  48 2.12  47 2.12
  18  0.500  0.500  0.650-  40 2.12  63 2.12  48 2.13  47 2.13  50 2.14
  19  0.750  0.000  0.351-  51 2.12  38 2.12  53 2.12  54 2.12  61 2.12
  20  0.000  0.250  0.351-  52 2.12  37 2.12  53 2.12  54 2.12  62 2.12
  21  0.750  0.250  0.450-  53 2.12  51 2.12  52 2.12  36 2.12  59 2.12  57 2.12
  22  0.000  0.000  0.450-  54 2.12  51 2.12  52 2.12  35 2.12  60 2.12  58 2.12
  23  0.750  1.000  0.550-  42 2.12  65 2.12  57 2.12  58 2.12  51 2.13  55 2.15
  24  1.000  0.250  0.550-  66 2.12  41 2.12  57 2.12  58 2.12  52 2.13  56 2.15
  25  0.750  0.250  0.648-  57 2.10  55 2.12  56 2.12  63 2.12  40 2.12
  26  1.000  1.000  0.648-  58 2.11  56 2.12  39 2.12  64 2.12  55 2.12
  27  0.750  0.500  0.351-  59 2.12  53 2.12  46 2.12  61 2.12  62 2.12
  28  0.000  0.750  0.351-  60 2.12  54 2.12  45 2.12  61 2.12  62 2.12
  29  0.750  0.750  0.450-  61 2.12  51 2.12  59 2.12  60 2.12  44 2.12  65 2.12
  30  0.000  0.500  0.450-  62 2.12  52 2.12  59 2.12  60 2.12  43 2.12  66 2.12
  31  0.750  0.500  0.550-  50 2.11  65 2.12  57 2.12  66 2.12  59 2.13  63 2.14
  32  1.000  0.750  0.550-  66 2.12  65 2.12  58 2.12  49 2.12  60 2.13  64 2.15
  33  0.750  0.750  0.649-  65 2.11  64 2.12  55 2.12  63 2.12  48 2.12
  34  1.000  0.500  0.648-  66 2.11  47 2.11  63 2.11  56 2.12  64 2.12
  35  0.250  0.000  0.450-   3 2.12   5 2.12   6 2.12  13 2.12  22 2.12   7 2.13
  36  0.500  0.250  0.450-   4 2.12   5 2.12   6 2.12  14 2.12  21 2.12   8 2.13
  37  0.250  0.250  0.351-   5 2.12   4 2.12   3 2.12  11 2.12  20 2.12
  38  0.500  0.000  0.351-   6 2.12   4 2.12   3 2.12  12 2.12  19 2.12
  39  0.250  1.000  0.651-  17 2.12   9 2.12  26 2.12  10 2.12   7 2.15
  40  0.500  0.249  0.651-  10 2.11  25 2.12   9 2.12  18 2.12   8 2.14
  41  0.250  0.250  0.550-   9 2.10   7 2.12   8 2.12  24 2.12  15 2.12   5 2.12
  42  0.500  1.000  0.550-  10 2.11  23 2.12   7 2.12  16 2.12   6 2.12   8 2.12
  43  0.250  0.500  0.450-  11 2.12   5 2.12  13 2.12  14 2.12  30 2.12  15 2.13
  44  0.500  0.750  0.450-  12 2.12   6 2.12  13 2.12  14 2.12  29 2.12  16 2.13
  45  0.250  0.750  0.351-  13 2.12  11 2.12  12 2.12   3 2.12  28 2.12
  46  0.500  0.500  0.351-  14 2.12  11 2.12  12 2.12   4 2.12  27 2.12
  47  0.249  0.500  0.651-  34 2.11  17 2.12   9 2.12  18 2.13  15 2.14
  48  0.500  0.751  0.651-  10 2.11  17 2.12  33 2.12  18 2.13  16 2.15
  49  0.250  0.750  0.550-  17 2.10   7 2.12  16 2.12  15 2.12  32 2.12  13 2.12
  50  0.500  0.500  0.550-  16 2.11  31 2.11  15 2.11   8 2.11  14 2.13  18 2.14
  51  0.750  0.000  0.450-  19 2.12   6 2.12  21 2.12  22 2.12  29 2.12  23 2.13
  52  0.000  0.250  0.450-  20 2.12   5 2.12  21 2.12  22 2.12  30 2.12  24 2.13
  53  0.750  0.250  0.351-  21 2.12  19 2.12  20 2.12   4 2.12  27 2.12
  54  0.000  0.000  0.351-  22 2.12  19 2.12  20 2.12   3 2.12  28 2.12
  55  0.750  1.000  0.651-  25 2.12  33 2.12  26 2.12  10 2.12  23 2.15
  56  1.000  0.250  0.651-  25 2.12   9 2.12  26 2.12  34 2.12  24 2.15
  57  0.750  0.250  0.550-  25 2.10   8 2.12  24 2.12  31 2.12  23 2.12  21 2.12
  58  1.000  1.000  0.550-  26 2.11  32 2.12  23 2.12  24 2.12   7 2.12  22 2.12
  59  0.750  0.500  0.450-  27 2.12  21 2.12  14 2.12  29 2.12  30 2.12  31 2.13
  60  0.000  0.750  0.450-  28 2.12  22 2.12  13 2.12  29 2.12  30 2.12  32 2.13
  61  0.750  0.750  0.351-  29 2.12  19 2.12  27 2.12  28 2.12  12 2.12
  62  0.000  0.500  0.351-  30 2.12  20 2.12  27 2.12  28 2.12  11 2.12
  63  0.751  0.500  0.651-  34 2.11  25 2.12  33 2.12  18 2.12  31 2.14
  64  1.000  0.750  0.651-  17 2.11  33 2.12  26 2.12  34 2.12  32 2.15
  65  0.750  0.750  0.550-  33 2.11  16 2.12  23 2.12  31 2.12  32 2.12  29 2.12
  66  1.000  0.500  0.550-  34 2.11  32 2.12  24 2.12  31 2.12  30 2.12  15 2.12

IMPORTANT INFORMATION: All symmetrisations will be switched off!
NOSYMM: (Re-)initialisation of all symmetry stuff for point group C_1.

                                     Primitive cell

  volume of cell :    1530.6606

  direct lattice vectors                    reciprocal lattice vectors
     8.467142631  0.000000000  0.000000000     0.118103597  0.000000000  0.000000000
     0.000000000  8.467142631  0.000000000     0.000000000  0.118103597  0.000000000
     0.000000000  0.000000000 21.350356973     0.000000000  0.000000000  0.046837624

  length of vectors
     8.467142631  8.467142631 21.350356973     0.118103597  0.118103597  0.046837624

  position of ions in fractional coordinates (direct lattice)
     0.506728250  0.507766947  0.763077687
     0.437910601  0.441780684  0.802812510
     0.250000000  0.000000000  0.351282183
     0.500000000  0.250000000  0.351282183
     0.250000000  0.250000000  0.450427394
     0.500000000  0.000000000  0.450427394
     0.249976214  0.999998779  0.550091834
     0.499938950  0.250347911  0.550241517
     0.249704015  0.249765954  0.648371138
     0.499857512  0.000017737  0.648395919
     0.250000000  0.500000000  0.351282183
     0.500000000  0.750000000  0.351282183
     0.250000000  0.750000000  0.450427394
     0.500000000  0.500000000  0.450427394
     0.250322239  0.499961507  0.550240847
     0.499921014  0.749548371  0.550184579
     0.249521795  0.750197785  0.648225983
     0.499920471  0.499915240  0.650202683
     0.750000000  0.000000000  0.351282183
     0.000000000  0.250000000  0.351282183
     0.750000000  0.250000000  0.450427394
     0.000000000  0.000000000  0.450427394
     0.749867328  0.999859997  0.550109492
     0.999977636  0.249995321  0.550083704
     0.750185436  0.249596253  0.648224002
     0.999897469  0.999940362  0.648404608
     0.750000000  0.500000000  0.351282183
     0.000000000  0.750000000  0.351282183
     0.750000000  0.750000000  0.450427394
     0.000000000  0.500000000  0.450427394
     0.749534291  0.499944639  0.550184431
     0.999839056  0.749899115  0.550103348
     0.750073454  0.750070711  0.648543886
     0.999954973  0.499887405  0.648362911
     0.250000000  0.000000000  0.450427394
     0.500000000  0.250000000  0.450427394
     0.250000000  0.250000000  0.351282183
     0.500000000  0.000000000  0.351282183
     0.249708747  0.999960999  0.650673531
     0.500031132  0.248990721  0.650674766
     0.249963471  0.249969533  0.549796419
     0.499937159  0.999904646  0.549749564
     0.250000000  0.500000000  0.450427394
     0.500000000  0.750000000  0.450427394
     0.250000000  0.750000000  0.351282183
     0.500000000  0.500000000  0.351282183
     0.248933240  0.500064769  0.650644678
     0.499632931  0.750896471  0.650668185
     0.249907650  0.749994250  0.549757194
     0.499953872  0.499981392  0.550129229
     0.750000000  0.000000000  0.450427394
     0.000000000  0.250000000  0.450427394
     0.750000000  0.250000000  0.351282183
     0.000000000  0.000000000  0.351282183
     0.750042487  0.999878240  0.650701227
     0.999930052  0.249736988  0.650662818
     0.749951822  0.249904086  0.549753331
     0.999917851  0.999937115  0.549749600
     0.750000000  0.500000000  0.450427394
     0.000000000  0.750000000  0.450427394
     0.750000000  0.750000000  0.351282183
     0.000000000  0.500000000  0.351282183
     0.750884779  0.499673509  0.650611001
     0.999851430  0.750088950  0.650695853
     0.749849252  0.749902206  0.549853193
     0.999901973  0.499959683  0.549733541

  ion indices of the primitive-cell ions
   primitive index   ion index
                 1           1
                 2           2
                 3           3
                 4           4
                 5           5
                 6           6
                 7           7
                 8           8
                 9           9
                10          10
                11          11
                12          12
                13          13
                14          14
                15          15
                16          16
                17          17
                18          18
                19          19
                20          20
                21          21
                22          22
[...]
      8.46645      8.46661     11.73735         0.000229      0.000136     -0.000104
      6.35036      4.23357      9.61679        -0.008142      0.000617      0.057673
      0.00000      6.35036      9.61679        -0.004278      0.000487      0.053386
      6.35036      6.35036      7.50000         0.000190      0.000147     -0.475812
      0.00000      4.23357      7.50000        -0.000336      0.000069     -0.476023
      6.35785      4.23081     13.89078         0.003868     -0.001306      0.001622
      8.46588      6.35111     13.89259         0.000922      0.000204      0.003651
      6.34908      6.34953     11.73956         0.001540      0.000190      0.000564
      8.46631      4.23323     11.73701        -0.000014      0.000045      0.001860
    total drift:                               -0.001860     -0.001641      0.017000

  FREE ENERGIE OF THE ION-ELECTRON SYSTEM (eV)
  free  energy   TOTEN  =      -388.17834805 eV

  energy  without entropy=     -388.17834805  energy(sigma->0) =     -388.17834805

 d Force =-0.2287258E-03[-0.104E-01, 0.989E-02]  d Energy =-0.9039258E-04-0.138E-03
 d Force =-0.3142713E+02[-0.315E+02,-0.313E+02]  d Ewald  =-0.3142726E+02 0.124E-03

 Finite differences progress:
  Degree of freedom:   6/  6
  Displacement:        2/  2
  Total:              12/ 12

 SECOND DERIVATIVES (NOT SYMMETRIZED)
               1X          1Y          1Z          2X          2Y          2Z
  1X   -24.259519  -22.678383   34.101080   23.992570   22.796172  -34.317843
  1Y   -22.667462  -22.309027   32.695924   22.797407   22.069102  -32.899807
  1Z    34.114579   32.718390  -50.387796  -34.298976  -32.885009   49.923132
  2X    23.984272   22.808467  -34.275309  -23.944527  -22.882993   34.523040
  2Y    22.802997   22.066060  -32.870254  -22.881114  -21.982758   33.104348
  2Z   -34.342196  -32.917171   49.907592   34.532433   33.107397  -50.617448

 Eigenvectors and eigenvalues of the dynamical matrix

   1 f  =   55.942057 THz   351.494309 2PiTHz 1866.026155 cm-1   231.357653 meV
             X         Y         Z           dx          dy          dz
      4.290540  4.299335 16.291981    -0.363854   -0.348779    0.526991
      3.707852  3.740620 17.140334     0.341118    0.327008   -0.494922
      2.116786  0.000000  7.500000            0           0           0
      4.233571  2.116786  7.500000            0           0           0
      2.116786  2.116786  9.616786            0           0           0
      4.233571  0.000000  9.616786            0           0           0
      2.116584  8.467132 11.744657            0           0           0
      4.233054  2.119731 11.747853            0           0           0
      2.114280  2.114804 13.842955            0           0           0
      4.232365  0.000150 13.843484            0           0           0
      2.116786  4.233571  7.500000            0           0           0
      4.233571  6.350357  7.500000            0           0           0
      2.116786  6.350357  9.616786            0           0           0
      4.233571  4.233571  9.616786            0           0           0
      2.119514  4.233245 11.747838            0           0           0
      4.232903  6.346533 11.746637            0           0           0
      2.112737  6.352032 13.839856            0           0           0
      4.232898  4.232854 13.882059            0           0           0
      6.350357  0.000000  7.500000            0           0           0
      0.000000  2.116786  7.500000            0           0           0
      6.350357  2.116786  9.616786            0           0           0
      0.000000  0.000000  9.616786            0           0           0
      6.349234  8.465957 11.745034            0           0           0
      8.466953  2.116746 11.744483            0           0           0
      6.351927  2.113367 13.839814            0           0           0
      8.466274  8.466638 13.843670            0           0           0
      6.350357  4.233571  7.500000            0           0           0
      0.000000  6.350357  7.500000            0           0           0
      6.350357  6.350357  9.616786            0           0           0
      0.000000  4.233571  9.616786            0           0           0
      6.346414  4.233103 11.746634            0           0           0
      8.465780  6.349503 11.744903            0           0           0
      6.350979  6.350956 13.846643            0           0           0
      8.466761  4.232618 13.842780            0           0           0
      2.116786  0.000000  9.616786            0           0           0
      4.233571  2.116786  9.616786            0           0           0
      2.116786  2.116786  7.500000            0           0           0
      4.233571  0.000000  7.500000            0           0           0
      2.114320  8.466812 13.892112            0           0           0
      4.233835  2.108240 13.892139            0           0           0
      2.116476  2.116528 11.738350            0           0           0
      4.233039  8.466335 11.737349            0           0           0
      2.116786  4.233571  9.616786            0           0           0
      4.233571  6.350357  9.616786            0           0           0
      2.116786  6.350357  7.500000            0           0           0
      4.233571  4.233571  7.500000            0           0           0
      2.107753  4.234120 13.891496            0           0           0
      4.230463  6.357948 13.891998            0           0           0
      2.116004  6.350308 11.737512            0           0           0
      4.233181  4.233414 11.745455            0           0           0
      6.350357  0.000000  9.616786            0           0           0
      0.000000  2.116786  9.616786            0           0           0
      6.350357  2.116786  7.500000            0           0           0
      0.000000  0.000000  7.500000            0           0           0
      6.350717  8.466112 13.892703            0           0           0
      8.466550  2.114559 13.891883            0           0           0
      6.349949  2.115974 11.737430            0           0           0
      8.466447  8.466610 11.737350            0           0           0
      6.350357  4.233571  9.616786            0           0           0
      0.000000  6.350357  9.616786            0           0           0
      6.350357  6.350357  7.500000            0           0           0
      0.000000  4.233571  7.500000            0           0           0
      6.357849  4.230807 13.890777            0           0           0
      8.465885  6.351110 13.892589            0           0           0
      6.349081  6.349529 11.739562            0           0           0
      8.466313  4.233230 11.737007            0           0           0

[...]

   5 f  =    0.591301 THz     3.715251 2PiTHz   19.723666 cm-1     2.445422 meV
             X         Y         Z           dx          dy          dz
      4.290540  4.299335 16.291981    -0.428915   -0.231427    0.048212
      3.707852  3.740620 17.140334    -0.834000   -0.188985   -0.169936
      2.116786  0.000000  7.500000            0           0           0
      4.233571  2.116786  7.500000            0           0           0
      2.116786  2.116786  9.616786            0           0           0
      4.233571  0.000000  9.616786            0           0           0
      2.116584  8.467132 11.744657            0           0           0
      4.233054  2.119731 11.747853            0           0           0
      2.114280  2.114804 13.842955            0           0           0
      4.232365  0.000150 13.843484            0           0           0
      2.116786  4.233571  7.500000            0           0           0
      4.233571  6.350357  7.500000            0           0           0
      2.116786  6.350357  9.616786            0           0           0
      4.233571  4.233571  9.616786            0           0           0
      2.119514  4.233245 11.747838            0           0           0
      4.232903  6.346533 11.746637            0           0           0
      2.112737  6.352032 13.839856            0           0           0
      4.232898  4.232854 13.882059            0           0           0
      6.350357  0.000000  7.500000            0           0           0
      0.000000  2.116786  7.500000            0           0           0
      6.350357  2.116786  9.616786            0           0           0
      0.000000  0.000000  9.616786            0           0           0
      6.349234  8.465957 11.745034            0           0           0
      8.466953  2.116746 11.744483            0           0           0
      6.351927  2.113367 13.839814            0           0           0
      8.466274  8.466638 13.843670            0           0           0
      6.350357  4.233571  7.500000            0           0           0
      0.000000  6.350357  7.500000            0           0           0
      6.350357  6.350357  9.616786            0           0           0
      0.000000  4.233571  9.616786            0           0           0
      6.346414  4.233103 11.746634            0           0           0
      8.465780  6.349503 11.744903            0           0           0
      6.350979  6.350956 13.846643            0           0           0
      8.466761  4.232618 13.842780            0           0           0
      2.116786  0.000000  9.616786            0           0           0
      4.233571  2.116786  9.616786            0           0           0
      2.116786  2.116786  7.500000            0           0           0
      4.233571  0.000000  7.500000            0           0           0
      2.114320  8.466812 13.892112            0           0           0
      4.233835  2.108240 13.892139            0           0           0
      2.116476  2.116528 11.738350            0           0           0
      4.233039  8.466335 11.737349            0           0           0
      2.116786  4.233571  9.616786            0           0           0
      4.233571  6.350357  9.616786            0           0           0
      2.116786  6.350357  7.500000            0           0           0
      4.233571  4.233571  7.500000            0           0           0
      2.107753  4.234120 13.891496            0           0           0
      4.230463  6.357948 13.891998            0           0           0
      2.116004  6.350308 11.737512            0           0           0
      4.233181  4.233414 11.745455            0           0           0
      6.350357  0.000000  9.616786            0           0           0
      0.000000  2.116786  9.616786            0           0           0
      6.350357  2.116786  7.500000            0           0           0
      0.000000  0.000000  7.500000            0           0           0
      6.350717  8.466112 13.892703            0           0           0
      8.466550  2.114559 13.891883            0           0           0
      6.349949  2.115974 11.737430            0           0           0
      8.466447  8.466610 11.737350            0           0           0
      6.350357  4.233571  9.616786            0           0           0
      0.000000  6.350357  9.616786            0           0           0
      6.350357  6.350357  7.500000            0           0           0
      0.000000  4.233571  7.500000            0           0           0
      6.357849  4.230807 13.890777            0           0           0
      8.465885  6.351110 13.892589            0           0           0
      6.349081  6.349529 11.739562            0           0           0
      8.466313  4.233230 11.737007            0           0           0

   6 f/i=    0.545835 THz     3.429580 2PiTHz   18.207083 cm-1     2.257390 meV
             X         Y         Z           dx          dy          dz
      4.290540  4.299335 16.291981     0.018480   -0.367035    0.027097
      3.707852  3.740620 17.140334     0.309620   -0.872038   -0.088854
      2.116786  0.000000  7.500000            0           0           0
      4.233571  2.116786  7.500000            0           0           0
      2.116786  2.116786  9.616786            0           0           0
      4.233571  0.000000  9.616786            0           0           0
      2.116584  8.467132 11.744657            0           0           0
      4.233054  2.119731 11.747853            0           0           0
      2.114280  2.114804 13.842955            0           0           0
      4.232365  0.000150 13.843484            0           0           0
      2.116786  4.233571  7.500000            0           0           0
      4.233571  6.350357  7.500000            0           0           0
      2.116786  6.350357  9.616786            0           0           0
      4.233571  4.233571  9.616786            0           0           0
      2.119514  4.233245 11.747838            0           0           0
      4.232903  6.346533 11.746637            0           0           0
      2.112737  6.352032 13.839856            0           0           0
      4.232898  4.232854 13.882059            0           0           0
      6.350357  0.000000  7.500000            0           0           0
      0.000000  2.116786  7.500000            0           0           0
      6.350357  2.116786  9.616786            0           0           0
      0.000000  0.000000  9.616786            0           0           0
      6.349234  8.465957 11.745034            0           0           0
      8.466953  2.116746 11.744483            0           0           0
      6.351927  2.113367 13.839814            0           0           0
      8.466274  8.466638 13.843670            0           0           0
      6.350357  4.233571  7.500000            0           0           0
      0.000000  6.350357  7.500000            0           0           0
      6.350357  6.350357  9.616786            0           0           0
      0.000000  4.233571  9.616786            0           0           0
      6.346414  4.233103 11.746634            0           0           0
      8.465780  6.349503 11.744903            0           0           0
      6.350979  6.350956 13.846643            0           0           0
      8.466761  4.232618 13.842780            0           0           0
      2.116786  0.000000  9.616786            0           0           0
      4.233571  2.116786  9.616786            0           0           0
      2.116786  2.116786  7.500000            0           0           0
      4.233571  0.000000  7.500000            0           0           0
      2.114320  8.466812 13.892112            0           0           0
      4.233835  2.108240 13.892139            0           0           0
      2.116476  2.116528 11.738350            0           0           0
      4.233039  8.466335 11.737349            0           0           0
      2.116786  4.233571  9.616786            0           0           0
      4.233571  6.350357  9.616786            0           0           0
      2.116786  6.350357  7.500000            0           0           0
      4.233571  4.233571  7.500000            0           0           0
      2.107753  4.234120 13.891496            0           0           0
      4.230463  6.357948 13.891998            0           0           0
      2.116004  6.350308 11.737512            0           0           0
      4.233181  4.233414 11.745455            0           0           0
      6.350357  0.000000  9.616786            0           0           0
      0.000000  2.116786  9.616786            0           0           0
      6.350357  2.116786  7.500000            0           0           0
      0.000000  0.000000  7.500000            0           0           0
      6.350717  8.466112 13.892703            0           0           0
      8.466550  2.114559 13.891883            0           0           0
      6.349949  2.115974 11.737430            0           0           0
      8.466447  8.466610 11.737350            0           0           0
      6.350357  4.233571  9.616786            0           0           0
      0.000000  6.350357  9.616786            0           0           0
      6.350357  6.350357  7.500000            0           0           0
      0.000000  4.233571  7.500000            0           0           0
      6.357849  4.230807 13.890777            0           0           0
      8.465885  6.351110 13.892589            0           0           0
      6.349081  6.349529 11.739562            0           0           0
      8.466313  4.233230 11.737007            0           0           0

 Finite differences POTIM=   1.0000000000000000E-002