 vasp.6.4.2 20Jul23 (build Feb 22 2024 13:53:45) complex
 executed on              LinuxNV date 2024.08.27  15:16:25
 OpenACC runtime initialized ...    4 GPUs detected

 INCAR:
   SYSTEM = Oxide-Surface
   ISMEAR = 0
   SIGMA = 0.05
   EDIFF = 1E-5
   ALGO = Normal
   IBRION = -1
   NSW = 0
   ISYM = 0
   DIPOL = 0.5 0.5 0.5
   IDIPOL = 3
   LDIPOL = .TRUE.
   ISTART = 1
   GGA = PE
   IVDW = 263
   ENCUT = 1000
   PREC = Normal
   PRECFOCK = Normal
   LASPH = .TRUE.
   LREAL = Auto
   ISPIN = 1
   NELM = 200
   NELMIN = 8
   NCORE = 1
   KPAR = 1
   LWAVE = .FALSE.
   LCHARG = .FALSE.

 POTCAR:    PAW_PBE C_h 06Feb2004
 POTCAR:    PAW_PBE O_h 06Feb2004
 POTCAR:    PAW_PBE Mg_sv 12Apr2007
 POTCAR:    PAW_PBE O_h 06Feb2004
 POTCAR:    PAW_PBE C_h 06Feb2004
   VRHFIN =C: s2p2

   TITEL  = PAW_PBE C_h 06Feb2004
   POMASS =   12.011; ZVAL   =    4.000    mass and valenz
   ENMAX  =  700.000; ENMIN  =  500.000 eV

[...]

   TITEL  = PAW_PBE Mg_sv 12Apr2007
   POMASS =   24.305; ZVAL   =   10.000    mass and valenz
   ENMAX  =  495.223; ENMIN  =  371.417 eV

   TITEL  = PAW_PBE O_h 06Feb2004
   POMASS =   16.000; ZVAL   =    6.000    mass and valenz
   ENMAX  =  700.000; ENMIN  =  500.000 eV

 Optimization of the real space projectors (new method)

 maximal supplied QI-value         = 34.20
 optimisation between [QCUT,QGAM] = [ 16.08, 32.15] = [ 72.37,289.48] Ry
 Optimized for a Real-space Cutoff    0.71 Angstroem

   l    n(q)    QCUT    max X(q) W(low)/X(q) W(high)/X(q)  e(spline)
   0      7    16.076   134.812    0.49E-03    0.92E-03    0.59E-07
   0      7    16.076    80.524    0.48E-03    0.91E-03    0.58E-07
   1      6    16.076    79.026    0.37E-03    0.58E-03    0.12E-06
   1      6    16.076    45.188    0.36E-03    0.56E-03    0.12E-06
 Optimization of the real space projectors (new method)

[...]

   l    n(q)    QCUT    max X(q) W(low)/X(q) W(high)/X(q)  e(spline)
   0      9    16.140     8.730    0.14E-04    0.12E-04    0.27E-07
   0      9    16.140     8.910    0.19E-04    0.17E-04    0.41E-07
   1      9    16.140     2.513    0.16E-04    0.28E-04    0.54E-07
   1      9    16.140     3.341    0.27E-04    0.13E-03    0.17E-06
   2      9    16.140     3.683    0.18E-03    0.21E-03    0.81E-07
 Optimization of the real space projectors (new method)

 maximal supplied QI-value         = 34.20
 optimisation between [QCUT,QGAM] = [ 16.08, 32.15] = [ 72.37,289.48] Ry
 Optimized for a Real-space Cutoff    0.71 Angstroem

   l    n(q)    QCUT    max X(q) W(low)/X(q) W(high)/X(q)  e(spline)
   0      7    16.076   280.207    0.42E-03    0.69E-03    0.60E-07
   0      7    16.076   228.978    0.42E-03    0.69E-03    0.61E-07
   1      6    16.076    86.127    0.11E-03    0.66E-03    0.10E-06
   1      6    16.076    65.368    0.11E-03    0.65E-03    0.10E-06
  PAW_PBE C_h 06Feb2004                 :
  PAW_PBE O_h 06Feb2004                 :
  PAW_PBE Mg_sv 12Apr2007               :
  PAW_PBE O_h 06Feb2004                 :

 POSCAR:  C  O Mg  O
  positions in direct lattice
 exchange correlation table for  LEXCH =        8
   RHO(1)=    0.500       N(1)  =     2000
   RHO(2)=  100.500       N(2)  =     4000

 ion  position               nearest neighbor table
   1  0.624  0.624  0.726-   2 1.15
   2  0.624  0.624  0.793-   1 1.15
   3  0.124  0.874  0.207-
   4  0.374  0.124  0.207-
   5  0.124  0.124  0.331-
   6  0.374  0.874  0.331-
   7  0.124  0.874  0.456-
   8  0.374  0.124  0.456-
   9  0.124  0.124  0.580-
  10  0.374  0.875  0.579-
  11  0.124  0.374  0.207-
  12  0.374  0.624  0.207-
  13  0.124  0.624  0.331-
  14  0.374  0.374  0.331-
  15  0.124  0.374  0.456-
  16  0.375  0.624  0.456-
  17  0.124  0.624  0.580-
  18  0.374  0.374  0.579-
  19  0.624  0.874  0.207-
  20  0.874  0.124  0.207-
  21  0.624  0.124  0.331-
  22  0.874  0.874  0.331-
  23  0.624  0.874  0.456-
  24  0.874  0.124  0.456-
  25  0.624  0.124  0.580-
  26  0.875  0.875  0.579-
  27  0.624  0.374  0.207-
  28  0.874  0.624  0.207-
  29  0.624  0.624  0.331-
  30  0.874  0.374  0.331-
  31  0.624  0.375  0.456-
  32  0.874  0.624  0.456-
  33  0.624  0.624  0.582-
  34  0.875  0.374  0.579-
  35  0.124  0.874  0.331-
  36  0.374  0.124  0.331-
  37  0.124  0.124  0.207-
  38  0.374  0.874  0.207-
  39  0.124  0.875  0.583-
  40  0.374  0.124  0.583-
  41  0.124  0.124  0.456-
  42  0.374  0.874  0.456-
  43  0.124  0.374  0.331-
  44  0.374  0.624  0.331-
  45  0.124  0.624  0.207-
  46  0.374  0.374  0.207-
  47  0.124  0.374  0.583-
  48  0.373  0.624  0.582-
  49  0.124  0.624  0.456-
  50  0.374  0.374  0.456-
  51  0.624  0.874  0.331-
  52  0.874  0.124  0.331-
  53  0.624  0.124  0.207-
  54  0.874  0.874  0.207-
  55  0.624  0.876  0.582-
  56  0.875  0.124  0.583-
  57  0.624  0.124  0.456-
  58  0.874  0.874  0.456-
  59  0.624  0.374  0.331-
  60  0.874  0.624  0.331-
  61  0.624  0.624  0.207-
  62  0.874  0.374  0.207-
  63  0.624  0.373  0.582-
  64  0.876  0.624  0.582-
  65  0.624  0.624  0.456-
  66  0.874  0.374  0.456-

IMPORTANT INFORMATION: All symmetrisations will be switched off!
NOSYMM: (Re-)initialisation of all symmetry stuff for point group C_1.

                                     Primitive cell

  volume of cell :    1211.2538

  direct lattice vectors                    reciprocal lattice vectors
     8.440984654  0.000000000  0.000000000     0.118469591  0.000000000  0.000000000
     0.000000000  8.440984654  0.000000000     0.000000000  0.118469591  0.000000000
     0.000000000  0.000000000 17.000000000     0.000000000  0.000000000  0.058823529

  length of vectors
     8.440984654  8.440984654 17.000000000     0.118469591  0.118469591  0.058823529

  position of ions in fractional coordinates (direct lattice)
     0.624411355  0.624411355  0.725657141
     0.624411355  0.624411355  0.793117130
     0.124411355  0.874411355  0.206882870
     0.374411355  0.124411355  0.206882870
     0.124411355  0.124411355  0.331014998
     0.374411355  0.874411355  0.331014998
     0.124411355  0.874350623  0.455922972
     0.374472087  0.124411355  0.455922972
     0.124411355  0.124411355  0.579719137
     0.374269682  0.874553028  0.579498600
     0.124411355  0.374411355  0.206882870
     0.374411355  0.624411355  0.206882870
     0.124411355  0.624411355  0.331014998
     0.374411355  0.374411355  0.331014998
     0.124411355  0.374472087  0.455922972
     0.374789734  0.624411355  0.456093975
     0.124411355  0.624411355  0.579555984
     0.374269682  0.374269682  0.579498600
     0.624411355  0.874411355  0.206882870
     0.874411355  0.124411355  0.206882870
     0.624411355  0.124411355  0.331014998
     0.874411355  0.874411355  0.331014998
     0.624411355  0.874032976  0.456093975
     0.874350623  0.124411355  0.455922972
     0.624411355  0.124411355  0.579555984
     0.874553028  0.874553028  0.579498600
     0.624411355  0.374411355  0.206882870
     0.874411355  0.624411355  0.206882870
     0.624411355  0.624411355  0.331014998
     0.874411355  0.374411355  0.331014998
     0.624411355  0.374789734  0.456093975
     0.874032976  0.624411355  0.456093975
     0.624411355  0.624411355  0.582067590
     0.874553028  0.374269682  0.579498600
     0.124411355  0.874411355  0.331014998
     0.374411355  0.124411355  0.331014998
     0.124411355  0.124411355  0.206882870
     0.374411355  0.874411355  0.206882870
     0.124411355  0.874629888  0.582522179
     0.374192822  0.124411355  0.582522179
     0.124411355  0.124411355  0.455579988
     0.374357125  0.874465584  0.455641750
     0.124411355  0.374411355  0.331014998
     0.374411355  0.624411355  0.331014998
     0.124411355  0.624411355  0.206882870
     0.374411355  0.374411355  0.206882870
     0.124411355  0.374192822  0.582522179
     0.373234064  0.624411355  0.582401242
     0.124411355  0.624411355  0.455520732
     0.374357125  0.374357125  0.455641750
     0.624411355  0.874411355  0.331014998
     0.874411355  0.124411355  0.331014998
     0.624411355  0.124411355  0.206882870
     0.874411355  0.874411355  0.206882870
     0.624411355  0.875588645  0.582401242
     0.874629888  0.124411355  0.582522179
     0.624411355  0.124411355  0.455520732
     0.874465584  0.874465584  0.455641750
     0.624411355  0.374411355  0.331014998
     0.874411355  0.624411355  0.331014998
     0.624411355  0.624411355  0.206882870
     0.874411355  0.374411355  0.206882870
     0.624411355  0.373234064  0.582401242
     0.875588645  0.624411355  0.582401242
     0.624411355  0.624411355  0.456108822
     0.874465584  0.374357125  0.455641750

  ion indices of the primitive-cell ions
   primitive index   ion index
                 1           1
                 2           2
                 3           3
                 4           4
                 5           5
                 6           6
                 7           7
                 8           8
                 9           9
                10          10
                11          11
                12          12
                13          13
                14          14
                15          15
                16          16
                17          17
                18          18
                19          19
                20          20
                21          21
                22          22
                23          23
                24          24
                25          25
                26          26
                27          27
                28          28
                29          29
                30          30
                31          31
                32          32
                33          33
                34          34
                35          35
                36          36
                37          37
                38          38
                39          39
                40          40
                41          41
                42          42
                43          43
                44          44
                45          45
                46          46
                47          47
                48          48
                49          49
                50          50
                51          51
                52          52
                53          53
                54          54
                55          55
                56          56
                57          57
                58          58
                59          59
                60          60
                61          61
                62          62
                63          63
                64          64
                65          65
                66          66

 KPOINTS: pymatgen v2020.8.13 with grid density =

Automatic generation of k-mesh.
 Grid dimensions read from file:
 generate k-points for:    2    2    1

 Generating k-lattice:

  Cartesian coordinates                     Fractional coordinates (reciprocal lattice)
     0.059234796  0.000000000  0.000000000     0.500000000  0.000000000  0.000000000
     0.000000000  0.059234796  0.000000000     0.000000000  0.500000000  0.000000000
[...]
   O          20.784          3.284          5.653          2.420          2.262          1.053
   O          20.974          3.288          5.676          2.267          1.861          1.057

  vdW correction parametrized for the method pbe

  IVDW = 263
  VDW_RADIUS =    50.000 A
  VDW_SR =     0.830
  VDW_D =     6.000
  SCSRAD =   120.000 A
  LVDWSCS = T
  LSCSGRAD = T
  LSCALER0 = T
  ITIM =  1
  Edisp (eV):  -17.72983

  FORCE on cell =-STRESS in cart. coord.  units (eV):
  Direction    XX          YY          ZZ          XY          YZ          ZX
  Alpha Z  1227.42868  1227.42868  1227.42868
  Ewald  107190.75749107190.75749************    -0.00000    -0.00000    -0.00000
  Hartree124157.13601124157.13602************    -0.00016     0.00016     0.00016
  E(xc)   -3269.77138 -3269.77138 -3274.84373     0.00003     0.00001     0.00001
  Local  ************************240383.38626     0.00027    -0.00050    -0.00050
  n-local -5621.93152 -5621.93152 -5626.29586    -0.02543     0.01571     0.01571
  augment   724.65749   724.65749   715.55724     0.00258    -0.00032    -0.00031
  Kinetic 12740.18030 12740.18029 12737.54668    -0.00333     0.00093     0.00093
  Fock        0.00000     0.00000     0.00000     0.00000     0.00000     0.00000
  vdW       -23.03718   -23.03718   -16.29132     0.00023     0.00001     0.00001
  Total     -38.05475   -38.05475    -9.82148    -0.02581     0.01600     0.01601
  in kB     -50.33665   -50.33666   -12.99130    -0.03414     0.02117     0.02117

 VOLUME and BASIS-vectors are now :
  energy-cutoff  :     1000.00
  volume of cell :     1211.25
      direct lattice vectors                 reciprocal lattice vectors
     8.440984654  0.000000000  0.000000000     0.118469591  0.000000000  0.000000000
     0.000000000  8.440984654  0.000000000     0.000000000  0.118469591  0.000000000
     0.000000000  0.000000000 17.000000000     0.000000000  0.000000000  0.058823529

  length of vectors
     8.440984654  8.440984654 17.000000000     0.118469591  0.118469591  0.058823529

 FORCES acting on ions
    electron-ion (+dipol)            ewald-force                    non-local-force                 convergence-correction
   0.936E-03 0.936E-03 -.641E+03   0.167E-13 0.355E-14 0.616E+03   0.388E-01 0.388E-01 0.259E+02   -.129E-06 -.190E-06 -.893E-04
   0.718E-03 0.718E-03 -.999E+03   0.155E-14 0.866E-14 0.105E+04   -.380E-03 -.380E-03 -.526E+02   -.265E-06 -.305E-06 -.648E-05
   -.181E-03 -.993E+00 0.244E+04   -.178E-13 0.993E+00 -.243E+04   0.419E-02 -.278E-02 -.915E+01   0.782E-07 -.745E-05 -.432E-04
   0.995E+00 -.183E-03 0.244E+04   -.993E+00 -.213E-13 -.243E+04   -.391E-02 0.419E-02 -.915E+01   0.615E-05 0.948E-06 -.429E-04
   -.967E-03 -.969E-03 0.827E+03   -.355E-14 0.746E-13 -.827E+03   -.100E-02 -.100E-02 0.657E+00   -.193E-06 0.788E-06 -.129E-03
   0.734E+00 -.733E+00 0.828E+03   -.728E+00 0.728E+00 -.828E+03   -.513E-02 0.247E-02 0.688E+00   -.551E-06 0.350E-06 -.151E-03
   -.288E-03 -.352E+01 -.777E+03   0.107E-13 0.351E+01 0.777E+03   0.198E-02 0.150E-01 -.253E+00   -.756E-06 -.299E-05 -.194E-03
   0.352E+01 -.290E-03 -.777E+03   -.351E+01 0.817E-13 0.777E+03   -.230E-01 0.214E-02 -.254E+00   -.235E-05 0.455E-05 -.193E-03
   -.141E-03 -.141E-03 -.238E+04   0.426E-13 0.000E+00 0.238E+04   0.579E-03 0.579E-03 0.774E+01   0.834E-06 0.585E-06 -.186E-03
   0.226E+02 -.226E+02 -.236E+04   -.227E+02 0.227E+02 0.235E+04   0.115E+00 -.126E+00 0.785E+01   0.233E-04 -.238E-04 -.154E-03
   -.184E-03 0.995E+00 0.244E+04   0.302E-13 -.993E+00 -.243E+04   0.419E-02 -.391E-02 -.915E+01   0.149E-05 0.713E-05 -.413E-04
   0.131E+01 -.180E-03 0.244E+04   -.130E+01 0.222E-13 -.243E+04   -.816E-02 0.419E-02 -.915E+01   0.879E-07 -.398E-06 -.538E-04
   -.967E-03 -.963E-03 0.828E+03   -.107E-12 0.000E+00 -.828E+03   -.100E-02 -.100E-02 0.612E+00   -.436E-05 -.135E-05 -.153E-03
   0.734E+00 0.734E+00 0.828E+03   -.728E+00 -.728E+00 -.828E+03   -.513E-02 -.513E-02 0.688E+00   0.955E-06 -.303E-06 -.145E-03
   -.286E-03 0.352E+01 -.777E+03   0.853E-13 -.351E+01 0.777E+03   0.214E-02 -.230E-01 -.254E+00   0.227E-05 0.294E-05 -.194E-03
   0.486E+01 -.255E-03 -.768E+03   -.476E+01 -.497E-13 0.769E+03   -.106E+00 0.120E-02 -.379E+00   0.157E-05 -.589E-05 -.200E-03
   -.546E-04 -.181E-03 -.237E+04   -.142E-13 -.426E-13 0.236E+04   0.114E-02 0.125E-02 0.775E+01   -.474E-06 -.543E-06 -.171E-03
   0.226E+02 0.226E+02 -.236E+04   -.227E+02 -.227E+02 0.235E+04   0.115E+00 0.115E+00 0.785E+01   0.231E-04 0.232E-04 -.163E-03
   -.181E-03 -.131E+01 0.244E+04   -.168E-12 0.130E+01 -.243E+04   0.419E-02 0.148E-02 -.915E+01   0.376E-06 -.187E-05 -.539E-04
   -.994E+00 -.180E-03 0.244E+04   0.993E+00 -.302E-13 -.243E+04   -.278E-02 0.419E-02 -.915E+01   -.654E-05 -.107E-05 -.442E-04
   -.964E-03 -.974E-03 0.828E+03   -.185E-12 0.107E-13 -.828E+03   -.100E-02 -.999E-03 0.612E+00   -.108E-05 0.297E-05 -.158E-03
   -.733E+00 -.733E+00 0.828E+03   0.728E+00 0.728E+00 -.828E+03   0.247E-02 0.247E-02 0.688E+00   0.123E-05 -.423E-05 -.149E-03
   -.406E-03 -.485E+01 -.768E+03   0.959E-13 0.476E+01 0.769E+03   0.123E-02 0.100E+00 -.380E+00   0.243E-05 -.781E-05 -.199E-03
   -.352E+01 -.291E-03 -.777E+03   0.351E+01 0.568E-13 0.777E+03   0.150E-01 0.198E-02 -.253E+00   0.177E-05 0.219E-05 -.195E-03
   -.179E-03 -.560E-04 -.237E+04   -.121E-12 -.355E-14 0.236E+04   0.125E-02 0.115E-02 0.775E+01   -.109E-05 0.173E-06 -.166E-03
   -.226E+02 -.226E+02 -.236E+04   0.227E+02 0.227E+02 0.235E+04   -.125E+00 -.125E+00 0.785E+01   -.235E-04 -.245E-04 -.159E-03
   -.179E-03 0.131E+01 0.244E+04   -.117E-12 -.130E+01 -.243E+04   0.419E-02 -.816E-02 -.915E+01   -.199E-05 0.120E-05 -.512E-04
   -.131E+01 -.183E-03 0.244E+04   0.130E+01 -.551E-13 -.243E+04   0.149E-02 0.419E-02 -.915E+01   -.815E-06 0.155E-05 -.495E-04
   -.968E-03 -.962E-03 0.827E+03   -.114E-12 -.178E-13 -.828E+03   -.100E-02 -.100E-02 0.784E+00   0.345E-05 -.977E-06 -.157E-03
   -.733E+00 0.734E+00 0.828E+03   0.728E+00 -.728E+00 -.828E+03   0.247E-02 -.512E-02 0.688E+00   0.115E-05 0.355E-05 -.147E-03
   -.259E-03 0.486E+01 -.768E+03   -.171E-12 -.476E+01 0.769E+03   0.119E-02 -.106E+00 -.379E+00   -.175E-05 0.694E-05 -.199E-03
   -.485E+01 -.402E-03 -.768E+03   0.476E+01 -.284E-13 0.769E+03   0.100E+00 0.123E-02 -.380E+00   -.171E-05 -.108E-05 -.205E-03
   -.159E-02 -.159E-02 -.227E+04   -.142E-13 -.391E-13 0.226E+04   -.473E-03 -.474E-03 0.504E+01   -.402E-07 -.241E-06 -.142E-03
   -.226E+02 0.226E+02 -.236E+04   0.227E+02 -.227E+02 0.235E+04   -.126E+00 0.115E+00 0.785E+01   -.235E-04 0.244E-04 -.159E-03
   0.303E-03 -.489E+00 0.496E+03   0.622E-14 0.481E+00 -.495E+03   -.169E-02 0.145E-01 -.777E-01   0.132E-05 0.997E-05 0.950E-04
   0.488E+00 0.301E-03 0.496E+03   -.481E+00 -.115E-13 -.495E+03   -.348E-02 -.169E-02 -.777E-01   -.864E-05 -.937E-06 0.941E-04
   0.837E-03 0.836E-03 0.148E+04   0.799E-14 -.129E-13 -.148E+04   -.148E-02 -.148E-02 0.262E+01   0.263E-06 0.529E-06 0.320E-04
   0.687E+00 -.689E+00 0.148E+04   -.685E+00 0.685E+00 -.148E+04   -.152E-02 0.464E-02 0.262E+01   -.405E-05 0.403E-05 0.216E-04
   0.665E-03 -.721E+01 -.146E+04   -.128E-12 0.716E+01 0.146E+04   -.150E-02 0.551E-01 -.464E+01   0.165E-06 -.112E-04 0.226E-04
   0.721E+01 0.597E-03 -.146E+04   -.716E+01 -.115E-13 0.146E+04   -.562E-01 -.229E-02 -.464E+01   0.120E-04 -.619E-06 0.215E-04
   0.193E-03 0.194E-03 -.462E+03   0.355E-13 -.142E-13 0.462E+03   -.314E-02 -.314E-02 0.277E+00   0.263E-06 -.160E-06 0.957E-04
   0.250E+01 -.250E+01 -.457E+03   -.249E+01 0.249E+01 0.457E+03   -.877E-02 0.289E-02 0.342E+00   0.568E-06 -.477E-06 0.113E-03
   0.300E-03 0.488E+00 0.496E+03   -.497E-13 -.481E+00 -.495E+03   -.168E-02 -.348E-02 -.777E-01   -.105E-05 -.966E-05 0.937E-04
   0.509E+00 0.304E-03 0.496E+03   -.542E+00 -.195E-13 -.495E+03   0.469E-01 -.169E-02 -.890E-01   0.193E-05 0.135E-05 0.951E-04
   0.836E-03 0.837E-03 0.148E+04   -.147E-13 -.546E-13 -.148E+04   -.148E-02 -.148E-02 0.262E+01   0.306E-06 -.774E-07 0.152E-04
   0.687E+00 0.687E+00 0.148E+04   -.685E+00 -.685E+00 -.148E+04   -.152E-02 -.152E-02 0.262E+01   -.376E-05 -.428E-05 0.196E-04
   0.596E-03 0.721E+01 -.146E+04   -.121E-12 -.716E+01 0.146E+04   -.229E-02 -.562E-01 -.464E+01   -.849E-06 0.116E-04 0.212E-04
   0.232E+02 0.433E-03 -.143E+04   -.229E+02 -.799E-14 0.143E+04   -.377E+00 -.191E-02 -.468E+01   0.239E-04 0.991E-06 0.495E-04
   0.203E-03 0.194E-03 -.457E+03   0.995E-13 -.213E-13 0.457E+03   -.316E-02 -.313E-02 0.297E+00   0.301E-06 -.120E-06 0.111E-03
   0.250E+01 0.250E+01 -.457E+03   -.249E+01 -.249E+01 0.457E+03   -.864E-02 -.864E-02 0.342E+00   -.214E-06 0.800E-06 0.112E-03
   0.308E-03 -.510E+00 0.496E+03   0.409E-13 0.542E+00 -.495E+03   -.169E-02 -.359E-01 -.890E-01   -.786E-06 -.148E-05 0.948E-04
   -.489E+00 0.303E-03 0.496E+03   0.481E+00 -.142E-13 -.495E+03   0.145E-01 -.169E-02 -.777E-01   0.963E-05 0.553E-06 0.944E-04
   0.837E-03 0.836E-03 0.148E+04   0.103E-12 0.444E-15 -.148E+04   -.148E-02 -.148E-02 0.262E+01   0.414E-06 0.450E-06 0.173E-04
   -.689E+00 -.689E+00 0.148E+04   0.685E+00 0.685E+00 -.148E+04   0.464E-02 0.464E-02 0.262E+01   0.390E-05 0.394E-05 0.194E-04
   0.862E-03 -.232E+02 -.143E+04   0.160E-13 0.229E+02 0.143E+04   -.440E-03 0.378E+00 -.467E+01   -.168E-06 -.234E-04 0.483E-04
   -.721E+01 0.665E-03 -.146E+04   0.716E+01 0.426E-13 0.146E+04   0.551E-01 -.150E-02 -.464E+01   -.113E-04 0.118E-06 0.210E-04
   0.195E-03 0.205E-03 -.457E+03   0.142E-13 0.782E-13 0.457E+03   -.313E-02 -.316E-02 0.297E+00   0.120E-06 -.654E-06 0.114E-03
   -.250E+01 -.250E+01 -.457E+03   0.249E+01 0.249E+01 0.457E+03   0.463E-02 0.463E-02 0.341E+00   -.122E-05 -.160E-06 0.114E-03
   0.305E-03 0.509E+00 0.496E+03   0.107E-12 -.542E+00 -.495E+03   -.169E-02 0.469E-01 -.890E-01   -.134E-06 0.213E-06 0.934E-04
   -.510E+00 0.307E-03 0.496E+03   0.542E+00 0.426E-13 -.495E+03   -.359E-01 -.169E-02 -.890E-01   -.144E-05 -.526E-06 0.949E-04
   0.838E-03 0.838E-03 0.147E+04   0.702E-13 -.488E-14 -.148E+04   -.148E-02 -.148E-02 0.262E+01   0.364E-07 -.227E-06 0.132E-04
   -.689E+00 0.687E+00 0.148E+04   0.685E+00 -.685E+00 -.148E+04   0.464E-02 -.152E-02 0.262E+01   0.382E-05 -.444E-05 0.215E-04
   0.433E-03 0.232E+02 -.143E+04   0.000E+00 -.229E+02 0.143E+04   -.191E-02 -.377E+00 -.468E+01   0.671E-06 0.237E-04 0.481E-04
   -.232E+02 0.861E-03 -.143E+04   0.229E+02 -.142E-13 0.143E+04   0.378E+00 -.439E-03 -.467E+01   -.236E-04 -.356E-06 0.496E-04
   0.413E-03 0.411E-03 -.458E+03   0.121E-12 0.284E-13 0.458E+03   -.113E-03 -.112E-03 -.182E+00   -.191E-06 0.124E-05 0.132E-03
   -.250E+01 0.250E+01 -.457E+03   0.249E+01 -.249E+01 0.457E+03   0.289E-02 -.877E-02 0.342E+00   -.542E-06 0.183E-06 0.114E-03
   0.366E-02 0.366E-02 0.524E+02   -.579E-12 0.114E-12 0.136E-11   -.373E-02 -.371E-02 -.523E+02   0.845E-06 -.642E-06 -.244E-02

 POSITION                                       TOTAL-FORCE (eV/Angst)
      5.27065      5.27065     12.33617         0.039702      0.039702      1.080624
      5.27065      5.27065     13.48299         0.000336      0.000336     -1.172191
      1.05015      7.38089      3.51701         0.003975     -0.003440      0.524897
      3.16040      1.05015      3.51701        -0.001731      0.003984      0.524867
      1.05015      1.05015      5.62725        -0.002017     -0.002003      0.122353
      3.16040      7.38089      5.62725        -0.000765     -0.000526      0.103171
      1.05015      7.38038      7.75069         0.001641     -0.004860     -0.041737
      3.16091      1.05015      7.75069        -0.001647      0.001821     -0.041862
      1.05015      1.05015      9.85523         0.000404      0.000414     -0.183705
      3.15920      7.38209      9.85148        -0.012127      0.003107     -0.167047
      1.05015      3.16040      3.51701         0.003979     -0.001730      0.524884
      3.16040      5.27065      3.51701         0.000411      0.004001      0.523814
      1.05015      5.27065      5.62725        -0.002022     -0.001964      0.131892
      3.16040      3.16040      5.62725        -0.000777     -0.000759      0.103166
      1.05015      3.16091      7.75069         0.001811     -0.001639     -0.041874
      3.16359      5.27065      7.75360        -0.009133      0.000937     -0.037612
      1.05015      5.27065      9.85245         0.001062      0.001058     -0.183397
      3.15920      3.15920      9.85148        -0.012545     -0.012543     -0.167507
      5.27065      7.38089      3.51701         0.004037     -0.005551      0.523828
      7.38089      1.05015      3.51701        -0.003424      0.004013      0.524894
      5.27065      1.05015      5.62725        -0.001916     -0.001973      0.131892
      7.38089      7.38089      5.62725        -0.000493     -0.000509      0.103180
      5.27065      7.37770      7.75360         0.000869      0.004729     -0.038902
      7.38038      1.05015      7.75069        -0.004855      0.001691     -0.041725
      5.27065      1.05015      9.85245         0.001099      0.001099     -0.183396
      7.38209      7.38209      9.85148         0.003570      0.003571     -0.165495
      5.27065      3.16040      3.51701         0.004040      0.000427      0.523812
      7.38089      5.27065      3.51701        -0.005549      0.004031      0.523842
      5.27065      5.27065      5.62725        -0.001921     -0.001934      0.133237
      7.38089      3.16040      5.62725        -0.000499     -0.000740      0.103177
      5.27065      3.16359      7.75360         0.000984     -0.009130     -0.037607
      7.37770      5.27065      7.75360         0.004736      0.000859     -0.038916
      5.27065      5.27065      9.89515        -0.002026     -0.002035     -0.058275
      7.38209      3.15920      9.85148         0.003103     -0.012134     -0.167059
      1.05015      7.38089      5.62725        -0.001386      0.006864      0.052329
      3.16040      1.05015      5.62725         0.003524     -0.001383      0.052327
      1.05015      1.05015      3.51701        -0.000638     -0.000638     -0.474855
      3.16040      7.38089      3.51701        -0.000161      0.000920     -0.478076
      1.05015      7.38274      9.90288        -0.000832     -0.003808     -0.024010
      3.15856      1.05015      9.90288         0.001858     -0.001690     -0.025247
      1.05015      1.05015      7.74486        -0.002942     -0.002942      0.015988
      3.15994      7.38135      7.74591         0.000022     -0.007372      0.020677
      1.05015      3.16040      5.62725        -0.001382      0.003524      0.052327
      3.16040      5.27065      5.62725         0.014416     -0.001386      0.061933
      1.05015      5.27065      3.51701        -0.000639     -0.000639     -0.474285
      3.16040      3.16040      3.51701        -0.000162     -0.000162     -0.478073
      1.05015      3.15856      9.90288        -0.001690      0.001857     -0.025247
      3.15046      5.27065      9.90082        -0.005048     -0.001473     -0.031690
      1.05015      5.27065      7.74385        -0.002955     -0.002930      0.012876
      3.15994      3.15994      7.74591         0.000132      0.000134      0.020661
      5.27065      7.38089      5.62725        -0.001384     -0.004028      0.061929
      7.38089      1.05015      5.62725         0.006863     -0.001383      0.052329
      5.27065      1.05015      3.51701        -0.000637     -0.000637     -0.474284
      7.38089      7.38089      3.51701         0.000921      0.000921     -0.478079
      5.27065      7.39083      9.90082         0.000424      0.005433     -0.026917
      7.38274      1.05015      9.90288        -0.003809     -0.000829     -0.024011
      5.27065      1.05015      7.74385        -0.002928     -0.002953      0.012879
      7.38135      7.38135      7.74591        -0.005642     -0.005643      0.019834
      5.27065      3.16040      5.62725        -0.001384      0.014416      0.061931
      7.38089      5.27065      5.62725        -0.004028     -0.001383      0.061930
      5.27065      5.27065      3.51701        -0.000637     -0.000637     -0.472877
      7.38089      3.16040      3.51701         0.000920     -0.000162     -0.478076
      5.27065      3.15046      9.90082        -0.001471     -0.005050     -0.031689
      7.39083      5.27065      9.90082         0.005432      0.000424     -0.026916
      5.27065      5.27065      7.75385         0.000304      0.000304      0.004485
      7.38135      3.15994      7.74591        -0.007373      0.000021      0.020676
    total drift:                               -0.000061     -0.000050      0.068899

  FREE ENERGIE OF THE ION-ELECTRON SYSTEM (eV)
  free  energy   TOTEN  =      -405.46083552 eV

  energy  without entropy=     -405.46083552  energy(sigma->0) =     -405.46083552