 vasp.6.4.2 20Jul23 (build Feb 22 2024 13:53:45) complex
 executed on              LinuxNV date 2024.08.23  11:22:04
 OpenACC runtime initialized ...    4 GPUs detected

 INCAR:
   SYSTEM = Oxide-Surface
   ISMEAR = 0
   SIGMA = 0.05
   EDIFF = 1E-5
   ALGO = Normal
   IBRION = -1
   NSW = 0
   ISYM = 0
   DIPOL = 0.5 0.5 0.5
   IDIPOL = 3
   LDIPOL = .TRUE.
   ISTART = 1
   GGA = PE
   IVDW = 263
   ENCUT = 520
   PREC = Normal
   PRECFOCK = Normal
   LASPH = .TRUE.
   LREAL = Auto
   ISPIN = 1
   NELM = 200
   NELMIN = 8
   NCORE = 1
   KPAR = 1
   LWAVE = .FALSE.
   LCHARG = .FALSE.

 POTCAR:    PAW_PBE C 08Apr2002
 POTCAR:    PAW_PBE O 08Apr2002
 POTCAR:    PAW_PBE Mg_sv 12Apr2007
 POTCAR:    PAW_PBE O 08Apr2002
 POTCAR:    PAW_PBE C 08Apr2002
   VRHFIN =C: s2p2

   TITEL  = PAW_PBE C 08Apr2002
   POMASS =   12.011; ZVAL   =    4.000    mass and valenz
   ENMAX  =  400.000; ENMIN  =  300.000 eV

[...]

   TITEL  = PAW_PBE Mg_sv 12Apr2007
   POMASS =   24.305; ZVAL   =   10.000    mass and valenz
   ENMAX  =  495.223; ENMIN  =  371.417 eV

   TITEL  = PAW_PBE O 08Apr2002
   POMASS =   16.000; ZVAL   =    6.000    mass and valenz
   ENMAX  =  400.000; ENMIN  =  300.000 eV

 Optimization of the real space projectors (new method)

 maximal supplied QI-value         = 25.13
 optimisation between [QCUT,QGAM] = [ 11.56, 23.12] = [ 37.43,149.72] Ry
 Optimized for a Real-space Cutoff    1.04 Angstroem

   l    n(q)    QCUT    max X(q) W(low)/X(q) W(high)/X(q)  e(spline)
   0      7    11.561   115.676    0.20E-03    0.60E-03    0.21E-06
   0      7    11.561    87.132    0.20E-03    0.59E-03    0.21E-06
   1      7    11.561     4.429    0.23E-03    0.35E-03    0.15E-06
   1      7    11.561     2.733    0.18E-03    0.25E-03    0.12E-06
 Optimization of the real space projectors (new method)

[...]

   l    n(q)    QCUT    max X(q) W(low)/X(q) W(high)/X(q)  e(spline)
   0      8    11.497     8.730    0.49E-04    0.64E-04    0.16E-07
   0      8    11.497     8.910    0.67E-04    0.91E-04    0.30E-07
   1      7    11.497     2.513    0.13E-03    0.16E-04    0.93E-07
   1      7    11.497     3.341    0.38E-03    0.12E-03    0.27E-06
   2      7    11.497     3.683    0.37E-03    0.44E-03    0.72E-07
 Optimization of the real space projectors (new method)

 maximal supplied QI-value         = 24.76
 optimisation between [QCUT,QGAM] = [ 11.64, 23.27] = [ 37.91,151.63] Ry
 Optimized for a Real-space Cutoff    1.04 Angstroem

   l    n(q)    QCUT    max X(q) W(low)/X(q) W(high)/X(q)  e(spline)
   0      7    11.635    20.381    0.14E-03    0.49E-03    0.18E-06
   0      7    11.635    15.268    0.16E-03    0.52E-03    0.19E-06
   1      7    11.635     5.964    0.30E-03    0.44E-03    0.22E-06
   1      7    11.635     5.382    0.27E-03    0.34E-03    0.19E-06
  PAW_PBE C 08Apr2002                   :
  PAW_PBE O 08Apr2002                   :
  PAW_PBE Mg_sv 12Apr2007               :
  PAW_PBE O 08Apr2002                   :

 POSCAR:  C  O Mg  O
  positions in direct lattice
 exchange correlation table for  LEXCH =        8
   RHO(1)=    0.500       N(1)  =     2000
   RHO(2)=  100.500       N(2)  =     4000

 ion  position               nearest neighbor table
   1  0.624  0.624  0.726-   2 1.15
   2  0.624  0.624  0.793-   1 1.15
   3  0.124  0.874  0.207-  35 2.11  37 2.11  38 2.11  45 2.11  54 2.11
   4  0.374  0.124  0.207-  36 2.11  37 2.11  38 2.11  46 2.11  53 2.11
   5  0.124  0.124  0.331-  37 2.11  36 2.11  35 2.11  43 2.11  52 2.11  41 2.12
   6  0.374  0.874  0.331-  38 2.11  36 2.11  35 2.11  44 2.11  51 2.11  42 2.12
   7  0.124  0.874  0.456-  49 2.11  42 2.11  58 2.11  41 2.11  35 2.12
   8  0.374  0.124  0.456-  57 2.11  50 2.11  42 2.11  41 2.11  36 2.12
   9  0.124  0.124  0.580-  39 2.11  40 2.11  47 2.11  56 2.11  41 2.11
  10  0.374  0.875  0.579-  42 2.11  40 2.11  39 2.11  48 2.11  55 2.11
  11  0.124  0.374  0.207-  43 2.11  37 2.11  45 2.11  46 2.11  62 2.11
  12  0.374  0.624  0.207-  44 2.11  38 2.11  45 2.11  46 2.11  61 2.11
  13  0.124  0.624  0.331-  45 2.11  43 2.11  44 2.11  35 2.11  60 2.11  49 2.12
  14  0.374  0.374  0.331-  46 2.11  43 2.11  44 2.11  36 2.11  59 2.11  50 2.12
  15  0.124  0.374  0.456-  49 2.11  50 2.11  66 2.11  41 2.11  43 2.12
  16  0.375  0.624  0.456-  65 2.11  50 2.11  42 2.11  49 2.11  44 2.13
  17  0.124  0.624  0.580-  48 2.10  64 2.10  49 2.11  47 2.11  39 2.11
  18  0.374  0.374  0.579-  50 2.11  47 2.11  40 2.11  48 2.11  63 2.11
  19  0.624  0.874  0.207-  51 2.11  38 2.11  53 2.11  54 2.11  61 2.11
  20  0.874  0.124  0.207-  52 2.11  37 2.11  53 2.11  54 2.11  62 2.11
  21  0.624  0.124  0.331-  53 2.11  51 2.11  52 2.11  36 2.11  59 2.11  57 2.12
  22  0.874  0.874  0.331-  54 2.11  51 2.11  52 2.11  35 2.11  60 2.11  58 2.12
  23  0.624  0.874  0.456-  65 2.11  58 2.11  42 2.11  57 2.11  51 2.13
  24  0.874  0.124  0.456-  57 2.11  58 2.11  66 2.11  41 2.11  52 2.12
  25  0.624  0.124  0.580-  55 2.10  63 2.10  57 2.11  40 2.11  56 2.11
  26  0.875  0.875  0.579-  58 2.11  56 2.11  39 2.11  55 2.11  64 2.11
  27  0.624  0.374  0.207-  59 2.11  53 2.11  46 2.11  61 2.11  62 2.11
  28  0.874  0.624  0.207-  60 2.11  54 2.11  45 2.11  61 2.11  62 2.11
  29  0.624  0.624  0.331-  61 2.11  51 2.11  59 2.11  60 2.11  44 2.11  65 2.13
  30  0.874  0.374  0.331-  62 2.11  52 2.11  59 2.11  60 2.11  43 2.11  66 2.12
  31  0.624  0.375  0.456-  65 2.11  50 2.11  66 2.11  57 2.11  59 2.13
  32  0.874  0.624  0.456-  65 2.11  58 2.11  66 2.11  49 2.11  60 2.13
  33  0.624  0.624  0.582-  48 2.12  55 2.12  63 2.12  64 2.12
  34  0.875  0.374  0.579-  66 2.11  56 2.11  47 2.11  64 2.11  63 2.11
  35  0.124  0.874  0.331-   3 2.11   5 2.11   6 2.11  13 2.11  22 2.11   7 2.12
  36  0.374  0.124  0.331-   4 2.11   5 2.11   6 2.11  14 2.11  21 2.11   8 2.12
  37  0.124  0.124  0.207-   5 2.11   4 2.11   3 2.11  11 2.11  20 2.11
  38  0.374  0.874  0.207-   6 2.11   4 2.11   3 2.11  12 2.11  19 2.11
  39  0.124  0.875  0.583-   9 2.11  10 2.11  26 2.11  17 2.11
  40  0.374  0.124  0.583-   9 2.11  10 2.11  18 2.11  25 2.11
  41  0.124  0.124  0.456-   9 2.11   8 2.11   7 2.11  15 2.11  24 2.11   5 2.12
  42  0.374  0.874  0.456-  10 2.11   8 2.11   7 2.11  16 2.11  23 2.11   6 2.12
  43  0.124  0.374  0.331-  11 2.11   5 2.11  13 2.11  14 2.11  30 2.11  15 2.12
  44  0.374  0.624  0.331-  12 2.11   6 2.11  13 2.11  14 2.11  29 2.11  16 2.13
  45  0.124  0.624  0.207-  13 2.11  11 2.11  12 2.11   3 2.11  28 2.11
  46  0.374  0.374  0.207-  14 2.11  11 2.11  12 2.11   4 2.11  27 2.11
  47  0.124  0.374  0.583-   9 2.11  18 2.11  34 2.11  17 2.11
  48  0.373  0.624  0.582-  17 2.10  10 2.11  18 2.11  33 2.12
  49  0.124  0.624  0.456-  17 2.11  15 2.11   7 2.11  16 2.11  32 2.11  13 2.12
  50  0.374  0.374  0.456-  18 2.11  15 2.11   8 2.11  16 2.11  31 2.11  14 2.12
  51  0.624  0.874  0.331-  19 2.11   6 2.11  21 2.11  22 2.11  29 2.11  23 2.13
  52  0.874  0.124  0.331-  20 2.11   5 2.11  21 2.11  22 2.11  30 2.11  24 2.12
  53  0.624  0.124  0.207-  21 2.11  19 2.11  20 2.11   4 2.11  27 2.11
  54  0.874  0.874  0.207-  22 2.11  19 2.11  20 2.11   3 2.11  28 2.11
  55  0.624  0.876  0.582-  25 2.10  10 2.11  26 2.11  33 2.12
  56  0.875  0.124  0.583-   9 2.11  26 2.11  34 2.11  25 2.11
  57  0.624  0.124  0.456-  25 2.11  24 2.11   8 2.11  23 2.11  31 2.11  21 2.12
  58  0.874  0.874  0.456-  26 2.11  24 2.11   7 2.11  23 2.11  32 2.11  22 2.12
  59  0.624  0.374  0.331-  27 2.11  21 2.11  14 2.11  29 2.11  30 2.11  31 2.13
  60  0.874  0.624  0.331-  28 2.11  22 2.11  13 2.11  29 2.11  30 2.11  32 2.13
  61  0.624  0.624  0.207-  29 2.11  19 2.11  27 2.11  28 2.11  12 2.11
  62  0.874  0.374  0.207-  30 2.11  20 2.11  27 2.11  28 2.11  11 2.11
  63  0.624  0.373  0.582-  25 2.10  18 2.11  34 2.11  33 2.12
  64  0.876  0.624  0.582-  17 2.10  26 2.11  34 2.11  33 2.12
  65  0.624  0.624  0.456-  16 2.11  23 2.11  31 2.11  32 2.11  29 2.13
  66  0.874  0.374  0.456-  34 2.11  24 2.11  15 2.11  32 2.11  31 2.11  30 2.12

IMPORTANT INFORMATION: All symmetrisations will be switched off!
NOSYMM: (Re-)initialisation of all symmetry stuff for point group C_1.

                                     Primitive cell

  volume of cell :    1211.2538

  direct lattice vectors                    reciprocal lattice vectors
     8.440984654  0.000000000  0.000000000     0.118469591  0.000000000  0.000000000
     0.000000000  8.440984654  0.000000000     0.000000000  0.118469591  0.000000000
     0.000000000  0.000000000 17.000000000     0.000000000  0.000000000  0.058823529

  length of vectors
     8.440984654  8.440984654 17.000000000     0.118469591  0.118469591  0.058823529

  position of ions in fractional coordinates (direct lattice)
     0.624411355  0.624411355  0.725657141
     0.624411355  0.624411355  0.793117130
     0.124411355  0.874411355  0.206882870
     0.374411355  0.124411355  0.206882870
     0.124411355  0.124411355  0.331014998
     0.374411355  0.874411355  0.331014998
     0.124411355  0.874350623  0.455922972
     0.374472087  0.124411355  0.455922972
     0.124411355  0.124411355  0.579719137
     0.374269682  0.874553028  0.579498600
     0.124411355  0.374411355  0.206882870
     0.374411355  0.624411355  0.206882870
     0.124411355  0.624411355  0.331014998
     0.374411355  0.374411355  0.331014998
     0.124411355  0.374472087  0.455922972
     0.374789734  0.624411355  0.456093975
     0.124411355  0.624411355  0.579555984
     0.374269682  0.374269682  0.579498600
     0.624411355  0.874411355  0.206882870
     0.874411355  0.124411355  0.206882870
     0.624411355  0.124411355  0.331014998
     0.874411355  0.874411355  0.331014998
     0.624411355  0.874032976  0.456093975
     0.874350623  0.124411355  0.455922972
     0.624411355  0.124411355  0.579555984
     0.874553028  0.874553028  0.579498600
     0.624411355  0.374411355  0.206882870
     0.874411355  0.624411355  0.206882870
     0.624411355  0.624411355  0.331014998
     0.874411355  0.374411355  0.331014998
     0.624411355  0.374789734  0.456093975
     0.874032976  0.624411355  0.456093975
     0.624411355  0.624411355  0.582067590
     0.874553028  0.374269682  0.579498600
     0.124411355  0.874411355  0.331014998
     0.374411355  0.124411355  0.331014998
     0.124411355  0.124411355  0.206882870
     0.374411355  0.874411355  0.206882870
     0.124411355  0.874629888  0.582522179
     0.374192822  0.124411355  0.582522179
     0.124411355  0.124411355  0.455579988
     0.374357125  0.874465584  0.455641750
     0.124411355  0.374411355  0.331014998
     0.374411355  0.624411355  0.331014998
     0.124411355  0.624411355  0.206882870
     0.374411355  0.374411355  0.206882870
     0.124411355  0.374192822  0.582522179
     0.373234064  0.624411355  0.582401242
     0.124411355  0.624411355  0.455520732
     0.374357125  0.374357125  0.455641750
     0.624411355  0.874411355  0.331014998
     0.874411355  0.124411355  0.331014998
     0.624411355  0.124411355  0.206882870
     0.874411355  0.874411355  0.206882870
     0.624411355  0.875588645  0.582401242
     0.874629888  0.124411355  0.582522179
     0.624411355  0.124411355  0.455520732
[...]
   O          20.795          3.284          5.654          2.419          2.261          1.054
   O          20.983          3.288          5.677          2.267          1.861          1.057

  vdW correction parametrized for the method pbe

  IVDW = 263
  VDW_RADIUS =    50.000 A
  VDW_SR =     0.830
  VDW_D =     6.000
  SCSRAD =   120.000 A
  LVDWSCS = T
  LSCSGRAD = T
  LSCALER0 = T
  ITIM =  1
  Edisp (eV):  -17.96400

  FORCE on cell =-STRESS in cart. coord.  units (eV):
  Direction    XX          YY          ZZ          XY          YZ          ZX
  Alpha Z  1338.47750  1338.47750  1338.47750
  Ewald  107190.75749107190.75749************    -0.00000    -0.00000    -0.00000
  Hartree124165.09252124165.09252************     0.00090     0.00078     0.00078
  E(xc)   -3246.20343 -3246.20343 -3250.91269     0.00002     0.00003     0.00003
  Local  ************************241951.80522    -0.00159    -0.00110    -0.00110
  n-local -5930.40577 -5930.40577 -5936.22055     0.01151     0.01052     0.01052
  augment   922.80867   922.80867   913.95104    -0.00738    -0.00503    -0.00503
  Kinetic 11133.75943 11133.75943 11126.95875     0.00041     0.00117     0.00117
  Fock        0.00000     0.00000     0.00000     0.00000     0.00000     0.00000
  vdW       -23.70107   -23.70107   -16.62768    -0.00002     0.00000     0.00001
  Total     -47.47319   -47.47319   -18.06217     0.00384     0.00638     0.00638
  in kB     -62.79482   -62.79482   -23.89161     0.00508     0.00844     0.00844

 VOLUME and BASIS-vectors are now :
  energy-cutoff  :      520.00
  volume of cell :     1211.25
      direct lattice vectors                 reciprocal lattice vectors
     8.440984654  0.000000000  0.000000000     0.118469591  0.000000000  0.000000000
     0.000000000  8.440984654  0.000000000     0.000000000  0.118469591  0.000000000
     0.000000000  0.000000000 17.000000000     0.000000000  0.000000000  0.058823529

  length of vectors
     8.440984654  8.440984654 17.000000000     0.118469591  0.118469591  0.058823529

 FORCES acting on ions
    electron-ion (+dipol)            ewald-force                    non-local-force                 convergence-correction
   0.710E-05 0.701E-05 -.643E+03   0.167E-13 0.355E-14 0.616E+03   -.275E-03 -.275E-03 0.268E+02   -.198E-07 0.229E-07 0.125E-04
   -.403E-04 -.404E-04 -.991E+03   0.155E-14 0.866E-14 0.105E+04   0.199E-03 0.199E-03 -.600E+02   -.605E-07 -.145E-07 0.286E-04
   0.288E-03 -.994E+00 0.244E+04   -.178E-13 0.993E+00 -.243E+04   0.196E-02 0.269E-02 -.914E+01   -.956E-06 -.890E-06 -.624E-04
   0.995E+00 0.287E-03 0.244E+04   -.993E+00 -.213E-13 -.243E+04   0.122E-02 0.196E-02 -.914E+01   0.107E-05 0.557E-06 -.629E-04
   0.166E-03 0.166E-03 0.827E+03   -.355E-14 0.746E-13 -.827E+03   0.256E-02 0.256E-02 0.644E+00   -.616E-06 -.450E-06 -.113E-03
   0.733E+00 -.733E+00 0.828E+03   -.728E+00 0.728E+00 -.828E+03   -.124E-02 0.635E-02 0.681E+00   -.640E-06 0.298E-06 -.114E-03
   0.149E-03 -.352E+01 -.777E+03   0.107E-13 0.351E+01 0.777E+03   0.268E-02 0.208E-01 -.251E+00   -.960E-06 0.141E-05 -.779E-04
   0.352E+01 0.150E-03 -.777E+03   -.351E+01 0.817E-13 0.777E+03   -.167E-01 0.237E-02 -.251E+00   -.829E-06 -.200E-06 -.772E-04
   0.240E-03 0.240E-03 -.238E+04   0.426E-13 0.000E+00 0.238E+04   0.345E-02 0.345E-02 0.771E+01   -.279E-06 -.161E-06 -.107E-03
   0.226E+02 -.226E+02 -.236E+04   -.227E+02 0.227E+02 0.235E+04   0.126E+00 -.118E+00 0.782E+01   0.436E-07 0.264E-06 -.102E-03
   0.288E-03 0.995E+00 0.244E+04   0.302E-13 -.993E+00 -.243E+04   0.196E-02 0.122E-02 -.914E+01   -.923E-07 0.929E-06 -.625E-04
   0.131E+01 0.293E-03 0.244E+04   -.130E+01 0.222E-13 -.243E+04   -.317E-02 0.193E-02 -.914E+01   0.123E-05 -.625E-06 -.681E-04
   0.160E-03 0.170E-03 0.828E+03   -.107E-12 0.000E+00 -.828E+03   0.257E-02 0.256E-02 0.599E+00   -.597E-06 0.472E-06 -.116E-03
   0.733E+00 0.733E+00 0.828E+03   -.728E+00 -.728E+00 -.828E+03   -.124E-02 -.124E-02 0.681E+00   -.164E-06 -.257E-06 -.115E-03
   0.150E-03 0.352E+01 -.777E+03   0.853E-13 -.351E+01 0.777E+03   0.237E-02 -.167E-01 -.251E+00   -.230E-06 -.128E-05 -.772E-04
   0.486E+01 0.166E-03 -.768E+03   -.476E+01 -.497E-13 0.769E+03   -.104E+00 0.259E-02 -.373E+00   0.133E-05 0.223E-06 -.749E-04
   0.278E-03 0.246E-03 -.237E+04   -.142E-13 -.426E-13 0.236E+04   0.419E-02 0.441E-02 0.772E+01   -.131E-06 0.131E-07 -.102E-03
   0.226E+02 0.226E+02 -.236E+04   -.227E+02 -.227E+02 0.235E+04   0.127E+00 0.127E+00 0.782E+01   -.294E-06 -.288E-06 -.101E-03
   0.292E-03 -.131E+01 0.244E+04   -.168E-12 0.130E+01 -.243E+04   0.193E-02 0.708E-02 -.914E+01   0.102E-05 -.117E-05 -.679E-04
   -.994E+00 0.288E-03 0.244E+04   0.993E+00 -.302E-13 -.243E+04   0.269E-02 0.196E-02 -.914E+01   -.914E-06 -.283E-06 -.621E-04
   0.170E-03 0.159E-03 0.828E+03   -.185E-12 0.107E-13 -.828E+03   0.256E-02 0.257E-02 0.599E+00   0.704E-06 0.135E-06 -.116E-03
   -.733E+00 -.733E+00 0.828E+03   0.728E+00 0.728E+00 -.828E+03   0.635E-02 0.635E-02 0.681E+00   0.715E-06 0.393E-06 -.115E-03
   0.161E-03 -.486E+01 -.768E+03   0.959E-13 0.476E+01 0.769E+03   0.322E-02 0.109E+00 -.376E+00   0.966E-06 -.840E-06 -.745E-04
   -.352E+01 0.149E-03 -.777E+03   0.351E+01 0.568E-13 0.777E+03   0.208E-01 0.268E-02 -.251E+00   0.839E-06 -.911E-06 -.777E-04
   0.246E-03 0.279E-03 -.237E+04   -.121E-12 -.355E-14 0.236E+04   0.440E-02 0.419E-02 0.772E+01   0.302E-06 -.412E-06 -.102E-03
   -.226E+02 -.226E+02 -.236E+04   0.227E+02 0.227E+02 0.235E+04   -.119E+00 -.119E+00 0.782E+01   -.367E-07 0.472E-06 -.102E-03
   0.293E-03 0.131E+01 0.244E+04   -.117E-12 -.130E+01 -.243E+04   0.193E-02 -.317E-02 -.914E+01   0.503E-07 0.115E-05 -.677E-04
   -.131E+01 0.292E-03 0.244E+04   0.130E+01 -.551E-13 -.243E+04   0.708E-02 0.193E-02 -.914E+01   -.121E-05 0.403E-06 -.673E-04
   0.173E-03 0.174E-03 0.827E+03   -.114E-12 -.178E-13 -.828E+03   0.254E-02 0.254E-02 0.778E+00   0.589E-06 -.114E-06 -.114E-03
   -.733E+00 0.733E+00 0.828E+03   0.728E+00 -.728E+00 -.828E+03   0.635E-02 -.124E-02 0.681E+00   0.115E-06 -.416E-06 -.115E-03
   0.166E-03 0.486E+01 -.768E+03   -.171E-12 -.476E+01 0.769E+03   0.259E-02 -.104E+00 -.373E+00   0.270E-06 0.878E-06 -.751E-04
   -.486E+01 0.161E-03 -.768E+03   0.476E+01 -.284E-13 0.769E+03   0.109E+00 0.322E-02 -.376E+00   -.138E-05 0.941E-06 -.751E-04
   0.321E-03 0.321E-03 -.227E+04   -.142E-13 -.391E-13 0.226E+04   0.162E-02 0.162E-02 0.504E+01   0.814E-07 0.486E-06 -.745E-04
   -.226E+02 0.226E+02 -.236E+04   0.227E+02 -.227E+02 0.235E+04   -.118E+00 0.126E+00 0.782E+01   0.249E-06 -.412E-06 -.102E-03
   -.430E-04 -.486E+00 0.496E+03   0.622E-14 0.481E+00 -.495E+03   -.327E-03 0.662E-02 -.945E-01   -.538E-06 0.375E-06 -.781E-04
   0.486E+00 -.434E-04 0.496E+03   -.481E+00 -.115E-13 -.495E+03   -.728E-02 -.327E-03 -.945E-01   -.295E-06 0.340E-07 -.783E-04
   -.639E-04 -.640E-04 0.148E+04   0.799E-14 -.129E-13 -.148E+04   0.150E-03 0.150E-03 0.349E+01   -.252E-06 -.248E-07 -.292E-04
   0.687E+00 -.687E+00 0.147E+04   -.685E+00 0.685E+00 -.148E+04   -.240E-02 0.270E-02 0.350E+01   0.360E-06 -.405E-06 -.313E-04
   -.116E-03 -.721E+01 -.146E+04   -.128E-12 0.716E+01 0.146E+04   0.664E-02 0.608E-01 -.504E+01   -.226E-06 -.507E-06 -.467E-04
   0.721E+01 -.935E-04 -.146E+04   -.716E+01 -.115E-13 0.146E+04   -.490E-01 0.514E-02 -.504E+01   0.658E-06 -.106E-06 -.466E-04
   -.106E-04 -.106E-04 -.462E+03   0.355E-13 -.142E-13 0.462E+03   0.781E-03 0.781E-03 0.258E+00   -.350E-06 -.276E-06 -.480E-04
   0.250E+01 -.250E+01 -.457E+03   -.249E+01 0.249E+01 0.457E+03   -.612E-02 0.499E-02 0.330E+00   0.173E-06 -.301E-07 -.474E-04
   -.432E-04 0.486E+00 0.496E+03   -.497E-13 -.481E+00 -.495E+03   -.327E-03 -.728E-02 -.945E-01   -.240E-06 -.305E-06 -.784E-04
   0.517E+00 -.385E-04 0.496E+03   -.542E+00 -.195E-13 -.495E+03   0.338E-01 -.333E-03 -.114E+00   0.256E-06 -.706E-07 -.786E-04
   -.647E-04 -.629E-04 0.147E+04   -.147E-13 -.546E-13 -.148E+04   0.151E-03 0.151E-03 0.350E+01   -.263E-06 0.263E-08 -.309E-04
   0.687E+00 0.687E+00 0.147E+04   -.685E+00 -.685E+00 -.148E+04   -.240E-02 -.240E-02 0.350E+01   0.462E-06 0.397E-06 -.308E-04
   -.935E-04 0.721E+01 -.146E+04   -.121E-12 -.716E+01 0.146E+04   0.514E-02 -.490E-01 -.504E+01   -.102E-06 0.545E-06 -.466E-04
   0.232E+02 -.392E-04 -.143E+04   -.229E+02 -.799E-14 0.143E+04   -.337E+00 0.639E-02 -.503E+01   0.446E-05 0.491E-07 -.433E-04
   0.577E-05 -.180E-04 -.457E+03   0.995E-13 -.213E-13 0.457E+03   0.805E-03 0.875E-03 0.282E+00   -.263E-06 0.218E-06 -.472E-04
   0.250E+01 0.250E+01 -.457E+03   -.249E+01 -.249E+01 0.457E+03   -.533E-02 -.533E-02 0.331E+00   0.167E-06 0.938E-08 -.475E-04
   -.395E-04 -.517E+00 0.496E+03   0.409E-13 0.542E+00 -.495E+03   -.332E-03 -.345E-01 -.114E+00   0.621E-06 -.211E-06 -.785E-04
   -.486E+00 -.433E-04 0.496E+03   0.481E+00 -.142E-13 -.495E+03   0.662E-02 -.327E-03 -.945E-01   0.299E-06 -.227E-06 -.782E-04
   -.630E-04 -.648E-04 0.147E+04   0.103E-12 0.444E-15 -.148E+04   0.151E-03 0.151E-03 0.350E+01   0.196E-06 0.691E-07 -.309E-04
   -.687E+00 -.687E+00 0.147E+04   0.685E+00 0.685E+00 -.148E+04   0.270E-02 0.270E-02 0.350E+01   -.406E-06 -.399E-06 -.302E-04
   -.707E-04 -.232E+02 -.143E+04   0.160E-13 0.229E+02 0.143E+04   0.457E-02 0.340E+00 -.503E+01   0.234E-06 -.430E-05 -.436E-04
   -.721E+01 -.116E-03 -.146E+04   0.716E+01 0.426E-13 0.146E+04   0.608E-01 0.664E-02 -.504E+01   -.644E-06 -.268E-06 -.469E-04
   -.181E-04 0.576E-05 -.457E+03   0.142E-13 0.782E-13 0.457E+03   0.875E-03 0.805E-03 0.282E+00   0.306E-06 -.261E-06 -.471E-04
   -.250E+01 -.250E+01 -.457E+03   0.249E+01 0.249E+01 0.457E+03   0.423E-02 0.423E-02 0.330E+00   -.186E-06 -.129E-07 -.476E-04
   -.387E-04 0.517E+00 0.496E+03   0.107E-12 -.542E+00 -.495E+03   -.333E-03 0.338E-01 -.114E+00   0.210E-06 0.218E-06 -.787E-04
   -.517E+00 -.392E-04 0.496E+03   0.542E+00 0.426E-13 -.495E+03   -.345E-01 -.332E-03 -.114E+00   -.284E-06 0.292E-06 -.786E-04
   -.631E-04 -.630E-04 0.147E+04   0.702E-13 -.488E-14 -.148E+04   0.147E-03 0.147E-03 0.350E+01   0.187E-06 -.690E-07 -.333E-04
   -.687E+00 0.687E+00 0.147E+04   0.685E+00 -.685E+00 -.148E+04   0.270E-02 -.240E-02 0.350E+01   -.446E-06 0.411E-06 -.308E-04
   -.392E-04 0.232E+02 -.143E+04   0.000E+00 -.229E+02 0.143E+04   0.639E-02 -.337E+00 -.503E+01   0.941E-07 0.427E-05 -.433E-04
   -.232E+02 -.707E-04 -.143E+04   0.229E+02 -.142E-13 0.143E+04   0.340E+00 0.457E-02 -.503E+01   -.442E-05 0.221E-06 -.435E-04
   -.734E-04 -.733E-04 -.458E+03   0.121E-12 0.284E-13 0.458E+03   -.365E-03 -.365E-03 -.199E+00   0.297E-06 0.285E-06 -.457E-04
   -.250E+01 0.250E+01 -.457E+03   0.249E+01 -.249E+01 0.457E+03   0.499E-02 -.612E-02 0.330E+00   -.171E-06 -.216E-07 -.476E-04
   0.537E-02 0.537E-02 0.556E+02   -.579E-12 0.114E-12 0.136E-11   0.123E+00 0.123E+00 -.552E+02   0.463E-07 0.238E-06 -.441E-02

 POSITION                                       TOTAL-FORCE (eV/Angst)
      5.27065      5.27065     12.33617        -0.002203     -0.002203      0.219494
      5.27065      5.27065     13.48299        -0.001779     -0.001779     -0.344401
      1.05015      7.38089      3.51701         0.000303     -0.000597      0.519354
      3.16040      1.05015      3.51701         0.001203      0.000305      0.519350
      1.05015      1.05015      5.62725         0.000780      0.000781      0.117916
      3.16040      7.38089      5.62725         0.000560      0.001009      0.104648
      1.05015      7.38038      7.75069         0.000880     -0.001221     -0.046560
      3.16091      1.05015      7.75069         0.001796      0.000573     -0.046646
      1.05015      1.05015      9.85523         0.001755      0.001756     -0.196273
      3.15920      7.38209      9.85148        -0.005598      0.010185     -0.176800
      1.05015      3.16040      3.51701         0.000304      0.001207      0.519351
      3.16040      5.27065      3.51701         0.003310      0.000286      0.517807
      1.05015      5.27065      5.62725         0.000784      0.000787      0.127326
      3.16040      3.16040      5.62725         0.000558      0.000561      0.104668
      1.05015      3.16091      7.75069         0.000572      0.001797     -0.046646
      3.16359      5.27065      7.75360        -0.009192      0.000823     -0.041728
      1.05015      5.27065      9.85245         0.002524      0.002704     -0.193687
      3.15920      3.15920      9.85148        -0.004740     -0.004740     -0.176346
      5.27065      7.38089      3.51701         0.000288     -0.002709      0.517844
      7.38089      1.05015      3.51701        -0.000591      0.000306      0.519354
      5.27065      1.05015      5.62725         0.000790      0.000788      0.127329
      7.38089      7.38089      5.62725         0.001011      0.001008      0.104634
      5.27065      7.37770      7.75360         0.001452      0.010883     -0.043834
      7.38038      1.05015      7.75069        -0.001222      0.000884     -0.046560
      5.27065      1.05015      9.85245         0.002708      0.002528     -0.193687
      7.38209      7.38209      9.85148         0.009450      0.009450     -0.177168
      5.27065      3.16040      3.51701         0.000289      0.003316      0.517806
      7.38089      5.27065      3.51701        -0.002705      0.000287      0.517845
      5.27065      5.27065      5.62725         0.000778      0.000777      0.131477
      7.38089      3.16040      5.62725         0.001013      0.000564      0.104647
      5.27065      3.16359      7.75360         0.000826     -0.009193     -0.041728
      7.37770      5.27065      7.75360         0.010883      0.001451     -0.043833
      5.27065      5.27065      9.89515        -0.000002     -0.000003     -0.050407
      7.38209      3.15920      9.85148         0.010185     -0.005598     -0.176801
      1.05015      7.38089      5.62725        -0.002310     -0.000624      0.057569
      3.16040      1.05015      5.62725        -0.003993     -0.002310      0.057571
      1.05015      1.05015      3.51701        -0.001853     -0.001853     -0.472364
      3.16040      7.38089      3.51701        -0.002405     -0.001298     -0.469619
      1.05015      7.38274      9.90288         0.004583      0.000821     -0.020694
      3.15856      1.05015      9.90288         0.006868      0.003104     -0.021842
      1.05015      1.05015      7.74486        -0.001168     -0.001168      0.027873
      3.15994      7.38135      7.74591         0.000836     -0.005845      0.026662
      1.05015      3.16040      5.62725        -0.002310     -0.003993      0.057571
      3.16040      5.27065      5.62725         0.006871     -0.002308      0.067352
      1.05015      5.27065      3.51701        -0.001853     -0.001848     -0.471754
      3.16040      3.16040      3.51701        -0.002402     -0.002402     -0.469618
      1.05015      3.15856      9.90288         0.003104      0.006868     -0.021842
      3.15046      5.27065      9.90082         0.001104      0.004420     -0.023263
      1.05015      5.27065      7.74385        -0.001126     -0.001080      0.022727
      3.15994      3.15994      7.74591         0.001614      0.001614      0.027526
      5.27065      7.38089      5.62725        -0.002307     -0.011486      0.067353
      7.38089      1.05015      5.62725        -0.000624     -0.002310      0.057570
      5.27065      1.05015      3.51701        -0.001848     -0.001853     -0.471754
      7.38089      7.38089      3.51701        -0.001295     -0.001296     -0.469619
      5.27065      7.39083      9.90082         0.002561     -0.001398     -0.021671
      7.38274      1.05015      9.90288         0.000821      0.004583     -0.020694
      5.27065      1.05015      7.74385        -0.001080     -0.001126      0.022727
      7.38135      7.38135      7.74591        -0.006619     -0.006619      0.025788
      5.27065      3.16040      5.62725        -0.002307      0.006871      0.067352
      7.38089      5.27065      5.62725        -0.011486     -0.002308      0.067352
      5.27065      5.27065      3.51701        -0.001852     -0.001852     -0.469500
      7.38089      3.16040      3.51701        -0.001297     -0.002404     -0.469619
      5.27065      3.15046      9.90082         0.004420      0.001104     -0.023263
      7.39083      5.27065      9.90082        -0.001398      0.002561     -0.021671
      5.27065      5.27065      7.75385        -0.002376     -0.002376      0.011384
      7.38135      3.15994      7.74591        -0.005845      0.000836      0.026662
    total drift:                                0.127897      0.127897      0.378288

  FREE ENERGIE OF THE ION-ELECTRON SYSTEM (eV)
  free  energy   TOTEN  =      -405.71625179 eV

  energy  without entropy=     -405.71625179  energy(sigma->0) =     -405.71625179