 vasp.6.3.0 20Jan22 (build Apr  1 2022 16:44:48) complex
 executed on        HPECrayEX_GCC date 2023.01.23  22:14:39

 INCAR:
   SYSTEM = MgO-rocksalt
   ISMEAR = 0
   SIGMA = 0.05
   EDIFF = 1E-8
   ALGO = ALL
   ISTART = 0
   IBRION = 5
   POTIM = 0.01
   NFREE = 2
   ISYM = 0
   DIPOL = 0.5 0.5 0.5
   IDIPOL = 3
   LDIPOL = .TRUE.
   GGA = MK
   LUSE_VDW = .TRUE.
   PARAM1 = 0.1234
   PARAM2 = 0.711357
   ZAB_VDW = -1.8867
   AGGAC = 0.0
   ENCUT = 600
   PREC = Accurate
   LASPH = .TRUE.
   LREAL = .FALSE.
   ISPIN = 1
   NELM = 200
   NELMIN = 8
   NCORE = 8
   KPAR = 1
   LWAVE = .FALSE.
   LCHARG = .FALSE.

 POTCAR:    PAW_PBE C 08Apr2002
 POTCAR:    PAW_PBE O 08Apr2002
 POTCAR:    PAW_PBE H 15Jun2001
 POTCAR:    PAW_PBE Mg_pv 13Apr2007
 POTCAR:    PAW_PBE O 08Apr2002
|               ----> ADVICE to this user running VASP <----                  |
|     You have switched on vdW-DFT.                                           |
|     This routine was written and supplied by Jiri Klimes. We recommend      |
|     that you carefully read and cite the following publications:            |
|       J. Klimes, D.R. Bowler, A. Michelides                                 |
|          J. Phys.: Cond Matt. 22 022201 (2010)                              |
|       J. Klimes, D.R. Bowler, A. Michelides                                 |
|          Phys. Rev. B. 83, 195131 (2011)                                    |
|     and references therein.                                                 |

   TITEL  = PAW_PBE C 08Apr2002
   POMASS =   12.011; ZVAL   =    4.000    mass and valenz
   ENMAX  =  400.000; ENMIN  =  300.000 eV

[...]

   TITEL  = PAW_PBE H 15Jun2001
   POMASS =    1.000; ZVAL   =    1.000    mass and valenz
   ENMAX  =  250.000; ENMIN  =  200.000 eV

   TITEL  = PAW_PBE Mg_pv 13Apr2007
   POMASS =   24.305; ZVAL   =    8.000    mass and valenz
   ENMAX  =  403.929; ENMIN  =  302.947 eV

   TITEL  = PAW_PBE O 08Apr2002
   POMASS =   16.000; ZVAL   =    6.000    mass and valenz
   ENMAX  =  400.000; ENMIN  =  300.000 eV

  PAW_PBE C 08Apr2002                   :
  PAW_PBE O 08Apr2002                   :
  PAW_PBE H 15Jun2001                   :
  PAW_PBE Mg_pv 13Apr2007               :
  PAW_PBE O 08Apr2002                   :

 POSCAR:  C  O  H Mg  O
  positions in direct lattice
 exchange correlation table for  LEXCH =       43
   RHO(1)=    0.500       N(1)  =     2000
   RHO(2)=  100.500       N(2)  =     4000

 ion  position               nearest neighbor table
   1  0.431  0.618  0.797-   3 1.10   6 1.10   5 1.11   2 1.43
   2  0.422  0.492  0.752-   4 1.02   1 1.43  22 2.21
   3  0.541  0.602  0.823-   1 1.10
   4  0.321  0.501  0.726-   2 1.02
   5  0.435  0.735  0.774-   1 1.11
   6  0.330  0.613  0.830-   1 1.10
   7  0.250  0.000  0.352-  39 2.11  41 2.11  42 2.11  49 2.11  58 2.11
   8  0.500  0.250  0.352-  40 2.11  41 2.11  42 2.11  50 2.11  57 2.11
   9  0.250  0.250  0.451-  41 2.11  40 2.11  39 2.11  47 2.11  56 2.11  45 2.12
  10  0.500  0.000  0.451-  46 2.11  42 2.11  39 2.11  40 2.11  48 2.11  55 2.11
  11  0.250  0.000  0.550-  46 2.11  62 2.11  39 2.11  45 2.11  53 2.12  43 2.14
  12  0.500  0.251  0.550-  44 2.10  54 2.10  61 2.11  45 2.12  46 2.12  40 2.13
  13  0.250  0.247  0.648-  43 2.09  45 2.09  44 2.11  60 2.11  51 2.14
  14  0.501  0.000  0.648-  44 2.09  46 2.10  52 2.10  59 2.11  43 2.12
  15  0.250  0.500  0.352-  47 2.11  41 2.11  49 2.11  50 2.11  66 2.11
  16  0.500  0.750  0.352-  48 2.11  42 2.11  49 2.11  50 2.11  65 2.11
  17  0.250  0.750  0.451-  49 2.11  47 2.11  48 2.11  39 2.11  64 2.11  53 2.12
  18  0.500  0.500  0.451-  50 2.11  47 2.11  48 2.11  40 2.11  63 2.11  54 2.13
  19  0.251  0.500  0.550-  54 2.10  45 2.10  53 2.11  70 2.12  47 2.13  51 2.19
  20  0.500  0.749  0.550-  54 2.10  69 2.11  53 2.12  46 2.12  52 2.12  48 2.13
  21  0.249  0.753  0.647-  53 2.08  43 2.08  68 2.11  52 2.11  51 2.14
  22  0.507  0.499  0.654-  67 2.07  44 2.12  52 2.14  54 2.20   2 2.21  51 2.22
  23  0.750  0.000  0.352-  55 2.11  42 2.11  57 2.11  58 2.11  65 2.11
  24  0.000  0.250  0.352-  56 2.11  41 2.11  57 2.11  58 2.11  66 2.11
  25  0.750  0.250  0.451-  57 2.11  55 2.11  56 2.11  40 2.11  63 2.11  61 2.11
  26  0.000  0.000  0.451-  58 2.11  55 2.11  56 2.11  39 2.11  64 2.11  62 2.11
  27  0.750  0.000  0.550-  46 2.11  61 2.11  69 2.11  62 2.11  55 2.11  59 2.14
  28  1.000  0.250  0.550-  61 2.10  45 2.11  70 2.11  62 2.11  56 2.12  60 2.14
  29  0.750  0.249  0.648-  59 2.10  61 2.10  44 2.11  60 2.11  67 2.12
  30  1.000  0.000  0.648-  62 2.10  60 2.10  59 2.10  68 2.11  43 2.11
  31  0.750  0.500  0.352-  63 2.11  57 2.11  50 2.11  65 2.11  66 2.11
  32  0.000  0.750  0.352-  64 2.11  58 2.11  49 2.11  65 2.11  66 2.11
  33  0.750  0.750  0.451-  65 2.11  55 2.11  63 2.11  64 2.11  48 2.11  69 2.11
  34  0.000  0.500  0.451-  66 2.11  56 2.11  63 2.11  64 2.11  47 2.11  70 2.12
  35  0.749  0.500  0.550-  54 2.11  61 2.11  69 2.11  70 2.12  63 2.12  67 2.13
  36  1.000  0.750  0.550-  69 2.10  70 2.11  53 2.11  62 2.11  64 2.12  68 2.14
  37  0.750  0.751  0.648-  69 2.10  59 2.10  68 2.11  52 2.11  67 2.12
  38  0.998  0.500  0.648-  67 2.07  51 2.09  70 2.10  60 2.12  68 2.12
  39  0.250  0.000  0.451-   7 2.11   9 2.11  10 2.11  17 2.11  26 2.11  11 2.11
  40  0.500  0.250  0.451-   8 2.11   9 2.11  10 2.11  18 2.11  25 2.11  12 2.13
  41  0.250  0.250  0.352-   9 2.11   8 2.11   7 2.11  15 2.11  24 2.11
  42  0.500  0.000  0.352-  10 2.11   8 2.11   7 2.11  16 2.11  23 2.11
  43  0.250  1.000  0.650-  21 2.08  13 2.09  30 2.11  14 2.12  11 2.14
  44  0.500  0.248  0.649-  14 2.09  12 2.10  13 2.11  29 2.11  22 2.12
  45  0.250  0.251  0.550-  13 2.09  19 2.10  28 2.11  11 2.11  12 2.12   9 2.12
  46  0.500  1.000  0.549-  14 2.10  10 2.11  11 2.11  27 2.11  20 2.12  12 2.12
  47  0.250  0.500  0.451-  15 2.11   9 2.11  17 2.11  18 2.11  34 2.11  19 2.13
  48  0.500  0.750  0.451-  16 2.11  10 2.11  17 2.11  18 2.11  33 2.11  20 2.13
  49  0.250  0.750  0.352-  17 2.11  15 2.11  16 2.11   7 2.11  32 2.11
  50  0.500  0.500  0.352-  18 2.11  15 2.11  16 2.11   8 2.11  31 2.11
  51  0.245  0.500  0.653-  38 2.09  21 2.14  13 2.14  19 2.19  22 2.22
  52  0.500  0.752  0.650-  14 2.10  21 2.11  37 2.11  20 2.12  22 2.14
  53  0.250  0.749  0.550-  21 2.08  19 2.11  36 2.11  20 2.12  17 2.12  11 2.12
  54  0.500  0.500  0.551-  19 2.10  20 2.10  12 2.10  35 2.11  18 2.13  22 2.20
  55  0.750  0.000  0.451-  23 2.11  10 2.11  25 2.11  26 2.11  33 2.11  27 2.11
  56  0.000  0.250  0.451-  24 2.11   9 2.11  25 2.11  26 2.11  34 2.11  28 2.12
  57  0.750  0.250  0.352-  25 2.11  23 2.11  24 2.11   8 2.11  31 2.11
  58  0.000  0.000  0.352-  26 2.11  23 2.11  24 2.11   7 2.11  32 2.11
  59  0.750  1.000  0.650-  37 2.10  29 2.10  30 2.10  14 2.11  27 2.14
  60  0.000  0.249  0.650-  30 2.10  29 2.11  13 2.11  38 2.12  28 2.14
  61  0.750  0.250  0.550-  29 2.10  28 2.10  35 2.11  27 2.11  12 2.11  25 2.11
  62  0.000  1.000  0.549-  30 2.10  11 2.11  26 2.11  36 2.11  28 2.11  27 2.11
  63  0.750  0.500  0.451-  31 2.11  25 2.11  18 2.11  33 2.11  34 2.11  35 2.12
  64  0.000  0.750  0.451-  32 2.11  26 2.11  17 2.11  33 2.11  34 2.11  36 2.12
  65  0.750  0.750  0.352-  33 2.11  23 2.11  31 2.11  32 2.11  16 2.11
  66  0.000  0.500  0.352-  34 2.11  24 2.11  31 2.11  32 2.11  15 2.11
  67  0.752  0.500  0.650-  38 2.07  22 2.07  37 2.12  29 2.12  35 2.13
  68  0.000  0.751  0.650-  30 2.11  21 2.11  37 2.11  38 2.12  36 2.14
  69  0.750  0.750  0.550-  37 2.10  36 2.10  20 2.11  35 2.11  27 2.11  33 2.11
  70  0.001  0.500  0.550-  38 2.10  36 2.11  28 2.11  19 2.12  34 2.12  35 2.12

IMPORTANT INFORMATION: All symmetrisations will be switched off!
NOSYMM: (Re-)initialisation of all symmetry stuff for point group C_1.

                                     Primitive cell

  volume of cell :    1519.6535

  direct lattice vectors                    reciprocal lattice vectors
     8.440582262  0.000000000  0.000000000     0.118475239  0.000000000  0.000000000
     0.000000000  8.440582262  0.000000000     0.000000000  0.118475239  0.000000000
     0.000000000  0.000000000 21.330436697     0.000000000  0.000000000  0.046881366

  length of vectors
     8.440582262  8.440582262 21.330436697     0.118475239  0.118475239  0.046881366

  position of ions in fractional coordinates (direct lattice)
     0.431012336  0.617876275  0.796731208
     0.422078077  0.492475380  0.751637178
     0.541161858  0.601727432  0.823419358
     0.321313408  0.500881636  0.725856370
     0.434683716  0.735088427  0.773682767
     0.330150492  0.613065649  0.829530300
     0.250000000  0.000000000  0.351610242
     0.500000000  0.250000000  0.351610242
     0.250000000  0.250000000  0.450536747
     0.500000000  0.000000000  0.450536747
     0.250275984  0.000181833  0.549547927
     0.500233635  0.250994585  0.550252766
     0.250197088  0.247127418  0.647900728
     0.500547696  0.000338013  0.647714875
     0.250000000  0.500000000  0.351610242
     0.500000000  0.750000000  0.351610242
     0.250000000  0.750000000  0.450536747
     0.500000000  0.500000000  0.450536747
     0.251119012  0.499775446  0.550246716
     0.500293751  0.748806223  0.550300309
     0.249456974  0.752821283  0.647063874
     0.507049029  0.498975491  0.653798276
     0.750000000  0.000000000  0.351610242
     0.000000000  0.250000000  0.351610242
     0.750000000  0.250000000  0.450536747
     0.000000000  0.000000000  0.450536747
     0.749760343  0.000045148  0.549670036
     0.999836682  0.250122241  0.549854123
     0.749933221  0.248831170  0.648198037
     0.999510315  0.000068415  0.648051762
     0.750000000  0.500000000  0.351610242
     0.000000000  0.750000000  0.351610242
     0.750000000  0.750000000  0.450536747
     0.000000000  0.500000000  0.450536747
     0.749106760  0.499837223  0.550130778
     0.999676900  0.749774997  0.549740567
     0.750283905  0.750979646  0.647954870
     0.997514673  0.499754738  0.648064495
     0.250000000  0.000000000  0.450536747
     0.500000000  0.250000000  0.450536747
     0.250000000  0.250000000  0.351610242
     0.500000000  0.000000000  0.351610242
     0.249648063  0.999729563  0.649820843
     0.500010990  0.247998300  0.648792780
     0.249610070  0.250592327  0.549817055
     0.499851933  0.999676256  0.549284267
     0.250000000  0.500000000  0.450536747
     0.500000000  0.750000000  0.450536747
     0.250000000  0.750000000  0.351610242
     0.500000000  0.500000000  0.351610242
     0.244629436  0.500291533  0.652656692
     0.499812112  0.751634208  0.649718712
     0.249707355  0.749334355  0.549713906
     0.499535807  0.500088811  0.550598365
     0.750000000  0.000000000  0.450536747
     0.000000000  0.250000000  0.450536747
     0.750000000  0.250000000  0.351610242
     0.000000000  0.000000000  0.351610242
     0.750378106  0.999781164  0.649935477
     0.000018145  0.249168220  0.650067892
     0.750470891  0.250005605  0.549569804
     0.000213649  0.999879192  0.549499120
     0.750000000  0.500000000  0.450536747
     0.000000000  0.750000000  0.450536747
     0.750000000  0.750000000  0.351610242
[...]
      4.21637      4.22104     11.74450        -0.001874      0.001029     -0.000308
      6.33044      0.00000      9.61015         0.011302     -0.002472      0.031933
      0.00000      2.11015      9.61015         0.009217     -0.000346      0.040949
      6.33044      2.11015      7.50000         0.001906     -0.000727     -0.403600
      0.00000      0.00000      7.50000         0.002471     -0.000937     -0.400653
      6.33363      8.43874     13.86341        -0.001160      0.000983     -0.001413
      0.00015      2.10312     13.86623        -0.001514      0.001318     -0.001023
      6.33441      2.11019     11.72256        -0.000303      0.000776     -0.002121
      0.00180      8.43956     11.72106        -0.001612      0.000588     -0.002126
      6.33044      4.22029      9.61015        -0.010045      0.000698      0.069899
      0.00000      6.33044      9.61015         0.005283     -0.001456      0.042125
      6.33044      6.33044      7.50000         0.003261      0.000687     -0.403423
      0.00000      4.22029      7.50000        -0.000468      0.000874     -0.401980
      6.34958      4.22088     13.86774        -0.000510      0.001114      0.001047
      0.00008      6.33612     13.86577        -0.001591      0.000560     -0.000938
      6.33287      6.32933     11.72324        -0.000638      0.000542     -0.001764
      0.00449      4.22040     11.72652        -0.001048      0.000268     -0.000956
    total drift:                                0.000006     -0.000815     -0.012820

  FREE ENERGIE OF THE ION-ELECTRON SYSTEM (eV)
  free  energy   TOTEN  =      -292.81886005 eV

  energy  without entropy=     -292.81886005  energy(sigma->0) =     -292.81886005

 d Force =-0.6992614E-04[-0.299E-02, 0.285E-02]  d Energy =-0.4774729E-04-0.222E-04
 d Force =-0.4940777E+01[-0.495E+01,-0.493E+01]  d Ewald  =-0.4940826E+01 0.492E-04

 Finite differences progress:
  Degree of freedom:  18/ 18
  Displacement:        2/  2
  Total:              36/ 36

 SECOND DERIVATIVES (NOT SYMMETRIZED)
               1X          1Y          1Z          2X          2Y          2Z          3X          3Y          3Z          4X          4Y          4Z          5X          5Y          5Z          6X          6Y          6Z
  1X   -53.488292    0.680915   -0.560684    7.829006   -1.079012   -0.123355   22.160020   -3.841646    9.822393   -0.402736    2.481115    1.578637    4.818837    0.420684   -0.134914   19.025390    1.746850  -10.808425
  1Y     0.675317  -44.500792    5.291914    0.729434   13.573887    7.711290   -3.090602    4.838165   -1.969623    0.420747    0.277436    0.654601    0.531623   21.088874  -10.029110    1.308751    4.586605   -1.319922
  1Z    -0.554832    5.286113  -47.208047    1.615649    6.313803   12.339438   10.351689   -2.479597   10.063554   -0.076071    1.678693    1.742036   -0.272906   -9.540146    9.867182  -11.075134   -1.478586   12.782634
  2X     7.827950    0.727468    1.616774  -31.471613    2.786347  -15.277139   -0.186063    2.571540    2.172874   23.741449   -5.001088   10.374781   -0.307795    0.310941    0.093250   -0.842589   -1.952324   -1.373801
  2Y    -1.074966   13.574537    6.319288    2.788633  -21.169333  -11.635743    0.353556    0.178064    0.566947   -2.318333    3.648133    0.275249    0.245315    3.057211    2.905745   -0.246524    0.601403    1.117829
  2Z    -0.123396    7.711204   12.341404  -15.262625  -11.628249  -29.555270    0.311868    2.115798    1.858552   13.439995   -1.220028    9.201594    0.004705    0.655379   -0.672719    0.130388    2.629799    2.264577
  3X    22.161457   -3.089923   10.365168   -0.188677    0.350725    0.316558  -23.506433    3.197271  -11.531592   -0.193785   -0.006060   -0.130907   -0.165714   -0.001728   -0.162100    1.870220   -0.463232    1.123063
  3Y    -3.838969    4.838759   -2.480222    2.571076    0.176819    2.113223    3.193954   -5.468360    1.270681   -0.181276    0.321877    0.098885   -2.245092    0.251776   -1.220893    0.319081   -0.091281    0.057188
  3Z     9.814037   -1.968842   10.064668    2.171920    0.562065    1.856768  -11.523940    1.270444  -11.617977   -0.277310    0.282395   -0.023602    1.272151   -0.354537    0.614142   -1.558673    0.232687   -1.064057
  4X    -0.402188    0.421606   -0.073361   23.741589   -2.319285   13.449717   -0.196740   -0.182464   -0.280058  -24.666883    2.516558  -10.289115    0.023372   -0.257556   -0.070736   -0.062863   -0.111056   -0.157585
  4Y     2.481531    0.275164    1.677868   -4.995543    3.651719   -1.222012   -0.006690    0.322026    0.282984    2.515555   -5.325092   -0.670928    0.085016   -0.027790    0.010304   -0.068449   -0.081078   -0.001158
  4Z     1.580570    0.654933    1.742668   10.364002    0.274595    9.202962   -0.131659    0.098505   -0.024263  -10.276893   -0.670522   -9.443776   -0.018453   -0.204766   -0.171753    0.091858   -0.157994   -0.107377
  5X     4.819784    0.530899   -0.272818   -0.308371    0.244424    0.005699   -0.166586   -2.244787    1.271498    0.022492    0.084884   -0.018974   -4.389426   -0.620821    0.162462   -0.027913    2.028002   -1.197889
  5Y     0.422997   21.090140   -9.546931    0.311148    3.055219    0.655014   -0.000256    0.252926   -0.355054   -0.257047   -0.028007   -0.204284   -0.621990  -24.391479    9.767164   -0.013440   -0.021742   -0.252982
  5Z    -0.134789  -10.021949    9.867580    0.092942    2.903430   -0.671311   -0.164721   -1.221721    0.614486   -0.070615    0.009975   -0.171625    0.162564    9.757948  -10.299876    0.079864   -1.461812    0.703661
  6X    19.026478    1.307177  -11.080250   -0.842497   -0.243384    0.131881    1.870209    0.318711   -1.560043   -0.064022   -0.068424    0.091192   -0.027470   -0.013238    0.079832  -19.950244   -1.318264   12.348924
  6Y     1.746568    4.585970   -1.480411   -1.951971    0.604587    2.630700   -0.461526   -0.091219    0.232888   -0.111341   -0.080996   -0.158210    2.027691   -0.022400   -1.461907   -1.316926   -5.044724    0.358124
  6Z   -10.802173   -1.318331   12.783456   -1.373374    1.113848    2.262149    1.122333    0.057099   -1.064280   -0.158088   -0.001329   -0.107340   -1.198444   -0.252776    0.703519   12.345753    0.356968  -14.576275

 Eigenvectors and eigenvalues of the dynamical matrix

   1 f  =   90.610106 THz   569.320084 2PiTHz 3022.427790 cm-1   374.733118 meV
             X         Y         Z           dx          dy          dz
      3.637995  5.215236 16.994625     0.269143   -0.060269    0.100319
      3.562585  4.156779 16.032749     0.031698   -0.000088    0.022487
      4.567721  5.078930 17.563894    -0.761794    0.121948   -0.462356
      2.712072  4.227733 15.482833    -0.135801    0.006228   -0.073185
      3.668984  6.204574 16.502991     0.024102    0.105813   -0.057394
      2.786662  5.174631 17.694244    -0.188396   -0.024901    0.168400
      2.110146  0.000000  7.500000            0           0           0
      4.220291  2.110146  7.500000            0           0           0
      2.110146  2.110146  9.610146            0           0           0
      4.220291  0.000000  9.610146            0           0           0
      2.112475  0.001535 11.722097            0           0           0
      4.222263  2.118540 11.737132            0           0           0
      2.111809  2.085899 13.820005            0           0           0
      4.224914  0.002853 13.816041            0           0           0
      2.110146  4.220291  7.500000            0           0           0
      4.220291  6.330437  7.500000            0           0           0
      2.110146  6.330437  9.610146            0           0           0
      4.220291  4.220291  9.610146            0           0           0
      2.119591  4.218396 11.737003            0           0           0
      4.222771  6.320361 11.738146            0           0           0
      2.105562  6.354250 13.802155            0           0           0
      4.279789  4.211644 13.945803            0           0           0
      6.330437  0.000000  7.500000            0           0           0
      0.000000  2.110146  7.500000            0           0           0
      6.330437  2.110146  9.610146            0           0           0
      0.000000  0.000000  9.610146            0           0           0
      6.328414  0.000381 11.724702            0           0           0
      8.439204  2.111177 11.728629            0           0           0
      6.329873  2.100280 13.826347            0           0           0
      8.436449  0.000577 13.823227            0           0           0
      6.330437  4.220291  7.500000            0           0           0
      0.000000  6.330437  7.500000            0           0           0
      6.330437  6.330437  9.610146            0           0           0
      0.000000  4.220291  9.610146            0           0           0
      6.322897  4.218917 11.734530            0           0           0
      8.437855  6.328538 11.726206            0           0           0
      6.332833  6.338705 13.821160            0           0           0
      8.419605  4.218221 13.823499            0           0           0
      2.110146  0.000000  9.610146            0           0           0
      4.220291  2.110146  9.610146            0           0           0
      2.110146  2.110146  7.500000            0           0           0
      4.220291  0.000000  7.500000            0           0           0
      2.107175  8.438300 13.860962            0           0           0
      4.220384  2.093250 13.839033            0           0           0
      2.106854  2.115145 11.727838            0           0           0
      4.219041  8.437850 11.716473            0           0           0
      2.110146  4.220291  9.610146            0           0           0
      4.220291  6.330437  9.610146            0           0           0
      2.110146  6.330437  7.500000            0           0           0
      4.220291  4.220291  7.500000            0           0           0
      2.064815  4.222752 13.921452            0           0           0
      4.218705  6.344230 13.858784            0           0           0
      2.107675  6.324818 11.725638            0           0           0
      4.216373  4.221041 11.744504            0           0           0
      6.330437  0.000000  9.610146            0           0           0
      0.000000  2.110146  9.610146            0           0           0
      6.330437  2.110146  7.500000            0           0           0
      0.000000  0.000000  7.500000            0           0           0
      6.333628  8.438735 13.863408            0           0           0
      0.000153  2.103125 13.866232            0           0           0
      6.334411  2.110193 11.722564            0           0           0
      0.001803  8.439563 11.721056            0           0           0
      6.330437  4.220291  9.610146            0           0           0
      0.000000  6.330437  9.610146            0           0           0
      6.330437  6.330437  7.500000            0           0           0
      0.000000  4.220291  7.500000            0           0           0
      6.349579  4.220875 13.867736            0           0           0
      0.000078  6.336121 13.865769            0           0           0
      6.332871  6.329333 11.723238            0           0           0
      0.004487  4.220404 11.726524            0           0           0

[...]

  18 f  =    1.825666 THz    11.471000 2PiTHz   60.897672 cm-1     7.550346 meV
             X         Y         Z           dx          dy          dz
      3.637995  5.215236 16.994625     0.784953   -0.108009    0.010828
      3.562585  4.156779 16.032749     0.315883   -0.039386   -0.040809
      4.567721  5.078930 17.563894     0.301593   -0.066549   -0.128016
      2.712072  4.227733 15.482833     0.042358    0.026791    0.062385
      3.668984  6.204574 16.502991     0.180393   -0.022780    0.019429
      2.786662  5.174631 17.694244     0.320622   -0.032123    0.116697
      2.110146  0.000000  7.500000            0           0           0
      4.220291  2.110146  7.500000            0           0           0
      2.110146  2.110146  9.610146            0           0           0
      4.220291  0.000000  9.610146            0           0           0
      2.112475  0.001535 11.722097            0           0           0
      4.222263  2.118540 11.737132            0           0           0
      2.111809  2.085899 13.820005            0           0           0
      4.224914  0.002853 13.816041            0           0           0
      2.110146  4.220291  7.500000            0           0           0
      4.220291  6.330437  7.500000            0           0           0
      2.110146  6.330437  9.610146            0           0           0
      4.220291  4.220291  9.610146            0           0           0
      2.119591  4.218396 11.737003            0           0           0
      4.222771  6.320361 11.738146            0           0           0
      2.105562  6.354250 13.802155            0           0           0
      4.279789  4.211644 13.945803            0           0           0
      6.330437  0.000000  7.500000            0           0           0
      0.000000  2.110146  7.500000            0           0           0
      6.330437  2.110146  9.610146            0           0           0
      0.000000  0.000000  9.610146            0           0           0
      6.328414  0.000381 11.724702            0           0           0
      8.439204  2.111177 11.728629            0           0           0
      6.329873  2.100280 13.826347            0           0           0
      8.436449  0.000577 13.823227            0           0           0
      6.330437  4.220291  7.500000            0           0           0
      0.000000  6.330437  7.500000            0           0           0
      6.330437  6.330437  9.610146            0           0           0
      0.000000  4.220291  9.610146            0           0           0
      6.322897  4.218917 11.734530            0           0           0
      8.437855  6.328538 11.726206            0           0           0
      6.332833  6.338705 13.821160            0           0           0
      8.419605  4.218221 13.823499            0           0           0
      2.110146  0.000000  9.610146            0           0           0
      4.220291  2.110146  9.610146            0           0           0
      2.110146  2.110146  7.500000            0           0           0
      4.220291  0.000000  7.500000            0           0           0
      2.107175  8.438300 13.860962            0           0           0
      4.220384  2.093250 13.839033            0           0           0
      2.106854  2.115145 11.727838            0           0           0
      4.219041  8.437850 11.716473            0           0           0
      2.110146  4.220291  9.610146            0           0           0
      4.220291  6.330437  9.610146            0           0           0
      2.110146  6.330437  7.500000            0           0           0
      4.220291  4.220291  7.500000            0           0           0
      2.064815  4.222752 13.921452            0           0           0
      4.218705  6.344230 13.858784            0           0           0
      2.107675  6.324818 11.725638            0           0           0
      4.216373  4.221041 11.744504            0           0           0
      6.330437  0.000000  9.610146            0           0           0
      0.000000  2.110146  9.610146            0           0           0
      6.330437  2.110146  7.500000            0           0           0
      0.000000  0.000000  7.500000            0           0           0
      6.333628  8.438735 13.863408            0           0           0
      0.000153  2.103125 13.866232            0           0           0
      6.334411  2.110193 11.722564            0           0           0
      0.001803  8.439563 11.721056            0           0           0
      6.330437  4.220291  9.610146            0           0           0
      0.000000  6.330437  9.610146            0           0           0
      6.330437  6.330437  7.500000            0           0           0
      0.000000  4.220291  7.500000            0           0           0
      6.349579  4.220875 13.867736            0           0           0
      0.000078  6.336121 13.865769            0           0           0
      6.332871  6.329333 11.723238            0           0           0
      0.004487  4.220404 11.726524            0           0           0

 Finite differences POTIM=   1.0000000000000000E-002