 vasp.6.4.2 20Jul23 (build Nov 17 2023 15:39:20) complex
 executed on              LinuxNV date 2024.02.27  20:18:08
 OpenACC runtime initialized ...    4 GPUs detected

 INCAR:
   SYSTEM = Oxide-Surface
   ISMEAR = 0
   SIGMA = 0.05
   EDIFF = 1E-4
   ALGO = Normal
   ISTART = 2
   IBRION = -1
   NSW = 0
   ISYM = 0
   DIPOL = 0.5 0.5 0.5
   IDIPOL = 3
   LDIPOL = .TRUE.
   LHFCALC = .TRUE.
   HFSCREEN = 0.2
   GGA = PE
   ENCUT = 450
   PREC = Normal
   LASPH = .TRUE.
   LREAL = Auto
   ISPIN = 1
   NELM = 200
   NELMIN = 8
   NCORE = 1
   KPAR = 1
   LWAVE = .FALSE.
   LCHARG = .FALSE.

 POTCAR:    PAW_PBE Mg_pv 13Apr2007
 POTCAR:    PAW_PBE O 08Apr2002
 POTCAR:    PAW_PBE Mg_pv 13Apr2007
   VRHFIN =Mg: p6s2

   TITEL  = PAW_PBE Mg_pv 13Apr2007
   POMASS =   24.305; ZVAL   =    8.000    mass and valenz
   ENMAX  =  403.929; ENMIN  =  302.947 eV

   TITEL  = PAW_PBE O 08Apr2002
   POMASS =   16.000; ZVAL   =    6.000    mass and valenz
   ENMAX  =  400.000; ENMIN  =  300.000 eV

 Optimization of the real space projectors (new method)

 maximal supplied QI-value         = 18.90
 optimisation between [QCUT,QGAM] = [ 10.77, 21.73] = [ 32.49,132.25] Ry
 Optimized for a Real-space Cutoff    1.23 Angstroem

   l    n(q)    QCUT    max X(q) W(low)/X(q) W(high)/X(q)  e(spline)
   1      7    10.771     2.974    0.18E-03    0.56E-05    0.13E-06
   1      7    10.771     4.279    0.39E-03    0.94E-04    0.28E-06
   0      8    10.771    16.381    0.27E-03    0.38E-03    0.44E-07
   0      8    10.771     5.611    0.18E-03    0.26E-03    0.32E-07
   2      7    10.771     4.652    0.12E-03    0.23E-03    0.45E-07
 Optimization of the real space projectors (new method)

 maximal supplied QI-value         = 24.76
 optimisation between [QCUT,QGAM] = [ 10.64, 21.54] = [ 31.73,129.89] Ry
 Optimized for a Real-space Cutoff    1.23 Angstroem

   l    n(q)    QCUT    max X(q) W(low)/X(q) W(high)/X(q)  e(spline)
   0      8    10.645    20.381    0.38E-03    0.60E-03    0.15E-06
   0      8    10.645    15.268    0.40E-03    0.65E-03    0.17E-06
   1      7    10.645     5.964    0.30E-03    0.63E-03    0.18E-06
   1      7    10.645     5.382    0.24E-03    0.53E-03    0.16E-06
  PAW_PBE Mg_pv 13Apr2007               :
  PAW_PBE O 08Apr2002                   :

 POSCAR: Mg  O
  positions in direct lattice
 exchange correlation table for  LEXCH =        8
   RHO(1)=    0.500       N(1)  =     2000
   RHO(2)=  100.500       N(2)  =     4000

 ion  position               nearest neighbor table
   1  0.000  0.750  0.352-  33 2.11  35 2.11  36 2.11  43 2.11  52 2.11
   2  0.250  0.000  0.352-  34 2.11  35 2.11  36 2.11  44 2.11  51 2.11
   3  0.000  0.000  0.451-  35 2.11  34 2.11  33 2.11  41 2.11  50 2.11  39 2.12
   4  0.250  0.750  0.451-  36 2.11  34 2.11  33 2.11  42 2.11  49 2.11  40 2.12
   5  1.000  0.750  0.550-  56 2.11  39 2.11  47 2.11  40 2.11  33 2.13  37 2.14
   6  0.250  1.000  0.550-  39 2.11  48 2.11  55 2.11  40 2.11  34 2.13  38 2.15
   7  0.000  0.000  0.649-  54 2.11  37 2.11  39 2.11  45 2.11  38 2.11
   8  0.250  0.750  0.649-  37 2.11  40 2.11  46 2.11  53 2.11  38 2.11
   9  0.000  0.250  0.352-  41 2.11  35 2.11  43 2.11  44 2.11  60 2.11
  10  0.250  0.500  0.352-  42 2.11  36 2.11  43 2.11  44 2.11  59 2.11
  11  0.000  0.500  0.451-  43 2.11  41 2.11  42 2.11  33 2.11  58 2.11  47 2.12
  12  0.250  0.250  0.451-  44 2.11  41 2.11  42 2.11  34 2.11  57 2.11  48 2.12
  13  0.000  0.250  0.550-  39 2.11  47 2.11  48 2.11  64 2.11  41 2.13  45 2.15
  14  0.250  0.500  0.550-  47 2.11  48 2.11  40 2.11  63 2.11  42 2.12  46 2.15
  15  0.000  0.500  0.649-  46 2.11  47 2.11  37 2.11  45 2.11  62 2.12
  16  0.250  0.250  0.649-  46 2.11  61 2.11  45 2.11  38 2.11  48 2.11
  17  0.500  0.750  0.352-  49 2.11  36 2.11  51 2.11  52 2.11  59 2.11
  18  0.750  0.000  0.352-  50 2.11  35 2.11  51 2.11  52 2.11  60 2.11
  19  0.500  0.000  0.451-  51 2.11  49 2.11  50 2.11  34 2.11  57 2.11  55 2.12
  20  0.750  0.750  0.451-  52 2.11  49 2.11  50 2.11  33 2.11  58 2.11  56 2.12
  21  0.500  0.750  0.550-  56 2.11  55 2.11  63 2.11  40 2.11  49 2.13  53 2.16
  22  0.750  1.000  0.550-  56 2.11  39 2.11  55 2.11  64 2.11  50 2.13  54 2.14
  23  0.500  0.000  0.649-  61 2.11  55 2.11  54 2.11  38 2.11  53 2.11
  24  0.751  0.751  0.650-  37 2.11  54 2.11  62 2.12  53 2.12  56 2.12
  25  0.500  0.250  0.352-  57 2.11  51 2.11  44 2.11  59 2.11  60 2.11
  26  0.750  0.500  0.352-  58 2.11  52 2.11  43 2.11  59 2.11  60 2.11
  27  0.500  0.500  0.451-  59 2.11  49 2.11  57 2.11  58 2.11  42 2.11  63 2.12
  28  0.750  0.250  0.451-  60 2.11  50 2.11  57 2.11  58 2.11  41 2.11  64 2.12
  29  0.500  0.250  0.550-  55 2.11  48 2.11  64 2.11  63 2.11  57 2.12  61 2.15
  30  0.750  0.500  0.550-  56 2.11  47 2.11  63 2.11  64 2.11  58 2.13  62 2.16
  31  0.499  0.499  0.648-  63 2.10  46 2.10  61 2.10  62 2.12  53 2.12
  32  0.750  0.250  0.649-  54 2.11  64 2.11  61 2.11  62 2.11  45 2.11
  33  0.000  0.750  0.451-   1 2.11   3 2.11   4 2.11  11 2.11  20 2.11   5 2.13
  34  0.250  0.000  0.451-   2 2.11   3 2.11   4 2.11  12 2.11  19 2.11   6 2.13
  35  0.000  0.000  0.352-   3 2.11   2 2.11   1 2.11   9 2.11  18 2.11
  36  0.250  0.750  0.352-   4 2.11   2 2.11   1 2.11  10 2.11  17 2.11
  37  0.000  0.750  0.651-   8 2.11  24 2.11  15 2.11   7 2.11   5 2.14
  38  0.250  1.000  0.651-  16 2.11   7 2.11  23 2.11   8 2.11   6 2.15
  39  0.000  0.000  0.550-   6 2.11  13 2.11  22 2.11   7 2.11   5 2.11   3 2.12
  40  0.250  0.750  0.550-   8 2.11   6 2.11  21 2.11  14 2.11   5 2.11   4 2.12
  41  0.000  0.250  0.451-   9 2.11   3 2.11  11 2.11  12 2.11  28 2.11  13 2.13
  42  0.250  0.500  0.451-  10 2.11   4 2.11  11 2.11  12 2.11  27 2.11  14 2.12
  43  0.000  0.500  0.352-  11 2.11   9 2.11  10 2.11   1 2.11  26 2.11
  44  0.250  0.250  0.352-  12 2.11   9 2.11  10 2.11   2 2.11  25 2.11
  45  1.000  0.250  0.651-  16 2.11   7 2.11  15 2.11  32 2.11  13 2.15
  46  0.250  0.500  0.651-  31 2.10  15 2.11  16 2.11   8 2.11  14 2.15
  47  1.000  0.500  0.550-  30 2.11  15 2.11  13 2.11  14 2.11   5 2.11  11 2.12
  48  0.250  0.250  0.550-   6 2.11  13 2.11  29 2.11  14 2.11  16 2.11  12 2.12
  49  0.500  0.750  0.451-  17 2.11   4 2.11  19 2.11  20 2.11  27 2.11  21 2.13
  50  0.750  0.000  0.451-  18 2.11   3 2.11  19 2.11  20 2.11  28 2.11  22 2.13
  51  0.500  0.000  0.352-  19 2.11  17 2.11  18 2.11   2 2.11  25 2.11
  52  0.750  0.750  0.352-  20 2.11  17 2.11  18 2.11   1 2.11  26 2.11
  53  0.500  0.750  0.651-   8 2.11  23 2.11  31 2.12  24 2.12  21 2.16
  54  0.750  0.001  0.651-  32 2.11  24 2.11  23 2.11   7 2.11  22 2.14
  55  0.500  1.000  0.550-  23 2.11  21 2.11  29 2.11   6 2.11  22 2.11  19 2.12
  56  0.750  0.750  0.550-  30 2.11  21 2.11   5 2.11  22 2.11  24 2.12  20 2.12
  57  0.500  0.250  0.451-  25 2.11  19 2.11  12 2.11  27 2.11  28 2.11  29 2.12
  58  0.750  0.500  0.451-  26 2.11  20 2.11  11 2.11  27 2.11  28 2.11  30 2.13
  59  0.500  0.500  0.352-  27 2.11  17 2.11  25 2.11  26 2.11  10 2.11
  60  0.750  0.250  0.352-  28 2.11  18 2.11  25 2.11  26 2.11   9 2.11
  61  0.500  0.250  0.651-  31 2.10  23 2.11  16 2.11  32 2.11  29 2.15
  62  0.750  0.500  0.651-  32 2.11  15 2.12  31 2.12  24 2.12  30 2.16
  63  0.500  0.500  0.550-  31 2.10  30 2.11  21 2.11  29 2.11  14 2.11  27 2.12
  64  0.750  0.250  0.550-  32 2.11  13 2.11  30 2.11  29 2.11  22 2.11  28 2.12

IMPORTANT INFORMATION: All symmetrisations will be switched off!
NOSYMM: (Re-)initialisation of all symmetry stuff for point group C_1.

                                     Primitive cell

  volume of cell :    1519.8199

  direct lattice vectors                    reciprocal lattice vectors
     8.440984654  0.000000000  0.000000000     0.118469591  0.000000000  0.000000000
     0.000000000  8.440984654  0.000000000     0.000000000  0.118469591  0.000000000
     0.000000000  0.000000000 21.330738491     0.000000000  0.000000000  0.046880702

  length of vectors
     8.440984654  8.440984654 21.330738491     0.118469591  0.118469591  0.046880702

  position of ions in fractional coordinates (direct lattice)
     0.000000000  0.750000000  0.351605267
     0.250000000  0.000000000  0.351605267
     0.000000000  0.000000000  0.450535089
     0.250000000  0.750000000  0.450535089
     0.999952972  0.750069933  0.550182699
     0.249960180  0.999999612  0.550158547
     0.000071767  0.000081746  0.648822182
     0.249898085  0.749854229  0.648747211
     0.000000000  0.250000000  0.351605267
     0.250000000  0.500000000  0.351605267
     0.000000000  0.500000000  0.450535089
     0.250000000  0.250000000  0.450535089
     0.000003654  0.249979963  0.550161251
     0.249748591  0.499976608  0.550096481
     0.000002192  0.500168966  0.648801089
     0.249937473  0.249969046  0.648946383
     0.500000000  0.750000000  0.351605267
     0.750000000  0.000000000  0.351605267
     0.500000000  0.000000000  0.450535089
     0.750000000  0.750000000  0.450535089
     0.500260010  0.749982125  0.550295780
     0.750090200  0.999950935  0.550181221
     0.500174938  0.000063538  0.648739290
     0.751039523  0.750995909  0.649603103
     0.500000000  0.250000000  0.351605267
     0.750000000  0.500000000  0.351605267
     0.500000000  0.500000000  0.450535089
     0.750000000  0.250000000  0.450535089
     0.499969996  0.249784160  0.550090882
     0.749966853  0.500263841  0.550296262
     0.498939953  0.498985897  0.648486242
     0.749869906  0.249927386  0.648747568
     0.000000000  0.750000000  0.450535089
     0.250000000  0.000000000  0.450535089
     0.000000000  0.000000000  0.351605267
     0.250000000  0.750000000  0.351605267
     0.000499353  0.750094498  0.650694193
     0.250109797  0.999979088  0.651114683
     0.000136884  0.000132227  0.549867764
     0.250236395  0.750027713  0.549854657
     0.000000000  0.250000000  0.450535089
     0.250000000  0.500000000  0.450535089
     0.000000000  0.500000000  0.351605267
     0.250000000  0.250000000  0.351605267
     0.999972823  0.250117149  0.651102115
     0.249721265  0.499887596  0.650744450
     0.999777560  0.499924314  0.549903838
     0.249958822  0.249941630  0.549902197
     0.500000000  0.750000000  0.450535089
     0.750000000  0.000000000  0.450535089
     0.500000000  0.000000000  0.351605267
     0.750000000  0.750000000  0.351605267
     0.499900511  0.749702745  0.651434291
     0.750092168  0.000531548  0.650666996
     0.499920717  0.999831546  0.549889159
     0.749925806  0.749919682  0.550086402
     0.500000000  0.250000000  0.450535089
     0.750000000  0.500000000  0.450535089
     0.500000000  0.500000000  0.351605267
     0.750000000  0.250000000  0.351605267
     0.499862115  0.249746378  0.650807382
     0.749521345  0.499934182  0.651493469
     0.499981670  0.499983828  0.549886888
     0.750005706  0.250251695  0.549858885

  ion indices of the primitive-cell ions
   primitive index   ion index
                 1           1
                 2           2
                 3           3
                 4           4
                 5           5
                 6           6
                 7           7
[...]
   6.32964037  2.10963323 13.83826472
   0.00000000  6.33073849  9.61024616
   2.11024616  0.00000000  9.61024616
   0.00000000  0.00000000  7.50000000
   2.11024616  6.33073849  7.50000000
   0.00421503  6.33153615 13.87978768
   2.11117296  8.44080814 13.88875702
   0.00115543  0.00111613 11.72908549
   2.11224157  6.33097241 11.72880589
   0.00000000  2.11024616  9.61024616
   2.11024616  4.22049233  9.61024616
   0.00000000  4.22049233  7.50000000
   2.11024616  2.11024616  7.50000000
   8.44075525  2.11123502 13.88848895
   2.10789336  4.21954353 13.88085968
   8.43910704  4.21985346 11.72985496
   2.10989858  2.10975346 11.72981997
   4.22049233  6.33073849  9.61024616
   6.33073849  0.00000000  9.61024616
   4.22049233  0.00000000  7.50000000
   6.33073849  6.33073849  7.50000000
   4.21965254  6.32822937 13.89557450
   6.33151648  0.00448679 13.87920754
   4.21982310  8.43956274 11.72954185
   6.33011222  6.33006053 11.73374919
   4.22049233  2.11024616  9.61024616
   6.33073849  4.22049233  9.61024616
   4.22049233  4.22049233  7.50000000
   6.33073849  2.11024616  7.50000000
   4.21932844  2.10810534 13.88220207
   6.32669817  4.21993676 13.89683681
   4.22033761  4.22035582 11.72949341
   6.33078666  2.11237071 11.72889608

--------------------------------------- Iteration      FINAL  ---------------------------------------

--------------------OUTCAR has been truncated-------------------------

[...]

--------------------OUTCAR has been truncated-------------------------

 VOLUME and BASIS-vectors are now :
  energy-cutoff  :      450.00
  volume of cell :     1519.82
      direct lattice vectors                 reciprocal lattice vectors
     8.440984654  0.000000000  0.000000000     0.118469591  0.000000000  0.000000000
     0.000000000  8.440984654  0.000000000     0.000000000  0.118469591  0.000000000
     0.000000000  0.000000000 21.330738491     0.000000000  0.000000000  0.046880702

  length of vectors
     8.440984654  8.440984654 21.330738491     0.118469591  0.118469591  0.046880702

 FORCES acting on ions
    electron-ion (+dipol)            ewald-force                    non-local-force                 convergence-correction
   0.698E-01 0.219E-01 0.207E+04   -.712E-01 -.227E-01 -.206E+04   0.875E-03 0.495E-03 -.681E+01   0.569E-05 0.723E-05 -.252E+00
   -.178E-01 0.509E-01 0.207E+04   0.188E-01 -.517E-01 -.206E+04   -.626E-03 0.462E-03 -.682E+01   -.815E-05 -.170E-05 -.252E+00
   0.242E+00 0.228E+00 0.683E+03   -.228E+00 -.216E+00 -.684E+03   -.917E-02 -.839E-02 0.507E+00   0.800E-06 0.292E-05 -.107E+00
   -.128E+00 0.332E-01 0.683E+03   0.162E+00 -.200E-01 -.683E+03   -.213E-01 -.858E-02 0.489E+00   -.545E-05 0.954E-05 -.107E+00
   0.650E+00 0.314E+00 -.689E+03   -.703E+00 -.316E+00 0.689E+03   0.431E-01 -.217E-02 -.252E+00   0.150E-04 0.175E-04 0.776E-01
   -.302E+00 0.324E+00 -.691E+03   0.306E+00 -.318E+00 0.691E+03   0.401E-02 -.549E-02 -.161E+00   -.131E-04 -.185E-04 0.775E-01
   -.269E+00 -.251E+00 -.205E+04   0.393E+00 0.374E+00 0.204E+04   -.776E-01 -.776E-01 0.580E+01   -.798E-05 -.105E-04 0.233E+00
   -.141E+01 -.363E+00 -.205E+04   0.152E+01 0.417E+00 0.204E+04   -.472E-01 -.292E-01 0.573E+01   -.426E-04 0.464E-04 0.233E+00
   0.519E-01 -.223E-01 0.207E+04   -.526E-01 0.231E-01 -.206E+04   0.436E-03 -.560E-03 -.681E+01   -.209E-05 -.685E-05 -.252E+00
   -.187E-01 -.504E-01 0.207E+04   0.190E-01 0.511E-01 -.206E+04   -.237E-03 -.427E-03 -.681E+01   -.892E-05 0.202E-05 -.252E+00
   0.327E+00 -.215E+00 0.683E+03   -.365E+00 0.205E+00 -.683E+03   0.234E-01 0.696E-02 0.514E+00   -.382E-05 -.299E-05 -.107E+00
   -.130E-01 -.453E-01 0.683E+03   0.919E-03 0.312E-01 -.684E+03   0.789E-02 0.925E-02 0.505E+00   -.953E-05 -.104E-04 -.107E+00
   0.347E+00 -.315E+00 -.691E+03   -.342E+00 0.323E+00 0.691E+03   -.606E-02 0.740E-04 -.163E+00   -.211E-04 -.132E-04 0.775E-01
   -.201E+00 -.321E+00 -.688E+03   0.195E+00 0.310E+00 0.689E+03   0.136E-01 0.775E-02 -.222E+00   -.569E-05 0.171E-04 0.774E-01
   0.177E+01 0.156E+00 -.205E+04   -.177E+01 -.282E+00 0.204E+04   -.289E-01 0.773E-01 0.577E+01   -.229E-04 0.122E-04 0.233E+00
   0.374E+00 0.410E+00 -.205E+04   -.424E+00 -.473E+00 0.205E+04   0.294E-01 0.368E-01 0.580E+01   -.574E-04 -.498E-04 0.233E+00
   -.677E-01 0.209E-01 0.207E+04   0.697E-01 -.218E-01 -.206E+04   -.122E-02 0.563E-03 -.682E+01   -.421E-05 0.586E-05 -.252E+00
   0.174E-01 0.688E-01 0.207E+04   -.183E-01 -.702E-01 -.206E+04   0.557E-03 0.896E-03 -.681E+01   0.874E-05 0.669E-05 -.252E+00
   -.228E+00 0.343E+00 0.683E+03   0.217E+00 -.378E+00 -.683E+03   0.769E-02 0.215E-01 0.509E+00   -.245E-05 -.113E-05 -.107E+00
   0.117E+00 0.125E+00 0.682E+03   -.139E+00 -.149E+00 -.682E+03   0.151E-01 0.155E-01 0.549E+00   0.619E-05 0.533E-05 -.107E+00
   -.791E+00 0.368E+00 -.693E+03   0.842E+00 -.361E+00 0.694E+03   -.461E-01 -.119E-01 -.172E+00   -.170E-04 0.403E-05 0.778E-01
   0.298E+00 0.639E+00 -.689E+03   -.298E+00 -.691E+00 0.689E+03   -.524E-02 0.434E-01 -.262E+00   0.182E-04 0.176E-04 0.776E-01
   0.152E+00 0.168E+01 -.205E+04   -.279E+00 -.169E+01 0.204E+04   0.773E-01 -.164E-01 0.576E+01   0.104E-04 -.239E-04 0.233E+00
   0.283E+01 0.265E+01 -.206E+04   -.294E+01 -.276E+01 0.205E+04   -.154E-01 -.719E-02 0.586E+01   0.456E-04 0.356E-04 0.234E+00
   -.513E-01 -.230E-01 0.207E+04   0.520E-01 0.233E-01 -.206E+04   -.400E-03 -.213E-03 -.681E+01   0.295E-05 -.671E-05 -.252E+00
   0.162E-01 -.669E-01 0.207E+04   -.173E-01 0.688E-01 -.206E+04   0.683E-03 -.124E-02 -.682E+01   0.727E-05 -.621E-05 -.252E+00
   -.322E+00 -.334E+00 0.683E+03   0.344E+00 0.356E+00 -.683E+03   -.151E-01 -.148E-01 0.505E+00   0.349E-05 0.222E-05 -.107E+00
   -.138E-02 -.132E+00 0.683E+03   0.125E-01 0.167E+00 -.683E+03   -.720E-02 -.218E-01 0.491E+00   0.116E-04 -.549E-05 -.107E+00
   -.344E+00 -.247E+00 -.689E+03   0.331E+00 0.239E+00 0.689E+03   0.949E-02 0.144E-01 -.203E+00   0.171E-04 -.684E-05 0.774E-01
   0.313E+00 -.768E+00 -.694E+03   -.306E+00 0.821E+00 0.694E+03   -.130E-01 -.465E-01 -.152E+00   0.379E-05 -.172E-04 0.778E-01
   -.264E+01 -.280E+01 -.205E+04   0.271E+01 0.285E+01 0.204E+04   0.213E-01 0.417E-01 0.569E+01   0.239E-04 0.230E-04 0.232E+00
   -.327E+00 -.141E+01 -.205E+04   0.367E+00 0.150E+01 0.204E+04   -.227E-01 -.389E-01 0.572E+01   0.532E-04 -.324E-04 0.233E+00
   0.255E+00 0.858E-01 0.512E+03   -.252E+00 -.895E-01 -.511E+03   -.438E-02 0.417E-02 -.621E-01   0.421E-05 0.943E-05 -.777E-01
   -.744E-01 0.136E+00 0.512E+03   0.770E-01 -.141E+00 -.512E+03   -.276E-02 0.539E-02 -.820E-01   -.579E-05 -.321E-05 -.777E-01
   0.407E-01 0.391E-01 0.155E+04   -.397E-01 -.383E-01 -.156E+04   -.120E-02 -.101E-02 0.316E+01   -.119E-05 0.479E-06 -.189E+00
   -.192E-01 0.105E-01 0.155E+04   0.222E-01 -.930E-02 -.156E+04   -.368E-02 -.153E-02 0.316E+01   -.634E-05 0.280E-05 -.189E+00
   0.142E+00 0.338E+00 -.156E+04   -.225E-01 -.373E+00 0.156E+04   -.140E+00 0.407E-01 -.443E+01   0.145E-04 0.299E-04 0.177E+00
   -.301E+00 0.372E+00 -.156E+04   0.363E+00 -.413E+00 0.156E+04   -.717E-01 0.408E-01 -.466E+01   -.372E-04 -.246E-04 0.177E+00
   0.214E+00 0.206E+00 -.512E+03   -.213E+00 -.205E+00 0.511E+03   -.843E-02 -.921E-02 0.252E+00   0.134E-06 0.216E-05 0.568E-01
   -.438E+00 -.759E-01 -.512E+03   0.473E+00 0.800E-01 0.511E+03   -.442E-01 -.767E-02 0.270E+00   -.675E-05 0.166E-04 0.568E-01
   0.141E+00 -.869E-01 0.512E+03   -.146E+00 0.879E-01 -.512E+03   0.524E-02 -.956E-03 -.803E-01   -.711E-05 -.704E-05 -.777E-01
   -.928E-01 -.132E+00 0.512E+03   0.109E+00 0.138E+00 -.512E+03   -.190E-01 -.664E-02 -.534E-01   -.587E-05 0.359E-05 -.777E-01
   0.515E-01 -.388E-01 0.155E+04   -.547E-01 0.379E-01 -.156E+04   0.386E-02 0.109E-02 0.316E+01   0.309E-05 -.186E-05 -.189E+00
   -.652E-02 -.110E-01 0.155E+04   0.556E-02 0.972E-02 -.156E+04   0.118E-02 0.152E-02 0.316E+01   -.434E-05 -.216E-05 -.189E+00
   0.371E+00 -.285E+00 -.156E+04   -.409E+00 0.333E+00 0.156E+04   0.368E-01 -.557E-01 -.465E+01   -.245E-04 -.332E-04 0.177E+00
   0.359E+00 -.414E+00 -.156E+04   -.422E+00 0.453E+00 0.156E+04   0.547E-01 -.404E-01 -.458E+01   -.249E-04 0.271E-04 0.177E+00
   0.722E+00 -.177E+00 -.512E+03   -.743E+00 0.165E+00 0.512E+03   0.253E-01 0.183E-01 0.259E+00   -.449E-05 -.708E-05 0.568E-01
   0.666E-01 0.428E-01 -.512E+03   -.560E-01 -.354E-01 0.512E+03   -.924E-02 -.422E-02 0.190E+00   -.172E-04 -.153E-04 0.568E-01
   -.226E+00 0.738E-01 0.511E+03   0.208E+00 -.720E-01 -.511E+03   0.206E-01 -.237E-02 -.113E+00   -.407E-05 0.329E-05 -.777E-01
   0.727E-01 0.250E+00 0.512E+03   -.782E-01 -.246E+00 -.511E+03   0.613E-02 -.410E-02 -.617E-01   0.981E-05 0.280E-05 -.777E-01
   -.404E-01 0.519E-01 0.155E+04   0.393E-01 -.550E-01 -.156E+04   0.128E-02 0.380E-02 0.316E+01   -.638E-06 0.302E-05 -.189E+00
   0.176E-01 0.201E-01 0.155E+04   -.211E-01 -.236E-01 -.156E+04   0.429E-02 0.427E-02 0.316E+01   0.627E-05 0.534E-05 -.189E+00
   -.160E+01 0.890E+00 -.156E+04   0.172E+01 -.106E+01 0.157E+04   -.983E-01 0.182E+00 -.475E+01   -.999E-05 0.175E-04 0.178E+00
   0.368E+00 0.227E+00 -.156E+04   -.413E+00 -.117E+00 0.156E+04   0.513E-01 -.132E+00 -.444E+01   0.323E-04 0.126E-04 0.177E+00
   -.186E+00 0.721E+00 -.512E+03   0.175E+00 -.744E+00 0.511E+03   0.198E-01 0.284E-01 0.267E+00   -.592E-05 -.431E-05 0.568E-01
   0.482E+00 0.493E+00 -.516E+03   -.499E+00 -.506E+00 0.515E+03   0.293E-01 0.248E-01 0.946E-01   0.551E-05 0.518E-05 0.571E-01
   -.137E+00 -.105E+00 0.512E+03   0.142E+00 0.119E+00 -.512E+03   -.641E-02 -.153E-01 -.545E-01   0.600E-05 -.609E-05 -.777E-01
   0.569E-01 -.222E+00 0.511E+03   -.547E-01 0.204E+00 -.511E+03   -.275E-02 0.204E-01 -.114E+00   0.571E-05 -.421E-05 -.777E-01
   -.497E-01 -.503E-01 0.155E+04   0.535E-01 0.539E-01 -.156E+04   -.466E-02 -.445E-02 0.316E+01   -.138E-05 -.251E-05 -.189E+00
   0.603E-02 -.215E-01 0.155E+04   -.508E-02 0.246E-01 -.156E+04   -.118E-02 -.367E-02 0.316E+01   0.574E-05 -.589E-05 -.189E+00
   -.426E+00 0.341E+00 -.156E+04   0.471E+00 -.400E+00 0.156E+04   -.443E-01 0.520E-01 -.460E+01   0.257E-04 -.223E-04 0.177E+00
   0.717E+00 -.153E+01 -.156E+04   -.898E+00 0.165E+01 0.157E+04   0.200E+00 -.907E-01 -.475E+01   0.216E-04 -.897E-05 0.178E+00
   -.742E+00 -.756E+00 -.511E+03   0.746E+00 0.766E+00 0.511E+03   -.112E-01 -.156E-01 0.332E+00   0.694E-05 0.797E-05 0.568E-01
   -.110E+00 -.449E+00 -.512E+03   0.114E+00 0.475E+00 0.511E+03   -.623E-02 -.362E-01 0.272E+00   0.196E-04 -.647E-05 0.568E-01
   0.849E-01 0.120E-01 0.194E+02   -.107E-12 -.377E-14 0.568E-13   -.819E-01 -.183E-01 -.161E+02   0.104E-05 -.436E-05 -.651E+00

 POSITION                                       TOTAL-FORCE (eV/Angst)
      0.00000      6.33074      7.50000        -0.000283     -0.000103      0.493856
      2.11025      0.00000      7.50000         0.000333     -0.000128      0.495948
      0.00000      0.00000      9.61025         0.003490      0.003231      0.024474
      2.11025      6.33074      9.61025         0.009926      0.003534      0.031316
      8.44059      6.33133     11.73580        -0.004120     -0.004009      0.028506
      2.10991      8.44098     11.73529         0.008161     -0.000743      0.049645
      0.00061      0.00069     13.83986         0.035668      0.035182     -0.127001
      2.10939      6.32951     13.83826         0.049230      0.020539     -0.092803
      0.00000      2.11025      7.50000        -0.000149      0.000338      0.495765
      2.11025      4.22049      7.50000         0.000125      0.000324      0.493580
      0.00000      4.22049      9.61025        -0.011144     -0.002291      0.027448
      2.11025      2.11025      9.61025        -0.003064     -0.003544      0.027469
      0.00003      2.11008     11.73535        -0.001414      0.007249      0.048823
      2.10812      4.22029     11.73396         0.007484     -0.002183      0.038764
      0.00002      4.22192     13.83941        -0.028349     -0.037283     -0.107590
      2.10972      2.10998     13.84251        -0.016352     -0.020826     -0.133894
      4.22049      6.33074      7.50000         0.000608     -0.000194      0.498022
      6.33074      0.00000      7.50000        -0.000169     -0.000261      0.493834
      4.22049      0.00000      9.61025        -0.002577     -0.010251      0.027618
      6.33074      6.33074      9.61025        -0.005436     -0.005533      0.036428
      4.22269      6.33059     11.73822         0.001108     -0.005562      0.058157
      6.33150      8.44057     11.73577        -0.005129     -0.003498      0.028846
      4.22197      0.00054     13.83809        -0.038516     -0.029263     -0.097283
      6.33951      6.33914     13.85651        -0.118981     -0.111186     -0.217566
      4.22049      2.11025      7.50000         0.000280      0.000150      0.493703
      6.33074      4.22049      7.50000        -0.000281      0.000655      0.498045
      4.22049      4.22049      9.61025         0.005346      0.005573      0.031782
      6.33074      2.11025      9.61025         0.003039      0.010067      0.031302
      4.22024      2.10842     11.73384        -0.002452      0.006428      0.040688
      6.33046      4.22272     11.73823        -0.006771      0.001877      0.057921
      4.21154      4.21193     13.83269         0.092484      0.091782     -0.045031
      6.32964      2.10963     13.83826         0.013689      0.046780     -0.090615
      0.00000      6.33074      9.61025        -0.001548      0.001151      0.086855
      2.11025      0.00000      9.61025        -0.000538      0.001815      0.076750
      0.00000      0.00000      7.50000        -0.000349     -0.000250     -0.447106
      2.11025      6.33074      7.50000        -0.001178     -0.000434     -0.447530
      0.00422      6.33154     13.87979        -0.042246      0.012331     -0.037730
      2.11117      8.44081     13.88876        -0.020357      0.005928     -0.121353
      0.00116      0.00112     11.72909        -0.009331     -0.010176      0.017004
      2.11224      6.33097     11.72881        -0.017589     -0.004816      0.016384
      0.00000      2.11025      9.61025         0.001695      0.000039      0.077692
      2.11025      4.22049      9.61025        -0.005273     -0.002024      0.080985
      0.00000      4.22049      7.50000         0.001359      0.000483     -0.447539
      2.11025      2.11025      7.50000         0.000469      0.000622     -0.447247
      8.44076      2.11124     13.88849         0.004614     -0.016017     -0.117098
      2.10789      4.21954     13.88086        -0.001273     -0.007219     -0.078965
      8.43911      4.21985     11.72985         0.009669      0.010482      0.011282
      2.10990      2.10975     11.72982        -0.000024      0.002751      0.005972
      4.22049      6.33074      9.61025         0.006345     -0.000804      0.079983
      6.33074      0.00000      9.61025         0.001710     -0.001388      0.086881
      4.22049      0.00000      7.50000         0.000514      0.001378     -0.447611
      6.33074      6.33074      7.50000         0.001534      0.001565     -0.448746
      4.21965      6.32823     13.89557         0.013308      0.036920     -0.159743
      6.33152      0.00449     13.87921         0.014470     -0.042950     -0.037754
      4.21982      8.43956     11.72954         0.012320      0.009754      0.009863
      6.33011      6.33006     11.73375         0.017248      0.016545      0.011692
      4.22049      2.11025      9.61025        -0.001953     -0.004097      0.079964
      6.33074      4.22049      9.61025        -0.000914      0.006295      0.079791
      4.22049      4.22049      7.50000        -0.001541     -0.001430     -0.447778
      6.33074      2.11025      7.50000        -0.000349     -0.001139     -0.447494
      4.21933      2.10811     13.88220        -0.006214     -0.000518     -0.089564
      6.32670      4.21994     13.89684         0.051232      0.012871     -0.161734
      4.22034      4.22036     11.72949        -0.008606     -0.008366      0.006983
      6.33079      2.11237     11.72890        -0.002988     -0.016153      0.016755
    total drift:                               -0.004103     -0.006343      0.025128

  FREE ENERGIE OF THE ION-ELECTRON SYSTEM (eV)
  free  energy   TOTEN  =      -446.13667448 eV

  energy  without entropy=     -446.13667448  energy(sigma->0) =     -446.13667448

     |            E. Caldeweyher, S. Ehlert & S. Grimme          |
     |          Mulliken Center for Theoretical Chemistry        |
     |                    University of Bonn                     |

Rational (Becke-Johnson) damping: hse06-D4-ATM
  s6         1.0000
  s8         1.1953
  s9         1.0000
  a1         0.3866
  a2         5.1913
 alp        16.0000

Dispersion energy:      -2.6780480344714E-01 Eh