 vasp.6.3.0 20Jan22 (build Mar 11 2022 13:48:16) complex

 executed on             LinuxIFC date 2024.02.13  07:28:45

 INCAR:
   SYSTEM = Oxide-Surface
   ISMEAR = 0
   SIGMA = 0.05
   EDIFF = 1E-5
   ALGO = ALL
   ISTART = 0
   IBRION = -1
   NSW = 0
   ISYM = 2
   DIPOL = 0.5 0.5 0.5
   IDIPOL = 3
   LDIPOL = .TRUE.
   GGA = PE
   IVDW = 263
   ENCUT = 600
   PREC = Accurate
   LASPH = .TRUE.
   LREAL = .FALSE.
   ISPIN = 1
   NELM = 200
   NELMIN = 8
   NCORE = 19
   KPAR = 1
   LWAVE = .FALSE.
   LCHARG = .FALSE.

 POTCAR:    PAW_PBE Mg_pv 13Apr2007
 POTCAR:    PAW_PBE O 08Apr2002
 POTCAR:    PAW_PBE Mg_pv 13Apr2007
   VRHFIN =Mg: p6s2

   TITEL  = PAW_PBE Mg_pv 13Apr2007
   POMASS =   24.305; ZVAL   =    8.000    mass and valenz
   ENMAX  =  403.929; ENMIN  =  302.947 eV

   TITEL  = PAW_PBE O 08Apr2002
   POMASS =   16.000; ZVAL   =    6.000    mass and valenz
   ENMAX  =  400.000; ENMIN  =  300.000 eV

  PAW_PBE Mg_pv 13Apr2007               :
  PAW_PBE O 08Apr2002                   :

 POSCAR: Mg  O
  positions in direct lattice
 exchange correlation table for  LEXCH =        8
   RHO(1)=    0.500       N(1)  =     2000
   RHO(2)=  100.500       N(2)  =     4000

 ion  position               nearest neighbor table
   1  0.000  0.750  0.352-  33 2.11  35 2.11  36 2.11  43 2.11  52 2.11
   2  0.250  0.000  0.352-  34 2.11  35 2.11  36 2.11  44 2.11  51 2.11
   3  0.000  0.000  0.451-  35 2.11  34 2.11  33 2.11  41 2.11  50 2.11  39 2.12
   4  0.250  0.750  0.451-  36 2.11  34 2.11  33 2.11  42 2.11  49 2.11  40 2.12
   5  0.000  0.750  0.550-  47 2.11  40 2.11  56 2.11  39 2.11  33 2.12  37 2.16
   6  0.250  1.000  0.550-  55 2.11  48 2.11  40 2.11  39 2.11  34 2.12  38 2.16
   7  0.000  1.000  0.648-  39 2.10  38 2.11  54 2.11  45 2.11  37 2.11
   8  0.250  0.750  0.648-  40 2.09  37 2.11  38 2.11  46 2.11  53 2.11
   9  0.000  0.250  0.352-  41 2.11  35 2.11  43 2.11  44 2.11  60 2.11
  10  0.250  0.500  0.352-  42 2.11  36 2.11  43 2.11  44 2.11  59 2.11
  11  0.000  0.500  0.451-  43 2.11  41 2.11  42 2.11  33 2.11  58 2.11  47 2.11
  12  0.250  0.250  0.451-  44 2.11  41 2.11  42 2.11  34 2.11  57 2.11  48 2.12
  13  1.000  0.250  0.550-  47 2.11  64 2.11  48 2.11  39 2.11  41 2.12  45 2.16
  14  0.251  0.500  0.551-  63 2.10  48 2.11  40 2.11  47 2.12  42 2.13  46 2.15
  15  0.000  0.500  0.648-  62 2.09  46 2.09  47 2.10  45 2.12  37 2.12
  16  0.250  0.250  0.648-  48 2.10  38 2.11  45 2.11  61 2.11  46 2.11
  17  0.500  0.750  0.352-  49 2.11  36 2.11  51 2.11  52 2.11  59 2.11
  18  0.750  0.000  0.352-  50 2.11  35 2.11  51 2.11  52 2.11  60 2.11
  19  0.500  0.000  0.451-  51 2.11  49 2.11  50 2.11  34 2.11  57 2.11  55 2.11
  20  0.750  0.750  0.451-  52 2.11  49 2.11  50 2.11  33 2.11  58 2.11  56 2.12
  21  0.500  0.749  0.551-  63 2.10  56 2.11  40 2.11  55 2.12  49 2.13  53 2.15
  22  0.750  1.000  0.550-  55 2.11  64 2.11  56 2.11  39 2.11  50 2.12  54 2.16
  23  0.500  0.000  0.648-  61 2.09  53 2.09  55 2.10  38 2.12  54 2.12
  24  0.750  0.750  0.648-  56 2.09  37 2.11  54 2.11  62 2.11  53 2.11
  25  0.500  0.250  0.352-  57 2.11  51 2.11  44 2.11  59 2.11  60 2.11
  26  0.750  0.500  0.352-  58 2.11  52 2.11  43 2.11  59 2.11  60 2.11
  27  0.500  0.500  0.451-  59 2.11  49 2.11  57 2.11  58 2.11  42 2.11  63 2.14
  28  0.750  0.250  0.451-  60 2.11  50 2.11  57 2.11  58 2.11  41 2.11  64 2.12
  29  0.500  0.251  0.551-  63 2.10  48 2.11  64 2.11  55 2.12  57 2.13  61 2.14
  30  0.749  0.500  0.551-  63 2.10  64 2.11  56 2.11  47 2.12  58 2.13  62 2.15
  31  0.500  0.499  0.655-  61 2.12  62 2.13  46 2.13  53 2.15  63 2.22
  32  0.750  0.250  0.648-  64 2.10  54 2.11  45 2.11  61 2.11  62 2.11
  33  0.000  0.750  0.451-   1 2.11   3 2.11   4 2.11  11 2.11  20 2.11   5 2.12
  34  0.250  0.000  0.451-   2 2.11   3 2.11   4 2.11  12 2.11  19 2.11   6 2.12
  35  0.000  0.000  0.352-   3 2.11   2 2.11   1 2.11   9 2.11  18 2.11
  36  0.250  0.750  0.352-   4 2.11   2 2.11   1 2.11  10 2.11  17 2.11
  37  1.000  0.750  0.651-   7 2.11  24 2.11   8 2.11  15 2.12   5 2.16
  38  0.249  1.000  0.651-   7 2.11  16 2.11   8 2.11  23 2.12   6 2.16
  39  1.000  1.000  0.550-   7 2.10   5 2.11  22 2.11   6 2.11  13 2.11   3 2.12
  40  0.250  0.750  0.550-   8 2.09   6 2.11   5 2.11  21 2.11  14 2.11   4 2.12
  41  0.000  0.250  0.451-   9 2.11   3 2.11  11 2.11  12 2.11  28 2.11  13 2.12
  42  0.250  0.500  0.451-  10 2.11   4 2.11  11 2.11  12 2.11  27 2.11  14 2.13
  43  0.000  0.500  0.352-  11 2.11   9 2.11  10 2.11   1 2.11  26 2.11
  44  0.250  0.250  0.352-  12 2.11   9 2.11  10 2.11   2 2.11  25 2.11
  45  0.000  0.249  0.651-   7 2.11  32 2.11  16 2.11  15 2.12  13 2.16
  46  0.247  0.500  0.651-  15 2.09   8 2.11  16 2.11  31 2.13  14 2.15
  47  0.000  0.500  0.550-  15 2.10   5 2.11  13 2.11  11 2.11  30 2.12  14 2.12
  48  0.250  0.250  0.550-  16 2.10   6 2.11  13 2.11  14 2.11  29 2.11  12 2.12
  49  0.500  0.750  0.451-  17 2.11   4 2.11  19 2.11  20 2.11  27 2.11  21 2.13
  50  0.750  0.000  0.451-  18 2.11   3 2.11  19 2.11  20 2.11  28 2.11  22 2.12
  51  0.500  0.000  0.352-  19 2.11  17 2.11  18 2.11   2 2.11  25 2.11
  52  0.750  0.750  0.352-  20 2.11  17 2.11  18 2.11   1 2.11  26 2.11
  53  0.500  0.753  0.651-  23 2.09   8 2.11  24 2.11  31 2.15  21 2.15
  54  0.751  1.000  0.651-   7 2.11  32 2.11  24 2.11  23 2.12  22 2.16
  55  0.500  1.000  0.550-  23 2.10  22 2.11   6 2.11  19 2.11  21 2.12  29 2.12
  56  0.750  0.750  0.550-  24 2.09  22 2.11   5 2.11  21 2.11  30 2.11  20 2.12
  57  0.500  0.250  0.451-  25 2.11  19 2.11  12 2.11  27 2.11  28 2.11  29 2.13
  58  0.750  0.500  0.451-  26 2.11  20 2.11  11 2.11  27 2.11  28 2.11  30 2.13
  59  0.500  0.500  0.352-  27 2.11  17 2.11  25 2.11  26 2.11  10 2.11
  60  0.750  0.250  0.352-  28 2.11  18 2.11  25 2.11  26 2.11   9 2.11
  61  0.500  0.247  0.651-  23 2.09  16 2.11  32 2.11  31 2.12  29 2.14
  62  0.753  0.500  0.651-  15 2.09  24 2.11  32 2.11  31 2.13  30 2.15
  63  0.500  0.500  0.551-  21 2.10  14 2.10  30 2.10  29 2.10  27 2.14  31 2.22
  64  0.750  0.250  0.550-  32 2.10  22 2.11  13 2.11  30 2.11  29 2.11  28 2.12

  LATTYP: Found a simple tetragonal cell.
 ALAT       =     8.4409846542
 C/A-ratio  =     2.5270438657

  Lattice vectors:

 A1 = (   8.4409846542,   0.0000000000,   0.0000000000)
 A2 = (   0.0000000000,   8.4409846542,   0.0000000000)
 A3 = (   0.0000000000,   0.0000000000,  21.3307384906)

Analysis of symmetry for initial positions (statically):
 Subroutine PRICEL returns:
 Original cell was already a primitive cell.

 Routine SETGRP: Setting up the symmetry group for a
 simple tetragonal supercell.

 Subroutine GETGRP returns: Found  2 space group operations
 (whereof  2 operations were pure point group operations)
 out of a pool of 16 trial point group operations.

The static configuration has the point symmetry C_1h.

Analysis of symmetry for dynamics (positions and initial velocities):
 Subroutine PRICEL returns:
 Original cell was already a primitive cell.

[...]

The dynamic configuration has the point symmetry C_1h.

Analysis of constrained symmetry for selective dynamics:
 Subroutine PRICEL returns:
 Original cell was already a primitive cell.

 Routine SETGRP: Setting up the symmetry group for a
 simple tetragonal supercell.

 Subroutine GETGRP returns: Found  2 space group operations
 (whereof  2 operations were pure point group operations)
 out of a pool of 16 trial point group operations.

The constrained configuration has the point symmetry C_1h.

 Subroutine INISYM returns: Found  2 space group operations
 (whereof  2 operations are pure point group operations),
 and found     1 'primitive' translations

                                     Primitive cell

  volume of cell :    1519.8199

  direct lattice vectors                    reciprocal lattice vectors
     8.440984654  0.000000000  0.000000000     0.118469591  0.000000000  0.000000000
     0.000000000  8.440984654  0.000000000     0.000000000  0.118469591  0.000000000
     0.000000000  0.000000000 21.330738491     0.000000000  0.000000000  0.046880702

  length of vectors
     8.440984654  8.440984654 21.330738491     0.118469591  0.118469591  0.046880702

  position of ions in fractional coordinates (direct lattice)
     0.000000000  0.750000000  0.351605267
     0.250000000  0.000000000  0.351605267
     0.000000000  0.000000000  0.450535089
     0.250000000  0.750000000  0.450535089
     0.000000002  0.749683926  0.549893410
     0.250263522  0.999989873  0.549908943
     0.000000001  0.999953889  0.648375512
     0.249680169  0.750035883  0.648043586
     0.000000000  0.250000000  0.351605267
     0.250000000  0.500000000  0.351605267
     0.000000000  0.500000000  0.450535089
     0.250000000  0.250000000  0.450535089
     0.999999995  0.250229246  0.549913058
     0.251264402  0.499907421  0.550551274
     0.000000017  0.499888939  0.648188279
     0.249874845  0.249731960  0.648151920
     0.500000000  0.750000000  0.351605267
     0.750000000  0.000000000  0.351605267
     0.500000000  0.000000000  0.450535089
     0.750000000  0.750000000  0.450535089
     0.499999996  0.748689127  0.550582001
     0.749736477  0.999989873  0.549908956
     0.499999995  0.000230885  0.648178485
     0.750319838  0.750035869  0.648043580
     0.500000000  0.250000000  0.351605267
     0.750000000  0.500000000  0.351605267
     0.500000000  0.500000000  0.450535089
     0.750000000  0.250000000  0.450535089
     0.499999999  0.251188744  0.550506166
     0.748735610  0.499907415  0.550551309
     0.500000034  0.498638580  0.654927800
     0.750125161  0.249731957  0.648151929
     0.000000000  0.750000000  0.450535089
     0.250000000  0.000000000  0.450535089
     0.000000000  0.000000000  0.351605267
     0.250000000  0.750000000  0.351605267
     0.999999998  0.750486788  0.651100364
     0.249403677  0.999906086  0.651133405
     0.999999997  0.999932321  0.549747566
     0.249933154  0.750096792  0.549885275
     0.000000000  0.250000000  0.450535089
     0.250000000  0.500000000  0.450535089
     0.000000000  0.500000000  0.351605267
     0.250000000  0.250000000  0.351605267
     0.000000002  0.249363374  0.651160803
     0.247373170  0.499927644  0.651129740
     0.000000005  0.499978499  0.549670801
     0.249818529  0.249801412  0.549853953
     0.500000000  0.750000000  0.450535089
     0.750000000  0.000000000  0.450535089
     0.500000000  0.000000000  0.351605267
     0.750000000  0.750000000  0.351605267
     0.499999996  0.752917707  0.651485348
     0.750596322  0.999906078  0.651133423
     0.500000000  0.999871141  0.549675125
     0.750066839  0.750096789  0.549885280
     0.500000000  0.250000000  0.450535089
     0.750000000  0.500000000  0.450535089
     0.500000000  0.500000000  0.351605267
     0.750000000  0.250000000  0.351605267
     0.500000002  0.247330485  0.650918475
     0.752626876  0.499927627  0.651129742
     0.500000005  0.500041645  0.550741581
     0.750181473  0.249801401  0.549853959

  ion indices of the primitive-cell ions
   primitive index   ion index
                 1           1
                 2           2
                 3           3
[...]
   O          22.256          3.319          5.836          2.780          3.429          1.084
   O          22.266          3.319          5.837          2.781          3.436          1.084
   O          20.862          3.285          5.661          2.287          1.909          1.054
   O          20.843          3.285          5.659          2.325          2.006          1.054
   O          20.884          3.286          5.664          2.305          1.956          1.055
   O          20.891          3.286          5.665          2.298          1.938          1.055
   O          22.320          3.320          5.844          2.771          3.398          1.085
   O          22.322          3.320          5.844          2.770          3.395          1.085
   O          22.272          3.319          5.838          2.783          3.441          1.084
   O          22.333          3.321          5.845          2.788          3.460          1.086
   O          20.861          3.285          5.661          2.279          1.890          1.054
   O          20.845          3.285          5.659          2.324          2.003          1.054
   O          20.891          3.286          5.665          2.297          1.936          1.055
   O          20.884          3.286          5.664          2.305          1.956          1.055
   O          22.320          3.320          5.844          2.771          3.398          1.085
   O          22.322          3.320          5.844          2.770          3.395          1.085
   O          22.373          3.322          5.851          2.796          3.489          1.087
   O          22.266          3.319          5.837          2.781          3.436          1.084
   O          20.860          3.285          5.661          2.279          1.890          1.054
   O          20.843          3.285          5.659          2.325          2.006          1.054
   O          20.891          3.286          5.665          2.299          1.939          1.055
   O          20.891          3.286          5.665          2.298          1.938          1.055
   O          22.310          3.320          5.843          2.773          3.403          1.085
   O          22.322          3.320          5.844          2.770          3.395          1.085
   O          22.301          3.320          5.841          2.783          3.440          1.085
   O          22.333          3.321          5.845          2.788          3.460          1.086
   O          20.968          3.288          5.675          2.336          2.035          1.057
   O          20.845          3.285          5.659          2.324          2.003          1.054

  vdW correction parametrized for the method pbe

  IVDW = 263
  VDW_RADIUS =    50.000 A
  VDW_SR =     0.830
  VDW_D =     6.000
  SCSRAD =   120.000 A
  LVDWSCS = T
  LSCSGRAD = T
  LSCALER0 = T
  ITIM =  1
  Edisp (eV):  -17.70527

  FORCE on cell =-STRESS in cart. coord.  units (eV):
  Direction    XX          YY          ZZ          XY          YZ          ZX
  Alpha Z   875.25928   875.25928   875.25928
  Ewald  160985.51009160985.71740************     0.00000     0.14875     0.00002
  Hartree171045.32243171045.42678************     0.00000     0.01989     0.00000
  E(xc)   -2456.48387 -2456.48359 -2461.78259     0.00000    -0.00069     0.00000
  Local  ************************342299.78798    -0.00000    -0.13155    -0.00002
  n-local -2811.96037 -2811.95657 -2832.91839     0.02988    -0.01024    -0.00001
  augment  1047.86047  1047.86051  1038.50419    -0.00000    -0.00671    -0.00000
  Kinetic  7302.33110  7302.32823  7344.11264    -0.29799     0.04409     0.00001
  Fock        0.00000     0.00000     0.00000     0.00000     0.00000     0.00000
  vdW       -23.34583   -23.34606   -16.10753    -0.02885     0.00008    -0.00006
  Total     -42.68511   -42.67779   -12.19056     0.00000     0.06363     0.00000
  in kB     -44.99817   -44.99045   -12.85116     0.00000     0.06708     0.00000

 VOLUME and BASIS-vectors are now :
  energy-cutoff  :      600.00
  volume of cell :     1519.82
      direct lattice vectors                 reciprocal lattice vectors
     8.440984654  0.000000000  0.000000000     0.118469591  0.000000000  0.000000000
     0.000000000  8.440984654  0.000000000     0.000000000  0.118469591  0.000000000
     0.000000000  0.000000000 21.330738491     0.000000000  0.000000000  0.046880702

  length of vectors
     8.440984654  8.440984654 21.330738491     0.118469591  0.118469591  0.046880702

 FORCES acting on ions:
    Electron-Ion                     Ewald-Force                    Non-Local-Force
   0.282E-05 0.255E+00 0.207E+04   -.634E-05 -.259E+00 -.206E+04   -.235E-22 0.284E-02 -.703E+01
   -.255E+00 0.278E-01 0.207E+04   0.259E+00 -.285E-01 -.206E+04   -.286E-02 0.471E-03 -.703E+01
   0.930E-05 0.598E-01 0.684E+03   -.199E-04 -.583E-01 -.685E+03   0.116E-21 -.121E-02 0.460E+00
   -.144E+01 0.140E+01 0.683E+03   0.149E+01 -.145E+01 -.683E+03   -.372E-01 0.303E-01 0.563E+00
   -.287E-05 0.749E+00 -.687E+03   -.147E-04 -.733E+00 0.687E+03   -.248E-22 0.111E-01 -.151E+00
   -.765E+00 0.339E+00 -.687E+03   0.752E+00 -.341E+00 0.687E+03   -.120E-01 -.291E-02 -.152E+00
   -.833E-05 0.160E+00 -.205E+04   0.151E-04 -.151E+00 0.204E+04   -.580E-22 -.980E-02 0.579E+01
   -.326E+01 0.251E+01 -.204E+04   0.292E+01 -.209E+01 0.204E+04   0.283E+00 -.330E+00 0.588E+01
   0.264E-05 -.255E+00 0.207E+04   -.599E-05 0.259E+00 -.206E+04   -.199E-21 -.270E-02 -.703E+01
   -.328E+00 -.283E-01 0.207E+04   0.337E+00 0.287E-01 -.206E+04   -.700E-02 -.283E-03 -.705E+01
   0.186E-04 -.698E-01 0.683E+03   -.411E-04 0.649E-01 -.684E+03   -.535E-21 0.346E-02 0.439E+00
   -.136E+01 -.141E+01 0.683E+03   0.139E+01 0.145E+01 -.683E+03   -.229E-01 -.276E-01 0.557E+00
   0.938E-05 -.738E+00 -.687E+03   0.784E-05 0.723E+00 0.687E+03   0.378E-22 -.116E-01 -.135E+00
   -.415E+01 -.416E+00 -.695E+03   0.449E+01 0.420E+00 0.695E+03   -.344E+00 0.145E-02 -.266E+00
   -.577E-04 -.160E+00 -.204E+04   0.701E-04 0.148E+00 0.204E+04   0.592E-21 0.123E-01 0.570E+01
   -.165E+01 -.212E+01 -.204E+04   0.115E+01 0.168E+01 0.204E+04   0.382E+00 0.344E+00 0.594E+01
   -.287E-05 0.328E+00 0.207E+04   0.635E-05 -.337E+00 -.206E+04   -.496E-22 0.698E-02 -.706E+01
   0.255E+00 0.278E-01 0.207E+04   -.259E+00 -.285E-01 -.206E+04   0.286E-02 0.471E-03 -.703E+01
   -.988E-05 0.159E+00 0.683E+03   0.217E-04 -.176E+00 -.684E+03   0.203E-21 0.118E-01 0.438E+00
   0.144E+01 0.140E+01 0.683E+03   -.149E+01 -.145E+01 -.683E+03   0.372E-01 0.303E-01 0.563E+00
   0.578E-05 0.438E+01 -.697E+03   0.617E-05 -.471E+01 0.697E+03   0.489E-21 0.338E+00 -.232E+00
   0.765E+00 0.339E+00 -.687E+03   -.752E+00 -.341E+00 0.687E+03   0.120E-01 -.291E-02 -.152E+00
   0.126E-04 0.929E+00 -.204E+04   0.285E-05 -.110E+01 0.204E+04   0.276E-21 0.116E+00 0.567E+01
   0.326E+01 0.251E+01 -.204E+04   -.292E+01 -.209E+01 0.204E+04   -.283E+00 -.330E+00 0.588E+01
   -.273E-05 -.328E+00 0.207E+04   0.614E-05 0.337E+00 -.206E+04   0.608E-22 -.678E-02 -.705E+01
   0.328E+00 -.283E-01 0.207E+04   -.337E+00 0.287E-01 -.206E+04   0.700E-02 -.283E-03 -.705E+01
   -.213E-04 -.171E+00 0.678E+03   0.430E-04 0.183E+00 -.679E+03   0.371E-21 -.897E-02 0.707E+00
   0.136E+01 -.141E+01 0.683E+03   -.139E+01 0.145E+01 -.683E+03   0.229E-01 -.276E-01 0.557E+00
   -.148E-05 -.405E+01 -.693E+03   0.137E-04 0.438E+01 0.693E+03   -.110E-20 -.332E+00 -.265E+00
   0.415E+01 -.416E+00 -.695E+03   -.449E+01 0.420E+00 0.695E+03   0.344E+00 0.145E-02 -.266E+00
   -.315E-04 -.442E+01 -.210E+04   -.702E-04 0.436E+01 0.209E+04   0.293E-21 0.184E+00 0.694E+01
   0.165E+01 -.212E+01 -.204E+04   -.115E+01 0.168E+01 0.204E+04   -.382E+00 0.344E+00 0.594E+01
   0.781E-05 0.624E+00 0.513E+03   -.191E-04 -.627E+00 -.513E+03   0.626E-22 0.503E-02 -.397E-01
   -.628E+00 0.988E-01 0.513E+03   0.634E+00 -.983E-01 -.513E+03   -.897E-02 -.101E-02 -.480E-01
   0.173E-05 0.160E-01 0.155E+04   -.389E-05 -.157E-01 -.156E+04   0.276E-22 -.416E-03 0.350E+01
   -.228E+00 0.224E+00 0.155E+04   0.235E+00 -.230E+00 -.156E+04   -.104E-01 0.856E-02 0.349E+01
   0.859E-05 0.739E+00 -.156E+04   0.240E-04 -.744E+00 0.157E+04   0.296E-21 -.488E-01 -.545E+01
   -.787E+00 0.373E+00 -.156E+04   0.820E+00 -.440E+00 0.157E+04   0.150E-01 0.867E-01 -.545E+01
   0.333E-04 0.490E-01 -.510E+03   -.358E-05 -.501E-01 0.510E+03   0.183E-21 0.320E-02 0.168E+00
   -.212E+01 0.194E+01 -.510E+03   0.208E+01 -.189E+01 0.509E+03   0.580E-01 -.744E-01 0.509E+00
   0.587E-05 -.630E+00 0.513E+03   -.147E-04 0.637E+00 -.513E+03   -.239E-21 -.107E-01 -.497E-01
   -.104E+01 -.109E+00 0.510E+03   0.980E+00 0.114E+00 -.510E+03   0.717E-01 -.580E-02 -.168E+00
   0.267E-05 -.160E-01 0.155E+04   -.584E-05 0.158E-01 -.156E+04   0.297E-22 0.246E-03 0.349E+01
   -.219E+00 -.224E+00 0.155E+04   0.225E+00 0.230E+00 -.156E+04   -.754E-02 -.880E-02 0.349E+01
   -.278E-04 -.741E+00 -.156E+04   0.267E-04 0.749E+00 0.157E+04   0.113E-20 0.448E-01 -.544E+01
   -.661E+01 -.658E+00 -.156E+04   0.643E+01 0.725E+00 0.156E+04   0.506E+00 -.887E-01 -.456E+01
   -.573E-04 -.581E-01 -.508E+03   0.877E-06 0.595E-01 0.507E+03   -.644E-22 -.349E-02 0.477E+00
   -.172E+01 -.188E+01 -.509E+03   0.167E+01 0.184E+01 0.509E+03   0.801E-01 0.752E-01 0.489E+00
   -.850E-05 0.104E+01 0.510E+03   0.188E-04 -.978E+00 -.509E+03   0.122E-23 -.757E-01 -.183E+00
   0.628E+00 0.988E-01 0.513E+03   -.634E+00 -.983E-01 -.513E+03   0.897E-02 -.101E-02 -.480E-01
   -.175E-05 0.250E-01 0.155E+04   0.395E-05 -.267E-01 -.156E+04   0.178E-22 0.236E-02 0.349E+01
   0.228E+00 0.224E+00 0.155E+04   -.235E+00 -.230E+00 -.156E+04   0.104E-01 0.856E-02 0.349E+01
   0.414E-04 0.825E+01 -.156E+04   0.229E-07 -.818E+01 0.156E+04   -.187E-23 -.434E+00 -.472E+01
   0.787E+00 0.373E+00 -.156E+04   -.820E+00 -.440E+00 0.157E+04   -.150E-01 0.867E-01 -.545E+01
   -.491E-05 0.477E+00 -.508E+03   0.132E-04 -.502E+00 0.507E+03   -.147E-21 0.374E-01 0.471E+00
   0.212E+01 0.194E+01 -.510E+03   -.208E+01 -.189E+01 0.509E+03   -.580E-01 -.744E-01 0.509E+00
   -.769E-05 -.104E+01 0.510E+03   0.181E-04 0.990E+00 -.510E+03   -.528E-21 0.686E-01 -.152E+00
   0.104E+01 -.109E+00 0.510E+03   -.980E+00 0.114E+00 -.510E+03   -.717E-01 -.580E-02 -.168E+00
   -.276E-05 -.249E-01 0.155E+04   0.593E-05 0.268E-01 -.156E+04   -.381E-21 -.260E-02 0.347E+01
   0.219E+00 -.224E+00 0.155E+04   -.225E+00 0.230E+00 -.156E+04   0.754E-02 -.880E-02 0.349E+01
   -.909E-05 -.541E+01 -.155E+04   -.241E-04 0.511E+01 0.156E+04   -.116E-20 0.610E+00 -.445E+01
   0.661E+01 -.657E+00 -.156E+04   -.643E+01 0.725E+00 0.156E+04   -.506E+00 -.887E-01 -.456E+01
   -.510E-04 -.737E+00 -.534E+03   0.383E-05 0.767E+00 0.535E+03   0.130E-21 -.441E-01 -.965E+00
   0.172E+01 -.188E+01 -.509E+03   -.167E+01 0.184E+01 0.509E+03   -.801E-01 0.752E-01 0.489E+00
   -.604E-03 -.481E+00 0.168E+02   -.112E-12 0.170E-12 0.699E-11   -.416E-16 0.479E+00 -.168E+02

 POSITION                                       TOTAL-FORCE (eV/Angst)
      0.00000      6.33074      7.50000        -0.000000     -0.001687      0.512840
      2.11025      0.00000      7.50000         0.001755     -0.000187      0.513391
      0.00000      0.00000      9.61025        -0.000000      0.000397      0.110001
      2.11025      6.33074      9.61025         0.014411     -0.012111      0.116914
      0.00000      6.32807     11.72963        -0.000000      0.023690     -0.009095
      2.11247      8.44090     11.72996        -0.022408     -0.004119     -0.007716
      0.00000      8.44060     13.83033        -0.000000     -0.000801     -0.074411
      2.10755      6.33104     13.82325        -0.049930      0.091044     -0.038268
      0.00000      2.11025      7.50000        -0.000000      0.001716      0.513570
      2.11025      4.22049      7.50000         0.003221      0.000239      0.516660
      0.00000      4.22049      9.61025        -0.000000     -0.001389      0.125114
      2.11025      2.11025      9.61025         0.009166      0.010791      0.113361
      8.44098      2.11218     11.73005        -0.000000     -0.023979     -0.009487
      2.12092      4.21971     11.74367        -0.003918      0.004651     -0.088195
      0.00000      4.21955     13.82633        -0.000000      0.000216     -0.038524
      2.10919      2.10798     13.82556        -0.114665     -0.094186     -0.078371
      4.22049      6.33074      7.50000        -0.000000     -0.003162      0.517708
      6.33074      0.00000      7.50000        -0.001755     -0.000187      0.513391
      4.22049      0.00000      9.61025        -0.000000     -0.004621      0.125848
      6.33074      6.33074      9.61025        -0.014411     -0.012111      0.116914
      4.22049      6.31967     11.74432        -0.000000      0.004454     -0.063883
      6.32851      8.44090     11.72996         0.022408     -0.004119     -0.007716
      4.22049      0.00195     13.82613        -0.000000     -0.050070     -0.031557
      6.33344      6.33104     13.82325         0.049930      0.091044     -0.038268
      4.22049      2.11025      7.50000        -0.000000      0.003192      0.515652
      6.33074      4.22049      7.50000        -0.003221      0.000239      0.516660
      4.22049      4.22049      9.61025        -0.000000      0.003469      0.132259
      6.33074      2.11025      9.61025        -0.009166      0.010791      0.113361
      4.22049      2.12028     11.74270        -0.000000     -0.005992     -0.101938
      6.32007      4.21971     11.74367         0.003918      0.004651     -0.088195
      4.22049      4.20900     13.97009        -0.000000      0.117680     -0.945179
      6.33179      2.10798     13.82556         0.114665     -0.094186     -0.078371
      0.00000      6.33074      9.61025        -0.000000      0.002776      0.054405
      2.11025      0.00000      9.61025        -0.003654     -0.000461      0.053412
      0.00000      0.00000      7.50000        -0.000000     -0.000102     -0.471638
      2.11025      6.33074      7.50000        -0.002882      0.002387     -0.473806
      8.44098      6.33485     13.88845        -0.000000     -0.053864     -0.137517
      2.10521      8.44019     13.88916         0.047631      0.020327     -0.139784
      8.44098      8.44041     11.72652        -0.000000      0.002008     -0.023914
      2.10968      6.33156     11.72946         0.018328     -0.026877     -0.001796
      0.00000      2.11025      9.61025        -0.000000     -0.003971      0.053191
      2.11025      4.22049      9.61025         0.015938     -0.001201      0.082889
      0.00000      4.22049      7.50000        -0.000000      0.000090     -0.473954
      2.11025      2.11025      7.50000        -0.002074     -0.002400     -0.473482
      0.00000      2.10487     13.88974        -0.000000      0.053056     -0.137954
      2.08807      4.21988     13.88908         0.327723     -0.021364      0.082988
      0.00000      4.22031     11.72488        -0.000000     -0.001992      0.041431
      2.10871      2.10857     11.72879         0.030315      0.027363      0.009841
      4.22049      6.33074      9.61025        -0.000000     -0.016891      0.081380
      6.33074      0.00000      9.61025         0.003654     -0.000461      0.053412
      4.22049      0.00000      7.50000        -0.000000      0.000685     -0.474022
      6.33074      6.33074      7.50000         0.002882      0.002387     -0.473806
      4.22049      6.35537     13.89666        -0.000000     -0.364564      0.030615
      6.33577      8.44019     13.88916        -0.047631      0.020327     -0.139784
      4.22049      8.43990     11.72498        -0.000000      0.012386      0.038023
      6.33130      6.33156     11.72946        -0.018328     -0.026877     -0.001796
      4.22049      2.11025      9.61025        -0.000000      0.015380      0.083467
      6.33074      4.22049      9.61025        -0.015938     -0.001201      0.082889
      4.22049      4.22049      7.50000        -0.000000     -0.000672     -0.478215
      6.33074      2.11025      7.50000         0.002074     -0.002400     -0.473482
      4.22049      2.08771     13.88457        -0.000000      0.319322      0.116178
      6.35291      4.21988     13.88908        -0.327723     -0.021364      0.082988
      4.22049      4.22084     11.74772        -0.000000     -0.014552      0.043530
      6.33227      2.10857     11.72879        -0.030315      0.027363      0.009841
    total drift:                               -0.000604     -0.002116      0.016250

  FREE ENERGIE OF THE ION-ELECTRON SYSTEM (eV)
  free  energy   TOTEN  =      -389.80114543 eV

  energy  without entropy=     -389.80114543  energy(sigma->0) =     -389.80114543