 vasp.6.3.0 20Jan22 (build Apr  1 2022 16:44:48) complex
 executed on        HPECrayEX_GCC date 2022.11.01  20:53:53

 INCAR:
   SYSTEM = MgO-rocksalt
   ISMEAR = 0
   SIGMA = 0.05
   EDIFF = 1E-9
   ALGO = ALL
   ISTART = 0
   IBRION = 2
   NSW = 1000
   ISYM = 0
   ISIF = 2
   EDIFFG = -0.01
   DIPOL = 0.5 0.5 0.5
   IDIPOL = 3
   LDIPOL = .TRUE.
   GGA = PE
   IVDW = 1
   VDW_C6 = 1.23 0.70 0.63 0.70
   VDW_R0 = 1.397 1.342 1.243 1.342
   ENCUT = 600
   PREC = Accurate
   LASPH = .TRUE.
   LREAL = .FALSE.
   ISPIN = 2
   MAGMOM = 1.0 0.0 0.0 0.0 0.0 0.0 0.0 0.0 0.0 0.0 0.0 0.0 0.0 0.0 0.0 0.0 0.0 0.0 0.0 0.0 0.0 0.0 0.0 0.0 0.0 0.0 0.0 0.0 0.0 0.0 0.0 0.0 0.0 0.0 0.0 0.0 0.0 0.0 0.0 0.0 0.0 0.0 0.0 0.0 0.0 0.0 0.0 0.0 0.0 0.0 0.0 0.0 0.0 0.0 0.0 0.0 0.0 0.0 0.0 0.0 0.0 0.0 0.0 0.0 0.0 0.0
   NELM = 200
   NELMIN = 8
   NCORE = 8
   KPAR = 1
   LWAVE = .FALSE.
   LCHARG = .FALSE.

 POTCAR:    PAW_PBE N 08Apr2002
 POTCAR:    PAW_PBE O 08Apr2002
 POTCAR:    PAW_PBE Mg_pv 13Apr2007
 POTCAR:    PAW_PBE O 08Apr2002
 POTCAR:    PAW_PBE N 08Apr2002
   VRHFIN =N: s2p3

   TITEL  = PAW_PBE N 08Apr2002
   POMASS =   14.001; ZVAL   =    5.000    mass and valenz
   ENMAX  =  400.000; ENMIN  =  300.000 eV

[...]

   TITEL  = PAW_PBE Mg_pv 13Apr2007
   POMASS =   24.305; ZVAL   =    8.000    mass and valenz
   ENMAX  =  403.929; ENMIN  =  302.947 eV

   TITEL  = PAW_PBE O 08Apr2002
   POMASS =   16.000; ZVAL   =    6.000    mass and valenz
   ENMAX  =  400.000; ENMIN  =  300.000 eV

  PAW_PBE N 08Apr2002                   :
  PAW_PBE O 08Apr2002                   :
  PAW_PBE Mg_pv 13Apr2007               :
  PAW_PBE O 08Apr2002                   :

 POSCAR:  N  O Mg  O
  positions in direct lattice
 exchange correlation table for  LEXCH =        8
   RHO(1)=    0.500       N(1)  =     2000
   RHO(2)=  100.500       N(2)  =     4000

 ion  position               nearest neighbor table
   1  0.625  0.625  0.756-   2 1.17
   2  0.625  0.625  0.811-   1 1.17
   3  0.250  0.000  0.351-  35 2.12  37 2.12  38 2.12  45 2.12  54 2.12
   4  0.500  0.250  0.351-  36 2.12  37 2.12  38 2.12  46 2.12  53 2.12
   5  0.250  0.250  0.450-  37 2.12  36 2.12  35 2.12  43 2.12  52 2.12  41 2.12
   6  0.500  0.000  0.450-  38 2.12  36 2.12  35 2.12  44 2.12  51 2.12  42 2.12
   7  0.250  0.000  0.550-  41 2.12  42 2.12  49 2.12  58 2.12  35 2.13  39 2.15
   8  0.500  0.250  0.550-  41 2.12  42 2.12  50 2.12  57 2.12  36 2.13  40 2.15
   9  0.250  0.250  0.649-  41 2.11  40 2.12  39 2.12  47 2.12  56 2.12
  10  0.500  0.000  0.649-  42 2.11  40 2.12  39 2.12  48 2.12  55 2.12
  11  0.250  0.500  0.351-  43 2.12  37 2.12  45 2.12  46 2.12  62 2.12
  12  0.500  0.750  0.351-  44 2.12  38 2.12  45 2.12  46 2.12  61 2.12
  13  0.250  0.750  0.450-  45 2.12  43 2.12  44 2.12  35 2.12  60 2.12  49 2.12
  14  0.500  0.500  0.450-  46 2.12  43 2.12  44 2.12  36 2.12  59 2.12  50 2.12
  15  0.250  0.500  0.550-  41 2.12  49 2.12  50 2.12  66 2.12  43 2.13  47 2.15
  16  0.500  0.750  0.550-  42 2.12  49 2.12  50 2.12  65 2.12  44 2.13  48 2.15
  17  0.250  0.750  0.649-  49 2.11  47 2.12  48 2.12  39 2.12  64 2.12
  18  0.500  0.500  0.649-  50 2.11  47 2.12  48 2.12  40 2.12  63 2.12
  19  0.750  0.000  0.351-  51 2.12  38 2.12  53 2.12  54 2.12  61 2.12
  20  0.000  0.250  0.351-  52 2.12  37 2.12  53 2.12  54 2.12  62 2.12
  21  0.750  0.250  0.450-  53 2.12  51 2.12  52 2.12  36 2.12  59 2.12  57 2.12
  22  0.000  0.000  0.450-  54 2.12  51 2.12  52 2.12  35 2.12  60 2.12  58 2.12
  23  0.750  0.000  0.550-  42 2.12  57 2.12  58 2.12  65 2.12  51 2.13  55 2.15
  24  0.000  0.250  0.550-  41 2.12  57 2.12  58 2.12  66 2.12  52 2.13  56 2.15
  25  0.750  0.250  0.649-  57 2.11  55 2.12  56 2.12  40 2.12  63 2.12
  26  0.000  0.000  0.649-  58 2.11  55 2.12  56 2.12  39 2.12  64 2.12
  27  0.750  0.500  0.351-  59 2.12  53 2.12  46 2.12  61 2.12  62 2.12
  28  0.000  0.750  0.351-  60 2.12  54 2.12  45 2.12  61 2.12  62 2.12
  29  0.750  0.750  0.450-  61 2.12  51 2.12  59 2.12  60 2.12  44 2.12  65 2.12
  30  0.000  0.500  0.450-  62 2.12  52 2.12  59 2.12  60 2.12  43 2.12  66 2.12
  31  0.750  0.500  0.550-  50 2.12  57 2.12  65 2.12  66 2.12  59 2.13  63 2.15
  32  0.000  0.750  0.550-  49 2.12  58 2.12  65 2.12  66 2.12  60 2.13  64 2.15
  33  0.750  0.750  0.649-  65 2.11  55 2.12  63 2.12  64 2.12  48 2.12
  34  0.000  0.500  0.649-  66 2.11  56 2.12  63 2.12  64 2.12  47 2.12
  35  0.250  0.000  0.450-   3 2.12   5 2.12   6 2.12  13 2.12  22 2.12   7 2.13
  36  0.500  0.250  0.450-   4 2.12   5 2.12   6 2.12  14 2.12  21 2.12   8 2.13
  37  0.250  0.250  0.351-   5 2.12   4 2.12   3 2.12  11 2.12  20 2.12
  38  0.500  0.000  0.351-   6 2.12   4 2.12   3 2.12  12 2.12  19 2.12
  39  0.250  0.000  0.651-   9 2.12  10 2.12  17 2.12  26 2.12   7 2.15
  40  0.500  0.250  0.651-   9 2.12  10 2.12  18 2.12  25 2.12   8 2.15
  41  0.250  0.250  0.550-   9 2.11   8 2.12   7 2.12  15 2.12  24 2.12   5 2.12
  42  0.500  0.000  0.550-  10 2.11   8 2.12   7 2.12  16 2.12  23 2.12   6 2.12
  43  0.250  0.500  0.450-  11 2.12   5 2.12  13 2.12  14 2.12  30 2.12  15 2.13
  44  0.500  0.750  0.450-  12 2.12   6 2.12  13 2.12  14 2.12  29 2.12  16 2.13
  45  0.250  0.750  0.351-  13 2.12  11 2.12  12 2.12   3 2.12  28 2.12
  46  0.500  0.500  0.351-  14 2.12  11 2.12  12 2.12   4 2.12  27 2.12
  47  0.250  0.500  0.651-   9 2.12  17 2.12  18 2.12  34 2.12  15 2.15
  48  0.500  0.750  0.651-  10 2.12  17 2.12  18 2.12  33 2.12  16 2.15
  49  0.250  0.750  0.550-  17 2.11  15 2.12  16 2.12   7 2.12  32 2.12  13 2.12
  50  0.500  0.500  0.550-  18 2.11  15 2.12  16 2.12   8 2.12  31 2.12  14 2.12
  51  0.750  0.000  0.450-  19 2.12   6 2.12  21 2.12  22 2.12  29 2.12  23 2.13
  52  0.000  0.250  0.450-  20 2.12   5 2.12  21 2.12  22 2.12  30 2.12  24 2.13
  53  0.750  0.250  0.351-  21 2.12  19 2.12  20 2.12   4 2.12  27 2.12
  54  0.000  0.000  0.351-  22 2.12  19 2.12  20 2.12   3 2.12  28 2.12
  55  0.750  0.000  0.651-  10 2.12  25 2.12  26 2.12  33 2.12  23 2.15
  56  0.000  0.250  0.651-   9 2.12  25 2.12  26 2.12  34 2.12  24 2.15
  57  0.750  0.250  0.550-  25 2.11  23 2.12  24 2.12   8 2.12  31 2.12  21 2.12
  58  0.000  0.000  0.550-  26 2.11  23 2.12  24 2.12   7 2.12  32 2.12  22 2.12
  59  0.750  0.500  0.450-  27 2.12  21 2.12  14 2.12  29 2.12  30 2.12  31 2.13
  60  0.000  0.750  0.450-  28 2.12  22 2.12  13 2.12  29 2.12  30 2.12  32 2.13
  61  0.750  0.750  0.351-  29 2.12  19 2.12  27 2.12  28 2.12  12 2.12
  62  0.000  0.500  0.351-  30 2.12  20 2.12  27 2.12  28 2.12  11 2.12
  63  0.750  0.500  0.651-  18 2.12  25 2.12  33 2.12  34 2.12  31 2.15
  64  0.000  0.750  0.651-  17 2.12  26 2.12  33 2.12  34 2.12  32 2.15
  65  0.750  0.750  0.550-  33 2.11  23 2.12  31 2.12  32 2.12  16 2.12  29 2.12
  66  0.000  0.500  0.550-  34 2.11  24 2.12  31 2.12  32 2.12  15 2.12  30 2.12

IMPORTANT INFORMATION: All symmetrisations will be switched off!
NOSYMM: (Re-)initialisation of all symmetry stuff for point group C_1.

                                     Primitive cell

  volume of cell :    1530.6606

  direct lattice vectors                    reciprocal lattice vectors
     8.467142631  0.000000000  0.000000000     0.118103597  0.000000000  0.000000000
     0.000000000  8.467142631  0.000000000     0.000000000  0.118103597  0.000000000
     0.000000000  0.000000000 21.350356973     0.000000000  0.000000000  0.046837624

  length of vectors
     8.467142631  8.467142631 21.350356973     0.118103597  0.118103597  0.046837624

  position of ions in fractional coordinates (direct lattice)
     0.625000000  0.625000000  0.756258623
     0.624999998  0.624999988  0.811003551
     0.250000000  0.000000000  0.351282183
     0.500000000  0.250000000  0.351282183
     0.250000000  0.250000000  0.450427394
     0.500000000  0.000000000  0.450427394
     0.250000000  0.000000000  0.550191116
     0.500000000  0.250000000  0.550191116
     0.250000000  0.250000000  0.648532086
     0.500000000  0.000000000  0.648532086
     0.250000000  0.500000000  0.351282183
     0.500000000  0.750000000  0.351282183
     0.250000000  0.750000000  0.450427394
     0.500000000  0.500000000  0.450427394
     0.250000000  0.500000000  0.550191116
     0.500000000  0.750000000  0.550191116
     0.250000000  0.750000000  0.648532086
     0.500000000  0.500000000  0.648532086
     0.750000000  0.000000000  0.351282183
     0.000000000  0.250000000  0.351282183
     0.750000000  0.250000000  0.450427394
     0.000000000  0.000000000  0.450427394
     0.750000000  0.000000000  0.550191116
     0.000000000  0.250000000  0.550191116
     0.750000000  0.250000000  0.648532086
     0.000000000  0.000000000  0.648532086
     0.750000000  0.500000000  0.351282183
     0.000000000  0.750000000  0.351282183
     0.750000000  0.750000000  0.450427394
     0.000000000  0.500000000  0.450427394
     0.750000000  0.500000000  0.550191116
     0.000000000  0.750000000  0.550191116
     0.750000000  0.750000000  0.648532086
     0.000000000  0.500000000  0.648532086
     0.250000000  0.000000000  0.450427394
     0.500000000  0.250000000  0.450427394
     0.250000000  0.250000000  0.351282183
     0.500000000  0.000000000  0.351282183
     0.250000000  0.000000000  0.650785562
     0.500000000  0.250000000  0.650785562
     0.250000000  0.250000000  0.549814593
     0.500000000  0.000000000  0.549814593
     0.250000000  0.500000000  0.450427394
     0.500000000  0.750000000  0.450427394
     0.250000000  0.750000000  0.351282183
     0.500000000  0.500000000  0.351282183
     0.250000000  0.500000000  0.650785562
     0.500000000  0.750000000  0.650785562
     0.250000000  0.750000000  0.549814593
     0.500000000  0.500000000  0.549814593
     0.750000000  0.000000000  0.450427394
     0.000000000  0.250000000  0.450427394
     0.750000000  0.250000000  0.351282183
     0.000000000  0.000000000  0.351282183
     0.750000000  0.000000000  0.650785562
     0.000000000  0.250000000  0.650785562
     0.750000000  0.250000000  0.549814593
     0.000000000  0.000000000  0.549814593
     0.750000000  0.500000000  0.450427394
     0.000000000  0.750000000  0.450427394
     0.750000000  0.750000000  0.351282183
     0.000000000  0.500000000  0.351282183
     0.750000000  0.500000000  0.650785562
     0.000000000  0.750000000  0.650785562
     0.750000000  0.750000000  0.549814593
     0.000000000  0.500000000  0.549814593

  ion indices of the primitive-cell ions
   primitive index   ion index
                 1           1
                 2           2
                 3           3
                 4           4
                 5           5
                 6           6
                 7           7
                 8           8
                 9           9
                10          10
                11          11
                12          12
                13          13
                14          14
                15          15
                16          16
                17          17
                18          18
                19          19
                20          20
                21          21
                22          22
[...]
   4.23357132  4.23357132  9.61678566
   2.11678566  4.23357132 11.74677673
   4.23357132  6.35035697 11.74677673
   2.11678566  6.35035697 13.84639155
   4.23357132  4.23357132 13.84639155
   6.35035697  0.00000000  7.50000000
   0.00000000  2.11678566  7.50000000
   6.35035697  2.11678566  9.61678566
   0.00000000  0.00000000  9.61678566
   6.35035697  0.00000000 11.74677673
   0.00000000  2.11678566 11.74677673
   6.35035697  2.11678566 13.84639155
   0.00000000  0.00000000 13.84639155
   6.35035697  4.23357132  7.50000000
   0.00000000  6.35035697  7.50000000
   6.35035697  6.35035697  9.61678566
   0.00000000  4.23357132  9.61678566
   6.35035697  4.23357132 11.74677673
   0.00000000  6.35035697 11.74677673
   6.35035697  6.35035697 13.84639155
   0.00000000  4.23357132 13.84639155
   2.11678566  0.00000000  9.61678566
   4.23357132  2.11678566  9.61678566
   2.11678566  2.11678566  7.50000000
   4.23357132  0.00000000  7.50000000
   2.11678566  0.00000000 13.89450407
   4.23357132  2.11678566 13.89450407
   2.11678566  2.11678566 11.73873783
   4.23357132  0.00000000 11.73873783
   2.11678566  4.23357132  9.61678566
   4.23357132  6.35035697  9.61678566
   2.11678566  6.35035697  7.50000000
   4.23357132  4.23357132  7.50000000
   2.11678566  4.23357132 13.89450407
   4.23357132  6.35035697 13.89450407
   2.11678566  6.35035697 11.73873783
   4.23357132  4.23357132 11.73873783
   6.35035697  0.00000000  9.61678566
   0.00000000  2.11678566  9.61678566
   6.35035697  2.11678566  7.50000000
   0.00000000  0.00000000  7.50000000
   6.35035697  0.00000000 13.89450407
   0.00000000  2.11678566 13.89450407
   6.35035697  2.11678566 11.73873783
   0.00000000  0.00000000 11.73873783
   6.35035697  4.23357132  9.61678566
   0.00000000  6.35035697  9.61678566
   6.35035697  6.35035697  7.50000000
   0.00000000  4.23357132  7.50000000
   6.35035697  4.23357132 13.89450407
   0.00000000  6.35035697 13.89450407
   6.35035697  6.35035697 11.73873783
   0.00000000  4.23357132 11.73873783

--------------------------------------- Iteration      FINAL  ---------------------------------------

--------------------OUTCAR has been truncated-------------------------

[...]

--------------------OUTCAR has been truncated-------------------------

  Number of pair interactions contributing to vdW energy:  763767
  Edisp (eV):   -3.66275

  FORCE on cell =-STRESS in cart. coord.  units (eV):
  Direction    XX          YY          ZZ          XY          YZ          ZX
  Alpha Z   903.80560   903.80560   903.80560
  Ewald  156962.17595156962.17595************     7.37895    -0.00001     0.00001
  Hartree167400.53620167400.53620************     7.37668     0.00000     0.00001
  E(xc)   -2506.47316 -2506.47316 -2510.15907     0.04748    -0.00000    -0.00000
  Local  ************************333734.43223   -23.97886     0.00000    -0.00002
  n-local -2842.54892 -2842.54892 -2870.76196    -3.52009     0.00000    -0.00000
  augment  1055.09708  1055.09708  1045.11225     0.91697    -0.00000    -0.00000
  Kinetic  7531.74455  7531.74456  7545.37547    11.37014     0.00000     0.00000
  Fock        0.00000     0.00000     0.00000     0.00000     0.00000     0.00000
  vdW        -5.26905    -5.26905    -4.30947    -0.00826     0.00000     0.00000
  Total     -29.06306   -29.06306    -2.68303    -0.41700     0.00000     0.00000
  in kB     -30.42097   -30.42097    -2.80839    -0.43648     0.00000     0.00000

 VOLUME and BASIS-vectors are now :
  energy-cutoff  :      600.00
  volume of cell :     1530.66
      direct lattice vectors                 reciprocal lattice vectors
     8.467142631  0.000000000  0.000000000     0.118103597  0.000000000  0.000000000
     0.000000000  8.467142631  0.000000000     0.000000000  0.118103597  0.000000000
     0.000000000  0.000000000 21.350356973     0.000000000  0.000000000  0.046837624

  length of vectors
     8.467142631  8.467142631 21.350356973     0.118103597  0.118103597  0.046837624

 FORCES acting on ions:
    Electron-Ion                     Ewald-Force                    Non-Local-Force
   -.793E-05 -.190E-04 -.110E+04   0.843E-05 0.213E-04 0.106E+04   -.534E-06 -.246E-05 0.421E+02
   -.119E-05 0.939E-05 -.154E+04   0.871E-06 -.122E-04 0.160E+04   0.318E-06 0.280E-05 -.586E+02
   0.176E+00 -.176E+00 0.207E+04   -.179E+00 0.179E+00 -.206E+04   0.194E-02 -.194E-02 -.703E+01
   0.176E+00 0.170E+00 0.207E+04   -.179E+00 -.170E+00 -.206E+04   0.178E-02 -.901E-04 -.703E+01
   0.513E+00 0.513E+00 0.714E+03   -.503E+00 -.503E+00 -.715E+03   -.652E-02 -.652E-02 0.500E+00
   0.498E+00 -.982E+00 0.716E+03   -.493E+00 0.103E+01 -.716E+03   -.325E-02 -.314E-01 0.456E+00
   0.298E+01 -.298E+01 -.632E+03   -.298E+01 0.298E+01 0.632E+03   0.449E-02 -.448E-02 -.276E+00
   0.305E+01 0.369E+01 -.628E+03   -.305E+01 -.363E+01 0.629E+03   0.451E-02 -.661E-01 -.299E+00
   0.918E+01 0.918E+01 -.198E+04   -.927E+01 -.927E+01 0.198E+04   0.864E-01 0.864E-01 0.607E+01
   0.106E+02 -.199E+02 -.197E+04   -.107E+02 0.200E+02 0.196E+04   0.727E-01 -.749E-01 0.612E+01
   0.170E+00 0.176E+00 0.207E+04   -.170E+00 -.179E+00 -.206E+04   -.901E-04 0.178E-02 -.703E+01
   0.168E+00 -.168E+00 0.207E+04   -.169E+00 0.169E+00 -.206E+04   0.769E-03 -.769E-03 -.701E+01
   0.982E+00 -.498E+00 0.716E+03   -.103E+01 0.493E+00 -.716E+03   0.314E-01 0.324E-02 0.456E+00
   0.101E+01 0.101E+01 0.717E+03   -.104E+01 -.104E+01 -.717E+03   0.190E-01 0.190E-01 0.550E+00
   0.369E+01 0.305E+01 -.628E+03   -.363E+01 -.305E+01 0.629E+03   -.661E-01 0.451E-02 -.299E+00
   0.391E+01 -.391E+01 -.615E+03   -.385E+01 0.385E+01 0.615E+03   -.616E-01 0.616E-01 -.338E+00
   0.199E+02 -.106E+02 -.197E+04   -.200E+02 0.107E+02 0.196E+04   0.749E-01 -.727E-01 0.612E+01
   0.320E+02 0.320E+02 -.192E+04   -.325E+02 -.325E+02 0.191E+04   0.435E+00 0.435E+00 0.580E+01
   -.176E+00 -.170E+00 0.207E+04   0.179E+00 0.170E+00 -.206E+04   -.178E-02 0.902E-04 -.703E+01
   -.176E+00 0.176E+00 0.207E+04   0.179E+00 -.179E+00 -.206E+04   -.194E-02 0.194E-02 -.703E+01
   -.498E+00 0.982E+00 0.716E+03   0.493E+00 -.103E+01 -.716E+03   0.324E-02 0.314E-01 0.456E+00
   -.513E+00 -.513E+00 0.714E+03   0.503E+00 0.503E+00 -.715E+03   0.652E-02 0.652E-02 0.500E+00
   -.305E+01 -.369E+01 -.628E+03   0.305E+01 0.363E+01 0.629E+03   -.452E-02 0.661E-01 -.299E+00
   -.298E+01 0.298E+01 -.632E+03   0.298E+01 -.298E+01 0.632E+03   -.448E-02 0.449E-02 -.276E+00
   -.106E+02 0.199E+02 -.197E+04   0.107E+02 -.200E+02 0.196E+04   -.727E-01 0.749E-01 0.612E+01
   -.918E+01 -.918E+01 -.198E+04   0.927E+01 0.927E+01 0.198E+04   -.864E-01 -.864E-01 0.607E+01
   -.168E+00 0.168E+00 0.207E+04   0.169E+00 -.169E+00 -.206E+04   -.769E-03 0.769E-03 -.701E+01
   -.170E+00 -.176E+00 0.207E+04   0.170E+00 0.179E+00 -.206E+04   0.902E-04 -.178E-02 -.703E+01
   -.101E+01 -.101E+01 0.717E+03   0.104E+01 0.104E+01 -.717E+03   -.190E-01 -.190E-01 0.550E+00
   -.982E+00 0.498E+00 0.716E+03   0.103E+01 -.493E+00 -.716E+03   -.314E-01 -.325E-02 0.456E+00
   -.391E+01 0.391E+01 -.615E+03   0.385E+01 -.385E+01 0.615E+03   0.616E-01 -.616E-01 -.338E+00
   -.369E+01 -.305E+01 -.628E+03   0.363E+01 0.305E+01 0.629E+03   0.661E-01 -.452E-02 -.299E+00
   -.320E+02 -.320E+02 -.192E+04   0.325E+02 0.325E+02 0.191E+04   -.435E+00 -.435E+00 0.580E+01
   -.199E+02 0.106E+02 -.197E+04   0.200E+02 -.107E+02 0.196E+04   -.749E-01 0.727E-01 0.612E+01
   0.561E+00 -.561E+00 0.536E+03   -.556E+00 0.556E+00 -.535E+03   -.713E-02 0.713E-02 -.950E-01
   0.567E+00 0.542E+00 0.536E+03   -.566E+00 -.578E+00 -.536E+03   -.959E-03 0.477E-01 -.120E+00
   0.108E+00 0.108E+00 0.155E+04   -.108E+00 -.108E+00 -.156E+04   -.118E-03 -.118E-03 0.349E+01
   0.108E+00 -.153E+00 0.155E+04   -.108E+00 0.157E+00 -.156E+04   -.220E-03 -.526E-02 0.349E+01
   0.732E+01 -.732E+01 -.151E+04   -.729E+01 0.729E+01 0.152E+04   -.355E-01 0.355E-01 -.516E+01
   0.855E+01 0.151E+02 -.150E+04   -.853E+01 -.150E+02 0.150E+04   -.252E-01 -.117E+00 -.511E+01
   0.185E+01 0.185E+01 -.468E+03   -.185E+01 -.185E+01 0.468E+03   0.566E-02 0.566E-02 0.335E+00
   0.185E+01 -.333E+01 -.463E+03   -.184E+01 0.330E+01 0.463E+03   -.819E-02 0.275E-01 0.371E+00
   0.542E+00 0.567E+00 0.536E+03   -.578E+00 -.566E+00 -.536E+03   0.477E-01 -.959E-03 -.120E+00
   0.523E+00 -.523E+00 0.538E+03   -.534E+00 0.534E+00 -.538E+03   0.148E-01 -.148E-01 -.414E-01
   0.153E+00 -.108E+00 0.155E+04   -.157E+00 0.108E+00 -.156E+04   0.526E-02 0.219E-03 0.349E+01
   0.152E+00 0.152E+00 0.155E+04   -.156E+00 -.156E+00 -.156E+04   0.668E-02 0.668E-02 0.350E+01
   0.151E+02 0.855E+01 -.150E+04   -.150E+02 -.853E+01 0.150E+04   -.117E+00 -.252E-01 -.511E+01
   0.241E+02 -.241E+02 -.145E+04   -.239E+02 0.239E+02 0.145E+04   -.154E+00 0.154E+00 -.492E+01
   0.333E+01 -.185E+01 -.463E+03   -.330E+01 0.184E+01 0.463E+03   -.275E-01 0.819E-02 0.371E+00
   0.347E+01 0.347E+01 -.462E+03   -.344E+01 -.344E+01 0.463E+03   -.359E-01 -.359E-01 -.383E-01
   -.567E+00 -.542E+00 0.536E+03   0.566E+00 0.578E+00 -.536E+03   0.960E-03 -.477E-01 -.120E+00
   -.561E+00 0.561E+00 0.536E+03   0.556E+00 -.556E+00 -.535E+03   0.713E-02 -.713E-02 -.950E-01
   -.108E+00 0.153E+00 0.155E+04   0.108E+00 -.157E+00 -.156E+04   0.219E-03 0.526E-02 0.349E+01
   -.108E+00 -.108E+00 0.155E+04   0.108E+00 0.108E+00 -.156E+04   0.118E-03 0.118E-03 0.349E+01
   -.855E+01 -.151E+02 -.150E+04   0.853E+01 0.150E+02 0.150E+04   0.252E-01 0.117E+00 -.511E+01
   -.732E+01 0.732E+01 -.151E+04   0.729E+01 -.729E+01 0.152E+04   0.355E-01 -.355E-01 -.516E+01
   -.185E+01 0.333E+01 -.463E+03   0.184E+01 -.330E+01 0.463E+03   0.819E-02 -.275E-01 0.371E+00
   -.185E+01 -.185E+01 -.468E+03   0.185E+01 0.185E+01 0.468E+03   -.566E-02 -.566E-02 0.335E+00
   -.523E+00 0.523E+00 0.538E+03   0.534E+00 -.534E+00 -.538E+03   -.148E-01 0.148E-01 -.414E-01
   -.542E+00 -.567E+00 0.536E+03   0.578E+00 0.566E+00 -.536E+03   -.477E-01 0.960E-03 -.120E+00
   -.152E+00 -.152E+00 0.155E+04   0.156E+00 0.156E+00 -.156E+04   -.668E-02 -.668E-02 0.350E+01
   -.153E+00 0.108E+00 0.155E+04   0.157E+00 -.108E+00 -.156E+04   -.526E-02 -.220E-03 0.349E+01
   -.241E+02 0.241E+02 -.145E+04   0.239E+02 -.239E+02 0.145E+04   0.154E+00 -.154E+00 -.492E+01
   -.151E+02 -.855E+01 -.150E+04   0.150E+02 0.853E+01 0.150E+04   0.117E+00 0.252E-01 -.511E+01
   -.347E+01 -.347E+01 -.462E+03   0.344E+01 0.344E+01 0.463E+03   0.359E-01 0.359E-01 -.383E-01
   -.333E+01 0.185E+01 -.463E+03   0.330E+01 -.184E+01 0.463E+03   0.275E-01 -.819E-02 0.371E+00
   0.113E-05 0.236E-05 0.343E+02   -.782E-13 0.142E-12 -.205E-11   -.134E-05 -.274E-05 -.343E+02

 POSITION                                       TOTAL-FORCE (eV/Angst)
      5.29196      5.29196     16.14717        -0.000000     -0.000000      0.008906
      5.29196      5.29196     17.32285        -0.000000     -0.000000     -0.005060
      2.11679      0.00000      7.50000        -0.000682      0.000681      0.393895
      4.23357      2.11679      7.50000        -0.000641     -0.000160      0.394820
      2.11679      2.11679      9.61679         0.002684      0.002684      0.025373
      4.23357      0.00000      9.61679         0.001331      0.013335      0.025599
      2.11626      0.00053     11.74545         0.000062     -0.000062      0.002215
      4.23382      2.12071     11.74755         0.002783     -0.000179      0.000681
      2.11660      2.11660     13.84693        -0.001249     -0.001249     -0.000473
      4.23067      0.00827     13.84094        -0.002783     -0.003353      0.001007
      2.11679      4.23357      7.50000        -0.000160     -0.000641      0.394820
      4.23357      6.35036      7.50000        -0.000416      0.000416      0.390029
      2.11679      6.35036      9.61679        -0.013335     -0.001330      0.025599
      4.23357      4.23357      9.61679        -0.006284     -0.006284      0.025355
      2.12071      4.23382     11.74755        -0.000178      0.002783      0.000682
      4.23453      6.34940     11.74237        -0.000673      0.000674      0.004999
      2.10852      6.35325     13.84094         0.003353      0.002783      0.001007
      4.23308      4.23308     13.87477         0.002858      0.002858      0.003439
      6.35036      0.00000      7.50000         0.000641      0.000160      0.394821
      0.00000      2.11679      7.50000         0.000681     -0.000681      0.393895
      6.35036      2.11679      9.61679        -0.001330     -0.013335      0.025599
      0.00000      0.00000      9.61679        -0.002684     -0.002684      0.025373
      6.35011     -0.00392     11.74755        -0.002783      0.000179      0.000682
      0.00053      2.11626     11.74545        -0.000062      0.000062      0.002215
      6.35325      2.10852     13.84094         0.002783      0.003353      0.001007
      0.00018      0.00018     13.84693         0.001249      0.001249     -0.000472
      6.35036      4.23357      7.50000         0.000416     -0.000416      0.390029
      0.00000      6.35036      7.50000         0.000160      0.000641      0.394821
      6.35036      6.35036      9.61679         0.006285      0.006285      0.025356
      0.00000      4.23357      9.61679         0.013334      0.001331      0.025599
      6.34940      4.23453     11.74237         0.000674     -0.000673      0.004999
     -0.00392      6.35011     11.74755         0.000178     -0.002783      0.000682
      6.35085      6.35085     13.87477        -0.002858     -0.002858      0.003439
      0.00827      4.23067     13.84094        -0.003353     -0.002783      0.001007
      2.11679      0.00000      9.61679        -0.002071      0.002071      0.052312
      4.23357      2.11679      9.61679        -0.000258      0.012192      0.055577
      2.11679      2.11679      7.50000        -0.000024     -0.000024     -0.477383
      4.23357      0.00000      7.50000        -0.000056     -0.001485     -0.475923
      2.11485      0.00194     13.89417        -0.001265      0.001265     -0.004674
      4.23491      2.11733     13.89577        -0.000235      0.001042      0.000194
      2.11712      2.11712     11.73960         0.002089      0.002089     -0.004116
      4.23299      0.00203     11.73712         0.000868      0.001262     -0.001031
      2.11679      4.23357      9.61679         0.012192     -0.000258      0.055577
      4.23357      6.35036      9.61679         0.003878     -0.003878      0.054383
      2.11679      6.35036      7.50000         0.001485      0.000056     -0.475923
      4.23357      4.23357      7.50000         0.001915      0.001915     -0.475032
      2.11733      4.23491     13.89577         0.001042     -0.000235      0.000194
      4.21803      6.36590     13.87423        -0.001065      0.001065      0.005820
      2.11475      6.35094     11.73712        -0.001262     -0.000868     -0.001031
      4.23475      4.23475     11.74426        -0.000840     -0.000840      0.000083
      6.35036      0.00000      9.61679         0.000258     -0.012191      0.055577
      0.00000      2.11679      9.61679         0.002071     -0.002071      0.052312
      6.35036      2.11679      7.50000         0.000056      0.001486     -0.475923
      0.00000      0.00000      7.50000         0.000024      0.000024     -0.477384
      6.34902     -0.00055     13.89577         0.000235     -0.001042      0.000194
      0.00194      2.11485     13.89417         0.001265     -0.001265     -0.004674
      6.35094      2.11475     11.73712        -0.000868     -0.001262     -0.001031
     -0.00033     -0.00033     11.73960        -0.002089     -0.002089     -0.004116
      6.35036      4.23357      9.61679        -0.003878      0.003878      0.054383
      0.00000      6.35036      9.61679        -0.012191      0.000258      0.055577
      6.35036      6.35036      7.50000        -0.001915     -0.001915     -0.475032
      0.00000      4.23357      7.50000        -0.001485     -0.000056     -0.475923
      6.36590      4.21803     13.87423         0.001065     -0.001065      0.005820
     -0.00055      6.34902     13.89577        -0.001042      0.000235      0.000194
      6.34918      6.34918     11.74426         0.000840      0.000840      0.000084
      0.00203      4.23299     11.73712         0.001262      0.000868     -0.001031
    total drift:                               -0.000000     -0.000000      0.016464

  FREE ENERGIE OF THE ION-ELECTRON SYSTEM (eV)
  free  energy   TOTEN  =      -388.16239096 eV

  energy  without entropy=     -388.16239096  energy(sigma->0) =     -388.16239096

 d Force = 0.3244792E-07[ 0.289E-09, 0.646E-07]  d Energy = 0.2297833E-07 0.947E-08
 d Force =-0.5934333E-01[-0.593E-01,-0.593E-01]  d Ewald  =-0.5934333E-01-0.777E-09

 reached required accuracy - stopping structural energy minimisation