 vasp.6.4.2 20Jul23 (build Nov 17 2023 15:39:20) complex
 executed on              LinuxNV date 2024.02.27  20:27:34
 OpenACC runtime initialized ...    4 GPUs detected

 INCAR:
   SYSTEM = Oxide-Surface
   ISMEAR = 0
   SIGMA = 0.05
   EDIFF = 1E-4
   ALGO = Normal
   ISTART = 2
   IBRION = -1
   NSW = 0
   ISYM = 0
   DIPOL = 0.5 0.5 0.5
   IDIPOL = 3
   LDIPOL = .TRUE.
   LHFCALC = .TRUE.
   GGA = PE
   IVDW = 21
   VDW_SR = 0.96
   ENCUT = 450
   PREC = Normal
   LASPH = .TRUE.
   LREAL = Auto
   ISPIN = 1
   NELM = 200
   NELMIN = 8
   NCORE = 1
   KPAR = 1
   LWAVE = .FALSE.
   LCHARG = .FALSE.

 POTCAR:    PAW_PBE N 08Apr2002
 POTCAR:    PAW_PBE O 08Apr2002
 POTCAR:    PAW_PBE Mg_pv 13Apr2007
 POTCAR:    PAW_PBE O 08Apr2002
 POTCAR:    PAW_PBE N 08Apr2002
   VRHFIN =N: s2p3

   TITEL  = PAW_PBE N 08Apr2002
   POMASS =   14.001; ZVAL   =    5.000    mass and valenz
   ENMAX  =  400.000; ENMIN  =  300.000 eV

[...]

   TITEL  = PAW_PBE Mg_pv 13Apr2007
   POMASS =   24.305; ZVAL   =    8.000    mass and valenz
   ENMAX  =  403.929; ENMIN  =  302.947 eV

   TITEL  = PAW_PBE O 08Apr2002
   POMASS =   16.000; ZVAL   =    6.000    mass and valenz
   ENMAX  =  400.000; ENMIN  =  300.000 eV

 Optimization of the real space projectors (new method)

 maximal supplied QI-value         = 25.13
 optimisation between [QCUT,QGAM] = [ 10.81, 21.61] = [ 32.71,130.83] Ry
 Optimized for a Real-space Cutoff    1.23 Angstroem

   l    n(q)    QCUT    max X(q) W(low)/X(q) W(high)/X(q)  e(spline)
   0      8    10.807    79.467    0.34E-03    0.68E-03    0.21E-06
   0      8    10.807    66.151    0.34E-03    0.67E-03    0.21E-06
   1      7    10.807    14.030    0.45E-03    0.13E-02    0.11E-05
   1      7    10.807     9.831    0.48E-03    0.13E-02    0.11E-05
 Optimization of the real space projectors (new method)

[...]

   l    n(q)    QCUT    max X(q) W(low)/X(q) W(high)/X(q)  e(spline)
   1      7    10.771     2.974    0.18E-03    0.56E-05    0.13E-06
   1      7    10.771     4.279    0.39E-03    0.94E-04    0.28E-06
   0      8    10.771    16.381    0.27E-03    0.38E-03    0.44E-07
   0      8    10.771     5.611    0.18E-03    0.26E-03    0.32E-07
   2      7    10.771     4.652    0.12E-03    0.23E-03    0.45E-07
 Optimization of the real space projectors (new method)

 maximal supplied QI-value         = 24.76
 optimisation between [QCUT,QGAM] = [ 10.64, 21.54] = [ 31.73,129.89] Ry
 Optimized for a Real-space Cutoff    1.23 Angstroem

   l    n(q)    QCUT    max X(q) W(low)/X(q) W(high)/X(q)  e(spline)
   0      8    10.645    20.381    0.38E-03    0.60E-03    0.15E-06
   0      8    10.645    15.268    0.40E-03    0.65E-03    0.17E-06
   1      7    10.645     5.964    0.30E-03    0.63E-03    0.18E-06
   1      7    10.645     5.382    0.24E-03    0.53E-03    0.16E-06
  PAW_PBE N 08Apr2002                   :
  PAW_PBE O 08Apr2002                   :
  PAW_PBE Mg_pv 13Apr2007               :
  PAW_PBE O 08Apr2002                   :

 POSCAR:  N  O Mg  O
  positions in direct lattice
 exchange correlation table for  LEXCH =        8
   RHO(1)=    0.500       N(1)  =     2000
   RHO(2)=  100.500       N(2)  =     4000

 ion  position               nearest neighbor table
   1  0.493  0.519  0.766-   2 1.14
   2  0.471  0.594  0.810-   1 1.14   3 1.20
   3  0.448  0.673  0.856-   2 1.20
   4  0.000  0.750  0.352-  36 2.11  38 2.11  39 2.11  46 2.11  55 2.11
   5  0.250  0.000  0.352-  37 2.11  38 2.11  39 2.11  47 2.11  54 2.11
   6  0.000  0.000  0.451-  38 2.11  37 2.11  36 2.11  44 2.11  53 2.11  42 2.12
   7  0.250  0.750  0.451-  39 2.11  37 2.11  36 2.11  45 2.11  52 2.11  43 2.12
   8  1.000  0.750  0.550-  50 2.11  59 2.11  42 2.11  43 2.11  36 2.12  40 2.15
   9  0.250  0.000  0.550-  51 2.11  58 2.11  43 2.11  42 2.11  37 2.12  41 2.15
  10  1.000  0.000  0.649-  48 2.11  57 2.11  42 2.11  41 2.11  40 2.11
  11  0.250  0.750  0.648-  43 2.10  40 2.11  41 2.11  49 2.11  56 2.11
  12  0.000  0.250  0.352-  44 2.11  38 2.11  46 2.11  47 2.11  63 2.11
  13  0.250  0.500  0.352-  45 2.11  39 2.11  46 2.11  47 2.11  62 2.11
  14  0.000  0.500  0.451-  46 2.11  44 2.11  45 2.11  36 2.11  61 2.11  50 2.12
  15  0.250  0.250  0.451-  47 2.11  44 2.11  45 2.11  37 2.11  60 2.11  51 2.12
  16  1.000  0.250  0.550-  67 2.11  51 2.11  50 2.11  42 2.11  44 2.12  48 2.15
  17  0.250  0.500  0.550-  66 2.11  51 2.11  43 2.11  50 2.11  45 2.13  49 2.15
  18  1.000  0.500  0.649-  65 2.10  49 2.10  50 2.11  48 2.11  40 2.11
  19  0.250  0.250  0.649-  51 2.11  64 2.11  48 2.11  41 2.11  49 2.11
  20  0.500  0.750  0.352-  52 2.11  39 2.11  54 2.11  55 2.11  62 2.11
  21  0.750  0.000  0.352-  53 2.11  38 2.11  54 2.11  55 2.11  63 2.11
  22  0.500  0.000  0.451-  54 2.11  52 2.11  53 2.11  37 2.11  60 2.11  58 2.12
  23  0.750  0.750  0.451-  55 2.11  52 2.11  53 2.11  36 2.11  61 2.11  59 2.12
  24  0.500  0.750  0.550-  66 2.11  59 2.11  43 2.11  58 2.11  52 2.13  56 2.15
  25  0.750  0.000  0.550-  67 2.11  58 2.11  59 2.11  42 2.11  53 2.12  57 2.15
  26  0.500  0.000  0.649-  64 2.10  56 2.11  58 2.11  57 2.11  41 2.11
  27  0.750  0.750  0.649-  59 2.10  65 2.11  40 2.11  57 2.11  56 2.11
  28  0.500  0.250  0.352-  60 2.11  54 2.11  47 2.11  62 2.11  63 2.11
  29  0.750  0.500  0.352-  61 2.11  55 2.11  46 2.11  62 2.11  63 2.11
  30  0.500  0.500  0.451-  62 2.11  52 2.11  60 2.11  61 2.11  45 2.11  66 2.13
  31  0.750  0.250  0.451-  63 2.11  53 2.11  60 2.11  61 2.11  44 2.11  67 2.12
  32  0.500  0.250  0.550-  66 2.11  67 2.11  51 2.11  58 2.12  60 2.13  64 2.14
  33  0.750  0.500  0.550-  66 2.11  67 2.11  59 2.11  50 2.11  61 2.13  65 2.14
  34  0.500  0.499  0.651-  64 2.11  65 2.12  49 2.12  56 2.12  66 2.15
  35  0.750  0.250  0.649-  67 2.11  64 2.11  65 2.11  48 2.11  57 2.11
  36  0.000  0.750  0.451-   4 2.11   6 2.11   7 2.11  14 2.11  23 2.11   8 2.12
  37  0.250  0.000  0.451-   5 2.11   6 2.11   7 2.11  15 2.11  22 2.11   9 2.12
  38  0.000  0.000  0.352-   6 2.11   5 2.11   4 2.11  12 2.11  21 2.11
  39  0.250  0.750  0.352-   7 2.11   5 2.11   4 2.11  13 2.11  20 2.11
  40  0.000  0.750  0.651-  11 2.11  27 2.11  10 2.11  18 2.11   8 2.15
  41  0.250  1.000  0.651-  11 2.11  10 2.11  19 2.11  26 2.11   9 2.15
  42  0.000  1.000  0.550-  10 2.11   8 2.11   9 2.11  25 2.11  16 2.11   6 2.12
  43  0.250  0.750  0.550-  11 2.10  24 2.11   8 2.11   9 2.11  17 2.11   7 2.12
  44  0.000  0.250  0.451-  12 2.11   6 2.11  14 2.11  15 2.11  31 2.11  16 2.12
  45  0.250  0.500  0.451-  13 2.11   7 2.11  14 2.11  15 2.11  30 2.11  17 2.13
  46  0.000  0.500  0.352-  14 2.11  12 2.11  13 2.11   4 2.11  29 2.11
  47  0.250  0.250  0.352-  15 2.11  12 2.11  13 2.11   5 2.11  28 2.11
  48  0.000  0.250  0.651-  10 2.11  19 2.11  18 2.11  35 2.11  16 2.15
  49  0.249  0.500  0.651-  18 2.10  11 2.11  19 2.11  34 2.12  17 2.15
  50  0.000  0.500  0.550-  18 2.11   8 2.11  16 2.11  17 2.11  33 2.11  14 2.12
  51  0.250  0.250  0.550-  19 2.11   9 2.11  16 2.11  17 2.11  32 2.11  15 2.12
  52  0.500  0.750  0.451-  20 2.11   7 2.11  22 2.11  23 2.11  30 2.11  24 2.13
  53  0.750  0.000  0.451-  21 2.11   6 2.11  22 2.11  23 2.11  31 2.11  25 2.12
  54  0.500  0.000  0.352-  22 2.11  20 2.11  21 2.11   5 2.11  28 2.11
  55  0.750  0.750  0.352-  23 2.11  20 2.11  21 2.11   4 2.11  29 2.11
  56  0.500  0.751  0.651-  26 2.11  11 2.11  27 2.11  34 2.12  24 2.15
  57  0.750  1.000  0.651-  10 2.11  27 2.11  35 2.11  26 2.11  25 2.15
  58  0.500  1.000  0.550-  26 2.11   9 2.11  25 2.11  24 2.11  32 2.12  22 2.12
  59  0.750  0.750  0.550-  27 2.10   8 2.11  24 2.11  25 2.11  33 2.11  23 2.12
  60  0.500  0.250  0.451-  28 2.11  22 2.11  15 2.11  30 2.11  31 2.11  32 2.13
  61  0.750  0.500  0.451-  29 2.11  23 2.11  14 2.11  30 2.11  31 2.11  33 2.13
  62  0.500  0.500  0.352-  30 2.11  20 2.11  28 2.11  29 2.11  13 2.11
  63  0.750  0.250  0.352-  31 2.11  21 2.11  28 2.11  29 2.11  12 2.11
  64  0.500  0.249  0.651-  26 2.10  19 2.11  35 2.11  34 2.11  32 2.14
  65  0.751  0.500  0.651-  18 2.10  27 2.11  35 2.11  34 2.12  33 2.14
  66  0.500  0.500  0.550-  24 2.11  17 2.11  33 2.11  32 2.11  30 2.13  34 2.15
  67  0.750  0.250  0.550-  35 2.11  25 2.11  16 2.11  33 2.11  32 2.11  31 2.12

IMPORTANT INFORMATION: All symmetrisations will be switched off!
NOSYMM: (Re-)initialisation of all symmetry stuff for point group C_1.

                                     Primitive cell

  volume of cell :    1519.8199

  direct lattice vectors                    reciprocal lattice vectors
     8.440984654  0.000000000  0.000000000     0.118469591  0.000000000  0.000000000
     0.000000000  8.440984654  0.000000000     0.000000000  0.118469591  0.000000000
     0.000000000  0.000000000 21.330738491     0.000000000  0.000000000  0.046880702

  length of vectors
     8.440984654  8.440984654 21.330738491     0.118469591  0.118469591  0.046880702

  position of ions in fractional coordinates (direct lattice)
     0.493398131  0.519404002  0.766108779
     0.471138949  0.594205185  0.809960549
     0.447548019  0.673291737  0.855770475
     0.000000000  0.750000000  0.351605267
     0.250000000  0.000000000  0.351605267
     0.000000000  0.000000000  0.450535089
     0.250000000  0.750000000  0.450535089
     0.999954346  0.749943911  0.550033337
     0.250059217  0.000083621  0.550049328
     0.999974613  0.000078779  0.648776369
     0.249800109  0.750104580  0.648369797
     0.000000000  0.250000000  0.351605267
     0.250000000  0.500000000  0.351605267
     0.000000000  0.500000000  0.450535089
     0.250000000  0.250000000  0.450535089
     0.999992643  0.250071267  0.550081376
     0.250466599  0.499936424  0.550285804
     0.999910591  0.499944107  0.648595353
     0.250071256  0.249972791  0.648663217
     0.500000000  0.750000000  0.351605267
     0.750000000  0.000000000  0.351605267
     0.500000000  0.000000000  0.450535089
     0.750000000  0.750000000  0.450535089
     0.500019170  0.749513781  0.550294524
     0.749931195  0.000045804  0.550067803
     0.500000635  0.000284138  0.648599469
     0.750105583  0.749980305  0.648513915
     0.500000000  0.250000000  0.351605267
     0.750000000  0.500000000  0.351605267
     0.500000000  0.500000000  0.450535089
     0.750000000  0.250000000  0.450535089
     0.500014918  0.250394168  0.550308765
     0.749553765  0.499942387  0.550295926
     0.500181848  0.499312364  0.650965447
     0.749943309  0.249994221  0.648681965
     0.000000000  0.750000000  0.450535089
     0.250000000  0.000000000  0.450535089
     0.000000000  0.000000000  0.351605267
     0.250000000  0.750000000  0.351605267
     0.000012200  0.750130927  0.651051999
     0.249850447  0.999920408  0.651044229
     0.000002071  0.999970731  0.549879102
     0.249988900  0.750048197  0.549864299
     0.000000000  0.250000000  0.450535089
     0.250000000  0.500000000  0.450535089
     0.000000000  0.500000000  0.351605267
     0.250000000  0.250000000  0.351605267
     0.000021798  0.249888812  0.651053889
     0.249183234  0.500152064  0.651003323
     0.000044966  0.500042088  0.549823568
     0.249901523  0.249969111  0.549858607
     0.500000000  0.750000000  0.450535089
[...]
   O         195.699          4.868         19.126          3.54185230
   O         204.299          4.903         19.542          3.61884095
   O         191.947          4.852         18.942          3.50773582
   O         241.797          5.043         21.260          3.93696458
   O         242.344          5.045         21.284          3.94141383
   O         238.786          5.032         21.127          3.91237423
   O         238.786          5.032         21.127          3.91238086
   O         195.657          4.868         19.124          3.54147053
   O         195.807          4.869         19.131          3.54283384
   O         198.769          4.881         19.275          3.56952265
   O         199.828          4.885         19.327          3.57902402
   O         238.600          5.032         21.119          3.91085311
   O         242.492          5.045         21.290          3.94261993

  vdW correction parametrized for the method àúX6    þ

  IVDW =  21
  VDW_RADIUS =    50.000 A
  VDW_IDAMPF =  0
  VDW_S6 =     1.000
  VDW_SR =     0.960
  VDW_D =    20.000
  LVDW_ONECELL = F F F
  LVDW_SAMETYPE T T T T
  LVDW_EWALD = F

  Number of pair interactions contributing to vdW energy:  791220
  Edisp (eV):   -3.95907

 VOLUME and BASIS-vectors are now :
  energy-cutoff  :      450.00
  volume of cell :     1519.82
      direct lattice vectors                 reciprocal lattice vectors
     8.440984654  0.000000000  0.000000000     0.118469591  0.000000000  0.000000000
     0.000000000  8.440984654  0.000000000     0.000000000  0.118469591  0.000000000
     0.000000000  0.000000000 21.330738491     0.000000000  0.000000000  0.046880702

  length of vectors
     8.440984654  8.440984654 21.330738491     0.118469591  0.118469591  0.046880702

 FORCES acting on ions
    electron-ion (+dipol)            ewald-force                    non-local-force                 convergence-correction
   -.482E+02 0.162E+03 -.108E+04   0.563E+02 -.189E+03 0.104E+04   -.762E+01 0.256E+02 0.374E+02   0.766E-03 -.241E-02 0.168E+00
   -.446E+01 0.148E+02 -.106E+04   0.429E+01 -.141E+02 0.106E+04   0.298E+00 -.109E+01 -.122E+01   0.846E-03 -.282E-02 0.147E+00
   0.502E+02 -.168E+03 -.125E+04   -.612E+02 0.205E+03 0.130E+04   0.961E+01 -.323E+02 -.471E+02   0.966E-04 -.163E-03 0.144E+00
   0.542E-01 -.160E+00 0.208E+04   -.545E-01 0.157E+00 -.207E+04   0.198E-03 0.148E-02 -.674E+01   -.223E-04 -.399E-04 -.216E+00
   0.214E+00 -.143E+00 0.208E+04   -.211E+00 0.143E+00 -.207E+04   -.174E-02 -.476E-03 -.674E+01   0.987E-05 0.434E-04 -.216E+00
   0.155E+00 -.412E+00 0.726E+03   -.159E+00 0.422E+00 -.726E+03   0.216E-02 -.636E-02 0.496E+00   -.122E-04 0.253E-04 -.803E-01
   0.776E+00 -.597E+00 0.728E+03   -.748E+00 0.575E+00 -.729E+03   -.179E-01 0.136E-01 0.503E+00   0.131E-03 -.174E-03 -.799E-01
   0.806E+00 -.349E+01 -.616E+03   -.816E+00 0.346E+01 0.616E+03   0.897E-02 0.243E-01 -.809E-01   -.296E-04 -.565E-03 0.823E-01
   0.421E+01 -.206E+01 -.617E+03   -.418E+01 0.209E+01 0.617E+03   -.227E-01 -.222E-01 -.923E-01   0.409E-03 0.544E-04 0.823E-01
   0.222E+01 -.562E+01 -.197E+04   -.223E+01 0.564E+01 0.197E+04   0.354E-02 -.195E-01 0.570E+01   -.240E-03 0.578E-03 0.213E+00
   0.300E+02 -.240E+02 -.193E+04   -.301E+02 0.240E+02 0.192E+04   0.753E-01 -.405E-01 0.578E+01   0.144E-02 -.189E-02 0.212E+00
   0.492E-01 0.160E+00 0.208E+04   -.494E-01 -.157E+00 -.207E+04   0.102E-03 -.150E-02 -.675E+01   -.184E-04 0.387E-04 -.216E+00
   0.225E+00 0.143E+00 0.208E+04   -.220E+00 -.144E+00 -.207E+04   -.309E-02 0.412E-03 -.676E+01   0.256E-05 -.409E-04 -.216E+00
   0.182E+00 0.414E+00 0.727E+03   -.180E+00 -.424E+00 -.728E+03   -.107E-02 0.596E-02 0.451E+00   -.106E-04 -.229E-04 -.799E-01
   0.676E+00 0.592E+00 0.727E+03   -.662E+00 -.569E+00 -.728E+03   -.836E-02 -.144E-01 0.485E+00   0.123E-03 0.173E-03 -.800E-01
   0.577E+00 0.346E+01 -.620E+03   -.581E+00 -.344E+01 0.620E+03   0.383E-02 -.230E-01 -.104E+00   -.223E-04 0.566E-03 0.827E-01
   0.616E+01 0.216E+01 -.609E+03   -.603E+01 -.219E+01 0.609E+03   -.119E+00 0.227E-01 -.242E+00   0.412E-03 -.517E-04 0.840E-01
   0.356E+01 0.602E+01 -.196E+04   -.359E+01 -.605E+01 0.195E+04   0.274E-01 0.202E-01 0.572E+01   -.621E-04 -.579E-03 0.213E+00
   0.220E+02 0.220E+02 -.195E+04   -.220E+02 -.220E+02 0.195E+04   -.249E-02 0.398E-01 0.576E+01   0.101E-02 0.184E-02 0.214E+00
   -.545E-01 -.171E+00 0.208E+04   0.547E-01 0.166E+00 -.207E+04   -.139E-03 0.284E-02 -.676E+01   0.217E-04 -.269E-04 -.215E+00
   -.214E+00 -.138E+00 0.208E+04   0.211E+00 0.138E+00 -.207E+04   0.173E-02 -.378E-03 -.674E+01   -.114E-04 0.385E-04 -.216E+00
   -.157E+00 -.511E+00 0.728E+03   0.160E+00 0.503E+00 -.728E+03   -.194E-02 0.501E-02 0.454E+00   0.115E-04 0.156E-04 -.800E-01
   -.775E+00 -.570E+00 0.728E+03   0.744E+00 0.552E+00 -.728E+03   0.188E-01 0.112E-01 0.502E+00   -.130E-03 -.172E-03 -.800E-01
   -.857E+00 -.541E+01 -.607E+03   0.867E+00 0.528E+01 0.607E+03   -.892E-02 0.115E+00 -.137E+00   0.281E-04 -.566E-03 0.839E-01
   -.419E+01 -.183E+01 -.618E+03   0.416E+01 0.185E+01 0.618E+03   0.223E-01 -.166E-01 -.948E-01   -.409E-03 0.469E-04 0.824E-01
   -.249E+01 -.115E+02 -.195E+04   0.249E+01 0.116E+02 0.194E+04   -.334E-02 -.103E+00 0.571E+01   0.245E-03 0.175E-03 0.212E+00
   -.289E+02 -.218E+02 -.194E+04   0.290E+02 0.218E+02 0.193E+04   -.728E-01 -.146E-01 0.577E+01   -.142E-02 -.171E-02 0.213E+00
   -.493E-01 0.170E+00 0.208E+04   0.495E-01 -.166E+00 -.207E+04   -.850E-04 -.268E-02 -.676E+01   0.179E-04 0.323E-04 -.216E+00
   -.225E+00 0.138E+00 0.208E+04   0.220E+00 -.139E+00 -.207E+04   0.302E-02 0.377E-03 -.676E+01   0.160E-06 -.403E-04 -.216E+00
   -.183E+00 0.510E+00 0.728E+03   0.183E+00 -.508E+00 -.729E+03   0.413E-03 -.211E-02 0.545E+00   0.121E-04 -.184E-04 -.796E-01
   -.675E+00 0.565E+00 0.727E+03   0.661E+00 -.547E+00 -.728E+03   0.820E-02 -.111E-01 0.478E+00   -.123E-03 0.174E-03 -.800E-01
   -.602E+00 0.535E+01 -.610E+03   0.607E+00 -.521E+01 0.611E+03   -.377E-02 -.117E+00 -.394E+00   0.226E-04 0.591E-03 0.837E-01
   -.613E+01 0.191E+01 -.610E+03   0.599E+01 -.193E+01 0.610E+03   0.120E+00 0.173E-01 -.313E+00   -.422E-03 -.479E-04 0.840E-01
   -.590E+01 0.181E+02 -.187E+04   0.594E+01 -.182E+02 0.186E+04   -.364E-01 0.140E+00 0.493E+01   -.261E-04 0.109E-03 0.221E+00
   -.216E+02 0.203E+02 -.196E+04   0.216E+02 -.203E+02 0.195E+04   0.207E-02 0.173E-01 0.576E+01   -.100E-02 0.165E-02 0.214E+00
   0.124E+00 -.473E+00 0.545E+03   -.123E+00 0.461E+00 -.545E+03   -.129E-02 0.147E-01 -.472E-01   -.604E-05 -.139E-03 -.582E-01
   0.584E+00 -.313E+00 0.545E+03   -.572E+00 0.314E+00 -.545E+03   -.145E-01 -.145E-02 -.555E-01   0.105E-03 0.133E-04 -.582E-01
   0.377E-01 -.101E+00 0.156E+04   -.382E-01 0.102E+00 -.157E+04   0.504E-03 -.180E-02 0.309E+01   -.990E-05 0.309E-04 -.162E+00
   0.169E+00 -.124E+00 0.156E+04   -.164E+00 0.120E+00 -.157E+04   -.553E-02 0.451E-02 0.309E+01   0.840E-05 -.292E-04 -.162E+00
   0.297E+01 -.909E+01 -.149E+04   -.298E+01 0.905E+01 0.150E+04   0.795E-02 0.353E-01 -.451E+01   -.189E-03 -.830E-03 0.162E+00
   0.116E+02 -.751E+01 -.149E+04   -.116E+02 0.752E+01 0.150E+04   -.391E-01 -.123E-01 -.452E+01   0.430E-03 0.431E-03 0.162E+00
   0.470E+00 -.125E+01 -.461E+03   -.472E+00 0.126E+01 0.461E+03   0.150E-02 -.893E-02 0.227E+00   -.364E-04 0.825E-04 0.604E-01
   0.403E+01 -.334E+01 -.451E+03   -.402E+01 0.333E+01 0.451E+03   -.657E-02 0.145E-01 0.371E+00   0.415E-03 -.505E-03 0.608E-01
   0.104E+00 0.473E+00 0.544E+03   -.105E+00 -.462E+00 -.544E+03   0.185E-02 -.137E-01 -.706E-01   -.988E-05 0.137E-03 -.582E-01
   0.667E+00 0.318E+00 0.546E+03   -.687E+00 -.321E+00 -.545E+03   0.221E-01 0.351E-02 -.110E+00   0.100E-03 -.139E-04 -.580E-01
   0.403E-01 0.101E+00 0.156E+04   -.403E-01 -.102E+00 -.157E+04   0.447E-04 0.184E-02 0.309E+01   -.139E-04 -.261E-04 -.162E+00
   0.158E+00 0.124E+00 0.156E+04   -.155E+00 -.120E+00 -.157E+04   -.360E-02 -.446E-02 0.308E+01   0.969E-05 0.290E-04 -.162E+00
   0.175E+01 0.876E+01 -.150E+04   -.175E+01 -.872E+01 0.150E+04   -.716E-03 -.392E-01 -.451E+01   -.115E-03 0.835E-03 0.163E+00
   0.322E+02 0.918E+01 -.146E+04   -.320E+02 -.919E+01 0.146E+04   -.176E+00 0.626E-02 -.447E+01   0.166E-02 -.374E-03 0.163E+00
   0.552E+00 0.127E+01 -.455E+03   -.556E+00 -.128E+01 0.455E+03   0.417E-02 0.776E-02 0.276E+00   0.906E-05 -.842E-04 0.609E-01
   0.358E+01 0.326E+01 -.455E+03   -.355E+01 -.325E+01 0.455E+03   -.243E-01 -.178E-01 0.282E+00   0.309E-03 0.504E-03 0.609E-01
   -.128E+00 -.558E+00 0.546E+03   0.129E+00 0.580E+00 -.546E+03   -.703E-03 -.244E-01 -.113E+00   0.771E-05 -.133E-03 -.580E-01
   -.584E+00 -.293E+00 0.545E+03   0.572E+00 0.296E+00 -.545E+03   0.139E-01 -.453E-02 -.629E-01   -.998E-04 0.119E-04 -.582E-01
   -.377E-01 -.111E+00 0.156E+04   0.382E-01 0.111E+00 -.157E+04   -.587E-03 -.508E-04 0.309E+01   0.123E-04 0.276E-04 -.162E+00
   -.169E+00 -.121E+00 0.156E+04   0.164E+00 0.118E+00 -.157E+04   0.548E-02 0.393E-02 0.309E+01   -.800E-05 -.309E-04 -.162E+00
   -.395E+01 -.311E+02 -.144E+04   0.396E+01 0.309E+02 0.145E+04   -.215E-02 0.210E+00 -.441E+01   0.174E-03 -.217E-02 0.162E+00
   -.114E+02 -.622E+01 -.150E+04   0.113E+02 0.623E+01 0.150E+04   0.397E-01 -.468E-02 -.451E+01   -.438E-03 0.356E-03 0.162E+00
   -.484E+00 -.163E+01 -.454E+03   0.486E+00 0.165E+01 0.454E+03   -.130E-02 -.165E-01 0.281E+00   0.349E-04 -.402E-04 0.607E-01
   -.399E+01 -.323E+01 -.453E+03   0.399E+01 0.321E+01 0.453E+03   0.699E-02 0.181E-01 0.334E+00   -.414E-03 -.465E-03 0.608E-01
   -.104E+00 0.546E+00 0.545E+03   0.105E+00 -.562E+00 -.545E+03   -.134E-02 0.174E-01 -.111E+00   0.578E-05 0.142E-03 -.580E-01
   -.664E+00 0.294E+00 0.545E+03   0.682E+00 -.297E+00 -.545E+03   -.205E-01 0.424E-02 -.111E+00   -.102E-03 -.139E-04 -.580E-01
   -.405E-01 0.112E+00 0.156E+04   0.405E-01 -.112E+00 -.157E+04   0.917E-05 -.129E-03 0.308E+01   0.121E-04 -.327E-04 -.162E+00
   -.158E+00 0.121E+00 0.156E+04   0.155E+00 -.118E+00 -.157E+04   0.366E-02 -.398E-02 0.308E+01   -.988E-05 0.327E-04 -.162E+00
   -.210E+01 0.268E+02 -.147E+04   0.210E+01 -.266E+02 0.147E+04   -.144E-02 -.138E+00 -.451E+01   0.101E-03 0.186E-02 0.163E+00
   -.306E+02 0.746E+01 -.146E+04   0.305E+02 -.747E+01 0.147E+04   0.155E+00 0.602E-02 -.449E+01   -.156E-02 -.307E-03 0.163E+00
   -.592E+00 0.172E+01 -.452E+03   0.598E+00 -.174E+01 0.452E+03   -.549E-02 0.215E-01 -.221E+00   -.306E-05 0.181E-04 0.620E-01
   -.356E+01 0.317E+01 -.456E+03   0.354E+01 -.315E+01 0.455E+03   0.237E-01 -.209E-01 0.274E+00   -.307E-03 0.466E-03 0.609E-01
   -.307E+01 0.103E+02 0.338E+02   -.355E-12 0.146E-12 0.148E-11   0.227E+01 -.763E+01 -.275E+02   0.171E-02 -.540E-02 0.501E+00

 POSITION                                       TOTAL-FORCE (eV/Angst)
      4.16477      4.38428     16.34167        -0.395346      1.336050      2.087233
      3.97688      5.01568     17.27706         0.163526     -0.549807     -0.883242
      3.77775      5.68325     18.25422         0.231855     -0.779556     -1.120380
      0.00000      6.33074      7.50000        -0.000040     -0.000760      0.503021
      2.11025      0.00000      7.50000         0.000832      0.000178      0.503768
      0.00000      0.00000      9.61025        -0.000975      0.002892      0.022382
      2.11025      6.33074      9.61025         0.008322     -0.006550      0.023254
      8.44060      6.33027     11.73262        -0.000655     -0.003577      0.054524
      2.11075      0.00071     11.73296         0.002615      0.001455      0.053836
      8.44077      0.00066     13.83888         0.000017     -0.000576     -0.128140
      2.10856      6.33162     13.83021        -0.011449      0.008390     -0.142185
      0.00000      2.11025      7.50000        -0.000051      0.000640      0.505177
      2.11025      4.22049      7.50000         0.001191     -0.000208      0.507955
      0.00000      4.22049      9.61025         0.000385     -0.002723      0.036967
      2.11025      2.11025      9.61025         0.004700      0.007067      0.027890
      8.44092      2.11085     11.73364        -0.000407      0.003297      0.052772
      2.11418      4.21996     11.73800         0.001787     -0.001494      0.049555
      8.44023      4.22002     13.83502         0.000874     -0.000594     -0.127636
      2.11085      2.11002     13.83647        -0.008730     -0.007061     -0.132097
      4.22049      6.33074      7.50000         0.000045     -0.001218      0.509107
      6.33074      0.00000      7.50000        -0.000794      0.000154      0.504387
      4.22049      0.00000      9.61025         0.000863     -0.001942      0.036400
      6.33074      6.33074      9.61025        -0.008751     -0.005767      0.025273
      4.22065      6.32663     11.73819         0.000257     -0.002247      0.049224
      6.33016      0.00039     11.73335        -0.002820      0.001531      0.053220
      4.22050      0.00240     13.83511         0.000000     -0.001592     -0.128104
      6.33163      6.33057     13.83328         0.010543      0.008039     -0.137046
      4.22049      2.11025      7.50000         0.000076      0.001066      0.507310
      6.33074      4.22049      7.50000        -0.001126     -0.000209      0.507404
      4.22049      4.22049      9.61025         0.000117      0.000160      0.041395
      6.33074      2.11025      9.61025        -0.004554      0.005671      0.029022
      4.22062      2.11357     11.73849         0.000216      0.003517      0.045951
      6.32697      4.22001     11.73822        -0.002269     -0.001425      0.048073
      4.22203      4.21469     13.88557         0.001661     -0.006222     -0.228794
      6.33026      2.11020     13.83687         0.008011     -0.006561     -0.130799
      0.00000      6.33074      9.61025        -0.000260      0.005104      0.083245
      2.11025      0.00000      9.61025        -0.005097     -0.000908      0.081859
      0.00000      0.00000      7.50000         0.000189     -0.000656     -0.423453
      2.11025      6.33074      7.50000        -0.001793      0.001423     -0.423333
      0.00010      6.33184     13.88742        -0.000262      0.000210     -0.122896
      2.10898      8.44031     13.88725         0.000427      0.000630     -0.123502
      0.00002      8.44074     11.72933         0.000207     -0.000948      0.005662
      2.11015      6.33115     11.72901        -0.001372      0.002227      0.014721
      0.00000      2.11025      9.61025         0.000674     -0.004867      0.079798
      2.11025      4.22049      9.61025         0.006075      0.001441      0.086847
      0.00000      4.22049      7.50000         0.000016      0.000612     -0.424962
      2.11025      2.11025      7.50000        -0.001103     -0.001483     -0.425045
      0.00018      2.10931     13.88746        -0.000418     -0.001414     -0.124926
      2.10335      4.22178     13.88638        -0.004882     -0.003833     -0.122757
      0.00038      4.22085     11.72814         0.000764      0.001544      0.005625
      2.10941      2.10999     11.72889        -0.003134     -0.003189      0.012576
      4.22049      6.33074      9.61025        -0.000283     -0.006834      0.085975
      6.33074      0.00000      9.61025         0.004907     -0.001820      0.081139
      4.22049      0.00000      7.50000        -0.000183     -0.000039     -0.424740
      6.33074      6.33074      7.50000         0.001817      0.001215     -0.424088
      4.21973      6.33788     13.89233         0.002667      0.009338     -0.136132
      6.33181      8.44023     13.88765        -0.000133      0.000776     -0.124443
      4.22040      8.43951     11.72820        -0.000023     -0.001223      0.008086
      6.33064      6.33128     11.72929         0.001179      0.001317      0.014162
      4.22049      2.11025      9.61025        -0.000485      0.004688      0.089484
      6.33074      4.22049      9.61025        -0.005552      0.001662      0.088201
      4.22049      4.22049      7.50000         0.000035     -0.000095     -0.425993
      6.33074      2.11025      7.50000         0.001176     -0.001319     -0.425250
      4.22037      2.10260     13.87876         0.000150     -0.000393     -0.116433
      6.33760      4.22119     13.88280         0.001972     -0.001650     -0.117539
      4.22028      4.22121     11.73710        -0.000211      0.001175      0.008141
      6.33162      2.10962     11.72865         0.003010     -0.002710      0.013300
    total drift:                               -0.001265      0.002365      0.020011

  FREE ENERGIE OF THE ION-ELECTRON SYSTEM (eV)
  free  energy   TOTEN  =      -496.62147214 eV

  energy  without entropy=     -496.62147214  energy(sigma->0) =     -496.62147214