 vasp.6.3.0 20Jan22 (build Dec 25 2023 18:06:01) complex
 executed on        HPECrayEX_GCC date 2024.01.24  06:29:05

 INCAR:
   SYSTEM = MgO-rocksalt
   ISMEAR = 0
   SIGMA = 0.05
   EDIFF = 1E-8
   ALGO = ALL
   ISTART = 0
   IBRION = 5
   POTIM = 0.01
   NFREE = 2
   ISYM = 0
   DIPOL = 0.5 0.5 0.5
   IDIPOL = 3
   LDIPOL = .TRUE.
   GGA = MK
   LUSE_VDW = .TRUE.
   PARAM1 = 0.1234
   PARAM2 = 0.711357
   ZAB_VDW = -1.8867
   AGGAC = 0.0
   ENCUT = 600
   PREC = Accurate
   LASPH = .TRUE.
   LREAL = .FALSE.
   ISPIN = 1
   NELM = 200
   NELMIN = 8
   NCORE = 8
   KPAR = 1
   LWAVE = .FALSE.
   LCHARG = .FALSE.

 POTCAR:    PAW_PBE H 15Jun2001
 POTCAR:    PAW_PBE O 08Apr2002
 POTCAR:    PAW_PBE Ti_pv 07Sep2000
 POTCAR:    PAW_PBE O 08Apr2002
|               ----> ADVICE to this user running VASP <----                  |
|     You have switched on vdW-DFT.                                           |
|     This routine was written and supplied by Jiri Klimes. We recommend      |
|     that you carefully read and cite the following publications:            |
|       J. Klimes, D.R. Bowler, A. Michelides                                 |
|          J. Phys.: Cond Matt. 22 022201 (2010)                              |
|       J. Klimes, D.R. Bowler, A. Michelides                                 |
|          Phys. Rev. B. 83, 195131 (2011)                                    |
|     and references therein.                                                 |

   TITEL  = PAW_PBE H 15Jun2001
   POMASS =    1.000; ZVAL   =    1.000    mass and valenz
   ENMAX  =  250.000; ENMIN  =  200.000 eV

   TITEL  = PAW_PBE O 08Apr2002
   POMASS =   16.000; ZVAL   =    6.000    mass and valenz
   ENMAX  =  400.000; ENMIN  =  300.000 eV

   TITEL  = PAW_PBE Ti_pv 07Sep2000
   POMASS =   47.880; ZVAL   =   10.000    mass and valenz
   ENMAX  =  222.335; ENMIN  =  166.751 eV

   TITEL  = PAW_PBE O 08Apr2002
   POMASS =   16.000; ZVAL   =    6.000    mass and valenz
   ENMAX  =  400.000; ENMIN  =  300.000 eV

  PAW_PBE H 15Jun2001                   :
  PAW_PBE O 08Apr2002                   :
  PAW_PBE Ti_pv 07Sep2000               :
  PAW_PBE O 08Apr2002                   :

 POSCAR:  H  O Ti  O
  positions in direct lattice
 exchange correlation table for  LEXCH =       43
   RHO(1)=    0.500       N(1)  =     2000
   RHO(2)=  100.500       N(2)  =     4000

 ion  position               nearest neighbor table
   1  0.687  0.568  0.773-   3 0.98
   2  0.687  0.432  0.773-   3 0.98
   3  0.629  0.500  0.773-   1 0.98   2 0.98  51 2.26
   4  0.810  0.833  0.295-  54 1.94  88 1.94  56 1.94  55 2.00  53 2.00   7 3.06  21 3.06   5 3.06

   5  0.594  0.667  0.326-  57 1.94 119 1.94  52 1.94  55 1.94  58 2.00  56 2.00   6 3.06  36 3.06
                             4 3.06  10 3.09
   6  0.310  0.667  0.295-  58 1.94 124 1.94  60 1.94  59 2.00  52 2.00   5 3.06  39 3.06   7 3.06

   7  0.094  0.833  0.326-  61 1.94  91 1.94  53 1.94  59 1.94  54 2.00  60 2.00   4 3.06  22 3.06
                             6 3.06   8 3.09
   8  0.946  0.833  0.422-  62 1.93  96 1.94  64 1.94  54 1.98  63 1.99  61 2.00  11 3.01   9 3.05
                            25 3.06   7 3.09
   9  0.728  0.666  0.451-  57 1.90 127 1.94  63 1.94  65 1.96  66 2.00  64 2.00  10 3.02   8 3.05
                            40 3.06  14 3.11
  10  0.446  0.666  0.422-  66 1.93 132 1.94  68 1.94  58 1.98  67 1.99  57 2.00   9 3.02  11 3.06
                            43 3.06   5 3.09
  11  0.227  0.833  0.452-  61 1.90  99 1.94  67 1.94  69 1.97  62 1.98  68 2.01   8 3.01  26 3.06
                            10 3.06  12 3.11
  12  0.087  0.834  0.550-  70 1.93 104 1.93  72 1.94  71 1.98  69 2.00  62 2.01  15 2.96  13 3.05
                            29 3.06  11 3.11
  13  0.866  0.666  0.575-  65 1.87 135 1.94  71 1.95  74 1.96  73 2.01  72 2.01  14 2.99  12 3.05
                            44 3.06  18 3.17
  14  0.585  0.667  0.549- 140 1.94  74 1.94  76 1.94  66 1.98  75 1.98  65 2.02  13 2.99  15 3.06
                            47 3.07   9 3.11
  15  0.365  0.833  0.577-  69 1.87 107 1.94  75 1.95  70 1.96  77 2.00  76 2.01  12 2.96  30 3.06
                            14 3.06
  16  0.231  0.833  0.681-  78 1.86  80 1.93 112 1.94  79 2.00  77 2.10  70 2.10  19 2.86  33 3.08
                            17 3.10
  17  0.001  0.666  0.700-  73 1.78  81 1.84 143 1.97  79 1.99  80 2.06  18 2.87  16 3.10  48 3.11

[...]

  20  0.810  0.167  0.295-  86 1.94  88 1.94 120 1.94  87 2.00  85 2.00  23 3.06  21 3.06  37 3.06

[...]

  36  0.810  0.500  0.295- 118 1.94  56 1.94 120 1.94 119 2.00 117 2.00  39 3.06   5 3.06  37 3.06

  37  0.594  0.333  0.326- 121 1.94 119 1.94 116 1.94  87 1.94 122 2.00 120 2.00  38 3.06  36 3.06
                            20 3.06  42 3.09
  38  0.310  0.333  0.295- 122 1.94 124 1.94  92 1.94 123 2.00 116 2.00  37 3.06  39 3.06  23 3.06

  39  0.094  0.500  0.326- 125 1.94 123 1.94  59 1.94 117 1.94 118 2.00 124 2.00  36 3.06   6 3.06
                            38 3.06  40 3.07
  40  0.948  0.500  0.422- 126 1.93  64 1.94 128 1.94 118 1.98 125 1.98 127 2.00  43 3.01   9 3.06
                            41 3.06  39 3.07
  41  0.728  0.334  0.451- 121 1.90 127 1.94  95 1.94 129 1.96 130 2.00 128 2.00  42 3.02  24 3.05
                            40 3.06  46 3.11
  42  0.446  0.334  0.422- 130 1.93 132 1.94 100 1.94 122 1.98 131 1.99 121 2.00  41 3.02  27 3.06
                            43 3.06  37 3.09
  43  0.227  0.500  0.453- 125 1.93  67 1.94 131 1.94 126 1.97 133 1.97 132 2.01  40 3.01  10 3.06
                            42 3.06  44 3.08
  44  0.090  0.500  0.550- 134 1.93 136 1.94  72 1.94 133 1.98 135 2.00 126 2.01  47 2.97  13 3.06
                            45 3.06  43 3.08
  45  0.866  0.334  0.575- 129 1.87 135 1.94 103 1.95 138 1.96 137 2.01 136 2.01  46 2.99  28 3.05
                            44 3.06  50 3.17
  46  0.585  0.333  0.549- 140 1.94 138 1.94 108 1.94 130 1.98 139 1.98 129 2.02  45 2.99  31 3.06
                            47 3.07  41 3.11
  47  0.367  0.500  0.580- 133 1.93 139 1.94  75 1.94 134 1.95 141 1.99 140 2.03  44 2.97  46 3.07
                            14 3.07  48 3.15
  48  0.235  0.500  0.681- 142 1.86 144 1.94  80 1.94 143 2.03 141 2.05 134 2.09  51 2.88  49 3.11
                            17 3.11  47 3.15
  49  0.001  0.334  0.700- 137 1.78 145 1.84 143 1.97 111 1.99 144 2.06  50 2.87  32 3.10  48 3.11

  50  0.729  0.334  0.677- 145 1.89 147 1.93 115 1.95 146 1.99 138 2.03 137 2.09  49 2.87  35 3.09
                            51 3.09  45 3.17
  51  0.506  0.500  0.706- 142 1.82 141 1.87  82 1.98 146 1.98 147 2.11   3 2.26  48 2.88  50 3.09
                            18 3.09
  52  0.490  0.667  0.268-   5 1.94   6 2.00
  53  0.990  0.833  0.268-   7 1.94   4 2.00
  54  0.914  0.833  0.353-   4 1.94   8 1.98   7 2.00
  55  0.630  0.833  0.321-  21 1.94   5 1.94   4 2.00
  56  0.773  0.667  0.300-  36 1.94   4 1.94   5 2.00
  57  0.625  0.667  0.395-   9 1.90   5 1.94  10 2.00
  58  0.414  0.667  0.353-   6 1.94  10 1.98   5 2.00
  59  0.130  0.667  0.321-  39 1.94   7 1.94   6 2.00
  60  0.273  0.833  0.300-  22 1.94   6 1.94   7 2.00
  61  0.125  0.833  0.395-  11 1.90   7 1.94   8 2.00
  62  0.051  0.834  0.480-   8 1.93  11 1.98  12 2.01
  63  0.766  0.833  0.447-  25 1.94   9 1.94   8 1.99
  64  0.910  0.667  0.427-   8 1.94  40 1.94   9 2.00
  65  0.764  0.666  0.520-  13 1.87   9 1.96  14 2.02
  66  0.551  0.666  0.479-  10 1.93  14 1.98   9 2.00
  67  0.266  0.667  0.448-  43 1.94  11 1.94  10 1.99
  68  0.409  0.833  0.427-  10 1.94  26 1.94  11 2.01
  69  0.264  0.833  0.521-  15 1.87  11 1.97  12 2.00
  70  0.194  0.833  0.607-  12 1.93  15 1.96  16 2.10
  71  0.905  0.833  0.573-  29 1.94  13 1.95  12 1.98
  72  0.052  0.666  0.553-  44 1.94  12 1.94  13 2.01
  73  0.913  0.668  0.645-  17 1.78  13 2.01  18 2.09
  74  0.695  0.669  0.605-  14 1.94  13 1.96  18 2.03
  75  0.406  0.666  0.574-  47 1.94  15 1.95  14 1.98
  76  0.549  0.833  0.553-  30 1.94  14 1.94  15 2.01
  77  0.412  0.834  0.646-  19 1.79  15 2.00  16 2.10
  78  0.347  0.833  0.732-  19 1.84  16 1.86
  79  0.052  0.833  0.708-  33 1.98  17 1.99  16 2.00
  80  0.194  0.666  0.681-  16 1.93  48 1.94  17 2.06
  81  0.842  0.661  0.730-  17 1.84  18 1.89
  82  0.555  0.668  0.707-  19 1.97  51 1.98  18 1.99
  83  0.695  0.834  0.679-  34 1.93  18 1.95  19 2.05
  84  0.490  0.000  0.268-  21 1.94  22 2.00
  85  0.990  0.167  0.268-  23 1.94  20 2.00
  86  0.914  0.167  0.353-  20 1.94  24 1.98  23 2.00
  87  0.630  0.167  0.321-  21 1.94  37 1.94  20 2.00
  88  0.773  0.000  0.300-   4 1.94  20 1.94  21 2.00
  89  0.625  0.000  0.395-  25 1.90  21 1.94  26 2.00
  90  0.414  0.000  0.353-  22 1.94  26 1.98  21 2.00
  91  0.130  0.000  0.321-   7 1.94  23 1.94  22 2.00
  92  0.273  0.167  0.300-  22 1.94  38 1.94  23 2.00
  93  0.125  0.167  0.395-  27 1.90  23 1.94  24 2.00
  94  0.051  0.166  0.480-  24 1.93  27 1.98  28 2.01
  95  0.766  0.167  0.447-  25 1.94  41 1.94  24 1.99
  96  0.910  0.000  0.427-  24 1.94   8 1.94  25 2.00
  97  0.764  1.000  0.520-  29 1.87  25 1.97  30 2.01
  98  0.551  1.000  0.479-  26 1.93  25 1.99  30 2.00
  99  0.266  1.000  0.448-  27 1.94  11 1.94  26 1.99
 100  0.409  0.167  0.427-  42 1.94  26 1.94  27 2.01
 101  0.264  0.167  0.521-  31 1.87  27 1.97  28 2.00
 102  0.194  0.167  0.607-  28 1.93  31 1.96  32 2.10
 103  0.905  0.167  0.573-  29 1.94  45 1.95  28 1.98
 104  0.052  1.000  0.553-  28 1.93  12 1.93  29 2.02
 105  0.913  0.000  0.645-  33 1.79  29 2.01  34 2.09
 106  0.694  1.000  0.606-  30 1.93  29 1.95  34 2.09
 107  0.405  1.000  0.574-  15 1.94  31 1.94  30 1.98
 108  0.549  0.167  0.553-  30 1.94  46 1.94  31 2.01
 109  0.412  0.166  0.646-  35 1.79  31 2.00  32 2.10
 110  0.347  0.167  0.732-  35 1.84  32 1.86
 111  0.052  0.167  0.708-  33 1.98  49 1.99  32 2.00
[...]
 133  0.266  0.500  0.522-  47 1.93  43 1.97  44 1.98
 134  0.194  0.500  0.608-  44 1.93  47 1.95  48 2.09
 135  0.906  0.500  0.573-  13 1.94  45 1.94  44 2.00
 136  0.052  0.334  0.553-  44 1.94  28 1.94  45 2.01
 137  0.913  0.332  0.645-  49 1.78  45 2.01  50 2.09
 138  0.695  0.331  0.605-  46 1.94  45 1.96  50 2.03
 139  0.406  0.334  0.574-  47 1.94  31 1.95  46 1.98
 140  0.551  0.500  0.554-  14 1.94  46 1.94  47 2.03
 141  0.413  0.500  0.649-  51 1.87  47 1.99  48 2.05
 142  0.345  0.500  0.734-  51 1.82  48 1.86
 143  0.052  0.500  0.708-  17 1.97  49 1.97  48 2.03
 144  0.194  0.334  0.681-  32 1.93  48 1.94  49 2.06
 145  0.842  0.339  0.730-  49 1.84  50 1.89
 146  0.555  0.332  0.707-  35 1.97  51 1.98  50 1.99
 147  0.692  0.500  0.675-  18 1.93  50 1.93  51 2.11

IMPORTANT INFORMATION: All symmetrisations will be switched off!
NOSYMM: (Re-)initialisation of all symmetry stuff for point group C_1.

                                     Primitive cell

  volume of cell :    3284.6826

  direct lattice vectors                    reciprocal lattice vectors
    10.317568932  0.000000000  0.000000000     0.096922057 -0.000000000  0.000000000
     0.000000000 11.392502081  0.000000000     0.000000000  0.087777030  0.000000000
[...]
      3.76726      1.89828     16.11122        -0.000740     -0.000407      0.001889
      2.38773      1.90663     19.01810         0.001851     -0.001489      0.001423
      0.03192     11.39250     19.56031        -0.005131      0.000003     -0.001889
      7.55616     11.39250     18.99029         0.003230     -0.000018     -0.002844
      5.19665      1.88866     19.56343        -0.001035      0.003249     -0.001162
      8.35439      5.69625      8.23452         3.811837     -0.000002      1.701068
      6.12443      3.79750      9.11725        -1.617236     -0.002366     -1.937602
      3.19561      3.79750      8.23452         3.772201      0.001303      1.687180
      0.96564      5.69625      9.11725        -1.625416     -0.000001     -1.876014
      9.77853      5.69625     11.79839         0.000104     -0.000014     -0.001950
      7.51333      3.80192     12.60331        -0.001055      0.000204     -0.000176
      4.59760      3.79990     11.79930        -0.000063      0.000212     -0.000232
      2.34637      5.69625     12.64675         0.001426     -0.000006      0.001488
      0.92767      5.69625     15.37959         0.003651     -0.000003      0.001403
      8.93980      3.80171     16.07344        -0.002165      0.000290      0.000574
      6.03989      3.79907     15.34347         0.000647      0.000589      0.000576
      3.78750      5.69625     16.19648        -0.000265      0.000007      0.002515
      2.42115      5.69625     19.03025         0.003823      0.000020      0.000390
      0.00628      3.80821     19.55971        -0.002495     -0.000413      0.001005
      7.52429      3.80829     18.91343        -0.004682      0.005790     -0.001146
      5.21834      5.69625     19.73418         0.001877      0.000041     -0.010806
      5.05116      7.59500      7.50000        -1.771367     -0.000131      1.096101
     10.20995      9.49375      7.50000        -1.764766      0.000223      1.090267
      9.42766      9.49375      9.85177        -0.970119     -0.001328     -0.180844
      6.49884      9.49375      8.96904         0.357715     -0.003221     -0.058098
      7.97998      7.59500      8.38273         0.258753     -0.001475     -1.039067
      6.44888      7.59500     11.03092        -0.083449      0.005113      0.353838
      4.26887      7.59500      9.85177        -0.978682     -0.002213     -0.169642
      1.34005      7.59500      8.96904         0.369470      0.009373     -0.065579
      2.82120      9.49375      8.38273         0.269959     -0.005325     -1.041625
[...]
      2.74049      5.69625     14.58105        -0.001913      0.000001     -0.001774
      2.00456      5.69625     16.97748        -0.001944     -0.000001     -0.000243
      9.34428      5.69625     16.01698        -0.002167     -0.000010     -0.000293
      0.53297      3.79943     15.45660        -0.000732      0.001025      0.000833
      9.41925      3.78084     18.02219         0.001063      0.000975      0.001752
      7.17225      3.76554     16.91491         0.001677      0.001551     -0.000509
      4.18760      3.79956     16.04950        -0.000704     -0.001746      0.000297
      5.68532      5.69625     15.48225        -0.000910     -0.000006     -0.001935
      4.25939      5.69625     18.12694        -0.003729     -0.000005     -0.001623
      3.56470      5.69625     20.50164        -0.005352     -0.000016      0.002730
      0.53484      5.69625     19.77557        -0.004113     -0.000006      0.003038
      2.00278      3.80187     19.04017        -0.001530     -0.000420     -0.000414
      8.68748      3.86678     20.40773         0.001415     -0.000509      0.004637
      5.72304      3.77940     19.76832        -0.001756     -0.005813      0.000989
      7.14073      5.69625     18.87119         0.004709     -0.000031     -0.012068
    total drift:                               -0.004524      0.000006     -0.000768

  FREE ENERGIE OF THE ION-ELECTRON SYSTEM (eV)
  free  energy   TOTEN  =     -1057.53298150 eV

  energy  without entropy=    -1057.53298150  energy(sigma->0) =    -1057.53298150

 d Force =-0.8712033E-04[-0.125E-02, 0.108E-02]  d Energy =-0.7766223E-04-0.946E-05
 d Force =-0.4362091E+02[-0.436E+02,-0.436E+02]  d Ewald  =-0.4362097E+02 0.594E-04

 Finite differences progress:
  Degree of freedom:   9/  9
  Displacement:        2/  2
  Total:              18/ 18

 SECOND DERIVATIVES (NOT SYMMETRIZED)
               1X          1Y          1Z          2X          2Y          2Z          3X          3Y          3Z
  1X   -18.008801  -18.745740   -0.664679   -1.242204   -2.370758   -0.023175   19.195903   20.933178    0.373086
  1Y   -18.753127  -30.854452    0.171332    2.370199    2.910038   -0.012868   16.289355   27.953821   -0.595451
  1Z    -0.664103    0.175388   -1.480553   -0.022574    0.008833   -0.170029    0.125975   -0.828577    1.247409
  2X    -1.241445    2.370436   -0.021762  -18.001125   18.733611   -0.664355   19.186751  -20.924786    0.376334
  2Y    -2.373012    2.910339    0.009174   18.743512  -30.843247   -0.173511  -16.276025   27.948216    0.588197
  2Z    -0.025276   -0.010309   -0.169331   -0.666329   -0.173021   -1.482613    0.120618    0.836424    1.247611
  3X    19.193767   16.277801    0.118925   19.186528  -16.267056    0.120322  -40.569947   -0.011067   -1.011895
  3Y    20.943810   27.943729   -0.833793  -20.932895   27.935333    0.834449   -0.006490  -58.459244    0.000147
  3Z     0.372841   -0.590835    1.235600    0.375762    0.588941    1.238247   -1.016925   -0.005284   -5.816772

 Eigenvectors and eigenvalues of the dynamical matrix

   1 f  =  107.922169 THz   678.094986 2PiTHz 3599.896060 cm-1   446.330026 meV
             X         Y         Z           dx          dy          dz
      7.092438  6.471093 21.593821     0.417425    0.543723    0.002439
      7.092449  4.921402 21.593835    -0.412157    0.536000   -0.002341
      6.485697  5.696280 21.605972    -0.001315   -0.270072    0.000030
      8.354390  9.493752  8.234521            0           0           0
      6.124427  7.595001  9.117251            0           0           0
      3.195606  7.595001  8.234521            0           0           0
      0.965642  9.493752  9.117251            0           0           0
      9.764200  9.495224 11.804086            0           0           0
      7.513334  7.590579 12.603312            0           0           0
      4.597604  7.592599 11.799303            0           0           0
      2.343044  9.493459 12.617289            0           0           0
      0.899634  9.496732 15.374205            0           0           0
      8.939797  7.590788 16.073436            0           0           0
      6.039894  7.593434 15.343465            0           0           0
      3.767259  9.494217 16.111216            0           0           0
      2.387733  9.485867 19.018100            0           0           0
      0.006275  7.584290 19.559707            0           0           0
      7.524294  7.584213 18.913431            0           0           0
      5.196652  9.503839 19.563432            0           0           0
      8.354390  1.898750  8.234521            0           0           0
      6.124427  0.000000  9.117251            0           0           0
      3.195606  0.000000  8.234521            0           0           0
      0.965642  1.898750  9.117251            0           0           0
      9.764201  1.897277 11.804086            0           0           0
      7.505787 11.392502 12.608607            0           0           0
      4.600373 11.392502 11.803614            0           0           0
      2.343044  1.899042 12.617288            0           0           0
      0.899634  1.895769 15.374206            0           0           0
      8.925290 11.392502 16.091754            0           0           0
      6.047113 11.392502 15.360815            0           0           0
      3.767259  1.898285 16.111216            0           0           0
      2.387733  1.906634 19.018099            0           0           0
      0.031923 11.392501 19.560315            0           0           0
      7.556156 11.392502 18.990286            0           0           0
      5.196654  1.888665 19.563431            0           0           0
      8.354390  5.696251  8.234521            0           0           0
      6.124427  3.797501  9.117251            0           0           0
      3.195606  3.797501  8.234521            0           0           0
      0.965642  5.696251  9.117251            0           0           0
      9.778526  5.696251 11.798392            0           0           0
      7.513334  3.801923 12.603313            0           0           0
      4.597603  3.799903 11.799303            0           0           0
      2.346369  5.696251 12.646754            0           0           0
      0.927667  5.696251 15.379589            0           0           0
      8.939796  3.801713 16.073437            0           0           0
      6.039895  3.799068 15.343467            0           0           0
      3.787497  5.696250 16.196484            0           0           0
      2.421146  5.696250 19.030250            0           0           0
      0.006275  3.808211 19.559706            0           0           0
      7.524294  3.808291 18.913433            0           0           0
      5.218337  5.696252 19.734181            0           0           0
      5.051161  7.595001  7.500000            0           0           0
     10.209945  9.493752  7.500000            0           0           0
      9.427656  9.493752  9.851772            0           0           0
      6.498835  9.493752  8.969042            0           0           0
      7.979982  7.595001  8.382730            0           0           0
      6.448875  7.595001 11.030922            0           0           0
      4.268872  7.595001  9.851772            0           0           0
      1.340051  7.595001  8.969042            0           0           0
      2.821197  9.493752  8.382730            0           0           0
[...]
      2.740486  5.696251 14.581053            0           0           0
      2.004560  5.696251 16.977476            0           0           0
      9.344282  5.696251 16.016979            0           0           0
      0.532965  3.799433 15.456603            0           0           0
      9.419246  3.780840 18.022193            0           0           0
      7.172248  3.765536 16.914906            0           0           0
      4.187600  3.799560 16.049499            0           0           0
      5.685322  5.696251 15.482250            0           0           0
      4.259390  5.696251 18.126943            0           0           0
      3.564703  5.696254 20.501645            0           0           0
      0.534837  5.696251 19.775571            0           0           0
      2.002780  3.801873 19.040166            0           0           0
      8.687483  3.866782 20.407735            0           0           0
      5.723043  3.779402 19.768321            0           0           0
      7.140729  5.696252 18.871188            0           0           0

[...]

   9 f  =    4.306839 THz    27.060669 2PiTHz  143.660692 cm-1    17.811648 meV
             X         Y         Z           dx          dy          dz
      7.092438  6.471093 21.593821     0.215223   -0.002343   -0.149103
      7.092449  4.921402 21.593835     0.221486    0.003113   -0.155906
      6.485697  5.696280 21.605972     0.848579   -0.008067   -0.371374
      8.354390  9.493752  8.234521            0           0           0
      6.124427  7.595001  9.117251            0           0           0
      3.195606  7.595001  8.234521            0           0           0
      0.965642  9.493752  9.117251            0           0           0
      9.764200  9.495224 11.804086            0           0           0
      7.513334  7.590579 12.603312            0           0           0
      4.597604  7.592599 11.799303            0           0           0
      2.343044  9.493459 12.617289            0           0           0
      0.899634  9.496732 15.374205            0           0           0
      8.939797  7.590788 16.073436            0           0           0
      6.039894  7.593434 15.343465            0           0           0
      3.767259  9.494217 16.111216            0           0           0
      2.387733  9.485867 19.018100            0           0           0
      0.006275  7.584290 19.559707            0           0           0
      7.524294  7.584213 18.913431            0           0           0
      5.196652  9.503839 19.563432            0           0           0
      8.354390  1.898750  8.234521            0           0           0
      6.124427  0.000000  9.117251            0           0           0
      3.195606  0.000000  8.234521            0           0           0
      0.965642  1.898750  9.117251            0           0           0
      9.764201  1.897277 11.804086            0           0           0
      7.505787 11.392502 12.608607            0           0           0
      4.600373 11.392502 11.803614            0           0           0
      2.343044  1.899042 12.617288            0           0           0
      0.899634  1.895769 15.374206            0           0           0
      8.925290 11.392502 16.091754            0           0           0
      6.047113 11.392502 15.360815            0           0           0
      3.767259  1.898285 16.111216            0           0           0
      2.387733  1.906634 19.018099            0           0           0
      0.031923 11.392501 19.560315            0           0           0
      7.556156 11.392502 18.990286            0           0           0
      5.196654  1.888665 19.563431            0           0           0
      8.354390  5.696251  8.234521            0           0           0
      6.124427  3.797501  9.117251            0           0           0
      3.195606  3.797501  8.234521            0           0           0
      0.965642  5.696251  9.117251            0           0           0
      9.778526  5.696251 11.798392            0           0           0
      7.513334  3.801923 12.603313            0           0           0
      4.597603  3.799903 11.799303            0           0           0
      2.346369  5.696251 12.646754            0           0           0
      0.927667  5.696251 15.379589            0           0           0
      8.939796  3.801713 16.073437            0           0           0
      6.039895  3.799068 15.343467            0           0           0
      3.787497  5.696250 16.196484            0           0           0
      2.421146  5.696250 19.030250            0           0           0
      0.006275  3.808211 19.559706            0           0           0
      7.524294  3.808291 18.913433            0           0           0
      5.218337  5.696252 19.734181            0           0           0
      5.051161  7.595001  7.500000            0           0           0
     10.209945  9.493752  7.500000            0           0           0
      9.427656  9.493752  9.851772            0           0           0
      6.498835  9.493752  8.969042            0           0           0
      7.979982  7.595001  8.382730            0           0           0
      6.448875  7.595001 11.030922            0           0           0
      4.268872  7.595001  9.851772            0           0           0
      1.340051  7.595001  8.969042            0           0           0
      2.821197  9.493752  8.382730            0           0           0
[...]
      2.740486  5.696251 14.581053            0           0           0
      2.004560  5.696251 16.977476            0           0           0
      9.344282  5.696251 16.016979            0           0           0
      0.532965  3.799433 15.456603            0           0           0
      9.419246  3.780840 18.022193            0           0           0
      7.172248  3.765536 16.914906            0           0           0
      4.187600  3.799560 16.049499            0           0           0
      5.685322  5.696251 15.482250            0           0           0
      4.259390  5.696251 18.126943            0           0           0
      3.564703  5.696254 20.501645            0           0           0
      0.534837  5.696251 19.775571            0           0           0
      2.002780  3.801873 19.040166            0           0           0
      8.687483  3.866782 20.407735            0           0           0
      5.723043  3.779402 19.768321            0           0           0
      7.140729  5.696252 18.871188            0           0           0

 Finite differences POTIM=   1.0000000000000000E-002