 vasp.6.4.2 20Jul23 (build Feb 22 2024 13:53:45) complex
 executed on              LinuxNV date 2024.08.27  20:34:11
 OpenACC runtime initialized ...    4 GPUs detected

 INCAR:
   SYSTEM = Oxide-Surface
   ISMEAR = 0
   SIGMA = 0.05
   EDIFF = 1E-5
   ALGO = Normal
   IBRION = -1
   NSW = 0
   ISYM = 0
   DIPOL = 0.5 0.5 0.5
   IDIPOL = 3
   LDIPOL = .TRUE.
   ISTART = 1
   METAGGA = SCAN
   LUSE_VDW = .TRUE.
   BPARAM = 15.7
   CPARAM = 0.0093
   ENCUT = 1000
   PREC = Normal
   PRECFOCK = Normal
   LASPH = .TRUE.
   LREAL = Auto
   ISPIN = 1
   NELM = 200
   NELMIN = 8
   NCORE = 1
   KPAR = 1
   LWAVE = .FALSE.
   LCHARG = .FALSE.

 POTCAR:    PAW_PBE N_h 06Feb2004
 POTCAR:    PAW_PBE H_h 06Feb2004
 POTCAR:    PAW_PBE Mg_sv 12Apr2007
 POTCAR:    PAW_PBE O_h 06Feb2004
|               ----> ADVICE to this user running VASP <----                  |
|     You have switched on vdW-DFT.                                           |
|     This routine was written and supplied by Jiri Klimes. We recommend      |
|     that you carefully read and cite the following publications:            |
|       J. Klimes, D.R. Bowler, A. Michelides                                 |
|          J. Phys.: Cond Matt. 22 022201 (2010)                              |
|       J. Klimes, D.R. Bowler, A. Michelides                                 |
|          Phys. Rev. B. 83, 195131 (2011)                                    |
|     and references therein.                                                 |

   TITEL  = PAW_PBE N_h 06Feb2004
   POMASS =   14.001; ZVAL   =    5.000    mass and valenz
   ENMAX  =  700.000; ENMIN  =  500.000 eV

[...]

   TITEL  = PAW_PBE Mg_sv 12Apr2007
   POMASS =   24.305; ZVAL   =   10.000    mass and valenz
   ENMAX  =  495.223; ENMIN  =  371.417 eV

   TITEL  = PAW_PBE O_h 06Feb2004
   POMASS =   16.000; ZVAL   =    6.000    mass and valenz
   ENMAX  =  700.000; ENMIN  =  500.000 eV

 Optimization of the real space projectors (new method)

 maximal supplied QI-value         = 34.20
 optimisation between [QCUT,QGAM] = [ 16.08, 32.15] = [ 72.37,289.48] Ry
 Optimized for a Real-space Cutoff    0.71 Angstroem

   l    n(q)    QCUT    max X(q) W(low)/X(q) W(high)/X(q)  e(spline)
   0      7    16.076   148.539    0.44E-03    0.75E-03    0.58E-07
   0      7    16.076   106.192    0.44E-03    0.75E-03    0.58E-07
   1      6    16.076    73.877    0.23E-03    0.61E-03    0.11E-06
   1      6    16.076    50.042    0.22E-03    0.60E-03    0.11E-06
 Optimization of the real space projectors (new method)

[...]

   l    n(q)    QCUT    max X(q) W(low)/X(q) W(high)/X(q)  e(spline)
   0      9    16.140     8.730    0.14E-04    0.12E-04    0.27E-07
   0      9    16.140     8.910    0.19E-04    0.17E-04    0.41E-07
   1      9    16.140     2.513    0.16E-04    0.28E-04    0.54E-07
   1      9    16.140     3.341    0.27E-04    0.13E-03    0.17E-06
   2      9    16.140     3.683    0.18E-03    0.21E-03    0.81E-07
 Optimization of the real space projectors (new method)

 maximal supplied QI-value         = 34.20
 optimisation between [QCUT,QGAM] = [ 16.08, 32.15] = [ 72.37,289.48] Ry
 Optimized for a Real-space Cutoff    0.71 Angstroem

   l    n(q)    QCUT    max X(q) W(low)/X(q) W(high)/X(q)  e(spline)
   0      7    16.076   280.207    0.42E-03    0.69E-03    0.60E-07
   0      7    16.076   228.978    0.42E-03    0.69E-03    0.61E-07
   1      6    16.076    86.127    0.11E-03    0.66E-03    0.10E-06
   1      6    16.076    65.368    0.11E-03    0.65E-03    0.10E-06
  PAW_PBE N_h 06Feb2004                 :
  PAW_PBE H_h 06Feb2004                 :
  PAW_PBE Mg_sv 12Apr2007               :
  PAW_PBE O_h 06Feb2004                 :

 POSCAR:  N  H Mg  O
  positions in direct lattice

 METAGGA = SCAN                                        LMAXTAU =  6    LMIXTAU =  F

 ion  position               nearest neighbor table
   1  0.500  0.516  0.743-   4 1.02   3 1.02   2 1.02
   2  0.500  0.635  0.753-   1 1.02
   3  0.402  0.469  0.770-   1 1.02
   4  0.598  0.469  0.770-   1 1.02
   5  0.000  0.750  0.230-
   6  0.250  0.000  0.230-
   7  0.000  0.000  0.354-
   8  0.250  0.750  0.354-
   9  0.000  0.750  0.479-
  10  0.250  1.000  0.479-
  11  0.000  1.000  0.603-
  12  0.250  0.750  0.602-
  13  0.000  0.250  0.230-
  14  0.250  0.500  0.230-
  15  0.000  0.500  0.354-
  16  0.250  0.250  0.354-
  17  1.000  0.250  0.479-
  18  0.251  0.500  0.480-
  19  0.000  0.500  0.602-
  20  0.250  0.250  0.602-
  21  0.500  0.750  0.230-
  22  0.750  0.000  0.230-
  23  0.500  0.000  0.354-
  24  0.750  0.750  0.354-
  25  0.500  0.749  0.480-
  26  0.750  1.000  0.479-
  27  0.500  0.000  0.602-
  28  0.750  0.750  0.602-
  29  0.500  0.250  0.230-
  30  0.750  0.500  0.230-
  31  0.500  0.500  0.354-
  32  0.750  0.250  0.354-
  33  0.500  0.251  0.480-
  34  0.749  0.500  0.480-
  35  0.500  0.499  0.611-
  36  0.750  0.250  0.602-
  37  0.000  0.750  0.354-
  38  0.250  0.000  0.354-
  39  0.000  0.000  0.230-
  40  0.250  0.750  0.230-
  41  1.000  0.750  0.606-
  42  0.249  1.000  0.606-
  43  1.000  1.000  0.479-
  44  0.250  0.750  0.479-
  45  0.000  0.250  0.354-
  46  0.250  0.500  0.354-
  47  0.000  0.500  0.230-
  48  0.250  0.250  0.230-
  49  0.000  0.249  0.606-
  50  0.247  0.500  0.606-
  51  0.000  0.500  0.479-
  52  0.250  0.250  0.479-
  53  0.500  0.750  0.354-
  54  0.750  0.000  0.354-
  55  0.500  0.000  0.230-
  56  0.750  0.750  0.230-
  57  0.500  0.753  0.606-
  58  0.751  1.000  0.606-
  59  0.500  1.000  0.479-
  60  0.750  0.750  0.479-
  61  0.500  0.250  0.354-
  62  0.750  0.500  0.354-
  63  0.500  0.500  0.230-
  64  0.750  0.250  0.230-
  65  0.500  0.247  0.606-
  66  0.753  0.500  0.606-
  67  0.500  0.500  0.480-
  68  0.750  0.250  0.479-

IMPORTANT INFORMATION: All symmetrisations will be switched off!
NOSYMM: (Re-)initialisation of all symmetry stuff for point group C_1.

                                     Primitive cell

  volume of cell :    1211.2538

  direct lattice vectors                    reciprocal lattice vectors
     8.440984654  0.000000000  0.000000000     0.118469591  0.000000000  0.000000000
     0.000000000  8.440984654  0.000000000     0.000000000  0.118469591  0.000000000
     0.000000000  0.000000000 17.000000000     0.000000000  0.000000000  0.058823529

  length of vectors
     8.440984654  8.440984654 17.000000000     0.118469591  0.118469591  0.058823529

  position of ions in fractional coordinates (direct lattice)
     0.500000238  0.515521052  0.743122297
     0.499999982  0.635072459  0.752584339
     0.402069062  0.469398098  0.769809164
     0.597931074  0.469398359  0.769809375
     0.000000001  0.750005063  0.230190625
     0.250000001  0.000005063  0.230190625
     0.000000001  0.000005063  0.354322752
     0.250000001  0.750005063  0.354322752
     0.000000003  0.749688989  0.478992539
     0.250263523  0.999994937  0.479012029
     0.000000001  0.999958952  0.602562889
     0.249680170  0.750040946  0.602146405
     0.000000001  0.250005063  0.230190625
     0.250000001  0.500005063  0.230190625
     0.000000001  0.500005063  0.354322752
     0.250000001  0.250005063  0.354322752
     0.999999996  0.250234310  0.479017192
     0.251264403  0.499912485  0.479817993
     0.000000018  0.499894003  0.602327959
     0.249874846  0.249737023  0.602282337
     0.500000001  0.750005063  0.230190625
     0.750000001  0.000005063  0.230190625
     0.500000001  0.000005063  0.354322752
     0.750000001  0.750005063  0.354322752
     0.499999997  0.748694190  0.479856547
     0.749736478  0.999994937  0.479012045
     0.499999996  0.000235948  0.602315670
     0.750319839  0.750040932  0.602146398
     0.500000001  0.250005063  0.230190625
     0.750000001  0.500005063  0.230190625
     0.500000001  0.500005063  0.354322752
     0.750000001  0.250005063  0.354322752
     0.500000000  0.251193808  0.479761393
     0.748735611  0.499912479  0.479818037
     0.500000034  0.498643644  0.610784368
     0.750125162  0.249737020  0.602282348
     0.000000001  0.750005063  0.354322752
     0.250000001  0.000005063  0.354322752
     0.000000001  0.000005063  0.230190625
     0.250000001  0.750005063  0.230190625
     0.999999999  0.750491851  0.605981896
     0.249403678  0.999911150  0.606023354
     0.999999998  0.999937384  0.478809541
     0.249933155  0.750101855  0.478982330
     0.000000001  0.250005063  0.354322752
     0.250000001  0.500005063  0.354322752
     0.000000001  0.500005063  0.230190625
     0.250000001  0.250005063  0.230190625
     0.000000003  0.249368438  0.606057731
     0.247373171  0.499932707  0.606018755
     0.000000006  0.499983562  0.478713219
     0.249818530  0.249806475  0.478943030
     0.500000001  0.750005063  0.354322752
     0.750000001  0.000005063  0.354322752
     0.500000001  0.000005063  0.230190625
     0.750000001  0.750005063  0.230190625
     0.499999997  0.752922771  0.606464953
     0.750596323  0.999911142  0.606023376
     0.500000001  0.999876204  0.478718645
     0.750066840  0.750101852  0.478982337
     0.500000001  0.250005063  0.354322752
     0.750000001  0.500005063  0.354322752
     0.500000001  0.500005063  0.230190625
     0.750000001  0.250005063  0.230190625
     0.500000003  0.247335548  0.605753670
     0.752626877  0.499932691  0.606018757
     0.500000006  0.500046709  0.480056781
     0.750181474  0.249806464  0.478943037

  ion indices of the primitive-cell ions
   primitive index   ion index
                 1           1
                 2           2
                 3           3
                 4           4
                 5           5
                 6           6
                 7           7
                 8           8
                 9           9
                10          10
                11          11
                12          12
                13          13
                14          14
                15          15
                16          16
                17          17
                18          18
                19          19
                20          20
                21          21
                22          22
                23          23
                24          24
                25          25
                26          26
                27          27
                28          28
                29          29
                30          30
                31          31
                32          32
                33          33
                34          34
                35          35
                36          36
                37          37
                38          38
                39          39
                40          40
                41          41
                42          42
                43          43
                44          44
                45          45
                46          46
                47          47
                48          48
                49          49
                50          50
                51          51
                52          52
                53          53
                54          54
[...]

[...]

--------------------OUTCAR has been truncated-------------------------

  FORCE on cell =-STRESS in cart. coord.  units (eV):
  Direction    XX          YY          ZZ          XY          YZ          ZX
  Alpha Z  1219.66076  1219.66076  1219.66076
  Ewald  109099.14479109096.85408************    -0.00005    -6.96863     0.00027
  Hartree125996.16443125996.51380************     0.00017     1.49269     0.00012
  E(xc)   -3478.82192 -3478.80067 -3478.04538    -0.00000     0.09001     0.00006
  Local  ************************244425.14400     0.00009     1.35900    -0.00100
  n-local -5559.16901 -5559.36937 -5562.56794     0.00009    -0.63789    -0.00020
  augment   822.63060   822.66369   815.89850    -0.00003    -0.00610     0.00020
  Kinetic 12648.78579 12650.31259 12681.54361    -0.00035     4.76629     0.00075
  Fock        0.00000     0.00000     0.00000     0.00000     0.00000     0.00000
  Total     -44.79329   -44.72173   -13.17372    -0.00008     0.09538     0.00020
  in kB     -59.25001   -59.15535   -17.42544    -0.00010     0.12616     0.00026

 VOLUME and BASIS-vectors are now :
  energy-cutoff  :     1000.00
  volume of cell :     1211.25
      direct lattice vectors                 reciprocal lattice vectors
     8.440984654  0.000000000  0.000000000     0.118469591  0.000000000  0.000000000
     0.000000000  8.440984654  0.000000000     0.000000000  0.118469591  0.000000000
     0.000000000  0.000000000 17.000000000     0.000000000  0.000000000  0.058823529

  length of vectors
     8.440984654  8.440984654 17.000000000     0.118469591  0.118469591  0.058823529

 FORCES acting on ions
    electron-ion (+dipol)            ewald-force                    non-local-force                 convergence-correction
   0.761E-03 0.663E+01 -.111E+04   0.992E-04 -.121E+02 0.108E+04   -.244E-04 0.541E+01 0.277E+02   -.916E-05 0.757E-04 0.384E-03
   0.879E-03 -.706E+02 -.223E+03   -.154E-03 0.776E+02 0.224E+03   -.105E-02 -.727E+01 -.888E+00   -.127E-05 0.203E-03 0.130E-03
   0.583E+02 0.280E+02 -.222E+03   -.641E+02 -.307E+02 0.224E+03   0.602E+01 0.286E+01 -.305E+01   -.173E-03 -.831E-04 0.227E-03
   -.583E+02 0.280E+02 -.222E+03   0.641E+02 -.307E+02 0.224E+03   -.602E+01 0.286E+01 -.305E+01   0.173E-03 -.837E-04 0.228E-03
   0.335E-05 -.281E+00 0.245E+04   -.867E-05 0.277E+00 -.244E+04   -.144E-04 0.387E-02 -.968E+01   -.429E-06 0.119E-03 0.161E-03
   0.282E+00 -.341E-01 0.245E+04   -.277E+00 0.330E-01 -.244E+04   -.314E-02 0.220E-02 -.969E+01   -.761E-04 -.299E-04 0.187E-03
   0.994E-05 -.466E-01 0.831E+03   -.292E-04 0.532E-01 -.832E+03   0.265E-04 -.510E-02 0.864E+00   0.735E-05 -.166E-04 -.207E-04
   -.641E+00 0.619E+00 0.831E+03   0.723E+00 -.689E+00 -.832E+03   -.620E-01 0.522E-01 0.938E+00   -.390E-04 0.544E-04 0.721E-04
   -.266E-04 -.331E+01 -.776E+03   -.119E-04 0.319E+01 0.776E+03   0.611E-04 0.156E+00 0.186E-01   0.188E-04 -.386E-04 -.356E-02
   0.334E+01 -.220E+00 -.777E+03   -.322E+01 0.239E+00 0.777E+03   -.146E+00 -.169E-01 0.314E-01   0.899E-04 0.746E-04 -.362E-02
   -.219E-04 -.114E+01 -.239E+04   0.346E-04 0.115E+01 0.238E+04   0.558E-04 -.274E-01 0.784E+01   -.861E-05 -.131E-04 -.242E-02
   0.260E+02 -.251E+02 -.235E+04   -.262E+02 0.252E+02 0.235E+04   0.129E+00 -.829E-01 0.824E+01   0.143E-03 -.195E-03 -.211E-02
   0.837E-06 0.280E+00 0.245E+04   -.814E-05 -.277E+00 -.244E+04   0.245E-05 -.753E-03 -.969E+01   -.389E-06 -.947E-04 0.180E-03
   0.353E+00 0.334E-01 0.245E+04   -.342E+00 -.329E-01 -.244E+04   -.807E-02 0.950E-03 -.973E+01   -.962E-04 0.472E-05 0.202E-03
   0.280E-04 0.403E-01 0.832E+03   -.604E-04 -.510E-01 -.832E+03   0.796E-05 0.829E-02 0.723E+00   0.873E-05 0.143E-04 0.118E-03
   -.554E+00 -.623E+00 0.831E+03   0.609E+00 0.688E+00 -.832E+03   -.404E-01 -.484E-01 0.911E+00   -.644E-04 -.859E-04 0.792E-04
   -.461E-04 0.331E+01 -.777E+03   0.163E-04 -.319E+01 0.777E+03   0.247E-04 -.144E+00 0.511E-01   -.505E-06 0.401E-04 -.354E-02
   0.233E+01 0.196E+00 -.773E+03   -.186E+01 -.212E+00 0.774E+03   -.439E+00 0.102E-01 -.526E+00   0.995E-04 -.252E-04 -.338E-02
   0.263E-03 0.129E+01 -.237E+04   0.129E-03 -.131E+01 0.236E+04   -.697E-03 0.238E-01 0.791E+01   -.392E-05 -.713E-05 -.226E-02
   0.239E+02 0.245E+02 -.236E+04   -.240E+02 -.246E+02 0.235E+04   0.664E-01 0.791E-01 0.815E+01   0.163E-03 0.173E-03 -.223E-02
   -.494E-05 -.352E+00 0.245E+04   0.871E-05 0.342E+00 -.244E+04   -.188E-06 0.884E-02 -.973E+01   -.592E-06 0.123E-03 0.219E-03
   -.282E+00 -.341E-01 0.245E+04   0.277E+00 0.330E-01 -.244E+04   0.315E-02 0.222E-02 -.969E+01   0.693E-04 -.292E-04 0.179E-03
   -.130E-04 0.604E-01 0.832E+03   0.317E-04 -.790E-01 -.832E+03   -.804E-06 0.145E-01 0.726E+00   -.560E-05 -.748E-05 0.153E-03
   0.641E+00 0.619E+00 0.831E+03   -.723E+00 -.689E+00 -.832E+03   0.621E-01 0.522E-01 0.938E+00   0.424E-04 0.581E-04 0.772E-04
   0.418E-04 -.203E+01 -.775E+03   0.186E-05 0.157E+01 0.775E+03   -.348E-04 0.414E+00 -.313E+00   -.208E-04 -.906E-04 -.343E-02
   -.334E+01 -.220E+00 -.777E+03   0.322E+01 0.239E+00 0.777E+03   0.146E+00 -.169E-01 0.315E-01   -.900E-04 0.103E-03 -.360E-02
   -.710E-05 -.295E+01 -.237E+04   -.112E-04 0.298E+01 0.236E+04   0.115E-03 0.631E-02 0.791E+01   0.130E-05 0.938E-04 -.231E-02
   -.260E+02 -.251E+02 -.235E+04   0.262E+02 0.252E+02 0.235E+04   -.129E+00 -.827E-01 0.824E+01   -.137E-03 -.193E-03 -.213E-02
   -.618E-05 0.351E+00 0.245E+04   0.838E-05 -.342E+00 -.244E+04   0.333E-06 -.574E-02 -.973E+01   0.917E-05 -.117E-03 0.200E-03
   -.353E+00 0.334E-01 0.245E+04   0.342E+00 -.329E-01 -.244E+04   0.813E-02 0.950E-03 -.973E+01   0.878E-04 -.350E-05 0.210E-03
   -.284E-04 -.635E-01 0.828E+03   0.646E-04 0.769E-01 -.829E+03   0.223E-04 -.108E-01 0.101E+01   -.118E-04 0.282E-04 0.303E-03
   0.554E+00 -.623E+00 0.831E+03   -.609E+00 0.688E+00 -.832E+03   0.405E-01 -.484E-01 0.911E+00   0.605E-04 -.898E-04 0.780E-04
   0.146E-04 0.236E+01 -.772E+03   0.134E-04 -.190E+01 0.773E+03   -.194E-04 -.455E+00 -.631E+00   0.327E-05 0.357E-04 -.333E-02
   -.233E+01 0.196E+00 -.773E+03   0.186E+01 -.212E+00 0.774E+03   0.439E+00 0.102E-01 -.526E+00   -.899E-04 -.455E-04 -.338E-02
   0.420E-03 0.676E+01 -.226E+04   -.193E-03 -.716E+01 0.226E+04   -.880E-05 0.361E+00 0.114E+01   0.716E-05 -.606E-04 -.180E-02
   -.239E+02 0.245E+02 -.236E+04   0.240E+02 -.246E+02 0.235E+04   -.664E-01 0.790E-01 0.815E+01   -.168E-03 0.167E-03 -.223E-02
   0.134E-04 0.158E-01 0.499E+03   -.217E-04 -.439E-01 -.499E+03   -.294E-05 0.369E-01 -.110E-01   0.636E-05 0.232E-04 -.167E-03
   -.152E-01 0.189E-01 0.499E+03   0.463E-01 -.135E-01 -.499E+03   -.408E-01 -.727E-02 -.246E-01   -.597E-05 -.119E-04 -.139E-03
   0.159E-04 -.210E-01 0.148E+04   -.422E-05 0.220E-01 -.149E+04   -.384E-05 -.127E-02 0.252E+01   -.288E-05 -.137E-04 0.271E-03
   0.186E+00 -.185E+00 0.148E+04   -.174E+00 0.176E+00 -.148E+04   -.145E-01 0.115E-01 0.249E+01   -.390E-04 0.533E-04 0.272E-03
   -.481E-04 -.735E+01 -.147E+04   0.431E-04 0.720E+01 0.147E+04   -.177E-05 0.151E+00 -.456E+01   0.876E-06 -.562E-05 -.159E-02
   0.738E+01 -.117E+01 -.147E+04   -.721E+01 0.115E+01 0.147E+04   -.165E+00 0.239E-01 -.455E+01   0.358E-05 0.180E-04 -.161E-02
   0.601E-04 -.235E+00 -.463E+03   -.545E-06 0.239E+00 0.462E+03   -.112E-03 -.520E-02 0.373E+00   0.142E-05 0.200E-04 -.156E-02
   0.160E+01 -.163E+01 -.456E+03   -.158E+01 0.160E+01 0.455E+03   -.155E-01 0.258E-01 0.602E+00   0.578E-04 -.291E-04 -.160E-02
   0.311E-04 -.266E-01 0.499E+03   -.165E-04 0.604E-01 -.499E+03   -.281E-04 -.442E-01 -.331E-01   -.165E-05 -.116E-04 -.151E-03
   -.757E-01 -.321E-01 0.497E+03   0.149E-01 0.338E-01 -.496E+03   0.748E-01 -.193E-02 -.149E+00   -.202E-04 0.406E-05 -.116E-03
   0.490E-04 0.213E-01 0.148E+04   -.650E-05 -.220E-01 -.148E+04   -.692E-04 0.909E-03 0.249E+01   0.533E-05 0.849E-05 0.270E-03
   0.187E+00 0.185E+00 0.148E+04   -.178E+00 -.176E+00 -.148E+04   -.107E-01 -.120E-01 0.249E+01   -.402E-04 -.432E-04 0.291E-03
   -.958E-04 0.725E+01 -.147E+04   0.422E-04 -.710E+01 0.147E+04   0.816E-04 -.149E+00 -.454E+01   0.454E-05 0.925E-05 -.161E-02
   0.248E+02 0.162E+01 -.143E+04   -.241E+02 -.161E+01 0.143E+04   -.756E+00 -.152E-01 -.450E+01   0.160E-03 -.313E-04 -.135E-02
   0.459E-03 0.235E+00 -.455E+03   0.633E-05 -.239E+00 0.455E+03   -.756E-03 0.505E-02 0.448E+00   0.457E-05 -.231E-04 -.153E-02
   0.174E+01 0.165E+01 -.456E+03   -.171E+01 -.162E+01 0.456E+03   -.295E-01 -.227E-01 0.541E+00   0.416E-04 0.248E-04 -.155E-02
   -.139E-04 0.800E-01 0.496E+03   0.218E-04 -.165E-01 -.496E+03   0.237E-05 -.783E-01 -.157E+00   -.760E-05 0.396E-04 -.129E-03
   0.152E-01 0.189E-01 0.499E+03   -.463E-01 -.135E-01 -.499E+03   0.408E-01 -.728E-02 -.246E-01   0.394E-05 -.397E-05 -.149E-03
   -.162E-04 -.197E-01 0.148E+04   0.428E-05 0.178E-01 -.148E+04   0.214E-04 0.232E-02 0.250E+01   0.470E-05 -.979E-05 0.278E-03
   -.186E+00 -.185E+00 0.148E+04   0.174E+00 0.176E+00 -.148E+04   0.145E-01 0.115E-01 0.249E+01   0.383E-04 0.640E-04 0.271E-03
   0.629E-04 -.248E+02 -.142E+04   -.268E-04 0.239E+02 0.143E+04   -.286E-04 0.928E+00 -.441E+01   -.177E-05 -.155E-03 -.130E-02
   -.738E+01 -.117E+01 -.147E+04   0.721E+01 0.115E+01 0.147E+04   0.165E+00 0.239E-01 -.455E+01   -.230E-05 0.180E-04 -.161E-02
   -.742E-04 -.125E-01 -.455E+03   0.123E-04 0.158E-01 0.455E+03   0.107E-03 -.838E-02 0.455E+00   -.542E-06 0.149E-04 -.155E-02
   -.160E+01 -.163E+01 -.456E+03   0.158E+01 0.160E+01 0.455E+03   0.155E-01 0.259E-01 0.602E+00   -.550E-04 -.292E-04 -.158E-02
   -.351E-04 -.957E-01 0.497E+03   0.208E-04 0.383E-01 -.497E+03   0.267E-04 0.707E-01 -.138E+00   0.892E-06 -.323E-04 -.950E-04
   0.757E-01 -.321E-01 0.497E+03   -.149E-01 0.338E-01 -.496E+03   -.748E-01 -.193E-02 -.149E+00   0.193E-04 -.301E-05 -.114E-03
   -.633E-04 0.202E-01 0.148E+04   0.662E-05 -.181E-01 -.148E+04   0.683E-04 -.317E-02 0.246E+01   -.579E-07 0.202E-04 0.234E-03
   -.187E+00 0.185E+00 0.148E+04   0.178E+00 -.176E+00 -.148E+04   0.107E-01 -.120E-01 0.249E+01   0.321E-04 -.473E-04 0.275E-03
   0.128E-03 0.245E+02 -.143E+04   -.464E-04 -.238E+02 0.144E+04   -.113E-03 -.633E+00 -.456E+01   0.743E-06 0.192E-03 -.137E-02
   -.248E+02 0.162E+01 -.143E+04   0.241E+02 -.161E+01 0.143E+04   0.754E+00 -.152E-01 -.450E+01   -.158E-03 -.290E-04 -.136E-02
   -.450E-03 -.190E+00 -.473E+03   -.190E-05 0.184E+00 0.474E+03   0.799E-03 0.731E-02 -.114E+01   -.660E-05 -.107E-04 -.147E-02
   -.174E+01 0.165E+01 -.456E+03   0.171E+01 -.162E+01 0.456E+03   0.295E-01 -.228E-01 0.541E+00   -.393E-04 0.199E-04 -.155E-02
   0.190E-02 -.447E+01 0.897E+01   0.384E-12 -.444E-12 -.398E-11   -.241E-02 0.449E+01 -.871E+01   -.860E-05 0.961E-04 -.650E-01

 POSITION                                       TOTAL-FORCE (eV/Angst)
      4.22049      4.35151     12.63308         0.000807      0.119807      0.132245
      4.22049      5.36064     12.79393        -0.000317     -0.287870     -0.052010
      3.39386      3.96218     13.08676         0.248209      0.121779     -0.133997
      5.04713      3.96218     13.08676        -0.248834      0.122004     -0.134541
      0.00000      6.33078      3.91324        -0.000013      0.000218      0.324298
      2.11025      0.00004      3.91324         0.001016      0.000801      0.325013
      0.00000      0.00004      6.02349         0.000022      0.001238      0.176378
      2.11025      6.33078      6.02349         0.019844     -0.017663      0.184504
      0.00000      6.32811      8.14287         0.000049      0.035026     -0.017772
      2.11247      8.44094      8.14320        -0.028939      0.001811     -0.013672
      0.00000      8.44064     10.24357         0.000068     -0.010265     -0.200427
      2.10755      6.33108     10.23649        -0.039631      0.004764     -0.025703
      0.00000      2.11029      3.91324         0.000002      0.001801      0.326090
      2.11025      4.22054      3.91324         0.002082      0.001183      0.335631
      0.00000      4.22054      6.02349        -0.000008     -0.002663      0.215045
      2.11025      2.11029      6.02349         0.013980      0.015852      0.185307
      8.44098      2.11222      8.14329         0.000002     -0.025554     -0.012429
      2.12092      4.21975      8.15691         0.025477     -0.006088      0.029285
      0.00000      4.21960     10.23958        -0.000301      0.007129     -0.126945
      2.10919      2.10803     10.23880        -0.009488     -0.020147     -0.104883
      4.22049      6.33078      3.91324         0.000011     -0.000794      0.335678
      6.33074      0.00004      3.91324        -0.001001      0.000820      0.325161
      4.22049      0.00004      6.02349         0.000020     -0.004357      0.214625
      6.33074      6.33078      6.02349        -0.019824     -0.017689      0.184549
      4.22049      6.31972      8.15756        -0.000004     -0.042338      0.044001
      6.32851      8.44094      8.14320         0.028790      0.001857     -0.013617
      4.22049      0.00199     10.23937         0.000106      0.034169     -0.114113
      6.33344      6.33108     10.23649         0.039628      0.004780     -0.025855
      4.22049      2.11029      3.91324         0.000019      0.002809      0.335119
      6.33074      4.22054      3.91324        -0.002009      0.001174      0.335791
      4.22049      4.22054      6.02349         0.000054      0.002419      0.220945
      6.33074      2.11029      6.02349        -0.013952      0.015872      0.185331
      4.22049      2.12032      8.15594         0.000020     -0.000758      0.013619
      6.32007      4.21975      8.15691        -0.025458     -0.006110      0.029565
      4.22049      4.20904     10.38333         0.000233     -0.031746      0.093474
      6.33179      2.10803     10.23880         0.009477     -0.020139     -0.104816
      0.00000      6.33078      6.02349         0.000001      0.008850      0.040123
      2.11025      0.00004      6.02349        -0.010033     -0.002209      0.037913
      0.00000      0.00004      3.91324         0.000011     -0.000656     -0.320997
      2.11025      6.33078      3.91324        -0.003382      0.002326     -0.335260
      8.44098      6.33489     10.30169        -0.000002     -0.000416     -0.180477
      2.10521      8.44023     10.30240         0.001019      0.002819     -0.179351
      8.44098      8.44046      8.13976        -0.000048     -0.002495      0.030885
      2.10968      6.33160      8.14270        -0.000404      0.000035      0.032516
      0.00000      2.11029      6.02349        -0.000010     -0.011197      0.036153
      2.11025      4.22054      6.02349         0.014559     -0.000604      0.059497
      0.00000      4.22054      3.91324        -0.000023     -0.000117     -0.327500
      2.11025      2.11029      3.91324        -0.002479     -0.003175     -0.335722
      0.00000      2.10492     10.30298         0.000049      0.001200     -0.175786
      2.08807      4.21992     10.30232         0.008228     -0.005257     -0.158313
      0.00000      4.22035      8.13812        -0.000332      0.000472      0.025344
      2.10871      2.10861      8.14203         0.002001      0.002330      0.030667
      4.22049      6.33078      6.02349         0.000009     -0.015536      0.060162
      6.33074      0.00004      6.02349         0.010066     -0.002210      0.038006
      4.22049      0.00004      3.91324         0.000021      0.000179     -0.327010
      6.33074      6.33078      3.91324         0.003395      0.002307     -0.335283
      4.22049      6.35541     10.30990         0.000022      0.003092     -0.164210
      6.33577      8.44023     10.30240        -0.001069      0.002805     -0.179416
      4.22049      8.43994      8.13822         0.000052     -0.006363      0.028409
      6.33130      6.33160      8.14270         0.000420      0.000067      0.032548
      4.22049      2.11029      6.02349         0.000022      0.013491      0.057690
      6.33074      4.22054      6.02349        -0.014537     -0.000596      0.059350
      4.22049      4.22054      3.91324         0.000021     -0.001412     -0.332322
      6.33074      2.11029      3.91324         0.002506     -0.003183     -0.335662
      4.22049      2.08776     10.29781        -0.000030      0.014245     -0.172399
      6.35291      4.21992     10.30232        -0.008598     -0.005226     -0.158377
      4.22049      4.22089      8.16097         0.000403      0.000981     -0.052697
      6.33227      2.10861      8.14203        -0.001996      0.002318      0.030643
    total drift:                               -0.000523      0.017579      0.193622

  FREE ENERGIE OF THE ION-ELECTRON SYSTEM (eV)
  free  energy   TOTEN  =      -552.43555813 eV

  energy  without entropy=     -552.43555813  energy(sigma->0) =     -552.43555813