 vasp.6.3.0 20Jan22 (build Mar 11 2022 13:48:16) complex

 executed on             LinuxIFC date 2024.02.11  21:41:06

 INCAR:
   SYSTEM = Oxide-Surface
   ISMEAR = 0
   SIGMA = 0.05
   EDIFF = 1E-5
   ALGO = ALL
   ISTART = 0
   IBRION = -1
   NSW = 0
   ISYM = 2
   DIPOL = 0.5 0.5 0.5
   IDIPOL = 3
   LDIPOL = .TRUE.
   GGA = PE
   IVDW = 263
   ENCUT = 600
   PREC = Accurate
   LASPH = .TRUE.
   LREAL = .FALSE.
   ISPIN = 1
   NELM = 200
   NELMIN = 8
   NCORE = 19
   KPAR = 1
   LWAVE = .FALSE.
   LCHARG = .FALSE.

 POTCAR:    PAW_PBE Mg_pv 13Apr2007
 POTCAR:    PAW_PBE O 08Apr2002
 POTCAR:    PAW_PBE Mg_pv 13Apr2007
   VRHFIN =Mg: p6s2

   TITEL  = PAW_PBE Mg_pv 13Apr2007
   POMASS =   24.305; ZVAL   =    8.000    mass and valenz
   ENMAX  =  403.929; ENMIN  =  302.947 eV

   TITEL  = PAW_PBE O 08Apr2002
   POMASS =   16.000; ZVAL   =    6.000    mass and valenz
   ENMAX  =  400.000; ENMIN  =  300.000 eV

  PAW_PBE Mg_pv 13Apr2007               :
  PAW_PBE O 08Apr2002                   :

 POSCAR: Mg  O
  positions in direct lattice
 exchange correlation table for  LEXCH =        8
   RHO(1)=    0.500       N(1)  =     2000
   RHO(2)=  100.500       N(2)  =     4000

 ion  position               nearest neighbor table
   1  0.000  0.750  0.352-  33 2.11  35 2.11  36 2.11  43 2.11  52 2.11
   2  0.250  0.000  0.352-  34 2.11  35 2.11  36 2.11  44 2.11  51 2.11
   3  0.000  0.000  0.451-  35 2.11  34 2.11  33 2.11  41 2.11  50 2.11  39 2.12
   4  0.250  0.750  0.451-  36 2.11  34 2.11  33 2.11  42 2.11  49 2.11  40 2.12
   5  1.000  0.750  0.550-  56 2.11  39 2.11  47 2.11  40 2.11  33 2.13  37 2.14
   6  0.250  1.000  0.550-  39 2.11  48 2.11  55 2.11  40 2.11  34 2.13  38 2.15
   7  0.000  0.000  0.649-  54 2.11  37 2.11  39 2.11  45 2.11  38 2.11
   8  0.250  0.750  0.649-  37 2.11  40 2.11  46 2.11  53 2.11  38 2.11
   9  0.000  0.250  0.352-  41 2.11  35 2.11  43 2.11  44 2.11  60 2.11
  10  0.250  0.500  0.352-  42 2.11  36 2.11  43 2.11  44 2.11  59 2.11
  11  0.000  0.500  0.451-  43 2.11  41 2.11  42 2.11  33 2.11  58 2.11  47 2.12
  12  0.250  0.250  0.451-  44 2.11  41 2.11  42 2.11  34 2.11  57 2.11  48 2.12
  13  0.000  0.250  0.550-  39 2.11  47 2.11  48 2.11  64 2.11  41 2.13  45 2.15
  14  0.250  0.500  0.550-  47 2.11  48 2.11  40 2.11  63 2.11  42 2.12  46 2.15
  15  0.000  0.500  0.649-  46 2.11  47 2.11  37 2.11  45 2.11  62 2.12
  16  0.250  0.250  0.649-  46 2.11  61 2.11  45 2.11  38 2.11  48 2.11
  17  0.500  0.750  0.352-  49 2.11  36 2.11  51 2.11  52 2.11  59 2.11
  18  0.750  0.000  0.352-  50 2.11  35 2.11  51 2.11  52 2.11  60 2.11
  19  0.500  0.000  0.451-  51 2.11  49 2.11  50 2.11  34 2.11  57 2.11  55 2.12
  20  0.750  0.750  0.451-  52 2.11  49 2.11  50 2.11  33 2.11  58 2.11  56 2.12
  21  0.500  0.750  0.550-  56 2.11  55 2.11  63 2.11  40 2.11  49 2.13  53 2.16
  22  0.750  1.000  0.550-  56 2.11  39 2.11  55 2.11  64 2.11  50 2.13  54 2.14
  23  0.500  0.000  0.649-  61 2.11  55 2.11  54 2.11  38 2.11  53 2.11
  24  0.751  0.751  0.650-  37 2.11  54 2.11  62 2.12  53 2.12  56 2.12
  25  0.500  0.250  0.352-  57 2.11  51 2.11  44 2.11  59 2.11  60 2.11
  26  0.750  0.500  0.352-  58 2.11  52 2.11  43 2.11  59 2.11  60 2.11
  27  0.500  0.500  0.451-  59 2.11  49 2.11  57 2.11  58 2.11  42 2.11  63 2.12
  28  0.750  0.250  0.451-  60 2.11  50 2.11  57 2.11  58 2.11  41 2.11  64 2.12
  29  0.500  0.250  0.550-  55 2.11  48 2.11  64 2.11  63 2.11  57 2.12  61 2.15
  30  0.750  0.500  0.550-  56 2.11  47 2.11  63 2.11  64 2.11  58 2.13  62 2.16
  31  0.499  0.499  0.648-  63 2.10  46 2.10  61 2.10  62 2.12  53 2.12
  32  0.750  0.250  0.649-  54 2.11  64 2.11  61 2.11  62 2.11  45 2.11
  33  0.000  0.750  0.451-   1 2.11   3 2.11   4 2.11  11 2.11  20 2.11   5 2.13
  34  0.250  0.000  0.451-   2 2.11   3 2.11   4 2.11  12 2.11  19 2.11   6 2.13
  35  0.000  0.000  0.352-   3 2.11   2 2.11   1 2.11   9 2.11  18 2.11
  36  0.250  0.750  0.352-   4 2.11   2 2.11   1 2.11  10 2.11  17 2.11
  37  0.000  0.750  0.651-   8 2.11  24 2.11  15 2.11   7 2.11   5 2.14
  38  0.250  1.000  0.651-  16 2.11   7 2.11  23 2.11   8 2.11   6 2.15
  39  0.000  0.000  0.550-   6 2.11  13 2.11  22 2.11   7 2.11   5 2.11   3 2.12
  40  0.250  0.750  0.550-   8 2.11   6 2.11  21 2.11  14 2.11   5 2.11   4 2.12
  41  0.000  0.250  0.451-   9 2.11   3 2.11  11 2.11  12 2.11  28 2.11  13 2.13
  42  0.250  0.500  0.451-  10 2.11   4 2.11  11 2.11  12 2.11  27 2.11  14 2.12
  43  0.000  0.500  0.352-  11 2.11   9 2.11  10 2.11   1 2.11  26 2.11
  44  0.250  0.250  0.352-  12 2.11   9 2.11  10 2.11   2 2.11  25 2.11
  45  1.000  0.250  0.651-  16 2.11   7 2.11  15 2.11  32 2.11  13 2.15
  46  0.250  0.500  0.651-  31 2.10  15 2.11  16 2.11   8 2.11  14 2.15
  47  1.000  0.500  0.550-  30 2.11  15 2.11  13 2.11  14 2.11   5 2.11  11 2.12
  48  0.250  0.250  0.550-   6 2.11  13 2.11  29 2.11  14 2.11  16 2.11  12 2.12
  49  0.500  0.750  0.451-  17 2.11   4 2.11  19 2.11  20 2.11  27 2.11  21 2.13
  50  0.750  0.000  0.451-  18 2.11   3 2.11  19 2.11  20 2.11  28 2.11  22 2.13
  51  0.500  0.000  0.352-  19 2.11  17 2.11  18 2.11   2 2.11  25 2.11
  52  0.750  0.750  0.352-  20 2.11  17 2.11  18 2.11   1 2.11  26 2.11
  53  0.500  0.750  0.651-   8 2.11  23 2.11  31 2.12  24 2.12  21 2.16
  54  0.750  0.001  0.651-  32 2.11  24 2.11  23 2.11   7 2.11  22 2.14
  55  0.500  1.000  0.550-  23 2.11  21 2.11  29 2.11   6 2.11  22 2.11  19 2.12
  56  0.750  0.750  0.550-  30 2.11  21 2.11   5 2.11  22 2.11  24 2.12  20 2.12
  57  0.500  0.250  0.451-  25 2.11  19 2.11  12 2.11  27 2.11  28 2.11  29 2.12
  58  0.750  0.500  0.451-  26 2.11  20 2.11  11 2.11  27 2.11  28 2.11  30 2.13
  59  0.500  0.500  0.352-  27 2.11  17 2.11  25 2.11  26 2.11  10 2.11
  60  0.750  0.250  0.352-  28 2.11  18 2.11  25 2.11  26 2.11   9 2.11
  61  0.500  0.250  0.651-  31 2.10  23 2.11  16 2.11  32 2.11  29 2.15
  62  0.750  0.500  0.651-  32 2.11  15 2.12  31 2.12  24 2.12  30 2.16
  63  0.500  0.500  0.550-  31 2.10  30 2.11  21 2.11  29 2.11  14 2.11  27 2.12
  64  0.750  0.250  0.550-  32 2.11  13 2.11  30 2.11  29 2.11  22 2.11  28 2.12

  LATTYP: Found a simple tetragonal cell.
 ALAT       =     8.4409846542
 C/A-ratio  =     2.5270438657

  Lattice vectors:

 A1 = (   8.4409846542,   0.0000000000,   0.0000000000)
 A2 = (   0.0000000000,   8.4409846542,   0.0000000000)
 A3 = (   0.0000000000,   0.0000000000,  21.3307384906)

Analysis of symmetry for initial positions (statically):
 Subroutine PRICEL returns:
 Original cell was already a primitive cell.

 Routine SETGRP: Setting up the symmetry group for a
 simple tetragonal supercell.

 Subroutine GETGRP returns: Found  1 space group operations
 (whereof  1 operations were pure point group operations)
 out of a pool of 16 trial point group operations.

The static configuration has the point symmetry C_1 .

Analysis of symmetry for dynamics (positions and initial velocities):
 Subroutine PRICEL returns:
 Original cell was already a primitive cell.

[...]

The dynamic configuration has the point symmetry C_1 .

Analysis of constrained symmetry for selective dynamics:
 Subroutine PRICEL returns:
 Original cell was already a primitive cell.

 Routine SETGRP: Setting up the symmetry group for a
 simple tetragonal supercell.

 Subroutine GETGRP returns: Found  1 space group operations
 (whereof  1 operations were pure point group operations)
 out of a pool of 16 trial point group operations.

The constrained configuration has the point symmetry C_1 .

 Subroutine INISYM returns: Found  1 space group operations
 (whereof  1 operations are pure point group operations),
 and found     1 'primitive' translations

                                     Primitive cell

  volume of cell :    1519.8199

  direct lattice vectors                    reciprocal lattice vectors
     8.440984654  0.000000000  0.000000000     0.118469591  0.000000000  0.000000000
     0.000000000  8.440984654  0.000000000     0.000000000  0.118469591  0.000000000
     0.000000000  0.000000000 21.330738491     0.000000000  0.000000000  0.046880702

  length of vectors
     8.440984654  8.440984654 21.330738491     0.118469591  0.118469591  0.046880702

  position of ions in fractional coordinates (direct lattice)
     0.000000000  0.750000000  0.351605267
     0.250000000  0.000000000  0.351605267
     0.000000000  0.000000000  0.450535089
     0.250000000  0.750000000  0.450535089
     0.999952972  0.750069933  0.550182699
     0.249960180  0.999999612  0.550158547
     0.000071767  0.000081746  0.648822182
     0.249898085  0.749854229  0.648747211
     0.000000000  0.250000000  0.351605267
     0.250000000  0.500000000  0.351605267
     0.000000000  0.500000000  0.450535089
     0.250000000  0.250000000  0.450535089
     0.000003654  0.249979963  0.550161251
     0.249748591  0.499976608  0.550096481
     0.000002192  0.500168966  0.648801089
     0.249937473  0.249969046  0.648946383
     0.500000000  0.750000000  0.351605267
     0.750000000  0.000000000  0.351605267
     0.500000000  0.000000000  0.450535089
     0.750000000  0.750000000  0.450535089
     0.500260010  0.749982125  0.550295780
     0.750090200  0.999950935  0.550181221
     0.500174938  0.000063538  0.648739290
     0.751039523  0.750995909  0.649603103
     0.500000000  0.250000000  0.351605267
     0.750000000  0.500000000  0.351605267
     0.500000000  0.500000000  0.450535089
     0.750000000  0.250000000  0.450535089
     0.499969996  0.249784160  0.550090882
     0.749966853  0.500263841  0.550296262
     0.498939953  0.498985897  0.648486242
     0.749869906  0.249927386  0.648747568
     0.000000000  0.750000000  0.450535089
     0.250000000  0.000000000  0.450535089
     0.000000000  0.000000000  0.351605267
     0.250000000  0.750000000  0.351605267
     0.000499353  0.750094498  0.650694193
     0.250109797  0.999979088  0.651114683
     0.000136884  0.000132227  0.549867764
     0.250236395  0.750027713  0.549854657
     0.000000000  0.250000000  0.450535089
     0.250000000  0.500000000  0.450535089
     0.000000000  0.500000000  0.351605267
     0.250000000  0.250000000  0.351605267
     0.999972823  0.250117149  0.651102115
     0.249721265  0.499887596  0.650744450
     0.999777560  0.499924314  0.549903838
     0.249958822  0.249941630  0.549902197
     0.500000000  0.750000000  0.450535089
     0.750000000  0.000000000  0.450535089
     0.500000000  0.000000000  0.351605267
     0.750000000  0.750000000  0.351605267
     0.499900511  0.749702745  0.651434291
     0.750092168  0.000531548  0.650666996
     0.499920717  0.999831546  0.549889159
     0.749925806  0.749919682  0.550086402
     0.500000000  0.250000000  0.450535089
     0.750000000  0.500000000  0.450535089
     0.500000000  0.500000000  0.351605267
     0.750000000  0.250000000  0.351605267
     0.499862115  0.249746378  0.650807382
     0.749521345  0.499934182  0.651493469
     0.499981670  0.499983828  0.549886888
     0.750005706  0.250251695  0.549858885

  ion indices of the primitive-cell ions
   primitive index   ion index
                 1           1
                 2           2
                 3           3
[...]
   O          22.273          3.319          5.837          2.778          3.424          1.084
   O          22.314          3.320          5.843          2.787          3.456          1.085
   O          20.860          3.285          5.661          2.312          1.972          1.054
   O          20.861          3.285          5.661          2.305          1.956          1.054
   O          20.887          3.286          5.664          2.301          1.945          1.055
   O          20.886          3.286          5.664          2.302          1.948          1.055
   O          22.320          3.320          5.844          2.771          3.397          1.085
   O          22.319          3.320          5.844          2.771          3.396          1.085
   O          22.312          3.320          5.843          2.787          3.455          1.085
   O          22.268          3.319          5.837          2.779          3.425          1.084
   O          20.859          3.285          5.661          2.313          1.975          1.054
   O          20.863          3.285          5.661          2.306          1.958          1.054
   O          20.889          3.286          5.664          2.300          1.944          1.055
   O          20.887          3.286          5.664          2.301          1.945          1.055
   O          22.320          3.320          5.844          2.771          3.397          1.085
   O          22.318          3.320          5.843          2.771          3.397          1.085
   O          22.351          3.321          5.848          2.794          3.482          1.086
   O          22.272          3.319          5.837          2.778          3.424          1.084
   O          20.858          3.285          5.661          2.312          1.974          1.054
   O          20.875          3.286          5.663          2.314          1.978          1.055
   O          20.886          3.286          5.664          2.302          1.948          1.055
   O          20.889          3.286          5.664          2.300          1.943          1.055
   O          22.320          3.320          5.844          2.771          3.396          1.085
   O          22.320          3.320          5.844          2.771          3.397          1.085
   O          22.270          3.319          5.837          2.779          3.427          1.084
   O          22.352          3.321          5.848          2.794          3.483          1.086
   O          20.855          3.285          5.660          2.312          1.972          1.054
   O          20.861          3.285          5.661          2.305          1.955          1.054

  vdW correction parametrized for the method pbe

  IVDW = 263
  VDW_RADIUS =    50.000 A
  VDW_SR =     0.830
  VDW_D =     6.000
  SCSRAD =   120.000 A
  LVDWSCS = T
  LSCSGRAD = T
  LSCALER0 = T
  ITIM =  1
  Edisp (eV):  -17.71058

  FORCE on cell =-STRESS in cart. coord.  units (eV):
  Direction    XX          YY          ZZ          XY          YZ          ZX
  Alpha Z   875.25928   875.25928   875.25928
  Ewald  161085.91352161085.90579************    -0.05937    -0.05133    -0.13544
  Hartree171143.63049171143.62638************    -0.04092    -0.02651    -0.06623
  E(xc)   -2456.53576 -2456.53577 -2461.82774    -0.00008    -0.00002    -0.00019
  Local  ************************342501.72169     0.10137     0.07592     0.19660
  n-local -2811.99098 -2811.99116 -2832.91616    -0.00055    -0.00026    -0.00289
  augment  1047.84958  1047.84956  1038.52743    -0.00087     0.00023     0.00024
  Kinetic  7302.49166  7302.49207  7344.40506     0.00014    -0.00037     0.02094
  Fock        0.00000     0.00000     0.00000     0.00000     0.00000     0.00000
  vdW       -23.35077   -23.35076   -16.10542    -0.00007     0.00001    -0.00022
  Total     -42.59476   -42.59470   -11.99356    -0.00035    -0.00234     0.01281
  in kB     -44.90293   -44.90287   -12.64348    -0.00037    -0.00246     0.01350

 VOLUME and BASIS-vectors are now :
  energy-cutoff  :      600.00
  volume of cell :     1519.82
      direct lattice vectors                 reciprocal lattice vectors
     8.440984654  0.000000000  0.000000000     0.118469591  0.000000000  0.000000000
     0.000000000  8.440984654  0.000000000     0.000000000  0.118469591  0.000000000
     0.000000000  0.000000000 21.330738491     0.000000000  0.000000000  0.046880702

  length of vectors
     8.440984654  8.440984654 21.330738491     0.118469591  0.118469591  0.046880702

 FORCES acting on ions:
    Electron-Ion                     Ewald-Force                    Non-Local-Force
   0.698E-01 0.220E-01 0.207E+04   -.712E-01 -.227E-01 -.206E+04   0.104E-02 0.465E-03 -.704E+01
   -.179E-01 0.511E-01 0.207E+04   0.188E-01 -.517E-01 -.206E+04   -.631E-03 0.415E-03 -.705E+01
   0.241E+00 0.228E+00 0.683E+03   -.228E+00 -.216E+00 -.684E+03   -.976E-02 -.892E-02 0.528E+00
   -.130E+00 0.326E-01 0.683E+03   0.162E+00 -.200E-01 -.683E+03   -.226E-01 -.926E-02 0.509E+00
   0.652E+00 0.314E+00 -.689E+03   -.703E+00 -.316E+00 0.689E+03   0.466E-01 -.195E-02 -.288E+00
   -.303E+00 0.324E+00 -.691E+03   0.306E+00 -.318E+00 0.691E+03   0.429E-02 -.649E-02 -.197E+00
   -.275E+00 -.257E+00 -.205E+04   0.393E+00 0.374E+00 0.204E+04   -.839E-01 -.839E-01 0.602E+01
   -.142E+01 -.363E+00 -.205E+04   0.152E+01 0.417E+00 0.204E+04   -.529E-01 -.324E-01 0.594E+01
   0.520E-01 -.223E-01 0.207E+04   -.526E-01 0.231E-01 -.206E+04   0.383E-03 -.589E-03 -.705E+01
   -.189E-01 -.506E-01 0.207E+04   0.190E-01 0.511E-01 -.206E+04   -.702E-04 -.363E-03 -.704E+01
   0.329E+00 -.215E+00 0.683E+03   -.365E+00 0.205E+00 -.683E+03   0.251E-01 0.729E-02 0.536E+00
   -.126E-01 -.448E-01 0.683E+03   0.919E-03 0.312E-01 -.684E+03   0.867E-02 0.101E-01 0.526E+00
   0.348E+00 -.316E+00 -.691E+03   -.342E+00 0.323E+00 0.691E+03   -.705E-02 0.131E-03 -.200E+00
   -.201E+00 -.321E+00 -.688E+03   0.195E+00 0.310E+00 0.689E+03   0.152E-01 0.872E-02 -.260E+00
   0.176E+01 0.162E+00 -.205E+04   -.177E+01 -.282E+00 0.204E+04   -.267E-01 0.829E-01 0.599E+01
   0.375E+00 0.412E+00 -.205E+04   -.424E+00 -.473E+00 0.205E+04   0.325E-01 0.404E-01 0.601E+01
   -.676E-01 0.210E-01 0.207E+04   0.697E-01 -.218E-01 -.206E+04   -.152E-02 0.579E-03 -.705E+01
   0.175E-01 0.688E-01 0.207E+04   -.183E-01 -.702E-01 -.206E+04   0.527E-03 0.108E-02 -.704E+01
   -.227E+00 0.344E+00 0.683E+03   0.217E+00 -.378E+00 -.683E+03   0.806E-02 0.231E-01 0.530E+00
   0.118E+00 0.127E+00 0.682E+03   -.139E+00 -.149E+00 -.682E+03   0.160E-01 0.166E-01 0.573E+00
   -.793E+00 0.368E+00 -.693E+03   0.842E+00 -.361E+00 0.694E+03   -.486E-01 -.132E-01 -.209E+00
   0.298E+00 0.641E+00 -.689E+03   -.298E+00 -.691E+00 0.689E+03   -.521E-02 0.470E-01 -.299E+00
   0.158E+00 0.168E+01 -.205E+04   -.279E+00 -.169E+01 0.204E+04   0.832E-01 -.139E-01 0.597E+01
   0.284E+01 0.265E+01 -.206E+04   -.294E+01 -.276E+01 0.205E+04   -.998E-02 -.153E-02 0.609E+01
   -.514E-01 -.232E-01 0.207E+04   0.520E-01 0.233E-01 -.206E+04   -.341E-03 -.821E-04 -.704E+01
   0.163E-01 -.668E-01 0.207E+04   -.173E-01 0.688E-01 -.206E+04   0.712E-03 -.153E-02 -.705E+01
   -.323E+00 -.334E+00 0.683E+03   0.344E+00 0.356E+00 -.683E+03   -.162E-01 -.159E-01 0.525E+00
   -.180E-02 -.135E+00 0.683E+03   0.125E-01 0.167E+00 -.683E+03   -.779E-02 -.232E-01 0.511E+00
   -.344E+00 -.247E+00 -.688E+03   0.331E+00 0.239E+00 0.689E+03   0.105E-01 0.161E-01 -.241E+00
   0.314E+00 -.771E+00 -.694E+03   -.306E+00 0.821E+00 0.694E+03   -.142E-01 -.493E-01 -.188E+00
   -.264E+01 -.280E+01 -.205E+04   0.271E+01 0.285E+01 0.204E+04   0.231E-01 0.438E-01 0.591E+01
   -.327E+00 -.141E+01 -.205E+04   0.367E+00 0.150E+01 0.204E+04   -.255E-01 -.443E-01 0.594E+01
   0.254E+00 0.860E-01 0.512E+03   -.252E+00 -.895E-01 -.511E+03   -.420E-02 0.455E-02 -.876E-01
   -.746E-01 0.137E+00 0.512E+03   0.770E-01 -.141E+00 -.512E+03   -.283E-02 0.545E-02 -.109E+00
   0.407E-01 0.390E-01 0.155E+04   -.397E-01 -.383E-01 -.156E+04   -.131E-02 -.110E-02 0.349E+01
   -.194E-01 0.105E-01 0.155E+04   0.222E-01 -.930E-02 -.156E+04   -.396E-02 -.172E-02 0.349E+01
   0.134E+00 0.341E+00 -.156E+04   -.225E-01 -.373E+00 0.156E+04   -.149E+00 0.434E-01 -.482E+01
   -.304E+00 0.373E+00 -.156E+04   0.363E+00 -.413E+00 0.156E+04   -.772E-01 0.443E-01 -.507E+01
   0.213E+00 0.205E+00 -.512E+03   -.213E+00 -.205E+00 0.511E+03   -.106E-01 -.974E-02 0.270E+00
   -.440E+00 -.761E-01 -.511E+03   0.473E+00 0.800E-01 0.511E+03   -.520E-01 -.840E-02 0.292E+00
   0.142E+00 -.870E-01 0.512E+03   -.146E+00 0.879E-01 -.512E+03   0.529E-02 -.922E-03 -.107E+00
   -.938E-01 -.133E+00 0.512E+03   0.109E+00 0.138E+00 -.512E+03   -.205E-01 -.694E-02 -.776E-01
   0.517E-01 -.388E-01 0.155E+04   -.547E-01 0.379E-01 -.156E+04   0.419E-02 0.120E-02 0.349E+01
   -.651E-02 -.109E-01 0.155E+04   0.556E-02 0.972E-02 -.156E+04   0.134E-02 0.171E-02 0.349E+01
   0.373E+00 -.287E+00 -.156E+04   -.409E+00 0.333E+00 0.156E+04   0.398E-01 -.598E-01 -.505E+01
   0.359E+00 -.416E+00 -.156E+04   -.422E+00 0.453E+00 0.156E+04   0.590E-01 -.428E-01 -.498E+01
   0.723E+00 -.176E+00 -.512E+03   -.743E+00 0.165E+00 0.512E+03   0.305E-01 0.223E-01 0.277E+00
   0.661E-01 0.425E-01 -.512E+03   -.560E-01 -.354E-01 0.512E+03   -.103E-01 -.506E-02 0.200E+00
   -.224E+00 0.739E-01 0.511E+03   0.208E+00 -.720E-01 -.511E+03   0.219E-01 -.284E-02 -.143E+00
   0.730E-01 0.249E+00 0.512E+03   -.782E-01 -.246E+00 -.511E+03   0.664E-02 -.388E-02 -.870E-01
   -.404E-01 0.520E-01 0.155E+04   0.393E-01 -.550E-01 -.156E+04   0.142E-02 0.412E-02 0.349E+01
   0.177E-01 0.202E-01 0.155E+04   -.211E-01 -.236E-01 -.156E+04   0.475E-02 0.475E-02 0.349E+01
   -.160E+01 0.898E+00 -.156E+04   0.172E+01 -.106E+01 0.157E+04   -.109E+00 0.198E+00 -.515E+01
   0.371E+00 0.220E+00 -.156E+04   -.413E+00 -.117E+00 0.156E+04   0.559E-01 -.141E+00 -.483E+01
   -.185E+00 0.721E+00 -.512E+03   0.175E+00 -.744E+00 0.511E+03   0.220E-01 0.324E-01 0.288E+00
   0.483E+00 0.495E+00 -.516E+03   -.499E+00 -.506E+00 0.515E+03   0.330E-01 0.282E-01 0.862E-01
   -.138E+00 -.106E+00 0.512E+03   0.142E+00 0.119E+00 -.512E+03   -.671E-02 -.165E-01 -.788E-01
   0.571E-01 -.220E+00 0.511E+03   -.547E-01 0.204E+00 -.511E+03   -.333E-02 0.217E-01 -.144E+00
   -.498E-01 -.504E-01 0.155E+04   0.535E-01 0.539E-01 -.156E+04   -.523E-02 -.497E-02 0.349E+01
   0.603E-02 -.217E-01 0.155E+04   -.508E-02 0.246E-01 -.156E+04   -.134E-02 -.396E-02 0.349E+01
   -.428E+00 0.341E+00 -.156E+04   0.471E+00 -.400E+00 0.156E+04   -.489E-01 0.564E-01 -.501E+01
   0.727E+00 -.153E+01 -.156E+04   -.898E+00 0.165E+01 0.157E+04   0.217E+00 -.101E+00 -.516E+01
   -.742E+00 -.757E+00 -.511E+03   0.746E+00 0.766E+00 0.511E+03   -.125E-01 -.171E-01 0.357E+00
   -.110E+00 -.450E+00 -.511E+03   0.114E+00 0.475E+00 0.511E+03   -.712E-02 -.433E-01 0.295E+00
   0.802E-01 0.115E-01 0.171E+02   0.141E-12 -.347E-13 0.915E-11   -.797E-01 -.107E-01 -.171E+02

 POSITION                                       TOTAL-FORCE (eV/Angst)
      0.00000      6.33074      7.50000        -0.000541     -0.000211      0.514096
      2.11025      0.00000      7.50000         0.000262     -0.000312      0.516364
      0.00000      0.00000      9.61025         0.003352      0.003052      0.114941
      2.11025      6.33074      9.61025         0.009148      0.003314      0.120610
      8.44059      6.33133     11.73580        -0.003977     -0.003621     -0.060441
      2.10991      8.44098     11.73529         0.007483     -0.000810     -0.037547
      0.00061      0.00069     13.83986         0.034159      0.033638     -0.184391
      2.10939      6.32951     13.83826         0.046751      0.020165     -0.152073
      0.00000      2.11025      7.50000        -0.000290      0.000228      0.516175
      2.11025      4.22049      7.50000         0.000114      0.000243      0.514190
      0.00000      4.22049      9.61025        -0.010381     -0.002390      0.118075
      2.11025      2.11025      9.61025        -0.003066     -0.003570      0.116772
      0.00003      2.11008     11.73535        -0.001425      0.006642     -0.038408
      2.10812      4.22029     11.73396         0.008184     -0.002275     -0.049085
      0.00002      4.22192     13.83941        -0.027619     -0.035960     -0.165010
      2.10972      2.10998     13.84251        -0.016490     -0.020621     -0.192544
      4.22049      6.33074      7.50000         0.000572     -0.000218      0.517866
      6.33074      0.00000      7.50000        -0.000203     -0.000543      0.514066
      4.22049      0.00000      9.61025        -0.002653     -0.009586      0.118258
      6.33074      6.33074      9.61025        -0.005355     -0.005496      0.125130
      4.22269      6.33059     11.73822         0.000804     -0.005171     -0.030172
      6.33150      8.44057     11.73577        -0.004625     -0.003425     -0.060313
      4.22197      0.00054     13.83809        -0.037210     -0.028413     -0.155513
      6.33951      6.33914     13.85651        -0.114692     -0.107060     -0.264618
      4.22049      2.11025      7.50000         0.000234      0.000097      0.514363
      6.33074      4.22049      7.50000        -0.000210      0.000601      0.517882
      4.22049      4.22049      9.61025         0.005266      0.005429      0.122877
      6.33074      2.11025      9.61025         0.002882      0.009264      0.120635
      4.22024      2.10842     11.73384        -0.002540      0.007214     -0.046875
      6.33046      4.22272     11.73823        -0.005844      0.001170     -0.029982
      4.21154      4.21193     13.83269         0.093764      0.092857     -0.100892
      6.32964      2.10963     13.83826         0.013713      0.044469     -0.150111
      0.00000      6.33074      9.61025        -0.001346      0.000988      0.070385
      2.11025      0.00000      9.61025        -0.000426      0.001423      0.060926
      0.00000      0.00000      7.50000        -0.000395     -0.000351     -0.473258
      2.11025      6.33074      7.50000        -0.001114     -0.000498     -0.473683
      0.00422      6.33154     13.87979        -0.036712      0.011027      0.033550
      2.11117      8.44081     13.88876        -0.018012      0.004814     -0.045004
      0.00116      0.00112     11.72909        -0.009988     -0.009469      0.018193
      2.11224      6.33097     11.72881        -0.019237     -0.004548      0.018994
      0.00000      2.11025      9.61025         0.001352      0.000066      0.061810
      2.11025      4.22049      9.61025        -0.004672     -0.001951      0.064517
      0.00000      4.22049      7.50000         0.001152      0.000327     -0.473719
      2.11025      2.11025      7.50000         0.000390      0.000491     -0.473272
      8.44076      2.11124     13.88849         0.003600     -0.014025     -0.041245
      2.10789      4.21954     13.88086        -0.004004     -0.006072     -0.005667
      8.43911      4.21985     11.72985         0.010765      0.011539      0.012268
      2.10990      2.10975     11.72982        -0.000176      0.002206      0.007683
      4.22049      6.33074      9.61025         0.005428     -0.000859      0.065032
      6.33074      0.00000      9.61025         0.001487     -0.001213      0.070463
      4.22049      0.00000      7.50000         0.000387      0.001121     -0.473787
      6.33074      6.33074      7.50000         0.001343      0.001340     -0.474440
      4.21965      6.32823     13.89557         0.014577      0.032749     -0.075667
      6.33152      0.00449     13.87921         0.013933     -0.037796      0.034715
      4.21982      8.43956     11.72954         0.011667      0.009717      0.011239
      6.33011      6.33006     11.73375         0.017112      0.016480      0.007378
      4.22049      2.11025      9.61025        -0.001865     -0.003663      0.063522
      6.33074      4.22049      9.61025        -0.000923      0.005328      0.064798
      4.22049      4.22049      7.50000        -0.001484     -0.001408     -0.474177
      6.33074      2.11025      7.50000        -0.000394     -0.001119     -0.473650
      4.21933      2.10811     13.88220        -0.006480     -0.002882     -0.015695
      6.32670      4.21994     13.89684         0.046112      0.013741     -0.080821
      4.22034      4.22036     11.72949        -0.008665     -0.008351      0.004867
      6.33079      2.11237     11.72890        -0.002980     -0.017851      0.019416
    total drift:                                0.000486      0.000801      0.000551

  FREE ENERGIE OF THE ION-ELECTRON SYSTEM (eV)
  free  energy   TOTEN  =      -389.87541446 eV

  energy  without entropy=     -389.87541446  energy(sigma->0) =     -389.87541446