 vasp.6.4.2 20Jul23 (build Feb 22 2024 13:53:45) complex
 executed on              LinuxNV date 2024.08.27  15:29:57
 OpenACC runtime initialized ...    4 GPUs detected

 INCAR:
   SYSTEM = Oxide-Surface
   ISMEAR = 0
   SIGMA = 0.05
   EDIFF = 1E-5
   ALGO = Normal
   IBRION = -1
   NSW = 0
   ISYM = 0
   DIPOL = 0.5 0.5 0.5
   IDIPOL = 3
   LDIPOL = .TRUE.
   ISTART = 1
   LHFCALC = .TRUE.
   GGA = PE
   IVDW = 21
   VDW_SR = 0.96
   HFRCUT = -1
   ENCUT = 520
   PREC = Normal
   PRECFOCK = Normal
   LASPH = .TRUE.
   LREAL = Auto
   ISPIN = 1
   NELM = 200
   NELMIN = 8
   NCORE = 1
   KPAR = 1
   LWAVE = .FALSE.
   LCHARG = .FALSE.

 POTCAR:    PAW_PBE Mg_pv 13Apr2007
 POTCAR:    PAW_PBE O 08Apr2002
 POTCAR:    PAW_PBE Mg_pv 13Apr2007
   VRHFIN =Mg: p6s2

   TITEL  = PAW_PBE Mg_pv 13Apr2007
   POMASS =   24.305; ZVAL   =    8.000    mass and valenz
   ENMAX  =  403.929; ENMIN  =  302.947 eV

   TITEL  = PAW_PBE O 08Apr2002
   POMASS =   16.000; ZVAL   =    6.000    mass and valenz
   ENMAX  =  400.000; ENMIN  =  300.000 eV

 Optimization of the real space projectors (new method)

 maximal supplied QI-value         = 18.90
 optimisation between [QCUT,QGAM] = [ 11.53, 23.24] = [ 37.21,151.29] Ry
 Optimized for a Real-space Cutoff    1.21 Angstroem

   l    n(q)    QCUT    max X(q) W(low)/X(q) W(high)/X(q)  e(spline)
   1      8    11.527     2.974    0.16E-03    0.13E-03    0.98E-07
   1      8    11.527     4.279    0.42E-03    0.30E-03    0.22E-06
   0      8    11.527    16.381    0.13E-03    0.20E-03    0.72E-07
   0      8    11.527     5.611    0.88E-04    0.13E-03    0.50E-07
   2      7    11.527     4.652    0.25E-03    0.73E-04    0.51E-07
 Optimization of the real space projectors (new method)

 maximal supplied QI-value         = 24.76
 optimisation between [QCUT,QGAM] = [ 11.64, 23.27] = [ 37.91,151.63] Ry
 Optimized for a Real-space Cutoff    1.04 Angstroem

   l    n(q)    QCUT    max X(q) W(low)/X(q) W(high)/X(q)  e(spline)
   0      7    11.635    20.381    0.14E-03    0.49E-03    0.18E-06
   0      7    11.635    15.268    0.16E-03    0.52E-03    0.19E-06
   1      7    11.635     5.964    0.30E-03    0.44E-03    0.22E-06
   1      7    11.635     5.382    0.27E-03    0.34E-03    0.19E-06
  PAW_PBE Mg_pv 13Apr2007               :
  PAW_PBE O 08Apr2002                   :

 POSCAR: Mg  O
  positions in direct lattice
 exchange correlation table for  LEXCH =        8
   RHO(1)=    0.500       N(1)  =     2000
   RHO(2)=  100.500       N(2)  =     4000

 ion  position               nearest neighbor table
   1  0.125  0.750  0.203-  33 2.11  35 2.11  36 2.11  43 2.11  52 2.11
   2  0.375  0.000  0.203-  34 2.11  35 2.11  36 2.11  44 2.11  51 2.11
   3  0.125  0.000  0.327-  35 2.11  34 2.11  33 2.11  41 2.11  50 2.11  39 2.12
   4  0.375  0.750  0.327-  36 2.11  34 2.11  33 2.11  42 2.11  49 2.11  40 2.12
   5  0.125  0.750  0.452-  56 2.11  40 2.11  39 2.11  47 2.11  33 2.12  37 2.15
   6  0.375  1.000  0.452-  48 2.11  40 2.11  39 2.11  55 2.11  34 2.12  38 2.15
   7  0.125  1.000  0.576-  39 2.11  54 2.11  38 2.11  37 2.11  45 2.11
   8  0.375  0.750  0.576-  40 2.11  53 2.11  38 2.11  46 2.11  37 2.11
   9  0.125  0.250  0.203-  41 2.11  35 2.11  43 2.11  44 2.11  60 2.11
  10  0.375  0.500  0.203-  42 2.11  36 2.11  43 2.11  44 2.11  59 2.11
  11  0.125  0.500  0.327-  43 2.11  41 2.11  42 2.11  33 2.11  58 2.11  47 2.12
  12  0.375  0.250  0.327-  44 2.11  41 2.11  42 2.11  34 2.11  57 2.11  48 2.12
  13  0.125  0.250  0.452-  48 2.11  64 2.11  39 2.11  47 2.11  41 2.12  45 2.15
  14  0.375  0.500  0.452-  63 2.11  40 2.11  48 2.11  47 2.11  42 2.12  46 2.15
  15  0.125  0.500  0.576-  47 2.11  62 2.11  46 2.11  37 2.11  45 2.11
  16  0.375  0.250  0.576-  48 2.11  61 2.11  38 2.11  46 2.11  45 2.11
  17  0.625  0.750  0.203-  49 2.11  36 2.11  51 2.11  52 2.11  59 2.11
  18  0.875  0.000  0.203-  50 2.11  35 2.11  51 2.11  52 2.11  60 2.11
  19  0.625  0.000  0.327-  51 2.11  49 2.11  50 2.11  34 2.11  57 2.11  55 2.12
  20  0.875  0.750  0.327-  52 2.11  49 2.11  50 2.11  33 2.11  58 2.11  56 2.12
  21  0.625  0.750  0.452-  63 2.11  40 2.11  56 2.11  55 2.11  49 2.13  53 2.15
  22  0.875  0.000  0.452-  64 2.11  56 2.11  39 2.11  55 2.11  50 2.12  54 2.15
  23  0.625  1.000  0.576-  61 2.11  53 2.11  55 2.11  38 2.11  54 2.11
  24  0.875  0.750  0.576-  56 2.11  53 2.11  54 2.11  62 2.11  37 2.11
  25  0.625  0.250  0.203-  57 2.11  51 2.11  44 2.11  59 2.11  60 2.11
  26  0.875  0.500  0.203-  58 2.11  52 2.11  43 2.11  59 2.11  60 2.11
  27  0.625  0.500  0.327-  59 2.11  49 2.11  57 2.11  58 2.11  42 2.11  63 2.12
  28  0.875  0.250  0.327-  60 2.11  50 2.11  57 2.11  58 2.11  41 2.11  64 2.12
  29  0.625  0.250  0.452-  63 2.11  48 2.11  64 2.11  55 2.11  57 2.13  61 2.15
  30  0.875  0.500  0.452-  63 2.11  56 2.11  64 2.11  47 2.11  58 2.12  62 2.15
  31  0.625  0.500  0.576-  61 2.11  53 2.11  46 2.11  62 2.11  63 2.12
  32  0.875  0.250  0.576-  64 2.11  61 2.11  54 2.11  62 2.11  45 2.11
  33  0.125  0.750  0.327-   1 2.11   3 2.11   4 2.11  11 2.11  20 2.11   5 2.12
  34  0.375  0.000  0.327-   2 2.11   3 2.11   4 2.11  12 2.11  19 2.11   6 2.12
  35  0.125  0.000  0.203-   3 2.11   2 2.11   1 2.11   9 2.11  18 2.11
  36  0.375  0.750  0.203-   4 2.11   2 2.11   1 2.11  10 2.11  17 2.11
  37  0.125  0.750  0.578-   7 2.11  15 2.11  24 2.11   8 2.11   5 2.15
  38  0.375  0.000  0.579-  16 2.11   8 2.11   7 2.11  23 2.11   6 2.15
  39  0.125  1.000  0.452-   5 2.11  13 2.11   7 2.11   6 2.11  22 2.11   3 2.12
  40  0.375  0.750  0.452-   8 2.11   5 2.11   6 2.11  14 2.11  21 2.11   4 2.12
  41  0.125  0.250  0.327-   9 2.11   3 2.11  11 2.11  12 2.11  28 2.11  13 2.12
  42  0.375  0.500  0.327-  10 2.11   4 2.11  11 2.11  12 2.11  27 2.11  14 2.12
  43  0.125  0.500  0.203-  11 2.11   9 2.11  10 2.11   1 2.11  26 2.11
  44  0.375  0.250  0.203-  12 2.11   9 2.11  10 2.11   2 2.11  25 2.11
  45  0.125  0.250  0.578-   7 2.11  15 2.11  16 2.11  32 2.11  13 2.15
  46  0.375  0.500  0.578-  15 2.11  16 2.11   8 2.11  31 2.11  14 2.15
  47  0.125  0.500  0.452-  15 2.11   5 2.11  13 2.11  14 2.11  30 2.11  11 2.12
  48  0.375  0.250  0.452-  16 2.11  13 2.11   6 2.11  14 2.11  29 2.11  12 2.12
  49  0.625  0.750  0.327-  17 2.11   4 2.11  19 2.11  20 2.11  27 2.11  21 2.13
  50  0.875  0.000  0.327-  18 2.11   3 2.11  19 2.11  20 2.11  28 2.11  22 2.12
  51  0.625  0.000  0.203-  19 2.11  17 2.11  18 2.11   2 2.11  25 2.11
  52  0.875  0.750  0.203-  20 2.11  17 2.11  18 2.11   1 2.11  26 2.11
  53  0.625  0.750  0.578-  23 2.11   8 2.11  24 2.11  31 2.11  21 2.15
  54  0.875  0.000  0.579-  32 2.11  24 2.11   7 2.11  23 2.11  22 2.15
  55  0.625  1.000  0.452-  23 2.11  22 2.11   6 2.11  21 2.11  29 2.11  19 2.12
  56  0.875  0.750  0.452-  24 2.11   5 2.11  22 2.11  30 2.11  21 2.11  20 2.12
  57  0.625  0.250  0.327-  25 2.11  19 2.11  12 2.11  27 2.11  28 2.11  29 2.13
  58  0.875  0.500  0.327-  26 2.11  20 2.11  11 2.11  27 2.11  28 2.11  30 2.12
  59  0.625  0.500  0.203-  27 2.11  17 2.11  25 2.11  26 2.11  10 2.11
  60  0.875  0.250  0.203-  28 2.11  18 2.11  25 2.11  26 2.11   9 2.11
  61  0.625  0.250  0.578-  23 2.11  16 2.11  32 2.11  31 2.11  29 2.15
  62  0.875  0.500  0.578-  15 2.11  24 2.11  32 2.11  31 2.11  30 2.15
  63  0.625  0.500  0.452-  30 2.11  14 2.11  29 2.11  21 2.11  31 2.12  27 2.12
  64  0.875  0.250  0.452-  32 2.11  13 2.11  22 2.11  30 2.11  29 2.11  28 2.12

IMPORTANT INFORMATION: All symmetrisations will be switched off!
NOSYMM: (Re-)initialisation of all symmetry stuff for point group C_1.

                                     Primitive cell

  volume of cell :    1211.2538

  direct lattice vectors                    reciprocal lattice vectors
     8.440984654  0.000000000  0.000000000     0.118469591  0.000000000  0.000000000
     0.000000000  8.440984654  0.000000000     0.000000000  0.118469591  0.000000000
     0.000000000  0.000000000 17.000000000     0.000000000  0.000000000  0.058823529

  length of vectors
     8.440984654  8.440984654 17.000000000     0.118469591  0.118469591  0.058823529

  position of ions in fractional coordinates (direct lattice)
     0.124874701  0.750000001  0.202819599
     0.374874701  0.000000001  0.202819599
     0.124874701  0.000000001  0.326951726
     0.374874701  0.750000001  0.326951726
     0.124874704  0.750032169  0.451932988
     0.374867470  0.999999999  0.451925450
     0.124874712  0.999999992  0.575783509
     0.374991216  0.750097341  0.575612586
     0.124874701  0.250000001  0.202819599
     0.374874701  0.500000001  0.202819599
     0.124874701  0.500000001  0.326951726
     0.374874701  0.250000001  0.326951726
     0.124874708  0.249967823  0.451932992
     0.374983146  0.500000002  0.451948183
     0.124874712  0.499999995  0.575568334
     0.374991205  0.249902632  0.575612581
     0.624874701  0.750000001  0.202819599
     0.874874701  0.000000001  0.202819599
     0.624874701  0.000000001  0.326951726
     0.874874701  0.750000001  0.326951726
     0.624874696  0.749901113  0.451984522
     0.874881955  0.000000006  0.451925445
     0.624874708  0.999999999  0.575658965
     0.874758227  0.750097345  0.575612601
     0.624874701  0.250000001  0.202819599
     0.874874701  0.500000001  0.202819599
     0.624874701  0.500000001  0.326951726
     0.874874701  0.250000001  0.326951726
     0.624874702  0.250098875  0.451984502
     0.874766288  0.499999992  0.451948190
     0.624874715  0.499999989  0.576325730
     0.874758224  0.249902626  0.575612601
     0.124874701  0.750000001  0.326951726
     0.374874701  0.000000001  0.326951726
     0.124874701  0.000000001  0.202819599
     0.374874701  0.750000001  0.202819599
     0.124874712  0.750041777  0.578461591
     0.374814565  0.000000004  0.578506137
     0.124874716  0.999999982  0.451658755
     0.374798799  0.750012793  0.451587177
     0.124874701  0.250000001  0.326951726
     0.374874701  0.500000001  0.326951726
     0.124874701  0.500000001  0.202819599
     0.374874701  0.250000001  0.202819599
     0.124874718  0.249958210  0.578461567
     0.374624152  0.499999983  0.578487550
     0.124874718  0.500000004  0.451540272
     0.374798803  0.249987199  0.451587172
     0.624874701  0.750000001  0.326951726
     0.874874701  0.000000001  0.326951726
     0.624874701  0.000000001  0.202819599
     0.874874701  0.750000001  0.202819599
     0.624874705  0.750141603  0.578186521
     0.874934875  0.000000005  0.578506145
     0.624874715  0.999999988  0.451528368
     0.874950615  0.750012792  0.451587179
     0.624874701  0.250000001  0.326951726
     0.874874701  0.500000001  0.326951726
     0.624874701  0.500000001  0.202819599
     0.874874701  0.250000001  0.202819599
     0.624874705  0.249858389  0.578186513
     0.875125299  0.499999988  0.578487554
     0.624874718  0.499999993  0.451751169
     0.874950602  0.249987190  0.451587179

  ion indices of the primitive-cell ions
   primitive index   ion index
                 1           1
                 2           2
                 3           3
                 4           4
                 5           5
                 6           6
[...]
   O         196.976          4.873         19.188          3.55339010
   O         196.975          4.873         19.188          3.55337896
   O         191.696          4.851         18.929          3.50544189
   O         191.493          4.851         18.919          3.50358521
   O         240.732          5.039         21.213          3.92829137
   O         240.891          5.040         21.220          3.92958209
   O         236.220          5.023         21.013          3.89129838
   O         236.235          5.023         21.014          3.89141982
   O         196.960          4.873         19.188          3.55324345
   O         196.973          4.873         19.188          3.55335999
   O         193.536          4.859         19.020          3.52222233
   O         191.487          4.851         18.919          3.50352905
   O         240.400          5.038         21.198          3.92557433
   O         240.885          5.040         21.220          3.92953933
   O         236.220          5.023         21.013          3.89129872
   O         236.256          5.023         21.015          3.89159475
   O         197.006          4.874         19.190          3.55365872
   O         196.973          4.873         19.188          3.55335981
   O         193.536          4.859         19.020          3.52222214
   O         191.628          4.851         18.926          3.50482546
   O         240.590          5.039         21.207          3.92713021
   O         240.885          5.040         21.220          3.92953943

  vdW correction parametrized for the method P4õ/    þ

  IVDW =  21
  VDW_RADIUS =    50.000 A
  VDW_IDAMPF =  0
  VDW_S6 =     1.000
  VDW_SR =     0.960
  VDW_D =    20.000
  LVDW_ONECELL = F F F
  LVDW_SAMETYPE T T
  LVDW_EWALD = F

  Number of pair interactions contributing to vdW energy:  892032
  Edisp (eV):   -3.88078

 VOLUME and BASIS-vectors are now :
  energy-cutoff  :      520.00
  volume of cell :     1211.25
      direct lattice vectors                 reciprocal lattice vectors
     8.440984654  0.000000000  0.000000000     0.118469591  0.000000000  0.000000000
     0.000000000  8.440984654  0.000000000     0.000000000  0.118469591  0.000000000
     0.000000000  0.000000000 17.000000000     0.000000000  0.000000000  0.058823529

  length of vectors
     8.440984654  8.440984654 17.000000000     0.118469591  0.118469591  0.058823529

 FORCES acting on ions
    electron-ion (+dipol)            ewald-force                    non-local-force                 convergence-correction
   0.610E-04 0.116E-01 0.172E+04   -.247E-05 -.112E-01 -.171E+04   -.636E-03 -.254E-03 -.677E+01   -.609E-05 -.746E-06 -.162E+00
   -.102E-01 0.893E-06 0.172E+04   0.984E-02 -.192E-05 -.171E+04   -.362E-03 0.323E-05 -.677E+01   0.874E-05 -.270E-05 -.162E+00
   0.606E-04 -.374E-05 0.567E+03   -.606E-05 0.486E-05 -.568E+03   -.274E-03 -.109E-06 0.473E+00   0.546E-06 -.279E-05 -.101E+00
   -.108E+00 0.932E-01 0.567E+03   0.106E+00 -.933E-01 -.568E+03   0.800E-03 -.767E-05 0.459E+00   -.400E-05 0.783E-05 -.101E+00
   0.758E-04 0.159E+00 -.575E+03   -.191E-04 -.151E+00 0.576E+03   0.190E-03 -.774E-02 -.220E+00   0.161E-05 -.912E-05 -.254E-02
   -.310E-01 0.214E-04 -.575E+03   0.190E-01 -.193E-04 0.575E+03   0.864E-02 0.350E-06 -.189E+00   0.590E-05 -.387E-05 -.255E-02
   0.427E-04 0.188E-04 -.171E+04   0.202E-04 -.182E-04 0.170E+04   -.389E-03 0.290E-05 0.570E+01   0.605E-05 -.320E-05 0.963E-01
   0.201E+00 0.465E+00 -.171E+04   -.254E+00 -.443E+00 0.170E+04   0.241E-01 -.239E-01 0.570E+01   -.296E-04 0.111E-04 0.962E-01
   0.609E-04 -.116E-01 0.172E+04   -.230E-05 0.112E-01 -.171E+04   -.637E-03 0.261E-03 -.677E+01   -.488E-05 0.258E-06 -.162E+00
   -.277E-01 -.204E-05 0.172E+04   0.282E-01 0.182E-05 -.171E+04   -.950E-03 -.946E-06 -.677E+01   0.874E-05 0.660E-06 -.162E+00
   0.745E-04 0.298E-05 0.568E+03   -.154E-04 -.470E-05 -.568E+03   -.283E-03 -.997E-06 0.440E+00   -.149E-05 0.220E-05 -.101E+00
   -.108E+00 -.932E-01 0.567E+03   0.106E+00 0.933E-01 -.568E+03   0.802E-03 0.810E-05 0.459E+00   -.425E-05 -.713E-05 -.101E+00
   0.955E-04 -.159E+00 -.575E+03   -.345E-04 0.151E+00 0.576E+03   0.188E-03 0.774E-02 -.220E+00   0.221E-06 0.905E-05 -.253E-02
   -.236E+00 0.126E-05 -.575E+03   0.261E+00 -.596E-05 0.576E+03   -.242E-01 -.268E-06 -.209E+00   -.416E-04 0.294E-05 -.253E-02
   0.272E-04 0.819E-06 -.171E+04   0.360E-04 0.200E-05 0.170E+04   -.997E-03 -.429E-05 0.565E+01   0.539E-05 0.253E-05 0.961E-01
   0.201E+00 -.465E+00 -.171E+04   -.254E+00 0.443E+00 0.170E+04   0.241E-01 0.239E-01 0.570E+01   -.267E-04 -.568E-05 0.962E-01
   0.599E-04 0.290E-01 0.172E+04   0.270E-05 -.295E-01 -.171E+04   -.637E-03 0.337E-03 -.677E+01   -.816E-05 0.390E-05 -.162E+00
   0.103E-01 0.496E-05 0.172E+04   -.984E-02 -.226E-05 -.171E+04   -.943E-03 0.807E-06 -.677E+01   0.468E-05 -.286E-05 -.162E+00
   0.545E-04 0.200E-04 0.568E+03   0.532E-05 -.213E-04 -.568E+03   -.278E-03 0.188E-05 0.440E+00   -.143E-05 -.164E-05 -.101E+00
   0.108E+00 0.932E-01 0.567E+03   -.106E+00 -.933E-01 -.568E+03   -.136E-02 -.854E-05 0.459E+00   0.528E-05 0.487E-05 -.101E+00
   -.838E-05 0.316E+00 -.575E+03   0.684E-04 -.351E+00 0.575E+03   -.236E-03 0.292E-01 -.270E+00   0.298E-05 0.215E-04 -.255E-02
   0.311E-01 0.584E-04 -.575E+03   -.190E-01 -.560E-04 0.575E+03   -.827E-02 -.657E-06 -.189E+00   -.813E-05 -.338E-05 -.254E-02
   0.115E-04 0.138E-04 -.171E+04   0.485E-04 -.143E-04 0.170E+04   -.252E-03 0.181E-05 0.570E+01   0.374E-05 -.162E-05 0.962E-01
   -.201E+00 0.465E+00 -.171E+04   0.254E+00 -.443E+00 0.170E+04   -.255E-01 -.235E-01 0.570E+01   0.173E-04 0.200E-05 0.962E-01
   0.611E-04 -.290E-01 0.172E+04   0.231E-05 0.295E-01 -.171E+04   -.640E-03 -.347E-03 -.677E+01   -.548E-05 0.257E-05 -.162E+00
   0.278E-01 -.639E-06 0.172E+04   -.282E-01 0.208E-05 -.171E+04   -.357E-03 0.105E-06 -.677E+01   0.280E-05 -.110E-05 -.162E+00
   0.428E-04 -.229E-04 0.567E+03   0.162E-04 0.218E-04 -.567E+03   -.282E-03 -.155E-05 0.488E+00   -.982E-06 0.393E-05 -.101E+00
   0.108E+00 -.932E-01 0.567E+03   -.106E+00 0.933E-01 -.568E+03   -.136E-02 0.935E-05 0.459E+00   0.702E-05 -.829E-05 -.101E+00
   0.332E-04 -.316E+00 -.575E+03   0.280E-04 0.351E+00 0.575E+03   -.236E-03 -.292E-01 -.270E+00   0.102E-05 -.241E-04 -.255E-02
   0.236E+00 -.911E-05 -.575E+03   -.261E+00 0.619E-05 0.576E+03   0.241E-01 -.232E-05 -.208E+00   0.386E-04 0.523E-05 -.253E-02
   0.119E-04 -.175E-04 -.171E+04   0.415E-04 0.898E-05 0.170E+04   -.992E-03 0.108E-05 0.582E+01   0.723E-05 0.502E-05 0.968E-01
   -.201E+00 -.465E+00 -.171E+04   0.254E+00 0.443E+00 0.170E+04   -.255E-01 0.235E-01 0.570E+01   0.187E-04 -.111E-04 0.962E-01
   0.845E-05 0.135E-01 0.425E+03   -.828E-05 -.193E-01 -.425E+03   0.255E-02 0.679E-02 -.125E+00   0.247E-05 -.829E-05 -.793E-01
   0.425E-03 0.822E-05 0.425E+03   0.419E-02 -.597E-05 -.425E+03   -.304E-02 -.703E-06 -.119E+00   -.430E-05 -.156E-05 -.793E-01
   0.218E-04 -.660E-05 0.129E+04   -.128E-05 -.425E-06 -.130E+04   -.174E-02 0.120E-04 0.304E+01   0.248E-05 -.651E-05 -.124E+00
   -.149E-01 0.152E-01 0.129E+04   0.148E-01 -.152E-01 -.130E+04   -.159E-02 0.210E-04 0.304E+01   0.582E-05 0.727E-06 -.124E+00
   -.187E-04 0.262E+00 -.130E+04   0.291E-04 -.282E+00 0.130E+04   -.177E-02 0.184E-01 -.456E+01   0.543E-05 -.220E-04 0.723E-01
   -.852E-01 0.540E-04 -.130E+04   0.562E-01 -.442E-04 0.130E+04   0.359E-01 -.799E-05 -.455E+01   -.343E-05 0.153E-06 0.723E-01
   0.192E-04 -.641E-05 -.427E+03   -.147E-04 0.937E-05 0.426E+03   -.176E-02 0.125E-05 0.185E+00   0.386E-05 -.300E-05 -.749E-02
   -.899E-01 0.193E+00 -.426E+03   0.871E-01 -.198E+00 0.426E+03   0.106E-01 0.238E-02 0.236E+00   -.160E-04 0.460E-05 -.752E-02
   0.158E-04 -.135E-01 0.425E+03   -.939E-05 0.193E-01 -.425E+03   0.254E-02 -.678E-02 -.125E+00   -.203E-05 0.852E-05 -.793E-01
   -.108E+00 -.235E-06 0.425E+03   0.982E-01 0.417E-05 -.425E+03   0.144E-01 -.442E-05 -.121E+00   -.132E-04 0.114E-05 -.794E-01
   0.177E-04 -.726E-05 0.129E+04   -.221E-05 0.349E-06 -.130E+04   -.174E-02 0.489E-05 0.304E+01   -.109E-05 -.366E-07 -.124E+00
   -.149E-01 -.152E-01 0.129E+04   0.148E-01 0.152E-01 -.130E+04   -.159E-02 -.295E-04 0.304E+01   0.797E-05 0.575E-05 -.124E+00
   0.112E-04 -.262E+00 -.130E+04   0.490E-06 0.282E+00 0.130E+04   -.176E-02 -.184E-01 -.456E+01   0.892E-06 0.151E-04 0.723E-01
   -.342E+00 0.440E-05 -.130E+04   0.298E+00 0.308E-05 0.130E+04   0.620E-01 -.100E-04 -.449E+01   -.556E-04 0.566E-05 0.723E-01
   0.214E-04 0.300E-05 -.426E+03   -.914E-05 -.986E-05 0.426E+03   0.473E-02 0.237E-05 0.244E+00   -.631E-08 0.276E-05 -.754E-02
   -.899E-01 -.193E+00 -.426E+03   0.871E-01 0.198E+00 0.426E+03   0.106E-01 -.238E-02 0.236E+00   -.141E-04 -.716E-06 -.753E-02
   -.581E-05 0.119E+00 0.425E+03   0.129E-04 -.110E+00 -.425E+03   0.254E-02 -.111E-01 -.127E+00   -.203E-05 0.483E-05 -.793E-01
   -.399E-03 0.567E-05 0.425E+03   -.420E-02 -.104E-04 -.425E+03   0.811E-02 0.373E-05 -.119E+00   0.389E-05 0.162E-05 -.793E-01
   0.156E-04 0.107E-04 0.129E+04   0.135E-05 -.273E-05 -.130E+04   -.173E-02 -.610E-05 0.304E+01   -.468E-05 0.116E-05 -.124E+00
   0.150E-01 0.152E-01 0.129E+04   -.148E-01 -.152E-01 -.130E+04   -.187E-02 0.321E-04 0.304E+01   -.322E-05 -.510E-05 -.124E+00
   -.385E-04 0.388E+00 -.130E+04   0.531E-04 -.381E+00 0.130E+04   -.171E-02 -.157E-01 -.443E+01   -.280E-05 0.327E-04 0.721E-01
   0.853E-01 0.292E-04 -.130E+04   -.563E-01 -.537E-04 0.130E+04   -.395E-01 0.192E-04 -.455E+01   -.252E-05 -.126E-05 0.723E-01
   -.623E-05 0.127E-04 -.426E+03   0.243E-04 -.146E-04 0.425E+03   0.472E-02 0.160E-05 0.240E+00   0.145E-05 -.758E-06 -.756E-02
   0.899E-01 0.193E+00 -.426E+03   -.872E-01 -.198E+00 0.426E+03   -.861E-02 0.476E-02 0.233E+00   0.122E-04 -.183E-05 -.753E-02
   -.342E-05 -.119E+00 0.425E+03   0.798E-05 0.110E+00 -.425E+03   0.254E-02 0.111E-01 -.127E+00   0.752E-06 -.614E-05 -.793E-01
   0.108E+00 -.992E-05 0.425E+03   -.982E-01 0.693E-05 -.425E+03   -.935E-02 0.191E-05 -.121E+00   0.165E-04 0.138E-05 -.793E-01
   0.137E-04 0.750E-05 0.129E+04   0.233E-05 0.265E-05 -.130E+04   -.173E-02 -.112E-04 0.304E+01   -.544E-05 0.210E-05 -.124E+00
   0.150E-01 -.152E-01 0.129E+04   -.148E-01 0.152E-01 -.130E+04   -.188E-02 -.236E-04 0.304E+01   -.113E-05 0.132E-05 -.124E+00
   -.179E-04 -.388E+00 -.130E+04   0.280E-04 0.381E+00 0.130E+04   -.171E-02 0.157E-01 -.443E+01   0.855E-05 -.327E-04 0.721E-01
   0.342E+00 -.217E-05 -.130E+04   -.298E+00 -.496E-05 0.130E+04   -.655E-01 0.133E-05 -.449E+01   0.513E-04 0.336E-05 0.723E-01
   -.204E-04 -.203E-04 -.428E+03   0.311E-04 0.138E-04 0.428E+03   -.176E-02 -.889E-06 0.102E+00   0.109E-06 0.529E-05 -.749E-02
   0.899E-01 -.193E+00 -.426E+03   -.871E-01 0.198E+00 0.426E+03   -.861E-02 -.476E-02 0.233E+00   0.134E-04 -.451E-05 -.754E-02
   0.227E-02 -.616E-05 0.231E+02   -.244E-14 0.475E-13 -.966E-12   -.102E-01 -.523E-06 -.176E+02   0.927E-05 0.422E-07 -.246E+01

 POSITION                                       TOTAL-FORCE (eV/Angst)
      1.05407      6.33074      3.44793         0.000172      0.000077      0.552444
      3.16431      0.00000      3.44793         0.000074      0.000000      0.552166
      1.05407      0.00000      5.55818        -0.000154     -0.000002      0.043921
      3.16431      6.33074      5.55818        -0.000278     -0.000096      0.042722
      1.05407      6.33101      7.68286        -0.000123     -0.001084      0.055044
      3.16425      8.44098      7.68273        -0.002538     -0.000001      0.049829
      1.05407      8.44098      9.78832        -0.000481      0.000001     -0.144074
      3.16530      6.33156      9.78541        -0.024583     -0.004059     -0.137956
      1.05407      2.11025      3.44793         0.000172     -0.000077      0.552444
      3.16431      4.22049      3.44793         0.000240     -0.000000      0.552170
      1.05407      4.22049      5.55818        -0.000160     -0.000001      0.045043
      3.16431      2.11025      5.55818        -0.000278      0.000097      0.042723
      1.05407      2.10997      7.68286        -0.000122      0.001083      0.055043
      3.16523      4.22049      7.68312        -0.001648     -0.000002      0.054999
      1.05407      4.22049      9.78466        -0.000457      0.000001     -0.121814
      3.16530      2.10942      9.78541        -0.024583      0.004059     -0.137952
      5.27456      6.33074      3.44793         0.000173     -0.000090      0.552333
      7.38480      0.00000      3.44793         0.000273      0.000001      0.552173
      5.27456      0.00000      5.55818        -0.000154     -0.000001      0.043965
      7.38480      6.33074      5.55818        -0.000035     -0.000096      0.042724
      5.27456      6.32990      7.68374        -0.000132     -0.001740      0.039154
      7.38487      0.00000      7.68273         0.002276     -0.000001      0.049830
      5.27456      8.44098      9.78620        -0.000346      0.000000     -0.147507
      7.38382      6.33156      9.78541         0.023815     -0.004001     -0.138170
      5.27456      2.11025      3.44793         0.000172      0.000090      0.552331
      7.38480      4.22049      3.44793         0.000104      0.000001      0.552171
      5.27456      4.22049      5.55818        -0.000160      0.000001      0.046578
      7.38480      2.11025      5.55818        -0.000034      0.000095      0.042724
      5.27456      2.11108      7.68374        -0.000133      0.001741      0.039155
      7.38389      4.22049      7.68312         0.001359     -0.000000      0.054961
      5.27456      4.22049      9.79754        -0.000540     -0.000002     -0.220037
      7.38382      2.10942      9.78541         0.023814      0.004004     -0.138166
      1.05407      6.33074      5.55818         0.002128      0.002291      0.051274
      3.16431      0.00000      5.55818         0.000062      0.000000      0.052491
      1.05407      0.00000      3.44793        -0.001324      0.000001     -0.441318
      3.16431      6.33074      3.44793        -0.001255     -0.000000     -0.441262
      1.05407      6.33109      9.83385        -0.001357      0.001253     -0.134275
      3.16380      0.00000      9.83460         0.014861      0.000000     -0.131009
      1.05407      8.44098      7.67820        -0.001333      0.000002     -0.004696
      3.16367      6.33085      7.67698         0.009179     -0.001487      0.008063
      1.05407      2.11025      5.55818         0.002125     -0.002289      0.051269
      3.16431      4.22049      5.55818         0.005918      0.000000      0.053832
      1.05407      4.22049      3.44793        -0.001328     -0.000001     -0.441241
      3.16431      2.11025      3.44793        -0.001253      0.000003     -0.441263
      1.05407      2.10989      9.83385        -0.001357     -0.001257     -0.134271
      3.16220      4.22049      9.83429         0.032623      0.000001     -0.116783
      1.05407      4.22049      7.67618         0.003947     -0.000001      0.013962
      3.16367      2.11014      7.67698         0.009176      0.001487      0.008067
      5.27456      6.33074      5.55818         0.002122     -0.003634      0.055126
      7.38480      0.00000      5.55818         0.004186      0.000001      0.052496
      5.27456      0.00000      3.44793        -0.001323      0.000002     -0.441232
      7.38480      6.33074      3.44793        -0.001381     -0.000002     -0.441260
      5.27456      6.33193      9.82917        -0.001357     -0.013160     -0.083962
      7.38531      0.00000      9.83460        -0.017641     -0.000003     -0.130995
      5.27456      8.44098      7.67598         0.003937     -0.000000      0.020562
      7.38544      6.33085      7.67698        -0.007385      0.000449      0.005407
      5.27456      2.11025      5.55818         0.002122      0.003632      0.055120
      7.38480      4.22049      5.55818        -0.001671      0.000001      0.053835
      5.27456      4.22049      3.44793        -0.001328     -0.000001     -0.441407
      7.38480      2.11025      3.44793        -0.001380     -0.000000     -0.441261
      5.27456      2.10905      9.82917        -0.001353      0.013163     -0.083963
      7.38692      4.22049      9.83429        -0.035341     -0.000002     -0.116749
      5.27456      4.22049      7.67977        -0.001338     -0.000002     -0.000937
      7.38544      2.11014      7.67698        -0.007383     -0.000445      0.005409
    total drift:                               -0.001487     -0.000006     -0.020245

  FREE ENERGIE OF THE ION-ELECTRON SYSTEM (eV)
  free  energy   TOTEN  =      -467.37995454 eV

  energy  without entropy=     -467.37995454  energy(sigma->0) =     -467.37995454