 vasp.6.3.0 20Jan22 (build Apr  1 2022 16:44:48) complex
 executed on        HPECrayEX_GCC date 2023.04.06  22:14:30

 INCAR:
   SYSTEM = MgO-rocksalt
   ISMEAR = 0
   SIGMA = 0.05
   EDIFF = 1E-7
   ALGO = ALL
   ISTART = 0
   IBRION = 2
   NSW = 1000
   ISYM = 0
   ISIF = 2
   EDIFFG = -0.01
   DIPOL = 0.5 0.5 0.5
   IDIPOL = 3
   LDIPOL = .TRUE.
   GGA = PE
   IVDW = 21
   LDAU = .TRUE.
   LDAUTYPE = 2
   LDAUL = 2 -1
   LDAUU = 4.2 0.0
   LDAUPRINT = 1
   LMAXMIX = 4
   ENCUT = 600
   PREC = Accurate
   LASPH = .TRUE.
   LREAL = .FALSE.
   ISPIN = 1
   NELM = 200
   NELMIN = 8
   NCORE = 8
   KPAR = 1
   LWAVE = .FALSE.
   LCHARG = .FALSE.

 POTCAR:    PAW_PBE Ti_pv 07Sep2000
 POTCAR:    PAW_PBE O 08Apr2002
 POTCAR:    PAW_PBE Ti_pv 07Sep2000
   VRHFIN =Ti: d3 s1

   TITEL  = PAW_PBE Ti_pv 07Sep2000
   POMASS =   47.880; ZVAL   =   10.000    mass and valenz
   ENMAX  =  222.335; ENMIN  =  166.751 eV

   TITEL  = PAW_PBE O 08Apr2002
   POMASS =   16.000; ZVAL   =    6.000    mass and valenz
   ENMAX  =  400.000; ENMIN  =  300.000 eV

  PAW_PBE Ti_pv 07Sep2000               :
  PAW_PBE O 08Apr2002                   :

 POSCAR: Ti  O
  positions in direct lattice
 exchange correlation table for  LEXCH =        8
   RHO(1)=    0.500       N(1)  =     2000
   RHO(2)=  100.500       N(2)  =     4000

 ion  position               nearest neighbor table
   1  0.750  0.625  0.286-  81 1.98  82 1.98 141 1.98 142 1.98 163 2.00  84 2.00  11 3.03  31 3.03

   2  0.000  0.750  0.286-  83 1.98  84 1.98 103 1.98 104 1.98  85 2.00  32 3.03  12 3.03
   3  0.000  0.625  0.393-  86 1.98 146 1.98 145 1.98  85 1.98  87 2.00  88 2.00  13 3.03  33 3.03

[...]

  80  0.500  0.500  0.714- 179 1.98 180 1.98 239 1.98 240 1.98 234 2.00  70 3.03  50 3.03
  81  0.750  0.750  0.244-   1 1.98  11 1.98
  82  0.750  0.750  0.328-   1 1.98  11 1.98   4 2.00
  83  0.098  0.625  0.286-   2 1.98  32 1.98  41 2.00
  84  0.902  0.625  0.286-   2 1.98  32 1.98   1 2.00
  85  0.000  0.750  0.351-   3 1.98  13 1.98   2 2.00
  86  0.000  0.750  0.435-   3 1.98  13 1.98   6 2.00
  87  0.848  0.625  0.393-   4 1.98  34 1.98   3 2.00
  88  0.152  0.625  0.393-  44 1.98  74 1.98   3 2.00
  89  0.750  0.750  0.458-   5 1.98  15 1.98   4 2.00
  90  0.750  0.750  0.542-   5 1.98  15 1.98   8 2.00
  91  0.098  0.625  0.500-   6 1.98  36 1.98  45 2.00
  92  0.902  0.625  0.500-   6 1.98  36 1.98   5 2.00
  93  0.000  0.750  0.565-   7 1.98  17 1.98   6 2.00
  94  0.000  0.750  0.649-   7 1.98  17 1.98  10 2.00
  95  0.848  0.625  0.607-   8 1.98  38 1.98   7 2.00
  96  0.152  0.625  0.607-  48 1.98  78 1.98   7 2.00
  97  0.750  0.750  0.672-   9 1.98  19 1.98   8 2.00
  98  0.750  0.750  0.756-   9 1.98  19 1.98
  99  0.098  0.625  0.714-  10 1.98  40 1.98  49 2.00
 100  0.902  0.625  0.714-  10 1.98  40 1.98   9 2.00
 101  0.750  0.000  0.244-  11 1.98  21 1.98
 102  0.750  0.000  0.328-  11 1.98  21 1.98  14 2.00
 103  0.098  0.875  0.286-   2 1.98  12 1.98  51 2.00
 104  0.902  0.875  0.286-   2 1.98  12 1.98  11 2.00
 105  0.000  0.000  0.351-  13 1.98  23 1.98  12 2.00
 106  0.000  0.000  0.435-  13 1.98  23 1.98  16 2.00
 107  0.848  0.875  0.393-   4 1.98  14 1.98  13 2.00
 108  0.152  0.875  0.393-  44 1.98  54 1.98  13 2.00
 109  0.750  0.000  0.458-  15 1.98  25 1.98  14 2.00
 110  0.750  0.000  0.542-  15 1.98  25 1.98  18 2.00
 111  0.098  0.875  0.500-   6 1.98  16 1.98  55 2.00
 112  0.902  0.875  0.500-   6 1.98  16 1.98  15 2.00
 113  0.000  0.000  0.565-  17 1.98  27 1.98  16 2.00
 114  0.000  0.000  0.649-  17 1.98  27 1.98  20 2.00
 115  0.848  0.875  0.607-   8 1.98  18 1.98  17 2.00
 116  0.152  0.875  0.607-  48 1.98  58 1.98  17 2.00
 117  0.750  0.000  0.672-  19 1.98  29 1.98  18 2.00
 118  0.750  0.000  0.756-  19 1.98  29 1.98
 119  0.098  0.875  0.714-  10 1.98  20 1.98  59 2.00
 120  0.902  0.875  0.714-  10 1.98  20 1.98  19 2.00
 121  0.750  0.250  0.244-  21 1.98  31 1.98
 122  0.750  0.250  0.328-  21 1.98  31 1.98  24 2.00
 123  0.098  0.125  0.286-  12 1.98  22 1.98  61 2.00
 124  0.902  0.125  0.286-  12 1.98  22 1.98  21 2.00
 125  0.000  0.250  0.351-  23 1.98  33 1.98  22 2.00
 126  0.000  0.250  0.435-  23 1.98  33 1.98  26 2.00
 127  0.848  0.125  0.393-  14 1.98  24 1.98  23 2.00
 128  0.152  0.125  0.393-  54 1.98  64 1.98  23 2.00
 129  0.750  0.250  0.458-  25 1.98  35 1.98  24 2.00
 130  0.750  0.250  0.542-  25 1.98  35 1.98  28 2.00
 131  0.098  0.125  0.500-  16 1.98  26 1.98  65 2.00
 132  0.902  0.125  0.500-  16 1.98  26 1.98  25 2.00
 133  0.000  0.250  0.565-  27 1.98  37 1.98  26 2.00
 134  0.000  0.250  0.649-  27 1.98  37 1.98  30 2.00
 135  0.848  0.125  0.607-  18 1.98  28 1.98  27 2.00
 136  0.152  0.125  0.607-  58 1.98  68 1.98  27 2.00
 137  0.750  0.250  0.672-  29 1.98  39 1.98  28 2.00
 138  0.750  0.250  0.756-  29 1.98  39 1.98
 139  0.098  0.125  0.714-  20 1.98  30 1.98  69 2.00
[...]
 226  0.500  0.500  0.435-  43 1.98  73 1.98  76 2.00
 227  0.348  0.375  0.393-  64 1.98  74 1.98  73 2.00
 228  0.652  0.375  0.393-  24 1.98  34 1.98  73 2.00
 229  0.250  0.500  0.458-  45 1.98  75 1.98  74 2.00
 230  0.250  0.500  0.542-  45 1.98  75 1.98  78 2.00
 231  0.598  0.375  0.500-  66 1.98  76 1.98  35 2.00
 232  0.402  0.375  0.500-  66 1.98  76 1.98  75 2.00
 233  0.500  0.500  0.565-  47 1.98  77 1.98  76 2.00
 234  0.500  0.500  0.649-  47 1.98  77 1.98  80 2.00
 235  0.348  0.375  0.607-  68 1.98  78 1.98  77 2.00
 236  0.652  0.375  0.607-  28 1.98  38 1.98  77 2.00
 237  0.250  0.500  0.672-  49 1.98  79 1.98  78 2.00
 238  0.250  0.500  0.756-  49 1.98  79 1.98
 239  0.598  0.375  0.714-  70 1.98  80 1.98  39 2.00
 240  0.402  0.375  0.714-  70 1.98  80 1.98  79 2.00

IMPORTANT INFORMATION: All symmetrisations will be switched off!
NOSYMM: (Re-)initialisation of all symmetry stuff for point group C_1.

                                     Primitive cell

  volume of cell :    4886.2662

  direct lattice vectors                    reciprocal lattice vectors
    13.143747607  0.000000000  0.000000000     0.076081802  0.000000000  0.000000000
     0.000000000 12.104894358  0.000000000     0.000000000  0.082611212  0.000000000
     0.000000000  0.000000000 30.711208800     0.000000000  0.000000000  0.032561401

  length of vectors
    13.143747607 12.104894358 30.711208800     0.076081802  0.082611212  0.032561401

  position of ions in fractional coordinates (direct lattice)
     0.750000000  0.625000000  0.286010579
     0.000000000  0.750000000  0.286010579
     0.000000000  0.625000000  0.393005289
     0.750000000  0.750000000  0.393005289
     0.750000000  0.625000000  0.500000000
     0.000000000  0.750000000  0.500000000
     0.000000000  0.625000000  0.606994711
     0.750000000  0.750000000  0.606994711
     0.750000000  0.625000000  0.713989421
     0.000000000  0.750000000  0.713989421
     0.750000000  0.875000000  0.286010579
     0.000000000  0.000000000  0.286010579
     0.000000000  0.875000000  0.393005289
     0.750000000  0.000000000  0.393005289
     0.750000000  0.875000000  0.500000000
     0.000000000  0.000000000  0.500000000
     0.000000000  0.875000000  0.606994711
     0.750000000  0.000000000  0.606994711
     0.750000000  0.875000000  0.713989421
     0.000000000  0.000000000  0.713989421
     0.750000000  0.125000000  0.286010579
     0.000000000  0.250000000  0.286010579
     0.000000000  0.125000000  0.393005289
     0.750000000  0.250000000  0.393005289
     0.750000000  0.125000000  0.500000000
     0.000000000  0.250000000  0.500000000
     0.000000000  0.125000000  0.606994711
     0.750000000  0.250000000  0.606994711
     0.750000000  0.125000000  0.713989421
     0.000000000  0.250000000  0.713989421
     0.750000000  0.375000000  0.286010579
     0.000000000  0.500000000  0.286010579
     0.000000000  0.375000000  0.393005289
     0.750000000  0.500000000  0.393005289
     0.750000000  0.375000000  0.500000000
     0.000000000  0.500000000  0.500000000
     0.000000000  0.375000000  0.606994711
     0.750000000  0.500000000  0.606994711
     0.750000000  0.375000000  0.713989421
     0.000000000  0.500000000  0.713989421
     0.250000000  0.625000000  0.286010579
     0.500000000  0.750000000  0.286010579
     0.500000000  0.625000000  0.393005289
     0.250000000  0.750000000  0.393005289
     0.250000000  0.625000000  0.500000000
     0.500000000  0.750000000  0.500000000
     0.500000000  0.625000000  0.606994711
     0.250000000  0.750000000  0.606994711
     0.250000000  0.625000000  0.713989421
     0.500000000  0.750000000  0.713989421
     0.250000000  0.875000000  0.286010579
     0.500000000  0.000000000  0.286010579
     0.500000000  0.875000000  0.393005289
     0.250000000  0.000000000  0.393005289
     0.250000000  0.875000000  0.500000000
     0.500000000  0.000000000  0.500000000
     0.500000000  0.875000000  0.606994711
     0.250000000  0.000000000  0.606994711
     0.250000000  0.875000000  0.713989421
     0.500000000  0.000000000  0.713989421
[...]
     0.500000000  0.500000000  0.434805357
     0.347668537  0.375000000  0.393005289
     0.652331463  0.375000000  0.393005289
     0.250000000  0.500000000  0.458199933
     0.250000000  0.500000000  0.541800067
     0.597668537  0.375000000  0.500000000
     0.402331463  0.375000000  0.500000000
     0.500000000  0.500000000  0.565194643
     0.500000000  0.500000000  0.648794778
     0.347668537  0.375000000  0.606994711
     0.652331463  0.375000000  0.606994711
     0.250000000  0.500000000  0.672189354
     0.250000000  0.500000000  0.755789489
     0.597668537  0.375000000  0.713989421
     0.402331463  0.375000000  0.713989421

  ion indices of the primitive-cell ions
   primitive index   ion index
                 1           1
                 2           2
                 3           3
                 4           4
                 5           5
                 6           6
                 7           7
                 8           8
                 9           9
                10          10
                11          11
                12          12
                13          13
                14          14
                15          15
                16          16
                17          17
                18          18
                19          19
                20          20
                21          21
                22          22
                23          23
                24          24
                25          25
                26          26
                27          27
                28          28
                29          29
                30          30
                31          31
                32          32
                33          33
                34          34
                35          35
                36          36
                37          37
                38          38
                39          39
                40          40
                41          41
                42          42
                43          43
                44          44
                45          45
                46          46
                47          47
[...]
   O          59.666          3.994         10.561          1.95569560
   O          39.062          3.722          8.545          1.58238957
   O          56.266          3.955         10.255          1.89915793
   O          56.266          3.955         10.255          1.89915775

  Number of pair interactions contributing to vdW energy: 3137376
  Edisp (eV):  -33.17879

  FORCE on cell =-STRESS in cart. coord.  units (eV):
  Direction    XX          YY          ZZ          XY          YZ          ZX
  Alpha Z  4477.06529  4477.06529  4477.06529
  Ewald  944774.98064962224.95388************     0.00003    -0.00013     0.00000
  Hartree985088.89727994574.91240************     0.00001    -0.00004     0.00002
  E(xc)   -8556.26670 -8539.25278 -8565.53980    -0.00000    -0.00000    -0.00000
  Local  ************************************    -0.00004     0.00017    -0.00002
  n-local -5221.54352 -5098.97314 -5261.97201     0.00000    -0.00000     0.00000
  augment  5268.89007  5262.15305  5271.05159     0.00000    -0.00000     0.00000
  Kinetic 28470.26442 27911.84375 28514.83277     0.00000     0.00002    -0.00000
  Fock        0.00000     0.00000     0.00000     0.00000     0.00000     0.00000
  vdW       -48.29076   -38.26220   -40.93493    -0.00000     0.00000    -0.00000
  Total      11.51413   -41.23923   -27.68318     0.00000     0.00001    -0.00001
  in kB       3.77541   -13.52210    -9.07715     0.00000     0.00000    -0.00000

 VOLUME and BASIS-vectors are now :
  energy-cutoff  :      600.00
  volume of cell :     4886.27
      direct lattice vectors                 reciprocal lattice vectors
    13.143747607  0.000000000  0.000000000     0.076081802  0.000000000  0.000000000
     0.000000000 12.104894358  0.000000000     0.000000000  0.082611212  0.000000000
     0.000000000  0.000000000 30.711208800     0.000000000  0.000000000  0.032561401

  length of vectors
    13.143747607 12.104894358 30.711208800     0.076081802  0.082611212  0.032561401

 FORCES acting on ions:
    Electron-Ion                     Ewald-Force                    Non-Local-Force
   0.188E-05 -.385E-06 0.365E+04   -.184E-05 0.351E-06 -.366E+04   -.103E-07 0.572E-08 0.820E+00
   0.166E-05 -.497E-06 0.383E+04   -.173E-05 0.484E-06 -.382E+04   0.114E-07 0.343E-08 -.474E+01
   0.102E-04 -.336E-05 0.186E+04   -.107E-04 0.306E-05 -.186E+04   0.925E-07 0.438E-07 -.132E+00
   0.857E-05 -.730E-06 0.185E+04   -.846E-05 0.686E-06 -.185E+04   0.461E-07 0.507E-08 0.279E+00
   0.217E-04 0.149E-04 -.151E+02   -.214E-04 -.193E-04 0.157E+02   -.110E-06 0.832E-06 -.133E+00
   0.170E-04 -.137E-04 -.397E+01   -.190E-04 0.134E-04 0.319E+01   0.768E-06 0.800E-07 0.253E+00
   0.542E-05 -.406E-04 -.183E+04   -.570E-05 0.386E-04 0.183E+04   0.276E-06 0.102E-05 0.405E+00
   -.902E-04 -.873E-04 -.189E+04   0.922E-04 0.914E-04 0.189E+04   0.191E-05 0.268E-06 -.684E+00
   -.741E-04 0.125E-04 -.364E+04   0.729E-04 -.159E-04 0.365E+04   0.130E-05 0.101E-05 -.116E+01
   -.155E-03 -.390E-04 -.368E+04   0.164E-03 0.393E-04 0.368E+04   -.326E-05 0.391E-07 0.223E+01
   0.189E-05 -.118E-06 0.365E+04   -.187E-05 0.951E-07 -.366E+04   -.178E-07 0.163E-07 0.820E+00
   0.158E-05 0.344E-06 0.383E+04   -.164E-05 -.298E-06 -.382E+04   0.940E-08 -.505E-08 -.474E+01
   0.803E-05 -.319E-06 0.186E+04   -.832E-05 0.481E-06 -.186E+04   0.208E-07 -.494E-07 -.132E+00
   0.902E-05 0.691E-06 0.185E+04   -.893E-05 -.648E-06 -.185E+04   -.532E-07 -.276E-07 0.279E+00
   0.221E-04 -.433E-05 -.151E+02   -.219E-04 0.427E-05 0.157E+02   -.110E-06 -.631E-07 -.133E+00
   0.167E-04 0.734E-05 -.397E+01   -.179E-04 -.746E-05 0.319E+01   0.472E-06 0.198E-06 0.253E+00
   -.994E-04 -.197E-04 -.183E+04   0.989E-04 0.225E-04 0.183E+04   0.147E-05 -.700E-06 0.405E+00
   -.446E-04 -.763E-04 -.189E+04   0.460E-04 0.803E-04 0.189E+04   0.459E-06 0.960E-06 -.684E+00
   -.643E-04 -.431E-04 -.364E+04   0.626E-04 0.461E-04 0.365E+04   -.651E-06 -.103E-05 -.116E+01
   -.151E-03 0.238E-05 -.368E+04   0.152E-03 -.678E-06 0.368E+04   -.718E-06 -.578E-06 0.223E+01
   0.197E-05 0.402E-06 0.365E+04   -.190E-05 -.361E-06 -.366E+04   0.138E-07 -.997E-08 0.820E+00
   0.181E-05 0.501E-06 0.383E+04   -.188E-05 -.485E-06 -.382E+04   0.148E-07 0.192E-08 -.474E+01
   0.901E-05 0.337E-05 0.186E+04   -.927E-05 -.309E-05 -.186E+04   0.426E-07 -.471E-07 -.132E+00
   0.945E-05 0.843E-06 0.185E+04   -.913E-05 -.721E-06 -.185E+04   -.579E-07 -.833E-08 0.279E+00
   0.289E-04 0.327E-05 -.151E+02   -.283E-04 -.233E-05 0.157E+02   -.722E-07 -.240E-06 -.133E+00
   0.307E-04 0.202E-04 -.397E+01   -.320E-04 -.191E-04 0.319E+01   0.732E-06 -.269E-06 0.253E+00
   -.511E-04 0.578E-04 -.183E+04   0.506E-04 -.587E-04 0.183E+04   0.103E-05 -.823E-06 0.405E+00
   0.197E-04 0.754E-06 -.189E+04   -.211E-04 -.194E-05 0.189E+04   -.525E-06 -.317E-07 -.684E+00
   -.769E-04 -.109E-03 -.364E+04   0.756E-04 0.114E-03 0.365E+04   0.637E-06 -.200E-06 -.116E+01
   -.204E-03 0.349E-04 -.368E+04   0.203E-03 -.349E-04 0.368E+04   0.147E-05 -.111E-06 0.223E+01
   0.196E-05 0.107E-06 0.365E+04   -.187E-05 -.850E-07 -.366E+04   -.197E-07 -.457E-08 0.820E+00
   0.191E-05 -.343E-06 0.383E+04   -.198E-05 0.300E-06 -.382E+04   0.177E-07 0.507E-08 -.474E+01
   0.113E-04 0.266E-06 0.186E+04   -.116E-04 -.456E-06 -.186E+04   0.871E-07 0.206E-07 -.132E+00
   0.893E-05 -.802E-06 0.185E+04   -.863E-05 0.684E-06 -.185E+04   0.134E-07 -.475E-08 0.279E+00
   0.288E-04 -.130E-04 -.151E+02   -.278E-04 0.165E-04 0.157E+02   0.269E-07 -.536E-06 -.133E+00
   0.463E-04 -.118E-04 -.397E+01   -.488E-04 0.113E-04 0.319E+01   0.809E-06 0.408E-07 0.253E+00
   -.527E-05 0.151E-04 -.183E+04   0.372E-05 -.154E-04 0.183E+04   0.692E-06 0.636E-08 0.405E+00
   -.271E-04 0.980E-04 -.189E+04   0.265E-04 -.104E-03 0.189E+04   0.744E-06 0.646E-06 -.684E+00
   -.537E-04 0.819E-04 -.364E+04   0.518E-04 -.866E-04 0.365E+04   -.123E-05 0.130E-05 -.116E+01
   -.705E-04 0.548E-04 -.368E+04   0.721E-04 -.559E-04 0.368E+04   -.158E-05 -.510E-06 0.223E+01
   -.193E-05 -.741E-06 0.365E+04   0.188E-05 0.750E-06 -.366E+04   0.172E-07 0.183E-08 0.820E+00
   -.161E-05 -.521E-06 0.383E+04   0.168E-05 0.533E-06 -.382E+04   -.200E-07 0.293E-08 -.474E+01
   -.925E-05 -.326E-05 0.186E+04   0.979E-05 0.313E-05 -.186E+04   -.109E-06 0.341E-07 -.132E+00
   -.979E-05 -.444E-05 0.185E+04   0.960E-05 0.449E-05 -.185E+04   0.861E-09 -.109E-07 0.279E+00
   -.480E-04 -.449E-04 -.151E+02   0.476E-04 0.473E-04 0.157E+02   0.783E-07 -.596E-06 -.133E+00
   0.118E-04 -.193E-04 -.397E+01   -.954E-05 0.189E-04 0.319E+01   -.736E-06 -.260E-07 0.253E+00
   0.770E-04 -.740E-04 -.183E+04   -.789E-04 0.723E-04 0.183E+04   0.837E-07 0.181E-06 0.405E+00
   -.147E-03 -.125E-03 -.189E+04   0.151E-03 0.127E-03 0.189E+04   0.200E-05 -.508E-06 -.684E+00
   0.201E-04 -.124E-03 -.364E+04   -.203E-04 0.130E-03 0.365E+04   -.118E-05 -.243E-05 -.116E+01
   0.241E-03 -.483E-04 -.368E+04   -.248E-03 0.487E-04 0.368E+04   0.288E-05 0.375E-06 0.223E+01
   -.194E-05 -.200E-06 0.365E+04   0.191E-05 0.232E-06 -.366E+04   0.165E-07 -.327E-08 0.820E+00
   -.153E-05 0.261E-06 0.383E+04   0.159E-05 -.249E-06 -.382E+04   -.124E-07 0.509E-08 -.474E+01
   -.672E-05 -.107E-05 0.186E+04   0.719E-05 0.111E-05 -.186E+04   -.525E-07 -.527E-08 -.132E+00
   -.101E-04 0.262E-05 0.185E+04   0.993E-05 -.233E-05 -.185E+04   0.601E-07 0.164E-08 0.279E+00
   -.546E-04 -.167E-05 -.151E+02   0.541E-04 0.139E-05 0.157E+02   0.105E-06 0.819E-07 -.133E+00
   0.379E-05 0.377E-05 -.397E+01   -.252E-05 -.385E-05 0.319E+01   -.533E-06 0.156E-07 0.253E+00
   0.202E-03 0.111E-04 -.183E+04   -.202E-03 -.952E-05 0.183E+04   -.721E-06 -.671E-06 0.405E+00
   -.507E-04 0.153E-03 -.189E+04   0.466E-04 -.159E-03 0.189E+04   0.197E-06 -.242E-06 -.684E+00
   -.117E-04 0.347E-04 -.364E+04   0.127E-04 -.371E-04 0.365E+04   -.366E-06 0.606E-06 -.116E+01
   0.324E-03 0.318E-04 -.368E+04   -.326E-03 -.303E-04 0.368E+04   -.258E-06 -.741E-06 0.223E+01
[...]
   -.496E+02 0.103E-05 0.111E+04   0.533E+02 -.114E-05 -.111E+04   -.336E+01 0.155E-07 0.180E+00
   0.496E+02 0.138E-06 0.111E+04   -.533E+02 -.131E-06 -.111E+04   0.336E+01 -.110E-06 0.180E+00
   -.145E-04 -.450E-05 0.477E+03   0.143E-04 0.431E-05 -.481E+03   0.235E-07 0.127E-07 0.414E+01
   -.294E-04 -.203E-04 -.507E+03   0.257E-04 0.226E-04 0.513E+03   0.434E-05 -.314E-05 -.616E+01
   -.510E+02 -.830E-06 -.400E+01   0.555E+02 0.150E-05 0.380E+01   -.480E+01 -.947E-06 0.260E+00
   0.510E+02 0.126E-04 -.400E+01   -.555E+02 -.128E-04 0.380E+01   0.480E+01 0.230E-06 0.260E+00
   -.624E-04 -.118E-04 -.627E+03   0.646E-04 0.101E-04 0.621E+03   -.196E-05 0.252E-05 0.548E+01
   0.332E-04 -.535E-04 -.157E+04   -.321E-04 0.595E-04 0.157E+04   -.103E-05 -.558E-05 0.194E+01
   -.281E+02 0.669E-04 -.111E+04   0.308E+02 -.720E-04 0.111E+04   -.280E+01 0.464E-05 0.592E+00
   0.281E+02 0.497E-04 -.111E+04   -.308E+02 -.516E-04 0.111E+04   0.280E+01 0.627E-06 0.592E+00
   0.193E-04 -.349E-05 -.176E+04   -.212E-04 -.288E-05 0.176E+04   0.167E-05 0.837E-05 -.162E+01
   0.823E-05 -.556E-04 -.263E+04   -.275E-05 0.591E-04 0.265E+04   -.670E-05 -.564E-05 -.211E+02
   -.234E+02 0.267E-04 -.228E+04   0.296E+02 -.299E-04 0.228E+04   -.619E+01 0.458E-05 -.405E+01
   0.234E+02 0.272E-05 -.228E+04   -.296E+02 -.151E-05 0.228E+04   0.619E+01 -.187E-05 -.405E+01
   0.152E-04 0.903E-05 0.103E+03   0.364E-11 -.856E-12 0.182E-10   -.192E-04 -.849E-05 -.103E+03

 POSITION                                       TOTAL-FORCE (eV/Angst)
      9.85781      7.56556      8.78373         0.000000     -0.000000     -3.245786
      0.00000      9.07867      8.78373        -0.000000     -0.000000      2.638451
      0.00000      7.56556     12.06967        -0.000000     -0.000000      0.486985
      9.85781      9.07867     12.06967         0.000000     -0.000000     -0.729225
      9.85781      7.56556     15.35560         0.000000     -0.000004      0.416242
      0.00000      9.07867     15.35560        -0.000001     -0.000000     -0.527860
      0.00000      7.56556     18.58363         0.000000     -0.000001     -0.003879
      9.85781      9.07867     18.73033         0.000004      0.000004      0.002601
      9.85781      7.56556     22.11526         0.000000     -0.000003     -0.002326
     -0.00000      9.07867     21.79495         0.000006      0.000000      0.000985
      9.85781     10.59178      8.78373         0.000000     -0.000000     -3.245786
      0.00000      0.00000      8.78373        -0.000000      0.000000      2.638451
      0.00000     10.59178     12.06967        -0.000000      0.000000      0.486985
      9.85781      0.00000     12.06967         0.000000      0.000000     -0.729226
      9.85781     10.59178     15.35560         0.000000     -0.000000      0.416239
      0.00000      0.00000     15.35560        -0.000001      0.000000     -0.527860
     -0.00000     10.59178     18.58363         0.000001      0.000002     -0.003878
      9.85781     -0.00000     18.73033         0.000002      0.000005      0.002597
      9.85781     10.59178     22.11526        -0.000002      0.000002     -0.002326
      0.00000     -0.00000     21.79495         0.000001      0.000001      0.000986
      9.85781      1.51311      8.78373         0.000000      0.000000     -3.245786
      0.00000      3.02622      8.78373        -0.000000      0.000000      2.638452
      0.00000      1.51311     12.06967        -0.000000      0.000000      0.486985
      9.85781      3.02622     12.06967         0.000000      0.000000     -0.729225
      9.85781      1.51311     15.35560         0.000001      0.000001      0.416240
      0.00000      3.02622     15.35560        -0.000001      0.000001     -0.527861
      0.00000      1.51311     18.58363         0.000001     -0.000002     -0.003875
      9.85781      3.02622     18.73033        -0.000002     -0.000001      0.002598
      9.85781      1.51311     22.11526        -0.000001      0.000004     -0.002323
     -0.00000      3.02622     21.79495         0.000001     -0.000000      0.000986
      9.85781      4.53934      8.78373         0.000000      0.000000     -3.245786
      0.00000      6.05245      8.78373        -0.000000     -0.000000      2.638451
      0.00000      4.53934     12.06967        -0.000000     -0.000000      0.486985
      9.85781      6.05245     12.06967         0.000000     -0.000000     -0.729225
      9.85781      4.53934     15.35560         0.000001      0.000003      0.416242
      0.00000      6.05245     15.35560        -0.000002     -0.000000     -0.527861
     -0.00000      4.53934     18.58363        -0.000001     -0.000000     -0.003875
      9.85781      6.05245     18.73034         0.000000     -0.000005      0.002588
      9.85781      4.53934     22.11526        -0.000003     -0.000003     -0.002328
     -0.00000      6.05245     21.79495         0.000000     -0.000002      0.000985
      3.28594      7.56556      8.78373        -0.000000      0.000000     -3.245786
      6.57187      9.07867      8.78373         0.000000      0.000000      2.638451
      6.57187      7.56556     12.06967         0.000000     -0.000000      0.486984
      3.28594      9.07867     12.06967        -0.000000      0.000000     -0.729226
      3.28594      7.56556     15.35560        -0.000000      0.000002      0.416238
      6.57187      9.07867     15.35560         0.000002     -0.000000     -0.527858
      6.57187      7.56556     18.58363        -0.000002     -0.000002     -0.003880
      3.28594      9.07867     18.73033         0.000006      0.000001      0.002589
      3.28594      7.56556     22.11526        -0.000001      0.000003     -0.002327
      6.57187      9.07867     21.79495        -0.000004      0.000001      0.000983
      3.28594     10.59178      8.78373         0.000000      0.000000     -3.245786
      6.57187      0.00000      8.78373         0.000000      0.000000      2.638451
      6.57187     10.59178     12.06967         0.000000      0.000000      0.486984
      3.28594      0.00000     12.06967        -0.000000      0.000000     -0.729226
      3.28594     10.59178     15.35560        -0.000000     -0.000000      0.416240
      6.57187      0.00000     15.35560         0.000001     -0.000000     -0.527858
      6.57187     10.59178     18.58363        -0.000001      0.000001     -0.003875
      3.28594      0.00000     18.73033        -0.000004     -0.000006      0.002593
      3.28594     10.59178     22.11526         0.000001     -0.000002     -0.002330
      6.57187     -0.00000     21.79495        -0.000002      0.000001      0.000987
[...]
      6.57187      6.05245     13.35340        -0.000000     -0.000000     -0.161974
      4.56967      4.53934     12.06967         0.400712     -0.000000      0.059707
      8.57408      4.53934     12.06967        -0.400713     -0.000000      0.059707
      3.28594      6.05245     14.07187        -0.000000     -0.000000     -0.008928
      3.28594      6.05245     16.63933         0.000001     -0.000001      0.146858
      7.85560      4.53934     15.35560        -0.333381     -0.000000      0.056946
      5.28814      4.53934     15.35560         0.333379     -0.000000      0.056946
      6.57187      6.05245     17.36300         0.000000      0.000001      0.001159
      6.57187      6.05245     19.93075         0.000000      0.000000      0.000281
      4.59501      4.53934     18.65156        -0.002534     -0.000000     -0.003993
      8.54873      4.53934     18.65156         0.002533     -0.000001     -0.003994
      3.28594      6.05245     20.64678        -0.000000      0.000002     -0.002933
      3.28594      6.05245     23.22036        -0.000001     -0.000002     -0.001850
      7.79863      4.53934     22.08931         0.000972      0.000001      0.007408
      5.34512      4.53934     22.08931        -0.000973     -0.000001      0.007406
    total drift:                               -0.000004      0.000001     -0.017392

  FREE ENERGIE OF THE ION-ELECTRON SYSTEM (eV)
  free  energy   TOTEN  =     -1913.13899928 eV

  energy  without entropy=    -1913.13899928  energy(sigma->0) =    -1913.13899928

 d Force = 0.9861111E-04[ 0.434E-04, 0.154E-03]  d Energy = 0.1968489E-03-0.982E-04
 d Force = 0.1934418E+02[ 0.193E+02, 0.193E+02]  d Ewald  = 0.1934418E+02-0.337E-07

 Conjugate gradient step on ions:
 trial-energy change:   -0.000197  1 .order   -0.000099   -0.000154   -0.000043
  (g-gl).g = 0.244E-03      g.g   = 0.245E-03  gl.gl    = 0.103E-02
 g(Force)  = 0.245E-03   g(Stress)= 0.000E+00 ortho     = 0.730E-05
 gamma     =   0.23657
 trial     =   0.62349
 opt step  =   0.66032  (harmonic =   0.86850) maximal distance =0.00055719
 next E    = -1913.139001   (d E  =  -0.00020)

 reached required accuracy - stopping structural energy minimisation