 vasp.6.3.0 20Jan22 (build Apr  1 2022 16:44:48) complex
 executed on        HPECrayEX_GCC date 2022.11.13  00:57:29

 INCAR:
   SYSTEM = MgO-rocksalt
   ISMEAR = 0
   SIGMA = 0.05
   EDIFF = 1E-6
   ALGO = ALL
   ISTART = 0
   IBRION = -1
   NSW = 0
   ISYM = 0
   DIPOL = 0.5 0.5 0.5
   IDIPOL = 3
   LDIPOL = .TRUE.
   GGA = RE
   AGGAC = 0.0
   LUSE_VDW = .TRUE.
   LASPH = .TRUE.
   ENCUT = 600
   PREC = Accurate
   LASPH = .TRUE.
   LREAL = .FALSE.
   ISPIN = 2
   MAGMOM = 1.0 0.0 0.0 0.0 0.0 0.0 0.0 0.0 0.0 0.0 0.0 0.0 0.0 0.0 0.0 0.0 0.0 0.0 0.0 0.0 0.0 0.0 0.0 0.0 0.0 0.0 0.0 0.0 0.0 0.0 0.0 0.0 0.0 0.0 0.0 0.0 0.0 0.0 0.0 0.0 0.0 0.0 0.0 0.0 0.0 0.0 0.0 0.0 0.0 0.0 0.0 0.0 0.0 0.0 0.0 0.0 0.0 0.0 0.0 0.0 0.0 0.0 0.0 0.0 0.0 0.0
   NELM = 200
   NELMIN = 8
   NCORE = 8
   KPAR = 1
   LWAVE = .FALSE.
   LCHARG = .FALSE.

 POTCAR:    PAW_PBE N 08Apr2002
 POTCAR:    PAW_PBE O 08Apr2002
 POTCAR:    PAW_PBE Mg_pv 13Apr2007
 POTCAR:    PAW_PBE O 08Apr2002
|               ----> ADVICE to this user running VASP <----                  |
|     You have switched on vdW-DFT.                                           |
|     This routine was written and supplied by Jiri Klimes. We recommend      |
|     that you carefully read and cite the following publications:            |
|       J. Klimes, D.R. Bowler, A. Michelides                                 |
|          J. Phys.: Cond Matt. 22 022201 (2010)                              |
|       J. Klimes, D.R. Bowler, A. Michelides                                 |
|          Phys. Rev. B. 83, 195131 (2011)                                    |
|     and references therein.                                                 |

   TITEL  = PAW_PBE N 08Apr2002
   POMASS =   14.001; ZVAL   =    5.000    mass and valenz
   ENMAX  =  400.000; ENMIN  =  300.000 eV

[...]

   TITEL  = PAW_PBE Mg_pv 13Apr2007
   POMASS =   24.305; ZVAL   =    8.000    mass and valenz
   ENMAX  =  403.929; ENMIN  =  302.947 eV

   TITEL  = PAW_PBE O 08Apr2002
   POMASS =   16.000; ZVAL   =    6.000    mass and valenz
   ENMAX  =  400.000; ENMIN  =  300.000 eV

  PAW_PBE N 08Apr2002                   :
  PAW_PBE O 08Apr2002                   :
  PAW_PBE Mg_pv 13Apr2007               :
  PAW_PBE O 08Apr2002                   :

 POSCAR:  N  O Mg  O
  positions in direct lattice
 exchange correlation table for  LEXCH =       40
   RHO(1)=    0.500       N(1)  =     2000
   RHO(2)=  100.500       N(2)  =     4000

 ion  position               nearest neighbor table
   1  0.496  0.750  0.759-   2 1.19
   2  0.629  0.750  0.777-   1 1.19
   3  0.000  0.750  0.352-  35 2.11  37 2.11  38 2.11  45 2.11  54 2.11
   4  0.250  0.000  0.352-  36 2.11  37 2.11  38 2.11  46 2.11  53 2.11
   5  0.000  0.000  0.451-  37 2.11  36 2.11  35 2.11  43 2.11  52 2.11  41 2.12
   6  0.250  0.750  0.451-  38 2.11  36 2.11  35 2.11  44 2.11  51 2.11  42 2.12
   7  0.000  0.750  0.550-  49 2.11  41 2.11  42 2.11  58 2.12  35 2.12  39 2.15
   8  0.250  1.000  0.550-  42 2.11  41 2.11  57 2.11  50 2.11  36 2.13  40 2.14
   9  0.000  0.000  0.649-  47 2.11  40 2.11  56 2.11  41 2.11  39 2.11
  10  0.248  0.750  0.649-  39 2.09  40 2.11  48 2.11  42 2.12  55 2.13
  11  0.000  0.250  0.352-  43 2.11  37 2.11  45 2.11  46 2.11  62 2.11
  12  0.250  0.500  0.352-  44 2.11  38 2.11  45 2.11  46 2.11  61 2.11
  13  0.000  0.500  0.451-  45 2.11  43 2.11  44 2.11  35 2.11  60 2.11  49 2.12
  14  0.250  0.250  0.451-  46 2.11  43 2.11  44 2.11  36 2.11  59 2.11  50 2.12
  15  1.000  0.250  0.550-  49 2.11  41 2.11  50 2.11  66 2.11  43 2.12  47 2.15
  16  0.250  0.500  0.550-  42 2.11  49 2.11  65 2.11  50 2.11  44 2.13  48 2.14
  17  0.000  0.500  0.649-  47 2.11  48 2.11  64 2.11  49 2.11  39 2.11
  18  0.250  0.250  0.649-  47 2.11  50 2.11  40 2.11  48 2.11  63 2.11
  19  0.500  0.750  0.352-  51 2.11  38 2.11  53 2.11  54 2.11  61 2.11
  20  0.750  0.000  0.352-  52 2.11  37 2.11  53 2.11  54 2.11  62 2.11
  21  0.500  0.000  0.451-  53 2.11  51 2.11  52 2.11  36 2.11  59 2.11  57 2.12
  22  0.750  0.750  0.451-  54 2.11  51 2.11  52 2.11  35 2.11  60 2.11  58 2.12
  23  0.500  0.750  0.549-  42 2.11  65 2.11  57 2.11  51 2.11  58 2.11  55 2.15
  24  0.750  0.000  0.550-  66 2.11  57 2.11  58 2.11  41 2.11  52 2.13  56 2.14
  25  0.500  0.002  0.649-  63 2.09  40 2.11  56 2.11  57 2.12  55 2.13
  26  0.753  0.750  0.649-  39 2.09  56 2.11  64 2.11  58 2.11  55 2.13
  27  0.500  0.250  0.352-  59 2.11  53 2.11  46 2.11  61 2.11  62 2.11
  28  0.750  0.500  0.352-  60 2.11  54 2.11  45 2.11  61 2.11  62 2.11
  29  0.500  0.500  0.451-  61 2.11  51 2.11  59 2.11  60 2.11  44 2.11  65 2.12
  30  0.750  0.250  0.451-  62 2.11  52 2.11  59 2.11  60 2.11  43 2.11  66 2.12
  31  0.500  0.250  0.550-  50 2.11  66 2.11  65 2.11  57 2.11  59 2.12  63 2.15
  32  0.750  0.500  0.550-  66 2.11  65 2.11  58 2.11  49 2.11  60 2.13  64 2.14
  33  0.500  0.498  0.649-  63 2.09  48 2.11  64 2.11  65 2.12  55 2.13
  34  0.750  0.250  0.649-  47 2.11  66 2.11  56 2.11  64 2.11  63 2.11
  35  0.000  0.750  0.451-   3 2.11   5 2.11   6 2.11  13 2.11  22 2.11   7 2.12
  36  0.250  0.000  0.451-   4 2.11   5 2.11   6 2.11  14 2.11  21 2.11   8 2.13
  37  0.000  0.000  0.352-   5 2.11   4 2.11   3 2.11  11 2.11  20 2.11
  38  0.250  0.750  0.352-   6 2.11   4 2.11   3 2.11  12 2.11  19 2.11
  39  0.001  0.750  0.651-  26 2.09  10 2.09  17 2.11   9 2.11   7 2.15
  40  0.250  1.000  0.651-  25 2.11  10 2.11   9 2.11  18 2.11   8 2.14
  41  1.000  1.000  0.550-   8 2.11   7 2.11  15 2.11  24 2.11   9 2.11   5 2.12
  42  0.250  0.750  0.550-  23 2.11   8 2.11  16 2.11   7 2.11   6 2.12  10 2.12
  43  0.000  0.250  0.451-  11 2.11   5 2.11  13 2.11  14 2.11  30 2.11  15 2.12
  44  0.250  0.500  0.451-  12 2.11   6 2.11  13 2.11  14 2.11  29 2.11  16 2.13
  45  0.000  0.500  0.352-  13 2.11  11 2.11  12 2.11   3 2.11  28 2.11
  46  0.250  0.250  0.352-  14 2.11  11 2.11  12 2.11   4 2.11  27 2.11
  47  1.000  0.250  0.651-  17 2.11   9 2.11  18 2.11  34 2.11  15 2.15
  48  0.250  0.500  0.651-  33 2.11  10 2.11  17 2.11  18 2.11  16 2.14
  49  1.000  0.500  0.550-  16 2.11   7 2.11  15 2.11  32 2.11  17 2.11  13 2.12
  50  0.250  0.250  0.550-  31 2.11  15 2.11   8 2.11  16 2.11  18 2.11  14 2.12
  51  0.500  0.750  0.451-  23 2.11  19 2.11  21 2.11  22 2.11   6 2.11  29 2.11
  52  0.750  0.000  0.451-  20 2.11   5 2.11  21 2.11  22 2.11  30 2.11  24 2.13
  53  0.500  0.000  0.352-  21 2.11  19 2.11  20 2.11   4 2.11  27 2.11
  54  0.750  0.750  0.352-  22 2.11  19 2.11  20 2.11   3 2.11  28 2.11
  55  0.501  0.750  0.650-  33 2.13  25 2.13  10 2.13  26 2.13  23 2.15
  56  0.750  1.000  0.651-  26 2.11  25 2.11   9 2.11  34 2.11  24 2.14
  57  0.500  1.000  0.550-  23 2.11  24 2.11   8 2.11  31 2.11  25 2.12  21 2.12
  58  0.750  0.750  0.550-  23 2.11  24 2.11  32 2.11  26 2.11   7 2.12  22 2.12
  59  0.500  0.250  0.451-  27 2.11  21 2.11  14 2.11  29 2.11  30 2.11  31 2.12
  60  0.750  0.500  0.451-  28 2.11  22 2.11  13 2.11  29 2.11  30 2.11  32 2.13
  61  0.500  0.500  0.352-  29 2.11  19 2.11  27 2.11  28 2.11  12 2.11
  62  0.750  0.250  0.352-  30 2.11  20 2.11  27 2.11  28 2.11  11 2.11
  63  0.500  0.250  0.651-  33 2.09  25 2.09  34 2.11  18 2.11  31 2.15
  64  0.750  0.500  0.651-  26 2.11  33 2.11  17 2.11  34 2.11  32 2.14
  65  0.500  0.500  0.550-  23 2.11  32 2.11  16 2.11  31 2.11  33 2.12  29 2.12
  66  0.750  0.250  0.550-  31 2.11  24 2.11  32 2.11  15 2.11  34 2.11  30 2.12

IMPORTANT INFORMATION: All symmetrisations will be switched off!
NOSYMM: (Re-)initialisation of all symmetry stuff for point group C_1.

                                     Primitive cell

  volume of cell :    1519.8199

  direct lattice vectors                    reciprocal lattice vectors
     8.440984654  0.000000000  0.000000000     0.118469591  0.000000000  0.000000000
     0.000000000  8.440984654  0.000000000     0.000000000  0.118469591  0.000000000
     0.000000000  0.000000000 21.330738491     0.000000000  0.000000000  0.046880702

  length of vectors
     8.440984654  8.440984654 21.330738491     0.118469591  0.118469591  0.046880702

  position of ions in fractional coordinates (direct lattice)
     0.495582407  0.749999989  0.758545755
     0.629077366  0.750000007  0.776699400
     0.000000000  0.750000000  0.351605267
     0.250000000  0.000000000  0.351605267
     0.000000000  0.000000000  0.450535089
     0.250000000  0.750000000  0.450535089
     0.000367904  0.749999990  0.550043145
     0.249922494  0.999938497  0.550323600
     0.000026201  0.000433416  0.648958586
     0.248410135  0.750000005  0.649423040
     0.000000000  0.250000000  0.351605267
     0.250000000  0.500000000  0.351605267
     0.000000000  0.500000000  0.450535089
     0.250000000  0.250000000  0.450535089
     0.999953346  0.250000010  0.550087816
     0.249922511  0.500061504  0.550323598
     0.000026203  0.499566585  0.648958615
     0.249533183  0.249999994  0.648897869
     0.500000000  0.750000000  0.351605267
     0.750000000  0.000000000  0.351605267
     0.500000000  0.000000000  0.450535089
     0.750000000  0.750000000  0.450535089
     0.499952976  0.749999976  0.549347374
     0.749909505  0.000025171  0.550329701
     0.499727085  0.001919818  0.649268616
     0.753433634  0.750000006  0.648926089
     0.500000000  0.250000000  0.351605267
     0.750000000  0.500000000  0.351605267
     0.500000000  0.500000000  0.450535089
     0.750000000  0.250000000  0.450535089
     0.499935671  0.250000027  0.550109689
     0.749909490  0.499974828  0.550329703
     0.499727081  0.498080182  0.649268691
     0.750227902  0.249999994  0.648941426
     0.000000000  0.750000000  0.450535089
     0.250000000  0.000000000  0.450535089
     0.000000000  0.000000000  0.351605267
     0.250000000  0.750000000  0.351605267
     0.000500028  0.749999998  0.650715135
     0.250131441  0.999786317  0.650789700
     0.999945577  0.999988300  0.549871453
     0.250469588  0.750000003  0.549946092
     0.000000000  0.250000000  0.450535089
     0.250000000  0.500000000  0.450535089
     0.000000000  0.500000000  0.351605267
     0.250000000  0.250000000  0.351605267
     0.999903133  0.250000003  0.650952119
     0.250131447  0.500213683  0.650789710
     0.999945576  0.500011701  0.549871455
     0.250013447  0.249999997  0.549873551
     0.500000000  0.750000000  0.450535089
     0.750000000  0.000000000  0.450535089
     0.500000000  0.000000000  0.351605267
     0.750000000  0.750000000  0.351605267
     0.500684446  0.750000000  0.650144819
     0.749699000  0.999666883  0.650785089
     0.499917403  0.999629843  0.549965372
     0.749762970  0.750000004  0.549913950
     0.500000000  0.250000000  0.450535089
     0.750000000  0.500000000  0.450535089
     0.500000000  0.500000000  0.351605267
     0.750000000  0.250000000  0.351605267
     0.499890153  0.250000003  0.650892832
     0.749698989  0.500333117  0.650785099
     0.499917403  0.500370158  0.549965380
     0.749872120  0.249999997  0.549887990

  ion indices of the primitive-cell ions
   primitive index   ion index
                 1           1
                 2           2
[...]
   0.00000000  6.33073849  7.50000000
   2.11024616  0.00000000  7.50000000
   0.00000000  0.00000000  9.61024616
   2.11024616  6.33073849  9.61024616
   0.00310547  6.33073841 11.73282648
   2.10959194  8.44046551 11.73880880
   0.00022117  0.00365846 13.84276589
   2.09682614  6.33073853 13.85267304
   0.00000000  2.11024616  7.50000000
   2.11024616  4.22049233  7.50000000
   0.00000000  4.22049233  9.61024616
   2.11024616  2.11024616  9.61024616
   8.44059084  2.11024625 11.73377935
   2.10959208  4.22101149 11.73880876
   0.00022118  4.21683388 13.84276651
   2.10630577  2.11024611 13.84147075
   4.22049233  6.33073849  7.50000000
   6.33073849  0.00000000  7.50000000
   4.22049233  0.00000000  9.61024616
   6.33073849  6.33073849  9.61024616
   4.22009539  6.33073829 11.71798517
   6.32997463  0.00021247 11.73893894
   4.21818865  0.01620515 13.84937905
   6.35972174  6.33073854 13.84207270
   4.22049233  2.11024616  7.50000000
   6.33073849  4.22049233  7.50000000
   4.22049233  4.22049233  9.61024616
   6.33073849  2.11024616  9.61024616
   4.21994933  2.11024639 11.73424591
   6.32997450  4.22027985 11.73893898
   4.21818863  4.20428717 13.84938066
   6.33266221  2.11024611 13.84239984
   0.00000000  6.33073849  9.61024616
   2.11024616  0.00000000  9.61024616
   0.00000000  0.00000000  7.50000000
   2.11024616  6.33073849  7.50000000
   0.00422073  6.33073848 13.88023437
   2.11135565  8.43918096 13.88182489
   8.44052527  8.44088589 11.72916417
   2.11420995  6.33073852 11.73075627
   0.00000000  2.11024616  9.61024616
   2.11024616  4.22049233  9.61024616
   0.00000000  4.22049233  7.50000000
   2.11024616  2.11024616  7.50000000
   8.44016700  2.11024619 13.88528942
   2.11135570  4.22229602 13.88182512
   8.44052526  4.22059109 11.72916421
   2.11035967  2.11024614 11.72920892
   4.22049233  6.33073849  9.61024616
   6.33073849  0.00000000  9.61024616
   4.22049233  0.00000000  7.50000000
   6.33073849  6.33073849  7.50000000
   4.22626972  6.33073849 13.86806912
   6.32819775  8.43817282 13.88172655
   4.21979513  8.43786016 11.73116753
   6.32873772  6.33073852 11.73007065
   4.22049233  2.11024616  9.61024616
   6.33073849  4.22049233  9.61024616
   4.22049233  4.22049233  7.50000000
   6.33073849  2.11024616  7.50000000
   4.21956511  2.11024619 13.88402479
   6.32819767  4.22330416 13.88172675
   4.21979513  4.22361683 11.73116769
   6.32965906  2.11024614 11.72951691

--------------------------------------- Iteration      FINAL  ---------------------------------------

--------------------OUTCAR has been truncated-------------------------

[...]

--------------------OUTCAR has been truncated-------------------------

  FORCE on cell =-STRESS in cart. coord.  units (eV):
  Direction    XX          YY          ZZ          XY          YZ          ZX
  Alpha Z   910.25235   910.25235   910.25235
  Ewald  159215.96145158884.78888************     0.00007     0.00014   106.27207
  Hartree169382.98394169246.32746************     0.00004     0.00010    44.63341
  E(xc)   -2573.21381 -2574.94089 -2577.71243     0.00000     0.00000     0.70464
  Local  ************************338028.83727    -0.00010    -0.00023  -142.86958
  n-local -2849.87994 -2846.77435 -2860.74595     0.00000    -0.00000    -3.18022
  augment  1084.32064  1085.99438  1075.24279    -0.00000     0.00000    -0.09303
  Kinetic  7536.84543  7573.44947  7581.54726    -0.00001    -0.00000    -5.46628
  Fock        0.00000     0.00000     0.00000     0.00000     0.00000     0.00000
  Total      -8.83413    -9.17451    12.85730     0.00000    -0.00000     0.00102
  in kB      -9.31284    -9.67167    13.55402     0.00000    -0.00000     0.00108

 VOLUME and BASIS-vectors are now :
  energy-cutoff  :      600.00
  volume of cell :     1519.82
      direct lattice vectors                 reciprocal lattice vectors
     8.440984654  0.000000000  0.000000000     0.118469591  0.000000000  0.000000000
     0.000000000  8.440984654  0.000000000     0.000000000  0.118469591  0.000000000
     0.000000000  0.000000000 21.330738491     0.000000000  0.000000000  0.046880702

  length of vectors
     8.440984654  8.440984654 21.330738491     0.118469591  0.118469591  0.046880702

 FORCES acting on ions:
    Electron-Ion                     Ewald-Force                    Non-Local-Force
   0.243E+03 -.106E-04 -.128E+04   -.284E+03 0.845E-05 0.127E+04   0.403E+02 0.234E-05 0.998E+01
   -.230E+03 -.649E-04 -.161E+04   0.282E+03 0.748E-04 0.163E+04   -.524E+02 -.857E-05 -.194E+02
   -.968E-01 0.344E-06 0.208E+04   0.975E-01 -.152E-05 -.208E+04   -.489E-03 0.411E-05 -.646E+01
   0.302E+00 -.386E+00 0.208E+04   -.308E+00 0.392E+00 -.208E+04   0.413E-02 -.422E-02 -.648E+01
   -.396E+00 -.128E+01 0.722E+03   0.391E+00 0.129E+01 -.723E+03   0.267E-02 -.125E-01 0.452E+00
   0.207E+01 0.481E-05 0.725E+03   -.213E+01 -.307E-05 -.725E+03   0.375E-01 0.416E-05 0.493E+00
   -.260E+01 0.212E-04 -.626E+03   0.266E+01 -.251E-04 0.626E+03   -.653E-01 0.105E-04 -.208E+00
   0.512E+01 -.592E+01 -.631E+03   -.510E+01 0.589E+01 0.631E+03   -.152E-01 0.276E-01 -.367E+00
   -.857E+01 -.165E+02 -.199E+04   0.860E+01 0.166E+02 0.199E+04   -.312E-01 -.138E+00 0.539E+01
   0.351E+02 0.301E-05 -.196E+04   -.361E+02 -.124E-05 0.196E+04   0.103E+01 -.165E-05 0.565E+01
   -.882E-01 0.514E-07 0.208E+04   0.879E-01 0.153E-05 -.208E+04   0.195E-03 -.111E-05 -.647E+01
   0.302E+00 0.386E+00 0.208E+04   -.308E+00 -.392E+00 -.208E+04   0.413E-02 0.422E-02 -.648E+01
   -.396E+00 0.128E+01 0.722E+03   0.391E+00 -.129E+01 -.723E+03   0.267E-02 0.125E-01 0.452E+00
   0.882E+00 -.431E-05 0.722E+03   -.894E+00 0.379E-05 -.722E+03   0.849E-02 -.233E-05 0.456E+00
   -.140E+01 -.212E-04 -.636E+03   0.140E+01 0.260E-04 0.636E+03   -.148E-02 -.989E-05 -.161E+00
   0.512E+01 0.592E+01 -.631E+03   -.510E+01 -.589E+01 0.631E+03   -.152E-01 -.276E-01 -.367E+00
   -.857E+01 0.165E+02 -.199E+04   0.860E+01 -.166E+02 0.199E+04   -.312E-01 0.138E+00 0.539E+01
   0.116E+02 -.842E-05 -.200E+04   -.117E+02 0.560E-05 0.199E+04   0.115E+00 0.363E-05 0.538E+01
   0.100E+00 -.780E-06 0.209E+04   -.100E+00 -.414E-06 -.208E+04   -.157E-03 0.961E-06 -.643E+01
   -.304E+00 -.397E+00 0.208E+04   0.309E+00 0.403E+00 -.208E+04   -.377E-02 -.441E-02 -.648E+01
   0.416E+00 -.249E+01 0.725E+03   -.420E+00 0.256E+01 -.725E+03   0.253E-02 -.457E-01 0.500E+00
   -.211E+01 0.621E-05 0.726E+03   0.218E+01 -.715E-05 -.726E+03   -.479E-01 0.447E-05 0.488E+00
   0.276E+01 -.118E-04 -.608E+03   -.281E+01 0.723E-05 0.607E+03   0.545E-01 0.406E-05 0.600E+00
   -.523E+01 -.739E+01 -.627E+03   0.521E+01 0.739E+01 0.627E+03   0.113E-01 -.848E-03 -.384E+00
   0.110E+02 -.433E+02 -.195E+04   -.111E+02 0.443E+02 0.194E+04   0.447E-01 -.904E+00 0.557E+01
   -.427E+02 0.539E-05 -.191E+04   0.438E+02 -.603E-05 0.191E+04   -.120E+01 -.132E-05 0.574E+01
   0.887E-01 0.310E-05 0.208E+04   -.887E-01 0.404E-06 -.208E+04   -.292E-05 -.389E-05 -.646E+01
   -.304E+00 0.397E+00 0.208E+04   0.309E+00 -.403E+00 -.208E+04   -.377E-02 0.441E-02 -.648E+01
   0.416E+00 0.249E+01 0.725E+03   -.420E+00 -.256E+01 -.725E+03   0.253E-02 0.457E-01 0.500E+00
   -.906E+00 -.855E-05 0.722E+03   0.913E+00 0.645E-05 -.723E+03   -.559E-02 -.249E-05 0.460E+00
   0.148E+01 0.174E-04 -.629E+03   -.149E+01 -.110E-04 0.630E+03   0.123E-02 -.135E-04 -.175E+00
   -.523E+01 0.739E+01 -.627E+03   0.521E+01 -.739E+01 0.627E+03   0.113E-01 0.846E-03 -.384E+00
   0.110E+02 0.433E+02 -.195E+04   -.111E+02 -.443E+02 0.194E+04   0.447E-01 0.904E+00 0.557E+01
   -.121E+02 -.464E-05 -.199E+04   0.122E+02 0.668E-05 0.199E+04   -.119E+00 0.190E-05 0.539E+01
   -.282E+00 0.863E-05 0.542E+03   0.266E+00 -.463E-05 -.542E+03   0.203E-01 -.111E-05 -.540E-01
   0.940E+00 -.122E+01 0.541E+03   -.951E+00 0.124E+01 -.541E+03   0.159E-01 -.247E-01 -.145E+00
   -.696E-01 -.246E+00 0.157E+04   0.697E-01 0.250E+00 -.157E+04   -.237E-03 -.618E-02 0.354E+01
   0.282E+00 0.535E-05 0.157E+04   -.291E+00 -.606E-06 -.157E+04   0.127E-01 0.188E-07 0.356E+01
   -.120E+02 -.295E-05 -.150E+04   0.121E+02 0.393E-05 0.151E+04   -.152E+00 -.277E-06 -.510E+01
   0.177E+02 -.181E+02 -.150E+04   -.177E+02 0.181E+02 0.151E+04   0.372E-01 -.108E-01 -.515E+01
   -.145E+01 -.379E+01 -.469E+03   0.142E+01 0.379E+01 0.469E+03   0.295E-01 0.363E-02 0.207E+00
   0.512E+01 0.121E-04 -.465E+03   -.511E+01 -.177E-04 0.465E+03   -.293E-01 -.535E-06 0.380E-01
   -.266E+00 0.185E-05 0.541E+03   0.269E+00 0.477E-05 -.541E+03   -.414E-02 -.350E-05 -.886E-01
   0.940E+00 0.122E+01 0.541E+03   -.951E+00 -.124E+01 -.541E+03   0.159E-01 0.247E-01 -.145E+00
   -.696E-01 0.246E+00 0.157E+04   0.697E-01 -.250E+00 -.157E+04   -.240E-03 0.619E-02 0.354E+01
   0.179E+00 -.307E-05 0.157E+04   -.183E+00 0.622E-06 -.157E+04   0.509E-02 0.317E-06 0.354E+01
   -.343E+01 0.674E-05 -.152E+04   0.341E+01 -.422E-05 0.153E+04   0.261E-01 -.431E-07 -.513E+01
   0.177E+02 0.181E+02 -.150E+04   -.177E+02 -.181E+02 0.151E+04   0.372E-01 0.108E-01 -.515E+01
   -.145E+01 0.379E+01 -.469E+03   0.142E+01 -.379E+01 0.469E+03   0.295E-01 -.362E-02 0.207E+00
   0.276E+01 -.251E-04 -.471E+03   -.277E+01 0.227E-04 0.470E+03   0.540E-02 0.126E-05 0.240E+00
   0.340E+00 -.823E-05 0.547E+03   -.344E+00 0.485E-05 -.547E+03   0.615E-02 0.257E-05 0.106E+00
   -.973E+00 -.129E+01 0.542E+03   0.994E+00 0.130E+01 -.542E+03   -.299E-01 -.202E-01 -.145E+00
   0.713E-01 -.350E+00 0.157E+04   -.711E-01 0.359E+00 -.157E+04   -.371E-03 -.131E-01 0.356E+01
   -.285E+00 -.224E-05 0.157E+04   0.293E+00 -.931E-06 -.157E+04   -.117E-01 -.603E-06 0.356E+01
   0.169E+02 -.304E-04 -.140E+04   -.168E+02 0.262E-04 0.140E+04   -.110E+00 0.335E-05 -.390E+01
   -.193E+02 -.283E+02 -.149E+04   0.193E+02 0.283E+02 0.150E+04   0.272E-01 -.125E-01 -.519E+01
   0.164E+01 -.642E+01 -.463E+03   -.164E+01 0.642E+01 0.463E+03   0.162E-02 0.105E-01 0.958E-01
   -.526E+01 0.219E-04 -.458E+03   0.525E+01 -.227E-04 0.458E+03   0.200E-01 -.292E-06 0.180E+00
   0.266E+00 0.113E-04 0.542E+03   -.263E+00 -.523E-05 -.542E+03   -.334E-02 -.192E-06 -.673E-01
   -.973E+00 0.129E+01 0.542E+03   0.994E+00 -.130E+01 -.542E+03   -.299E-01 0.202E-01 -.145E+00
   0.713E-01 0.350E+00 0.157E+04   -.711E-01 -.359E+00 -.157E+04   -.376E-03 0.131E-01 0.356E+01
   -.179E+00 -.641E-06 0.157E+04   0.183E+00 0.916E-06 -.157E+04   -.531E-02 0.496E-06 0.354E+01
   0.379E+01 0.281E-04 -.151E+04   -.380E+01 -.350E-04 0.151E+04   0.558E-02 0.401E-05 -.507E+01
   -.193E+02 0.283E+02 -.149E+04   0.193E+02 -.283E+02 0.150E+04   0.272E-01 0.125E-01 -.519E+01
   0.164E+01 0.642E+01 -.463E+03   -.164E+01 -.642E+01 0.463E+03   0.161E-02 -.105E-01 0.957E-01
   -.283E+01 -.180E-04 -.469E+03   0.284E+01 0.190E-04 0.469E+03   -.925E-02 -.478E-06 0.220E+00
   0.124E+02 -.173E-05 0.256E+02   0.320E-12 0.254E-12 0.136E-11   -.124E+02 0.363E-05 -.256E+02

 POSITION                                       TOTAL-FORCE (eV/Angst)
      4.18320      6.33074     16.18034        -0.228932      0.000000      0.122192
      5.31003      6.33074     16.56757         0.204437      0.000001      0.126667
      0.00000      6.33074      7.50000         0.000217      0.000003      0.151670
      2.11025      0.00000      7.50000        -0.001563      0.001651      0.154228
      0.00000      0.00000      9.61025        -0.001911      0.004630      0.055597
      2.11025      6.33074      9.61025        -0.016135      0.000006      0.041867
      0.00311      6.33074     11.73283        -0.004488      0.000007      0.037572
      2.10959      8.44047     11.73881         0.008932     -0.003494      0.027922
      0.00022      0.00366     13.84277         0.001006     -0.001341      0.202060
      2.09683      6.33074     13.85267         0.001552      0.000000      0.155477
      0.00000      2.11025      7.50000        -0.000003      0.000000      0.154308
      2.11025      4.22049      7.50000        -0.001559     -0.001654      0.154227
      0.00000      4.22049      9.61025        -0.001910     -0.004628      0.055597
      2.11025      2.11025      9.61025        -0.003162     -0.000003      0.056291
      8.44059      2.11025     11.73378        -0.001878     -0.000005      0.043071
      2.10959      4.22101     11.73881         0.008938      0.003492      0.027927
      0.00022      4.21683     13.84277         0.001009      0.001335      0.202064
      2.10631      2.11025     13.84147         0.002286      0.000001      0.205865
      4.22049      6.33074      7.50000         0.000106     -0.000000      0.142103
      6.33074      0.00000      7.50000         0.001523      0.001740      0.153991
      4.22049      0.00000      9.61025        -0.001338      0.020846      0.045279
      6.33074      6.33074      9.61025         0.022479      0.000004      0.044388
      4.22010      6.33074     11.71799         0.001334     -0.000001      0.051655
      6.32997      0.00021     11.73894        -0.002544     -0.003549      0.027349
      4.21819      0.01621     13.84938         0.001232      0.000905      0.152789
      6.35972      6.33074     13.84207        -0.010934     -0.000002      0.164265
      4.22049      2.11025      7.50000         0.000066     -0.000000      0.152248
      6.33074      4.22049      7.50000         0.001528     -0.001742      0.153992
      4.22049      4.22049      9.61025        -0.001341     -0.020842      0.045276
      6.33074      2.11025      9.61025         0.001976     -0.000005      0.056098
      4.21995      2.11025     11.73425         0.000186     -0.000007      0.035325
      6.32997      4.22028     11.73894        -0.002549      0.003548      0.027358
      4.21819      4.20429     13.84938         0.001239     -0.000907      0.152787
      6.33266      2.11025     13.84240         0.004253      0.000004      0.201791
      0.00000      6.33074      9.61025         0.004207      0.000003      0.074071
      2.11025      0.00000      9.61025         0.004811     -0.006569      0.074700
      0.00000      0.00000      7.50000        -0.000033     -0.001754     -0.562481
      2.11025      6.33074      7.50000         0.003698      0.000005     -0.558825
      0.00422      6.33074     13.88023        -0.005494      0.000001      0.040928
      2.11136      8.43918     13.88182         0.004787     -0.000919      0.045088
      8.44053      8.44089     11.72916         0.003458     -0.000594      0.010677
      2.11421      6.33074     11.73076        -0.016430     -0.000006      0.012373
      0.00000      2.11025      9.61025        -0.001122      0.000003      0.067291
      2.11025      4.22049      9.61025         0.004813      0.006572      0.074702
      0.00000      4.22049      7.50000        -0.000034      0.001753     -0.562480
      2.11025      2.11025      7.50000         0.001475     -0.000002     -0.562681
      8.44017      2.11025     13.88529         0.003870      0.000002      0.026866
      2.11136      4.22230     13.88183         0.004787      0.000922      0.045088
      8.44053      4.22059     11.72916         0.003457      0.000591      0.010677
      2.11036      2.11025     11.72921        -0.000331     -0.000001      0.013106
      4.22049      6.33074      9.61025         0.002308     -0.000001      0.042888
      6.33074      0.00000      9.61025        -0.008165     -0.005708      0.075448
      4.22049      0.00000      7.50000        -0.000067     -0.003743     -0.558921
      6.33074      6.33074      7.50000        -0.003293     -0.000004     -0.558764
      4.22627      6.33074     13.86807        -0.003354     -0.000001     -0.028379
      6.32820      8.43817     13.88173         0.000437      0.002715      0.040242
      4.21980      8.43786     11.73117         0.002265      0.015344      0.011851
      6.32874      6.33074     11.73007         0.014935     -0.000001      0.010587
      4.22049      2.11025      9.61025        -0.000673      0.000006      0.077406
      6.33074      4.22049      9.61025        -0.008169      0.005712      0.075441
      4.22049      4.22049      7.50000        -0.000067      0.003743     -0.558923
      6.33074      2.11025      7.50000        -0.001450      0.000001     -0.562698
      4.21957      2.11025     13.88402         0.002584     -0.000003      0.041789
      6.32820      4.22330     13.88173         0.000440     -0.002715      0.040242
      4.21980      4.22362     11.73117         0.002266     -0.015345      0.011852
      6.32966      2.11025     11.72952         0.000033      0.000000      0.009542
    total drift:                               -0.002967      0.000002      0.018797

  FREE ENERGIE OF THE ION-ELECTRON SYSTEM (eV)
  free  energy   TOTEN  =      -236.13185967 eV

  energy  without entropy=     -236.13185967  energy(sigma->0) =     -236.13185967