 vasp.6.3.0 20Jan22 (build Apr  1 2022 16:44:48) complex
 executed on        HPECrayEX_GCC date 2022.11.13  00:30:12

 INCAR:
   SYSTEM = MgO-rocksalt
   ISMEAR = 0
   SIGMA = 0.05
   EDIFF = 1E-6
   ALGO = ALL
   ISTART = 0
   IBRION = -1
   NSW = 0
   ISYM = 0
   DIPOL = 0.5 0.5 0.5
   IDIPOL = 3
   LDIPOL = .TRUE.
   GGA = RE
   IVDW = 13
   VDW_S8 = 1.7468
   VDW_A1 = 0.5363
   VDW_A2 = 3.0726
   ENCUT = 600
   PREC = Accurate
   LASPH = .TRUE.
   LREAL = .FALSE.
   ISPIN = 1
   NELM = 200
   NELMIN = 8
   NCORE = 8
   KPAR = 1
   LWAVE = .FALSE.
   LCHARG = .FALSE.

 POTCAR:    PAW_PBE C 08Apr2002
 POTCAR:    PAW_PBE O 08Apr2002
 POTCAR:    PAW_PBE H 15Jun2001
 POTCAR:    PAW_PBE Mg_pv 13Apr2007
 POTCAR:    PAW_PBE O 08Apr2002
 POTCAR:    PAW_PBE C 08Apr2002
   VRHFIN =C: s2p2

   TITEL  = PAW_PBE C 08Apr2002
   POMASS =   12.011; ZVAL   =    4.000    mass and valenz
   ENMAX  =  400.000; ENMIN  =  300.000 eV

[...]

   TITEL  = PAW_PBE H 15Jun2001
   POMASS =    1.000; ZVAL   =    1.000    mass and valenz
   ENMAX  =  250.000; ENMIN  =  200.000 eV

   TITEL  = PAW_PBE Mg_pv 13Apr2007
   POMASS =   24.305; ZVAL   =    8.000    mass and valenz
   ENMAX  =  403.929; ENMIN  =  302.947 eV

   TITEL  = PAW_PBE O 08Apr2002
   POMASS =   16.000; ZVAL   =    6.000    mass and valenz
   ENMAX  =  400.000; ENMIN  =  300.000 eV

  PAW_PBE C 08Apr2002                   :
  PAW_PBE O 08Apr2002                   :
  PAW_PBE H 15Jun2001                   :
  PAW_PBE Mg_pv 13Apr2007               :
  PAW_PBE O 08Apr2002                   :

 POSCAR:  C  O  H Mg  O
  positions in direct lattice
|           W    W    AA    RRRRR   N    N  II  N    N   GGGG   !!!           |
|           W    W   A  A   R    R  NN   N  II  NN   N  G    G  !!!           |
|           W    W  A    A  R    R  N N  N  II  N N  N  G       !!!           |
|           W WW W  AAAAAA  RRRRR   N  N N  II  N  N N  G  GGG   !            |
|           WW  WW  A    A  R   R   N   NN  II  N   NN  G    G                |
|           W    W  A    A  R    R  N    N  II  N    N   GGGG   !!!           |
|     Specifying the vdW parameters                                           |
|     VDW_S8 = 1.747                                                          |
|     VDW_A1 = 0.536                                                          |
|     VDW_A2 = 3.073                                                          |
|     in the INCAR file will overwrite the defaults for revpbe. Please        |
|     make sure that is what you intended.                                    |

 ion  position               nearest neighbor table
   1  0.500  0.927  0.795-   3 1.10   6 1.11   5 1.11   2 1.43
   2  0.500  0.763  0.779-   4 1.00   1 1.43
   3  0.500  0.937  0.846-   1 1.10
   4  0.500  0.756  0.732-   2 1.00
   5  0.607  0.990  0.777-   1 1.11
   6  0.393  0.990  0.777-   1 1.11
   7  0.000  0.750  0.352-  39 2.11  41 2.11  42 2.11  49 2.11  58 2.11
   8  0.250  0.000  0.352-  40 2.11  41 2.11  42 2.11  50 2.11  57 2.11
   9  0.000  0.000  0.451-  41 2.11  40 2.11  39 2.11  47 2.11  56 2.11  45 2.12
  10  0.250  0.750  0.451-  42 2.11  40 2.11  39 2.11  48 2.11  55 2.11  46 2.12
  11  0.000  0.750  0.550-  45 2.11  53 2.11  46 2.11  62 2.11  39 2.12  43 2.15
  12  0.250  0.000  0.550-  46 2.11  45 2.11  54 2.11  61 2.11  40 2.13  44 2.15
  13  0.000  0.001  0.649-  51 2.11  44 2.11  60 2.11  43 2.11  45 2.11
  14  0.248  0.750  0.649-  43 2.09  52 2.11  44 2.11  46 2.12  59 2.13
  15  0.000  0.250  0.352-  47 2.11  41 2.11  49 2.11  50 2.11  66 2.11
  16  0.250  0.500  0.352-  48 2.11  42 2.11  49 2.11  50 2.11  65 2.11
  17  0.000  0.500  0.451-  49 2.11  47 2.11  48 2.11  39 2.11  64 2.11  53 2.12
  18  0.250  0.250  0.451-  50 2.11  47 2.11  48 2.11  40 2.11  63 2.11  54 2.12
  19  0.000  0.250  0.550-  53 2.11  54 2.11  70 2.11  45 2.11  47 2.12  51 2.15
  20  0.250  0.500  0.550-  53 2.11  46 2.11  69 2.11  54 2.11  48 2.13  52 2.14
  21  1.000  0.500  0.649-  51 2.11  68 2.11  52 2.11  43 2.11  53 2.12
  22  0.250  0.250  0.649-  51 2.11  52 2.11  67 2.11  44 2.11  54 2.11
  23  0.500  0.750  0.352-  55 2.11  42 2.11  57 2.11  58 2.11  65 2.11
  24  0.750  0.000  0.352-  56 2.11  41 2.11  57 2.11  58 2.11  66 2.11
  25  0.500  0.000  0.451-  57 2.11  55 2.11  56 2.11  40 2.11  63 2.11  61 2.12
  26  0.750  0.750  0.451-  58 2.11  55 2.11  56 2.11  39 2.11  64 2.11  62 2.12
  27  0.500  0.750  0.550-  69 2.11  46 2.11  62 2.11  61 2.11  55 2.12  59 2.17
  28  0.750  0.000  0.550-  62 2.11  45 2.11  70 2.11  61 2.11  56 2.13  60 2.15
  29  0.500  0.003  0.649-  67 2.09  61 2.10  44 2.11  60 2.11  59 2.14
  30  0.752  0.750  0.649-  43 2.09  68 2.11  60 2.11  62 2.12  59 2.13
  31  0.500  0.250  0.352-  63 2.11  57 2.11  50 2.11  65 2.11  66 2.11
  32  0.750  0.500  0.352-  64 2.11  58 2.11  49 2.11  65 2.11  66 2.11
  33  0.500  0.500  0.451-  65 2.11  55 2.11  63 2.11  64 2.11  48 2.11  69 2.12
  34  0.750  0.250  0.451-  66 2.11  56 2.11  63 2.11  64 2.11  47 2.11  70 2.12
  35  0.500  0.250  0.550-  54 2.11  70 2.11  69 2.11  61 2.12  63 2.12  67 2.14
  36  0.750  0.500  0.550-  53 2.11  62 2.11  69 2.11  70 2.11  64 2.13  68 2.14
  37  0.500  0.498  0.649-  67 2.09  68 2.11  52 2.11  69 2.11  59 2.13
  38  0.750  0.250  0.649-  51 2.11  68 2.11  67 2.11  60 2.11  70 2.11
  39  0.000  0.750  0.451-   7 2.11   9 2.11  10 2.11  17 2.11  26 2.11  11 2.12
  40  0.250  0.000  0.451-   8 2.11   9 2.11  10 2.11  18 2.11  25 2.11  12 2.13
  41  0.000  0.000  0.352-   9 2.11   8 2.11   7 2.11  15 2.11  24 2.11
  42  0.250  0.750  0.352-  10 2.11   8 2.11   7 2.11  16 2.11  23 2.11
  43  1.000  0.750  0.651-  30 2.09  14 2.09  13 2.11  21 2.11  11 2.15
  44  0.250  0.000  0.651-  29 2.11  14 2.11  13 2.11  22 2.11  12 2.15
  45  1.000  0.000  0.550-  11 2.11  28 2.11  12 2.11  19 2.11  13 2.11   9 2.12
  46  0.250  0.750  0.550-  27 2.11  12 2.11  20 2.11  11 2.11  14 2.12  10 2.12
  47  0.000  0.250  0.451-  15 2.11   9 2.11  17 2.11  18 2.11  34 2.11  19 2.12
  48  0.250  0.500  0.451-  16 2.11  10 2.11  17 2.11  18 2.11  33 2.11  20 2.13
  49  0.000  0.500  0.352-  17 2.11  15 2.11  16 2.11   7 2.11  32 2.11
  50  0.250  0.250  0.352-  18 2.11  15 2.11  16 2.11   8 2.11  31 2.11
  51  1.000  0.250  0.651-  13 2.11  38 2.11  22 2.11  21 2.11  19 2.15
  52  0.250  0.500  0.651-  14 2.11  37 2.11  22 2.11  21 2.11  20 2.14
  53  0.000  0.500  0.550-  11 2.11  20 2.11  36 2.11  19 2.11  21 2.12  17 2.12
  54  0.250  0.250  0.550-  35 2.11  12 2.11  19 2.11  20 2.11  22 2.11  18 2.12
  55  0.500  0.750  0.451-  23 2.11  10 2.11  25 2.11  26 2.11  33 2.11  27 2.12
  56  0.750  0.000  0.451-  24 2.11   9 2.11  25 2.11  26 2.11  34 2.11  28 2.13
  57  0.500  0.000  0.352-  25 2.11  23 2.11  24 2.11   8 2.11  31 2.11
  58  0.750  0.750  0.352-  26 2.11  23 2.11  24 2.11   7 2.11  32 2.11
  59  0.500  0.750  0.652-  30 2.13  14 2.13  37 2.13  29 2.14  27 2.17
  60  0.750  0.000  0.651-  29 2.11  30 2.11  13 2.11  38 2.11  28 2.15
  61  0.500  1.000  0.550-  29 2.10  27 2.11  28 2.11  12 2.11  35 2.12  25 2.12
  62  0.750  0.750  0.550-  27 2.11  28 2.11  36 2.11  11 2.11  30 2.12  26 2.12
  63  0.500  0.250  0.451-  31 2.11  25 2.11  18 2.11  33 2.11  34 2.11  35 2.12
  64  0.750  0.500  0.451-  32 2.11  26 2.11  17 2.11  33 2.11  34 2.11  36 2.13
  65  0.500  0.500  0.352-  33 2.11  23 2.11  31 2.11  32 2.11  16 2.11
  66  0.750  0.250  0.352-  34 2.11  24 2.11  31 2.11  32 2.11  15 2.11
  67  0.500  0.250  0.651-  29 2.09  37 2.09  38 2.11  22 2.11  35 2.14
  68  0.750  0.500  0.651-  30 2.11  37 2.11  38 2.11  21 2.11  36 2.14
  69  0.500  0.501  0.550-  27 2.11  36 2.11  20 2.11  37 2.11  35 2.11  33 2.12
  70  0.750  0.250  0.550-  35 2.11  28 2.11  19 2.11  36 2.11  38 2.11  34 2.12

IMPORTANT INFORMATION: All symmetrisations will be switched off!
NOSYMM: (Re-)initialisation of all symmetry stuff for point group C_1.

                                     Primitive cell

  volume of cell :    1519.8199

  direct lattice vectors                    reciprocal lattice vectors
     8.440984654  0.000000000  0.000000000     0.118469591  0.000000000  0.000000000
     0.000000000  8.440984654  0.000000000     0.000000000  0.118469591  0.000000000
     0.000000000  0.000000000 21.330738491     0.000000000  0.000000000  0.046880702

  length of vectors
     8.440984654  8.440984654 21.330738491     0.118469591  0.118469591  0.046880702

  position of ions in fractional coordinates (direct lattice)
     0.499992559  0.927425025  0.794672850
     0.500000622  0.763027173  0.778637205
     0.500000547  0.937136336  0.846026296
     0.500000090  0.756298660  0.731770613
     0.606662785  0.989570896  0.776953163
     0.393344181  0.989568125  0.776954137
     0.000000000  0.750000000  0.351605267
     0.250000000  0.000000000  0.351605267
     0.000000000  0.000000000  0.450535089
     0.250000000  0.750000000  0.450535089
     0.000000008  0.750147550  0.550126567
     0.249905350  0.000103435  0.550222861
     0.000000026  0.000546055  0.648943465
     0.247747286  0.750033192  0.649243266
     0.000000000  0.250000000  0.351605267
     0.250000000  0.500000000  0.351605267
     0.000000000  0.500000000  0.450535089
     0.250000000  0.250000000  0.450535089
     0.000000012  0.250191124  0.550146528
     0.249928207  0.500214927  0.550255332
     0.999999983  0.499940436  0.649062667
     0.249636403  0.250399205  0.648941138
     0.500000000  0.750000000  0.351605267
     0.750000000  0.000000000  0.351605267
     0.500000000  0.000000000  0.450535089
     0.750000000  0.750000000  0.450535089
     0.499999985  0.750123901  0.550030192
     0.750094647  0.000103445  0.550222837
     0.499999941  0.003291849  0.648638534
     0.752252711  0.750033147  0.649243200
     0.500000000  0.250000000  0.351605267
     0.750000000  0.500000000  0.351605267
     0.500000000  0.500000000  0.450535089
     0.750000000  0.250000000  0.450535089
     0.499999992  0.250340414  0.549992972
     0.750071788  0.500214927  0.550255323
     0.500000005  0.497841145  0.648989133
     0.750363599  0.250399263  0.648941088
     0.000000000  0.750000000  0.450535089
     0.250000000  0.000000000  0.450535089
     0.000000000  0.000000000  0.351605267
     0.250000000  0.750000000  0.351605267
     0.999999975  0.750297883  0.650700566
     0.250242377  0.000040639  0.650797168
     0.999999986  0.000044611  0.549843935
     0.250470800  0.750233324  0.550076074
     0.000000000  0.250000000  0.450535089
     0.250000000  0.500000000  0.450535089
     0.000000000  0.500000000  0.351605267
     0.250000000  0.250000000  0.351605267
     0.999999976  0.250139304  0.650810627
     0.250241849  0.500380847  0.650569646
     0.000000002  0.500222649  0.549863570
     0.250081150  0.250070487  0.549831101
     0.500000000  0.750000000  0.450535089
     0.750000000  0.000000000  0.450535089
     0.500000000  0.000000000  0.351605267
     0.750000000  0.750000000  0.351605267
     0.500000011  0.750432985  0.651858218
     0.749757573  0.000040640  0.650797178
     0.500000010  0.999759990  0.549985217
     0.749529196  0.750233335  0.550076086
     0.500000000  0.250000000  0.450535089
[...]
   6.33153740  0.00087318 11.73665944
   4.22049183  0.02778645 13.83593895
   6.34975359  6.33101829 13.84883691
   4.22049233  2.11024616  7.50000000
   6.33073849  4.22049233  7.50000000
   4.22049233  4.22049233  9.61024616
   6.33073849  2.11024616  9.61024616
   4.22049226  2.11311960 11.73175627
   6.33134445  4.22230652 11.73735240
   4.22049237  4.20226946 13.84341747
   6.33380762  2.11361634 13.84239264
   0.00000000  6.33073849  9.61024616
   2.11024616  0.00000000  9.61024616
   0.00000000  0.00000000  7.50000000
   2.11024616  6.33073849  7.50000000
   8.44098444  6.33325292 13.87992361
   2.11229206  0.00034304 13.88198420
   8.44098454  0.00037656 11.72857718
   2.11422017  6.33270797 11.73352888
   0.00000000  2.11024616  9.61024616
   2.11024616  4.22049233  9.61024616
   0.00000000  4.22049233  7.50000000
   2.11024616  2.11024616  7.50000000
   8.44098445  2.11142203 13.88227129
   2.11228761  4.22370705 13.87713099
   0.00000001  4.22237170 11.72899602
   2.11093115  2.11084115 11.72830344
   4.22049233  6.33073849  9.61024616
   6.33073849  0.00000000  9.61024616
   4.22049233  0.00000000  7.50000000
   6.33073849  6.33073849  7.50000000
   4.22049242  6.33439331 13.90461718
   6.32869217  0.00034304 13.88198442
   4.22049241  8.43895873 11.73159084
   6.32676444  6.33270807 11.73352915
   4.22049233  2.11024616  9.61024616
   6.33073849  4.22049233  9.61024616
   4.22049233  4.22049233  7.50000000
   6.33073849  2.11024616  7.50000000
   4.22049251  2.11327962 13.87607541
   6.32869700  4.22370691 13.87713044
   4.22049235  4.22622133 11.73174062
   6.33005345  2.11084095 11.72830340

--------------------------------------- Iteration      FINAL  ---------------------------------------

--------------------OUTCAR has been truncated-------------------------

[...]

--------------------OUTCAR has been truncated-------------------------

  FORCE on cell =-STRESS in cart. coord.  units (eV):
  Direction    XX          YY          ZZ          XY          YZ          ZX
  Alpha Z   918.85614   918.85614   918.85614
  Ewald  157254.82263157531.22172************    -0.01518    80.96613     0.00294
  Hartree167638.75934167805.01409************    -0.00419    43.26612    -0.00107
  E(xc)   -2523.76420 -2523.24138 -2530.80682    -0.00002     0.17035    -0.00000
  Local  ************************334596.12214     0.01622  -117.81609    -0.00022
  n-local -2835.62802 -2832.42128 -2856.96758     0.00003     1.13830    -0.00020
  augment  1054.54208  1052.77910  1043.44627     0.00012    -0.51830     0.00001
  Kinetic  7558.34682  7536.90443  7574.97909     0.00145    -7.35247    -0.00016
  Fock        0.00000     0.00000     0.00000     0.00000     0.00000     0.00000
  vdW       -21.80731   -21.85373   -17.10871     0.00001    -0.03685    -0.00000
  Total     -26.19357   -26.10120    -1.90155    -0.00156    -0.18281     0.00129
  in kB     -27.61297   -27.51560    -2.00459    -0.00165    -0.19271     0.00136

 VOLUME and BASIS-vectors are now :
  energy-cutoff  :      600.00
  volume of cell :     1519.82
      direct lattice vectors                 reciprocal lattice vectors
     8.440984654  0.000000000  0.000000000     0.118469591  0.000000000  0.000000000
     0.000000000  8.440984654  0.000000000     0.000000000  0.118469591  0.000000000
     0.000000000  0.000000000 21.330738491     0.000000000  0.000000000  0.046880702

  length of vectors
     8.440984654  8.440984654 21.330738491     0.118469591  0.118469591  0.046880702

 FORCES acting on ions:
    Electron-Ion                     Ewald-Force                    Non-Local-Force
   0.359E-02 -.118E+03 -.971E+03   -.167E-02 0.123E+03 0.973E+03   0.270E-02 -.461E+01 -.165E+01
   -.602E-02 0.167E+03 -.152E+04   0.840E-02 -.201E+03 0.154E+04   -.276E-02 0.344E+02 -.262E+02
   -.277E-02 -.154E+02 -.243E+03   0.296E-02 0.158E+02 0.248E+03   -.431E-03 -.421E+00 -.565E+01
   -.939E-04 0.187E+02 -.214E+03   0.681E-04 -.194E+02 0.207E+03   0.134E-04 0.677E+00 0.725E+01
   -.484E+02 -.385E+02 -.237E+03   0.529E+02 0.410E+02 0.235E+03   -.445E+01 -.257E+01 0.176E+01
   0.484E+02 -.385E+02 -.237E+03   -.529E+02 0.410E+02 0.235E+03   0.445E+01 -.257E+01 0.176E+01
   -.158E-05 0.153E+00 0.209E+04   0.130E-05 -.153E+00 -.208E+04   0.393E-06 0.314E-03 -.715E+01
   0.323E+00 -.162E+00 0.209E+04   -.326E+00 0.164E+00 -.208E+04   0.214E-02 -.111E-02 -.717E+01
   -.258E-04 -.636E+00 0.730E+03   0.259E-04 0.664E+00 -.730E+03   -.119E-06 -.201E-01 0.491E+00
   0.164E+01 0.706E+00 0.730E+03   -.163E+01 -.701E+00 -.731E+03   -.985E-02 -.360E-02 0.584E+00
   -.676E-05 0.234E+01 -.616E+03   0.332E-05 -.235E+01 0.616E+03   0.235E-05 0.230E-02 -.322E+00
   0.713E+01 -.411E+01 -.612E+03   -.717E+01 0.409E+01 0.612E+03   0.369E-01 0.151E-01 -.354E+00
   0.348E-03 -.114E+02 -.197E+04   -.422E-03 0.115E+02 0.197E+04   0.533E-04 -.110E+00 0.615E+01
   0.396E+02 0.143E+02 -.193E+04   -.406E+02 -.144E+02 0.193E+04   0.977E+00 0.785E-01 0.624E+01
   -.370E-05 -.151E+00 0.209E+04   0.301E-05 0.152E+00 -.208E+04   0.101E-05 -.851E-03 -.717E+01
   0.307E+00 0.163E+00 0.209E+04   -.310E+00 -.163E+00 -.208E+04   0.214E-02 0.594E-03 -.717E+01
   -.867E-05 0.635E+00 0.728E+03   0.785E-05 -.653E+00 -.729E+03   0.483E-06 0.128E-01 0.488E+00
   0.129E+01 -.670E+00 0.730E+03   -.133E+01 0.676E+00 -.730E+03   0.247E-01 -.367E-02 0.480E+00
   -.638E-05 -.216E+01 -.623E+03   0.365E-05 0.218E+01 0.624E+03   0.431E-05 -.146E-01 -.267E+00
   0.549E+01 0.406E+01 -.617E+03   -.551E+01 -.404E+01 0.618E+03   0.211E-01 -.140E-01 -.475E+00
   -.437E-05 0.112E+02 -.198E+04   -.309E-06 -.113E+02 0.198E+04   0.304E-05 0.102E+00 0.616E+01
   0.196E+02 -.126E+02 -.197E+04   -.197E+02 0.126E+02 0.197E+04   0.135E+00 -.763E-01 0.617E+01
   0.311E-05 0.168E+00 0.209E+04   -.130E-05 -.169E+00 -.208E+04   -.612E-06 0.185E-03 -.715E+01
   -.323E+00 -.162E+00 0.209E+04   0.326E+00 0.164E+00 -.208E+04   -.214E-02 -.111E-02 -.717E+01
   0.232E-04 -.961E+00 0.732E+03   -.257E-04 0.949E+00 -.732E+03   0.167E-05 0.111E-01 0.577E+00
   -.164E+01 0.706E+00 0.730E+03   0.163E+01 -.701E+00 -.731E+03   0.984E-02 -.360E-02 0.584E+00
   -.545E-05 0.379E+01 -.605E+03   0.938E-05 -.383E+01 0.605E+03   -.127E-05 0.353E-01 0.647E+00
   -.713E+01 -.411E+01 -.612E+03   0.717E+01 0.409E+01 0.612E+03   -.369E-01 0.151E-01 -.354E+00
   -.417E-03 -.330E+02 -.189E+04   0.551E-03 0.341E+02 0.188E+04   -.873E-04 -.115E+01 0.624E+01
   -.396E+02 0.143E+02 -.193E+04   0.406E+02 -.144E+02 0.193E+04   -.977E+00 0.785E-01 0.624E+01
   0.309E-05 -.166E+00 0.209E+04   -.316E-05 0.167E+00 -.208E+04   0.570E-06 -.108E-02 -.715E+01
   -.307E+00 0.163E+00 0.209E+04   0.310E+00 -.163E+00 -.208E+04   -.214E-02 0.589E-03 -.717E+01
   0.116E-04 0.985E+00 0.730E+03   -.118E-04 -.953E+00 -.731E+03   0.239E-06 -.236E-01 0.563E+00
   -.129E+01 -.670E+00 0.730E+03   0.133E+01 0.676E+00 -.730E+03   -.247E-01 -.367E-02 0.480E+00
   0.288E-04 -.375E+01 -.610E+03   -.274E-04 0.378E+01 0.611E+03   0.243E-05 -.349E-01 -.304E+00
   -.549E+01 0.406E+01 -.617E+03   0.551E+01 -.404E+01 0.618E+03   -.211E-01 -.140E-01 -.475E+00
   -.243E-04 0.281E+02 -.194E+04   0.241E-04 -.291E+02 0.194E+04   -.225E-05 0.106E+01 0.627E+01
   -.196E+02 -.126E+02 -.197E+04   0.197E+02 0.126E+02 0.197E+04   -.135E+00 -.763E-01 0.617E+01
   -.492E-07 0.463E+00 0.547E+03   -.130E-05 -.471E+00 -.547E+03   -.913E-07 0.108E-01 -.705E-01
   0.101E+01 -.487E+00 0.547E+03   -.102E+01 0.496E+00 -.547E+03   0.197E-01 -.136E-01 -.128E+00
   0.112E-05 -.112E+00 0.157E+04   0.265E-05 0.115E+00 -.157E+04   -.215E-05 -.507E-02 0.340E+01
   0.252E+00 0.120E+00 0.157E+04   -.253E+00 -.121E+00 -.157E+04   0.131E-02 0.114E-02 0.341E+01
   0.111E-03 0.581E+01 -.150E+04   -.127E-03 -.581E+01 0.150E+04   0.271E-04 0.790E-03 -.495E+01
   0.296E+02 -.167E+02 -.147E+04   -.296E+02 0.167E+02 0.148E+04   -.225E-01 0.217E-01 -.501E+01
   0.199E-06 -.264E+01 -.459E+03   -.176E-04 0.267E+01 0.458E+03   0.219E-04 -.243E-01 0.208E+00
   0.516E+01 0.227E+01 -.454E+03   -.521E+01 -.228E+01 0.454E+03   0.465E-01 0.583E-02 0.196E+00
   -.107E-04 -.416E+00 0.546E+03   0.746E-05 0.409E+00 -.546E+03   0.757E-06 0.900E-02 -.128E+00
   0.908E+00 0.509E+00 0.546E+03   -.921E+00 -.532E+00 -.546E+03   0.183E-01 0.327E-01 -.135E+00
   -.254E-05 0.110E+00 0.157E+04   0.121E-05 -.114E+00 -.157E+04   0.391E-06 0.572E-02 0.340E+01
   0.226E+00 -.120E+00 0.157E+04   -.232E+00 0.121E+00 -.157E+04   0.787E-02 -.561E-03 0.340E+01
   0.351E-04 -.570E+01 -.151E+04   -.554E-04 0.572E+01 0.151E+04   0.304E-04 -.140E-01 -.495E+01
   0.177E+02 0.154E+02 -.149E+04   -.177E+02 -.154E+02 0.150E+04   -.109E-02 -.237E-01 -.503E+01
   -.193E-04 0.248E+01 -.462E+03   0.167E-04 -.250E+01 0.461E+03   0.220E-05 0.127E-01 0.161E+00
   0.426E+01 -.223E+01 -.458E+03   -.427E+01 0.224E+01 0.458E+03   0.896E-02 -.136E-01 0.188E+00
   -.113E-06 0.547E+00 0.549E+03   0.256E-05 -.559E+00 -.549E+03   -.936E-06 0.167E-01 -.675E-01
   -.100E+01 -.487E+00 0.547E+03   0.102E+01 0.496E+00 -.547E+03   -.197E-01 -.136E-01 -.128E+00
   -.637E-07 -.138E+00 0.157E+04   -.267E-05 0.137E+00 -.157E+04   0.184E-05 0.174E-02 0.341E+01
   -.252E+00 0.120E+00 0.157E+04   0.253E+00 -.121E+00 -.157E+04   -.131E-02 0.115E-02 0.341E+01
   -.230E-03 0.199E+02 -.140E+04   0.248E-03 -.200E+02 0.141E+04   -.259E-04 0.367E-01 -.162E+01
   -.296E+02 -.167E+02 -.147E+04   0.296E+02 0.167E+02 0.148E+04   0.226E-01 0.217E-01 -.501E+01
   -.106E-04 -.333E+01 -.448E+03   0.263E-04 0.338E+01 0.447E+03   -.222E-04 -.429E-01 0.362E+00
   -.516E+01 0.227E+01 -.454E+03   0.521E+01 -.228E+01 0.454E+03   -.465E-01 0.581E-02 0.196E+00
   0.107E-04 -.500E+00 0.548E+03   -.106E-04 0.487E+00 -.548E+03   -.263E-06 0.161E-01 -.413E-01
   -.908E+00 0.509E+00 0.546E+03   0.921E+00 -.532E+00 -.546E+03   -.183E-01 0.327E-01 -.135E+00
   0.268E-05 0.136E+00 0.157E+04   -.132E-05 -.136E+00 -.157E+04   0.837E-06 -.543E-03 0.341E+01
   -.226E+00 -.120E+00 0.157E+04   0.232E+00 0.121E+00 -.157E+04   -.787E-02 -.563E-03 0.340E+01
   -.547E-04 -.159E+02 -.148E+04   0.947E-04 0.160E+02 0.149E+04   -.555E-04 -.407E-01 -.501E+01
   -.177E+02 0.154E+02 -.149E+04   0.177E+02 -.154E+02 0.150E+04   0.109E-02 -.237E-01 -.503E+01
   0.335E-04 0.329E+01 -.455E+03   -.341E-04 -.333E+01 0.455E+03   -.244E-05 0.349E-01 0.242E+00
   -.426E+01 -.223E+01 -.458E+03   0.427E+01 0.224E+01 0.458E+03   -.896E-02 -.136E-01 0.188E+00
   -.131E-02 -.248E+02 0.365E+02   -.579E-12 -.711E-13 0.313E-11   0.131E-02 0.249E+02 -.365E+02

 POSITION                                       TOTAL-FORCE (eV/Angst)
      4.22043      7.82838     16.95096         0.004581      0.000512      0.007999
      4.22050      6.44070     16.60891        -0.000366     -0.005151     -0.002550
      4.22050      7.91035     18.04637        -0.000238     -0.001834     -0.004610
      4.22049      6.38391     15.60921        -0.000012     -0.003815     -0.002097
      5.12083      8.35295     16.57298        -0.003363     -0.001116     -0.000880
      3.32021      8.35293     16.57301        -0.000630      0.000629     -0.002360
      0.00000      6.33074      7.50000         0.000000     -0.000187      0.336211
      2.11025      0.00000      7.50000        -0.000864      0.000417      0.339067
      0.00000      0.00000      9.61025        -0.000000      0.008381      0.083372
      2.11025      6.33074      9.61025         0.001210      0.001346      0.084695
      0.00000      6.33198     11.73461        -0.000001     -0.003573      0.000038
      2.10945      0.00087     11.73666        -0.002334     -0.000463      0.001327
      0.00000      0.00461     13.84244        -0.000021      0.000121      0.001724
      2.09123      6.33102     13.84884         0.000625     -0.001874     -0.000120
      0.00000      2.11025      7.50000         0.000000      0.000240      0.341332
      2.11025      4.22049      7.50000        -0.000854     -0.000391      0.339216
      0.00000      4.22049      9.61025        -0.000000     -0.004471      0.086434
      2.11025      2.11025      9.61025        -0.009780      0.002174      0.084479
      0.00000      2.11186     11.73503         0.000002     -0.000694     -0.004121
      2.10964      4.22231     11.73735         0.000015     -0.001737     -0.001792
      8.44098      4.21999     13.84499        -0.000002     -0.004748      0.001149
      2.10718      2.11362     13.84239        -0.002139     -0.000963      0.002395
      4.22049      6.33074      7.50000         0.000001     -0.000179      0.336586
      6.33074      0.00000      7.50000         0.000863      0.000414      0.339070
      4.22049      0.00000      9.61025        -0.000001     -0.001102      0.078951
      6.33074      6.33074      9.61025        -0.001214      0.001346      0.084697
      4.22049      6.33178     11.73255         0.000003      0.000351      0.002913
      6.33154      0.00087     11.73666         0.002335     -0.000467      0.001347
      4.22049      0.02779     13.83594         0.000046      0.000175      0.001036
      6.34975      6.33102     13.84884        -0.000632     -0.001842     -0.000108
      4.22049      2.11025      7.50000         0.000000      0.000302      0.335190
      6.33074      4.22049      7.50000         0.000856     -0.000396      0.339211
      4.22049      4.22049      9.61025        -0.000000      0.007746      0.080516
      6.33074      2.11025      9.61025         0.009781      0.002176      0.084480
      4.22049      2.11312     11.73176         0.000004      0.000578      0.000694
      6.33134      4.22231     11.73735        -0.000014     -0.001736     -0.001795
      4.22049      4.20227     13.84342        -0.000002      0.001203      0.000222
      6.33381      2.11362     13.84239         0.002127     -0.000988      0.002424
      0.00000      6.33074      9.61025        -0.000002      0.002578      0.088519
      2.11025      0.00000      9.61025         0.006329     -0.004546      0.080159
      0.00000      0.00000      7.50000         0.000002     -0.001468     -0.501376
      2.11025      6.33074      7.50000         0.000348      0.000281     -0.499616
      8.44098      6.33325     13.87992         0.000011     -0.001081     -0.000016
      2.11229      0.00034     13.88198        -0.001674     -0.000299     -0.002177
      8.44098      0.00038     11.72858         0.000004      0.001059      0.002604
      2.11422      6.33271     11.73353        -0.004615     -0.001693     -0.003911
      0.00000      2.11025      9.61025        -0.000003      0.001955      0.072095
      2.11025      4.22049      9.61025         0.005746      0.009067      0.081664
      0.00000      4.22049      7.50000        -0.000001      0.001571     -0.501574
      2.11025      2.11025      7.50000         0.002232     -0.000193     -0.501049
      8.44098      2.11142     13.88227         0.000010      0.001407     -0.000972
      2.11229      4.22371     13.87713        -0.000405     -0.002537      0.001212
      0.00000      4.22237     11.72900        -0.000001      0.001352     -0.003569
      2.11093      2.11084     11.72830        -0.000795      0.000260     -0.000492
      4.22049      6.33074      9.61025         0.000001      0.004581      0.077023
      6.33074      0.00000      9.61025        -0.006326     -0.004541      0.080156
      4.22049      0.00000      7.50000        -0.000001      0.000493     -0.499136
      6.33074      6.33074      7.50000        -0.000351      0.000282     -0.499615
      4.22049      6.33439     13.90462        -0.000009     -0.002852      0.000069
      6.32869      0.00034     13.88198         0.001696     -0.000303     -0.002232
      4.22049      8.43896     11.73159        -0.000006      0.003125     -0.001304
      6.32676      6.33271     11.73353         0.004614     -0.001698     -0.003921
      4.22049      2.11025      9.61025        -0.000000      0.003376      0.083072
      6.33074      4.22049      9.61025        -0.005744      0.009070      0.081666
      4.22049      4.22049      7.50000         0.000002     -0.000215     -0.499314
      6.33074      2.11025      7.50000        -0.002232     -0.000190     -0.501051
      4.22049      2.11328     13.87608        -0.000016     -0.001951     -0.001671
      6.32870      4.22371     13.87713         0.000408     -0.002539      0.001214
      4.22049      4.22622     11.73174        -0.000003     -0.005005     -0.002301
      6.33005      2.11084     11.72830         0.000798      0.000271     -0.000496
    total drift:                                0.000005      0.003425      0.003409

  FREE ENERGIE OF THE ION-ELECTRON SYSTEM (eV)
  free  energy   TOTEN  =      -401.93442086 eV

  energy  without entropy=     -401.93442086  energy(sigma->0) =     -401.93442086