 vasp.6.3.0 20Jan22 (build Apr  1 2022 16:44:48) complex
 executed on        HPECrayEX_GCC date 2022.12.21  11:40:01

 INCAR:
   SYSTEM = MgO-rocksalt
   ISMEAR = 0
   SIGMA = 0.05
   EDIFF = 1E-7
   ALGO = ALL
   ISTART = 0
   IBRION = 2
   NSW = 1000
   ISYM = 0
   ISIF = 2
   EDIFFG = -0.02
   DIPOL = 0.5 0.5 0.5
   IDIPOL = 3
   LDIPOL = .TRUE.
   LHFCALC = .TRUE.
   GGA = B5
   AEXX = 0.2
   AGGAX = 0.72
   AGGAC = 0.81
   ALDAC = 0.19
   IVDW = 1
   VDW_S6 = 1.05
   VDW_C6 = 1.23 0.70 0.63 0.70
   VDW_R0 = 1.397 1.342 1.243 1.342
   ENCUT = 600
   PREC = Accurate
   LASPH = .TRUE.
   LREAL = .FALSE.
   ISPIN = 1
   NELM = 200
   NELMIN = 8
   NCORE = 8
   KPAR = 1
   LWAVE = .FALSE.
   LCHARG = .FALSE.

 POTCAR:    PAW_PBE N 08Apr2002
 POTCAR:    PAW_PBE O 08Apr2002
 POTCAR:    PAW_PBE Mg_pv 13Apr2007
 POTCAR:    PAW_PBE O 08Apr2002
 POTCAR:    PAW_PBE N 08Apr2002
   VRHFIN =N: s2p3

   TITEL  = PAW_PBE N 08Apr2002
   POMASS =   14.001; ZVAL   =    5.000    mass and valenz
   ENMAX  =  400.000; ENMIN  =  300.000 eV

[...]

   TITEL  = PAW_PBE Mg_pv 13Apr2007
   POMASS =   24.305; ZVAL   =    8.000    mass and valenz
   ENMAX  =  403.929; ENMIN  =  302.947 eV

   TITEL  = PAW_PBE O 08Apr2002
   POMASS =   16.000; ZVAL   =    6.000    mass and valenz
   ENMAX  =  400.000; ENMIN  =  300.000 eV

  PAW_PBE N 08Apr2002                   :
  PAW_PBE O 08Apr2002                   :
  PAW_PBE Mg_pv 13Apr2007               :
  PAW_PBE O 08Apr2002                   :

 POSCAR:  N  O Mg  O
  positions in direct lattice
  velocities in cartesian coordinates
 exchange correlation table for  LEXCH =       12
   RHO(1)=    0.500       N(1)  =     2000
   RHO(2)=  100.500       N(2)  =     4000

 ion  position               nearest neighbor table
   1  0.549  0.549  0.756-   3 1.16
   2  0.705  0.705  0.755-   4 1.16
   3  0.523  0.523  0.809-   1 1.16
   4  0.734  0.734  0.808-   2 1.16
   5  0.250  0.000  0.352-  39 2.10  40 2.10  47 2.10  56 2.10  37 2.10
   6  0.500  0.250  0.352-  39 2.10  40 2.10  48 2.10  55 2.10  38 2.10
   7  0.250  0.250  0.451-  37 2.10  38 2.10  45 2.10  54 2.10  39 2.10  43 2.10
   8  0.500  0.000  0.451-  37 2.10  38 2.10  46 2.10  53 2.10  40 2.10  44 2.10
   9  0.250  0.000  0.550-  44 2.10  51 2.10  60 2.10  43 2.10  37 2.11  41 2.13
  10  0.500  0.250  0.550-  52 2.10  59 2.10  43 2.10  44 2.11  38 2.11  42 2.12
  11  0.250  0.250  0.648-  43 2.09  41 2.10  58 2.10  42 2.10  49 2.10
  12  0.500  0.001  0.647-  42 2.08  44 2.09  50 2.10  41 2.10  57 2.11
  13  0.250  0.500  0.352-  39 2.10  47 2.10  48 2.10  64 2.10  45 2.10
  14  0.500  0.750  0.352-  40 2.10  47 2.10  48 2.10  63 2.10  46 2.10
  15  0.250  0.750  0.451-  37 2.10  45 2.10  46 2.10  62 2.10  47 2.10  51 2.10
  16  0.500  0.500  0.451-  38 2.10  45 2.10  46 2.10  61 2.10  48 2.10  52 2.12
  17  0.250  0.500  0.550-  52 2.10  51 2.10  43 2.10  68 2.11  45 2.11  49 2.12
  18  0.500  0.750  0.550-  52 2.10  67 2.10  51 2.10  44 2.10  46 2.11  50 2.14
  19  0.249  0.751  0.647-  66 2.08  51 2.09  50 2.10  41 2.10  49 2.11
  20  0.498  0.498  0.650-  42 2.09  49 2.09  52 2.12  65 2.13  50 2.13
  21  0.750  0.000  0.352-  40 2.10  55 2.10  56 2.10  63 2.10  53 2.10
  22  0.000  0.250  0.352-  39 2.10  55 2.10  56 2.10  64 2.10  54 2.10
  23  0.750  0.250  0.451-  38 2.10  53 2.10  54 2.10  61 2.10  55 2.10  59 2.10
  24  0.000  0.000  0.451-  37 2.10  53 2.10  54 2.10  62 2.10  56 2.10  60 2.10
  25  0.750  1.000  0.550-  67 2.10  44 2.10  60 2.10  59 2.11  53 2.11  57 2.12
  26  0.000  0.250  0.550-  68 2.10  59 2.10  60 2.10  43 2.10  54 2.11  58 2.13
  27  0.751  0.249  0.647-  57 2.08  59 2.09  65 2.10  58 2.10  42 2.11
  28  0.001  0.001  0.648-  60 2.09  41 2.10  58 2.10  57 2.10  66 2.10
  29  0.750  0.500  0.352-  48 2.10  55 2.10  63 2.10  64 2.10  61 2.10
  30  0.000  0.750  0.352-  47 2.10  56 2.10  63 2.10  64 2.10  62 2.10
  31  0.750  0.750  0.451-  46 2.10  53 2.10  61 2.10  62 2.10  63 2.10  67 2.12
  32  0.000  0.500  0.451-  45 2.10  54 2.10  61 2.10  62 2.10  64 2.10  68 2.10
  33  0.750  0.500  0.550-  52 2.10  67 2.10  59 2.10  68 2.10  61 2.11  65 2.14
  34  1.000  0.750  0.550-  67 2.10  68 2.10  60 2.10  51 2.11  62 2.11  66 2.12
  35  0.752  0.752  0.649-  57 2.09  66 2.09  67 2.12  65 2.13  50 2.13
  36  0.001  0.500  0.647-  49 2.08  68 2.09  65 2.10  58 2.10  66 2.11
  37  0.250  0.000  0.451-   7 2.10   8 2.10  15 2.10  24 2.10   5 2.10   9 2.11
  38  0.500  0.250  0.451-   7 2.10   8 2.10  16 2.10  23 2.10   6 2.10  10 2.11
  39  0.250  0.250  0.352-   5 2.10   6 2.10  13 2.10  22 2.10   7 2.10
  40  0.500  0.000  0.352-   5 2.10   6 2.10  14 2.10  21 2.10   8 2.10
  41  0.250  0.000  0.650-  28 2.10  11 2.10  12 2.10  19 2.10   9 2.13
  42  0.500  0.249  0.650-  12 2.08  20 2.09  11 2.10  27 2.11  10 2.12
  43  0.250  0.250  0.549-  11 2.09  10 2.10  17 2.10   9 2.10  26 2.10   7 2.10
  44  0.500  1.000  0.549-  12 2.09   9 2.10  25 2.10  18 2.10   8 2.10  10 2.11
  45  0.250  0.500  0.451-   7 2.10  15 2.10  16 2.10  32 2.10  13 2.10  17 2.11
  46  0.500  0.750  0.451-   8 2.10  15 2.10  16 2.10  31 2.10  14 2.10  18 2.11
  47  0.250  0.750  0.352-   5 2.10  13 2.10  14 2.10  30 2.10  15 2.10
  48  0.500  0.500  0.352-   6 2.10  13 2.10  14 2.10  29 2.10  16 2.10
  49  0.249  0.500  0.650-  36 2.08  20 2.09  11 2.10  19 2.11  17 2.12
  50  0.499  0.752  0.650-  12 2.10  19 2.10  20 2.13  35 2.13  18 2.14
  51  0.250  0.750  0.549-  19 2.09  17 2.10   9 2.10  18 2.10  15 2.10  34 2.11
  52  0.500  0.500  0.550-  18 2.10  33 2.10  17 2.10  10 2.10  16 2.12  20 2.12
  53  0.750  0.000  0.451-   8 2.10  23 2.10  24 2.10  31 2.10  21 2.10  25 2.11
  54  0.000  0.250  0.451-   7 2.10  23 2.10  24 2.10  32 2.10  22 2.10  26 2.11
  55  0.750  0.250  0.352-   6 2.10  21 2.10  22 2.10  29 2.10  23 2.10
  56  0.000  0.000  0.352-   5 2.10  21 2.10  22 2.10  30 2.10  24 2.10
  57  0.750  0.001  0.649-  27 2.08  35 2.09  28 2.10  12 2.11  25 2.12
  58  0.000  0.250  0.650-  28 2.10  11 2.10  36 2.10  27 2.10  26 2.13
  59  0.750  0.250  0.549-  27 2.09  10 2.10  26 2.10  33 2.10  23 2.10  25 2.11
  60  0.000  0.000  0.549-  28 2.09   9 2.10  26 2.10  34 2.10  25 2.10  24 2.10
  61  0.750  0.500  0.451-  16 2.10  23 2.10  31 2.10  32 2.10  29 2.10  33 2.11
  62  0.000  0.750  0.451-  15 2.10  24 2.10  31 2.10  32 2.10  30 2.10  34 2.11
  63  0.750  0.750  0.352-  14 2.10  21 2.10  29 2.10  30 2.10  31 2.10
  64  0.000  0.500  0.352-  13 2.10  22 2.10  29 2.10  30 2.10  32 2.10
  65  0.752  0.499  0.650-  36 2.10  27 2.10  20 2.13  35 2.13  33 2.14
  66  0.001  0.750  0.649-  19 2.08  35 2.09  28 2.10  36 2.11  34 2.12
  67  0.750  0.750  0.550-  33 2.10  18 2.10  25 2.10  34 2.10  31 2.12  35 2.12
  68  1.000  0.500  0.549-  36 2.09  26 2.10  34 2.10  33 2.10  32 2.10  17 2.11

IMPORTANT INFORMATION: All symmetrisations will be switched off!
NOSYMM: (Re-)initialisation of all symmetry stuff for point group C_1.

                                     Primitive cell

  volume of cell :    1504.9259

  direct lattice vectors                    reciprocal lattice vectors
     8.404861995  0.000000000  0.000000000     0.118978753  0.000000000  0.000000000
     0.000000000  8.404861995  0.000000000     0.000000000  0.118978753  0.000000000
     0.000000000  0.000000000 21.303646496     0.000000000  0.000000000  0.046940321

  length of vectors
     8.404861995  8.404861995 21.303646496     0.118978753  0.118978753  0.046940321

  position of ions in fractional coordinates (direct lattice)
     0.549279515  0.549279616  0.756452667
     0.705229672  0.705229969  0.755484167
     0.523178278  0.523179674  0.809106713
     0.733643596  0.733645093  0.807719382
     0.250000000  0.000000000  0.352052406
     0.500000000  0.250000000  0.352052406
     0.250000000  0.250000000  0.450684135
     0.500000000  0.000000000  0.450684135
     0.250125563  0.000087421  0.549665601
     0.500123358  0.250446160  0.549870556
     0.249813153  0.249812985  0.647583229
     0.499766473  0.001248243  0.647360384
     0.250000000  0.500000000  0.352052406
     0.500000000  0.750000000  0.352052406
     0.250000000  0.750000000  0.450684135
     0.500000000  0.500000000  0.450684135
     0.250446184  0.500123317  0.549870566
     0.500441526  0.749713749  0.549937448
     0.249079806  0.750555074  0.647366097
     0.498469148  0.498468911  0.649708017
     0.750000000  0.000000000  0.352052406
     0.000000000  0.250000000  0.352052406
     0.750000000  0.250000000  0.450684135
     0.000000000  0.000000000  0.450684135
     0.750054796  0.999846906  0.549841392
     0.000087400  0.250125531  0.549665516
     0.750554978  0.249079863  0.647366059
     0.000534613  0.000534585  0.647550075
     0.750000000  0.500000000  0.352052406
     0.000000000  0.750000000  0.352052406
     0.750000000  0.750000000  0.450684135
     0.000000000  0.500000000  0.450684135
     0.749713863  0.500441567  0.549937430
     0.999846944  0.750054795  0.549841387
     0.752036644  0.752036523  0.649460716
     0.001248066  0.499766421  0.647360259
     0.250000000  0.000000000  0.450684135
     0.500000000  0.250000000  0.450684135
     0.250000000  0.250000000  0.352052406
     0.500000000  0.000000000  0.352052406
     0.249877389  0.000455405  0.649600188
     0.499935322  0.249237421  0.649519796
     0.250119076  0.250118893  0.549411041
     0.500078806  0.999884822  0.549431650
     0.250000000  0.500000000  0.450684135
     0.500000000  0.750000000  0.450684135
     0.250000000  0.750000000  0.352052406
     0.500000000  0.500000000  0.352052406
     0.249237376  0.499935379  0.649519714
     0.498516733  0.751815691  0.650165929
     0.250343283  0.750082569  0.549426266
     0.500302808  0.500302823  0.550052838
     0.750000000  0.000000000  0.450684135
     0.000000000  0.250000000  0.450684135
     0.750000000  0.250000000  0.352052406
     0.000000000  0.000000000  0.352052406
     0.750374926  0.001194815  0.649422925
     0.000455415  0.249877538  0.649599796
     0.750082428  0.250343310  0.549426182
     0.000097656  0.000097464  0.549386876
     0.750000000  0.500000000  0.450684135
     0.000000000  0.750000000  0.450684135
     0.750000000  0.750000000  0.352052406
     0.000000000  0.500000000  0.352052406
     0.751815844  0.498516727  0.650165876
     0.001194942  0.750374868  0.649422929
     0.749894738  0.749894728  0.550010089
     0.999884937  0.500078971  0.549431572

  ion indices of the primitive-cell ions
   primitive index   ion index
                 1           1
                 2           2
                 3           3
                 4           4
                 5           5
                 6           6
                 7           7
                 8           8
                 9           9
                10          10
                11          11
                12          12
                13          13
                14          14
                15          15
                16          16
                17          17
                18          18
                19          19
                20          20
                21          21
[...]
   6.30410705  8.40357526 11.71362665
   0.00073458  2.10227057 11.70987985
   6.30831101  2.09348188 13.79125768
   0.00449335  0.00449311 13.79517789
   6.30364650  4.20243100  7.50000000
   0.00000000  6.30364650  7.50000000
   6.30364650  6.30364650  9.60121550
   0.00000000  4.20243100  9.60121550
   6.30124155  4.20614230 11.71567261
   8.40357558  6.30410704 11.71362653
   6.32076421  6.32076319 13.83588151
   0.01048983  4.20046780 13.79113412
   2.10121550  0.00000000  9.60121550
   4.20243100  2.10121550  9.60121550
   2.10121550  2.10121550  7.50000000
   4.20243100  0.00000000  7.50000000
   2.10018497  0.00382761 13.83885276
   4.20188739  2.09480613 13.83714013
   2.10221632  2.10221478 11.70445860
   4.20309335  8.40389394 11.70489764
   2.10121550  4.20243100  9.60121550
   4.20243100  6.30364650  9.60121550
   2.10121550  6.30364650  7.50000000
   4.20243100  4.20243100  7.50000000
   2.09480575  4.20188787 13.83713838
   4.18996434  6.31890713 13.85090513
   2.10410074  6.30434048 11.70478295
   4.20497605  4.20497618 11.71813122
   6.30364650  0.00000000  9.60121550
   0.00000000  2.10121550  9.60121550
   6.30364650  2.10121550  7.50000000
   0.00000000  0.00000000  7.50000000
   6.30679770  0.01004226 13.83507642
   0.00382770  2.10018622 13.83884442
   6.30433929  2.10410097 11.70478115
   0.00082078  0.00081917 11.70394379
   6.30364650  4.20243100  9.60121550
   0.00000000  6.30364650  9.60121550
   6.30364650  6.30364650  7.50000000
   0.00000000  4.20243100  7.50000000
   6.31890841  4.18996430 13.85090398
   0.01004332  6.30679721 13.83507651
   6.30276179  6.30276170 11.71722050
   8.40389491  4.20309474 11.70489599

--------------------------------------- Iteration      FINAL  ---------------------------------------

--------------------OUTCAR has been truncated-------------------------

[...]

--------------------OUTCAR has been truncated-------------------------

  Number of pair interactions contributing to vdW energy:  823505
  Edisp (eV):   -5.40142

  FORCE on cell =-STRESS in cart. coord.  units (eV):
  Direction    XX          YY          ZZ          XY          YZ          ZX
  Alpha Z   955.25388   955.25388   955.25388
  Ewald  157607.71749157607.71790************   330.89302     1.88328     1.87677
  Hartree168409.99183168409.99214************   244.42444    -0.64844    -0.65132
  E(xc)   -2085.06650 -2085.06650 -2085.85570     0.75181     0.01382     0.01379
  Local  ************************334672.76013  -592.08280    -0.58868    -0.57965
  n-local -1221.45055 -1221.45056 -1257.62542    -7.20221    -0.03914    -0.03905
  augment   910.59362   910.59362   899.23405     2.28374    -0.02676    -0.02666
  Kinetic  7805.77698  7805.77702  7799.42128    22.13964    -0.72752    -0.72741
  Fock    -2024.75265 -2024.75265 -2025.04867    -1.30404    -0.01892    -0.01888
  vdW        -7.70387    -7.70387    -6.47210     0.05272     0.00290     0.00290
  Total     -29.84750   -29.84750    -2.49482    -0.04367    -0.14946    -0.14950
  in kB     -31.77631   -31.77631    -2.65604    -0.04649    -0.15912    -0.15916

 VOLUME and BASIS-vectors are now :
  energy-cutoff  :      600.00
  volume of cell :     1504.93
      direct lattice vectors                 reciprocal lattice vectors
     8.404861995  0.000000000  0.000000000     0.118978753  0.000000000  0.000000000
     0.000000000  8.404861995  0.000000000     0.000000000  0.118978753  0.000000000
     0.000000000  0.000000000 21.303646496     0.000000000  0.000000000  0.046940321

  length of vectors
     8.404861995  8.404861995 21.303646496     0.118978753  0.118978753  0.046940321

 FORCES acting on ions:
    Electron-Ion                     Ewald-Force                    Non-Local-Force
   0.504E+02 0.504E+02 -.110E+04   -.490E+02 -.490E+02 0.106E+04   -.126E+01 -.126E+01 0.400E+02
   -.457E+02 -.457E+02 -.110E+04   0.435E+02 0.435E+02 0.106E+04   0.197E+01 0.197E+01 0.399E+02
   0.139E+03 0.139E+03 -.161E+04   -.152E+03 -.152E+03 0.167E+04   0.119E+02 0.119E+02 -.540E+02
   -.143E+03 -.143E+03 -.161E+04   0.158E+03 0.158E+03 0.167E+04   -.128E+02 -.128E+02 -.536E+02
   0.173E+00 -.199E+00 0.212E+04   -.173E+00 0.200E+00 -.211E+04   0.129E-03 -.671E-03 -.641E+01
   0.200E+00 0.179E+00 0.212E+04   -.201E+00 -.178E+00 -.211E+04   0.377E-03 -.106E-02 -.641E+01
   0.625E+00 0.625E+00 0.766E+03   -.617E+00 -.617E+00 -.766E+03   -.442E-02 -.441E-02 0.355E+00
   0.744E+00 -.105E+01 0.767E+03   -.741E+00 0.104E+01 -.768E+03   -.127E-02 0.546E-02 0.361E+00
   0.399E+01 -.425E+01 -.587E+03   -.398E+01 0.426E+01 0.587E+03   -.250E-02 -.262E-02 -.173E+00
   0.436E+01 0.618E+01 -.578E+03   -.436E+01 -.608E+01 0.578E+03   0.153E-02 -.935E-01 -.360E+00
   0.208E+02 0.208E+02 -.196E+04   -.209E+02 -.209E+02 0.195E+04   0.124E+00 0.124E+00 0.552E+01
   0.236E+02 -.292E+02 -.193E+04   -.237E+02 0.295E+02 0.193E+04   0.123E+00 -.304E+00 0.555E+01
   0.179E+00 0.200E+00 0.212E+04   -.178E+00 -.201E+00 -.211E+04   -.106E-02 0.377E-03 -.641E+01
   0.205E+00 -.180E+00 0.212E+04   -.204E+00 0.179E+00 -.211E+04   -.882E-03 0.864E-03 -.642E+01
   0.952E+00 -.615E+00 0.767E+03   -.931E+00 0.616E+00 -.768E+03   -.134E-01 -.115E-02 0.360E+00
   0.108E+01 0.108E+01 0.768E+03   -.107E+01 -.107E+01 -.768E+03   -.927E-02 -.927E-02 0.541E+00
   0.618E+01 0.436E+01 -.578E+03   -.608E+01 -.436E+01 0.578E+03   -.935E-01 0.153E-02 -.360E+00
   0.661E+01 -.624E+01 -.568E+03   -.652E+01 0.613E+01 0.568E+03   -.789E-01 0.981E-01 0.376E-01
   0.279E+02 -.225E+02 -.193E+04   -.283E+02 0.226E+02 0.193E+04   0.322E+00 -.119E+00 0.555E+01
   0.424E+02 0.424E+02 -.182E+04   -.431E+02 -.431E+02 0.182E+04   0.607E+00 0.607E+00 0.388E+01
   -.173E+00 -.203E+00 0.212E+04   0.174E+00 0.203E+00 -.211E+04   -.416E-03 0.401E-03 -.641E+01
   -.199E+00 0.173E+00 0.212E+04   0.200E+00 -.173E+00 -.211E+04   -.670E-03 0.130E-03 -.641E+01
   -.615E+00 0.952E+00 0.767E+03   0.616E+00 -.931E+00 -.768E+03   -.114E-02 -.134E-01 0.360E+00
   -.719E+00 -.719E+00 0.766E+03   0.723E+00 0.723E+00 -.766E+03   -.295E-02 -.295E-02 0.347E+00
   -.407E+01 -.653E+01 -.577E+03   0.406E+01 0.645E+01 0.577E+03   0.283E-02 0.729E-01 -.375E+00
   -.425E+01 0.399E+01 -.587E+03   0.426E+01 -.398E+01 0.587E+03   -.262E-02 -.249E-02 -.173E+00
   -.225E+02 0.279E+02 -.193E+04   0.226E+02 -.283E+02 0.193E+04   -.119E+00 0.322E+00 0.555E+01
   -.219E+02 -.219E+02 -.196E+04   0.221E+02 0.221E+02 0.195E+04   -.129E+00 -.129E+00 0.553E+01
   -.180E+00 0.205E+00 0.212E+04   0.178E+00 -.204E+00 -.211E+04   0.863E-03 -.882E-03 -.642E+01
   -.203E+00 -.173E+00 0.212E+04   0.203E+00 0.174E+00 -.211E+04   0.400E-03 -.416E-03 -.641E+01
   -.953E+00 -.953E+00 0.768E+03   0.946E+00 0.946E+00 -.768E+03   0.585E-02 0.585E-02 0.533E+00
   -.105E+01 0.744E+00 0.767E+03   0.104E+01 -.741E+00 -.768E+03   0.546E-02 -.128E-02 0.361E+00
   -.624E+01 0.661E+01 -.568E+03   0.613E+01 -.652E+01 0.568E+03   0.981E-01 -.789E-01 0.375E-01
   -.653E+01 -.407E+01 -.577E+03   0.645E+01 0.406E+01 0.577E+03   0.729E-01 0.282E-02 -.375E+00
   -.408E+02 -.408E+02 -.182E+04   0.415E+02 0.415E+02 0.181E+04   -.630E+00 -.630E+00 0.373E+01
   -.292E+02 0.236E+02 -.193E+04   0.295E+02 -.237E+02 0.193E+04   -.304E+00 0.123E+00 0.555E+01
   0.539E+00 -.607E+00 0.574E+03   -.544E+00 0.602E+00 -.574E+03   0.601E-02 0.632E-02 -.765E-01
   0.632E+00 0.603E+00 0.575E+03   -.636E+00 -.642E+00 -.574E+03   0.595E-02 0.473E-01 -.917E-01
   0.119E+00 0.119E+00 0.159E+04   -.119E+00 -.119E+00 -.160E+04   0.269E-03 0.271E-03 0.312E+01
   0.139E+00 -.166E+00 0.159E+04   -.139E+00 0.165E+00 -.160E+04   0.811E-03 0.775E-03 0.312E+01
   0.110E+02 -.115E+02 -.149E+04   -.109E+02 0.114E+02 0.150E+04   -.792E-01 0.745E-01 -.458E+01
   0.129E+02 0.309E+02 -.146E+04   -.128E+02 -.307E+02 0.147E+04   -.868E-01 -.180E+00 -.459E+01
   0.347E+01 0.347E+01 -.434E+03   -.347E+01 -.347E+01 0.434E+03   -.473E-02 -.474E-02 0.259E+00
   0.379E+01 -.427E+01 -.427E+03   -.378E+01 0.428E+01 0.427E+03   -.929E-02 -.846E-02 0.350E+00
   0.602E+00 0.631E+00 0.575E+03   -.641E+00 -.636E+00 -.574E+03   0.473E-01 0.596E-02 -.917E-01
   0.692E+00 -.602E+00 0.576E+03   -.733E+00 0.633E+00 -.576E+03   0.495E-01 -.384E-01 -.107E+00
   0.146E+00 -.120E+00 0.159E+04   -.145E+00 0.120E+00 -.160E+04   -.938E-03 0.700E-04 0.312E+01
   0.166E+00 0.166E+00 0.159E+04   -.166E+00 -.166E+00 -.160E+04   -.589E-03 -.589E-03 0.312E+01
   0.309E+02 0.129E+02 -.146E+04   -.307E+02 -.128E+02 0.147E+04   -.180E+00 -.868E-01 -.459E+01
   0.406E+02 -.392E+02 -.140E+04   -.402E+02 0.389E+02 0.141E+04   -.306E+00 0.289E+00 -.417E+01
   0.397E+01 -.355E+01 -.427E+03   -.398E+01 0.355E+01 0.427E+03   0.735E-02 0.171E-02 0.346E+00
   0.439E+01 0.439E+01 -.425E+03   -.440E+01 -.440E+01 0.425E+03   0.688E-02 0.689E-02 -.134E+00
   -.529E+00 -.653E+00 0.575E+03   0.525E+00 0.678E+00 -.575E+03   0.467E-02 -.315E-01 -.846E-01
   -.607E+00 0.539E+00 0.574E+03   0.602E+00 -.544E+00 -.574E+03   0.632E-02 0.600E-02 -.765E-01
   -.120E+00 0.146E+00 0.159E+04   0.120E+00 -.145E+00 -.160E+04   0.716E-04 -.939E-03 0.312E+01
   -.139E+00 -.139E+00 0.159E+04   0.139E+00 0.139E+00 -.160E+04   -.505E-03 -.504E-03 0.312E+01
   -.123E+02 -.325E+02 -.146E+04   0.123E+02 0.323E+02 0.147E+04   0.833E-01 0.182E+00 -.460E+01
   -.115E+02 0.110E+02 -.149E+04   0.114E+02 -.109E+02 0.150E+04   0.746E-01 -.792E-01 -.458E+01
   -.355E+01 0.397E+01 -.427E+03   0.355E+01 -.398E+01 0.427E+03   0.170E-02 0.734E-02 0.346E+00
   -.373E+01 -.373E+01 -.434E+03   0.372E+01 0.372E+01 0.433E+03   0.749E-02 0.748E-02 0.256E+00
   -.602E+00 0.692E+00 0.576E+03   0.633E+00 -.733E+00 -.576E+03   -.384E-01 0.495E-01 -.107E+00
   -.653E+00 -.529E+00 0.575E+03   0.678E+00 0.525E+00 -.575E+03   -.315E-01 0.467E-02 -.846E-01
   -.147E+00 -.147E+00 0.159E+04   0.146E+00 0.146E+00 -.160E+04   0.153E-02 0.153E-02 0.312E+01
   -.166E+00 0.139E+00 0.159E+04   0.165E+00 -.139E+00 -.160E+04   0.776E-03 0.810E-03 0.312E+01
   -.392E+02 0.406E+02 -.140E+04   0.389E+02 -.402E+02 0.141E+04   0.289E+00 -.306E+00 -.417E+01
   -.325E+02 -.123E+02 -.146E+04   0.323E+02 0.123E+02 0.147E+04   0.182E+00 0.833E-01 -.460E+01
   -.411E+01 -.411E+01 -.424E+03   0.412E+01 0.412E+01 0.424E+03   -.127E-01 -.127E-01 -.832E-01
   -.427E+01 0.379E+01 -.427E+03   0.428E+01 -.378E+01 0.427E+03   -.846E-02 -.928E-02 0.350E+00
   0.330E+00 0.330E+00 0.562E+02   -.171E-12 0.171E-12 -.568E-11   -.263E+00 -.263E+00 -.467E+02

 POSITION                                       TOTAL-FORCE (eV/Angst)
      4.61650      4.61650     16.11533        -0.003613     -0.003605      0.009087
      5.92703      5.92703     16.09470        -0.002734     -0.002732      0.004367
      4.39693      4.39694     17.23696        -0.004646     -0.004653     -0.004140
      6.16602      6.16603     17.20826        -0.004457     -0.004460      0.009054
      2.10122      0.00000      7.50000        -0.000095      0.000211      0.406362
      4.20243      2.10122      7.50000        -0.000194      0.000241      0.405251
      2.10122      2.10122      9.60122         0.002856      0.002854      0.030662
      4.20243      0.00000      9.60122         0.001438     -0.001692      0.039429
      2.10216      0.00084     11.70957         0.000466     -0.001103      0.001615
      4.20332      2.10539     11.71416         0.000492      0.000620      0.002087
      2.09979      2.09979     13.79559        -0.000552     -0.000540      0.000667
      4.20060      0.01047     13.79081        -0.000055     -0.000500     -0.001638
      2.10122      4.20243      7.50000         0.000240     -0.000193      0.405252
      4.20243      6.30365      7.50000         0.000160     -0.000246      0.405819
      2.10122      6.30365      9.60122         0.005528      0.000030      0.038463
      4.20243      4.20243      9.60122         0.003171      0.003172      0.044348
      2.10539      4.20332     11.71416         0.000619      0.000494      0.002082
      4.20655      6.30081     11.71551         0.000512     -0.000623      0.001337
      2.09350      6.30810     13.79092        -0.000493     -0.000544     -0.001657
      4.18967      4.18967     13.84107         0.000604      0.000604      0.004719
      6.30365      0.00000      7.50000         0.000110     -0.000099      0.404936
      0.00000      2.10122      7.50000         0.000211     -0.000095      0.406362
      6.30365      2.10122      9.60122         0.000028      0.005529      0.038463
      0.00000      0.00000      9.60122         0.000555      0.000552      0.030049
      6.30423      8.40311     11.71346        -0.000607     -0.001584      0.001832
      0.00084      2.10216     11.70957        -0.001103      0.000465      0.001616
      6.30810      2.09350     13.79092        -0.000541     -0.000494     -0.001655
      0.00432      0.00432     13.79484        -0.000804     -0.000797      0.000207
      6.30365      4.20243      7.50000        -0.000246      0.000160      0.405818
      0.00000      6.30365      7.50000        -0.000099      0.000108      0.404937
      6.30365      6.30365      9.60122        -0.001085     -0.001086      0.043403
      0.00000      4.20243      9.60122        -0.001691      0.001440      0.039422
      6.30081      4.20655     11.71551        -0.000630      0.000508      0.001339
      8.40311      6.30423     11.71346        -0.001579     -0.000606      0.001834
      6.32056      6.32055     13.83587        -0.001664     -0.001662      0.006172
      0.01047      4.20060     13.79080        -0.000489     -0.000054     -0.001629
      2.10122      0.00000      9.60122         0.002068      0.001530      0.033487
      4.20243      2.10122      9.60122         0.002177      0.015049      0.053708
      2.10122      2.10122      7.50000         0.000063      0.000064     -0.494982
      4.20243      0.00000      7.50000         0.000242      0.000256     -0.494166
      2.10034      0.00354     13.83905         0.000024     -0.000833     -0.000903
      4.20215      2.09434     13.83738         0.000168      0.000817     -0.000775
      2.10206      2.10206     11.70462         0.000232      0.000236     -0.001714
      4.20300      8.40397     11.70526         0.000334     -0.000275     -0.002122
      2.10122      4.20243      9.60122         0.015051      0.002178      0.053709
      4.20243      6.30365      9.60122         0.015823     -0.012459      0.054704
      2.10122      6.30365      7.50000        -0.000353      0.000009     -0.494272
      4.20243      4.20243      7.50000        -0.000238     -0.000237     -0.494076
      2.09434      4.20215     13.83738         0.000814      0.000165     -0.000755
      4.18968      6.31922     13.85119         0.000706     -0.001225     -0.000358
      2.10398      6.30445     11.70515         0.000019     -0.000588     -0.002024
      4.20497      4.20497     11.71798         0.000243      0.000245     -0.002108
      6.30365      0.00000      9.60122         0.000849     -0.010637      0.052641
      0.00000      2.10122      9.60122         0.001531      0.002067      0.033485
      6.30365      2.10122      7.50000         0.000012     -0.000353     -0.494277
      0.00000      0.00000      7.50000        -0.000186     -0.000184     -0.494669
      6.30658      0.01038     13.83534        -0.000778     -0.001733     -0.000347
      0.00354      2.10034     13.83904        -0.000830      0.000017     -0.000850
      6.30445      2.10398     11.70515        -0.000585      0.000018     -0.002023
      0.00091      0.00091     11.70417        -0.000707     -0.000705     -0.001975
      6.30365      4.20243      9.60122        -0.012459      0.015825      0.054700
      0.00000      6.30365      9.60122        -0.010635      0.000850      0.052639
      6.30365      6.30365      7.50000         0.000513      0.000512     -0.493965
      0.00000      4.20243      7.50000         0.000257      0.000243     -0.494158
      6.31922      4.18968     13.85119        -0.001227      0.000709     -0.000362
      0.01038      6.30658     13.83534        -0.001734     -0.000785     -0.000347
      6.30277      6.30277     11.71716        -0.000731     -0.000731     -0.002000
      8.40398      4.20301     11.70525        -0.000274      0.000333     -0.002116
    total drift:                                0.001954      0.001941     -0.002562

  FREE ENERGIE OF THE ION-ELECTRON SYSTEM (eV)
  free  energy   TOTEN  =      -470.93675619 eV

  energy  without entropy=     -470.93675619  energy(sigma->0) =     -470.93675619

 d Force = 0.4730392E-04[-0.345E-05, 0.981E-04]  d Energy = 0.4821649E-04-0.913E-06
 d Force =-0.9526539E+00[-0.953E+00,-0.952E+00]  d Ewald  =-0.9526522E+00-0.174E-05

 reached required accuracy - stopping structural energy minimisation