 vasp.6.3.0 20Jan22 (build Apr  1 2022 16:44:48) complex
 executed on        HPECrayEX_GCC date 2022.10.26  06:13:04

 INCAR:
   SYSTEM = MgO-rocksalt
   ISMEAR = 0
   SIGMA = 0.05
   EDIFF = 1E-7
   ALGO = ALL
   ISTART = 0
   IBRION = 2
   NSW = 1000
   ISYM = 0
   ISIF = 2
   EDIFFG = -0.01
   DIPOL = 0.5 0.5 0.5
   IDIPOL = 3
   LDIPOL = .TRUE.
   GGA = MK
   LUSE_VDW = .TRUE.
   PARAM1 = 0.1234
   PARAM2 = 0.711357
   ZAB_VDW = -1.8867
   AGGAC = 0.0
   ENCUT = 600
   PREC = Accurate
   LASPH = .TRUE.
   LREAL = .FALSE.
   ISPIN = 1
   NELM = 200
   NELMIN = 8
   NCORE = 8
   KPAR = 1
   LWAVE = .FALSE.
   LCHARG = .FALSE.

 POTCAR:    PAW_PBE C 08Apr2002
 POTCAR:    PAW_PBE O 08Apr2002
 POTCAR:    PAW_PBE Mg_pv 13Apr2007
 POTCAR:    PAW_PBE O 08Apr2002
|               ----> ADVICE to this user running VASP <----                  |
|     You have switched on vdW-DFT.                                           |
|     This routine was written and supplied by Jiri Klimes. We recommend      |
|     that you carefully read and cite the following publications:            |
|       J. Klimes, D.R. Bowler, A. Michelides                                 |
|          J. Phys.: Cond Matt. 22 022201 (2010)                              |
|       J. Klimes, D.R. Bowler, A. Michelides                                 |
|          Phys. Rev. B. 83, 195131 (2011)                                    |
|     and references therein.                                                 |

   TITEL  = PAW_PBE C 08Apr2002
   POMASS =   12.011; ZVAL   =    4.000    mass and valenz
   ENMAX  =  400.000; ENMIN  =  300.000 eV

[...]

   TITEL  = PAW_PBE Mg_pv 13Apr2007
   POMASS =   24.305; ZVAL   =    8.000    mass and valenz
   ENMAX  =  403.929; ENMIN  =  302.947 eV

   TITEL  = PAW_PBE O 08Apr2002
   POMASS =   16.000; ZVAL   =    6.000    mass and valenz
   ENMAX  =  400.000; ENMIN  =  300.000 eV

  PAW_PBE C 08Apr2002                   :
  PAW_PBE O 08Apr2002                   :
  PAW_PBE Mg_pv 13Apr2007               :
  PAW_PBE O 08Apr2002                   :

 POSCAR:  C  O Mg  O
  positions in direct lattice
 exchange correlation table for  LEXCH =       43
   RHO(1)=    0.500       N(1)  =     2000
   RHO(2)=  100.500       N(2)  =     4000

 ion  position               nearest neighbor table
   1  0.625  0.625  0.766-   2 1.17   3 1.17
   2  0.527  0.527  0.766-   1 1.17
   3  0.723  0.723  0.766-   1 1.17
   4  0.250  0.000  0.352-  36 2.11  38 2.11  39 2.11  46 2.11  55 2.11
   5  0.500  0.250  0.352-  37 2.11  38 2.11  39 2.11  47 2.11  54 2.11
   6  0.250  0.250  0.451-  38 2.11  37 2.11  36 2.11  44 2.11  53 2.11  42 2.12
   7  0.500  0.000  0.451-  39 2.11  37 2.11  36 2.11  45 2.11  52 2.11  43 2.12
   8  0.250  0.000  0.550-  42 2.11  43 2.11  50 2.11  59 2.11  36 2.12  40 2.14
   9  0.500  0.250  0.550-  42 2.11  43 2.11  51 2.11  58 2.11  37 2.12  41 2.14
  10  0.250  0.250  0.648-  42 2.10  41 2.11  40 2.11  48 2.11  57 2.11
  11  0.500  0.000  0.648-  43 2.10  41 2.11  40 2.11  49 2.11  56 2.11
  12  0.250  0.500  0.352-  44 2.11  38 2.11  46 2.11  47 2.11  63 2.11
  13  0.500  0.750  0.352-  45 2.11  39 2.11  46 2.11  47 2.11  62 2.11
  14  0.250  0.750  0.451-  46 2.11  44 2.11  45 2.11  36 2.11  61 2.11  50 2.12
  15  0.500  0.500  0.451-  47 2.11  44 2.11  45 2.11  37 2.11  60 2.11  51 2.12
  16  0.250  0.500  0.550-  42 2.11  50 2.11  51 2.11  67 2.11  44 2.12  48 2.14
  17  0.500  0.750  0.550-  43 2.11  50 2.11  51 2.11  66 2.11  45 2.12  49 2.14
  18  0.250  0.750  0.648-  50 2.10  48 2.11  49 2.11  40 2.11  65 2.11
  19  0.500  0.500  0.648-  51 2.10  48 2.11  49 2.11  41 2.11  64 2.11
  20  0.750  0.000  0.352-  52 2.11  39 2.11  54 2.11  55 2.11  62 2.11
  21  0.000  0.250  0.352-  53 2.11  38 2.11  54 2.11  55 2.11  63 2.11
  22  0.750  0.250  0.451-  54 2.11  52 2.11  53 2.11  37 2.11  60 2.11  58 2.12
  23  0.000  0.000  0.451-  55 2.11  52 2.11  53 2.11  36 2.11  61 2.11  59 2.12
  24  0.750  0.000  0.550-  43 2.11  58 2.11  59 2.11  66 2.11  52 2.12  56 2.14
  25  0.000  0.250  0.550-  42 2.11  58 2.11  59 2.11  67 2.11  53 2.12  57 2.14
  26  0.750  0.250  0.648-  58 2.10  56 2.11  57 2.11  41 2.11  64 2.11
  27  0.000  0.000  0.648-  59 2.10  56 2.11  57 2.11  40 2.11  65 2.11
  28  0.750  0.500  0.352-  60 2.11  54 2.11  47 2.11  62 2.11  63 2.11
  29  0.000  0.750  0.352-  61 2.11  55 2.11  46 2.11  62 2.11  63 2.11
  30  0.750  0.750  0.451-  62 2.11  52 2.11  60 2.11  61 2.11  45 2.11  66 2.12
  31  0.000  0.500  0.451-  63 2.11  53 2.11  60 2.11  61 2.11  44 2.11  67 2.12
  32  0.750  0.500  0.550-  51 2.11  58 2.11  66 2.11  67 2.11  60 2.12  64 2.14
  33  0.000  0.750  0.550-  50 2.11  59 2.11  66 2.11  67 2.11  61 2.12  65 2.14
  34  0.750  0.750  0.648-  66 2.10  56 2.11  64 2.11  65 2.11  49 2.11
  35  0.000  0.500  0.648-  67 2.10  57 2.11  64 2.11  65 2.11  48 2.11
  36  0.250  0.000  0.451-   4 2.11   6 2.11   7 2.11  14 2.11  23 2.11   8 2.12
  37  0.500  0.250  0.451-   5 2.11   6 2.11   7 2.11  15 2.11  22 2.11   9 2.12
  38  0.250  0.250  0.352-   6 2.11   5 2.11   4 2.11  12 2.11  21 2.11
  39  0.500  0.000  0.352-   7 2.11   5 2.11   4 2.11  13 2.11  20 2.11
  40  0.250  0.000  0.650-  10 2.11  11 2.11  18 2.11  27 2.11   8 2.14
  41  0.500  0.250  0.650-  10 2.11  11 2.11  19 2.11  26 2.11   9 2.14
  42  0.250  0.250  0.550-  10 2.10   9 2.11   8 2.11  16 2.11  25 2.11   6 2.12
  43  0.500  0.000  0.550-  11 2.10   9 2.11   8 2.11  17 2.11  24 2.11   7 2.12
  44  0.250  0.500  0.451-  12 2.11   6 2.11  14 2.11  15 2.11  31 2.11  16 2.12
  45  0.500  0.750  0.451-  13 2.11   7 2.11  14 2.11  15 2.11  30 2.11  17 2.12
  46  0.250  0.750  0.352-  14 2.11  12 2.11  13 2.11   4 2.11  29 2.11
  47  0.500  0.500  0.352-  15 2.11  12 2.11  13 2.11   5 2.11  28 2.11
  48  0.250  0.500  0.650-  10 2.11  18 2.11  19 2.11  35 2.11  16 2.14
  49  0.500  0.750  0.650-  11 2.11  18 2.11  19 2.11  34 2.11  17 2.14
  50  0.250  0.750  0.550-  18 2.10  16 2.11  17 2.11   8 2.11  33 2.11  14 2.12
  51  0.500  0.500  0.550-  19 2.10  16 2.11  17 2.11   9 2.11  32 2.11  15 2.12
  52  0.750  0.000  0.451-  20 2.11   7 2.11  22 2.11  23 2.11  30 2.11  24 2.12
  53  0.000  0.250  0.451-  21 2.11   6 2.11  22 2.11  23 2.11  31 2.11  25 2.12
  54  0.750  0.250  0.352-  22 2.11  20 2.11  21 2.11   5 2.11  28 2.11
  55  0.000  0.000  0.352-  23 2.11  20 2.11  21 2.11   4 2.11  29 2.11
  56  0.750  0.000  0.650-  11 2.11  26 2.11  27 2.11  34 2.11  24 2.14
  57  0.000  0.250  0.650-  10 2.11  26 2.11  27 2.11  35 2.11  25 2.14
  58  0.750  0.250  0.550-  26 2.10  24 2.11  25 2.11   9 2.11  32 2.11  22 2.12
  59  0.000  0.000  0.550-  27 2.10  24 2.11  25 2.11   8 2.11  33 2.11  23 2.12
  60  0.750  0.500  0.451-  28 2.11  22 2.11  15 2.11  30 2.11  31 2.11  32 2.12
  61  0.000  0.750  0.451-  29 2.11  23 2.11  14 2.11  30 2.11  31 2.11  33 2.12
  62  0.750  0.750  0.352-  30 2.11  20 2.11  28 2.11  29 2.11  13 2.11
  63  0.000  0.500  0.352-  31 2.11  21 2.11  28 2.11  29 2.11  12 2.11
  64  0.750  0.500  0.650-  19 2.11  26 2.11  34 2.11  35 2.11  32 2.14
  65  0.000  0.750  0.650-  18 2.11  27 2.11  34 2.11  35 2.11  33 2.14
  66  0.750  0.750  0.550-  34 2.10  24 2.11  32 2.11  33 2.11  17 2.11  30 2.12
  67  0.000  0.500  0.550-  35 2.10  25 2.11  32 2.11  33 2.11  16 2.11  31 2.12

IMPORTANT INFORMATION: All symmetrisations will be switched off!
NOSYMM: (Re-)initialisation of all symmetry stuff for point group C_1.

                                     Primitive cell

  volume of cell :    1519.6535

  direct lattice vectors                    reciprocal lattice vectors
     8.440582262  0.000000000  0.000000000     0.118475239  0.000000000  0.000000000
     0.000000000  8.440582262  0.000000000     0.000000000  0.118475239  0.000000000
     0.000000000  0.000000000 21.330436697     0.000000000  0.000000000  0.046881366

  length of vectors
     8.440582262  8.440582262 21.330436697     0.118475239  0.118475239  0.046881366

  position of ions in fractional coordinates (direct lattice)
     0.625000000  0.625000000  0.765551773
     0.526571061  0.526571007  0.765551760
     0.723429895  0.723429934  0.765551786
     0.250000000  0.000000000  0.351610242
     0.500000000  0.250000000  0.351610242
     0.250000000  0.250000000  0.450536747
     0.500000000  0.000000000  0.450536747
     0.250000000  0.000000000  0.549966382
     0.500000000  0.250000000  0.549966382
     0.250000000  0.250000000  0.648348359
     0.500000000  0.000000000  0.648348359
     0.250000000  0.500000000  0.351610242
     0.500000000  0.750000000  0.351610242
     0.250000000  0.750000000  0.450536747
     0.500000000  0.500000000  0.450536747
     0.250000000  0.500000000  0.549966382
     0.500000000  0.750000000  0.549966382
     0.250000000  0.750000000  0.648348359
     0.500000000  0.500000000  0.648348359
     0.750000000  0.000000000  0.351610242
     0.000000000  0.250000000  0.351610242
     0.750000000  0.250000000  0.450536747
     0.000000000  0.000000000  0.450536747
     0.750000000  0.000000000  0.549966382
     0.000000000  0.250000000  0.549966382
     0.750000000  0.250000000  0.648348359
     0.000000000  0.000000000  0.648348359
     0.750000000  0.500000000  0.351610242
     0.000000000  0.750000000  0.351610242
     0.750000000  0.750000000  0.450536747
     0.000000000  0.500000000  0.450536747
     0.750000000  0.500000000  0.549966382
     0.000000000  0.750000000  0.549966382
     0.750000000  0.750000000  0.648348359
     0.000000000  0.500000000  0.648348359
     0.250000000  0.000000000  0.450536747
     0.500000000  0.250000000  0.450536747
     0.250000000  0.250000000  0.351610242
     0.500000000  0.000000000  0.351610242
     0.250000000  0.000000000  0.650177506
     0.500000000  0.250000000  0.650177506
     0.250000000  0.250000000  0.549707339
     0.500000000  0.000000000  0.549707339
     0.250000000  0.500000000  0.450536747
     0.500000000  0.750000000  0.450536747
     0.250000000  0.750000000  0.351610242
     0.500000000  0.500000000  0.351610242
     0.250000000  0.500000000  0.650177506
     0.500000000  0.750000000  0.650177506
     0.250000000  0.750000000  0.549707339
     0.500000000  0.500000000  0.549707339
     0.750000000  0.000000000  0.450536747
     0.000000000  0.250000000  0.450536747
     0.750000000  0.250000000  0.351610242
     0.000000000  0.000000000  0.351610242
     0.750000000  0.000000000  0.650177506
     0.000000000  0.250000000  0.650177506
     0.750000000  0.250000000  0.549707339
     0.000000000  0.000000000  0.549707339
     0.750000000  0.500000000  0.450536747
     0.000000000  0.750000000  0.450536747
     0.750000000  0.750000000  0.351610242
     0.000000000  0.500000000  0.351610242
     0.750000000  0.500000000  0.650177506
     0.000000000  0.750000000  0.650177506
     0.750000000  0.750000000  0.549707339
     0.000000000  0.500000000  0.549707339

  ion indices of the primitive-cell ions
   primitive index   ion index
                 1           1
                 2           2
                 3           3
                 4           4
                 5           5
                 6           6
[...]
   4.22029113  4.22029113  9.61014557
   2.11014557  4.22029113 11.73102311
   4.22029113  6.33043670 11.73102311
   2.11014557  6.33043670 13.82955363
   4.22029113  4.22029113 13.82955363
   6.33043670  0.00000000  7.50000000
   0.00000000  2.11014557  7.50000000
   6.33043670  2.11014557  9.61014557
   0.00000000  0.00000000  9.61014557
   6.33043670  0.00000000 11.73102311
   0.00000000  2.11014557 11.73102311
   6.33043670  2.11014557 13.82955363
   0.00000000  0.00000000 13.82955363
   6.33043670  4.22029113  7.50000000
   0.00000000  6.33043670  7.50000000
   6.33043670  6.33043670  9.61014557
   0.00000000  4.22029113  9.61014557
   6.33043670  4.22029113 11.73102311
   0.00000000  6.33043670 11.73102311
   6.33043670  6.33043670 13.82955363
   0.00000000  4.22029113 13.82955363
   2.11014557  0.00000000  9.61014557
   4.22029113  2.11014557  9.61014557
   2.11014557  2.11014557  7.50000000
   4.22029113  0.00000000  7.50000000
   2.11014557  0.00000000 13.86857013
   4.22029113  2.11014557 13.86857013
   2.11014557  2.11014557 11.72549760
   4.22029113  0.00000000 11.72549760
   2.11014557  4.22029113  9.61014557
   4.22029113  6.33043670  9.61014557
   2.11014557  6.33043670  7.50000000
   4.22029113  4.22029113  7.50000000
   2.11014557  4.22029113 13.86857013
   4.22029113  6.33043670 13.86857013
   2.11014557  6.33043670 11.72549760
   4.22029113  4.22029113 11.72549760
   6.33043670  0.00000000  9.61014557
   0.00000000  2.11014557  9.61014557
   6.33043670  2.11014557  7.50000000
   0.00000000  0.00000000  7.50000000
   6.33043670  0.00000000 13.86857013
   0.00000000  2.11014557 13.86857013
   6.33043670  2.11014557 11.72549760
   0.00000000  0.00000000 11.72549760
   6.33043670  4.22029113  9.61014557
   0.00000000  6.33043670  9.61014557
   6.33043670  6.33043670  7.50000000
   0.00000000  4.22029113  7.50000000
   6.33043670  4.22029113 13.86857013
   0.00000000  6.33043670 13.86857013
   6.33043670  6.33043670 11.72549760
   0.00000000  4.22029113 11.72549760

--------------------------------------- Iteration      FINAL  ---------------------------------------

--------------------OUTCAR has been truncated-------------------------

[...]

--------------------OUTCAR has been truncated-------------------------

  FORCE on cell =-STRESS in cart. coord.  units (eV):
  Direction    XX          YY          ZZ          XY          YZ          ZX
  Alpha Z   927.03078   927.03078   927.03078
  Ewald  158592.45707158592.45594************   386.36025    -0.00197    -0.00197
  Hartree169012.39648169012.39592************   173.34082    -0.00118    -0.00118
  E(xc)   -2530.25418 -2530.25418 -2531.41540     0.99359    -0.00000    -0.00000
  Local  ************************336976.52709  -523.18476     0.00304     0.00304
  n-local -2884.34201 -2884.34200 -2900.36124    -2.89786    -0.00000    -0.00000
  augment  1063.81164  1063.81165  1055.88294    -1.42850     0.00001     0.00001
  Kinetic  7616.98542  7616.98551  7685.44358   -32.81764     0.00012     0.00012
  Fock        0.00000     0.00000     0.00000     0.00000     0.00000     0.00000
  Total     -29.55643   -29.55643    -2.35773     0.36590     0.00001     0.00001
  in kB     -31.16147   -31.16147    -2.48577     0.38577     0.00001     0.00001

 VOLUME and BASIS-vectors are now :
  energy-cutoff  :      600.00
  volume of cell :     1519.65
      direct lattice vectors                 reciprocal lattice vectors
     8.440582262  0.000000000  0.000000000     0.118475239  0.000000000  0.000000000
     0.000000000  8.440582262  0.000000000     0.000000000  0.118475239  0.000000000
     0.000000000  0.000000000 21.330436697     0.000000000  0.000000000  0.046881366

  length of vectors
     8.440582262  8.440582262 21.330436697     0.118475239  0.118475239  0.046881366

 FORCES acting on ions:
    Electron-Ion                     Ewald-Force                    Non-Local-Force
   0.242E-01 0.242E-01 -.104E+04   -.309E-01 -.309E-01 0.104E+04   0.294E-03 0.294E-03 0.354E+00
   0.189E+03 0.189E+03 -.157E+04   -.233E+03 -.233E+03 0.158E+04   0.447E+02 0.447E+02 -.278E+01
   -.189E+03 -.189E+03 -.157E+04   0.233E+03 0.233E+03 0.158E+04   -.447E+02 -.447E+02 -.278E+01
   0.178E+00 -.178E+00 0.210E+04   -.177E+00 0.177E+00 -.209E+04   -.589E-03 0.589E-03 -.680E+01
   0.177E+00 0.202E+00 0.210E+04   -.176E+00 -.202E+00 -.209E+04   -.148E-03 -.618E-03 -.679E+01
   0.861E+00 0.861E+00 0.742E+03   -.882E+00 -.882E+00 -.743E+03   0.152E-01 0.152E-01 0.411E+00
   0.863E+00 -.839E+00 0.744E+03   -.874E+00 0.789E+00 -.744E+03   0.909E-02 0.350E-01 0.420E+00
   0.361E+01 -.361E+01 -.609E+03   -.362E+01 0.362E+01 0.609E+03   0.772E-02 -.774E-02 -.181E+00
   0.360E+01 0.653E+01 -.597E+03   -.360E+01 -.653E+01 0.598E+03   0.388E-02 -.680E-02 -.433E+00
   0.193E+02 0.193E+02 -.197E+04   -.193E+02 -.193E+02 0.197E+04   0.265E-01 0.265E-01 0.601E+01
   0.209E+02 -.251E+02 -.195E+04   -.209E+02 0.254E+02 0.195E+04   0.152E-01 -.277E+00 0.599E+01
   0.202E+00 0.177E+00 0.210E+04   -.202E+00 -.176E+00 -.209E+04   -.618E-03 -.148E-03 -.679E+01
   0.206E+00 -.206E+00 0.210E+04   -.204E+00 0.204E+00 -.209E+04   -.157E-02 0.157E-02 -.681E+01
   0.839E+00 -.863E+00 0.744E+03   -.789E+00 0.874E+00 -.744E+03   -.350E-01 -.909E-02 0.420E+00
   0.853E+00 0.853E+00 0.745E+03   -.826E+00 -.826E+00 -.746E+03   -.209E-01 -.209E-01 0.494E+00
   0.653E+01 0.360E+01 -.597E+03   -.653E+01 -.360E+01 0.598E+03   -.680E-02 0.388E-02 -.433E+00
   0.672E+01 -.672E+01 -.592E+03   -.670E+01 0.670E+01 0.592E+03   -.236E-01 0.236E-01 -.120E-01
   0.251E+02 -.209E+02 -.195E+04   -.254E+02 0.209E+02 0.195E+04   0.277E+00 -.151E-01 0.599E+01
   0.352E+02 0.352E+02 -.185E+04   -.357E+02 -.357E+02 0.185E+04   0.491E+00 0.491E+00 0.578E+01
   -.177E+00 -.202E+00 0.210E+04   0.176E+00 0.202E+00 -.209E+04   0.149E-03 0.617E-03 -.679E+01
   -.178E+00 0.178E+00 0.210E+04   0.177E+00 -.177E+00 -.209E+04   0.589E-03 -.589E-03 -.680E+01
   -.863E+00 0.839E+00 0.744E+03   0.874E+00 -.789E+00 -.744E+03   -.909E-02 -.350E-01 0.420E+00
   -.861E+00 -.861E+00 0.742E+03   0.882E+00 0.882E+00 -.743E+03   -.152E-01 -.152E-01 0.411E+00
   -.360E+01 -.653E+01 -.597E+03   0.360E+01 0.653E+01 0.598E+03   -.386E-02 0.679E-02 -.433E+00
   -.361E+01 0.361E+01 -.609E+03   0.362E+01 -.362E+01 0.609E+03   -.774E-02 0.772E-02 -.181E+00
   -.209E+02 0.251E+02 -.195E+04   0.209E+02 -.254E+02 0.195E+04   -.152E-01 0.277E+00 0.599E+01
   -.193E+02 -.193E+02 -.197E+04   0.193E+02 0.193E+02 0.197E+04   -.265E-01 -.265E-01 0.601E+01
   -.206E+00 0.206E+00 0.210E+04   0.204E+00 -.204E+00 -.209E+04   0.157E-02 -.157E-02 -.681E+01
   -.202E+00 -.177E+00 0.210E+04   0.202E+00 0.176E+00 -.209E+04   0.617E-03 0.149E-03 -.679E+01
   -.853E+00 -.853E+00 0.745E+03   0.826E+00 0.826E+00 -.746E+03   0.209E-01 0.209E-01 0.494E+00
   -.839E+00 0.863E+00 0.744E+03   0.789E+00 -.874E+00 -.744E+03   0.350E-01 0.909E-02 0.420E+00
   -.672E+01 0.672E+01 -.592E+03   0.670E+01 -.670E+01 0.592E+03   0.236E-01 -.236E-01 -.120E-01
   -.653E+01 -.360E+01 -.597E+03   0.653E+01 0.360E+01 0.598E+03   0.678E-02 -.386E-02 -.433E+00
   -.352E+02 -.352E+02 -.185E+04   0.357E+02 0.357E+02 0.185E+04   -.491E+00 -.491E+00 0.578E+01
   -.251E+02 0.209E+02 -.195E+04   0.254E+02 -.209E+02 0.195E+04   -.277E+00 0.152E-01 0.599E+01
   0.567E+00 -.567E+00 0.556E+03   -.572E+00 0.572E+00 -.556E+03   0.589E-02 -.589E-02 -.829E-01
   0.538E+00 0.712E+00 0.557E+03   -.530E+00 -.708E+00 -.557E+03   -.105E-01 -.436E-02 -.517E-01
   0.145E+00 0.145E+00 0.157E+04   -.147E+00 -.147E+00 -.158E+04   0.196E-02 0.196E-02 0.360E+01
   0.145E+00 -.139E+00 0.157E+04   -.146E+00 0.136E+00 -.158E+04   0.253E-02 0.487E-02 0.360E+01
   0.957E+01 -.957E+01 -.150E+04   -.953E+01 0.953E+01 0.151E+04   -.450E-01 0.449E-01 -.492E+01
   0.108E+02 0.293E+02 -.147E+04   -.108E+02 -.294E+02 0.148E+04   -.371E-01 0.555E-01 -.500E+01
   0.369E+01 0.369E+01 -.451E+03   -.369E+01 -.369E+01 0.450E+03   0.212E-02 0.212E-02 0.219E+00
   0.365E+01 -.346E+01 -.445E+03   -.362E+01 0.347E+01 0.445E+03   -.305E-01 -.153E-01 0.307E+00
   0.712E+00 0.538E+00 0.557E+03   -.708E+00 -.530E+00 -.557E+03   -.436E-02 -.105E-01 -.517E-01
   0.771E+00 -.771E+00 0.558E+03   -.794E+00 0.794E+00 -.558E+03   0.314E-01 -.314E-01 -.131E+00
   0.139E+00 -.145E+00 0.157E+04   -.136E+00 0.146E+00 -.158E+04   -.487E-02 -.253E-02 0.360E+01
   0.142E+00 0.142E+00 0.157E+04   -.137E+00 -.137E+00 -.158E+04   -.637E-02 -.637E-02 0.360E+01
   0.293E+02 0.108E+02 -.147E+04   -.294E+02 -.108E+02 0.148E+04   0.555E-01 -.371E-01 -.500E+01
   0.366E+02 -.366E+02 -.143E+04   -.365E+02 0.365E+02 0.143E+04   -.102E+00 0.103E+00 -.453E+01
   0.346E+01 -.365E+01 -.445E+03   -.347E+01 0.362E+01 0.445E+03   0.152E-01 0.306E-01 0.307E+00
   0.365E+01 0.365E+01 -.436E+03   -.367E+01 -.367E+01 0.436E+03   0.190E-01 0.190E-01 0.232E+00
   -.538E+00 -.712E+00 0.557E+03   0.530E+00 0.708E+00 -.557E+03   0.105E-01 0.437E-02 -.517E-01
   -.567E+00 0.567E+00 0.556E+03   0.572E+00 -.572E+00 -.556E+03   -.589E-02 0.589E-02 -.829E-01
   -.145E+00 0.139E+00 0.157E+04   0.146E+00 -.136E+00 -.158E+04   -.253E-02 -.487E-02 0.360E+01
   -.145E+00 -.145E+00 0.157E+04   0.147E+00 0.147E+00 -.158E+04   -.196E-02 -.196E-02 0.360E+01
   -.108E+02 -.293E+02 -.147E+04   0.108E+02 0.294E+02 0.148E+04   0.371E-01 -.556E-01 -.500E+01
   -.957E+01 0.957E+01 -.150E+04   0.953E+01 -.953E+01 0.151E+04   0.449E-01 -.450E-01 -.492E+01
   -.365E+01 0.346E+01 -.445E+03   0.362E+01 -.347E+01 0.445E+03   0.306E-01 0.152E-01 0.307E+00
   -.369E+01 -.369E+01 -.451E+03   0.369E+01 0.369E+01 0.450E+03   -.214E-02 -.214E-02 0.219E+00
   -.771E+00 0.771E+00 0.558E+03   0.794E+00 -.794E+00 -.558E+03   -.314E-01 0.314E-01 -.131E+00
   -.712E+00 -.538E+00 0.557E+03   0.708E+00 0.530E+00 -.557E+03   0.437E-02 0.105E-01 -.517E-01
   -.142E+00 -.142E+00 0.157E+04   0.137E+00 0.137E+00 -.158E+04   0.637E-02 0.637E-02 0.360E+01
   -.139E+00 0.145E+00 0.157E+04   0.136E+00 -.146E+00 -.158E+04   0.487E-02 0.253E-02 0.360E+01
   -.366E+02 0.366E+02 -.143E+04   0.365E+02 -.365E+02 0.143E+04   0.103E+00 -.102E+00 -.453E+01
   -.293E+02 -.108E+02 -.147E+04   0.294E+02 0.108E+02 0.148E+04   -.556E-01 0.371E-01 -.500E+01
   -.365E+01 -.365E+01 -.436E+03   0.367E+01 0.367E+01 0.436E+03   -.190E-01 -.190E-01 0.233E+00
   -.346E+01 0.365E+01 -.445E+03   0.347E+01 -.362E+01 0.445E+03   -.153E-01 -.305E-01 0.307E+00
   0.468E-02 0.468E-02 0.192E+02   0.636E-12 -.639E-13 -.284E-12   -.465E-02 -.465E-02 -.192E+02

 POSITION                                       TOTAL-FORCE (eV/Angst)
      5.27540      5.27540     16.41398        -0.006387     -0.006387      0.001387
      4.44331      4.44331     16.44092         0.004344      0.004344      0.003212
      6.10741      6.10741     16.44091         0.002017      0.002017      0.003461
      2.11015      0.00000      7.50000         0.000203     -0.000203      0.319164
      4.22029      2.11015      7.50000         0.000123      0.000194      0.316076
      2.11015      2.11015      9.61015        -0.005565     -0.005565      0.024510
      4.22029      0.00000      9.61015        -0.002054     -0.014449      0.029294
      2.11101     -0.00086     11.72900        -0.003371      0.003377      0.003063
      4.21915      2.10911     11.72956         0.005241     -0.002639      0.000398
      2.10762      2.10762     13.82817         0.002051      0.002051     -0.003806
      4.22115      0.00288     13.82557         0.001582     -0.000608     -0.002013
      2.11015      4.22029      7.50000         0.000194      0.000123      0.316076
      4.22029      6.33044      7.50000         0.000471     -0.000472      0.321141
      2.11015      6.33044      9.61015         0.014451      0.002052      0.029292
      4.22029      4.22029      9.61015         0.006262      0.006263      0.032568
      2.10911      4.21915     11.72956        -0.002639      0.005242      0.000398
      4.22282      6.32791     11.73471        -0.000233      0.000233      0.005359
      2.10726      6.32958     13.82557         0.000637     -0.001614     -0.001986
      4.20205      4.20205     13.83657        -0.001323     -0.001324      0.002872
      6.33044      0.00000      7.50000        -0.000124     -0.000195      0.316076
      0.00000      2.11015      7.50000        -0.000203      0.000203      0.319164
      6.33044      2.11015      9.61015         0.002053      0.014451      0.029291
      0.00000      0.00000      9.61015         0.005566      0.005566      0.024505
      6.33158      0.00103     11.72956        -0.005249      0.002638      0.000379
     -0.00086      2.11101     11.72900         0.003377     -0.003371      0.003063
      6.32958      2.10726     13.82557        -0.001614      0.000637     -0.001986
      0.00253      0.00253     13.82816        -0.002025     -0.002025     -0.003830
      6.33044      4.22029      7.50000        -0.000472      0.000471      0.321141
      0.00000      6.33044      7.50000        -0.000195     -0.000124      0.316076
      6.33044      6.33044      9.61015        -0.006263     -0.006264      0.032565
      0.00000      4.22029      9.61015        -0.014449     -0.002054      0.029294
      6.32791      4.22282     11.73471         0.000234     -0.000233      0.005358
      0.00103      6.33158     11.72956         0.002637     -0.005250      0.000379
      6.34868      6.34868     13.83657         0.001322      0.001321      0.002603
      0.00288      4.22115     13.82557        -0.000607      0.001581     -0.002014
      2.11015      0.00000      9.61015         0.001584     -0.001586      0.041358
      4.22029      2.11015      9.61015        -0.002327     -0.000533      0.054522
      2.11015      2.11015      7.50000         0.000551      0.000551     -0.402476
      4.22029      0.00000      7.50000         0.000723      0.001384     -0.402861
      2.11095     -0.00080     13.86834         0.001357     -0.001377     -0.000296
      4.21825      2.10415     13.85732         0.000836     -0.003669      0.006124
      2.10867      2.10867     11.72363         0.003719      0.003719     -0.006853
      4.22044     -0.00305     11.72405        -0.001264     -0.002955      0.001332
      2.11015      4.22029      9.61015        -0.000533     -0.002328      0.054522
      4.22029      6.33044      9.61015         0.008340     -0.008339      0.054679
      2.11015      6.33044      7.50000        -0.001385     -0.000723     -0.402861
      4.22029      4.22029      7.50000        -0.001844     -0.001844     -0.403480
      2.10415      4.21825     13.85732        -0.003671      0.000835      0.006124
      4.22280      6.32793     13.88583        -0.004650      0.004735      0.002978
      2.11320      6.33028     11.72405         0.002946      0.001272      0.001334
      4.22041      4.22041     11.72850        -0.000177     -0.000178     -0.000483
      6.33044      0.00000      9.61015         0.002329      0.000533      0.054524
      0.00000      2.11015      9.61015        -0.001585      0.001584      0.041358
      6.33044      2.11015      7.50000        -0.000723     -0.001385     -0.402861
      0.00000      0.00000      7.50000        -0.000552     -0.000552     -0.402475
      6.33248      0.00600     13.85732        -0.000825      0.003609      0.006179
     -0.00080      2.11095     13.86834        -0.001376      0.001359     -0.000296
      6.33028      2.11320     11.72405         0.001272      0.002945      0.001335
      0.00148      0.00148     11.72362        -0.003729     -0.003729     -0.006844
      6.33044      4.22029      9.61015        -0.008339      0.008340      0.054679
      0.00000      6.33044      9.61015         0.000533      0.002329      0.054524
      6.33044      6.33044      7.50000         0.001844      0.001844     -0.403479
      0.00000      4.22029      7.50000         0.001384      0.000723     -0.402861
      6.32793      4.22280     13.88583         0.004735     -0.004650      0.002978
      0.00600      6.33248     13.85732         0.003609     -0.000825      0.006180
      6.33032      6.33032     11.72849         0.000185      0.000186     -0.000466
     -0.00305      4.22044     11.72405        -0.002955     -0.001264      0.001333
    total drift:                                0.000025      0.000026     -0.008798

  FREE ENERGIE OF THE ION-ELECTRON SYSTEM (eV)
  free  energy   TOTEN  =      -284.01447899 eV

  energy  without entropy=     -284.01447899  energy(sigma->0) =     -284.01447899

 d Force = 0.4352551E-05[-0.359E-06, 0.906E-05]  d Energy = 0.3076253E-05 0.128E-05
 d Force =-0.4332104E+01[-0.433E+01,-0.433E+01]  d Ewald  =-0.4332106E+01 0.164E-05

 reached required accuracy - stopping structural energy minimisation