 vasp.6.4.1 05Apr23 (build Sep 19 2024 10:44:22) complex

 executed on             LinuxIFC date 2024.10.18  08:08:08

 INCAR:
   SYSTEM = TiO2
   ISMEAR = 0
   SIGMA = 0.05
   EDIFF = 1E-7
   ALGO = ALL
   ISTART = 0
   IBRION = 2
   NSW = 1000
   ISYM = 0
   ISIF = 2
   EDIFFG = -0.01
   DIPOL = 0.5 0.5 0.5
   IDIPOL = 3
   LDIPOL = .TRUE.
   GGA = MK
   LUSE_VDW = .TRUE.
   PARAM1 = 0.1234
   PARAM2 = 0.711357
   ZAB_VDW = -1.8867
   AGGAC = 0.0
   ENCUT = 600
   PREC = Accurate
   LASPH = .TRUE.
   LREAL = .FALSE.
   ISPIN = 1
   NELM = 200
   NELMIN = 8
   NCORE = 8
   KPAR = 1
   LWAVE = .FALSE.
   LCHARG = .FALSE.

 POTCAR:    PAW_PBE C 08Apr2002
 POTCAR:    PAW_PBE O 08Apr2002
 POTCAR:    PAW_PBE Ti_pv 07Sep2000
 POTCAR:    PAW_PBE O 08Apr2002
|           W    W    AA    RRRRR   N    N  II  N    N   GGGG   !!!           |
|           W    W   A  A   R    R  NN   N  II  NN   N  G    G  !!!           |
|           W    W  A    A  R    R  N N  N  II  N N  N  G       !!!           |
|           W WW W  AAAAAA  RRRRR   N  N N  II  N  N N  G  GGG   !            |
|           WW  WW  A    A  R   R   N   NN  II  N   NN  G    G                |
|           W    W  A    A  R    R  N    N  II  N    N   GGGG   !!!           |
|     For optimal performance we recommend to set                             |
|       NCORE = 2 up to number-of-cores-per-socket                            |
|     This setting can greatly improve the performance of VASP for DFT.       |
|     The default, NCORE=1 might be grossly inefficient on modern             |
|     multi-core architectures or massively parallel machines. Do your        |
|     Unfortunately you need to use the default for GW and RPA                |
|     calculations (for HF NCORE is supported but not extensively tested      |
|     yet).                                                                   |

   TITEL  = PAW_PBE C 08Apr2002
   POMASS =   12.011; ZVAL   =    4.000    mass and valenz
   ENMAX  =  400.000; ENMIN  =  300.000 eV

[...]

   TITEL  = PAW_PBE Ti_pv 07Sep2000
   POMASS =   47.880; ZVAL   =   10.000    mass and valenz
   ENMAX  =  222.335; ENMIN  =  166.751 eV

   TITEL  = PAW_PBE O 08Apr2002
   POMASS =   16.000; ZVAL   =    6.000    mass and valenz
   ENMAX  =  400.000; ENMIN  =  300.000 eV

  PAW_PBE C 08Apr2002                   :
  PAW_PBE O 08Apr2002                   :
  PAW_PBE Ti_pv 07Sep2000               :
  PAW_PBE O 08Apr2002                   :

 POSCAR:  C  O Ti  O
  positions in direct lattice
 exchange correlation table for  LEXCH =       43
   RHO(1)=    0.500       N(1)  =     2000
   RHO(2)=  100.500       N(2)  =     4000

 ion  position               nearest neighbor table
   1  0.422  0.500  0.817-   2 1.17   3 1.19
   2  0.361  0.500  0.845-   1 1.17
   3  0.487  0.500  0.790-   1 1.19  83 2.50
   4  0.750  0.625  0.287-  84 1.96  85 1.96 144 1.96 145 1.96  87 1.99 166 1.99  14 2.96  34 2.96

   5  0.000  0.750  0.287-  86 1.96  87 1.96 106 1.96 107 1.96  88 1.99  35 2.96  15 2.96
   6  0.000  0.625  0.393-  88 1.96  89 1.96 148 1.96 149 1.96  90 1.99  91 1.99  16 2.96  36 2.96

[...]

  84  0.750  0.750  0.245-   4 1.96  14 1.96
  85  0.750  0.750  0.328-   4 1.96  14 1.96   7 1.99
  86  0.098  0.625  0.287-   5 1.96  35 1.96  44 1.99
  87  0.902  0.625  0.287-   5 1.96  35 1.96   4 1.99
  88  0.000  0.750  0.352-   6 1.96  16 1.96   5 1.99
  89  0.000  0.750  0.435-   6 1.96  16 1.96   9 1.99
  90  0.848  0.625  0.393-   7 1.96  37 1.96   6 1.99
  91  0.152  0.625  0.393-  47 1.96  77 1.96   6 1.99
  92  0.750  0.750  0.458-   8 1.96  18 1.96   7 1.99
  93  0.750  0.750  0.542-   8 1.96  18 1.96  11 2.11
  94  0.098  0.625  0.500-   9 1.96  39 1.96  48 1.99
  95  0.902  0.625  0.500-   9 1.96  39 1.96   8 1.99
  96  0.000  0.750  0.565-  10 1.90  20 1.90   9 2.00
  97  0.000  0.750  0.649-  13 1.82  10 2.02  20 2.02
  98  0.850  0.625  0.607-  10 1.96  41 1.98  11 1.98
  99  0.150  0.625  0.607-  10 1.96  81 1.98  51 1.98
 100  0.750  0.750  0.672-  11 1.87  12 2.10  22 2.10
 101  0.750  0.750  0.756-  22 1.83  12 1.83
 102  0.094  0.625  0.719-  13 1.95  43 1.95  52 2.04
 103  0.906  0.625  0.719-  43 1.95  13 1.95  12 2.04
 104  0.750  0.000  0.245-  14 1.96  24 1.96
 105  0.750  0.000  0.328-  14 1.96  24 1.96  17 1.99
 106  0.098  0.875  0.287-   5 1.96  15 1.96  54 1.99
 107  0.902  0.875  0.287-   5 1.96  15 1.96  14 1.99
 108  0.000  0.000  0.352-  16 1.96  26 1.96  15 1.99
 109  0.000  0.000  0.435-  16 1.96  26 1.96  19 1.99
 110  0.848  0.875  0.393-   7 1.96  17 1.96  16 1.99
 111  0.152  0.875  0.393-  47 1.96  57 1.96  16 1.99
 112  0.750  0.000  0.458-  18 1.96  28 1.96  17 1.99
 113  0.750  0.000  0.542-  18 1.96  28 1.96  21 2.11
 114  0.098  0.875  0.500-   9 1.96  19 1.96  58 1.99
 115  0.902  0.875  0.500-   9 1.96  19 1.96  18 1.99
 116  0.000  0.000  0.565-  20 1.90  30 1.90  19 2.00
 117  1.000  0.000  0.649-  23 1.82  30 2.02  20 2.02
 118  0.850  0.875  0.607-  20 1.96  11 1.98  21 1.98
 119  0.150  0.875  0.607-  20 1.96  61 1.98  51 1.98
 120  0.750  0.000  0.672-  21 1.87  32 2.10  22 2.10
 121  0.750  1.000  0.756-  22 1.83  32 1.83
 122  0.094  0.875  0.719-  23 1.95  13 1.95  62 2.04
 123  0.906  0.875  0.719-  23 1.95  13 1.95  22 2.04
 124  0.750  0.250  0.245-  24 1.96  34 1.96
 125  0.750  0.250  0.328-  24 1.96  34 1.96  27 1.99
 126  0.098  0.125  0.287-  15 1.96  25 1.96  64 1.99
 127  0.902  0.125  0.287-  15 1.96  25 1.96  24 1.99
 128  0.000  0.250  0.352-  26 1.96  36 1.96  25 1.99
 129  0.000  0.250  0.435-  26 1.96  36 1.96  29 1.99
 130  0.848  0.125  0.393-  17 1.96  27 1.96  26 1.99
 131  0.152  0.125  0.393-  57 1.96  67 1.96  26 1.99
 132  0.750  0.250  0.458-  28 1.96  38 1.96  27 1.99
 133  0.750  0.250  0.542-  28 1.96  38 1.96  31 2.11
 134  0.098  0.125  0.500-  19 1.96  29 1.96  68 1.99
 135  0.902  0.125  0.500-  19 1.96  29 1.96  28 1.99
 136  0.000  0.250  0.565-  40 1.90  30 1.90  29 2.00
 137  0.000  0.250  0.649-  33 1.82  30 2.02  40 2.02
 138  0.850  0.125  0.607-  30 1.96  31 1.98  21 1.98
 139  0.150  0.125  0.607-  30 1.96  61 1.98  71 1.98
 140  0.750  0.250  0.672-  31 1.87  32 2.10  42 2.10
 141  0.750  0.250  0.756-  42 1.83  32 1.83
 142  0.094  0.125  0.719-  33 1.95  23 1.95  72 2.04
 143  0.906  0.125  0.719-  33 1.95  23 1.95  32 2.04
[...]
 229  0.500  0.500  0.435-  46 1.96  76 1.96  79 1.99
 230  0.348  0.375  0.393-  67 1.96  77 1.96  76 1.99
 231  0.652  0.375  0.393-  27 1.96  37 1.96  76 1.99
 232  0.250  0.500  0.458-  48 1.96  78 1.96  77 1.99
 233  0.250  0.500  0.542-  48 1.96  78 1.96  81 2.11
 234  0.598  0.375  0.500-  69 1.96  79 1.96  38 1.99
 235  0.402  0.375  0.500-  69 1.96  79 1.96  78 1.99
 236  0.500  0.500  0.565-  50 1.90  80 1.90  79 2.00
 237  0.500  0.500  0.649-  83 1.82  50 2.02  80 2.02
 238  0.350  0.375  0.607-  80 1.96  71 1.98  81 1.98
 239  0.650  0.375  0.607-  80 1.96  31 1.98  41 1.98
 240  0.250  0.500  0.672-  81 1.87  82 2.10  52 2.10
 241  0.250  0.500  0.756-  82 1.83  52 1.83
 242  0.594  0.375  0.719-  73 1.95  83 1.95  42 2.04
 243  0.406  0.375  0.719-  73 1.95  83 1.95  82 2.04

IMPORTANT INFORMATION: All symmetrisations will be switched off!
NOSYMM: (Re-)initialisation of all symmetry stuff for point group C_1.

                                     Primitive cell

  volume of cell :    4737.1735

  direct lattice vectors                    reciprocal lattice vectors
    13.061198858  0.000000000  0.000000000     0.076562650  0.000000000  0.000000000
     0.000000000 11.845266045  0.000000000     0.000000000  0.084421911  0.000000000
     0.000000000  0.000000000 30.619030317     0.000000000  0.000000000  0.032659427

  length of vectors
    13.061198858 11.845266045 30.619030317     0.076562650  0.084421911  0.032659427

  position of ions in fractional coordinates (direct lattice)
     0.422148356  0.500000021  0.817040119
     0.361456901  0.500000015  0.845162054
     0.486900911  0.500000018  0.789915812
     0.750000000  0.625000000  0.286714362
     0.000000000  0.750000000  0.286714362
     0.000000000  0.625000000  0.393357181
     0.750000000  0.750000000  0.393357181
     0.750000000  0.625000000  0.500000000
     0.000000000  0.750000000  0.500000000
     0.000000038  0.625000012  0.604439268
     0.750000022  0.749999988  0.610750177
     0.749999940  0.625000009  0.720421785
     0.000000012  0.749999988  0.708497273
     0.750000000  0.875000000  0.286714362
     0.000000000  0.000000000  0.286714362
     0.000000000  0.875000000  0.393357181
     0.750000000  0.000000000  0.393357181
     0.750000000  0.875000000  0.500000000
     0.000000000  0.000000000  0.500000000
     0.999999981  0.875000008  0.604439275
     0.750000000  0.000000010  0.610750189
     0.749999929  0.875000013  0.720421816
     0.999999966  0.999999970  0.708497268
     0.750000000  0.125000000  0.286714362
     0.000000000  0.250000000  0.286714362
     0.000000000  0.125000000  0.393357181
     0.750000000  0.250000000  0.393357181
     0.750000000  0.125000000  0.500000000
     0.000000000  0.250000000  0.500000000
     0.999999998  0.125000010  0.604439287
     0.750000012  0.249999994  0.610750204
     0.749999969  0.124999992  0.720421820
     0.999999985  0.249999987  0.708497291
     0.750000000  0.375000000  0.286714362
     0.000000000  0.500000000  0.286714362
     0.000000000  0.375000000  0.393357181
     0.750000000  0.500000000  0.393357181
     0.750000000  0.375000000  0.500000000
     0.000000000  0.500000000  0.500000000
     0.999999980  0.374999975  0.604439276
     0.750000027  0.500000018  0.610750194
     0.750000010  0.374999992  0.720421849
     0.999999973  0.500000001  0.708497251
     0.250000000  0.625000000  0.286714362
     0.500000000  0.750000000  0.286714362
     0.500000000  0.625000000  0.393357181
     0.250000000  0.750000000  0.393357181
     0.250000000  0.625000000  0.500000000
     0.500000000  0.750000000  0.500000000
     0.499999996  0.624999984  0.604439241
     0.249999994  0.750000011  0.610750197
     0.250000015  0.625000016  0.720421825
     0.500000055  0.750000054  0.708497233
     0.250000000  0.875000000  0.286714362
     0.500000000  0.000000000  0.286714362
     0.500000000  0.875000000  0.393357181
     0.250000000  0.000000000  0.393357181
     0.250000000  0.875000000  0.500000000
     0.500000000  0.000000000  0.500000000
     0.500000015  0.875000007  0.604439258
[...]
     0.500000000  0.500000000  0.435125836
     0.347917178  0.375000000  0.393357181
     0.652082822  0.375000000  0.393357181
     0.250000000  0.500000000  0.458231344
     0.250000000  0.500000000  0.541768656
     0.597917178  0.375000000  0.500000000
     0.402082822  0.375000000  0.500000000
     0.499999972  0.499999984  0.565446779
     0.499999995  0.500000009  0.649151821
     0.350086065  0.374999994  0.607256810
     0.649913924  0.374999996  0.607256792
     0.249999963  0.499999993  0.671819536
     0.250000011  0.500000001  0.755695036
     0.593928640  0.375000020  0.718931270
     0.406071379  0.374999999  0.718931263

  ion indices of the primitive-cell ions
   primitive index   ion index
                 1           1
[...]
   4.57254372  4.44197470 18.59361466
   8.48865501  4.44197472 18.59361412
   3.26529923  5.92263294 20.57046276
   3.26529986  5.92263304 23.13864922
   7.75742008  4.44197500 22.01297835
   5.30377904  4.44197476 22.01297814

--------------------------------------- Iteration      FINAL  ---------------------------------------

--------------------OUTCAR has been truncated-------------------------

[...]

--------------------OUTCAR has been truncated-------------------------

  FORCE on cell =-STRESS in cart. coord.  units (eV):
  Direction    XX          YY          ZZ          XY          YZ          ZX
  Alpha Z  4685.01752  4685.01752  4685.01752
  Ewald  962171.60595979545.75512************    -0.00004    -0.00024  -288.90103
  Hartree************************************    -0.00001    -0.00013   -95.10889
  E(xc)   -8675.55990 -8670.96242 -8672.13952    -0.00000     0.00000    -1.00757
  Local  ************************************     0.00005     0.00038   347.40081
  n-local -5522.62897 -5445.73895 -5566.07521     0.00000    -0.00001     2.88223
  augment  5263.41800  5241.11108  5267.41740     0.00000     0.00000     1.48608
  Kinetic 28881.03220 28450.26038 28919.25058     0.00001    -0.00002    33.18456
  Fock        0.00000     0.00000     0.00000     0.00000     0.00000     0.00000
  Total       2.74903   -40.06499   -34.95576     0.00000    -0.00002    -0.06381
  in kB       0.92976   -13.55053   -11.82252     0.00000    -0.00001    -0.02158

 VOLUME and BASIS-vectors are now :
  energy-cutoff  :      600.00
  volume of cell :     4737.17
      direct lattice vectors                 reciprocal lattice vectors
    13.061198858  0.000000000  0.000000000     0.076562650  0.000000000  0.000000000
     0.000000000 11.845266045  0.000000000     0.000000000  0.084421911  0.000000000
     0.000000000  0.000000000 30.619030317     0.000000000  0.000000000  0.032659427

  length of vectors
    13.061198858 11.845266045 30.619030317     0.076562650  0.084421911  0.032659427

 FORCES acting on ions:
    Electron-Ion                     Ewald-Force                    Non-Local-Force
   -.196E+02 0.228E-05 -.148E+04   0.186E+02 -.212E-05 0.148E+04   0.946E+00 -.317E-06 0.103E+00
   0.161E+03 -.419E-04 -.213E+04   -.205E+03 0.520E-04 0.218E+04   0.439E+02 -.100E-04 -.495E+02
   -.197E+03 0.672E-04 -.232E+04   0.241E+03 -.778E-04 0.228E+04   -.435E+02 0.103E-04 0.389E+02
   -.216E+00 -.763E-01 0.376E+04   0.215E+00 0.764E-01 -.377E+04   0.235E-03 0.311E-05 0.356E+00
   0.143E+00 -.113E+00 0.394E+04   -.144E+00 0.113E+00 -.394E+04   0.131E-03 -.690E-05 -.369E+01
   0.222E+00 -.116E+00 0.193E+04   -.226E+00 0.116E+00 -.193E+04   0.570E-03 0.624E-04 -.424E-01
   -.313E+00 -.991E-01 0.192E+04   0.310E+00 0.995E-01 -.192E+04   0.565E-03 -.629E-04 0.199E+00
   -.112E+01 -.366E+00 0.147E+02   0.110E+01 0.360E+00 -.139E+02   0.275E-02 0.372E-03 -.123E+00
   0.883E+00 -.904E+00 0.250E+02   -.894E+00 0.908E+00 -.261E+02   0.258E-02 -.177E-02 0.327E+00
   0.445E+01 -.262E+01 -.184E+04   -.445E+01 0.262E+01 0.184E+04   0.800E-03 -.463E-02 0.536E-01
   -.824E+01 -.580E+01 -.190E+04   0.824E+01 0.580E+01 0.190E+04   -.195E-02 -.116E-02 -.599E-01
   -.500E+02 -.199E+02 -.370E+04   0.500E+02 0.199E+02 0.370E+04   0.176E-01 -.634E-02 -.108E+00
   0.970E+01 -.101E+02 -.374E+04   -.971E+01 0.101E+02 0.374E+04   0.130E-01 0.187E-03 0.919E+00
   -.212E+00 -.762E-01 0.376E+04   0.211E+00 0.762E-01 -.377E+04   0.297E-03 -.777E-06 0.356E+00
   0.136E+00 0.586E-06 0.394E+04   -.137E+00 -.528E-06 -.394E+04   0.123E-03 -.354E-08 -.369E+01
   0.193E+00 -.117E+00 0.193E+04   -.196E+00 0.117E+00 -.193E+04   0.453E-03 0.639E-04 -.424E-01
   -.360E+00 0.277E-05 0.192E+04   0.357E+00 -.263E-05 -.192E+04   0.715E-03 -.259E-07 0.199E+00
   -.167E+01 -.367E+00 0.139E+02   0.166E+01 0.367E+00 -.131E+02   0.175E-02 0.735E-04 -.122E+00
   0.672E+00 0.275E-04 0.240E+02   -.678E+00 -.271E-04 -.250E+02   0.138E-02 -.986E-07 0.327E+00
   0.227E+01 -.258E+01 -.184E+04   -.227E+01 0.259E+01 0.184E+04   -.203E-02 -.418E-02 0.545E-01
   -.653E+01 0.534E-04 -.190E+04   0.652E+01 -.520E-04 0.190E+04   0.849E-02 -.914E-07 -.551E-01
   -.205E+02 -.142E+02 -.372E+04   0.205E+02 0.142E+02 0.372E+04   0.294E-01 0.141E-02 -.112E+00
   0.628E+01 0.351E-04 -.375E+04   -.628E+01 -.352E-04 0.374E+04   0.407E-02 -.246E-06 0.939E+00
   -.212E+00 0.762E-01 0.376E+04   0.211E+00 -.762E-01 -.377E+04   0.297E-03 0.779E-06 0.356E+00
   0.143E+00 0.113E+00 0.394E+04   -.144E+00 -.113E+00 -.394E+04   0.131E-03 0.690E-05 -.369E+01
   0.193E+00 0.117E+00 0.193E+04   -.196E+00 -.117E+00 -.193E+04   0.453E-03 -.639E-04 -.424E-01
   -.313E+00 0.991E-01 0.192E+04   0.310E+00 -.995E-01 -.192E+04   0.565E-03 0.630E-04 0.199E+00
   -.167E+01 0.367E+00 0.139E+02   0.166E+01 -.367E+00 -.131E+02   0.175E-02 -.735E-04 -.122E+00
   0.883E+00 0.904E+00 0.250E+02   -.894E+00 -.908E+00 -.261E+02   0.258E-02 0.177E-02 0.327E+00
   0.227E+01 0.258E+01 -.184E+04   -.227E+01 -.259E+01 0.184E+04   -.203E-02 0.418E-02 0.545E-01
   -.824E+01 0.580E+01 -.190E+04   0.824E+01 -.580E+01 0.190E+04   -.195E-02 0.116E-02 -.599E-01
   -.205E+02 0.142E+02 -.372E+04   0.205E+02 -.142E+02 0.372E+04   0.294E-01 -.141E-02 -.112E+00
   0.970E+01 0.101E+02 -.374E+04   -.971E+01 -.101E+02 0.374E+04   0.130E-01 -.187E-03 0.919E+00
   -.216E+00 0.763E-01 0.376E+04   0.215E+00 -.764E-01 -.377E+04   0.235E-03 -.311E-05 0.356E+00
   0.151E+00 -.577E-06 0.394E+04   -.152E+00 0.525E-06 -.394E+04   0.140E-03 0.373E-08 -.369E+01
   0.222E+00 0.116E+00 0.193E+04   -.226E+00 -.116E+00 -.193E+04   0.570E-03 -.624E-04 -.424E-01
   -.266E+00 -.272E-05 0.192E+04   0.264E+00 0.253E-05 -.192E+04   0.374E-03 -.210E-07 0.199E+00
   -.112E+01 0.366E+00 0.147E+02   0.110E+01 -.360E+00 -.139E+02   0.275E-02 -.372E-03 -.123E+00
   0.107E+01 -.198E-04 0.260E+02   -.108E+01 0.196E-04 -.271E+02   0.351E-02 0.744E-08 0.327E+00
   0.445E+01 0.262E+01 -.184E+04   -.445E+01 -.262E+01 0.184E+04   0.800E-03 0.463E-02 0.536E-01
   -.105E+02 -.140E-04 -.189E+04   0.105E+02 0.123E-04 0.189E+04   0.606E-02 0.152E-06 -.681E-01
   -.500E+02 0.199E+02 -.370E+04   0.500E+02 -.199E+02 0.370E+04   0.176E-01 0.634E-02 -.108E+00
   0.140E+02 -.212E-04 -.373E+04   -.140E+02 0.194E-04 0.373E+04   -.182E-01 -.226E-06 0.900E+00
   0.216E+00 -.879E-01 0.376E+04   -.215E+00 0.882E-01 -.377E+04   -.233E-03 -.271E-04 0.356E+00
   -.144E+00 -.119E+00 0.394E+04   0.144E+00 0.119E+00 -.394E+04   -.134E-03 -.547E-04 -.370E+01
   -.218E+00 -.349E-01 0.193E+04   0.221E+00 0.419E-01 -.193E+04   -.532E-03 -.149E-02 -.427E-01
   0.308E+00 -.144E+00 0.192E+04   -.306E+00 0.145E+00 -.192E+04   -.594E-03 0.408E-04 0.202E+00
   0.951E+00 -.655E+00 0.169E+02   -.937E+00 0.660E+00 -.162E+02   -.223E-02 -.426E-03 -.117E+00
   -.860E+00 -.275E+00 0.278E+02   0.867E+00 0.237E+00 -.287E+02   -.886E-03 0.220E-01 0.300E+00
   -.380E+01 -.679E+01 -.182E+04   0.380E+01 0.685E+01 0.182E+04   -.183E-02 -.548E-01 0.610E-01
   0.730E+01 -.763E+01 -.189E+04   -.731E+01 0.763E+01 0.189E+04   0.651E-02 -.515E-02 -.690E-01
   0.718E+02 -.356E+02 -.365E+04   -.718E+02 0.356E+02 0.365E+04   -.274E-01 0.343E-01 -.473E-01
   -.175E+02 -.646E+02 -.368E+04   0.174E+02 0.647E+02 0.368E+04   0.421E-01 -.307E-01 0.100E+01
   0.212E+00 -.877E-01 0.376E+04   -.211E+00 0.880E-01 -.377E+04   -.294E-03 -.304E-04 0.356E+00
   -.136E+00 0.535E-06 0.394E+04   0.137E+00 -.475E-06 -.394E+04   -.123E-03 -.116E-08 -.370E+01
   -.189E+00 -.366E-01 0.193E+04   0.192E+00 0.398E-01 -.193E+04   -.414E-03 -.104E-02 -.431E-01
   0.356E+00 0.343E-05 0.192E+04   -.353E+00 -.329E-05 -.192E+04   -.677E-03 0.186E-07 0.201E+00
   0.156E+01 -.732E+00 0.153E+02   -.155E+01 0.752E+00 -.145E+02   -.215E-02 -.115E-02 -.120E+00
   -.614E+00 0.184E-04 0.292E+02   0.620E+00 -.187E-04 -.302E+02   -.718E-03 0.114E-06 0.308E+00
   -.170E+01 -.867E+01 -.182E+04   0.170E+01 0.869E+01 0.182E+04   -.259E-02 -.993E-02 -.226E-01
[...]
   -.544E+02 0.444E-01 0.115E+04   0.584E+02 -.453E-01 -.115E+04   -.364E+01 0.141E-02 0.162E+00
   0.542E+02 0.294E-01 0.115E+04   -.583E+02 -.301E-01 -.115E+04   0.363E+01 0.915E-03 0.157E+00
   0.322E+00 -.566E-05 0.512E+03   -.316E+00 0.567E-05 -.516E+03   -.818E-02 -.176E-06 0.426E+01
   0.872E+00 -.278E-04 -.505E+03   -.853E+00 0.293E-04 0.512E+03   -.173E-01 -.174E-05 -.700E+01
   -.570E+02 -.484E-01 0.155E+02   0.617E+02 0.462E-01 -.157E+02   -.520E+01 0.172E-01 0.293E+00
   0.560E+02 0.428E-01 0.161E+02   -.607E+02 -.467E-01 -.163E+02   0.517E+01 0.196E-01 0.300E+00
   -.130E+01 0.180E-04 -.603E+03   0.128E+01 -.263E-04 0.596E+03   0.135E-01 0.100E-04 0.665E+01
   -.787E+01 -.726E-04 -.156E+04   0.804E+01 0.770E-04 0.156E+04   -.172E+00 -.459E-05 0.105E+01
   -.271E+02 0.419E+01 -.110E+04   0.302E+02 -.425E+01 0.110E+04   -.314E+01 0.643E-01 0.798E+00
   0.239E+02 0.296E+01 -.111E+04   -.270E+02 -.301E+01 0.111E+04   0.314E+01 0.474E-01 0.940E+00
   0.240E+02 -.134E-03 -.176E+04   -.243E+02 0.144E-03 0.176E+04   0.290E+00 -.979E-05 -.198E+01
   0.868E+02 0.116E-04 -.262E+04   -.866E+02 -.155E-04 0.264E+04   -.214E+00 0.721E-05 -.197E+02
   -.687E+02 0.357E+02 -.226E+04   0.746E+02 -.354E+02 0.227E+04   -.597E+01 -.262E+00 -.337E+01
   0.451E+02 0.501E+02 -.222E+04   -.512E+02 -.501E+02 0.222E+04   0.609E+01 0.476E-01 -.252E+01
   -.199E+01 -.985E-05 0.988E+02   -.338E-11 -.126E-11 -.146E-10   0.199E+01 0.200E-04 -.988E+02

 POSITION                                       TOTAL-FORCE (eV/Angst)
      5.51410      5.92263     25.01378        -0.004031     -0.000000      0.004063
      4.75026      5.92263     25.89389         0.003779      0.000000      0.003750
      6.33818      5.92263     24.16431         0.002881     -0.000000     -0.008110
      9.79590      7.40329      8.77892        -0.000572      0.000038     -3.479227
      0.00000      8.88395      8.77892        -0.000530      0.000041      2.774696
      0.00000      7.40329     12.04422        -0.002977      0.000073      0.519193
      9.79590      8.88395     12.04422        -0.002031      0.000373     -0.705851
      9.79590      7.40329     15.30952        -0.011420     -0.005434      0.669248
      0.00000      8.88395     15.30952        -0.007623      0.002142     -0.704561
      0.00044      7.40352     18.50784        -0.000019      0.001490     -0.000055
      9.79622      8.88336     18.69929        -0.000423     -0.000573     -0.003340
      9.79243      7.40394     22.05697         0.002820      0.001953     -0.004406
     -0.00018      8.88604     21.69828        -0.000442     -0.000887     -0.002560
      9.79590     10.36461      8.77892        -0.000687      0.000057     -3.479270
      0.00000      0.00000      8.77892        -0.000522      0.000000      2.774679
      0.00000     10.36461     12.04422        -0.002648     -0.000053      0.519295
      9.79590      0.00000     12.04422        -0.002386      0.000000     -0.706316
      9.79590     10.36461     15.30952        -0.006922      0.000199      0.665441
      0.00000      0.00000     15.30952        -0.005459      0.000000     -0.702210
     13.05995     10.36482     18.50928         0.000215      0.001821     -0.000535
      9.79524     -0.00000     18.69934         0.000535      0.000001     -0.002977
      9.79409     10.36534     22.05737        -0.002200      0.002152      0.000396
      0.00320      0.00000     21.69837         0.000852     -0.000000     -0.004203
      9.79590      1.48066      8.77892        -0.000687     -0.000057     -3.479270
      0.00000      2.96132      8.77892        -0.000530     -0.000041      2.774696
      0.00000      1.48066     12.04422        -0.002648      0.000053      0.519295
      9.79590      2.96132     12.04422        -0.002031     -0.000373     -0.705851
      9.79590      1.48066     15.30952        -0.006921     -0.000199      0.665441
      0.00000      2.96132     15.30952        -0.007623     -0.002142     -0.704560
     13.05995      1.48045     18.50928         0.000214     -0.001817     -0.000533
      9.79622      2.96191     18.69929        -0.000421      0.000574     -0.003340
      9.79409      1.47993     22.05737        -0.002200     -0.002146      0.000398
     13.06102      2.95922     21.69828        -0.000446      0.000886     -0.002557
      9.79590      4.44197      8.77892        -0.000572     -0.000039     -3.479227
      0.00000      5.92263      8.77892        -0.000554     -0.000000      2.774714
      0.00000      4.44197     12.04422        -0.002977     -0.000073      0.519193
      9.79590      5.92263     12.04422        -0.001661     -0.000000     -0.705127
      9.79590      4.44197     15.30952        -0.011420      0.005434      0.669248
      0.00000      5.92263     15.30952        -0.009650     -0.000000     -0.706834
      0.00044      4.44174     18.50784        -0.000020     -0.001492     -0.000054
      9.79747      5.92263     18.70108        -0.001252     -0.000002     -0.003713
      9.79243      4.44133     22.05697         0.002826     -0.001949     -0.004398
     -0.00783      5.92263     21.69760        -0.000421     -0.000002     -0.001828
      3.26530      7.40329      8.77892         0.000577      0.000229     -3.480807
      6.53060      8.88395      8.77892         0.000518      0.000282      2.776649
      6.53060      7.40329     12.04422         0.002877      0.005518      0.524383
      3.26530      8.88395     12.04422         0.002056      0.000926     -0.714841
      3.26530      7.40329     15.30952         0.012084      0.003737      0.633723
      6.53060      8.88395     15.30952         0.006524     -0.016399     -0.652198
      6.53098      7.39249     18.52826         0.000678     -0.001970      0.002672
      3.26454      8.88538     18.69428         0.000220     -0.000330      0.000894
      3.25513      7.40788     22.04062        -0.005069      0.006656     -0.000674
      6.53430      8.88581     21.68174        -0.002256      0.005950      0.000779
      3.26530     10.36461      8.77892         0.000685      0.000272     -3.480561
      6.53060      0.00000      8.77892         0.000497      0.000000      2.777008
      6.53060     10.36461     12.04422         0.002601      0.002143      0.527454
      3.26530      0.00000     12.04422         0.002445      0.000000     -0.713564
      3.26530     10.36461     15.30952         0.007650      0.019621      0.649168
      6.53060      0.00000     15.30952         0.004448     -0.000000     -0.739398
      6.53226     10.35983     18.49485        -0.000122     -0.001404      0.000101
[...]
      6.53060      5.92263     13.32313        -0.000998     -0.000000     -0.116966
      4.54422      4.44197     12.04422         0.418285      0.000572      0.050620
      8.51698      4.44197     12.04422        -0.421496      0.000246      0.049443
      3.26530      5.92263     14.03060        -0.002288     -0.000000     -0.087542
      3.26530      5.92263     16.58843         0.001582     -0.000000      0.006685
      7.80952      4.44197     15.30952        -0.459590      0.014968      0.083323
      5.25168      4.44197     15.30952         0.443834      0.015666      0.084355
      6.52998      5.92263     17.32139        -0.000130      0.000002      0.005426
      6.53314      5.92263     19.90298        -0.001042     -0.000000      0.005406
      4.56969      4.44248     18.60006         0.002223     -0.002072      0.000270
      8.49157      4.44293     18.59717        -0.002666     -0.002029     -0.000079
      3.23873      5.92263     20.56411         0.004160     -0.000001      0.002873
      3.31638      5.92263     23.13036         0.002807      0.000003      0.002957
      7.75759      4.43109     22.00008        -0.003027      0.002139      0.000889
      5.29016      4.41826     21.96375         0.003692      0.000866     -0.000176
    total drift:                                0.001831      0.000010     -0.019364

  FREE ENERGIE OF THE ION-ELECTRON SYSTEM (eV)
  free  energy   TOTEN  =     -1759.48424676 eV

  energy  without entropy=    -1759.48424676  energy(sigma->0) =    -1759.48424676

 d Force = 0.8892525E-05[ 0.805E-05, 0.973E-05]  d Energy = 0.8932548E-05-0.400E-07
 d Force =-0.1035314E+01[-0.104E+01,-0.104E+01]  d Ewald  =-0.1035314E+01-0.175E-08

 Conjugate gradient step on ions:
 trial-energy change:   -0.000009  1 .order   -0.000009   -0.000010   -0.000008
  (g-gl).g = 0.460E-04      g.g   = 0.110E-03  gl.gl    = 0.227E-03
 g(Force)  = 0.110E-03   g(Stress)= 0.000E+00 ortho     = 0.785E-05
 gamma     =   0.20251
 trial     =   0.08756
 opt step  =   0.35025  (harmonic =   0.50756) maximal distance =0.00029658
 next E    = -1759.484266   (d E  =  -0.00003)

 reached required accuracy - stopping structural energy minimisation