 vasp.6.3.0 20Jan22 (build Apr  1 2022 16:44:48) complex
 executed on        HPECrayEX_GCC date 2023.02.23  15:21:53

 INCAR:
   SYSTEM = MgO-rocksalt
   ISMEAR = 0
   SIGMA = 0.05
   EDIFF = 1E-6
   ALGO = ALL
   ISTART = 0
   IBRION = -1
   NSW = 0
   ISYM = 0
   DIPOL = 0.5 0.5 0.5
   IDIPOL = 3
   LDIPOL = .TRUE.
   GGA = MK
   LUSE_VDW = .TRUE.
   PARAM1 = 0.1234
   PARAM2 = 0.711357
   ZAB_VDW = -1.8867
   AGGAC = 0.0
   ENCUT = 600
   PREC = Accurate
   LASPH = .TRUE.
   LREAL = .FALSE.
   ISPIN = 1
   NELM = 200
   NELMIN = 8
   NCORE = 8
   KPAR = 1
   LWAVE = .FALSE.
   LCHARG = .FALSE.

 POTCAR:    PAW_PBE N 08Apr2002
 POTCAR:    PAW_PBE H 15Jun2001
 POTCAR:    PAW_PBE Mg_pv 13Apr2007
 POTCAR:    PAW_PBE O 08Apr2002
|               ----> ADVICE to this user running VASP <----                  |
|     You have switched on vdW-DFT.                                           |
|     This routine was written and supplied by Jiri Klimes. We recommend      |
|     that you carefully read and cite the following publications:            |
|       J. Klimes, D.R. Bowler, A. Michelides                                 |
|          J. Phys.: Cond Matt. 22 022201 (2010)                              |
|       J. Klimes, D.R. Bowler, A. Michelides                                 |
|          Phys. Rev. B. 83, 195131 (2011)                                    |
|     and references therein.                                                 |

   TITEL  = PAW_PBE N 08Apr2002
   POMASS =   14.001; ZVAL   =    5.000    mass and valenz
   ENMAX  =  400.000; ENMIN  =  300.000 eV

   TITEL  = PAW_PBE H 15Jun2001
   POMASS =    1.000; ZVAL   =    1.000    mass and valenz
   ENMAX  =  250.000; ENMIN  =  200.000 eV

   TITEL  = PAW_PBE Mg_pv 13Apr2007
   POMASS =   24.305; ZVAL   =    8.000    mass and valenz
   ENMAX  =  403.929; ENMIN  =  302.947 eV

   TITEL  = PAW_PBE O 08Apr2002
   POMASS =   16.000; ZVAL   =    6.000    mass and valenz
   ENMAX  =  400.000; ENMIN  =  300.000 eV

  PAW_PBE N 08Apr2002                   :
  PAW_PBE H 15Jun2001                   :
  PAW_PBE Mg_pv 13Apr2007               :
  PAW_PBE O 08Apr2002                   :

 POSCAR:  N  H Mg  O
  positions in direct lattice
 exchange correlation table for  LEXCH =       43
   RHO(1)=    0.500       N(1)  =     2000
   RHO(2)=  100.500       N(2)  =     4000

 ion  position               nearest neighbor table
   1  0.500  0.502  0.760-   3 1.01   4 1.01   2 1.01
   2  0.500  0.618  0.774-   1 1.01
   3  0.402  0.448  0.778-   1 1.01
   4  0.598  0.448  0.778-   1 1.01
   5  0.250  0.000  0.352-  39 2.10  40 2.10  47 2.10  56 2.10  37 2.10
   6  0.500  0.250  0.352-  39 2.10  40 2.10  48 2.10  55 2.10  38 2.10
   7  0.250  0.250  0.451-  37 2.10  38 2.10  45 2.10  54 2.10  39 2.10  43 2.10
   8  0.500  0.000  0.451-  37 2.10  38 2.10  46 2.10  53 2.10  40 2.10  44 2.10
   9  0.250  1.000  0.549-  44 2.10  51 2.10  43 2.10  60 2.10  37 2.10  41 2.14
  10  0.500  0.251  0.550-  52 2.09  59 2.10  43 2.10  44 2.12  38 2.12  42 2.12
  11  0.250  0.249  0.647-  43 2.07  41 2.10  58 2.10  42 2.10  49 2.10
  12  0.500  1.000  0.647-  42 2.08  44 2.08  50 2.08  57 2.11  41 2.11
  13  0.250  0.500  0.352-  39 2.10  47 2.10  48 2.10  64 2.10  45 2.10
  14  0.500  0.750  0.352-  40 2.10  47 2.10  48 2.10  63 2.10  46 2.10
  15  0.250  0.750  0.451-  37 2.10  45 2.10  46 2.10  62 2.10  47 2.10  51 2.11
  16  0.500  0.500  0.451-  38 2.10  45 2.10  46 2.10  61 2.10  48 2.10  52 2.12
  17  0.252  0.500  0.550-  52 2.09  51 2.10  43 2.10  68 2.11  45 2.12  49 2.13
  18  0.500  0.748  0.550-  52 2.09  67 2.10  51 2.10  44 2.11  46 2.12  50 2.13
  19  0.250  0.750  0.647-  51 2.07  66 2.10  41 2.10  49 2.10  50 2.11
  20  0.500  0.499  0.655-  42 2.12  65 2.13  49 2.13  50 2.13  52 2.23
  21  0.750  0.000  0.352-  40 2.10  55 2.10  56 2.10  63 2.10  53 2.10
  22  0.000  0.250  0.352-  39 2.10  55 2.10  56 2.10  64 2.10  54 2.10
  23  0.750  0.250  0.451-  38 2.10  53 2.10  54 2.10  61 2.10  55 2.10  59 2.10
  24  0.000  0.000  0.451-  37 2.10  53 2.10  54 2.10  62 2.10  56 2.10  60 2.10
  25  0.750  1.000  0.549-  44 2.10  67 2.10  59 2.10  60 2.10  53 2.10  57 2.14
  26  1.000  0.250  0.549-  68 2.10  59 2.10  43 2.10  54 2.10  60 2.10  58 2.14
  27  0.750  0.249  0.647-  59 2.07  57 2.10  58 2.10  42 2.10  65 2.10
  28  1.000  1.000  0.647-  60 2.08  57 2.10  41 2.10  66 2.10  58 2.10
  29  0.750  0.500  0.352-  48 2.10  55 2.10  63 2.10  64 2.10  61 2.10
  30  0.000  0.750  0.352-  47 2.10  56 2.10  63 2.10  64 2.10  62 2.10
  31  0.750  0.750  0.451-  46 2.10  53 2.10  61 2.10  62 2.10  63 2.10  67 2.11
  32  0.000  0.500  0.451-  45 2.10  54 2.10  61 2.10  62 2.10  64 2.10  68 2.10
  33  0.748  0.500  0.550-  52 2.09  67 2.10  59 2.10  68 2.11  61 2.12  65 2.13
  34  1.000  0.750  0.549-  68 2.10  67 2.10  51 2.10  60 2.10  62 2.11  66 2.14
  35  0.750  0.750  0.647-  67 2.07  66 2.10  57 2.10  65 2.10  50 2.11
  36  0.000  0.500  0.647-  49 2.08  65 2.08  68 2.08  58 2.11  66 2.11
  37  0.250  0.000  0.451-   7 2.10   8 2.10  15 2.10  24 2.10   5 2.10   9 2.10
  38  0.500  0.250  0.451-   7 2.10   8 2.10  16 2.10  23 2.10   6 2.10  10 2.12
  39  0.250  0.250  0.352-   5 2.10   6 2.10  13 2.10  22 2.10   7 2.10
  40  0.500  0.000  0.352-   5 2.10   6 2.10  14 2.10  21 2.10   8 2.10
  41  0.249  1.000  0.650-  28 2.10  11 2.10  19 2.10  12 2.11   9 2.14
  42  0.500  0.247  0.650-  12 2.08  27 2.10  11 2.10  20 2.12  10 2.12
  43  0.250  0.250  0.549-  11 2.07  26 2.10   9 2.10  17 2.10  10 2.10   7 2.10
  44  0.500  1.000  0.549-  12 2.08  25 2.10   9 2.10   8 2.10  18 2.11  10 2.12
  45  0.250  0.500  0.451-   7 2.10  15 2.10  16 2.10  32 2.10  13 2.10  17 2.12
  46  0.500  0.750  0.451-   8 2.10  15 2.10  16 2.10  31 2.10  14 2.10  18 2.12
  47  0.250  0.750  0.352-   5 2.10  13 2.10  14 2.10  30 2.10  15 2.10
  48  0.500  0.500  0.352-   6 2.10  13 2.10  14 2.10  29 2.10  16 2.10
  49  0.247  0.500  0.650-  36 2.08  11 2.10  19 2.10  20 2.13  17 2.13
  50  0.500  0.753  0.650-  12 2.08  35 2.11  19 2.11  18 2.13  20 2.13
  51  0.250  0.750  0.550-  19 2.07   9 2.10  34 2.10  18 2.10  17 2.10  15 2.11
  52  0.500  0.500  0.550-  18 2.09  17 2.09  33 2.09  10 2.09  16 2.12  20 2.23
  53  0.750  0.000  0.451-   8 2.10  23 2.10  24 2.10  31 2.10  21 2.10  25 2.10
  54  0.000  0.250  0.451-   7 2.10  23 2.10  24 2.10  32 2.10  22 2.10  26 2.10
  55  0.750  0.250  0.352-   6 2.10  21 2.10  22 2.10  29 2.10  23 2.10
  56  0.000  0.000  0.352-   5 2.10  21 2.10  22 2.10  30 2.10  24 2.10
  57  0.751  1.000  0.650-  28 2.10  27 2.10  35 2.10  12 2.11  25 2.14
  58  1.000  0.249  0.650-  28 2.10  27 2.10  11 2.10  36 2.11  26 2.14
  59  0.750  0.250  0.549-  27 2.07  26 2.10  25 2.10  33 2.10  10 2.10  23 2.10
  60  1.000  1.000  0.549-  28 2.08  24 2.10  34 2.10  25 2.10   9 2.10  26 2.10
  61  0.750  0.500  0.451-  16 2.10  23 2.10  31 2.10  32 2.10  29 2.10  33 2.12
  62  0.000  0.750  0.451-  15 2.10  24 2.10  31 2.10  32 2.10  30 2.10  34 2.11
  63  0.750  0.750  0.352-  14 2.10  21 2.10  29 2.10  30 2.10  31 2.10
  64  0.000  0.500  0.352-  13 2.10  22 2.10  29 2.10  30 2.10  32 2.10
  65  0.753  0.500  0.650-  36 2.08  27 2.10  35 2.10  20 2.13  33 2.13
  66  1.000  0.750  0.650-  28 2.10  35 2.10  19 2.10  36 2.11  34 2.14
  67  0.750  0.750  0.550-  35 2.07  25 2.10  34 2.10  18 2.10  33 2.10  31 2.11
  68  0.000  0.500  0.549-  36 2.08  34 2.10  26 2.10  32 2.10  17 2.11  33 2.11

IMPORTANT INFORMATION: All symmetrisations will be switched off!
NOSYMM: (Re-)initialisation of all symmetry stuff for point group C_1.

                                     Primitive cell

  volume of cell :    1504.9259

  direct lattice vectors                    reciprocal lattice vectors
     8.404861995  0.000000000  0.000000000     0.118978753  0.000000000  0.000000000
     0.000000000  8.404861995  0.000000000     0.000000000  0.118978753  0.000000000
     0.000000000  0.000000000 21.303646496     0.000000000  0.000000000  0.046940321

  length of vectors
     8.404861995  8.404861995 21.303646496     0.118978753  0.118978753  0.046940321

  position of ions in fractional coordinates (direct lattice)
     0.499999944  0.502149243  0.760267869
     0.500000034  0.617563335  0.773987834
     0.401937517  0.448266460  0.777840632
     0.598062613  0.448266437  0.777840482
     0.250000000  0.000000000  0.352052406
     0.500000000  0.250000000  0.352052406
     0.250000000  0.250000000  0.450684135
     0.500000000  0.000000000  0.450684135
     0.250364420  0.999831999  0.549477433
     0.500000034  0.251489732  0.550225366
     0.249795854  0.249473908  0.646789003
     0.500000021  0.999934361  0.646994470
     0.250000000  0.500000000  0.352052406
     0.500000000  0.750000000  0.352052406
     0.250000000  0.750000000  0.450684135
     0.500000000  0.500000000  0.450684135
     0.251627110  0.499890738  0.550267156
     0.500000053  0.748245390  0.550307182
     0.249705971  0.749950443  0.646935983
     0.499999993  0.499191956  0.654897984
     0.750000000  0.000000000  0.352052406
     0.000000000  0.250000000  0.352052406
     0.750000000  0.250000000  0.450684135
     0.000000000  0.000000000  0.450684135
     0.749635605  0.999831971  0.549477432
     0.999999998  0.250244413  0.549455002
     0.750204235  0.249473828  0.646788977
     0.999999970  0.999788118  0.647217637
     0.750000000  0.500000000  0.352052406
     0.000000000  0.750000000  0.352052406
     0.750000000  0.750000000  0.450684135
     0.000000000  0.500000000  0.450684135
     0.748372933  0.499890754  0.550267216
     0.999999959  0.749510582  0.549497612
     0.750294033  0.749950448  0.646936038
     0.000000055  0.499770140  0.646993439
     0.250000000  0.000000000  0.450684135
     0.500000000  0.250000000  0.450684135
     0.250000000  0.250000000  0.352052406
     0.500000000  0.000000000  0.352052406
     0.249368353  0.999806238  0.649835296
     0.500000064  0.247072160  0.649871263
     0.249895639  0.249796406  0.549470468
     0.500000027  0.999785892  0.549361331
     0.250000000  0.500000000  0.450684135
     0.500000000  0.750000000  0.450684135
     0.250000000  0.750000000  0.352052406
     0.500000000  0.500000000  0.352052406
     0.247294076  0.499680322  0.650074131
     0.500000004  0.752548192  0.650325762
     0.249976780  0.749936083  0.549544708
     0.499999981  0.499943626  0.550214529
     0.750000000  0.000000000  0.450684135
     0.000000000  0.250000000  0.450684135
     0.750000000  0.250000000  0.352052406
     0.000000000  0.000000000  0.352052406
     0.750631649  0.999806174  0.649835320
     0.999999972  0.249166997  0.649835340
     0.750104399  0.249796364  0.549470458
     0.999999991  0.999858736  0.549375762
     0.750000000  0.500000000  0.450684135
     0.000000000  0.750000000  0.450684135
     0.750000000  0.750000000  0.352052406
     0.000000000  0.500000000  0.352052406
     0.752705898  0.499680247  0.650074076
     0.999999921  0.750411536  0.649837586
     0.750023220  0.749936095  0.549544715
     0.000000022  0.499901832  0.549359006

  ion indices of the primitive-cell ions
   primitive index   ion index
[...]
   4.20243100  6.30364650  7.50000000
   2.10121550  6.30364650  9.60121550
   4.20243100  4.20243100  9.60121550
   2.11489114  4.20151266 11.72269697
   4.20243144  6.28889924 11.72354967
   2.09874423  6.30322998 13.78209549
   4.20243094  4.19563950 13.95171513
   6.30364650  0.00000000  7.50000000
   0.00000000  2.10121550  7.50000000
   6.30364650  2.10121550  9.60121550
   0.00000000  0.00000000  9.60121550
   6.30058381  8.40344974 11.70587297
   8.40486198  2.10326976 11.70539512
   6.30536306  2.09679310 13.77896372
   8.40486174  8.40308116 13.78809575
   6.30364650  4.20243100  7.50000000
   0.00000000  6.30364650  7.50000000
   6.30364650  6.30364650  9.60121550
   0.00000000  4.20243100  9.60121550
   6.28997123  4.20151280 11.72269826
   8.40486165  6.29953300 11.70630287
   6.30611781  6.30323001 13.78209667
   0.00000046  4.20049906 13.78331951
   2.10121550  0.00000000  9.60121550
   4.20243100  2.10121550  9.60121550
   2.10121550  2.10121550  7.50000000
   4.20243100  0.00000000  7.50000000
   2.09590659  8.40323345 13.84386143
   4.20243153  2.07660740 13.84462766
   2.10033836  2.09950432 11.70572462
   4.20243122  8.40306245 11.70339960
   2.10121550  4.20243100  9.60121550
   4.20243100  6.30364650  9.60121550
   2.10121550  6.30364650  7.50000000
   4.20243100  4.20243100  7.50000000
   2.07847258  4.19974415 13.84894948
   4.20243103  6.32506370 13.85431013
   2.10102033  6.30310928 11.70730620
   4.20243084  4.20195718 11.72157583
   6.30364650  0.00000000  9.60121550
   0.00000000  2.10121550  9.60121550
   6.30364650  2.10121550  7.50000000
   0.00000000  0.00000000  7.50000000
   6.30895542  8.40323292 13.84386195
   8.40486176  2.09421422 13.84386236
   6.30452395  2.09950397 11.70572440
   8.40486192  8.40367469 11.70370703
   6.30364650  4.20243100  9.60121550
   0.00000000  6.30364650  9.60121550
   6.30364650  6.30364650  7.50000000
   0.00000000  4.20243100  7.50000000
   6.32638920  4.19974351 13.84894832
   8.40486133  6.30710540 13.84391021
   6.30384165  6.30310938 11.70730634
   0.00000018  4.20160591 11.70335007

--------------------------------------- Iteration      FINAL  ---------------------------------------

--------------------OUTCAR has been truncated-------------------------

[...]

--------------------OUTCAR has been truncated-------------------------

  FORCE on cell =-STRESS in cart. coord.  units (eV):
  Direction    XX          YY          ZZ          XY          YZ          ZX
  Alpha Z   908.44988   908.44988   908.44988
  Ewald  161842.56035161842.07126************     0.00008    -4.34863    -0.00015
  Hartree172102.54098172102.57526************     0.00004    -1.08773    -0.00002
  E(xc)   -2488.81954 -2488.82322 -2489.27715     0.00000    -0.02320    -0.00000
  Local  ************************343936.60165    -0.00011     4.35788     0.00012
  n-local -2854.10210 -2854.11604 -2873.74666    -0.00000    -0.10943    -0.00000
  augment  1052.51371  1052.52065  1043.92627     0.00000     0.01845     0.00000
  Kinetic  7435.05641  7435.30525  7491.88417     0.00001     1.38825     0.00005
  Fock        0.00000     0.00000     0.00000     0.00000     0.00000     0.00000
  Total     -20.86343   -20.86126     3.56262     0.00001     0.19560    -0.00000
  in kB     -22.21167   -22.20936     3.79284     0.00001     0.20824    -0.00000

 VOLUME and BASIS-vectors are now :
  energy-cutoff  :      600.00
  volume of cell :     1504.93
      direct lattice vectors                 reciprocal lattice vectors
     8.404861995  0.000000000  0.000000000     0.118978753  0.000000000  0.000000000
     0.000000000  8.404861995  0.000000000     0.000000000  0.118978753  0.000000000
     0.000000000  0.000000000 21.303646496     0.000000000  0.000000000  0.046940321

  length of vectors
     8.404861995  8.404861995 21.303646496     0.118978753  0.118978753  0.046940321

 FORCES acting on ions:
    Electron-Ion                     Ewald-Force                    Non-Local-Force
   0.625E-04 0.253E+01 -.135E+04   -.964E-04 -.391E+01 0.132E+04   0.534E-04 0.136E+01 0.240E+02
   -.448E-04 -.688E+02 -.279E+03   0.500E-04 0.764E+02 0.281E+03   -.520E-05 -.722E+01 -.192E+01
   0.587E+02 0.325E+02 -.280E+03   -.652E+02 -.360E+02 0.283E+03   0.616E+01 0.338E+01 -.255E+01
   -.587E+02 0.325E+02 -.280E+03   0.652E+02 -.360E+02 0.283E+03   -.616E+01 0.338E+01 -.255E+01
   -.690E-01 0.318E-01 0.210E+04   0.786E-01 -.326E-01 -.210E+04   -.697E-02 0.668E-03 -.679E+01
   -.876E-06 -.581E-01 0.210E+04   -.988E-07 0.726E-01 -.210E+04   -.179E-05 -.110E-01 -.683E+01
   -.399E+00 -.413E+00 0.723E+03   0.471E+00 0.485E+00 -.723E+03   -.504E-01 -.513E-01 0.468E+00
   0.437E-04 0.117E+00 0.722E+03   -.409E-04 -.135E+00 -.723E+03   -.743E-05 0.123E-01 0.336E+00
   0.279E+01 0.199E+00 -.651E+03   -.269E+01 -.206E+00 0.651E+03   -.100E+00 0.755E-02 -.870E-02
   0.992E-04 0.290E+01 -.651E+03   -.951E-04 -.250E+01 0.651E+03   -.562E-05 -.423E+00 -.469E+00
   0.195E+02 0.195E+02 -.201E+04   -.196E+02 -.196E+02 0.200E+04   0.790E-01 0.977E-01 0.600E+01
   0.189E-03 -.434E-01 -.202E+04   -.184E-03 0.884E-01 0.201E+04   -.262E-05 -.454E-01 0.583E+01
   -.579E-01 -.330E-01 0.210E+04   0.727E-01 0.332E-01 -.210E+04   -.113E-01 -.123E-03 -.684E+01
   -.236E-05 0.577E-01 0.210E+04   -.927E-06 -.728E-01 -.210E+04   -.274E-05 0.115E-01 -.684E+01
   -.403E+00 0.393E+00 0.722E+03   0.488E+00 -.477E+00 -.723E+03   -.601E-01 0.589E-01 0.494E+00
   -.510E-04 -.153E+00 0.721E+03   0.587E-04 0.160E+00 -.721E+03   -.703E-05 -.538E-02 0.493E+00
   0.287E+01 -.222E+00 -.652E+03   -.246E+01 0.228E+00 0.652E+03   -.425E+00 -.634E-02 -.410E+00
   0.167E-03 -.280E+01 -.653E+03   -.161E-03 0.239E+01 0.653E+03   -.118E-04 0.425E+00 -.329E+00
   0.196E+02 -.195E+02 -.201E+04   -.197E+02 0.196E+02 0.200E+04   0.114E+00 -.881E-01 0.598E+01
   0.488E-04 0.235E+00 -.195E+04   -.496E-04 -.395E+00 0.195E+04   0.742E-05 0.159E+00 0.772E+00
   0.690E-01 0.318E-01 0.210E+04   -.786E-01 -.326E-01 -.210E+04   0.697E-02 0.672E-03 -.679E+01
   0.134E-05 -.692E-01 0.210E+04   0.429E-06 0.786E-01 -.210E+04   0.367E-05 -.672E-02 -.679E+01
   0.399E+00 -.413E+00 0.723E+03   -.471E+00 0.485E+00 -.723E+03   0.504E-01 -.514E-01 0.468E+00
   -.439E-04 0.114E+00 0.722E+03   0.441E-04 -.119E+00 -.723E+03   0.408E-05 0.304E-02 0.419E+00
   -.279E+01 0.199E+00 -.651E+03   0.269E+01 -.206E+00 0.651E+03   0.100E+00 0.755E-02 -.868E-02
   -.155E-03 0.278E+01 -.651E+03   0.153E-03 -.269E+01 0.651E+03   0.640E-05 -.101E+00 0.932E-02
   -.195E+02 0.195E+02 -.201E+04   0.196E+02 -.196E+02 0.200E+04   -.790E-01 0.977E-01 0.600E+01
   -.280E-03 -.670E-01 -.204E+04   0.275E-03 0.699E-01 0.203E+04   0.635E-05 -.270E-02 0.588E+01
   0.579E-01 -.330E-01 0.210E+04   -.727E-01 0.332E-01 -.210E+04   0.113E-01 -.122E-03 -.684E+01
   0.146E-06 0.686E-01 0.210E+04   0.115E-05 -.785E-01 -.210E+04   0.196E-05 0.720E-02 -.679E+01
   0.403E+00 0.393E+00 0.722E+03   -.488E+00 -.477E+00 -.723E+03   0.601E-01 0.589E-01 0.494E+00
   0.373E-04 -.137E+00 0.722E+03   -.427E-04 0.132E+00 -.723E+03   0.443E-05 0.333E-02 0.335E+00
   -.287E+01 -.222E+00 -.652E+03   0.246E+01 0.228E+00 0.652E+03   0.425E+00 -.635E-02 -.410E+00
   -.180E-03 -.279E+01 -.652E+03   0.175E-03 0.269E+01 0.652E+03   0.130E-04 0.101E+00 -.238E-01
   -.196E+02 -.195E+02 -.201E+04   0.197E+02 0.196E+02 0.200E+04   -.114E+00 -.882E-01 0.598E+01
   0.748E-04 0.790E-02 -.202E+04   -.637E-04 -.135E-01 0.201E+04   -.160E-04 0.549E-02 0.583E+01
   -.579E-01 0.913E-01 0.542E+03   0.820E-01 -.812E-01 -.542E+03   -.350E-01 -.136E-01 0.219E-01
   0.164E-04 0.100E+00 0.540E+03   -.101E-04 -.135E+00 -.540E+03   -.680E-06 0.408E-01 -.172E+00
   -.534E-01 -.537E-01 0.158E+04   0.657E-01 0.668E-01 -.158E+04   -.171E-01 -.183E-01 0.360E+01
   0.267E-05 0.249E-01 0.158E+04   -.381E-05 -.259E-01 -.158E+04   -.869E-06 0.145E-02 0.359E+01
   0.742E+01 0.388E-01 -.155E+04   -.726E+01 -.636E-01 0.155E+04   -.158E+00 0.241E-01 -.512E+01
   0.840E-04 0.252E+02 -.151E+04   -.729E-04 -.245E+02 0.152E+04   -.118E-04 -.637E+00 -.498E+01
   0.192E+01 0.186E+01 -.479E+03   -.190E+01 -.185E+01 0.479E+03   -.189E-01 -.125E-01 0.596E+00
   0.116E-03 0.209E+00 -.479E+03   -.111E-03 -.197E+00 0.479E+03   -.200E-06 -.114E-01 0.460E+00
   0.108E+00 -.119E+00 0.540E+03   -.150E+00 0.123E+00 -.540E+03   0.499E-01 -.521E-02 -.185E+00
   0.121E-04 -.114E+00 0.540E+03   -.205E-04 0.162E+00 -.540E+03   0.218E-05 -.584E-01 -.197E+00
   -.547E-01 0.545E-01 0.158E+04   0.683E-01 -.671E-01 -.158E+04   -.189E-01 0.177E-01 0.360E+01
   -.417E-05 -.247E-01 0.158E+04   0.426E-05 0.261E-01 -.158E+04   0.674E-06 -.204E-02 0.357E+01
   0.251E+02 -.645E-01 -.151E+04   -.245E+02 0.768E-01 0.152E+04   -.674E+00 -.118E-01 -.494E+01
   0.958E-04 -.251E+02 -.151E+04   -.103E-03 0.243E+02 0.152E+04   0.382E-05 0.721E+00 -.489E+01
   0.180E+01 -.185E+01 -.480E+03   -.180E+01 0.184E+01 0.480E+03   -.404E-02 0.127E-01 0.588E+00
   -.394E-04 -.299E+00 -.496E+03   0.424E-04 0.287E+00 0.497E+03   0.495E-06 0.114E-01 -.130E+01
   0.579E-01 0.913E-01 0.542E+03   -.820E-01 -.812E-01 -.542E+03   0.350E-01 -.136E-01 0.219E-01
   -.219E-04 -.680E-01 0.542E+03   0.112E-04 0.982E-01 -.542E+03   0.241E-05 -.431E-01 0.221E-01
   0.535E-01 -.537E-01 0.158E+04   -.657E-01 0.668E-01 -.158E+04   0.171E-01 -.183E-01 0.360E+01
   -.321E-05 0.236E-01 0.158E+04   0.396E-05 -.234E-01 -.158E+04   -.180E-05 -.306E-03 0.362E+01
   -.742E+01 0.387E-01 -.155E+04   0.726E+01 -.635E-01 0.155E+04   0.158E+00 0.241E-01 -.512E+01
   -.212E-03 0.744E+01 -.155E+04   0.220E-03 -.728E+01 0.155E+04   -.569E-05 -.155E+00 -.511E+01
   -.192E+01 0.186E+01 -.479E+03   0.190E+01 -.185E+01 0.479E+03   0.189E-01 -.125E-01 0.596E+00
   -.145E-03 0.690E-01 -.486E+03   0.148E-03 -.653E-01 0.486E+03   -.364E-05 -.319E-02 0.310E+00
   -.108E+00 -.119E+00 0.540E+03   0.150E+00 0.123E+00 -.540E+03   -.499E-01 -.521E-02 -.185E+00
   -.275E-04 0.463E-01 0.542E+03   0.210E-04 -.645E-01 -.542E+03   0.126E-05 0.272E-01 0.228E-01
   0.547E-01 0.545E-01 0.158E+04   -.683E-01 -.671E-01 -.158E+04   0.189E-01 0.177E-01 0.360E+01
   0.268E-05 -.233E-01 0.158E+04   -.383E-05 0.234E-01 -.158E+04   0.275E-05 -.184E-03 0.359E+01
   -.251E+02 -.645E-01 -.151E+04   0.245E+02 0.769E-01 0.152E+04   0.674E+00 -.118E-01 -.494E+01
   -.255E-03 -.739E+01 -.155E+04   0.262E-03 0.723E+01 0.155E+04   -.249E-05 0.156E+00 -.512E+01
   -.180E+01 -.185E+01 -.480E+03   0.180E+01 0.184E+01 0.480E+03   0.403E-02 0.127E-01 0.588E+00
   -.456E-04 -.688E-01 -.479E+03   0.416E-04 0.641E-01 0.479E+03   -.286E-05 0.422E-02 0.460E+00
   0.428E-05 -.113E+01 0.327E+01   -.853E-13 -.405E-12 -.534E-11   -.225E-04 0.112E+01 -.327E+01

 POSITION                                       TOTAL-FORCE (eV/Angst)
      4.20243      4.22050     16.19648         0.000020     -0.015214     -0.462470
      4.20243      5.19053     16.48876         0.000000      0.384400      0.132551
      3.37823      3.76762     16.57084        -0.324918     -0.169573      0.172204
      5.02663      3.76762     16.57084         0.324901     -0.169563      0.172199
      2.10122      0.00000      7.50000         0.002613     -0.000073      0.254383
      4.20243      2.10122      7.50000        -0.000003      0.003519      0.263492
      2.10122      2.10122      9.60122         0.021039      0.020918      0.019459
      4.20243      0.00000      9.60122        -0.000004     -0.004717      0.048219
      2.10428      8.40345     11.70587        -0.004207      0.000257      0.014911
      4.20243      2.11374     11.72181        -0.000001     -0.013437     -0.006100
      2.09950      2.09679     13.77896        -0.006370     -0.006396      0.121006
      4.20243      8.40431     13.78334         0.000002     -0.000163      0.128421
      2.10122      4.20243      7.50000         0.003502      0.000166      0.264171
      4.20243      6.30365      7.50000        -0.000006     -0.003493      0.264799
      2.10122      6.30365      9.60122         0.024338     -0.024386      0.022063
      4.20243      4.20243      9.60122         0.000001      0.001474      0.062008
      2.11489      4.20151     11.72270        -0.013571     -0.000265     -0.005690
      4.20243      6.28890     11.72355        -0.000005      0.013534     -0.004868
      2.09874      6.30323     13.78210        -0.006214      0.006174      0.120793
      4.20243      4.19564     13.95172         0.000007     -0.000581      0.030060
      6.30365      0.00000      7.50000        -0.002611     -0.000066      0.254385
      0.00000      2.10122      7.50000         0.000006      0.002681      0.254640
      6.30365      2.10122      9.60122        -0.021043      0.020920      0.019466
      0.00000      0.00000      9.60122         0.000004     -0.001461      0.007064
      6.30058      8.40345     11.70587         0.004210      0.000257      0.014920
      8.40486      2.10327     11.70540         0.000004     -0.004186      0.015509
      6.30536      2.09679     13.77896         0.006370     -0.006394      0.121013
      8.40486      8.40308     13.78810         0.000002      0.000274      0.115138
      6.30365      4.20243      7.50000        -0.003506      0.000166      0.264163
      0.00000      6.30365      7.50000         0.000004     -0.002564      0.254090
      6.30365      6.30365      9.60122        -0.024340     -0.024386      0.022068
      0.00000      4.20243      9.60122        -0.000001     -0.001307      0.048230
      6.28997      4.20151     11.72270         0.013569     -0.000272     -0.005697
      8.40486      6.29953     11.70630         0.000008      0.004308      0.014306
      6.30612      6.30323     13.78210         0.006210      0.006170      0.120774
      0.00000      4.20050     13.78332        -0.000004     -0.000037      0.128535
      2.10122      0.00000      9.60122        -0.010922     -0.003446      0.047555
      4.20243      2.10122      9.60122         0.000006      0.005943      0.070202
      2.10122      2.10122      7.50000        -0.004840     -0.005124     -0.457988
      4.20243      0.00000      7.50000        -0.000002      0.000496     -0.458906
      2.09591      8.40323     13.84386         0.002975     -0.000596      0.006837
      4.20243      2.07661     13.84463        -0.000000      0.007741      0.009242
      2.10034      2.09950     11.70572        -0.002158     -0.002327     -0.021036
      4.20243      8.40306     11.70340         0.000005      0.000744     -0.023245
      2.10122      4.20243      9.60122         0.008150     -0.001015      0.070636
      4.20243      6.30365      9.60122        -0.000006     -0.010215      0.071169
      2.10122      6.30365      7.50000        -0.005364      0.005085     -0.458152
      4.20243      4.20243      7.50000         0.000001     -0.000516     -0.466957
      2.07847      4.19974     13.84895         0.007837      0.000639      0.006959
      4.20243      6.32506     13.85431        -0.000003     -0.007551      0.003184
      2.10102      6.30311     11.70731        -0.002386      0.002200     -0.020487
      4.20243      4.20196     11.72158         0.000004     -0.000509      0.034500
      6.30365      0.00000      9.60122         0.010915     -0.003442      0.047559
      0.00000      2.10122      9.60122        -0.000008     -0.012826      0.045019
      6.30365      2.10122      7.50000         0.004844     -0.005120     -0.457988
      0.00000      0.00000      7.50000        -0.000001     -0.000009     -0.452737
      6.30896      8.40323     13.84386        -0.002975     -0.000589      0.006835
      8.40486      2.09421     13.84386         0.000002      0.002882      0.007325
      6.30452      2.09950     11.70572         0.002151     -0.002321     -0.021041
      8.40486      8.40367     11.70371         0.000000      0.000596     -0.022102
      6.30365      4.20243      9.60122        -0.008146     -0.001019      0.070642
      0.00000      6.30365      9.60122        -0.000005      0.009106      0.050200
      6.30365      6.30365      7.50000         0.005366      0.005087     -0.458155
      0.00000      4.20243      7.50000         0.000002      0.000021     -0.458928
      6.32639      4.19974     13.84895        -0.007836      0.000640      0.006976
      8.40486      6.30711     13.84391         0.000006     -0.002973      0.006340
      6.30384      6.30311     11.70731         0.002391      0.002194     -0.020487
      0.00000      4.20161     11.70335        -0.000007     -0.000463     -0.023190
    total drift:                               -0.000018     -0.005555     -0.000113

  FREE ENERGIE OF THE ION-ELECTRON SYSTEM (eV)
  free  energy   TOTEN  =      -283.54038556 eV

  energy  without entropy=     -283.54038556  energy(sigma->0) =     -283.54038556