 vasp.6.3.0 20Jan22 (build Apr  1 2022 16:44:48) complex
 executed on        HPECrayEX_GCC date 2023.04.06  22:13:29

 INCAR:
   SYSTEM = MgO-rocksalt
   ISMEAR = 0
   SIGMA = 0.05
   EDIFF = 1E-7
   ALGO = ALL
   ISTART = 0
   IBRION = 2
   NSW = 1000
   ISYM = 0
   ISIF = 2
   EDIFFG = -0.01
   DIPOL = 0.5 0.5 0.5
   IDIPOL = 3
   LDIPOL = .TRUE.
   GGA = RE
   AGGAC = 0.0
   LUSE_VDW = .TRUE.
   LASPH = .TRUE.
   ENCUT = 600
   PREC = Accurate
   LASPH = .TRUE.
   LREAL = .FALSE.
   ISPIN = 1
   NELM = 200
   NELMIN = 8
   NCORE = 8
   KPAR = 1
   LWAVE = .FALSE.
   LCHARG = .FALSE.

 POTCAR:    PAW_PBE Ti_pv 07Sep2000
 POTCAR:    PAW_PBE O 08Apr2002
|               ----> ADVICE to this user running VASP <----                  |
|     You have switched on vdW-DFT.                                           |
|     This routine was written and supplied by Jiri Klimes. We recommend      |
|     that you carefully read and cite the following publications:            |
|       J. Klimes, D.R. Bowler, A. Michelides                                 |
|          J. Phys.: Cond Matt. 22 022201 (2010)                              |
|       J. Klimes, D.R. Bowler, A. Michelides                                 |
|          Phys. Rev. B. 83, 195131 (2011)                                    |
|     and references therein.                                                 |

   TITEL  = PAW_PBE Ti_pv 07Sep2000
   POMASS =   47.880; ZVAL   =   10.000    mass and valenz
   ENMAX  =  222.335; ENMIN  =  166.751 eV

   TITEL  = PAW_PBE O 08Apr2002
   POMASS =   16.000; ZVAL   =    6.000    mass and valenz
   ENMAX  =  400.000; ENMIN  =  300.000 eV

  PAW_PBE Ti_pv 07Sep2000               :
  PAW_PBE O 08Apr2002                   :

 POSCAR: Ti  O
  positions in direct lattice
 exchange correlation table for  LEXCH =       40
   RHO(1)=    0.500       N(1)  =     2000
   RHO(2)=  100.500       N(2)  =     4000

 ion  position               nearest neighbor table
   1  0.815  0.833  0.293-  51 1.97  85 1.97  53 1.97  50 2.02  52 2.02  18 3.11   2 3.11   4 3.11

   2  0.599  0.667  0.325-  49 1.97 116 1.97  52 1.97  54 1.97  55 2.02  53 2.02  33 3.11   1 3.11
                             3 3.11   7 3.11
   3  0.315  0.667  0.293-  55 1.97 121 1.97  57 1.97  49 2.02  56 2.02  36 3.11   4 3.11   2 3.11

   4  0.099  0.833  0.325-  50 1.97  88 1.97  56 1.97  58 1.97  51 2.02  57 2.02  19 3.11   3 3.11
                             1 3.11   5 3.11
   5  0.949  0.833  0.421-  59 1.97  93 1.97  61 1.97  51 1.97  60 2.02  58 2.02   8 3.11  22 3.11
                             6 3.11   4 3.11
   6  0.732  0.667  0.452-  54 1.97  62 1.97 124 1.97  60 1.97  63 2.02  61 2.02   7 3.11  11 3.11
                            37 3.11   5 3.11
   7  0.449  0.667  0.421-  63 1.97 129 1.97  65 1.97  55 1.97  64 2.02  54 2.02   6 3.11  40 3.11
                             8 3.11   2 3.11
   8  0.232  0.833  0.452-  58 1.97  66 1.97  96 1.97  64 1.97  59 2.02  65 2.02   5 3.11   9 3.11
                            23 3.11   7 3.11
   9  0.083  0.833  0.548-  67 1.97  59 1.97 101 1.97  69 1.97  66 2.02  68 2.02  12 3.11   8 3.11
                            26 3.11  10 3.11
  10  0.866  0.667  0.579-  62 1.97 132 1.97  68 1.97  70 1.97  71 2.02  69 2.02  11 3.11  41 3.11
                             9 3.11  15 3.11
  11  0.583  0.667  0.548-  71 1.97  63 1.97 137 1.97  73 1.97  62 2.02  72 2.02  10 3.11   6 3.11
                            44 3.11  12 3.11
  12  0.366  0.833  0.579-  66 1.97 104 1.97  72 1.97  74 1.97  67 2.02  73 2.02   9 3.11  27 3.11
                            11 3.11  13 3.11
  13  0.217  0.833  0.675-  75 1.97 109 1.97  77 1.97  67 1.97  76 2.02  74 2.02  30 3.11  14 3.11
                            16 3.11  12 3.11
  14  0.000  0.667  0.707-  70 1.97 140 1.97  76 1.97  78 2.02  77 2.02  45 3.11  13 3.11  15 3.11

[...]

  17  0.815  0.167  0.293-  83 1.97  85 1.97 117 1.97  82 2.02  84 2.02  18 3.11  34 3.11  20 3.11

[...]

  36  0.099  0.500  0.325- 114 1.97  56 1.97 120 1.97 122 1.97 121 2.02 115 2.02  35 3.11   3 3.11
                            33 3.11  37 3.11
  37  0.949  0.500  0.421- 123 1.97  61 1.97 125 1.97 115 1.97 124 2.02 122 2.02  40 3.11  38 3.11
                             6 3.11  36 3.11
  38  0.732  0.333  0.452- 118 1.97 126 1.97 124 1.97  92 1.97 125 2.02 127 2.02  39 3.11  43 3.11
                            37 3.11  21 3.11
  39  0.449  0.333  0.421- 127 1.97 129 1.97  97 1.97 119 1.97 128 2.02 118 2.02  38 3.11  40 3.11
                            24 3.11  34 3.11
  40  0.232  0.500  0.452- 122 1.97 130 1.97 128 1.97  64 1.97 129 2.02 123 2.02  37 3.11  41 3.11
                            39 3.11   7 3.11
  41  0.083  0.500  0.548- 131 1.97 123 1.97  69 1.97 133 1.97 132 2.02 130 2.02  44 3.11  40 3.11
                            42 3.11  10 3.11
  42  0.866  0.333  0.579- 126 1.97 132 1.97 100 1.97 134 1.97 133 2.02 135 2.02  43 3.11  41 3.11
                            25 3.11  47 3.11
  43  0.583  0.333  0.548- 135 1.97 127 1.97 137 1.97 105 1.97 126 2.02 136 2.02  42 3.11  38 3.11
                            44 3.11  28 3.11
  44  0.366  0.500  0.579- 130 1.97  72 1.97 136 1.97 138 1.97 137 2.02 131 2.02  41 3.11  11 3.11
                            43 3.11  45 3.11
  45  0.217  0.500  0.675- 139 1.97  77 1.97 141 1.97 131 1.97 140 2.02 138 2.02  14 3.11  46 3.11
                            48 3.11  44 3.11
  46  0.000  0.333  0.707- 134 1.97 140 1.97 108 1.97 141 2.02 142 2.02  45 3.11  29 3.11  47 3.11

  47  0.717  0.333  0.675- 142 1.97 144 1.97 112 1.97 135 1.97 143 2.02 134 2.02  48 3.11  32 3.11
                            46 3.11  42 3.11
  48  0.500  0.500  0.707- 138 1.97  79 1.97 143 1.97 139 2.02 144 2.02  47 3.11  15 3.11  45 3.11

  49  0.494  0.667  0.267-   2 1.97   3 2.02
  50  0.994  0.833  0.267-   4 1.97   1 2.02
  51  0.919  0.833  0.351-   1 1.97   5 1.97   4 2.02
  52  0.636  0.833  0.320-  18 1.97   2 1.97   1 2.02
  53  0.778  0.667  0.299-  33 1.97   1 1.97   2 2.02
  54  0.628  0.667  0.394-   6 1.97   2 1.97   7 2.02
  55  0.419  0.667  0.351-   3 1.97   7 1.97   2 2.02
  56  0.136  0.667  0.320-  36 1.97   4 1.97   3 2.02
  57  0.278  0.833  0.299-  19 1.97   3 1.97   4 2.02
  58  0.128  0.833  0.394-   8 1.97   4 1.97   5 2.02
  59  0.053  0.833  0.479-   5 1.97   9 1.97   8 2.02
  60  0.770  0.833  0.447-  22 1.97   6 1.97   5 2.02
  61  0.912  0.667  0.426-  37 1.97   5 1.97   6 2.02
  62  0.762  0.667  0.521-  10 1.97   6 1.97  11 2.02
  63  0.553  0.667  0.479-   7 1.97  11 1.97   6 2.02
  64  0.270  0.667  0.447-  40 1.97   8 1.97   7 2.02
  65  0.412  0.833  0.426-  23 1.97   7 1.97   8 2.02
  66  0.262  0.833  0.521-  12 1.97   8 1.97   9 2.02
  67  0.187  0.833  0.606-   9 1.97  13 1.97  12 2.02
  68  0.903  0.833  0.574-  26 1.97  10 1.97   9 2.02
  69  0.045  0.667  0.553-  41 1.97   9 1.97  10 2.02
  70  0.896  0.667  0.649-  14 1.97  10 1.97  15 2.02
  71  0.687  0.667  0.606-  11 1.97  15 1.97  10 2.02
  72  0.403  0.667  0.574-  44 1.97  12 1.97  11 2.02
  73  0.545  0.833  0.553-  27 1.97  11 1.97  12 2.02
  74  0.396  0.833  0.649-  16 1.97  12 1.97  13 2.02
  75  0.321  0.833  0.733-  13 1.97  16 2.02
  76  0.037  0.833  0.701-  30 1.97  14 1.97  13 2.02
  77  0.179  0.667  0.680-  45 1.97  13 1.97  14 2.02
  78  0.821  0.667  0.733-  15 1.97  14 2.02
  79  0.537  0.667  0.701-  48 1.97  16 1.97  15 2.02
  80  0.679  0.833  0.680-  31 1.97  15 1.97  16 2.02
  81  0.494  0.000  0.267-  18 1.97  19 2.02
  82  0.994  0.167  0.267-  20 1.97  17 2.02
  83  0.919  0.167  0.351-  17 1.97  21 1.97  20 2.02
  84  0.636  0.167  0.320-  18 1.97  34 1.97  17 2.02
  85  0.778  0.000  0.299-   1 1.97  17 1.97  18 2.02
  86  0.628  0.000  0.394-  22 1.97  18 1.97  23 2.02
  87  0.419  0.000  0.351-  19 1.97  23 1.97  18 2.02
  88  0.136  0.000  0.320-   4 1.97  20 1.97  19 2.02
  89  0.278  0.167  0.299-  19 1.97  35 1.97  20 2.02
  90  0.128  0.167  0.394-  24 1.97  20 1.97  21 2.02
  91  0.053  0.167  0.479-  21 1.97  25 1.97  24 2.02
  92  0.770  0.167  0.447-  22 1.97  38 1.97  21 2.02
  93  0.912  0.000  0.426-   5 1.97  21 1.97  22 2.02
  94  0.762  0.000  0.521-  26 1.97  22 1.97  27 2.02
  95  0.553  0.000  0.479-  23 1.97  27 1.97  22 2.02
  96  0.270  0.000  0.447-   8 1.97  24 1.97  23 2.02
  97  0.412  0.167  0.426-  23 1.97  39 1.97  24 2.02
  98  0.262  0.167  0.521-  28 1.97  24 1.97  25 2.02
  99  0.187  0.167  0.606-  25 1.97  29 1.97  28 2.02
 100  0.903  0.167  0.574-  26 1.97  42 1.97  25 2.02
 101  0.045  0.000  0.553-   9 1.97  25 1.97  26 2.02
 102  0.896  0.000  0.649-  30 1.97  26 1.97  31 2.02
 103  0.687  0.000  0.606-  27 1.97  31 1.97  26 2.02
 104  0.403  0.000  0.574-  12 1.97  28 1.97  27 2.02
 105  0.545  0.167  0.553-  27 1.97  43 1.97  28 2.02
 106  0.396  0.167  0.649-  32 1.97  28 1.97  29 2.02
 107  0.321  0.167  0.733-  29 1.97  32 2.02
 108  0.037  0.167  0.701-  30 1.97  46 1.97  29 2.02
[...]
 130  0.262  0.500  0.521-  44 1.97  40 1.97  41 2.02
 131  0.187  0.500  0.606-  41 1.97  45 1.97  44 2.02
 132  0.903  0.500  0.574-  10 1.97  42 1.97  41 2.02
 133  0.045  0.333  0.553-  41 1.97  25 1.97  42 2.02
 134  0.896  0.333  0.649-  46 1.97  42 1.97  47 2.02
 135  0.687  0.333  0.606-  43 1.97  47 1.97  42 2.02
 136  0.403  0.333  0.574-  44 1.97  28 1.97  43 2.02
 137  0.545  0.500  0.553-  11 1.97  43 1.97  44 2.02
 138  0.396  0.500  0.649-  48 1.97  44 1.97  45 2.02
 139  0.321  0.500  0.733-  45 1.97  48 2.02
 140  0.037  0.500  0.701-  14 1.97  46 1.97  45 2.02
 141  0.179  0.333  0.680-  45 1.97  29 1.97  46 2.02
 142  0.821  0.333  0.733-  47 1.97  46 2.02
 143  0.537  0.333  0.701-  48 1.97  32 1.97  47 2.02
 144  0.679  0.500  0.680-  15 1.97  47 1.97  48 2.02

IMPORTANT INFORMATION: All symmetrisations will be switched off!
NOSYMM: (Re-)initialisation of all symmetry stuff for point group C_1.

                                     Primitive cell

  volume of cell :    3395.7474

  direct lattice vectors                    reciprocal lattice vectors
    10.494937820  0.000000000  0.000000000     0.095284033 -0.000000000  0.000000000
     0.000000000 11.517876715  0.000000000     0.000000000  0.086821558  0.000000000
     0.000000000  0.000000000 28.092027652     0.000000000  0.000000000  0.035597288

  length of vectors
    10.494937820 11.517876715 28.092027652     0.095284033  0.086821558  0.035597288

  position of ions in fractional coordinates (direct lattice)
     0.815063392  0.833333333  0.293307909
     0.598520054  0.666666667  0.325106693
     0.315063392  0.666666667  0.293307909
     0.098520054  0.833333333  0.325106693
     0.948890041  0.833333333  0.420503042
     0.732346703  0.666666667  0.452301825
     0.448890041  0.666666667  0.420503042
     0.232346703  0.833333333  0.452301825
     0.082716689  0.833333333  0.547698175
     0.866173351  0.666666667  0.579496958
     0.582716689  0.666666667  0.547698175
     0.366173351  0.833333333  0.579496958
     0.216543338  0.833333333  0.674893307
     1.000000000  0.666666667  0.706692091
     0.716543338  0.666666667  0.674893307
     0.500000000  0.833333333  0.706692091
     0.815063392  0.166666667  0.293307909
[...]
   3.36583049  5.75893836 20.59202765
   0.39097044  5.75893836 19.69873536
   1.88163842  3.83929224 19.11279985
   8.61329940  3.83929224 20.59202765
   5.63843935  3.83929224 19.69873536
   7.12910733  5.75893836 19.11279985

--------------------------------------- Iteration      FINAL  ---------------------------------------

--------------------OUTCAR has been truncated-------------------------

[...]

--------------------OUTCAR has been truncated-------------------------

  FORCE on cell =-STRESS in cart. coord.  units (eV):
  Direction    XX          YY          ZZ          XY          YZ          ZX
  Alpha Z  2319.19716  2319.19716  2319.19716
  Ewald  466760.29314459836.13019************     0.00019     0.00003 -1764.30073
  Hartree487712.36975483516.34952************     0.00008     0.00002 -1216.73609
  E(xc)   -5263.80048 -5269.24098 -5271.65395     0.00000     0.00000    -0.61981
  Local  ************************962887.66876    -0.00027    -0.00005  2989.60442
  n-local -3274.97840 -3249.10005 -3289.93871     0.00000     0.00000     0.94702
  augment  3181.36235  3178.96608  3170.66865     0.00000    -0.00000     0.83732
  Kinetic 16998.28503 17068.17877 17117.48322    -0.00000    -0.00000   -17.65090
  Fock        0.00000     0.00000     0.00000     0.00000     0.00000     0.00000
  Total     -46.80779   -21.12525   -15.12873     0.00000    -0.00000    -7.91877
  in kB     -22.08479    -9.96729    -7.13802     0.00000    -0.00000    -3.73622

 VOLUME and BASIS-vectors are now :
  energy-cutoff  :      600.00
  volume of cell :     3395.75
      direct lattice vectors                 reciprocal lattice vectors
    10.494937820  0.000000000  0.000000000     0.095284033 -0.000000000  0.000000000
     0.000000000 11.517876715  0.000000000     0.000000000  0.086821558  0.000000000
     0.000000000  0.000000000 28.092027652     0.000000000  0.000000000  0.035597288

  length of vectors
    10.494937820 11.517876715 28.092027652     0.095284033  0.086821558  0.035597288

 FORCES acting on ions:
    Electron-Ion                     Ewald-Force                    Non-Local-Force
   0.402E+01 -.537E-05 0.323E+04   0.606E+00 0.638E-05 -.322E+04   -.987E+00 -.212E-06 -.323E+01
   0.499E+01 0.163E-05 0.265E+04   -.651E+01 -.153E-05 -.265E+04   -.844E-01 0.342E-07 -.833E-01
   0.402E+01 0.272E-05 0.323E+04   0.606E+00 -.265E-05 -.322E+04   -.987E+00 -.102E-07 -.323E+01
   0.499E+01 0.788E-05 0.265E+04   -.651E+01 -.804E-05 -.265E+04   -.844E-01 0.137E-07 -.833E-01
   -.121E+01 0.798E-04 0.119E+04   0.102E+01 -.882E-04 -.119E+04   0.192E+00 0.160E-05 -.391E-01
   -.546E+01 -.684E-05 0.738E+03   0.546E+01 0.604E-05 -.738E+03   0.300E-01 0.135E-06 -.946E-01
   -.121E+01 0.283E-04 0.119E+04   0.102E+01 -.274E-04 -.119E+04   0.192E+00 -.681E-07 -.391E-01
   -.546E+01 0.341E-04 0.738E+03   0.546E+01 -.355E-04 -.738E+03   0.300E-01 0.409E-06 -.946E-01
   -.241E+01 0.512E-04 -.773E+03   0.209E+01 -.897E-04 0.773E+03   0.320E+00 0.432E-05 0.345E-01
   -.939E+01 0.168E-04 -.117E+04   0.949E+01 -.213E-04 0.117E+04   -.327E-01 0.778E-06 -.169E+00
   -.241E+01 0.197E-05 -.773E+03   0.209E+01 -.448E-05 0.773E+03   0.320E+00 0.315E-06 0.345E-01
   -.939E+01 -.578E-03 -.117E+04   0.949E+01 0.646E-03 0.117E+04   -.327E-01 -.104E-04 -.169E+00
   0.185E+02 -.129E-02 -.269E+04   -.195E+02 0.144E-02 0.269E+04   0.964E+00 -.202E-04 -.276E+00
   -.723E+02 0.584E-04 -.307E+04   0.724E+02 -.564E-04 0.307E+04   0.101E+00 -.757E-06 0.743E+00
   0.185E+02 0.934E-04 -.269E+04   -.195E+02 -.102E-03 0.269E+04   0.964E+00 0.136E-05 -.276E+00
   -.723E+02 -.712E-04 -.307E+04   0.724E+02 0.222E-04 0.307E+04   0.100E+00 0.670E-05 0.743E+00
   0.402E+01 -.775E-06 0.323E+04   0.606E+00 0.702E-06 -.322E+04   -.987E+00 0.639E-08 -.323E+01
   0.499E+01 -.124E-04 0.265E+04   -.651E+01 0.137E-04 -.265E+04   -.844E-01 -.284E-06 -.833E-01
   0.402E+01 -.422E-05 0.323E+04   0.606E+00 0.465E-05 -.322E+04   -.987E+00 -.858E-07 -.323E+01
   0.499E+01 -.401E-05 0.265E+04   -.651E+01 0.421E-05 -.265E+04   -.844E-01 -.365E-07 -.833E-01
   -.121E+01 -.385E-04 0.119E+04   0.102E+01 0.425E-04 -.119E+04   0.192E+00 -.719E-06 -.391E-01
   -.546E+01 0.229E-04 0.738E+03   0.546E+01 -.231E-04 -.738E+03   0.300E-01 -.264E-06 -.946E-01
   -.121E+01 -.840E-04 0.119E+04   0.102E+01 0.937E-04 -.119E+04   0.192E+00 -.149E-05 -.391E-01
   -.546E+01 -.433E-04 0.738E+03   0.546E+01 0.462E-04 -.738E+03   0.300E-01 -.950E-06 -.946E-01
   -.241E+01 -.455E-04 -.773E+03   0.209E+01 0.504E-04 0.773E+03   0.320E+00 -.842E-06 0.345E-01
   -.939E+01 0.601E-03 -.117E+04   0.949E+01 -.672E-03 0.117E+04   -.327E-01 0.105E-04 -.169E+00
   -.241E+01 -.142E-04 -.773E+03   0.209E+01 0.450E-04 0.773E+03   0.320E+00 -.417E-05 0.345E-01
   -.939E+01 0.704E-05 -.117E+04   0.949E+01 -.634E-05 0.117E+04   -.327E-01 -.320E-07 -.169E+00
   0.185E+02 0.162E-03 -.269E+04   -.195E+02 -.178E-03 0.269E+04   0.964E+00 0.239E-05 -.276E+00
   -.723E+02 0.141E-03 -.307E+04   0.724E+02 -.105E-03 0.307E+04   0.100E+00 -.555E-05 0.743E+00
   0.185E+02 0.116E-02 -.269E+04   -.195E+02 -.128E-02 0.269E+04   0.964E+00 0.166E-04 -.276E+00
   -.723E+02 0.462E-04 -.307E+04   0.724E+02 -.452E-04 0.307E+04   0.101E+00 -.461E-06 0.743E+00
   0.402E+01 0.599E-05 0.323E+04   0.606E+00 -.694E-05 -.322E+04   -.987E+00 0.205E-06 -.323E+01
   0.499E+01 0.196E-04 0.265E+04   -.651E+01 -.215E-04 -.265E+04   -.844E-01 0.491E-06 -.833E-01
   0.402E+01 0.411E-05 0.323E+04   0.606E+00 -.453E-05 -.322E+04   -.987E+00 0.932E-07 -.323E+01
   0.499E+01 -.446E-05 0.265E+04   -.651E+01 0.446E-05 -.265E+04   -.844E-01 0.427E-07 -.833E-01
   -.121E+01 -.238E-04 0.119E+04   0.102E+01 0.277E-04 -.119E+04   0.192E+00 -.931E-06 -.391E-01
   -.546E+01 -.205E-04 0.738E+03   0.546E+01 0.219E-04 -.738E+03   0.300E-01 0.120E-07 -.946E-01
   -.121E+01 0.176E-03 0.119E+04   0.102E+01 -.189E-03 -.119E+04   0.192E+00 0.216E-05 -.391E-01
   -.546E+01 -.237E-04 0.738E+03   0.546E+01 0.229E-04 -.738E+03   0.300E-01 -.131E-06 -.946E-01
   -.241E+01 -.386E-04 -.773E+03   0.209E+01 0.735E-04 0.773E+03   0.320E+00 -.430E-05 0.345E-01
   -.939E+01 -.630E-03 -.117E+04   0.949E+01 0.703E-03 0.117E+04   -.327E-01 -.107E-04 -.169E+00
   -.241E+01 -.157E-03 -.773E+03   0.209E+01 0.130E-03 0.773E+03   0.320E+00 0.374E-05 0.345E-01
   -.939E+01 0.635E-03 -.117E+04   0.949E+01 -.705E-03 0.117E+04   -.327E-01 0.108E-04 -.169E+00
   0.185E+02 0.113E-02 -.269E+04   -.195E+02 -.126E-02 0.269E+04   0.964E+00 0.178E-04 -.276E+00
   -.723E+02 -.197E-03 -.307E+04   0.724E+02 0.160E-03 0.307E+04   0.100E+00 0.624E-05 0.743E+00
   0.185E+02 -.126E-02 -.269E+04   -.195E+02 0.139E-02 0.269E+04   0.964E+00 -.179E-04 -.276E+00
   -.723E+02 0.194E-04 -.307E+04   0.724E+02 0.287E-04 0.307E+04   0.100E+00 -.629E-05 0.743E+00
   -.317E+02 0.478E-06 0.218E+04   0.363E+02 -.414E-06 -.220E+04   -.633E+01 -.753E-07 0.166E+02
   -.317E+02 -.409E-06 0.218E+04   0.363E+02 0.543E-06 -.220E+04   -.633E+01 -.164E-06 0.166E+02
   0.778E+02 0.482E-05 0.132E+04   -.819E+02 -.583E-05 -.132E+04   0.321E+01 0.124E-05 -.408E+01
   0.721E+02 -.890E-05 0.161E+04   -.785E+02 0.103E-04 -.161E+04   0.669E+01 -.314E-05 -.234E+01
   -.836E+02 -.140E-05 0.186E+04   0.901E+02 0.140E-05 -.186E+04   -.627E+01 0.495E-09 -.343E+00
   -.650E+02 0.614E-05 0.101E+04   0.699E+02 -.649E-05 -.101E+04   -.487E+01 0.286E-06 0.424E+01
   0.778E+02 0.158E-04 0.132E+04   -.819E+02 -.170E-04 -.132E+04   0.321E+01 0.113E-05 -.408E+01
   0.721E+02 -.674E-07 0.161E+04   -.785E+02 -.386E-07 -.161E+04   0.669E+01 0.283E-06 -.234E+01
   -.836E+02 0.370E-05 0.186E+04   0.901E+02 -.337E-05 -.186E+04   -.627E+01 -.107E-05 -.343E+00
   -.650E+02 0.242E-04 0.101E+04   0.699E+02 -.259E-04 -.101E+04   -.487E+01 0.177E-05 0.424E+01
   0.756E+02 0.613E-04 0.138E+03   -.813E+02 -.752E-04 -.133E+03   0.568E+01 0.164E-04 -.499E+01
   0.753E+02 0.944E-04 0.448E+03   -.811E+02 -.100E-03 -.445E+03   0.587E+01 0.514E-05 -.293E+01
[...]
   0.782E+02 0.233E-03 -.105E+04   -.837E+02 -.270E-03 0.106E+04   0.550E+01 0.426E-04 -.754E+01
   0.746E+02 0.952E-03 -.711E+03   -.804E+02 -.984E-03 0.715E+03   0.582E+01 -.385E-04 -.308E+01
   -.747E+02 0.114E-03 -.460E+03   0.802E+02 -.125E-03 0.457E+03   -.550E+01 -.348E-05 0.248E+01
   -.474E+02 -.319E-03 -.125E+04   0.485E+02 0.353E-03 0.124E+04   -.107E+01 -.396E-04 0.988E+01
   0.782E+02 -.300E-03 -.105E+04   -.837E+02 0.340E-03 0.106E+04   0.550E+01 -.461E-04 -.754E+01
   0.746E+02 -.958E-03 -.711E+03   -.804E+02 0.997E-03 0.715E+03   0.582E+01 0.260E-04 -.308E+01
   -.747E+02 0.265E-03 -.460E+03   0.802E+02 -.287E-03 0.457E+03   -.550E+01 0.248E-04 0.248E+01
   -.474E+02 0.287E-03 -.125E+04   0.485E+02 -.316E-03 0.124E+04   -.107E+01 0.344E-04 0.988E+01
   0.426E+02 0.279E-03 -.221E+04   -.474E+02 -.308E-03 0.223E+04   0.474E+01 0.366E-04 -.208E+02
   0.599E+02 0.293E-03 -.194E+04   -.643E+02 -.353E-03 0.195E+04   0.446E+01 0.889E-04 -.749E+01
   -.572E+02 -.121E-02 -.160E+04   0.621E+02 0.129E-02 0.159E+04   -.485E+01 0.705E-05 0.301E+01
   0.426E+02 -.287E-03 -.221E+04   -.474E+02 0.317E-03 0.223E+04   0.474E+01 -.380E-04 -.208E+02
   0.599E+02 -.203E-03 -.194E+04   -.643E+02 0.256E-03 0.195E+04   0.446E+01 -.830E-04 -.749E+01
   -.572E+02 0.123E-02 -.160E+04   0.621E+02 -.130E-02 0.159E+04   -.485E+01 -.174E-04 0.301E+01
   -.217E+02 -.654E-05 0.734E+02   -.682E-12 -.126E-11 0.728E-11   0.217E+02 0.685E-05 -.734E+02

 POSITION                                       TOTAL-FORCE (eV/Angst)
      8.55404      9.59823      8.23961         3.651374      0.000001      1.720172
      6.28143      7.67858      9.13291        -1.612726      0.000000     -1.904499
      3.30657      7.67858      8.23961         3.651371      0.000000      1.720172
      1.03396      9.59823      9.13291        -1.612724     -0.000000     -1.904492
      9.95382      9.59823     11.85788         0.004037     -0.000007     -0.001258
      7.64891      7.67858     12.66916        -0.005579     -0.000001     -0.005739
      4.70635      7.67858     11.85788         0.004021      0.000001     -0.001270
      2.40144      9.59823     12.66916        -0.005613     -0.000001     -0.005766
      0.90933      9.59823     15.47741        -0.000543     -0.000034     -0.006252
      9.06709      7.67858     16.20640         0.004945     -0.000004     -0.006889
      6.15680      7.67858     15.47740        -0.000422     -0.000002     -0.006216
      3.81962      9.59823     16.20640         0.004927      0.000057     -0.006964
      2.41899      9.59823     19.17637         0.007993      0.000121      0.003159
      0.01055      7.67858     19.72303        -0.000720      0.000001     -0.000967
      7.66645      7.67858     19.17637         0.008055     -0.000007      0.003145
      5.25801      9.59823     19.72303        -0.000308     -0.000042     -0.000757
      8.55404      1.91965      8.23961         3.651373     -0.000000      1.720174
      6.28143      0.00000      9.13291        -1.612725      0.000001     -1.904490
      3.30657      0.00000      8.23961         3.651374      0.000000      1.720173
      1.03396      1.91965      9.13291        -1.612727      0.000000     -1.904496
      9.95382      1.91965     11.85788         0.004024      0.000003     -0.001275
      7.64891     -0.00000     12.66916        -0.005612     -0.000001     -0.005774
      4.70635      0.00000     11.85788         0.004039      0.000008     -0.001263
      2.40144      1.91965     12.66916        -0.005585      0.000002     -0.005756
      0.90933      1.91965     15.47740        -0.000448      0.000004     -0.006223
      9.06709      0.00000     16.20640         0.004936     -0.000059     -0.006964
      6.15680     -0.00000     15.47740        -0.000543      0.000026     -0.006252
      3.81962      1.91965     16.20640         0.004954      0.000001     -0.006894
      2.41898      1.91965     19.17637         0.008057     -0.000014      0.003156
      0.01054     -0.00000     19.72303        -0.000285      0.000029     -0.000749
      7.66645      0.00000     19.17637         0.007980     -0.000106      0.003155
      5.25802      1.91965     19.72303        -0.000671      0.000000     -0.000936
      8.55404      5.75894      8.23961         3.651374     -0.000001      1.720172
      6.28143      3.83929      9.13291        -1.612725     -0.000001     -1.904492
      3.30657      3.83929      8.23961         3.651373     -0.000000      1.720173
      1.03396      5.75894      9.13291        -1.612724      0.000000     -1.904491
      9.95382      5.75894     11.85788         0.004039      0.000003     -0.001255
      7.64891      3.83929     12.66916        -0.005605      0.000001     -0.005773
      4.70635      3.83929     11.85788         0.004034     -0.000011     -0.001262
      2.40144      5.75894     12.66916        -0.005617     -0.000001     -0.005765
      0.90933      5.75894     15.47741        -0.000548      0.000030     -0.006257
      9.06709      3.83929     16.20640         0.004939      0.000061     -0.006950
      6.15680      3.83929     15.47740        -0.000541     -0.000023     -0.006246
      3.81962      5.75894     16.20640         0.004928     -0.000058     -0.006974
      2.41899      5.75894     19.17637         0.007979     -0.000108      0.003154
      0.01054      3.83929     19.72303        -0.000337     -0.000030     -0.000778
      7.66645      3.83929     19.17637         0.007997      0.000113      0.003154
      5.25801      5.75894     19.72303        -0.000269      0.000041     -0.000741
      5.18821      7.67858      7.50000        -1.709471     -0.000000      1.039941
     10.43568      9.59823      7.50000        -1.709472     -0.000000      1.039940
      9.64726      9.59823      9.87252        -0.905798      0.000000     -0.138181
      6.67240      9.59823      8.97923         0.348956     -0.000002     -0.060473
      8.16307      7.67858      8.39329         0.261492     -0.000000     -1.073926
      6.59271      7.67858     11.07317        -0.051648     -0.000000      0.436915
      4.39979      7.67858      9.87252        -0.905796     -0.000000     -0.138176
      1.42493      7.67858      8.97923         0.348957      0.000000     -0.060474
      2.91560      9.59823      8.39329         0.261493     -0.000001     -1.073927
      1.34524      9.59823     11.07317        -0.051645      0.000000      0.436914
      0.56585      9.59823     13.46147         0.001234      0.000002      0.006566
      8.07233      9.59823     12.56127         0.001079     -0.000001     -0.000943
[...]
      2.77450      5.75894     14.64418        -0.002774      0.000003      0.001131
      2.04338      5.75894     17.05999        -0.007393      0.000007     -0.002396
      9.51019      5.75894     16.13204        -0.000270     -0.000071     -0.000216
      0.52256      3.83929     15.56052         0.004988     -0.000015      0.002720
      9.56092      3.83929     18.19613         0.002253     -0.000006     -0.002812
      7.29085      3.83929     17.05999        -0.007406     -0.000006     -0.002410
      4.26272      3.83929     16.13204        -0.000272      0.000065     -0.000212
      5.77002      5.75894     15.56052         0.004983      0.000002      0.002722
      4.31345      5.75894     18.19614         0.002225      0.000006     -0.002857
      3.62722      5.75894     20.60808         0.003581      0.000008      0.000420
      0.55099      5.75894     19.94617         0.001813      0.000029     -0.004199
      2.02404      3.83929     19.17333         0.002380      0.000084     -0.002384
      8.87469      3.83929     20.60808         0.003602     -0.000008      0.000410
      5.79846      3.83929     19.94617         0.001800     -0.000031     -0.004200
      7.27151      5.75894     19.17333         0.002373     -0.000088     -0.002384
    total drift:                                0.015713      0.000000     -0.002287

  FREE ENERGIE OF THE ION-ELECTRON SYSTEM (eV)
  free  energy   TOTEN  =      -941.01691586 eV

  energy  without entropy=     -941.01691586  energy(sigma->0) =     -941.01691586

 d Force = 0.2032116E-03[ 0.818E-04, 0.325E-03]  d Energy = 0.2134317E-03-0.102E-04
 d Force =-0.3796052E+02[-0.380E+02,-0.380E+02]  d Ewald  =-0.3796051E+02-0.106E-04

 Conjugate gradient step on ions:
 trial-energy change:   -0.000213  1 .order   -0.000203   -0.000325   -0.000082
  (g-gl).g = 0.339E-03      g.g   = 0.412E-03  gl.gl    = 0.400E-03
 g(Force)  = 0.412E-03   g(Stress)= 0.000E+00 ortho     = 0.473E-04
 gamma     =   0.84627
 trial     =   0.71843
 opt step  =   0.90222  (harmonic =   0.96051) maximal distance =0.00132088
 next E    =  -941.016926   (d E  =  -0.00022)

 reached required accuracy - stopping structural energy minimisation