 vasp.6.3.0 20Jan22 (build Apr  1 2022 16:44:48) gamma-only
 executed on        HPECrayEX_GCC date 2023.03.12  00:22:47

 INCAR:
   SYSTEM = MgO-rocksalt
   ISMEAR = 0
   SIGMA = 0.05
   EDIFF = 1E-6
   ALGO = ALL
   ISTART = 0
   IBRION = -1
   NSW = 0
   ISYM = 0
   DIPOL = 0.5 0.5 0.5
   IDIPOL = 3
   LDIPOL = .TRUE.
   LHFCALC = .TRUE.
   GGA = B5
   AEXX = 0.2
   AGGAX = 0.72
   AGGAC = 0.81
   ALDAC = 0.19
   IVDW = 1
   VDW_S6 = 1.05
   VDW_C6 = 0.14 0.70 0.63 0.70
   VDW_R0 = 1.001 1.342 1.243 1.342
   ENCUT = 520
   PREC = Accurate
   LASPH = .TRUE.
   LREAL = Auto
   ISPIN = 1
   NELM = 200
   NELMIN = 8
   NCORE = 8
   KPAR = 1
   LWAVE = .FALSE.
   LCHARG = .FALSE.

 POTCAR:    PAW_PBE H 15Jun2001
 POTCAR:    PAW_PBE O 08Apr2002
 POTCAR:    PAW_PBE Mg_pv 13Apr2007
 POTCAR:    PAW_PBE O 08Apr2002
 POTCAR:    PAW_PBE H 15Jun2001
   VRHFIN =H: ultrasoft test

   TITEL  = PAW_PBE H 15Jun2001
   POMASS =    1.000; ZVAL   =    1.000    mass and valenz
   ENMAX  =  250.000; ENMIN  =  200.000 eV

   TITEL  = PAW_PBE O 08Apr2002
   POMASS =   16.000; ZVAL   =    6.000    mass and valenz
   ENMAX  =  400.000; ENMIN  =  300.000 eV

   TITEL  = PAW_PBE Mg_pv 13Apr2007
   POMASS =   24.305; ZVAL   =    8.000    mass and valenz
   ENMAX  =  403.929; ENMIN  =  302.947 eV

   TITEL  = PAW_PBE O 08Apr2002
   POMASS =   16.000; ZVAL   =    6.000    mass and valenz
   ENMAX  =  400.000; ENMIN  =  300.000 eV

 Optimization of the real space projectors (new method)

 maximal supplied QI-value         = 34.20
 optimisation between [QCUT,QGAM] = [ 11.63, 23.26] = [ 37.87,151.49] Ry
 Optimized for a Real-space Cutoff    1.21 Angstroem

   l    n(q)    QCUT    max X(q) W(low)/X(q) W(high)/X(q)  e(spline)
   0      8    11.629    19.460    0.17E-03    0.34E-03    0.21E-06
   0      8    11.629    12.209    0.16E-03    0.33E-03    0.21E-06
   1      8    11.629     4.655    0.18E-03    0.16E-03    0.26E-06
 Optimization of the real space projectors (new method)

[...]

   l    n(q)    QCUT    max X(q) W(low)/X(q) W(high)/X(q)  e(spline)
   1      8    11.527     2.974    0.44E-04    0.56E-04    0.12E-06
   1      8    11.527     4.279    0.12E-03    0.12E-03    0.26E-06
   0      9    11.527    16.381    0.46E-04    0.64E-04    0.78E-07
   0      9    11.527     5.611    0.26E-04    0.43E-04    0.55E-07
   2      8    11.527     4.652    0.22E-03    0.72E-04    0.47E-07
 Optimization of the real space projectors (new method)

 maximal supplied QI-value         = 24.76
 optimisation between [QCUT,QGAM] = [ 11.64, 23.27] = [ 37.91,151.63] Ry
 Optimized for a Real-space Cutoff    1.14 Angstroem

   l    n(q)    QCUT    max X(q) W(low)/X(q) W(high)/X(q)  e(spline)
   0      8    11.635    20.381    0.10E-03    0.33E-03    0.24E-06
   0      8    11.635    15.268    0.11E-03    0.35E-03    0.26E-06
   1      7    11.635     5.964    0.24E-03    0.31E-03    0.30E-06
   1      7    11.635     5.382    0.22E-03    0.25E-03    0.26E-06
|               ----> ADVICE to this user running VASP <----                  |
|     You enforced a specific xc type in the INCAR file but a different       |
|     type was found in the POTCAR file.                                      |
|     I HOPE YOU KNOW WHAT YOU ARE DOING!                                     |

  PAW_PBE H 15Jun2001                   :
  PAW_PBE O 08Apr2002                   :
  PAW_PBE Mg_pv 13Apr2007               :
  PAW_PBE O 08Apr2002                   :

 POSCAR:  H  O Mg  O
  positions in direct lattice
 exchange correlation table for  LEXCH =       12
   RHO(1)=    0.500       N(1)  =     2000
   RHO(2)=  100.500       N(2)  =     4000

 ion  position               nearest neighbor table
   1  0.415  0.429  0.759-   9 0.98
   2  0.329  0.391  0.766-   9 0.96
   3  0.586  0.324  0.760-  10 0.98
   4  0.672  0.360  0.766-  10 0.96
   5  0.449  0.292  0.760-  11 0.98
   6  0.485  0.206  0.768-  11 0.96
   7  0.553  0.464  0.760-  12 0.98
   8  0.516  0.550  0.762-  12 0.96
   9  0.384  0.380  0.755-   2 0.96   1 0.98  43 2.24
  10  0.618  0.372  0.755-   4 0.96   3 0.98  91 2.23
  11  0.497  0.259  0.755-   6 0.96   5 0.98 108 2.23
  12  0.504  0.494  0.755-   8 0.96   7 0.98 132 2.23
  13  0.125  0.000  0.352- 143 2.10 144 2.10 160 2.10 183 2.10 141 2.10
  14  0.250  0.125  0.352- 143 2.10 144 2.10 152 2.10 159 2.10 142 2.10
  15  0.125  0.125  0.451- 141 2.10 142 2.10 149 2.10 158 2.10 143 2.10 147 2.10
  16  0.250  0.000  0.451- 141 2.10 142 2.10 157 2.10 182 2.10 144 2.10 148 2.10
  17  0.125  1.000  0.550- 148 2.10 147 2.10 187 2.10 164 2.10 141 2.11 145 2.13
  18  0.250  0.125  0.549- 156 2.10 163 2.10 147 2.10 148 2.10 142 2.10 146 2.13
  19  0.125  0.125  0.647- 147 2.09 146 2.10 162 2.10 153 2.10 145 2.10
  20  0.250  1.000  0.647- 148 2.09 146 2.10 161 2.10 186 2.10 145 2.10
  21  0.125  0.250  0.352- 143 2.10 151 2.10 152 2.10 168 2.10 149 2.10
  22  0.250  0.375  0.352- 151 2.10 152 2.10 167 2.10 176 2.10 150 2.10
  23  0.125  0.375  0.451- 149 2.10 150 2.10 166 2.10 173 2.10 151 2.10 155 2.10
  24  0.250  0.250  0.451- 156 2.10 149 2.10 150 2.10 142 2.10 165 2.10 152 2.10
  25  0.125  0.250  0.550- 156 2.10 172 2.10 155 2.10 147 2.10 149 2.11 153 2.13
  26  0.250  0.375  0.550- 171 2.08 156 2.10 180 2.10 155 2.11 150 2.11 154 2.15
  27  0.125  0.375  0.647- 155 2.08 154 2.09 170 2.10 153 2.11 177 2.11
  28  0.250  0.250  0.647- 156 2.08 169 2.08 153 2.10 146 2.10 154 2.11
  29  0.375  0.000  0.352- 144 2.10 159 2.10 199 2.10 224 2.10 157 2.10
  30  0.000  0.125  0.352- 143 2.10 160 2.10 168 2.10 223 2.10 158 2.10
  31  0.375  0.125  0.451- 163 2.10 157 2.10 142 2.10 165 2.10 222 2.10 159 2.10
  32  0.000  0.000  0.451- 141 2.10 158 2.10 198 2.10 221 2.10 160 2.10 164 2.10
  33  0.375  1.000  0.550- 163 2.10 203 2.10 228 2.10 148 2.10 157 2.11 161 2.13
  34  0.000  0.125  0.550- 147 2.10 227 2.10 164 2.10 172 2.10 158 2.11 162 2.13
  35  0.375  0.125  0.646- 163 2.07 169 2.08 161 2.10 146 2.10 226 2.11
  36  0.000  1.000  0.647- 164 2.09 145 2.10 225 2.10 202 2.10 162 2.10
  37  0.375  0.250  0.352- 152 2.10 159 2.10 167 2.10 232 2.10 165 2.10
  38  0.000  0.375  0.352- 151 2.10 168 2.10 192 2.10 231 2.10 166 2.10
  39  0.375  0.375  0.451- 150 2.10 165 2.10 189 2.10 230 2.10 167 2.10 171 2.11
  40  0.000  0.250  0.451- 149 2.10 158 2.10 166 2.10 229 2.10 168 2.10 172 2.10
  41  0.376  0.250  0.550- 171 2.09 236 2.09 169 2.10 163 2.12 156 2.12 165 2.12
  42  0.000  0.375  0.550- 235 2.10 155 2.10 172 2.10 196 2.10 166 2.11 170 2.13
  43  0.375  0.374  0.650- 234 2.09 169 2.11 154 2.13 193 2.14 171 2.14   9 2.24
  44  0.000  0.250  0.647- 172 2.09 233 2.10 153 2.10 162 2.10 170 2.10
  45  0.125  0.500  0.352- 151 2.10 175 2.10 176 2.10 192 2.10 173 2.10
  46  0.250  0.625  0.352- 175 2.10 176 2.10 184 2.10 191 2.10 174 2.10
  47  0.125  0.625  0.451- 173 2.10 174 2.10 181 2.10 190 2.10 175 2.10 179 2.10
  48  0.250  0.500  0.451- 180 2.10 173 2.10 174 2.10 150 2.10 189 2.10 176 2.10
  49  0.125  0.500  0.550- 180 2.10 196 2.10 155 2.10 179 2.10 173 2.11 177 2.13
  50  0.250  0.625  0.549- 188 2.10 180 2.10 195 2.10 179 2.10 174 2.10 178 2.13
  51  0.125  0.625  0.647- 179 2.09 178 2.10 194 2.10 177 2.10 185 2.10
  52  0.250  0.500  0.646- 180 2.07 193 2.08 177 2.10 178 2.10 154 2.11
  53  0.125  0.750  0.352- 175 2.10 183 2.10 184 2.10 200 2.10 181 2.10
  54  0.250  0.875  0.352- 144 2.10 183 2.10 184 2.10 199 2.10 182 2.10
  55  0.125  0.875  0.451- 141 2.10 181 2.10 182 2.10 198 2.10 183 2.10 187 2.10
  56  0.250  0.750  0.451- 174 2.10 181 2.10 182 2.10 197 2.10 184 2.10 188 2.10
  57  0.125  0.750  0.550- 179 2.10 188 2.10 204 2.10 187 2.10 181 2.11 185 2.13
  58  0.250  0.875  0.550- 148 2.10 188 2.10 187 2.10 203 2.10 182 2.11 186 2.13
  59  0.125  0.875  0.647- 187 2.09 145 2.10 185 2.10 202 2.10 186 2.10
  60  0.250  0.750  0.647- 188 2.09 178 2.10 186 2.10 201 2.10 185 2.10
[...]
 254  0.500  0.625  0.451-  63 2.10 111 2.10 128 2.10 136 2.10 126 2.10 130 2.11
 255  0.875  0.625  0.352-  62 2.10 110 2.10 125 2.10 133 2.10 127 2.10
 256  0.500  0.500  0.352-  61 2.10 102 2.10 109 2.10 126 2.10 128 2.10
 257  0.875  0.500  0.650-  68 2.10 131 2.10 116 2.10 107 2.11 129 2.13
 258  0.500  0.626  0.651- 140 2.09 115 2.11  67 2.11 132 2.13 130 2.16
 259  0.875  0.625  0.549- 131 2.09  66 2.10 137 2.10 114 2.10 127 2.10 129 2.10
 260  0.500  0.501  0.550- 130 2.08  65 2.09 113 2.09 128 2.11 106 2.11 132 2.13
 261  0.875  0.750  0.451-  72 2.10 120 2.10 127 2.10 135 2.10 133 2.10 137 2.11
 262  0.500  0.875  0.451-  71 2.10  96 2.10 119 2.10 136 2.10 134 2.10 138 2.11
 263  0.875  0.875  0.352-  70 2.10  93 2.10 118 2.10 133 2.10 135 2.10
 264  0.500  0.750  0.352-  69 2.10 117 2.10 126 2.10 134 2.10 136 2.10
 265  0.875  0.750  0.650-  76 2.10 139 2.10 124 2.10 131 2.10 137 2.13
 266  0.500  0.875  0.650- 140 2.10 100 2.10 123 2.10  75 2.10 138 2.13
 267  0.875  0.875  0.549- 139 2.09  74 2.10  97 2.10 137 2.10 122 2.10 135 2.10
 268  0.500  0.750  0.550- 140 2.08  73 2.10 121 2.10 138 2.10 136 2.11 130 2.11

IMPORTANT INFORMATION: All symmetrisations will be switched off!
NOSYMM: (Re-)initialisation of all symmetry stuff for point group C_1.

                                     Primitive cell

  volume of cell :    6019.7037

  direct lattice vectors                    reciprocal lattice vectors
    16.809723990  0.000000000  0.000000000     0.059489377  0.000000000  0.000000000
     0.000000000 16.809723990  0.000000000     0.000000000  0.059489377  0.000000000
     0.000000000  0.000000000 21.303646496     0.000000000  0.000000000  0.046940321

  length of vectors
    16.809723990 16.809723990 21.303646496     0.059489377  0.059489377  0.046940321

  position of ions in fractional coordinates (direct lattice)
     0.414979739  0.428725290  0.759282617
     0.329126468  0.391283566  0.765839209
     0.585509475  0.324206970  0.760257342
     0.672236373  0.359981501  0.765572115
     0.448732982  0.291998748  0.759906797
     0.484971996  0.205798949  0.767955448
     0.553478713  0.463521880  0.759576989
     0.515772960  0.549672911  0.762273890
     0.383555896  0.379972938  0.754764871
     0.617908986  0.372225412  0.754787365
     0.496740562  0.259459590  0.754916559
     0.504426301  0.494262663  0.754579490
     0.125000000  0.000000000  0.352052406
     0.250000000  0.125000000  0.352052406
     0.125000000  0.125000000  0.450684135
     0.250000000  0.000000000  0.450684135
     0.124984140  0.999978861  0.549671901
     0.249913573  0.124978801  0.549448337
     0.124921945  0.124871556  0.647315951
     0.249863735  0.999913729  0.647311719
     0.125000000  0.250000000  0.352052406
     0.250000000  0.375000000  0.352052406
     0.125000000  0.375000000  0.450684135
     0.250000000  0.250000000  0.450684135
     0.124941955  0.250032632  0.549567895
     0.250402639  0.374961324  0.549795126
     0.124865275  0.375023887  0.647272401
     0.249864603  0.249625822  0.646719859
     0.375000000  0.000000000  0.352052406
     0.000000000  0.125000000  0.352052406
     0.375000000  0.125000000  0.450684135
     0.000000000  0.000000000  0.450684135
     0.375013683  0.999885038  0.549512382
[...]
   0.00000000  4.20243100  9.60121550
   6.31287406  4.20979546 11.72051982
   0.00005286  6.30363651 11.70957758
   6.31140996  6.29233836 13.84913024
   0.00023000  4.20066370 13.79007620
   2.10121550  8.40486199  7.50000000
   4.20243100 10.50607749  7.50000000
   2.10121550 10.50607749  9.60121550
   4.20243100  8.40486199  9.60121550
   2.09892994  8.40472124 11.70642257
   4.20185824 10.50782650 11.70506788
   2.09940865 10.50864345 13.79001996
   4.19945098  8.41232852 13.76797793
   2.10121550 12.60729299  7.50000000
   4.20243100 14.70850849  7.50000000
   2.10121550 14.70850849  9.60121550
   4.20243100 12.60729299  9.60121550
   2.10078182 12.60765318 11.70998557
   4.20168714 14.70851988 11.70983432
   2.10015447 14.70852972 13.79131009
   4.20018515 12.60878248 13.79009510
[...]
   8.40486199 10.50607749  9.60121550
  14.70850849 10.50607749  7.50000000
   8.40486199  8.40486199  7.50000000
  14.71178956  8.40814896 13.83935659
   8.40752975 10.52258943 13.87122992
  14.71081112 10.50747341 11.70371210
   8.40392223  8.41505378 11.70969504
  14.70850849 12.60729299  9.60121550
   8.40486199 14.70850849  9.60121550
  14.70850849 14.70850849  7.50000000
   8.40486199 12.60729299  7.50000000
  14.71092392 12.60970383 13.83988181
   8.40490503 14.70842103 13.84111510
  14.70920367 14.70860041 11.70475326
   8.40503224 12.60717385 11.70667694

--------------------------------------- Iteration      FINAL  ---------------------------------------

--------------------OUTCAR has been truncated-------------------------

[...]

--------------------OUTCAR has been truncated-------------------------

  DFT-D2 method for vdW energy calculation

  Parameters of vdW forcefield:
         C6(Jnm^6/mol)     R0(A)
   H        0.140          1.001
   O        0.700          1.342
   Mg       0.630          1.243
   O        0.700          1.342

  vdW correction parametrized for the method ªiü      

  IVDW =   1
  VDW_RADIUS =    50.000 A
  VDW_S6 =     1.050
  VDW_SR =     1.000
  VDW_D =    20.000
  LVDW_EWALD = F

  Number of pair interactions contributing to vdW energy: 3164747
  Edisp (eV):  -21.41655

 VOLUME and BASIS-vectors are now :
  energy-cutoff  :      520.00
  volume of cell :     6019.70
      direct lattice vectors                 reciprocal lattice vectors
    16.809723990  0.000000000  0.000000000     0.059489377  0.000000000  0.000000000
     0.000000000 16.809723990  0.000000000     0.000000000  0.059489377  0.000000000
     0.000000000  0.000000000 21.303646496     0.000000000  0.000000000  0.046940321

  length of vectors
    16.809723990 16.809723990 21.303646496     0.059489377  0.059489377  0.046940321

 FORCES acting on ions:
    Electron-Ion                     Ewald-Force                    Non-Local-Force
   -.132E+02 -.678E+02 -.286E+03   0.179E+02 0.747E+02 0.286E+03   -.455E+01 -.664E+01 -.690E+00
   0.104E+03 -.168E+02 -.292E+03   -.113E+03 0.183E+02 0.294E+03   0.812E+01 -.146E+01 -.199E+01
   0.141E+02 0.662E+02 -.287E+03   -.189E+02 -.729E+02 0.288E+03   0.465E+01 0.649E+01 -.851E+00
   -.104E+03 0.182E+02 -.291E+03   0.113E+03 -.199E+02 0.293E+03   -.810E+01 0.160E+01 -.193E+01
   0.661E+02 -.142E+02 -.286E+03   -.728E+02 0.190E+02 0.287E+03   0.650E+01 -.467E+01 -.757E+00
   0.175E+02 0.103E+03 -.293E+03   -.191E+02 -.111E+03 0.296E+03   0.153E+01 0.798E+01 -.235E+01
   -.688E+02 0.124E+02 -.286E+03   0.757E+02 -.170E+02 0.287E+03   -.670E+01 0.448E+01 -.795E+00
   -.168E+02 -.105E+03 -.289E+03   0.183E+02 0.114E+03 0.290E+03   -.145E+01 -.822E+01 -.135E+01
   0.138E+03 0.320E+02 -.168E+04   -.122E+03 -.677E+02 0.167E+04   -.149E+02 0.318E+02 0.949E+01
   -.139E+03 -.339E+02 -.168E+04   0.122E+03 0.700E+02 0.167E+04   0.144E+02 -.321E+02 0.979E+01
   -.325E+02 0.140E+03 -.167E+04   0.680E+02 -.124E+03 0.166E+04   -.316E+02 -.140E+02 0.113E+02
   0.332E+02 -.137E+03 -.168E+04   -.693E+02 0.119E+03 0.167E+04   0.322E+02 0.156E+02 0.711E+01
   0.354E+01 0.352E+01 0.210E+04   -.353E+01 -.351E+01 -.210E+04   -.477E-02 -.589E-02 -.640E+01
   0.617E+01 0.615E+01 0.211E+04   -.614E+01 -.612E+01 -.210E+04   -.222E-01 -.225E-01 -.639E+01
   0.779E+01 0.841E+01 0.717E+03   -.779E+01 -.840E+01 -.718E+03   0.814E-03 -.385E-02 0.390E+00
   0.850E+01 0.776E+01 0.717E+03   -.850E+01 -.776E+01 -.718E+03   -.237E-02 -.140E-02 0.390E+00
   0.985E+01 0.978E+01 -.676E+03   -.984E+01 -.977E+01 0.676E+03   -.973E-02 -.108E-01 -.156E+00
   0.239E+02 0.237E+02 -.653E+03   -.239E+02 -.237E+02 0.653E+03   -.102E-01 -.320E-01 -.814E-01
   0.253E+02 0.231E+02 -.206E+04   -.252E+02 -.231E+02 0.205E+04   -.102E+00 -.893E-02 0.550E+01
   0.233E+02 0.253E+02 -.206E+04   -.233E+02 -.252E+02 0.205E+04   -.163E-01 -.111E+00 0.550E+01
   0.506E+01 0.363E+01 0.211E+04   -.503E+01 -.362E+01 -.210E+04   -.219E-01 -.798E-02 -.640E+01
   0.785E+01 0.112E+00 0.211E+04   -.779E+01 -.114E+00 -.210E+04   -.398E-01 0.179E-02 -.644E+01
   0.106E+02 0.268E+00 0.723E+03   -.105E+02 -.272E+00 -.724E+03   -.747E-01 0.221E-02 0.419E+00
   0.140E+02 0.834E+01 0.732E+03   -.139E+02 -.826E+01 -.732E+03   -.811E-01 -.564E-01 0.326E+00
   0.217E+02 0.112E+02 -.660E+03   -.215E+02 -.112E+02 0.660E+03   -.126E+00 -.317E-01 -.106E+00
   0.432E+02 0.632E+00 -.633E+03   -.427E+02 -.671E+00 0.632E+03   -.488E+00 0.349E-01 0.253E+00
   0.505E+02 0.632E+00 -.204E+04   -.502E+02 -.637E+00 0.203E+04   -.298E+00 0.388E-02 0.546E+01
   0.871E+02 0.456E+02 -.200E+04   -.865E+02 -.458E+02 0.199E+04   -.531E+00 0.138E+00 0.554E+01
   0.360E+01 0.506E+01 0.211E+04   -.358E+01 -.502E+01 -.210E+04   -.946E-02 -.226E-01 -.640E+01
   -.624E-01 0.463E+01 0.210E+04   0.621E-01 -.463E+01 -.210E+04   0.213E-03 -.499E-02 -.640E+01
   0.825E+01 0.139E+02 0.732E+03   -.817E+01 -.138E+02 -.733E+03   -.588E-01 -.799E-01 0.295E+00
   -.813E-01 0.502E+01 0.711E+03   0.809E-01 -.501E+01 -.712E+03   0.269E-03 -.371E-02 0.412E+00
   0.111E+02 0.218E+02 -.660E+03   -.111E+02 -.216E+02 0.660E+03   -.346E-01 -.107E+00 -.799E-01
   -.223E+00 0.116E+02 -.674E+03   0.225E+00 -.116E+02 0.674E+03   -.982E-03 0.277E-01 -.136E+00
   0.462E+02 0.873E+02 -.199E+04   -.463E+02 -.867E+02 0.199E+04   0.702E-01 -.564E+00 0.557E+01
   -.148E+00 0.108E+02 -.206E+04   0.149E+00 -.108E+02 0.206E+04   -.106E-02 0.174E-01 0.551E+01
   0.531E+01 0.534E+01 0.211E+04   -.527E+01 -.530E+01 -.211E+04   -.278E-01 -.258E-01 -.646E+01
   -.587E-01 0.653E-01 0.211E+04   0.577E-01 -.658E-01 -.210E+04   0.705E-03 -.497E-04 -.639E+01
   0.112E+02 0.258E+00 0.748E+03   -.111E+02 -.275E+00 -.748E+03   -.567E-01 0.106E-01 0.275E+00
   -.222E+00 0.519E+01 0.718E+03   0.228E+00 -.520E+01 -.719E+03   -.343E-02 0.621E-02 0.413E+00
   0.309E+02 0.310E+02 -.604E+03   -.305E+02 -.306E+02 0.605E+03   -.382E+00 -.370E+00 -.797E+00
   -.255E+00 0.185E+00 -.666E+03   0.249E+00 -.186E+00 0.666E+03   0.516E-02 0.199E-02 -.128E+00
   0.117E+03 0.378E+01 -.182E+04   -.116E+03 -.406E+01 0.182E+04   -.690E+00 0.253E+00 0.302E+01
   -.355E+00 0.129E+02 -.205E+04   0.355E+00 -.129E+02 0.205E+04   -.131E-03 0.509E-01 0.550E+01
   0.510E+01 -.353E+01 0.211E+04   -.507E+01 0.351E+01 -.210E+04   -.198E-01 0.908E-02 -.640E+01
   0.617E+01 -.619E+01 0.211E+04   -.614E+01 0.616E+01 -.210E+04   -.211E-01 0.211E-01 -.639E+01
   0.787E+01 -.856E+01 0.718E+03   -.787E+01 0.856E+01 -.718E+03   0.311E-02 0.171E-02 0.388E+00
   0.141E+02 -.812E+01 0.733E+03   -.139E+02 0.803E+01 -.733E+03   -.740E-01 0.576E-01 0.294E+00
   0.220E+02 -.109E+02 -.659E+03   -.219E+02 0.109E+02 0.659E+03   -.963E-01 0.328E-01 -.764E-01
   0.238E+02 -.241E+02 -.652E+03   -.238E+02 0.241E+02 0.652E+03   -.133E-01 -.163E-02 -.804E-01
   0.257E+02 -.235E+02 -.206E+04   -.255E+02 0.235E+02 0.205E+04   -.968E-01 0.129E-01 0.550E+01
   0.883E+02 -.459E+02 -.199E+04   -.877E+02 0.460E+02 0.199E+04   -.550E+00 -.894E-01 0.557E+01
   0.355E+01 -.363E+01 0.210E+04   -.354E+01 0.362E+01 -.210E+04   -.505E-02 0.472E-02 -.640E+01
   0.463E+01 -.653E-01 0.210E+04   -.462E+01 0.666E-01 -.210E+04   -.509E-02 -.618E-03 -.640E+01
   0.504E+01 -.111E+00 0.711E+03   -.504E+01 0.112E+00 -.712E+03   -.253E-02 -.132E-02 0.401E+00
   0.845E+01 -.800E+01 0.718E+03   -.844E+01 0.800E+01 -.718E+03   -.302E-02 -.298E-02 0.393E+00
   0.984E+01 -.101E+02 -.676E+03   -.984E+01 0.101E+02 0.676E+03   -.291E-02 0.892E-02 -.155E+00
   0.116E+02 -.137E+00 -.674E+03   -.116E+02 0.141E+00 0.674E+03   0.282E-01 -.377E-02 -.136E+00
   0.108E+02 -.164E+00 -.206E+04   -.108E+02 0.168E+00 0.206E+04   0.205E-01 -.374E-02 0.549E+01
   0.234E+02 -.259E+02 -.206E+04   -.234E+02 0.258E+02 0.205E+04   -.512E-02 0.961E-01 0.550E+01
[...]
   -.329E+01 -.381E+01 0.158E+04   0.328E+01 0.380E+01 -.158E+04   0.109E-01 0.121E-01 0.314E+01
   0.472E-01 -.415E+01 0.159E+04   -.464E-01 0.412E+01 -.159E+04   -.972E-03 0.369E-01 0.306E+01
   -.304E+02 -.147E+02 -.156E+04   0.304E+02 0.146E+02 0.156E+04   0.717E-01 0.764E-01 -.462E+01
   0.142E+01 -.871E+02 -.151E+04   -.144E+01 0.865E+02 0.151E+04   0.118E-01 0.498E+00 -.433E+01
   -.114E+02 -.110E+02 -.496E+03   0.114E+02 0.109E+02 0.495E+03   0.280E-01 0.448E-01 0.286E+00
   -.668E-01 -.249E+02 -.438E+03   0.102E+00 0.245E+02 0.438E+03   -.311E-01 0.351E+00 -.250E+00
   -.450E+01 -.451E+01 0.535E+03   0.449E+01 0.450E+01 -.535E+03   0.123E-01 0.108E-01 -.478E-01
   0.671E-01 -.117E+00 0.539E+03   -.667E-01 0.122E+00 -.539E+03   -.423E-03 -.478E-02 -.145E-01
   -.247E+01 -.525E-01 0.158E+04   0.247E+01 0.532E-01 -.158E+04   0.482E-02 -.947E-03 0.314E+01
   0.529E-01 -.414E+01 0.158E+04   -.531E-01 0.411E+01 -.159E+04   0.278E-03 0.306E-01 0.313E+01
   -.110E+02 -.110E+02 -.157E+04   0.110E+02 0.109E+02 0.157E+04   0.265E-01 0.332E-01 -.463E+01
   0.109E+00 -.619E+00 -.156E+04   -.109E+00 0.638E+00 0.157E+04   0.136E-03 -.157E-01 -.461E+01
   -.602E+01 -.122E+00 -.503E+03   0.601E+01 0.123E+00 0.502E+03   0.896E-02 -.262E-03 0.310E+00
   0.253E+00 -.172E+02 -.487E+03   -.251E+00 0.171E+02 0.487E+03   -.211E-02 0.132E+00 0.365E+00
   -.182E+00 -.113E+01 0.529E+02   0.414E-11 0.426E-12 -.246E-10   0.167E+00 0.964E+00 -.474E+02

 POSITION                                       TOTAL-FORCE (eV/Angst)
      6.97569      7.20675     16.17549         0.011864      0.005182      0.006644
      5.53253      6.57737     16.31517        -0.047095      0.017187      0.010910
      9.84225      5.44983     16.19625         0.002518      0.014888      0.002380
     11.30011      6.05119     16.30948         0.044945     -0.013503      0.003652
      7.54308      4.90842     16.18879         0.000430      0.006242      0.006340
      8.15225      3.45942     16.36025        -0.008726     -0.006553     -0.001754
      9.30382      7.79167     16.18176         0.009197     -0.017521      0.005913
      8.67000      9.23985     16.23921         0.010750      0.036126      0.001237
      6.44747      6.38724     16.07924         0.051381     -0.025261     -0.003239
     10.38688      6.25701     16.07972        -0.069003     -0.000210      0.000864
      8.35007      4.36144     16.08248         0.000456      0.013762      0.011800
      8.47927      8.30842     16.07529        -0.031467     -0.043672      0.000791
      2.10122      0.00000      7.50000         0.001964      0.001865      0.400118
      4.20243      2.10122      7.50000         0.007290      0.007716      0.402167
      2.10122      2.10122      9.60122        -0.002254      0.001549      0.005928
      4.20243      0.00000      9.60122         0.000361     -0.000890      0.007104
      2.10095     16.80937     11.71002        -0.004120     -0.002735     -0.001541
      4.20098      2.10086     11.70525         0.004206      0.001838      0.008018
      2.09990      2.09906     13.79019        -0.002715     -0.004141      0.029381
      4.20014     16.80827     13.79010        -0.002970     -0.001086      0.030233
      2.10122      4.20243      7.50000         0.007245      0.002813      0.402237
      4.20243      6.30365      7.50000         0.013053     -0.000840      0.415582
      2.10122      6.30365      9.60122         0.029978     -0.001271      0.016048
      4.20243      4.20243      9.60122         0.036476      0.021826      0.031468
      2.10024      4.20298     11.70780         0.006214     -0.003697      0.004882
      4.20920      6.30300     11.71264         0.006698     -0.000340      0.006438
      2.09895      6.30405     13.78926         0.002319     -0.000586      0.036404
      4.20016      4.19614     13.77749         0.002286      0.005551      0.046266
      6.30365      0.00000      7.50000         0.002778      0.007255      0.401945
      0.00000      2.10122      7.50000        -0.000074      0.002156      0.400477
      6.30365      2.10122      9.60122         0.022422      0.035189      0.026450
      0.00000      0.00000      9.60122        -0.000122      0.001442      0.013341
      6.30388     16.80779     11.70662        -0.001812      0.009672      0.007741
      0.00008      2.10054     11.70985         0.000732     -0.005029     -0.003330
      6.29720      2.09885     13.76887         0.004099      0.000635      0.053055
      0.00012     16.80873     13.79153         0.000274     -0.004851      0.038221
      6.30365      4.20243      7.50000         0.008911      0.008550      0.422391
      0.00000      6.30365      7.50000        -0.000230     -0.000453      0.398120
      6.30365      6.30365      9.60122         0.028890     -0.004364      0.078593
      0.00000      4.20243      9.60122         0.002340     -0.002602      0.000693
      6.31287      4.20980     11.72052        -0.001532     -0.003559     -0.006795
      0.00005      6.30364     11.70958        -0.000225      0.000500      0.002088
      6.31141      6.29234     13.84913        -0.002765      0.003192      0.017619
      0.00023      4.20066     13.79008         0.000043     -0.003571      0.035295
      2.10122      8.40486      7.50000         0.006845     -0.003146      0.401625
      4.20243     10.50608      7.50000         0.006966     -0.006670      0.401417
      2.10122     10.50608      9.60122        -0.002228      0.000179      0.005069
      4.20243      8.40486      9.60122         0.032176     -0.022276      0.024151
      2.09893      8.40472     11.70642         0.008695      0.002489      0.008063
      4.20186     10.50783     11.70507         0.002608     -0.003358      0.007827
      2.09941     10.50864     13.79002        -0.001777      0.002768      0.028424
      4.19945      8.41233     13.76798         0.001197     -0.004976      0.048590
      2.10122     12.60729      7.50000         0.001831     -0.001440      0.400062
      4.20243     14.70851      7.50000         0.001677     -0.000078      0.400541
      2.10122     14.70851      9.60122         0.001182      0.000273      0.010313
      4.20243     12.60729      9.60122         0.000974      0.003487      0.005556
      2.10078     12.60765     11.70999        -0.003710      0.003545     -0.002999
      4.20169     14.70852     11.70983        -0.003550      0.000467     -0.004360
      2.10015     14.70853     13.79131        -0.005521      0.000441      0.037284
      4.20019     12.60878     13.79010        -0.003223      0.002635      0.031572
[...]
      8.40486     10.50608      9.60122        -0.001840      0.033814      0.025020
     14.70851     10.50608      7.50000         0.003480      0.003986     -0.489950
      8.40486      8.40486      7.50000        -0.000319      0.012169     -0.516756
     14.71179      8.40815     13.83936         0.002612      0.002475     -0.007397
      8.40753     10.52259     13.87123        -0.001157      0.002692     -0.015963
     14.71081     10.50747     11.70371         0.000370      0.000851     -0.008290
      8.40392      8.41505     11.70970         0.000002      0.003922      0.014133
     14.70851     12.60729      9.60122         0.004875      0.003835      0.043990
      8.40486     14.70851      9.60122        -0.000153     -0.001128      0.054297
     14.70851     14.70851      7.50000         0.001518     -0.000326     -0.489240
      8.40486     12.60729      7.50000         0.000093      0.010115     -0.492798
     14.71092     12.60970     13.83988         0.000867      0.000351     -0.009697
      8.40491     14.70842     13.84112        -0.000121      0.001340     -0.005577
     14.70920     14.70860     11.70475         0.001818      0.001119     -0.007048
      8.40503     12.60717     11.70668        -0.000099      0.010483     -0.007312
    total drift:                                0.002715     -0.004749     -0.061453

  FREE ENERGIE OF THE ION-ELECTRON SYSTEM (eV)
  free  energy   TOTEN  =     -1826.64891695 eV

  energy  without entropy=    -1826.64891695  energy(sigma->0) =    -1826.64891695