 vasp.6.3.0 20Jan22 (build Dec 25 2023 18:06:01) complex
 executed on        HPECrayEX_GCC date 2024.11.22  13:22:54

 INCAR:
   SYSTEM = TiO2
   ISMEAR = 0
   SIGMA = 0.05
   EDIFF = 1E-7
   ALGO = Normal
   ISTART = 0
   IBRION = 2
   NSW = 1000
   ISYM = 0
   ISIF = 2
   EDIFFG = -0.01
   DIPOL = 0.5 0.5 0.5
   IDIPOL = 3
   LDIPOL = .TRUE.
   LHFCALC = .TRUE.
   HFSCREEN = 0.2
   GGA = PE
   IVDW = 13
   VDW_S8 = 1.19528249
   VDW_A1 = 0.38663183
   VDW_A2 = 5.19133469
   ENCUT = 520
   PREC = Normal
   PRECFOCK = Fast
   LASPH = .TRUE.
   LREAL = .FALSE.
   ISPIN = 1
   NKREDX = 2
   NKREDY = 2
   NELM = 200
   NELMIN = 8
   NCORE = 8
   KPAR = 1
   LWAVE = .FALSE.
   LCHARG = .FALSE.

 POTCAR:    PAW_PBE C 08Apr2002
 POTCAR:    PAW_PBE H 15Jun2001
 POTCAR:    PAW_PBE Ti 08Apr2002
 POTCAR:    PAW_PBE O 08Apr2002
 POTCAR:    PAW_PBE C 08Apr2002
   VRHFIN =C: s2p2

   TITEL  = PAW_PBE C 08Apr2002
   POMASS =   12.011; ZVAL   =    4.000    mass and valenz
   ENMAX  =  400.000; ENMIN  =  300.000 eV

   TITEL  = PAW_PBE H 15Jun2001
   POMASS =    1.000; ZVAL   =    1.000    mass and valenz
   ENMAX  =  250.000; ENMIN  =  200.000 eV

[...]

   TITEL  = PAW_PBE O 08Apr2002
   POMASS =   16.000; ZVAL   =    6.000    mass and valenz
   ENMAX  =  400.000; ENMIN  =  300.000 eV

  PAW_PBE C 08Apr2002                   :
  PAW_PBE H 15Jun2001                   :
  PAW_PBE Ti 08Apr2002                  :
  PAW_PBE O 08Apr2002                   :

 POSCAR:  C  H Ti  O
  positions in direct lattice
  velocities in cartesian coordinates
|           W    W    AA    RRRRR   N    N  II  N    N   GGGG   !!!           |
|           W    W   A  A   R    R  NN   N  II  NN   N  G    G  !!!           |
|           W    W  A    A  R    R  N N  N  II  N N  N  G       !!!           |
|           W WW W  AAAAAA  RRRRR   N  N N  II  N  N N  G  GGG   !            |
|           WW  WW  A    A  R   R   N   NN  II  N   NN  G    G                |
|           W    W  A    A  R    R  N    N  II  N    N   GGGG   !!!           |
|     Specifying the vdW parameters                                           |
|     VDW_S8 = 1.195                                                          |
|     VDW_A1 = 0.387                                                          |
|     VDW_A2 = 5.191                                                          |
|     in the INCAR file will overwrite the defaults for hse06. Please         |
|     make sure that is what you intended.                                    |

 ion  position               nearest neighbor table
   1  0.500  0.500  0.846-   3 1.09   2 1.09   5 1.09   4 1.09
   2  0.497  0.576  0.869-   1 1.09
   3  0.504  0.424  0.869-   1 1.09
   4  0.571  0.504  0.825-   1 1.09
   5  0.429  0.496  0.825-   1 1.09
   6  0.750  0.625  0.265-  86 1.94  87 1.94 146 1.94 147 1.94 168 1.96  89 1.96  16 2.94  36 2.94

   7  0.000  0.750  0.265-  89 1.94 109 1.94 108 1.94  88 1.94  90 1.96  37 2.94  17 2.94
   8  0.000  0.625  0.382-  90 1.94  91 1.94 150 1.94 151 1.94  92 1.96  93 1.96  18 2.94  38 2.94

[...]

  85  0.500  0.500  0.732- 239 1.83 244 1.93 185 1.93 184 1.93 245 1.93  55 2.94  75 2.94
  86  0.750  0.750  0.219-   6 1.94  16 1.94
  87  0.750  0.750  0.311-   6 1.94  16 1.94   9 1.96
  88  0.098  0.625  0.265-   7 1.94  37 1.94  46 1.96
  89  0.902  0.625  0.265-   7 1.94  37 1.94   6 1.96
  90  0.000  0.750  0.336-   8 1.94  18 1.94   7 1.96
  91  0.000  0.750  0.428-   8 1.94  18 1.94  11 1.96
  92  0.848  0.625  0.382-   9 1.94  39 1.94   8 1.96
  93  0.152  0.625  0.382-  49 1.94  79 1.94   8 1.96
  94  0.750  0.750  0.454-  10 1.94  20 1.94   9 1.96
  95  0.750  0.750  0.546-  10 1.94  20 1.94  13 2.09
  96  0.098  0.625  0.500-  11 1.94  41 1.94  50 1.96
  97  0.902  0.625  0.500-  11 1.94  41 1.94  10 1.96
  98  1.000  0.750  0.572-  12 1.89  22 1.89  11 1.98
  99  0.000  0.750  0.665-  15 1.81  22 1.99  12 2.00
 100  0.850  0.625  0.618-  12 1.94  13 1.96  43 1.96
 101  0.150  0.625  0.618-  12 1.94  53 1.96  83 1.96
 102  0.750  0.750  0.690-  13 1.86  14 2.07  24 2.07
 103  0.750  0.750  0.783-  14 1.83  24 1.83
 104  0.094  0.625  0.743-  45 1.93  15 1.93  54 2.01
 105  0.906  0.625  0.743-  45 1.93  15 1.93  14 2.01
 106  0.750  0.000  0.219-  16 1.94  26 1.94
 107  0.750  0.000  0.311-  16 1.94  26 1.94  19 1.96
 108  0.098  0.875  0.265-   7 1.94  17 1.94  56 1.96
 109  0.902  0.875  0.265-   7 1.94  17 1.94  16 1.96
 110  0.000  0.000  0.336-  18 1.94  28 1.94  17 1.96
 111  0.000  0.000  0.428-  18 1.94  28 1.94  21 1.96
 112  0.848  0.875  0.382-   9 1.94  19 1.94  18 1.96
 113  0.152  0.875  0.382-  49 1.94  59 1.94  18 1.96
 114  0.750  0.000  0.454-  20 1.94  30 1.94  19 1.96
 115  0.750  0.000  0.546-  20 1.94  30 1.94  23 2.09
 116  0.098  0.875  0.500-  11 1.94  21 1.94  60 1.96
 117  0.902  0.875  0.500-  11 1.94  21 1.94  20 1.96
 118  1.000  0.000  0.572-  32 1.89  22 1.89  21 1.98
 119  0.000  0.000  0.665-  25 1.81  32 1.99  22 1.99
 120  0.850  0.875  0.619-  22 1.94  13 1.96  23 1.96
 121  0.150  0.875  0.619-  22 1.94  53 1.96  63 1.96
 122  0.750  0.000  0.690-  23 1.86  24 2.07  34 2.07
 123  0.750  0.000  0.783-  24 1.83  34 1.83
 124  0.094  0.875  0.743-  15 1.93  25 1.93  64 2.02
 125  0.906  0.875  0.743-  15 1.93  25 1.93  24 2.02
 126  0.750  0.250  0.219-  26 1.94  36 1.94
 127  0.750  0.250  0.311-  26 1.94  36 1.94  29 1.96
 128  0.098  0.125  0.265-  17 1.94  27 1.94  66 1.96
 129  0.902  0.125  0.265-  17 1.94  27 1.94  26 1.96
 130  0.000  0.250  0.336-  28 1.94  38 1.94  27 1.96
 131  0.000  0.250  0.428-  28 1.94  38 1.94  31 1.96
 132  0.848  0.125  0.382-  19 1.94  29 1.94  28 1.96
 133  0.152  0.125  0.382-  59 1.94  69 1.94  28 1.96
 134  0.750  0.250  0.454-  30 1.94  40 1.94  29 1.96
 135  0.750  0.250  0.546-  30 1.94  40 1.94  33 2.09
 136  0.098  0.125  0.500-  21 1.94  31 1.94  70 1.96
 137  0.902  0.125  0.500-  21 1.94  31 1.94  30 1.96
 138  0.000  0.250  0.572-  42 1.89  32 1.89  31 1.98
 139  1.000  0.250  0.665-  35 1.81  32 1.99  42 2.00
 140  0.850  0.125  0.619-  32 1.94  33 1.96  23 1.96
 141  0.150  0.125  0.619-  32 1.94  73 1.96  63 1.96
 142  0.750  0.250  0.690-  33 1.86  44 2.07  34 2.07
 143  0.750  0.250  0.783-  44 1.83  34 1.83
 144  0.094  0.125  0.743-  35 1.93  25 1.93  74 2.02
[...]
 231  0.500  0.500  0.428-  48 1.94  78 1.94  81 1.96
 232  0.348  0.375  0.382-  69 1.94  79 1.94  78 1.96
 233  0.652  0.375  0.382-  29 1.94  39 1.94  78 1.96
 234  0.250  0.500  0.454-  50 1.94  80 1.94  79 1.96
 235  0.250  0.500  0.546-  50 1.94  80 1.94  83 2.09
 236  0.598  0.375  0.500-  71 1.94  81 1.94  40 1.96
 237  0.402  0.375  0.500-  71 1.94  81 1.94  80 1.96
 238  0.500  0.500  0.572-  82 1.89  52 1.89  81 1.99
 239  0.500  0.500  0.665-  85 1.83  82 1.99  52 1.99
 240  0.350  0.375  0.619-  82 1.94  73 1.96  83 1.96
 241  0.650  0.375  0.619-  82 1.94  43 1.96  33 1.96
 242  0.249  0.500  0.690-  83 1.86  84 2.07  54 2.07
 243  0.251  0.500  0.783-  54 1.83  84 1.83
 244  0.594  0.374  0.742-  75 1.92  85 1.93  44 2.01
 245  0.406  0.374  0.742-  75 1.92  85 1.93  84 2.01

IMPORTANT INFORMATION: All symmetrisations will be switched off!
NOSYMM: (Re-)initialisation of all symmetry stuff for point group C_1.

                                     Primitive cell

  volume of cell :    4157.1448

  direct lattice vectors                    reciprocal lattice vectors
    12.893495846  0.000000000  0.000000000     0.077558485  0.000000000  0.000000000
     0.000000000 11.761907618  0.000000000     0.000000000  0.085020222  0.000000000
     0.000000000  0.000000000 27.412377441     0.000000000  0.000000000  0.036479871

  length of vectors
    12.893495846 11.761907618 27.412377441     0.077558485  0.085020222  0.036479871

  position of ions in fractional coordinates (direct lattice)
     0.500058518  0.499991658  0.846287218
     0.496558056  0.575719099  0.869113542
     0.503564062  0.424291534  0.869115238
     0.571026970  0.503825005  0.824576266
     0.429090223  0.496167038  0.824580309
     0.750000000  0.625000000  0.264823466
     0.000000000  0.750000000  0.264823466
     0.000000000  0.625000000  0.382411733
     0.750000000  0.750000000  0.382411733
     0.750000000  0.625000000  0.500000000
     0.000000000  0.750000000  0.500000000
     0.999999948  0.625015625  0.615602617
     0.750037934  0.750037273  0.622110528
     0.750147636  0.625163218  0.743320160
     0.000020312  0.750080270  0.730944479
     0.750000000  0.875000000  0.264823466
     0.000000000  0.000000000  0.264823466
     0.000000000  0.875000000  0.382411733
     0.750000000  0.000000000  0.382411733
     0.750000000  0.875000000  0.500000000
     0.000000000  0.000000000  0.500000000
     0.999999310  0.875015762  0.615621568
     0.749977975  0.000001548  0.622186375
     0.749894252  0.875047181  0.743555855
     0.999999777  0.999999957  0.730953431
     0.750000000  0.125000000  0.264823466
     0.000000000  0.250000000  0.264823466
     0.000000000  0.125000000  0.382411733
     0.750000000  0.250000000  0.382411733
     0.750000000  0.125000000  0.500000000
     0.000000000  0.250000000  0.500000000
     0.000000767  0.124984218  0.615621564
     0.750035369  0.249966097  0.622122307
     0.749880875  0.124965149  0.743559090
     0.999980325  0.249919730  0.730944475
     0.750000000  0.375000000  0.264823466
     0.000000000  0.500000000  0.264823466
     0.000000000  0.375000000  0.382411733
     0.750000000  0.500000000  0.382411733
     0.750000000  0.375000000  0.500000000
     0.000000000  0.500000000  0.500000000
     0.000000061  0.374984391  0.615602613
     0.750081867  0.499997450  0.622128013
     0.750104714  0.374873154  0.743357167
     0.000000483  0.500000037  0.730921156
     0.250000000  0.625000000  0.264823466
     0.500000000  0.750000000  0.264823466
     0.500000000  0.625000000  0.382411733
     0.250000000  0.750000000  0.382411733
     0.250000000  0.625000000  0.500000000
     0.500000000  0.750000000  0.500000000
     0.500000665  0.624611865  0.616016733
     0.249964641  0.750033784  0.622122535
     0.249896582  0.625126370  0.743357925
     0.500001431  0.750088239  0.730820052
     0.250000000  0.875000000  0.264823466
     0.500000000  0.000000000  0.264823466
     0.500000000  0.875000000  0.382411733
     0.250000000  0.000000000  0.382411733
     0.250000000  0.875000000  0.500000000
[...]
     0.500000000  0.500000000  0.428355971
     0.347680320  0.375000000  0.382411733
     0.652319680  0.375000000  0.382411733
     0.250000000  0.500000000  0.454055762
     0.250000000  0.500000000  0.545944238
     0.597680320  0.375000000  0.500000000
     0.402319680  0.375000000  0.500000000
     0.499999859  0.499999997  0.572496308
     0.499999917  0.499999972  0.665381820
     0.349778613  0.375003223  0.618677176
     0.650221431  0.375007573  0.618673961
     0.249389453  0.500017723  0.690067322
     0.250937637  0.499955307  0.782993902
     0.594017602  0.374359458  0.741966778
     0.405923561  0.374328042  0.741873038

  ion indices of the primitive-cell ions
   primitive index   ion index
                 1           1
                 2           2
[...]
   -.186E+01 0.439E+02 -.228E+03   0.208E+01 -.485E+02 0.231E+03   -.209E+00 0.447E+01 -.318E+01   0.474E-04 -.223E-04 0.154E-03
   -.362E+02 -.197E+01 -.229E+03   0.410E+02 0.218E+01 0.226E+03   -.469E+01 -.206E+00 0.275E+01   -.375E-04 0.524E-04 0.120E-03
   0.362E+02 0.198E+01 -.229E+03   -.411E+02 -.219E+01 0.226E+03   0.469E+01 0.207E+00 0.275E+01   0.420E-04 -.432E-04 0.124E-03
   -.163E+00 -.618E-01 0.971E+03   0.163E+00 0.620E-01 -.973E+03   0.318E-04 0.101E-03 -.125E+01   0.171E-04 0.509E-05 0.332E-04
   -.477E-04 -.738E-01 0.105E+04   0.499E-04 0.740E-01 -.104E+04   0.305E-06 0.564E-04 -.186E+01   -.158E-06 0.725E-05 0.598E-04
   -.173E-03 -.332E-01 0.501E+03   0.193E-03 0.332E-01 -.500E+03   0.419E-05 0.501E-04 0.183E+00   -.154E-06 0.221E-04 -.180E-03
   -.864E-01 -.457E-01 0.497E+03   0.860E-01 0.460E-01 -.498E+03   -.847E-04 0.183E-03 -.168E+00   0.332E-04 0.245E-04 -.173E-03
   -.266E+00 -.132E+00 -.674E+00   0.263E+00 0.131E+00 0.119E+01   -.113E-02 -.303E-03 0.194E+00   0.370E-04 0.693E-04 -.470E-03
   -.225E-02 -.183E+00 -.606E+00   0.244E-02 0.184E+00 -.446E-01   0.314E-04 -.186E-03 -.594E-01   -.236E-06 0.104E-03 -.431E-03
   -.712E-02 -.532E+00 -.488E+03   0.717E-02 0.533E+00 0.488E+03   -.227E-04 -.156E-02 -.671E-01   0.271E-05 0.192E-03 -.762E-03
   -.171E+01 -.140E+01 -.496E+03   0.172E+01 0.140E+01 0.495E+03   -.335E-02 -.203E-02 0.499E-01   -.117E-04 0.269E-03 -.538E-03
   -.135E+02 -.564E+01 -.943E+03   0.135E+02 0.563E+01 0.942E+03   0.821E-02 0.305E-02 -.644E-02   -.331E-03 0.226E-03 -.100E-03
   -.172E-01 -.204E+01 -.981E+03   0.164E-01 0.203E+01 0.981E+03   0.666E-03 -.378E-03 0.668E+00   0.346E-05 0.506E-03 -.414E-03
   -.146E+00 -.615E-01 0.971E+03   0.146E+00 0.617E-01 -.974E+03   0.233E-04 0.108E-03 -.125E+01   0.177E-04 0.505E-05 0.382E-04
   -.545E-04 -.540E-07 0.105E+04   0.553E-04 0.602E-07 -.104E+04   0.225E-06 -.734E-08 -.186E+01   -.353E-07 -.175E-07 0.639E-04
   -.180E-03 -.333E-01 0.501E+03   0.199E-03 0.333E-01 -.500E+03   0.479E-05 0.344E-04 0.183E+00   -.148E-06 0.212E-04 -.146E-03
   -.885E-01 -.190E-03 0.497E+03   0.880E-01 0.205E-03 -.498E+03   -.130E-03 0.155E-04 -.168E+00   0.353E-04 0.195E-06 -.151E-03
   -.299E+00 -.138E+00 -.961E+00   0.297E+00 0.142E+00 0.147E+01   -.337E-03 0.237E-02 0.194E+00   0.505E-04 0.728E-04 -.383E-03
   -.146E-03 -.217E-05 -.795E+00   0.153E-03 0.114E-05 0.145E+00   0.150E-05 0.896E-08 -.594E-01   -.357E-06 0.842E-06 -.352E-03
   -.116E-01 -.522E+00 -.489E+03   0.119E-01 0.523E+00 0.489E+03   -.101E-03 -.141E-02 -.668E-01   0.134E-05 0.200E-03 -.578E-03
   -.127E+01 -.770E-03 -.497E+03   0.127E+01 0.682E-03 0.497E+03   -.811E-03 -.627E-04 0.539E-01   -.143E-04 0.619E-05 -.469E-03
   -.495E+01 -.399E+01 -.951E+03   0.494E+01 0.399E+01 0.950E+03   0.685E-02 0.302E-03 -.161E-01   -.251E-03 0.221E-03 -.189E-03
   -.112E-02 0.263E-04 -.982E+03   0.115E-02 -.385E-04 0.982E+03   -.158E-04 -.357E-05 0.674E+00   -.645E-06 0.454E-05 -.294E-03
   -.146E+00 0.615E-01 0.971E+03   0.146E+00 -.617E-01 -.974E+03   0.233E-04 -.103E-03 -.125E+01   0.177E-04 -.529E-05 0.386E-04
   -.712E-04 0.738E-01 0.105E+04   0.707E-04 -.740E-01 -.104E+04   0.164E-06 -.564E-04 -.186E+01   0.953E-07 -.725E-05 0.600E-04
   0.771E-04 0.333E-01 0.501E+03   -.902E-04 -.333E-01 -.500E+03   -.279E-05 -.345E-04 0.183E+00   -.159E-06 -.210E-04 -.145E-03
   -.864E-01 0.458E-01 0.497E+03   0.860E-01 -.461E-01 -.498E+03   -.849E-04 -.182E-03 -.168E+00   0.332E-04 -.245E-04 -.173E-03
   -.300E+00 0.135E+00 -.964E+00   0.298E+00 -.139E+00 0.148E+01   -.298E-03 -.181E-02 0.195E+00   0.504E-04 -.709E-04 -.382E-03
   0.177E-02 0.183E+00 -.606E+00   -.194E-02 -.184E+00 -.446E-01   -.254E-04 0.186E-03 -.594E-01   -.503E-06 -.104E-03 -.429E-03
   0.106E-01 0.522E+00 -.489E+03   -.108E-01 -.523E+00 0.489E+03   0.965E-04 0.141E-02 -.668E-01   -.279E-05 -.196E-03 -.577E-03
   -.173E+01 0.140E+01 -.496E+03   0.173E+01 -.141E+01 0.495E+03   -.320E-02 0.155E-02 0.502E-01   -.201E-04 -.268E-03 -.536E-03
   -.494E+01 0.397E+01 -.951E+03   0.493E+01 -.397E+01 0.950E+03   0.671E-02 -.773E-04 -.162E-01   -.262E-03 -.209E-03 -.190E-03
   0.126E-01 0.204E+01 -.981E+03   -.118E-01 -.203E+01 0.981E+03   -.648E-03 0.378E-03 0.668E+00   -.441E-05 -.506E-03 -.414E-03
   -.163E+00 0.618E-01 0.971E+03   0.163E+00 -.620E-01 -.973E+03   0.318E-04 -.106E-03 -.125E+01   0.171E-04 -.484E-05 0.336E-04
   -.645E-04 0.468E-07 0.105E+04   0.654E-04 -.580E-07 -.104E+04   0.244E-06 0.105E-07 -.186E+01   -.277E-07 0.200E-07 0.556E-04
   0.525E-04 0.332E-01 0.501E+03   -.661E-04 -.332E-01 -.500E+03   -.197E-05 -.501E-04 0.183E+00   -.160E-06 -.224E-04 -.180E-03
   -.841E-01 0.165E-03 0.497E+03   0.840E-01 -.178E-03 -.498E+03   -.655E-04 -.166E-04 -.168E+00   0.303E-04 -.183E-06 -.194E-03
   -.267E+00 0.134E+00 -.676E+00   0.264E+00 -.135E+00 0.119E+01   -.110E-02 -.250E-03 0.194E+00   0.371E-04 -.713E-04 -.468E-03
   -.291E-03 0.131E-05 -.418E+00   0.302E-03 -.304E-06 -.233E+00   0.324E-05 0.444E-07 -.598E-01   -.383E-06 -.821E-06 -.501E-03
   0.498E-02 0.532E+00 -.488E+03   -.501E-02 -.533E+00 0.488E+03   0.145E-04 0.156E-02 -.671E-01   -.420E-05 -.196E-03 -.761E-03
   -.224E+01 -.214E-02 -.494E+03   0.225E+01 0.182E-02 0.494E+03   -.212E-02 0.458E-03 0.483E-01   0.135E-04 -.354E-05 -.586E-03
   -.135E+02 0.569E+01 -.943E+03   0.135E+02 -.568E+01 0.943E+03   0.741E-02 -.285E-02 -.777E-02   -.327E-03 -.229E-03 -.106E-03
   -.327E-02 -.303E-04 -.980E+03   0.326E-02 0.424E-04 0.979E+03   0.675E-05 0.365E-05 0.662E+00   -.374E-06 -.437E-05 -.506E-03
   0.163E+00 -.618E-01 0.971E+03   -.163E+00 0.620E-01 -.973E+03   -.318E-04 0.106E-03 -.125E+01   -.171E-04 0.489E-05 0.333E-04
   0.457E-04 -.101E+00 0.105E+04   -.470E-04 0.101E+00 -.104E+04   -.350E-06 0.122E-03 -.186E+01   0.157E-06 0.628E-05 0.311E-04
   0.149E-03 -.269E-01 0.501E+03   -.169E-03 0.296E-01 -.500E+03   -.412E-05 0.859E-03 0.183E+00   0.154E-06 0.161E-04 -.196E-03
   0.864E-01 -.457E-01 0.497E+03   -.860E-01 0.461E-01 -.498E+03   0.850E-04 0.181E-03 -.168E+00   -.332E-04 0.245E-04 -.173E-03
   0.267E+00 -.134E+00 -.676E+00   -.264E+00 0.134E+00 0.119E+01   0.110E-02 0.244E-03 0.194E+00   -.373E-04 0.697E-04 -.470E-03
   0.198E-02 -.255E+00 -.730E-01   -.214E-02 0.242E+00 -.550E+00   -.750E-04 0.496E-02 -.534E-01   0.129E-06 0.819E-04 -.418E-03
   0.400E-02 -.975E+00 -.485E+03   -.412E-02 0.100E+01 0.485E+03   0.819E-04 -.264E-01 -.551E-01   0.323E-05 0.152E-03 -.813E-03
   0.173E+01 -.140E+01 -.496E+03   -.174E+01 0.141E+01 0.495E+03   0.320E-02 -.154E-02 0.502E-01   0.188E-04 0.268E-03 -.539E-03
   0.134E+02 -.569E+01 -.943E+03   -.135E+02 0.568E+01 0.943E+03   -.738E-02 0.285E-02 -.780E-02   0.326E-03 0.224E-03 -.103E-03
   0.679E-01 -.136E+02 -.969E+03   -.670E-01 0.136E+02 0.969E+03   -.128E-02 -.106E-01 0.711E+00   0.130E-04 0.369E-03 -.785E-04
   0.146E+00 -.615E-01 0.971E+03   -.146E+00 0.617E-01 -.974E+03   -.233E-04 0.102E-03 -.125E+01   -.177E-04 0.523E-05 0.383E-04
   0.550E-04 0.975E-08 0.105E+04   -.558E-04 0.321E-07 -.104E+04   -.225E-06 -.911E-08 -.186E+01   0.328E-07 -.637E-07 0.356E-04
   0.151E-03 -.286E-01 0.501E+03   -.171E-03 0.299E-01 -.500E+03   -.453E-05 0.295E-03 0.184E+00   0.139E-06 0.170E-04 -.172E-03
   0.885E-01 0.190E-03 0.497E+03   -.880E-01 -.205E-03 -.498E+03   0.130E-03 -.155E-04 -.168E+00   -.353E-04 0.182E-06 -.151E-03
   0.300E+00 -.135E+00 -.965E+00   -.298E+00 0.138E+00 0.148E+01   0.299E-03 0.180E-02 0.195E+00   -.506E-04 0.725E-04 -.383E-03
[...]
   -.256E+02 0.460E-01 0.748E+03   0.300E+02 -.464E-01 -.748E+03   -.331E+01 0.647E-03 0.189E+00   -.292E-04 -.216E-04 -.289E-03
   0.256E+02 0.463E-01 0.748E+03   -.300E+02 -.468E-01 -.748E+03   0.331E+01 0.705E-03 0.189E+00   0.294E-04 -.215E-04 -.289E-03
   0.222E+00 -.714E-03 0.315E+03   -.219E+00 0.977E-03 -.320E+03   -.253E-02 -.501E-03 0.396E+01   -.528E-04 -.652E-06 -.583E-03
   0.751E+00 -.158E-02 -.322E+03   -.744E+00 0.189E-02 0.330E+03   -.558E-02 -.532E-03 -.667E+01   -.211E-04 -.210E-05 -.882E-03
   -.248E+02 0.856E-01 0.127E+01   0.300E+02 -.882E-01 -.152E+01   -.492E+01 0.100E-01 0.305E+00   0.160E-04 -.806E-04 -.691E-03
   0.248E+02 0.832E-01 0.127E+01   -.300E+02 -.855E-01 -.152E+01   0.492E+01 0.974E-02 0.305E+00   -.150E-04 -.804E-04 -.692E-03
   0.111E-02 0.590E-05 -.420E+03   -.115E-02 -.184E-05 0.413E+03   0.340E-04 -.377E-05 0.622E+01   0.942E-06 -.287E-05 -.662E-03
   0.519E-02 -.184E-04 -.103E+04   -.551E-02 0.469E-04 0.103E+04   0.282E-03 -.258E-04 0.191E+01   0.202E-05 -.602E-05 -.746E-03
   -.915E+01 0.167E+01 -.734E+03   0.123E+02 -.171E+01 0.733E+03   -.278E+01 0.263E-01 0.802E+00   0.503E-04 -.212E-03 -.889E-03
   0.916E+01 0.168E+01 -.734E+03   -.124E+02 -.171E+01 0.733E+03   0.279E+01 0.266E-01 0.809E+00   -.460E-04 -.216E-03 -.884E-03
   0.110E+02 -.696E-01 -.115E+04   -.111E+02 0.764E-01 0.115E+04   0.983E-01 -.591E-02 -.209E+01   0.362E-03 -.849E-05 -.845E-03
   0.405E+02 -.738E-01 -.166E+04   -.406E+02 0.703E-01 0.169E+04   0.361E-01 0.307E-02 -.198E+02   0.651E-03 0.137E-05 -.994E-04
   -.106E+02 0.220E+02 -.146E+04   0.172E+02 -.220E+02 0.146E+04   -.579E+01 -.674E-02 -.355E+01   -.227E-03 -.438E-03 -.935E-04
   0.105E+02 0.220E+02 -.146E+04   -.172E+02 -.220E+02 0.146E+04   0.579E+01 -.141E-01 -.349E+01   0.228E-03 -.448E-03 -.106E-03
   0.274E-02 0.318E-02 0.102E+03   0.711E-12 -.142E-11 -.171E-10   -.257E-02 -.306E-02 -.939E+02   -.483E-05 0.551E-04 -.896E-01

 POSITION                                       TOTAL-FORCE (eV/Angst)
      6.44751      5.88099     23.19735        -0.000482     -0.003830     -0.000440
      6.40634      6.77122     23.82334         0.006399      0.001112     -0.004887
      6.48863      4.99069     23.82346        -0.006663      0.002316     -0.007058
      7.36275      5.92203     22.60212        -0.001764     -0.006803      0.000569
      5.53224      5.83978     22.60214         0.002328      0.007154      0.000738
      9.67012      7.35119      7.25944         0.000234      0.000286     -4.001353
      0.00000      8.82143      7.25944         0.000002      0.000214      3.056644
      0.00000      7.35119     10.48281         0.000025      0.000065      0.585728
      9.67012      8.82143     10.48281        -0.000439      0.000536     -0.846848
      9.67012      7.35119     13.70619        -0.004300     -0.001009      0.729454
      0.00000      8.82143     13.70619         0.000223      0.001484     -0.751182
      0.00001      7.35134     16.87571         0.000015      0.000100     -0.000904
      9.67041      8.82162     17.05414         0.000716      0.000572     -0.000117
      9.67207      7.35297     20.37737         0.001947     -0.000508     -0.000521
      0.00029      8.82221     20.03810         0.000007     -0.002244      0.000248
      9.67012     10.29167      7.25944         0.000114      0.000284     -4.001455
      0.00000      0.00000      7.25944         0.000001      0.000000      3.056579
      0.00000     10.29167     10.48281         0.000024      0.000107      0.585837
      9.67012      0.00000     10.48281        -0.000672      0.000032     -0.846442
      9.67012     10.29167     13.70619        -0.002139      0.006847      0.733213
      0.00000      0.00000     13.70619         0.000007     -0.000000     -0.750249
     12.89349     10.29180     16.87636         0.000028      0.000112     -0.000241
      9.66994      0.00004     17.05569        -0.001917     -0.000009      0.001526
      9.66907     10.29220     20.38294        -0.000849     -0.000930      0.000855
     12.89349      0.00000     20.03835         0.000005     -0.000011     -0.001168
      9.67012      1.47024      7.25944         0.000113     -0.000263     -4.001437
      0.00000      2.94048      7.25944        -0.000001     -0.000214      3.056644
      0.00000      1.47024     10.48281        -0.000017     -0.000107      0.585837
      9.67012      2.94048     10.48281        -0.000438     -0.000536     -0.846615
      9.67012      1.47024     13.70619        -0.002146     -0.005195      0.734306
      0.00000      2.94048     13.70619        -0.000202     -0.001484     -0.751184
      0.00000      1.47011     16.87636        -0.000030     -0.000116     -0.000244
      9.67031      2.94034     17.05447         0.000583     -0.000604     -0.000101
      9.66884      1.46992     20.38308        -0.000908      0.000910      0.000748
     12.89321      2.93970     20.03810         0.000002      0.002244      0.000245
      9.67012      4.41072      7.25944         0.000234     -0.000308     -4.001331
      0.00000      5.88095      7.25944         0.000001      0.000000      3.056780
      0.00000      4.41072     10.48281        -0.000016     -0.000065      0.585728
      9.67012      5.88095     10.48281        -0.000189     -0.000031     -0.846935
      9.67012      4.41072     13.70619        -0.004310     -0.000648      0.730585
      0.00000      5.88095     13.70619         0.000014      0.000000     -0.751851
     -0.00001      4.41057     16.87571        -0.000012     -0.000096     -0.000907
      9.67081      5.88093     17.05446         0.003136     -0.000008      0.001845
      9.67145      4.40938     20.37836         0.002334      0.000508     -0.000593
      0.00001      5.88095     20.03749         0.000004      0.000011      0.002340
      3.22337      7.35119      7.25944        -0.000235      0.000307     -4.001330
      6.44675      8.82143      7.25944        -0.000002      0.000410      3.057928
      6.44675      7.35119     10.48281        -0.000025      0.003727      0.586218
      3.22337      8.82143     10.48281         0.000437      0.000535     -0.846603
      3.22337      7.35119     13.70619         0.004311      0.000631      0.730639
      6.44675      8.82143     13.70619        -0.000237     -0.008603     -0.717077
      6.44677      7.34693     16.88590        -0.000016     -0.002738     -0.000265
      3.22319      8.82156     17.05448        -0.000582      0.000603     -0.000082
      3.22207      7.35252     20.37839        -0.002293     -0.000472     -0.000600
      6.44682      8.82243     20.03266         0.000087     -0.002122      0.001386
      3.22337     10.29167      7.25944        -0.000114      0.000263     -4.001436
      6.44675      0.00000      7.25944        -0.000001      0.000000      3.057957
      6.44675     10.29167     10.48281        -0.000025      0.001777      0.588745
      3.22337      0.00000     10.48281         0.000671     -0.000032     -0.846433
      3.22337     10.29167     13.70619         0.002147      0.005161      0.734327
[...]
      6.44675      5.88095     11.74226         0.000001      0.000000     -0.055552
      4.48281      4.41072     10.48281         0.549030      0.000299      0.058303
      8.41068      4.41072     10.48281        -0.549044      0.000337      0.058279
      3.22337      5.88095     12.44675        -0.000853     -0.000325     -0.160627
      3.22337      5.88095     14.96563         0.000513     -0.000310      0.210974
      7.70619      4.41072     13.70619        -0.450756      0.009135      0.097937
      5.18731      4.41072     13.70619         0.450431      0.009076      0.097965
      6.44675      5.88095     15.69366         0.000002     -0.000003      0.002534
      6.44675      5.88095     18.23934         0.000003     -0.000007     -0.003094
      4.50970      4.41105     16.95887         0.002003     -0.000550      0.001664
      8.38379      4.41112     16.95870        -0.002054     -0.000541      0.001765
      3.21435      5.88119     18.91702         0.000977     -0.000034     -0.001787
      3.23447      5.88044     21.46495         0.004662     -0.000007     -0.000580
      7.65900      4.40293     20.33821        -0.001156      0.003898      0.002619
      5.23374      4.40257     20.33562         0.001307      0.004080      0.002844
    total drift:                                0.000109     -0.000032      0.053428

  FREE ENERGIE OF THE ION-ELECTRON SYSTEM (eV)
  free  energy   TOTEN  =     -2646.41747378 eV

  energy  without entropy=    -2646.41747378  energy(sigma->0) =    -2646.41747378

 d Force = 0.3773105E-04[ 0.223E-04, 0.532E-04]  d Energy = 0.3674934E-04 0.982E-06
 d Force = 0.7527895E+01[ 0.753E+01, 0.753E+01]  d Ewald  = 0.7527894E+01 0.712E-06

 Conjugate gradient step on ions:
 trial-energy change:   -0.000037  1 .order   -0.000038   -0.000053   -0.000022
  (g-gl).g = 0.889E-04      g.g   = 0.105E-03  gl.gl    = 0.104E-03
 g(Force)  = 0.105E-03   g(Stress)= 0.000E+00 ortho     =-0.504E-06
 gamma     =   0.85125
 trial     =   0.50743
 opt step  =   1.14855  (harmonic =   0.87236) maximal distance =0.00174481
 next E    = -2646.417486   (d E  =  -0.00005)

 reached required accuracy - stopping structural energy minimisation