 vasp.6.3.0 20Jan22 (build Apr  1 2022 16:44:48) complex
 executed on        HPECrayEX_GCC date 2023.01.23  22:12:57

 INCAR:
   SYSTEM = MgO-rocksalt
   ISMEAR = 0
   SIGMA = 0.05
   EDIFF = 1E-8
   ALGO = ALL
   ISTART = 0
   IBRION = 5
   POTIM = 0.01
   NFREE = 2
   ISYM = 0
   DIPOL = 0.5 0.5 0.5
   IDIPOL = 3
   LDIPOL = .TRUE.
   GGA = RE
   IVDW = 13
   VDW_S8 = 1.7468
   VDW_A1 = 0.5363
   VDW_A2 = 3.0726
   ENCUT = 600
   PREC = Accurate
   LASPH = .TRUE.
   LREAL = .FALSE.
   ISPIN = 1
   NELM = 200
   NELMIN = 8
   NCORE = 8
   KPAR = 1
   LWAVE = .FALSE.
   LCHARG = .FALSE.

 POTCAR:    PAW_PBE H 15Jun2001
 POTCAR:    PAW_PBE O 08Apr2002
 POTCAR:    PAW_PBE Mg_pv 13Apr2007
 POTCAR:    PAW_PBE O 08Apr2002
 POTCAR:    PAW_PBE H 15Jun2001
   VRHFIN =H: ultrasoft test

   TITEL  = PAW_PBE H 15Jun2001
   POMASS =    1.000; ZVAL   =    1.000    mass and valenz
   ENMAX  =  250.000; ENMIN  =  200.000 eV

   TITEL  = PAW_PBE O 08Apr2002
   POMASS =   16.000; ZVAL   =    6.000    mass and valenz
   ENMAX  =  400.000; ENMIN  =  300.000 eV

   TITEL  = PAW_PBE Mg_pv 13Apr2007
   POMASS =   24.305; ZVAL   =    8.000    mass and valenz
   ENMAX  =  403.929; ENMIN  =  302.947 eV

   TITEL  = PAW_PBE O 08Apr2002
   POMASS =   16.000; ZVAL   =    6.000    mass and valenz
   ENMAX  =  400.000; ENMIN  =  300.000 eV

  PAW_PBE H 15Jun2001                   :
  PAW_PBE O 08Apr2002                   :
  PAW_PBE Mg_pv 13Apr2007               :
  PAW_PBE O 08Apr2002                   :

 POSCAR:  H  O Mg  O
  positions in direct lattice
|           W    W    AA    RRRRR   N    N  II  N    N   GGGG   !!!           |
|           W    W   A  A   R    R  NN   N  II  NN   N  G    G  !!!           |
|           W    W  A    A  R    R  N N  N  II  N N  N  G       !!!           |
|           W WW W  AAAAAA  RRRRR   N  N N  II  N  N N  G  GGG   !            |
|           WW  WW  A    A  R   R   N   NN  II  N   NN  G    G                |
|           W    W  A    A  R    R  N    N  II  N    N   GGGG   !!!           |
|     Specifying the vdW parameters                                           |
|     VDW_S8 = 1.747                                                          |
|     VDW_A1 = 0.536                                                          |
|     VDW_A2 = 3.073                                                          |
|     in the INCAR file will overwrite the defaults for revpbe. Please        |
|     make sure that is what you intended.                                    |

 ion  position               nearest neighbor table
   1  0.617  0.554  0.767-   3 0.97
   2  0.510  0.673  0.728-   3 1.01
   3  0.508  0.572  0.754-   1 0.97   2 1.01  34 2.25
   4  0.000  0.750  0.352-  36 2.11  38 2.11  39 2.11  46 2.11  55 2.11
   5  0.250  0.000  0.352-  37 2.11  38 2.11  39 2.11  47 2.11  54 2.11
   6  0.000  0.000  0.451-  38 2.11  37 2.11  36 2.11  44 2.11  53 2.11  42 2.11
   7  0.250  0.750  0.451-  39 2.11  37 2.11  36 2.11  45 2.11  52 2.11  43 2.12
   8  0.000  0.750  0.550-  50 2.11  42 2.11  43 2.11  36 2.12  59 2.12  40 2.15
   9  0.250  0.000  0.550-  51 2.11  43 2.11  58 2.11  42 2.11  37 2.12  41 2.15
  10  0.000  0.000  0.649-  48 2.10  41 2.10  57 2.11  42 2.11  40 2.11
  11  0.248  0.750  0.648-  40 2.09  43 2.10  49 2.11  41 2.11  56 2.13
  12  0.000  0.250  0.352-  44 2.11  38 2.11  46 2.11  47 2.11  63 2.11
  13  0.250  0.500  0.352-  45 2.11  39 2.11  46 2.11  47 2.11  62 2.11
  14  0.000  0.500  0.451-  46 2.11  44 2.11  45 2.11  36 2.11  61 2.11  50 2.11
  15  0.250  0.250  0.451-  47 2.11  44 2.11  45 2.11  37 2.11  60 2.11  51 2.12
  16  0.000  0.250  0.550-  51 2.11  50 2.11  67 2.11  42 2.11  44 2.12  48 2.15
  17  0.251  0.500  0.550-  66 2.11  51 2.11  43 2.11  49 2.12  50 2.12  45 2.13
  18  0.000  0.500  0.648-  49 2.09  65 2.10  50 2.11  48 2.11  40 2.12
  19  0.249  0.250  0.649-  48 2.10  41 2.11  51 2.11  49 2.11  64 2.12
  20  0.500  0.750  0.352-  52 2.11  39 2.11  54 2.11  55 2.11  62 2.11
  21  0.750  0.000  0.352-  53 2.11  38 2.11  54 2.11  55 2.11  63 2.11
  22  0.500  0.000  0.451-  54 2.11  52 2.11  53 2.11  37 2.11  60 2.11  58 2.12
  23  0.750  0.750  0.451-  55 2.11  52 2.11  53 2.11  36 2.11  61 2.11  59 2.12
  24  0.500  0.749  0.550-  66 2.10  43 2.10  59 2.11  58 2.11  52 2.13  56 2.20
  25  0.750  0.000  0.550-  67 2.11  58 2.11  42 2.11  59 2.11  53 2.12  57 2.15
  26  0.500  0.002  0.649-  64 2.07  56 2.09  58 2.11  41 2.11  57 2.12
  27  0.752  0.751  0.648-  59 2.08  40 2.09  57 2.10  65 2.11  56 2.13
  28  0.500  0.250  0.352-  60 2.11  54 2.11  47 2.11  62 2.11  63 2.11
  29  0.750  0.500  0.352-  61 2.11  55 2.11  46 2.11  62 2.11  63 2.11
  30  0.500  0.500  0.451-  62 2.11  52 2.11  60 2.11  61 2.11  45 2.11  66 2.14
  31  0.750  0.250  0.451-  63 2.11  53 2.11  60 2.11  61 2.11  44 2.11  67 2.12
  32  0.500  0.251  0.550-  51 2.11  66 2.11  67 2.11  58 2.12  60 2.13  64 2.14
  33  0.749  0.500  0.550-  66 2.10  67 2.11  59 2.11  50 2.12  61 2.13  65 2.15
  34  0.498  0.494  0.653-  64 2.08  49 2.11  65 2.14  66 2.19  56 2.20   3 2.25
  35  0.751  0.250  0.648-  48 2.10  67 2.10  57 2.11  64 2.12  65 2.12
  36  0.000  0.750  0.451-   4 2.11   6 2.11   7 2.11  14 2.11  23 2.11   8 2.12
  37  0.250  0.000  0.451-   5 2.11   6 2.11   7 2.11  15 2.11  22 2.11   9 2.12
  38  0.000  0.000  0.352-   6 2.11   5 2.11   4 2.11  12 2.11  21 2.11
  39  0.250  0.750  0.352-   7 2.11   5 2.11   4 2.11  13 2.11  20 2.11
  40  1.000  0.750  0.651-  27 2.09  11 2.09  10 2.11  18 2.12   8 2.15
  41  0.249  1.000  0.651-  10 2.10  19 2.11  11 2.11  26 2.11   9 2.15
  42  1.000  1.000  0.550-  10 2.11   8 2.11  25 2.11   9 2.11  16 2.11   6 2.11
  43  0.251  0.750  0.550-  11 2.10  24 2.10   9 2.11   8 2.11  17 2.11   7 2.12
  44  0.000  0.250  0.451-  12 2.11   6 2.11  14 2.11  15 2.11  31 2.11  16 2.12
  45  0.250  0.500  0.451-  13 2.11   7 2.11  14 2.11  15 2.11  30 2.11  17 2.13
  46  0.000  0.500  0.352-  14 2.11  12 2.11  13 2.11   4 2.11  29 2.11
  47  0.250  0.250  0.352-  15 2.11  12 2.11  13 2.11   5 2.11  28 2.11
  48  1.000  0.250  0.651-  35 2.10  10 2.10  19 2.10  18 2.11  16 2.15
  49  0.248  0.500  0.650-  18 2.09  11 2.11  34 2.11  19 2.11  17 2.12
  50  1.000  0.500  0.550-   8 2.11  18 2.11  16 2.11  14 2.11  33 2.12  17 2.12
  51  0.250  0.250  0.550-   9 2.11  32 2.11  16 2.11  17 2.11  19 2.11  15 2.12
  52  0.500  0.750  0.451-  20 2.11   7 2.11  22 2.11  23 2.11  30 2.11  24 2.13
  53  0.750  0.000  0.451-  21 2.11   6 2.11  22 2.11  23 2.11  31 2.11  25 2.12
  54  0.500  0.000  0.352-  22 2.11  20 2.11  21 2.11   5 2.11  28 2.11
  55  0.750  0.750  0.352-  23 2.11  20 2.11  21 2.11   4 2.11  29 2.11
  56  0.500  0.754  0.653-  26 2.09  11 2.13  27 2.13  24 2.20  34 2.20
  57  0.750  1.000  0.651-  27 2.10  10 2.11  35 2.11  26 2.12  25 2.15
  58  0.500  0.999  0.550-  26 2.11  25 2.11   9 2.11  24 2.11  22 2.12  32 2.12
  59  0.749  0.750  0.550-  27 2.08  24 2.11  25 2.11  33 2.11   8 2.12  23 2.12
  60  0.500  0.250  0.451-  28 2.11  22 2.11  15 2.11  30 2.11  31 2.11  32 2.13
  61  0.750  0.500  0.451-  29 2.11  23 2.11  14 2.11  30 2.11  31 2.11  33 2.13
  62  0.500  0.500  0.352-  30 2.11  20 2.11  28 2.11  29 2.11  13 2.11
  63  0.750  0.250  0.352-  31 2.11  21 2.11  28 2.11  29 2.11  12 2.11
  64  0.500  0.248  0.651-  26 2.07  34 2.08  35 2.12  19 2.12  32 2.14
  65  0.752  0.500  0.651-  18 2.10  27 2.11  35 2.12  34 2.14  33 2.15
  66  0.500  0.500  0.551-  24 2.10  33 2.10  17 2.11  32 2.11  30 2.14  34 2.19
  67  0.750  0.250  0.550-  35 2.10  25 2.11  33 2.11  32 2.11  16 2.11  31 2.12

IMPORTANT INFORMATION: All symmetrisations will be switched off!
NOSYMM: (Re-)initialisation of all symmetry stuff for point group C_1.

                                     Primitive cell

  volume of cell :    1519.8199

  direct lattice vectors                    reciprocal lattice vectors
     8.440984654  0.000000000  0.000000000     0.118469591  0.000000000  0.000000000
     0.000000000  8.440984654  0.000000000     0.000000000  0.118469591  0.000000000
     0.000000000  0.000000000 21.330738491     0.000000000  0.000000000  0.046880702

  length of vectors
     8.440984654  8.440984654 21.330738491     0.118469591  0.118469591  0.046880702

  position of ions in fractional coordinates (direct lattice)
     0.616747350  0.554373542  0.766913467
     0.509929304  0.672789327  0.728458732
     0.507505033  0.572133215  0.754100542
     0.000000000  0.750000000  0.351605267
     0.250000000  0.000000000  0.351605267
     0.000000000  0.000000000  0.450535089
     0.250000000  0.750000000  0.450535089
     0.000207284  0.749768794  0.549791295
     0.250042949  0.000125680  0.550039895
     0.000073806  0.000410042  0.648595353
     0.247683155  0.749917871  0.648435248
     0.000000000  0.250000000  0.351605267
     0.250000000  0.500000000  0.351605267
     0.000000000  0.500000000  0.450535089
     0.250000000  0.250000000  0.450535089
     0.000031262  0.250140480  0.549909578
     0.250686002  0.499742672  0.550400910
     0.000425668  0.499513881  0.648371969
     0.248982972  0.249855834  0.648744198
     0.500000000  0.750000000  0.351605267
     0.750000000  0.000000000  0.351605267
     0.500000000  0.000000000  0.450535089
     0.750000000  0.750000000  0.450535089
     0.499726028  0.748980267  0.550355635
     0.749777797  0.000284338  0.549933824
     0.499677098  0.001992687  0.648655524
     0.752464721  0.750671887  0.647526815
     0.500000000  0.250000000  0.351605267
     0.750000000  0.500000000  0.351605267
     0.500000000  0.500000000  0.450535089
     0.750000000  0.250000000  0.450535089
     0.499781674  0.250547524  0.550270665
     0.749015091  0.499678732  0.550464135
     0.498120585  0.493518517  0.653381840
     0.750669226  0.249556903  0.648459532
     0.000000000  0.750000000  0.450535089
     0.250000000  0.000000000  0.450535089
     0.000000000  0.000000000  0.351605267
     0.250000000  0.750000000  0.351605267
     0.999772439  0.750337934  0.650565869
     0.249261806  0.999887658  0.650737238
     0.999830501  0.999774756  0.549663713
     0.250559146  0.750233236  0.549968787
     0.000000000  0.250000000  0.450535089
     0.250000000  0.500000000  0.450535089
     0.000000000  0.500000000  0.351605267
     0.250000000  0.250000000  0.351605267
     0.999743677  0.249577840  0.650728320
     0.248180911  0.500092169  0.649707399
     0.999581945  0.500107963  0.549555474
     0.249909182  0.249616938  0.549731899
     0.500000000  0.750000000  0.450535089
     0.750000000  0.000000000  0.450535089
     0.500000000  0.000000000  0.351605267
     0.750000000  0.750000000  0.351605267
     0.500123741  0.754388696  0.653283345
     0.750494219  0.999865950  0.650705881
     0.499995285  0.999294473  0.549889090
     0.749328569  0.750031466  0.549907032
     0.500000000  0.250000000  0.450535089
     0.750000000  0.500000000  0.450535089
     0.500000000  0.500000000  0.351605267
     0.750000000  0.250000000  0.351605267
     0.500015049  0.247731826  0.650515981
     0.751682008  0.500293977  0.651056757
     0.500150597  0.500452340  0.550757543
     0.749901199  0.249887127  0.549801611

[...]
      0.00062      0.00346     13.83502        -0.000063     -0.002110     -0.003362
      2.09069      6.33005     13.83160         0.001597      0.002017     -0.000133
      0.00000      2.11025      7.50000         0.000258      0.000912      0.341055
      2.11025      4.22049      7.50000         0.001394     -0.000733      0.340395
      0.00000      4.22049      9.61025        -0.007997     -0.011274      0.088704
      2.11025      2.11025      9.61025        -0.000611      0.003365      0.076567
      0.00026      2.11143     11.72998         0.001302      0.000898     -0.000010
      2.11604      4.21832     11.74046         0.003600     -0.000106      0.004118
      0.00359      4.21639     13.83025        -0.000988      0.003150     -0.000989
      2.10166      2.10903     13.83819         0.006195     -0.000076      0.000857
      4.22049      6.33074      7.50000        -0.000375     -0.002060      0.340767
      6.33074      0.00000      7.50000        -0.000460      0.000845      0.336352
      4.22049      0.00000      9.61025        -0.006747     -0.011614      0.091098
      6.33074      6.33074      9.61025        -0.020778     -0.015304      0.067655
      4.21818      6.32213     11.73949        -0.000575      0.000288      0.004727
      6.32886      0.00240     11.73049        -0.001227      0.002117      0.002968
      4.21777      0.01682     13.83630         0.001695     -0.001147     -0.000873
      6.35154      6.33641     13.81223         0.000005      0.001460     -0.001782
      4.22049      2.11025      7.50000        -0.000268      0.001825      0.337513
      6.33074      4.22049      7.50000        -0.001501     -0.000844      0.343063
      4.22049      4.22049      9.61025         0.003578      0.005139      0.108376
      6.33074      2.11025      9.61025        -0.001456      0.015758      0.072175
      4.21865      2.11487     11.73768        -0.000473      0.002707      0.004507
      6.32242      4.21778     11.74181        -0.001753     -0.000538      0.003825
      4.20463      4.16578     13.93712         0.003507     -0.005591     -0.013953
      6.33639      2.10651     13.83212        -0.004287      0.000576     -0.000341
      0.00000      6.33074      9.61025        -0.000566      0.006927      0.078732
      2.11025      0.00000      9.61025        -0.000852     -0.009318      0.066093
      0.00000      0.00000      7.50000        -0.001275     -0.002598     -0.499412
      2.11025      6.33074      7.50000        -0.003354      0.001283     -0.499981
      8.43906      6.33359     13.87705         0.002958      0.000078      0.004654
      2.10402      8.44004     13.88071        -0.000763      0.001637      0.002441
      8.43955      8.43908     11.72473        -0.000202     -0.000040     -0.000018
      2.11497      6.33271     11.73124        -0.001616      0.001269     -0.001420
      0.00000      2.11025      9.61025        -0.004237     -0.008622      0.058848
      2.11025      4.22049      9.61025         0.018167      0.007192      0.090324
      0.00000      4.22049      7.50000         0.000506      0.002495     -0.501653
      2.11025      2.11025      7.50000        -0.000122     -0.001381     -0.501875
      8.43882      2.10668     13.88052         0.002336      0.004380     -0.001116
      2.09489      4.22127     13.85874        -0.006753     -0.001200      0.000740
      8.43746      4.22140     11.72242         0.000609      0.002346     -0.002297
      2.10948      2.10701     11.72619        -0.000540      0.000734     -0.002602
      4.22049      6.33074      9.61025        -0.000188     -0.015377      0.087444
      6.33074      0.00000      9.61025        -0.002102     -0.005817      0.071675
      4.22049      0.00000      7.50000         0.001191      0.000493     -0.500041
      6.33074      6.33074      7.50000         0.003402      0.003180     -0.499254
      4.22154      6.36778     13.93502        -0.000944      0.017566     -0.017448
      6.33491      8.43985     13.88004         0.003431      0.001750      0.004597
      4.22045      8.43503     11.72954         0.002083     -0.000230     -0.002489
      6.32507      6.33100     11.72992         0.003008      0.001990     -0.002346
      4.22049      2.11025      9.61025         0.001403      0.009018      0.096380
      6.33074      4.22049      9.61025        -0.023453      0.005462      0.084581
      4.22049      4.22049      7.50000        -0.000704     -0.000830     -0.504140
      6.33074      2.11025      7.50000         0.000067     -0.003188     -0.501411
      4.22062      2.09110     13.87599         0.000170      0.000260      0.004743
      6.34494      4.22297     13.88752         0.010640     -0.002079     -0.001159
      4.22176      4.22431     11.74807         0.001019     -0.000110     -0.001652
      6.32990      2.10929     11.72767         0.001997      0.000267     -0.003305
    total drift:                               -0.001951      0.000823      0.002954

  FREE ENERGIE OF THE ION-ELECTRON SYSTEM (eV)
  free  energy   TOTEN  =      -386.03120510 eV

  energy  without entropy=     -386.03120510  energy(sigma->0) =     -386.03120510

 d Force = 0.4237271E-04[-0.362E-02, 0.370E-02]  d Energy = 0.7067132E-04-0.283E-04
 d Force =-0.3422052E+02[-0.343E+02,-0.342E+02]  d Ewald  =-0.3422050E+02-0.225E-04

 Finite differences progress:
  Degree of freedom:   9/  9
  Displacement:        2/  2
  Total:              18/ 18

 SECOND DERIVATIVES (NOT SYMMETRIZED)
               1X          1Y          1Z          2X          2Y          2Z          3X          3Y          3Z
  1X   -43.061516    7.130251  -13.377095    0.379173    0.462393   -0.112767   42.494683   -7.708009   13.519133
  1Y     7.117007   -4.612120    3.743278   -3.542343    0.436018   -0.873863   -4.039490    4.021096   -2.655410
  1Z   -13.355865    3.742057   -5.557868    2.101433    0.011192    0.462568   10.778823   -3.405407    4.787730
  2X     0.375633   -3.541566    2.099630   -5.972216   -0.229111   -0.667915    4.529314    3.559824   -1.216631
  2Y     0.461664    0.437744    0.010627   -0.227355  -25.609218   11.850412   -0.411381   23.819523  -14.418342
  2Z    -0.113787   -0.874296    0.462412   -0.668508   11.837709   -8.956762    0.908915  -12.589319    9.567393
  3X    42.499604   -4.048568   10.799995    4.524919   -0.413392    0.909042  -47.343782    4.835267  -12.068180
  3Y    -7.694817    4.016390   -3.406236    3.563509   23.821762  -12.607236    4.825378  -29.067415   18.400518
  3Z    13.504207   -2.653699    4.781581   -1.217936  -14.409921    9.564416  -12.045610   18.391430  -18.304588

 Eigenvectors and eigenvalues of the dynamical matrix

   1 f  =  112.422588 THz   706.371953 2PiTHz 3750.013882 cm-1   464.942256 meV
             X         Y         Z           dx          dy          dz
      5.205955  4.679459 16.358831     0.908249   -0.169178    0.293761
      4.304305  5.679004 15.538563    -0.030213   -0.045479    0.017406
      4.283842  4.829368 16.085521    -0.218702    0.053665   -0.078562
      0.000000  6.330738  7.500000            0           0           0
      2.110246  0.000000  7.500000            0           0           0
      0.000000  0.000000  9.610246            0           0           0
      2.110246  6.330738  9.610246            0           0           0
      0.001750  6.328787 11.727454            0           0           0
      2.110609  0.001061 11.732757            0           0           0
      0.000623  0.003461 13.835018            0           0           0
      2.090690  6.330045 13.831603            0           0           0
      0.000000  2.110246  7.500000            0           0           0
      2.110246  4.220492  7.500000            0           0           0
      0.000000  4.220492  9.610246            0           0           0
      2.110246  2.110246  9.610246            0           0           0
      0.000264  2.111432 11.729977            0           0           0
      2.116037  4.218320 11.740458            0           0           0
      0.003593  4.216389 13.830253            0           0           0
      2.101661  2.109029 13.838193            0           0           0
      4.220492  6.330738  7.500000            0           0           0
      6.330738  0.000000  7.500000            0           0           0
      4.220492  0.000000  9.610246            0           0           0
      6.330738  6.330738  9.610246            0           0           0
      4.218180  6.322131 11.739492            0           0           0
      6.328863  0.002400 11.730495            0           0           0
      4.217767  0.016820 13.836301            0           0           0
      6.351543  6.336410 13.812225            0           0           0
      4.220492  2.110246  7.500000            0           0           0
      6.330738  4.220492  7.500000            0           0           0
      4.220492  4.220492  9.610246            0           0           0
      6.330738  2.110246  9.610246            0           0           0
      4.218649  2.114868 11.737680            0           0           0
      6.322425  4.217781 11.741807            0           0           0
      4.204628  4.165782 13.937117            0           0           0
      6.336387  2.106506 13.832121            0           0           0
      0.000000  6.330738  9.610246            0           0           0
      2.110246  0.000000  9.610246            0           0           0
      0.000000  0.000000  7.500000            0           0           0
      2.110246  6.330738  7.500000            0           0           0
      8.439064  6.333591 13.877050            0           0           0
      2.104015  8.440036 13.880706            0           0           0
      8.439554  8.439083 11.724733            0           0           0
      2.114966  6.332707 11.731240            0           0           0
      0.000000  2.110246  9.610246            0           0           0
      2.110246  4.220492  9.610246            0           0           0
      0.000000  4.220492  7.500000            0           0           0
      2.110246  2.110246  7.500000            0           0           0
      8.438821  2.106683 13.880516            0           0           0
      2.094891  4.221270 13.858739            0           0           0
      8.437456  4.221404 11.722424            0           0           0
      2.109480  2.107013 11.726187            0           0           0
      4.220492  6.330738  9.610246            0           0           0
      6.330738  0.000000  9.610246            0           0           0
      4.220492  0.000000  7.500000            0           0           0
      6.330738  6.330738  7.500000            0           0           0
      4.221537  6.367783 13.935016            0           0           0
      6.334910  8.439853 13.880037            0           0           0
      4.220453  8.435029 11.729540            0           0           0
      6.325071  6.331004 11.729923            0           0           0
      4.220492  2.110246  9.610246            0           0           0
      6.330738  4.220492  9.610246            0           0           0
      4.220492  4.220492  7.500000            0           0           0
      6.330738  2.110246  7.500000            0           0           0
      4.220619  2.091101 13.875986            0           0           0
      6.344936  4.222974 13.887521            0           0           0
      4.221764  4.224311 11.748065            0           0           0
      6.329905  2.109293 11.727674            0           0           0

[...]

   9 f  =    2.283817 THz    14.349644 2PiTHz   76.179928 cm-1     9.445103 meV
             X         Y         Z           dx          dy          dz
      5.205955  4.679459 16.358831     0.283896   -0.142316   -0.275529
      4.304305  5.679004 15.538563     0.110329   -0.053241    0.056888
      4.283842  4.829368 16.085521     0.835086   -0.327884    0.010601
      0.000000  6.330738  7.500000            0           0           0
      2.110246  0.000000  7.500000            0           0           0
      0.000000  0.000000  9.610246            0           0           0
      2.110246  6.330738  9.610246            0           0           0
      0.001750  6.328787 11.727454            0           0           0
      2.110609  0.001061 11.732757            0           0           0
      0.000623  0.003461 13.835018            0           0           0
      2.090690  6.330045 13.831603            0           0           0
      0.000000  2.110246  7.500000            0           0           0
      2.110246  4.220492  7.500000            0           0           0
      0.000000  4.220492  9.610246            0           0           0
      2.110246  2.110246  9.610246            0           0           0
      0.000264  2.111432 11.729977            0           0           0
      2.116037  4.218320 11.740458            0           0           0
      0.003593  4.216389 13.830253            0           0           0
      2.101661  2.109029 13.838193            0           0           0
      4.220492  6.330738  7.500000            0           0           0
      6.330738  0.000000  7.500000            0           0           0
      4.220492  0.000000  9.610246            0           0           0
      6.330738  6.330738  9.610246            0           0           0
      4.218180  6.322131 11.739492            0           0           0
      6.328863  0.002400 11.730495            0           0           0
      4.217767  0.016820 13.836301            0           0           0
      6.351543  6.336410 13.812225            0           0           0
      4.220492  2.110246  7.500000            0           0           0
      6.330738  4.220492  7.500000            0           0           0
      4.220492  4.220492  9.610246            0           0           0
      6.330738  2.110246  9.610246            0           0           0
      4.218649  2.114868 11.737680            0           0           0
      6.322425  4.217781 11.741807            0           0           0
      4.204628  4.165782 13.937117            0           0           0
      6.336387  2.106506 13.832121            0           0           0
      0.000000  6.330738  9.610246            0           0           0
      2.110246  0.000000  9.610246            0           0           0
      0.000000  0.000000  7.500000            0           0           0
      2.110246  6.330738  7.500000            0           0           0
      8.439064  6.333591 13.877050            0           0           0
      2.104015  8.440036 13.880706            0           0           0
      8.439554  8.439083 11.724733            0           0           0
      2.114966  6.332707 11.731240            0           0           0
      0.000000  2.110246  9.610246            0           0           0
      2.110246  4.220492  9.610246            0           0           0
      0.000000  4.220492  7.500000            0           0           0
      2.110246  2.110246  7.500000            0           0           0
      8.438821  2.106683 13.880516            0           0           0
      2.094891  4.221270 13.858739            0           0           0
      8.437456  4.221404 11.722424            0           0           0
      2.109480  2.107013 11.726187            0           0           0
      4.220492  6.330738  9.610246            0           0           0
      6.330738  0.000000  9.610246            0           0           0
      4.220492  0.000000  7.500000            0           0           0
      6.330738  6.330738  7.500000            0           0           0
      4.221537  6.367783 13.935016            0           0           0
      6.334910  8.439853 13.880037            0           0           0
      4.220453  8.435029 11.729540            0           0           0
      6.325071  6.331004 11.729923            0           0           0
      4.220492  2.110246  9.610246            0           0           0
      6.330738  4.220492  9.610246            0           0           0
      4.220492  4.220492  7.500000            0           0           0
      6.330738  2.110246  7.500000            0           0           0
      4.220619  2.091101 13.875986            0           0           0
      6.344936  4.222974 13.887521            0           0           0
      4.221764  4.224311 11.748065            0           0           0
      6.329905  2.109293 11.727674            0           0           0

 Finite differences POTIM=   1.0000000000000000E-002