 vasp.6.3.0 20Jan22 (build Dec 25 2023 18:06:01) gamma-only
 executed on        HPECrayEX_GCC date 2024.11.24  20:33:44

 INCAR:
   SYSTEM = MgO-rocksalt
   ISMEAR = 0
   SIGMA = 0.05
   EDIFF = 1E-6
   ALGO = ALL
   ISTART = 0
   IBRION = -1
   NSW = 0
   ISYM = 0
   DIPOL = 0.5 0.5 0.5
   IDIPOL = 3
   LDIPOL = .TRUE.
   GGA = RE
   IVDW = 13
   VDW_S8 = 1.7468
   VDW_A1 = 0.5363
   VDW_A2 = 3.0726
   ENCUT = 520
   PREC = Accurate
   LASPH = .TRUE.
   LREAL = Auto
   ISPIN = 1
   NELM = 200
   NELMIN = 8
   NCORE = 8
   KPAR = 1
   LWAVE = .FALSE.
   LCHARG = .FALSE.

 POTCAR:    PAW_PBE H 15Jun2001
 POTCAR:    PAW_PBE O 08Apr2002
 POTCAR:    PAW_PBE Mg_pv 13Apr2007
 POTCAR:    PAW_PBE O 08Apr2002
 POTCAR:    PAW_PBE H 15Jun2001
   VRHFIN =H: ultrasoft test

   TITEL  = PAW_PBE H 15Jun2001
   POMASS =    1.000; ZVAL   =    1.000    mass and valenz
   ENMAX  =  250.000; ENMIN  =  200.000 eV

   TITEL  = PAW_PBE O 08Apr2002
   POMASS =   16.000; ZVAL   =    6.000    mass and valenz
   ENMAX  =  400.000; ENMIN  =  300.000 eV

   TITEL  = PAW_PBE Mg_pv 13Apr2007
   POMASS =   24.305; ZVAL   =    8.000    mass and valenz
   ENMAX  =  403.929; ENMIN  =  302.947 eV

   TITEL  = PAW_PBE O 08Apr2002
   POMASS =   16.000; ZVAL   =    6.000    mass and valenz
   ENMAX  =  400.000; ENMIN  =  300.000 eV

 Optimization of the real space projectors (new method)

 maximal supplied QI-value         = 34.20
 optimisation between [QCUT,QGAM] = [ 11.63, 23.26] = [ 37.87,151.49] Ry
 Optimized for a Real-space Cutoff    1.21 Angstroem

   l    n(q)    QCUT    max X(q) W(low)/X(q) W(high)/X(q)  e(spline)
   0      8    11.629    19.460    0.17E-03    0.34E-03    0.21E-06
   0      8    11.629    12.209    0.16E-03    0.33E-03    0.21E-06
   1      8    11.629     4.655    0.18E-03    0.16E-03    0.26E-06
 Optimization of the real space projectors (new method)

[...]

   l    n(q)    QCUT    max X(q) W(low)/X(q) W(high)/X(q)  e(spline)
   1      8    11.527     2.974    0.44E-04    0.56E-04    0.12E-06
   1      8    11.527     4.279    0.12E-03    0.12E-03    0.26E-06
   0      9    11.527    16.381    0.46E-04    0.64E-04    0.78E-07
   0      9    11.527     5.611    0.26E-04    0.43E-04    0.55E-07
   2      8    11.527     4.652    0.22E-03    0.72E-04    0.47E-07
 Optimization of the real space projectors (new method)

 maximal supplied QI-value         = 24.76
 optimisation between [QCUT,QGAM] = [ 11.64, 23.27] = [ 37.91,151.63] Ry
 Optimized for a Real-space Cutoff    1.14 Angstroem

   l    n(q)    QCUT    max X(q) W(low)/X(q) W(high)/X(q)  e(spline)
   0      8    11.635    20.381    0.10E-03    0.33E-03    0.24E-06
   0      8    11.635    15.268    0.11E-03    0.35E-03    0.26E-06
   1      7    11.635     5.964    0.24E-03    0.31E-03    0.30E-06
   1      7    11.635     5.382    0.22E-03    0.25E-03    0.26E-06
|               ----> ADVICE to this user running VASP <----                  |
|     You enforced a specific xc type in the INCAR file but a different       |
|     type was found in the POTCAR file.                                      |
|     I HOPE YOU KNOW WHAT YOU ARE DOING!                                     |

  PAW_PBE H 15Jun2001                   :
  PAW_PBE O 08Apr2002                   :
  PAW_PBE Mg_pv 13Apr2007               :
  PAW_PBE O 08Apr2002                   :

 POSCAR:  H  O Mg  O
  positions in direct lattice
  velocities in cartesian coordinates
|           W    W    AA    RRRRR   N    N  II  N    N   GGGG   !!!           |
|           W    W   A  A   R    R  NN   N  II  NN   N  G    G  !!!           |
|           W    W  A    A  R    R  N N  N  II  N N  N  G       !!!           |
|           W WW W  AAAAAA  RRRRR   N  N N  II  N  N N  G  GGG   !            |
|           WW  WW  A    A  R   R   N   NN  II  N   NN  G    G                |
|           W    W  A    A  R    R  N    N  II  N    N   GGGG   !!!           |
|     Specifying the vdW parameters                                           |
|     VDW_S8 = 1.747                                                          |
|     VDW_A1 = 0.536                                                          |
|     VDW_A2 = 3.073                                                          |
|     in the INCAR file will overwrite the defaults for revpbe. Please        |
|     make sure that is what you intended.                                    |

 ion  position               nearest neighbor table
   1  0.414  0.429  0.763-   9 0.99
   2  0.328  0.392  0.769-   9 0.97
   3  0.586  0.324  0.764-  10 0.99
   4  0.672  0.360  0.769-  10 0.97
   5  0.448  0.291  0.764-  11 0.99
   6  0.484  0.205  0.771-  11 0.97
   7  0.553  0.464  0.763-  12 0.99
   8  0.516  0.550  0.766-  12 0.97
   9  0.383  0.380  0.758-   2 0.97   1 0.99
  10  0.617  0.372  0.758-   4 0.97   3 0.99
  11  0.496  0.259  0.758-   6 0.97   5 0.99
  12  0.504  0.494  0.758-   8 0.97   7 0.99
  13  0.000  0.375  0.352- 141 2.11 144 2.11 151 2.11 175 2.11 224 2.11
  14  0.125  0.000  0.352- 142 2.11 143 2.11 152 2.11 159 2.11 176 2.11
  15  0.000  0.000  0.451- 143 2.11 142 2.11 149 2.11 173 2.11 222 2.11 147 2.12
  16  0.125  0.375  0.451- 144 2.11 141 2.11 150 2.11 157 2.11 174 2.11 148 2.12
  17  1.000  0.375  0.550- 228 2.11 148 2.11 155 2.11 179 2.11 141 2.12 145 2.16
  18  0.125  1.000  0.550- 163 2.11 156 2.11 180 2.11 147 2.11 142 2.12 146 2.15
  19  0.000  1.000  0.649- 226 2.11 146 2.11 147 2.11 177 2.11 153 2.11
  20  0.125  0.375  0.649- 161 2.10 148 2.11 145 2.11 154 2.11 178 2.11
  21  0.000  0.125  0.352- 149 2.11 143 2.11 151 2.11 152 2.11 232 2.11
  22  0.125  0.250  0.352- 150 2.11 144 2.11 151 2.11 152 2.11 167 2.11
  23  0.000  0.250  0.451- 151 2.11 149 2.11 150 2.11 141 2.11 230 2.11 155 2.12
  24  0.125  0.125  0.451- 152 2.11 149 2.11 150 2.11 142 2.11 165 2.11 156 2.12
  25  0.000  0.125  0.550- 156 2.11 236 2.11 147 2.11 155 2.11 149 2.12 153 2.15
  26  0.125  0.250  0.550- 171 2.10 155 2.11 148 2.11 156 2.11 150 2.12 154 2.16
  27  0.000  0.250  0.649- 155 2.11 154 2.11 234 2.11 153 2.11 145 2.11
  28  0.125  0.125  0.649- 169 2.11 156 2.11 153 2.11 154 2.11 146 2.11
  29  0.250  0.375  0.352- 157 2.11 144 2.11 160 2.11 167 2.11 191 2.11
  30  0.375  0.000  0.352- 158 2.11 159 2.11 168 2.11 192 2.11 207 2.11
  31  0.250  0.000  0.451- 159 2.11 158 2.11 142 2.11 165 2.11 189 2.11 163 2.12
  32  0.375  0.375  0.451- 160 2.11 157 2.11 166 2.11 190 2.11 205 2.11 164 2.12
  33  0.250  0.375  0.550- 164 2.09 171 2.11 195 2.11 148 2.12 157 2.13 161 2.18
  34  0.375  1.000  0.550- 172 2.10 196 2.11 211 2.11 163 2.11 158 2.12 162 2.16
  35  0.250  1.000  0.649- 169 2.10 163 2.11 193 2.11 162 2.11 146 2.11
  36  0.376  0.374  0.651- 209 2.10 170 2.12 161 2.14 194 2.14 164 2.16
  37  0.250  0.125  0.352- 165 2.11 159 2.11 152 2.11 167 2.11 168 2.11
  38  0.375  0.250  0.352- 166 2.11 160 2.11 167 2.11 168 2.11 215 2.11
  39  0.250  0.250  0.451- 167 2.11 157 2.11 165 2.11 166 2.11 150 2.11 171 2.12
  40  0.375  0.125  0.451- 168 2.11 165 2.11 166 2.11 158 2.11 213 2.11 172 2.12
  41  0.250  0.125  0.550- 171 2.11 172 2.11 156 2.11 163 2.11 165 2.12 169 2.15
  42  0.375  0.250  0.551- 164 2.10 219 2.10 172 2.12 171 2.12 170 2.13 166 2.13
  43  0.250  0.250  0.648- 170 2.09 171 2.10 154 2.11 169 2.11 161 2.12
  44  0.375  0.125  0.648- 170 2.09 172 2.09 162 2.11 169 2.11 217 2.12
  45  0.000  0.875  0.352- 173 2.11 143 2.11 176 2.11 183 2.11 256 2.11
  46  0.125  0.500  0.352- 174 2.11 144 2.11 175 2.11 184 2.11 191 2.11
  47  0.000  0.500  0.451- 175 2.11 174 2.11 141 2.11 181 2.11 254 2.11 179 2.12
  48  0.125  0.875  0.451- 176 2.11 173 2.11 142 2.11 182 2.11 189 2.11 180 2.12
  49  0.000  0.875  0.550- 147 2.11 260 2.11 180 2.11 187 2.11 173 2.12 177 2.15
  50  0.125  0.500  0.550- 195 2.10 179 2.11 148 2.11 188 2.11 174 2.12 178 2.16
  51  1.000  0.500  0.649- 179 2.11 258 2.11 178 2.11 185 2.11 145 2.11
  52  0.125  0.875  0.649- 146 2.11 186 2.11 180 2.11 177 2.11 193 2.11
  53  0.000  0.625  0.352- 181 2.11 175 2.11 183 2.11 184 2.11 264 2.11
  54  0.125  0.750  0.352- 182 2.11 176 2.11 183 2.11 184 2.11 199 2.11
  55  0.000  0.750  0.451- 183 2.11 181 2.11 182 2.11 173 2.11 262 2.11 187 2.12
  56  0.125  0.625  0.451- 184 2.11 181 2.11 182 2.11 174 2.11 197 2.11 188 2.12
  57  1.000  0.625  0.550- 268 2.11 188 2.11 187 2.11 179 2.11 181 2.12 185 2.15
  58  0.125  0.750  0.550- 188 2.11 203 2.11 180 2.11 187 2.11 182 2.12 186 2.15
  59  0.000  0.750  0.649- 266 2.11 186 2.11 187 2.11 177 2.11 185 2.11
  60  0.125  0.625  0.649- 201 2.11 188 2.11 185 2.11 178 2.11 186 2.11
[...]
 254  0.875  0.500  0.451- 126 2.11  96 2.11  47 2.11 127 2.11 136 2.11 130 2.12
 255  0.750  0.500  0.352- 127 2.11 110 2.11 126 2.11  93 2.11 133 2.11
 256  0.875  0.875  0.352- 128 2.11  94 2.11 125 2.11  45 2.11 134 2.11
 257  0.750  0.875  0.651- 139 2.11  99 2.11 132 2.11 116 2.11 129 2.15
 258  0.875  0.500  0.651-  51 2.11 140 2.11 131 2.11 100 2.11 130 2.15
 259  0.750  0.500  0.550- 131 2.10 130 2.10 137 2.11  97 2.11 127 2.12 114 2.12
 260  0.875  0.875  0.550- 132 2.11  49 2.11 138 2.11  98 2.11 129 2.11 128 2.12
 261  0.750  0.625  0.451- 133 2.11 127 2.11 120 2.11 135 2.11 136 2.11 137 2.12
 262  0.875  0.750  0.451- 134 2.11 128 2.11  55 2.11 135 2.11 136 2.11 138 2.12
 263  0.750  0.750  0.352- 135 2.11 125 2.11 133 2.11 134 2.11 118 2.11
 264  0.875  0.625  0.352- 136 2.11 126 2.11 133 2.11 134 2.11  53 2.11
 265  0.750  0.625  0.651- 139 2.11 140 2.11 124 2.11 131 2.11 137 2.15
 266  0.875  0.750  0.651-  59 2.11 132 2.11 139 2.11 140 2.11 138 2.15
 267  0.750  0.750  0.550- 139 2.11 129 2.11 138 2.11 122 2.11 137 2.11 135 2.12
 268  0.875  0.625  0.550- 140 2.11  57 2.11 138 2.11 137 2.11 130 2.11 136 2.12

IMPORTANT INFORMATION: All symmetrisations will be switched off!
NOSYMM: (Re-)initialisation of all symmetry stuff for point group C_1.

                                     Primitive cell

  volume of cell :    6079.2794

  direct lattice vectors                    reciprocal lattice vectors
    16.881969308  0.000000000  0.000000000     0.059234796  0.000000000  0.000000000
     0.000000000 16.881969308  0.000000000     0.000000000  0.059234796  0.000000000
     0.000000000  0.000000000 21.330738491     0.000000000  0.000000000  0.046880702

  length of vectors
    16.881969308 16.881969308 21.330738491     0.059234796  0.059234796  0.046880702

  position of ions in fractional coordinates (direct lattice)
     0.414043740  0.428823706  0.763193947
     0.328416901  0.391561158  0.768743095
     0.585633494  0.323841838  0.764005399
     0.671951040  0.359648075  0.768723092
     0.447947559  0.291120576  0.763760152
     0.484100340  0.205224717  0.770826177
     0.553063031  0.463617004  0.763445416
     0.515679134  0.549519709  0.765587343
     0.383071504  0.379672530  0.757833474
     0.617465784  0.372311302  0.757826468
     0.496406956  0.259109713  0.758044146
     0.503716222  0.494047280  0.757567404
     0.000000000  0.375000000  0.351605267
     0.125000000  0.000000000  0.351605267
     0.000000000  0.000000000  0.450535089
     0.125000000  0.375000000  0.450535089
     0.999997812  0.375000257  0.550110304
[...]
   0.00000000 12.66147698  9.61024616
   2.11024616 10.55123082  9.61024616
  16.88186403 10.55218176 11.73359961
   2.10959163 12.66214968 11.73380474
   0.00004222 12.66311729 13.83830277
   2.10838985 10.55406069 13.83678871
[...]
  14.77172314  8.44098465  9.61024616
  12.66147698  8.44098465  7.50000000
  14.77172314 14.77172314  7.50000000
  12.66390566 14.77174018 13.88705881
  14.77474268  8.44433748 13.88809807
  12.66769861  8.44206388 11.72801681
  14.77252906 14.77174947 11.72910802
  12.66147698 10.55123082  9.61024616
  14.77172314 12.66147698  9.61024616
  12.66147698 12.66147698  7.50000000
  14.77172314 10.55123082  7.50000000
  12.66878304 10.55881700 13.88614760
  14.77430114 12.66403456 13.88673996
  12.66285042 12.66313493 11.72865457
  14.77352200 10.55278884 11.72866315

--------------------------------------- Iteration      FINAL  ---------------------------------------

--------------------OUTCAR has been truncated-------------------------

[...]

--------------------OUTCAR has been truncated-------------------------

  FORCE on cell =-STRESS in cart. coord.  units (eV):
  Direction    XX          YY          ZZ          XY          YZ          ZX
  Alpha Z  3597.19734  3597.19734  3597.19734
  Ewald  640173.62873640176.11560************     0.20052   -10.75988    -1.79352
  Hartree681390.65505681393.01997************     0.12374    -3.40973    -0.16122
  E(xc)  -10007.23982-10007.23644-10041.02706     0.00151    -0.05855    -0.01368
  Local  ************************************    -0.34336    11.41982     1.29247
  n-local-11292.98301-11293.00611-11375.03823     0.00032     0.01879     0.04047
  augment  4210.32367  4210.33016  4178.09731     0.00050     0.18372     0.04175
  Kinetic 29810.23228 29810.34048 30047.72657     0.01612     2.57243     0.58576
  Fock        0.00000     0.00000     0.00000     0.00000     0.00000     0.00000
  vdW       -87.35786   -87.35779   -66.86699     0.00040     0.00497     0.00114
  Total     -91.10921   -91.14524     4.59972    -0.00024    -0.02844    -0.00682
  in kB     -24.01158   -24.02108     1.21224    -0.00006    -0.00749    -0.00180

 VOLUME and BASIS-vectors are now :
  energy-cutoff  :      520.00
  volume of cell :     6079.28
      direct lattice vectors                 reciprocal lattice vectors
    16.881969308  0.000000000  0.000000000     0.059234796  0.000000000  0.000000000
     0.000000000 16.881969308  0.000000000     0.000000000  0.059234796  0.000000000
     0.000000000  0.000000000 21.330738491     0.000000000  0.000000000  0.046880702

  length of vectors
    16.881969308 16.881969308 21.330738491     0.059234796  0.059234796  0.046880702

 FORCES acting on ions:
    Electron-Ion                     Ewald-Force                    Non-Local-Force
   -.122E+02 -.672E+02 -.281E+03   0.167E+02 0.738E+02 0.282E+03   -.444E+01 -.663E+01 -.821E+00
   0.103E+03 -.173E+02 -.286E+03   -.111E+03 0.188E+02 0.288E+03   0.803E+01 -.153E+01 -.192E+01
   0.131E+02 0.658E+02 -.282E+03   -.176E+02 -.724E+02 0.283E+03   0.455E+01 0.651E+01 -.959E+00
   -.103E+03 0.184E+02 -.286E+03   0.111E+03 -.200E+02 0.288E+03   -.801E+01 0.164E+01 -.191E+01
   0.657E+02 -.132E+02 -.281E+03   -.723E+02 0.178E+02 0.282E+03   0.651E+01 -.456E+01 -.869E+00
   0.179E+02 0.102E+03 -.287E+03   -.195E+02 -.110E+03 0.289E+03   0.159E+01 0.793E+01 -.227E+01
   -.679E+02 0.117E+02 -.282E+03   0.746E+02 -.160E+02 0.283E+03   -.668E+01 0.439E+01 -.929E+00
   -.173E+02 -.104E+03 -.283E+03   0.188E+02 0.112E+03 0.285E+03   -.153E+01 -.813E+01 -.138E+01
   0.137E+03 0.331E+02 -.164E+04   -.120E+03 -.681E+02 0.163E+04   -.164E+02 0.351E+02 0.110E+02
   -.137E+03 -.347E+02 -.164E+04   0.121E+03 0.701E+02 0.163E+04   0.160E+02 -.354E+02 0.115E+02
   -.336E+02 0.138E+03 -.164E+04   0.685E+02 -.122E+03 0.163E+04   -.349E+02 -.155E+02 0.129E+02
   0.341E+02 -.135E+03 -.165E+04   -.695E+02 0.118E+03 0.164E+04   0.355E+02 0.171E+02 0.890E+01
   0.447E-02 0.574E-01 0.208E+04   -.547E-02 -.579E-01 -.207E+04   0.772E-03 0.357E-03 -.713E+01
   0.347E+01 0.344E+01 0.208E+04   -.346E+01 -.343E+01 -.207E+04   -.600E-02 -.671E-02 -.714E+01
   -.185E-01 0.477E+01 0.701E+03   0.180E-01 -.477E+01 -.701E+03   0.391E-03 -.217E-02 0.555E+00
   0.105E+02 0.220E+00 0.712E+03   -.104E+02 -.224E+00 -.713E+03   -.715E-01 0.279E-02 0.580E+00
   -.211E-01 0.146E+00 -.659E+03   0.171E-01 -.149E+00 0.659E+03   0.401E-02 0.268E-02 -.117E+00
   0.945E+01 0.937E+01 -.668E+03   -.945E+01 -.936E+01 0.668E+03   -.702E-02 -.678E-02 -.144E+00
   -.350E-01 0.105E+02 -.204E+04   0.340E-01 -.106E+02 0.203E+04   0.968E-03 0.167E-01 0.608E+01
   0.501E+02 0.535E+00 -.201E+04   -.498E+02 -.542E+00 0.200E+04   -.274E+00 0.630E-02 0.604E+01
   -.120E-01 0.449E+01 0.208E+04   0.115E-01 -.449E+01 -.207E+04   0.371E-03 -.675E-02 -.714E+01
   0.505E+01 0.356E+01 0.208E+04   -.502E+01 -.355E+01 -.207E+04   -.202E-01 -.859E-02 -.715E+01
   -.783E-01 0.496E+01 0.707E+03   0.810E-01 -.496E+01 -.707E+03   -.144E-02 0.140E-02 0.574E+00
   0.756E+01 0.810E+01 0.706E+03   -.755E+01 -.808E+01 -.707E+03   -.837E-02 -.938E-02 0.548E+00
   -.573E-01 0.111E+02 -.666E+03   0.583E-01 -.111E+02 0.666E+03   -.108E-02 0.184E-01 -.133E+00
   0.216E+02 0.109E+02 -.654E+03   -.214E+02 -.109E+02 0.654E+03   -.141E+00 -.276E-01 -.102E+00
   -.118E+00 0.128E+02 -.203E+04   0.121E+00 -.128E+02 0.202E+04   -.304E-02 0.495E-01 0.609E+01
   0.250E+02 0.230E+02 -.203E+04   -.250E+02 -.229E+02 0.202E+04   -.936E-01 -.792E-02 0.608E+01
   0.782E+01 0.950E-01 0.209E+04   -.778E+01 -.969E-01 -.208E+04   -.353E-01 0.134E-02 -.719E+01
   0.350E+01 0.502E+01 0.208E+04   -.349E+01 -.499E+01 -.207E+04   -.978E-02 -.212E-01 -.715E+01
   0.816E+01 0.752E+01 0.706E+03   -.815E+01 -.751E+01 -.707E+03   -.863E-02 -.931E-02 0.545E+00
   0.112E+02 0.240E+00 0.736E+03   -.112E+02 -.254E+00 -.737E+03   -.358E-01 0.101E-01 0.436E+00
   0.428E+02 0.533E+00 -.626E+03   -.423E+02 -.567E+00 0.626E+03   -.492E+00 0.346E-01 0.238E+00
   0.108E+02 0.217E+02 -.653E+03   -.108E+02 -.215E+02 0.653E+03   -.315E-01 -.129E+00 -.765E-01
   0.231E+02 0.251E+02 -.203E+04   -.231E+02 -.250E+02 0.202E+04   -.103E-01 -.103E+00 0.608E+01
   0.114E+03 0.356E+01 -.180E+04   -.113E+03 -.374E+01 0.180E+04   -.763E+00 0.182E+00 0.358E+01
   0.608E+01 0.608E+01 0.208E+04   -.606E+01 -.605E+01 -.207E+04   -.218E-01 -.216E-01 -.714E+01
   0.526E+01 0.532E+01 0.209E+04   -.523E+01 -.529E+01 -.208E+04   -.251E-01 -.226E-01 -.720E+01
   0.139E+02 0.821E+01 0.720E+03   -.138E+02 -.814E+01 -.721E+03   -.716E-01 -.534E-01 0.502E+00
   0.805E+01 0.139E+02 0.721E+03   -.798E+01 -.138E+02 -.721E+03   -.556E-01 -.710E-01 0.476E+00
   0.237E+02 0.235E+02 -.647E+03   -.237E+02 -.234E+02 0.647E+03   -.239E-01 -.433E-01 -.869E-01
   0.302E+02 0.304E+02 -.598E+03   -.298E+02 -.301E+02 0.598E+03   -.348E+00 -.341E+00 -.781E+00
   0.863E+02 0.456E+02 -.197E+04   -.857E+02 -.457E+02 0.197E+04   -.551E+00 0.114E+00 0.613E+01
   0.460E+02 0.865E+02 -.197E+04   -.460E+02 -.859E+02 0.196E+04   0.564E-01 -.558E+00 0.614E+01
   -.799E-02 -.515E-01 0.208E+04   0.757E-02 0.521E-01 -.207E+04   0.326E-03 -.519E-03 -.714E+01
   0.508E+01 -.347E+01 0.208E+04   -.506E+01 0.346E+01 -.207E+04   -.190E-01 0.966E-02 -.715E+01
   0.102E+00 -.482E+01 0.707E+03   -.108E+00 0.483E+01 -.708E+03   0.358E-02 -.884E-03 0.573E+00
   0.482E+01 -.925E-01 0.701E+03   -.482E+01 0.938E-01 -.701E+03   -.134E-02 -.960E-03 0.556E+00
   -.214E-01 -.119E+00 -.672E+03   0.203E-01 0.120E+00 0.672E+03   0.874E-03 -.152E-02 -.150E+00
   0.219E+02 -.107E+02 -.653E+03   -.218E+02 0.107E+02 0.653E+03   -.117E+00 0.302E-01 -.732E-01
   0.371E-01 -.126E+02 -.203E+04   -.476E-01 0.126E+02 0.202E+04   0.963E-02 -.462E-01 0.609E+01
   0.106E+02 -.147E+00 -.204E+04   -.106E+02 0.149E+00 0.203E+04   0.204E-01 -.311E-02 0.608E+01
   0.616E-02 -.450E+01 0.208E+04   -.705E-02 0.449E+01 -.207E+04   0.688E-03 0.689E-02 -.714E+01
   0.347E+01 -.353E+01 0.208E+04   -.347E+01 0.352E+01 -.207E+04   -.559E-02 0.559E-02 -.714E+01
   -.111E-01 -.491E+01 0.701E+03   0.103E-01 0.491E+01 -.701E+03   0.600E-03 0.115E-02 0.555E+00
   0.763E+01 -.822E+01 0.707E+03   -.762E+01 0.821E+01 -.707E+03   -.567E-02 0.699E-02 0.545E+00
   0.155E-01 -.111E+02 -.666E+03   -.197E-01 0.112E+02 0.666E+03   0.449E-02 -.200E-01 -.131E+00
   0.948E+01 -.962E+01 -.668E+03   -.948E+01 0.962E+01 0.668E+03   -.165E-02 0.348E-02 -.143E+00
   -.759E-02 -.107E+02 -.204E+04   0.624E-02 0.108E+02 0.203E+04   0.112E-02 -.193E-01 0.608E+01
   0.254E+02 -.232E+02 -.203E+04   -.253E+02 0.232E+02 0.202E+04   -.901E-01 0.555E-02 0.608E+01
[...]
   -.547E+01 -.323E+01 0.157E+04   0.544E+01 0.321E+01 -.157E+04   0.391E-01 0.268E-01 0.340E+01
   -.238E+01 -.429E-01 0.156E+04   0.237E+01 0.435E-01 -.156E+04   0.884E-02 0.246E-02 0.343E+01
   -.125E+02 -.310E+00 -.155E+04   0.125E+02 0.318E+00 0.155E+04   0.177E-01 -.401E-02 -.493E+01
   -.298E+02 -.147E+02 -.154E+04   0.298E+02 0.147E+02 0.154E+04   0.877E-01 0.615E-01 -.493E+01
   -.250E+02 -.134E+02 -.465E+03   0.247E+02 0.134E+02 0.465E+03   0.272E+00 0.284E-01 0.436E+00
   -.569E+01 -.137E+00 -.498E+03   0.568E+01 0.140E+00 0.497E+03   0.111E-01 -.420E-02 0.274E+00
   -.836E+01 -.826E+01 0.535E+03   0.832E+01 0.823E+01 -.535E+03   0.505E-01 0.438E-01 -.379E-01
   -.424E+01 -.426E+01 0.527E+03   0.423E+01 0.425E+01 -.526E+03   0.160E-01 0.137E-01 -.642E-01
   -.373E+01 -.323E+01 0.156E+04   0.372E+01 0.322E+01 -.157E+04   0.124E-01 0.120E-01 0.343E+01
   -.320E+01 -.371E+01 0.156E+04   0.319E+01 0.370E+01 -.157E+04   0.159E-01 0.106E-01 0.343E+01
   -.349E+02 -.341E+02 -.153E+04   0.348E+02 0.340E+02 0.154E+04   0.975E-01 0.127E+00 -.496E+01
   -.107E+02 -.107E+02 -.155E+04   0.107E+02 0.107E+02 0.155E+04   0.344E-01 0.355E-01 -.493E+01
   -.108E+02 -.109E+02 -.491E+03   0.108E+02 0.109E+02 0.490E+03   0.371E-01 0.467E-01 0.278E+00
   -.109E+02 -.106E+02 -.491E+03   0.109E+02 0.106E+02 0.490E+03   0.327E-01 0.389E-01 0.278E+00
   -.167E+00 -.100E+01 0.435E+02   -.352E-11 0.165E-11 -.273E-10   0.170E+00 0.982E+00 -.434E+02

 POSITION                                       TOTAL-FORCE (eV/Angst)
      6.98987      7.23939     16.27949         0.001226      0.002530      0.000040
      5.54432      6.61032     16.39786        -0.005365      0.000052      0.004452
      9.88665      5.46709     16.29680        -0.000601     -0.003093      0.000049
     11.34386      6.07157     16.39743         0.006024     -0.000124      0.004326
      7.56224      4.91469     16.29157        -0.005896      0.002254      0.000529
      8.17257      3.46460     16.44229        -0.000413     -0.006988      0.003212
      9.33679      7.82677     16.28485         0.006248     -0.004117      0.000330
      8.70568      9.27697     16.33054         0.000473      0.006260      0.006116
      6.46700      6.40962     16.16515         0.002093     -0.005978     -0.001410
     10.42404      6.28535     16.16500        -0.000642      0.000609     -0.004466
      8.38033      4.37428     16.16964         0.007094     -0.000050     -0.003492
      8.50372      8.34049     16.15947        -0.007765     -0.000065     -0.000993
      0.00000      6.33074      7.50000        -0.000229     -0.000074      0.331730
      2.11025      0.00000      7.50000         0.001705      0.001929      0.332758
      0.00000      0.00000      9.61025        -0.000089      0.000723      0.063545
      2.11025      6.33074      9.61025         0.026033     -0.001183      0.075283
     16.88193      6.33074     11.73426        -0.000069     -0.000357     -0.000253
      2.10979     16.88141     11.73384         0.000038      0.000596     -0.000780
      0.00008     16.88059     13.83815        -0.000085      0.000193      0.002440
      2.10760      6.33080     13.83706         0.001223     -0.000102      0.002179
      0.00000      2.11025      7.50000        -0.000117      0.002136      0.333004
      2.11025      4.22049      7.50000         0.005816      0.002698      0.335467
      0.00000      4.22049      9.61025         0.001271     -0.000621      0.060939
      2.11025      2.11025      9.61025         0.001592      0.003148      0.063828
      0.00006      2.10940     11.73369        -0.000062      0.000711     -0.000432
      2.11001      4.22065     11.73328        -0.000328     -0.000411     -0.001055
      0.00010      4.21836     13.83748         0.000105      0.000116      0.003306
      2.10870      2.10773     13.83708         0.000156      0.000362      0.001432
      4.22049      6.33074      7.50000         0.010127     -0.000459      0.346381
      6.33074      0.00000      7.50000         0.002905      0.006067      0.335269
      4.22049      0.00000      9.61025         0.002597      0.002535      0.063704
      6.33074      6.33074      9.61025         0.018959     -0.003588      0.131766
      4.22707      6.32995     11.73817        -0.000572      0.000755     -0.000120
      6.33101     16.88119     11.73237        -0.001030     -0.000092     -0.000817
      4.21796     16.88043     13.83686         0.000215      0.000023      0.001970
      6.34021      6.32179     13.89194        -0.000905     -0.000346      0.000493
      4.22049      2.11025      7.50000         0.006197      0.006413      0.335486
      6.33074      4.22049      7.50000         0.007024      0.006603      0.351361
      4.22049      4.22049      9.61025         0.029690      0.018700      0.087422
      6.33074      2.11025      9.61025         0.019526      0.028780      0.083122
      4.21977      2.11039     11.73170         0.000427     -0.000458     -0.001635
      6.33831      4.22658     11.74467         0.001015     -0.000813     -0.001260
      4.21923      4.21579     13.82874         0.000270      0.001554     -0.001404
      6.32575      2.10881     13.82097         0.001272      0.000850      0.001578
      0.00000     14.77172      7.50000        -0.000106      0.000158      0.332086
      2.11025      8.44098      7.50000         0.005423     -0.002855      0.334908
      0.00000      8.44098      9.61025        -0.002101      0.000643      0.060209
      2.11025     14.77172      9.61025         0.000480      0.000349      0.063908
      0.00002     14.77179     11.73398        -0.000258     -0.000138     -0.000308
      2.10904      8.44089     11.73214         0.000585      0.000618     -0.000762
     16.88189      8.44323     13.83730        -0.000848     -0.000004      0.003324
      2.10878     14.77189     13.83827         0.000125     -0.000669      0.001478
      0.00000     10.55123      7.50000        -0.000206     -0.001887      0.332898
      2.11025     12.66148      7.50000         0.001664     -0.001472      0.332781
      0.00000     12.66148      9.61025        -0.000205     -0.000162      0.063368
      2.11025     10.55123      9.61025         0.001396     -0.001770      0.063427
     16.88186     10.55218     11.73360         0.000181      0.000487     -0.000432
      2.10959     12.66215     11.73380        -0.000291     -0.000148     -0.000510
      0.00004     12.66312     13.83830        -0.000237     -0.000032      0.001681
      2.10839     10.55406     13.83679         0.000027      0.000355      0.001685
[...]
     14.77172      8.44098      9.61025         0.017085      0.004930      0.078812
     12.66148      8.44098      7.50000         0.011031      0.007650     -0.507003
     14.77172     14.77172      7.50000         0.004808      0.003124     -0.495820
     12.66391     14.77174     13.88706         0.000964      0.003183      0.004597
     14.77474      8.44434     13.88810        -0.001002     -0.000233      0.000796
     12.66770      8.44206     11.72802         0.000875      0.001263      0.002392
     14.77253     14.77175     11.72911        -0.001046     -0.000869      0.001322
     12.66148     10.55123      9.61025         0.013861      0.010773      0.080101
     14.77172     12.66148      9.61025         0.006233      0.003890      0.083066
     12.66148     12.66148      7.50000         0.003427      0.003407     -0.498786
     14.77172     10.55123      7.50000         0.006795      0.000693     -0.496905
     12.66878     10.55882     13.88615        -0.001724     -0.000613      0.005241
     14.77430     12.66403     13.88674         0.001246      0.000274      0.005180
     12.66285     12.66313     11.72865         0.000549      0.000049      0.000164
     14.77352     10.55279     11.72866        -0.001914      0.000230      0.000460
    total drift:                                0.003199     -0.020890      0.096779

  FREE ENERGIE OF THE ION-ELECTRON SYSTEM (eV)
  free  energy   TOTEN  =     -1543.74422038 eV

  energy  without entropy=    -1543.74422038  energy(sigma->0) =    -1543.74422038