 vasp.6.3.0 20Jan22 (build Mar 11 2022 13:48:16) complex

 executed on             LinuxIFC date 2024.08.24  11:44:31

 INCAR:
   SYSTEM = MgO-rocksalt
   ISMEAR = 0
   SIGMA = 0.05
   EDIFF = 1E-7
   ALGO = ALL
   ISTART = 0
   IBRION = 2
   NSW = 1000
   ISYM = 0
   ISIF = 2
   EDIFFG = -0.01
   DIPOL = 0.5 0.5 0.5
   IDIPOL = 3
   LDIPOL = .TRUE.
   GGA = PE
   IVDW = 21
   ENCUT = 600
   PREC = Accurate
   LASPH = .TRUE.
   LREAL = .FALSE.
   ISPIN = 1
   NELM = 200
   NELMIN = 8
   NCORE = 8
   KPAR = 1
   LWAVE = .FALSE.
   LCHARG = .FALSE.

 POTCAR:    PAW_PBE Ti_pv 07Sep2000
 POTCAR:    PAW_PBE O 08Apr2002
|           W    W    AA    RRRRR   N    N  II  N    N   GGGG   !!!           |
|           W    W   A  A   R    R  NN   N  II  NN   N  G    G  !!!           |
|           W    W  A    A  R    R  N N  N  II  N N  N  G       !!!           |
|           W WW W  AAAAAA  RRRRR   N  N N  II  N  N N  G  GGG   !            |
|           WW  WW  A    A  R   R   N   NN  II  N   NN  G    G                |
|           W    W  A    A  R    R  N    N  II  N    N   GGGG   !!!           |
|     For optimal performance we recommend to set                             |
|       NCORE = 2 up to number-of-cores-per-socket                            |
|     This setting can greatly improve the performance of VASP for DFT.       |
|     The default, NCORE=1 might be grossly inefficient on modern             |
|     multi-core architectures or massively parallel machines. Do your        |
|     Unfortunately you need to use the default for GW and RPA                |
|     calculations (for HF NCORE is supported but not extensively tested      |
|     yet).                                                                   |

   TITEL  = PAW_PBE Ti_pv 07Sep2000
   POMASS =   47.880; ZVAL   =   10.000    mass and valenz
   ENMAX  =  222.335; ENMIN  =  166.751 eV

   TITEL  = PAW_PBE O 08Apr2002
   POMASS =   16.000; ZVAL   =    6.000    mass and valenz
   ENMAX  =  400.000; ENMIN  =  300.000 eV

  PAW_PBE Ti_pv 07Sep2000               :
  PAW_PBE O 08Apr2002                   :

 POSCAR: Ti  O
  positions in direct lattice
 exchange correlation table for  LEXCH =        8
   RHO(1)=    0.500       N(1)  =     2000
   RHO(2)=  100.500       N(2)  =     4000

 ion  position               nearest neighbor table
   1  0.750  0.625  0.287-  81 1.96  82 1.96 141 1.96 142 1.96  84 1.98 163 1.98  11 2.97  31 2.97

   2  0.000  0.750  0.287-  83 1.96  84 1.96 103 1.96 104 1.96  85 1.98  32 2.97  12 2.97
   3  0.000  0.625  0.393-  85 1.96  86 1.96 145 1.96 146 1.96  87 1.98  88 1.98  13 2.97  33 2.97

[...]

  80  0.500  0.500  0.713- 179 1.96 180 1.96 239 1.96 240 1.96 234 1.98  70 2.97  50 2.97
  81  0.750  0.750  0.245-   1 1.96  11 1.96
  82  0.750  0.750  0.329-   1 1.96  11 1.96   4 1.98
  83  0.098  0.625  0.287-   2 1.96  32 1.96  41 1.98
  84  0.902  0.625  0.287-   2 1.96  32 1.96   1 1.98
  85  0.000  0.750  0.352-   3 1.96  13 1.96   2 1.98
  86  0.000  0.750  0.435-   3 1.96  13 1.96   6 1.98
  87  0.848  0.625  0.393-   4 1.96  34 1.96   3 1.98
  88  0.152  0.625  0.393-  44 1.96  74 1.96   3 1.98
  89  0.750  0.750  0.458-   5 1.96  15 1.96   4 1.98
  90  0.750  0.750  0.542-   5 1.96  15 1.96   8 1.98
  91  0.098  0.625  0.500-   6 1.96  36 1.96  45 1.98
  92  0.902  0.625  0.500-   6 1.96  36 1.96   5 1.98
  93  0.000  0.750  0.565-   7 1.96  17 1.96   6 1.98
  94  0.000  0.750  0.648-   7 1.96  17 1.96  10 1.98
  95  0.848  0.625  0.607-   8 1.96  38 1.96   7 1.98
  96  0.152  0.625  0.607-  48 1.96  78 1.96   7 1.98
  97  0.750  0.750  0.671-   9 1.96  19 1.96   8 1.98
  98  0.750  0.750  0.755-   9 1.96  19 1.96
  99  0.098  0.625  0.713-  10 1.96  40 1.96  49 1.98
 100  0.902  0.625  0.713-  10 1.96  40 1.96   9 1.98
 101  0.750  0.000  0.245-  11 1.96  21 1.96
 102  0.750  0.000  0.329-  11 1.96  21 1.96  14 1.98
 103  0.098  0.875  0.287-   2 1.96  12 1.96  51 1.98
 104  0.902  0.875  0.287-   2 1.96  12 1.96  11 1.98
 105  0.000  0.000  0.352-  13 1.96  23 1.96  12 1.98
 106  0.000  0.000  0.435-  13 1.96  23 1.96  16 1.98
 107  0.848  0.875  0.393-   4 1.96  14 1.96  13 1.98
 108  0.152  0.875  0.393-  44 1.96  54 1.96  13 1.98
 109  0.750  0.000  0.458-  15 1.96  25 1.96  14 1.98
 110  0.750  0.000  0.542-  15 1.96  25 1.96  18 1.98
 111  0.098  0.875  0.500-   6 1.96  16 1.96  55 1.98
 112  0.902  0.875  0.500-   6 1.96  16 1.96  15 1.98
 113  0.000  0.000  0.565-  17 1.96  27 1.96  16 1.98
 114  0.000  0.000  0.648-  17 1.96  27 1.96  20 1.98
 115  0.848  0.875  0.607-   8 1.96  18 1.96  17 1.98
 116  0.152  0.875  0.607-  48 1.96  58 1.96  17 1.98
 117  0.750  0.000  0.671-  19 1.96  29 1.96  18 1.98
 118  0.750  0.000  0.755-  19 1.96  29 1.96
 119  0.098  0.875  0.713-  10 1.96  20 1.96  59 1.98
 120  0.902  0.875  0.713-  10 1.96  20 1.96  19 1.98
 121  0.750  0.250  0.245-  21 1.96  31 1.96
 122  0.750  0.250  0.329-  21 1.96  31 1.96  24 1.98
 123  0.098  0.125  0.287-  12 1.96  22 1.96  61 1.98
 124  0.902  0.125  0.287-  12 1.96  22 1.96  21 1.98
 125  0.000  0.250  0.352-  23 1.96  33 1.96  22 1.98
 126  0.000  0.250  0.435-  23 1.96  33 1.96  26 1.98
 127  0.848  0.125  0.393-  14 1.96  24 1.96  23 1.98
 128  0.152  0.125  0.393-  54 1.96  64 1.96  23 1.98
 129  0.750  0.250  0.458-  25 1.96  35 1.96  24 1.98
 130  0.750  0.250  0.542-  25 1.96  35 1.96  28 1.98
 131  0.098  0.125  0.500-  16 1.96  26 1.96  65 1.98
 132  0.902  0.125  0.500-  16 1.96  26 1.96  25 1.98
 133  0.000  0.250  0.565-  27 1.96  37 1.96  26 1.98
 134  0.000  0.250  0.648-  27 1.96  37 1.96  30 1.98
 135  0.848  0.125  0.607-  18 1.96  28 1.96  27 1.98
 136  0.152  0.125  0.607-  58 1.96  68 1.96  27 1.98
 137  0.750  0.250  0.671-  29 1.96  39 1.96  28 1.98
 138  0.750  0.250  0.755-  29 1.96  39 1.96
 139  0.098  0.125  0.713-  20 1.96  30 1.96  69 1.98
[...]
 226  0.500  0.500  0.435-  43 1.96  73 1.96  76 1.98
 227  0.348  0.375  0.393-  64 1.96  74 1.96  73 1.98
 228  0.652  0.375  0.393-  24 1.96  34 1.96  73 1.98
 229  0.250  0.500  0.458-  45 1.96  75 1.96  74 1.98
 230  0.250  0.500  0.542-  45 1.96  75 1.96  78 1.98
 231  0.598  0.375  0.500-  66 1.96  76 1.96  35 1.98
 232  0.402  0.375  0.500-  66 1.96  76 1.96  75 1.98
 233  0.500  0.500  0.565-  47 1.96  77 1.96  76 1.98
 234  0.500  0.500  0.648-  47 1.96  77 1.96  80 1.98
 235  0.348  0.375  0.607-  68 1.96  78 1.96  77 1.98
 236  0.652  0.375  0.607-  28 1.96  38 1.96  77 1.98
 237  0.250  0.500  0.671-  49 1.96  79 1.96  78 1.98
 238  0.250  0.500  0.755-  49 1.96  79 1.96
 239  0.598  0.375  0.713-  70 1.96  80 1.96  39 1.98
 240  0.402  0.375  0.713-  70 1.96  80 1.96  79 1.98

IMPORTANT INFORMATION: All symmetrisations will be switched off!
NOSYMM: (Re-)initialisation of all symmetry stuff for point group C_1.

                                     Primitive cell

  volume of cell :    4740.1649

  direct lattice vectors                    reciprocal lattice vectors
    13.042933829  0.000000000  0.000000000     0.076669867  0.000000000  0.000000000
     0.000000000 11.878216733  0.000000000     0.000000000  0.084187721  0.000000000
     0.000000000  0.000000000 30.596159140     0.000000000  0.000000000  0.032683841

  length of vectors
    13.042933829 11.878216733 30.596159140     0.076669867  0.084187721  0.032683841

  position of ions in fractional coordinates (direct lattice)
     0.750000000  0.625000000  0.286853412
     0.000000000  0.750000000  0.286853412
     0.000000000  0.625000000  0.393426706
     0.750000000  0.750000000  0.393426706
     0.750000000  0.625000000  0.500000000
     0.000000000  0.750000000  0.500000000
     0.000000000  0.625000000  0.606573294
     0.750000000  0.750000000  0.606573294
     0.750000000  0.625000000  0.713146588
     0.000000000  0.750000000  0.713146588
     0.750000000  0.875000000  0.286853412
     0.000000000  0.000000000  0.286853412
     0.000000000  0.875000000  0.393426706
     0.750000000  0.000000000  0.393426706
     0.750000000  0.875000000  0.500000000
     0.000000000  0.000000000  0.500000000
     0.000000000  0.875000000  0.606573294
     0.750000000  0.000000000  0.606573294
     0.750000000  0.875000000  0.713146588
     0.000000000  0.000000000  0.713146588
     0.750000000  0.125000000  0.286853412
     0.000000000  0.250000000  0.286853412
     0.000000000  0.125000000  0.393426706
     0.750000000  0.250000000  0.393426706
     0.750000000  0.125000000  0.500000000
     0.000000000  0.250000000  0.500000000
     0.000000000  0.125000000  0.606573294
     0.750000000  0.250000000  0.606573294
     0.750000000  0.125000000  0.713146588
     0.000000000  0.250000000  0.713146588
     0.750000000  0.375000000  0.286853412
     0.000000000  0.500000000  0.286853412
     0.000000000  0.375000000  0.393426706
     0.750000000  0.500000000  0.393426706
     0.750000000  0.375000000  0.500000000
     0.000000000  0.500000000  0.500000000
     0.000000000  0.375000000  0.606573294
     0.750000000  0.500000000  0.606573294
     0.750000000  0.375000000  0.713146588
     0.000000000  0.500000000  0.713146588
     0.250000000  0.625000000  0.286853412
     0.500000000  0.750000000  0.286853412
     0.500000000  0.625000000  0.393426706
     0.250000000  0.750000000  0.393426706
     0.250000000  0.625000000  0.500000000
     0.500000000  0.750000000  0.500000000
     0.500000000  0.625000000  0.606573294
     0.250000000  0.750000000  0.606573294
     0.250000000  0.625000000  0.713146588
     0.500000000  0.750000000  0.713146588
     0.250000000  0.875000000  0.286853412
     0.500000000  0.000000000  0.286853412
     0.500000000  0.875000000  0.393426706
     0.250000000  0.000000000  0.393426706
     0.250000000  0.875000000  0.500000000
     0.500000000  0.000000000  0.500000000
     0.500000000  0.875000000  0.606573294
     0.250000000  0.000000000  0.606573294
     0.250000000  0.875000000  0.713146588
     0.500000000  0.000000000  0.713146588
[...]
     0.500000000  0.500000000  0.435151311
     0.347877722  0.375000000  0.393426706
     0.652122278  0.375000000  0.393426706
     0.250000000  0.500000000  0.458275395
     0.250000000  0.500000000  0.541724605
     0.597877722  0.375000000  0.500000000
     0.402122278  0.375000000  0.500000000
     0.500000000  0.500000000  0.564848689
     0.500000000  0.500000000  0.648297899
     0.347877722  0.375000000  0.606573294
     0.652122278  0.375000000  0.606573294
     0.250000000  0.500000000  0.671421983
     0.250000000  0.500000000  0.754871193
     0.597877722  0.375000000  0.713146588
     0.402122278  0.375000000  0.713146588

  ion indices of the primitive-cell ions
   primitive index   ion index
                 1           1
                 2           2
                 3           3
                 4           4
                 5           5
                 6           6
                 7           7
                 8           8
                 9           9
                10          10
                11          11
                12          12
                13          13
                14          14
                15          15
                16          16
[...]
   O          53.550          3.922         10.005          1.85275074
   O          36.510          3.680          8.261          1.52982891
   O          51.544          3.898          9.816          1.81770561
   O          51.544          3.898          9.816          1.81770564

  Number of pair interactions contributing to vdW energy: 3235136
  Edisp (eV):  -34.58096

  FORCE on cell =-STRESS in cart. coord.  units (eV):
  Direction    XX          YY          ZZ          XY          YZ          ZX
  Alpha Z  4615.05738  4615.05738  4615.05738
  Ewald  972686.18853990511.91358************     0.00002    -0.00020     0.00001
  Hartree************************************     0.00001    -0.00009     0.00001
  E(xc)   -8587.92935 -8569.58013 -8597.37118     0.00000    -0.00000    -0.00000
  Local  ************************************    -0.00003     0.00030    -0.00002
  n-local -5407.53330 -5331.50285 -5452.27839    -0.00000    -0.00000     0.00000
  augment  5221.29027  5204.16799  5224.58866     0.00000    -0.00000    -0.00000
  Kinetic 28590.76434 28109.80092 28642.36271    -0.00000    -0.00000    -0.00001
  Fock        0.00000     0.00000     0.00000     0.00000     0.00000     0.00000
  vdW       -50.35592   -29.69151   -42.83183    -0.00000     0.00000    -0.00000
  Total       6.38870   -36.47806   -32.40754    -0.00000    -0.00001    -0.00001
  in kB       2.15938   -12.32960   -10.95376    -0.00000    -0.00000    -0.00000

 VOLUME and BASIS-vectors are now :
  energy-cutoff  :      600.00
  volume of cell :     4740.16
      direct lattice vectors                 reciprocal lattice vectors
    13.042933829  0.000000000  0.000000000     0.076669867  0.000000000  0.000000000
     0.000000000 11.878216733  0.000000000     0.000000000  0.084187721  0.000000000
     0.000000000  0.000000000 30.596159140     0.000000000  0.000000000  0.032683841

  length of vectors
    13.042933829 11.878216733 30.596159140     0.076669867  0.084187721  0.032683841

 FORCES acting on ions:
    Electron-Ion                     Ewald-Force                    Non-Local-Force
   0.382E-06 -.291E-06 0.376E+04   -.453E-06 0.251E-06 -.377E+04   -.131E-07 0.702E-08 0.428E+00
   -.186E-06 -.117E-05 0.394E+04   0.794E-07 0.114E-05 -.394E+04   0.183E-07 0.502E-08 -.389E+01
   -.135E-05 -.939E-06 0.191E+04   0.744E-06 0.818E-06 -.191E+04   0.147E-07 0.995E-08 -.456E-01
   0.241E-05 -.619E-05 0.190E+04   -.253E-05 0.615E-05 -.190E+04   0.578E-07 -.288E-07 0.204E+00
   0.151E-04 -.103E-04 -.205E+02   -.158E-04 0.102E-04 0.213E+02   0.156E-06 -.275E-08 -.132E+00
   -.309E-04 -.377E-04 -.924E+01   0.279E-04 0.374E-04 0.820E+01   0.680E-06 0.273E-06 0.341E+00
   -.186E-03 -.380E-04 -.188E+04   0.184E-03 0.375E-04 0.188E+04   0.644E-06 0.189E-06 0.296E-01
   0.711E-04 -.831E-04 -.195E+04   -.718E-04 0.876E-04 0.195E+04   0.838E-07 -.122E-05 -.759E-01
   0.393E-04 -.211E-03 -.376E+04   -.366E-04 0.222E-03 0.376E+04   -.208E-05 -.342E-05 -.205E+00
   -.798E-04 -.106E-03 -.377E+04   0.763E-04 0.104E-03 0.377E+04   0.114E-05 0.285E-08 0.967E+00
   0.271E-06 -.127E-05 0.376E+04   -.362E-06 0.134E-05 -.377E+04   0.907E-07 -.404E-07 0.428E+00
   -.167E-06 -.849E-06 0.394E+04   0.294E-07 0.880E-06 -.394E+04   0.342E-07 -.314E-09 -.389E+01
   -.543E-06 -.843E-05 0.191E+04   -.709E-07 0.853E-05 -.191E+04   0.400E-07 -.177E-07 -.456E-01
   0.784E-06 -.449E-05 0.190E+04   -.844E-06 0.450E-05 -.190E+04   -.720E-08 -.233E-07 0.204E+00
   0.377E-05 -.430E-04 -.205E+02   -.402E-05 0.435E-04 0.213E+02   0.147E-06 -.632E-07 -.132E+00
   -.266E-04 -.494E-04 -.924E+01   0.238E-04 0.501E-04 0.820E+01   0.689E-06 -.123E-06 0.341E+00
   0.606E-04 -.222E-03 -.188E+04   -.639E-04 0.226E-03 0.188E+04   0.984E-06 -.465E-06 0.296E-01
   0.400E-04 -.106E-03 -.195E+04   -.405E-04 0.103E-03 0.195E+04   0.840E-07 0.400E-06 -.759E-01
   0.473E-04 -.193E-03 -.376E+04   -.458E-04 0.197E-03 0.376E+04   -.294E-06 -.187E-05 -.205E+00
   -.697E-04 -.104E-03 -.377E+04   0.667E-04 0.107E-03 0.377E+04   0.828E-06 -.486E-06 0.967E+00
   0.160E-06 0.205E-06 0.376E+04   -.223E-06 -.250E-06 -.377E+04   -.253E-08 0.328E-07 0.428E+00
   -.215E-06 0.114E-05 0.394E+04   0.712E-07 -.115E-05 -.394E+04   0.333E-07 0.114E-07 -.389E+01
   -.600E-06 0.101E-05 0.191E+04   -.385E-07 -.910E-06 -.191E+04   0.416E-07 -.696E-08 -.456E-01
   0.480E-06 0.656E-05 0.190E+04   -.556E-06 -.651E-05 -.190E+04   0.260E-07 0.472E-07 0.204E+00
   -.717E-05 0.686E-05 -.205E+02   0.726E-05 -.640E-05 0.213E+02   0.130E-06 -.567E-07 -.132E+00
   -.347E-04 0.575E-04 -.924E+01   0.318E-04 -.577E-04 0.820E+01   0.735E-06 -.205E-06 0.341E+00
   -.150E-03 0.907E-04 -.188E+04   0.149E-03 -.925E-04 0.188E+04   0.104E-05 0.340E-06 0.296E-01
   0.710E-05 0.183E-03 -.195E+04   -.853E-05 -.183E-03 0.195E+04   0.343E-06 0.269E-06 -.759E-01
   0.180E-04 0.433E-04 -.376E+04   -.173E-04 -.430E-04 0.376E+04   -.642E-06 0.696E-06 -.205E+00
   -.315E-04 0.153E-03 -.377E+04   0.282E-04 -.154E-03 0.377E+04   0.111E-05 0.350E-06 0.967E+00
   0.244E-06 0.138E-05 0.376E+04   -.311E-06 -.134E-05 -.377E+04   0.251E-07 0.209E-08 0.428E+00
   -.247E-06 0.873E-06 0.394E+04   0.124E-06 -.865E-06 -.394E+04   0.203E-07 -.125E-07 -.389E+01
   -.131E-05 0.837E-05 0.191E+04   0.671E-06 -.843E-05 -.191E+04   0.373E-07 0.243E-07 -.456E-01
   0.204E-05 0.410E-05 0.190E+04   -.220E-05 -.414E-05 -.190E+04   0.135E-06 0.160E-07 0.204E+00
   0.110E-05 0.465E-04 -.205E+02   -.134E-05 -.474E-04 0.213E+02   0.121E-06 0.178E-06 -.132E+00
   -.367E-04 0.301E-04 -.924E+01   0.338E-04 -.303E-04 0.820E+01   0.554E-06 -.158E-07 0.341E+00
   -.140E-03 0.181E-03 -.188E+04   0.138E-03 -.183E-03 0.188E+04   0.448E-06 -.357E-07 0.296E-01
   0.604E-05 0.544E-05 -.195E+04   -.685E-05 -.684E-05 0.195E+04   0.273E-06 0.426E-06 -.759E-01
   0.422E-04 0.340E-03 -.376E+04   -.404E-04 -.352E-03 0.376E+04   -.132E-05 0.290E-05 -.205E+00
   -.186E-03 0.540E-04 -.377E+04   0.184E-03 -.547E-04 0.377E+04   0.146E-05 0.377E-06 0.967E+00
   -.384E-06 -.195E-06 0.376E+04   0.459E-06 0.185E-06 -.377E+04   -.354E-07 -.150E-07 0.428E+00
   0.186E-06 -.998E-06 0.394E+04   -.876E-07 0.996E-06 -.394E+04   -.156E-07 -.248E-08 -.389E+01
   0.148E-05 -.142E-05 0.191E+04   -.873E-06 0.143E-05 -.191E+04   -.205E-07 -.111E-07 -.456E-01
   -.260E-05 -.505E-05 0.190E+04   0.274E-05 0.499E-05 -.190E+04   -.583E-07 0.412E-07 0.204E+00
   -.222E-04 0.119E-05 -.205E+02   0.229E-04 -.685E-06 0.213E+02   -.142E-06 -.927E-07 -.132E+00
   0.259E-04 -.148E-04 -.924E+01   -.235E-04 0.136E-04 0.820E+01   -.353E-06 0.525E-06 0.341E+00
   0.311E-03 -.213E-04 -.188E+04   -.308E-03 0.224E-04 0.188E+04   -.896E-06 0.215E-06 0.296E-01
   0.670E-04 -.240E-03 -.195E+04   -.692E-04 0.244E-03 0.195E+04   0.692E-06 -.663E-06 -.759E-01
   -.225E-04 -.842E-04 -.376E+04   0.202E-04 0.823E-04 0.376E+04   0.147E-05 -.794E-06 -.205E+00
   0.760E-04 -.221E-03 -.377E+04   -.726E-04 0.225E-03 0.377E+04   -.136E-05 -.577E-06 0.967E+00
   -.264E-06 -.136E-05 0.376E+04   0.371E-06 0.126E-05 -.377E+04   -.657E-07 0.298E-07 0.428E+00
   0.183E-06 -.704E-06 0.394E+04   -.388E-07 0.663E-06 -.394E+04   -.345E-07 0.199E-07 -.389E+01
   0.783E-06 -.617E-05 0.191E+04   -.188E-06 0.592E-05 -.191E+04   -.344E-07 0.456E-07 -.456E-01
   -.102E-05 -.448E-05 0.190E+04   0.111E-05 0.447E-05 -.190E+04   -.575E-07 0.656E-08 0.204E+00
   -.135E-04 -.402E-04 -.205E+02   0.140E-04 0.429E-04 0.213E+02   -.441E-07 -.132E-06 -.132E+00
   0.266E-04 -.276E-04 -.924E+01   -.243E-04 0.274E-04 0.820E+01   -.463E-06 0.183E-07 0.341E+00
   0.122E-03 -.186E-03 -.188E+04   -.117E-03 0.186E-03 0.188E+04   -.140E-05 -.330E-06 0.296E-01
   0.159E-04 0.100E-04 -.195E+04   -.172E-04 -.987E-05 0.195E+04   0.188E-06 0.407E-06 -.759E-01
   -.873E-05 -.251E-03 -.376E+04   0.882E-05 0.252E-03 0.376E+04   0.109E-06 -.108E-05 -.205E+00
   0.144E-03 -.255E-03 -.377E+04   -.144E-03 0.263E-03 0.377E+04   -.514E-06 -.999E-06 0.967E+00
[...]
   -.533E+02 0.364E-05 0.114E+04   0.573E+02 -.359E-05 -.114E+04   -.353E+01 -.338E-07 0.157E+00
   0.533E+02 0.410E-05 0.114E+04   -.573E+02 -.406E-05 -.114E+04   0.353E+01 -.883E-07 0.157E+00
   -.385E-05 0.604E-05 0.493E+03   0.414E-05 -.610E-05 -.497E+03   -.476E-06 0.628E-07 0.412E+01
   -.192E-04 0.293E-04 -.533E+03   0.186E-04 -.308E-04 0.540E+03   0.925E-06 0.164E-05 -.712E+01
   -.552E+02 0.201E-04 -.616E+01   0.599E+02 -.202E-04 0.591E+01   -.515E+01 -.294E-06 0.350E+00
   0.552E+02 0.169E-04 -.616E+01   -.599E+02 -.169E-04 0.591E+01   0.515E+01 -.476E-06 0.350E+00
   0.621E-04 -.153E-03 -.638E+03   -.594E-04 0.174E-03 0.632E+03   -.384E-05 -.192E-04 0.632E+01
   0.118E-03 0.206E-03 -.161E+04   -.113E-03 -.220E-03 0.161E+04   -.725E-05 0.128E-04 0.293E+01
   -.277E+02 0.110E-03 -.114E+04   0.306E+02 -.111E-03 0.114E+04   -.293E+01 -.573E-06 0.894E+00
   0.277E+02 0.144E-03 -.114E+04   -.306E+02 -.147E-03 0.114E+04   0.293E+01 0.420E-06 0.894E+00
   0.290E-04 0.942E-04 -.182E+04   -.330E-04 -.962E-04 0.182E+04   0.506E-05 0.218E-05 -.228E+01
   -.122E-04 -.402E-05 -.271E+04   0.135E-04 0.697E-05 0.274E+04   0.126E-06 -.161E-05 -.207E+02
   -.218E+02 0.176E-03 -.235E+04   0.276E+02 -.185E-03 0.235E+04   -.584E+01 0.830E-05 -.406E+01
   0.218E+02 0.131E-03 -.235E+04   -.276E+02 -.135E-03 0.235E+04   0.584E+01 0.423E-05 -.406E+01
   0.807E-04 -.658E-05 0.984E+02   -.422E-11 0.931E-12 -.318E-11   -.798E-04 0.919E-05 -.984E+02

 POSITION                                       TOTAL-FORCE (eV/Angst)
      9.78220      7.42389      8.77661        -0.000000     -0.000000     -3.416719
      0.00000      8.90866      8.77661        -0.000000     -0.000000      2.831766
      0.00000      7.42389     12.03735        -0.000001     -0.000000      0.521882
      9.78220      8.90866     12.03735        -0.000000     -0.000000     -0.704314
      9.78220      7.42389     15.29808        -0.000000     -0.000000      0.682796
      0.00000      8.90866     15.29808        -0.000002      0.000000     -0.709604
     -0.00000      7.42389     18.49295        -0.000001     -0.000000     -0.004251
      9.78220      8.90866     18.68757        -0.000000      0.000003      0.002829
      9.78220      7.42389     22.04492         0.000001      0.000008     -0.001440
     -0.00000      8.90866     21.67671        -0.000002     -0.000002      0.006177
      9.78220     10.39344      8.77661        -0.000000      0.000000     -3.416719
      0.00000      0.00000      8.77661        -0.000000      0.000000      2.831766
      0.00000     10.39344     12.03735        -0.000001      0.000000      0.521882
      9.78220      0.00000     12.03735        -0.000000     -0.000000     -0.704314
      9.78220     10.39344     15.29808        -0.000000      0.000000      0.682796
      0.00000      0.00000     15.29808        -0.000002      0.000001     -0.709602
      0.00000     10.39344     18.49295        -0.000001      0.000004     -0.004250
      9.78220     -0.00000     18.68757        -0.000000     -0.000003      0.002829
      9.78220     10.39344     22.04492         0.000001      0.000002     -0.001443
     -0.00000     -0.00000     21.67671        -0.000002      0.000003      0.006178
      9.78220      1.48478      8.77661        -0.000000     -0.000000     -3.416719
      0.00000      2.96955      8.77661        -0.000000     -0.000000      2.831766
      0.00000      1.48478     12.03735        -0.000001      0.000000      0.521882
      9.78220      2.96955     12.03735        -0.000000      0.000000     -0.704313
      9.78220      1.48478     15.29808         0.000000      0.000000      0.682796
      0.00000      2.96955     15.29808        -0.000002     -0.000000     -0.709602
     -0.00000      1.48478     18.49295         0.000000     -0.000001     -0.004256
      9.78220      2.96955     18.68757        -0.000001      0.000000      0.002826
      9.78220      1.48478     22.04492         0.000000      0.000001     -0.001433
      0.00000      2.96955     21.67671        -0.000002     -0.000001      0.006177
      9.78220      4.45433      8.77661        -0.000000      0.000000     -3.416718
      0.00000      5.93911      8.77661        -0.000000     -0.000000      2.831766
      0.00000      4.45433     12.03735        -0.000001     -0.000000      0.521882
      9.78220      5.93911     12.03735        -0.000000     -0.000000     -0.704314
      9.78220      4.45433     15.29808        -0.000000     -0.000001      0.682796
      0.00000      5.93911     15.29808        -0.000002     -0.000000     -0.709603
      0.00000      4.45433     18.49295        -0.000001     -0.000002     -0.004252
      9.78220      5.93911     18.68757        -0.000001     -0.000001      0.002825
      9.78220      4.45433     22.04492         0.000001     -0.000010     -0.001437
     -0.00000      5.93911     21.67671        -0.000000     -0.000000      0.006178
      3.26073      7.42389      8.77661         0.000000     -0.000000     -3.416719
      6.52147      8.90866      8.77661         0.000000     -0.000000      2.831766
      6.52147      7.42389     12.03735         0.000001     -0.000000      0.521883
      3.26073      8.90866     12.03735         0.000000     -0.000000     -0.704316
      3.26073      7.42389     15.29808         0.000001      0.000000      0.682788
      6.52147      8.90866     15.29808         0.000002     -0.000001     -0.709600
      6.52147      7.42389     18.49295         0.000004      0.000001     -0.004264
      3.26073      8.90866     18.68757        -0.000001      0.000003      0.002844
      3.26073      7.42389     22.04492        -0.000001     -0.000003     -0.001446
      6.52147      8.90866     21.67671         0.000002      0.000003      0.006171
      3.26073     10.39344      8.77661         0.000000     -0.000000     -3.416719
      6.52147      0.00000      8.77661         0.000000     -0.000000      2.831766
      6.52147     10.39344     12.03735         0.000001     -0.000000      0.521882
      3.26073      0.00000     12.03735         0.000000     -0.000000     -0.704315
      3.26073     10.39344     15.29808         0.000001      0.000003      0.682791
      6.52147      0.00000     15.29808         0.000002     -0.000000     -0.709602
      6.52147     10.39344     18.49295         0.000004     -0.000000     -0.004256
      3.26073      0.00000     18.68757        -0.000001      0.000001      0.002838
      3.26073     10.39344     22.04492         0.000000     -0.000000     -0.001453
      6.52147     -0.00000     21.67671        -0.000000      0.000007      0.006175
[...]
      6.52147      5.93911     13.31396        -0.000000     -0.000000     -0.116843
      4.53735      4.45433     12.03735         0.427072      0.000000      0.055071
      8.50559      4.45433     12.03735        -0.427072     -0.000000      0.055070
      3.26073      5.93911     14.02147        -0.000000     -0.000000     -0.107877
      3.26073      5.93911     16.57469         0.000000      0.000000      0.000325
      7.79808      4.45433     15.29808        -0.479499     -0.000000      0.089765
      5.24485      4.45433     15.29808         0.479497     -0.000000      0.089765
      6.52147      5.93911     17.30321        -0.000001      0.000002      0.008618
      6.52147      5.93911     19.86348        -0.000002     -0.000001      0.003839
      4.56599      4.45433     18.57970        -0.003455     -0.000001     -0.002778
      8.47694      4.45433     18.57970         0.003452     -0.000002     -0.002778
      3.26073      5.93911     20.55298         0.000001      0.000000     -0.007316
      3.26073      5.93911     23.12339         0.000001      0.000001     -0.004436
      7.74507      4.45433     22.00327        -0.005114     -0.000001      0.006397
      5.29787      4.45433     22.00327         0.005115     -0.000000      0.006398
    total drift:                                0.000001      0.000003     -0.024338

  FREE ENERGIE OF THE ION-ELECTRON SYSTEM (eV)
  free  energy   TOTEN  =     -2154.87157379 eV

  energy  without entropy=    -2154.87157379  energy(sigma->0) =    -2154.87157379

 d Force = 0.1451027E-03[ 0.115E-03, 0.175E-03]  d Energy = 0.1118818E-03 0.332E-04
 d Force = 0.2227851E+02[ 0.223E+02, 0.223E+02]  d Ewald  = 0.2227851E+02 0.285E-07

 Conjugate gradient step on ions:
 trial-energy change:   -0.000112  1 .order   -0.000145   -0.000175   -0.000115
  (g-gl).g = 0.325E-03      g.g   = 0.266E-03  gl.gl    = 0.913E-03
 g(Force)  = 0.266E-03   g(Stress)= 0.000E+00 ortho     =-0.263E-04
 gamma     =   0.35593
 trial     =   0.68123
 opt step  =   1.98558  (harmonic =   1.98558) maximal distance =0.00186924
 next E    = -2154.871717   (d E  =  -0.00026)

 reached required accuracy - stopping structural energy minimisation