 vasp.6.3.0 20Jan22 (build Apr  1 2022 16:44:48) complex
 executed on        HPECrayEX_GCC date 2022.11.13  00:34:37

 INCAR:
   SYSTEM = MgO-rocksalt
   ISMEAR = 0
   SIGMA = 0.05
   EDIFF = 1E-6
   ALGO = ALL
   ISTART = 0
   IBRION = -1
   NSW = 0
   ISYM = 0
   DIPOL = 0.5 0.5 0.5
   IDIPOL = 3
   LDIPOL = .TRUE.
   GGA = PE
   IVDW = 1
   VDW_C6 = 1.75 0.70 0.63 0.70
   VDW_R0 = 1.452 1.342 1.243 1.342
   ENCUT = 600
   PREC = Accurate
   LASPH = .TRUE.
   LREAL = .FALSE.
   ISPIN = 1
   NELM = 200
   NELMIN = 8
   NCORE = 8
   KPAR = 1
   LWAVE = .FALSE.
   LCHARG = .FALSE.

 POTCAR:    PAW_PBE C 08Apr2002
 POTCAR:    PAW_PBE O 08Apr2002
 POTCAR:    PAW_PBE Mg_pv 13Apr2007
 POTCAR:    PAW_PBE O 08Apr2002
 POTCAR:    PAW_PBE C 08Apr2002
   VRHFIN =C: s2p2

   TITEL  = PAW_PBE C 08Apr2002
   POMASS =   12.011; ZVAL   =    4.000    mass and valenz
   ENMAX  =  400.000; ENMIN  =  300.000 eV

[...]

   TITEL  = PAW_PBE Mg_pv 13Apr2007
   POMASS =   24.305; ZVAL   =    8.000    mass and valenz
   ENMAX  =  403.929; ENMIN  =  302.947 eV

   TITEL  = PAW_PBE O 08Apr2002
   POMASS =   16.000; ZVAL   =    6.000    mass and valenz
   ENMAX  =  400.000; ENMIN  =  300.000 eV

  PAW_PBE C 08Apr2002                   :
  PAW_PBE O 08Apr2002                   :
  PAW_PBE Mg_pv 13Apr2007               :
  PAW_PBE O 08Apr2002                   :

 POSCAR:  C  O Mg  O
  positions in direct lattice
 exchange correlation table for  LEXCH =        8
   RHO(1)=    0.500       N(1)  =     2000
   RHO(2)=  100.500       N(2)  =     4000

 ion  position               nearest neighbor table
   1  0.625  0.625  0.768-   2 1.16   3 1.16
   2  0.526  0.526  0.769-   1 1.16
   3  0.724  0.724  0.769-   1 1.16
   4  0.250  0.000  0.353-  38 2.09  39 2.09  46 2.09  55 2.09  36 2.09
   5  0.500  0.250  0.353-  38 2.09  39 2.09  47 2.09  54 2.09  37 2.09
   6  0.250  0.250  0.451-  36 2.09  37 2.09  44 2.09  53 2.09  38 2.09  42 2.09
   7  0.500  0.000  0.451-  36 2.09  37 2.09  45 2.09  52 2.09  39 2.09  43 2.09
   8  0.250  1.000  0.550-  59 2.09  42 2.09  43 2.09  50 2.09  36 2.10  40 2.12
   9  0.500  0.250  0.550-  42 2.09  58 2.09  51 2.09  43 2.09  37 2.10  41 2.11
  10  0.250  0.250  0.647-  42 2.08  57 2.09  40 2.09  48 2.09  41 2.09
  11  0.500  0.000  0.647-  41 2.08  43 2.08  40 2.09  56 2.09  49 2.09
  12  0.250  0.500  0.353-  38 2.09  46 2.09  47 2.09  63 2.09  44 2.09
  13  0.500  0.750  0.353-  39 2.09  46 2.09  47 2.09  62 2.09  45 2.09
  14  0.250  0.750  0.451-  36 2.09  44 2.09  45 2.09  61 2.09  46 2.09  50 2.09
  15  0.500  0.500  0.451-  37 2.09  44 2.09  45 2.09  60 2.09  47 2.09  51 2.10
  16  0.250  0.500  0.550-  42 2.09  50 2.09  51 2.09  67 2.09  44 2.10  48 2.11
  17  0.500  0.750  0.550-  66 2.08  51 2.08  43 2.09  50 2.09  45 2.11  49 2.14
  18  0.250  0.750  0.647-  65 2.08  50 2.08  40 2.09  48 2.09  49 2.09
  19  0.498  0.498  0.648-  41 2.08  48 2.08  51 2.09  64 2.10  49 2.10
  20  0.750  0.000  0.353-  39 2.09  54 2.09  55 2.09  62 2.09  52 2.09
  21  0.000  0.250  0.353-  38 2.09  54 2.09  55 2.09  63 2.09  53 2.09
  22  0.750  0.250  0.451-  37 2.09  52 2.09  53 2.09  60 2.09  54 2.09  58 2.09
  23  0.000  0.000  0.451-  36 2.09  52 2.09  53 2.09  61 2.09  55 2.09  59 2.09
  24  0.750  0.000  0.550-  59 2.09  43 2.09  66 2.09  58 2.09  52 2.10  56 2.11
  25  1.000  0.250  0.550-  59 2.09  42 2.09  67 2.09  58 2.09  53 2.10  57 2.12
  26  0.750  0.250  0.647-  56 2.08  58 2.08  57 2.09  41 2.09  64 2.09
  27  0.000  0.000  0.647-  59 2.08  57 2.09  40 2.09  65 2.09  56 2.09
  28  0.750  0.500  0.353-  47 2.09  54 2.09  62 2.09  63 2.09  60 2.09
  29  0.000  0.750  0.353-  46 2.09  55 2.09  62 2.09  63 2.09  61 2.09
  30  0.750  0.750  0.451-  45 2.09  52 2.09  60 2.09  61 2.09  62 2.09  66 2.10
  31  0.000  0.500  0.451-  44 2.09  53 2.09  60 2.09  61 2.09  63 2.09  67 2.09
  32  0.750  0.500  0.550-  66 2.08  51 2.08  67 2.09  58 2.09  60 2.11  64 2.14
  33  0.000  0.750  0.550-  59 2.09  67 2.09  66 2.09  50 2.09  61 2.10  65 2.11
  34  0.752  0.752  0.648-  56 2.08  65 2.08  66 2.09  49 2.10  64 2.10
  35  0.000  0.500  0.647-  48 2.08  67 2.08  57 2.09  65 2.09  64 2.09
  36  0.250  0.000  0.451-   6 2.09   7 2.09  14 2.09  23 2.09   4 2.09   8 2.10
  37  0.500  0.250  0.451-   6 2.09   7 2.09  15 2.09  22 2.09   5 2.09   9 2.10
  38  0.250  0.250  0.353-   4 2.09   5 2.09  12 2.09  21 2.09   6 2.09
  39  0.500  0.000  0.353-   4 2.09   5 2.09  13 2.09  20 2.09   7 2.09
  40  0.250  1.000  0.650-  10 2.09  27 2.09  11 2.09  18 2.09   8 2.12
  41  0.500  0.249  0.649-  19 2.08  11 2.08  10 2.09  26 2.09   9 2.11
  42  0.250  0.250  0.549-  10 2.08  25 2.09   8 2.09  16 2.09   9 2.09   6 2.09
  43  0.500  1.000  0.549-  11 2.08  17 2.09   8 2.09  24 2.09   9 2.09   7 2.09
  44  0.250  0.500  0.451-   6 2.09  14 2.09  15 2.09  31 2.09  12 2.09  16 2.10
  45  0.500  0.750  0.451-   7 2.09  14 2.09  15 2.09  30 2.09  13 2.09  17 2.11
  46  0.250  0.750  0.353-   4 2.09  12 2.09  13 2.09  29 2.09  14 2.09
  47  0.500  0.500  0.353-   5 2.09  12 2.09  13 2.09  28 2.09  15 2.09
  48  0.249  0.500  0.649-  19 2.08  35 2.08  10 2.09  18 2.09  16 2.11
  49  0.500  0.750  0.650-  11 2.09  18 2.09  19 2.10  34 2.10  17 2.14
  50  0.250  0.750  0.549-  18 2.08  17 2.09   8 2.09  16 2.09  33 2.09  14 2.09
  51  0.500  0.500  0.550-  32 2.08  17 2.08  19 2.09   9 2.09  16 2.09  15 2.10
  52  0.750  0.000  0.451-   7 2.09  22 2.09  23 2.09  30 2.09  20 2.09  24 2.10
  53  0.000  0.250  0.451-   6 2.09  22 2.09  23 2.09  31 2.09  21 2.09  25 2.10
  54  0.750  0.250  0.353-   5 2.09  20 2.09  21 2.09  28 2.09  22 2.09
  55  0.000  0.000  0.353-   4 2.09  20 2.09  21 2.09  29 2.09  23 2.09
  56  0.750  0.001  0.649-  34 2.08  26 2.08  27 2.09  11 2.09  24 2.11
  57  1.000  0.250  0.650-  10 2.09  27 2.09  35 2.09  26 2.09  25 2.12
  58  0.750  0.250  0.549-  26 2.08  32 2.09  25 2.09   9 2.09  24 2.09  22 2.09
  59  0.000  0.000  0.549-  27 2.08   8 2.09  25 2.09  33 2.09  24 2.09  23 2.09
  60  0.750  0.500  0.451-  15 2.09  22 2.09  30 2.09  31 2.09  28 2.09  32 2.11
  61  0.000  0.750  0.451-  14 2.09  23 2.09  30 2.09  31 2.09  29 2.09  33 2.10
  62  0.750  0.750  0.353-  13 2.09  20 2.09  28 2.09  29 2.09  30 2.09
  63  0.000  0.500  0.353-  12 2.09  21 2.09  28 2.09  29 2.09  31 2.09
  64  0.750  0.500  0.650-  35 2.09  26 2.09  19 2.10  34 2.10  32 2.14
  65  0.001  0.750  0.649-  34 2.08  18 2.08  27 2.09  35 2.09  33 2.11
  66  0.750  0.750  0.550-  17 2.08  32 2.08  34 2.09  24 2.09  33 2.09  30 2.10
  67  1.000  0.500  0.549-  35 2.08  32 2.09  25 2.09  33 2.09  16 2.09  31 2.09

IMPORTANT INFORMATION: All symmetrisations will be switched off!
NOSYMM: (Re-)initialisation of all symmetry stuff for point group C_1.

                                     Primitive cell

  volume of cell :    1482.1129

  direct lattice vectors                    reciprocal lattice vectors
     8.349111827  0.000000000  0.000000000     0.119773219  0.000000000  0.000000000
     0.000000000  8.349111827  0.000000000     0.000000000  0.119773219  0.000000000
     0.000000000  0.000000000 21.261833870     0.000000000  0.000000000  0.047032632

  length of vectors
     8.349111827  8.349111827 21.261833870     0.119773219  0.119773219  0.047032632

  position of ions in fractional coordinates (direct lattice)
     0.625004284  0.625004241  0.768138368
     0.526446197  0.526446195  0.769203716
     0.723566535  0.723566461  0.769201438
     0.250000000  0.000000000  0.352744737
     0.500000000  0.250000000  0.352744737
     0.250000000  0.250000000  0.450914912
     0.500000000  0.000000000  0.450914912
     0.250062449  0.999936690  0.549666215
     0.499921587  0.249849112  0.549667335
     0.249756302  0.249756302  0.647318159
     0.500157064  0.000281170  0.647218062
     0.250000000  0.500000000  0.352744737
     0.500000000  0.750000000  0.352744737
     0.250000000  0.750000000  0.450914912
     0.500000000  0.500000000  0.450914912
     0.249849094  0.499921568  0.549667335
     0.500301750  0.749697801  0.549921991
     0.249715158  0.749840134  0.647217613
     0.497810754  0.497810749  0.647717265
     0.750000000  0.000000000  0.352744737
     0.000000000  0.250000000  0.352744737
     0.750000000  0.250000000  0.450914912
     0.000000000  0.000000000  0.450914912
     0.750077631  0.000149648  0.549667152
     0.999936686  0.250062443  0.549666214
     0.749840143  0.249715168  0.647217606
     0.000241465  0.000241468  0.647318174
     0.750000000  0.500000000  0.352744737
     0.000000000  0.750000000  0.352744737
     0.750000000  0.750000000  0.450914912
     0.000000000  0.500000000  0.450914912
     0.749697800  0.500301746  0.549921990
     0.000149665  0.750077649  0.549667150
     0.752188562  0.752188567  0.647717173
     0.000281175  0.500157070  0.647218071
     0.250000000  0.000000000  0.450914912
     0.500000000  0.250000000  0.450914912
     0.250000000  0.250000000  0.352744737
     0.500000000  0.000000000  0.352744737
     0.250115311  0.999882549  0.649592991
     0.499767654  0.249204261  0.649067907
     0.249868479  0.249868491  0.549340716
     0.500009833  0.999602795  0.549396571
     0.250000000  0.500000000  0.450914912
     0.500000000  0.750000000  0.450914912
     0.250000000  0.750000000  0.352744737
     0.500000000  0.500000000  0.352744737
     0.249204265  0.499767648  0.649067910
     0.500239080  0.749759557  0.650388467
     0.250395400  0.749989153  0.549396665
     0.500014827  0.500014828  0.549614152
     0.750000000  0.000000000  0.450914912
     0.000000000  0.250000000  0.450914912
     0.750000000  0.250000000  0.352744737
     0.000000000  0.000000000  0.352744737
     0.750230666  0.000793426  0.649067803
     0.999882553  0.250115312  0.649592991
     0.749989152  0.250395412  0.549396662
     0.000130749  0.000130739  0.549340477
     0.750000000  0.500000000  0.450914912
     0.000000000  0.750000000  0.450914912
     0.750000000  0.750000000  0.352744737
     0.000000000  0.500000000  0.352744737
     0.749759554  0.500239078  0.650388467
     0.000793422  0.750230677  0.649067806
     0.749984512  0.749984516  0.549613904
     0.999602809  0.500009832  0.549396572

  ion indices of the primitive-cell ions
   primitive index   ion index
                 1           1
                 2           2
                 3           3
                 4           4
                 5           5
                 6           6
                 7           7
                 8           8
                 9           9
                10          10
                11          11
                12          12
                13          13
                14          14
                15          15
                16          16
                17          17
                18          18
                19          19
                20          20
                21          21
                22          22
                23          23
                24          24
                25          25
                26          26
                27          27
                28          28
                29          29
[...]
   6.26248202  0.00124943 11.68693166
   8.34858321  2.08779930 11.68691173
   6.26049920  2.08489987 13.76103321
   0.00201602  0.00201604 13.76317148
   6.26183387  4.17455591  7.50000000
   0.00000000  6.26183387  7.50000000
   6.26183387  6.26183387  9.58727796
   0.00000000  4.17455591  9.58727796
   6.25931077  4.17707522 11.69234999
   0.00124957  6.26248217 11.68693164
   6.28010642  6.28010646 13.77165492
   0.00234756  4.17586731 13.76104310
   2.08727796  0.00000000  9.58727796
   4.17455591  2.08727796  9.58727796
   2.08727796  2.08727796  7.50000000
   4.17455591  0.00000000  7.50000000
   2.08824070  8.34813121 13.81153825
   4.17261603  2.08063424 13.80037401
   2.08617987  2.08617998 11.67999104
   4.17463801  8.34579552 11.68117862
   2.08727796  4.17455591  9.58727796
   4.17455591  6.26183387  9.58727796
   2.08727796  6.26183387  7.50000000
   4.17455591  4.17455591  7.50000000
   2.08063427  4.17261598 13.80037406
   4.17655202  6.25982638 13.82845154
   2.09057920  6.26174331 11.68118062
   4.17467971  4.17467971 11.68580479
   6.26183387  0.00000000  9.58727796
   0.00000000  2.08727796  9.58727796
   6.26183387  2.08727796  7.50000000
   0.00000000  0.00000000  7.50000000
   6.26375973  0.00662441 13.80037180
   8.34813125  2.08824071 13.81153825
   6.26174330  2.09057929 11.68118056
   0.00109164  0.00109156 11.67998595
   6.26183387  4.17455591  9.58727796
   0.00000000  6.26183387  9.58727796
   6.26183387  6.26183387  7.50000000
   0.00000000  4.17455591  7.50000000
   6.25982636  4.17655200 13.82845153
   0.00662437  6.26375981 13.80037186
   6.26170456  6.26170460 11.68579952
   8.34579563  4.17463800 11.68117865

--------------------------------------- Iteration      FINAL  ---------------------------------------

--------------------OUTCAR has been truncated-------------------------

[...]

--------------------OUTCAR has been truncated-------------------------

  DFT-D2 method for vdW energy calculation

  Parameters of vdW forcefield:
         C6(Jnm^6/mol)     R0(A)
   C        1.750          1.452
   O        0.700          1.342
   Mg       0.630          1.243
   O        0.700          1.342

  vdW correction parametrized for the method pbe

  IVDW =   1
  VDW_RADIUS =    50.000 A
  VDW_S6 =     0.750
  VDW_SR =     1.000
  VDW_D =    20.000
  LVDW_EWALD = F

  Number of pair interactions contributing to vdW energy:  812491
  Edisp (eV):   -3.94560

  FORCE on cell =-STRESS in cart. coord.  units (eV):
  Direction    XX          YY          ZZ          XY          YZ          ZX
  Alpha Z   950.51164   950.51164   950.51164
  Ewald  163191.05222163191.05187************   390.38416    -0.01682    -0.01682
  Hartree173579.47254173579.47235************   173.64794    -0.00886    -0.00885
  E(xc)   -2535.53316 -2535.53316 -2541.53652     1.04197    -0.00004    -0.00004
  Local  ************************346450.05620  -525.91737     0.02457     0.02456
  n-local -2862.00502 -2862.00501 -2879.79567    -3.07869    -0.00001    -0.00001
  augment  1059.28267  1059.28266  1051.20277    -1.44707     0.00001     0.00001
  Kinetic  7637.77263  7637.77264  7705.70496   -32.57722     0.00150     0.00151
  Fock        0.00000     0.00000     0.00000     0.00000     0.00000     0.00000
  vdW        -5.66126    -5.66126    -4.74303     0.00246    -0.00000    -0.00000
  Total      -1.98956    -1.98955    16.07848     2.05617     0.00036     0.00035
  in kB      -2.15073    -2.15072    17.38099     2.22274     0.00039     0.00038

 VOLUME and BASIS-vectors are now :
  energy-cutoff  :      600.00
  volume of cell :     1482.11
      direct lattice vectors                 reciprocal lattice vectors
     8.349111827  0.000000000  0.000000000     0.119773219  0.000000000  0.000000000
     0.000000000  8.349111827  0.000000000     0.000000000  0.119773219  0.000000000
     0.000000000  0.000000000 21.261833870     0.000000000  0.000000000  0.047032632

  length of vectors
     8.349111827  8.349111827 21.261833870     0.119773219  0.119773219  0.047032632

 FORCES acting on ions:
    Electron-Ion                     Ewald-Force                    Non-Local-Force
   -.113E-01 -.113E-01 -.107E+04   0.146E-01 0.146E-01 0.107E+04   -.109E-03 -.107E-03 0.300E+00
   0.193E+03 0.193E+03 -.162E+04   -.239E+03 -.239E+03 0.162E+04   0.451E+02 0.451E+02 -.247E+01
   -.193E+03 -.193E+03 -.162E+04   0.239E+03 0.239E+03 0.162E+04   -.451E+02 -.451E+02 -.247E+01
   0.177E+00 -.177E+00 0.215E+04   -.176E+00 0.177E+00 -.214E+04   -.447E-03 0.447E-03 -.710E+01
   0.178E+00 0.201E+00 0.215E+04   -.177E+00 -.200E+00 -.214E+04   -.165E-03 -.399E-03 -.709E+01
   0.889E+00 0.889E+00 0.762E+03   -.911E+00 -.911E+00 -.762E+03   0.164E-01 0.164E-01 0.460E+00
   0.914E+00 -.835E+00 0.763E+03   -.931E+00 0.782E+00 -.763E+03   0.123E-01 0.375E-01 0.481E+00
   0.372E+01 -.372E+01 -.626E+03   -.372E+01 0.372E+01 0.626E+03   0.493E-02 -.491E-02 -.186E+00
   0.382E+01 0.659E+01 -.614E+03   -.382E+01 -.659E+01 0.614E+03   0.333E-02 -.652E-02 -.429E+00
   0.199E+02 0.199E+02 -.202E+04   -.199E+02 -.199E+02 0.202E+04   0.281E-01 0.281E-01 0.609E+01
   0.215E+02 -.256E+02 -.200E+04   -.215E+02 0.259E+02 0.200E+04   0.217E-01 -.292E+00 0.609E+01
   0.201E+00 0.178E+00 0.215E+04   -.200E+00 -.177E+00 -.214E+04   -.400E-03 -.167E-03 -.709E+01
   0.206E+00 -.205E+00 0.215E+04   -.204E+00 0.203E+00 -.214E+04   -.148E-02 0.149E-02 -.711E+01
   0.834E+00 -.914E+00 0.763E+03   -.781E+00 0.930E+00 -.763E+03   -.375E-01 -.123E-01 0.481E+00
   0.854E+00 0.854E+00 0.765E+03   -.825E+00 -.825E+00 -.765E+03   -.223E-01 -.223E-01 0.561E+00
   0.659E+01 0.382E+01 -.614E+03   -.659E+01 -.382E+01 0.614E+03   -.652E-02 0.333E-02 -.429E+00
   0.674E+01 -.674E+01 -.609E+03   -.673E+01 0.673E+01 0.609E+03   -.178E-01 0.177E-01 0.954E-03
   0.256E+02 -.215E+02 -.200E+04   -.259E+02 0.215E+02 0.200E+04   0.293E+00 -.216E-01 0.609E+01
   0.356E+02 0.356E+02 -.190E+04   -.361E+02 -.361E+02 0.189E+04   0.505E+00 0.505E+00 0.580E+01
   -.177E+00 -.201E+00 0.215E+04   0.177E+00 0.201E+00 -.214E+04   0.165E-03 0.396E-03 -.709E+01
   -.177E+00 0.177E+00 0.215E+04   0.177E+00 -.176E+00 -.214E+04   0.444E-03 -.444E-03 -.710E+01
   -.914E+00 0.834E+00 0.763E+03   0.930E+00 -.781E+00 -.763E+03   -.123E-01 -.375E-01 0.481E+00
   -.890E+00 -.890E+00 0.762E+03   0.912E+00 0.912E+00 -.762E+03   -.164E-01 -.164E-01 0.459E+00
   -.381E+01 -.659E+01 -.614E+03   0.382E+01 0.659E+01 0.614E+03   -.335E-02 0.651E-02 -.429E+00
   -.372E+01 0.372E+01 -.626E+03   0.372E+01 -.372E+01 0.626E+03   -.491E-02 0.493E-02 -.186E+00
   -.215E+02 0.256E+02 -.200E+04   0.215E+02 -.259E+02 0.200E+04   -.216E-01 0.293E+00 0.609E+01
   -.199E+02 -.199E+02 -.202E+04   0.199E+02 0.199E+02 0.202E+04   -.280E-01 -.280E-01 0.609E+01
   -.205E+00 0.206E+00 0.215E+04   0.203E+00 -.204E+00 -.214E+04   0.148E-02 -.148E-02 -.711E+01
   -.201E+00 -.177E+00 0.215E+04   0.201E+00 0.177E+00 -.214E+04   0.403E-03 0.170E-03 -.709E+01
   -.853E+00 -.853E+00 0.765E+03   0.824E+00 0.824E+00 -.765E+03   0.223E-01 0.223E-01 0.561E+00
   -.835E+00 0.914E+00 0.763E+03   0.782E+00 -.931E+00 -.763E+03   0.375E-01 0.123E-01 0.481E+00
   -.674E+01 0.674E+01 -.609E+03   0.673E+01 -.673E+01 0.609E+03   0.177E-01 -.178E-01 0.956E-03
   -.659E+01 -.381E+01 -.614E+03   0.659E+01 0.382E+01 0.614E+03   0.650E-02 -.335E-02 -.429E+00
   -.356E+02 -.356E+02 -.190E+04   0.360E+02 0.360E+02 0.189E+04   -.505E+00 -.505E+00 0.580E+01
   -.256E+02 0.215E+02 -.200E+04   0.259E+02 -.215E+02 0.200E+04   -.292E+00 0.217E-01 0.609E+01
   0.560E+00 -.560E+00 0.571E+03   -.564E+00 0.564E+00 -.570E+03   0.570E-02 -.575E-02 -.101E+00
   0.557E+00 0.705E+00 0.572E+03   -.553E+00 -.700E+00 -.572E+03   -.438E-02 -.554E-02 -.623E-01
   0.147E+00 0.147E+00 0.162E+04   -.149E+00 -.149E+00 -.162E+04   0.270E-02 0.270E-02 0.346E+01
   0.147E+00 -.137E+00 0.162E+04   -.149E+00 0.133E+00 -.162E+04   0.300E-02 0.487E-02 0.346E+01
   0.996E+01 -.997E+01 -.154E+04   -.992E+01 0.992E+01 0.155E+04   -.457E-01 0.458E-01 -.509E+01
   0.112E+02 0.299E+02 -.151E+04   -.112E+02 -.299E+02 0.152E+04   -.368E-01 0.661E-01 -.518E+01
   0.376E+01 0.376E+01 -.462E+03   -.375E+01 -.375E+01 0.462E+03   -.105E-01 -.105E-01 0.251E+00
   0.386E+01 -.355E+01 -.457E+03   -.385E+01 0.356E+01 0.456E+03   -.106E-01 -.839E-02 0.324E+00
   0.705E+00 0.557E+00 0.572E+03   -.700E+00 -.553E+00 -.572E+03   -.554E-02 -.438E-02 -.623E-01
   0.772E+00 -.771E+00 0.573E+03   -.796E+00 0.795E+00 -.573E+03   0.337E-01 -.338E-01 -.145E+00
   0.137E+00 -.147E+00 0.162E+04   -.133E+00 0.149E+00 -.162E+04   -.487E-02 -.300E-02 0.346E+01
   0.140E+00 0.140E+00 0.162E+04   -.136E+00 -.136E+00 -.162E+04   -.656E-02 -.657E-02 0.346E+01
   0.299E+02 0.112E+02 -.151E+04   -.299E+02 -.112E+02 0.152E+04   0.661E-01 -.368E-01 -.518E+01
   0.372E+02 -.372E+02 -.147E+04   -.371E+02 0.371E+02 0.147E+04   -.110E+00 0.110E+00 -.469E+01
   0.355E+01 -.386E+01 -.457E+03   -.356E+01 0.385E+01 0.456E+03   0.835E-02 0.106E-01 0.324E+00
   0.375E+01 0.375E+01 -.448E+03   -.377E+01 -.377E+01 0.447E+03   0.240E-01 0.240E-01 0.260E+00
   -.556E+00 -.706E+00 0.572E+03   0.553E+00 0.701E+00 -.572E+03   0.431E-02 0.548E-02 -.623E-01
   -.560E+00 0.560E+00 0.571E+03   0.564E+00 -.564E+00 -.570E+03   -.575E-02 0.570E-02 -.101E+00
   -.147E+00 0.137E+00 0.162E+04   0.149E+00 -.133E+00 -.162E+04   -.300E-02 -.488E-02 0.346E+01
   -.147E+00 -.147E+00 0.162E+04   0.149E+00 0.149E+00 -.162E+04   -.270E-02 -.270E-02 0.346E+01
   -.112E+02 -.299E+02 -.151E+04   0.112E+02 0.299E+02 0.152E+04   0.370E-01 -.660E-01 -.518E+01
   -.997E+01 0.996E+01 -.154E+04   0.992E+01 -.992E+01 0.155E+04   0.458E-01 -.457E-01 -.509E+01
   -.386E+01 0.355E+01 -.457E+03   0.385E+01 -.356E+01 0.456E+03   0.106E-01 0.835E-02 0.324E+00
   -.377E+01 -.377E+01 -.462E+03   0.375E+01 0.375E+01 0.462E+03   0.105E-01 0.105E-01 0.251E+00
   -.771E+00 0.772E+00 0.573E+03   0.795E+00 -.796E+00 -.573E+03   -.338E-01 0.337E-01 -.145E+00
   -.706E+00 -.556E+00 0.572E+03   0.701E+00 0.553E+00 -.572E+03   0.547E-02 0.431E-02 -.623E-01
   -.140E+00 -.140E+00 0.162E+04   0.135E+00 0.135E+00 -.162E+04   0.656E-02 0.656E-02 0.346E+01
   -.137E+00 0.147E+00 0.162E+04   0.133E+00 -.149E+00 -.162E+04   0.487E-02 0.300E-02 0.346E+01
   -.372E+02 0.372E+02 -.147E+04   0.371E+02 -.371E+02 0.147E+04   0.110E+00 -.110E+00 -.469E+01
   -.299E+02 -.112E+02 -.151E+04   0.299E+02 0.112E+02 0.152E+04   -.660E-01 0.370E-01 -.518E+01
   -.374E+01 -.374E+01 -.448E+03   0.377E+01 0.377E+01 0.447E+03   -.240E-01 -.240E-01 0.260E+00
   -.355E+01 0.386E+01 -.457E+03   0.356E+01 -.385E+01 0.456E+03   -.839E-02 -.106E-01 0.324E+00
   -.255E-02 -.255E-02 0.224E+02   0.767E-12 -.114E-12 -.313E-11   0.255E-02 0.255E-02 -.224E+02

 POSITION                                       TOTAL-FORCE (eV/Angst)
      5.21823      5.21823     16.33203         0.003215      0.003221     -0.070938
      4.39536      4.39536     16.35468        -1.035806     -1.035805      0.116305
      6.04114      6.04114     16.35463         1.032559      1.032566      0.116118
      2.08728      0.00000      7.50000         0.000160     -0.000162      0.191095
      4.17456      2.08728      7.50000         0.000097      0.000141      0.187500
      2.08728      2.08728      9.58728        -0.005720     -0.005721      0.035944
      4.17456      0.00000      9.58728        -0.003791     -0.015349      0.041646
      2.08780      8.34858     11.68691         0.000059     -0.000077      0.028534
      4.17390      2.08602     11.68694         0.000397     -0.001440      0.023334
      2.08524      2.08524     13.76317        -0.003867     -0.003873      0.179415
      4.17587      0.00235     13.76104        -0.004312     -0.003963      0.179170
      2.08728      4.17456      7.50000         0.000138      0.000101      0.187505
      4.17456      6.26183      7.50000         0.000468     -0.000463      0.192570
      2.08728      6.26183      9.58728         0.015332      0.003780      0.041650
      4.17456      4.17456      9.58728         0.006409      0.006408      0.048100
      2.08602      4.17390     11.68694        -0.001443      0.000397      0.023334
      4.17708      6.25931     11.69235        -0.002052      0.002009      0.029880
      2.08490      6.26050     13.76103         0.004061      0.004381      0.179234
      4.15628      4.15628     13.77166         0.014132      0.014136      0.161512
      6.26183      0.00000      7.50000        -0.000098     -0.000146      0.187495
      0.00000      2.08728      7.50000        -0.000173      0.000164      0.191076
      6.26183      2.08728      9.58728         0.003784      0.015332      0.041651
      0.00000      0.00000      9.58728         0.005709      0.005712      0.035932
      6.26248      0.00125     11.68693        -0.000410      0.001450      0.023352
      8.34858      2.08780     11.68691        -0.000080      0.000064      0.028538
      6.26050      2.08490     13.76103         0.004390      0.004065      0.179243
      0.00202      0.00202     13.76317         0.003904      0.003902      0.179427
      6.26183      4.17456      7.50000        -0.000467      0.000467      0.192561
      0.00000      6.26183      7.50000        -0.000143     -0.000097      0.187497
      6.26183      6.26183      9.58728        -0.006419     -0.006420      0.048071
      0.00000      4.17456      9.58728        -0.015347     -0.003797      0.041645
      6.25931      4.17708     11.69235         0.002009     -0.002057      0.029883
      0.00125      6.26248     11.68693         0.001449     -0.000415      0.023360
      6.28011      6.28011     13.77165        -0.014167     -0.014167      0.161585
      0.00235      4.17587     13.76104        -0.003969     -0.004318      0.179160
      2.08728      0.00000      9.58728         0.001798     -0.001812      0.062037
      4.17456      2.08728      9.58728        -0.000742     -0.000612      0.075458
      2.08728      2.08728      7.50000         0.000769      0.000767     -0.669932
      4.17456      0.00000      7.50000         0.000855      0.001399     -0.670177
      2.08824      8.34813     13.81154        -0.000423      0.000445      0.153607
      4.17262      2.08063     13.80037         0.000447      0.000521      0.158486
      2.08618      2.08618     11.67999         0.001384      0.001380     -0.003377
      4.17464      8.34580     11.68118         0.000629      0.000603     -0.005953
      2.08728      4.17456      9.58728        -0.000613     -0.000741      0.075451
      4.17456      6.26183      9.58728         0.009202     -0.009228      0.078039
      2.08728      6.26183      7.50000        -0.001397     -0.000860     -0.670178
      4.17456      4.17456      7.50000        -0.001918     -0.001919     -0.670684
      2.08063      4.17262     13.80037         0.000520      0.000449      0.158485
      4.17655      6.25983     13.82845        -0.006006      0.005953      0.129521
      2.09058      6.26174     11.68118        -0.000522     -0.000634     -0.006001
      4.17468      4.17468     11.68580        -0.000381     -0.000385     -0.005968
      6.26183      0.00000      9.58728         0.000723      0.000603      0.075439
      0.00000      2.08728      9.58728        -0.001812      0.001798      0.062029
      6.26183      2.08728      7.50000        -0.000852     -0.001398     -0.670174
      0.00000      0.00000      7.50000        -0.000765     -0.000767     -0.669925
      6.26376      0.00662     13.80037        -0.000461     -0.000459      0.158449
      8.34813      2.08824     13.81154         0.000438     -0.000441      0.153611
      6.26174      2.09058     11.68118        -0.000634     -0.000527     -0.005997
      0.00109      0.00109     11.67999        -0.001391     -0.001383     -0.003329
      6.26183      4.17456      9.58728        -0.009227      0.009198      0.078037
      0.00000      6.26183      9.58728         0.000596      0.000723      0.075434
      6.26183      6.26183      7.50000         0.001916      0.001917     -0.670689
      0.00000      4.17456      7.50000         0.001398      0.000854     -0.670177
      6.25983      4.17655     13.82845         0.005946     -0.006004      0.129518
      0.00662      6.26376     13.80037        -0.000458     -0.000462      0.158459
      6.26170      6.26170     11.68580         0.000372      0.000369     -0.005932
      8.34580      4.17464     11.68118         0.000598      0.000630     -0.005951
    total drift:                                0.000004     -0.000001      0.003535

  FREE ENERGIE OF THE ION-ELECTRON SYSTEM (eV)
  free  energy   TOTEN  =      -399.03670103 eV

  energy  without entropy=     -399.03670103  energy(sigma->0) =     -399.03670103