 vasp.6.3.0 20Jan22 (build Apr  1 2022 16:44:48) complex
 executed on        HPECrayEX_GCC date 2022.10.26  06:13:04

 INCAR:
   SYSTEM = MgO-rocksalt
   ISMEAR = 0
   SIGMA = 0.05
   EDIFF = 1E-7
   ALGO = ALL
   ISTART = 0
   IBRION = 2
   NSW = 1000
   ISYM = 0
   ISIF = 2
   EDIFFG = -0.01
   DIPOL = 0.5 0.5 0.5
   IDIPOL = 3
   LDIPOL = .TRUE.
   LHFCALC = .TRUE.
   GGA = PE
   IVDW = 13
   VDW_S8 = 1.2007
   VDW_A1 = 0.4009
   VDW_A2 = 5.0293
   ENCUT = 600
   PREC = Accurate
   LASPH = .TRUE.
   LREAL = .FALSE.
   ISPIN = 1
   NELM = 200
   NELMIN = 8
   NCORE = 8
   KPAR = 1
   LWAVE = .FALSE.
   LCHARG = .FALSE.

 POTCAR:    PAW_PBE C 08Apr2002
 POTCAR:    PAW_PBE O 08Apr2002
 POTCAR:    PAW_PBE Mg_pv 13Apr2007
 POTCAR:    PAW_PBE O 08Apr2002
 POTCAR:    PAW_PBE C 08Apr2002
   VRHFIN =C: s2p2

   TITEL  = PAW_PBE C 08Apr2002
   POMASS =   12.011; ZVAL   =    4.000    mass and valenz
   ENMAX  =  400.000; ENMIN  =  300.000 eV

[...]

   TITEL  = PAW_PBE Mg_pv 13Apr2007
   POMASS =   24.305; ZVAL   =    8.000    mass and valenz
   ENMAX  =  403.929; ENMIN  =  302.947 eV

   TITEL  = PAW_PBE O 08Apr2002
   POMASS =   16.000; ZVAL   =    6.000    mass and valenz
   ENMAX  =  400.000; ENMIN  =  300.000 eV

  PAW_PBE C 08Apr2002                   :
  PAW_PBE O 08Apr2002                   :
  PAW_PBE Mg_pv 13Apr2007               :
  PAW_PBE O 08Apr2002                   :

 POSCAR:  C  O Mg  O
  positions in direct lattice
|           W    W    AA    RRRRR   N    N  II  N    N   GGGG   !!!           |
|           W    W   A  A   R    R  NN   N  II  NN   N  G    G  !!!           |
|           W    W  A    A  R    R  N N  N  II  N N  N  G       !!!           |
|           W WW W  AAAAAA  RRRRR   N  N N  II  N  N N  G  GGG   !            |
|           WW  WW  A    A  R   R   N   NN  II  N   NN  G    G                |
|           W    W  A    A  R    R  N    N  II  N    N   GGGG   !!!           |
|     Specifying the vdW parameters                                           |
|     VDW_S8 = 1.201                                                          |
|     VDW_A1 = 0.401                                                          |
|     VDW_A2 = 5.029                                                          |
|     in the INCAR file will overwrite the defaults for pbe0. Please make     |
|     sure that is what you intended.                                         |

 ion  position               nearest neighbor table
   1  0.625  0.625  0.765-   2 1.16   3 1.16
   2  0.527  0.527  0.765-   1 1.16
   3  0.723  0.723  0.765-   1 1.16
   4  0.250  0.000  0.353-  38 2.09  39 2.09  46 2.09  55 2.09  36 2.09
   5  0.500  0.250  0.353-  38 2.09  39 2.09  47 2.09  54 2.09  37 2.09
   6  0.250  0.250  0.451-  36 2.09  37 2.09  44 2.09  53 2.09  38 2.09  42 2.10
   7  0.500  0.000  0.451-  36 2.09  37 2.09  45 2.09  52 2.09  39 2.09  43 2.10
   8  0.250  0.000  0.550-  42 2.09  43 2.09  50 2.09  59 2.09  36 2.10  40 2.12
   9  0.500  0.250  0.550-  42 2.09  43 2.09  51 2.09  58 2.09  37 2.10  41 2.12
  10  0.250  0.250  0.648-  42 2.08  41 2.09  40 2.09  48 2.09  57 2.09
  11  0.500  0.000  0.648-  43 2.08  41 2.09  40 2.09  49 2.09  56 2.09
  12  0.250  0.500  0.353-  38 2.09  46 2.09  47 2.09  63 2.09  44 2.09
  13  0.500  0.750  0.353-  39 2.09  46 2.09  47 2.09  62 2.09  45 2.09
  14  0.250  0.750  0.451-  36 2.09  44 2.09  45 2.09  61 2.09  46 2.09  50 2.10
  15  0.500  0.500  0.451-  37 2.09  44 2.09  45 2.09  60 2.09  47 2.09  51 2.10
  16  0.250  0.500  0.550-  42 2.09  50 2.09  51 2.09  67 2.09  44 2.10  48 2.12
  17  0.500  0.750  0.550-  43 2.09  50 2.09  51 2.09  66 2.09  45 2.10  49 2.12
  18  0.250  0.750  0.648-  50 2.08  48 2.09  49 2.09  40 2.09  65 2.09
  19  0.500  0.500  0.648-  51 2.08  48 2.09  49 2.09  41 2.09  64 2.09
  20  0.750  0.000  0.353-  39 2.09  54 2.09  55 2.09  62 2.09  52 2.09
  21  0.000  0.250  0.353-  38 2.09  54 2.09  55 2.09  63 2.09  53 2.09
  22  0.750  0.250  0.451-  37 2.09  52 2.09  53 2.09  60 2.09  54 2.09  58 2.10
  23  0.000  0.000  0.451-  36 2.09  52 2.09  53 2.09  61 2.09  55 2.09  59 2.10
  24  0.750  0.000  0.550-  43 2.09  58 2.09  59 2.09  66 2.09  52 2.10  56 2.12
  25  0.000  0.250  0.550-  42 2.09  58 2.09  59 2.09  67 2.09  53 2.10  57 2.12
  26  0.750  0.250  0.648-  58 2.08  56 2.09  57 2.09  41 2.09  64 2.09
  27  0.000  0.000  0.648-  59 2.08  56 2.09  57 2.09  40 2.09  65 2.09
  28  0.750  0.500  0.353-  47 2.09  54 2.09  62 2.09  63 2.09  60 2.09
  29  0.000  0.750  0.353-  46 2.09  55 2.09  62 2.09  63 2.09  61 2.09
  30  0.750  0.750  0.451-  45 2.09  52 2.09  60 2.09  61 2.09  62 2.09  66 2.10
  31  0.000  0.500  0.451-  44 2.09  53 2.09  60 2.09  61 2.09  63 2.09  67 2.10
  32  0.750  0.500  0.550-  51 2.09  58 2.09  66 2.09  67 2.09  60 2.10  64 2.12
  33  0.000  0.750  0.550-  50 2.09  59 2.09  66 2.09  67 2.09  61 2.10  65 2.12
  34  0.750  0.750  0.648-  66 2.08  56 2.09  64 2.09  65 2.09  49 2.09
  35  0.000  0.500  0.648-  67 2.08  57 2.09  64 2.09  65 2.09  48 2.09
  36  0.250  0.000  0.451-   6 2.09   7 2.09  14 2.09  23 2.09   4 2.09   8 2.10
  37  0.500  0.250  0.451-   6 2.09   7 2.09  15 2.09  22 2.09   5 2.09   9 2.10
  38  0.250  0.250  0.353-   4 2.09   5 2.09  12 2.09  21 2.09   6 2.09
  39  0.500  0.000  0.353-   4 2.09   5 2.09  13 2.09  20 2.09   7 2.09
  40  0.250  0.000  0.650-  10 2.09  11 2.09  18 2.09  27 2.09   8 2.12
  41  0.500  0.250  0.650-  10 2.09  11 2.09  19 2.09  26 2.09   9 2.12
  42  0.250  0.250  0.550-  10 2.08   9 2.09   8 2.09  16 2.09  25 2.09   6 2.10
  43  0.500  0.000  0.550-  11 2.08   9 2.09   8 2.09  17 2.09  24 2.09   7 2.10
  44  0.250  0.500  0.451-   6 2.09  14 2.09  15 2.09  31 2.09  12 2.09  16 2.10
  45  0.500  0.750  0.451-   7 2.09  14 2.09  15 2.09  30 2.09  13 2.09  17 2.10
  46  0.250  0.750  0.353-   4 2.09  12 2.09  13 2.09  29 2.09  14 2.09
  47  0.500  0.500  0.353-   5 2.09  12 2.09  13 2.09  28 2.09  15 2.09
  48  0.250  0.500  0.650-  10 2.09  18 2.09  19 2.09  35 2.09  16 2.12
  49  0.500  0.750  0.650-  11 2.09  18 2.09  19 2.09  34 2.09  17 2.12
  50  0.250  0.750  0.550-  18 2.08  16 2.09  17 2.09   8 2.09  33 2.09  14 2.10
  51  0.500  0.500  0.550-  19 2.08  16 2.09  17 2.09   9 2.09  32 2.09  15 2.10
  52  0.750  0.000  0.451-   7 2.09  22 2.09  23 2.09  30 2.09  20 2.09  24 2.10
  53  0.000  0.250  0.451-   6 2.09  22 2.09  23 2.09  31 2.09  21 2.09  25 2.10
  54  0.750  0.250  0.353-   5 2.09  20 2.09  21 2.09  28 2.09  22 2.09
  55  0.000  0.000  0.353-   4 2.09  20 2.09  21 2.09  29 2.09  23 2.09
  56  0.750  0.000  0.650-  11 2.09  26 2.09  27 2.09  34 2.09  24 2.12
  57  0.000  0.250  0.650-  10 2.09  26 2.09  27 2.09  35 2.09  25 2.12
  58  0.750  0.250  0.550-  26 2.08  24 2.09  25 2.09   9 2.09  32 2.09  22 2.10
  59  0.000  0.000  0.550-  27 2.08  24 2.09  25 2.09   8 2.09  33 2.09  23 2.10
  60  0.750  0.500  0.451-  15 2.09  22 2.09  30 2.09  31 2.09  28 2.09  32 2.10
  61  0.000  0.750  0.451-  14 2.09  23 2.09  30 2.09  31 2.09  29 2.09  33 2.10
  62  0.750  0.750  0.353-  13 2.09  20 2.09  28 2.09  29 2.09  30 2.09
  63  0.000  0.500  0.353-  12 2.09  21 2.09  28 2.09  29 2.09  31 2.09
  64  0.750  0.500  0.650-  19 2.09  26 2.09  34 2.09  35 2.09  32 2.12
  65  0.000  0.750  0.650-  18 2.09  27 2.09  34 2.09  35 2.09  33 2.12
  66  0.750  0.750  0.550-  34 2.08  24 2.09  32 2.09  33 2.09  17 2.09  30 2.10
  67  0.000  0.500  0.550-  35 2.08  25 2.09  32 2.09  33 2.09  16 2.09  31 2.10

IMPORTANT INFORMATION: All symmetrisations will be switched off!
NOSYMM: (Re-)initialisation of all symmetry stuff for point group C_1.

                                     Primitive cell

  volume of cell :    1482.1129

  direct lattice vectors                    reciprocal lattice vectors
     8.349111827  0.000000000  0.000000000     0.119773219  0.000000000  0.000000000
     0.000000000  8.349111827  0.000000000     0.000000000  0.119773219  0.000000000
     0.000000000  0.000000000 21.261833870     0.000000000  0.000000000  0.047032632

  length of vectors
     8.349111827  8.349111827 21.261833870     0.119773219  0.119773219  0.047032632

  position of ions in fractional coordinates (direct lattice)
     0.625000000  0.625000000  0.765111099
     0.526507741  0.526507735  0.765111106
     0.723492269  0.723492262  0.765111106
     0.250000000  0.000000000  0.352744737
     0.500000000  0.250000000  0.352744737
     0.250000000  0.250000000  0.450914912
     0.500000000  0.000000000  0.450914912
     0.250000000  0.000000000  0.549824939
     0.500000000  0.250000000  0.549824939
     0.250000000  0.250000000  0.647529520
     0.500000000  0.000000000  0.647529520
     0.250000000  0.500000000  0.352744737
     0.500000000  0.750000000  0.352744737
     0.250000000  0.750000000  0.450914912
     0.500000000  0.500000000  0.450914912
     0.250000000  0.500000000  0.549824939
     0.500000000  0.750000000  0.549824939
     0.250000000  0.750000000  0.647529520
     0.500000000  0.500000000  0.647529520
     0.750000000  0.000000000  0.352744737
     0.000000000  0.250000000  0.352744737
     0.750000000  0.250000000  0.450914912
     0.000000000  0.000000000  0.450914912
     0.750000000  0.000000000  0.549824939
     0.000000000  0.250000000  0.549824939
     0.750000000  0.250000000  0.647529520
     0.000000000  0.000000000  0.647529520
     0.750000000  0.500000000  0.352744737
     0.000000000  0.750000000  0.352744737
     0.750000000  0.750000000  0.450914912
     0.000000000  0.500000000  0.450914912
     0.750000000  0.500000000  0.549824939
     0.000000000  0.750000000  0.549824939
     0.750000000  0.750000000  0.647529520
     0.000000000  0.500000000  0.647529520
     0.250000000  0.000000000  0.450914912
     0.500000000  0.250000000  0.450914912
     0.250000000  0.250000000  0.352744737
     0.500000000  0.000000000  0.352744737
     0.250000000  0.000000000  0.649744381
     0.500000000  0.250000000  0.649744381
     0.250000000  0.250000000  0.549531649
     0.500000000  0.000000000  0.549531649
     0.250000000  0.500000000  0.450914912
     0.500000000  0.750000000  0.450914912
     0.250000000  0.750000000  0.352744737
     0.500000000  0.500000000  0.352744737
     0.250000000  0.500000000  0.649744381
     0.500000000  0.750000000  0.649744381
     0.250000000  0.750000000  0.549531649
     0.500000000  0.500000000  0.549531649
     0.750000000  0.000000000  0.450914912
     0.000000000  0.250000000  0.450914912
     0.750000000  0.250000000  0.352744737
     0.000000000  0.000000000  0.352744737
     0.750000000  0.000000000  0.649744381
     0.000000000  0.250000000  0.649744381
     0.750000000  0.250000000  0.549531649
     0.000000000  0.000000000  0.549531649
     0.750000000  0.500000000  0.450914912
     0.000000000  0.750000000  0.450914912
     0.750000000  0.750000000  0.352744737
     0.000000000  0.500000000  0.352744737
     0.750000000  0.500000000  0.649744381
     0.000000000  0.750000000  0.649744381
     0.750000000  0.750000000  0.549531649
     0.000000000  0.500000000  0.549531649

  ion indices of the primitive-cell ions
   primitive index   ion index
                 1           1
[...]
   6.26183387  4.17455591  7.50000000
   0.00000000  6.26183387  7.50000000
   6.26183387  6.26183387  9.58727796
   0.00000000  4.17455591  9.58727796
   6.26183387  4.17455591 11.69028651
   0.00000000  6.26183387 11.69028651
   6.26183387  6.26183387 13.76766509
   0.00000000  4.17455591 13.76766509
   2.08727796  0.00000000  9.58727796
   4.17455591  2.08727796  9.58727796
   2.08727796  2.08727796  7.50000000
   4.17455591  0.00000000  7.50000000
   2.08727796  0.00000000 13.81475709
   4.17455591  2.08727796 13.81475709
   2.08727796  2.08727796 11.68405063
   4.17455591  0.00000000 11.68405063
   2.08727796  4.17455591  9.58727796
   4.17455591  6.26183387  9.58727796
   2.08727796  6.26183387  7.50000000
   4.17455591  4.17455591  7.50000000
   2.08727796  4.17455591 13.81475709
   4.17455591  6.26183387 13.81475709
   2.08727796  6.26183387 11.68405063
   4.17455591  4.17455591 11.68405063
   6.26183387  0.00000000  9.58727796
   0.00000000  2.08727796  9.58727796
   6.26183387  2.08727796  7.50000000
   0.00000000  0.00000000  7.50000000
   6.26183387  0.00000000 13.81475709
   0.00000000  2.08727796 13.81475709
   6.26183387  2.08727796 11.68405063
   0.00000000  0.00000000 11.68405063
   6.26183387  4.17455591  9.58727796
   0.00000000  6.26183387  9.58727796
   6.26183387  6.26183387  7.50000000
   0.00000000  4.17455591  7.50000000
   6.26183387  4.17455591 13.81475709
   0.00000000  6.26183387 13.81475709
   6.26183387  6.26183387 11.68405063
   0.00000000  4.17455591 11.68405063

--------------------------------------- Iteration      FINAL  ---------------------------------------

--------------------OUTCAR has been truncated-------------------------

[...]

--------------------OUTCAR has been truncated-------------------------

  FORCE on cell =-STRESS in cart. coord.  units (eV):
  Direction    XX          YY          ZZ          XY          YZ          ZX
  Alpha Z   950.51164   950.51164   950.51164
  Ewald  163191.05222163191.05187************   390.38416    -0.01682    -0.01682
  Hartree173670.69726173670.69707************   172.95892    -0.00883    -0.00883
  E(xc)   -1914.39536 -1914.39536 -1917.81370     0.53575    -0.00002    -0.00002
  Local  ************************346520.70899  -525.39169     0.02457     0.02457
  n-local  -755.20316  -755.20316  -777.09278    -2.42534    -0.00003    -0.00003
  augment   838.24374   838.24374   828.61080    -1.40492     0.00000     0.00000
  Kinetic  7651.76584  7651.76586  7718.60454   -32.30492     0.00148     0.00148
  Fock    -2533.82353 -2533.82353 -2527.94964    -1.93663    -0.00001    -0.00001
  vdW        -9.29018    -9.29019    -6.54971    -0.00434     0.00000     0.00000
  Total     -29.95539   -29.95540    -2.36138     0.41100     0.00034     0.00034
  in kB     -32.38204   -32.38205    -2.55268     0.44429     0.00037     0.00037

 VOLUME and BASIS-vectors are now :
  energy-cutoff  :      600.00
  volume of cell :     1482.11
      direct lattice vectors                 reciprocal lattice vectors
     8.349111827  0.000000000  0.000000000     0.119773219  0.000000000  0.000000000
     0.000000000  8.349111827  0.000000000     0.000000000  0.119773219  0.000000000
     0.000000000  0.000000000 21.261833870     0.000000000  0.000000000  0.047032632

  length of vectors
     8.349111827  8.349111827 21.261833870     0.119773219  0.119773219  0.047032632

 FORCES acting on ions:
    Electron-Ion                     Ewald-Force                    Non-Local-Force
   -.112E-01 -.112E-01 -.107E+04   0.146E-01 0.146E-01 0.107E+04   -.167E-03 -.167E-03 0.250E+00
   0.192E+03 0.192E+03 -.162E+04   -.239E+03 -.239E+03 0.162E+04   0.403E+02 0.403E+02 -.226E+01
   -.192E+03 -.192E+03 -.162E+04   0.239E+03 0.239E+03 0.162E+04   -.403E+02 -.403E+02 -.226E+01
   0.177E+00 -.177E+00 0.215E+04   -.176E+00 0.177E+00 -.214E+04   -.432E-03 0.433E-03 -.683E+01
   0.178E+00 0.201E+00 0.215E+04   -.177E+00 -.200E+00 -.214E+04   -.203E-03 -.288E-03 -.682E+01
   0.888E+00 0.888E+00 0.762E+03   -.911E+00 -.911E+00 -.762E+03   0.147E-01 0.147E-01 0.411E+00
   0.914E+00 -.838E+00 0.763E+03   -.931E+00 0.782E+00 -.763E+03   0.109E-01 0.338E-01 0.432E+00
   0.372E+01 -.372E+01 -.626E+03   -.372E+01 0.372E+01 0.626E+03   0.533E-02 -.531E-02 -.146E+00
   0.381E+01 0.659E+01 -.614E+03   -.382E+01 -.659E+01 0.614E+03   0.413E-02 -.787E-02 -.371E+00
   0.199E+02 0.199E+02 -.202E+04   -.199E+02 -.199E+02 0.202E+04   0.242E-01 0.242E-01 0.583E+01
   0.215E+02 -.256E+02 -.200E+04   -.215E+02 0.259E+02 0.200E+04   0.173E-01 -.281E+00 0.583E+01
   0.201E+00 0.178E+00 0.215E+04   -.200E+00 -.177E+00 -.214E+04   -.288E-03 -.203E-03 -.682E+01
   0.205E+00 -.205E+00 0.215E+04   -.204E+00 0.203E+00 -.214E+04   -.116E-02 0.117E-02 -.684E+01
   0.836E+00 -.913E+00 0.763E+03   -.781E+00 0.930E+00 -.763E+03   -.337E-01 -.109E-01 0.432E+00
   0.854E+00 0.854E+00 0.765E+03   -.825E+00 -.825E+00 -.765E+03   -.195E-01 -.195E-01 0.506E+00
   0.659E+01 0.381E+01 -.614E+03   -.659E+01 -.382E+01 0.614E+03   -.786E-02 0.413E-02 -.371E+00
   0.675E+01 -.674E+01 -.609E+03   -.673E+01 0.673E+01 0.609E+03   -.181E-01 0.180E-01 0.321E-01
   0.256E+02 -.215E+02 -.200E+04   -.259E+02 0.215E+02 0.200E+04   0.281E+00 -.171E-01 0.583E+01
   0.355E+02 0.355E+02 -.190E+04   -.361E+02 -.361E+02 0.189E+04   0.477E+00 0.477E+00 0.551E+01
   -.178E+00 -.201E+00 0.215E+04   0.177E+00 0.201E+00 -.214E+04   0.204E-03 0.290E-03 -.682E+01
   -.177E+00 0.177E+00 0.215E+04   0.177E+00 -.176E+00 -.214E+04   0.433E-03 -.432E-03 -.683E+01
   -.913E+00 0.836E+00 0.763E+03   0.930E+00 -.781E+00 -.763E+03   -.109E-01 -.337E-01 0.432E+00
   -.889E+00 -.889E+00 0.762E+03   0.912E+00 0.912E+00 -.762E+03   -.147E-01 -.147E-01 0.411E+00
   -.381E+01 -.660E+01 -.614E+03   0.382E+01 0.659E+01 0.614E+03   -.414E-02 0.785E-02 -.371E+00
   -.372E+01 0.372E+01 -.626E+03   0.372E+01 -.372E+01 0.626E+03   -.531E-02 0.533E-02 -.146E+00
   -.215E+02 0.256E+02 -.200E+04   0.215E+02 -.259E+02 0.200E+04   -.171E-01 0.281E+00 0.583E+01
   -.199E+02 -.199E+02 -.202E+04   0.199E+02 0.199E+02 0.202E+04   -.241E-01 -.241E-01 0.583E+01
   -.205E+00 0.205E+00 0.215E+04   0.203E+00 -.204E+00 -.214E+04   0.117E-02 -.116E-02 -.684E+01
   -.201E+00 -.178E+00 0.215E+04   0.201E+00 0.177E+00 -.214E+04   0.290E-03 0.204E-03 -.682E+01
   -.853E+00 -.853E+00 0.765E+03   0.824E+00 0.824E+00 -.765E+03   0.195E-01 0.195E-01 0.506E+00
   -.838E+00 0.914E+00 0.763E+03   0.782E+00 -.931E+00 -.763E+03   0.338E-01 0.109E-01 0.432E+00
   -.674E+01 0.675E+01 -.609E+03   0.673E+01 -.673E+01 0.609E+03   0.180E-01 -.181E-01 0.321E-01
   -.660E+01 -.381E+01 -.614E+03   0.659E+01 0.382E+01 0.614E+03   0.784E-02 -.414E-02 -.371E+00
   -.355E+02 -.355E+02 -.190E+04   0.360E+02 0.360E+02 0.189E+04   -.478E+00 -.478E+00 0.551E+01
   -.256E+02 0.215E+02 -.200E+04   0.259E+02 -.215E+02 0.200E+04   -.281E+00 0.173E-01 0.583E+01
   0.560E+00 -.560E+00 0.571E+03   -.564E+00 0.564E+00 -.570E+03   0.524E-02 -.528E-02 -.111E+00
   0.557E+00 0.705E+00 0.572E+03   -.553E+00 -.700E+00 -.572E+03   -.366E-02 -.485E-02 -.771E-01
   0.147E+00 0.147E+00 0.162E+04   -.149E+00 -.149E+00 -.162E+04   0.237E-02 0.237E-02 0.300E+01
   0.147E+00 -.137E+00 0.162E+04   -.149E+00 0.133E+00 -.162E+04   0.260E-02 0.429E-02 0.300E+01
   0.996E+01 -.996E+01 -.154E+04   -.992E+01 0.992E+01 0.155E+04   -.373E-01 0.374E-01 -.452E+01
   0.112E+02 0.299E+02 -.151E+04   -.112E+02 -.299E+02 0.152E+04   -.317E-01 0.541E-01 -.460E+01
   0.376E+01 0.376E+01 -.462E+03   -.375E+01 -.375E+01 0.462E+03   -.942E-02 -.942E-02 0.243E+00
   0.386E+01 -.355E+01 -.457E+03   -.385E+01 0.356E+01 0.456E+03   -.923E-02 -.872E-02 0.311E+00
   0.705E+00 0.557E+00 0.572E+03   -.700E+00 -.553E+00 -.572E+03   -.485E-02 -.366E-02 -.771E-01
   0.771E+00 -.770E+00 0.573E+03   -.796E+00 0.795E+00 -.573E+03   0.301E-01 -.302E-01 -.150E+00
   0.137E+00 -.147E+00 0.162E+04   -.133E+00 0.149E+00 -.162E+04   -.429E-02 -.260E-02 0.300E+01
   0.140E+00 0.140E+00 0.162E+04   -.136E+00 -.136E+00 -.162E+04   -.556E-02 -.556E-02 0.300E+01
   0.299E+02 0.112E+02 -.151E+04   -.299E+02 -.112E+02 0.152E+04   0.541E-01 -.317E-01 -.460E+01
   0.372E+02 -.372E+02 -.147E+04   -.371E+02 0.371E+02 0.147E+04   -.786E-01 0.786E-01 -.411E+01
   0.355E+01 -.386E+01 -.457E+03   -.356E+01 0.385E+01 0.456E+03   0.869E-02 0.916E-02 0.311E+00
   0.374E+01 0.374E+01 -.448E+03   -.377E+01 -.377E+01 0.447E+03   0.228E-01 0.228E-01 0.250E+00
   -.556E+00 -.706E+00 0.572E+03   0.553E+00 0.701E+00 -.572E+03   0.360E-02 0.479E-02 -.771E-01
   -.560E+00 0.560E+00 0.571E+03   0.564E+00 -.564E+00 -.570E+03   -.528E-02 0.524E-02 -.111E+00
   -.147E+00 0.137E+00 0.162E+04   0.149E+00 -.133E+00 -.162E+04   -.260E-02 -.429E-02 0.300E+01
   -.147E+00 -.147E+00 0.162E+04   0.149E+00 0.149E+00 -.162E+04   -.237E-02 -.237E-02 0.300E+01
   -.112E+02 -.299E+02 -.151E+04   0.112E+02 0.299E+02 0.152E+04   0.319E-01 -.540E-01 -.460E+01
   -.996E+01 0.996E+01 -.154E+04   0.992E+01 -.992E+01 0.155E+04   0.374E-01 -.373E-01 -.452E+01
   -.386E+01 0.355E+01 -.457E+03   0.385E+01 -.356E+01 0.456E+03   0.916E-02 0.869E-02 0.311E+00
   -.377E+01 -.377E+01 -.462E+03   0.375E+01 0.375E+01 0.462E+03   0.939E-02 0.939E-02 0.242E+00
   -.770E+00 0.771E+00 0.573E+03   0.795E+00 -.796E+00 -.573E+03   -.302E-01 0.301E-01 -.150E+00
   -.706E+00 -.556E+00 0.572E+03   0.701E+00 0.553E+00 -.572E+03   0.479E-02 0.360E-02 -.771E-01
   -.140E+00 -.140E+00 0.162E+04   0.135E+00 0.135E+00 -.162E+04   0.556E-02 0.556E-02 0.300E+01
   -.137E+00 0.147E+00 0.162E+04   0.133E+00 -.149E+00 -.162E+04   0.429E-02 0.260E-02 0.300E+01
   -.372E+02 0.372E+02 -.147E+04   0.371E+02 -.371E+02 0.147E+04   0.786E-01 -.786E-01 -.411E+01
   -.299E+02 -.112E+02 -.151E+04   0.299E+02 0.112E+02 0.152E+04   -.540E-01 0.319E-01 -.460E+01
   -.374E+01 -.374E+01 -.448E+03   0.377E+01 0.377E+01 0.447E+03   -.227E-01 -.227E-01 0.249E+00
   -.355E+01 0.386E+01 -.457E+03   0.356E+01 -.385E+01 0.456E+03   -.872E-02 -.923E-02 0.311E+00
   -.292E-02 -.292E-02 0.251E+02   0.156E-12 -.995E-13 0.432E-11   0.230E-02 0.230E-02 -.213E+02

 POSITION                                       TOTAL-FORCE (eV/Angst)
      5.21823      5.21823     16.33203         0.003242      0.003242      0.001732
      4.39536      4.39536     16.35468        -0.002072     -0.002072      0.007494
      6.04114      6.04114     16.35463        -0.001467     -0.001467      0.007289
      2.08728      0.00000      7.50000         0.000180     -0.000166      0.428482
      4.17456      2.08728      7.50000         0.000120      0.000117      0.424901
      2.08728      2.08728      9.58728        -0.005963     -0.005962      0.058387
      4.17456      0.00000      9.58728        -0.003911     -0.016029      0.063642
      2.08780     -0.00053     11.68691        -0.000116      0.000123      0.001027
      4.17390      2.08602     11.68694         0.000325     -0.000086      0.000398
      2.08524      2.08524     13.76317        -0.001379     -0.001379     -0.000684
      4.17587      0.00235     13.76104        -0.002314     -0.000229      0.000375
      2.08728      4.17456      7.50000         0.000117      0.000120      0.424901
      4.17456      6.26183      7.50000         0.000419     -0.000404      0.430012
      2.08728      6.26183      9.58728         0.016029      0.003912      0.063551
      4.17456      4.17456      9.58728         0.006496      0.006497      0.069045
      2.08602      4.17390     11.68694        -0.000083      0.000327      0.000399
      4.17708      6.25931     11.69235        -0.000876      0.000909      0.002075
      2.08490      6.26050     13.76103         0.000230      0.002345      0.000379
      4.15628      4.15628     13.77166         0.001413      0.001414      0.002098
      6.26183      0.00000      7.50000        -0.000105     -0.000102      0.424902
      0.00000      2.08728      7.50000        -0.000166      0.000180      0.428482
      6.26183      2.08728      9.58728         0.003912      0.016029      0.063550
      0.00000      0.00000      9.58728         0.005970      0.005969      0.058474
      6.26248      0.00125     11.68693        -0.000312      0.000080      0.000412
     -0.00053      2.08780     11.68691         0.000124     -0.000115      0.001028
      6.26050      2.08490     13.76103         0.002346      0.000229      0.000381
      0.00202      0.00202     13.76317         0.001370      0.001370     -0.000690
      6.26183      4.17456      7.50000        -0.000404      0.000419      0.430012
      0.00000      6.26183      7.50000        -0.000102     -0.000105      0.424902
      6.26183      6.26183      9.58728        -0.006494     -0.006494      0.068923
      0.00000      4.17456      9.58728        -0.016029     -0.003911      0.063642
      6.25931      4.17708     11.69235         0.000910     -0.000875      0.002075
      0.00125      6.26248     11.68693         0.000077     -0.000313      0.000413
      6.28011      6.28011     13.77165        -0.001389     -0.001390      0.002211
      0.00235      4.17587     13.76104        -0.000229     -0.002313      0.000373
      2.08728      0.00000      9.58728         0.001925     -0.001920      0.060033
      4.17456      2.08728      9.58728        -0.000773     -0.000749      0.073796
      2.08728      2.08728      7.50000         0.000816      0.000816     -0.564039
      4.17456      0.00000      7.50000         0.000900      0.001491     -0.564333
      2.08824     -0.00098     13.81154         0.000128     -0.000099     -0.001798
      4.17262      2.08063     13.80037         0.000610      0.000648      0.000653
      2.08618      2.08618     11.67999         0.001121      0.001119     -0.000625
      4.17464     -0.00332     11.68118         0.000557      0.000255     -0.000446
      2.08728      4.17456      9.58728        -0.000749     -0.000773      0.073796
      4.17456      6.26183      9.58728         0.009780     -0.009788      0.074931
      2.08728      6.26183      7.50000        -0.001476     -0.000885     -0.564322
      4.17456      4.17456      7.50000        -0.001957     -0.001957     -0.564761
      2.08063      4.17262     13.80037         0.000648      0.000610      0.000653
      4.17655      6.25983     13.82845        -0.000820      0.000765      0.000612
      2.09058      6.26174     11.68118        -0.000228     -0.000553     -0.000460
      4.17468      4.17468     11.68580         0.000333      0.000333     -0.000902
      6.26183      0.00000      9.58728         0.000768      0.000748      0.073775
      0.00000      2.08728      9.58728        -0.001920      0.001924      0.060033
      6.26183      2.08728      7.50000        -0.000885     -0.001476     -0.564322
      0.00000      0.00000      7.50000        -0.000801     -0.000801     -0.564051
      6.26376      0.00662     13.80037        -0.000620     -0.000582      0.000588
     -0.00098      2.08824     13.81154        -0.000101      0.000127     -0.001798
      6.26174      2.09058     11.68118        -0.000552     -0.000229     -0.000460
      0.00109      0.00109     11.67999        -0.001104     -0.001103     -0.000635
      6.26183      4.17456      9.58728        -0.009789      0.009780      0.074931
      0.00000      6.26183      9.58728         0.000748      0.000768      0.073775
      6.26183      6.26183      7.50000         0.001972      0.001972     -0.564750
      0.00000      4.17456      7.50000         0.001491      0.000900     -0.564333
      6.25983      4.17655     13.82845         0.000765     -0.000820      0.000612
      0.00662      6.26376     13.80037        -0.000582     -0.000621      0.000587
      6.26170      6.26170     11.68580        -0.000328     -0.000329     -0.000888
     -0.00332      4.17464     11.68118         0.000254      0.000557     -0.000445
    total drift:                               -0.000517     -0.000519      0.004507

  FREE ENERGIE OF THE ION-ELECTRON SYSTEM (eV)
  free  energy   TOTEN  =      -502.62017722 eV

  energy  without entropy=     -502.62017722  energy(sigma->0) =     -502.62017722

 d Force = 0.5343734E-05[ 0.309E-05, 0.760E-05]  d Energy = 0.5272476E-05 0.713E-07
 d Force = 0.8584338E+00[ 0.858E+00, 0.858E+00]  d Ewald  = 0.8584338E+00 0.816E-09

 Conjugate gradient step on ions:
 trial-energy change:   -0.000005  1 .order   -0.000005   -0.000008   -0.000003
  (g-gl).g = 0.665E-04      g.g   = 0.802E-04  gl.gl    = 0.508E-04
 g(Force)  = 0.802E-04   g(Stress)= 0.000E+00 ortho     = 0.118E-04
 gamma     =   1.31015
 trial     =   0.07940
 opt step  =   0.13385  (harmonic =   0.13385) maximal distance =0.00031173
 next E    =  -502.620178   (d E  =  -0.00001)

 reached required accuracy - stopping structural energy minimisation