 vasp.6.3.0 20Jan22 (build Mar 11 2022 13:48:16) complex

 executed on             LinuxIFC date 2024.01.22  06:24:11

 INCAR:
   SYSTEM = TiO2
   ISMEAR = 0
   SIGMA = 0.05
   EDIFF = 1E-5
   ALGO = ALL
   ISTART = 0
   IBRION = -1
   NSW = 0
   ISYM = 0
   ISIF = 2
   EDIFFG = -0.01
   DIPOL = 0.5 0.5 0.5
   IDIPOL = 3
   LDIPOL = .TRUE.
   GGA = MK
   LUSE_VDW = .TRUE.
   PARAM1 = 0.1234
   PARAM2 = 0.711357
   ZAB_VDW = -1.8867
   AGGAC = 0.0
   ENCUT = 600
   PREC = Accurate
   LASPH = .TRUE.
   LREAL = .FALSE.
   ISPIN = 1
   NELM = 200
   NELMIN = 8
   NCORE = 2
   KPAR = 1
   LWAVE = .FALSE.
   LCHARG = .FALSE.

 POTCAR:    PAW_PBE C 08Apr2002
 POTCAR:    PAW_PBE H 15Jun2001
 POTCAR:    PAW_PBE Ti_pv 07Sep2000
 POTCAR:    PAW_PBE O 08Apr2002
|           W    W    AA    RRRRR   N    N  II  N    N   GGGG   !!!           |
|           W    W   A  A   R    R  NN   N  II  NN   N  G    G  !!!           |
|           W    W  A    A  R    R  N N  N  II  N N  N  G       !!!           |
|           W WW W  AAAAAA  RRRRR   N  N N  II  N  N N  G  GGG   !            |
|           WW  WW  A    A  R   R   N   NN  II  N   NN  G    G                |
|           W    W  A    A  R    R  N    N  II  N    N   GGGG   !!!           |
|     For optimal performance we recommend to set                             |
|       NCORE = 2 up to number-of-cores-per-socket                            |
|     This setting can greatly improve the performance of VASP for DFT.       |
|     The default, NCORE=1 might be grossly inefficient on modern             |
|     multi-core architectures or massively parallel machines. Do your        |
|     Unfortunately you need to use the default for GW and RPA                |
|     calculations (for HF NCORE is supported but not extensively tested      |
|     yet).                                                                   |

   TITEL  = PAW_PBE C 08Apr2002
   POMASS =   12.011; ZVAL   =    4.000    mass and valenz
   ENMAX  =  400.000; ENMIN  =  300.000 eV

   TITEL  = PAW_PBE H 15Jun2001
   POMASS =    1.000; ZVAL   =    1.000    mass and valenz
   ENMAX  =  250.000; ENMIN  =  200.000 eV

   TITEL  = PAW_PBE Ti_pv 07Sep2000
   POMASS =   47.880; ZVAL   =   10.000    mass and valenz
   ENMAX  =  222.335; ENMIN  =  166.751 eV

   TITEL  = PAW_PBE O 08Apr2002
   POMASS =   16.000; ZVAL   =    6.000    mass and valenz
   ENMAX  =  400.000; ENMIN  =  300.000 eV

  PAW_PBE C 08Apr2002                   :
  PAW_PBE H 15Jun2001                   :
  PAW_PBE Ti_pv 07Sep2000               :
  PAW_PBE O 08Apr2002                   :

 POSCAR:  C  H Ti  O
  positions in direct lattice
 exchange correlation table for  LEXCH =       43
   RHO(1)=    0.500       N(1)  =     2000
   RHO(2)=  100.500       N(2)  =     4000

 ion  position               nearest neighbor table
   1  0.500  0.500  0.813-   3 1.10   2 1.10   5 1.10   4 1.10
   2  0.496  0.574  0.833-   1 1.10
   3  0.504  0.426  0.833-   1 1.10
   4  0.570  0.504  0.793-   1 1.10
   5  0.430  0.496  0.793-   1 1.10
   6  0.750  0.625  0.286-  86 1.98  87 1.98 146 1.98 147 1.98 168 2.00  89 2.00  16 3.03  36 3.03

   7  0.000  0.750  0.286-  88 1.98  89 1.98 108 1.98 109 1.98  90 2.00  37 3.03  17 3.03
   8  0.000  0.625  0.393-  91 1.98 151 1.98 150 1.98  90 1.98  92 2.00  93 2.00  18 3.03  38 3.03

[...]

  85  0.500  0.500  0.711- 239 1.88 244 1.97 185 1.97 184 1.97 245 1.97  55 3.03  75 3.03
  86  0.750  0.750  0.244-   6 1.98  16 1.98
  87  0.750  0.750  0.328-   6 1.98  16 1.98   9 2.00
  88  0.098  0.625  0.286-   7 1.98  37 1.98  46 2.00
  89  0.902  0.625  0.286-   7 1.98  37 1.98   6 2.00
  90  0.000  0.750  0.351-   8 1.98  18 1.98   7 2.00
  91  0.000  0.750  0.435-   8 1.98  18 1.98  11 2.00
  92  0.848  0.625  0.393-   9 1.98  39 1.98   8 2.00
  93  0.152  0.625  0.393-  49 1.98  79 1.98   8 2.00
  94  0.750  0.750  0.458-  10 1.98  20 1.98   9 2.00
  95  0.750  0.750  0.542-  10 1.98  20 1.98  13 2.09
  96  0.098  0.625  0.500-  11 1.98  41 1.98  50 2.00
  97  0.902  0.625  0.500-  11 1.98  41 1.98  10 2.00
  98  1.000  0.750  0.565-  22 1.94  12 1.94  11 2.01
  99  0.000  0.750  0.649-  15 1.86  22 2.03  12 2.03
 100  0.850  0.625  0.607-  12 1.98  13 2.00  43 2.00
 101  0.150  0.625  0.607-  12 1.98  53 2.00  83 2.00
 102  0.750  0.750  0.672-  13 1.92  14 2.11  24 2.11
 103  0.750  0.750  0.756-  14 1.87  24 1.87
 104  0.093  0.625  0.719-  45 1.97  15 1.97  54 2.06
 105  0.907  0.625  0.719-  45 1.97  15 1.97  14 2.06
 106  0.750  0.000  0.244-  16 1.98  26 1.98
 107  0.750  0.000  0.328-  16 1.98  26 1.98  19 2.00
 108  0.098  0.875  0.286-   7 1.98  17 1.98  56 2.00
 109  0.902  0.875  0.286-   7 1.98  17 1.98  16 2.00
 110  0.000  0.000  0.351-  18 1.98  28 1.98  17 2.00
 111  0.000  0.000  0.435-  18 1.98  28 1.98  21 2.00
 112  0.848  0.875  0.393-   9 1.98  19 1.98  18 2.00
 113  0.152  0.875  0.393-  49 1.98  59 1.98  18 2.00
 114  0.750  0.000  0.458-  20 1.98  30 1.98  19 2.00
 115  0.750  0.000  0.542-  20 1.98  30 1.98  23 2.09
 116  0.098  0.875  0.500-  11 1.98  21 1.98  60 2.00
 117  0.902  0.875  0.500-  11 1.98  21 1.98  20 2.00
 118  0.000  1.000  0.565-  32 1.94  22 1.94  21 2.01
 119  1.000  1.000  0.649-  25 1.86  22 2.03  32 2.03
 120  0.850  0.875  0.607-  22 1.98  23 2.00  13 2.00
 121  0.150  0.875  0.607-  22 1.98  63 2.00  53 2.00
 122  0.750  0.000  0.672-  23 1.92  24 2.11  34 2.11
 123  0.750  0.000  0.756-  24 1.87  34 1.87
 124  0.093  0.875  0.719-  15 1.97  25 1.97  64 2.06
 125  0.907  0.875  0.719-  15 1.97  25 1.97  24 2.06
 126  0.750  0.250  0.244-  26 1.98  36 1.98
 127  0.750  0.250  0.328-  26 1.98  36 1.98  29 2.00
 128  0.098  0.125  0.286-  17 1.98  27 1.98  66 2.00
 129  0.902  0.125  0.286-  17 1.98  27 1.98  26 2.00
 130  0.000  0.250  0.351-  28 1.98  38 1.98  27 2.00
 131  0.000  0.250  0.435-  28 1.98  38 1.98  31 2.00
 132  0.848  0.125  0.393-  19 1.98  29 1.98  28 2.00
 133  0.152  0.125  0.393-  59 1.98  69 1.98  28 2.00
 134  0.750  0.250  0.458-  30 1.98  40 1.98  29 2.00
 135  0.750  0.250  0.542-  30 1.98  40 1.98  33 2.09
 136  0.098  0.125  0.500-  21 1.98  31 1.98  70 2.00
 137  0.902  0.125  0.500-  21 1.98  31 1.98  30 2.00
 138  0.000  0.250  0.565-  32 1.94  42 1.94  31 2.01
 139  1.000  0.250  0.649-  35 1.86  32 2.03  42 2.03
 140  0.850  0.125  0.607-  32 1.98  23 2.00  33 2.00
 141  0.150  0.125  0.607-  32 1.98  63 2.00  73 2.00
 142  0.750  0.250  0.672-  33 1.92  44 2.11  34 2.11
 143  0.750  0.250  0.756-  44 1.87  34 1.88
 144  0.093  0.125  0.719-  35 1.97  25 1.97  74 2.06
[...]
 231  0.500  0.500  0.435-  48 1.98  78 1.98  81 2.00
 232  0.348  0.375  0.393-  69 1.98  79 1.98  78 2.00
 233  0.652  0.375  0.393-  29 1.98  39 1.98  78 2.00
 234  0.250  0.500  0.458-  50 1.98  80 1.98  79 2.00
 235  0.250  0.500  0.542-  50 1.98  80 1.98  83 2.09
 236  0.598  0.375  0.500-  71 1.98  81 1.98  40 2.00
 237  0.402  0.375  0.500-  71 1.98  81 1.98  80 2.00
 238  0.500  0.500  0.566-  82 1.94  52 1.94  81 2.01
 239  0.500  0.500  0.650-  85 1.88  82 2.03  52 2.03
 240  0.349  0.375  0.607-  82 1.98  83 2.00  73 2.00
 241  0.651  0.375  0.607-  82 1.98  43 2.00  33 2.00
 242  0.249  0.500  0.672-  83 1.92  84 2.11  54 2.11
 243  0.251  0.500  0.756-  84 1.88  54 1.88
 244  0.594  0.374  0.719-  75 1.96  85 1.97  44 2.06
 245  0.406  0.374  0.719-  75 1.96  85 1.97  84 2.06

IMPORTANT INFORMATION: All symmetrisations will be switched off!
NOSYMM: (Re-)initialisation of all symmetry stuff for point group C_1.

                                     Primitive cell

  volume of cell :    4886.2662

  direct lattice vectors                    reciprocal lattice vectors
    13.143747607  0.000000000  0.000000000     0.076081802  0.000000000  0.000000000
     0.000000000 12.104894358  0.000000000     0.000000000  0.082611212  0.000000000
     0.000000000  0.000000000 30.711208800     0.000000000  0.000000000  0.032561401

  length of vectors
    13.143747607 12.104894358 30.711208800     0.076081802  0.082611212  0.032561401

  position of ions in fractional coordinates (direct lattice)
     0.500057363  0.499992086  0.812754322
     0.496276112  0.574107901  0.833162082
     0.503850459  0.425902761  0.833163525
     0.570423801  0.504063873  0.793396521
     0.429683276  0.495927863  0.793404084
     0.750000000  0.625000000  0.286010579
     0.000000000  0.750000000  0.286010579
     0.000000000  0.625000000  0.393005289
     0.750000000  0.750000000  0.393005289
     0.750000000  0.625000000  0.500000000
     0.000000000  0.750000000  0.500000000
     0.000000203  0.625006881  0.605092756
     0.750024826  0.750019313  0.609826640
     0.750062765  0.625140804  0.719895291
     0.000013886  0.750030955  0.709704636
     0.750000000  0.875000000  0.286010579
     0.000000000  0.000000000  0.286010579
     0.000000000  0.875000000  0.393005289
     0.750000000  0.000000000  0.393005289
     0.750000000  0.875000000  0.500000000
     0.000000000  0.000000000  0.500000000
     0.999999679  0.875007921  0.605103344
     0.749991269  0.000000917  0.609876534
     0.749944943  0.875038046  0.720104940
     0.999999935  0.999999984  0.709715428
     0.750000000  0.125000000  0.286010579
     0.000000000  0.250000000  0.286010579
     0.000000000  0.125000000  0.393005289
     0.750000000  0.250000000  0.393005289
     0.750000000  0.125000000  0.500000000
     0.000000000  0.250000000  0.500000000
     0.000000367  0.124992070  0.605103342
     0.750022572  0.249983758  0.609833537
     0.749937754  0.124971789  0.720105387
     0.999986559  0.249969019  0.709704638
     0.750000000  0.375000000  0.286010579
     0.000000000  0.500000000  0.286010579
     0.000000000  0.375000000  0.393005289
     0.750000000  0.500000000  0.393005289
     0.750000000  0.375000000  0.500000000
     0.000000000  0.500000000  0.500000000
     0.999999822  0.374993122  0.605092754
     0.750044354  0.499998605  0.609844871
     0.750030300  0.374886759  0.719924131
     0.000000361  0.500000003  0.709683421
     0.250000000  0.625000000  0.286010579
     0.500000000  0.750000000  0.286010579
     0.500000000  0.625000000  0.393005289
     0.250000000  0.750000000  0.393005289
     0.250000000  0.625000000  0.500000000
     0.500000000  0.750000000  0.500000000
     0.500000672  0.624624644  0.605473259
     0.249977520  0.750016138  0.609833652
     0.249970749  0.625112855  0.719924650
     0.500000192  0.750144126  0.709546080
     0.250000000  0.875000000  0.286010579
     0.500000000  0.000000000  0.286010579
     0.500000000  0.875000000  0.393005289
     0.250000000  0.000000000  0.393005289
     0.250000000  0.875000000  0.500000000
[...]
     0.500000000  0.500000000  0.434805357
     0.347668537  0.375000000  0.393005289
     0.652331463  0.375000000  0.393005289
     0.250000000  0.500000000  0.458199933
     0.250000000  0.500000000  0.541800067
     0.597668537  0.375000000  0.500000000
     0.402331463  0.375000000  0.500000000
     0.500000031  0.499999961  0.565528178
     0.499999851  0.500000021  0.649525851
     0.349492242  0.375002418  0.607405238
     0.650507342  0.375005190  0.607403826
     0.249454041  0.500011947  0.672244939
[...]
   3.28564143  9.07886611 18.72872863
   3.28555243  7.56692507 22.10975623
   6.57187632  9.08041540 21.79101782
   3.28593690 10.59178256  8.78373060
   6.57187380  0.00000000  8.78373060
   6.57187380 10.59178256 12.06966750
   3.28593690  0.00000000 12.06966750
   3.28593690 10.59178256 15.35560440
[...]
   6.57187380  6.05244718 13.35339810
   4.56966750  4.53933538 12.06966750
   8.57408011  4.53933538 12.06966750
   3.28593690  6.05244718 14.07187380
   3.28593690  6.05244718 16.63933500
   7.85560440  4.53933538 15.35560440
   5.28814321  4.53933538 15.35560440
   6.57187421  6.05244670 17.36805396
   6.57187184  6.05244743 19.94772403
   4.59363782  4.53936466 18.65414908
   8.55010432  4.53939821 18.65410573
   3.27876095  6.05259180 20.64545469
   3.29744310  6.05195416 23.21779755
   7.80227705  4.53038022 22.07299475
   5.34093279  4.53008384 22.07101475

--------------------------------------- Iteration      FINAL  ---------------------------------------

--------------------OUTCAR has been truncated-------------------------

[...]

--------------------OUTCAR has been truncated-------------------------

  FORCE on cell =-STRESS in cart. coord.  units (eV):
  Direction    XX          YY          ZZ          XY          YZ          ZX
  Alpha Z  4508.37230  4508.37230  4508.37230
  Ewald  939046.72431956324.19536************    -0.19782    -0.01141    -0.04505
  Hartree979790.14866989253.38705************    -0.14018    -0.00022    -0.04129
  E(xc)   -8602.69389 -8596.57659 -8599.60101    -0.00044    -0.00003     0.00001
  Local  ************************************     0.36553     0.00759     0.08808
  n-local -5509.57502 -5437.95835 -5552.14987     0.00170     0.00035     0.00016
  augment  5255.85895  5236.32842  5261.30756    -0.00209     0.00006    -0.00007
  Kinetic 28580.87750 28055.12165 28626.59615    -0.01370     0.00049    -0.00170
  Fock        0.00000     0.00000     0.00000     0.00000     0.00000     0.00000
  Total     -89.57857  -238.31430  -130.99552     0.01300    -0.00317     0.00013
  in kB     -29.37228   -78.14183   -42.95264     0.00426    -0.00104     0.00004

 VOLUME and BASIS-vectors are now :
  energy-cutoff  :      600.00
  volume of cell :     4886.27
      direct lattice vectors                 reciprocal lattice vectors
    13.143747607  0.000000000  0.000000000     0.076081802  0.000000000  0.000000000
     0.000000000 12.104894358  0.000000000     0.000000000  0.082611212  0.000000000
     0.000000000  0.000000000 30.711208800     0.000000000  0.000000000  0.032561401

  length of vectors
    13.143747607 12.104894358 30.711208800     0.076081802  0.082611212  0.032561401

 FORCES acting on ions:
    Electron-Ion                     Ewald-Force                    Non-Local-Force
   0.178E-01 -.413E-02 -.147E+04   -.156E-01 0.701E-02 0.147E+04   -.113E-02 0.371E-02 -.892E+00
   0.221E+01 -.435E+02 -.361E+03   -.247E+01 0.481E+02 0.364E+03   0.258E+00 -.459E+01 -.324E+01
   -.221E+01 0.435E+02 -.361E+03   0.247E+01 -.481E+02 0.364E+03   -.259E+00 0.460E+01 -.324E+01
   -.364E+02 -.235E+01 -.374E+03   0.412E+02 0.260E+01 0.371E+03   -.479E+01 -.250E+00 0.274E+01
   0.364E+02 0.235E+01 -.374E+03   -.412E+02 -.260E+01 0.371E+03   0.479E+01 0.250E+00 0.274E+01
   -.111E+00 -.395E-01 0.365E+04   0.111E+00 0.396E-01 -.365E+04   0.233E-04 -.202E-05 0.362E+00
   -.118E-03 -.536E-01 0.383E+04   0.115E-03 0.537E-01 -.382E+04   0.132E-05 -.507E-05 -.371E+01
   -.617E-03 -.542E-01 0.186E+04   0.633E-03 0.544E-01 -.186E+04   -.625E-05 -.514E-05 -.527E-01
   -.124E+00 -.576E-01 0.186E+04   0.124E+00 0.581E-01 -.186E+04   0.173E-03 -.161E-04 0.204E+00
   -.410E+00 -.233E+00 0.239E+01   0.404E+00 0.233E+00 -.186E+01   0.996E-03 0.247E-04 -.867E-01
   -.809E-02 -.421E+00 0.125E+02   0.823E-02 0.423E+00 -.132E+02   -.309E-04 -.589E-03 0.208E+00
   -.198E-01 -.143E+01 -.181E+04   0.197E-01 0.143E+01 0.181E+04   -.128E-04 -.111E-02 0.850E-01
   -.397E+01 -.342E+01 -.186E+04   0.397E+01 0.343E+01 0.186E+04   -.264E-02 -.360E-02 -.172E+00
   -.332E+02 -.136E+02 -.360E+04   0.332E+02 0.136E+02 0.360E+04   0.910E-02 0.442E-02 -.172E+00
   -.547E-01 -.512E+01 -.366E+04   0.544E-01 0.513E+01 0.366E+04   0.544E-03 -.169E-02 0.124E+01
   -.109E+00 -.395E-01 0.365E+04   0.108E+00 0.396E-01 -.365E+04   0.626E-04 -.239E-05 0.362E+00
   -.568E-04 0.792E-05 0.383E+04   0.553E-04 -.123E-05 -.382E+04   0.372E-06 0.897E-07 -.371E+01
   -.618E-03 -.549E-01 0.186E+04   0.638E-03 0.550E-01 -.186E+04   -.453E-05 -.117E-04 -.528E-01
   -.148E+00 -.736E-03 0.186E+04   0.147E+00 0.755E-03 -.186E+04   0.232E-03 0.134E-05 0.204E+00
   -.660E+00 -.273E+00 0.179E+01   0.657E+00 0.279E+00 -.126E+01   0.609E-03 -.455E-03 -.878E-01
   -.469E-03 0.141E-04 0.120E+02   0.477E-03 -.718E-05 -.128E+02   -.143E-05 0.249E-05 0.207E+00
   -.238E-01 -.139E+01 -.181E+04   0.237E-01 0.139E+01 0.181E+04   -.585E-04 -.154E-02 0.839E-01
   -.296E+01 -.155E-01 -.186E+04   0.296E+01 0.156E-01 0.186E+04   0.194E-02 -.808E-04 -.169E+00
   -.117E+02 -.965E+01 -.362E+04   0.117E+02 0.966E+01 0.362E+04   0.886E-02 -.116E-03 -.184E+00
   -.297E-02 0.211E-04 -.366E+04   0.298E-02 -.147E-04 0.366E+04   -.323E-05 -.588E-06 0.124E+01
   -.109E+00 0.394E-01 0.365E+04   0.108E+00 -.396E-01 -.365E+04   0.726E-04 -.161E-05 0.362E+00
   -.776E-05 0.536E-01 0.383E+04   0.185E-05 -.537E-01 -.382E+04   0.370E-05 0.119E-04 -.371E+01
   0.371E-03 0.549E-01 0.186E+04   -.384E-03 -.550E-01 -.186E+04   -.543E-06 0.113E-04 -.528E-01
   -.124E+00 0.576E-01 0.186E+04   0.124E+00 -.581E-01 -.186E+04   0.174E-03 0.183E-04 0.204E+00
   -.663E+00 0.262E+00 0.178E+01   0.659E+00 -.268E+00 -.124E+01   0.642E-03 0.390E-03 -.879E-01
   0.679E-02 0.421E+00 0.125E+02   -.691E-02 -.423E+00 -.132E+02   0.271E-04 0.589E-03 0.208E+00
   0.203E-01 0.139E+01 -.181E+04   -.203E-01 -.139E+01 0.181E+04   0.573E-04 0.154E-02 0.839E-01
   -.399E+01 0.343E+01 -.186E+04   0.400E+01 -.343E+01 0.186E+04   -.243E-02 0.303E-02 -.172E+00
   -.117E+02 0.958E+01 -.362E+04   0.117E+02 -.959E+01 0.362E+04   0.882E-02 0.838E-04 -.184E+00
   0.432E-01 0.512E+01 -.366E+04   -.429E-01 -.513E+01 0.366E+04   -.537E-03 0.169E-02 0.124E+01
   -.111E+00 0.395E-01 0.365E+04   0.111E+00 -.397E-01 -.365E+04   0.405E-04 0.261E-05 0.362E+00
   -.552E-04 -.203E-05 0.383E+04   0.614E-04 0.123E-05 -.382E+04   -.587E-05 0.890E-06 -.371E+01
   0.327E-03 0.542E-01 0.186E+04   -.335E-03 -.544E-01 -.186E+04   0.714E-05 0.265E-05 -.527E-01
   -.102E+00 0.696E-03 0.186E+04   0.101E+00 -.709E-03 -.186E+04   0.436E-04 -.248E-05 0.205E+00
   -.411E+00 0.244E+00 0.238E+01   0.406E+00 -.245E+00 -.185E+01   0.101E-02 0.529E-04 -.868E-01
   -.780E-03 -.904E-05 0.129E+02   0.793E-03 0.451E-05 -.137E+02   -.438E-05 0.124E-05 0.208E+00
   0.140E-01 0.143E+01 -.181E+04   -.140E-01 -.143E+01 0.181E+04   0.865E-05 0.111E-02 0.850E-01
   -.522E+01 0.175E-01 -.185E+04   0.522E+01 -.180E-01 0.185E+04   -.232E-02 0.402E-03 -.176E+00
   -.330E+02 0.136E+02 -.360E+04   0.330E+02 -.136E+02 0.360E+04   0.894E-02 -.484E-02 -.174E+00
   -.815E-02 -.437E-04 -.366E+04   0.815E-02 0.458E-04 0.365E+04   -.460E-05 -.194E-05 0.124E+01
   0.111E+00 -.395E-01 0.365E+04   -.111E+00 0.397E-01 -.365E+04   -.358E-04 -.163E-04 0.362E+00
   0.120E-03 -.578E-01 0.383E+04   -.113E-03 0.580E-01 -.382E+04   0.746E-05 -.284E-04 -.371E+01
   0.576E-03 -.143E-01 0.186E+04   -.594E-03 0.185E-01 -.186E+04   0.366E-05 -.821E-03 -.528E-01
   0.124E+00 -.576E-01 0.186E+04   -.124E+00 0.581E-01 -.186E+04   -.176E-03 -.169E-04 0.204E+00
   0.411E+00 -.244E+00 0.238E+01   -.406E+00 0.244E+00 -.185E+01   -.101E-02 -.511E-04 -.868E-01
   0.639E-02 -.160E+00 0.134E+02   -.653E-02 0.142E+00 -.141E+02   0.243E-04 0.111E-01 0.198E+00
   0.161E-01 -.281E+01 -.181E+04   -.160E-01 0.280E+01 0.181E+04   -.468E-04 -.215E-01 0.975E-01
   0.399E+01 -.343E+01 -.186E+04   -.400E+01 0.343E+01 0.186E+04   0.243E-02 -.303E-02 -.172E+00
   0.330E+02 -.136E+02 -.360E+04   -.330E+02 0.136E+02 0.360E+04   -.890E-02 0.484E-02 -.174E+00
   0.136E+00 -.338E+02 -.363E+04   -.134E+00 0.338E+02 0.363E+04   -.133E-02 -.145E-01 0.129E+01
   0.109E+00 -.394E-01 0.365E+04   -.108E+00 0.395E-01 -.365E+04   -.745E-04 -.130E-04 0.362E+00
   0.487E-04 0.513E-06 0.383E+04   -.553E-04 -.141E-05 -.382E+04   -.307E-05 -.366E-05 -.371E+01
   0.562E-03 -.160E-01 0.186E+04   -.588E-03 0.181E-01 -.186E+04   0.715E-05 -.597E-03 -.531E-01
   0.148E+00 0.744E-03 0.186E+04   -.147E+00 -.759E-03 -.186E+04   -.235E-03 0.291E-05 0.204E+00
   0.663E+00 -.261E+00 0.178E+01   -.660E+00 0.267E+00 -.124E+01   -.643E-03 -.392E-03 -.879E-01
[...]
   -.498E+02 0.168E-01 0.112E+04   0.533E+02 -.172E-01 -.112E+04   -.318E+01 0.761E-03 0.157E+00
   0.498E+02 0.173E-01 0.112E+04   -.533E+02 -.178E-01 -.112E+04   0.318E+01 0.788E-03 0.157E+00
   0.121E+00 -.151E-02 0.486E+03   -.119E+00 0.165E-02 -.489E+03   -.300E-02 -.305E-03 0.388E+01
   0.505E+00 -.615E-02 -.494E+03   -.497E+00 0.621E-02 0.500E+03   -.798E-02 -.171E-03 -.587E+01
   -.513E+02 -.237E-01 0.652E+01   0.554E+02 0.217E-01 -.669E+01   -.450E+01 0.107E-01 0.222E+00
   0.513E+02 -.271E-01 0.652E+01   -.554E+02 0.252E-01 -.669E+01   0.450E+01 0.105E-01 0.222E+00
   0.103E-02 -.166E-03 -.609E+03   -.103E-02 0.174E-03 0.604E+03   -.732E-05 -.241E-05 0.552E+01
   0.662E-02 -.669E-04 -.154E+04   -.682E-02 0.363E-04 0.154E+04   0.203E-03 0.407E-04 0.159E+01
   -.264E+02 0.176E+01 -.109E+04   0.292E+02 -.178E+01 0.109E+04   -.275E+01 0.255E-01 0.538E+00
   0.264E+02 0.177E+01 -.109E+04   -.292E+02 -.180E+01 0.109E+04   0.275E+01 0.261E-01 0.540E+00
   0.113E+02 -.113E+00 -.173E+04   -.114E+02 0.119E+00 0.173E+04   0.622E-01 -.603E-02 -.162E+01
   0.387E+02 -.614E-01 -.261E+04   -.388E+02 0.633E-01 0.262E+04   0.764E-01 -.127E-02 -.200E+02
   -.417E+02 0.216E+02 -.222E+04   0.473E+02 -.216E+02 0.222E+04   -.573E+01 -.156E-01 -.299E+01
   0.417E+02 0.216E+02 -.222E+04   -.473E+02 -.216E+02 0.222E+04   0.573E+01 -.189E-01 -.294E+01
   0.133E-02 -.542E-02 0.902E+02   -.753E-12 -.183E-11 -.205E-10   -.132E-02 0.530E-02 -.902E+02

 POSITION                                       TOTAL-FORCE (eV/Angst)
      6.57263      6.05235     24.96067         0.001093      0.006553     -0.049830
      6.52293      6.94952     25.58741         0.000343      0.046040      0.042866
      6.62248      5.15551     25.58746        -0.000202     -0.051964      0.046624
      7.49751      6.10164     24.36617         0.018671     -0.000608     -0.068444
      5.64765      6.00315     24.36640        -0.020160      0.000044     -0.069280
      9.85781      7.56556      8.78373        -0.000106      0.000117     -3.330294
      0.00000      9.07867      8.78373        -0.000001      0.000063      2.995361
      0.00000      7.56556     12.06967         0.000010      0.000185      0.529742
      9.85781      9.07867     12.06967        -0.000580      0.000469     -0.733791
      9.85781      7.56556     15.35560        -0.004579     -0.000553      0.441974
      0.00000      9.07867     15.35560         0.000109      0.001647     -0.573153
      0.00000      7.56564     18.58313        -0.000042      0.001918     -0.361470
      9.85814      9.07890     18.72851        -0.001008      0.001741      0.446275
      9.85864      7.56726     22.10885         0.005326      0.009835      0.718897
      0.00018      9.07905     21.79589         0.000134      0.007512     -0.743410
      9.85781     10.59178      8.78373        -0.000178      0.000155     -3.330209
      0.00000      0.00000      8.78373        -0.000001      0.000007      2.995322
      0.00000     10.59178     12.06967         0.000016      0.000155      0.529949
      9.85781      0.00000     12.06967        -0.000812      0.000020     -0.733435
      9.85781     10.59178     15.35560        -0.002739      0.006470      0.445820
      0.00000      0.00000     15.35560         0.000007      0.000010     -0.571884
     13.14374     10.59188     18.58346        -0.000124      0.002407     -0.360369
      9.85770      0.00001     18.73005        -0.002555      0.000093      0.446543
      9.85709     10.59224     22.11529        -0.003799      0.004315      0.719433
     13.14375     12.10489     21.79622         0.000006      0.000006     -0.744164
      9.85781      1.51311      8.78373        -0.000165     -0.000144     -3.330235
      0.00000      3.02622      8.78373        -0.000003     -0.000057      2.995346
      0.00000      1.51311     12.06967        -0.000013     -0.000152      0.529950
      9.85781      3.02622     12.06967        -0.000569     -0.000474     -0.733689
      9.85781      1.51311     15.35560        -0.002746     -0.005631      0.446398
      0.00000      3.02622     15.35560        -0.000088     -0.001653     -0.573148
      0.00000      1.51302     18.58346         0.000129     -0.002390     -0.360376
      9.85811      3.02603     18.72873        -0.001098     -0.001640      0.446521
      9.85699      1.51277     22.11531        -0.003949     -0.004186      0.719712
     13.14357      3.02585     21.79589        -0.000125     -0.007519     -0.743367
      9.85781      4.53934      8.78373        -0.000052     -0.000150     -3.330298
      0.00000      6.05245      8.78373         0.000000      0.000001      2.995356
      0.00000      4.53934     12.06967        -0.000000     -0.000190      0.529748
      9.85781      6.05245     12.06967        -0.000378     -0.000016     -0.733992
      9.85781      4.53934     15.35560        -0.004583     -0.000286      0.442569
      0.00000      6.05245     15.35560         0.000008     -0.000003     -0.574045
     13.14375      4.53925     18.58313         0.000026     -0.001924     -0.361470
      9.85839      6.05243     18.72907        -0.000956     -0.000121      0.447580
      9.85821      4.53796     22.10974         0.005127     -0.009302      0.719000
      0.00000      6.05245     21.79524        -0.000006      0.000001     -0.741392
      3.28594      7.56556      8.78373         0.000090      0.000109     -3.330256
      6.57187      9.07867      8.78373         0.000015      0.000201      2.995982
      6.57187      7.56556     12.06967        -0.000015      0.003352      0.530784
      3.28594      9.07867     12.06967         0.000577      0.000477     -0.733674
      3.28594      7.56556     15.35560         0.004587      0.000277      0.442578
      6.57187      9.07867     15.35560        -0.000112     -0.007031     -0.538799
      6.57188      7.56102     18.59482         0.000007     -0.027789     -0.350113
      3.28564      9.07887     18.72873         0.001106      0.001647      0.446515
      3.28555      7.56693     22.10976        -0.005136      0.009237      0.719000
      6.57188      9.08042     21.79102         0.000635     -0.005908     -0.752751
      3.28594     10.59178      8.78373         0.000165      0.000122     -3.330242
      6.57187      0.00000      8.78373        -0.000010     -0.000004      2.996154
      6.57187     10.59178     12.06967        -0.000018      0.001489      0.532786
      3.28594      0.00000     12.06967         0.000818     -0.000011     -0.733445
      3.28594     10.59178     15.35560         0.002746      0.005624      0.446405
[...]
      6.57187      6.05245     13.35340         0.000000      0.000005     -0.275664
      4.56967      4.53934     12.06967         0.306143      0.000276      0.048515
      8.57408      4.53934     12.06967        -0.306150      0.000291      0.048510
      3.28594      6.05245     14.07187        -0.000876     -0.000166      0.072975
      3.28594      6.05245     16.63933        -0.000122     -0.000112     -0.140425
      7.85560      4.53934     15.35560        -0.439503      0.008686      0.054007
      5.28814      4.53934     15.35560         0.439330      0.008638      0.054037
      6.57187      6.05245     17.36805        -0.000005      0.000006      0.349042
      6.57187      6.05245     19.94772         0.000000      0.000011      0.509841
      4.59364      4.53936     18.65415        -0.026564      0.000357     -0.004838
      8.55010      4.53940     18.65411         0.026726      0.000479     -0.005016
      3.27876      6.05259     20.64545        -0.000624      0.000041     -0.432356
      3.29744      6.05195     23.21780         0.003512      0.000605     -0.883089
      7.80228      4.53038     22.07299        -0.114960      0.001851     -0.037333
      5.34093      4.53008     22.07101         0.113952     -0.000142     -0.038575
    total drift:                                0.000011     -0.000122     -0.030322

  FREE ENERGIE OF THE ION-ELECTRON SYSTEM (eV)
  free  energy   TOTEN  =     -1759.27101157 eV

  energy  without entropy=    -1759.27101157  energy(sigma->0) =    -1759.27101157