 vasp.6.3.0 20Jan22 (build Apr  1 2022 16:44:48) complex
 executed on        HPECrayEX_GCC date 2023.04.05  16:14:22

 INCAR:
   SYSTEM = MgO-rocksalt
   ISMEAR = 0
   SIGMA = 0.05
   EDIFF = 1E-7
   ALGO = ALL
   ISTART = 0
   IBRION = 2
   NSW = 1000
   ISYM = 2
   ISIF = 3
   EDIFFG = -0.005
   METAGGA = R2SCAN
   LUSE_VDW = .TRUE.
   BPARAM = 11.95
   CPARAM = 0.0093
   LASPH = .TRUE.
   ENCUT = 600
   PREC = Accurate
   LASPH = .TRUE.
   LREAL = .FALSE.
   ISPIN = 1
   NELM = 200
   NELMIN = 8
   NCORE = 8
   KPAR = 1
   LWAVE = .FALSE.
   LCHARG = .FALSE.

 POTCAR:    PAW_PBE Ti_pv 07Sep2000
 POTCAR:    PAW_PBE O 08Apr2002
|               ----> ADVICE to this user running VASP <----                  |
|     You have switched on vdW-DFT.                                           |
|     This routine was written and supplied by Jiri Klimes. We recommend      |
|     that you carefully read and cite the following publications:            |
|       J. Klimes, D.R. Bowler, A. Michelides                                 |
|          J. Phys.: Cond Matt. 22 022201 (2010)                              |
|       J. Klimes, D.R. Bowler, A. Michelides                                 |
|          Phys. Rev. B. 83, 195131 (2011)                                    |
|     and references therein.                                                 |

   TITEL  = PAW_PBE Ti_pv 07Sep2000
   POMASS =   47.880; ZVAL   =   10.000    mass and valenz
   ENMAX  =  222.335; ENMIN  =  166.751 eV

   TITEL  = PAW_PBE O 08Apr2002
   POMASS =   16.000; ZVAL   =    6.000    mass and valenz
   ENMAX  =  400.000; ENMIN  =  300.000 eV

  PAW_PBE Ti_pv 07Sep2000               :
  PAW_PBE O 08Apr2002                   :

 POSCAR: Ti4 O8
  positions in direct lattice
  velocities in cartesian coordinates

 METAGGA = R2SCA    LMAXTAU =  6    LMIXTAU =  F

 ion  position               nearest neighbor table
   1  0.500  0.500  0.500-   5 1.93   7 1.93   7 1.93   5 1.93   6 1.99  12 1.99   2 3.04   2 3.04
                             4 3.04   4 3.04
   2  0.500  0.000  0.750-   6 1.93   8 1.93   6 1.93   8 1.93   7 1.99   9 1.99   1 3.04   1 3.04
                             3 3.04   3 3.04
   3  0.000  0.000  0.000-   9 1.93  11 1.93  11 1.93   9 1.93  10 1.99   8 1.99   4 3.04   2 3.04
                             2 3.04   4 3.04
   4  0.000  0.500  0.250-  10 1.93  12 1.93  10 1.93  12 1.93  11 1.99   5 1.99   3 3.04   1 3.04
                             1 3.04   3 3.04
   5  0.000  0.500  0.458-   1 1.93   1 1.93   4 1.99
   6  0.500  0.500  0.708-   2 1.93   2 1.93   1 1.99
   7  0.500  0.000  0.542-   1 1.93   1 1.93   2 1.99
   8  0.000  0.000  0.792-   2 1.93   2 1.93   3 1.99
   9  0.500  0.000  0.958-   3 1.93   3 1.93   2 1.99
  10  0.000  0.000  0.208-   4 1.93   4 1.93   3 1.99
  11  0.000  0.500  0.042-   3 1.93   3 1.93   4 1.99
  12  0.500  0.500  0.292-   4 1.93   4 1.93   1 1.99

  LATTYP: Found a simple tetragonal cell.
 ALAT       =     3.7855266332
 C/A-ratio  =     2.5176709129

  Lattice vectors:

 A1 = (   3.7855266332,  -0.0000000000,   0.0000000000)
 A2 = (   0.0000000000,   3.7855266332,   0.0000000000)
 A3 = (   0.0000000000,   0.0000000000,   9.5307102946)

Analysis of symmetry for initial positions (statically):
 Subroutine PRICEL returns following result:

  LATTYP: Found a body centered tetragonal cell.
 ALAT       =     3.7855266332
 C/A-ratio  =     2.5176709129

[...]

   2 primitive cells build up your supercell.

 Routine SETGRP: Setting up the symmetry group for a
 simple tetragonal supercell.

 Subroutine GETGRP returns: Found 16 space group operations
 (whereof  8 operations were pure point group operations)
 out of a pool of 16 trial point group operations.

The static configuration has the point symmetry D_2d.
 The point group associated with its full space group is D_4h.

Analysis of symmetry for dynamics (positions and initial velocities):
 Subroutine PRICEL returns following result:

  LATTYP: Found a body centered tetragonal cell.
 ALAT       =     3.7855266332
 C/A-ratio  =     2.5176709129

  Lattice vectors:

 A1 = (  -1.8927633166,   1.8927633166,   4.7653551473)
 A2 = (   1.8927633166,  -1.8927633166,   4.7653551473)
 A3 = (   1.8927633166,   1.8927633166,  -4.7653551473)

   2 primitive cells build up your supercell.

 Routine SETGRP: Setting up the symmetry group for a
 simple tetragonal supercell.

 Subroutine GETGRP returns: Found 16 space group operations
 (whereof  8 operations were pure point group operations)
 out of a pool of 16 trial point group operations.

The dynamic configuration has the point symmetry D_2d.
 The point group associated with its full space group is D_4h.

 Subroutine INISYM returns: Found 16 space group operations
 (whereof  8 operations are pure point group operations),
 and found     2 'primitive' translations

                                     Primitive cell

  volume of cell :      68.2885

  direct lattice vectors                    reciprocal lattice vectors
    -1.892763317  1.892763317  4.765355147     0.000000000  0.264164038  0.104923974
     1.892763317 -1.892763317  4.765355147     0.264164038 -0.000000000  0.104923974
     1.892763317  1.892763317 -4.765355147     0.264164038  0.264164038  0.000000000

  length of vectors
     5.465685284  5.465685284  5.465685284     0.284238771  0.284238771  0.373584365

  position of ions in fractional coordinates (direct lattice)
     0.000000000  0.000000000  0.000000000
     0.750000000  0.250000000  0.500000000
     0.958283036  0.458283036  0.500000000
     0.208283036  0.208283036  0.000000000
     0.541716964  0.041716964  0.500000000
     0.791716964  0.791716964  0.000000000

  ion indices of the primitive-cell ions
   primitive index   ion index
                 1           1
                 2           2
                 3           5
                 4           6
                 5           7
                 6          12

 KPOINTS: pymatgen v2020.8.13 with grid density =

Automatic generation of k-mesh.
 Grid dimensions read from file:
 generate k-points for:    6    6    2

 Generating k-lattice:

  Cartesian coordinates                     Fractional coordinates (reciprocal lattice)
     0.044027340 -0.000000000  0.000000000     0.166666667 -0.000000000  0.000000000
     0.000000000  0.044027340 -0.000000000     0.000000000  0.166666667  0.000000000
    -0.000000000 -0.000000000  0.052461987    -0.000000000 -0.000000000  0.500000000

  Length of vectors
     0.044027340  0.044027340  0.052461987

  Shift w.r.t. Gamma in fractional coordinates (k-lattice)
     0.000000000  0.000000000  0.000000000

 Subroutine IBZKPT returns following result:

 Found     20 irreducible k-points:

 Following reciprocal coordinates:
            Coordinates               Weight
  0.000000  0.000000  0.000000      1.000000
  0.166667  0.000000  0.000000      4.000000
  0.333333  0.000000  0.000000      4.000000
  0.500000  0.000000  0.000000      2.000000
  0.166667  0.166667  0.000000      4.000000
  0.333333  0.166667  0.000000      8.000000
  0.500000  0.166667  0.000000      4.000000
  0.333333  0.333333  0.000000      4.000000
  0.500000  0.333333  0.000000      4.000000
  0.500000  0.500000  0.000000      1.000000
  0.000000  0.000000  0.500000      1.000000
  0.166667  0.000000  0.500000      4.000000
  0.333333  0.000000  0.500000      4.000000
  0.500000  0.000000  0.500000      2.000000
  0.166667  0.166667  0.500000      4.000000
  0.333333  0.166667  0.500000      8.000000
  0.500000  0.166667  0.500000      4.000000
  0.333333  0.333333  0.500000      4.000000
  0.500000  0.333333  0.500000      4.000000
  0.500000  0.500000  0.500000      1.000000

 Following cartesian coordinates:
            Coordinates               Weight
  0.000000  0.000000  0.000000      1.000000
  0.044027  0.000000  0.000000      4.000000
  0.088055  0.000000  0.000000      4.000000
  0.132082  0.000000  0.000000      2.000000
  0.044027  0.044027  0.000000      4.000000
  0.088055  0.044027  0.000000      8.000000
  0.132082  0.044027  0.000000      4.000000
  0.088055  0.088055  0.000000      4.000000
  0.132082  0.088055  0.000000      4.000000
  0.132082  0.132082  0.000000      1.000000
  0.000000  0.000000  0.052462      1.000000
  0.044027  0.000000  0.052462      4.000000
  0.088055  0.000000  0.052462      4.000000
  0.132082  0.000000  0.052462      2.000000
  0.044027  0.044027  0.052462      4.000000
  0.088055  0.044027  0.052462      8.000000
  0.132082  0.044027  0.052462      4.000000
  0.088055  0.088055  0.052462      4.000000
  0.132082  0.088055  0.052462      4.000000
  0.132082  0.132082  0.052462      1.000000

 SYSTEM =  MgO-rocksalt
 POSCAR =  Ti4 O8

  energy-cutoff  :      600.00
  volume of cell :      136.58
      direct lattice vectors                 reciprocal lattice vectors
     3.785526633 -0.000000000  0.000000000     0.264164038 -0.000000000  0.000000000
     0.000000000  3.785526633  0.000000000     0.000000000  0.264164038 -0.000000000
     0.000000000  0.000000000  9.530710295    -0.000000000 -0.000000000  0.104923974

[...]

 k-points in units of 2pi/SCALE and weight: pymatgen v2020.8.13 with grid density =
   0.00000000  0.00000000  0.00000000       0.014
   0.04402734  0.00000000  0.00000000       0.056
   0.08805468  0.00000000  0.00000000       0.056
   0.13208202  0.00000000  0.00000000       0.028
   0.04402734  0.04402734  0.00000000       0.056
   0.08805468  0.04402734  0.00000000       0.111
   0.13208202  0.04402734  0.00000000       0.056
   0.08805468  0.08805468  0.00000000       0.056
   0.13208202  0.08805468  0.00000000       0.056
   0.13208202  0.13208202  0.00000000       0.014
   0.00000000  0.00000000  0.05246199       0.014
   0.04402734  0.00000000  0.05246199       0.056
   0.08805468  0.00000000  0.05246199       0.056
   0.13208202  0.00000000  0.05246199       0.028
   0.04402734  0.04402734  0.05246199       0.056
   0.08805468  0.04402734  0.05246199       0.111
   0.13208202  0.04402734  0.05246199       0.056
   0.08805468  0.08805468  0.05246199       0.056
   0.13208202  0.08805468  0.05246199       0.056
   0.13208202  0.13208202  0.05246199       0.014

 k-points in reciprocal lattice and weights: pymatgen v2020.8.13 with grid density =
   0.00000000  0.00000000  0.00000000       0.014
   0.16666667  0.00000000  0.00000000       0.056
   0.33333333  0.00000000  0.00000000       0.056
   0.50000000  0.00000000  0.00000000       0.028
   0.16666667  0.16666667  0.00000000       0.056
   0.33333333  0.16666667  0.00000000       0.111
   0.50000000  0.16666667  0.00000000       0.056
   0.33333333  0.33333333  0.00000000       0.056
   0.50000000  0.33333333  0.00000000       0.056
   0.50000000  0.50000000  0.00000000       0.014
   0.00000000  0.00000000  0.50000000       0.014
   0.16666667  0.00000000  0.50000000       0.056
   0.33333333  0.00000000  0.50000000       0.056
   0.50000000  0.00000000  0.50000000       0.028
   0.16666667  0.16666667  0.50000000       0.056
   0.33333333  0.16666667  0.50000000       0.111
   0.50000000  0.16666667  0.50000000       0.056
   0.33333333  0.33333333  0.50000000       0.056
   0.50000000  0.33333333  0.50000000       0.056
   0.50000000  0.50000000  0.50000000       0.014

 position of ions in fractional coordinates (direct lattice)
   0.50000000  0.50000000  0.50000000
   0.50000000  0.00000000  0.75000000
   0.00000000  0.00000000  0.00000000
   0.00000000  0.50000000  0.25000000
   0.00000000  0.50000000  0.45828304
   0.50000000  0.50000000  0.70828304
   0.50000000  0.00000000  0.54171696
   0.00000000  0.00000000  0.79171696
   0.50000000  0.00000000  0.95828304
   0.00000000  0.00000000  0.20828304
   0.00000000  0.50000000  0.04171696
   0.50000000  0.50000000  0.29171696

 position of ions in cartesian coordinates  (Angst):
   1.89276332  1.89276332  4.76535515
   1.89276332  0.00000000  7.14803272
   0.00000000  0.00000000  0.00000000
   0.00000000  1.89276332  2.38267757
   0.00000000  1.89276332  4.36776285
   1.89276332  1.89276332  6.75044042
   1.89276332  0.00000000  5.16294744
   0.00000000  0.00000000  7.54562502
   1.89276332  0.00000000  9.13311800
   0.00000000  0.00000000  1.98508528
   0.00000000  1.89276332  0.39759230
   1.89276332  1.89276332  2.78026987

--------------------------------------- Iteration      FINAL  ---------------------------------------

--------------------OUTCAR has been truncated-------------------------

[...]

--------------------OUTCAR has been truncated-------------------------

  FORCE on cell =-STRESS in cart. coord.  units (eV):
  Direction    XX          YY          ZZ          XY          YZ          ZX
  Alpha Z   400.43560   400.43560   400.43560
  Ewald   -2003.64409 -2003.64409 -1412.32839    -0.00000     0.00000     0.00000
  Hartree   567.33278   567.33278   930.84217    -0.00000    -0.00000    -0.00000
  E(xc)    -457.35934  -456.85853  -457.11593    -0.03812    -0.00000    -0.00000
  Local      43.96243    43.96243  -903.40975    -0.00000    -0.00000    -0.00000
  n-local  -259.72041  -254.07150  -259.23366    -0.01155     0.00000     0.00000
  augment   275.90090   275.90090   275.43301    -0.00000     0.00000    -0.00000
  Kinetic  1422.78806  1437.22354  1425.37920    -1.21581    -0.00000    -0.00000
  Fock        0.00000     0.00000     0.00000     0.00000     0.00000     0.00000
  Total      -0.01147    -0.01147     0.00225     0.00000    -0.00000    -0.00000
  in kB      -0.13455    -0.13455     0.02641     0.00000    -0.00000    -0.00000

 VOLUME and BASIS-vectors are now :
  energy-cutoff  :      600.00
  volume of cell :      136.58
      direct lattice vectors                 reciprocal lattice vectors
     3.785526633 -0.000000000  0.000000000     0.264164038 -0.000000000  0.000000000
     0.000000000  3.785526633  0.000000000     0.000000000  0.264164038 -0.000000000
     0.000000000  0.000000000  9.530710295    -0.000000000 -0.000000000  0.104923974

  length of vectors
     3.785526633  3.785526633  9.530710295     0.264164038  0.264164038  0.104923974

 FORCES acting on ions:
    Electron-Ion                     Ewald-Force                    Non-Local-Force
   0.153E-12 -.195E-11 0.151E-12   0.239E-14 0.104E-13 0.000E+00   0.993E-23 -.199E-22 0.282E-16
   0.160E-12 0.296E-12 -.215E-12   0.656E-15 0.724E-14 0.817E-13   -.331E-23 -.993E-23 -.469E-16
   0.489E-14 -.239E-12 0.185E-12   0.713E-14 0.983E-14 -.568E-13   0.165E-22 -.199E-22 -.315E-16
   0.112E-13 0.405E-12 -.257E-13   0.539E-14 0.755E-14 0.568E-13   -.993E-23 -.993E-23 0.520E-16
   -.956E-14 -.161E-12 -.871E+02   -.140E-14 0.104E-13 0.943E+02   0.273E-22 0.529E-22 -.721E+01
   0.116E-12 -.780E-13 -.871E+02   0.255E-14 -.462E-14 0.943E+02   -.106E-21 0.132E-22 -.721E+01
   0.116E-12 -.275E-12 0.871E+02   -.288E-14 -.101E-13 -.943E+02   0.496E-22 -.132E-22 0.721E+01
   -.187E-13 0.191E-12 0.871E+02   -.285E-14 -.127E-13 -.943E+02   -.132E-22 0.529E-22 0.721E+01
   0.881E-13 -.153E-12 -.871E+02   -.257E-14 0.100E-13 0.943E+02   0.794E-22 -.159E-21 -.721E+01
   -.217E-13 0.282E-12 -.871E+02   0.222E-14 -.528E-14 0.943E+02   -.104E-21 0.132E-22 -.721E+01
   -.152E-13 -.147E-12 0.871E+02   -.307E-14 -.101E-13 -.943E+02   0.496E-22 -.397E-22 0.721E+01
   0.929E-13 0.146E-11 0.871E+02   -.398E-14 -.125E-13 -.943E+02   -.397E-22 -.529E-22 0.721E+01
   0.683E-12 -.379E-12 0.480E-11   0.359E-14 0.563E-16 0.000E+00   -.438E-22 -.192E-21 -.178E-14

 POSITION                                       TOTAL-FORCE (eV/Angst)
      1.89276      1.89276      4.76536        -0.000000      0.000000      0.000000
      1.89276      0.00000      7.14803        -0.000000     -0.000000      0.000000
      0.00000      0.00000      0.00000         0.000000      0.000000     -0.000000
      0.00000      1.89276      2.38268        -0.000000      0.000000      0.000000
      0.00000      1.89276      4.36776         0.000000      0.000000      0.000674
      1.89276      1.89276      6.75044         0.000000      0.000000      0.000674
      1.89276      0.00000      5.16295        -0.000000     -0.000000     -0.000674
      0.00000      0.00000      7.54563        -0.000000     -0.000000     -0.000674
      1.89276      0.00000      9.13312        -0.000000     -0.000000      0.000674
      0.00000      0.00000      1.98509         0.000000     -0.000000      0.000674
      0.00000      1.89276      0.39759        -0.000000      0.000000     -0.000674
      1.89276      1.89276      2.78027        -0.000000      0.000000     -0.000674
    total drift:                                0.000000     -0.000000      0.000000

  FREE ENERGIE OF THE ION-ELECTRON SYSTEM (eV)
  free  energy   TOTEN  =      -136.88827517 eV

  energy  without entropy=     -136.88827517  energy(sigma->0) =     -136.88827517

 reached required accuracy - stopping structural energy minimisation