 vasp.6.3.0 20Jan22 (build Apr  1 2022 16:44:48) complex
 executed on        HPECrayEX_GCC date 2022.11.13  03:01:26

 INCAR:
   SYSTEM = MgO-rocksalt
   ISMEAR = 0
   SIGMA = 0.05
   EDIFF = 1E-6
   ALGO = ALL
   ISTART = 0
   IBRION = -1
   NSW = 0
   ISYM = 0
   DIPOL = 0.5 0.5 0.5
   IDIPOL = 3
   LDIPOL = .TRUE.
   LHFCALC = .TRUE.
   GGA = B5
   AEXX = 0.2
   AGGAX = 0.72
   AGGAC = 0.81
   ALDAC = 0.19
   IVDW = 1
   VDW_S6 = 1.05
   VDW_C6 = 1.75 0.14 0.63 0.70
   VDW_R0 = 1.452 1.001 1.243 1.342
   ENCUT = 600
   PREC = Accurate
   LASPH = .TRUE.
   LREAL = .FALSE.
   ISPIN = 1
   NELM = 200
   NELMIN = 8
   NCORE = 8
   KPAR = 1
   LWAVE = .FALSE.
   LCHARG = .FALSE.

 POTCAR:    PAW_PBE C 08Apr2002
 POTCAR:    PAW_PBE H 15Jun2001
 POTCAR:    PAW_PBE Mg_pv 13Apr2007
 POTCAR:    PAW_PBE O 08Apr2002
 POTCAR:    PAW_PBE C 08Apr2002
   VRHFIN =C: s2p2

   TITEL  = PAW_PBE C 08Apr2002
   POMASS =   12.011; ZVAL   =    4.000    mass and valenz
   ENMAX  =  400.000; ENMIN  =  300.000 eV

   TITEL  = PAW_PBE H 15Jun2001
   POMASS =    1.000; ZVAL   =    1.000    mass and valenz
   ENMAX  =  250.000; ENMIN  =  200.000 eV

   TITEL  = PAW_PBE Mg_pv 13Apr2007
   POMASS =   24.305; ZVAL   =    8.000    mass and valenz
   ENMAX  =  403.929; ENMIN  =  302.947 eV

   TITEL  = PAW_PBE O 08Apr2002
   POMASS =   16.000; ZVAL   =    6.000    mass and valenz
   ENMAX  =  400.000; ENMIN  =  300.000 eV

  PAW_PBE C 08Apr2002                   :
  PAW_PBE H 15Jun2001                   :
  PAW_PBE Mg_pv 13Apr2007               :
  PAW_PBE O 08Apr2002                   :

 POSCAR:  C  H Mg  O
  positions in direct lattice
 exchange correlation table for  LEXCH =       12
   RHO(1)=    0.500       N(1)  =     2000
   RHO(2)=  100.500       N(2)  =     4000

 ion  position               nearest neighbor table
   1  0.454  0.486  0.795-   5 1.10   3 1.10   4 1.10   2 1.53
   2  0.299  0.413  0.816-   8 1.10   7 1.10   6 1.10   1 1.53
   3  0.435  0.598  0.770-   1 1.10
   4  0.519  0.405  0.764-   1 1.10
   5  0.533  0.512  0.834-   1 1.10
   6  0.220  0.392  0.776-   2 1.10
   7  0.235  0.491  0.849-   2 1.10
   8  0.318  0.299  0.840-   2 1.10
   9  0.250  0.000  0.351-  41 2.12  43 2.12  44 2.12  51 2.12  60 2.12
  10  0.500  0.250  0.351-  42 2.12  43 2.12  44 2.12  52 2.12  59 2.12
  11  0.250  0.250  0.450-  43 2.12  42 2.12  41 2.12  49 2.12  58 2.12  47 2.12
  12  0.500  0.000  0.450-  44 2.12  42 2.12  41 2.12  50 2.12  57 2.12  48 2.13
  13  0.250  0.000  0.550-  48 2.11  47 2.12  55 2.12  64 2.12  41 2.13  45 2.15
  14  0.500  0.250  0.550-  63 2.11  56 2.12  48 2.12  47 2.12  42 2.13  46 2.15
  15  0.250  0.250  0.648-  47 2.10  62 2.11  46 2.12  45 2.12  53 2.12
  16  0.500  0.001  0.649-  46 2.12  48 2.12  54 2.12  45 2.12  61 2.12
  17  0.250  0.500  0.351-  49 2.12  43 2.12  51 2.12  52 2.12  68 2.12
  18  0.500  0.750  0.351-  50 2.12  44 2.12  51 2.12  52 2.12  67 2.12
  19  0.250  0.750  0.450-  51 2.12  49 2.12  50 2.12  41 2.12  66 2.12  55 2.12
  20  0.500  0.500  0.450-  52 2.12  49 2.12  50 2.12  42 2.12  65 2.12  56 2.13
  21  0.250  0.500  0.550-  56 2.11  55 2.12  47 2.12  72 2.12  49 2.13  53 2.15
  22  0.500  0.750  0.550-  71 2.11  48 2.12  56 2.12  55 2.12  50 2.13  54 2.15
  23  0.250  0.750  0.648-  55 2.10  70 2.11  54 2.12  53 2.12  45 2.12
  24  0.500  0.501  0.649-  54 2.12  56 2.12  46 2.12  53 2.12  69 2.12
  25  0.750  0.000  0.351-  57 2.12  44 2.12  59 2.12  60 2.12  67 2.12
  26  0.000  0.250  0.351-  58 2.12  43 2.12  59 2.12  60 2.12  68 2.12
  27  0.750  0.250  0.450-  59 2.12  57 2.12  58 2.12  42 2.12  65 2.12  63 2.13
  28  0.000  0.000  0.450-  60 2.12  57 2.12  58 2.12  41 2.12  66 2.12  64 2.12
  29  0.750  0.000  0.550-  48 2.11  63 2.12  71 2.12  64 2.12  57 2.13  61 2.15
  30  1.000  0.250  0.550-  63 2.11  72 2.12  64 2.12  47 2.12  58 2.13  62 2.15
  31  0.750  0.251  0.649-  69 2.12  63 2.12  61 2.12  62 2.12  46 2.12
  32  0.000  0.000  0.648-  64 2.10  45 2.11  61 2.12  70 2.12  62 2.12
  33  0.750  0.500  0.351-  65 2.12  59 2.12  52 2.12  67 2.12  68 2.12
  34  0.000  0.750  0.351-  66 2.12  60 2.12  51 2.12  67 2.12  68 2.12
  35  0.750  0.750  0.450-  67 2.12  57 2.12  65 2.12  66 2.12  50 2.12  71 2.13
  36  0.000  0.500  0.450-  68 2.12  58 2.12  65 2.12  66 2.12  49 2.12  72 2.12
  37  0.750  0.500  0.550-  56 2.11  71 2.12  63 2.12  72 2.12  65 2.13  69 2.15
  38  1.000  0.750  0.550-  71 2.11  72 2.12  64 2.12  55 2.12  66 2.13  70 2.15
  39  0.750  0.751  0.649-  61 2.12  71 2.12  69 2.12  70 2.12  54 2.12
  40  0.000  0.500  0.648-  72 2.10  53 2.11  69 2.12  62 2.12  70 2.12
  41  0.250  0.000  0.450-   9 2.12  11 2.12  12 2.12  19 2.12  28 2.12  13 2.13
  42  0.500  0.250  0.450-  10 2.12  11 2.12  12 2.12  20 2.12  27 2.12  14 2.13
  43  0.250  0.250  0.351-  11 2.12  10 2.12   9 2.12  17 2.12  26 2.12
  44  0.500  0.000  0.351-  12 2.12  10 2.12   9 2.12  18 2.12  25 2.12
  45  0.249  0.001  0.651-  32 2.11  15 2.12  23 2.12  16 2.12  13 2.15
  46  0.500  0.250  0.651-  16 2.12  15 2.12  24 2.12  31 2.12  14 2.15
  47  0.250  0.250  0.550-  15 2.10  13 2.12  21 2.12  14 2.12  11 2.12  30 2.12
  48  0.500  0.000  0.550-  29 2.11  13 2.11  16 2.12  22 2.12  14 2.12  12 2.13
  49  0.250  0.500  0.450-  17 2.12  11 2.12  19 2.12  20 2.12  36 2.12  21 2.13
  50  0.500  0.750  0.450-  18 2.12  12 2.12  19 2.12  20 2.12  35 2.12  22 2.13
  51  0.250  0.750  0.351-  19 2.12  17 2.12  18 2.12   9 2.12  34 2.12
  52  0.500  0.500  0.351-  20 2.12  17 2.12  18 2.12  10 2.12  33 2.12
  53  0.249  0.501  0.651-  40 2.11  23 2.12  15 2.12  24 2.12  21 2.15
  54  0.500  0.750  0.651-  24 2.12  23 2.12  16 2.12  39 2.12  22 2.15
  55  0.250  0.750  0.550-  23 2.10  21 2.12  13 2.12  22 2.12  19 2.12  38 2.12
  56  0.500  0.500  0.550-  37 2.11  21 2.11  24 2.12  14 2.12  22 2.12  20 2.13
  57  0.750  0.000  0.450-  25 2.12  12 2.12  27 2.12  28 2.12  35 2.12  29 2.13
  58  0.000  0.250  0.450-  26 2.12  11 2.12  27 2.12  28 2.12  36 2.12  30 2.13
  59  0.750  0.250  0.351-  27 2.12  25 2.12  26 2.12  10 2.12  33 2.12
  60  0.000  0.000  0.351-  28 2.12  25 2.12  26 2.12   9 2.12  34 2.12
  61  0.750  0.000  0.651-  39 2.12  32 2.12  31 2.12  16 2.12  29 2.15
  62  0.001  0.251  0.651-  15 2.11  40 2.12  32 2.12  31 2.12  30 2.15
  63  0.750  0.250  0.550-  14 2.11  30 2.11  31 2.12  29 2.12  37 2.12  27 2.13
  64  1.000  0.000  0.550-  32 2.10  38 2.12  30 2.12  29 2.12  28 2.12  13 2.12
  65  0.750  0.500  0.450-  33 2.12  27 2.12  20 2.12  35 2.12  36 2.12  37 2.13
  66  0.000  0.750  0.450-  34 2.12  28 2.12  19 2.12  35 2.12  36 2.12  38 2.13
  67  0.750  0.750  0.351-  35 2.12  25 2.12  33 2.12  34 2.12  18 2.12
  68  0.000  0.500  0.351-  36 2.12  26 2.12  33 2.12  34 2.12  17 2.12
  69  0.750  0.500  0.651-  31 2.12  40 2.12  39 2.12  24 2.12  37 2.15
  70  0.001  0.751  0.651-  23 2.11  32 2.12  40 2.12  39 2.12  38 2.15
  71  0.750  0.750  0.550-  22 2.11  38 2.11  39 2.12  37 2.12  29 2.12  35 2.13
  72  1.000  0.500  0.550-  40 2.10  30 2.12  38 2.12  37 2.12  36 2.12  21 2.12

IMPORTANT INFORMATION: All symmetrisations will be switched off!
NOSYMM: (Re-)initialisation of all symmetry stuff for point group C_1.

                                     Primitive cell

  volume of cell :    1530.6606

  direct lattice vectors                    reciprocal lattice vectors
     8.467142631  0.000000000  0.000000000     0.118103597  0.000000000  0.000000000
     0.000000000  8.467142631  0.000000000     0.000000000  0.118103597  0.000000000
     0.000000000  0.000000000 21.350356973     0.000000000  0.000000000  0.046837624

  length of vectors
     8.467142631  8.467142631 21.350356973     0.118103597  0.118103597  0.046837624

  position of ions in fractional coordinates (direct lattice)
     0.454366383  0.486444805  0.794812910
     0.298785143  0.412822977  0.816130818
     0.434649143  0.598444450  0.769736445
     0.518837644  0.404974914  0.763659825
     0.533096409  0.512369816  0.834469928
     0.220206081  0.392026240  0.775914974
     0.235056871  0.490714841  0.848712192
     0.318242626  0.299000456  0.839734881
     0.250000000  0.000000000  0.351282183
     0.500000000  0.250000000  0.351282183
     0.250000000  0.250000000  0.450427394
     0.500000000  0.000000000  0.450427394
     0.250195989  0.000308010  0.550051103
     0.500272872  0.250300984  0.550323828
     0.249770286  0.250475304  0.647954190
     0.499537478  0.000598045  0.649126830
     0.250000000  0.500000000  0.351282183
     0.500000000  0.750000000  0.351282183
     0.250000000  0.750000000  0.450427394
     0.500000000  0.500000000  0.450427394
     0.250193499  0.500310578  0.550065055
     0.500272650  0.750282626  0.550325024
     0.249770538  0.750493375  0.647956872
     0.499535170  0.500596582  0.649134699
     0.750000000  0.000000000  0.351282183
     0.000000000  0.250000000  0.351282183
     0.750000000  0.250000000  0.450427394
     0.000000000  0.000000000  0.450427394
     0.749652039  0.000291244  0.550314905
     0.999722126  0.250314530  0.550057191
     0.750317764  0.250587722  0.649129217
     0.000080038  0.000484824  0.647951289
     0.750000000  0.500000000  0.351282183
     0.000000000  0.750000000  0.351282183
     0.750000000  0.750000000  0.450427394
     0.000000000  0.500000000  0.450427394
     0.749651436  0.500292542  0.550330355
     0.999722625  0.750304691  0.550058517
     0.750318018  0.750608838  0.649131106
     0.000079642  0.500482773  0.647976771
     0.250000000  0.000000000  0.450427394
     0.500000000  0.250000000  0.450427394
     0.250000000  0.250000000  0.351282183
     0.500000000  0.000000000  0.351282183
     0.249307394  0.000563289  0.650517495
     0.499622483  0.250415987  0.650952012
     0.250055575  0.250306265  0.549687401
     0.499973336  0.000276014  0.549996271
     0.250000000  0.500000000  0.450427394
     0.500000000  0.750000000  0.450427394
     0.250000000  0.750000000  0.351282183
     0.500000000  0.500000000  0.351282183
     0.249324710  0.500561501  0.650532976
     0.499622684  0.750422844  0.650955327
     0.250056205  0.750306508  0.549689467
     0.499977433  0.500277285  0.550016107
     0.750000000  0.000000000  0.450427394
     0.000000000  0.250000000  0.450427394
     0.750000000  0.250000000  0.351282183
     0.000000000  0.000000000  0.351282183
     0.750246358  0.000422654  0.650949191
     0.000534344  0.250539981  0.650534290
     0.749951352  0.250280360  0.550004062
     0.999863737  0.000306218  0.549688291
     0.750000000  0.500000000  0.450427394
     0.000000000  0.750000000  0.450427394
     0.750000000  0.750000000  0.351282183
     0.000000000  0.500000000  0.351282183
     0.750228308  0.500420714  0.650968409
     0.000534262  0.750584491  0.650536022
     0.749951053  0.750275177  0.550005687
     0.999860149  0.500306847  0.549695907

  ion indices of the primitive-cell ions
   primitive index   ion index
                 1           1
                 2           2
                 3           3
                 4           4
                 5           5
                 6           6
                 7           7
                 8           8
[...]
   6.35035697  0.00000000  7.50000000
   0.00000000  2.11678566  7.50000000
   6.35035697  2.11678566  9.61678566
   0.00000000  0.00000000  9.61678566
   6.34741074  0.00246600 11.74941967
   8.46478983  2.11944883 11.74391738
   6.35304753  2.12176198 13.85914051
   0.00067769  0.00410507 13.83399133
   6.35035697  4.23357132  7.50000000
   0.00000000  6.35035697  7.50000000
   6.35035697  6.35035697  9.61678566
   0.00000000  4.23357132  9.61678566
   6.34740563  4.23604831 11.74974952
   8.46479405  6.35293684 11.74394570
   6.35304967  6.35551209 13.85918083
   0.00067434  4.23765902 13.83453536
   2.11678566  0.00000000  9.61678566
   4.23357132  2.11678566  9.61678566
   2.11678566  2.11678566  7.50000000
   4.23357132  0.00000000  7.50000000
   2.11092126  0.00476945 13.88878074
   4.23037482  2.12030788 13.89805783
   2.11725622  2.11937885 11.73602224
   4.23334555  0.00233705 11.74261671
   2.11678566  4.23357132  9.61678566
   4.23357132  6.35035697  9.61678566
   2.11678566  6.35035697  7.50000000
   4.23357132  4.23357132  7.50000000
   2.11106788  4.23832562 13.88911126
   4.23037653  6.35393725 13.89812859
   2.11726156  6.35295222 11.73606634
   4.23338024  4.23591913 11.74304023
   6.35035697  0.00000000  9.61678566
   0.00000000  2.11678566  9.61678566
   6.35035697  2.11678566  7.50000000
   0.00000000  0.00000000  7.50000000
   6.35244292  0.00357867 13.89799759
   0.00452436  2.12135775 13.88913932
   6.34994506  2.11915950 11.74278306
   8.46598887  0.00259280 11.73604125
   6.35035697  4.23357132  9.61678566
   0.00000000  6.35035697  9.61678566
   6.35035697  6.35035697  7.50000000
   0.00000000  4.23357132  7.50000000
   6.35229009  4.23713356 13.89840791
   0.00452367  6.35530594 13.88917630
   6.34994253  6.35268693 11.74281775
   8.46595849  4.23616943 11.73620384

--------------------------------------- Iteration      FINAL  ---------------------------------------

--------------------OUTCAR has been truncated-------------------------

[...]

--------------------OUTCAR has been truncated-------------------------

  DFT-D2 method for vdW energy calculation

  Parameters of vdW forcefield:
         C6(Jnm^6/mol)     R0(A)
   C        1.750          1.452
   H        0.140          1.001
   Mg       0.630          1.243
   O        0.700          1.342

  vdW correction parametrized for the method Çü      

  IVDW =   1
  VDW_RADIUS =    50.000 A
  VDW_S6 =     1.050
  VDW_SR =     1.000
  VDW_D =    20.000
  LVDW_EWALD = F

  Number of pair interactions contributing to vdW energy:  906064
  Edisp (eV):   -5.30511

 VOLUME and BASIS-vectors are now :
  energy-cutoff  :      600.00
  volume of cell :     1530.66
      direct lattice vectors                 reciprocal lattice vectors
     8.467142631  0.000000000  0.000000000     0.118103597  0.000000000  0.000000000
     0.000000000  8.467142631  0.000000000     0.000000000  0.118103597  0.000000000
     0.000000000  0.000000000 21.350356973     0.000000000  0.000000000  0.046837624

  length of vectors
     8.467142631  8.467142631 21.350356973     0.118103597  0.118103597  0.046837624

 FORCES acting on ions:
    Electron-Ion                     Ewald-Force                    Non-Local-Force
   -.633E+02 -.309E+02 -.905E+03   0.632E+02 0.309E+02 0.905E+03   0.339E+00 0.339E-01 -.168E+00
   0.640E+02 0.308E+02 -.859E+03   -.641E+02 -.308E+02 0.858E+03   -.612E-01 -.181E-01 0.112E+00
   0.141E+01 -.528E+02 -.228E+03   -.217E+01 0.575E+02 0.226E+03   0.799E+00 -.474E+01 0.261E+01
   -.357E+02 0.324E+02 -.228E+03   0.384E+02 -.357E+02 0.225E+03   -.272E+01 0.346E+01 0.318E+01
   -.418E+02 -.151E+02 -.231E+03   0.451E+02 0.162E+02 0.235E+03   -.335E+01 -.111E+01 -.418E+01
   0.421E+02 0.129E+02 -.210E+03   -.454E+02 -.138E+02 0.206E+03   0.333E+01 0.830E+00 0.425E+01
   0.354E+02 -.308E+02 -.213E+03   -.381E+02 0.339E+02 0.216E+03   0.271E+01 -.325E+01 -.345E+01
   -.948E+00 0.536E+02 -.213E+03   0.170E+01 -.584E+02 0.215E+03   -.777E+00 0.480E+01 -.250E+01
   0.193E-01 0.788E-01 0.207E+04   -.170E-01 -.782E-01 -.206E+04   -.152E-02 -.491E-03 -.637E+01
   -.292E+00 0.252E+00 0.207E+04   0.294E+00 -.251E+00 -.206E+04   -.158E-02 -.796E-03 -.638E+01
   0.951E-01 0.104E+01 0.722E+03   -.725E-01 -.102E+01 -.723E+03   -.142E-01 -.950E-02 0.387E+00
   -.112E+01 0.313E+00 0.719E+03   0.113E+01 -.301E+00 -.720E+03   -.102E-01 -.676E-02 0.466E+00
   0.150E+01 0.155E+01 -.616E+03   -.140E+01 -.156E+01 0.617E+03   -.831E-01 0.540E-02 -.223E+00
   -.396E+01 0.561E+01 -.613E+03   0.404E+01 -.562E+01 0.613E+03   -.730E-01 0.208E-02 -.239E+00
   0.153E+02 0.280E+02 -.192E+04   -.155E+02 -.281E+02 0.191E+04   0.124E+00 0.230E-01 0.543E+01
   -.859E+01 0.665E+01 -.196E+04   0.851E+01 -.664E+01 0.195E+04   0.764E-01 -.285E-01 0.552E+01
   0.419E-01 -.771E-01 0.207E+04   -.395E-01 0.778E-01 -.206E+04   -.162E-02 -.476E-03 -.638E+01
   -.285E+00 -.250E+00 0.207E+04   0.287E+00 0.250E+00 -.206E+04   -.161E-02 -.483E-04 -.638E+01
   0.745E-01 -.977E+00 0.722E+03   -.520E-01 0.988E+00 -.722E+03   -.141E-01 -.655E-02 0.385E+00
   -.124E+01 -.268E+00 0.721E+03   0.126E+01 0.280E+00 -.722E+03   -.106E-01 -.736E-02 0.471E+00
   0.335E+01 -.162E+01 -.606E+03   -.328E+01 0.162E+01 0.606E+03   -.663E-01 -.190E-02 -.296E+00
   -.348E+01 -.558E+01 -.616E+03   0.356E+01 0.559E+01 0.616E+03   -.686E-01 -.404E-02 -.242E+00
   0.139E+02 -.256E+02 -.194E+04   -.141E+02 0.255E+02 0.193E+04   0.135E+00 0.428E-01 0.544E+01
   -.210E+02 -.836E+01 -.189E+04   0.209E+02 0.844E+01 0.188E+04   0.666E-01 -.606E-01 0.533E+01
   -.198E-01 0.717E-01 0.207E+04   0.171E-01 -.711E-01 -.206E+04   0.180E-02 -.400E-03 -.638E+01
   0.292E+00 0.229E+00 0.207E+04   -.294E+00 -.228E+00 -.206E+04   0.150E-02 -.738E-03 -.637E+01
   -.922E-01 0.909E+00 0.719E+03   0.720E-01 -.894E+00 -.720E+03   0.131E-01 -.904E-02 0.471E+00
   0.110E+01 0.296E+00 0.720E+03   -.113E+01 -.283E+00 -.720E+03   0.153E-01 -.775E-02 0.392E+00
   -.146E+01 0.104E+01 -.624E+03   0.137E+01 -.104E+01 0.624E+03   0.775E-01 -.849E-03 -.209E+00
   0.386E+01 0.380E+01 -.616E+03   -.395E+01 -.378E+01 0.616E+03   0.768E-01 -.972E-02 -.218E+00
   -.150E+02 0.173E+02 -.196E+04   0.151E+02 -.172E+02 0.195E+04   -.832E-01 -.589E-01 0.553E+01
   0.857E+01 0.449E+01 -.196E+04   -.841E+01 -.452E+01 0.196E+04   -.131E+00 0.346E-01 0.538E+01
   -.425E-01 -.701E-01 0.207E+04   0.396E-01 0.707E-01 -.206E+04   0.191E-02 -.445E-03 -.638E+01
   0.285E+00 -.227E+00 0.207E+04   -.287E+00 0.228E+00 -.206E+04   0.153E-02 -.186E-03 -.637E+01
   -.711E-01 -.856E+00 0.719E+03   0.506E-01 0.865E+00 -.719E+03   0.132E-01 -.503E-02 0.471E+00
   0.123E+01 -.243E+00 0.721E+03   -.125E+01 0.257E+00 -.722E+03   0.159E-01 -.831E-02 0.382E+00
   -.326E+01 -.117E+01 -.617E+03   0.319E+01 0.117E+01 0.617E+03   0.640E-01 -.114E-02 -.257E+00
   0.336E+01 -.368E+01 -.618E+03   -.345E+01 0.366E+01 0.619E+03   0.744E-01 0.137E-01 -.226E+00
   -.129E+02 -.156E+02 -.196E+04   0.130E+02 0.156E+02 0.196E+04   -.720E-01 -.559E-02 0.549E+01
   0.179E+02 -.616E+01 -.194E+04   -.178E+02 0.616E+01 0.194E+04   -.121E+00 0.114E-01 0.542E+01
   0.205E-01 0.254E+00 0.540E+03   -.272E-01 -.270E+00 -.540E+03   0.807E-02 0.196E-01 -.719E-01
   -.871E+00 0.809E+00 0.540E+03   0.856E+00 -.823E+00 -.540E+03   0.185E-01 0.172E-01 -.121E+00
   0.236E-01 0.185E+00 0.155E+04   -.210E-01 -.185E+00 -.156E+04   -.321E-02 -.730E-04 0.313E+01
   -.211E+00 0.562E-01 0.155E+04   0.213E+00 -.567E-01 -.156E+04   -.315E-02 0.550E-03 0.313E+01
   0.563E+01 0.591E+01 -.149E+04   -.567E+01 -.591E+01 0.149E+04   0.776E-01 -.121E-01 -.470E+01
   -.126E+02 0.248E+02 -.146E+04   0.126E+02 -.247E+02 0.147E+04   0.182E-01 -.146E+00 -.462E+01
   0.179E+01 0.390E+01 -.450E+03   -.180E+01 -.388E+01 0.449E+03   0.633E-02 -.236E-01 0.436E+00
   -.236E+01 0.106E+01 -.460E+03   0.234E+01 -.106E+01 0.460E+03   0.232E-01 -.146E-02 0.224E+00
   0.161E+00 -.205E+00 0.542E+03   -.171E+00 0.190E+00 -.541E+03   0.111E-01 0.184E-01 -.780E-01
   -.832E+00 -.756E+00 0.539E+03   0.817E+00 0.741E+00 -.539E+03   0.189E-01 0.168E-01 -.122E+00
   0.216E-01 -.186E+00 0.155E+04   -.190E-01 0.185E+00 -.156E+04   -.324E-02 0.119E-02 0.313E+01
   -.223E+00 -.574E-01 0.155E+04   0.225E+00 0.571E-01 -.156E+04   -.324E-02 0.419E-03 0.313E+01
   0.195E+02 -.807E+01 -.144E+04   -.194E+02 0.807E+01 0.145E+04   -.588E-01 -.690E-02 -.489E+01
   -.943E+01 -.236E+02 -.147E+04   0.950E+01 0.235E+02 0.148E+04   -.486E-01 0.909E-01 -.462E+01
   0.165E+01 -.389E+01 -.452E+03   -.166E+01 0.388E+01 0.452E+03   0.489E-02 0.108E-01 0.428E+00
   -.327E+01 -.110E+01 -.451E+03   0.325E+01 0.110E+01 0.451E+03   0.253E-01 -.417E-02 0.215E+00
   -.279E-01 0.214E+00 0.538E+03   0.447E-01 -.229E+00 -.538E+03   -.203E-01 0.170E-01 -.117E+00
   0.865E+00 0.668E+00 0.540E+03   -.852E+00 -.682E+00 -.540E+03   -.156E-01 0.158E-01 -.725E-01
   -.238E-01 0.174E+00 0.155E+04   0.211E-01 -.173E+00 -.156E+04   0.340E-02 -.227E-03 0.313E+01
   0.211E+00 0.541E-01 0.155E+04   -.213E+00 -.546E-01 -.156E+04   0.271E-02 0.611E-03 0.313E+01
   -.548E+01 0.257E+01 -.150E+04   0.544E+01 -.255E+01 0.150E+04   0.196E-01 -.158E-01 -.454E+01
   0.119E+02 0.116E+02 -.149E+04   -.119E+02 -.116E+02 0.149E+04   -.603E-01 -.113E-01 -.469E+01
   -.179E+01 0.307E+01 -.459E+03   0.180E+01 -.306E+01 0.459E+03   -.115E-01 -.170E-01 0.230E+00
   0.235E+01 0.860E+00 -.458E+03   -.234E+01 -.855E+00 0.457E+03   -.134E-01 -.448E-02 0.446E+00
   -.168E+00 -.167E+00 0.539E+03   0.188E+00 0.152E+00 -.539E+03   -.236E-01 0.169E-01 -.124E+00
   0.826E+00 -.614E+00 0.540E+03   -.813E+00 0.595E+00 -.540E+03   -.163E-01 0.222E-01 -.734E-01
   -.217E-01 -.174E+00 0.155E+04   0.190E-01 0.173E+00 -.156E+04   0.340E-02 0.119E-02 0.313E+01
   0.223E+00 -.554E-01 0.155E+04   -.225E+00 0.550E-01 -.156E+04   0.277E-02 0.505E-03 0.313E+01
   -.172E+02 -.401E+01 -.148E+04   0.171E+02 0.406E+01 0.148E+04   0.992E-01 -.546E-01 -.466E+01
   0.827E+01 -.104E+02 -.149E+04   -.825E+01 0.103E+02 0.150E+04   -.644E-01 0.124E-01 -.471E+01
   -.163E+01 -.299E+01 -.461E+03   0.164E+01 0.298E+01 0.461E+03   -.147E-01 0.105E-01 0.230E+00
   0.320E+01 -.983E+00 -.453E+03   -.318E+01 0.991E+00 0.453E+03   -.194E-01 -.892E-02 0.413E+00
   -.263E+00 0.145E+00 0.190E+02   0.284E-12 -.853E-13 0.148E-11   0.252E+00 -.122E+00 -.167E+02

 POSITION                                       TOTAL-FORCE (eV/Angst)
      3.84718      4.11880     16.96954         0.306488      0.121148     -0.110591
      2.52986      3.49543     17.42468        -0.294617     -0.116319      0.044006
      3.68024      5.06711     16.43415         0.039933     -0.255450      0.113108
      4.39307      3.42898     16.30441        -0.161895      0.171427      0.145484
      4.51380      4.33831     17.81623        -0.168672     -0.060120     -0.149019
      1.86452      3.31934     16.56606         0.182815      0.049486      0.182091
      1.99026      4.15495     18.12031         0.148920     -0.148068     -0.126983
      2.69461      2.53168     17.92864        -0.029937      0.233660     -0.092302
      2.11679      0.00000      7.50000         0.000601     -0.000038      0.508427
      4.23357      2.11679      7.50000         0.000623      0.000126      0.510755
      2.11679      2.11679      9.61679         0.006461      0.004814      0.026966
      4.23357      0.00000      9.61679         0.004066      0.003486      0.036434
      2.11845      0.00261     11.74379         0.005030     -0.002231     -0.014272
      4.23588      2.11933     11.74961         0.001420     -0.001484     -0.012563
      2.11484      2.12081     13.83405        -0.006770      0.000999     -0.020199
      4.22966      0.00506     13.85909         0.004196     -0.012355     -0.174771
      2.11679      4.23357      7.50000         0.000633     -0.000024      0.509179
      4.23357      6.35036      7.50000         0.000612     -0.000179      0.510850
      2.11679      6.35036      9.61679         0.006488      0.003255      0.027785
      4.23357      4.23357      9.61679         0.004196      0.003750      0.037629
      2.11842      4.23620     11.74409        -0.000732      0.000097      0.002175
      4.23588      6.35275     11.74964        -0.000178      0.000674     -0.011411
      2.11484      6.35453     13.83411        -0.018165     -0.006937     -0.037574
      4.22964      4.23862     13.85926        -0.000434      0.006410     -0.037011
      6.35036      0.00000      7.50000        -0.000660     -0.000044      0.510418
      0.00000      2.11679      7.50000        -0.000553      0.000095      0.508621
      6.35036      2.11679      9.61679        -0.005458      0.004510      0.035636
      0.00000      0.00000      9.61679        -0.007001      0.003944      0.025212
      6.34741      0.00247     11.74942        -0.003973     -0.000382     -0.018801
      8.46479      2.11945     11.74392        -0.001748      0.003223     -0.014920
      6.35305      2.12176     13.85914         0.001819     -0.001462     -0.177327
      0.00068      0.00411     13.83399         0.015130     -0.001728     -0.003531
      6.35036      4.23357      7.50000        -0.000701     -0.000021      0.510838
      0.00000      6.35036      7.50000        -0.000561     -0.000107      0.508745
      6.35036      6.35036      9.61679        -0.005488      0.002769      0.035699
      0.00000      4.23357      9.61679        -0.007147      0.004132      0.029177
      6.34741      4.23605     11.74975         0.000873     -0.000228     -0.007961
      8.46479      6.35294     11.74395        -0.001118     -0.005721     -0.012821
      6.35305      6.35551     13.85918        -0.007975     -0.024891     -0.152418
      0.00067      4.23766     13.83454         0.007960      0.007622     -0.028107
      2.11679      0.00000      9.61679         0.002543      0.005680      0.047253
      4.23357      2.11679      9.61679         0.005792      0.004937      0.058506
      2.11679      2.11679      7.50000        -0.001057     -0.000127     -0.392380
      4.23357      0.00000      7.50000        -0.001035      0.000053     -0.393578
      2.11092      0.00477     13.88878         0.057397     -0.009250     -0.121839
      4.23037      2.12031     13.89806         0.031207     -0.027699     -0.113720
      2.11726      2.11938     11.73602        -0.000211     -0.006353      0.015254
      4.23335      0.00234     11.74262         0.004449      0.000118      0.010431
      2.11679      4.23357      9.61679         0.003577      0.005247      0.046741
      4.23357      6.35036      9.61679         0.005943      0.004679      0.058264
      2.11679      6.35036      7.50000        -0.001058      0.000237     -0.392478
      4.23357      4.23357      7.50000        -0.001067      0.000011     -0.393780
      2.11107      4.23833     13.88911         0.014438     -0.010817     -0.170516
      4.23038      6.35394     13.89813         0.009673      0.035870     -0.112163
      2.11726      6.35295     11.73607        -0.000753      0.003419      0.011959
      4.23338      4.23592     11.74304         0.004449     -0.001261      0.007012
      6.35036      0.00000      9.61679        -0.006222      0.004827      0.058917
      0.00000      2.11679      9.61679        -0.004766      0.004479      0.047663
      6.35036      2.11679      7.50000         0.001169     -0.000188     -0.393499
      0.00000      0.00000      7.50000         0.000910      0.000089     -0.392270
      6.35244      0.00358     13.89800        -0.022806      0.008608     -0.097337
      0.00452      2.12136     13.88914        -0.047134     -0.006300     -0.117355
      6.34995      2.11916     11.74278        -0.001444     -0.004745      0.012246
      8.46599      0.00259     11.73604        -0.001225     -0.000695      0.016491
      6.35036      4.23357      9.61679        -0.007338      0.004789      0.058056
      0.00000      6.35036      9.61679        -0.004974      0.006435      0.047525
      6.35036      6.35036      7.50000         0.001157      0.000262     -0.393669
      0.00000      4.23357      7.50000         0.000964      0.000033     -0.392545
      6.35229      4.23713     13.89841        -0.001570     -0.005469     -0.129780
      0.00452      6.35531     13.88918        -0.050090     -0.005640     -0.124869
      6.34994      6.35269     11.74282        -0.002421      0.003497      0.011614
      8.46596      4.23617     11.73620        -0.002978     -0.002566      0.007194
    total drift:                               -0.001708      0.010642      0.007500

  FREE ENERGIE OF THE ION-ELECTRON SYSTEM (eV)
  free  energy   TOTEN  =      -484.56217271 eV

  energy  without entropy=     -484.56217271  energy(sigma->0) =     -484.56217271