 vasp.6.3.0 20Jan22 (build Apr  1 2022 16:44:48) complex
 executed on        HPECrayEX_GCC date 2023.02.23  15:21:53

 INCAR:
   SYSTEM = MgO-rocksalt
   ISMEAR = 0
   SIGMA = 0.05
   EDIFF = 1E-8
   ALGO = ALL
   ISTART = 0
   IBRION = 5
   POTIM = 0.01
   NFREE = 2
   ISYM = 0
   DIPOL = 0.5 0.5 0.5
   IDIPOL = 3
   LDIPOL = .TRUE.
   GGA = PE
   IVDW = 1
   VDW_C6 = 1.23 0.14 0.63 0.70
   VDW_R0 = 1.397 1.001 1.243 1.342
   ENCUT = 600
   PREC = Accurate
   LASPH = .TRUE.
   LREAL = .FALSE.
   ISPIN = 1
   NELM = 200
   NELMIN = 8
   NCORE = 8
   KPAR = 1
   LWAVE = .FALSE.
   LCHARG = .FALSE.

 POTCAR:    PAW_PBE N 08Apr2002
 POTCAR:    PAW_PBE H 15Jun2001
 POTCAR:    PAW_PBE Mg_pv 13Apr2007
 POTCAR:    PAW_PBE O 08Apr2002
 POTCAR:    PAW_PBE N 08Apr2002
   VRHFIN =N: s2p3

   TITEL  = PAW_PBE N 08Apr2002
   POMASS =   14.001; ZVAL   =    5.000    mass and valenz
   ENMAX  =  400.000; ENMIN  =  300.000 eV

   TITEL  = PAW_PBE H 15Jun2001
   POMASS =    1.000; ZVAL   =    1.000    mass and valenz
   ENMAX  =  250.000; ENMIN  =  200.000 eV

   TITEL  = PAW_PBE Mg_pv 13Apr2007
   POMASS =   24.305; ZVAL   =    8.000    mass and valenz
   ENMAX  =  403.929; ENMIN  =  302.947 eV

   TITEL  = PAW_PBE O 08Apr2002
   POMASS =   16.000; ZVAL   =    6.000    mass and valenz
   ENMAX  =  400.000; ENMIN  =  300.000 eV

  PAW_PBE N 08Apr2002                   :
  PAW_PBE H 15Jun2001                   :
  PAW_PBE Mg_pv 13Apr2007               :
  PAW_PBE O 08Apr2002                   :

 POSCAR:  N  H Mg  O
  positions in direct lattice
 exchange correlation table for  LEXCH =        8
   RHO(1)=    0.500       N(1)  =     2000
   RHO(2)=  100.500       N(2)  =     4000

 ion  position               nearest neighbor table
   1  0.500  0.522  0.760-   3 1.02   4 1.02   2 1.02
   2  0.500  0.643  0.762-   1 1.02
   3  0.402  0.481  0.782-   1 1.02
   4  0.598  0.481  0.782-   1 1.02
   5  0.250  0.000  0.351-  37 2.12  39 2.12  40 2.12  47 2.12  56 2.12
   6  0.500  0.250  0.351-  38 2.12  39 2.12  40 2.12  48 2.12  55 2.12
   7  0.250  0.250  0.450-  39 2.12  38 2.12  37 2.12  45 2.12  54 2.12  43 2.12
   8  0.500  0.000  0.450-  40 2.12  38 2.12  37 2.12  46 2.12  53 2.12  44 2.12
   9  0.250  0.000  0.550-  44 2.11  43 2.12  51 2.12  60 2.12  37 2.12  41 2.16
  10  0.500  0.251  0.551-  52 2.11  59 2.12  43 2.12  44 2.13  38 2.14  42 2.14
  11  0.250  0.250  0.648-  43 2.09  41 2.12  58 2.12  42 2.12  49 2.12
  12  0.500  0.000  0.648-  42 2.09  50 2.09  44 2.10  57 2.12  41 2.12
  13  0.250  0.500  0.351-  45 2.12  39 2.12  47 2.12  48 2.12  64 2.12
  14  0.500  0.750  0.351-  46 2.12  40 2.12  47 2.12  48 2.12  63 2.12
  15  0.250  0.750  0.450-  47 2.12  45 2.12  46 2.12  37 2.12  62 2.12  51 2.12
  16  0.500  0.500  0.450-  48 2.12  45 2.12  46 2.12  38 2.12  61 2.12  52 2.14
  17  0.251  0.500  0.551-  52 2.11  43 2.12  51 2.12  68 2.13  45 2.14  49 2.14
  18  0.500  0.749  0.551-  52 2.10  67 2.12  51 2.12  44 2.13  46 2.14  50 2.15
  19  0.249  0.750  0.648-  51 2.09  66 2.11  41 2.12  49 2.12  50 2.12
  20  0.500  0.498  0.655-  42 2.13  49 2.14  65 2.14  50 2.17  52 2.23
  21  0.750  0.000  0.351-  53 2.12  40 2.12  55 2.12  56 2.12  63 2.12
  22  0.000  0.250  0.351-  54 2.12  39 2.12  55 2.12  56 2.12  64 2.12
  23  0.750  0.250  0.450-  55 2.12  53 2.12  54 2.12  38 2.12  61 2.12  59 2.12
  24  0.000  0.000  0.450-  56 2.12  53 2.12  54 2.12  37 2.12  62 2.12  60 2.12
  25  0.750  0.000  0.550-  44 2.11  59 2.12  67 2.12  60 2.12  53 2.12  57 2.16
  26  0.000  0.250  0.550-  68 2.11  59 2.12  43 2.12  60 2.12  54 2.12  58 2.16
  27  0.750  0.250  0.648-  59 2.09  57 2.12  58 2.12  42 2.12  65 2.12
  28  0.000  0.000  0.648-  60 2.10  41 2.11  57 2.11  58 2.11  66 2.11
  29  0.750  0.500  0.351-  61 2.12  55 2.12  48 2.12  63 2.12  64 2.12
  30  0.000  0.750  0.351-  62 2.12  56 2.12  47 2.12  63 2.12  64 2.12
  31  0.750  0.750  0.450-  63 2.12  53 2.12  61 2.12  62 2.12  46 2.12  67 2.12
  32  0.000  0.500  0.450-  64 2.12  54 2.12  61 2.12  62 2.12  45 2.12  68 2.12
  33  0.749  0.500  0.551-  52 2.11  59 2.12  67 2.12  68 2.13  61 2.14  65 2.14
  34  0.000  0.750  0.550-  68 2.11  67 2.12  51 2.12  60 2.12  62 2.12  66 2.16
  35  0.751  0.750  0.648-  67 2.09  66 2.11  57 2.12  65 2.12  50 2.12
  36  0.000  0.500  0.648-  49 2.09  65 2.09  68 2.10  58 2.12  66 2.12
  37  0.250  0.000  0.450-   5 2.12   7 2.12   8 2.12  15 2.12  24 2.12   9 2.12
  38  0.500  0.250  0.450-   6 2.12   7 2.12   8 2.12  16 2.12  23 2.12  10 2.14
  39  0.250  0.250  0.351-   7 2.12   6 2.12   5 2.12  13 2.12  22 2.12
  40  0.500  0.000  0.351-   8 2.12   6 2.12   5 2.12  14 2.12  21 2.12
  41  0.249  1.000  0.651-  28 2.11  11 2.12  19 2.12  12 2.12   9 2.16
  42  0.500  0.247  0.651-  12 2.09  11 2.12  27 2.12  20 2.13  10 2.14
  43  0.250  0.250  0.550-  11 2.09   9 2.12  26 2.12  17 2.12  10 2.12   7 2.12
  44  0.500  1.000  0.550-  12 2.10  25 2.11   9 2.11   8 2.12  18 2.13  10 2.13
  45  0.250  0.500  0.450-  13 2.12   7 2.12  15 2.12  16 2.12  32 2.12  17 2.14
  46  0.500  0.750  0.450-  14 2.12   8 2.12  15 2.12  16 2.12  31 2.12  18 2.14
  47  0.250  0.750  0.351-  15 2.12  13 2.12  14 2.12   5 2.12  30 2.12
  48  0.500  0.500  0.351-  16 2.12  13 2.12  14 2.12   6 2.12  29 2.12
  49  0.247  0.500  0.651-  36 2.09  19 2.12  11 2.12  17 2.14  20 2.14
  50  0.500  0.753  0.652-  12 2.09  35 2.12  19 2.12  18 2.15  20 2.17
  51  0.250  0.750  0.550-  19 2.09   9 2.12  18 2.12  34 2.12  17 2.12  15 2.12
  52  0.500  0.500  0.551-  18 2.10  17 2.11  33 2.11  10 2.11  16 2.14  20 2.23
  53  0.750  0.000  0.450-  21 2.12   8 2.12  23 2.12  24 2.12  31 2.12  25 2.12
  54  0.000  0.250  0.450-  22 2.12   7 2.12  23 2.12  24 2.12  32 2.12  26 2.12
  55  0.750  0.250  0.351-  23 2.12  21 2.12  22 2.12   6 2.12  29 2.12
  56  0.000  0.000  0.351-  24 2.12  21 2.12  22 2.12   5 2.12  30 2.12
  57  0.751  1.000  0.651-  28 2.11  27 2.12  35 2.12  12 2.12  25 2.16
  58  0.000  0.249  0.651-  28 2.11  27 2.12  11 2.12  36 2.12  26 2.16
  59  0.750  0.250  0.550-  27 2.09  25 2.12  26 2.12  33 2.12  10 2.12  23 2.12
  60  0.000  1.000  0.550-  28 2.10  34 2.12  24 2.12  25 2.12   9 2.12  26 2.12
  61  0.750  0.500  0.450-  29 2.12  23 2.12  16 2.12  31 2.12  32 2.12  33 2.14
  62  0.000  0.750  0.450-  30 2.12  24 2.12  15 2.12  31 2.12  32 2.12  34 2.12
  63  0.750  0.750  0.351-  31 2.12  21 2.12  29 2.12  30 2.12  14 2.12
  64  0.000  0.500  0.351-  32 2.12  22 2.12  29 2.12  30 2.12  13 2.12
  65  0.753  0.500  0.651-  36 2.09  35 2.12  27 2.12  33 2.14  20 2.14
  66  0.000  0.751  0.651-  28 2.11  19 2.11  35 2.11  36 2.12  34 2.16
  67  0.750  0.750  0.550-  35 2.09  25 2.12  18 2.12  34 2.12  33 2.12  31 2.12
  68  0.000  0.500  0.550-  36 2.10  34 2.11  26 2.11  32 2.12  17 2.13  33 2.13

IMPORTANT INFORMATION: All symmetrisations will be switched off!
NOSYMM: (Re-)initialisation of all symmetry stuff for point group C_1.

                                     Primitive cell

  volume of cell :    1530.6606

  direct lattice vectors                    reciprocal lattice vectors
     8.467142631  0.000000000  0.000000000     0.118103597  0.000000000  0.000000000
     0.000000000  8.467142631  0.000000000     0.000000000  0.118103597  0.000000000
     0.000000000  0.000000000 21.350356973     0.000000000  0.000000000  0.046837624

  length of vectors
     8.467142631  8.467142631 21.350356973     0.118103597  0.118103597  0.046837624

  position of ions in fractional coordinates (direct lattice)
     0.499996541  0.522076480  0.759506803
     0.500003240  0.642756386  0.761736241
     0.401916515  0.480993867  0.781943253
     0.598091686  0.480988909  0.781942810
     0.250000000  0.000000000  0.351282183
     0.500000000  0.250000000  0.351282183
     0.250000000  0.250000000  0.450427394
     0.500000000  0.000000000  0.450427394
     0.250268217  0.000041151  0.549894757
     0.500000260  0.251202403  0.550507467
     0.249728290  0.249620539  0.647823269
     0.500000335  0.000423602  0.647863994
     0.250000000  0.500000000  0.351282183
     0.500000000  0.750000000  0.351282183
     0.250000000  0.750000000  0.450427394
     0.500000000  0.500000000  0.450427394
     0.251309792  0.499895591  0.550580922
     0.500000253  0.748649587  0.550631205
     0.249426297  0.750199092  0.647640585
     0.500000093  0.497808846  0.654967657
     0.750000000  0.000000000  0.351282183
     0.000000000  0.250000000  0.351282183
     0.750000000  0.250000000  0.450427394
     0.000000000  0.000000000  0.450427394
     0.749732268  0.000041185  0.549894780
     0.000000154  0.250245864  0.549893189
     0.750272478  0.249620509  0.647823235
     0.000000368  0.000020197  0.648085502
     0.750000000  0.500000000  0.351282183
     0.000000000  0.750000000  0.351282183
     0.750000000  0.750000000  0.450427394
     0.000000000  0.500000000  0.450427394
     0.748690697  0.499895573  0.550580955
     0.000000189  0.749678922  0.549868733
     0.750574450  0.750199078  0.647640546
     0.000000440  0.499867018  0.647860306
     0.250000000  0.000000000  0.450427394
     0.500000000  0.250000000  0.450427394
     0.250000000  0.250000000  0.351282183
     0.500000000  0.000000000  0.351282183
     0.249275292  0.999941342  0.650861636
     0.500000367  0.247056483  0.650592119
     0.249822450  0.249838212  0.549751138
     0.500000279  0.999791552  0.549624400
     0.250000000  0.500000000  0.450427394
     0.500000000  0.750000000  0.450427394
     0.250000000  0.750000000  0.351282183
     0.500000000  0.500000000  0.351282183
     0.247155942  0.499955757  0.650910805
     0.500000388  0.753373945  0.651544723
     0.250008885  0.750103074  0.549805649
     0.500000145  0.500092976  0.550664529
     0.750000000  0.000000000  0.450427394
     0.000000000  0.250000000  0.450427394
     0.750000000  0.250000000  0.351282183
     0.000000000  0.000000000  0.351282183
     0.750725349  0.999941393  0.650861754
     0.000000382  0.249320848  0.650888441
     0.750177990  0.249838083  0.549751195
     0.000000149  0.999914128  0.549669166
     0.750000000  0.500000000  0.450427394
     0.000000000  0.750000000  0.450427394
     0.750000000  0.750000000  0.351282183
     0.000000000  0.500000000  0.351282183
     0.752844602  0.499955710  0.650911020
     0.000000437  0.750604221  0.650833045
     0.749991545  0.750103197  0.549805674
     0.000000289  0.500019120  0.549609315

  ion indices of the primitive-cell ions
   primitive index   ion index
                 1           1
                 2           2
                 3           3
                 4           4
                 5           5
                 6           6
                 7           7
                 8           8
                 9           9
                10          10
                11          11
                12          12
                13          13
                14          14
                15          15
                16          16
                17          17
                18          18
                19          19
                20          20
                21          21
                22          22
[...]
      0.00000      2.11679      7.50000         0.000005      0.001898      0.390712
      6.35036      2.11679      9.61679        -0.013432      0.017246      0.012280
      0.00000      0.00000      9.61679         0.000037      0.002201      0.001089
      6.34809      0.00035     11.74045         0.000086     -0.000372     -0.001520
      0.00000      2.11887     11.74042         0.000178      0.000417     -0.001377
      6.35266      2.11357     13.83126         0.002208     -0.002642     -0.004821
      0.00000      0.00017     13.83686         0.000052      0.000443     -0.003027
      6.35036      4.23357      7.50000        -0.003129      0.000020      0.397130
      0.00000      6.35036      7.50000         0.000005     -0.001899      0.388481
      6.35036      6.35036      9.61679        -0.022253     -0.017826      0.012611
      0.00000      4.23357      9.61679         0.000020     -0.003114      0.036283
      6.33927      4.23269     11.75510        -0.001882     -0.000162     -0.006014
      0.00000      6.34764     11.73989         0.000182      0.000927     -0.001762
      6.35522      6.35204     13.82736         0.000942      0.002832     -0.004810
      0.00000      4.23245     13.83205         0.001644     -0.000222     -0.003622
      2.11679      0.00000      9.61679        -0.009623     -0.001814      0.051015
      4.23357      2.11679      9.61679         0.000048      0.010943      0.072256
      2.11679      2.11679      7.50000        -0.003310     -0.003966     -0.475813
      4.23357      0.00000      7.50000         0.000009      0.000745     -0.476260
      2.11065      8.46665     13.89613         0.000963      0.000881      0.000013
      4.23357      2.09186     13.89037         0.001000      0.002286      0.003884
      2.11528      2.11542     11.73738        -0.000392     -0.001440      0.004842
      4.23357      8.46538     11.73468         0.000067      0.001584     -0.001996
      2.11679      4.23357      9.61679         0.012465      0.000930      0.071653
      4.23357      6.35036      9.61679         0.000049     -0.013204      0.071580
      2.11679      6.35036      7.50000        -0.004688      0.003962     -0.475687
      4.23357      4.23357      7.50000         0.000008     -0.000824     -0.482658
      2.09270      4.23320     13.89718         0.000807      0.000500      0.001245
      4.23357      6.37892     13.91071         0.000893     -0.001798      0.001514
      2.11686      6.35123     11.73855        -0.000534     -0.000361      0.004240
      4.23357      4.23436     11.75688         0.000439      0.000688      0.009008
      6.35036      0.00000      9.61679         0.009629     -0.001815      0.051105
      0.00000      2.11679      9.61679        -0.000041     -0.010435      0.048333
      6.35036      2.11679      7.50000         0.003310     -0.003967     -0.475798
      0.00000      0.00000      7.50000        -0.000010     -0.000572     -0.471895
      6.35650      8.46665     13.89613        -0.000929      0.000936      0.000071
      0.00000      2.11104     13.89670        -0.000605      0.000103     -0.000130
      6.35186      2.11541     11.73738         0.000436     -0.001014      0.005186
      0.00000      8.46642     11.73563        -0.000080      0.000569     -0.000467
      6.35036      4.23357      9.61679        -0.012467      0.000930      0.071730
      0.00000      6.35036      9.61679        -0.000041      0.009370      0.054502
      6.35036      6.35036      7.50000         0.004688      0.003963     -0.475672
      0.00000      4.23357      7.50000        -0.000009      0.000551     -0.476325
      6.37444      4.23320     13.89718        -0.003475      0.000327      0.006142
      0.00000      6.35547     13.89552        -0.000555     -0.002374      0.000024
      6.35029      6.35123     11.73855         0.000576     -0.000798      0.004618
      0.00000      4.23373     11.73436        -0.000629      0.000159     -0.001823
    total drift:                                0.000041     -0.001038      0.021943

  FREE ENERGIE OF THE ION-ELECTRON SYSTEM (eV)
  free  energy   TOTEN  =      -395.74665917 eV

  energy  without entropy=     -395.74665917  energy(sigma->0) =     -395.74665917

 d Force =-0.1418268E-04[-0.208E-02, 0.205E-02]  d Energy =-0.2793059E-04 0.137E-04
 d Force =-0.5639565E+01[-0.564E+01,-0.563E+01]  d Ewald  =-0.5639685E+01 0.120E-03

 Finite differences progress:
  Degree of freedom:  12/ 12
  Displacement:        2/  2
  Total:              24/ 24

 SECOND DERIVATIVES (NOT SYMMETRIZED)
               1X          1Y          1Z          2X          2Y          2Z          3X          3Y          3Z          4X          4Y          4Z
  1X   -62.015137   -0.011219    0.015451    5.529381    0.001997   -0.000198   27.765145    8.519544  -15.910141   27.747764   -8.510438   15.894782
  1Y    -0.010556  -56.865170   11.910172    0.002042   38.697684    4.248368    9.561812    8.627266   -8.013288   -9.553569    8.627868   -8.007713
  1Z     0.015756   11.919871  -25.784681   -0.000396   -0.088834    1.597991  -12.340177   -5.887916   10.455730   12.324992   -5.881727   10.449998
  2X     5.532008    0.001225    0.003551   -5.505981   -0.002120    0.001073   -0.092612    3.189258    0.331710   -0.096553   -3.186890   -0.332625
  2Y     0.002430   38.699724   -0.089381   -0.002664  -40.930578   -1.328404   -0.323471    0.954983    0.551937    0.322550    0.954958    0.551331
  2Z    -0.000141    4.246507    1.597980    0.000099   -1.328147   -2.185858   -0.079379   -1.819178    0.253187    0.079452   -1.818809    0.253121
  3X    27.766911    9.572123  -12.343709   -0.093579   -0.322403   -0.080676  -29.780946  -10.394119   14.299864    2.062010    1.150862   -1.787235
  3Y     8.508437    8.629845   -5.880629    3.188925    0.955270   -1.819927  -10.386179   -9.223163    6.951971   -1.148390   -0.430712    0.776278
  3Z   -15.898630   -8.015121   10.457370    0.331376    0.550228    0.253842   14.292282    6.954673  -10.325082    1.785534    0.774995   -0.465631
  4X    27.748913   -9.562884   12.330597   -0.093639    0.321636    0.080360    2.062576   -1.150523    1.785983  -29.764517   10.385397  -14.285168
  4Y    -8.502017    8.630501   -5.880308   -3.188941    0.952172   -1.819717    1.149603   -0.430241    0.775321   10.376318   -9.222428    6.946145
  4Z    15.882669   -8.008064   10.451962   -0.330962    0.550198    0.253836   -1.785439    0.775011   -0.465550  -14.276607    6.947863  -10.319077

 Eigenvectors and eigenvalues of the dynamical matrix

   1 f  =  106.045744 THz   666.305060 2PiTHz 3537.305261 cm-1   438.569760 meV
             X         Y         Z           dx          dy          dz
      4.233542  4.420496 16.215741     0.285891    0.004210   -0.002090
      4.233599  5.442310 16.263341     0.019837   -0.009566   -0.000722
      3.403084  4.072644 16.694768    -0.555075   -0.244640    0.322166
      5.064128  4.072602 16.694758    -0.539280    0.238335   -0.313663
      2.116786  0.000000  7.500000            0           0           0
      4.233571  2.116786  7.500000            0           0           0
      2.116786  2.116786  9.616786            0           0           0
      4.233571  0.000000  9.616786            0           0           0
      2.119057  0.000348 11.740449            0           0           0
      4.233574  2.126967 11.753531            0           0           0
      2.114485  2.113573 13.831258            0           0           0
      4.233574  0.003587 13.832128            0           0           0
      2.116786  4.233571  7.500000            0           0           0
      4.233571  6.350357  7.500000            0           0           0
      2.116786  6.350357  9.616786            0           0           0
      4.233571  4.233571  9.616786            0           0           0
      2.127876  4.232687 11.755099            0           0           0
      4.233573  6.338923 11.756173            0           0           0
      2.111928  6.352043 13.827358            0           0           0
      4.233572  4.215019 13.983793            0           0           0
      6.350357  0.000000  7.500000            0           0           0
      0.000000  2.116786  7.500000            0           0           0
      6.350357  2.116786  9.616786            0           0           0
      0.000000  0.000000  9.616786            0           0           0
      6.348090  0.000349 11.740450            0           0           0
      0.000001  2.118867 11.740416            0           0           0
      6.352664  2.113572 13.831257            0           0           0
      0.000003  0.000171 13.836857            0           0           0
      6.350357  4.233571  7.500000            0           0           0
      0.000000  6.350357  7.500000            0           0           0
      6.350357  6.350357  9.616786            0           0           0
      0.000000  4.233571  9.616786            0           0           0
      6.339271  4.232687 11.755100            0           0           0
      0.000002  6.347638 11.739894            0           0           0
      6.355221  6.352043 13.827357            0           0           0
      0.000004  4.232445 13.832049            0           0           0
      2.116786  0.000000  9.616786            0           0           0
      4.233571  2.116786  9.616786            0           0           0
      2.116786  2.116786  7.500000            0           0           0
      4.233571  0.000000  7.500000            0           0           0
      2.110649  8.466646 13.896128            0           0           0
      4.233574  2.091862 13.890374            0           0           0
      2.115282  2.115416 11.737383            0           0           0
      4.233574  8.465378 11.734677            0           0           0
      2.116786  4.233571  9.616786            0           0           0
      4.233571  6.350357  9.616786            0           0           0
      2.116786  6.350357  7.500000            0           0           0
      4.233571  4.233571  7.500000            0           0           0
      2.092705  4.233197 13.897178            0           0           0
      4.233575  6.378925 13.910712            0           0           0
      2.116861  6.351230 11.738547            0           0           0
      4.233573  4.234359 11.756884            0           0           0
      6.350357  0.000000  9.616786            0           0           0
      0.000000  2.116786  9.616786            0           0           0
      6.350357  2.116786  7.500000            0           0           0
      0.000000  0.000000  7.500000            0           0           0
      6.356499  8.466646 13.896131            0           0           0
      0.000003  2.111035 13.896701            0           0           0
      6.351864  2.115415 11.737384            0           0           0
      0.000001  8.466416 11.735633            0           0           0
      6.350357  4.233571  9.616786            0           0           0
      0.000000  6.350357  9.616786            0           0           0
      6.350357  6.350357  7.500000            0           0           0
      0.000000  4.233571  7.500000            0           0           0
      6.374443  4.233196 13.897183            0           0           0
      0.000004  6.355473 13.895518            0           0           0
      6.350285  6.351231 11.738547            0           0           0
      0.000002  4.233733 11.734355            0           0           0

[...]

  12 f  =    1.353831 THz     8.506370 2PiTHz   45.158935 cm-1     5.598992 meV
             X         Y         Z           dx          dy          dz
      4.233542  4.420496 16.215741    -0.709977    0.006016    0.000385
      4.233599  5.442310 16.263341    -0.019568    0.001718   -0.001840
      3.403084  4.072644 16.694768    -0.400800    0.164060   -0.246499
      5.064128  4.072602 16.694758    -0.400631   -0.159078    0.247745
      2.116786  0.000000  7.500000            0           0           0
      4.233571  2.116786  7.500000            0           0           0
      2.116786  2.116786  9.616786            0           0           0
      4.233571  0.000000  9.616786            0           0           0
      2.119057  0.000348 11.740449            0           0           0
      4.233574  2.126967 11.753531            0           0           0
      2.114485  2.113573 13.831258            0           0           0
      4.233574  0.003587 13.832128            0           0           0
      2.116786  4.233571  7.500000            0           0           0
      4.233571  6.350357  7.500000            0           0           0
      2.116786  6.350357  9.616786            0           0           0
      4.233571  4.233571  9.616786            0           0           0
      2.127876  4.232687 11.755099            0           0           0
      4.233573  6.338923 11.756173            0           0           0
      2.111928  6.352043 13.827358            0           0           0
      4.233572  4.215019 13.983793            0           0           0
      6.350357  0.000000  7.500000            0           0           0
      0.000000  2.116786  7.500000            0           0           0
      6.350357  2.116786  9.616786            0           0           0
      0.000000  0.000000  9.616786            0           0           0
      6.348090  0.000349 11.740450            0           0           0
      0.000001  2.118867 11.740416            0           0           0
      6.352664  2.113572 13.831257            0           0           0
      0.000003  0.000171 13.836857            0           0           0
      6.350357  4.233571  7.500000            0           0           0
      0.000000  6.350357  7.500000            0           0           0
      6.350357  6.350357  9.616786            0           0           0
      0.000000  4.233571  9.616786            0           0           0
      6.339271  4.232687 11.755100            0           0           0
      0.000002  6.347638 11.739894            0           0           0
      6.355221  6.352043 13.827357            0           0           0
      0.000004  4.232445 13.832049            0           0           0
      2.116786  0.000000  9.616786            0           0           0
      4.233571  2.116786  9.616786            0           0           0
      2.116786  2.116786  7.500000            0           0           0
      4.233571  0.000000  7.500000            0           0           0
      2.110649  8.466646 13.896128            0           0           0
      4.233574  2.091862 13.890374            0           0           0
      2.115282  2.115416 11.737383            0           0           0
      4.233574  8.465378 11.734677            0           0           0
      2.116786  4.233571  9.616786            0           0           0
      4.233571  6.350357  9.616786            0           0           0
      2.116786  6.350357  7.500000            0           0           0
      4.233571  4.233571  7.500000            0           0           0
      2.092705  4.233197 13.897178            0           0           0
      4.233575  6.378925 13.910712            0           0           0
      2.116861  6.351230 11.738547            0           0           0
      4.233573  4.234359 11.756884            0           0           0
      6.350357  0.000000  9.616786            0           0           0
      0.000000  2.116786  9.616786            0           0           0
      6.350357  2.116786  7.500000            0           0           0
      0.000000  0.000000  7.500000            0           0           0
      6.356499  8.466646 13.896131            0           0           0
      0.000003  2.111035 13.896701            0           0           0
      6.351864  2.115415 11.737384            0           0           0
      0.000001  8.466416 11.735633            0           0           0
      6.350357  4.233571  9.616786            0           0           0
      0.000000  6.350357  9.616786            0           0           0
      6.350357  6.350357  7.500000            0           0           0
      0.000000  4.233571  7.500000            0           0           0
      6.374443  4.233196 13.897183            0           0           0
      0.000004  6.355473 13.895518            0           0           0
      6.350285  6.351231 11.738547            0           0           0
      0.000002  4.233733 11.734355            0           0           0

 Finite differences POTIM=   1.0000000000000000E-002