 vasp.6.4.2 20Jul23 (build Feb 22 2024 13:53:45) complex
 executed on              LinuxNV date 2024.08.27  22:08:20
 OpenACC runtime initialized ...    4 GPUs detected

 INCAR:
   SYSTEM = Oxide-Surface
   ISMEAR = 0
   SIGMA = 0.05
   EDIFF = 1E-5
   ALGO = Normal
   IBRION = -1
   NSW = 0
   ISYM = 0
   DIPOL = 0.5 0.5 0.5
   IDIPOL = 3
   LDIPOL = .TRUE.
   ISTART = 0
   LHFCALC = .FALSE.
   GGA = PE
   HFRCUT = -1
   ENCUT = 1000
   PREC = Normal
   PRECFOCK = Normal
   LASPH = .TRUE.
   LREAL = Auto
   ISPIN = 1
   NELM = 200
   NELMIN = 8
   NCORE = 1
   KPAR = 1
   LWAVE = .FALSE.
   LCHARG = .FALSE.

 POTCAR:    PAW_PBE N_h 06Feb2004
 POTCAR:    PAW_PBE O_h 06Feb2004
 POTCAR:    PAW_PBE Mg_sv 12Apr2007
 POTCAR:    PAW_PBE O_h 06Feb2004
 POTCAR:    PAW_PBE N_h 06Feb2004
   VRHFIN =N: s2p3

   TITEL  = PAW_PBE N_h 06Feb2004
   POMASS =   14.001; ZVAL   =    5.000    mass and valenz
   ENMAX  =  700.000; ENMIN  =  500.000 eV

[...]

   TITEL  = PAW_PBE Mg_sv 12Apr2007
   POMASS =   24.305; ZVAL   =   10.000    mass and valenz
   ENMAX  =  495.223; ENMIN  =  371.417 eV

   TITEL  = PAW_PBE O_h 06Feb2004
   POMASS =   16.000; ZVAL   =    6.000    mass and valenz
   ENMAX  =  700.000; ENMIN  =  500.000 eV

 Optimization of the real space projectors (new method)

 maximal supplied QI-value         = 34.20
 optimisation between [QCUT,QGAM] = [ 16.08, 32.15] = [ 72.37,289.48] Ry
 Optimized for a Real-space Cutoff    0.71 Angstroem

   l    n(q)    QCUT    max X(q) W(low)/X(q) W(high)/X(q)  e(spline)
   0      7    16.076   148.539    0.44E-03    0.75E-03    0.58E-07
   0      7    16.076   106.192    0.44E-03    0.75E-03    0.58E-07
   1      6    16.076    73.877    0.23E-03    0.61E-03    0.11E-06
   1      6    16.076    50.042    0.22E-03    0.60E-03    0.11E-06
 Optimization of the real space projectors (new method)

[...]

   l    n(q)    QCUT    max X(q) W(low)/X(q) W(high)/X(q)  e(spline)
   0      9    16.140     8.730    0.14E-04    0.12E-04    0.27E-07
   0      9    16.140     8.910    0.19E-04    0.17E-04    0.41E-07
   1      9    16.140     2.513    0.16E-04    0.28E-04    0.54E-07
   1      9    16.140     3.341    0.27E-04    0.13E-03    0.17E-06
   2      9    16.140     3.683    0.18E-03    0.21E-03    0.81E-07
 Optimization of the real space projectors (new method)

 maximal supplied QI-value         = 34.20
 optimisation between [QCUT,QGAM] = [ 16.08, 32.15] = [ 72.37,289.48] Ry
 Optimized for a Real-space Cutoff    0.71 Angstroem

   l    n(q)    QCUT    max X(q) W(low)/X(q) W(high)/X(q)  e(spline)
   0      7    16.076   280.207    0.42E-03    0.69E-03    0.60E-07
   0      7    16.076   228.978    0.42E-03    0.69E-03    0.61E-07
   1      6    16.076    86.127    0.11E-03    0.66E-03    0.10E-06
   1      6    16.076    65.368    0.11E-03    0.65E-03    0.10E-06
  PAW_PBE N_h 06Feb2004                 :
  PAW_PBE O_h 06Feb2004                 :
  PAW_PBE Mg_sv 12Apr2007               :
  PAW_PBE O_h 06Feb2004                 :

 POSCAR:  N  O Mg  O
  positions in direct lattice
 exchange correlation table for  LEXCH =        8
   RHO(1)=    0.500       N(1)  =     2000
   RHO(2)=  100.500       N(2)  =     4000

 ion  position               nearest neighbor table
   1  0.493  0.519  0.704-   2 1.14
   2  0.471  0.594  0.759-   1 1.14   3 1.20
   3  0.448  0.673  0.816-   2 1.20
   4  0.000  0.750  0.184-
   5  0.250  0.000  0.184-
   6  0.000  0.000  0.308-
   7  0.250  0.750  0.308-
   8  1.000  0.750  0.433-
   9  0.250  0.000  0.433-
  10  1.000  0.000  0.557-
  11  0.250  0.750  0.556-
  12  0.000  0.250  0.184-
  13  0.250  0.500  0.184-
  14  0.000  0.500  0.308-
  15  0.250  0.250  0.308-
  16  1.000  0.250  0.433-
  17  0.250  0.500  0.433-
  18  1.000  0.500  0.556-
  19  0.250  0.250  0.556-
  20  0.500  0.750  0.184-
  21  0.750  0.000  0.184-
  22  0.500  0.000  0.308-
  23  0.750  0.750  0.308-
  24  0.500  0.750  0.433-
  25  0.750  0.000  0.433-
  26  0.500  0.000  0.556-
  27  0.750  0.750  0.556-
  28  0.500  0.250  0.184-
  29  0.750  0.500  0.184-
  30  0.500  0.500  0.308-
  31  0.750  0.250  0.308-
  32  0.500  0.250  0.433-
  33  0.750  0.500  0.433-
  34  0.500  0.499  0.559-
  35  0.750  0.250  0.556-
  36  0.000  0.750  0.308-
  37  0.250  0.000  0.308-
  38  0.000  0.000  0.184-
  39  0.250  0.750  0.184-
  40  0.000  0.750  0.559-
  41  0.250  1.000  0.559-
  42  0.000  1.000  0.432-
  43  0.250  0.750  0.432-
  44  0.000  0.250  0.308-
  45  0.250  0.500  0.308-
  46  0.000  0.500  0.184-
  47  0.250  0.250  0.184-
  48  0.000  0.250  0.559-
  49  0.249  0.500  0.559-
  50  0.000  0.500  0.432-
  51  0.250  0.250  0.432-
  52  0.500  0.750  0.308-
  53  0.750  0.000  0.308-
  54  0.500  0.000  0.184-
  55  0.750  0.750  0.184-
  56  0.500  0.751  0.560-
  57  0.750  1.000  0.559-
  58  0.500  1.000  0.432-
  59  0.750  0.750  0.432-
  60  0.500  0.250  0.308-
  61  0.750  0.500  0.308-
  62  0.500  0.500  0.184-
  63  0.750  0.250  0.184-
  64  0.500  0.249  0.559-
  65  0.751  0.500  0.559-
  66  0.500  0.500  0.433-
  67  0.750  0.250  0.432-

IMPORTANT INFORMATION: All symmetrisations will be switched off!
NOSYMM: (Re-)initialisation of all symmetry stuff for point group C_1.

                                     Primitive cell

  volume of cell :    1211.2538

  direct lattice vectors                    reciprocal lattice vectors
     8.440984654  0.000000000  0.000000000     0.118469591  0.000000000  0.000000000
     0.000000000  8.440984654  0.000000000     0.000000000  0.118469591  0.000000000
     0.000000000  0.000000000 17.000000000     0.000000000  0.000000000  0.058823529

  length of vectors
     8.440984654  8.440984654 17.000000000     0.118469591  0.118469591  0.058823529

  position of ions in fractional coordinates (direct lattice)
     0.493401810  0.519418636  0.703797525
     0.471142627  0.594219820  0.758820503
     0.447551698  0.673306372  0.816300477
     0.000003678  0.750014635  0.183699523
     0.250003678  0.000014635  0.183699523
     0.000003678  0.000014635  0.307831651
     0.250003678  0.750014635  0.307831651
     0.999958025  0.749958546  0.432677010
     0.250062895  0.000098256  0.432697074
     0.999978292  0.000093413  0.556574763
     0.249803788  0.750119214  0.556064616
     0.000003678  0.250014635  0.183699523
     0.250003678  0.500014635  0.183699523
     0.000003678  0.500014635  0.307831651
     0.250003678  0.250014635  0.307831651
     0.999996322  0.250085902  0.432737287
     0.250470277  0.499951058  0.432993793
     0.999914270  0.499958742  0.556347633
     0.250074935  0.249987426  0.556432786
     0.500003678  0.750014635  0.183699523
     0.750003678  0.000014635  0.183699523
     0.500003678  0.000014635  0.307831651
     0.750003678  0.750014635  0.307831651
     0.500022849  0.749528416  0.433004734
     0.749934873  0.000060439  0.432720256
     0.500004313  0.000298773  0.556352798
     0.750109261  0.749994940  0.556245449
     0.500003678  0.250014635  0.183699523
     0.750003678  0.500014635  0.183699523
     0.500003678  0.500014635  0.307831651
     0.750003678  0.250014635  0.307831651
     0.500018596  0.250408803  0.433022603
     0.749557443  0.499957022  0.433006493
     0.500185527  0.499326999  0.559321507
     0.749946987  0.250008855  0.556456309
     0.000003678  0.750014635  0.307831651
     0.250003678  0.000014635  0.307831651
     0.000003678  0.000014635  0.183699523
     0.250003678  0.750014635  0.183699523
     0.000015879  0.750145562  0.559430108
     0.249854125  0.999935043  0.559420358
     0.000005749  0.999985365  0.432483484
     0.249992579  0.750062832  0.432464910
     0.000003678  0.250014635  0.307831651
     0.250003678  0.500014635  0.307831651
     0.000003678  0.500014635  0.183699523
     0.250003678  0.250014635  0.183699523
     0.000025477  0.249903447  0.559432479
     0.249186912  0.500166699  0.559369032
     0.000048645  0.500056722  0.432413803
     0.249905202  0.249983746  0.432457768
     0.500003678  0.750014635  0.307831651
     0.750003678  0.000014635  0.307831651
     0.500003678  0.000014635  0.183699523
     0.750003678  0.750014635  0.183699523
     0.499913895  0.750860290  0.559719056
     0.750130870  0.999925050  0.559443888
     0.499992191  0.999840315  0.432416954
     0.749991554  0.750078916  0.432481166
     0.500003678  0.250014635  0.307831651
     0.750003678  0.500014635  0.307831651
     0.500003678  0.500014635  0.183699523
     0.750003678  0.250014635  0.183699523
     0.499988921  0.249108426  0.558920468
     0.750816707  0.500096856  0.559158266
     0.499978415  0.500099316  0.432940757
     0.750108091  0.249940033  0.432443649

  ion indices of the primitive-cell ions
   primitive index   ion index
                 1           1
                 2           2
                 3           3
                 4           4
                 5           5
                 6           6
                 7           7
                 8           8
                 9           9
                10          10
                11          11
                12          12
                13          13
                14          14
                15          15
                16          16
                17          17
                18          18
                19          19
                20          20
                21          21
                22          22
                23          23
                24          24
                25          25
                26          26
                27          27
                28          28
                29          29
                30          30
                31          31
                32          32
                33          33
                34          34
                35          35
                36          36
                37          37
                38          38
                39          39
                40          40
                41          41
                42          42
                43          43
                44          44
                45          45
                46          46
                47          47
                48          48
                49          49
                50          50
                51          51
                52          52
                53          53
                54          54
                55          55
                56          56
                57          57
                58          58
                59          59
                60          60
                61          61
                62          62
                63          63
                64          64
                65          65
                66          66
                67          67

 KPOINTS: pymatgen v2020.8.13 with grid density =

Automatic generation of k-mesh.
 Grid dimensions read from file:
 generate k-points for:    2    2    1

 Generating k-lattice:

  Cartesian coordinates                     Fractional coordinates (reciprocal lattice)
     0.059234796  0.000000000  0.000000000     0.500000000  0.000000000  0.000000000
[...]
  Alpha Z  1248.51953  1248.51953  1248.51953
  Ewald  103448.62330103696.65511************   -76.23410   384.92255  -115.18933
  Hartree120682.12920120802.41586************   -34.33905   176.34641   -53.09956
  E(xc)   -3299.64168 -3298.97845 -3304.04840    -0.21683     1.06940    -0.31878
  Local  ************************232688.79916   102.78908  -523.13101   156.95537
  n-local -5638.59360 -5636.05475 -5633.21231    -0.83780     4.02505    -1.19970
  augment   724.41914   724.20808   714.72630     0.06979    -0.32413     0.09571
  Kinetic 12934.13123 12906.87371 12887.93664     8.96244   -43.95355    13.08161
  Fock        0.00000     0.00000     0.00000     0.00000     0.00000     0.00000
  Total     -15.57110   -16.20639     6.31295     0.19353    -1.04527     0.32533
  in kB     -20.59656   -21.43689     8.35040     0.25599    -1.38262     0.43032

 VOLUME and BASIS-vectors are now :
  energy-cutoff  :     1000.00
  volume of cell :     1211.25
      direct lattice vectors                 reciprocal lattice vectors
     8.440984654  0.000000000  0.000000000     0.118469591  0.000000000  0.000000000
     0.000000000  8.440984654  0.000000000     0.000000000  0.118469591  0.000000000
     0.000000000  0.000000000 17.000000000     0.000000000  0.000000000  0.058823529

  length of vectors
     8.440984654  8.440984654 17.000000000     0.118469591  0.118469591  0.058823529

 FORCES acting on ions
    electron-ion (+dipol)            ewald-force                    non-local-force                 convergence-correction
   -.481E+02 0.161E+03 -.838E+03   0.561E+02 -.188E+03 0.799E+03   -.812E+01 0.273E+02 0.399E+02   -.300E-03 0.102E-02 -.929E-03
   -.331E+01 0.109E+02 -.712E+03   0.422E+01 -.138E+02 0.707E+03   -.915E+00 0.297E+01 0.502E+01   -.510E-03 0.171E-02 0.932E-03
   0.501E+02 -.168E+03 -.683E+03   -.612E+02 0.205E+03 0.737E+03   0.113E+02 -.378E+02 -.552E+02   -.103E-04 0.243E-04 -.917E-03
   0.719E+00 -.135E+01 0.242E+04   -.715E+00 0.135E+01 -.241E+04   -.278E-02 -.635E-03 -.916E+01   -.193E-04 0.911E-04 -.118E-02
   0.218E+01 -.185E+01 0.242E+04   -.218E+01 0.184E+01 -.241E+04   -.438E-02 0.608E-02 -.916E+01   -.160E-03 0.118E-03 -.119E-02
   0.310E+00 -.822E+00 0.828E+03   -.314E+00 0.833E+00 -.828E+03   0.306E-02 -.879E-02 0.669E+00   -.164E-04 -.319E-04 -.324E-02
   0.134E+01 -.946E+00 0.829E+03   -.131E+01 0.921E+00 -.830E+03   -.266E-01 0.194E-01 0.686E+00   -.169E-04 -.182E-04 -.294E-02
   0.104E+01 -.438E+01 -.756E+03   -.105E+01 0.434E+01 0.756E+03   0.141E-01 0.347E-01 -.221E+00   0.100E-04 -.121E-03 -.358E-02
   0.530E+01 -.263E+01 -.756E+03   -.527E+01 0.266E+01 0.756E+03   -.338E-01 -.344E-01 -.238E+00   0.100E-03 -.184E-04 -.353E-02
   0.277E+01 -.698E+01 -.235E+04   -.278E+01 0.701E+01 0.234E+04   0.627E-02 -.303E-01 0.774E+01   -.120E-04 0.435E-04 -.248E-02
   0.375E+02 -.300E+02 -.230E+04   -.376E+02 0.301E+02 0.229E+04   0.116E+00 -.623E-01 0.783E+01   -.946E-04 0.144E-03 -.271E-02
   0.531E+00 0.133E+01 0.242E+04   -.530E+00 -.133E+01 -.241E+04   -.123E-02 0.671E-03 -.917E+01   -.323E-04 -.421E-04 -.141E-02
   0.268E+01 0.188E+01 0.242E+04   -.267E+01 -.187E+01 -.241E+04   -.688E-02 -.606E-02 -.918E+01   -.184E-03 -.153E-03 -.102E-02
   0.348E+00 0.824E+00 0.829E+03   -.345E+00 -.835E+00 -.829E+03   -.184E-02 0.842E-02 0.603E+00   0.639E-05 -.268E-04 -.305E-02
   0.117E+01 0.934E+00 0.829E+03   -.116E+01 -.907E+00 -.830E+03   -.121E-01 -.203E-01 0.652E+00   0.160E-05 0.446E-04 -.305E-02
   0.732E+00 0.434E+01 -.760E+03   -.739E+00 -.431E+01 0.760E+03   0.603E-02 -.329E-01 -.259E+00   -.215E-04 0.160E-03 -.359E-02
   0.741E+01 0.274E+01 -.746E+03   -.725E+01 -.278E+01 0.747E+03   -.165E+00 0.324E-01 -.433E+00   0.121E-03 0.525E-04 -.348E-02
   0.435E+01 0.749E+01 -.233E+04   -.440E+01 -.751E+01 0.232E+04   0.504E-01 0.295E-01 0.775E+01   -.937E-04 -.659E-04 -.317E-02
   0.278E+02 0.276E+02 -.233E+04   -.278E+02 -.276E+02 0.232E+04   -.188E-01 0.597E-01 0.781E+01   0.982E-05 -.201E-03 -.265E-02
   -.748E+00 -.186E+01 0.241E+04   0.744E+00 0.185E+01 -.240E+04   0.291E-02 0.200E-02 -.918E+01   0.510E-04 0.111E-03 -.869E-03
   -.217E+01 -.166E+01 0.242E+04   0.216E+01 0.165E+01 -.241E+04   0.443E-02 0.455E-02 -.917E+01   0.138E-03 0.105E-03 -.121E-02
   -.313E+00 -.981E+00 0.829E+03   0.316E+00 0.970E+00 -.829E+03   -.267E-02 0.825E-02 0.609E+00   0.317E-04 0.842E-05 -.301E-02
   -.134E+01 -.904E+00 0.829E+03   0.130E+01 0.883E+00 -.830E+03   0.278E-01 0.158E-01 0.681E+00   -.568E-05 0.111E-04 -.301E-02
   -.110E+01 -.644E+01 -.744E+03   0.111E+01 0.628E+01 0.745E+03   -.129E-01 0.157E+00 -.280E+00   -.170E-04 -.204E-03 -.348E-02
   -.528E+01 -.232E+01 -.758E+03   0.525E+01 0.235E+01 0.758E+03   0.334E-01 -.257E-01 -.244E+00   -.938E-04 0.153E-04 -.353E-02
   -.310E+01 -.140E+02 -.232E+04   0.311E+01 0.142E+02 0.232E+04   -.563E-02 -.177E+00 0.775E+01   0.459E-05 0.291E-03 -.325E-02
   -.361E+02 -.274E+02 -.231E+04   0.362E+02 0.275E+02 0.230E+04   -.110E+00 -.179E-01 0.781E+01   0.114E-03 0.591E-04 -.271E-02
   -.541E+00 0.181E+01 0.242E+04   0.540E+00 -.181E+01 -.241E+04   0.125E-02 -.156E-02 -.918E+01   0.531E-04 -.893E-04 -.115E-02
   -.265E+01 0.168E+01 0.242E+04   0.264E+01 -.167E+01 -.241E+04   0.680E-02 -.440E-02 -.918E+01   0.173E-03 -.168E-03 -.110E-02
   -.353E+00 0.993E+00 0.829E+03   0.352E+00 -.988E+00 -.830E+03   0.888E-03 -.397E-02 0.726E+00   0.395E-05 0.725E-06 -.310E-02
   -.117E+01 0.896E+00 0.829E+03   0.116E+01 -.876E+00 -.830E+03   0.120E-01 -.154E-01 0.639E+00   0.833E-05 0.203E-04 -.303E-02
   -.762E+00 0.636E+01 -.748E+03   0.769E+00 -.620E+01 0.748E+03   -.577E-02 -.158E+00 -.678E+00   -.586E-05 0.931E-04 -.355E-02
   -.737E+01 0.242E+01 -.747E+03   0.721E+01 -.244E+01 0.748E+03   0.165E+00 0.249E-01 -.546E+00   -.903E-04 0.383E-04 -.340E-02
   -.725E+01 0.222E+02 -.221E+04   0.730E+01 -.224E+02 0.220E+04   -.540E-01 0.202E+00 0.667E+01   0.150E-04 0.314E-04 -.420E-02
   -.273E+02 0.255E+02 -.233E+04   0.273E+02 -.256E+02 0.232E+04   0.185E-01 0.212E-01 0.780E+01   0.179E-04 -.171E-03 -.277E-02
   0.197E+00 -.589E+00 0.497E+03   -.195E+00 0.574E+00 -.496E+03   -.233E-02 0.209E-01 -.729E-01   -.182E-05 -.443E-05 -.630E-03
   0.795E+00 -.506E+00 0.496E+03   -.779E+00 0.507E+00 -.496E+03   -.208E-01 -.219E-03 -.837E-01   0.103E-06 -.961E-05 -.641E-03
   0.339E+00 -.874E+00 0.147E+04   -.338E+00 0.872E+00 -.147E+04   -.130E-02 0.216E-02 0.260E+01   -.273E-04 0.425E-04 -.120E-02
   0.165E+01 -.995E+00 0.146E+04   -.164E+01 0.992E+00 -.147E+04   -.118E-01 0.392E-02 0.261E+01   -.142E-03 0.731E-04 -.942E-03
   0.297E+01 -.907E+01 -.143E+04   -.298E+01 0.903E+01 0.144E+04   0.109E-01 0.463E-01 -.465E+01   0.126E-04 -.439E-04 -.213E-02
   0.116E+02 -.745E+01 -.143E+04   -.115E+02 0.747E+01 0.144E+04   -.523E-01 -.195E-01 -.465E+01   0.804E-04 -.197E-04 -.209E-02
   0.486E+00 -.130E+01 -.452E+03   -.488E+00 0.131E+01 0.452E+03   0.250E-02 -.148E-01 0.234E+00   -.492E-06 -.393E-05 -.122E-02
   0.399E+01 -.329E+01 -.442E+03   -.398E+01 0.328E+01 0.441E+03   -.865E-02 0.172E-01 0.387E+00   0.852E-04 -.103E-03 -.118E-02
   0.168E+00 0.589E+00 0.496E+03   -.170E+00 -.576E+00 -.496E+03   0.220E-02 -.158E-01 -.106E+00   -.476E-05 0.307E-04 -.617E-03
   0.947E+00 0.515E+00 0.496E+03   -.969E+00 -.518E+00 -.496E+03   0.274E-01 0.449E-02 -.139E+00   0.195E-04 -.100E-04 -.560E-03
   0.410E+00 0.882E+00 0.147E+04   -.408E+00 -.880E+00 -.147E+04   -.248E-02 -.253E-02 0.258E+01   -.209E-04 -.608E-04 -.114E-02
   0.127E+01 0.975E+00 0.147E+04   -.126E+01 -.972E+00 -.147E+04   -.636E-02 -.405E-02 0.258E+01   -.802E-04 -.590E-04 -.111E-02
   0.172E+01 0.875E+01 -.144E+04   -.173E+01 -.870E+01 0.145E+04   0.131E-02 -.515E-01 -.464E+01   -.299E-05 0.566E-04 -.209E-02
   0.320E+02 0.907E+01 -.140E+04   -.318E+02 -.908E+01 0.140E+04   -.253E+00 0.797E-02 -.467E+01   0.627E-03 0.597E-04 -.210E-02
   0.550E+00 0.131E+01 -.446E+03   -.557E+00 -.132E+01 0.445E+03   0.690E-02 0.906E-02 0.283E+00   -.239E-05 0.288E-05 -.116E-02
   0.358E+01 0.322E+01 -.446E+03   -.355E+01 -.320E+01 0.445E+03   -.328E-01 -.214E-01 0.288E+00   0.876E-04 0.756E-04 -.111E-02
   -.204E+00 -.744E+00 0.497E+03   0.204E+00 0.770E+00 -.496E+03   -.531E-03 -.309E-01 -.141E+00   0.106E-04 -.201E-04 -.536E-03
   -.795E+00 -.477E+00 0.496E+03   0.780E+00 0.481E+00 -.496E+03   0.199E-01 -.467E-02 -.942E-01   -.510E-05 -.207E-04 -.679E-03
   -.347E+00 -.124E+01 0.146E+04   0.346E+00 0.123E+01 -.147E+04   0.123E-02 0.699E-02 0.259E+01   0.365E-04 0.961E-04 -.104E-02
   -.163E+01 -.918E+00 0.146E+04   0.162E+01 0.916E+00 -.147E+04   0.114E-01 0.244E-02 0.260E+01   0.135E-03 0.864E-04 -.100E-02
   -.392E+01 -.309E+02 -.138E+04   0.392E+01 0.306E+02 0.139E+04   -.417E-02 0.297E+00 -.462E+01   -.374E-04 -.716E-03 -.200E-02
   -.114E+02 -.615E+01 -.144E+04   0.113E+02 0.616E+01 0.144E+04   0.530E-01 -.109E-01 -.464E+01   -.728E-04 0.258E-04 -.210E-02
   -.500E+00 -.161E+01 -.445E+03   0.502E+00 0.164E+01 0.444E+03   -.241E-02 -.275E-01 0.284E+00   -.122E-04 0.284E-05 -.116E-02
   -.395E+01 -.320E+01 -.444E+03   0.394E+01 0.318E+01 0.443E+03   0.966E-02 0.243E-01 0.345E+00   -.889E-04 -.111E-03 -.119E-02
   -.168E+00 0.725E+00 0.496E+03   0.169E+00 -.743E+00 -.496E+03   -.171E-02 0.248E-01 -.139E+00   0.101E-04 0.263E-04 -.593E-03
   -.941E+00 0.479E+00 0.496E+03   0.962E+00 -.483E+00 -.496E+03   -.251E-01 0.579E-02 -.139E+00   -.162E-04 -.382E-05 -.592E-03
   -.425E+00 0.127E+01 0.146E+04   0.423E+00 -.126E+01 -.147E+04   0.270E-02 -.827E-02 0.258E+01   0.354E-04 -.102E-03 -.827E-03
   -.126E+01 0.904E+00 0.147E+04   0.126E+01 -.902E+00 -.147E+04   0.619E-02 -.287E-02 0.258E+01   0.827E-04 -.626E-04 -.121E-02
   -.208E+01 0.268E+02 -.141E+04   0.208E+01 -.266E+02 0.141E+04   -.191E-02 -.203E+00 -.471E+01   -.318E-05 0.481E-03 -.213E-02
   -.305E+02 0.736E+01 -.140E+04   0.303E+02 -.737E+01 0.141E+04   0.226E+00 0.959E-02 -.469E+01   -.575E-03 0.375E-04 -.215E-02
   -.590E+00 0.170E+01 -.444E+03   0.598E+00 -.173E+01 0.444E+03   -.878E-02 0.335E-01 -.265E+00   -.249E-05 0.465E-04 -.791E-03
   -.356E+01 0.314E+01 -.446E+03   0.353E+01 -.311E+01 0.446E+03   0.320E-01 -.269E-01 0.277E+00   -.661E-04 0.864E-04 -.110E-02
   -.220E+01 0.740E+01 0.359E+02   0.618E-12 -.142E-13 -.375E-11   0.222E+01 -.745E+01 -.358E+02   -.765E-03 0.275E-02 -.126E+00

 POSITION                                       TOTAL-FORCE (eV/Angst)
      4.16480      4.38440     11.96456        -0.149569      0.505939      0.927505
      3.97691      5.01580     12.89995        -0.011566      0.018513      0.042327
      3.77778      5.68337     13.87711         0.175704     -0.572127     -0.834208
      0.00003      6.33086      3.12289         0.000570      0.000855      0.319035
      2.11028      0.00012      3.12289         0.001121     -0.000888      0.318824
      0.00003      0.00012      5.23314        -0.001137      0.003527      0.035294
      2.11028      6.33086      5.23314         0.007846     -0.005274      0.038343
      8.44063      6.33039      7.35551        -0.000348     -0.001342      0.063706
      2.11078      0.00083      7.35585         0.001679      0.001147      0.060534
      8.44080      0.00079      9.46177        -0.000195     -0.001992      0.030889
      2.10859      6.33174      9.45310        -0.009998      0.007527      0.020495
      0.00003      2.11037      3.12289         0.000126      0.000655      0.323410
      2.11028      4.22062      3.12289         0.001616      0.002611      0.323085
      0.00003      4.22062      5.23314         0.000216     -0.001662      0.049656
      2.11028      2.11037      5.23314         0.004349      0.007501      0.042592
      8.44095      2.11097      7.35653        -0.000879      0.002564      0.057693
      2.11422      4.22008      7.36089         0.000105     -0.001575      0.052635
      8.44026      4.22014      9.45791         0.000997      0.000953      0.030619
      2.11088      2.11014      9.45936        -0.005078     -0.006251      0.024980
      4.22052      6.33086      3.12289        -0.001079      0.000294      0.319333
      6.33077      0.00012      3.12289        -0.001577     -0.000449      0.320605
      4.22052      0.00012      5.23314         0.000568     -0.001190      0.048885
      6.33077      6.33086      5.23314        -0.008750     -0.004473      0.040016
      4.22069      6.32676      7.36108         0.000452      0.000222      0.051298
      6.33019      0.00051      7.35624        -0.002333      0.001991      0.058901
      4.22053      0.00252      9.45800         0.000076      0.000159      0.031773
      6.33166      6.33070      9.45617         0.010145      0.006577      0.016460
      4.22052      2.11037      3.12289        -0.000578      0.001020      0.325058
      6.33077      4.22062      3.12289        -0.002013      0.002104      0.324936
      4.22052      4.22062      5.23314        -0.000231      0.001143      0.059541
      6.33077      2.11037      5.23314        -0.004682      0.006149      0.044059
      4.22065      2.11370      7.36138         0.000121      0.001088      0.053536
      6.32700      4.22013      7.36111        -0.000558     -0.001427      0.053443
      4.22206      4.21481      9.50847         0.000440      0.000366      0.014434
      6.33029      2.11032      9.45976         0.004378     -0.004388      0.026736
      0.00003      6.33086      5.23314        -0.000684      0.006996      0.050514
      2.11028      0.00012      5.23314        -0.005093      0.000919      0.049191
      0.00003      0.00012      3.12289        -0.000564      0.001059     -0.559306
      2.11028      6.33086      3.12289        -0.002943      0.001399     -0.554718
      0.00013      6.33197      9.51031        -0.000524      0.003739      0.047862
      2.10901      8.44044      9.51015        -0.003612      0.001433      0.044878
      0.00005      8.44086      7.35222         0.000055     -0.002959      0.001443
      2.11018      6.33127      7.35190        -0.001432      0.001834     -0.001208
      0.00003      2.11037      5.23314         0.000255     -0.001530      0.046471
      2.11028      4.22062      5.23314         0.004943      0.002558      0.055566
      0.00003      4.22062      3.12289        -0.000828      0.000035     -0.562129
      2.11028      2.11037      3.12289        -0.001754     -0.000447     -0.559401
      0.00022      2.10943      9.51035        -0.000400     -0.003372      0.048261
      2.10338      4.22190      9.50927        -0.011068     -0.002275      0.034960
      0.00041      4.22097      7.35103         0.000146      0.001115     -0.001991
      2.10945      2.11011      7.35178        -0.002241     -0.001490      0.000596
      4.22052      6.33086      5.23314        -0.000473     -0.003848      0.055528
      6.33077      0.00012      5.23314         0.004337     -0.000003      0.048187
      4.22052      0.00012      3.12289        -0.000016      0.002123     -0.559477
      6.33077      6.33086      3.12289         0.002245      0.001067     -0.556818
      4.21977      6.33800      9.51522         0.000757      0.014132      0.028400
      6.33184      8.44035      9.51055         0.003073      0.001285      0.048110
      4.22043      8.43964      7.35109        -0.000483     -0.000959     -0.002245
      6.33067      6.33140      7.35218         0.001209      0.002208     -0.001247
      4.22052      2.11037      5.23314        -0.000739      0.006977      0.057596
      6.33077      4.22062      5.23314        -0.005036      0.002845      0.056380
      4.22052      4.22062      3.12289         0.000312     -0.001235     -0.563207
      6.33077      2.11037      3.12289         0.001110     -0.000188     -0.560403
      4.22040      2.10272      9.50165        -0.000130     -0.007840      0.046081
      6.33763      4.22131      9.50569         0.009107      0.001501      0.043354
      4.22031      4.22133      7.35999        -0.000864      0.004346      0.001065
      6.33165      2.10974      7.35154         0.001396     -0.001292      0.001276
    total drift:                                0.016470     -0.048108     -0.021928

  FREE ENERGIE OF THE ION-ELECTRON SYSTEM (eV)
  free  energy   TOTEN  =      -394.31969936 eV

  energy  without entropy=     -394.31969936  energy(sigma->0) =     -394.31969936

     |            E. Caldeweyher, S. Ehlert & S. Grimme          |
     |          Mulliken Center for Theoretical Chemistry        |
     |                    University of Bonn                     |

Rational (Becke-Johnson) damping: hse06-D4-ATM
  s6         1.0000
  s8         1.1953
  s9         1.0000
  a1         0.3866
  a2         5.1913
 alp        16.0000

Dispersion energy:      -2.7380864639868E-01 Eh