 vasp.6.4.2 20Jul23 (build Feb 22 2024 13:53:45) complex
 executed on              LinuxNV date 2024.08.27  22:10:01
 OpenACC runtime initialized ...    4 GPUs detected

 INCAR:
   SYSTEM = Oxide-Surface
   ISMEAR = 0
   SIGMA = 0.05
   EDIFF = 1E-5
   ALGO = Normal
   IBRION = -1
   NSW = 0
   ISYM = 0
   DIPOL = 0.5 0.5 0.5
   IDIPOL = 3
   LDIPOL = .TRUE.
   ISTART = 0
   LHFCALC = .FALSE.
   GGA = PE
   HFRCUT = -1
   ENCUT = 520
   PREC = Normal
   PRECFOCK = Normal
   LASPH = .TRUE.
   LREAL = Auto
   ISPIN = 1
   NELM = 200
   NELMIN = 8
   NCORE = 1
   KPAR = 1
   LWAVE = .TRUE.
   LCHARG = .FALSE.

 POTCAR:    PAW_PBE N 08Apr2002
 POTCAR:    PAW_PBE O 08Apr2002
 POTCAR:    PAW_PBE Mg_pv 13Apr2007
 POTCAR:    PAW_PBE O 08Apr2002
 POTCAR:    PAW_PBE N 08Apr2002
   VRHFIN =N: s2p3

   TITEL  = PAW_PBE N 08Apr2002
   POMASS =   14.001; ZVAL   =    5.000    mass and valenz
   ENMAX  =  400.000; ENMIN  =  300.000 eV

[...]

   TITEL  = PAW_PBE Mg_pv 13Apr2007
   POMASS =   24.305; ZVAL   =    8.000    mass and valenz
   ENMAX  =  403.929; ENMIN  =  302.947 eV

   TITEL  = PAW_PBE O 08Apr2002
   POMASS =   16.000; ZVAL   =    6.000    mass and valenz
   ENMAX  =  400.000; ENMIN  =  300.000 eV

 Optimization of the real space projectors (new method)

 maximal supplied QI-value         = 25.13
 optimisation between [QCUT,QGAM] = [ 11.56, 23.12] = [ 37.43,149.72] Ry
 Optimized for a Real-space Cutoff    1.25 Angstroem

   l    n(q)    QCUT    max X(q) W(low)/X(q) W(high)/X(q)  e(spline)
   0      9    11.561    79.467    0.52E-04    0.16E-03    0.37E-06
   0      9    11.561    66.151    0.51E-04    0.16E-03    0.37E-06
   1      8    11.561    18.886    0.46E-03    0.28E-03    0.80E-06
   1      8    11.561    13.488    0.47E-03    0.29E-03    0.82E-06
 Optimization of the real space projectors (new method)

[...]

   l    n(q)    QCUT    max X(q) W(low)/X(q) W(high)/X(q)  e(spline)
   1      8    11.527     2.974    0.16E-03    0.13E-03    0.98E-07
   1      8    11.527     4.279    0.42E-03    0.30E-03    0.22E-06
   0      8    11.527    16.381    0.13E-03    0.20E-03    0.72E-07
   0      8    11.527     5.611    0.88E-04    0.13E-03    0.50E-07
   2      7    11.527     4.652    0.25E-03    0.73E-04    0.51E-07
 Optimization of the real space projectors (new method)

 maximal supplied QI-value         = 24.76
 optimisation between [QCUT,QGAM] = [ 11.64, 23.27] = [ 37.91,151.63] Ry
 Optimized for a Real-space Cutoff    1.04 Angstroem

   l    n(q)    QCUT    max X(q) W(low)/X(q) W(high)/X(q)  e(spline)
   0      7    11.635    20.381    0.14E-03    0.49E-03    0.18E-06
   0      7    11.635    15.268    0.16E-03    0.52E-03    0.19E-06
   1      7    11.635     5.964    0.30E-03    0.44E-03    0.22E-06
   1      7    11.635     5.382    0.27E-03    0.34E-03    0.19E-06
  PAW_PBE N 08Apr2002                   :
  PAW_PBE O 08Apr2002                   :
  PAW_PBE Mg_pv 13Apr2007               :
  PAW_PBE O 08Apr2002                   :

 POSCAR:  N  O Mg  O
  positions in direct lattice
 exchange correlation table for  LEXCH =        8
   RHO(1)=    0.500       N(1)  =     2000
   RHO(2)=  100.500       N(2)  =     4000

 ion  position               nearest neighbor table
   1  0.493  0.519  0.704-   2 1.14
   2  0.471  0.594  0.759-   1 1.14   3 1.20
   3  0.448  0.673  0.816-   2 1.20
   4  0.000  0.750  0.184-  36 2.11  38 2.11  39 2.11  46 2.11  55 2.11
   5  0.250  0.000  0.184-  37 2.11  38 2.11  39 2.11  47 2.11  54 2.11
   6  0.000  0.000  0.308-  38 2.11  37 2.11  36 2.11  44 2.11  53 2.11  42 2.12
   7  0.250  0.750  0.308-  39 2.11  37 2.11  36 2.11  45 2.11  52 2.11  43 2.12
   8  1.000  0.750  0.433-  50 2.11  59 2.11  42 2.11  43 2.11  36 2.12  40 2.15
   9  0.250  0.000  0.433-  51 2.11  58 2.11  43 2.11  42 2.11  37 2.12  41 2.15
  10  1.000  0.000  0.557-  48 2.11  57 2.11  42 2.11  41 2.11  40 2.11
  11  0.250  0.750  0.556-  43 2.10  40 2.11  41 2.11  49 2.11  56 2.11
  12  0.000  0.250  0.184-  44 2.11  38 2.11  46 2.11  47 2.11  63 2.11
  13  0.250  0.500  0.184-  45 2.11  39 2.11  46 2.11  47 2.11  62 2.11
  14  0.000  0.500  0.308-  46 2.11  44 2.11  45 2.11  36 2.11  61 2.11  50 2.12
  15  0.250  0.250  0.308-  47 2.11  44 2.11  45 2.11  37 2.11  60 2.11  51 2.12
  16  1.000  0.250  0.433-  67 2.11  51 2.11  50 2.11  42 2.11  44 2.12  48 2.15
  17  0.250  0.500  0.433-  66 2.11  51 2.11  43 2.11  50 2.11  45 2.13  49 2.15
  18  1.000  0.500  0.556-  65 2.10  49 2.10  50 2.11  48 2.11  40 2.11
  19  0.250  0.250  0.556-  51 2.11  64 2.11  48 2.11  41 2.11  49 2.11
  20  0.500  0.750  0.184-  52 2.11  39 2.11  54 2.11  55 2.11  62 2.11
  21  0.750  0.000  0.184-  53 2.11  38 2.11  54 2.11  55 2.11  63 2.11
  22  0.500  0.000  0.308-  54 2.11  52 2.11  53 2.11  37 2.11  60 2.11  58 2.12
  23  0.750  0.750  0.308-  55 2.11  52 2.11  53 2.11  36 2.11  61 2.11  59 2.12
  24  0.500  0.750  0.433-  66 2.11  59 2.11  43 2.11  58 2.11  52 2.13  56 2.15
  25  0.750  0.000  0.433-  67 2.11  58 2.11  59 2.11  42 2.11  53 2.12  57 2.15
  26  0.500  0.000  0.556-  64 2.10  56 2.11  58 2.11  57 2.11  41 2.11
  27  0.750  0.750  0.556-  59 2.10  65 2.11  40 2.11  57 2.11  56 2.11
  28  0.500  0.250  0.184-  60 2.11  54 2.11  47 2.11  62 2.11  63 2.11
  29  0.750  0.500  0.184-  61 2.11  55 2.11  46 2.11  62 2.11  63 2.11
  30  0.500  0.500  0.308-  62 2.11  52 2.11  60 2.11  61 2.11  45 2.11  66 2.13
  31  0.750  0.250  0.308-  63 2.11  53 2.11  60 2.11  61 2.11  44 2.11  67 2.12
  32  0.500  0.250  0.433-  66 2.11  67 2.11  51 2.11  58 2.12  60 2.13  64 2.14
  33  0.750  0.500  0.433-  66 2.11  67 2.11  59 2.11  50 2.11  61 2.13  65 2.14
  34  0.500  0.499  0.559-  64 2.11  65 2.12  49 2.12  56 2.12  66 2.15
  35  0.750  0.250  0.556-  67 2.11  64 2.11  65 2.11  48 2.11  57 2.11
  36  0.000  0.750  0.308-   4 2.11   6 2.11   7 2.11  14 2.11  23 2.11   8 2.12
  37  0.250  0.000  0.308-   5 2.11   6 2.11   7 2.11  15 2.11  22 2.11   9 2.12
  38  0.000  0.000  0.184-   6 2.11   5 2.11   4 2.11  12 2.11  21 2.11
  39  0.250  0.750  0.184-   7 2.11   5 2.11   4 2.11  13 2.11  20 2.11
  40  0.000  0.750  0.559-  11 2.11  27 2.11  10 2.11  18 2.11   8 2.15
  41  0.250  1.000  0.559-  11 2.11  10 2.11  19 2.11  26 2.11   9 2.15
  42  0.000  1.000  0.432-  10 2.11   8 2.11   9 2.11  25 2.11  16 2.11   6 2.12
  43  0.250  0.750  0.432-  11 2.10  24 2.11   8 2.11   9 2.11  17 2.11   7 2.12
  44  0.000  0.250  0.308-  12 2.11   6 2.11  14 2.11  15 2.11  31 2.11  16 2.12
  45  0.250  0.500  0.308-  13 2.11   7 2.11  14 2.11  15 2.11  30 2.11  17 2.13
  46  0.000  0.500  0.184-  14 2.11  12 2.11  13 2.11   4 2.11  29 2.11
  47  0.250  0.250  0.184-  15 2.11  12 2.11  13 2.11   5 2.11  28 2.11
  48  0.000  0.250  0.559-  10 2.11  19 2.11  18 2.11  35 2.11  16 2.15
  49  0.249  0.500  0.559-  18 2.10  11 2.11  19 2.11  34 2.12  17 2.15
  50  0.000  0.500  0.432-  18 2.11   8 2.11  16 2.11  17 2.11  33 2.11  14 2.12
  51  0.250  0.250  0.432-  19 2.11   9 2.11  16 2.11  17 2.11  32 2.11  15 2.12
  52  0.500  0.750  0.308-  20 2.11   7 2.11  22 2.11  23 2.11  30 2.11  24 2.13
  53  0.750  0.000  0.308-  21 2.11   6 2.11  22 2.11  23 2.11  31 2.11  25 2.12
  54  0.500  0.000  0.184-  22 2.11  20 2.11  21 2.11   5 2.11  28 2.11
  55  0.750  0.750  0.184-  23 2.11  20 2.11  21 2.11   4 2.11  29 2.11
  56  0.500  0.751  0.560-  26 2.11  11 2.11  27 2.11  34 2.12  24 2.15
  57  0.750  1.000  0.559-  10 2.11  27 2.11  35 2.11  26 2.11  25 2.15
  58  0.500  1.000  0.432-  26 2.11   9 2.11  25 2.11  24 2.11  32 2.12  22 2.12
  59  0.750  0.750  0.432-  27 2.10   8 2.11  24 2.11  25 2.11  33 2.11  23 2.12
  60  0.500  0.250  0.308-  28 2.11  22 2.11  15 2.11  30 2.11  31 2.11  32 2.13
  61  0.750  0.500  0.308-  29 2.11  23 2.11  14 2.11  30 2.11  31 2.11  33 2.13
  62  0.500  0.500  0.184-  30 2.11  20 2.11  28 2.11  29 2.11  13 2.11
  63  0.750  0.250  0.184-  31 2.11  21 2.11  28 2.11  29 2.11  12 2.11
  64  0.500  0.249  0.559-  26 2.10  19 2.11  35 2.11  34 2.11  32 2.14
  65  0.751  0.500  0.559-  18 2.10  27 2.11  35 2.11  34 2.12  33 2.14
  66  0.500  0.500  0.433-  24 2.11  17 2.11  33 2.11  32 2.11  30 2.13  34 2.15
  67  0.750  0.250  0.432-  35 2.11  25 2.11  16 2.11  33 2.11  32 2.11  31 2.12

IMPORTANT INFORMATION: All symmetrisations will be switched off!
NOSYMM: (Re-)initialisation of all symmetry stuff for point group C_1.

                                     Primitive cell

  volume of cell :    1211.2538

  direct lattice vectors                    reciprocal lattice vectors
     8.440984654  0.000000000  0.000000000     0.118469591  0.000000000  0.000000000
     0.000000000  8.440984654  0.000000000     0.000000000  0.118469591  0.000000000
     0.000000000  0.000000000 17.000000000     0.000000000  0.000000000  0.058823529

  length of vectors
     8.440984654  8.440984654 17.000000000     0.118469591  0.118469591  0.058823529

  position of ions in fractional coordinates (direct lattice)
     0.493401810  0.519418636  0.703797525
     0.471142627  0.594219820  0.758820503
     0.447551698  0.673306372  0.816300477
     0.000003678  0.750014635  0.183699523
     0.250003678  0.000014635  0.183699523
     0.000003678  0.000014635  0.307831651
     0.250003678  0.750014635  0.307831651
     0.999958025  0.749958546  0.432677010
     0.250062895  0.000098256  0.432697074
     0.999978292  0.000093413  0.556574763
     0.249803788  0.750119214  0.556064616
     0.000003678  0.250014635  0.183699523
     0.250003678  0.500014635  0.183699523
     0.000003678  0.500014635  0.307831651
     0.250003678  0.250014635  0.307831651
     0.999996322  0.250085902  0.432737287
     0.250470277  0.499951058  0.432993793
     0.999914270  0.499958742  0.556347633
     0.250074935  0.249987426  0.556432786
     0.500003678  0.750014635  0.183699523
     0.750003678  0.000014635  0.183699523
     0.500003678  0.000014635  0.307831651
     0.750003678  0.750014635  0.307831651
     0.500022849  0.749528416  0.433004734
     0.749934873  0.000060439  0.432720256
     0.500004313  0.000298773  0.556352798
     0.750109261  0.749994940  0.556245449
     0.500003678  0.250014635  0.183699523
     0.750003678  0.500014635  0.183699523
     0.500003678  0.500014635  0.307831651
     0.750003678  0.250014635  0.307831651
     0.500018596  0.250408803  0.433022603
     0.749557443  0.499957022  0.433006493
     0.500185527  0.499326999  0.559321507
     0.749946987  0.250008855  0.556456309
     0.000003678  0.750014635  0.307831651
     0.250003678  0.000014635  0.307831651
     0.000003678  0.000014635  0.183699523
     0.250003678  0.750014635  0.183699523
     0.000015879  0.750145562  0.559430108
     0.249854125  0.999935043  0.559420358
     0.000005749  0.999985365  0.432483484
     0.249992579  0.750062832  0.432464910
     0.000003678  0.250014635  0.307831651
     0.250003678  0.500014635  0.307831651
     0.000003678  0.500014635  0.183699523
     0.250003678  0.250014635  0.183699523
     0.000025477  0.249903447  0.559432479
     0.249186912  0.500166699  0.559369032
     0.000048645  0.500056722  0.432413803
     0.249905202  0.249983746  0.432457768
[...]
  Alpha Z  1162.83505  1162.83505  1162.83505
  Ewald   78477.52510 78725.07312-98936.93875   -75.88848   382.16370  -114.44399
  Hartree 89749.12997 89869.16157-82634.97158   -34.10168   174.32523   -52.56128
  E(xc)   -2529.44546 -2528.78978 -2532.98828    -0.21425     1.05795    -0.31542
  Local  ************************177144.72605   102.13804  -517.88952   155.53271
  n-local -2855.11895 -2856.57625 -2879.29285     0.46697    -2.34729     0.69553
  augment  1056.43194  1055.58353  1045.15045     0.27904    -1.33351     0.39510
  Kinetic  7649.33667  7626.93550  7638.36003     7.36786   -36.27832    10.79819
  Fock        0.00000     0.00000     0.00000     0.00000     0.00000     0.00000
  Total     -15.65043   -15.85425     6.88012     0.04750    -0.30176     0.10084
  in kB     -20.70149   -20.97110     9.10063     0.06283    -0.39915     0.13338

 VOLUME and BASIS-vectors are now :
  energy-cutoff  :      520.00
  volume of cell :     1211.25
      direct lattice vectors                 reciprocal lattice vectors
     8.440984654  0.000000000  0.000000000     0.118469591  0.000000000  0.000000000
     0.000000000  8.440984654  0.000000000     0.000000000  0.118469591  0.000000000
     0.000000000  0.000000000 17.000000000     0.000000000  0.000000000  0.058823529

  length of vectors
     8.440984654  8.440984654 17.000000000     0.118469591  0.118469591  0.058823529

 FORCES acting on ions
    electron-ion (+dipol)            ewald-force                    non-local-force                 convergence-correction
   -.482E+02 0.162E+03 -.700E+03   0.563E+02 -.189E+03 0.660E+03   -.815E+01 0.274E+02 0.398E+02   -.620E-04 0.180E-03 -.327E-03
   -.442E+01 0.146E+02 -.616E+03   0.429E+01 -.141E+02 0.616E+03   0.127E+00 -.516E+00 -.390E+00   -.466E-04 0.131E-03 -.199E-03
   0.505E+02 -.169E+03 -.632E+03   -.612E+02 0.205E+03 0.684E+03   0.108E+02 -.362E+02 -.529E+02   0.825E-04 -.287E-03 -.408E-03
   0.575E+00 -.109E+01 0.170E+04   -.572E+00 0.109E+01 -.169E+04   -.224E-02 -.550E-03 -.706E+01   -.266E-04 0.826E-04 0.181E-03
   0.176E+01 -.148E+01 0.170E+04   -.176E+01 0.147E+01 -.169E+04   -.347E-02 0.487E-02 -.706E+01   -.145E-03 0.673E-04 0.168E-03
   0.244E+00 -.651E+00 0.581E+03   -.247E+00 0.660E+00 -.581E+03   0.230E-02 -.679E-02 0.497E+00   -.679E-05 -.606E-05 -.689E-03
   0.116E+01 -.834E+00 0.582E+03   -.113E+01 0.813E+00 -.582E+03   -.202E-01 0.146E-01 0.507E+00   0.222E-04 -.580E-05 -.578E-03
   0.826E+00 -.354E+01 -.523E+03   -.836E+00 0.351E+01 0.523E+03   0.107E-01 0.261E-01 -.155E+00   0.331E-05 -.517E-04 -.155E-02
   0.428E+01 -.212E+01 -.524E+03   -.425E+01 0.215E+01 0.524E+03   -.256E-01 -.258E-01 -.167E+00   0.761E-04 -.311E-04 -.156E-02
   0.222E+01 -.563E+01 -.164E+04   -.223E+01 0.565E+01 0.164E+04   0.475E-02 -.219E-01 0.597E+01   0.204E-04 -.102E-03 -.289E-03
   0.300E+02 -.240E+02 -.160E+04   -.301E+02 0.241E+02 0.159E+04   0.887E-01 -.470E-01 0.604E+01   0.518E-03 -.410E-03 -.208E-03
   0.425E+00 0.108E+01 0.170E+04   -.424E+00 -.108E+01 -.169E+04   -.100E-02 0.613E-03 -.707E+01   -.524E-05 -.889E-04 0.105E-03
   0.215E+01 0.151E+01 0.169E+04   -.215E+01 -.150E+01 -.169E+04   -.538E-02 -.493E-02 -.708E+01   -.125E-03 -.623E-04 0.144E-03
   0.281E+00 0.654E+00 0.582E+03   -.279E+00 -.662E+00 -.582E+03   -.148E-02 0.630E-02 0.446E+00   0.130E-04 -.230E-05 -.609E-03
   0.101E+01 0.828E+00 0.582E+03   -.995E+00 -.806E+00 -.582E+03   -.915E-02 -.155E-01 0.481E+00   -.485E-05 0.474E-05 -.667E-03
   0.595E+00 0.351E+01 -.526E+03   -.600E+00 -.348E+01 0.527E+03   0.469E-02 -.251E-01 -.182E+00   0.235E-04 0.523E-04 -.161E-02
   0.623E+01 0.221E+01 -.515E+03   -.610E+01 -.224E+01 0.516E+03   -.126E+00 0.255E-01 -.319E+00   0.138E-03 0.435E-04 -.120E-02
   0.355E+01 0.603E+01 -.163E+04   -.359E+01 -.606E+01 0.162E+04   0.380E-01 0.222E-01 0.598E+01   0.485E-04 0.104E-03 -.295E-03
   0.221E+02 0.220E+02 -.162E+04   -.221E+02 -.220E+02 0.162E+04   -.164E-01 0.458E-01 0.602E+01   0.354E-03 0.409E-03 -.299E-03
   -.599E+00 -.149E+01 0.169E+04   0.596E+00 0.149E+01 -.169E+04   0.235E-02 0.144E-02 -.707E+01   0.353E-04 0.736E-04 0.196E-03
   -.175E+01 -.133E+01 0.170E+04   0.175E+01 0.132E+01 -.169E+04   0.349E-02 0.363E-02 -.707E+01   0.138E-03 0.412E-04 0.169E-03
   -.247E+00 -.801E+00 0.582E+03   0.249E+00 0.793E+00 -.582E+03   -.204E-02 0.632E-02 0.451E+00   0.116E-04 -.327E-04 -.519E-03
   -.116E+01 -.797E+00 0.582E+03   0.113E+01 0.779E+00 -.582E+03   0.211E-01 0.118E-01 0.504E+00   -.271E-04 0.137E-04 -.615E-03
   -.877E+00 -.545E+01 -.514E+03   0.887E+00 0.533E+01 0.514E+03   -.101E-01 0.121E+00 -.200E+00   -.184E-05 -.120E-03 -.115E-02
   -.426E+01 -.189E+01 -.525E+03   0.423E+01 0.191E+01 0.525E+03   0.255E-01 -.196E-01 -.171E+00   -.793E-04 -.528E-04 -.158E-02
   -.249E+01 -.115E+02 -.162E+04   0.250E+01 0.116E+02 0.161E+04   -.433E-02 -.136E+00 0.597E+01   -.216E-04 -.272E-03 -.233E-03
   -.289E+02 -.218E+02 -.161E+04   0.290E+02 0.219E+02 0.160E+04   -.851E-01 -.125E-01 0.603E+01   -.525E-03 -.386E-03 -.238E-03
   -.433E+00 0.146E+01 0.170E+04   0.432E+00 -.146E+01 -.169E+04   0.102E-02 -.110E-02 -.708E+01   0.713E-05 -.636E-04 0.155E-03
   -.213E+01 0.135E+01 0.170E+04   0.213E+01 -.134E+01 -.169E+04   0.532E-02 -.358E-02 -.708E+01   0.119E-03 -.410E-04 0.146E-03
   -.283E+00 0.802E+00 0.582E+03   0.282E+00 -.799E+00 -.582E+03   0.694E-03 -.318E-02 0.543E+00   -.108E-04 0.301E-04 -.420E-03
   -.101E+01 0.791E+00 0.582E+03   0.994E+00 -.774E+00 -.582E+03   0.894E-02 -.117E-01 0.471E+00   0.595E-05 -.140E-04 -.685E-03
   -.620E+00 0.538E+01 -.517E+03   0.625E+00 -.526E+01 0.517E+03   -.451E-02 -.120E+00 -.510E+00   -.222E-04 0.104E-03 -.128E-02
   -.619E+01 0.196E+01 -.516E+03   0.607E+01 -.198E+01 0.517E+03   0.127E+00 0.196E-01 -.407E+00   -.138E-03 0.606E-04 -.121E-02
   -.590E+01 0.181E+02 -.153E+04   0.594E+01 -.183E+02 0.152E+04   -.405E-01 0.150E+00 0.507E+01   -.541E-04 0.286E-03 0.111E-03
   -.216E+02 0.203E+02 -.163E+04   0.216E+02 -.203E+02 0.162E+04   0.161E-01 0.149E-01 0.602E+01   -.354E-03 0.377E-03 -.316E-03
   0.201E+00 -.631E+00 0.436E+03   -.199E+00 0.620E+00 -.436E+03   -.195E-02 0.154E-01 -.900E-01   -.258E-05 0.721E-05 -.402E-03
   0.838E+00 -.518E+00 0.436E+03   -.826E+00 0.518E+00 -.436E+03   -.167E-01 -.336E-03 -.999E-01   0.152E-04 0.363E-05 -.411E-03
   0.339E+00 -.874E+00 0.128E+04   -.338E+00 0.872E+00 -.128E+04   -.108E-02 0.218E-02 0.346E+01   -.749E-05 0.449E-04 -.142E-04
   0.166E+01 -.101E+01 0.127E+04   -.165E+01 0.100E+01 -.128E+04   -.956E-02 0.344E-02 0.347E+01   -.129E-04 0.104E-04 0.163E-04
   0.297E+01 -.909E+01 -.124E+04   -.298E+01 0.906E+01 0.125E+04   0.110E-01 0.434E-01 -.503E+01   0.335E-04 -.114E-03 0.227E-04
   0.116E+02 -.751E+01 -.124E+04   -.116E+02 0.753E+01 0.125E+04   -.482E-01 -.201E-01 -.504E+01   0.142E-03 -.741E-04 0.397E-04
   0.484E+00 -.129E+01 -.391E+03   -.486E+00 0.130E+01 0.391E+03   0.233E-02 -.118E-01 0.211E+00   0.195E-04 -.316E-04 -.103E-02
   0.409E+01 -.338E+01 -.382E+03   -.408E+01 0.336E+01 0.381E+03   -.595E-02 0.155E-01 0.373E+00   0.124E-03 -.109E-03 -.910E-03
   0.168E+00 0.631E+00 0.435E+03   -.170E+00 -.621E+00 -.435E+03   0.183E-02 -.140E-01 -.120E+00   0.480E-05 0.172E-05 -.420E-03
   0.954E+00 0.524E+00 0.436E+03   -.972E+00 -.526E+00 -.436E+03   0.233E-01 0.299E-02 -.162E+00   0.256E-04 -.737E-05 -.323E-03
   0.410E+00 0.882E+00 0.127E+04   -.408E+00 -.880E+00 -.128E+04   -.203E-02 -.196E-02 0.345E+01   -.185E-04 -.301E-04 0.167E-04
   0.128E+01 0.985E+00 0.127E+04   -.127E+01 -.983E+00 -.128E+04   -.510E-02 -.277E-02 0.345E+01   -.748E-05 -.145E-04 -.101E-04
   0.175E+01 0.877E+01 -.125E+04   -.175E+01 -.873E+01 0.125E+04   0.236E-02 -.487E-01 -.503E+01   0.175E-04 0.111E-03 -.215E-04
   0.322E+02 0.918E+01 -.120E+04   -.320E+02 -.920E+01 0.121E+04   -.231E+00 0.126E-01 -.502E+01   0.268E-03 0.738E-04 0.137E-03
   0.565E+00 0.131E+01 -.386E+03   -.571E+00 -.132E+01 0.385E+03   0.745E-02 0.937E-02 0.262E+00   0.134E-04 0.314E-04 -.904E-03
   0.363E+01 0.330E+01 -.385E+03   -.361E+01 -.328E+01 0.385E+03   -.317E-01 -.182E-01 0.269E+00   0.118E-03 0.993E-04 -.941E-03
   -.206E+00 -.749E+00 0.436E+03   0.206E+00 0.770E+00 -.436E+03   -.265E-03 -.275E-01 -.164E+00   0.978E-05 -.166E-04 -.309E-03
   -.837E+00 -.485E+00 0.436E+03   0.826E+00 0.488E+00 -.435E+03   0.161E-01 -.406E-02 -.110E+00   -.178E-04 -.886E-05 -.424E-03
   -.347E+00 -.124E+01 0.127E+04   0.346E+00 0.123E+01 -.128E+04   0.116E-02 0.618E-02 0.346E+01   0.924E-05 0.377E-04 0.814E-04
   -.164E+01 -.928E+00 0.127E+04   0.163E+01 0.926E+00 -.128E+04   0.938E-02 0.225E-02 0.346E+01   0.247E-06 -.163E-05 0.321E-04
   -.395E+01 -.312E+02 -.119E+04   0.396E+01 0.309E+02 0.120E+04   -.726E-02 0.272E+00 -.495E+01   -.277E-04 -.241E-03 0.235E-03
   -.114E+02 -.622E+01 -.124E+04   0.114E+02 0.624E+01 0.125E+04   0.487E-01 -.115E-01 -.503E+01   -.140E-03 -.597E-04 0.455E-04
   -.498E+00 -.166E+01 -.384E+03   0.500E+00 0.169E+01 0.384E+03   -.228E-02 -.291E-01 0.264E+00   -.246E-04 -.361E-04 -.921E-03
   -.405E+01 -.327E+01 -.383E+03   0.404E+01 0.325E+01 0.383E+03   0.654E-02 0.230E-01 0.330E+00   -.124E-03 -.115E-03 -.944E-03
   -.169E+00 0.736E+00 0.436E+03   0.170E+00 -.751E+00 -.435E+03   -.126E-02 0.196E-01 -.164E+00   -.544E-05 0.783E-05 -.384E-03
   -.950E+00 0.487E+00 0.436E+03   0.967E+00 -.490E+00 -.436E+03   -.212E-01 0.408E-02 -.163E+00   -.312E-04 0.351E-05 -.359E-03
   -.425E+00 0.127E+01 0.127E+04   0.423E+00 -.126E+01 -.128E+04   0.236E-02 -.670E-02 0.345E+01   0.273E-04 -.455E-04 0.769E-04
   -.127E+01 0.914E+00 0.128E+04   0.127E+01 -.913E+00 -.128E+04   0.515E-02 -.182E-02 0.345E+01   0.213E-05 0.156E-05 -.213E-04
   -.210E+01 0.268E+02 -.122E+04   0.210E+01 -.267E+02 0.122E+04   -.292E-02 -.185E+00 -.508E+01   -.189E-04 0.256E-03 0.714E-04
   -.307E+02 0.746E+01 -.121E+04   0.305E+02 -.748E+01 0.122E+04   0.208E+00 0.933E-02 -.506E+01   -.283E-03 0.624E-04 0.107E-03
   -.605E+00 0.176E+01 -.382E+03   0.613E+00 -.179E+01 0.382E+03   -.886E-02 0.325E-01 -.284E+00   -.195E-04 0.495E-04 -.746E-03
   -.362E+01 0.321E+01 -.386E+03   0.359E+01 -.318E+01 0.386E+03   0.312E-01 -.247E-01 0.257E+00   -.116E-03 0.110E-03 -.941E-03
   -.275E+01 0.924E+01 0.334E+02   0.576E-12 0.284E-12 0.341E-12   0.275E+01 -.924E+01 -.332E+02   -.645E-04 0.368E-04 -.269E-01

 POSITION                                       TOTAL-FORCE (eV/Angst)
      4.16480      4.38440     11.96456        -0.048665      0.166947      0.321619
      3.97691      5.01580     12.89995        -0.002941      0.008929      0.041993
      3.77778      5.68337     13.87711         0.054033     -0.172182     -0.249004
      0.00003      6.33086      3.12289         0.000836      0.000133      0.299833
      2.11028      0.00012      3.12289         0.001414     -0.001787      0.299573
      0.00003      0.00012      5.23314        -0.000962      0.002674      0.034410
      2.11028      6.33086      5.23314         0.008002     -0.006109      0.035681
      8.44063      6.33039      7.35551        -0.000307     -0.002663      0.056072
      2.11078      0.00083      7.35585         0.002164      0.001316      0.055049
      8.44080      0.00079      9.46177        -0.000043     -0.000704      0.046023
      2.10859      6.33174      9.45310        -0.011677      0.007815      0.040855
      0.00003      2.11037      3.12289         0.000334     -0.000106      0.304335
      2.11028      4.22062      3.12289         0.001856      0.001937      0.303866
      0.00003      4.22062      5.23314         0.000366     -0.002532      0.048707
      2.11028      2.11037      5.23314         0.004510      0.006581      0.040438
      8.44095      2.11097      7.35653        -0.000674      0.001785      0.053716
      2.11422      4.22008      7.36089        -0.000651     -0.001694      0.044013
      8.44026      4.22014      9.45791        -0.001495     -0.000651      0.049436
      2.11088      2.11014      9.45936        -0.003617     -0.006662      0.047148
      4.22052      6.33086      3.12289        -0.000956     -0.000431      0.300077
      6.33077      0.00012      3.12289        -0.001474     -0.001317      0.301467
      4.22052      0.00012      5.23314         0.000746     -0.002046      0.047712
      6.33077      6.33086      5.23314        -0.008532     -0.005299      0.037489
      4.22069      6.32676      7.36108         0.000344      0.000495      0.041958
      6.33019      0.00051      7.35624        -0.002171      0.001666      0.054430
      4.22053      0.00252      9.45800         0.000270      0.005380      0.047430
      6.33166      6.33070      9.45617         0.011043      0.005542      0.042912
      4.22052      2.11037      3.12289        -0.000398      0.000243      0.305928
      6.33077      4.22062      3.12289        -0.001847      0.001404      0.305813
      4.22052      4.22062      5.23314        -0.000037      0.000250      0.058176
      6.33077      2.11037      5.23314        -0.004524      0.005241      0.041938
      4.22065      2.11370      7.36138         0.000279     -0.000342      0.045115
      6.32700      4.22013      7.36111         0.000451     -0.001644      0.044767
      4.22206      4.21481      9.50847         0.002928     -0.010663      0.024297
      6.33029      2.11032      9.45976         0.003091     -0.004701      0.048177
      0.00003      6.33086      5.23314        -0.000398      0.004534      0.057410
      2.11028      0.00012      5.23314        -0.004829     -0.000381      0.056097
      0.00003      0.00012      3.12289        -0.000306      0.000677     -0.561934
      2.11028      6.33086      3.12289        -0.002674      0.001069     -0.560179
      0.00013      6.33197      9.51031        -0.001181      0.003363      0.054707
      2.10901      8.44044      9.51015        -0.002664      0.001929      0.053534
      0.00005      8.44086      7.35222         0.000379     -0.001656      0.000591
      2.11018      6.33127      7.35190        -0.001351      0.002576      0.001928
      0.00003      2.11037      5.23314         0.000550     -0.003991      0.053385
      2.11028      4.22062      5.23314         0.005259      0.001249      0.062735
      0.00003      4.22062      3.12289        -0.000563     -0.000422     -0.564782
      2.11028      2.11037      3.12289        -0.001452     -0.000701     -0.565092
      0.00022      2.10943      9.51035         0.000520     -0.005171      0.053902
      2.10338      4.22190      9.50927        -0.010875     -0.002422      0.042563
      0.00041      4.22097      7.35103         0.001236      0.001370     -0.002897
      2.10945      2.11011      7.35178        -0.004401     -0.002547      0.003730
      4.22052      6.33086      5.23314        -0.000164     -0.006360      0.062592
      6.33077      0.00012      5.23314         0.004660     -0.001316      0.055107
      4.22052      0.00012      3.12289         0.000297      0.001769     -0.561984
      6.33077      6.33086      3.12289         0.002574      0.000736     -0.562409
      4.21977      6.33800      9.51522        -0.000288      0.015031      0.042719
      6.33184      8.44035      9.51055         0.002324      0.001270      0.053924
      4.22043      8.43964      7.35109        -0.000407     -0.004669     -0.002999
      6.33067      6.33140      7.35218         0.001128      0.003423      0.003125
      4.22052      2.11037      5.23314        -0.000445      0.004568      0.064835
      6.33077      4.22062      5.23314        -0.004762      0.001543      0.063626
      4.22052      4.22062      3.12289         0.000635     -0.001760     -0.565403
      6.33077      2.11037      3.12289         0.001437     -0.000443     -0.566135
      4.22040      2.10272      9.50165        -0.000288     -0.008835      0.045712
      6.33763      4.22131      9.50569         0.011351     -0.002341      0.040507
      4.22031      4.22133      7.35999        -0.001280      0.004548      0.016153
      6.33165      2.10974      7.35154         0.004283     -0.003445      0.003482
    total drift:                                0.002592      0.000503      0.117995

  FREE ENERGIE OF THE ION-ELECTRON SYSTEM (eV)
  free  energy   TOTEN  =      -393.52709593 eV

  energy  without entropy=     -393.52709593  energy(sigma->0) =     -393.52709593

 writing wavefunctions

     |            E. Caldeweyher, S. Ehlert & S. Grimme          |
     |          Mulliken Center for Theoretical Chemistry        |
     |                    University of Bonn                     |

Rational (Becke-Johnson) damping: hse06-D4-ATM
  s6         1.0000
  s8         1.1953
  s9         1.0000
  a1         0.3866
  a2         5.1913
 alp        16.0000

Dispersion energy:      -2.7380864639868E-01 Eh