 vasp.6.3.0 20Jan22 (build Apr  1 2022 16:44:48) complex
 executed on        HPECrayEX_GCC date 2022.11.03  20:11:48

 INCAR:
   SYSTEM = MgO-rocksalt
   ISMEAR = 0
   SIGMA = 0.05
   EDIFF = 1E-9
   ALGO = ALL
   ISTART = 0
   IBRION = 2
   NSW = 1000
   ISYM = 0
   ISIF = 2
   EDIFFG = -0.03
   DIPOL = 0.5 0.5 0.5
   IDIPOL = 3
   LDIPOL = .TRUE.
   GGA = MK
   LUSE_VDW = .TRUE.
   PARAM1 = 0.1234
   PARAM2 = 0.711357
   ZAB_VDW = -1.8867
   AGGAC = 0.0
   ENCUT = 600
   PREC = Accurate
   LASPH = .TRUE.
   LREAL = .FALSE.
   ISPIN = 2
   MAGMOM = 1.0 0.0 0.0 0.0 0.0 0.0 0.0 0.0 0.0 0.0 0.0 0.0 0.0 0.0 0.0 0.0 0.0 0.0 0.0 0.0 0.0 0.0 0.0 0.0 0.0 0.0 0.0 0.0 0.0 0.0 0.0 0.0 0.0 0.0 0.0 0.0 0.0 0.0 0.0 0.0 0.0 0.0 0.0 0.0 0.0 0.0 0.0 0.0 0.0 0.0 0.0 0.0 0.0 0.0 0.0 0.0 0.0 0.0 0.0 0.0 0.0 0.0 0.0 0.0 0.0 0.0
   NELM = 200
   NELMIN = 8
   NCORE = 8
   KPAR = 1
   LWAVE = .FALSE.
   LCHARG = .FALSE.

 POTCAR:    PAW_PBE N 08Apr2002
 POTCAR:    PAW_PBE O 08Apr2002
 POTCAR:    PAW_PBE Mg_pv 13Apr2007
 POTCAR:    PAW_PBE O 08Apr2002
|               ----> ADVICE to this user running VASP <----                  |
|     You have switched on vdW-DFT.                                           |
|     This routine was written and supplied by Jiri Klimes. We recommend      |
|     that you carefully read and cite the following publications:            |
|       J. Klimes, D.R. Bowler, A. Michelides                                 |
|          J. Phys.: Cond Matt. 22 022201 (2010)                              |
|       J. Klimes, D.R. Bowler, A. Michelides                                 |
|          Phys. Rev. B. 83, 195131 (2011)                                    |
|     and references therein.                                                 |

   TITEL  = PAW_PBE N 08Apr2002
   POMASS =   14.001; ZVAL   =    5.000    mass and valenz
   ENMAX  =  400.000; ENMIN  =  300.000 eV

[...]

   TITEL  = PAW_PBE Mg_pv 13Apr2007
   POMASS =   24.305; ZVAL   =    8.000    mass and valenz
   ENMAX  =  403.929; ENMIN  =  302.947 eV

   TITEL  = PAW_PBE O 08Apr2002
   POMASS =   16.000; ZVAL   =    6.000    mass and valenz
   ENMAX  =  400.000; ENMIN  =  300.000 eV

  PAW_PBE N 08Apr2002                   :
  PAW_PBE O 08Apr2002                   :
  PAW_PBE Mg_pv 13Apr2007               :
  PAW_PBE O 08Apr2002                   :

 POSCAR:  N  O Mg  O
  positions in direct lattice
 exchange correlation table for  LEXCH =       43
   RHO(1)=    0.500       N(1)  =     2000
   RHO(2)=  100.500       N(2)  =     4000

 ion  position               nearest neighbor table
   1  0.496  0.250  0.757-   2 1.19
   2  0.630  0.250  0.775-   1 1.19
   3  0.250  0.000  0.352-  35 2.11  37 2.11  38 2.11  45 2.11  54 2.11
   4  0.500  0.250  0.352-  36 2.11  37 2.11  38 2.11  46 2.11  53 2.11
   5  0.250  0.250  0.451-  37 2.11  36 2.11  35 2.11  43 2.11  52 2.11  41 2.12
   6  0.500  0.000  0.451-  38 2.11  36 2.11  35 2.11  44 2.11  51 2.11  42 2.12
   7  0.250  0.000  0.550-  41 2.11  42 2.11  49 2.11  58 2.11  35 2.12  39 2.14
   8  0.500  0.250  0.550-  41 2.11  42 2.11  50 2.11  57 2.11  36 2.12  40 2.14
   9  0.250  0.250  0.648-  41 2.10  40 2.11  39 2.11  47 2.11  56 2.11
  10  0.500  0.000  0.648-  42 2.10  40 2.11  39 2.11  48 2.11  55 2.11
  11  0.250  0.500  0.352-  43 2.11  37 2.11  45 2.11  46 2.11  62 2.11
  12  0.500  0.750  0.352-  44 2.11  38 2.11  45 2.11  46 2.11  61 2.11
  13  0.250  0.750  0.451-  45 2.11  43 2.11  44 2.11  35 2.11  60 2.11  49 2.12
  14  0.500  0.500  0.451-  46 2.11  43 2.11  44 2.11  36 2.11  59 2.11  50 2.12
  15  0.250  0.500  0.550-  41 2.11  49 2.11  50 2.11  66 2.11  43 2.12  47 2.14
  16  0.500  0.750  0.550-  42 2.11  49 2.11  50 2.11  65 2.11  44 2.12  48 2.14
  17  0.250  0.750  0.648-  49 2.10  47 2.11  48 2.11  39 2.11  64 2.11
  18  0.500  0.500  0.648-  50 2.10  47 2.11  48 2.11  40 2.11  63 2.11
  19  0.750  0.000  0.352-  51 2.11  38 2.11  53 2.11  54 2.11  61 2.11
  20  0.000  0.250  0.352-  52 2.11  37 2.11  53 2.11  54 2.11  62 2.11
  21  0.750  0.250  0.451-  53 2.11  51 2.11  52 2.11  36 2.11  59 2.11  57 2.12
  22  0.000  0.000  0.451-  54 2.11  51 2.11  52 2.11  35 2.11  60 2.11  58 2.12
  23  0.750  0.000  0.550-  42 2.11  57 2.11  58 2.11  65 2.11  51 2.12  55 2.14
  24  0.000  0.250  0.550-  41 2.11  57 2.11  58 2.11  66 2.11  52 2.12  56 2.14
  25  0.750  0.250  0.648-  57 2.10  55 2.11  56 2.11  40 2.11  63 2.11
  26  0.000  0.000  0.648-  58 2.10  55 2.11  56 2.11  39 2.11  64 2.11
  27  0.750  0.500  0.352-  59 2.11  53 2.11  46 2.11  61 2.11  62 2.11
  28  0.000  0.750  0.352-  60 2.11  54 2.11  45 2.11  61 2.11  62 2.11
  29  0.750  0.750  0.451-  61 2.11  51 2.11  59 2.11  60 2.11  44 2.11  65 2.12
  30  0.000  0.500  0.451-  62 2.11  52 2.11  59 2.11  60 2.11  43 2.11  66 2.12
  31  0.750  0.500  0.550-  50 2.11  57 2.11  65 2.11  66 2.11  59 2.12  63 2.14
  32  0.000  0.750  0.550-  49 2.11  58 2.11  65 2.11  66 2.11  60 2.12  64 2.14
  33  0.750  0.750  0.648-  65 2.10  55 2.11  63 2.11  64 2.11  48 2.11
  34  0.000  0.500  0.648-  66 2.10  56 2.11  63 2.11  64 2.11  47 2.11
  35  0.250  0.000  0.451-   3 2.11   5 2.11   6 2.11  13 2.11  22 2.11   7 2.12
  36  0.500  0.250  0.451-   4 2.11   5 2.11   6 2.11  14 2.11  21 2.11   8 2.12
  37  0.250  0.250  0.352-   5 2.11   4 2.11   3 2.11  11 2.11  20 2.11
  38  0.500  0.000  0.352-   6 2.11   4 2.11   3 2.11  12 2.11  19 2.11
  39  0.250  0.000  0.650-   9 2.11  10 2.11  17 2.11  26 2.11   7 2.14
  40  0.500  0.250  0.650-   9 2.11  10 2.11  18 2.11  25 2.11   8 2.14
  41  0.250  0.250  0.550-   9 2.10   8 2.11   7 2.11  15 2.11  24 2.11   5 2.12
  42  0.500  0.000  0.550-  10 2.10   8 2.11   7 2.11  16 2.11  23 2.11   6 2.12
  43  0.250  0.500  0.451-  11 2.11   5 2.11  13 2.11  14 2.11  30 2.11  15 2.12
  44  0.500  0.750  0.451-  12 2.11   6 2.11  13 2.11  14 2.11  29 2.11  16 2.12
  45  0.250  0.750  0.352-  13 2.11  11 2.11  12 2.11   3 2.11  28 2.11
  46  0.500  0.500  0.352-  14 2.11  11 2.11  12 2.11   4 2.11  27 2.11
  47  0.250  0.500  0.650-   9 2.11  17 2.11  18 2.11  34 2.11  15 2.14
  48  0.500  0.750  0.650-  10 2.11  17 2.11  18 2.11  33 2.11  16 2.14
  49  0.250  0.750  0.550-  17 2.10  15 2.11  16 2.11   7 2.11  32 2.11  13 2.12
  50  0.500  0.500  0.550-  18 2.10  15 2.11  16 2.11   8 2.11  31 2.11  14 2.12
  51  0.750  0.000  0.451-  19 2.11   6 2.11  21 2.11  22 2.11  29 2.11  23 2.12
  52  0.000  0.250  0.451-  20 2.11   5 2.11  21 2.11  22 2.11  30 2.11  24 2.12
  53  0.750  0.250  0.352-  21 2.11  19 2.11  20 2.11   4 2.11  27 2.11
  54  0.000  0.000  0.352-  22 2.11  19 2.11  20 2.11   3 2.11  28 2.11
  55  0.750  0.000  0.650-  10 2.11  25 2.11  26 2.11  33 2.11  23 2.14
  56  0.000  0.250  0.650-   9 2.11  25 2.11  26 2.11  34 2.11  24 2.14
  57  0.750  0.250  0.550-  25 2.10  23 2.11  24 2.11   8 2.11  31 2.11  21 2.12
  58  0.000  0.000  0.550-  26 2.10  23 2.11  24 2.11   7 2.11  32 2.11  22 2.12
  59  0.750  0.500  0.451-  27 2.11  21 2.11  14 2.11  29 2.11  30 2.11  31 2.12
  60  0.000  0.750  0.451-  28 2.11  22 2.11  13 2.11  29 2.11  30 2.11  32 2.12
  61  0.750  0.750  0.352-  29 2.11  19 2.11  27 2.11  28 2.11  12 2.11
  62  0.000  0.500  0.352-  30 2.11  20 2.11  27 2.11  28 2.11  11 2.11
  63  0.750  0.500  0.650-  18 2.11  25 2.11  33 2.11  34 2.11  31 2.14
  64  0.000  0.750  0.650-  17 2.11  26 2.11  33 2.11  34 2.11  32 2.14
  65  0.750  0.750  0.550-  33 2.10  23 2.11  31 2.11  32 2.11  16 2.11  29 2.12
  66  0.000  0.500  0.550-  34 2.10  24 2.11  31 2.11  32 2.11  15 2.11  30 2.12

IMPORTANT INFORMATION: All symmetrisations will be switched off!
NOSYMM: (Re-)initialisation of all symmetry stuff for point group C_1.

                                     Primitive cell

  volume of cell :    1519.6535

  direct lattice vectors                    reciprocal lattice vectors
     8.440582262  0.000000000  0.000000000     0.118475239  0.000000000  0.000000000
     0.000000000  8.440582262  0.000000000     0.000000000  0.118475239  0.000000000
     0.000000000  0.000000000 21.330436697     0.000000000  0.000000000  0.046881366

  length of vectors
     8.440582262  8.440582262 21.330436697     0.118475239  0.118475239  0.046881366

  position of ions in fractional coordinates (direct lattice)
     0.496225379  0.250000000  0.757260639
     0.629706692  0.250000000  0.774956948
     0.250000000  0.000000000  0.351610242
     0.500000000  0.250000000  0.351610242
     0.250000000  0.250000000  0.450536747
     0.500000000  0.000000000  0.450536747
     0.250000000  0.000000000  0.549966382
     0.500000000  0.250000000  0.549966382
     0.250000000  0.250000000  0.648348359
     0.500000000  0.000000000  0.648348359
     0.250000000  0.500000000  0.351610242
     0.500000000  0.750000000  0.351610242
     0.250000000  0.750000000  0.450536747
     0.500000000  0.500000000  0.450536747
     0.250000000  0.500000000  0.549966382
     0.500000000  0.750000000  0.549966382
     0.250000000  0.750000000  0.648348359
     0.500000000  0.500000000  0.648348359
     0.750000000  0.000000000  0.351610242
     0.000000000  0.250000000  0.351610242
     0.750000000  0.250000000  0.450536747
     0.000000000  0.000000000  0.450536747
     0.750000000  0.000000000  0.549966382
     0.000000000  0.250000000  0.549966382
     0.750000000  0.250000000  0.648348359
     0.000000000  0.000000000  0.648348359
     0.750000000  0.500000000  0.351610242
     0.000000000  0.750000000  0.351610242
     0.750000000  0.750000000  0.450536747
     0.000000000  0.500000000  0.450536747
     0.750000000  0.500000000  0.549966382
     0.000000000  0.750000000  0.549966382
     0.750000000  0.750000000  0.648348359
     0.000000000  0.500000000  0.648348359
     0.250000000  0.000000000  0.450536747
     0.500000000  0.250000000  0.450536747
     0.250000000  0.250000000  0.351610242
     0.500000000  0.000000000  0.351610242
     0.250000000  0.000000000  0.650177506
     0.500000000  0.250000000  0.650177506
     0.250000000  0.250000000  0.549707339
     0.500000000  0.000000000  0.549707339
     0.250000000  0.500000000  0.450536747
     0.500000000  0.750000000  0.450536747
     0.250000000  0.750000000  0.351610242
     0.500000000  0.500000000  0.351610242
     0.250000000  0.500000000  0.650177506
     0.500000000  0.750000000  0.650177506
     0.250000000  0.750000000  0.549707339
     0.500000000  0.500000000  0.549707339
     0.750000000  0.000000000  0.450536747
     0.000000000  0.250000000  0.450536747
     0.750000000  0.250000000  0.351610242
     0.000000000  0.000000000  0.351610242
     0.750000000  0.000000000  0.650177506
     0.000000000  0.250000000  0.650177506
     0.750000000  0.250000000  0.549707339
     0.000000000  0.000000000  0.549707339
     0.750000000  0.500000000  0.450536747
     0.000000000  0.750000000  0.450536747
     0.750000000  0.750000000  0.351610242
     0.000000000  0.500000000  0.351610242
     0.750000000  0.500000000  0.650177506
     0.000000000  0.750000000  0.650177506
     0.750000000  0.750000000  0.549707339
     0.000000000  0.500000000  0.549707339

  ion indices of the primitive-cell ions
   primitive index   ion index
[...]
   2.11014557  2.11014557 13.82955363
   4.22029113  0.00000000 13.82955363
   2.11014557  4.22029113  7.50000000
   4.22029113  6.33043670  7.50000000
   2.11014557  6.33043670  9.61014557
   4.22029113  4.22029113  9.61014557
   2.11014557  4.22029113 11.73102311
   4.22029113  6.33043670 11.73102311
   2.11014557  6.33043670 13.82955363
   4.22029113  4.22029113 13.82955363
   6.33043670  0.00000000  7.50000000
   0.00000000  2.11014557  7.50000000
   6.33043670  2.11014557  9.61014557
   0.00000000  0.00000000  9.61014557
   6.33043670  0.00000000 11.73102311
   0.00000000  2.11014557 11.73102311
   6.33043670  2.11014557 13.82955363
   0.00000000  0.00000000 13.82955363
   6.33043670  4.22029113  7.50000000
   0.00000000  6.33043670  7.50000000
   6.33043670  6.33043670  9.61014557
   0.00000000  4.22029113  9.61014557
   6.33043670  4.22029113 11.73102311
   0.00000000  6.33043670 11.73102311
   6.33043670  6.33043670 13.82955363
   0.00000000  4.22029113 13.82955363
   2.11014557  0.00000000  9.61014557
   4.22029113  2.11014557  9.61014557
   2.11014557  2.11014557  7.50000000
   4.22029113  0.00000000  7.50000000
   2.11014557  0.00000000 13.86857013
   4.22029113  2.11014557 13.86857013
   2.11014557  2.11014557 11.72549760
   4.22029113  0.00000000 11.72549760
   2.11014557  4.22029113  9.61014557
   4.22029113  6.33043670  9.61014557
   2.11014557  6.33043670  7.50000000
   4.22029113  4.22029113  7.50000000
   2.11014557  4.22029113 13.86857013
   4.22029113  6.33043670 13.86857013
   2.11014557  6.33043670 11.72549760
   4.22029113  4.22029113 11.72549760
   6.33043670  0.00000000  9.61014557
   0.00000000  2.11014557  9.61014557
   6.33043670  2.11014557  7.50000000
   0.00000000  0.00000000  7.50000000
   6.33043670  0.00000000 13.86857013
   0.00000000  2.11014557 13.86857013
   6.33043670  2.11014557 11.72549760
   0.00000000  0.00000000 11.72549760
   6.33043670  4.22029113  9.61014557
   0.00000000  6.33043670  9.61014557
   6.33043670  6.33043670  7.50000000
   0.00000000  4.22029113  7.50000000
   6.33043670  4.22029113 13.86857013
   0.00000000  6.33043670 13.86857013
   6.33043670  6.33043670 11.72549760
   0.00000000  4.22029113 11.72549760

--------------------------------------- Iteration      FINAL  ---------------------------------------

--------------------OUTCAR has been truncated-------------------------

[...]

--------------------OUTCAR has been truncated-------------------------

  FORCE on cell =-STRESS in cart. coord.  units (eV):
  Direction    XX          YY          ZZ          XY          YZ          ZX
  Alpha Z   910.35202   910.35202   910.35202
  Ewald  159717.78779159383.14528************     0.00002     0.00004   103.69492
  Hartree169883.51528169746.31900************     0.00001     0.00003    43.08470
  E(xc)   -2505.78374 -2506.74100 -2506.91398     0.00000     0.00000     0.37991
  Local  ************************339043.49878    -0.00003    -0.00007  -138.67420
  n-local -2869.14860 -2865.79556 -2879.05483     0.00000    -0.00000    -3.19125
  augment  1058.20638  1059.94395  1048.77784     0.00000    -0.00000    -0.09544
  Kinetic  7513.26107  7549.69679  7562.04953    -0.00000     0.00000    -5.21992
  Fock        0.00000     0.00000     0.00000     0.00000     0.00000     0.00000
  Total     -29.74001   -29.84717    -2.26454     0.00000    -0.00000    -0.02127
  in kB     -31.35502   -31.46801    -2.38751     0.00000    -0.00000    -0.02243

 VOLUME and BASIS-vectors are now :
  energy-cutoff  :      600.00
  volume of cell :     1519.65
      direct lattice vectors                 reciprocal lattice vectors
     8.440582262  0.000000000  0.000000000     0.118475239  0.000000000  0.000000000
     0.000000000  8.440582262  0.000000000     0.000000000  0.118475239  0.000000000
     0.000000000  0.000000000 21.330436697     0.000000000  0.000000000  0.046881366

  length of vectors
     8.440582262  8.440582262 21.330436697     0.118475239  0.118475239  0.046881366

 FORCES acting on ions:
    Electron-Ion                     Ewald-Force                    Non-Local-Force
   0.246E+03 -.114E-04 -.129E+04   -.287E+03 0.116E-04 0.128E+04   0.408E+02 -.427E-06 0.959E+01
   -.232E+03 -.132E-04 -.161E+04   0.285E+03 0.148E-04 0.163E+04   -.532E+02 -.150E-05 -.192E+02
   0.332E+00 0.386E+00 0.209E+04   -.339E+00 -.393E+00 -.208E+04   0.525E-02 0.505E-02 -.680E+01
   0.107E+00 0.510E-06 0.209E+04   -.107E+00 -.646E-06 -.208E+04   -.707E-05 0.942E-07 -.675E+01
   0.217E+01 0.468E-05 0.727E+03   -.224E+01 -.574E-05 -.727E+03   0.488E-01 0.752E-06 0.458E+00
   0.442E+00 0.246E+01 0.727E+03   -.444E+00 -.253E+01 -.727E+03   0.110E-02 0.484E-01 0.467E+00
   0.549E+01 0.599E+01 -.629E+03   -.551E+01 -.598E+01 0.630E+03   0.125E-01 -.225E-02 -.466E+00
   0.304E+01 0.293E-04 -.607E+03   -.307E+01 -.331E-04 0.607E+03   0.279E-01 0.256E-05 0.625E+00
   0.363E+02 0.490E-06 -.197E+04   -.372E+02 0.912E-06 0.196E+04   0.916E+00 -.107E-05 0.616E+01
   0.114E+02 0.442E+02 -.196E+04   -.114E+02 -.451E+02 0.195E+04   0.509E-01 0.858E+00 0.605E+01
   0.332E+00 -.386E+00 0.209E+04   -.339E+00 0.393E+00 -.208E+04   0.525E-02 -.505E-02 -.680E+01
   0.941E-01 -.513E-06 0.209E+04   -.941E-01 0.636E-06 -.208E+04   -.496E-05 -.845E-07 -.679E+01
   0.110E+01 -.458E-05 0.724E+03   -.112E+01 0.561E-05 -.724E+03   0.150E-01 -.737E-06 0.403E+00
   0.442E+00 -.246E+01 0.727E+03   -.444E+00 0.253E+01 -.727E+03   0.110E-02 -.484E-01 0.467E+00
   0.549E+01 -.599E+01 -.629E+03   -.551E+01 0.598E+01 0.630E+03   0.125E-01 0.225E-02 -.466E+00
   0.153E+01 -.246E-04 -.628E+03   -.154E+01 0.288E-04 0.629E+03   0.398E-02 -.296E-05 -.316E+00
   0.123E+02 0.333E-05 -.201E+04   -.124E+02 -.457E-05 0.200E+04   0.909E-01 0.870E-06 0.602E+01
   0.114E+02 -.442E+02 -.196E+04   -.114E+02 0.451E+02 0.195E+04   0.509E-01 -.858E+00 0.605E+01
   -.332E+00 0.400E+00 0.209E+04   0.339E+00 -.407E+00 -.208E+04   -.510E-02 0.505E-02 -.680E+01
   -.107E+00 0.770E-06 0.209E+04   0.107E+00 -.941E-06 -.208E+04   -.297E-04 0.129E-06 -.680E+01
   -.219E+01 0.398E-05 0.728E+03   0.226E+01 -.505E-05 -.728E+03   -.501E-01 0.739E-06 0.470E+00
   -.441E+00 0.137E+01 0.725E+03   0.438E+00 -.140E+01 -.725E+03   0.144E-02 0.153E-01 0.403E+00
   -.554E+01 0.758E+01 -.625E+03   0.555E+01 -.760E+01 0.625E+03   -.524E-02 0.139E-01 -.464E+00
   -.298E+01 0.353E-05 -.625E+03   0.303E+01 -.358E-05 0.626E+03   -.474E-01 -.118E-06 -.343E+00
   -.444E+02 0.139E-05 -.192E+04   0.455E+02 -.336E-06 0.191E+04   -.112E+01 -.849E-06 0.620E+01
   -.888E+01 0.174E+02 -.200E+04   0.891E+01 -.175E+02 0.199E+04   -.354E-01 0.853E-01 0.601E+01
   -.332E+00 -.400E+00 0.209E+04   0.339E+00 0.407E+00 -.208E+04   -.510E-02 -.505E-02 -.680E+01
   -.937E-01 -.767E-06 0.209E+04   0.938E-01 0.940E-06 -.208E+04   -.257E-04 -.127E-06 -.681E+01
   -.110E+01 -.476E-05 0.725E+03   0.113E+01 0.582E-05 -.725E+03   -.156E-01 -.737E-06 0.406E+00
   -.441E+00 -.137E+01 0.725E+03   0.438E+00 0.140E+01 -.725E+03   0.144E-02 -.153E-01 0.403E+00
   -.554E+01 -.758E+01 -.625E+03   0.555E+01 0.760E+01 0.625E+03   -.524E-02 -.139E-01 -.464E+00
   -.153E+01 -.102E-05 -.636E+03   0.153E+01 0.114E-05 0.637E+03   0.349E-03 -.117E-06 -.336E+00
   -.128E+02 0.101E-05 -.200E+04   0.128E+02 -.216E-05 0.199E+04   -.826E-01 0.871E-06 0.601E+01
   -.888E+01 -.174E+02 -.200E+04   0.891E+01 0.175E+02 0.199E+04   -.354E-01 -.853E-01 0.601E+01
   0.104E+01 0.120E+01 0.543E+03   -.106E+01 -.122E+01 -.543E+03   0.276E-01 0.289E-01 -.123E+00
   0.368E+00 0.265E-06 0.549E+03   -.368E+00 -.134E-05 -.549E+03   0.770E-03 0.151E-05 0.120E+00
   0.300E+00 0.536E-06 0.157E+04   -.311E+00 -.707E-06 -.157E+04   0.152E-01 0.267E-06 0.361E+01
   0.756E-01 0.347E+00 0.157E+04   -.755E-01 -.357E+00 -.157E+04   -.138E-03 0.148E-01 0.361E+01
   0.182E+02 0.183E+02 -.151E+04   -.182E+02 -.183E+02 0.151E+04   0.224E-01 0.385E-03 -.497E+01
   0.179E+02 0.442E-05 -.140E+04   -.178E+02 -.434E-05 0.141E+04   -.594E-01 -.863E-07 -.384E+01
   0.527E+01 0.599E-05 -.465E+03   -.531E+01 -.680E-05 0.465E+03   0.493E-01 0.977E-06 0.618E-01
   0.167E+01 0.629E+01 -.463E+03   -.165E+01 -.632E+01 0.463E+03   -.144E-01 0.337E-01 0.100E+00
   0.104E+01 -.120E+01 0.543E+03   -.106E+01 0.122E+01 -.543E+03   0.276E-01 -.289E-01 -.123E+00
   0.290E+00 0.173E-06 0.544E+03   -.291E+00 0.890E-06 -.544E+03   0.130E-02 -.153E-05 -.706E-01
   0.206E+00 -.516E-06 0.157E+04   -.212E+00 0.699E-06 -.157E+04   0.808E-02 -.260E-06 0.359E+01
   0.756E-01 -.347E+00 0.157E+04   -.755E-01 0.357E+00 -.157E+04   -.138E-03 -.148E-01 0.361E+01
   0.182E+02 -.183E+02 -.151E+04   -.182E+02 0.183E+02 0.151E+04   0.224E-01 -.385E-03 -.497E+01
   0.380E+01 0.381E-05 -.151E+04   -.378E+01 -.527E-05 0.152E+04   -.221E-01 0.161E-05 -.490E+01
   0.315E+01 -.553E-05 -.471E+03   -.316E+01 0.627E-05 0.471E+03   0.931E-02 -.980E-06 0.175E+00
   0.167E+01 -.629E+01 -.463E+03   -.165E+01 0.632E+01 0.463E+03   -.144E-01 -.337E-01 0.100E+00
   -.105E+01 0.129E+01 0.544E+03   0.107E+01 -.131E+01 -.544E+03   -.334E-01 0.293E-01 -.123E+00
   -.359E+00 0.227E-05 0.544E+03   0.358E+00 -.267E-05 -.544E+03   0.930E-03 0.519E-06 -.713E-01
   -.301E+00 0.492E-06 0.157E+04   0.312E+00 -.680E-06 -.157E+04   -.151E-01 0.262E-06 0.361E+01
   -.751E-01 0.252E+00 0.157E+04   0.752E-01 -.258E+00 -.157E+04   -.128E-03 0.779E-02 0.359E+01
   -.199E+02 0.290E+02 -.149E+04   0.199E+02 -.290E+02 0.150E+04   0.281E-01 0.904E-02 -.498E+01
   -.125E+02 0.336E-05 -.151E+04   0.126E+02 -.311E-05 0.151E+04   -.104E+00 -.728E-06 -.493E+01
   -.522E+01 0.298E-05 -.459E+03   0.523E+01 -.368E-05 0.459E+03   -.557E-02 0.105E-05 0.140E+00
   -.162E+01 0.412E+01 -.469E+03   0.162E+01 -.413E+01 0.469E+03   -.217E-02 0.724E-02 0.162E+00
   -.105E+01 -.129E+01 0.544E+03   0.107E+01 0.131E+01 -.544E+03   -.334E-01 -.293E-01 -.123E+00
   -.286E+00 -.211E-05 0.542E+03   0.286E+00 0.246E-05 -.542E+03   0.147E-03 -.507E-06 -.121E+00
   -.206E+00 -.520E-06 0.157E+04   0.212E+00 0.693E-06 -.157E+04   -.801E-02 -.256E-06 0.359E+01
   -.751E-01 -.252E+00 0.157E+04   0.752E-01 0.258E+00 -.157E+04   -.128E-03 -.779E-02 0.359E+01
   -.199E+02 -.290E+02 -.149E+04   0.199E+02 0.290E+02 0.150E+04   0.281E-01 -.904E-02 -.498E+01
   -.356E+01 0.119E-05 -.152E+04   0.357E+01 -.179E-05 0.153E+04   -.484E-02 0.754E-06 -.490E+01
   -.319E+01 -.761E-05 -.469E+03   0.321E+01 0.854E-05 0.469E+03   -.192E-01 -.122E-05 0.177E+00
   -.162E+01 -.412E+01 -.469E+03   0.162E+01 0.413E+01 0.469E+03   -.217E-02 -.724E-02 0.162E+00
   0.127E+02 0.124E-05 0.234E+02   -.909E-12 0.352E-12 -.716E-11   -.127E+02 -.142E-05 -.234E+02

 POSITION                                       TOTAL-FORCE (eV/Angst)
      4.18733      2.11015     16.15727        -0.005129     -0.000000      0.001635
      5.31354      2.11015     16.53394        -0.012737      0.000000      0.025686
      2.11015      0.00000      7.50000        -0.002009     -0.001959      0.319411
      4.22029      2.11015      7.50000         0.000033     -0.000000      0.308540
      2.11015      2.11015      9.61015        -0.021943     -0.000000      0.028144
      4.22029      0.00000      9.61015        -0.000439     -0.021874      0.027698
      2.10976      0.00003     11.73246        -0.003178      0.000613      0.018451
      4.21956      2.11015     11.71374         0.001095     -0.000001      0.022859
      2.09626      2.11015     13.83884         0.002483      0.000000      0.009413
      4.21754     -0.01600     13.83620        -0.001131     -0.000098      0.006546
      2.11015      4.22029      7.50000        -0.002009      0.001959      0.319410
      4.22029      6.33044      7.50000         0.000040      0.000000      0.317985
      2.11015      6.33044      9.61015        -0.005871      0.000000      0.042628
      4.22029      4.22029      9.61015        -0.000440      0.021874      0.027698
      2.10976      4.22026     11.73246        -0.003179     -0.000613      0.018452
      4.22036      6.33044     11.73005        -0.001833      0.000001      0.009207
      2.10777      6.33044     13.83325        -0.007370     -0.000000     -0.006624
      4.21754      4.23629     13.83620        -0.001132      0.000098      0.006543
      6.33044      0.00000      7.50000         0.002021     -0.001958      0.319355
      0.00000      2.11015      7.50000         0.000042     -0.000000      0.318101
      6.33044      2.11015      9.61015         0.022341     -0.000000      0.028302
      0.00000      0.00000      9.61015        -0.000793     -0.006120      0.042834
      6.33033     -0.00033     11.73277        -0.001400     -0.000307      0.019067
      0.00086      2.11015     11.72983         0.007827     -0.000000      0.005070
      6.35500      2.11015     13.83313         0.014761      0.000000     -0.002489
     -0.00011     -0.00193     13.83421         0.001725     -0.007900     -0.005048
      6.33044      4.22029      7.50000         0.002021      0.001958      0.319355
      0.00000      6.33044      7.50000         0.000057      0.000000      0.321705
      6.33044      6.33044      9.61015         0.006429      0.000000      0.041710
      0.00000      4.22029      9.61015        -0.000793      0.006120      0.042834
      6.33033      4.22062     11.73277        -0.001398      0.000307      0.019068
      0.00001      6.33044     11.73167        -0.000106      0.000000      0.004435
      6.33239      6.33044     13.83350         0.000994     -0.000000     -0.002933
     -0.00011      4.22222     13.83421         0.001725      0.007900     -0.005050
      2.11015      0.00000      9.61015         0.007916      0.008065      0.047462
      4.22029      2.11015      9.61015         0.000741      0.000000      0.025040
      2.11015      2.11015      7.50000         0.004345      0.000000     -0.400559
      4.22029      0.00000      7.50000        -0.000008      0.004219     -0.400468
      2.11171      0.00218     13.86272        -0.006367     -0.004436      0.003603
      4.22386      2.11015     13.85836         0.006536      0.000000     -0.007206
      2.11295      2.11015     11.72750         0.005465      0.000000     -0.018592
      4.22008      0.00297     11.72762        -0.001766      0.001902     -0.018412
      2.11015      4.22029      9.61015         0.007916     -0.008065      0.047462
      4.22029      6.33044      9.61015         0.000444     -0.000000      0.052794
      2.11015      6.33044      7.50000         0.002302     -0.000000     -0.405276
      4.22029      4.22029      7.50000        -0.000008     -0.004219     -0.400468
      2.11171      4.21811     13.86272        -0.006367      0.004435      0.003602
      4.22005      6.33044     13.86455        -0.003214      0.000000      0.004235
      2.11099      6.33044     11.72563        -0.001600     -0.000000     -0.014716
      4.22008      4.21733     11.72762        -0.001766     -0.001901     -0.018413
      6.33044      0.00000      9.61015        -0.009348      0.008388      0.048822
      0.00000      2.11015      9.61015        -0.000320      0.000000      0.051384
      6.33044      2.11015      7.50000        -0.004270      0.000000     -0.400452
      0.00000      0.00000      7.50000        -0.000006      0.002192     -0.405253
      6.32666      0.00307     13.86373         0.007766     -0.005297      0.002249
      0.00142      2.11015     13.86260         0.009854     -0.000000      0.000983
      6.32746      2.11015     11.72759         0.001873      0.000000     -0.021091
     -0.00026      0.00070     11.72570        -0.001886     -0.001822     -0.014013
      6.33044      4.22029      9.61015        -0.009348     -0.008388      0.048822
      0.00000      6.33044      9.61015         0.000041     -0.000000      0.044738
      6.33044      6.33044      7.50000        -0.002216     -0.000000     -0.405201
      0.00000      4.22029      7.50000        -0.000006     -0.002192     -0.405253
      6.32666      4.21723     13.86373         0.007766      0.005297      0.002248
     -0.00017      6.33044     13.86569        -0.002520      0.000000      0.008325
      6.32966      6.33044     11.72562        -0.000765     -0.000000     -0.012379
     -0.00026      4.21959     11.72570        -0.001886      0.001823     -0.014013
    total drift:                               -0.002017     -0.000000     -0.006322

  FREE ENERGIE OF THE ION-ELECTRON SYSTEM (eV)
  free  energy   TOTEN  =      -274.56444472 eV

  energy  without entropy=     -274.56444472  energy(sigma->0) =     -274.56444472

 d Force = 0.2985868E-03[-0.208E-05, 0.599E-03]  d Energy = 0.2959491E-03 0.264E-05
 d Force =-0.3186490E+01[-0.319E+01,-0.318E+01]  d Ewald  =-0.3186490E+01-0.382E-06

 reached required accuracy - stopping structural energy minimisation