 vasp.6.3.0 20Jan22 (build Apr  1 2022 16:44:48) complex
 executed on        HPECrayEX_GCC date 2023.02.23  15:21:47

 INCAR:
   SYSTEM = MgO-rocksalt
   ISMEAR = 0
   SIGMA = 0.05
   EDIFF = 1E-8
   ALGO = ALL
   ISTART = 0
   IBRION = 5
   POTIM = 0.01
   NFREE = 2
   ISYM = 0
   DIPOL = 0.5 0.5 0.5
   IDIPOL = 3
   LDIPOL = .TRUE.
   GGA = RE
   IVDW = 13
   VDW_S8 = 1.7468
   VDW_A1 = 0.5363
   VDW_A2 = 3.0726
   ENCUT = 600
   PREC = Accurate
   LASPH = .TRUE.
   LREAL = .FALSE.
   ISPIN = 1
   NELM = 200
   NELMIN = 8
   NCORE = 8
   KPAR = 1
   LWAVE = .FALSE.
   LCHARG = .FALSE.

 POTCAR:    PAW_PBE N 08Apr2002
 POTCAR:    PAW_PBE H 15Jun2001
 POTCAR:    PAW_PBE Mg_pv 13Apr2007
 POTCAR:    PAW_PBE O 08Apr2002
 POTCAR:    PAW_PBE N 08Apr2002
   VRHFIN =N: s2p3

   TITEL  = PAW_PBE N 08Apr2002
   POMASS =   14.001; ZVAL   =    5.000    mass and valenz
   ENMAX  =  400.000; ENMIN  =  300.000 eV

   TITEL  = PAW_PBE H 15Jun2001
   POMASS =    1.000; ZVAL   =    1.000    mass and valenz
   ENMAX  =  250.000; ENMIN  =  200.000 eV

   TITEL  = PAW_PBE Mg_pv 13Apr2007
   POMASS =   24.305; ZVAL   =    8.000    mass and valenz
   ENMAX  =  403.929; ENMIN  =  302.947 eV

   TITEL  = PAW_PBE O 08Apr2002
   POMASS =   16.000; ZVAL   =    6.000    mass and valenz
   ENMAX  =  400.000; ENMIN  =  300.000 eV

  PAW_PBE N 08Apr2002                   :
  PAW_PBE H 15Jun2001                   :
  PAW_PBE Mg_pv 13Apr2007               :
  PAW_PBE O 08Apr2002                   :

 POSCAR:  N  H Mg  O
  positions in direct lattice
|           W    W    AA    RRRRR   N    N  II  N    N   GGGG   !!!           |
|           W    W   A  A   R    R  NN   N  II  NN   N  G    G  !!!           |
|           W    W  A    A  R    R  N N  N  II  N N  N  G       !!!           |
|           W WW W  AAAAAA  RRRRR   N  N N  II  N  N N  G  GGG   !            |
|           WW  WW  A    A  R   R   N   NN  II  N   NN  G    G                |
|           W    W  A    A  R    R  N    N  II  N    N   GGGG   !!!           |
|     Specifying the vdW parameters                                           |
|     VDW_S8 = 1.747                                                          |
|     VDW_A1 = 0.536                                                          |
|     VDW_A2 = 3.073                                                          |
|     in the INCAR file will overwrite the defaults for revpbe. Please        |
|     make sure that is what you intended.                                    |

 ion  position               nearest neighbor table
   1  0.500  0.516  0.760-   4 1.02   3 1.02   2 1.02
   2  0.500  0.635  0.768-   1 1.02
   3  0.402  0.469  0.782-   1 1.02
   4  0.598  0.469  0.782-   1 1.02
   5  0.000  0.750  0.352-  37 2.11  39 2.11  40 2.11  47 2.11  56 2.11
   6  0.250  0.000  0.352-  38 2.11  39 2.11  40 2.11  48 2.11  55 2.11
   7  0.000  0.000  0.451-  39 2.11  38 2.11  37 2.11  45 2.11  54 2.11  43 2.12
   8  0.250  0.750  0.451-  40 2.11  38 2.11  37 2.11  46 2.11  53 2.11  44 2.12
   9  0.000  0.750  0.550-  51 2.11  44 2.11  60 2.11  43 2.11  37 2.12  41 2.16
  10  0.250  1.000  0.550-  59 2.11  52 2.11  44 2.11  43 2.11  38 2.12  42 2.16
  11  0.000  1.000  0.648-  43 2.10  42 2.11  58 2.11  49 2.11  41 2.11
  12  0.250  0.750  0.648-  44 2.09  41 2.11  42 2.11  50 2.11  57 2.11
  13  0.000  0.250  0.352-  45 2.11  39 2.11  47 2.11  48 2.11  64 2.11
  14  0.250  0.500  0.352-  46 2.11  40 2.11  47 2.11  48 2.11  63 2.11
  15  0.000  0.500  0.451-  47 2.11  45 2.11  46 2.11  37 2.11  62 2.11  51 2.11
  16  0.250  0.250  0.451-  48 2.11  45 2.11  46 2.11  38 2.11  61 2.11  52 2.12
  17  1.000  0.250  0.550-  51 2.11  68 2.11  52 2.11  43 2.11  45 2.12  49 2.16
  18  0.251  0.500  0.551-  67 2.10  52 2.11  44 2.11  51 2.12  46 2.13  50 2.15
  19  0.000  0.500  0.648-  66 2.09  50 2.09  51 2.10  49 2.12  41 2.12
  20  0.250  0.250  0.648-  52 2.10  42 2.11  49 2.11  65 2.11  50 2.11
  21  0.500  0.750  0.352-  53 2.11  40 2.11  55 2.11  56 2.11  63 2.11
  22  0.750  0.000  0.352-  54 2.11  39 2.11  55 2.11  56 2.11  64 2.11
  23  0.500  0.000  0.451-  55 2.11  53 2.11  54 2.11  38 2.11  61 2.11  59 2.11
  24  0.750  0.750  0.451-  56 2.11  53 2.11  54 2.11  37 2.11  62 2.11  60 2.12
  25  0.500  0.749  0.551-  67 2.10  60 2.11  44 2.11  59 2.12  53 2.13  57 2.15
  26  0.750  1.000  0.550-  59 2.11  68 2.11  60 2.11  43 2.11  54 2.12  58 2.16
  27  0.500  0.000  0.648-  65 2.09  57 2.09  59 2.10  42 2.12  58 2.12
  28  0.750  0.750  0.648-  60 2.09  41 2.11  58 2.11  66 2.11  57 2.11
  29  0.500  0.250  0.352-  61 2.11  55 2.11  48 2.11  63 2.11  64 2.11
  30  0.750  0.500  0.352-  62 2.11  56 2.11  47 2.11  63 2.11  64 2.11
  31  0.500  0.500  0.451-  63 2.11  53 2.11  61 2.11  62 2.11  46 2.11  67 2.14
  32  0.750  0.250  0.451-  64 2.11  54 2.11  61 2.11  62 2.11  45 2.11  68 2.12
  33  0.500  0.251  0.551-  67 2.10  52 2.11  68 2.11  59 2.12  61 2.13  65 2.14
  34  0.749  0.500  0.551-  67 2.10  68 2.11  60 2.11  51 2.12  62 2.13  66 2.15
  35  0.500  0.499  0.655-  65 2.12  66 2.13  50 2.13  57 2.15  67 2.22
  36  0.750  0.250  0.648-  68 2.10  58 2.11  49 2.11  65 2.11  66 2.11
  37  0.000  0.750  0.451-   5 2.11   7 2.11   8 2.11  15 2.11  24 2.11   9 2.12
  38  0.250  0.000  0.451-   6 2.11   7 2.11   8 2.11  16 2.11  23 2.11  10 2.12
  39  0.000  0.000  0.352-   7 2.11   6 2.11   5 2.11  13 2.11  22 2.11
  40  0.250  0.750  0.352-   8 2.11   6 2.11   5 2.11  14 2.11  21 2.11
  41  1.000  0.750  0.651-  11 2.11  28 2.11  12 2.11  19 2.12   9 2.16
  42  0.249  1.000  0.651-  11 2.11  20 2.11  12 2.11  27 2.12  10 2.16
  43  1.000  1.000  0.550-  11 2.10   9 2.11  26 2.11  10 2.11  17 2.11   7 2.12
  44  0.250  0.750  0.550-  12 2.09  10 2.11   9 2.11  25 2.11  18 2.11   8 2.12
  45  0.000  0.250  0.451-  13 2.11   7 2.11  15 2.11  16 2.11  32 2.11  17 2.12
  46  0.250  0.500  0.451-  14 2.11   8 2.11  15 2.11  16 2.11  31 2.11  18 2.13
  47  0.000  0.500  0.352-  15 2.11  13 2.11  14 2.11   5 2.11  30 2.11
  48  0.250  0.250  0.352-  16 2.11  13 2.11  14 2.11   6 2.11  29 2.11
  49  0.000  0.249  0.651-  11 2.11  36 2.11  20 2.11  19 2.12  17 2.16
  50  0.247  0.500  0.651-  19 2.09  12 2.11  20 2.11  35 2.13  18 2.15
  51  0.000  0.500  0.550-  19 2.10   9 2.11  17 2.11  15 2.11  34 2.12  18 2.12
  52  0.250  0.250  0.550-  20 2.10  10 2.11  17 2.11  18 2.11  33 2.11  16 2.12
  53  0.500  0.750  0.451-  21 2.11   8 2.11  23 2.11  24 2.11  31 2.11  25 2.13
  54  0.750  0.000  0.451-  22 2.11   7 2.11  23 2.11  24 2.11  32 2.11  26 2.12
  55  0.500  0.000  0.352-  23 2.11  21 2.11  22 2.11   6 2.11  29 2.11
  56  0.750  0.750  0.352-  24 2.11  21 2.11  22 2.11   5 2.11  30 2.11
  57  0.500  0.753  0.651-  27 2.09  12 2.11  28 2.11  35 2.15  25 2.15
  58  0.751  1.000  0.651-  11 2.11  36 2.11  28 2.11  27 2.12  26 2.16
  59  0.500  1.000  0.550-  27 2.10  26 2.11  10 2.11  23 2.11  25 2.12  33 2.12
  60  0.750  0.750  0.550-  28 2.09  26 2.11   9 2.11  25 2.11  34 2.11  24 2.12
  61  0.500  0.250  0.451-  29 2.11  23 2.11  16 2.11  31 2.11  32 2.11  33 2.13
  62  0.750  0.500  0.451-  30 2.11  24 2.11  15 2.11  31 2.11  32 2.11  34 2.13
  63  0.500  0.500  0.352-  31 2.11  21 2.11  29 2.11  30 2.11  14 2.11
  64  0.750  0.250  0.352-  32 2.11  22 2.11  29 2.11  30 2.11  13 2.11
  65  0.500  0.247  0.651-  27 2.09  20 2.11  36 2.11  35 2.12  33 2.14
  66  0.753  0.500  0.651-  19 2.09  28 2.11  36 2.11  35 2.13  34 2.15
  67  0.500  0.500  0.551-  25 2.10  18 2.10  34 2.10  33 2.10  31 2.14  35 2.22
  68  0.750  0.250  0.550-  36 2.10  26 2.11  17 2.11  34 2.11  33 2.11  32 2.12

IMPORTANT INFORMATION: All symmetrisations will be switched off!
NOSYMM: (Re-)initialisation of all symmetry stuff for point group C_1.

                                     Primitive cell

  volume of cell :    1519.8199

  direct lattice vectors                    reciprocal lattice vectors
     8.440984654  0.000000000  0.000000000     0.118469591  0.000000000  0.000000000
     0.000000000  8.440984654  0.000000000     0.000000000  0.118469591  0.000000000
     0.000000000  0.000000000 21.330738491     0.000000000  0.000000000  0.046880702

  length of vectors
     8.440984654  8.440984654 21.330738491     0.118469591  0.118469591  0.046880702

  position of ions in fractional coordinates (direct lattice)
     0.500000238  0.515515988  0.760397415
     0.499999981  0.635067396  0.767938398
     0.402069061  0.469393035  0.781666100
     0.597931073  0.469393296  0.781666268
     0.000000000  0.750000000  0.351605267
     0.250000000  0.000000000  0.351605267
     0.000000000  0.000000000  0.450535089
     0.250000000  0.750000000  0.450535089
     0.000000002  0.749683926  0.549893410
     0.250263522  0.999989873  0.549908943
     0.000000001  0.999953889  0.648375512
     0.249680169  0.750035883  0.648043586
     0.000000000  0.250000000  0.351605267
     0.250000000  0.500000000  0.351605267
     0.000000000  0.500000000  0.450535089
     0.250000000  0.250000000  0.450535089
     0.999999995  0.250229246  0.549913058
     0.251264402  0.499907421  0.550551274
     0.000000017  0.499888939  0.648188279
     0.249874845  0.249731960  0.648151920
     0.500000000  0.750000000  0.351605267
     0.750000000  0.000000000  0.351605267
     0.500000000  0.000000000  0.450535089
     0.750000000  0.750000000  0.450535089
     0.499999996  0.748689127  0.550582001
     0.749736477  0.999989873  0.549908956
     0.499999995  0.000230885  0.648178485
     0.750319838  0.750035869  0.648043580
     0.500000000  0.250000000  0.351605267
     0.750000000  0.500000000  0.351605267
     0.500000000  0.500000000  0.450535089
     0.750000000  0.250000000  0.450535089
     0.499999999  0.251188744  0.550506166
     0.748735610  0.499907415  0.550551309
     0.500000034  0.498638580  0.654927800
     0.750125161  0.249731957  0.648151929
     0.000000000  0.750000000  0.450535089
     0.250000000  0.000000000  0.450535089
     0.000000000  0.000000000  0.351605267
     0.250000000  0.750000000  0.351605267
     0.999999998  0.750486788  0.651100364
     0.249403677  0.999906086  0.651133405
     0.999999997  0.999932321  0.549747566
     0.249933154  0.750096792  0.549885275
     0.000000000  0.250000000  0.450535089
     0.250000000  0.500000000  0.450535089
     0.000000000  0.500000000  0.351605267
     0.250000000  0.250000000  0.351605267
     0.000000002  0.249363374  0.651160803
     0.247373170  0.499927644  0.651129740
     0.000000005  0.499978499  0.549670801
     0.249818529  0.249801412  0.549853953
     0.500000000  0.750000000  0.450535089
     0.750000000  0.000000000  0.450535089
     0.500000000  0.000000000  0.351605267
     0.750000000  0.750000000  0.351605267
     0.499999996  0.752917707  0.651485348
     0.750596322  0.999906078  0.651133423
     0.500000000  0.999871141  0.549675125
     0.750066839  0.750096789  0.549885280
     0.500000000  0.250000000  0.450535089
     0.750000000  0.500000000  0.450535089
     0.500000000  0.500000000  0.351605267
     0.750000000  0.250000000  0.351605267
     0.500000002  0.247330485  0.650918475
     0.752626876  0.499927627  0.651129742
[...]
      6.33074      0.00000      7.50000        -0.001638      0.000014      0.335797
      4.22049      0.00000      9.61025        -0.000037     -0.004005      0.091699
      6.33074      6.33074      9.61025        -0.018953     -0.016677      0.069980
      4.22049      6.31967     11.74432        -0.000160      0.001616      0.000609
      6.32851      8.44090     11.72996        -0.001084      0.000297     -0.002317
      4.22049      0.00195     13.82613        -0.000043     -0.000089      0.001789
      6.33344      6.33104     13.82325        -0.003884     -0.002076      0.000280
      4.22049      2.11025      7.50000        -0.000006      0.002908      0.341335
      6.33074      4.22049      7.50000        -0.002896     -0.000005      0.342075
      4.22049      4.22049      9.61025        -0.000021      0.002725      0.114307
      6.33074      2.11025      9.61025        -0.013255      0.015348      0.069951
      4.22049      2.12028     11.74270        -0.000140     -0.001481     -0.000202
      6.32007      4.21971     11.74367         0.001369      0.000087     -0.000777
      4.22049      4.20900     13.97009        -0.005444      0.003561      0.003941
      6.33179      2.10798     13.82556        -0.003064      0.002087     -0.001243
      0.00000      6.33074      9.61025        -0.000045      0.009452      0.076645
      2.11025      0.00000      9.61025        -0.010018     -0.001734      0.074429
      0.00000      0.00000      7.50000        -0.000010     -0.000396     -0.497335
      2.11025      6.33074      7.50000        -0.004097      0.003630     -0.500795
      8.44098      6.33485     13.88845        -0.000567      0.000861     -0.001692
      2.10521      8.44019     13.88916        -0.001080      0.000885     -0.001982
      8.44098      8.44041     11.72652        -0.000087     -0.000084      0.004345
      2.10968      6.33156     11.72946        -0.000415      0.000466     -0.001335
      0.00000      2.11025      9.61025        -0.000042     -0.010772      0.072733
      2.11025      4.22049      9.61025         0.013225      0.000025      0.096695
      0.00000      4.22049      7.50000        -0.000009      0.000392     -0.501380
      2.11025      2.11025      7.50000        -0.003209     -0.003656     -0.500889
      0.00000      2.10487     13.88974        -0.000627     -0.000356     -0.001755
      2.08807      4.21988     13.88908        -0.004590     -0.000264     -0.007884
      0.00000      4.22031     11.72488        -0.000625      0.000224      0.002696
      2.10871      2.10857     11.72879        -0.000255     -0.000354     -0.000984
      4.22049      6.33074      9.61025         0.000045     -0.013822      0.096630
      6.33074      0.00000      9.61025         0.010016     -0.001737      0.074523
      4.22049      0.00000      7.50000         0.000009      0.000470     -0.501330
      6.33074      6.33074      7.50000         0.004096      0.003632     -0.500780
      4.22049      6.35537     13.89666         0.000893      0.004028     -0.007764
      6.33577      8.44019     13.88916         0.001111      0.000945     -0.001900
      4.22049      8.43990     11.72498         0.000076      0.000391      0.002384
      6.33130      6.33156     11.72946         0.000456      0.000034     -0.000935
      4.22049      2.11025      9.61025         0.000043      0.012348      0.096866
      6.33074      4.22049      9.61025        -0.013233      0.000027      0.096769
      4.22049      4.22049      7.50000         0.000008     -0.000481     -0.507635
      6.33074      2.11025      7.50000         0.003208     -0.003657     -0.500874
      4.22049      2.08771     13.88457         0.001105     -0.002773     -0.005104
      6.35291      4.21988     13.88908         0.001898     -0.000553     -0.002906
      4.22049      4.22084     11.74772         0.000440      0.000237     -0.008283
      6.33227      2.10857     11.72879         0.000306      0.000061     -0.000626
    total drift:                                0.000045     -0.001798      0.016031

  FREE ENERGIE OF THE ION-ELECTRON SYSTEM (eV)
  free  energy   TOTEN  =      -391.42132790 eV

  energy  without entropy=     -391.42132790  energy(sigma->0) =     -391.42132790

 d Force =-0.6618960E-04[-0.194E-02, 0.180E-02]  d Energy =-0.8272040E-04 0.165E-04
 d Force =-0.5636254E+01[-0.564E+01,-0.563E+01]  d Ewald  =-0.5636375E+01 0.120E-03

 Finite differences progress:
  Degree of freedom:  12/ 12
  Displacement:        2/  2
  Total:              24/ 24

 SECOND DERIVATIVES (NOT SYMMETRIZED)
               1X          1Y          1Z          2X          2Y          2Z          3X          3Y          3Z          4X          4Y          4Z
  1X   -61.274806    0.000403   -0.000769    5.504281   -0.000104   -0.000052   27.402452    9.769520  -15.257679   27.402706   -9.769643   15.257982
  1Y     0.000705  -58.730105    8.040538    0.000180   38.053801    8.298405   10.526474    9.876823   -8.127064  -10.527766    9.877763   -8.128091
  1Z    -0.000407    8.054579  -24.704495   -0.000018    3.823190    2.612412  -11.453439   -5.903243    9.451326   11.453733   -5.903353    9.451548
  2X     5.506561   -0.000782    0.003821   -5.509194   -0.000653    0.000667   -0.054087    3.233401    0.647450   -0.057715   -3.231347   -0.648354
  2Y     0.000457   38.056008    3.826577   -0.000864  -40.695354   -5.324322   -0.327728    1.216829    0.661739    0.327109    1.216370    0.661203
  2Z     0.000025    8.291065    2.612019   -0.000015   -5.320188   -2.951596   -0.130674   -1.826395    0.139029    0.130686   -1.826427    0.139016
  3X    27.405677   10.537056  -11.458146   -0.054482   -0.326807   -0.132664  -29.605708  -11.562486   13.382394    2.201726    1.340825   -1.740894
  3Y     9.758584    9.879366   -5.897419    3.233459    1.217035   -1.827416  -11.553688  -10.597268    6.965002   -1.337756   -0.561006    0.759418
  3Z   -15.245593   -8.128422    9.453235    0.646855    0.660122    0.140118   13.373801    6.967149   -9.345984    1.739034    0.758160   -0.319183
  4X    27.404905  -10.537702   11.459427   -0.054712    0.326021    0.132327    2.202204   -1.340144    1.739425  -29.606110   11.562553  -13.382476
  4Y    -9.760868    9.880611   -5.902670   -3.233623    1.213633   -1.828004    1.339354   -0.560443    0.758649   11.552639  -10.596917    6.965792
  4Z    15.246772   -8.129549    9.452874   -0.647006    0.659977    0.140082   -1.739182    0.758169   -0.319183  -13.375156    6.967661   -9.346412

 Eigenvectors and eigenvalues of the dynamical matrix

   1 f  =  105.949690 THz   665.701533 2PiTHz 3534.101237 cm-1   438.172511 meV
             X         Y         Z           dx          dy          dz
      4.220494  4.351463 16.219838     0.283945   -0.000213    0.000067
      4.220492  5.360594 16.380693     0.021793    0.000513    0.000088
      3.393859  3.962139 16.673515    -0.544424   -0.270009    0.299413
      5.047127  3.962142 16.673519    -0.545019    0.270288   -0.299748
      0.000000  6.330738  7.500000            0           0           0
      2.110246  0.000000  7.500000            0           0           0
      0.000000  0.000000  9.610246            0           0           0
      2.110246  6.330738  9.610246            0           0           0
      0.000000  6.328071 11.729633            0           0           0
      2.112471  8.440899 11.729964            0           0           0
      0.000000  8.440595 13.830328            0           0           0
      2.107546  6.331041 13.823248            0           0           0
      0.000000  2.110246  7.500000            0           0           0
      2.110246  4.220492  7.500000            0           0           0
      0.000000  4.220492  9.610246            0           0           0
      2.110246  2.110246  9.610246            0           0           0
      8.440985  2.112181 11.730052            0           0           0
      2.120919  4.219711 11.743665            0           0           0
      0.000000  4.219555 13.826335            0           0           0
      2.109190  2.107984 13.825559            0           0           0
      4.220492  6.330738  7.500000            0           0           0
      6.330738  0.000000  7.500000            0           0           0
      4.220492  0.000000  9.610246            0           0           0
      6.330738  6.330738  9.610246            0           0           0
      4.220492  6.319673 11.744321            0           0           0
      6.328514  8.440899 11.729964            0           0           0
      4.220492  0.001949 13.826126            0           0           0
      6.333438  6.331041 13.823248            0           0           0
      4.220492  2.110246  7.500000            0           0           0
      6.330738  4.220492  7.500000            0           0           0
      4.220492  4.220492  9.610246            0           0           0
      6.330738  2.110246  9.610246            0           0           0
      4.220492  2.120280 11.742703            0           0           0
      6.320066  4.219711 11.743666            0           0           0
      4.220493  4.209001 13.970094            0           0           0
      6.331795  2.107984 13.825559            0           0           0
      0.000000  6.330738  9.610246            0           0           0
      2.110246  0.000000  9.610246            0           0           0
      0.000000  0.000000  7.500000            0           0           0
      2.110246  6.330738  7.500000            0           0           0
      8.440985  6.334847 13.888452            0           0           0
      2.105213  8.440192 13.889156            0           0           0
      8.440985  8.440413 11.726522            0           0           0
      2.109682  6.331556 11.729459            0           0           0
      0.000000  2.110246  9.610246            0           0           0
      2.110246  4.220492  9.610246            0           0           0
      0.000000  4.220492  7.500000            0           0           0
      2.110246  2.110246  7.500000            0           0           0
      0.000000  2.104872 13.889741            0           0           0
      2.088073  4.219882 13.889078            0           0           0
      0.000000  4.220311 11.724884            0           0           0
      2.108714  2.108570 11.728791            0           0           0
      4.220492  6.330738  9.610246            0           0           0
      6.330738  0.000000  9.610246            0           0           0
      4.220492  0.000000  7.500000            0           0           0
      6.330738  6.330738  7.500000            0           0           0
      4.220492  6.355367 13.896664            0           0           0
      6.335772  8.440192 13.889157            0           0           0
      4.220492  8.439897 11.724976            0           0           0
      6.331303  6.331555 11.729459            0           0           0
      4.220492  2.110246  9.610246            0           0           0
      6.330738  4.220492  9.610246            0           0           0
      4.220492  4.220492  7.500000            0           0           0
      6.330738  2.110246  7.500000            0           0           0
      4.220492  2.087713 13.884572            0           0           0
      6.352912  4.219881 13.889078            0           0           0
      4.220492  4.220844 11.747725            0           0           0
      6.332270  2.108570 11.728791            0           0           0

[...]

  12 f  =    0.555038 THz     3.487406 2PiTHz   18.514074 cm-1     2.295452 meV
             X         Y         Z           dx          dy          dz
      4.220494  4.351463 16.219838     0.587763   -0.006103   -0.001177
      4.220492  5.360594 16.380693    -0.141143   -0.001961    0.001589
      3.393859  3.962139 16.673515     0.422374   -0.295394    0.229395
      5.047127  3.962142 16.673519     0.422343    0.290416   -0.231460
      0.000000  6.330738  7.500000            0           0           0
      2.110246  0.000000  7.500000            0           0           0
      0.000000  0.000000  9.610246            0           0           0
      2.110246  6.330738  9.610246            0           0           0
      0.000000  6.328071 11.729633            0           0           0
      2.112471  8.440899 11.729964            0           0           0
      0.000000  8.440595 13.830328            0           0           0
      2.107546  6.331041 13.823248            0           0           0
      0.000000  2.110246  7.500000            0           0           0
      2.110246  4.220492  7.500000            0           0           0
      0.000000  4.220492  9.610246            0           0           0
      2.110246  2.110246  9.610246            0           0           0
      8.440985  2.112181 11.730052            0           0           0
      2.120919  4.219711 11.743665            0           0           0
      0.000000  4.219555 13.826335            0           0           0
      2.109190  2.107984 13.825559            0           0           0
      4.220492  6.330738  7.500000            0           0           0
      6.330738  0.000000  7.500000            0           0           0
      4.220492  0.000000  9.610246            0           0           0
      6.330738  6.330738  9.610246            0           0           0
      4.220492  6.319673 11.744321            0           0           0
      6.328514  8.440899 11.729964            0           0           0
      4.220492  0.001949 13.826126            0           0           0
      6.333438  6.331041 13.823248            0           0           0
      4.220492  2.110246  7.500000            0           0           0
      6.330738  4.220492  7.500000            0           0           0
      4.220492  4.220492  9.610246            0           0           0
      6.330738  2.110246  9.610246            0           0           0
      4.220492  2.120280 11.742703            0           0           0
      6.320066  4.219711 11.743666            0           0           0
      4.220493  4.209001 13.970094            0           0           0
      6.331795  2.107984 13.825559            0           0           0
      0.000000  6.330738  9.610246            0           0           0
      2.110246  0.000000  9.610246            0           0           0
      0.000000  0.000000  7.500000            0           0           0
      2.110246  6.330738  7.500000            0           0           0
      8.440985  6.334847 13.888452            0           0           0
      2.105213  8.440192 13.889156            0           0           0
      8.440985  8.440413 11.726522            0           0           0
      2.109682  6.331556 11.729459            0           0           0
      0.000000  2.110246  9.610246            0           0           0
      2.110246  4.220492  9.610246            0           0           0
      0.000000  4.220492  7.500000            0           0           0
      2.110246  2.110246  7.500000            0           0           0
      0.000000  2.104872 13.889741            0           0           0
      2.088073  4.219882 13.889078            0           0           0
      0.000000  4.220311 11.724884            0           0           0
      2.108714  2.108570 11.728791            0           0           0
      4.220492  6.330738  9.610246            0           0           0
      6.330738  0.000000  9.610246            0           0           0
      4.220492  0.000000  7.500000            0           0           0
      6.330738  6.330738  7.500000            0           0           0
      4.220492  6.355367 13.896664            0           0           0
      6.335772  8.440192 13.889157            0           0           0
      4.220492  8.439897 11.724976            0           0           0
      6.331303  6.331555 11.729459            0           0           0
      4.220492  2.110246  9.610246            0           0           0
      6.330738  4.220492  9.610246            0           0           0
      4.220492  4.220492  7.500000            0           0           0
      6.330738  2.110246  7.500000            0           0           0
      4.220492  2.087713 13.884572            0           0           0
      6.352912  4.219881 13.889078            0           0           0
      4.220492  4.220844 11.747725            0           0           0
      6.332270  2.108570 11.728791            0           0           0

 Finite differences POTIM=   1.0000000000000000E-002