 vasp.6.3.0 20Jan22 (build Apr  1 2022 16:44:48) complex
 executed on        HPECrayEX_GCC date 2023.03.11  23:03:28

 INCAR:
   SYSTEM = MgO-rocksalt
   ISMEAR = 0
   SIGMA = 0.05
   EDIFF = 1E-6
   ALGO = ALL
   ISTART = 0
   IBRION = -1
   NSW = 0
   ISYM = 0
   DIPOL = 0.5 0.5 0.5
   IDIPOL = 3
   LDIPOL = .TRUE.
   LHFCALC = .TRUE.
   GGA = B5
   AEXX = 0.2
   AGGAX = 0.72
   AGGAC = 0.81
   ALDAC = 0.19
   IVDW = 1
   VDW_S6 = 1.05
   VDW_C6 = 1.23 0.70 0.63 0.70
   VDW_R0 = 1.397 1.342 1.243 1.342
   ENCUT = 600
   PREC = Accurate
   LASPH = .TRUE.
   LREAL = .FALSE.
   ISPIN = 1
   NELM = 200
   NELMIN = 8
   NCORE = 8
   KPAR = 1
   LWAVE = .FALSE.
   LCHARG = .FALSE.

 POTCAR:    PAW_PBE N 08Apr2002
 POTCAR:    PAW_PBE O 08Apr2002
 POTCAR:    PAW_PBE Mg_pv 13Apr2007
 POTCAR:    PAW_PBE O 08Apr2002
 POTCAR:    PAW_PBE N 08Apr2002
   VRHFIN =N: s2p3

   TITEL  = PAW_PBE N 08Apr2002
   POMASS =   14.001; ZVAL   =    5.000    mass and valenz
   ENMAX  =  400.000; ENMIN  =  300.000 eV

[...]

   TITEL  = PAW_PBE Mg_pv 13Apr2007
   POMASS =   24.305; ZVAL   =    8.000    mass and valenz
   ENMAX  =  403.929; ENMIN  =  302.947 eV

   TITEL  = PAW_PBE O 08Apr2002
   POMASS =   16.000; ZVAL   =    6.000    mass and valenz
   ENMAX  =  400.000; ENMIN  =  300.000 eV

  PAW_PBE N 08Apr2002                   :
  PAW_PBE O 08Apr2002                   :
  PAW_PBE Mg_pv 13Apr2007               :
  PAW_PBE O 08Apr2002                   :

 POSCAR:  N  O Mg  O
  positions in direct lattice
 exchange correlation table for  LEXCH =       12
   RHO(1)=    0.500       N(1)  =     2000
   RHO(2)=  100.500       N(2)  =     4000

 ion  position               nearest neighbor table
   1  0.495  0.518  0.769-   2 1.14
   2  0.471  0.595  0.812-   1 1.14   3 1.20
   3  0.447  0.677  0.857-   2 1.20
   4  0.250  0.000  0.351-  36 2.12  38 2.12  39 2.12  46 2.12  55 2.12
   5  0.500  0.250  0.351-  37 2.12  38 2.12  39 2.12  47 2.12  54 2.12
   6  0.250  0.250  0.450-  38 2.12  37 2.12  36 2.12  44 2.12  53 2.12  42 2.12
   7  0.500  0.000  0.450-  39 2.12  37 2.12  36 2.12  45 2.12  52 2.12  43 2.12
   8  0.250  0.000  0.550-  42 2.12  43 2.12  50 2.12  59 2.12  36 2.13  40 2.15
   9  0.500  0.250  0.550-  51 2.11  58 2.12  42 2.12  43 2.12  37 2.13  41 2.14
  10  0.250  0.250  0.648-  42 2.10  41 2.12  40 2.12  57 2.12  48 2.12
  11  0.500  0.000  0.648-  43 2.10  41 2.11  49 2.11  56 2.12  40 2.12
  12  0.250  0.500  0.351-  44 2.12  38 2.12  46 2.12  47 2.12  63 2.12
  13  0.500  0.750  0.351-  45 2.12  39 2.12  46 2.12  47 2.12  62 2.12
  14  0.250  0.750  0.450-  46 2.12  44 2.12  45 2.12  36 2.12  61 2.12  50 2.12
  15  0.500  0.500  0.450-  47 2.12  44 2.12  45 2.12  37 2.12  60 2.12  51 2.13
  16  0.250  0.500  0.550-  51 2.11  42 2.12  50 2.12  67 2.12  44 2.13  48 2.15
  17  0.500  0.749  0.550-  51 2.11  66 2.12  50 2.12  43 2.12  45 2.13  49 2.15
  18  0.250  0.750  0.648-  50 2.10  65 2.12  40 2.12  48 2.12  49 2.12
  19  0.500  0.499  0.650-  41 2.12  64 2.12  48 2.12  49 2.13  51 2.14
  20  0.750  0.000  0.351-  52 2.12  39 2.12  54 2.12  55 2.12  62 2.12
  21  0.000  0.250  0.351-  53 2.12  38 2.12  54 2.12  55 2.12  63 2.12
  22  0.750  0.250  0.450-  54 2.12  52 2.12  53 2.12  37 2.12  60 2.12  58 2.12
  23  0.000  0.000  0.450-  55 2.12  52 2.12  53 2.12  36 2.12  61 2.12  59 2.12
  24  0.750  0.000  0.550-  58 2.12  43 2.12  66 2.12  59 2.12  52 2.13  56 2.15
  25  1.000  0.250  0.550-  58 2.12  42 2.12  67 2.12  59 2.12  53 2.13  57 2.15
  26  0.750  0.250  0.648-  58 2.10  41 2.12  56 2.12  57 2.12  64 2.12
  27  1.000  0.000  0.648-  59 2.11  57 2.12  56 2.12  40 2.12  65 2.12
  28  0.750  0.500  0.351-  60 2.12  54 2.12  47 2.12  62 2.12  63 2.12
  29  0.000  0.750  0.351-  61 2.12  55 2.12  46 2.12  62 2.12  63 2.12
  30  0.750  0.750  0.450-  62 2.12  52 2.12  60 2.12  61 2.12  45 2.12  66 2.12
  31  0.000  0.500  0.450-  63 2.12  53 2.12  60 2.12  61 2.12  44 2.12  67 2.12
  32  0.750  0.500  0.550-  51 2.11  58 2.12  66 2.12  67 2.12  60 2.13  64 2.14
  33  1.000  0.750  0.550-  67 2.12  66 2.12  50 2.12  59 2.12  61 2.13  65 2.15
  34  0.750  0.750  0.648-  66 2.10  65 2.12  56 2.12  64 2.12  49 2.12
  35  1.000  0.500  0.648-  67 2.10  64 2.11  48 2.11  57 2.12  65 2.12
  36  0.250  0.000  0.450-   4 2.12   6 2.12   7 2.12  14 2.12  23 2.12   8 2.13
  37  0.500  0.250  0.450-   5 2.12   6 2.12   7 2.12  15 2.12  22 2.12   9 2.13
  38  0.250  0.250  0.351-   6 2.12   5 2.12   4 2.12  12 2.12  21 2.12
  39  0.500  0.000  0.351-   7 2.12   5 2.12   4 2.12  13 2.12  20 2.12
  40  0.250  1.000  0.651-  18 2.12  27 2.12  10 2.12  11 2.12   8 2.15
  41  0.500  0.249  0.650-  11 2.11  10 2.12  26 2.12  19 2.12   9 2.14
  42  0.250  0.250  0.550-  10 2.10   8 2.12  25 2.12  16 2.12   9 2.12   6 2.12
  43  0.500  1.000  0.550-  11 2.10   8 2.12  24 2.12  17 2.12   7 2.12   9 2.12
  44  0.250  0.500  0.450-  12 2.12   6 2.12  14 2.12  15 2.12  31 2.12  16 2.13
  45  0.500  0.750  0.450-  13 2.12   7 2.12  14 2.12  15 2.12  30 2.12  17 2.13
  46  0.250  0.750  0.351-  14 2.12  12 2.12  13 2.12   4 2.12  29 2.12
  47  0.500  0.500  0.351-  15 2.12  12 2.12  13 2.12   5 2.12  28 2.12
  48  0.249  0.500  0.651-  35 2.11  18 2.12  10 2.12  19 2.12  16 2.15
  49  0.500  0.751  0.651-  11 2.11  18 2.12  34 2.12  19 2.13  17 2.15
  50  0.250  0.750  0.550-  18 2.10  33 2.12   8 2.12  17 2.12  16 2.12  14 2.12
  51  0.500  0.500  0.550-  17 2.11  16 2.11  32 2.11   9 2.11  15 2.13  19 2.14
  52  0.750  0.000  0.450-  20 2.12   7 2.12  22 2.12  23 2.12  30 2.12  24 2.13
  53  0.000  0.250  0.450-  21 2.12   6 2.12  22 2.12  23 2.12  31 2.12  25 2.13
  54  0.750  0.250  0.351-  22 2.12  20 2.12  21 2.12   5 2.12  28 2.12
  55  0.000  0.000  0.351-  23 2.12  20 2.12  21 2.12   4 2.12  29 2.12
  56  0.750  1.000  0.651-  27 2.12  34 2.12  26 2.12  11 2.12  24 2.15
  57  0.000  0.250  0.651-  27 2.12  10 2.12  26 2.12  35 2.12  25 2.15
  58  0.750  0.250  0.550-  26 2.10  24 2.12  25 2.12  32 2.12   9 2.12  22 2.12
  59  0.000  1.000  0.550-  27 2.11  33 2.12   8 2.12  24 2.12  25 2.12  23 2.12
  60  0.750  0.500  0.450-  28 2.12  22 2.12  15 2.12  30 2.12  31 2.12  32 2.13
  61  0.000  0.750  0.450-  29 2.12  23 2.12  14 2.12  30 2.12  31 2.12  33 2.13
  62  0.750  0.750  0.351-  30 2.12  20 2.12  28 2.12  29 2.12  13 2.12
  63  0.000  0.500  0.351-  31 2.12  21 2.12  28 2.12  29 2.12  12 2.12
  64  0.751  0.500  0.651-  35 2.11  34 2.12  26 2.12  19 2.12  32 2.14
  65  0.000  0.750  0.651-  18 2.12  34 2.12  27 2.12  35 2.12  33 2.15
  66  0.750  0.750  0.550-  34 2.10  33 2.12  24 2.12  17 2.12  32 2.12  30 2.12
  67  0.000  0.500  0.550-  35 2.10  33 2.12  25 2.12  31 2.12  16 2.12  32 2.12

IMPORTANT INFORMATION: All symmetrisations will be switched off!
NOSYMM: (Re-)initialisation of all symmetry stuff for point group C_1.

                                     Primitive cell

  volume of cell :    1530.6606

  direct lattice vectors                    reciprocal lattice vectors
     8.467142631  0.000000000  0.000000000     0.118103597  0.000000000  0.000000000
     0.000000000  8.467142631  0.000000000     0.000000000  0.118103597  0.000000000
     0.000000000  0.000000000 21.350356973     0.000000000  0.000000000  0.046837624

  length of vectors
     8.467142631  8.467142631 21.350356973     0.118103597  0.118103597  0.046837624

  position of ions in fractional coordinates (direct lattice)
     0.494523686  0.517814064  0.769494881
     0.471210307  0.595159257  0.812311958
     0.446606029  0.676655478  0.857034181
     0.250000000  0.000000000  0.351282183
     0.500000000  0.250000000  0.351282183
     0.250000000  0.250000000  0.450427394
     0.500000000  0.000000000  0.450427394
     0.250059666  0.000062687  0.550067214
     0.500019149  0.250348925  0.550259409
     0.250055256  0.249843302  0.648308816
     0.500009437  0.000226404  0.648234394
     0.250000000  0.500000000  0.351282183
     0.500000000  0.750000000  0.351282183
     0.250000000  0.750000000  0.450427394
     0.500000000  0.500000000  0.450427394
     0.250466392  0.499847616  0.550249011
     0.500028851  0.749459032  0.550257739
     0.249714965  0.750081040  0.648008567
     0.500207128  0.499200776  0.650429793
     0.750000000  0.000000000  0.351282183
     0.000000000  0.250000000  0.351282183
     0.750000000  0.250000000  0.450427394
     0.000000000  0.000000000  0.450427394
     0.749928682  0.000026807  0.550079500
     0.999983031  0.250018417  0.550089079
     0.749954520  0.249891022  0.648322186
     0.999971123  0.000010671  0.648446490
     0.750000000  0.500000000  0.351282183
     0.000000000  0.750000000  0.351282183
     0.750000000  0.750000000  0.450427394
     0.000000000  0.500000000  0.450427394
     0.749556806  0.499858761  0.550251209
     0.999947268  0.749884355  0.550054262
     0.750198696  0.749941549  0.648149440
     0.999907868  0.499835900  0.648234899
     0.250000000  0.000000000  0.450427394
     0.500000000  0.250000000  0.450427394
     0.250000000  0.250000000  0.351282183
     0.500000000  0.000000000  0.351282183
     0.249823815  0.999845244  0.650804716
     0.499989005  0.249055431  0.650379242
     0.249844226  0.249867789  0.549794388
     0.499980654  0.999730104  0.549727501
     0.250000000  0.500000000  0.450427394
     0.500000000  0.750000000  0.450427394
     0.250000000  0.750000000  0.351282183
     0.500000000  0.500000000  0.351282183
     0.249246456  0.500052603  0.650766498
     0.499922968  0.750682062  0.651054315
     0.249951742  0.750039314  0.549776506
     0.499959732  0.500082167  0.550143809
     0.750000000  0.000000000  0.450427394
     0.000000000  0.250000000  0.450427394
     0.750000000  0.250000000  0.351282183
     0.000000000  0.000000000  0.351282183
     0.750158039  0.999833772  0.650820499
     0.000020973  0.249773370  0.650815655
     0.750157700  0.249820529  0.549784275
     0.000007678  0.999898748  0.549780711
     0.750000000  0.500000000  0.450427394
     0.000000000  0.750000000  0.450427394
     0.750000000  0.750000000  0.351282183
     0.000000000  0.500000000  0.351282183
     0.750786376  0.499993749  0.650568910
     0.000011981  0.750074802  0.650814648
     0.750028767  0.750066711  0.549793921
     0.000063540  0.500008691  0.549727432

  ion indices of the primitive-cell ions
   primitive index   ion index
                 1           1
                 2           2
                 3           3
                 4           4
                 5           5
                 6           6
                 7           7
                 8           8
                 9           9
                10          10
                11          11
                12          12
                13          13
                14          14
                15          15
                16          16
                17          17
                18          18
                19          19
                20          20
                21          21
                22          22
                23          23
                24          24
                25          25
                26          26
[...]
   0.75078638  0.49999375  0.65056891
   0.00001198  0.75007480  0.65081465
   0.75002877  0.75006671  0.54979392
   0.00006354  0.50000869  0.54972743

 position of ions in cartesian coordinates  (Angst):
   4.18720258  4.38440554 16.42899040
   3.98980488  5.03929831 17.34315027
   3.78147695  5.72933845 18.29798569
   2.11678566  0.00000000  7.50000000
   4.23357132  2.11678566  7.50000000
   2.11678566  2.11678566  9.61678566
   4.23357132  0.00000000  9.61678566
   2.11729086  0.00053078 11.74413138
   4.23373345  2.11974006 11.74823481
   2.11725352  2.11545887 13.84162466
   4.23365122  0.00191700 13.84003572
   2.11678566  4.23357132  7.50000000
   4.23357132  6.35035697  7.50000000
   2.11678566  6.35035697  9.61678566
   4.23357132  4.23357132  9.61678566
   2.12073467  4.23228106 11.74801281
   4.23381560  6.34577652 11.74819915
   2.11437223  6.35104315 13.83521423
   4.23532510  4.22680417 13.88690827
   6.35035697  0.00000000  7.50000000
   0.00000000  2.11678566  7.50000000
   6.35035697  2.11678566  9.61678566
   0.00000000  0.00000000  9.61678566
   6.34975311  0.00022698 11.74439368
   8.46699895  2.11694160 11.74459820
   6.34997189  2.11586293 13.84191010
   8.46689813  0.00009036 13.84456404
   6.35035697  4.23357132  7.50000000
   0.00000000  6.35035697  7.50000000
   6.35035697  6.35035697  9.61678566
   0.00000000  4.23357132  9.61678566
   6.34660439  4.23237543 11.74805974
   8.46669614  6.34937779 11.74385484
   6.35203936  6.34986206 13.83822191
   8.46636253  4.23218186 13.84004649
   2.11678566  0.00000000  9.61678566
   4.23357132  2.11678566  9.61678566
   2.11678566  2.11678566  7.50000000
   4.23357132  0.00000000  7.50000000
   2.11529387  8.46583229 13.89491301
   4.23347822  2.10878786 13.88582898
   2.11546670  2.11566621 11.73830645
   4.23340751  8.46485738 11.73687839
   2.11678566  4.23357132  9.61678566
   4.23357132  6.35035697  9.61678566
   2.11678566  6.35035697  7.50000000
   4.23357132  4.23357132  7.50000000
   2.11040529  4.23401671 13.89409704
   4.23291908  6.35613209 13.90024204
   2.11637705  6.35068985 11.73792467
   4.23323036  4.23426704 11.74576672
   6.35035697  0.00000000  9.61678566
   0.00000000  2.11678566  9.61678566
   6.35035697  2.11678566  7.50000000
   0.00000000  0.00000000  7.50000000
   6.35169511  8.46573515 13.89524997
   0.00017758  2.11486675 13.89514656
   6.35169224  2.11526605 11.73809053
   0.00006501  8.46628531 11.73801444
   6.35035697  4.23357132  9.61678566
   0.00000000  6.35035697  9.61678566
   6.35035697  6.35035697  7.50000000
   0.00000000  4.23357132  7.50000000
   6.35701533  4.23351838 13.88987846
   0.00010144  6.35099033 13.89512506
   6.35060054  6.35092182 11.73829648
   0.00053800  4.23364491 11.73687692

--------------------------------------- Iteration      FINAL  ---------------------------------------

--------------------OUTCAR has been truncated-------------------------

[...]

--------------------OUTCAR has been truncated-------------------------

  DFT-D2 method for vdW energy calculation

  Parameters of vdW forcefield:
         C6(Jnm^6/mol)     R0(A)
   N        1.230          1.397
   O        0.700          1.342
   Mg       0.630          1.243
   O        0.700          1.342

  vdW correction parametrized for the method        ¼Ó

  IVDW =   1
  VDW_RADIUS =    50.000 A
  VDW_S6 =     1.050
  VDW_SR =     1.000
  VDW_D =    20.000
  LVDW_EWALD = F

  Number of pair interactions contributing to vdW energy:  786517
  Edisp (eV):   -5.12799

 VOLUME and BASIS-vectors are now :
  energy-cutoff  :      600.00
  volume of cell :     1530.66
      direct lattice vectors                 reciprocal lattice vectors
     8.467142631  0.000000000  0.000000000     0.118103597  0.000000000  0.000000000
     0.000000000  8.467142631  0.000000000     0.000000000  0.118103597  0.000000000
     0.000000000  0.000000000 21.350356973     0.000000000  0.000000000  0.046837624

  length of vectors
     8.467142631  8.467142631 21.350356973     0.118103597  0.118103597  0.046837624

 FORCES acting on ions:
    Electron-Ion                     Ewald-Force                    Non-Local-Force
   -.510E+02 0.169E+03 -.106E+04   0.597E+02 -.197E+03 0.102E+04   -.828E+01 0.275E+02 0.379E+02
   -.460E+01 0.151E+02 -.104E+04   0.452E+01 -.148E+02 0.104E+04   0.309E+00 -.107E+01 -.110E+01
   0.530E+02 -.175E+03 -.123E+04   -.647E+02 0.214E+03 0.128E+04   0.104E+02 -.346E+02 -.477E+02
   0.216E+00 -.141E+00 0.206E+04   -.214E+00 0.141E+00 -.206E+04   -.847E-03 0.166E-03 -.637E+01
   -.468E-01 0.170E+00 0.206E+04   0.466E-01 -.167E+00 -.206E+04   0.802E-04 -.161E-02 -.638E+01
   0.656E+00 0.569E+00 0.723E+03   -.655E+00 -.559E+00 -.723E+03   -.140E-03 -.590E-02 0.424E+00
   -.143E+00 -.506E+00 0.723E+03   0.144E+00 0.488E+00 -.724E+03   -.927E-03 0.115E-01 0.379E+00
   0.397E+01 -.189E+01 -.613E+03   -.395E+01 0.191E+01 0.613E+03   -.153E-01 -.238E-01 -.134E+00
   -.535E+00 0.512E+01 -.606E+03   0.537E+00 -.500E+01 0.607E+03   -.308E-02 -.105E+00 -.444E+00
   0.209E+02 0.205E+02 -.194E+04   -.209E+02 -.206E+02 0.193E+04   -.979E-03 0.442E-01 0.545E+01
   -.238E+01 -.108E+02 -.194E+04   0.239E+01 0.109E+02 0.193E+04   -.539E-02 -.111E+00 0.539E+01
   0.227E+00 0.141E+00 0.206E+04   -.224E+00 -.141E+00 -.206E+04   -.210E-02 -.403E-04 -.638E+01
   -.521E-01 -.171E+00 0.206E+04   0.520E-01 0.168E+00 -.206E+04   0.549E-04 0.194E-02 -.638E+01
   0.764E+00 -.585E+00 0.724E+03   -.746E+00 0.572E+00 -.724E+03   -.114E-01 0.780E-02 0.428E+00
   -.169E+00 0.495E+00 0.724E+03   0.166E+00 -.487E+00 -.724E+03   0.215E-02 -.594E-02 0.485E+00
   0.590E+01 0.197E+01 -.605E+03   -.578E+01 -.200E+01 0.605E+03   -.108E+00 0.217E-01 -.277E+00
   -.774E+00 -.518E+01 -.604E+03   0.783E+00 0.506E+01 0.604E+03   -.856E-02 0.105E+00 -.164E+00
   0.281E+02 -.223E+02 -.192E+04   -.282E+02 0.224E+02 0.191E+04   0.868E-01 -.520E-01 0.547E+01
   -.516E+01 0.164E+02 -.186E+04   0.520E+01 -.166E+02 0.185E+04   -.439E-01 0.158E+00 0.491E+01
   -.216E+00 -.136E+00 0.206E+04   0.214E+00 0.136E+00 -.206E+04   0.861E-03 0.234E-03 -.638E+01
   0.467E-01 0.159E+00 0.206E+04   -.466E-01 -.158E+00 -.206E+04   -.808E-04 -.477E-03 -.638E+01
   -.654E+00 0.542E+00 0.723E+03   0.653E+00 -.538E+00 -.723E+03   0.906E-04 -.184E-02 0.418E+00
   0.140E+00 -.394E+00 0.722E+03   -.142E+00 0.397E+00 -.722E+03   0.125E-02 -.184E-02 0.417E+00
   -.395E+01 -.167E+01 -.614E+03   0.394E+01 0.169E+01 0.614E+03   0.148E-01 -.170E-01 -.136E+00
   0.514E+00 0.324E+01 -.616E+03   -.517E+00 -.322E+01 0.616E+03   0.302E-02 -.155E-01 -.146E+00
   -.206E+02 0.192E+02 -.194E+04   0.206E+02 -.192E+02 0.194E+04   0.189E-02 0.180E-01 0.545E+01
   0.214E+01 -.543E+01 -.196E+04   -.214E+01 0.546E+01 0.196E+04   0.559E-02 -.290E-01 0.538E+01
   -.227E+00 0.136E+00 0.206E+04   0.224E+00 -.136E+00 -.206E+04   0.207E-02 -.737E-04 -.638E+01
   0.518E-01 -.159E+00 0.206E+04   -.518E-01 0.158E+00 -.206E+04   -.712E-05 0.616E-03 -.637E+01
   -.762E+00 -.557E+00 0.723E+03   0.743E+00 0.549E+00 -.724E+03   0.122E-01 0.453E-02 0.431E+00
   0.169E+00 0.389E+00 0.723E+03   -.165E+00 -.396E+00 -.723E+03   -.302E-02 0.419E-02 0.378E+00
   -.587E+01 0.174E+01 -.606E+03   0.576E+01 -.176E+01 0.606E+03   0.108E+00 0.160E-01 -.360E+00
   0.728E+00 -.327E+01 -.612E+03   -.738E+00 0.325E+01 0.613E+03   0.949E-02 0.166E-01 -.117E+00
   -.271E+02 -.205E+02 -.193E+04   0.272E+02 0.205E+02 0.192E+04   -.828E-01 -.223E-01 0.546E+01
   0.323E+01 0.578E+01 -.195E+04   -.326E+01 -.581E+01 0.194E+04   0.328E-01 0.280E-01 0.540E+01
   0.568E+00 -.299E+00 0.542E+03   -.561E+00 0.298E+00 -.541E+03   -.952E-02 0.882E-03 -.771E-01
   -.918E-01 0.529E+00 0.542E+03   0.920E-01 -.548E+00 -.542E+03   -.268E-03 0.224E-01 -.104E+00
   0.158E+00 0.123E+00 0.155E+04   -.157E+00 -.121E+00 -.155E+04   -.128E-02 -.233E-02 0.313E+01
   -.360E-01 -.111E+00 0.155E+04   0.362E-01 0.110E+00 -.155E+04   -.233E-03 0.126E-02 0.313E+01
   0.110E+02 -.719E+01 -.149E+04   -.110E+02 0.720E+01 0.149E+04   -.423E-01 -.121E-01 -.472E+01
   -.192E+01 0.253E+02 -.146E+04   0.192E+01 -.252E+02 0.147E+04   0.651E-03 -.128E+00 -.473E+01
   0.332E+01 0.298E+01 -.451E+03   -.330E+01 -.297E+01 0.451E+03   -.145E-01 -.854E-02 0.369E+00
   -.459E+00 -.156E+01 -.450E+03   0.459E+00 0.157E+01 0.450E+03   0.387E-03 -.773E-02 0.381E+00
   0.653E+00 0.295E+00 0.542E+03   -.678E+00 -.290E+00 -.542E+03   0.299E-01 -.545E-02 -.112E+00
   -.116E+00 -.548E+00 0.543E+03   0.115E+00 0.578E+00 -.542E+03   0.939E-03 -.357E-01 -.119E+00
   0.170E+00 -.123E+00 0.155E+04   -.167E+00 0.122E+00 -.155E+04   -.352E-02 0.222E-02 0.313E+01
   -.388E-01 0.111E+00 0.155E+04   0.383E-01 -.110E+00 -.155E+04   0.499E-03 -.168E-02 0.313E+01
   0.302E+02 0.862E+01 -.145E+04   -.301E+02 -.863E+01 0.146E+04   -.165E+00 0.764E-02 -.467E+01
   -.367E+01 -.291E+02 -.144E+04   0.368E+01 0.289E+02 0.144E+04   -.345E-02 0.191E+00 -.460E+01
   0.372E+01 -.304E+01 -.447E+03   -.371E+01 0.303E+01 0.447E+03   -.369E-02 0.989E-02 0.473E+00
   -.542E+00 0.164E+01 -.448E+03   0.547E+00 -.166E+01 0.449E+03   -.342E-02 0.136E-01 -.121E+00
   -.568E+00 -.279E+00 0.541E+03   0.561E+00 0.280E+00 -.541E+03   0.878E-02 -.223E-02 -.822E-01
   0.913E-01 0.452E+00 0.541E+03   -.915E-01 -.443E+00 -.541E+03   0.358E-03 -.116E-01 -.866E-01
   -.158E+00 0.121E+00 0.155E+04   0.157E+00 -.119E+00 -.155E+04   0.128E-02 -.167E-02 0.313E+01
   0.360E-01 -.989E-01 0.155E+04   -.361E-01 0.995E-01 -.155E+04   0.209E-03 -.827E-03 0.313E+01
   -.108E+02 -.596E+01 -.149E+04   0.108E+02 0.596E+01 0.149E+04   0.422E-01 -.490E-02 -.471E+01
   0.164E+01 0.823E+01 -.149E+04   -.164E+01 -.819E+01 0.150E+04   -.253E-03 -.367E-01 -.471E+01
   -.331E+01 0.292E+01 -.452E+03   0.329E+01 -.290E+01 0.452E+03   0.151E-01 -.122E-01 0.359E+00
   0.447E+00 -.120E+01 -.457E+03   -.448E+00 0.121E+01 0.456E+03   0.419E-03 -.234E-02 0.328E+00
   -.650E+00 0.272E+00 0.542E+03   0.673E+00 -.268E+00 -.542E+03   -.279E-01 -.416E-02 -.108E+00
   0.112E+00 -.463E+00 0.542E+03   -.109E+00 0.459E+00 -.542E+03   -.280E-02 0.592E-02 -.711E-01
   -.170E+00 -.121E+00 0.155E+04   0.167E+00 0.119E+00 -.155E+04   0.346E-02 0.150E-02 0.313E+01
   0.386E-01 0.992E-01 0.155E+04   -.382E-01 -.997E-01 -.155E+04   -.427E-03 0.658E-03 0.313E+01
   -.289E+02 0.701E+01 -.146E+04   0.288E+02 -.701E+01 0.146E+04   0.148E+00 0.499E-02 -.470E+01
   0.281E+01 -.850E+01 -.149E+04   -.282E+01 0.846E+01 0.149E+04   0.823E-02 0.393E-01 -.471E+01
   -.369E+01 -.296E+01 -.449E+03   0.368E+01 0.295E+01 0.449E+03   0.416E-02 0.134E-01 0.431E+00
   0.510E+00 0.123E+01 -.451E+03   -.514E+00 -.124E+01 0.451E+03   0.222E-02 0.298E-02 0.377E+00
   -.311E+01 0.103E+02 0.335E+02   0.200E-12 -.313E-12 0.290E-11   0.244E+01 -.808E+01 -.281E+02

 POSITION                                       TOTAL-FORCE (eV/Angst)
      4.18720      4.38441     16.42899        -0.355606      1.180373      1.696688
      3.98980      5.03930     17.34315         0.265048     -0.875308     -1.261919
      3.78148      5.72934     18.29799         0.088974     -0.293276     -0.389167
      2.11679      0.00000      7.50000         0.000414     -0.000046      0.509733
      4.23357      2.11679      7.50000        -0.000047      0.000575      0.510470
      2.11679      2.11679      9.61679         0.000965      0.002998      0.026033
      4.23357      0.00000      9.61679         0.000402     -0.004508      0.035183
      2.11729      0.00053     11.74413        -0.000504     -0.002200     -0.013003
      4.23373      2.11974     11.74823        -0.000774     -0.001107     -0.004315
      2.11725      2.11546     13.84162        -0.005397     -0.002063     -0.068800
      4.23365      0.00192     13.84004        -0.000049     -0.003502     -0.064215
      2.11679      4.23357      7.50000         0.000754      0.000081      0.511405
      4.23357      6.35036      7.50000        -0.000049     -0.000637      0.511831
      2.11679      6.35036      9.61679         0.005112     -0.003858      0.025566
      4.23357      4.23357      9.61679        -0.000618      0.001404      0.037643
      2.12073      4.23228     11.74801        -0.001472      0.002723     -0.003758
      4.23382      6.34578     11.74820        -0.000731      0.001608     -0.005014
      2.11437      6.35104     13.83521        -0.001889      0.003026     -0.074280
      4.23533      4.22680     13.88691         0.000843     -0.003272     -0.102271
      6.35036      0.00000      7.50000        -0.000397     -0.000062      0.510279
      0.00000      2.11679      7.50000         0.000031      0.000254      0.510864
      6.35036      2.11679      9.61679        -0.000935      0.001402      0.026475
      0.00000      0.00000      9.61679        -0.000546      0.000763      0.023860
      6.34975      0.00023     11.74439         0.000718     -0.002305     -0.012129
      8.46700      2.11694     11.74460         0.000800     -0.000456     -0.010756
      6.34997      2.11586     13.84191         0.005436     -0.003068     -0.066615
      8.46690      0.00009     13.84456         0.000061      0.001362     -0.072091
      6.35036      4.23357      7.50000        -0.000720      0.000088      0.511044
      0.00000      6.35036      7.50000         0.000046     -0.000272      0.509534
      6.35036      6.35036      9.61679        -0.005550     -0.002693      0.025531
      0.00000      4.23357      9.61679         0.001159     -0.001925      0.035240
      6.34660      4.23238     11.74806         0.001477      0.002762     -0.003608
      8.46670      6.34938     11.74385         0.000704      0.000399     -0.014723
      6.35204      6.34986     13.83822         0.001658      0.003797     -0.073043
      8.46636      4.23218     13.84005         0.001316     -0.000794     -0.065700
      2.11679      0.00000      9.61679        -0.003301     -0.000058      0.046590
      4.23357      2.11679      9.61679        -0.000184      0.006585      0.057953
      2.11679      2.11679      7.50000        -0.000378     -0.000746     -0.393257
      4.23357      0.00000      7.50000        -0.000115      0.000476     -0.393291
      2.11529      8.46583     13.89491        -0.000441      0.001003     -0.142357
      4.23348      2.10879     13.88583         0.000074      0.003271     -0.129265
      2.11547      2.11567     11.73831         0.003823      0.002899      0.011575
      4.23341      8.46486     11.73688         0.000742      0.004394      0.016864
      2.11679      4.23357      9.61679         0.008766     -0.001242      0.053680
      4.23357      6.35036      9.61679         0.000192     -0.010496      0.051956
      2.11679      6.35036      7.50000        -0.001183      0.000748     -0.392841
      4.23357      4.23357      7.50000         0.000135     -0.000582     -0.394484
      2.11041      4.23402     13.89410         0.003786      0.001342     -0.128959
      4.23292      6.35613     13.90024        -0.000410     -0.004229     -0.125063
      2.11638      6.35069     11.73792         0.002235     -0.002177      0.018450
      4.23323      4.23427     11.74577         0.001102     -0.003121      0.000568
      6.35036      0.00000      9.61679         0.003087     -0.000998      0.046058
      0.00000      2.11679      9.61679         0.000229     -0.003871      0.045504
      6.35036      2.11679      7.50000         0.000397     -0.000538     -0.393303
      0.00000      0.00000      7.50000         0.000104     -0.000258     -0.392563
      6.35170      8.46574     13.89525         0.000367      0.001221     -0.141643
      0.00018      2.11487     13.89515        -0.000449     -0.000039     -0.141773
      6.35169      2.11527     11.73809        -0.003712      0.003214      0.010774
      0.00007      8.46629     11.73801        -0.000450      0.001448      0.017829
      6.35036      4.23357      9.61679        -0.008133     -0.000834      0.055656
      0.00000      6.35036      9.61679        -0.000735      0.002269      0.047425
      6.35036      6.35036      7.50000         0.001160      0.000518     -0.392983
      0.00000      4.23357      7.50000        -0.000107      0.000240     -0.393263
      6.35702      4.23352     13.88988        -0.003433      0.000965     -0.129266
      0.00010      6.35099     13.89513        -0.000151      0.000711     -0.140323
      6.35060      6.35092     11.73830        -0.002327     -0.002710      0.016168
      0.00054      4.23364     11.73688        -0.001326     -0.001672      0.015616
    total drift:                               -0.000166     -0.001595      0.014667

  FREE ENERGIE OF THE ION-ELECTRON SYSTEM (eV)
  free  energy   TOTEN  =      -464.66281167 eV

  energy  without entropy=     -464.66281167  energy(sigma->0) =     -464.66281167