 vasp.6.3.0 20Jan22 (build Apr  1 2022 16:44:48) complex
 executed on        HPECrayEX_GCC date 2023.04.06  22:13:26

 INCAR:
   SYSTEM = MgO-rocksalt
   ISMEAR = 0
   SIGMA = 0.05
   EDIFF = 1E-7
   ALGO = ALL
   ISTART = 0
   IBRION = 2
   NSW = 1000
   ISYM = 0
   ISIF = 2
   EDIFFG = -0.01
   DIPOL = 0.5 0.5 0.5
   IDIPOL = 3
   LDIPOL = .TRUE.
   GGA = MK
   LUSE_VDW = .TRUE.
   PARAM1 = 0.1234
   PARAM2 = 0.711357
   ZAB_VDW = -1.8867
   AGGAC = 0.0
   ENCUT = 600
   PREC = Accurate
   LASPH = .TRUE.
   LREAL = .FALSE.
   ISPIN = 1
   NELM = 200
   NELMIN = 8
   NCORE = 8
   KPAR = 1
   LWAVE = .FALSE.
   LCHARG = .FALSE.

 POTCAR:    PAW_PBE Ti_pv 07Sep2000
 POTCAR:    PAW_PBE O 08Apr2002
|               ----> ADVICE to this user running VASP <----                  |
|     You have switched on vdW-DFT.                                           |
|     This routine was written and supplied by Jiri Klimes. We recommend      |
|     that you carefully read and cite the following publications:            |
|       J. Klimes, D.R. Bowler, A. Michelides                                 |
|          J. Phys.: Cond Matt. 22 022201 (2010)                              |
|       J. Klimes, D.R. Bowler, A. Michelides                                 |
|          Phys. Rev. B. 83, 195131 (2011)                                    |
|     and references therein.                                                 |

   TITEL  = PAW_PBE Ti_pv 07Sep2000
   POMASS =   47.880; ZVAL   =   10.000    mass and valenz
   ENMAX  =  222.335; ENMIN  =  166.751 eV

   TITEL  = PAW_PBE O 08Apr2002
   POMASS =   16.000; ZVAL   =    6.000    mass and valenz
   ENMAX  =  400.000; ENMIN  =  300.000 eV

  PAW_PBE Ti_pv 07Sep2000               :
  PAW_PBE O 08Apr2002                   :

 POSCAR: Ti  O
  positions in direct lattice
 exchange correlation table for  LEXCH =       43
   RHO(1)=    0.500       N(1)  =     2000
   RHO(2)=  100.500       N(2)  =     4000

 ion  position               nearest neighbor table
   1  0.810  0.833  0.295-  51 1.94  85 1.94  53 1.94  52 2.00  50 2.00   4 3.06  18 3.06   2 3.06

   2  0.594  0.667  0.326-  54 1.94 116 1.94  49 1.94  52 1.94  55 2.00  53 2.00   3 3.06  33 3.06
                             7 3.06   1 3.06
   3  0.310  0.667  0.295-  55 1.94 121 1.94  57 1.94  56 2.00  49 2.00   2 3.06  36 3.06   4 3.06

   4  0.094  0.833  0.326-  58 1.94  88 1.94  50 1.94  56 1.94  51 2.00  57 2.00   1 3.06  19 3.06
                             5 3.06   3 3.06
   5  0.945  0.833  0.421-  59 1.94  93 1.94  61 1.94  51 1.94  60 2.00  58 2.00  22 3.06   6 3.06
                             8 3.06   4 3.06
   6  0.729  0.667  0.453-  54 1.94 124 1.94  60 1.94  62 1.94  61 2.00  63 2.00  37 3.06   5 3.06
                             7 3.06  11 3.06
   7  0.445  0.667  0.421-  63 1.94 129 1.94  65 1.94  55 1.94  64 2.00  54 2.00  40 3.06   8 3.06
                             6 3.06   2 3.06
   8  0.229  0.833  0.453-  58 1.94  96 1.94  64 1.94  66 1.94  65 2.00  59 2.00  23 3.06   7 3.06
                             5 3.06   9 3.06
   9  0.081  0.833  0.547-  59 1.94 101 1.94  67 1.94  69 1.94  66 2.00  68 2.00  12 3.06  26 3.06
                             8 3.06  10 3.06
  10  0.865  0.667  0.579-  62 1.94 132 1.94  68 1.94  70 1.94  69 2.00  71 2.00  11 3.06  15 3.06
                            41 3.06   9 3.06
  11  0.581  0.667  0.547-  63 1.94 137 1.94  71 1.94  73 1.94  62 2.00  72 2.00  10 3.06  44 3.06
                             6 3.06  12 3.06
  12  0.365  0.833  0.579-  66 1.94 104 1.94  72 1.94  74 1.94  73 2.00  67 2.00   9 3.06  13 3.06
                            27 3.06  11 3.06
  13  0.216  0.833  0.674- 109 1.94  67 1.94  75 1.94  77 1.94  74 2.00  76 2.00  16 3.06  12 3.06
                            30 3.06  14 3.06
  14  0.000  0.667  0.705-  70 1.94 140 1.94  76 1.94  78 2.00  77 2.00  15 3.06  45 3.06  13 3.06

[...]

  17  0.810  0.167  0.295-  83 1.94  85 1.94 117 1.94  84 2.00  82 2.00  20 3.06  18 3.06  34 3.06

[...]

  36  0.094  0.500  0.326- 122 1.94 120 1.94  56 1.94 114 1.94 115 2.00 121 2.00  33 3.06   3 3.06
                            35 3.06  37 3.06
  37  0.945  0.500  0.421- 123 1.94  61 1.94 125 1.94 115 1.94 124 2.00 122 2.00   6 3.06  38 3.06
                            40 3.06  36 3.06
  38  0.729  0.333  0.453- 118 1.94 124 1.94  92 1.94 126 1.94 125 2.00 127 2.00  37 3.06  21 3.06
                            39 3.06  43 3.06
  39  0.445  0.333  0.421- 127 1.94 129 1.94  97 1.94 119 1.94 128 2.00 118 2.00  40 3.06  24 3.06
                            38 3.06  34 3.06
  40  0.229  0.500  0.453- 122 1.94  64 1.94 128 1.94 130 1.94 129 2.00 123 2.00   7 3.06  39 3.06
                            37 3.06  41 3.06
  41  0.081  0.500  0.547- 123 1.94  69 1.94 133 1.94 131 1.94 130 2.00 132 2.00  44 3.06  42 3.06
                            10 3.06  40 3.06
  42  0.865  0.333  0.579- 126 1.94 132 1.94 100 1.94 134 1.94 133 2.00 135 2.00  43 3.06  47 3.06
                            41 3.06  25 3.06
  43  0.581  0.333  0.547- 127 1.94 137 1.94 135 1.94 105 1.94 126 2.00 136 2.00  42 3.06  44 3.06
                            38 3.06  28 3.06
  44  0.365  0.500  0.579- 130 1.94  72 1.94 136 1.94 138 1.94 137 2.00 131 2.00  41 3.06  45 3.06
                            43 3.06  11 3.06
  45  0.216  0.500  0.674-  77 1.94 141 1.94 131 1.94 139 1.94 138 2.00 140 2.00  48 3.06  44 3.06
                            46 3.06  14 3.06
  46  0.000  0.333  0.705- 134 1.94 140 1.94 108 1.94 141 2.00 142 2.00  47 3.06  45 3.06  29 3.06

  47  0.716  0.333  0.674- 135 1.94 144 1.94 142 1.94 112 1.94 134 2.00 143 2.00  46 3.06  42 3.06
                            48 3.06  32 3.06
  48  0.500  0.500  0.705- 138 1.94  79 1.94 143 1.94 144 2.00 139 2.00  45 3.06  47 3.06  15 3.06

  49  0.490  0.667  0.268-   2 1.94   3 2.00
  50  0.990  0.833  0.268-   4 1.94   1 2.00
  51  0.914  0.833  0.353-   1 1.94   5 1.94   4 2.00
  52  0.630  0.833  0.321-  18 1.94   2 1.94   1 2.00
  53  0.773  0.667  0.300-  33 1.94   1 1.94   2 2.00
  54  0.625  0.667  0.395-   6 1.94   2 1.94   7 2.00
  55  0.414  0.667  0.353-   3 1.94   7 1.94   2 2.00
  56  0.130  0.667  0.321-  36 1.94   4 1.94   3 2.00
  57  0.273  0.833  0.300-  19 1.94   3 1.94   4 2.00
  58  0.125  0.833  0.395-   8 1.94   4 1.94   5 2.00
  59  0.049  0.833  0.479-   5 1.94   9 1.94   8 2.00
  60  0.765  0.833  0.447-  22 1.94   6 1.94   5 2.00
  61  0.909  0.667  0.426-  37 1.94   5 1.94   6 2.00
  62  0.761  0.667  0.521-  10 1.94   6 1.94  11 2.00
  63  0.549  0.667  0.479-   7 1.94  11 1.94   6 2.00
  64  0.265  0.667  0.447-  40 1.94   8 1.94   7 2.00
  65  0.409  0.833  0.426-  23 1.94   7 1.94   8 2.00
  66  0.261  0.833  0.521-  12 1.94   8 1.94   9 2.00
  67  0.185  0.833  0.605-  13 1.94   9 1.94  12 2.00
  68  0.901  0.833  0.574-  26 1.94  10 1.94   9 2.00
  69  0.044  0.667  0.553-  41 1.94   9 1.94  10 2.00
  70  0.896  0.667  0.647-  14 1.94  10 1.94  15 2.00
  71  0.685  0.667  0.605-  15 1.94  11 1.94  10 2.00
  72  0.401  0.667  0.574-  44 1.94  12 1.94  11 2.00
  73  0.544  0.833  0.553-  27 1.94  11 1.94  12 2.00
  74  0.396  0.833  0.647-  16 1.94  12 1.94  13 2.00
  75  0.320  0.833  0.732-  13 1.94  16 2.00
  76  0.036  0.833  0.700-  30 1.94  14 1.94  13 2.00
  77  0.180  0.667  0.679-  45 1.94  13 1.94  14 2.00
  78  0.820  0.667  0.732-  15 1.94  14 2.00
  79  0.536  0.667  0.700-  48 1.94  16 1.94  15 2.00
  80  0.680  0.833  0.679-  31 1.94  15 1.94  16 2.00
  81  0.490  0.000  0.268-  18 1.94  19 2.00
  82  0.990  0.167  0.268-  20 1.94  17 2.00
  83  0.914  0.167  0.353-  17 1.94  21 1.94  20 2.00
  84  0.630  0.167  0.321-  18 1.94  34 1.94  17 2.00
  85  0.773  0.000  0.300-   1 1.94  17 1.94  18 2.00
  86  0.625  0.000  0.395-  22 1.94  18 1.94  23 2.00
  87  0.414  0.000  0.353-  19 1.94  23 1.94  18 2.00
  88  0.130  0.000  0.321-   4 1.94  20 1.94  19 2.00
  89  0.273  0.167  0.300-  19 1.94  35 1.94  20 2.00
  90  0.125  0.167  0.395-  24 1.94  20 1.94  21 2.00
  91  0.049  0.167  0.479-  21 1.94  25 1.94  24 2.00
  92  0.765  0.167  0.447-  22 1.94  38 1.94  21 2.00
  93  0.909  0.000  0.426-   5 1.94  21 1.94  22 2.00
  94  0.761  0.000  0.521-  26 1.94  22 1.94  27 2.00
  95  0.549  0.000  0.479-  23 1.94  27 1.94  22 2.00
  96  0.265  0.000  0.447-   8 1.94  24 1.94  23 2.00
  97  0.409  0.167  0.426-  23 1.94  39 1.94  24 2.00
  98  0.261  0.167  0.521-  28 1.94  24 1.94  25 2.00
  99  0.185  0.167  0.605-  29 1.94  25 1.94  28 2.00
 100  0.901  0.167  0.574-  26 1.94  42 1.94  25 2.00
 101  0.044  0.000  0.553-   9 1.94  25 1.94  26 2.00
 102  0.896  0.000  0.647-  30 1.94  26 1.94  31 2.00
 103  0.685  0.000  0.605-  31 1.94  27 1.94  26 2.00
 104  0.401  0.000  0.574-  12 1.94  28 1.94  27 2.00
 105  0.544  0.167  0.553-  27 1.94  43 1.94  28 2.00
 106  0.396  0.167  0.647-  32 1.94  28 1.94  29 2.00
 107  0.320  0.167  0.732-  29 1.94  32 2.00
 108  0.036  0.167  0.700-  30 1.94  46 1.94  29 2.00
[...]
 130  0.261  0.500  0.521-  44 1.94  40 1.94  41 2.00
 131  0.185  0.500  0.605-  45 1.94  41 1.94  44 2.00
 132  0.901  0.500  0.574-  10 1.94  42 1.94  41 2.00
 133  0.044  0.333  0.553-  41 1.94  25 1.94  42 2.00
 134  0.896  0.333  0.647-  46 1.94  42 1.94  47 2.00
 135  0.685  0.333  0.605-  47 1.94  43 1.94  42 2.00
 136  0.401  0.333  0.574-  44 1.94  28 1.94  43 2.00
 137  0.544  0.500  0.553-  11 1.94  43 1.94  44 2.00
 138  0.396  0.500  0.647-  48 1.94  44 1.94  45 2.00
 139  0.320  0.500  0.732-  45 1.94  48 2.00
 140  0.036  0.500  0.700-  14 1.94  46 1.94  45 2.00
 141  0.180  0.333  0.679-  45 1.94  29 1.94  46 2.00
 142  0.820  0.333  0.732-  47 1.94  46 2.00
 143  0.536  0.333  0.700-  48 1.94  32 1.94  47 2.00
 144  0.680  0.500  0.679-  15 1.94  47 1.94  48 2.00

IMPORTANT INFORMATION: All symmetrisations will be switched off!
NOSYMM: (Re-)initialisation of all symmetry stuff for point group C_1.

                                     Primitive cell

  volume of cell :    3284.6826

  direct lattice vectors                    reciprocal lattice vectors
    10.317568932  0.000000000  0.000000000     0.096922057 -0.000000000  0.000000000
     0.000000000 11.392502081  0.000000000     0.000000000  0.087777030  0.000000000
     0.000000000  0.000000000 27.944536660     0.000000000  0.000000000  0.035785170

  length of vectors
    10.317568932 11.392502081 27.944536660     0.096922057  0.087777030  0.035785170

  position of ions in fractional coordinates (direct lattice)
     0.809724695  0.833333333  0.294673730
     0.593592026  0.666666667  0.326262387
     0.309724695  0.666666667  0.294673730
     0.093592026  0.833333333  0.326262387
     0.945194020  0.833333333  0.421028358
     0.729061351  0.666666667  0.452617015
     0.445194020  0.666666667  0.421028358
     0.229061351  0.833333333  0.452617015
     0.080663344  0.833333333  0.547382985
     0.864530675  0.666666667  0.578971642
     0.580663344  0.666666667  0.547382985
     0.364530675  0.833333333  0.578971642
     0.216132669  0.833333333  0.673737613
     0.000000000  0.666666667  0.705326270
     0.716132669  0.666666667  0.673737613
     0.500000000  0.833333333  0.705326270
[...]
   3.30322939  5.69625104 20.44453666
   0.37440864  5.69625104 19.56180628
   1.85555507  3.79750069 18.97549496
   8.46201386  3.79750069 20.44453666
   5.53319310  3.79750069 19.56180628
   7.01433954  5.69625104 18.97549496

--------------------------------------- Iteration      FINAL  ---------------------------------------

--------------------OUTCAR has been truncated-------------------------

[...]

--------------------OUTCAR has been truncated-------------------------

  FORCE on cell =-STRESS in cart. coord.  units (eV):
  Direction    XX          YY          ZZ          XY          YZ          ZX
  Alpha Z  2397.61609  2397.61609  2397.61609
  Ewald  486015.49833479219.33250************     0.00007    -0.00017 -1872.79409
  Hartree506820.25086502726.21428************     0.00004    -0.00009 -1265.06135
  E(xc)   -5157.64043 -5158.43626 -5156.94061     0.00000    -0.00000    -0.29425
  Local  ************************************    -0.00011     0.00026  3147.44139
  n-local -3299.12369 -3269.42291 -3312.14338    -0.00000    -0.00000     1.64329
  augment  3148.55685  3145.11883  3137.64574     0.00000     0.00000    -0.89056
  Kinetic 16996.97175 17057.67297 17107.09484     0.00000     0.00000   -18.35206
  Fock        0.00000     0.00000     0.00000     0.00000     0.00000     0.00000
  Total     -44.74307   -19.18300   -15.07491    -0.00000     0.00000    -8.30763
  in kB     -21.82443    -9.35694    -7.35313    -0.00000     0.00000    -4.05223

 VOLUME and BASIS-vectors are now :
  energy-cutoff  :      600.00
  volume of cell :     3284.68
      direct lattice vectors                 reciprocal lattice vectors
    10.317568932  0.000000000  0.000000000     0.096922057 -0.000000000  0.000000000
     0.000000000 11.392502081  0.000000000     0.000000000  0.087777030  0.000000000
     0.000000000  0.000000000 27.944536660     0.000000000  0.000000000  0.035785170

  length of vectors
    10.317568932 11.392502081 27.944536660     0.096922057  0.087777030  0.035785170

 FORCES acting on ions:
    Electron-Ion                     Ewald-Force                    Non-Local-Force
   0.557E+01 0.135E-06 0.335E+04   -.784E+00 0.355E-06 -.334E+04   -.101E+01 -.969E-07 -.314E+01
   0.422E+01 -.345E-04 0.275E+04   -.575E+01 0.377E-04 -.275E+04   -.115E+00 -.614E-06 -.105E+00
   0.557E+01 0.246E-05 0.335E+04   -.784E+00 -.286E-05 -.334E+04   -.101E+01 0.139E-06 -.314E+01
   0.422E+01 0.530E-05 0.275E+04   -.575E+01 -.471E-05 -.275E+04   -.115E+00 -.109E-06 -.105E+00
   0.283E+00 0.104E-05 0.124E+04   -.458E+00 -.679E-06 -.124E+04   0.171E+00 -.257E-06 0.118E-01
   -.326E+01 -.282E-04 0.769E+03   0.332E+01 0.244E-04 -.769E+03   -.263E-01 0.331E-06 -.144E+00
   0.283E+00 -.216E-03 0.124E+04   -.458E+00 0.238E-03 -.124E+04   0.171E+00 -.448E-05 0.118E-01
   -.326E+01 0.689E-04 0.769E+03   0.332E+01 -.764E-04 -.769E+03   -.263E-01 0.148E-05 -.144E+00
   -.255E+01 0.213E-03 -.801E+03   0.226E+01 -.236E-03 0.801E+03   0.287E+00 0.394E-05 0.131E+00
   -.499E+01 0.206E-02 -.122E+04   0.515E+01 -.230E-02 0.122E+04   -.105E+00 0.418E-04 -.270E+00
   -.254E+01 0.310E-03 -.801E+03   0.225E+01 -.243E-03 0.801E+03   0.287E+00 -.978E-05 0.131E+00
   -.499E+01 0.389E-03 -.122E+04   0.515E+01 -.439E-03 0.122E+04   -.105E+00 0.837E-05 -.270E+00
   0.185E+02 0.249E-03 -.279E+04   -.195E+02 -.275E-03 0.279E+04   0.978E+00 0.420E-05 -.284E-01
   -.712E+02 0.428E-03 -.319E+04   0.716E+02 -.291E-03 0.319E+04   -.107E+00 -.241E-04 0.691E+00
   0.185E+02 0.386E-02 -.279E+04   -.195E+02 -.430E-02 0.279E+04   0.978E+00 0.708E-04 -.284E-01
   -.712E+02 -.117E-03 -.319E+04   0.715E+02 0.147E-03 0.319E+04   -.107E+00 -.390E-05 0.691E+00
   0.557E+01 0.502E-05 0.335E+04   -.784E+00 -.627E-05 -.334E+04   -.101E+01 0.290E-06 -.314E+01
   0.422E+01 0.403E-04 0.275E+04   -.575E+01 -.433E-04 -.275E+04   -.115E+00 0.670E-06 -.105E+00
   0.557E+01 0.128E-05 0.335E+04   -.784E+00 -.387E-06 -.334E+04   -.101E+01 -.202E-06 -.314E+01
   0.422E+01 -.408E-04 0.275E+04   -.575E+01 0.435E-04 -.275E+04   -.115E+00 -.633E-06 -.105E+00
   0.283E+00 -.397E-03 0.124E+04   -.458E+00 0.428E-03 -.124E+04   0.171E+00 -.543E-05 0.118E-01
   -.326E+01 0.129E-04 0.769E+03   0.332E+01 -.133E-04 -.769E+03   -.263E-01 0.127E-05 -.144E+00
   0.283E+00 0.325E-03 0.124E+04   -.458E+00 -.357E-03 -.124E+04   0.171E+00 0.585E-05 0.118E-01
   -.326E+01 -.770E-04 0.769E+03   0.332E+01 0.821E-04 -.769E+03   -.263E-01 -.185E-05 -.144E+00
   -.254E+01 -.445E-04 -.801E+03   0.225E+01 0.168E-03 0.801E+03   0.287E+00 -.188E-04 0.131E+00
   -.499E+01 -.206E-02 -.122E+04   0.515E+01 0.229E-02 0.122E+04   -.105E+00 -.408E-04 -.270E+00
   -.254E+01 -.187E-03 -.801E+03   0.225E+01 0.811E-04 0.801E+03   0.287E+00 0.163E-04 0.131E+00
   -.499E+01 0.171E-02 -.122E+04   0.515E+01 -.191E-02 0.122E+04   -.105E+00 0.341E-04 -.270E+00
   0.185E+02 0.403E-02 -.279E+04   -.195E+02 -.449E-02 0.279E+04   0.978E+00 0.763E-04 -.284E-01
   -.712E+02 -.692E-03 -.319E+04   0.716E+02 0.564E-03 0.319E+04   -.107E+00 0.230E-04 0.691E+00
   0.185E+02 -.434E-02 -.279E+04   -.195E+02 0.483E-02 0.279E+04   0.978E+00 -.806E-04 -.284E-01
   -.712E+02 0.619E-03 -.319E+04   0.716E+02 -.513E-03 0.319E+04   -.107E+00 -.182E-04 0.691E+00
   0.557E+01 -.632E-05 0.335E+04   -.784E+00 0.707E-05 -.334E+04   -.101E+01 -.199E-06 -.314E+01
   0.422E+01 -.646E-05 0.275E+04   -.575E+01 0.631E-05 -.275E+04   -.115E+00 -.431E-07 -.105E+00
   0.557E+01 -.361E-05 0.335E+04   -.784E+00 0.313E-05 -.334E+04   -.101E+01 0.944E-07 -.314E+01
   0.422E+01 0.303E-04 0.275E+04   -.575E+01 -.333E-04 -.275E+04   -.115E+00 0.582E-06 -.105E+00
   0.283E+00 0.300E-03 0.124E+04   -.458E+00 -.329E-03 -.124E+04   0.171E+00 0.522E-05 0.118E-01
   -.327E+01 -.602E-04 0.769E+03   0.332E+01 0.651E-04 -.769E+03   -.263E-01 -.855E-06 -.144E+00
   0.283E+00 -.119E-03 0.124E+04   -.458E+00 0.128E-03 -.124E+04   0.171E+00 -.152E-05 0.118E-01
   -.326E+01 0.525E-05 0.769E+03   0.332E+01 -.310E-05 -.769E+03   -.263E-01 0.321E-06 -.144E+00
   -.254E+01 -.198E-03 -.801E+03   0.225E+01 0.978E-04 0.801E+03   0.287E+00 0.150E-04 0.131E+00
   -.499E+01 -.461E-05 -.122E+04   0.515E+01 0.122E-04 0.122E+04   -.105E+00 -.618E-06 -.270E+00
   -.255E+01 -.158E-03 -.801E+03   0.226E+01 0.197E-03 0.801E+03   0.287E+00 -.660E-05 0.131E+00
   -.499E+01 -.210E-02 -.122E+04   0.515E+01 0.235E-02 0.122E+04   -.105E+00 -.427E-04 -.270E+00
   0.185E+02 -.440E-02 -.279E+04   -.195E+02 0.489E-02 0.279E+04   0.978E+00 -.798E-04 -.284E-01
   -.712E+02 0.283E-03 -.319E+04   0.715E+02 -.292E-03 0.319E+04   -.107E+00 0.142E-05 0.691E+00
   0.185E+02 0.455E-03 -.279E+04   -.195E+02 -.515E-03 0.279E+04   0.978E+00 0.102E-04 -.284E-01
   -.712E+02 -.626E-03 -.319E+04   0.716E+02 0.490E-03 0.319E+04   -.107E+00 0.243E-04 0.691E+00
   -.329E+02 -.369E-05 0.226E+04   0.376E+02 0.444E-05 -.228E+04   -.649E+01 -.966E-06 0.170E+02
   -.329E+02 0.980E-06 0.226E+04   0.376E+02 -.791E-06 -.228E+04   -.649E+01 -.302E-06 0.170E+02
   0.817E+02 -.454E-06 0.137E+04   -.863E+02 0.155E-05 -.136E+04   0.363E+01 -.112E-05 -.430E+01
   0.745E+02 -.613E-05 0.167E+04   -.813E+02 0.652E-05 -.167E+04   0.714E+01 -.805E-06 -.256E+01
   -.863E+02 -.153E-04 0.193E+04   0.934E+02 0.154E-04 -.193E+04   -.674E+01 0.321E-07 -.124E+00
   -.714E+02 -.551E-04 0.104E+04   0.770E+02 0.604E-04 -.105E+04   -.564E+01 -.593E-05 0.421E+01
   0.817E+02 -.347E-04 0.137E+04   -.863E+02 0.391E-04 -.136E+04   0.363E+01 -.526E-05 -.430E+01
   0.745E+02 0.980E-05 0.167E+04   -.813E+02 -.119E-04 -.167E+04   0.714E+01 0.505E-05 -.256E+01
   -.863E+02 -.434E-06 0.193E+04   0.934E+02 0.598E-06 -.193E+04   -.674E+01 -.574E-06 -.124E+00
   -.714E+02 0.168E-04 0.104E+04   0.770E+02 -.176E-04 -.105E+04   -.564E+01 0.934E-06 0.421E+01
   0.791E+02 0.164E-04 0.146E+03   -.853E+02 -.193E-04 -.141E+03   0.620E+01 0.358E-05 -.472E+01
   0.782E+02 0.272E-04 0.467E+03   -.845E+02 -.313E-04 -.464E+03   0.628E+01 0.499E-05 -.294E+01
[...]
   0.823E+02 -.994E-03 -.109E+04   -.884E+02 0.113E-02 0.109E+04   0.609E+01 -.159E-03 -.701E+01
   0.778E+02 -.324E-02 -.736E+03   -.841E+02 0.337E-02 0.739E+03   0.631E+01 0.101E-03 -.307E+01
   -.790E+02 0.377E-03 -.476E+03   0.850E+02 -.399E-03 0.474E+03   -.607E+01 0.155E-05 0.259E+01
   -.544E+02 0.720E-04 -.130E+04   0.562E+02 -.763E-04 0.129E+04   -.184E+01 0.617E-05 0.940E+01
   0.823E+02 0.426E-04 -.109E+04   -.884E+02 -.482E-04 0.109E+04   0.609E+01 0.613E-05 -.701E+01
   0.778E+02 0.726E-03 -.736E+03   -.841E+02 -.757E-03 0.739E+03   0.631E+01 -.222E-04 -.307E+01
   -.790E+02 -.230E-03 -.476E+03   0.850E+02 0.241E-03 0.474E+03   -.607E+01 -.324E-04 0.259E+01
   -.544E+02 -.112E-02 -.130E+04   0.562E+02 0.123E-02 0.129E+04   -.184E+01 -.130E-03 0.940E+01
   0.463E+02 -.111E-02 -.229E+04   -.515E+02 0.122E-02 0.231E+04   0.517E+01 -.140E-03 -.210E+02
   0.617E+02 -.106E-02 -.201E+04   -.665E+02 0.125E-02 0.202E+04   0.476E+01 -.277E-03 -.756E+01
   -.605E+02 0.445E-03 -.166E+04   0.657E+02 -.472E-03 0.166E+04   -.529E+01 -.276E-05 0.311E+01
   0.463E+02 0.172E-03 -.229E+04   -.515E+02 -.192E-03 0.231E+04   0.517E+01 0.250E-04 -.210E+02
   0.617E+02 -.650E-04 -.201E+04   -.665E+02 0.455E-04 0.202E+04   0.476E+01 0.425E-04 -.756E+01
   -.605E+02 -.435E-02 -.166E+04   0.657E+02 0.461E-02 0.166E+04   -.529E+01 0.505E-04 0.310E+01
   -.142E+02 -.564E-04 0.711E+02   -.682E-12 0.134E-12 -.364E-11   0.143E+02 0.550E-04 -.711E+02

 POSITION                                       TOTAL-FORCE (eV/Angst)
      8.35439      9.49375      8.23452         3.796593      0.000000      1.703893
      6.12443      7.59500      9.11725        -1.648375      0.000003     -1.938924
      3.19561      7.59500      8.23452         3.796598     -0.000000      1.703893
      0.96564      9.49375      9.11725        -1.648379      0.000000     -1.938944
      9.75862      9.49375     11.80400        -0.002931     -0.000000     -0.004782
      7.49962      7.59500     12.61484         0.006922     -0.000004      0.000386
      4.59984      7.59500     11.80400        -0.002884      0.000017     -0.004743
      2.34083      9.49375     12.61484         0.007008     -0.000006      0.000462
      0.88831      9.49375     15.37129        -0.004056     -0.000018     -0.001184
      8.91981      7.59500     16.10490         0.000564     -0.000198     -0.001828
      6.04710      7.59500     15.37129        -0.004403      0.000056     -0.001274
      3.76103      9.49375     16.10490         0.000574     -0.000041     -0.001647
      2.39674      9.49375     19.00716         0.002346     -0.000021     -0.007600
      0.03641      7.59500     19.56657         0.006442      0.000111     -0.001781
      7.55553      7.59501     19.00716         0.002114     -0.000353     -0.007647
      5.19521      9.49375     19.56658         0.005202      0.000026     -0.002207
      8.35439      1.89875      8.23452         3.796600     -0.000001      1.703893
      6.12443      0.00000      9.11725        -1.648375     -0.000002     -1.938923
      3.19561      0.00000      8.23452         3.796599      0.000001      1.703893
      0.96564      1.89875      9.11725        -1.648375      0.000002     -1.938921
      9.75862      1.89875     11.80400        -0.002877      0.000024     -0.004741
      7.49962     -0.00000     12.61484         0.006925      0.000001      0.000374
      4.59984      0.00000     11.80400        -0.002882     -0.000025     -0.004757
      2.34084      1.89875     12.61484         0.006904      0.000003      0.000374
      0.88832      1.89875     15.37129        -0.004422      0.000102     -0.001297
      8.91981     -0.00000     16.10490         0.000558      0.000191     -0.001818
      6.04710      0.00000     15.37129        -0.004367     -0.000088     -0.001279
      3.76103      1.89875     16.10490         0.000550     -0.000156     -0.001852
      2.39675      1.89876     19.00716         0.002073     -0.000378     -0.007634
      0.03641      0.00000     19.56657         0.006394     -0.000104     -0.001750
      7.55553     -0.00001     19.00716         0.002104      0.000402     -0.007618
      5.19519      1.89875     19.56657         0.006595      0.000086     -0.001694
      8.35439      5.69625      8.23452         3.796599      0.000001      1.703892
      6.12443      3.79750      9.11725        -1.648380     -0.000000     -1.938947
      3.19561      3.79750      8.23452         3.796592     -0.000000      1.703894
      0.96564      5.69625      9.11725        -1.648375     -0.000002     -1.938925
      9.75862      5.69625     11.80400        -0.002883     -0.000023     -0.004737
      7.49962      3.79750     12.61484         0.007024      0.000004      0.000475
      4.59984      3.79750     11.80400        -0.002935      0.000007     -0.004786
      2.34084      5.69625     12.61484         0.006918      0.000003      0.000396
      0.88832      5.69625     15.37129        -0.004394     -0.000083     -0.001271
      8.91981      3.79750     16.10490         0.000583      0.000007     -0.001626
      6.04710      3.79750     15.37129        -0.004030      0.000032     -0.001164
      3.76103      5.69625     16.10490         0.000564      0.000197     -0.001820
      2.39675      5.69624     19.00716         0.002136      0.000400     -0.007655
      0.03643      3.79750     19.56658         0.005071     -0.000007     -0.002285
      7.55553      3.79750     19.00716         0.002375     -0.000049     -0.007612
      5.19519      5.69625     19.56657         0.006394     -0.000110     -0.001808
      5.05116      7.59500      7.50000        -1.765487     -0.000000      1.092732
     10.20995      9.49375      7.50000        -1.765484     -0.000000      1.092734
      9.42766      9.49375      9.85177        -0.974505     -0.000000     -0.173034
      6.49884      9.49375      8.96904         0.361289     -0.000000     -0.057822
      7.97998      7.59500      8.38273         0.264070      0.000000     -1.041415
      6.44888      7.59500     11.03092        -0.051796     -0.000001      0.414744
      4.26887      7.59500      9.85177        -0.974511     -0.000001     -0.173047
      1.34005      7.59500      8.96904         0.361288      0.000003     -0.057820
      2.82120      9.49375      8.38273         0.264069     -0.000000     -1.041413
      1.29009      9.49375     11.03092        -0.051800      0.000000      0.414747
      0.52221      9.49375     13.40102        -0.004310      0.000001      0.004213
      7.89819      9.49375     12.50396        -0.002388      0.000001      0.001529
[...]
      2.71912      5.69625     14.54992         0.004909     -0.000009      0.000892
      2.00014      5.69625     16.94952        -0.004240     -0.000024      0.003405
      9.33276      5.69625     16.02508         0.009087      0.000235     -0.004071
      0.51590      3.79750     15.45989        -0.001748     -0.000021      0.003400
      9.41450      3.79750     18.04685         0.002527      0.000002      0.007019
      7.15893      3.79750     16.94952        -0.004479      0.000001      0.003159
      4.17397      3.79750     16.02508         0.009009     -0.000053     -0.004019
      5.67469      5.69625     15.45988        -0.001875     -0.000022      0.003439
      4.25572      5.69625     18.04686         0.002018     -0.000020      0.006198
      3.58393      5.69625     20.43913        -0.001359     -0.000028     -0.001980
      0.55428      5.69625     19.78149         0.005903     -0.000086      0.001465
      2.01375      3.79750     19.01391         0.002119     -0.000029     -0.000872
      8.74271      3.79750     20.43914        -0.000831      0.000005     -0.002224
      5.71307      3.79750     19.78149         0.005677      0.000023      0.001462
      7.17253      5.69625     19.01391         0.002035      0.000316     -0.000862
    total drift:                                0.003909     -0.000001      0.000463

  FREE ENERGIE OF THE ION-ELECTRON SYSTEM (eV)
  free  energy   TOTEN  =     -1044.05844311 eV

  energy  without entropy=    -1044.05844311  energy(sigma->0) =    -1044.05844311

 d Force = 0.1717055E-03[ 0.371E-04, 0.306E-03]  d Energy = 0.1669680E-03 0.474E-05
 d Force =-0.2166759E+02[-0.217E+02,-0.217E+02]  d Ewald  =-0.2166759E+02-0.381E-06

 Conjugate gradient step on ions:
 trial-energy change:   -0.000167  1 .order   -0.000172   -0.000306   -0.000037
  (g-gl).g = 0.355E-03      g.g   = 0.377E-03  gl.gl    = 0.386E-03
 g(Force)  = 0.377E-03   g(Stress)= 0.000E+00 ortho     = 0.277E-05
 gamma     =   0.92000
 trial     =   0.80656
 opt step  =   0.93309  (harmonic =   0.91763) maximal distance =0.00130977
 next E    = -1044.058446   (d E  =  -0.00017)

 reached required accuracy - stopping structural energy minimisation