 vasp.6.3.0 20Jan22 (build Mar 11 2022 13:48:16) complex

 executed on             LinuxIFC date 2024.08.23  20:36:29

 INCAR:
   SYSTEM = MgO-rocksalt
   ISMEAR = 0
   SIGMA = 0.05
   EDIFF = 1E-7
   ALGO = ALL
   ISTART = 0
   IBRION = 2
   NSW = 1000
   ISYM = 0
   ISIF = 2
   EDIFFG = -0.01
   DIPOL = 0.5 0.5 0.5
   IDIPOL = 3
   LDIPOL = .TRUE.
   GGA = MK
   LUSE_VDW = .TRUE.
   PARAM1 = 0.1234
   PARAM2 = 0.711357
   ZAB_VDW = -1.8867
   AGGAC = 0.0
   ENCUT = 600
   PREC = Accurate
   LASPH = .TRUE.
   LREAL = .FALSE.
   ISPIN = 1
   NELM = 200
   NELMIN = 8
   NCORE = 8
   KPAR = 1
   LWAVE = .FALSE.
   LCHARG = .FALSE.

 POTCAR:    PAW_PBE Ti_pv 07Sep2000
 POTCAR:    PAW_PBE O 08Apr2002
|           W    W    AA    RRRRR   N    N  II  N    N   GGGG   !!!           |
|           W    W   A  A   R    R  NN   N  II  NN   N  G    G  !!!           |
|           W    W  A    A  R    R  N N  N  II  N N  N  G       !!!           |
|           W WW W  AAAAAA  RRRRR   N  N N  II  N  N N  G  GGG   !            |
|           WW  WW  A    A  R   R   N   NN  II  N   NN  G    G                |
|           W    W  A    A  R    R  N    N  II  N    N   GGGG   !!!           |
|     For optimal performance we recommend to set                             |
|       NCORE = 2 up to number-of-cores-per-socket                            |
|     This setting can greatly improve the performance of VASP for DFT.       |
|     The default, NCORE=1 might be grossly inefficient on modern             |
|     multi-core architectures or massively parallel machines. Do your        |
|     Unfortunately you need to use the default for GW and RPA                |
|     calculations (for HF NCORE is supported but not extensively tested      |
|     yet).                                                                   |

   TITEL  = PAW_PBE Ti_pv 07Sep2000
   POMASS =   47.880; ZVAL   =   10.000    mass and valenz
   ENMAX  =  222.335; ENMIN  =  166.751 eV

   TITEL  = PAW_PBE O 08Apr2002
   POMASS =   16.000; ZVAL   =    6.000    mass and valenz
   ENMAX  =  400.000; ENMIN  =  300.000 eV

  PAW_PBE Ti_pv 07Sep2000               :
  PAW_PBE O 08Apr2002                   :

 POSCAR: Ti  O
  positions in direct lattice
 exchange correlation table for  LEXCH =       43
   RHO(1)=    0.500       N(1)  =     2000
   RHO(2)=  100.500       N(2)  =     4000

 ion  position               nearest neighbor table
   1  0.809  0.833  0.295-  85 1.94  51 1.94  53 1.94  52 2.00  50 2.00  18 3.06   2 3.06   4 3.06

   2  0.593  0.667  0.326-  49 1.94 116 1.94  54 1.94  52 1.94  53 2.00  55 2.00  33 3.06   1 3.06
                             3 3.06   7 3.06
   3  0.309  0.667  0.295- 121 1.94  55 1.94  57 1.94  56 2.00  49 2.00  36 3.06   4 3.06   2 3.06

   4  0.093  0.833  0.326-  88 1.94  50 1.94  58 1.94  56 1.94  57 2.00  51 2.00  19 3.06   3 3.06
                             1 3.06   5 3.06
   5  0.945  0.833  0.421-  93 1.94  59 1.94  51 1.94  61 1.94  60 2.00  58 2.00  22 3.06   6 3.06
                             8 3.06   4 3.06
   6  0.729  0.667  0.453- 124 1.94  54 1.94  62 1.94  60 1.94  61 2.00  63 2.00  37 3.06   5 3.06
                             7 3.06  11 3.06
   7  0.445  0.667  0.421- 129 1.94  63 1.94  55 1.94  65 1.94  64 2.00  54 2.00  40 3.06   8 3.06
                             6 3.06   2 3.06
   8  0.229  0.833  0.453-  96 1.94  58 1.94  66 1.94  64 1.94  65 2.00  59 2.00  23 3.06   7 3.06
                             5 3.06   9 3.06
   9  0.081  0.833  0.547- 101 1.94  67 1.94  59 1.94  69 1.94  68 2.00  66 2.00  26 3.06  10 3.06
                            12 3.06   8 3.06
  10  0.864  0.667  0.579- 132 1.94  62 1.94  70 1.94  68 1.94  69 2.00  71 2.00  41 3.06   9 3.06
                            11 3.06  15 3.06
  11  0.581  0.667  0.547- 137 1.94  71 1.94  63 1.94  73 1.94  72 2.00  62 2.00  44 3.06  12 3.06
                            10 3.06   6 3.06
  12  0.364  0.833  0.579- 104 1.94  66 1.94  74 1.94  72 1.94  73 2.00  67 2.00  27 3.06  11 3.06
                             9 3.06  13 3.06
  13  0.216  0.833  0.674- 109 1.94  75 1.94  67 1.94  77 1.94  76 2.00  74 2.00  30 3.06  14 3.06
                            16 3.06  12 3.06
  14  0.000  0.667  0.705- 140 1.94  70 1.94  76 1.94  77 2.00  78 2.00  45 3.06  13 3.06  15 3.06

[...]

  17  0.809  0.167  0.295-  85 1.94  83 1.94 117 1.94  84 2.00  82 2.00  18 3.06  34 3.06  20 3.06

[...]

  36  0.093  0.500  0.326-  56 1.94 120 1.94 114 1.94 122 1.94 121 2.00 115 2.00   3 3.06  35 3.06
                            33 3.06  37 3.06
  37  0.945  0.500  0.421-  61 1.94 125 1.94 123 1.94 115 1.94 124 2.00 122 2.00   6 3.06  38 3.06
                            40 3.06  36 3.06
  38  0.729  0.333  0.453- 124 1.94 118 1.94 126 1.94  92 1.94 125 2.00 127 2.00  37 3.06  21 3.06
                            39 3.06  43 3.06
  39  0.445  0.333  0.421- 129 1.94 127 1.94 119 1.94  97 1.94 128 2.00 118 2.00  40 3.06  24 3.06
                            38 3.06  34 3.06
  40  0.229  0.500  0.453-  64 1.94 128 1.94 122 1.94 130 1.94 129 2.00 123 2.00   7 3.06  39 3.06
                            37 3.06  41 3.06
  41  0.081  0.500  0.547-  69 1.94 133 1.94 131 1.94 123 1.94 132 2.00 130 2.00  10 3.06  42 3.06
                            44 3.06  40 3.06
  42  0.864  0.333  0.579- 132 1.94 126 1.94 134 1.94 100 1.94 133 2.00 135 2.00  41 3.06  25 3.06
                            43 3.06  47 3.06
  43  0.581  0.333  0.547- 137 1.94 135 1.94 127 1.94 105 1.94 136 2.00 126 2.00  44 3.06  28 3.06
                            42 3.06  38 3.06
  44  0.364  0.500  0.579-  72 1.94 136 1.94 130 1.94 138 1.94 137 2.00 131 2.00  11 3.06  43 3.06
                            41 3.06  45 3.06
  45  0.216  0.500  0.674-  77 1.94 141 1.94 139 1.94 131 1.94 140 2.00 138 2.00  14 3.06  46 3.06
                            48 3.06  44 3.06
  46  0.000  0.333  0.705- 140 1.94 134 1.94 108 1.94 141 2.00 142 2.00  45 3.06  29 3.06  47 3.06

  47  0.716  0.333  0.674- 144 1.94 142 1.94 135 1.94 112 1.94 143 2.00 134 2.00  48 3.06  32 3.06
                            46 3.06  42 3.06
  48  0.500  0.500  0.705-  79 1.94 143 1.94 138 1.94 144 2.00 139 2.00  47 3.06  15 3.06  45 3.06

  49  0.489  0.667  0.268-   2 1.94   3 2.00
  50  0.989  0.833  0.268-   4 1.94   1 2.00
  51  0.913  0.833  0.353-   1 1.94   5 1.94   4 2.00
  52  0.630  0.833  0.321-  18 1.94   2 1.94   1 2.00
  53  0.773  0.667  0.300-  33 1.94   1 1.94   2 2.00
  54  0.625  0.667  0.395-   6 1.94   2 1.94   7 2.00
  55  0.413  0.667  0.353-   3 1.94   7 1.94   2 2.00
  56  0.130  0.667  0.321-  36 1.94   4 1.94   3 2.00
  57  0.273  0.833  0.300-  19 1.94   3 1.94   4 2.00
  58  0.125  0.833  0.395-   8 1.94   4 1.94   5 2.00
  59  0.049  0.833  0.479-   5 1.94   9 1.94   8 2.00
  60  0.765  0.833  0.447-  22 1.94   6 1.94   5 2.00
  61  0.909  0.667  0.426-  37 1.94   5 1.94   6 2.00
  62  0.760  0.667  0.521-  10 1.94   6 1.94  11 2.00
  63  0.549  0.667  0.479-   7 1.94  11 1.94   6 2.00
  64  0.265  0.667  0.447-  40 1.94   8 1.94   7 2.00
  65  0.409  0.833  0.426-  23 1.94   7 1.94   8 2.00
  66  0.260  0.833  0.521-  12 1.94   8 1.94   9 2.00
  67  0.185  0.833  0.605-   9 1.94  13 1.94  12 2.00
  68  0.901  0.833  0.574-  26 1.94  10 1.94   9 2.00
  69  0.044  0.667  0.553-  41 1.94   9 1.94  10 2.00
  70  0.896  0.667  0.647-  14 1.94  10 1.94  15 2.00
  71  0.685  0.667  0.605-  11 1.94  15 1.94  10 2.00
  72  0.401  0.667  0.574-  44 1.94  12 1.94  11 2.00
  73  0.544  0.833  0.553-  27 1.94  11 1.94  12 2.00
  74  0.396  0.833  0.647-  16 1.94  12 1.94  13 2.00
  75  0.320  0.833  0.732-  13 1.94  16 2.00
  76  0.036  0.833  0.700-  30 1.94  14 1.94  13 2.00
  77  0.180  0.667  0.679-  45 1.94  13 1.94  14 2.00
  78  0.820  0.667  0.732-  15 1.94  14 2.00
  79  0.536  0.667  0.700-  48 1.94  16 1.94  15 2.00
  80  0.680  0.833  0.679-  31 1.94  15 1.94  16 2.00
  81  0.489  0.000  0.268-  18 1.94  19 2.00
  82  0.989  0.167  0.268-  20 1.94  17 2.00
  83  0.913  0.167  0.353-  17 1.94  21 1.94  20 2.00
  84  0.630  0.167  0.321-  18 1.94  34 1.94  17 2.00
  85  0.773  0.000  0.300-   1 1.94  17 1.94  18 2.00
  86  0.625  0.000  0.395-  22 1.94  18 1.94  23 2.00
  87  0.413  0.000  0.353-  19 1.94  23 1.94  18 2.00
  88  0.130  0.000  0.321-   4 1.94  20 1.94  19 2.00
  89  0.273  0.167  0.300-  19 1.94  35 1.94  20 2.00
  90  0.125  0.167  0.395-  24 1.94  20 1.94  21 2.00
  91  0.049  0.167  0.479-  21 1.94  25 1.94  24 2.00
  92  0.765  0.167  0.447-  22 1.94  38 1.94  21 2.00
  93  0.909  0.000  0.426-   5 1.94  21 1.94  22 2.00
  94  0.760  0.000  0.521-  26 1.94  22 1.94  27 2.00
  95  0.549  0.000  0.479-  23 1.94  27 1.94  22 2.00
  96  0.265  0.000  0.447-   8 1.94  24 1.94  23 2.00
  97  0.409  0.167  0.426-  23 1.94  39 1.94  24 2.00
  98  0.260  0.167  0.521-  28 1.94  24 1.94  25 2.00
  99  0.185  0.167  0.605-  25 1.94  29 1.94  28 2.00
 100  0.901  0.167  0.574-  26 1.94  42 1.94  25 2.00
 101  0.044  0.000  0.553-   9 1.94  25 1.94  26 2.00
 102  0.896  0.000  0.647-  30 1.94  26 1.94  31 2.00
 103  0.685  0.000  0.605-  27 1.94  31 1.94  26 2.00
 104  0.401  0.000  0.574-  12 1.94  28 1.94  27 2.00
 105  0.544  0.167  0.553-  27 1.94  43 1.94  28 2.00
 106  0.396  0.167  0.647-  32 1.94  28 1.94  29 2.00
 107  0.320  0.167  0.732-  29 1.94  32 2.00
 108  0.036  0.167  0.700-  30 1.94  46 1.94  29 2.00
[...]
 130  0.260  0.500  0.521-  44 1.94  40 1.94  41 2.00
 131  0.185  0.500  0.605-  41 1.94  45 1.94  44 2.00
 132  0.901  0.500  0.574-  10 1.94  42 1.94  41 2.00
 133  0.044  0.333  0.553-  41 1.94  25 1.94  42 2.00
 134  0.896  0.333  0.647-  46 1.94  42 1.94  47 2.00
 135  0.685  0.333  0.605-  43 1.94  47 1.94  42 2.00
 136  0.401  0.333  0.574-  44 1.94  28 1.94  43 2.00
 137  0.544  0.500  0.553-  11 1.94  43 1.94  44 2.00
 138  0.396  0.500  0.647-  48 1.94  44 1.94  45 2.00
 139  0.320  0.500  0.732-  45 1.94  48 2.00
 140  0.036  0.500  0.700-  14 1.94  46 1.94  45 2.00
 141  0.180  0.333  0.679-  45 1.94  29 1.94  46 2.00
 142  0.820  0.333  0.732-  47 1.94  46 2.00
 143  0.536  0.333  0.700-  48 1.94  32 1.94  47 2.00
 144  0.680  0.500  0.679-  15 1.94  47 1.94  48 2.00

IMPORTANT INFORMATION: All symmetrisations will be switched off!
NOSYMM: (Re-)initialisation of all symmetry stuff for point group C_1.

                                     Primitive cell

  volume of cell :    3283.9948

  direct lattice vectors                    reciprocal lattice vectors
    10.314592520  0.000000000  0.000000000     0.096950025 -0.000000000  0.000000000
     0.000000000 11.393151181  0.000000000     0.000000000  0.087772029  0.000000000
     0.000000000  0.000000000 27.945155206     0.000000000  0.000000000  0.035784378

  length of vectors
    10.314592520 11.393151181 27.945155206     0.096950025  0.087772029  0.035784378

  position of ions in fractional coordinates (direct lattice)
     0.809420363  0.833333333  0.294677697
     0.593311104  0.666666667  0.326265743
     0.309420363  0.666666667  0.294677697
     0.093311104  0.833333333  0.326265743
     0.944983328  0.833333333  0.421029883
     0.728874070  0.666666667  0.452617930
     0.444983328  0.666666667  0.421029883
[...]
   0.50518893  9.49429265 13.38329228
   7.89156414  9.49429265 12.50055941
[...]
   2.68635603  5.69657559 14.56186293
   1.90346568  5.69657559 16.91422374
   9.28984088  5.69657559 16.03149088
   0.45727709  3.79771706 15.44459580
   9.24192904  3.79771706 18.09279439
   7.06076194  3.79771706 16.91422374
   4.13254462  3.79771706 16.03149088
   5.61457335  5.69657559 15.44459580
   4.08463278  5.69657559 18.09279439
   3.30174243  5.69657559 20.44515521
   0.37352511  5.69657559 19.56242234
   1.85555383  3.79771706 18.97552726
   8.45903869  3.79771706 20.44515521
   5.53082137  3.79771706 19.56242234
   7.01285009  5.69657559 18.97552726

--------------------------------------- Iteration      FINAL  ---------------------------------------

--------------------OUTCAR has been truncated-------------------------

[...]

--------------------OUTCAR has been truncated-------------------------

  FORCE on cell =-STRESS in cart. coord.  units (eV):
  Direction    XX          YY          ZZ          XY          YZ          ZX
  Alpha Z  2398.11824  2398.11824  2398.11824
  Ewald  486205.85123479416.38644************    -0.00018     0.00001 -1875.88703
  Hartree507008.30824502919.45722************    -0.00009     0.00001 -1266.48212
  E(xc)   -5157.67197 -5158.47039 -5156.97576    -0.00000    -0.00000    -0.29306
  Local  ************************************     0.00027    -0.00002  3151.87530
  n-local -3298.88030 -3269.30359 -3312.16168    -0.00000    -0.00000     1.59435
  augment  3148.59967  3145.08094  3137.63165    -0.00000     0.00000    -0.90867
  Kinetic 16996.99892 17057.82647 17107.27067     0.00000     0.00000   -18.59697
  Fock        0.00000     0.00000     0.00000     0.00000     0.00000     0.00000
  Total     -44.50366   -18.82284   -15.11879    -0.00000     0.00000    -8.69820
  in kB     -21.71220    -9.18318    -7.37607    -0.00000     0.00000    -4.24363

 VOLUME and BASIS-vectors are now :
  energy-cutoff  :      600.00
  volume of cell :     3283.99
      direct lattice vectors                 reciprocal lattice vectors
    10.314592520  0.000000000  0.000000000     0.096950025 -0.000000000  0.000000000
     0.000000000 11.393151181  0.000000000     0.000000000  0.087772029  0.000000000
     0.000000000  0.000000000 27.945155206     0.000000000  0.000000000  0.035784378

  length of vectors
    10.314592520 11.393151181 27.945155206     0.096950025  0.087772029  0.035784378

 FORCES acting on ions:
    Electron-Ion                     Ewald-Force                    Non-Local-Force
   0.566E+01 0.496E-05 0.335E+04   -.873E+00 -.562E-05 -.334E+04   -.102E+01 0.162E-06 -.314E+01
   0.417E+01 0.182E-04 0.275E+04   -.570E+01 -.192E-04 -.275E+04   -.115E+00 0.243E-06 -.104E+00
   0.566E+01 0.302E-05 0.335E+04   -.873E+00 -.275E-05 -.334E+04   -.102E+01 -.583E-07 -.314E+01
   0.417E+01 -.792E-05 0.275E+04   -.570E+01 0.828E-05 -.275E+04   -.115E+00 -.617E-07 -.104E+00
   0.393E+00 -.663E-04 0.124E+04   -.564E+00 0.696E-04 -.124E+04   0.170E+00 -.443E-06 0.109E-01
   -.315E+01 -.342E-04 0.770E+03   0.320E+01 0.397E-04 -.769E+03   -.284E-01 -.679E-06 -.146E+00
   0.393E+00 0.170E-03 0.124E+04   -.564E+00 -.183E-03 -.124E+04   0.170E+00 0.209E-05 0.109E-01
   -.315E+01 -.116E-03 0.770E+03   0.320E+01 0.122E-03 -.769E+03   -.284E-01 -.109E-05 -.146E+00
   -.315E+01 0.647E-04 -.801E+03   0.286E+01 -.570E-04 0.801E+03   0.290E+00 -.125E-05 0.134E+00
   -.434E+01 -.585E-03 -.122E+04   0.449E+01 0.660E-03 0.122E+04   -.108E+00 -.127E-04 -.267E+00
   -.315E+01 -.370E-04 -.801E+03   0.286E+01 0.413E-05 0.801E+03   0.290E+00 0.461E-05 0.134E+00
   -.434E+01 0.225E-03 -.122E+04   0.449E+01 -.251E-03 0.122E+04   -.108E+00 0.486E-05 -.267E+00
   0.183E+02 0.444E-03 -.280E+04   -.193E+02 -.494E-03 0.280E+04   0.977E+00 0.789E-05 -.307E-01
   -.709E+02 -.177E-03 -.319E+04   0.712E+02 0.137E-03 0.319E+04   -.105E+00 0.596E-05 0.690E+00
   0.183E+02 -.139E-02 -.280E+04   -.193E+02 0.155E-02 0.280E+04   0.977E+00 -.250E-04 -.307E-01
   -.709E+02 0.825E-04 -.319E+04   0.712E+02 -.672E-04 0.319E+04   -.105E+00 -.256E-05 0.690E+00
   0.566E+01 -.319E-06 0.335E+04   -.873E+00 0.520E-06 -.334E+04   -.102E+01 -.411E-07 -.314E+01
   0.417E+01 0.478E-06 0.275E+04   -.570E+01 -.925E-06 -.275E+04   -.115E+00 0.914E-07 -.104E+00
   0.566E+01 0.465E-06 0.335E+04   -.873E+00 -.894E-06 -.334E+04   -.102E+01 0.863E-07 -.314E+01
   0.417E+01 0.146E-04 0.275E+04   -.570E+01 -.156E-04 -.275E+04   -.115E+00 0.265E-06 -.104E+00
   0.393E+00 0.141E-03 0.124E+04   -.564E+00 -.156E-03 -.124E+04   0.170E+00 0.277E-05 0.109E-01
   -.315E+01 0.715E-04 0.770E+03   0.320E+01 -.819E-04 -.769E+03   -.284E-01 0.171E-05 -.146E+00
   0.393E+00 -.944E-05 0.124E+04   -.564E+00 0.134E-04 -.124E+04   0.170E+00 -.621E-06 0.109E-01
   -.315E+01 -.125E-04 0.770E+03   0.320E+01 0.137E-04 -.769E+03   -.284E-01 0.211E-06 -.146E+00
   -.316E+01 -.441E-04 -.801E+03   0.287E+01 0.127E-04 0.801E+03   0.290E+00 0.389E-05 0.134E+00
   -.434E+01 0.421E-03 -.122E+04   0.449E+01 -.473E-03 0.122E+04   -.108E+00 0.868E-05 -.267E+00
   -.315E+01 -.462E-05 -.801E+03   0.286E+01 0.280E-04 0.801E+03   0.290E+00 -.317E-05 0.134E+00
   -.434E+01 -.686E-03 -.122E+04   0.449E+01 0.760E-03 0.122E+04   -.108E+00 -.122E-04 -.267E+00
   0.183E+02 -.143E-02 -.280E+04   -.193E+02 0.159E-02 0.280E+04   0.977E+00 -.238E-04 -.307E-01
   -.709E+02 0.985E-04 -.319E+04   0.712E+02 -.706E-04 0.319E+04   -.105E+00 -.433E-05 0.690E+00
   0.183E+02 0.941E-03 -.280E+04   -.193E+02 -.105E-02 0.280E+04   0.977E+00 0.171E-04 -.307E-01
   -.709E+02 -.226E-03 -.319E+04   0.712E+02 0.183E-03 0.319E+04   -.105E+00 0.721E-05 0.690E+00
   0.566E+01 -.368E-05 0.335E+04   -.873E+00 0.413E-05 -.334E+04   -.102E+01 -.110E-06 -.314E+01
   0.417E+01 -.186E-04 0.275E+04   -.570E+01 0.200E-04 -.275E+04   -.115E+00 -.308E-06 -.104E+00
   0.566E+01 -.329E-05 0.335E+04   -.873E+00 0.347E-05 -.334E+04   -.102E+01 -.190E-07 -.314E+01
   0.417E+01 -.388E-05 0.275E+04   -.570E+01 0.439E-05 -.275E+04   -.115E+00 -.125E-06 -.104E+00
   0.393E+00 -.569E-04 0.124E+04   -.564E+00 0.666E-04 -.124E+04   0.170E+00 -.142E-05 0.109E-01
   -.314E+01 -.985E-04 0.770E+03   0.320E+01 0.104E-03 -.769E+03   -.283E-01 -.109E-05 -.146E+00
   0.393E+00 -.149E-03 0.124E+04   -.564E+00 0.157E-03 -.124E+04   0.170E+00 -.140E-05 0.109E-01
   -.315E+01 0.870E-04 0.770E+03   0.320E+01 -.944E-04 -.769E+03   -.284E-01 0.114E-05 -.146E+00
   -.316E+01 0.208E-04 -.801E+03   0.287E+01 0.504E-05 0.801E+03   0.290E+00 -.393E-05 0.134E+00
   -.434E+01 0.217E-03 -.122E+04   0.450E+01 -.239E-03 0.122E+04   -.108E+00 0.357E-05 -.267E+00
   -.315E+01 0.149E-04 -.801E+03   0.286E+01 -.611E-05 0.801E+03   0.290E+00 -.122E-05 0.134E+00
   -.434E+01 0.453E-03 -.122E+04   0.449E+01 -.502E-03 0.122E+04   -.108E+00 0.785E-05 -.267E+00
   0.183E+02 0.995E-03 -.280E+04   -.193E+02 -.110E-02 0.280E+04   0.977E+00 0.162E-04 -.307E-01
   -.709E+02 0.440E-04 -.319E+04   0.712E+02 -.322E-04 0.319E+04   -.106E+00 -.199E-05 0.690E+00
   0.183E+02 0.472E-03 -.280E+04   -.193E+02 -.525E-03 0.280E+04   0.977E+00 0.779E-05 -.307E-01
   -.709E+02 0.187E-03 -.319E+04   0.712E+02 -.158E-03 0.319E+04   -.105E+00 -.458E-05 0.690E+00
   -.328E+02 0.250E-05 0.226E+04   0.376E+02 -.271E-05 -.228E+04   -.649E+01 0.253E-06 0.170E+02
   -.328E+02 0.195E-06 0.226E+04   0.376E+02 -.176E-06 -.228E+04   -.649E+01 -.220E-07 0.170E+02
   0.818E+02 -.654E-06 0.137E+04   -.864E+02 0.468E-06 -.136E+04   0.365E+01 0.142E-06 -.431E+01
   0.745E+02 0.721E-05 0.167E+04   -.813E+02 -.838E-05 -.167E+04   0.716E+01 0.268E-05 -.257E+01
   -.864E+02 0.594E-05 0.193E+04   0.934E+02 -.582E-05 -.193E+04   -.676E+01 -.374E-06 -.116E+00
   -.718E+02 0.275E-04 0.104E+04   0.774E+02 -.296E-04 -.105E+04   -.569E+01 0.232E-05 0.421E+01
   0.818E+02 0.297E-04 0.137E+04   -.864E+02 -.329E-04 -.136E+04   0.365E+01 0.369E-05 -.431E+01
   0.745E+02 -.558E-06 0.167E+04   -.813E+02 0.143E-05 -.167E+04   0.716E+01 -.209E-05 -.257E+01
   -.864E+02 -.394E-05 0.193E+04   0.934E+02 0.370E-05 -.193E+04   -.676E+01 0.824E-06 -.116E+00
   -.718E+02 -.292E-04 0.104E+04   0.774E+02 0.316E-04 -.105E+04   -.569E+01 -.270E-05 0.421E+01
   0.795E+02 -.254E-04 0.146E+03   -.857E+02 0.305E-04 -.141E+03   0.625E+01 -.593E-05 -.472E+01
   0.782E+02 -.121E-03 0.467E+03   -.845E+02 0.127E-03 -.465E+03   0.630E+01 0.564E-06 -.294E+01
[...]
   0.824E+02 0.176E-03 -.109E+04   -.885E+02 -.199E-03 0.109E+04   0.611E+01 0.268E-04 -.700E+01
   0.783E+02 0.667E-03 -.736E+03   -.846E+02 -.695E-03 0.739E+03   0.633E+01 -.207E-04 -.307E+01
   -.793E+02 0.410E-04 -.476E+03   0.854E+02 -.475E-04 0.473E+03   -.608E+01 0.104E-04 0.264E+01
   -.545E+02 0.102E-03 -.130E+04   0.564E+02 -.112E-03 0.129E+04   -.187E+01 0.117E-04 0.938E+01
   0.824E+02 0.124E-03 -.109E+04   -.885E+02 -.142E-03 0.109E+04   0.611E+01 0.198E-04 -.700E+01
   0.783E+02 0.283E-03 -.736E+03   -.846E+02 -.292E-03 0.739E+03   0.633E+01 -.129E-04 -.307E+01
   -.793E+02 -.400E-05 -.476E+03   0.854E+02 0.606E-05 0.473E+03   -.608E+01 0.564E-05 0.264E+01
   -.545E+02 0.262E-03 -.130E+04   0.564E+02 -.284E-03 0.129E+04   -.187E+01 0.255E-04 0.938E+01
   0.462E+02 0.262E-03 -.229E+04   -.514E+02 -.286E-03 0.231E+04   0.518E+01 0.308E-04 -.210E+02
   0.620E+02 0.202E-03 -.201E+04   -.668E+02 -.242E-03 0.202E+04   0.478E+01 0.590E-04 -.757E+01
   -.607E+02 0.403E-03 -.166E+04   0.660E+02 -.427E-03 0.166E+04   -.532E+01 -.710E-05 0.308E+01
   0.462E+02 0.140E-03 -.229E+04   -.514E+02 -.156E-03 0.231E+04   0.518E+01 0.198E-04 -.210E+02
   0.620E+02 0.822E-04 -.201E+04   -.668E+02 -.994E-04 0.202E+04   0.478E+01 0.261E-04 -.757E+01
   -.607E+02 0.948E-03 -.166E+04   0.660E+02 -.101E-02 0.166E+04   -.532E+01 -.985E-05 0.308E+01
   -.141E+02 0.194E-05 0.712E+02   -.256E-12 0.160E-11 0.887E-11   0.141E+02 -.192E-05 -.712E+02

 POSITION                                       TOTAL-FORCE (eV/Angst)
      8.34884      9.49429      8.23481         3.796692     -0.000000      1.702776
      6.11976      7.59543      9.11755        -1.647068     -0.000001     -1.939967
      3.19154      7.59543      8.23481         3.796704      0.000000      1.702777
      0.96247      9.49429      9.11755        -1.647068      0.000000     -1.939986
      9.75517      9.49429     11.80435         0.000523      0.000003      0.001830
      7.49710      7.59543     12.61542         0.000992      0.000005      0.002370
      4.59787      7.59543     11.80435         0.000542     -0.000010      0.001869
      2.33980      9.49429     12.61542         0.001116      0.000005      0.002485
      0.89151      9.49429     15.37210         0.000010      0.000006     -0.006190
      8.92148      7.59543     16.10523        -0.005725      0.000061     -0.007585
      6.04881      7.59543     15.37210        -0.000386     -0.000028     -0.006297
      3.76418      9.49429     16.10523        -0.005773     -0.000021     -0.007498
      2.40241      9.49429     19.00666         0.006190     -0.000041      0.002178
      0.04353      7.59543     19.56616        -0.007364     -0.000034      0.001194
      7.55970      7.59543     19.00666         0.006258      0.000134      0.002198
      5.20084      9.49429     19.56617        -0.008442      0.000013      0.000760
      8.34884      1.89886      8.23481         3.796691      0.000000      1.702775
      6.11976      0.00000      9.11755        -1.647069     -0.000000     -1.939975
      3.19154      0.00000      8.23481         3.796701     -0.000000      1.702777
      0.96247      1.89886      9.11755        -1.647068     -0.000001     -1.939987
      9.75517      1.89886     11.80435         0.000526     -0.000012      0.001821
      7.49710      0.00000     12.61542         0.001014     -0.000008      0.002387
      4.59787     -0.00000     11.80435         0.000522      0.000003      0.001866
      2.33980      1.89886     12.61542         0.001131      0.000001      0.002503
      0.89151      1.89886     15.37210         0.000090     -0.000027     -0.006172
      8.92148      0.00000     16.10523        -0.005735     -0.000042     -0.007565
      6.04881     -0.00000     15.37210        -0.000338      0.000020     -0.006276
      3.76418      1.89886     16.10523        -0.005766      0.000060     -0.007459
      2.40241      1.89886     19.00666         0.006252      0.000128      0.002188
      0.04353     -0.00000     19.56616        -0.007503      0.000023      0.001155
      7.55970      0.00000     19.00666         0.006282     -0.000090      0.002200
      5.20084      1.89886     19.56617        -0.008756     -0.000035      0.000645
      8.34884      5.69658      8.23481         3.796689      0.000000      1.702776
      6.11976      3.79772      9.11755        -1.647067      0.000001     -1.939968
      3.19154      3.79772      8.23481         3.796703      0.000000      1.702777
      0.96247      5.69658      9.11755        -1.647069      0.000000     -1.939993
      9.75517      5.69658     11.80435         0.000509      0.000008      0.001814
      7.49710      3.79772     12.61542         0.000974      0.000005      0.002360
      4.59787      3.79772     11.80435         0.000540      0.000007      0.001881
      2.33980      5.69658     12.61542         0.001152     -0.000006      0.002509
      0.89151      5.69657     15.37210         0.000122      0.000021     -0.006154
      8.92148      3.79772     16.10523        -0.005739     -0.000018     -0.007629
      6.04882      3.79772     15.37210        -0.000457      0.000008     -0.006315
      3.76418      5.69658     16.10523        -0.005762     -0.000040     -0.007435
      2.40241      5.69658     19.00666         0.006274     -0.000088      0.002190
      0.04352      3.79772     19.56616        -0.007061      0.000010      0.001307
      7.55970      3.79772     19.00666         0.006197     -0.000044      0.002183
      5.20085      5.69658     19.56617        -0.008885      0.000024      0.000604
      5.04710      7.59543      7.50000        -1.768191      0.000000      1.095534
     10.20440      9.49429      7.50000        -1.768187     -0.000000      1.095537
      9.42150      9.49429      9.85236        -0.969052     -0.000000     -0.171430
      6.49329      9.49429      8.96963         0.366667      0.000002     -0.060264
      7.97532      7.59543      8.38273         0.257986     -0.000000     -1.039870
      6.44538      7.59543     11.03093        -0.046865      0.000000      0.419714
      4.26421      7.59543      9.85236        -0.969057      0.000000     -0.171449
      1.33599      7.59543      8.96963         0.366662     -0.000001     -0.060259
      2.81802      9.49429      8.38273         0.257982      0.000001     -1.039868
      1.28808      9.49429     11.03093        -0.046890     -0.000000      0.419699
      0.52235      9.49429     13.40242        -0.005028     -0.000001     -0.004850
      7.89446      9.49429     12.50451         0.001329      0.000007     -0.002319
[...]
      2.72168      5.69658     14.54996         0.001202      0.000002      0.003194
      2.00344      5.69658     16.95052        -0.003818      0.000004     -0.002176
      9.33387      5.69658     16.02540         0.000491     -0.000048      0.000584
      0.51888      3.79772     15.45949         0.007740      0.000004      0.005457
      9.41832      3.79772     18.04633         0.001386      0.000002      0.006074
      7.16073      3.79772     16.95051        -0.003500      0.000003     -0.001829
      4.17657      3.79772     16.02540         0.000668     -0.000022      0.000480
      5.67617      5.69658     15.45949         0.007934      0.000008      0.005408
      4.26101      5.69658     18.04631         0.002141      0.000004      0.007261
      3.58932      5.69658     20.43885         0.007050      0.000006     -0.004553
      0.56065      5.69658     19.78109         0.002636      0.000019      0.002336
      2.02033      3.79772     19.01457         0.000918     -0.000031     -0.004532
      8.74663      3.79772     20.43884         0.006232      0.000003     -0.004282
      5.71795      3.79772     19.78109         0.002910      0.000009      0.002374
      7.17762      5.69658     19.01457         0.001048     -0.000067     -0.004543
    total drift:                               -0.003784      0.000000      0.005157

  FREE ENERGIE OF THE ION-ELECTRON SYSTEM (eV)
  free  energy   TOTEN  =     -1044.06206292 eV

  energy  without entropy=    -1044.06206292  energy(sigma->0) =    -1044.06206292

 d Force = 0.4828941E-05[-0.163E-06, 0.982E-05]  d Energy = 0.4378409E-05 0.451E-06
 d Force =-0.1955666E+01[-0.196E+01,-0.196E+01]  d Ewald  =-0.1955666E+01-0.157E-08

 reached required accuracy - stopping structural energy minimisation