 vasp.6.3.0 20Jan22 (build Aug 21 2024 11:13:42) complex
 executed on        HPECrayEX_GCC date 2024.11.26  14:52:28

 INCAR:
   SYSTEM = TiO2
   ISMEAR = 0
   SIGMA = 0.05
   EDIFF = 1E-4
   ALGO = ALL
   ISTART = 0
   IBRION = -1
   NSW = 0
   ISYM = 0
   ISIF = 2
   EDIFFG = -0.01
   DIPOL = 0.5 0.5 0.5
   IDIPOL = 3
   LDIPOL = .TRUE.
   GGA = RE
   IVDW = 13
   VDW_S8 = 1.7468
   VDW_A1 = 0.5363
   VDW_A2 = 3.0726
   ENCUT = 600
   PREC = Accurate
   LASPH = .TRUE.
   LREAL = .FALSE.
   ISPIN = 1
   NELM = 200
   NELMIN = 8
   NCORE = 2
   KPAR = 1
   LWAVE = .FALSE.
   LCHARG = .FALSE.

 POTCAR:    PAW_PBE H 15Jun2001
 POTCAR:    PAW_PBE O 08Apr2002
 POTCAR:    PAW_PBE Ti_pv 07Sep2000
 POTCAR:    PAW_PBE O 08Apr2002
 POTCAR:    PAW_PBE H 15Jun2001
   VRHFIN =H: ultrasoft test

   TITEL  = PAW_PBE H 15Jun2001
   POMASS =    1.000; ZVAL   =    1.000    mass and valenz
   ENMAX  =  250.000; ENMIN  =  200.000 eV

   TITEL  = PAW_PBE O 08Apr2002
   POMASS =   16.000; ZVAL   =    6.000    mass and valenz
   ENMAX  =  400.000; ENMIN  =  300.000 eV

   TITEL  = PAW_PBE Ti_pv 07Sep2000
   POMASS =   47.880; ZVAL   =   10.000    mass and valenz
   ENMAX  =  222.335; ENMIN  =  166.751 eV

   TITEL  = PAW_PBE O 08Apr2002
   POMASS =   16.000; ZVAL   =    6.000    mass and valenz
   ENMAX  =  400.000; ENMIN  =  300.000 eV

  PAW_PBE H 15Jun2001                   :
  PAW_PBE O 08Apr2002                   :
  PAW_PBE Ti_pv 07Sep2000               :
  PAW_PBE O 08Apr2002                   :

 POSCAR:  H  O Ti  O
  positions in direct lattice
|           W    W    AA    RRRRR   N    N  II  N    N   GGGG   !!!           |
|           W    W   A  A   R    R  NN   N  II  NN   N  G    G  !!!           |
|           W    W  A    A  R    R  N N  N  II  N N  N  G       !!!           |
|           W WW W  AAAAAA  RRRRR   N  N N  II  N  N N  G  GGG   !            |
|           WW  WW  A    A  R   R   N   NN  II  N   NN  G    G                |
|           W    W  A    A  R    R  N    N  II  N    N   GGGG   !!!           |
|     Specifying the vdW parameters                                           |
|     VDW_S8 = 1.747                                                          |
|     VDW_A1 = 0.536                                                          |
|     VDW_A2 = 3.073                                                          |
|     in the INCAR file will overwrite the defaults for revpbe. Please        |
|     make sure that is what you intended.                                    |

 ion  position               nearest neighbor table
   1  0.512  0.550  0.802-   3 0.97
   2  0.615  0.496  0.783-   3 1.00
   3  0.538  0.491  0.783-   1 0.97   2 1.00  83 2.23
   4  0.750  0.625  0.287-  84 1.95 144 1.95  85 1.95 145 1.95 166 1.98  87 1.98  14 2.96  34 2.96

   5  0.000  0.750  0.287-  87 1.95 107 1.95 106 1.95  86 1.95  88 1.98  35 2.96  15 2.96
   6  0.000  0.625  0.394-  88 1.95 148 1.95  89 1.95 149 1.95  90 1.98  91 1.98  16 2.96  36 2.96

[...]

  84  0.750  0.750  0.245-   4 1.95  14 1.95
  85  0.750  0.750  0.329-   4 1.95  14 1.95   7 1.98
  86  0.098  0.625  0.287-   5 1.95  35 1.95  44 1.98
  87  0.902  0.625  0.287-   5 1.95  35 1.95   4 1.98
  88  0.000  0.750  0.352-   6 1.95  16 1.95   5 1.98
  89  0.000  0.750  0.435-   6 1.95  16 1.95   9 1.98
  90  0.848  0.625  0.394-   7 1.95  37 1.95   6 1.98
  91  0.152  0.625  0.394-  47 1.95  77 1.95   6 1.98
  92  0.750  0.750  0.458-   8 1.95  18 1.95   7 1.98
  93  0.750  0.750  0.542-   8 1.95  18 1.95  11 2.10
  94  0.098  0.625  0.500-   9 1.95  39 1.95  48 1.98
  95  0.902  0.625  0.500-   9 1.95  39 1.95   8 1.98
  96  0.001  0.750  0.565-  20 1.90  10 1.90   9 2.00
  97  0.000  0.750  0.649-  13 1.81  10 2.02  20 2.02
  98  0.851  0.625  0.607-  11 1.93  41 1.93  10 2.03
  99  0.151  0.625  0.607-  10 1.87  51 2.02  81 2.02
 100  0.754  0.751  0.671-  11 1.87  12 2.08  22 2.09
 101  0.750  0.749  0.756-  12 1.83  22 1.84
 102  0.095  0.625  0.719-  43 1.94  13 1.95  52 2.03
 103  0.907  0.624  0.720-  43 1.95  13 1.96  12 2.02
 104  0.750  0.000  0.245-  14 1.95  24 1.95
 105  0.750  0.000  0.329-  14 1.95  24 1.95  17 1.98
 106  0.098  0.875  0.287-   5 1.95  15 1.95  54 1.98
 107  0.902  0.875  0.287-   5 1.95  15 1.95  14 1.98
 108  0.000  0.000  0.352-  16 1.95  26 1.95  15 1.98
 109  0.000  0.000  0.435-  16 1.95  26 1.95  19 1.98
 110  0.848  0.875  0.394-   7 1.95  17 1.95  16 1.98
 111  0.152  0.875  0.394-  47 1.95  57 1.95  16 1.98
 112  0.750  0.000  0.458-  18 1.95  28 1.95  17 1.98
 113  0.750  0.000  0.542-  18 1.95  28 1.95  21 2.10
 114  0.098  0.875  0.500-   9 1.95  19 1.95  58 1.98
 115  0.902  0.875  0.500-   9 1.95  19 1.95  18 1.98
 116  0.001  1.000  0.565-  30 1.90  20 1.90  19 2.00
 117  0.000  1.000  0.649-  23 1.81  20 2.02  30 2.02
 118  0.851  0.875  0.607-  21 1.93  11 1.93  20 2.04
 119  0.151  0.875  0.607-  20 1.87  51 2.02  61 2.02
 120  0.752  1.000  0.672-  21 1.87  32 2.09  22 2.09
 121  0.751  1.000  0.756-  32 1.83  22 1.84
 122  0.095  0.875  0.718-  13 1.94  23 1.95  62 2.04
 123  0.907  0.875  0.719-  13 1.94  23 1.95  22 2.04
 124  0.750  0.250  0.245-  24 1.95  34 1.95
 125  0.750  0.250  0.329-  24 1.95  34 1.95  27 1.98
 126  0.098  0.125  0.287-  15 1.95  25 1.95  64 1.98
 127  0.902  0.125  0.287-  15 1.95  25 1.95  24 1.98
 128  0.000  0.250  0.352-  26 1.95  36 1.95  25 1.98
 129  0.000  0.250  0.435-  26 1.95  36 1.95  29 1.98
 130  0.848  0.125  0.394-  17 1.95  27 1.95  26 1.98
 131  0.152  0.125  0.394-  57 1.95  67 1.95  26 1.98
 132  0.750  0.250  0.458-  28 1.95  38 1.95  27 1.98
 133  0.750  0.250  0.542-  28 1.95  38 1.95  31 2.09
 134  0.098  0.125  0.500-  19 1.95  29 1.95  68 1.98
 135  0.902  0.125  0.500-  19 1.95  29 1.95  28 1.98
 136  0.001  0.250  0.565-  30 1.90  40 1.90  29 2.00
 137  0.000  0.250  0.649-  33 1.81  40 2.02  30 2.02
 138  0.851  0.125  0.607-  31 1.93  21 1.93  30 2.04
 139  0.151  0.125  0.607-  30 1.87  61 2.02  71 2.02
 140  0.754  0.250  0.671-  31 1.87  42 2.07  32 2.10
 141  0.750  0.251  0.755-  42 1.83  32 1.84
 142  0.095  0.125  0.719-  33 1.94  23 1.95  72 2.04
 143  0.907  0.125  0.719-  33 1.94  23 1.95  32 2.04
[...]
 229  0.500  0.500  0.435-  46 1.95  76 1.95  79 1.98
 230  0.348  0.375  0.394-  67 1.95  77 1.95  76 1.98
 231  0.652  0.375  0.394-  27 1.95  37 1.95  76 1.98
 232  0.250  0.500  0.458-  48 1.95  78 1.95  77 1.98
 233  0.250  0.500  0.542-  48 1.95  78 1.95  81 2.11
 234  0.598  0.375  0.500-  69 1.95  79 1.95  38 1.98
 235  0.402  0.375  0.500-  69 1.95  79 1.95  78 1.98
 236  0.501  0.500  0.566-  50 1.90  80 1.90  79 2.00
 237  0.500  0.500  0.650-  83 1.89  50 1.99  80 1.99
 238  0.351  0.375  0.607-  71 1.92  81 1.92  80 2.04
 239  0.651  0.375  0.608-  80 1.87  31 2.02  41 2.02
 240  0.251  0.500  0.672-  81 1.86  52 2.09  82 2.10
 241  0.252  0.500  0.756-  82 1.84  52 1.84
 242  0.598  0.372  0.714-  73 1.92  83 1.96  42 2.02
 243  0.407  0.374  0.718-  83 1.93  73 1.94  82 2.03

IMPORTANT INFORMATION: All symmetrisations will be switched off!
NOSYMM: (Re-)initialisation of all symmetry stuff for point group C_1.

                                     Primitive cell

  volume of cell :    4700.2642

  direct lattice vectors                    reciprocal lattice vectors
    13.003962940  0.000000000  0.000000000     0.076899635  0.000000000  0.000000000
     0.000000000 11.830322230  0.000000000     0.000000000  0.084528551  0.000000000
     0.000000000  0.000000000 30.552726600     0.000000000  0.000000000  0.032730303

  length of vectors
    13.003962940 11.830322230 30.552726600     0.076899635  0.084528551  0.032730303

  position of ions in fractional coordinates (direct lattice)
     0.511936655  0.549577975  0.802086976
     0.614512723  0.495788623  0.782942985
     0.538044860  0.490961797  0.782769782
     0.750000000  0.625000000  0.287188176
     0.000000000  0.750000000  0.287188176
     0.000000000  0.625000000  0.393594088
     0.750000000  0.750000000  0.393594088
     0.750000000  0.625000000  0.500000000
     0.000000000  0.750000000  0.500000000
     0.007507478  0.625044791  0.604034431
     0.756622165  0.750135588  0.610255783
     0.751837429  0.625660325  0.719233261
     0.000895964  0.750260863  0.708165998
     0.750000000  0.875000000  0.287188176
     0.000000000  0.000000000  0.287188176
     0.000000000  0.875000000  0.393594088
     0.750000000  0.000000000  0.393594088
     0.750000000  0.875000000  0.500000000
     0.000000000  0.000000000  0.500000000
     0.007490079  0.875012406  0.604125507
     0.755855553  0.999969567  0.610537310
     0.750576879  0.874897620  0.720206233
     0.001045219  0.999909588  0.708124905
     0.750000000  0.125000000  0.287188176
     0.000000000  0.250000000  0.287188176
     0.000000000  0.125000000  0.393594088
     0.750000000  0.250000000  0.393594088
     0.750000000  0.125000000  0.500000000
     0.000000000  0.250000000  0.500000000
     0.007403812  0.124921853  0.604081969
     0.756462270  0.249840398  0.610225353
     0.750511466  0.124247815  0.720174965
     0.001018462  0.249571608  0.708143291
     0.750000000  0.375000000  0.287188176
     0.000000000  0.500000000  0.287188176
     0.000000000  0.375000000  0.393594088
     0.750000000  0.500000000  0.393594088
     0.750000000  0.375000000  0.500000000
     0.000000000  0.500000000  0.500000000
     0.007585273  0.374952221  0.604037452
     0.756937476  0.499924534  0.610398616
     0.752354854  0.373442988  0.719256686
     0.001773998  0.500037448  0.708101361
     0.250000000  0.625000000  0.287188176
     0.500000000  0.750000000  0.287188176
     0.500000000  0.625000000  0.393594088
     0.250000000  0.750000000  0.393594088
     0.250000000  0.625000000  0.500000000
     0.500000000  0.750000000  0.500000000
     0.507796463  0.622929741  0.605192151
     0.256582397  0.749882420  0.610528349
     0.251398451  0.625144596  0.720256794
     0.501602825  0.750040791  0.706999744
     0.250000000  0.875000000  0.287188176
     0.500000000  0.000000000  0.287188176
     0.500000000  0.875000000  0.393594088
     0.250000000  0.000000000  0.393594088
     0.250000000  0.875000000  0.500000000
     0.500000000  0.000000000  0.500000000
     0.507266277  0.874112881  0.603157904
[...]
     0.500000000  0.500000000  0.435304992
     0.347999497  0.375000000  0.393594088
     0.652000503  0.375000000  0.393594088
     0.250000000  0.500000000  0.458289097
     0.250000000  0.500000000  0.541710903
     0.597999497  0.375000000  0.500000000
     0.402000503  0.375000000  0.500000000
     0.501286422  0.499784043  0.565537968
     0.499916940  0.500419197  0.649579376
     0.350539278  0.374989362  0.607089948
     0.651492392  0.375004268  0.607669629
     0.251402374  0.500368733  0.671614860
     0.252415554  0.499890376  0.755773059
     0.597690215  0.371519145  0.713985628
     0.407479946  0.373951130  0.717879177

  ion indices of the primitive-cell ions
   primitive index   ion index
                 1           1
                 2           2
                 3           3
                 4           4
                 5           5
                 6           6
[...]
   6.50198147  0.00000000  8.77438183
   6.50198147 10.35153195 12.02537257
   3.25099073  0.00000000 12.02537257
   3.25099073 10.35153195 15.27636330
   6.50198147  0.00000000 15.27636330
   6.59647187 10.34103705 18.42811855
[...]
   6.50198147  5.91516111 13.29975440
   4.52537257  4.43637084 12.02537257
   8.47859037  4.43637084 12.02537257
   3.25099073  5.91516111 14.00198147
   3.25099073  5.91516111 16.55074513
   7.77636330  4.43637084 15.27636330
   5.22759964  4.43637084 15.27636330
   6.51871005  5.91260627 17.27872692
   6.50090136  5.92012036 19.84642107
   4.55839979  4.43624498 18.54825321
   8.47198292  4.43642132 18.56596405
   3.26922716  5.91952334 20.51966520
   3.28240250  5.91386423 23.09092765
   7.77234141  4.39519120 21.81420769
   5.29885412  4.42396237 21.93316624

--------------------------------------- Iteration      FINAL  ---------------------------------------

--------------------OUTCAR has been truncated-------------------------

[...]

--------------------OUTCAR has been truncated-------------------------

  FORCE on cell =-STRESS in cart. coord.  units (eV):
  Direction    XX          YY          ZZ          XY          YZ          ZX
  Alpha Z  4685.93433  4685.93433  4685.93433
  Ewald  979624.47108997068.39414************   -25.54946    39.19524   -35.70976
  Hartree************************************    -6.63699     7.05550   -20.85430
  E(xc)   -8655.04991 -8628.32762 -8669.53286    -0.10374     0.20072    -0.19836
  Local  ************************************    26.24839   -34.57842    52.43118
  n-local -5370.24815 -5293.11068 -5413.76566    -0.32058     0.06095    -0.04571
  augment  5221.15038  5208.46077  5225.36306     0.37421    -0.78663     0.07463
  Kinetic 28787.49315 28329.04925 28848.50972     5.97712   -11.09238     4.13708
  Fock        0.00000     0.00000     0.00000     0.00000     0.00000     0.00000
  vdW      -131.08998  -130.56656  -117.67708     0.00822     0.00284     0.02840
  Total      19.47405   -27.42285   -31.24877    -0.00283     0.05783    -0.13684
  in kB       6.63811    -9.34762   -10.65176    -0.00096     0.01971    -0.04665

 VOLUME and BASIS-vectors are now :
  energy-cutoff  :      600.00
  volume of cell :     4700.26
      direct lattice vectors                 reciprocal lattice vectors
    13.003962940  0.000000000  0.000000000     0.076899635  0.000000000  0.000000000
     0.000000000 11.830322230  0.000000000     0.000000000  0.084528551  0.000000000
     0.000000000  0.000000000 30.552726600     0.000000000  0.000000000  0.032730303

  length of vectors
    13.003962940 11.830322230 30.552726600     0.076899635  0.084528551  0.032730303

 FORCES acting on ions:
    Electron-Ion                     Ewald-Force                    Non-Local-Force
   0.340E+02 -.617E+02 -.453E+03   -.372E+02 0.676E+02 0.459E+03   0.315E+01 -.590E+01 -.517E+01
   -.633E+02 -.223E+01 -.436E+03   0.710E+02 0.246E+01 0.436E+03   -.772E+01 -.228E+00 0.476E-01
   0.536E+02 0.401E+02 -.258E+04   -.727E+02 -.722E+02 0.256E+04   0.190E+02 0.320E+02 0.147E+02
   -.104E+00 -.162E-01 0.380E+04   0.101E+00 0.164E-01 -.380E+04   0.970E-03 -.297E-04 0.455E+00
   -.506E-01 -.308E-01 0.398E+04   0.519E-01 0.309E-01 -.397E+04   -.229E-03 -.185E-04 -.403E+01
   -.137E+00 -.537E-01 0.194E+04   0.143E+00 0.536E-01 -.194E+04   -.106E-02 0.118E-03 -.452E-01
   -.334E+00 -.121E-01 0.193E+04   0.325E+00 0.126E-01 -.193E+04   0.246E-02 0.235E-04 0.211E+00
   -.137E+01 -.150E+00 0.222E+01   0.133E+01 0.135E+00 -.145E+01   0.983E-02 0.960E-03 -.130E+00
   0.176E+01 -.671E+00 0.110E+02   -.176E+01 0.676E+00 -.121E+02   -.453E-02 -.280E-02 0.349E+00
   0.139E+02 -.164E+01 -.187E+04   -.141E+02 0.165E+01 0.187E+04   0.306E-01 -.795E-02 0.777E-01
   0.384E+01 -.697E+01 -.193E+04   -.388E+01 0.697E+01 0.193E+04   -.444E-01 -.525E-02 -.116E+00
   -.684E+02 -.170E+02 -.374E+04   0.682E+02 0.169E+02 0.374E+04   0.177E+00 0.111E+00 -.360E-01
   -.533E+01 -.229E+01 -.379E+04   0.537E+01 0.229E+01 0.379E+04   -.446E-01 -.170E-01 0.100E+01
   -.115E+00 -.198E-01 0.380E+04   0.112E+00 0.200E-01 -.380E+04   0.101E-02 -.438E-05 0.455E+00
   -.483E-01 -.168E-02 0.398E+04   0.497E-01 0.171E-02 -.397E+04   -.242E-03 -.819E-05 -.403E+01
   -.109E+00 -.624E-01 0.194E+04   0.114E+00 0.620E-01 -.194E+04   -.100E-02 0.806E-04 -.452E-01
   -.425E+00 -.104E-01 0.193E+04   0.416E+00 0.100E-01 -.193E+04   0.237E-02 -.144E-05 0.211E+00
   -.269E+01 -.447E+00 0.122E+01   0.266E+01 0.471E+00 -.448E+00   0.782E-02 -.116E-02 -.132E+00
   0.202E+01 -.152E-01 0.101E+02   -.202E+01 0.116E-01 -.112E+02   -.326E-02 0.167E-02 0.347E+00
   0.168E+02 -.143E+01 -.188E+04   -.170E+02 0.144E+01 0.188E+04   0.266E-01 -.706E-02 0.861E-01
   0.519E+01 0.191E+00 -.194E+04   -.522E+01 -.188E+00 0.194E+04   -.563E-01 -.248E-02 -.118E+00
   -.153E+02 -.162E+02 -.378E+04   0.153E+02 0.162E+02 0.378E+04   0.555E-01 0.105E-01 -.160E+00
   -.456E+01 0.270E+00 -.380E+04   0.454E+01 -.267E+00 0.380E+04   0.224E-01 -.225E-02 0.104E+01
   -.114E+00 0.162E-01 0.380E+04   0.111E+00 -.165E-01 -.380E+04   0.991E-03 0.185E-04 0.455E+00
   -.509E-01 0.308E-01 0.398E+04   0.523E-01 -.309E-01 -.397E+04   -.251E-03 0.451E-05 -.403E+01
   -.111E+00 0.571E-01 0.194E+04   0.116E+00 -.568E-01 -.194E+04   -.105E-02 -.121E-03 -.451E-01
   -.316E+00 0.112E-01 0.193E+04   0.307E+00 -.117E-01 -.193E+04   0.238E-02 -.396E-04 0.211E+00
   -.263E+01 0.409E+00 0.128E+01   0.261E+01 -.441E+00 -.508E+00   0.855E-02 0.191E-02 -.132E+00
   0.173E+01 0.648E+00 0.111E+02   -.173E+01 -.651E+00 -.121E+02   -.418E-02 0.219E-02 0.349E+00
   0.174E+02 0.147E+01 -.188E+04   -.175E+02 -.147E+01 0.188E+04   0.279E-01 0.760E-02 0.823E-01
   0.337E+01 0.689E+01 -.193E+04   -.341E+01 -.690E+01 0.193E+04   -.469E-01 0.403E-02 -.121E+00
   -.155E+02 0.146E+02 -.378E+04   0.155E+02 -.146E+02 0.378E+04   0.564E-01 -.134E-01 -.159E+00
   -.488E+01 0.224E+01 -.379E+04   0.491E+01 -.224E+01 0.379E+04   -.367E-01 0.139E-01 0.999E+00
   -.103E+00 0.199E-01 0.380E+04   0.998E-01 -.199E-01 -.380E+04   0.948E-03 -.285E-04 0.455E+00
   -.531E-01 0.159E-02 0.398E+04   0.545E-01 -.174E-02 -.397E+04   -.244E-03 0.151E-04 -.403E+01
   -.139E+00 0.591E-01 0.194E+04   0.145E+00 -.589E-01 -.194E+04   -.109E-02 -.112E-03 -.451E-01
   -.228E+00 0.112E-01 0.193E+04   0.219E+00 -.109E-01 -.193E+04   0.220E-02 -.256E-04 0.211E+00
   -.127E+01 0.193E+00 0.218E+01   0.123E+01 -.172E+00 -.142E+01   0.101E-01 -.128E-02 -.129E+00
   0.168E+01 0.293E-02 0.119E+02   -.167E+01 -.257E-02 -.130E+02   -.631E-02 -.976E-04 0.347E+00
   0.146E+02 0.172E+01 -.187E+04   -.148E+02 -.173E+01 0.187E+04   0.297E-01 0.562E-02 0.815E-01
   0.237E+01 -.370E+00 -.192E+04   -.237E+01 0.376E+00 0.192E+04   -.895E-01 -.347E-02 -.117E+00
   -.686E+02 0.140E+02 -.374E+04   0.685E+02 -.138E+02 0.374E+04   0.128E+00 -.141E+00 -.341E-01
   -.731E+01 0.158E+00 -.379E+04   0.727E+01 -.162E+00 0.379E+04   0.381E-01 0.139E-02 0.950E+00
   0.981E-01 -.124E-01 0.380E+04   -.949E-01 0.124E-01 -.380E+04   -.882E-03 0.256E-04 0.454E+00
   0.570E-01 -.139E-01 0.398E+04   -.582E-01 0.143E-01 -.397E+04   0.231E-03 -.523E-04 -.403E+01
   0.285E+00 0.124E+00 0.194E+04   -.290E+00 -.113E+00 -.194E+04   0.488E-03 -.264E-02 -.468E-01
   0.192E+00 0.306E-01 0.193E+04   -.184E+00 -.301E-01 -.193E+04   -.133E-02 -.605E-04 0.207E+00
   -.283E+00 0.812E-01 0.143E-01   0.329E+00 -.933E-01 0.808E+00   -.778E-02 0.884E-03 -.141E+00
   0.374E+01 0.111E+01 0.141E+02   -.377E+01 -.118E+01 -.150E+02   -.137E-02 0.362E-01 0.279E+00
   0.219E+02 -.116E+02 -.187E+04   -.220E+02 0.117E+02 0.187E+04   0.184E-01 -.695E-01 0.494E-01
   0.179E+02 -.505E+01 -.194E+04   -.179E+02 0.505E+01 0.194E+04   -.474E-01 0.919E-02 -.119E+00
   0.365E+02 -.138E+02 -.376E+04   -.366E+02 0.138E+02 0.376E+04   0.714E-01 0.432E-02 -.190E+00
   0.199E+02 -.546E+02 -.375E+04   -.197E+02 0.547E+02 0.375E+04   -.149E+00 -.414E-01 0.112E+01
   0.109E+00 -.164E-01 0.380E+04   -.106E+00 0.165E-01 -.380E+04   -.936E-03 -.474E-05 0.454E+00
   0.548E-01 -.384E-02 0.398E+04   -.560E-01 0.381E-02 -.397E+04   0.236E-03 -.143E-05 -.403E+01
   0.258E+00 0.836E-01 0.194E+04   -.263E+00 -.822E-01 -.194E+04   0.604E-03 -.120E-02 -.475E-01
   0.281E+00 -.145E-01 0.193E+04   -.273E+00 0.143E-01 -.193E+04   -.145E-02 0.437E-04 0.207E+00
   0.833E+00 -.306E-01 -.313E+00   -.798E+00 0.355E-01 0.113E+01   -.329E-02 -.670E-03 -.139E+00
   0.323E+01 -.198E+00 0.173E+02   -.327E+01 0.196E+00 -.184E+02   0.712E-02 0.947E-04 0.301E+00
   0.179E+02 -.103E+02 -.185E+04   -.181E+02 0.103E+02 0.185E+04   0.127E-01 -.113E-01 -.606E-01
[...]
   -.532E+02 -.312E-01 0.116E+04   0.572E+02 0.304E-01 -.116E+04   -.357E+01 0.103E-02 0.154E+00
   0.533E+02 -.196E-01 0.116E+04   -.573E+02 0.189E-01 -.116E+04   0.357E+01 0.955E-03 0.160E+00
   -.884E-01 0.292E-01 0.508E+03   0.109E+00 -.295E-01 -.512E+03   -.298E-01 0.665E-03 0.417E+01
   0.247E+01 0.212E+00 -.524E+03   -.277E+01 -.211E+00 0.531E+03   0.293E+00 -.326E-02 -.714E+01
   -.547E+02 -.332E+00 0.808E+01   0.594E+02 0.329E+00 -.830E+01   -.509E+01 0.214E-01 0.278E+00
   0.556E+02 -.436E+00 0.494E+01   -.603E+02 0.432E+00 -.510E+01   0.513E+01 0.256E-01 0.250E+00
   0.126E+02 0.480E+00 -.621E+03   -.137E+02 -.564E+00 0.614E+03   0.110E+01 0.843E-01 0.681E+01
   0.201E+02 -.200E+01 -.161E+04   -.214E+02 0.206E+01 0.161E+04   0.138E+01 -.658E-01 -.120E+01
   -.499E+02 0.212E+01 -.113E+04   0.562E+02 -.219E+01 0.113E+04   -.630E+01 0.772E-01 0.132E+01
   0.591E+00 0.381E+01 -.114E+04   -.475E+00 -.393E+01 0.114E+04   -.861E-01 0.113E+00 0.408E+00
   0.185E+02 -.635E+00 -.181E+04   -.188E+02 0.623E+00 0.182E+04   0.376E+00 0.129E-01 -.213E+01
   0.367E+02 0.475E+00 -.273E+04   -.365E+02 -.519E+00 0.275E+04   -.171E+00 0.450E-01 -.206E+02
   -.474E+02 0.418E+02 -.223E+04   0.534E+02 -.416E+02 0.223E+04   -.601E+01 -.280E+00 -.428E+00
   0.636E+02 0.333E+02 -.231E+04   -.698E+02 -.334E+02 0.231E+04   0.618E+01 0.377E-01 -.316E+01
   0.146E+02 -.266E+02 0.785E+02   0.355E-12 0.161E-11 -.277E-10   -.146E+02 0.266E+02 -.789E+02

 POSITION                                       TOTAL-FORCE (eV/Angst)
      6.65721      6.50168     24.50594        -0.001148      0.001187     -0.003995
      7.99110      5.86534     23.92104         0.002262      0.002691      0.002369
      6.99672      5.80824     23.91575        -0.007257      0.006657      0.006296
      9.75297      7.39395      8.77438        -0.002275      0.000121     -3.379046
      0.00000      8.87274      8.77438         0.001052      0.000134      2.809011
      0.00000      7.39395     12.02537         0.004845      0.000046      0.539619
      9.75297      8.87274     12.02537        -0.006491      0.000569     -0.724454
      9.75297      7.39395     15.27636        -0.029714     -0.013571      0.634468
      0.00000      8.87274     15.27636        -0.000395      0.001997     -0.739609
      0.09763      7.39448     18.45490         0.001176     -0.001705      0.001338
      9.83909      8.87435     18.64498        -0.002033     -0.001672     -0.001868
      9.77687      7.40176     21.97454        -0.002931      0.002034      0.000698
      0.01165      8.87583     21.63640         0.001389     -0.002063      0.000770
      9.75297     10.35153      8.77438        -0.002387      0.000220     -3.378870
      0.00000      0.00000      8.77438         0.001097      0.000032      2.808793
      0.00000     10.35153     12.02537         0.004638     -0.000311      0.539659
      9.75297      0.00000     12.02537        -0.006797     -0.000366     -0.725060
      9.75297     10.35153     15.27636        -0.017498      0.023036      0.641349
      0.00000      0.00000     15.27636        -0.001387     -0.002110     -0.738876
      0.09740     10.35168     18.45768        -0.001171     -0.001382     -0.001576
      9.82912     11.82996     18.65358         0.001871      0.000934     -0.000917
      9.76047     10.35032     22.00426         0.001674      0.000283      0.001582
      0.01359     11.82925     21.63515        -0.000061      0.000910     -0.000705
      9.75297      1.47879      8.77438        -0.002340     -0.000237     -3.379286
      0.00000      2.95758      8.77438         0.001144     -0.000037      2.808728
      0.00000      1.47879     12.02537         0.004771      0.000191      0.539414
      9.75297      2.95758     12.02537        -0.006300     -0.000483     -0.725584
      9.75297      1.47879     15.27636        -0.016333     -0.029493      0.637228
      0.00000      2.95758     15.27636         0.000664     -0.000227     -0.741618
      0.09628      1.47787     18.45635         0.001165      0.001460      0.001724
      9.83701      2.95569     18.64405        -0.000727      0.000129     -0.001221
      9.75962      1.46989     22.00331         0.001279      0.002128      0.004485
      0.01324      2.95251     21.63571         0.000595      0.000629      0.003040
      9.75297      4.43637      8.77438        -0.002260     -0.000065     -3.379238
      0.00000      5.91516      8.77438         0.001132     -0.000126      2.809000
      0.00000      4.43637     12.02537         0.004951      0.000091      0.539517
      9.75297      5.91516     12.02537        -0.006074      0.000296     -0.725002
      9.75297      4.43637     15.27636        -0.031114      0.020060      0.630486
      0.00000      5.91516     15.27636         0.000472      0.000274     -0.743131
      0.09864      4.43581     18.45499        -0.002853      0.001319      0.001575
      9.84319      5.91427     18.64934         0.000101      0.000370      0.000434
      9.78359      4.41795     21.97525        -0.000828     -0.004655      0.001606
      0.02307      5.91560     21.63443         0.001596     -0.001372      0.001913
      3.25099      7.39395      8.77438         0.002296      0.000027     -3.376965
      6.50198      8.87274      8.77438        -0.000983      0.000310      2.814748
      6.50198      7.39395     12.02537        -0.004503      0.009027      0.559181
      3.25099      8.87274     12.02537         0.006783      0.000484     -0.710313
      3.25099      7.39395     15.27636         0.037104     -0.010947      0.680754
      6.50198      8.87274     15.27636        -0.023272     -0.038220     -0.626505
      6.60337      7.36946     18.49027        -0.006065     -0.000148      0.003401
      3.33659      8.87135     18.65331         0.001437      0.000556      0.000547
      3.26918      7.39566     22.00581         0.002698     -0.002478      0.000897
      6.52282      8.87322     21.60077        -0.001839      0.000949      0.001381
      3.25099     10.35153      8.77438         0.002417      0.000159     -3.376998
      6.50198      0.00000      8.77438        -0.000997     -0.000017      2.814564
      6.50198     10.35153     12.02537        -0.004723      0.000305      0.561913
      3.25099      0.00000     12.02537         0.007212     -0.000118     -0.710646
      3.25099     10.35153     15.27636         0.031303      0.004611      0.676074
      6.50198      0.00000     15.27636        -0.027719     -0.002576     -0.798820
      6.59647     10.34104     18.42812        -0.002939     -0.001888     -0.000359
[...]
      6.50198      5.91516     13.29975         0.003370     -0.000688     -0.122574
      4.52537      4.43637     12.02537         0.433619      0.000259      0.047664
      8.47859      4.43637     12.02537        -0.428339      0.000236      0.049338
      3.25099      5.91516     14.00198        -0.009323      0.000366     -0.107491
      3.25099      5.91516     16.55075        -0.003561     -0.002581      0.035481
      7.77636      4.43637     15.27636        -0.435852      0.019128      0.062484
      5.22760      4.43637     15.27636         0.472372      0.021506      0.088524
      6.51871      5.91261     17.27873        -0.002057      0.001636     -0.004291
      6.50090      5.92012     19.84642        -0.000909      0.001052     -0.000665
      4.55840      4.43624     18.54825         0.000816      0.000223      0.000128
      8.47198      4.43642     18.56596         0.002811     -0.001040      0.001879
      3.26923      5.91952     20.51967        -0.001989      0.001383     -0.001130
      3.28240      5.91386     23.09093        -0.000460      0.000975     -0.001332
      7.77234      4.39519     21.81421        -0.001550      0.000164      0.003771
      5.29885      4.42396     21.93317         0.004054      0.001179      0.004418
    total drift:                               -0.001711     -0.001956     -0.388094

  FREE ENERGIE OF THE ION-ELECTRON SYSTEM (eV)
  free  energy   TOTEN  =     -2141.06456618 eV

  energy  without entropy=    -2141.06456618  energy(sigma->0) =    -2141.06456618