 vasp.6.4.2 20Jul23 (build Feb 22 2024 13:53:45) complex
 executed on              LinuxNV date 2024.08.29  03:28:51
 OpenACC runtime initialized ...    4 GPUs detected

 INCAR:
   SYSTEM = Oxide-Surface
   ISMEAR = 0
   SIGMA = 0.05
   EDIFF = 1E-5
   ALGO = Normal
   IBRION = -1
   NSW = 0
   ISYM = 0
   DIPOL = 0.5 0.5 0.5
   IDIPOL = 3
   LDIPOL = .TRUE.
   ISTART = 1
   LHFCALC = .TRUE.
   GGA = PE
   IVDW = 21
   VDW_SR = 0.96
   HFRCUT = -1
   ENCUT = 520
   PREC = Normal
   PRECFOCK = Normal
   LASPH = .TRUE.
   LREAL = Auto
   ISPIN = 1
   NELM = 200
   NELMIN = 8
   NCORE = 1
   KPAR = 1
   LWAVE = .FALSE.
   LCHARG = .FALSE.

 POTCAR:    PAW_PBE Ti_pv 07Sep2000
 POTCAR:    PAW_PBE O 08Apr2002
 POTCAR:    PAW_PBE Ti_pv 07Sep2000
   VRHFIN =Ti: d3 s1

   TITEL  = PAW_PBE Ti_pv 07Sep2000
   POMASS =   47.880; ZVAL   =   10.000    mass and valenz
   ENMAX  =  222.335; ENMIN  =  166.751 eV

   TITEL  = PAW_PBE O 08Apr2002
   POMASS =   16.000; ZVAL   =    6.000    mass and valenz
   ENMAX  =  400.000; ENMIN  =  300.000 eV

 Optimization of the real space projectors (new method)

 maximal supplied QI-value         = 15.12
 optimisation between [QCUT,QGAM] = [ 11.64, 23.28] = [ 37.95,151.78] Ry
 Optimized for a Real-space Cutoff    1.45 Angstroem

   l    n(q)    QCUT    max X(q) W(low)/X(q) W(high)/X(q)  e(spline)
   1     10    11.641     4.216    0.33E-04    0.72E-04    0.48E-07
   1     10    11.641     5.422    0.11E-03    0.20E-03    0.10E-06
   2      9    11.641    72.084    0.36E-03    0.27E-03    0.57E-06
   2      9    11.641    65.965    0.35E-03    0.27E-03    0.57E-06
   0     10    11.641    41.531    0.11E-03    0.93E-04    0.16E-06
   0     10    11.641    16.290    0.82E-04    0.72E-04    0.13E-06
 Optimization of the real space projectors (new method)

 maximal supplied QI-value         = 24.76
 optimisation between [QCUT,QGAM] = [ 11.64, 23.27] = [ 37.91,151.63] Ry
 Optimized for a Real-space Cutoff    1.04 Angstroem

   l    n(q)    QCUT    max X(q) W(low)/X(q) W(high)/X(q)  e(spline)
   0      7    11.635    20.381    0.14E-03    0.49E-03    0.18E-06
   0      7    11.635    15.268    0.16E-03    0.52E-03    0.19E-06
   1      7    11.635     5.964    0.30E-03    0.44E-03    0.22E-06
   1      7    11.635     5.382    0.27E-03    0.34E-03    0.19E-06
  PAW_PBE Ti_pv 07Sep2000               :
  PAW_PBE O 08Apr2002                   :

 POSCAR: Ti  O
  positions in direct lattice
 exchange correlation table for  LEXCH =        8
   RHO(1)=    0.500       N(1)  =     2000
   RHO(2)=  100.500       N(2)  =     4000

 ion  position               nearest neighbor table
   1  0.808  0.916  0.247-  53 1.94  51 1.94  85 1.94  52 1.99  50 1.99   2 3.05   4 3.05  18 3.05

   2  0.592  0.749  0.282-  49 1.94  52 1.94  54 1.94 116 1.94  53 1.99  55 1.99   1 3.05   3 3.05
                            33 3.05   7 3.08
   3  0.308  0.749  0.247-  57 1.94  55 1.94 121 1.94  56 1.99  49 1.99   4 3.05   2 3.05  36 3.05

   4  0.092  0.916  0.282-  50 1.94  56 1.94  58 1.94  88 1.94  57 1.99  51 1.99   3 3.05   1 3.05
                            19 3.05   5 3.08
   5  0.945  0.916  0.390-  59 1.92  93 1.93  61 1.94  51 1.98  60 1.98  58 2.00   8 2.99   6 3.04
                            22 3.05   4 3.08
   6  0.727  0.749  0.421-  54 1.89 124 1.93  60 1.94  62 1.96  63 1.99  61 2.00   7 3.01   5 3.04
                            37 3.05  11 3.10
   7  0.444  0.749  0.390-  63 1.93 129 1.93  65 1.93  55 1.97  64 1.99  54 2.00   6 3.01   8 3.05
                            40 3.05   2 3.08
   8  0.226  0.916  0.422-  58 1.90  96 1.94  64 1.94  59 1.97  66 1.97  65 2.01   5 2.99  23 3.05
                             7 3.05   9 3.11
   9  0.086  0.916  0.532-  67 1.92 101 1.93  69 1.94  68 1.97  66 2.01  59 2.01  12 2.95  10 3.04
                            26 3.05   8 3.11
  10  0.865  0.749  0.560-  62 1.86 132 1.93  68 1.94  71 1.95  69 2.01  70 2.01  11 2.98   9 3.04
                            41 3.05  15 3.17
  11  0.584  0.749  0.531- 137 1.93  71 1.93  73 1.93  63 1.97  72 1.98  62 2.02  10 2.98  12 3.05
                            44 3.06   6 3.10
  12  0.364  0.916  0.562-  66 1.86 104 1.94  72 1.94  67 1.95  74 2.00  73 2.02   9 2.95  27 3.05
                            11 3.05
  13  0.231  0.915  0.678-  75 1.86  77 1.93 109 1.94  76 2.00  74 2.10  67 2.10  16 2.85  30 3.07
                            14 3.09
  14  0.000  0.749  0.700-  70 1.78  78 1.84 140 1.97  76 1.98  77 2.07  15 2.86  13 3.09  45 3.10

[...]

  17  0.808  0.249  0.247-  85 1.94 117 1.94  83 1.94  84 1.99  82 1.99  34 3.05  18 3.05  20 3.05

[...]

  36  0.092  0.583  0.282- 114 1.94 120 1.94 122 1.94  56 1.94 121 1.99 115 1.99  35 3.05  33 3.05
                             3 3.05  37 3.07
  37  0.946  0.583  0.389- 123 1.93  61 1.93 125 1.94 115 1.97 122 1.98 124 2.00  40 2.99  38 3.05
                             6 3.05  36 3.07
  38  0.727  0.417  0.421- 118 1.89 124 1.93  92 1.94 126 1.96 127 1.99 125 2.00  39 3.01  21 3.04
                            37 3.05  43 3.10
  39  0.444  0.416  0.389- 127 1.93 129 1.93  97 1.93 119 1.97 128 1.99 118 2.01  38 3.01  24 3.05
                            40 3.05  34 3.08
  40  0.226  0.583  0.423- 122 1.92 128 1.94  64 1.94 123 1.96 130 1.97 129 2.01  37 2.99  39 3.05
                             7 3.05  41 3.07
  41  0.089  0.583  0.533- 131 1.92  69 1.93 133 1.93 130 1.98 132 2.00 123 2.01  44 2.96  42 3.05
                            10 3.05  40 3.07
  42  0.865  0.417  0.560- 126 1.86 132 1.93 100 1.94 135 1.95 133 2.01 134 2.01  43 2.98  25 3.04
                            41 3.05  47 3.16
  43  0.584  0.416  0.531- 137 1.93 135 1.93 105 1.93 127 1.97 136 1.98 126 2.02  42 2.98  28 3.05
                            44 3.06  38 3.10
  44  0.366  0.583  0.565- 130 1.92  72 1.94 136 1.94 131 1.94 138 2.00 137 2.03  41 2.96  43 3.06
                            11 3.06  45 3.14
  45  0.234  0.583  0.678- 139 1.86 141 1.93  77 1.93 140 2.03 138 2.05 131 2.10  48 2.87  14 3.10
                            46 3.10  44 3.14
  46  1.000  0.417  0.700- 134 1.78 142 1.84 140 1.97 108 1.98 141 2.07  47 2.86  29 3.09  45 3.10

  47  0.729  0.417  0.673- 142 1.90 144 1.92 112 1.94 143 1.99 135 2.03 134 2.10  46 2.86  32 3.08
                            48 3.08  42 3.16
  48  0.505  0.583  0.707- 139 1.82 138 1.86 143 1.98  79 1.98 144 2.11  45 2.87  47 3.08  15 3.08

  49  0.488  0.749  0.218-   2 1.94   3 1.99
  50  0.988  0.916  0.218-   4 1.94   1 1.99
  51  0.911  0.916  0.312-   1 1.94   5 1.98   4 1.99
  52  0.627  0.916  0.277-   2 1.94  18 1.94   1 1.99
  53  0.772  0.749  0.253-   1 1.94  33 1.94   2 1.99
  54  0.624  0.749  0.359-   6 1.89   2 1.94   7 2.00
  55  0.411  0.749  0.312-   3 1.94   7 1.97   2 1.99
  56  0.127  0.749  0.277-   4 1.94  36 1.94   3 1.99
  57  0.272  0.916  0.253-   3 1.94  19 1.94   4 1.99
  58  0.124  0.916  0.359-   8 1.90   4 1.94   5 2.00
  59  0.049  0.916  0.453-   5 1.92   8 1.97   9 2.01
  60  0.764  0.916  0.417-  22 1.94   6 1.94   5 1.98
  61  0.910  0.749  0.394-  37 1.93   5 1.94   6 2.00
  62  0.764  0.749  0.498-  10 1.86   6 1.96  11 2.02
  63  0.549  0.749  0.453-   7 1.93  11 1.97   6 1.99
  64  0.264  0.749  0.418-  40 1.94   8 1.94   7 1.99
  65  0.409  0.916  0.394-   7 1.93  23 1.93   8 2.01
  66  0.264  0.916  0.499-  12 1.86   8 1.97   9 2.01
  67  0.193  0.916  0.595-   9 1.92  12 1.95  13 2.10
  68  0.904  0.916  0.557-  26 1.94  10 1.94   9 1.97
  69  0.052  0.749  0.535-  41 1.93   9 1.94  10 2.01
  70  0.914  0.751  0.638-  14 1.78  10 2.01  15 2.10
  71  0.694  0.752  0.594-  11 1.93  10 1.95  15 2.03
  72  0.405  0.749  0.560-  44 1.94  12 1.94  11 1.98
  73  0.549  0.916  0.535-  27 1.93  11 1.93  12 2.02
  74  0.413  0.917  0.639-  16 1.78  12 2.00  13 2.10
  75  0.347  0.916  0.735-  16 1.84  13 1.86
  76  0.052  0.916  0.709-  30 1.98  14 1.98  13 2.00
  77  0.195  0.749  0.678-  13 1.93  45 1.93  14 2.07
  78  0.841  0.744  0.734-  14 1.84  15 1.89
  79  0.554  0.751  0.708-  16 1.97  48 1.98  15 1.99
  80  0.695  0.917  0.676-  31 1.93  15 1.94  16 2.06
  81  0.488  0.083  0.218-  18 1.94  19 1.99
  82  0.988  0.249  0.218-  20 1.94  17 1.99
  83  0.911  0.249  0.312-  17 1.94  21 1.98  20 1.99
  84  0.627  0.249  0.277-  18 1.94  34 1.94  17 1.99
  85  0.772  0.083  0.253-  17 1.94   1 1.94  18 1.99
  86  0.624  0.083  0.359-  22 1.89  18 1.94  23 2.00
  87  0.411  0.083  0.312-  19 1.94  23 1.98  18 1.99
  88  0.127  0.083  0.277-  20 1.94   4 1.94  19 1.99
  89  0.272  0.249  0.253-  19 1.94  35 1.94  20 1.99
  90  0.124  0.249  0.359-  24 1.90  20 1.94  21 2.00
  91  0.049  0.249  0.453-  21 1.92  24 1.97  25 2.01
  92  0.764  0.249  0.417-  22 1.94  38 1.94  21 1.98
  93  0.909  0.083  0.394-   5 1.93  21 1.93  22 2.00
  94  0.764  0.083  0.499-  26 1.86  22 1.97  27 2.01
  95  0.549  0.083  0.453-  23 1.92  22 1.98  27 2.00
  96  0.264  0.083  0.418-  24 1.94   8 1.94  23 1.99
  97  0.409  0.249  0.394-  39 1.93  23 1.93  24 2.01
  98  0.264  0.250  0.499-  28 1.86  24 1.97  25 2.01
  99  0.193  0.250  0.595-  25 1.92  28 1.95  29 2.10
 100  0.904  0.249  0.557-  26 1.94  42 1.94  25 1.97
 101  0.051  0.083  0.536-   9 1.93  25 1.93  26 2.03
 102  0.913  0.083  0.639-  30 1.78  26 2.01  31 2.09
 103  0.693  0.083  0.594-  27 1.92  26 1.94  31 2.09
 104  0.404  0.083  0.559-  12 1.94  28 1.94  27 1.98
 105  0.549  0.249  0.535-  27 1.93  43 1.93  28 2.02
 106  0.412  0.248  0.639-  32 1.78  28 2.00  29 2.10
 107  0.347  0.250  0.735-  32 1.84  29 1.86
 108  0.052  0.250  0.709-  30 1.98  46 1.98  29 2.00
[...]
 130  0.266  0.583  0.501-  44 1.92  40 1.97  41 1.98
 131  0.193  0.583  0.596-  41 1.92  44 1.94  45 2.10
 132  0.904  0.583  0.558-  42 1.93  10 1.93  41 2.00
 133  0.052  0.416  0.535-  41 1.93  25 1.94  42 2.01
 134  0.914  0.415  0.638-  46 1.78  42 2.01  47 2.10
 135  0.694  0.414  0.594-  43 1.93  42 1.95  47 2.03
 136  0.405  0.416  0.560-  44 1.94  28 1.94  43 1.98
 137  0.551  0.583  0.536-  43 1.93  11 1.93  44 2.03
 138  0.413  0.583  0.642-  48 1.86  44 2.00  45 2.05
 139  0.345  0.583  0.738-  48 1.82  45 1.86
 140  0.052  0.583  0.709-  46 1.97  14 1.97  45 2.03
 141  0.195  0.417  0.678-  29 1.93  45 1.93  46 2.07
 142  0.841  0.422  0.734-  46 1.84  47 1.90
 143  0.554  0.415  0.708-  32 1.97  48 1.98  47 1.99
 144  0.693  0.583  0.672-  15 1.92  47 1.92  48 2.11

IMPORTANT INFORMATION: All symmetrisations will be switched off!
NOSYMM: (Re-)initialisation of all symmetry stuff for point group C_1.

                                     Primitive cell

  volume of cell :    2920.0096

  direct lattice vectors                    reciprocal lattice vectors
    10.273755933  0.000000000  0.000000000     0.097335386 -0.000000000  0.000000000
     0.000000000 11.368810418  0.000000000     0.000000000  0.087959950  0.000000000
     0.000000000  0.000000000 25.000000000     0.000000000  0.000000000  0.040000000

  length of vectors
    10.273755933 11.368810418 25.000000000     0.097335386  0.087959950  0.040000000

  position of ions in fractional coordinates (direct lattice)
     0.807824645  0.915977663  0.247143925
     0.591839534  0.749310996  0.282367682
[...]
     0.000000000  0.000000000 25.000000000     0.000000000  0.000000000  0.040000000

  length of vectors
    10.273755933 11.368810418 25.000000000     0.097335386  0.087959950  0.040000000

 FORCES acting on ions
    electron-ion (+dipol)            ewald-force                    non-local-force                 convergence-correction
   0.712E+01 -.226E-01 0.298E+04   -.163E+01 0.279E-01 -.297E+04   -.132E+01 0.612E-02 -.371E+01   -.791E-04 -.564E-04 0.989E-01
   0.469E+01 -.119E+00 0.243E+04   -.652E+01 0.125E+00 -.244E+04   0.243E-01 -.626E-02 0.588E-01   0.182E-03 -.453E-04 0.893E-01
   0.704E+01 0.182E+00 0.298E+04   -.160E+01 -.182E+00 -.297E+04   -.131E+01 -.962E-02 -.370E+01   -.239E-04 -.578E-04 0.988E-01
   0.300E+01 0.169E+00 0.243E+04   -.490E+01 -.174E+00 -.244E+04   0.371E-01 0.128E-01 0.463E-01   0.235E-03 -.362E-04 0.894E-01
   0.377E-01 0.240E+00 0.110E+04   -.231E+00 -.234E+00 -.110E+04   0.150E+00 0.365E-03 -.171E-01   -.146E-03 -.114E-04 0.502E-01
   0.187E+01 -.146E+01 0.687E+03   -.184E+01 0.143E+01 -.687E+03   -.364E-01 0.342E-01 -.894E-01   0.185E-03 -.343E-05 0.353E-01
   0.168E+01 0.655E-01 0.110E+04   -.184E+01 -.745E-01 -.110E+04   0.148E+00 -.445E-02 -.341E-01   -.241E-03 0.113E-04 0.502E-01
   -.665E+01 0.904E+00 0.678E+03   0.665E+01 -.899E+00 -.678E+03   0.446E-01 0.144E-01 -.553E-01   0.118E-03 -.145E-04 0.350E-01
   -.523E+01 0.195E+00 -.718E+03   0.488E+01 -.183E+00 0.718E+03   0.276E+00 -.231E-01 0.475E-01   -.147E-03 -.786E-04 -.192E-01
   -.914E+01 0.308E+00 -.106E+04   0.922E+01 -.259E+00 0.106E+04   0.119E-01 -.777E-02 -.152E+00   -.173E-04 -.727E-04 -.337E-01
   0.179E+01 0.186E+01 -.693E+03   -.199E+01 -.183E+01 0.693E+03   0.246E+00 0.132E-01 0.341E-01   -.333E-03 -.203E-04 -.184E-01
   -.435E+01 0.244E+01 -.109E+04   0.441E+01 -.237E+01 0.109E+04   0.167E-01 -.344E-01 -.168E+00   -.917E-04 -.129E-03 -.345E-01
   0.228E+02 -.157E+01 -.247E+04   -.238E+02 0.158E+01 0.247E+04   0.882E+00 0.935E-02 -.344E+00   0.467E-03 -.478E-03 -.869E-01
   -.669E+02 -.875E+01 -.283E+04   0.660E+02 0.850E+01 0.283E+04   0.491E+00 0.198E+00 0.105E+01   -.422E-03 -.466E-03 -.954E-01
   0.104E+02 -.744E+01 -.244E+04   -.106E+02 0.754E+01 0.244E+04   0.696E+00 0.507E-02 -.230E+00   -.269E-03 -.156E-03 -.846E-01
   -.729E+02 -.273E+01 -.283E+04   0.725E+02 0.294E+01 0.283E+04   0.445E+00 -.452E-01 0.108E+01   -.616E-03 -.546E-03 -.952E-01
   0.712E+01 0.316E-01 0.298E+04   -.163E+01 -.372E-01 -.297E+04   -.131E+01 -.863E-02 -.370E+01   -.782E-04 0.551E-04 0.989E-01
   0.460E+01 0.205E-01 0.243E+04   -.647E+01 -.211E-01 -.244E+04   0.342E-01 0.669E-02 0.452E-01   0.187E-03 0.244E-06 0.894E-01
   0.691E+01 0.101E-01 0.298E+04   -.144E+01 -.104E-01 -.297E+04   -.132E+01 0.295E-02 -.370E+01   -.395E-04 0.523E-05 0.989E-01
   0.302E+01 -.134E+00 0.243E+04   -.491E+01 0.136E+00 -.244E+04   0.354E-01 -.531E-02 0.555E-01   0.238E-03 0.382E-04 0.894E-01
   -.800E-01 -.364E+00 0.110E+04   -.108E+00 0.350E+00 -.110E+04   0.154E+00 0.693E-02 -.134E-01   -.146E-03 0.113E-04 0.502E-01
   -.184E+01 0.462E-02 0.683E+03   0.183E+01 -.771E-02 -.683E+03   0.399E-01 -.108E-02 -.889E-01   0.155E-03 -.358E-06 0.352E-01
   0.181E+01 -.358E-01 0.110E+04   -.198E+01 0.334E-01 -.110E+04   0.138E+00 -.935E-03 -.412E-01   -.225E-03 -.164E-06 0.502E-01
   -.657E+01 -.755E+00 0.678E+03   0.657E+01 0.751E+00 -.678E+03   0.333E-01 0.122E-01 -.941E-01   0.118E-03 0.145E-04 0.351E-01
   -.542E+01 -.287E+00 -.717E+03   0.508E+01 0.269E+00 0.717E+03   0.283E+00 0.343E-01 0.463E-01   -.149E-03 0.724E-04 -.192E-01
   -.932E+01 0.105E-01 -.108E+04   0.934E+01 -.959E-02 0.108E+04   0.815E-01 0.954E-02 -.137E+00   -.157E-03 -.348E-05 -.343E-01
   -.154E+01 -.688E-02 -.707E+03   0.126E+01 0.559E-02 0.707E+03   0.268E+00 0.216E-01 0.903E-01   -.257E-03 -.491E-05 -.188E-01
   -.425E+01 -.250E+01 -.109E+04   0.432E+01 0.243E+01 0.109E+04   0.146E-01 0.411E-01 -.157E+00   -.904E-04 0.128E-03 -.345E-01
   0.231E+02 0.110E+01 -.247E+04   -.241E+02 -.112E+01 0.248E+04   0.898E+00 -.313E-01 -.336E+00   0.484E-03 0.469E-03 -.869E-01
   -.700E+02 -.234E+00 -.283E+04   0.696E+02 0.235E+00 0.283E+04   0.419E+00 -.557E-02 0.104E+01   -.320E-03 -.144E-05 -.960E-01
   0.148E+02 -.298E-01 -.247E+04   -.155E+02 0.342E-01 0.247E+04   0.793E+00 -.209E-02 -.289E+00   -.419E-03 -.725E-05 -.866E-01
   -.733E+02 0.290E+01 -.283E+04   0.729E+02 -.312E+01 0.283E+04   0.430E+00 0.530E-01 0.108E+01   -.640E-03 0.555E-03 -.951E-01
   0.712E+01 -.296E-02 0.298E+04   -.163E+01 0.361E-02 -.297E+04   -.132E+01 0.277E-02 -.370E+01   -.916E-04 0.104E-05 0.989E-01
   0.468E+01 0.130E+00 0.243E+04   -.651E+01 -.136E+00 -.244E+04   0.254E-01 0.133E-01 0.495E-01   0.181E-03 0.456E-04 0.893E-01
   0.705E+01 -.189E+00 0.298E+04   -.161E+01 0.190E+00 -.297E+04   -.132E+01 0.692E-02 -.371E+01   -.272E-04 0.522E-04 0.988E-01
   0.201E+01 0.122E-01 0.243E+04   -.384E+01 -.126E-01 -.244E+04   0.192E-01 0.676E-02 0.535E-01   0.232E-03 -.336E-05 0.893E-01
   0.908E+00 -.602E-01 0.109E+04   -.109E+01 0.593E-01 -.110E+04   0.120E+00 -.128E-02 0.421E-01   -.112E-03 0.415E-06 0.503E-01
   0.210E+01 0.143E+01 0.687E+03   -.206E+01 -.141E+01 -.687E+03   -.445E-02 -.294E-01 -.836E-01   0.187E-03 0.347E-05 0.353E-01
   0.156E+01 -.165E+00 0.110E+04   -.172E+01 0.170E+00 -.110E+04   0.140E+00 -.104E-01 -.432E-01   -.243E-03 -.120E-04 0.502E-01
   -.952E+01 0.772E-01 0.662E+03   0.953E+01 -.751E-01 -.662E+03   0.251E-01 0.117E-01 0.548E-02   0.510E-04 0.212E-06 0.345E-01
   -.189E+01 -.214E-01 -.724E+03   0.156E+01 0.197E-01 0.724E+03   0.181E+00 -.570E-02 0.975E-01   -.172E-03 0.549E-05 -.192E-01
   -.893E+01 -.445E+00 -.106E+04   0.901E+01 0.393E+00 0.106E+04   0.338E-01 0.515E-02 -.135E+00   -.172E-04 0.761E-04 -.337E-01
   0.174E+01 -.183E+01 -.693E+03   -.194E+01 0.180E+01 0.693E+03   0.236E+00 -.261E-02 0.517E-01   -.337E-03 0.244E-04 -.184E-01
   -.828E+01 0.205E+00 -.113E+04   0.829E+01 -.202E+00 0.113E+04   0.186E-01 -.155E-01 0.914E-01   -.114E-03 0.356E-06 -.360E-01
   0.267E+02 0.935E-01 -.248E+04   -.280E+02 -.941E-01 0.248E+04   0.768E+00 -.862E-02 -.208E+00   0.888E-03 0.124E-04 -.862E-01
   -.665E+02 0.912E+01 -.283E+04   0.656E+02 -.886E+01 0.283E+04   0.506E+00 -.168E+00 0.107E+01   -.434E-03 0.473E-03 -.954E-01
   0.980E+01 0.791E+01 -.244E+04   -.996E+01 -.800E+01 0.244E+04   0.705E+00 -.979E-02 -.224E+00   -.270E-03 0.166E-03 -.845E-01
   -.858E+02 -.598E-02 -.292E+04   0.841E+02 0.239E-01 0.291E+04   0.990E+00 0.359E-02 0.261E+01   -.127E-02 -.534E-05 -.967E-01
   -.317E+02 0.350E-02 0.201E+04   0.370E+02 -.174E-02 -.203E+04   -.630E+01 -.449E-02 0.164E+02   -.346E-03 -.581E-04 0.639E-01
   -.320E+02 0.435E-02 0.201E+04   0.373E+02 -.512E-02 -.203E+04   -.631E+01 0.125E-02 0.164E+02   -.323E-03 -.449E-04 0.640E-01
   0.814E+02 0.162E+00 0.121E+04   -.863E+02 -.186E+00 -.120E+04   0.358E+01 0.209E-01 -.411E+01   -.242E-03 -.162E-04 0.480E-01
   0.744E+02 -.299E-01 0.148E+04   -.819E+02 0.348E-01 -.147E+04   0.700E+01 -.744E-03 -.250E+01   0.279E-03 -.211E-04 0.549E-01
   -.858E+02 -.594E-01 0.171E+04   0.934E+02 0.609E-01 -.171E+04   -.646E+01 0.104E-02 -.245E+00   0.968E-04 -.233E-04 0.588E-01
   -.684E+02 -.664E+00 0.929E+03   0.742E+02 0.697E+00 -.933E+03   -.523E+01 -.283E-01 0.406E+01   0.127E-03 -.330E-05 0.379E-01
   0.821E+02 0.166E+00 0.121E+04   -.870E+02 -.156E+00 -.120E+04   0.354E+01 -.124E-01 -.393E+01   -.254E-03 -.124E-04 0.480E-01
   0.733E+02 0.115E+00 0.148E+04   -.808E+02 -.120E+00 -.147E+04   0.701E+01 0.142E-01 -.251E+01   0.318E-03 -.246E-04 0.549E-01
   -.861E+02 0.652E-01 0.171E+04   0.936E+02 -.613E-01 -.171E+04   -.644E+01 -.846E-02 -.250E+00   0.147E-03 -.272E-04 0.588E-01
   -.735E+02 0.478E+00 0.930E+03   0.797E+02 -.502E+00 -.934E+03   -.542E+01 0.332E-01 0.416E+01   0.136E-03 -.107E-04 0.379E-01
   0.782E+02 -.181E+00 0.119E+03   -.851E+02 0.195E+00 -.114E+03   0.608E+01 -.187E-01 -.487E+01   -.943E-04 -.181E-04 0.121E-01
   0.802E+02 0.232E+00 0.412E+03   -.872E+02 -.296E+00 -.408E+03   0.619E+01 0.494E-01 -.282E+01   0.753E-05 -.370E-06 0.225E-01
[...]
   0.854E+02 -.274E-01 -.981E+03   -.928E+02 0.374E-01 0.989E+03   0.668E+01 -.206E-02 -.689E+01   -.420E-04 0.417E-05 -.306E-01
   0.719E+02 -.156E+00 -.657E+03   -.781E+02 0.172E+00 0.660E+03   0.558E+01 -.131E-01 -.303E+01   -.110E-05 0.353E-05 -.193E-01
   -.815E+02 -.334E+00 -.419E+03   0.883E+02 0.239E+00 0.416E+03   -.595E+01 0.104E+00 0.259E+01   0.530E-04 0.553E-04 -.124E-01
   -.603E+02 0.681E+01 -.114E+04   0.629E+02 -.750E+01 0.113E+04   -.243E+01 0.605E+00 0.891E+01   0.179E-03 0.124E-03 -.421E-01
   0.819E+02 0.869E+01 -.948E+03   -.885E+02 -.952E+01 0.954E+03   0.574E+01 0.755E+00 -.534E+01   -.238E-03 0.264E-05 -.300E-01
   0.775E+02 -.108E+01 -.672E+03   -.842E+02 0.897E+00 0.675E+03   0.592E+01 0.206E+00 -.310E+01   -.110E-03 0.364E-04 -.197E-01
   -.733E+02 -.482E-01 -.427E+03   0.797E+02 0.538E-01 0.425E+03   -.575E+01 -.108E-01 0.217E+01   -.791E-04 0.189E-05 -.126E-01
   -.697E+02 -.390E+00 -.118E+04   0.746E+02 0.433E+00 0.117E+04   -.413E+01 -.482E-01 0.782E+01   0.676E-04 0.951E-06 -.427E-01
   0.596E+02 0.120E+00 -.203E+04   -.668E+02 -.116E+00 0.205E+04   0.671E+01 0.198E-04 -.193E+02   0.923E-03 -.305E-05 -.661E-01
   0.557E+02 0.536E-01 -.179E+04   -.599E+02 -.514E-01 0.180E+04   0.390E+01 -.542E-02 -.720E+01   0.297E-04 0.197E-06 -.601E-01
   -.534E+02 0.947E+00 -.147E+04   0.581E+02 -.896E+00 0.147E+04   -.414E+01 0.292E-01 0.288E+01   0.282E-03 0.351E-03 -.523E-01
   0.518E+02 -.495E+01 -.202E+04   -.584E+02 0.615E+01 0.205E+04   0.603E+01 -.118E+01 -.197E+02   0.670E-04 0.527E-03 -.663E-01
   0.567E+02 0.159E+01 -.178E+04   -.615E+02 -.205E+01 0.179E+04   0.414E+01 0.861E+00 -.591E+01   -.561E-03 0.508E-03 -.593E-01
   -.427E+02 -.255E-02 -.141E+04   0.467E+02 -.902E-02 0.140E+04   -.382E+01 0.622E-02 0.568E+01   -.351E-03 -.440E-05 -.503E-01
   -.177E+02 0.169E-01 0.696E+02   -.298E-12 0.128E-11 0.227E-11   0.170E+02 0.882E-01 -.617E+02   -.377E-02 0.116E-04 0.488E+00

 POSITION                                       TOTAL-FORCE (eV/Angst)
      8.29939     10.41358      6.17860         4.315376      0.011637      2.132844
      6.08041      8.51877      7.05919        -1.860304      0.001564     -2.086268
      3.16252      8.51877      6.17860         4.273118     -0.003721      2.107381
      0.94354     10.41358      7.05919        -1.907526      0.001895     -2.090284
      9.70823     10.41653      9.74251        -0.032906      0.009301     -0.025937
      7.46699      8.51530     10.53688         0.001844     -0.005608      0.016380
      4.56332      8.51729      9.73765        -0.022114     -0.004462     -0.017186
      2.31709     10.41383     10.55258         0.008296      0.009820      0.007924
      0.88600     10.41929     13.30855        -0.049171      0.016678     -0.019711
      8.89080      8.51622     14.00205         0.023641      0.011172      0.115331
      6.00380      8.51968     13.27519         0.028923      0.024382     -0.024869
      3.73988     10.41619     14.04341         0.006070      0.041253      0.022427
      2.37439     10.40804     16.94761        -0.015921      0.027263      0.167493
      0.00080      8.51036     17.49226        -0.585215     -0.065378      0.092267
      7.48737      8.50941     16.84011         0.531505      0.072610      0.579463
      5.17150     10.42543     17.49800        -0.228707      0.160946     -0.117461
      8.29939      2.83437      6.17860         4.308707     -0.008264      2.131872
      6.08041      0.93957      7.05919        -1.890737     -0.001029     -2.082900
      3.16252      0.93957      6.17860         4.308810     -0.004075      2.126412
      0.94354      2.83437      7.05919        -1.904383     -0.000431     -2.088860
      9.70793      2.83400      9.74246        -0.032214     -0.011274     -0.021723
      7.45859      0.94078     10.54238         0.002679     -0.003844      0.013433
      4.56525      0.94027      9.74200        -0.019020     -0.003622     -0.020190
      2.31721      2.83557     10.55224         0.005222     -0.007202      0.004874
      0.88573      2.83383     13.30815        -0.047533     -0.014678     -0.017866
      8.87573      0.94206     14.02068         0.012459     -0.000116      0.062650
      6.01072      0.94145     13.29279        -0.005221      0.000574     -0.019011
      3.73962      2.83538     14.04328         0.004200     -0.041203      0.020082
      2.37419      2.84586     16.94741        -0.022896     -0.024447      0.166252
      0.02814      0.94277     17.49234        -0.262414     -0.001365     -0.074019
      7.52107      0.94159     16.91601         0.132423      0.000173      0.191246
      5.17113      2.82595     17.49748        -0.228451     -0.168829     -0.127401
      8.29939      6.62397      6.17860         4.322255     -0.003258      2.123196
      6.08041      4.72917      7.05919        -1.861421      0.000856     -2.086925
      3.16252      4.72917      6.17860         4.278145      0.007601      2.106443
      0.94354      6.62397      7.05919        -1.870508     -0.000682     -2.035671
      9.72353      6.62543      9.73659        -0.045726     -0.001927     -0.044367
      7.46737      4.73521     10.53664         0.002767      0.006504      0.019162
      4.56309      4.73221      9.73742        -0.017519      0.002964     -0.022762
      2.32131      6.62471     10.58159         0.012203      0.000731     -0.050294
      0.91630      6.62697     13.31408        -0.112968     -0.003627     -0.061072
      8.89170      4.73694     14.00116         0.023725     -0.013084      0.120893
      6.00310      4.73197     13.27426         0.034622     -0.020193     -0.022921
      3.76120      6.62596     14.12670        -0.036761     -0.002164     -0.281581
      2.40893      6.62656     16.96081        -0.445665     -0.004397     -0.000225
     10.27296      4.74371     17.49310        -0.609966      0.069206      0.098562
      7.48577      4.74301     16.83609         0.558768     -0.069255      0.604083
      5.19016      6.62568     17.66659        -0.928402      0.015543     -1.993143
      5.01582      8.51877      5.44312        -2.105598     -0.002413      1.597030
     10.15269     10.41358      5.44312        -2.111525      0.001060      1.591009
      9.36399     10.41358      7.79467        -0.823726      0.001576     -0.321283
      6.44609     10.41358      6.91407         0.712291      0.001985     -0.169675
      7.93372      8.51877      6.32372         0.030640      0.001173     -1.070919
      6.41366      8.51877      8.96550        -0.306192      0.002116      0.609954
      4.22711      8.51877      7.79467        -0.839264     -0.003520     -0.294741
      1.30921      8.51877      6.91407         0.716915      0.010862     -0.176379
      2.79684     10.41358      6.32372         0.038309     -0.005233     -1.073615
      1.27678     10.41358      8.96550        -0.216433      0.010529      0.681738
      0.50823     10.41679     11.33652         0.264385     -0.005024     -0.183399
      7.84864     10.41418     10.43341         0.259262     -0.002301     -0.097583
[...]
      2.72817      6.62525     12.51382        -0.217170     -0.002818      0.242877
      1.98527      6.62686     14.90732         0.374862      0.003784     -0.165242
      9.29033      6.62630     13.95045         0.259895      0.000713     -0.123626
      0.52926      4.73423     13.38365        -0.250688      0.026463      0.087790
      9.38611      4.71719     15.95241        -0.197964      0.021738      0.152978
      7.13042      4.70139     14.84234         0.182298      0.044778     -0.260520
      4.15814      4.73323     13.99082         0.230180      0.060896     -0.091903
      5.65798      6.62575     13.40584        -0.289972     -0.005560      0.109495
      4.24724      6.62769     16.06170         0.121126     -0.009740      0.919832
      3.54223      6.62603     18.44083         0.718290      0.001166     -0.433173
      0.52923      6.62674     17.72076         0.352853     -0.001992     -0.275708
      1.99958      4.73727     16.95421        -0.106497      0.088759      0.095016
      8.63898      4.80105     18.34066         0.435535     -0.172950     -1.179600
      5.69352      4.71342     17.70097         0.041659      0.562214      0.141533
      7.11547      6.62677     16.79316        -0.576973     -0.003126      0.603810
    total drift:                               -0.038830      0.010895      0.098723

  FREE ENERGIE OF THE ION-ELECTRON SYSTEM (eV)
  free  energy   TOTEN  =     -1691.22261455 eV

  energy  without entropy=    -1691.22261455  energy(sigma->0) =    -1691.22261455