 vasp.6.3.0 20Jan22 (build Apr  1 2022 16:44:48) complex
 executed on        HPECrayEX_GCC date 2022.10.25  00:15:17

 INCAR:
   SYSTEM = MgO-rocksalt
   ISMEAR = 0
   SIGMA = 0.05
   EDIFF = 1E-6
   ALGO = ALL
   ISTART = 0
   IBRION = -1
   NSW = 0
   ISYM = 0
   DIPOL = 0.5 0.5 0.5
   IDIPOL = 3
   LDIPOL = .TRUE.
   LHFCALC = .TRUE.
   GGA = B5
   AEXX = 0.2
   AGGAX = 0.72
   AGGAC = 0.81
   ALDAC = 0.19
   IVDW = 1
   VDW_S6 = 1.05
   VDW_C6 = 1.75 0.14 0.63 0.70
   VDW_R0 = 1.452 1.001 1.243 1.342
   ENCUT = 600
   PREC = Accurate
   LASPH = .TRUE.
   LREAL = .FALSE.
   ISPIN = 1
   NELM = 200
   NELMIN = 8
   NCORE = 8
   KPAR = 1
   LWAVE = .FALSE.
   LCHARG = .FALSE.

 POTCAR:    PAW_PBE C 08Apr2002
 POTCAR:    PAW_PBE H 15Jun2001
 POTCAR:    PAW_PBE Mg_pv 13Apr2007
 POTCAR:    PAW_PBE O 08Apr2002
 POTCAR:    PAW_PBE C 08Apr2002
   VRHFIN =C: s2p2

   TITEL  = PAW_PBE C 08Apr2002
   POMASS =   12.011; ZVAL   =    4.000    mass and valenz
   ENMAX  =  400.000; ENMIN  =  300.000 eV

   TITEL  = PAW_PBE H 15Jun2001
   POMASS =    1.000; ZVAL   =    1.000    mass and valenz
   ENMAX  =  250.000; ENMIN  =  200.000 eV

   TITEL  = PAW_PBE Mg_pv 13Apr2007
   POMASS =   24.305; ZVAL   =    8.000    mass and valenz
   ENMAX  =  403.929; ENMIN  =  302.947 eV

   TITEL  = PAW_PBE O 08Apr2002
   POMASS =   16.000; ZVAL   =    6.000    mass and valenz
   ENMAX  =  400.000; ENMIN  =  300.000 eV

  PAW_PBE C 08Apr2002                   :
  PAW_PBE H 15Jun2001                   :
  PAW_PBE Mg_pv 13Apr2007               :
  PAW_PBE O 08Apr2002                   :

 POSCAR:  C  H Mg  O
  positions in direct lattice
 exchange correlation table for  LEXCH =       12
   RHO(1)=    0.500       N(1)  =     2000
   RHO(2)=  100.500       N(2)  =     4000

 ion  position               nearest neighbor table
   1  0.504  0.498  0.793-   5 1.10   3 1.10   4 1.10   2 1.53
   2  0.675  0.499  0.817-   6 1.10   8 1.10   7 1.10   1 1.53
   3  0.482  0.392  0.764-   1 1.10
   4  0.479  0.604  0.765-   1 1.10
   5  0.418  0.495  0.832-   1 1.10
   6  0.759  0.502  0.778-   2 1.10
   7  0.701  0.394  0.846-   2 1.10
   8  0.698  0.604  0.847-   2 1.10
   9  0.000  0.750  0.352-  41 2.11  43 2.11  44 2.11  51 2.11  60 2.11
  10  0.250  0.000  0.352-  42 2.11  43 2.11  44 2.11  52 2.11  59 2.11
  11  0.000  0.000  0.451-  43 2.11  42 2.11  41 2.11  49 2.11  58 2.11  47 2.12
  12  0.250  0.750  0.451-  44 2.11  42 2.11  41 2.11  50 2.11  57 2.11  48 2.12
  13  1.000  0.750  0.550-  64 2.11  48 2.11  55 2.11  47 2.11  41 2.12  45 2.15
  14  0.250  1.000  0.550-  48 2.11  56 2.11  63 2.11  47 2.11  42 2.12  46 2.15
  15  1.000  1.000  0.649-  46 2.11  62 2.11  47 2.11  45 2.11  53 2.11
  16  0.250  0.750  0.649-  48 2.11  54 2.11  45 2.11  46 2.11  61 2.11
  17  0.000  0.250  0.352-  49 2.11  43 2.11  51 2.11  52 2.11  68 2.11
  18  0.250  0.500  0.352-  50 2.11  44 2.11  51 2.11  52 2.11  67 2.11
  19  0.000  0.500  0.451-  51 2.11  49 2.11  50 2.11  41 2.11  66 2.11  55 2.12
  20  0.250  0.250  0.451-  52 2.11  49 2.11  50 2.11  42 2.11  65 2.11  56 2.12
  21  1.000  0.250  0.550-  72 2.11  56 2.11  55 2.11  47 2.11  49 2.12  53 2.15
  22  0.250  0.500  0.550-  71 2.11  56 2.11  48 2.11  55 2.11  50 2.13  54 2.15
  23  0.000  0.500  0.649-  54 2.11  55 2.11  70 2.11  45 2.11  53 2.11
  24  0.250  0.250  0.649-  56 2.11  53 2.11  54 2.11  46 2.11  69 2.11
  25  0.500  0.750  0.352-  57 2.11  44 2.11  59 2.11  60 2.11  67 2.11
  26  0.750  0.000  0.352-  58 2.11  43 2.11  59 2.11  60 2.11  68 2.11
  27  0.500  0.000  0.451-  59 2.11  57 2.11  58 2.11  42 2.11  65 2.11  63 2.12
  28  0.750  0.750  0.451-  60 2.11  57 2.11  58 2.11  41 2.11  66 2.11  64 2.12
  29  0.500  0.750  0.550-  71 2.11  64 2.11  48 2.11  63 2.11  57 2.13  61 2.15
  30  0.750  1.000  0.550-  64 2.11  72 2.11  47 2.11  63 2.11  58 2.13  62 2.15
  31  0.500  1.000  0.649-  69 2.11  61 2.11  63 2.11  46 2.11  62 2.11
  32  0.750  0.750  0.649-  64 2.11  45 2.11  62 2.11  70 2.11  61 2.11
  33  0.500  0.250  0.352-  65 2.11  59 2.11  52 2.11  67 2.11  68 2.11
  34  0.750  0.500  0.352-  66 2.11  60 2.11  51 2.11  67 2.11  68 2.11
  35  0.500  0.500  0.451-  67 2.11  57 2.11  65 2.11  66 2.11  50 2.11  71 2.12
  36  0.750  0.250  0.451-  68 2.11  58 2.11  65 2.11  66 2.11  49 2.11  72 2.12
  37  0.500  0.250  0.550-  71 2.11  72 2.11  56 2.11  63 2.11  65 2.13  69 2.15
  38  0.750  0.500  0.550-  71 2.11  72 2.11  64 2.11  55 2.11  66 2.13  70 2.15
  39  0.500  0.500  0.649-  54 2.11  61 2.11  69 2.11  70 2.11  71 2.12
  40  0.750  0.250  0.649-  72 2.11  53 2.11  62 2.11  70 2.11  69 2.11
  41  0.000  0.750  0.451-   9 2.11  11 2.11  12 2.11  19 2.11  28 2.11  13 2.12
  42  0.250  0.000  0.451-  10 2.11  11 2.11  12 2.11  20 2.11  27 2.11  14 2.12
  43  0.000  0.000  0.352-  11 2.11  10 2.11   9 2.11  17 2.11  26 2.11
  44  0.250  0.750  0.352-  12 2.11  10 2.11   9 2.11  18 2.11  25 2.11
  45  1.000  0.750  0.651-  32 2.11  16 2.11  23 2.11  15 2.11  13 2.15
  46  0.250  1.000  0.651-  15 2.11  31 2.11  24 2.11  16 2.11  14 2.15
  47  1.000  1.000  0.550-  30 2.11  13 2.11  21 2.11  14 2.11  15 2.11  11 2.12
  48  0.250  0.750  0.550-  16 2.11  14 2.11  13 2.11  29 2.11  22 2.11  12 2.12
  49  0.000  0.250  0.451-  17 2.11  11 2.11  19 2.11  20 2.11  36 2.11  21 2.12
  50  0.250  0.500  0.451-  18 2.11  12 2.11  19 2.11  20 2.11  35 2.11  22 2.13
  51  0.000  0.500  0.352-  19 2.11  17 2.11  18 2.11   9 2.11  34 2.11
  52  0.250  0.250  0.352-  20 2.11  17 2.11  18 2.11  10 2.11  33 2.11
  53  1.000  0.250  0.651-  40 2.11  24 2.11  23 2.11  15 2.11  21 2.15
  54  0.250  0.500  0.651-  23 2.11  16 2.11  24 2.11  39 2.11  22 2.15
  55  1.000  0.500  0.550-  23 2.11  21 2.11  13 2.11  38 2.11  22 2.11  19 2.12
  56  0.250  0.250  0.550-  24 2.11  14 2.11  21 2.11  37 2.11  22 2.11  20 2.12
  57  0.500  0.750  0.451-  25 2.11  12 2.11  27 2.11  28 2.11  35 2.11  29 2.13
  58  0.750  0.000  0.451-  26 2.11  11 2.11  27 2.11  28 2.11  36 2.11  30 2.13
  59  0.500  0.000  0.352-  27 2.11  25 2.11  26 2.11  10 2.11  33 2.11
  60  0.750  0.750  0.352-  28 2.11  25 2.11  26 2.11   9 2.11  34 2.11
  61  0.500  0.750  0.651-  31 2.11  32 2.11  16 2.11  39 2.11  29 2.15
  62  0.750  1.000  0.651-  40 2.11  15 2.11  32 2.11  31 2.11  30 2.15
  63  0.500  1.000  0.550-  31 2.11  30 2.11  14 2.11  29 2.11  37 2.11  27 2.12
  64  0.750  0.750  0.550-  32 2.11  30 2.11  13 2.11  29 2.11  38 2.11  28 2.12
  65  0.500  0.250  0.451-  33 2.11  27 2.11  20 2.11  35 2.11  36 2.11  37 2.13
  66  0.750  0.500  0.451-  34 2.11  28 2.11  19 2.11  35 2.11  36 2.11  38 2.13
  67  0.500  0.500  0.352-  35 2.11  25 2.11  33 2.11  34 2.11  18 2.11
  68  0.750  0.250  0.352-  36 2.11  26 2.11  33 2.11  34 2.11  17 2.11
  69  0.500  0.250  0.651-  31 2.11  40 2.11  24 2.11  39 2.11  37 2.15
  70  0.750  0.500  0.651-  23 2.11  32 2.11  40 2.11  39 2.11  38 2.15
  71  0.500  0.500  0.550-  38 2.11  29 2.11  37 2.11  22 2.11  39 2.12  35 2.12
  72  0.750  0.250  0.550-  40 2.11  30 2.11  21 2.11  37 2.11  38 2.11  36 2.12

IMPORTANT INFORMATION: All symmetrisations will be switched off!
NOSYMM: (Re-)initialisation of all symmetry stuff for point group C_1.

                                     Primitive cell

  volume of cell :    1519.8199

  direct lattice vectors                    reciprocal lattice vectors
     8.440984654  0.000000000  0.000000000     0.118469591  0.000000000  0.000000000
     0.000000000  8.440984654  0.000000000     0.000000000  0.118469591  0.000000000
     0.000000000  0.000000000 21.330738491     0.000000000  0.000000000  0.046880702

  length of vectors
     8.440984654  8.440984654 21.330738491     0.118469591  0.118469591  0.046880702

  position of ions in fractional coordinates (direct lattice)
     0.504434876  0.497571925  0.793182562
     0.675419507  0.499339829  0.817254959
     0.481938651  0.392229692  0.763981212
     0.478802048  0.604112785  0.765085782
     0.417852208  0.495000411  0.831710663
     0.759152897  0.502002316  0.777764631
     0.701471206  0.393571335  0.845561462
     0.698192892  0.603729020  0.846776833
     0.000000000  0.750000000  0.351605267
     0.250000000  0.000000000  0.351605267
     0.000000000  0.000000000  0.450535089
     0.250000000  0.750000000  0.450535089
     0.999969335  0.749932564  0.550143009
     0.249979009  0.999932854  0.550153760
     0.999984729  0.999879620  0.648880782
     0.249865610  0.749814499  0.648764798
     0.000000000  0.250000000  0.351605267
     0.250000000  0.500000000  0.351605267
     0.000000000  0.500000000  0.450535089
     0.250000000  0.250000000  0.450535089
     0.999969716  0.249949331  0.550140365
     0.250119639  0.499932684  0.550205747
     0.000137590  0.499892464  0.648694835
     0.249861482  0.249941717  0.648759231
     0.500000000  0.750000000  0.351605267
     0.750000000  0.000000000  0.351605267
     0.500000000  0.000000000  0.450535089
     0.750000000  0.750000000  0.450535089
     0.499983604  0.749784240  0.550199518
     0.749978902  0.999929979  0.550160720
     0.499953859  0.999865553  0.648719052
     0.750035499  0.749892856  0.648802828
     0.500000000  0.250000000  0.351605267
     0.750000000  0.500000000  0.351605267
     0.500000000  0.500000000  0.450535089
     0.750000000  0.250000000  0.450535089
     0.499985367  0.250051482  0.550198962
     0.749853021  0.499929383  0.550227143
     0.499835929  0.499867681  0.649468757
     0.750050535  0.249858113  0.648796072
     0.000000000  0.750000000  0.450535089
     0.250000000  0.000000000  0.450535089
     0.000000000  0.000000000  0.351605267
     0.250000000  0.750000000  0.351605267
     0.999935709  0.749855480  0.651031248
     0.249938454  0.999880825  0.651034598
     0.999963400  0.999937428  0.549922155
     0.249957400  0.750009151  0.549898012
     0.000000000  0.250000000  0.450535089
     0.250000000  0.500000000  0.450535089
     0.000000000  0.500000000  0.351605267
     0.250000000  0.250000000  0.351605267
     0.999938240  0.249914393  0.651023838
     0.249711433  0.499880155  0.650777859
     0.999963453  0.499938781  0.549848970
     0.249949301  0.249857489  0.549894283
     0.500000000  0.750000000  0.450535089
     0.750000000  0.000000000  0.450535089
     0.500000000  0.000000000  0.351605267
     0.750000000  0.750000000  0.351605267
     0.499982066  0.750187993  0.650991390
     0.749999064  0.999877994  0.651061537
     0.499988807  0.999916028  0.549866891
     0.749997384  0.749999493  0.549915913
     0.500000000  0.250000000  0.450535089
     0.750000000  0.500000000  0.450535089
     0.500000000  0.500000000  0.351605267
     0.750000000  0.250000000  0.351605267
     0.499989412  0.249524492  0.650964072
     0.750199653  0.499878761  0.650908380
     0.500007765  0.499929862  0.550045517
     0.750007621  0.249862313  0.549912158

  ion indices of the primitive-cell ions
   primitive index   ion index
                 1           1
                 2           2
                 3           3
                 4           4
                 5           5
                 6           6
                 7           7
                 8           8
[...]
   4.22049233  6.33073849  7.50000000
   6.33073849  0.00000000  7.50000000
   4.22049233  0.00000000  9.61024616
   6.33073849  6.33073849  9.61024616
   4.22035393  6.32891726 11.73616204
   6.33056040  8.44039361 11.73533446
   4.22010285  8.43984979 13.83765645
   6.33103814  6.32983409 13.83944346
   4.22049233  2.11024616  7.50000000
   6.33073849  4.22049233  7.50000000
   4.22049233  4.22049233  9.61024616
   6.33073849  2.11024616  9.61024616
   4.22036881  2.11068072 11.73615017
   6.32949784  4.21989625 11.73675130
   4.21910740  4.21937542 13.85364820
   6.33116506  2.10904849 13.83929935
   0.00000000  6.33073849  9.61024616
   2.11024616  0.00000000  9.61024616
   0.00000000  0.00000000  7.50000000
   2.11024616  6.33073849  7.50000000
   8.44044197  6.32951860 13.88697731
   2.10972665  8.43997870 13.88704876
   8.44067571  8.44045649 11.73024569
   2.10988658  6.33081573 11.72973070
   0.00000000  2.11024616  9.61024616
   2.11024616  4.22049233  9.61024616
   0.00000000  4.22049233  7.50000000
   2.11024616  2.11024616  7.50000000
   8.44046334  2.10952356 13.88681923
   2.10781037  4.21948072 13.88157232
   8.44067617  4.21997558 11.72868458
   2.10981821  2.10904323 11.72965114
   4.22049233  6.33073849  9.61024616
   6.33073849  0.00000000  9.61024616
   4.22049233  0.00000000  7.50000000
   6.33073849  6.33073849  7.50000000
   4.22034095  6.33232534 13.88612710
   6.33073059  8.43995481 13.88762338
   4.22039784  8.44027584 11.72906685
   6.33071641  6.33073421 11.73011252
   4.22049233  2.11024616  9.61024616
   6.33073849  4.22049233  9.61024616
   4.22049233  4.22049233  7.50000000
   6.33073849  2.11024616  7.50000000
   4.22040296  2.10623240 13.88554438
   6.33242376  4.21946895 13.88435643
   4.22055787  4.21990030 11.73287708
   6.33080282  2.10908395 11.73003243

--------------------------------------- Iteration      FINAL  ---------------------------------------

--------------------OUTCAR has been truncated-------------------------

[...]

--------------------OUTCAR has been truncated-------------------------

  DFT-D2 method for vdW energy calculation

  Parameters of vdW forcefield:
         C6(Jnm^6/mol)     R0(A)
   C        1.750          1.452
   H        0.140          1.001
   Mg       0.630          1.243
   O        0.700          1.342

  vdW correction parametrized for the method ü      

  IVDW =   1
  VDW_RADIUS =    50.000 A
  VDW_S6 =     1.050
  VDW_SR =     1.000
  VDW_D =    20.000
  LVDW_EWALD = F

  Number of pair interactions contributing to vdW energy:  911551
  Edisp (eV):   -5.36566

 VOLUME and BASIS-vectors are now :
  energy-cutoff  :      600.00
  volume of cell :     1519.82
      direct lattice vectors                 reciprocal lattice vectors
     8.440984654  0.000000000  0.000000000     0.118469591  0.000000000  0.000000000
     0.000000000  8.440984654  0.000000000     0.000000000  0.118469591  0.000000000
     0.000000000  0.000000000 21.330738491     0.000000000  0.000000000  0.046880702

  length of vectors
     8.440984654  8.440984654 21.330738491     0.118469591  0.118469591  0.046880702

 FORCES acting on ions:
    Electron-Ion                     Ewald-Force                    Non-Local-Force
   0.690E+02 0.734E+00 -.916E+03   -.689E+02 -.748E+00 0.916E+03   -.267E+00 0.145E-01 -.206E+00
   -.692E+02 -.734E+00 -.862E+03   0.695E+02 0.746E+00 0.862E+03   -.164E+00 -.119E-01 0.292E+00
   0.181E+02 0.464E+02 -.231E+03   -.190E+02 -.508E+02 0.228E+03   0.979E+00 0.446E+01 0.301E+01
   0.195E+02 -.468E+02 -.231E+03   -.205E+02 0.512E+02 0.229E+03   0.111E+01 -.450E+01 0.289E+01
   0.456E+02 0.122E+01 -.234E+03   -.492E+02 -.133E+01 0.238E+03   0.366E+01 0.108E+00 -.405E+01
   -.449E+02 -.127E+01 -.211E+03   0.484E+02 0.138E+01 0.207E+03   -.354E+01 -.110E+00 0.424E+01
   -.195E+02 0.464E+02 -.213E+03   0.207E+02 -.507E+02 0.216E+03   -.113E+01 0.441E+01 -.300E+01
   -.181E+02 -.459E+02 -.213E+03   0.191E+02 0.503E+02 0.216E+03   -.995E+00 -.436E+01 -.313E+01
   -.911E-01 -.234E+00 0.208E+04   0.910E-01 0.233E+00 -.207E+04   0.126E-03 0.435E-03 -.639E+01
   0.159E+00 0.376E-02 0.208E+04   -.159E+00 -.390E-02 -.207E+04   -.113E-03 0.107E-03 -.639E+01
   -.291E+00 0.107E-01 0.723E+03   0.290E+00 -.132E-01 -.723E+03   0.658E-03 0.152E-02 0.468E+00
   0.642E+00 -.873E+00 0.724E+03   -.639E+00 0.869E+00 -.724E+03   -.142E-02 0.182E-02 0.457E+00
   -.161E+01 -.412E+01 -.624E+03   0.161E+01 0.411E+01 0.624E+03   0.243E-02 0.513E-02 -.121E+00
   0.282E+01 0.594E-01 -.627E+03   -.282E+01 -.598E-01 0.627E+03   -.333E-02 0.126E-03 -.124E+00
   -.459E+01 0.102E+00 -.198E+04   0.460E+01 -.100E+00 0.198E+04   -.296E-02 -.686E-03 0.532E+01
   0.170E+02 -.197E+02 -.196E+04   -.171E+02 0.197E+02 0.196E+04   0.500E-01 0.150E-01 0.538E+01
   -.912E-01 0.234E+00 0.208E+04   0.911E-01 -.233E+00 -.207E+04   0.130E-03 -.254E-03 -.639E+01
   0.165E+00 -.414E-02 0.208E+04   -.165E+00 0.400E-02 -.207E+04   -.453E-03 0.969E-04 -.639E+01
   -.355E+00 -.253E-01 0.725E+03   0.352E+00 0.228E-01 -.725E+03   0.230E-02 0.152E-02 0.431E+00
   0.636E+00 0.860E+00 0.724E+03   -.634E+00 -.862E+00 -.724E+03   -.102E-02 0.157E-02 0.456E+00
   -.162E+01 0.413E+01 -.624E+03   0.162E+01 -.413E+01 0.624E+03   0.241E-02 -.577E-02 -.122E+00
   0.437E+01 -.567E-01 -.617E+03   -.434E+01 0.572E-01 0.618E+03   -.306E-01 -.374E-03 -.280E+00
   -.113E+02 -.899E-01 -.196E+04   0.114E+02 0.912E-01 0.195E+04   -.803E-01 -.164E-02 0.536E+01
   0.172E+02 0.197E+02 -.196E+04   -.173E+02 -.197E+02 0.196E+04   0.566E-01 -.160E-01 0.538E+01
   0.909E-01 -.240E+00 0.208E+04   -.909E-01 0.239E+00 -.207E+04   -.410E-04 0.788E-03 -.639E+01
   -.159E+00 0.385E-02 0.208E+04   0.159E+00 -.400E-02 -.207E+04   0.186E-03 0.110E-03 -.639E+01
   0.285E+00 0.775E-02 0.724E+03   -.285E+00 -.118E-01 -.724E+03   0.454E-03 0.246E-02 0.441E+00
   -.645E+00 -.938E+00 0.725E+03   0.641E+00 0.932E+00 -.725E+03   0.270E-02 0.372E-02 0.464E+00
   0.163E+01 -.566E+01 -.617E+03   -.163E+01 0.563E+01 0.617E+03   -.235E-02 0.293E-01 -.175E+00
   -.281E+01 0.639E-01 -.625E+03   0.281E+01 -.642E-01 0.625E+03   0.127E-02 0.132E-03 -.121E+00
   0.465E+01 0.331E+00 -.197E+04   -.465E+01 -.328E+00 0.196E+04   0.265E-02 -.244E-02 0.533E+01
   -.172E+02 -.268E+02 -.195E+04   0.172E+02 0.269E+02 0.194E+04   -.427E-01 -.357E-01 0.538E+01
   0.910E-01 0.240E+00 0.208E+04   -.910E-01 -.239E+00 -.207E+04   -.389E-04 -.538E-03 -.639E+01
   -.165E+00 -.427E-02 0.208E+04   0.165E+00 0.413E-02 -.207E+04   0.514E-03 0.102E-03 -.640E+01
   0.352E+00 -.179E-01 0.726E+03   -.350E+00 0.149E-01 -.726E+03   -.167E-02 0.170E-02 0.487E+00
   -.639E+00 0.926E+00 0.725E+03   0.635E+00 -.925E+00 -.725E+03   0.222E-02 -.170E-03 0.463E+00
   0.164E+01 0.564E+01 -.617E+03   -.163E+01 -.561E+01 0.617E+03   -.246E-02 -.293E-01 -.182E+00
   -.441E+01 -.631E-01 -.614E+03   0.437E+01 0.641E-01 0.614E+03   0.328E-01 -.664E-03 -.232E+00
   0.120E+02 -.506E+00 -.189E+04   -.121E+02 0.521E+00 0.189E+04   0.614E-01 -.105E-01 0.529E+01
   -.174E+02 0.269E+02 -.195E+04   0.175E+02 -.269E+02 0.194E+04   -.493E-01 0.345E-01 0.539E+01
   -.239E+00 -.689E+00 0.542E+03   0.241E+00 0.686E+00 -.542E+03   -.252E-02 0.422E-02 -.986E-01
   0.473E+00 0.720E-02 0.542E+03   -.467E+00 -.371E-02 -.542E+03   -.760E-02 -.415E-02 -.104E+00
   -.650E-01 0.322E-02 0.156E+04   0.650E-01 -.314E-02 -.157E+04   -.377E-04 -.114E-03 0.313E+01
   0.122E+00 -.174E+00 0.156E+04   -.121E+00 0.173E+00 -.157E+04   -.684E-03 0.509E-03 0.313E+01
   -.594E+01 -.117E+02 -.150E+04   0.594E+01 0.117E+02 0.150E+04   -.156E-02 0.908E-02 -.458E+01
   0.731E+01 0.147E+00 -.151E+04   -.729E+01 -.150E+00 0.151E+04   -.186E-01 0.321E-02 -.458E+01
   -.965E+00 0.291E-01 -.466E+03   0.966E+00 -.272E-01 0.466E+03   -.856E-04 -.206E-02 0.247E+00
   0.264E+01 -.335E+01 -.461E+03   -.263E+01 0.333E+01 0.461E+03   -.688E-02 0.184E-01 0.268E+00
   -.240E+00 0.681E+00 0.542E+03   0.242E+00 -.672E+00 -.542E+03   -.248E-02 -.114E-01 -.987E-01
   0.518E+00 -.180E-01 0.543E+03   -.528E+00 0.213E-01 -.543E+03   0.123E-01 -.388E-02 -.112E+00
   -.718E-01 -.310E-02 0.156E+04   0.715E-01 0.317E-02 -.157E+04   0.316E-03 -.889E-04 0.313E+01
   0.121E+00 0.174E+00 0.156E+04   -.121E+00 -.173E+00 -.157E+04   -.602E-03 -.736E-03 0.313E+01
   -.595E+01 0.117E+02 -.150E+04   0.595E+01 -.117E+02 0.150E+04   -.234E-02 -.610E-02 -.458E+01
   0.211E+02 -.168E+00 -.148E+04   -.210E+02 0.166E+00 0.148E+04   -.827E-01 0.222E-02 -.465E+01
   -.144E+01 -.447E-01 -.459E+03   0.144E+01 0.447E-01 0.459E+03   -.648E-02 0.168E-03 0.270E+00
   0.264E+01 0.335E+01 -.461E+03   -.263E+01 -.333E+01 0.461E+03   -.625E-02 -.175E-01 0.268E+00
   0.235E+00 -.736E+00 0.543E+03   -.234E+00 0.750E+00 -.543E+03   -.506E-03 -.164E-01 -.109E+00
   -.475E+00 0.749E-02 0.542E+03   0.471E+00 -.386E-02 -.542E+03   0.490E-02 -.431E-02 -.103E+00
   0.650E-01 0.296E-02 0.156E+04   -.650E-01 -.290E-02 -.157E+04   -.352E-04 -.834E-04 0.313E+01
   -.122E+00 -.180E+00 0.156E+04   0.121E+00 0.180E+00 -.157E+04   0.595E-03 0.841E-03 0.313E+01
   0.603E+01 -.259E+02 -.147E+04   -.603E+01 0.259E+02 0.148E+04   -.167E-02 0.695E-01 -.456E+01
   -.737E+01 0.162E+00 -.150E+04   0.735E+01 -.165E+00 0.151E+04   0.165E-01 0.383E-02 -.458E+01
   0.957E+00 0.622E-01 -.461E+03   -.960E+00 -.644E-01 0.461E+03   0.215E-02 0.260E-02 0.281E+00
   -.264E+01 -.385E+01 -.459E+03   0.264E+01 0.383E+01 0.459E+03   0.679E-02 0.136E-01 0.268E+00
   0.236E+00 0.720E+00 0.543E+03   -.236E+00 -.725E+00 -.543E+03   -.364E-03 0.634E-02 -.108E+00
   -.520E+00 -.193E-01 0.544E+03   0.531E+00 0.228E-01 -.543E+03   -.137E-01 -.412E-02 -.116E+00
   0.718E-01 -.255E-02 0.156E+04   -.715E-01 0.272E-02 -.157E+04   -.361E-03 -.214E-03 0.312E+01
   -.121E+00 0.181E+00 0.156E+04   0.121E+00 -.180E+00 -.157E+04   0.516E-03 -.108E-02 0.313E+01
   0.606E+01 0.261E+02 -.147E+04   -.606E+01 -.260E+02 0.148E+04   -.109E-02 -.630E-01 -.455E+01
   -.216E+02 -.179E+00 -.145E+04   0.216E+02 0.176E+00 0.146E+04   0.591E-01 0.380E-02 -.459E+01
   0.146E+01 -.341E-01 -.455E+03   -.147E+01 0.307E-01 0.454E+03   0.425E-02 0.304E-02 0.992E-01
   -.265E+01 0.385E+01 -.459E+03   0.264E+01 -.384E+01 0.458E+03   0.647E-02 -.114E-01 0.269E+00
   0.411E+00 -.795E-02 0.188E+02   0.284E-13 0.995E-13 -.568E-12   -.388E+00 0.540E-02 -.165E+02

 POSITION                                       TOTAL-FORCE (eV/Angst)
      4.25793      4.20000     16.91917        -0.210112      0.001055     -0.082845
      5.70121      4.21492     17.43265         0.192714      0.000479      0.075453
      4.06804      3.31080     16.29628         0.074942      0.197912      0.139687
      4.04156      5.09931     16.31984         0.080932     -0.201702      0.133173
      3.52708      4.17829     17.74100         0.184970      0.005456     -0.162513
      6.40800      4.23739     16.59029        -0.182149     -0.004810      0.183660
      5.92111      3.32213     18.03645        -0.065122      0.188682     -0.134811
      5.89344      5.09607     18.06238        -0.056921     -0.186269     -0.142505
      0.00000      6.33074      7.50000        -0.000024     -0.000163      0.466520
      2.11025      0.00000      7.50000         0.000079      0.000012      0.466891
      0.00000      0.00000      9.61025        -0.000319     -0.000746      0.044655
      2.11025      6.33074      9.61025         0.000682     -0.001289      0.046173
      8.44073      6.33017     11.73496        -0.000174     -0.001569      0.024480
      2.11007      8.44042     11.73519         0.001048     -0.000137      0.023462
      8.44086      8.43997     13.84111        -0.000769      0.000983     -0.082673
      2.10911      6.32917     13.83863        -0.007342      0.002819     -0.090995
      0.00000      2.11025      7.50000        -0.000013      0.000196      0.466513
      2.11025      4.22049      7.50000         0.000184      0.000009      0.467222
      0.00000      4.22049      9.61025        -0.000877     -0.000719      0.049198
      2.11025      2.11025      9.61025         0.000566     -0.000405      0.046035
      8.44073      2.10982     11.73490        -0.000047      0.000676      0.024830
      2.11126      4.21992     11.73629        -0.000267      0.000078      0.030098
      0.00116      4.21958     13.83714         0.007753     -0.000418     -0.089114
      2.10908      2.10975     13.83851        -0.008643     -0.001528     -0.090907
      4.22049      6.33074      7.50000         0.000037     -0.000257      0.467157
      6.33074      0.00000      7.50000        -0.000088      0.000004      0.466796
      4.22049      0.00000      9.61025        -0.000243     -0.001239      0.049038
      6.33074      6.33074      9.61025        -0.001395     -0.002103      0.046724
      4.22035      6.32892     11.73616         0.000179      0.000855      0.028300
      6.33056      8.44039     11.73533        -0.000911     -0.000059      0.023834
      4.22010      8.43985     13.83766         0.000557      0.000047     -0.082662
      6.33104      6.32983     13.83944         0.005069      0.010145     -0.097339
      4.22049      2.11025      7.50000         0.000030      0.000269      0.467067
      6.33074      4.22049      7.50000        -0.000145      0.000018      0.467438
      4.22049      4.22049      9.61025         0.000633     -0.000978      0.051446
      6.33074      2.11025      9.61025        -0.001230      0.000301      0.046573
      4.22037      2.11068     11.73615         0.000140      0.000472      0.027697
      6.32950      4.21990     11.73675        -0.000474      0.000341      0.027361
      4.21911      4.21938     13.85365        -0.010624      0.002769     -0.058310
      6.33117      2.10905     13.83930         0.006438     -0.008452     -0.098042
      0.00000      6.33074      9.61025        -0.000801      0.001629      0.062471
      2.11025      0.00000      9.61025        -0.002488     -0.001199      0.061689
      0.00000      0.00000      7.50000         0.000001     -0.000002     -0.434488
      2.11025      6.33074      7.50000        -0.000215      0.000203     -0.434484
      8.44044      6.32952     13.88698        -0.001631      0.002889     -0.112417
      2.10973      8.43998     13.88705        -0.001360      0.000938     -0.111774
      8.44068      8.44046     11.73025         0.000934     -0.000368      0.023568
      2.10989      6.33082     11.72973        -0.000306      0.001430      0.022048
      0.00000      2.11025      9.61025        -0.000783     -0.003687      0.062141
      2.11025      4.22049      9.61025         0.003994     -0.001093      0.064909
      0.00000      4.22049      7.50000         0.000103      0.000006     -0.434597
      2.11025      2.11025      7.50000        -0.000185     -0.000206     -0.434486
      8.44046      2.10952     13.88682        -0.001633     -0.001641     -0.112173
      2.10781      4.21948     13.88157        -0.000306      0.000415     -0.116576
      8.44068      4.21998     11.72868        -0.001915      0.000302      0.022036
      2.10982      2.10904     11.72965         0.000586     -0.001136      0.022303
      4.22049      6.33074      9.61025        -0.000072     -0.005048      0.065093
      6.33074      0.00000      9.61025         0.001698     -0.001246      0.062519
      4.22049      0.00000      7.50000        -0.000016      0.000003     -0.434534
      6.33074      6.33074      7.50000         0.000205      0.000305     -0.434428
      4.22034      6.33233     13.88613        -0.002228     -0.003870     -0.096088
      6.33073      8.43995     13.88762         0.001225      0.001127     -0.113486
      4.22040      8.44028     11.72907         0.000064      0.000812      0.025824
      6.33072      6.33073     11.73011         0.000303     -0.000495      0.023079
      4.22049      2.11025      9.61025        -0.000031      0.002195      0.065365
      6.33074      4.22049      9.61025        -0.004420     -0.001159      0.065327
      4.22049      4.22049      7.50000        -0.000116     -0.000041     -0.435103
      6.33074      2.11025      7.50000         0.000178     -0.000317     -0.434421
      4.22040      2.10623     13.88554        -0.002081      0.006635     -0.094567
      6.33242      4.21947     13.88436         0.001812      0.000785     -0.095526
      4.22056      4.21990     11.73288         0.000933      0.000022      0.012747
      6.33080      2.10908     11.73003        -0.000510      0.001074      0.023263
    total drift:                               -0.000581     -0.002867      0.002658

  FREE ENERGIE OF THE ION-ELECTRON SYSTEM (eV)
  free  energy   TOTEN  =      -484.82273897 eV

  energy  without entropy=     -484.82273897  energy(sigma->0) =     -484.82273897