 vasp.6.3.0 20Jan22 (build Aug 21 2024 11:13:42) complex
 executed on        HPECrayEX_GCC date 2024.11.26  21:35:16

 INCAR:
   SYSTEM = TiO2
   ISMEAR = 0
   SIGMA = 0.05
   EDIFF = 1E-4
   ALGO = ALL
   ISTART = 0
   IBRION = -1
   NSW = 0
   ISYM = 0
   ISIF = 2
   EDIFFG = -0.01
   DIPOL = 0.5 0.5 0.5
   IDIPOL = 3
   LDIPOL = .TRUE.
   GGA = MK
   LUSE_VDW = .TRUE.
   PARAM1 = 0.1234
   PARAM2 = 0.711357
   ZAB_VDW = -1.8867
   AGGAC = 0.0
   ENCUT = 600
   PREC = Accurate
   LASPH = .TRUE.
   LREAL = .FALSE.
   ISPIN = 1
   NELM = 200
   NELMIN = 8
   NCORE = 16
   KPAR = 1
   LWAVE = .FALSE.
   LCHARG = .FALSE.

 POTCAR:    PAW_PBE C 08Apr2002
 POTCAR:    PAW_PBE O 08Apr2002
 POTCAR:    PAW_PBE H 15Jun2001
 POTCAR:    PAW_PBE Ti_pv 07Sep2000
 POTCAR:    PAW_PBE O 08Apr2002
|               ----> ADVICE to this user running VASP <----                  |
|     You have switched on vdW-DFT.                                           |
|     This routine was written and supplied by Jiri Klimes. We recommend      |
|     that you carefully read and cite the following publications:            |
|       J. Klimes, D.R. Bowler, A. Michelides                                 |
|          J. Phys.: Cond Matt. 22 022201 (2010)                              |
|       J. Klimes, D.R. Bowler, A. Michelides                                 |
|          Phys. Rev. B. 83, 195131 (2011)                                    |
|     and references therein.                                                 |

   TITEL  = PAW_PBE C 08Apr2002
   POMASS =   12.011; ZVAL   =    4.000    mass and valenz
   ENMAX  =  400.000; ENMIN  =  300.000 eV

[...]

   TITEL  = PAW_PBE H 15Jun2001
   POMASS =    1.000; ZVAL   =    1.000    mass and valenz
   ENMAX  =  250.000; ENMIN  =  200.000 eV

   TITEL  = PAW_PBE Ti_pv 07Sep2000
   POMASS =   47.880; ZVAL   =   10.000    mass and valenz
   ENMAX  =  222.335; ENMIN  =  166.751 eV

   TITEL  = PAW_PBE O 08Apr2002
   POMASS =   16.000; ZVAL   =    6.000    mass and valenz
   ENMAX  =  400.000; ENMIN  =  300.000 eV

  PAW_PBE C 08Apr2002                   :
  PAW_PBE O 08Apr2002                   :
  PAW_PBE H 15Jun2001                   :
  PAW_PBE Ti_pv 07Sep2000               :
  PAW_PBE O 08Apr2002                   :

 POSCAR:  C  O  H Ti  O
  positions in direct lattice
 exchange correlation table for  LEXCH =       43
   RHO(1)=    0.500       N(1)  =     2000
   RHO(2)=  100.500       N(2)  =     4000

 ion  position               nearest neighbor table
   1  0.498  0.582  0.816-   3 1.09   5 1.09   6 1.10   2 1.47
   2  0.530  0.496  0.786-   4 0.99   1 1.47  86 2.24
   3  0.416  0.590  0.813-   1 1.09
   4  0.604  0.489  0.787-   2 0.99
   5  0.518  0.556  0.849-   1 1.09
   6  0.535  0.662  0.809-   1 1.10
   7  0.750  0.625  0.285-  87 1.98 147 1.98  88 1.98 148 1.98 169 2.02  90 2.02  17 3.00  37 3.00

   8  0.000  0.750  0.285-  89 1.98  90 1.98 109 1.98 110 1.98  91 2.02  38 3.00  18 3.00
   9  0.000  0.625  0.393-  91 1.98 151 1.98  92 1.98 152 1.98  93 2.02  94 2.02  19 3.00  39 3.00

[...]

  87  0.750  0.750  0.243-   7 1.98  17 1.98
  88  0.750  0.750  0.327-   7 1.98  17 1.98  10 2.02
  89  0.098  0.625  0.285-   8 1.98  38 1.98  47 2.02
  90  0.902  0.625  0.285-   8 1.98  38 1.98   7 2.02
  91  0.000  0.750  0.351-   9 1.98  19 1.98   8 2.02
  92  0.000  0.750  0.434-   9 1.98  19 1.98  12 2.02
  93  0.848  0.625  0.393-  10 1.98  40 1.98   9 2.02
  94  0.152  0.625  0.393-  50 1.98  80 1.98   9 2.02
  95  0.750  0.750  0.458-  11 1.98  21 1.98  10 2.02
  96  0.750  0.750  0.542-  11 1.98  21 1.98  14 2.15
  97  0.098  0.625  0.500-  12 1.98  42 1.98  51 2.02
  98  0.902  0.625  0.500-  12 1.98  42 1.98  11 2.02
  99  0.000  0.750  0.566-  13 1.92  23 1.92  12 2.05
 100  1.000  0.750  0.651-  16 1.83  13 2.05  23 2.06
 101  0.850  0.625  0.608-  14 1.93  44 1.94  13 2.12
 102  0.150  0.625  0.608-  13 1.87  54 2.07  84 2.07
 103  0.753  0.751  0.673-  14 1.89  25 2.12  15 2.12
 104  0.749  0.749  0.757-  25 1.85  15 1.85
 105  0.094  0.625  0.721-  46 1.98  16 1.98  55 2.05
 106  0.907  0.624  0.721-  46 1.97  16 1.98  15 2.07
 107  0.750  0.000  0.243-  17 1.98  27 1.98
 108  0.750  0.000  0.327-  17 1.98  27 1.98  20 2.02
 109  0.098  0.875  0.285-   8 1.98  18 1.98  57 2.02
 110  0.902  0.875  0.285-   8 1.98  18 1.98  17 2.02
 111  0.000  0.000  0.351-  19 1.98  29 1.98  18 2.02
 112  0.000  0.000  0.434-  19 1.98  29 1.98  22 2.02
 113  0.848  0.875  0.393-  10 1.98  20 1.98  19 2.02
 114  0.152  0.875  0.393-  50 1.98  60 1.98  19 2.02
 115  0.750  0.000  0.458-  21 1.98  31 1.98  20 2.02
 116  0.750  0.000  0.542-  21 1.98  31 1.98  24 2.16
 117  0.098  0.875  0.500-  12 1.98  22 1.98  61 2.02
 118  0.902  0.875  0.500-  12 1.98  22 1.98  21 2.02
 119  0.000  1.000  0.566-  33 1.92  23 1.92  22 2.05
 120  0.000  1.000  0.651-  26 1.83  23 2.05  33 2.05
 121  0.849  0.875  0.608-  24 1.93  14 1.93  23 2.12
 122  0.150  0.875  0.608-  23 1.87  64 2.07  54 2.07
 123  0.751  0.000  0.673-  24 1.89  35 2.11  25 2.13
 124  0.750  1.000  0.758-  35 1.85  25 1.85
 125  0.094  0.875  0.721-  16 1.97  26 1.97  65 2.08
 126  0.907  0.875  0.721-  16 1.97  26 1.98  25 2.08
 127  0.750  0.250  0.243-  27 1.98  37 1.98
 128  0.750  0.250  0.327-  27 1.98  37 1.98  30 2.02
 129  0.098  0.125  0.285-  18 1.98  28 1.98  67 2.02
 130  0.902  0.125  0.285-  18 1.98  28 1.98  27 2.02
 131  0.000  0.250  0.351-  29 1.98  39 1.98  28 2.02
 132  0.000  0.250  0.434-  29 1.98  39 1.98  32 2.02
 133  0.848  0.125  0.393-  20 1.98  30 1.98  29 2.02
 134  0.152  0.125  0.393-  60 1.98  70 1.98  29 2.02
 135  0.750  0.250  0.458-  31 1.98  41 1.98  30 2.02
 136  0.750  0.250  0.542-  31 1.98  41 1.98  34 2.15
 137  0.098  0.125  0.500-  22 1.98  32 1.98  71 2.02
 138  0.902  0.125  0.500-  22 1.98  32 1.98  31 2.02
 139  0.000  0.250  0.566-  43 1.92  33 1.92  32 2.05
 140  0.000  0.250  0.651-  36 1.83  43 2.05  33 2.06
 141  0.849  0.125  0.608-  34 1.93  24 1.94  33 2.12
 142  0.150  0.125  0.608-  33 1.87  64 2.07  74 2.07
 143  0.753  0.250  0.673-  34 1.89  45 2.10  35 2.14
 144  0.750  0.250  0.757-  45 1.84  35 1.86
 145  0.094  0.125  0.721-  36 1.97  26 1.97  75 2.08
 146  0.907  0.125  0.721-  36 1.97  26 1.98  35 2.08
[...]
 232  0.500  0.500  0.434-  49 1.98  79 1.98  82 2.02
 233  0.348  0.375  0.393-  70 1.98  80 1.98  79 2.02
 234  0.652  0.375  0.393-  30 1.98  40 1.98  79 2.02
 235  0.250  0.500  0.458-  51 1.98  81 1.98  80 2.02
 236  0.250  0.500  0.542-  51 1.98  81 1.98  84 2.16
 237  0.598  0.375  0.500-  72 1.98  82 1.98  41 2.02
 238  0.402  0.375  0.500-  72 1.98  82 1.98  81 2.02
 239  0.501  0.500  0.567-  53 1.92  83 1.92  82 2.05
 240  0.500  0.500  0.651-  86 1.94  53 2.02  83 2.02
 241  0.349  0.375  0.608-  74 1.93  84 1.93  83 2.13
 242  0.651  0.375  0.609-  83 1.87  34 2.06  44 2.06
 243  0.250  0.500  0.673-  84 1.89  55 2.12  85 2.13
 244  0.252  0.500  0.757-  85 1.85  55 1.85
 245  0.596  0.372  0.718-  76 1.94  86 2.00  45 2.06
 246  0.406  0.374  0.720-  86 1.95  76 1.97  85 2.08

IMPORTANT INFORMATION: All symmetrisations will be switched off!
NOSYMM: (Re-)initialisation of all symmetry stuff for point group C_1.

                                     Primitive cell

  volume of cell :    4896.0359

  direct lattice vectors                    reciprocal lattice vectors
    13.251808214  0.000000000  0.000000000     0.075461400  0.000000000  0.000000000
     0.000000000 11.981455428  0.000000000     0.000000000  0.083462314  0.000000000
     0.000000000  0.000000000 30.836130416     0.000000000  0.000000000  0.032429491

  length of vectors
    13.251808214 11.981455428 30.836130416     0.075461400  0.083462314  0.032429491

  position of ions in fractional coordinates (direct lattice)
     0.497756051  0.582427863  0.816419379
     0.529848351  0.496162130  0.785533803
     0.416016579  0.589648713  0.813384583
     0.603884333  0.489017949  0.786956072
     0.518322071  0.555609735  0.849176644
     0.534705161  0.662198157  0.808939932
     0.750000000  0.625000000  0.285125305
     0.000000000  0.750000000  0.285125305
     0.000000000  0.625000000  0.392562653
     0.750000000  0.750000000  0.392562653
     0.750000000  0.625000000  0.500000000
     0.000000000  0.750000000  0.500000000
     0.009301193  0.625045045  0.605160511
     0.757521548  0.750201400  0.611668209
     0.750375777  0.624966140  0.721291578
     0.999954152  0.750403201  0.710051944
     0.750000000  0.875000000  0.285125305
     0.000000000  0.000000000  0.285125305
     0.000000000  0.875000000  0.392562653
     0.750000000  0.000000000  0.392562653
     0.750000000  0.875000000  0.500000000
     0.000000000  0.000000000  0.500000000
     0.009339594  0.875049686  0.605232133
     0.756933062  0.000029438  0.611966311
     0.749799191  0.874398285  0.722170290
     0.000508915  0.999850656  0.710063961
     0.750000000  0.125000000  0.285125305
     0.000000000  0.250000000  0.285125305
     0.000000000  0.125000000  0.392562653
     0.750000000  0.250000000  0.392562653
     0.750000000  0.125000000  0.500000000
     0.000000000  0.250000000  0.500000000
     0.009346310  0.124906454  0.605236354
     0.757386213  0.249831967  0.611620009
     0.749728998  0.123796910  0.722196968
     0.000353430  0.249324438  0.710077195
     0.750000000  0.375000000  0.285125305
     0.000000000  0.500000000  0.285125305
     0.000000000  0.375000000  0.392562653
     0.750000000  0.500000000  0.392562653
     0.750000000  0.375000000  0.500000000
     0.000000000  0.500000000  0.500000000
     0.009282246  0.374914128  0.605186437
     0.757800061  0.500017859  0.611751030
     0.751108781  0.373125259  0.721287893
     0.999953660  0.499911561  0.709996008
     0.250000000  0.625000000  0.285125305
     0.500000000  0.750000000  0.285125305
     0.500000000  0.625000000  0.392562653
     0.250000000  0.750000000  0.392562653
     0.250000000  0.625000000  0.500000000
     0.500000000  0.750000000  0.500000000
     0.509668054  0.622703060  0.606478469
     0.257457292  0.749930949  0.611838134
     0.249041983  0.625209803  0.721911321
     0.501556195  0.750062659  0.708809833
     0.250000000  0.875000000  0.285125305
     0.500000000  0.000000000  0.285125305
     0.500000000  0.875000000  0.392562653
     0.250000000  0.000000000  0.392562653
[...]
     0.500000000  0.500000000  0.434466779
     0.347508286  0.375000000  0.392562653
     0.652491714  0.375000000  0.392562653
     0.250000000  0.500000000  0.458095874
     0.250000000  0.500000000  0.541904126
     0.597508286  0.375000000  0.500000000
     0.402491714  0.375000000  0.500000000
     0.500746373  0.499892631  0.566615569
     0.500135734  0.500246512  0.651181462
     0.348803665  0.374962313  0.608458883
     0.650951349  0.375062662  0.608532029
     0.249908866  0.500243973  0.673097182
     0.252028583  0.500114986  0.757326048
     0.595812250  0.371550751  0.717670693
     0.406428490  0.373697956  0.719632157

  ion indices of the primitive-cell ions
   primitive index   ion index
                 1           1
                 2           2
                 3           3
[...]
   6.75402330  7.46088896 18.70144917
   3.41177466  8.98526423 18.86672050
   3.30025659  7.49092339 22.26095164
   6.64652651  8.98684232 21.85695246
   3.31295205 10.48377350  8.79216110
   6.62590411  0.00000000  8.79216110
   6.62590411 10.48377350 12.10511315
   3.31295205  0.00000000 12.10511315
[...]
   6.62590411  5.99072771 13.39727426
   4.60511315  4.49304579 12.10511315
   8.64669506  4.49304579 12.10511315
   3.31295205  5.99072771 14.12590411
   3.31295205  5.99072771 16.71022631
   7.91806521  4.49304579 15.41806521
   5.33374301  4.49304579 15.41806521
   6.63579489  5.98944127 17.47223157
   6.62770283  5.99368129 20.07991650
   4.62227927  4.49259424 18.76251748
   8.62628243  4.49379657 18.76477302
   3.31174437  5.99365086 20.75571250
   3.33983445  5.99210541 23.35300478
   7.89558967  4.45171876 22.13018708
   5.38591240  4.47744540 22.19067106

--------------------------------------- Iteration      FINAL  ---------------------------------------

--------------------OUTCAR has been truncated-------------------------

[...]

--------------------OUTCAR has been truncated-------------------------

  FORCE on cell =-STRESS in cart. coord.  units (eV):
  Direction    XX          YY          ZZ          XY          YZ          ZX
  Alpha Z  4523.03689  4523.03689  4523.03689
  Ewald  931092.81673948991.16531************   -76.99940   130.43039   -59.79499
  Hartree972363.57697982195.18351************   -41.06747    77.66088   -41.28358
  E(xc)   -8632.97435 -8627.38750 -8630.12616    -0.00331    -0.03478     0.00671
  Local  ************************************   111.41907  -199.60232    99.90027
  n-local -5540.50577 -5462.55218 -5575.47998    -1.12297     1.95882    -0.86853
  augment  5259.33236  5241.38422  5265.46697     0.49752    -0.75295     0.04082
  Kinetic 28682.70495 28230.43410 28740.57032     7.41396   -10.10939     2.27342
  Fock        0.00000     0.00000     0.00000     0.00000     0.00000     0.00000
  Total    -116.81334  -188.58528  -149.69074     0.13741    -0.44935     0.27412
  in kB     -38.22596   -61.71259   -48.98475     0.04497    -0.14704     0.08970

 VOLUME and BASIS-vectors are now :
  energy-cutoff  :      600.00
  volume of cell :     4896.04
      direct lattice vectors                 reciprocal lattice vectors
    13.251808214  0.000000000  0.000000000     0.075461400  0.000000000  0.000000000
     0.000000000 11.981455428  0.000000000     0.000000000  0.083462314  0.000000000
     0.000000000  0.000000000 30.836130416     0.000000000  0.000000000  0.032429491

  length of vectors
    13.251808214 11.981455428 30.836130416     0.075461400  0.083462314  0.032429491

 FORCES acting on ions:
    Electron-Ion                     Ewald-Force                    Non-Local-Force
   0.366E+02 -.850E+02 -.152E+04   -.392E+02 0.897E+02 0.153E+04   0.284E+01 -.504E+01 -.489E+01
   0.125E+02 0.116E+03 -.238E+04   -.377E+02 -.139E+03 0.237E+04   0.249E+02 0.230E+02 0.140E+02
   0.580E+02 -.140E+02 -.373E+03   -.642E+02 0.145E+02 0.372E+03   0.599E+01 -.503E+00 0.476E+00
   -.780E+02 0.183E+02 -.409E+03   0.863E+02 -.192E+02 0.410E+03   -.805E+01 0.886E+00 -.252E+00
   -.101E+02 0.901E+01 -.366E+03   0.116E+02 -.107E+02 0.372E+03   -.140E+01 0.168E+01 -.544E+01
   -.198E+02 -.616E+02 -.370E+03   0.224E+02 0.667E+02 0.369E+03   -.256E+01 -.503E+01 0.112E+01
   -.210E+00 -.219E-01 0.364E+04   0.206E+00 0.222E-01 -.364E+04   0.105E-02 -.162E-04 0.315E+00
   -.461E-01 -.678E-01 0.381E+04   0.468E-01 0.680E-01 -.380E+04   -.147E-03 -.360E-04 -.368E+01
   -.109E+00 -.398E-01 0.186E+04   0.112E+00 0.400E-01 -.186E+04   -.480E-03 0.293E-04 -.445E-01
   -.453E+00 -.506E-01 0.185E+04   0.444E+00 0.516E-01 -.186E+04   0.257E-02 0.275E-05 0.208E+00
   -.234E+01 -.946E-01 0.144E+02   0.231E+01 0.915E-01 -.136E+02   0.115E-01 -.599E-04 -.114E+00
   0.209E+01 -.866E+00 0.211E+02   -.211E+01 0.871E+00 -.222E+02   0.995E-02 -.222E-02 0.367E+00
   0.273E+02 -.174E+01 -.178E+04   -.273E+02 0.174E+01 0.178E+04   -.705E-01 -.538E-02 0.180E+00
   0.208E+01 -.780E+01 -.182E+04   -.201E+01 0.780E+01 0.182E+04   -.112E+00 -.747E-02 -.191E+00
   -.876E+02 -.188E+02 -.356E+04   0.874E+02 0.188E+02 0.356E+04   0.172E+00 0.623E-01 -.952E-02
   -.304E+01 -.460E+01 -.362E+04   0.307E+01 0.461E+01 0.362E+04   -.268E-01 -.157E-01 0.966E+00
   -.215E+00 -.711E-01 0.364E+04   0.212E+00 0.715E-01 -.364E+04   0.105E-02 -.361E-04 0.315E+00
   -.446E-01 -.312E-01 0.381E+04   0.454E-01 0.314E-01 -.380E+04   -.138E-03 -.273E-04 -.368E+01
   -.871E-01 -.135E+00 0.186E+04   0.898E-01 0.135E+00 -.186E+04   -.416E-03 0.929E-04 -.446E-01
   -.537E+00 -.772E-01 0.185E+04   0.527E+00 0.768E-01 -.186E+04   0.255E-02 -.471E-04 0.208E+00
   -.363E+01 -.803E+00 0.131E+02   0.361E+01 0.827E+00 -.124E+02   0.850E-02 -.803E-03 -.117E+00
   0.233E+01 -.286E+00 0.198E+02   -.235E+01 0.285E+00 -.209E+02   0.101E-01 0.283E-04 0.366E+00
   0.290E+02 -.260E+01 -.178E+04   -.290E+02 0.260E+01 0.178E+04   -.769E-01 -.613E-02 0.177E+00
   0.495E+01 -.153E+01 -.184E+04   -.487E+01 0.153E+01 0.184E+04   -.113E+00 -.335E-02 -.195E+00
   -.283E+02 -.280E+02 -.360E+04   0.282E+02 0.280E+02 0.360E+04   0.563E-01 -.531E-02 -.104E+00
   -.247E+01 -.179E+01 -.363E+04   0.245E+01 0.180E+01 0.363E+04   0.218E-01 -.291E-02 0.100E+01
   -.210E+00 0.218E-01 0.364E+04   0.207E+00 -.222E-01 -.364E+04   0.110E-02 0.485E-04 0.315E+00
   -.469E-01 0.677E-01 0.381E+04   0.477E-01 -.680E-01 -.380E+04   -.156E-03 0.184E-04 -.368E+01
   -.916E-01 0.418E-01 0.186E+04   0.947E-01 -.420E-01 -.186E+04   -.539E-03 -.386E-04 -.446E-01
   -.422E+00 0.506E-01 0.185E+04   0.413E+00 -.515E-01 -.186E+04   0.248E-02 -.473E-04 0.209E+00
   -.348E+01 0.297E+00 0.127E+02   0.346E+01 -.332E+00 -.120E+02   0.961E-02 0.248E-02 -.116E+00
   0.206E+01 0.841E+00 0.205E+02   -.208E+01 -.847E+00 -.216E+02   0.883E-02 0.241E-02 0.369E+00
   0.297E+02 0.150E+01 -.178E+04   -.296E+02 -.150E+01 0.178E+04   -.769E-01 0.387E-02 0.180E+00
   0.297E+01 0.762E+01 -.183E+04   -.291E+01 -.762E+01 0.183E+04   -.108E+00 -.245E-02 -.200E+00
   -.221E+02 0.126E+02 -.361E+04   0.221E+02 -.126E+02 0.361E+04   0.554E-01 -.186E-01 -.111E+00
   -.231E+01 0.461E+01 -.362E+04   0.232E+01 -.462E+01 0.362E+04   -.151E-01 0.107E-01 0.973E+00
   -.205E+00 0.712E-01 0.364E+04   0.201E+00 -.715E-01 -.364E+04   0.103E-02 -.281E-05 0.315E+00
   -.482E-01 0.314E-01 0.381E+04   0.491E-01 -.315E-01 -.380E+04   -.184E-03 -.631E-05 -.368E+01
   -.114E+00 0.133E+00 0.186E+04   0.117E+00 -.133E+00 -.186E+04   -.582E-03 -.126E-03 -.445E-01
   -.341E+00 0.773E-01 0.185E+04   0.333E+00 -.769E-01 -.186E+04   0.227E-02 -.314E-04 0.208E+00
   -.217E+01 0.604E+00 0.139E+02   0.214E+01 -.591E+00 -.132E+02   0.119E-01 -.246E-03 -.114E+00
   0.196E+01 0.276E+00 0.219E+02   -.198E+01 -.277E+00 -.229E+02   0.860E-02 0.647E-03 0.365E+00
   0.275E+02 0.311E+01 -.178E+04   -.275E+02 -.311E+01 0.178E+04   -.724E-01 0.119E-02 0.181E+00
   0.399E+00 0.171E+01 -.182E+04   -.305E+00 -.170E+01 0.182E+04   -.136E+00 -.227E-02 -.205E+00
   -.749E+02 0.227E+02 -.356E+04   0.748E+02 -.226E+02 0.356E+04   0.877E-01 -.111E+00 -.549E-03
   -.536E+01 0.257E+01 -.362E+04   0.534E+01 -.257E+01 0.362E+04   0.174E-01 -.388E-04 0.926E+00
   0.201E+00 -.187E-01 0.364E+04   -.198E+00 0.187E-01 -.364E+04   -.963E-03 0.169E-04 0.315E+00
   0.544E-01 -.590E-01 0.381E+04   -.551E-01 0.595E-01 -.380E+04   0.137E-03 -.758E-04 -.368E+01
   0.301E+00 0.148E+00 0.186E+04   -.304E+00 -.136E+00 -.186E+04   0.427E-03 -.257E-02 -.462E-01
   0.266E+00 -.191E-01 0.185E+04   -.257E+00 0.200E-01 -.186E+04   -.139E-02 -.612E-04 0.206E+00
   -.414E+00 0.147E+00 0.124E+02   0.469E+00 -.160E+00 -.116E+02   -.839E-02 0.794E-03 -.120E+00
   0.406E+01 0.115E+01 0.252E+02   -.410E+01 -.122E+01 -.260E+02   0.100E-01 0.315E-01 0.288E+00
   0.336E+02 -.124E+02 -.176E+04   -.335E+02 0.125E+02 0.176E+04   -.109E+00 -.659E-01 0.111E+00
   0.227E+02 -.687E+01 -.183E+04   -.226E+02 0.686E+01 0.183E+04   -.130E+00 0.484E-02 -.211E+00
   0.622E+02 -.165E+02 -.356E+04   -.622E+02 0.164E+02 0.356E+04   0.108E+00 0.111E-01 -.963E-01
   0.203E+02 -.756E+02 -.353E+04   -.201E+02 0.757E+02 0.353E+04   -.143E+00 -.363E-01 0.107E+01
   0.207E+00 -.689E-01 0.364E+04   -.204E+00 0.694E-01 -.364E+04   -.102E-02 -.233E-04 0.315E+00
   0.531E-01 -.394E-01 0.381E+04   -.538E-01 0.394E-01 -.380E+04   0.148E-03 0.100E-04 -.368E+01
   0.281E+00 -.130E-02 0.186E+04   -.285E+00 0.322E-02 -.186E+04   0.564E-03 -.109E-02 -.472E-01
   0.347E+00 -.862E-01 0.185E+04   -.337E+00 0.862E-01 -.186E+04   -.148E-02 0.917E-04 0.205E+00
[...]
   -.560E+02 0.220E-01 0.111E+04   0.601E+02 -.230E-01 -.111E+04   -.380E+01 0.164E-02 0.155E+00
   0.561E+02 0.284E-01 0.111E+04   -.602E+02 -.292E-01 -.111E+04   0.381E+01 0.129E-02 0.159E+00
   -.562E-01 0.145E+00 0.495E+03   0.814E-01 -.146E+00 -.499E+03   -.364E-01 0.442E-02 0.437E+01
   0.216E+01 0.563E+00 -.495E+03   -.242E+01 -.561E+00 0.503E+03   0.266E+00 -.176E-02 -.740E+01
   -.570E+02 -.363E-01 0.153E+02   0.618E+02 0.309E-01 -.155E+02   -.529E+01 0.245E-01 0.311E+00
   0.582E+02 -.107E+00 0.114E+02   -.630E+02 0.992E-01 -.115E+02   0.530E+01 0.287E-01 0.240E+00
   0.193E+02 0.127E+01 -.578E+03   -.208E+02 -.133E+01 0.571E+03   0.162E+01 0.650E-01 0.714E+01
   0.182E+02 0.225E+01 -.153E+04   -.195E+02 -.216E+01 0.153E+04   0.123E+01 -.812E-01 -.181E+01
   -.649E+02 0.388E+01 -.106E+04   0.724E+02 -.393E+01 0.106E+04   -.774E+01 0.563E-01 0.138E+01
   -.970E+01 0.576E+01 -.107E+04   0.109E+02 -.592E+01 0.107E+04   -.120E+01 0.166E+00 0.617E+00
   0.255E+02 0.298E+01 -.172E+04   -.260E+02 -.306E+01 0.172E+04   0.536E+00 0.846E-01 -.215E+01
   0.581E+02 0.978E+01 -.260E+04   -.577E+02 -.982E+01 0.262E+04   -.414E+00 0.431E-01 -.201E+02
   -.557E+02 0.478E+02 -.214E+04   0.614E+02 -.470E+02 0.214E+04   -.579E+01 -.790E+00 -.135E+01
   0.710E+02 0.520E+02 -.218E+04   -.773E+02 -.525E+02 0.218E+04   0.634E+01 0.569E+00 -.292E+01
   0.200E+02 -.162E+02 0.799E+02   -.114E-11 -.109E-11 0.246E-10   -.199E+02 0.162E+02 -.799E+02

 POSITION                                       TOTAL-FORCE (eV/Angst)
      6.59617      6.97833     25.17521         0.159400     -0.352818     -0.390345
      7.02145      5.94474     24.22282        -0.289969      0.295094     -0.039392
      5.51297      7.06485     25.08163        -0.146072      0.001302     -0.032394
      8.00256      5.85915     24.26668         0.219860     -0.015655     -0.074714
      6.86870      6.65701     26.18532         0.022415     -0.046063      0.094852
      7.08581      7.93410     24.94458         0.054749      0.101753     -0.048669
      9.93886      7.48841      8.79216        -0.002288      0.000272     -3.255453
      0.00000      8.98609      8.79216         0.000598      0.000125      3.046650
      0.00000      7.48841     12.10511         0.002435      0.000248      0.482048
      9.93886      8.98609     12.10511        -0.006576      0.000989     -0.682750
      9.93886      7.48841     15.41807        -0.023017     -0.003221      0.625256
      0.00000      8.98609     15.41807        -0.013573      0.003571     -0.697339
      0.12326      7.48895     18.66081         0.041744     -0.001226     -0.023354
     10.03853      8.98850     18.86148         0.024419     -0.002776      0.051246
      9.94384      7.48800     22.24184        -0.034373      0.011595      0.002445
     13.25120      8.99092     21.89525         0.004070      0.007292     -0.247404
      9.93886     10.48377      8.79216        -0.002458      0.000371     -3.255464
      0.00000      0.00000      8.79216         0.000669      0.000157      3.046435
      0.00000     10.48377     12.10511         0.002245     -0.000112      0.482156
      9.93886      0.00000     12.10511        -0.006891     -0.000421     -0.682317
      9.93886     10.48377     15.41807        -0.012640      0.023313      0.638489
      0.00000      0.00000     15.41807        -0.013400     -0.000342     -0.696907
      0.12377     10.48437     18.66302         0.042473     -0.002059     -0.022344
     10.03073      0.00035     18.87067         0.025754      0.000515      0.046778
      9.93620     10.47656     22.26894        -0.004028     -0.001139     -0.002038
      0.00674     11.97967     21.89562         0.002796      0.001843     -0.249169
      9.93886      1.49768      8.79216        -0.002351     -0.000353     -3.255624
      0.00000      2.99536      8.79216         0.000667     -0.000253      3.046449
      0.00000      1.49768     12.10511         0.002504     -0.000236      0.481932
      9.93886      2.99536     12.10511        -0.006274     -0.001014     -0.684199
      9.93886      1.49768     15.41807        -0.012558     -0.032915      0.632202
      0.00000      2.99536     15.41807        -0.010295     -0.003074     -0.696846
      0.12386      1.49656     18.66315         0.044562      0.002004     -0.022061
     10.03674      2.99335     18.85999         0.024275      0.001149      0.050583
      9.93526      1.48327     22.26976        -0.003017     -0.002410     -0.003871
      0.00468      2.98727     21.89603         0.002860     -0.007329     -0.252423
      9.93886      4.49305      8.79216        -0.002211     -0.000264     -3.255677
      0.00000      5.99073      8.79216         0.000658     -0.000072      3.046694
      0.00000      4.49305     12.10511         0.002670      0.000079      0.481803
      9.93886      5.99073     12.10511        -0.006085      0.000401     -0.684393
      9.93886      4.49305     15.41807        -0.023213      0.012969      0.619448
      0.00000      5.99073     15.41807        -0.010901     -0.000516     -0.697221
      0.12301      4.49202     18.66161         0.040192      0.002767     -0.026393
     10.04222      5.99094     18.86403         0.025688     -0.000862      0.053151
      9.95355      4.47058     22.24173        -0.023058     -0.027955     -0.000659
     13.25119      5.98967     21.89353        -0.002862     -0.000514     -0.248079
      3.31295      7.48841      8.79216         0.002224      0.000041     -3.254098
      6.62590      8.98609      8.79216        -0.000628      0.000352      3.052936
      6.62590      7.48841     12.10511        -0.002934      0.009547      0.502828
      3.31295      8.98609     12.10511         0.007414      0.000848     -0.675330
      3.31295      7.48841     15.41807         0.046197     -0.013032      0.650196
      6.62590      8.98609     15.41807        -0.024024     -0.034909     -0.567752
      6.75402      7.46089     18.70145         0.045805     -0.016968     -0.011524
      3.41177      8.98526     18.86672         0.024359     -0.003127      0.051092
      3.30026      7.49092     22.26095         0.003295      0.003462      0.009177
      6.64653      8.98684     21.85695         0.017804     -0.025590     -0.219624
      3.31295     10.48377      8.79216         0.002392      0.000429     -3.254268
      6.62590      0.00000      8.79216        -0.000601      0.000106      3.052926
      6.62590     10.48377     12.10511        -0.003121      0.000839      0.506072
      3.31295      0.00000     12.10511         0.007857      0.000136     -0.673872
[...]
      6.62590      5.99073     13.39727         0.002219     -0.000560     -0.207001
      4.60511      4.49305     12.10511         0.306274      0.000600      0.047133
      8.64670      4.49305     12.10511        -0.303454      0.000452      0.048387
      3.31295      5.99073     14.12590        -0.011255      0.002536     -0.018864
      3.31295      5.99073     16.71023         0.000949      0.000233     -0.186847
      7.91807      4.49305     15.41807        -0.514420      0.019142      0.077253
      5.33374      4.49305     15.41807         0.535894      0.021227      0.087014
      6.63579      5.98944     17.47223         0.026028      0.000602      0.129329
      6.62770      5.99368     20.07992         0.026910     -0.000030     -0.076723
      4.62228      4.49259     18.76252        -0.146513      0.001721      0.023343
      8.62628      4.49380     18.76477         0.021177      0.000552      0.006315
      3.31174      5.99365     20.75571         0.008482      0.002032     -0.018110
      3.33983      5.99211     23.35300        -0.008059      0.004200     -0.502830
      7.89559      4.45172     22.13019        -0.108399      0.004358     -0.033750
      5.38591      4.47745     22.19067         0.115110      0.015021     -0.086711
    total drift:                                0.007908     -0.001268      0.008582

  FREE ENERGIE OF THE ION-ELECTRON SYSTEM (eV)
  free  energy   TOTEN  =     -1765.72938255 eV

  energy  without entropy=    -1765.72938255  energy(sigma->0) =    -1765.72938255