 vasp.6.3.0 20Jan22 (build Apr  1 2022 16:44:48) complex
 executed on        HPECrayEX_GCC date 2023.01.23  22:13:07

 INCAR:
   SYSTEM = MgO-rocksalt
   ISMEAR = 0
   SIGMA = 0.05
   EDIFF = 1E-8
   ALGO = ALL
   ISTART = 0
   IBRION = 5
   POTIM = 0.01
   NFREE = 2
   ISYM = 0
   DIPOL = 0.5 0.5 0.5
   IDIPOL = 3
   LDIPOL = .TRUE.
   GGA = RE
   AGGAC = 0.0
   LUSE_VDW = .TRUE.
   LASPH = .TRUE.
   ENCUT = 600
   PREC = Accurate
   LASPH = .TRUE.
   LREAL = .FALSE.
   ISPIN = 1
   NELM = 200
   NELMIN = 8
   NCORE = 8
   KPAR = 1
   LWAVE = .FALSE.
   LCHARG = .FALSE.

 POTCAR:    PAW_PBE H 15Jun2001
 POTCAR:    PAW_PBE O 08Apr2002
 POTCAR:    PAW_PBE Mg_pv 13Apr2007
 POTCAR:    PAW_PBE O 08Apr2002
|               ----> ADVICE to this user running VASP <----                  |
|     You have switched on vdW-DFT.                                           |
|     This routine was written and supplied by Jiri Klimes. We recommend      |
|     that you carefully read and cite the following publications:            |
|       J. Klimes, D.R. Bowler, A. Michelides                                 |
|          J. Phys.: Cond Matt. 22 022201 (2010)                              |
|       J. Klimes, D.R. Bowler, A. Michelides                                 |
|          Phys. Rev. B. 83, 195131 (2011)                                    |
|     and references therein.                                                 |

   TITEL  = PAW_PBE H 15Jun2001
   POMASS =    1.000; ZVAL   =    1.000    mass and valenz
   ENMAX  =  250.000; ENMIN  =  200.000 eV

   TITEL  = PAW_PBE O 08Apr2002
   POMASS =   16.000; ZVAL   =    6.000    mass and valenz
   ENMAX  =  400.000; ENMIN  =  300.000 eV

   TITEL  = PAW_PBE Mg_pv 13Apr2007
   POMASS =   24.305; ZVAL   =    8.000    mass and valenz
   ENMAX  =  403.929; ENMIN  =  302.947 eV

   TITEL  = PAW_PBE O 08Apr2002
   POMASS =   16.000; ZVAL   =    6.000    mass and valenz
   ENMAX  =  400.000; ENMIN  =  300.000 eV

  PAW_PBE H 15Jun2001                   :
  PAW_PBE O 08Apr2002                   :
  PAW_PBE Mg_pv 13Apr2007               :
  PAW_PBE O 08Apr2002                   :

 POSCAR:  H  O Mg  O
  positions in direct lattice
 exchange correlation table for  LEXCH =       40
   RHO(1)=    0.500       N(1)  =     2000
   RHO(2)=  100.500       N(2)  =     4000

 ion  position               nearest neighbor table
   1  0.606  0.545  0.775-   3 0.97
   2  0.509  0.668  0.737-   3 1.00
   3  0.503  0.563  0.757-   1 0.97   2 1.00
   4  0.000  0.750  0.350-  36 2.14  38 2.14  39 2.14  46 2.14  55 2.14
   5  0.250  0.000  0.350-  37 2.14  38 2.14  39 2.14  47 2.14  54 2.14
   6  0.000  0.000  0.450-  42 2.14  38 2.14  36 2.14  37 2.14  44 2.14  53 2.14
   7  0.250  0.750  0.450-  39 2.14  37 2.14  36 2.14  45 2.14  52 2.14  43 2.14
   8  0.000  0.750  0.550-  50 2.13  42 2.14  36 2.14  43 2.14  59 2.14  40 2.16
   9  0.250  0.000  0.550-  51 2.13  58 2.14  43 2.14  42 2.14  37 2.14  41 2.16
  10  0.000  0.001  0.649-  42 2.13  41 2.13  48 2.13  57 2.13  40 2.14
  11  0.248  0.750  0.649-  43 2.12  40 2.12  41 2.14  49 2.14  56 2.16
  12  0.000  0.250  0.350-  44 2.14  38 2.14  46 2.14  47 2.14  63 2.14
  13  0.250  0.500  0.350-  45 2.14  39 2.14  46 2.14  47 2.14  62 2.14
  14  0.000  0.500  0.450-  50 2.13  46 2.14  45 2.14  36 2.14  44 2.14  61 2.14
  15  0.250  0.250  0.450-  47 2.14  44 2.14  45 2.14  37 2.14  60 2.14  51 2.14
  16  0.000  0.250  0.550-  51 2.14  50 2.14  67 2.14  42 2.14  44 2.14  48 2.16
  17  0.251  0.500  0.551-  66 2.13  49 2.13  51 2.14  43 2.14  50 2.15  45 2.15
  18  0.001  0.500  0.649-  49 2.12  65 2.12  50 2.13  48 2.14  40 2.15
  19  0.249  0.250  0.649-  51 2.13  48 2.13  41 2.14  49 2.14  64 2.15
  20  0.500  0.750  0.350-  52 2.14  39 2.14  54 2.14  55 2.14  62 2.14
  21  0.750  0.000  0.350-  53 2.14  38 2.14  54 2.14  55 2.14  63 2.14
  22  0.500  0.000  0.450-  54 2.14  52 2.14  53 2.14  37 2.14  60 2.14  58 2.14
  23  0.750  0.750  0.450-  55 2.14  52 2.14  53 2.14  36 2.14  61 2.14  59 2.14
  24  0.500  0.749  0.551-  66 2.12  43 2.13  59 2.13  58 2.14  52 2.15  56 2.21
  25  0.750  0.000  0.550-  67 2.13  58 2.13  42 2.14  59 2.14  53 2.14  57 2.16
  26  0.500  0.002  0.649-  64 2.11  56 2.12  58 2.12  41 2.14  57 2.15
  27  0.753  0.751  0.648-  59 2.10  40 2.12  57 2.13  65 2.14  56 2.16
  28  0.500  0.250  0.350-  60 2.14  54 2.14  47 2.14  62 2.14  63 2.14
  29  0.750  0.500  0.350-  61 2.14  55 2.14  46 2.14  62 2.14  63 2.14
  30  0.500  0.500  0.450-  62 2.14  52 2.14  60 2.14  61 2.14  45 2.14  66 2.16
  31  0.750  0.250  0.450-  63 2.14  53 2.14  60 2.14  61 2.14  44 2.14  67 2.14
  32  0.500  0.251  0.551-  66 2.13  51 2.14  67 2.14  58 2.15  60 2.15  64 2.15
  33  0.749  0.500  0.551-  66 2.13  67 2.14  59 2.14  50 2.14  61 2.15  65 2.16
  34  0.499  0.494  0.655-  64 2.11  49 2.14  65 2.17  56 2.22  66 2.22
  35  0.751  0.250  0.649-  67 2.12  48 2.13  57 2.13  65 2.14  64 2.14
  36  0.000  0.750  0.450-   4 2.14   6 2.14   7 2.14  14 2.14  23 2.14   8 2.14
  37  0.250  0.000  0.450-   5 2.14   6 2.14   7 2.14  15 2.14  22 2.14   9 2.14
  38  0.000  0.000  0.350-   6 2.14   5 2.14   4 2.14  12 2.14  21 2.14
  39  0.250  0.750  0.350-   7 2.14   5 2.14   4 2.14  13 2.14  20 2.14
  40  0.000  0.751  0.651-  27 2.12  11 2.12  10 2.14  18 2.15   8 2.16
  41  0.250  0.000  0.651-  10 2.13  19 2.14  11 2.14  26 2.14   9 2.16
  42  0.000  1.000  0.550-  10 2.13   6 2.14   8 2.14  25 2.14   9 2.14  16 2.14
  43  0.251  0.750  0.550-  11 2.12  24 2.13   9 2.14   8 2.14  17 2.14   7 2.14
  44  0.000  0.250  0.450-  12 2.14   6 2.14  14 2.14  15 2.14  31 2.14  16 2.14
  45  0.250  0.500  0.450-  13 2.14   7 2.14  14 2.14  15 2.14  30 2.14  17 2.15
  46  0.000  0.500  0.350-  14 2.14  12 2.14  13 2.14   4 2.14  29 2.14
  47  0.250  0.250  0.350-  15 2.14  12 2.14  13 2.14   5 2.14  28 2.14
  48  0.000  0.250  0.651-  35 2.13  10 2.13  19 2.13  18 2.14  16 2.16
  49  0.248  0.500  0.650-  18 2.12  17 2.13  11 2.14  19 2.14  34 2.14
  50  1.000  0.500  0.550-  18 2.13   8 2.13  14 2.13  16 2.14  33 2.14  17 2.15
  51  0.250  0.250  0.550-  19 2.13   9 2.13  32 2.14  16 2.14  15 2.14  17 2.14
  52  0.500  0.750  0.450-  20 2.14   7 2.14  22 2.14  23 2.14  30 2.14  24 2.15
  53  0.750  0.000  0.450-  21 2.14   6 2.14  22 2.14  23 2.14  31 2.14  25 2.14
  54  0.500  0.000  0.350-  22 2.14  20 2.14  21 2.14   5 2.14  28 2.14
  55  0.750  0.750  0.350-  23 2.14  20 2.14  21 2.14   4 2.14  29 2.14
  56  0.501  0.754  0.654-  26 2.12  27 2.16  11 2.16  24 2.21  34 2.22
  57  0.751  0.000  0.651-  27 2.13  10 2.13  35 2.13  26 2.15  25 2.16
  58  0.500  0.999  0.550-  26 2.12  25 2.13   9 2.14  24 2.14  22 2.14  32 2.15
  59  0.750  0.750  0.550-  27 2.10  24 2.13  25 2.14  33 2.14  23 2.14   8 2.14
  60  0.500  0.250  0.450-  28 2.14  22 2.14  15 2.14  30 2.14  31 2.14  32 2.15
  61  0.750  0.500  0.450-  29 2.14  23 2.14  14 2.14  30 2.14  31 2.14  33 2.15
  62  0.500  0.500  0.350-  30 2.14  20 2.14  28 2.14  29 2.14  13 2.14
  63  0.750  0.250  0.350-  31 2.14  21 2.14  28 2.14  29 2.14  12 2.14
  64  0.500  0.248  0.651-  26 2.11  34 2.11  35 2.14  19 2.15  32 2.15
  65  0.752  0.500  0.651-  18 2.12  35 2.14  27 2.14  33 2.16  34 2.17
  66  0.500  0.501  0.551-  24 2.12  33 2.13  17 2.13  32 2.13  30 2.16  34 2.22
  67  0.750  0.250  0.550-  35 2.12  25 2.13  33 2.14  32 2.14  16 2.14  31 2.14

IMPORTANT INFORMATION: All symmetrisations will be switched off!
NOSYMM: (Re-)initialisation of all symmetry stuff for point group C_1.

                                     Primitive cell

  volume of cell :    1563.6717

  direct lattice vectors                    reciprocal lattice vectors
     8.546113626  0.000000000  0.000000000     0.117012252  0.000000000  0.000000000
     0.000000000  8.546113626  0.000000000     0.000000000  0.117012252  0.000000000
     0.000000000  0.000000000 21.409585219     0.000000000  0.000000000  0.046708051

  length of vectors
     8.546113626  8.546113626 21.409585219     0.117012252  0.117012252  0.046708051

  position of ions in fractional coordinates (direct lattice)
     0.606410794  0.544970641  0.775115049
     0.508986199  0.667966148  0.736897436
     0.503277242  0.563314830  0.757236145
     0.000000000  0.750000000  0.350310383
     0.250000000  0.000000000  0.350310383
     0.000000000  0.000000000  0.450103461
     0.250000000  0.750000000  0.450103461
     0.000412980  0.749819824  0.549967910
     0.250393295  0.000255352  0.550224693
     0.000486641  0.000583316  0.649196088
     0.248109238  0.750261993  0.649026176
     0.000000000  0.250000000  0.350310383
     0.250000000  0.500000000  0.350310383
     0.000000000  0.500000000  0.450103461
     0.250000000  0.250000000  0.450103461
     0.000297785  0.250291544  0.550057860
     0.251158404  0.499865533  0.550719401
     0.000767102  0.499652282  0.649014280
     0.249344543  0.249972566  0.649378325
     0.500000000  0.750000000  0.350310383
     0.750000000  0.000000000  0.350310383
     0.500000000  0.000000000  0.450103461
     0.750000000  0.750000000  0.450103461
     0.499999464  0.748965631  0.550717648
     0.749930710  0.000356509  0.550128450
     0.500054094  0.001787097  0.649368506
     0.752705769  0.750876831  0.648282707
     0.500000000  0.250000000  0.350310383
     0.750000000  0.500000000  0.350310383
     0.500000000  0.500000000  0.450103461
     0.750000000  0.250000000  0.450103461
     0.500040901  0.250904417  0.550599217
     0.749084975  0.499801638  0.550756965
     0.498791345  0.494352878  0.654679385
     0.751181419  0.249602104  0.649022027
     0.000000000  0.750000000  0.450103461
     0.250000000  0.000000000  0.450103461
     0.000000000  0.000000000  0.350310383
     0.250000000  0.750000000  0.350310383
     0.000158013  0.750625227  0.651045528
     0.249542409  0.000141744  0.651207011
     0.000085756  0.999914891  0.549856261
     0.250762066  0.750358852  0.550206658
     0.000000000  0.250000000  0.450103461
     0.250000000  0.500000000  0.450103461
     0.000000000  0.500000000  0.350310383
     0.250000000  0.250000000  0.350310383
     0.000181871  0.249659711  0.651125672
     0.248319387  0.500161100  0.650304629
     0.999867741  0.500282920  0.549753599
     0.250203619  0.249718918  0.549944625
     0.500000000  0.750000000  0.450103461
     0.750000000  0.000000000  0.450103461
     0.500000000  0.000000000  0.350310383
     0.750000000  0.750000000  0.350310383
     0.500506357  0.754141946  0.653928399
     0.751040504  0.000105874  0.651210561
     0.500244696  0.999464754  0.550156229
     0.749610797  0.750162220  0.550183553
     0.500000000  0.250000000  0.450103461
     0.750000000  0.500000000  0.450103461
     0.500000000  0.500000000  0.350310383
     0.750000000  0.250000000  0.350310383
     0.500422512  0.248061478  0.651222764
     0.752383464  0.500191183  0.651491084
     0.500379188  0.500514245  0.550955404
     0.750128348  0.249929551  0.550002755

  ion indices of the primitive-cell ions
   primitive index   ion index
                 1           1
                 2           2
                 3           3
                 4           4
[...]
      0.00416      0.00499     13.89902        -0.002741     -0.001589     -0.003253
      2.12037      6.41182     13.89538         0.000162     -0.001142     -0.006244
      0.00000      2.13653      7.50000         0.000351      0.001563      0.324154
      2.13653      4.27306      7.50000         0.002027     -0.000559      0.326573
      0.00000      4.27306      9.63653        -0.003280     -0.007551      0.035985
      2.13653      2.13653      9.63653         0.009049      0.009535      0.018914
      0.00254      2.13902     11.77651         0.000452      0.002038      0.001981
      2.14643      4.27191     11.79067        -0.002651      0.000844     -0.001999
      0.00656      4.27009     13.89513        -0.001459      0.002094     -0.005274
      2.13093      2.13629     13.90292        -0.003139     -0.001523     -0.000880
      4.27306      6.40959      7.50000        -0.000323     -0.002427      0.327073
      6.40959      0.00000      7.50000        -0.001145      0.000633      0.320289
      4.27306      0.00000      9.63653        -0.002781     -0.009833      0.037168
      6.40959      6.40959      9.63653        -0.022038     -0.016751      0.013191
      4.27305      6.40075     11.79064        -0.001158      0.000898      0.003208
      6.40899      0.00305     11.77802         0.000335     -0.001138      0.001807
      4.27352      0.01527     13.90271         0.000817     -0.000636     -0.005848
      6.43271      6.41708     13.87946        -0.002608     -0.001485     -0.007632
      4.27306      2.13653      7.50000        -0.000257      0.002345      0.323712
      6.40959      4.27306      7.50000        -0.002015     -0.000630      0.328661
      4.27306      4.27306      9.63653         0.005696      0.007614      0.048097
      6.40959      2.13653      9.63653        -0.004443      0.019246      0.014767
      4.27341      2.14426     11.78810        -0.001833     -0.002908     -0.001312
      6.40177      4.27136     11.79148         0.001863      0.001218     -0.000405
      4.26273      4.22480     14.01641         0.002747      0.005567     -0.008060
      6.41968      2.13313     13.89529         0.001373     -0.001815     -0.001554
      0.00000      6.40959      9.63653         0.002675      0.010716      0.048484
      2.13653      0.00000      9.63653         0.003416     -0.007185      0.037280
      0.00000      0.00000      7.50000        -0.001047     -0.002131     -0.393843
      2.13653      6.40959      7.50000        -0.004184      0.002423     -0.395737
      0.00135      6.41493     13.93861         0.000083     -0.000835      0.006175
      2.13262      0.00121     13.94207        -0.002945      0.002821      0.004996
      0.00073      8.54539     11.77219        -0.001309     -0.002658     -0.001854
      2.14304      6.41265     11.77970        -0.001244      0.001835     -0.003255
      0.00000      2.13653      9.63653         0.000296     -0.007571      0.029596
      2.13653      4.27306      9.63653         0.022065      0.008841      0.058815
      0.00000      4.27306      7.50000         0.000406      0.002256     -0.397448
      2.13653      2.13653      7.50000        -0.001251     -0.002347     -0.397461
      0.00155      2.13362     13.94033         0.000352     -0.001430      0.001503
      2.12217      4.27443     13.92275        -0.004052     -0.002369      0.000882
      8.54498      4.27547     11.77000        -0.000411     -0.005294      0.000210
      2.13827      2.13413     11.77409        -0.000610      0.000638      0.004646
      4.27306      6.40959      9.63653         0.004248     -0.011161      0.059931
      6.40959      0.00000      9.63653         0.001913     -0.005081      0.042762
      4.27306      0.00000      7.50000         0.001244      0.000644     -0.396032
      6.40959      6.40959      7.50000         0.004485      0.003946     -0.395077
      4.27738      6.44498     14.00034        -0.002897      0.011183     -0.011960
      6.41848      0.00090     13.94215        -0.001551      0.002381      0.005288
      4.27515      8.54154     11.77862         0.000243      0.002789     -0.002831
      6.40626      6.41097     11.77920        -0.000845      0.002196     -0.005394
      4.27306      2.13653      9.63653         0.005511      0.009412      0.065908
      6.40959      4.27306      9.63653        -0.018679      0.007250      0.053806
      4.27306      4.27306      7.50000        -0.000295     -0.000743     -0.401128
      6.40959      2.13653      7.50000         0.001491     -0.003843     -0.396877
      4.27667      2.11996     13.94241        -0.001795     -0.005706      0.001816
      6.42995      4.27469     13.94815         0.003531     -0.002555     -0.002567
      4.27630      4.27745     11.79573         0.000175     -0.000680     -0.001290
      6.41068      2.13593     11.77533        -0.001195      0.000288      0.001719
    total drift:                                0.000385      0.000073      0.007982

  FREE ENERGIE OF THE ION-ELECTRON SYSTEM (eV)
  free  energy   TOTEN  =      -239.81758435 eV

  energy  without entropy=     -239.81758435  energy(sigma->0) =     -239.81758435

 d Force =-0.7443622E-05[-0.366E-02, 0.365E-02]  d Energy = 0.3087604E-05-0.105E-04
 d Force =-0.3264060E+02[-0.327E+02,-0.326E+02]  d Ewald  =-0.3264056E+02-0.356E-04

 Finite differences progress:
  Degree of freedom:   9/  9
  Displacement:        2/  2
  Total:              18/ 18

 SECOND DERIVATIVES (NOT SYMMETRIZED)
               1X          1Y          1Z          2X          2Y          2Z          3X          3Y          3Z
  1X   -38.656698    6.945710  -17.062974    0.201777    0.558409   -0.144585   38.343773   -7.600632   17.246036
  1Y     6.933872   -5.217319    4.487334   -3.781374    0.496551   -1.479981   -3.524585    4.617099   -2.813544
  1Z   -17.041750    4.487082   -8.748935    1.752705    0.088319    0.631802   14.843963   -4.268191    7.882953
  2X     0.198874   -3.780774    1.750781   -5.265682   -1.193949   -0.758783    4.351125    4.841806   -0.829627
  2Y     0.557105    0.498964    0.087845   -1.194890  -31.919199   12.454238    0.506820   30.386643  -14.369784
  2Z    -0.144767   -1.480556    0.631621   -0.758905   12.437091   -7.431981    0.975829  -12.288538    7.483287
  3X    38.345271   -3.532242   14.866520    4.350193    0.504790    0.978077  -43.234133    3.326270  -16.113886
  3Y    -7.589377    4.613896   -4.268062    4.847210   30.385105  -12.306322    3.315914  -35.962680   18.116117
  3Z    17.230447   -2.811914    7.879071   -0.830276  -14.349084    7.479287  -16.091677   18.099209  -18.268541

 Eigenvectors and eigenvalues of the dynamical matrix

   1 f  =  111.546951 THz   700.870165 2PiTHz 3720.805786 cm-1   461.320915 meV
             X         Y         Z           dx          dy          dz
      5.182456  4.657381 16.594892     0.863367   -0.178060    0.394137
      4.349854  5.708515 15.776668    -0.032793   -0.086299    0.025584
      4.301064  4.814153 16.212112    -0.206954    0.065800   -0.105882
      0.000000  6.409585  7.500000            0           0           0
      2.136528  0.000000  7.500000            0           0           0
      0.000000  0.000000  9.636528            0           0           0
      2.136528  6.409585  9.636528            0           0           0
      0.003529  6.408045 11.774585            0           0           0
      2.139890  0.002182 11.780082            0           0           0
      0.004159  0.004985 13.899019            0           0           0
      2.120370  6.411824 13.895381            0           0           0
      0.000000  2.136528  7.500000            0           0           0
      2.136528  4.273057  7.500000            0           0           0
      0.000000  4.273057  9.636528            0           0           0
      2.136528  2.136528  9.636528            0           0           0
      0.002545  2.139020 11.776511            0           0           0
      2.146428  4.271908 11.790674            0           0           0
      0.006556  4.270085 13.895127            0           0           0
      2.130927  2.136294 13.902921            0           0           0
      4.273057  6.409585  7.500000            0           0           0
      6.409585  0.000000  7.500000            0           0           0
      4.273057  0.000000  9.636528            0           0           0
      6.409585  6.409585  9.636528            0           0           0
      4.273052  6.400745 11.790636            0           0           0
      6.408993  0.003047 11.778022            0           0           0
      4.273519  0.015273 13.902710            0           0           0
      6.432709  6.417079 13.879464            0           0           0
      4.273057  2.136528  7.500000            0           0           0
      6.409585  4.273057  7.500000            0           0           0
      4.273057  4.273057  9.636528            0           0           0
      6.409585  2.136528  9.636528            0           0           0
      4.273406  2.144258 11.788101            0           0           0
      6.401765  4.271362 11.791478            0           0           0
      4.262728  4.224796 14.016414            0           0           0
      6.419682  2.133128 13.895292            0           0           0
      0.000000  6.409585  9.636528            0           0           0
      2.136528  0.000000  9.636528            0           0           0
      0.000000  0.000000  7.500000            0           0           0
      2.136528  6.409585  7.500000            0           0           0
      0.001350  6.414928 13.938615            0           0           0
      2.132618  0.001211 13.942072            0           0           0
      0.000733  8.545386 11.772194            0           0           0
      2.143041  6.412652 11.779696            0           0           0
      0.000000  2.136528  9.636528            0           0           0
      2.136528  4.273057  9.636528            0           0           0
      0.000000  4.273057  7.500000            0           0           0
      2.136528  2.136528  7.500000            0           0           0
      0.001554  2.133620 13.940331            0           0           0
      2.122166  4.274434 13.922752            0           0           0
      8.544983  4.275475 11.769997            0           0           0
      2.138269  2.134126 11.774086            0           0           0
      4.273057  6.409585  9.636528            0           0           0
      6.409585  0.000000  9.636528            0           0           0
      4.273057  0.000000  7.500000            0           0           0
      6.409585  6.409585  7.500000            0           0           0
      4.277384  6.444983 14.000336            0           0           0
      6.418477  0.000905 13.942148            0           0           0
      4.275148  8.541539 11.778617            0           0           0
      6.406259  6.410972 11.779202            0           0           0
      4.273057  2.136528  9.636528            0           0           0
      6.409585  4.273057  9.636528            0           0           0
      4.273057  4.273057  7.500000            0           0           0
      6.409585  2.136528  7.500000            0           0           0
      4.276668  2.119962 13.942409            0           0           0
      6.429955  4.274691 13.948154            0           0           0
      4.276297  4.277452 11.795727            0           0           0
      6.410682  2.135926 11.775331            0           0           0

[...]

   9 f  =    2.500750 THz    15.712678 2PiTHz   83.416052 cm-1    10.342268 meV
             X         Y         Z           dx          dy          dz
      5.182456  4.657381 16.594892     0.243020   -0.212552   -0.199409
      4.349854  5.708515 15.776668     0.087541   -0.105360    0.127256
      4.301064  4.814153 16.212112     0.645427   -0.635269    0.029956
      0.000000  6.409585  7.500000            0           0           0
      2.136528  0.000000  7.500000            0           0           0
      0.000000  0.000000  9.636528            0           0           0
      2.136528  6.409585  9.636528            0           0           0
      0.003529  6.408045 11.774585            0           0           0
      2.139890  0.002182 11.780082            0           0           0
      0.004159  0.004985 13.899019            0           0           0
      2.120370  6.411824 13.895381            0           0           0
      0.000000  2.136528  7.500000            0           0           0
      2.136528  4.273057  7.500000            0           0           0
      0.000000  4.273057  9.636528            0           0           0
      2.136528  2.136528  9.636528            0           0           0
      0.002545  2.139020 11.776511            0           0           0
      2.146428  4.271908 11.790674            0           0           0
      0.006556  4.270085 13.895127            0           0           0
      2.130927  2.136294 13.902921            0           0           0
      4.273057  6.409585  7.500000            0           0           0
      6.409585  0.000000  7.500000            0           0           0
      4.273057  0.000000  9.636528            0           0           0
      6.409585  6.409585  9.636528            0           0           0
      4.273052  6.400745 11.790636            0           0           0
      6.408993  0.003047 11.778022            0           0           0
      4.273519  0.015273 13.902710            0           0           0
      6.432709  6.417079 13.879464            0           0           0
      4.273057  2.136528  7.500000            0           0           0
      6.409585  4.273057  7.500000            0           0           0
      4.273057  4.273057  9.636528            0           0           0
      6.409585  2.136528  9.636528            0           0           0
      4.273406  2.144258 11.788101            0           0           0
      6.401765  4.271362 11.791478            0           0           0
      4.262728  4.224796 14.016414            0           0           0
      6.419682  2.133128 13.895292            0           0           0
      0.000000  6.409585  9.636528            0           0           0
      2.136528  0.000000  9.636528            0           0           0
      0.000000  0.000000  7.500000            0           0           0
      2.136528  6.409585  7.500000            0           0           0
      0.001350  6.414928 13.938615            0           0           0
      2.132618  0.001211 13.942072            0           0           0
      0.000733  8.545386 11.772194            0           0           0
      2.143041  6.412652 11.779696            0           0           0
      0.000000  2.136528  9.636528            0           0           0
      2.136528  4.273057  9.636528            0           0           0
      0.000000  4.273057  7.500000            0           0           0
      2.136528  2.136528  7.500000            0           0           0
      0.001554  2.133620 13.940331            0           0           0
      2.122166  4.274434 13.922752            0           0           0
      8.544983  4.275475 11.769997            0           0           0
      2.138269  2.134126 11.774086            0           0           0
      4.273057  6.409585  9.636528            0           0           0
      6.409585  0.000000  9.636528            0           0           0
      4.273057  0.000000  7.500000            0           0           0
      6.409585  6.409585  7.500000            0           0           0
      4.277384  6.444983 14.000336            0           0           0
      6.418477  0.000905 13.942148            0           0           0
      4.275148  8.541539 11.778617            0           0           0
      6.406259  6.410972 11.779202            0           0           0
      4.273057  2.136528  9.636528            0           0           0
      6.409585  4.273057  9.636528            0           0           0
      4.273057  4.273057  7.500000            0           0           0
      6.409585  2.136528  7.500000            0           0           0
      4.276668  2.119962 13.942409            0           0           0
      6.429955  4.274691 13.948154            0           0           0
      4.276297  4.277452 11.795727            0           0           0
      6.410682  2.135926 11.775331            0           0           0

 Finite differences POTIM=   1.0000000000000000E-002