 vasp.6.4.2 20Jul23 (build Feb 22 2024 13:53:45) complex
 executed on              LinuxNV date 2024.08.27  22:46:19
 OpenACC runtime initialized ...    4 GPUs detected

 INCAR:
   SYSTEM = Oxide-Surface
   ISMEAR = 0
   SIGMA = 0.05
   EDIFF = 1E-5
   ALGO = Normal
   IBRION = -1
   NSW = 0
   ISYM = 0
   DIPOL = 0.5 0.5 0.5
   IDIPOL = 3
   LDIPOL = .TRUE.
   ISTART = 0
   LHFCALC = .FALSE.
   GGA = PE
   IVDW = 21
   VDW_SR = 0.96
   HFRCUT = -1
   ENCUT = 520
   PREC = Normal
   PRECFOCK = Normal
   LASPH = .TRUE.
   LREAL = Auto
   ISPIN = 1
   NELM = 200
   NELMIN = 8
   NCORE = 1
   KPAR = 1
   LWAVE = .TRUE.
   LCHARG = .FALSE.

 POTCAR:    PAW_PBE Mg_pv 13Apr2007
 POTCAR:    PAW_PBE O 08Apr2002
 POTCAR:    PAW_PBE Mg_pv 13Apr2007
   VRHFIN =Mg: p6s2

   TITEL  = PAW_PBE Mg_pv 13Apr2007
   POMASS =   24.305; ZVAL   =    8.000    mass and valenz
   ENMAX  =  403.929; ENMIN  =  302.947 eV

   TITEL  = PAW_PBE O 08Apr2002
   POMASS =   16.000; ZVAL   =    6.000    mass and valenz
   ENMAX  =  400.000; ENMIN  =  300.000 eV

 Optimization of the real space projectors (new method)

 maximal supplied QI-value         = 18.90
 optimisation between [QCUT,QGAM] = [ 11.53, 23.24] = [ 37.21,151.29] Ry
 Optimized for a Real-space Cutoff    1.21 Angstroem

   l    n(q)    QCUT    max X(q) W(low)/X(q) W(high)/X(q)  e(spline)
   1      8    11.527     2.974    0.16E-03    0.13E-03    0.98E-07
   1      8    11.527     4.279    0.42E-03    0.30E-03    0.22E-06
   0      8    11.527    16.381    0.13E-03    0.20E-03    0.72E-07
   0      8    11.527     5.611    0.88E-04    0.13E-03    0.50E-07
   2      7    11.527     4.652    0.25E-03    0.73E-04    0.51E-07
 Optimization of the real space projectors (new method)

 maximal supplied QI-value         = 24.76
 optimisation between [QCUT,QGAM] = [ 11.64, 23.27] = [ 37.91,151.63] Ry
 Optimized for a Real-space Cutoff    1.04 Angstroem

   l    n(q)    QCUT    max X(q) W(low)/X(q) W(high)/X(q)  e(spline)
   0      7    11.635    20.381    0.14E-03    0.49E-03    0.18E-06
   0      7    11.635    15.268    0.16E-03    0.52E-03    0.19E-06
   1      7    11.635     5.964    0.30E-03    0.44E-03    0.22E-06
   1      7    11.635     5.382    0.27E-03    0.34E-03    0.19E-06
  PAW_PBE Mg_pv 13Apr2007               :
  PAW_PBE O 08Apr2002                   :

 POSCAR: Mg  O
  positions in direct lattice
 exchange correlation table for  LEXCH =        8
   RHO(1)=    0.500       N(1)  =     2000
   RHO(2)=  100.500       N(2)  =     4000

 ion  position               nearest neighbor table
   1  0.000  0.750  0.230-  33 2.11  43 2.11  36 2.11  35 2.11  52 2.11
   2  0.250  0.000  0.230-  34 2.11  35 2.11  36 2.11  44 2.11  51 2.11
   3  0.000  0.000  0.354-  35 2.11  34 2.11  33 2.11  41 2.11  50 2.11  39 2.12
   4  0.250  0.750  0.354-  36 2.11  42 2.11  33 2.11  34 2.11  49 2.11  40 2.12
   5  0.000  0.750  0.479-  47 2.11  40 2.11  56 2.11  39 2.11  33 2.12  37 2.16
   6  0.250  1.000  0.479-  55 2.11  48 2.11  40 2.11  39 2.11  34 2.12  38 2.16
   7  0.000  1.000  0.603-  39 2.10  38 2.11  54 2.11  45 2.11  37 2.11
   8  0.250  0.750  0.602-  40 2.09  37 2.11  38 2.11  46 2.11  53 2.11
   9  0.000  0.250  0.230-  41 2.11  35 2.11  44 2.11  60 2.11  43 2.11
  10  0.250  0.500  0.230-  42 2.11  36 2.11  43 2.11  59 2.11  44 2.11
  11  0.000  0.500  0.354-  43 2.11  33 2.11  42 2.11  58 2.11  41 2.11  47 2.11
  12  0.250  0.250  0.354-  44 2.11  41 2.11  34 2.11  57 2.11  42 2.11  48 2.12
  13  1.000  0.250  0.479-  47 2.11  64 2.11  48 2.11  39 2.11  41 2.12  45 2.16
  14  0.251  0.500  0.480-  63 2.10  48 2.11  40 2.11  47 2.12  42 2.13  46 2.15
  15  0.000  0.500  0.602-  62 2.09  46 2.09  47 2.10  45 2.12  37 2.12
  16  0.250  0.250  0.602-  48 2.10  38 2.11  45 2.11  61 2.11  46 2.11
  17  0.500  0.750  0.230-  49 2.11  59 2.11  51 2.11  52 2.11  36 2.11
  18  0.750  0.000  0.230-  50 2.11  35 2.11  51 2.11  52 2.11  60 2.11
  19  0.500  0.000  0.354-  51 2.11  49 2.11  50 2.11  34 2.11  57 2.11  55 2.11
  20  0.750  0.750  0.354-  52 2.11  58 2.11  50 2.11  33 2.11  49 2.11  56 2.12
  21  0.500  0.749  0.480-  63 2.10  56 2.11  40 2.11  55 2.12  49 2.13  53 2.15
  22  0.750  1.000  0.479-  55 2.11  64 2.11  56 2.11  39 2.11  50 2.12  54 2.16
  23  0.500  0.000  0.602-  61 2.09  53 2.09  55 2.10  38 2.12  54 2.12
  24  0.750  0.750  0.602-  56 2.09  37 2.11  54 2.11  62 2.11  53 2.11
  25  0.500  0.250  0.230-  57 2.11  51 2.11  44 2.11  60 2.11  59 2.11
  26  0.750  0.500  0.230-  58 2.11  52 2.11  43 2.11  59 2.11  60 2.11
  27  0.500  0.500  0.354-  59 2.11  49 2.11  58 2.11  42 2.11  57 2.11  63 2.14
  28  0.750  0.250  0.354-  60 2.11  50 2.11  57 2.11  41 2.11  58 2.11  64 2.12
  29  0.500  0.251  0.480-  63 2.10  48 2.11  64 2.11  55 2.12  57 2.13  61 2.14
  30  0.749  0.500  0.480-  63 2.10  64 2.11  56 2.11  47 2.12  58 2.13  62 2.15
  31  0.500  0.499  0.611-  61 2.12  62 2.13  46 2.13  53 2.15  63 2.22
  32  0.750  0.250  0.602-  64 2.10  54 2.11  45 2.11  61 2.11  62 2.11
  33  0.000  0.750  0.354-   1 2.11  11 2.11   4 2.11   3 2.11  20 2.11   5 2.12
  34  0.250  0.000  0.354-   2 2.11   3 2.11   4 2.11  12 2.11  19 2.11   6 2.12
  35  0.000  0.000  0.230-   3 2.11   2 2.11   1 2.11   9 2.11  18 2.11
  36  0.250  0.750  0.230-   4 2.11  10 2.11   1 2.11   2 2.11  17 2.11
  37  1.000  0.750  0.606-   7 2.11  24 2.11   8 2.11  15 2.12   5 2.16
  38  0.249  1.000  0.606-   7 2.11  16 2.11   8 2.11  23 2.12   6 2.16
  39  1.000  1.000  0.479-   7 2.10   5 2.11  22 2.11   6 2.11  13 2.11   3 2.12
  40  0.250  0.750  0.479-   8 2.09   6 2.11   5 2.11  21 2.11  14 2.11   4 2.12
  41  0.000  0.250  0.354-   9 2.11   3 2.11  12 2.11  28 2.11  11 2.11  13 2.12
  42  0.250  0.500  0.354-  10 2.11   4 2.11  11 2.11  27 2.11  12 2.11  14 2.13
  43  0.000  0.500  0.230-  11 2.11   1 2.11  10 2.11  26 2.11   9 2.11
  44  0.250  0.250  0.230-  12 2.11   9 2.11   2 2.11  25 2.11  10 2.11
  45  0.000  0.249  0.606-   7 2.11  32 2.11  16 2.11  15 2.12  13 2.16
  46  0.247  0.500  0.606-  15 2.09   8 2.11  16 2.11  31 2.13  14 2.15
  47  0.000  0.500  0.479-  15 2.10   5 2.11  13 2.11  11 2.11  30 2.12  14 2.12
  48  0.250  0.250  0.479-  16 2.10   6 2.11  13 2.11  14 2.11  29 2.11  12 2.12
  49  0.500  0.750  0.354-  17 2.11  27 2.11  19 2.11  20 2.11   4 2.11  21 2.13
  50  0.750  0.000  0.354-  18 2.11   3 2.11  19 2.11  20 2.11  28 2.11  22 2.12
  51  0.500  0.000  0.230-  19 2.11  17 2.11  18 2.11   2 2.11  25 2.11
  52  0.750  0.750  0.230-  20 2.11  26 2.11  18 2.11   1 2.11  17 2.11
  53  0.500  0.753  0.606-  23 2.09   8 2.11  24 2.11  31 2.15  21 2.15
  54  0.751  1.000  0.606-   7 2.11  32 2.11  24 2.11  23 2.12  22 2.16
  55  0.500  1.000  0.479-  23 2.10  22 2.11   6 2.11  19 2.11  21 2.12  29 2.12
  56  0.750  0.750  0.479-  24 2.09  22 2.11   5 2.11  21 2.11  30 2.11  20 2.12
  57  0.500  0.250  0.354-  25 2.11  19 2.11  12 2.11  28 2.11  27 2.11  29 2.13
  58  0.750  0.500  0.354-  26 2.11  20 2.11  11 2.11  27 2.11  28 2.11  30 2.13
  59  0.500  0.500  0.230-  27 2.11  17 2.11  26 2.11  10 2.11  25 2.11
  60  0.750  0.250  0.230-  28 2.11  18 2.11  25 2.11   9 2.11  26 2.11
  61  0.500  0.247  0.606-  23 2.09  16 2.11  32 2.11  31 2.12  29 2.14
  62  0.753  0.500  0.606-  15 2.09  24 2.11  32 2.11  31 2.13  30 2.15
  63  0.500  0.500  0.480-  21 2.10  14 2.10  30 2.10  29 2.10  27 2.14  31 2.22
  64  0.750  0.250  0.479-  32 2.10  22 2.11  13 2.11  30 2.11  29 2.11  28 2.12

IMPORTANT INFORMATION: All symmetrisations will be switched off!
NOSYMM: (Re-)initialisation of all symmetry stuff for point group C_1.

                                     Primitive cell

  volume of cell :    1211.2538

  direct lattice vectors                    reciprocal lattice vectors
     8.440984654  0.000000000  0.000000000     0.118469591  0.000000000  0.000000000
     0.000000000  8.440984654  0.000000000     0.000000000  0.118469591  0.000000000
     0.000000000  0.000000000 17.000000000     0.000000000  0.000000000  0.058823529

  length of vectors
     8.440984654  8.440984654 17.000000000     0.118469591  0.118469591  0.058823529

  position of ions in fractional coordinates (direct lattice)
     0.000000001  0.750005063  0.230190625
     0.250000001  0.000005063  0.230190625
     0.000000001  0.000005063  0.354322752
     0.250000001  0.750005063  0.354322752
     0.000000003  0.749688989  0.478992539
     0.250263523  0.999994937  0.479012029
     0.000000001  0.999958952  0.602562889
     0.249680170  0.750040946  0.602146405
     0.000000001  0.250005063  0.230190625
     0.250000001  0.500005063  0.230190625
     0.000000001  0.500005063  0.354322752
     0.250000001  0.250005063  0.354322752
     0.999999996  0.250234310  0.479017192
     0.251264403  0.499912485  0.479817993
     0.000000018  0.499894003  0.602327959
     0.249874846  0.249737023  0.602282337
     0.500000001  0.750005063  0.230190625
     0.750000001  0.000005063  0.230190625
     0.500000001  0.000005063  0.354322752
     0.750000001  0.750005063  0.354322752
     0.499999997  0.748694190  0.479856547
     0.749736478  0.999994937  0.479012045
     0.499999996  0.000235948  0.602315670
     0.750319839  0.750040932  0.602146398
     0.500000001  0.250005063  0.230190625
     0.750000001  0.500005063  0.230190625
     0.500000001  0.500005063  0.354322752
     0.750000001  0.250005063  0.354322752
     0.500000000  0.251193808  0.479761393
     0.748735611  0.499912479  0.479818037
     0.500000034  0.498643644  0.610784368
     0.750125162  0.249737020  0.602282348
     0.000000001  0.750005063  0.354322752
     0.250000001  0.000005063  0.354322752
     0.000000001  0.000005063  0.230190625
     0.250000001  0.750005063  0.230190625
     0.999999999  0.750491851  0.605981896
     0.249403678  0.999911150  0.606023354
     0.999999998  0.999937384  0.478809541
     0.249933155  0.750101855  0.478982330
     0.000000001  0.250005063  0.354322752
     0.250000001  0.500005063  0.354322752
     0.000000001  0.500005063  0.230190625
     0.250000001  0.250005063  0.230190625
     0.000000003  0.249368438  0.606057731
     0.247373171  0.499932707  0.606018755
     0.000000006  0.499983562  0.478713219
     0.249818530  0.249806475  0.478943030
     0.500000001  0.750005063  0.354322752
     0.750000001  0.000005063  0.354322752
     0.500000001  0.000005063  0.230190625
     0.750000001  0.750005063  0.230190625
     0.499999997  0.752922771  0.606464953
     0.750596323  0.999911142  0.606023376
     0.500000001  0.999876204  0.478718645
     0.750066840  0.750101852  0.478982337
     0.500000001  0.250005063  0.354322752
     0.750000001  0.500005063  0.354322752
     0.500000001  0.500005063  0.230190625
     0.750000001  0.250005063  0.230190625
     0.500000003  0.247335548  0.605753670
     0.752626877  0.499932691  0.606018757
     0.500000006  0.500046709  0.480056781
     0.750181474  0.249806464  0.478943037

  ion indices of the primitive-cell ions
   primitive index   ion index
                 1           1
                 2           2
                 3           3
                 4           4
                 5           5
                 6           6
[...]
   O         182.164          4.810         18.453          3.41718132
   O         166.058          4.737         17.618          3.26261503
   O         165.964          4.736         17.613          3.26169555
   O         163.722          4.726         17.494          3.23958631
   O         162.816          4.721         17.445          3.23060897
   O         183.200          4.815         18.505          3.42688202
   O         187.867          4.835         18.739          3.47025338

  vdW correction parametrized for the method Ð¿¾     þ

  IVDW =  21
  VDW_RADIUS =    50.000 A
  VDW_IDAMPF =  0
  VDW_S6 =     1.000
  VDW_SR =     0.960
  VDW_D =    20.000
  LVDW_ONECELL = F F F
  LVDW_SAMETYPE T T
  LVDW_EWALD = F

  Number of pair interactions contributing to vdW energy:  892100
  Edisp (eV):   -3.55051

  FORCE on cell =-STRESS in cart. coord.  units (eV):
  Direction    XX          YY          ZZ          XY          YZ          ZX
  Alpha Z  1098.23100  1098.23100  1098.23100
  Ewald   86130.68783 86130.89508************     0.00000     0.14873     0.00002
  Hartree 96766.06680 96766.17109-90350.11528    -0.00000     0.01991     0.00001
  E(xc)   -2456.46841 -2456.46808 -2461.73858     0.00000    -0.00069     0.00000
  Local  ************************192944.68493     0.00001    -0.13158    -0.00003
  n-local -2809.55643 -2809.54740 -2830.34250     0.00000    -0.01811    -0.00000
  augment  1047.57456  1047.57358  1038.08741    -0.00000    -0.00616    -0.00000
  Kinetic  7300.73459  7300.73166  7342.41591    -0.00001     0.04414    -0.00000
  Fock        0.00000     0.00000     0.00000     0.00000     0.00000     0.00000
  vdW        -5.05524    -5.05522    -3.45406    -0.00000     0.00028    -0.00000
  Total     -21.22547   -21.21376     3.64169    -0.00001     0.05652    -0.00000
  in kB     -28.07584   -28.06036     4.81702    -0.00001     0.07476    -0.00000

 VOLUME and BASIS-vectors are now :
  energy-cutoff  :      520.00
  volume of cell :     1211.25
      direct lattice vectors                 reciprocal lattice vectors
     8.440984654  0.000000000  0.000000000     0.118469591  0.000000000  0.000000000
     0.000000000  8.440984654  0.000000000     0.000000000  0.118469591  0.000000000
     0.000000000  0.000000000 17.000000000     0.000000000  0.000000000  0.058823529

  length of vectors
     8.440984654  8.440984654 17.000000000     0.118469591  0.118469591  0.058823529

 FORCES acting on ions
    electron-ion (+dipol)            ewald-force                    non-local-force                 convergence-correction
   0.242E-04 0.252E+00 0.172E+04   -.631E-05 -.255E+00 -.171E+04   0.349E-05 0.247E-02 -.704E+01   -.203E-04 -.399E-04 -.138E-02
   -.251E+00 0.282E-01 0.172E+04   0.255E+00 -.289E-01 -.171E+04   -.250E-02 0.540E-03 -.704E+01   0.428E-04 -.470E-04 -.137E-02
   0.210E-04 0.599E-01 0.568E+03   -.199E-04 -.584E-01 -.569E+03   -.864E-05 -.122E-02 0.454E+00   0.105E-04 -.496E-05 -.101E-02
   -.144E+01 0.140E+01 0.567E+03   0.149E+01 -.145E+01 -.567E+03   -.371E-01 0.302E-01 0.556E+00   0.163E-04 -.247E-04 -.112E-02
   0.245E-04 0.748E+00 -.572E+03   -.147E-04 -.733E+00 0.572E+03   -.378E-05 0.125E-01 -.152E+00   -.409E-05 0.874E-04 -.349E-03
   -.764E+00 0.339E+00 -.572E+03   0.752E+00 -.341E+00 0.573E+03   -.132E-01 -.291E-02 -.153E+00   -.177E-03 -.366E-04 -.351E-03
   -.815E-05 0.160E+00 -.170E+04   0.151E-04 -.151E+00 0.170E+04   0.275E-05 -.100E-01 0.579E+01   -.105E-04 0.211E-04 0.547E-03
   -.326E+01 0.251E+01 -.170E+04   0.292E+01 -.209E+01 0.169E+04   0.282E+00 -.330E+00 0.588E+01   -.547E-04 0.803E-04 0.585E-03
   0.457E-04 -.252E+00 0.172E+04   -.595E-05 0.255E+00 -.171E+04   0.925E-05 -.231E-02 -.705E+01   -.515E-04 0.283E-04 -.138E-02
   -.323E+00 -.287E-01 0.172E+04   0.332E+00 0.291E-01 -.171E+04   -.650E-02 -.358E-03 -.707E+01   0.262E-05 0.499E-04 -.134E-02
   0.163E-04 -.698E-01 0.567E+03   -.411E-04 0.650E-01 -.568E+03   -.122E-04 0.343E-02 0.433E+00   0.384E-04 0.131E-04 -.103E-02
   -.135E+01 -.141E+01 0.567E+03   0.139E+01 0.145E+01 -.567E+03   -.228E-01 -.276E-01 0.550E+00   -.110E-04 0.207E-04 -.111E-02
   0.367E-04 -.737E+00 -.573E+03   0.785E-05 0.723E+00 0.573E+03   0.162E-04 -.127E-01 -.136E+00   -.617E-04 -.859E-04 -.338E-03
   -.415E+01 -.416E+00 -.579E+03   0.449E+01 0.420E+00 0.579E+03   -.347E+00 0.140E-02 -.272E+00   0.472E-04 0.421E-04 -.378E-03
   -.639E-04 -.160E+00 -.170E+04   0.701E-04 0.148E+00 0.169E+04   -.308E-06 0.117E-01 0.570E+01   -.653E-05 -.257E-04 0.549E-03
   -.165E+01 -.212E+01 -.170E+04   0.115E+01 0.168E+01 0.169E+04   0.382E+00 0.343E+00 0.594E+01   -.124E-03 -.822E-04 0.634E-03
   -.230E-04 0.324E+00 0.172E+04   0.632E-05 -.332E+00 -.171E+04   -.164E-05 0.647E-02 -.707E+01   0.171E-04 0.673E-05 -.135E-02
   0.251E+00 0.282E-01 0.172E+04   -.255E+00 -.289E-01 -.171E+04   0.250E-02 0.532E-03 -.704E+01   -.410E-04 -.903E-05 -.140E-02
   -.227E-04 0.160E+00 0.567E+03   0.217E-04 -.176E+00 -.568E+03   0.572E-05 0.118E-01 0.432E+00   -.593E-05 -.305E-04 -.113E-02
   0.144E+01 0.140E+01 0.567E+03   -.149E+01 -.145E+01 -.567E+03   0.371E-01 0.302E-01 0.556E+00   -.242E-04 -.136E-05 -.112E-02
   -.184E-04 0.438E+01 -.581E+03   0.617E-05 -.471E+01 0.581E+03   -.936E-06 0.341E+00 -.239E+00   0.134E-04 -.139E-03 -.369E-03
   0.764E+00 0.339E+00 -.572E+03   -.752E+00 -.341E+00 0.573E+03   0.132E-01 -.293E-02 -.153E+00   0.172E-03 0.122E-04 -.339E-03
   -.109E-04 0.930E+00 -.170E+04   0.285E-05 -.110E+01 0.169E+04   -.192E-05 0.117E+00 0.568E+01   0.120E-04 -.534E-04 0.698E-03
   0.326E+01 0.251E+01 -.170E+04   -.292E+01 -.209E+01 0.169E+04   -.282E+00 -.330E+00 0.588E+01   0.512E-04 0.903E-04 0.577E-03
   -.504E-04 -.324E+00 0.172E+04   0.611E-05 0.332E+00 -.171E+04   -.136E-04 -.628E-02 -.706E+01   0.597E-04 -.673E-05 -.136E-02
   0.323E+00 -.287E-01 0.172E+04   -.332E+00 0.291E-01 -.171E+04   0.650E-02 -.349E-03 -.707E+01   -.465E-05 0.118E-04 -.139E-02
   -.236E-04 -.171E+00 0.562E+03   0.430E-04 0.183E+00 -.563E+03   0.980E-05 -.894E-02 0.700E+00   -.313E-04 0.368E-04 -.104E-02
   0.135E+01 -.141E+01 0.567E+03   -.139E+01 0.145E+01 -.567E+03   0.228E-01 -.276E-01 0.550E+00   0.200E-05 -.494E-05 -.108E-02
   -.609E-04 -.405E+01 -.577E+03   0.137E-04 0.437E+01 0.578E+03   -.152E-04 -.335E+00 -.271E+00   0.657E-04 0.136E-03 -.350E-03
   0.415E+01 -.416E+00 -.579E+03   -.449E+01 0.420E+00 0.579E+03   0.347E+00 0.142E-02 -.272E+00   -.508E-04 -.208E-04 -.337E-03
   0.623E-04 -.442E+01 -.174E+04   -.702E-04 0.436E+01 0.173E+04   0.391E-05 0.184E+00 0.693E+01   0.224E-05 0.475E-04 0.493E-03
   0.165E+01 -.212E+01 -.170E+04   -.115E+01 0.168E+01 0.169E+04   -.382E+00 0.343E+00 0.594E+01   0.127E-03 -.841E-04 0.565E-03
   0.760E-05 0.623E+00 0.426E+03   -.191E-04 -.626E+00 -.426E+03   -.167E-05 0.494E-02 -.391E-01   0.110E-04 -.573E-05 -.443E-03
   -.627E+00 0.989E-01 0.426E+03   0.633E+00 -.983E-01 -.426E+03   -.881E-02 -.922E-03 -.474E-01   -.722E-05 0.841E-05 -.442E-03
   0.801E-05 0.163E-01 0.129E+04   -.387E-05 -.161E-01 -.130E+04   0.125E-04 -.278E-03 0.348E+01   -.103E-04 -.486E-05 -.116E-02
   -.225E+00 0.221E+00 0.129E+04   0.232E+00 -.227E+00 -.130E+04   -.992E-02 0.814E-02 0.347E+01   0.721E-05 -.135E-04 -.119E-02
   -.298E-04 0.739E+00 -.130E+04   0.240E-04 -.744E+00 0.130E+04   -.195E-05 -.508E-01 -.547E+01   0.946E-05 0.678E-04 0.386E-04
   -.787E+00 0.373E+00 -.130E+04   0.820E+00 -.440E+00 0.130E+04   0.171E-01 0.863E-01 -.548E+01   -.648E-04 -.136E-04 0.465E-04
   0.773E-05 0.490E-01 -.424E+03   -.357E-05 -.501E-01 0.424E+03   0.410E-05 0.243E-02 0.162E+00   -.717E-05 -.160E-05 -.451E-03
   -.212E+01 0.194E+01 -.424E+03   0.208E+01 -.189E+01 0.423E+03   0.573E-01 -.732E-01 0.500E+00   -.410E-05 -.239E-04 -.468E-03
   0.188E-05 -.630E+00 0.426E+03   -.147E-04 0.636E+00 -.426E+03   0.118E-05 -.105E-01 -.491E-01   0.134E-04 0.196E-05 -.437E-03
   -.103E+01 -.109E+00 0.423E+03   0.980E+00 0.114E+00 -.423E+03   0.718E-01 -.575E-02 -.168E+00   0.159E-04 -.332E-05 -.434E-03
   0.595E-05 -.162E-01 0.129E+04   -.582E-05 0.161E-01 -.130E+04   0.827E-05 0.231E-03 0.347E+01   -.497E-05 0.949E-05 -.124E-02
   -.216E+00 -.221E+00 0.129E+04   0.221E+00 0.227E+00 -.130E+04   -.706E-02 -.824E-02 0.347E+01   0.129E-04 0.120E-04 -.108E-02
   -.183E-04 -.741E+00 -.130E+04   0.267E-04 0.749E+00 0.130E+04   0.846E-05 0.478E-01 -.546E+01   -.145E-04 -.651E-04 0.524E-04
   -.661E+01 -.658E+00 -.129E+04   0.643E+01 0.725E+00 0.130E+04   0.514E+00 -.897E-01 -.458E+01   0.684E-04 0.131E-04 0.417E-04
   -.698E-05 -.581E-01 -.422E+03   0.878E-06 0.595E-01 0.422E+03   0.348E-05 -.371E-02 0.474E+00   0.464E-05 -.514E-05 -.496E-03
   -.172E+01 -.188E+01 -.424E+03   0.167E+01 0.184E+01 0.423E+03   0.791E-01 0.740E-01 0.482E+00   -.122E-04 0.172E-04 -.480E-03
   -.172E-04 0.103E+01 0.423E+03   0.188E-04 -.977E+00 -.422E+03   -.145E-05 -.758E-01 -.183E+00   -.555E-06 -.354E-04 -.452E-03
   0.627E+00 0.989E-01 0.426E+03   -.633E+00 -.983E-01 -.426E+03   0.880E-02 -.922E-03 -.474E-01   0.490E-05 0.115E-04 -.439E-03
   -.777E-05 0.253E-01 0.129E+04   0.392E-05 -.270E-01 -.130E+04   -.127E-04 0.250E-02 0.347E+01   0.110E-04 -.866E-05 -.126E-02
   0.225E+00 0.221E+00 0.129E+04   -.232E+00 -.227E+00 -.130E+04   0.992E-02 0.813E-02 0.347E+01   -.841E-05 -.430E-05 -.121E-02
   -.886E-06 0.825E+01 -.130E+04   0.247E-07 -.818E+01 0.130E+04   0.309E-06 -.442E+00 -.473E+01   0.627E-06 -.739E-04 0.232E-04
   0.787E+00 0.373E+00 -.130E+04   -.820E+00 -.440E+00 0.130E+04   -.171E-01 0.863E-01 -.548E+01   0.652E-04 0.415E-05 0.390E-04
   -.187E-04 0.477E+00 -.422E+03   0.132E-04 -.502E+00 0.422E+03   -.628E-05 0.381E-01 0.466E+00   0.105E-04 -.100E-04 -.513E-03
   0.212E+01 0.194E+01 -.424E+03   -.208E+01 -.189E+01 0.423E+03   -.572E-01 -.733E-01 0.500E+00   -.936E-05 -.216E-05 -.468E-03
   -.153E-04 -.104E+01 0.423E+03   0.181E-04 0.989E+00 -.423E+03   0.653E-06 0.689E-01 -.151E+00   -.344E-05 0.234E-04 -.462E-03
   0.103E+01 -.109E+00 0.423E+03   -.980E+00 0.114E+00 -.423E+03   -.718E-01 -.575E-02 -.168E+00   -.264E-04 -.170E-05 -.438E-03
   -.549E-05 -.252E-01 0.129E+04   0.590E-05 0.271E-01 -.130E+04   -.931E-05 -.260E-02 0.345E+01   0.407E-05 0.672E-05 -.122E-02
   0.216E+00 -.221E+00 0.129E+04   -.221E+00 0.227E+00 -.130E+04   0.706E-02 -.823E-02 0.347E+01   -.165E-04 -.183E-05 -.121E-02
   0.159E-04 -.541E+01 -.129E+04   -.241E-04 0.511E+01 0.130E+04   -.224E-05 0.619E+00 -.447E+01   0.989E-05 0.610E-04 0.632E-04
   0.661E+01 -.658E+00 -.129E+04   -.643E+01 0.725E+00 0.130E+04   -.514E+00 -.897E-01 -.458E+01   -.576E-04 -.111E-04 0.462E-04
   0.319E-05 -.737E+00 -.446E+03   0.383E-05 0.767E+00 0.447E+03   -.896E-06 -.436E-01 -.985E+00   -.687E-05 0.148E-04 -.452E-03
   0.172E+01 -.188E+01 -.424E+03   -.167E+01 0.184E+01 0.423E+03   -.791E-01 0.740E-01 0.482E+00   0.785E-05 0.154E-04 -.451E-03
   -.242E-05 -.480E+00 0.171E+02   -.462E-13 -.542E-13 0.108E-11   0.940E-05 0.477E+00 -.174E+02   0.335E-05 -.314E-04 -.343E-01

 POSITION                                       TOTAL-FORCE (eV/Angst)
      0.00000      6.33078      3.91324         0.000001     -0.000922      0.314478
      2.11025      0.00004      3.91324         0.000997     -0.000155      0.315047
      0.00000      0.00004      6.02349         0.000003      0.000346      0.036691
      2.11025      6.33078      6.02349         0.015398     -0.013085      0.038611
      0.00000      6.32811      8.14287         0.000002      0.027616      0.083649
      2.11247      8.44094      8.14320        -0.025992     -0.004399      0.084901
      0.00000      8.44064     10.24357        -0.000001     -0.001232      0.126946
      2.10755      6.33108     10.23649        -0.049049      0.089492      0.159792
      0.00000      2.11029      3.91324        -0.000003      0.000979      0.315302
      2.11025      4.22054      3.91324         0.002106      0.000202      0.319449
      0.00000      4.22054      6.02349         0.000001     -0.001360      0.051352
      2.11025      2.11029      6.02349         0.010200      0.011833      0.035029
      8.44098      2.11222      8.14329        -0.000001     -0.027413      0.082973
      2.12092      4.21975      8.15691        -0.008575      0.004947     -0.001516
      0.00000      4.21960     10.23958        -0.000001     -0.000387      0.164484
      2.10919      2.10803     10.23880        -0.113198     -0.093162      0.121475
      4.22049      6.33078      3.91324        -0.000001     -0.002032      0.320483
      6.33074      0.00004      3.91324        -0.000997     -0.000152      0.315043
      4.22049      0.00004      6.02349        -0.000001     -0.004663      0.052112
      6.33074      6.33078      6.02349        -0.015400     -0.013088      0.038612
      4.22049      6.31972      8.15756         0.000000      0.009244      0.023082
      6.32851      8.44094      8.14320         0.025992     -0.004397      0.084919
      4.22049      0.00199     10.23937         0.000002     -0.050181      0.171270
      6.33344      6.33108     10.23649         0.049048      0.089494      0.159780
      4.22049      2.11029      3.91324         0.000002      0.002076      0.318448
      6.33074      4.22054      3.91324        -0.002105      0.000198      0.319445
      4.22049      4.22054      6.02349        -0.000002      0.003396      0.067119
      6.33074      2.11029      6.02349        -0.010202      0.011833      0.035036
      4.22049      2.12032      8.15594         0.000003     -0.010668     -0.015443
      6.32007      4.21975      8.15691         0.008575      0.004942     -0.001448
      4.22049      4.20904     10.38333        -0.000002      0.118074     -0.764541
      6.33179      2.10803     10.23880         0.113199     -0.093164      0.121467
      0.00000      6.33078      6.02349        -0.000002      0.002388      0.075621
      2.11025      0.00004      6.02349        -0.003238     -0.000368      0.074665
      0.00000      0.00004      3.91324         0.000006      0.000010     -0.532168
      2.11025      6.33078      3.91324        -0.002730      0.002306     -0.534200
      8.44098      6.33489     10.30169         0.000002     -0.055841     -0.106200
      2.10521      8.44023     10.30240         0.049718      0.019782     -0.108541
      8.44098      8.44046      8.13976         0.000001      0.001306     -0.033080
      2.10968      6.33160      8.14270         0.018682     -0.026810     -0.011946
      0.00000      2.11029      6.02349         0.000002     -0.003564      0.074469
      2.11025      4.22054      6.02349         0.016814     -0.001102      0.106668
      0.00000      4.22054      3.91324         0.000003      0.000171     -0.534657
      2.11025      2.11029      3.91324        -0.001890     -0.002142     -0.533869
      0.00000      2.10492     10.30298         0.000002      0.056032     -0.107067
      2.08807      4.21992     10.30232         0.335603     -0.022122      0.113893
      0.00000      4.22035      8.13812         0.000002     -0.002097      0.036525
      2.10871      2.10861      8.14203         0.030398      0.027325      0.002347
      4.22049      6.33078      6.02349        -0.000001     -0.017752      0.105127
      6.33074      0.00004      6.02349         0.003235     -0.000367      0.074665
      4.22049      0.00004      3.91324        -0.000006      0.000822     -0.534746
      6.33074      6.33078      3.91324         0.002729      0.002305     -0.534208
      4.22049      6.35541     10.30990        -0.000000     -0.371667      0.066305
      6.33577      8.44023     10.30240        -0.049718      0.019778     -0.108534
      4.22049      8.43994      8.13822        -0.000002      0.013008      0.030368
      6.33130      6.33160      8.14270        -0.018679     -0.026812     -0.011949
      4.22049      2.11029      6.02349        -0.000000      0.016254      0.107201
      6.33074      4.22054      6.02349        -0.016811     -0.001100      0.106670
      4.22049      4.22054      3.91324        -0.000005     -0.000658     -0.539021
      6.33074      2.11029      3.91324         0.001891     -0.002140     -0.533894
      4.22049      2.08776     10.29781        -0.000001      0.327554      0.150771
      6.35291      4.21992     10.30232        -0.335606     -0.022123      0.113898
      4.22049      4.22089      8.16097        -0.000001     -0.013911      0.028505
      6.33227      2.10861      8.14203        -0.030395      0.027327      0.002340
    total drift:                                0.000010     -0.003368     -0.342288

  FREE ENERGIE OF THE ION-ELECTRON SYSTEM (eV)
  free  energy   TOTEN  =      -375.56524797 eV

  energy  without entropy=     -375.56524797  energy(sigma->0) =     -375.56524797

 writing wavefunctions