 vasp.6.4.2 20Jul23 (build Feb 22 2024 13:53:45) complex
 executed on              LinuxNV date 2024.08.27  22:40:14
 OpenACC runtime initialized ...    4 GPUs detected

 INCAR:
   SYSTEM = Oxide-Surface
   ISMEAR = 0
   SIGMA = 0.05
   EDIFF = 1E-5
   ALGO = Normal
   IBRION = -1
   NSW = 0
   ISYM = 0
   DIPOL = 0.5 0.5 0.5
   IDIPOL = 3
   LDIPOL = .TRUE.
   ISTART = 0
   LHFCALC = .FALSE.
   GGA = PE
   IVDW = 21
   VDW_SR = 0.96
   HFRCUT = -1
   ENCUT = 1000
   PREC = Normal
   PRECFOCK = Normal
   LASPH = .TRUE.
   LREAL = Auto
   ISPIN = 1
   NELM = 200
   NELMIN = 8
   NCORE = 1
   KPAR = 1
   LWAVE = .FALSE.
   LCHARG = .FALSE.

 POTCAR:    PAW_PBE Mg_sv 12Apr2007
 POTCAR:    PAW_PBE O_h 06Feb2004
 POTCAR:    PAW_PBE Mg_sv 12Apr2007
   VRHFIN =Mg: p6s2

   TITEL  = PAW_PBE Mg_sv 12Apr2007
   POMASS =   24.305; ZVAL   =   10.000    mass and valenz
   ENMAX  =  495.223; ENMIN  =  371.417 eV

   TITEL  = PAW_PBE O_h 06Feb2004
   POMASS =   16.000; ZVAL   =    6.000    mass and valenz
   ENMAX  =  700.000; ENMIN  =  500.000 eV

 Optimization of the real space projectors (new method)

 maximal supplied QI-value         = 22.11
 optimisation between [QCUT,QGAM] = [ 16.14, 32.28] = [ 72.95,291.79] Ry
 Optimized for a Real-space Cutoff    0.98 Angstroem

   l    n(q)    QCUT    max X(q) W(low)/X(q) W(high)/X(q)  e(spline)
   0      9    16.140     8.730    0.14E-04    0.12E-04    0.27E-07
   0      9    16.140     8.910    0.19E-04    0.17E-04    0.41E-07
   1      9    16.140     2.513    0.16E-04    0.28E-04    0.54E-07
   1      9    16.140     3.341    0.27E-04    0.13E-03    0.17E-06
   2      9    16.140     3.683    0.18E-03    0.21E-03    0.81E-07
 Optimization of the real space projectors (new method)

 maximal supplied QI-value         = 34.20
 optimisation between [QCUT,QGAM] = [ 16.08, 32.15] = [ 72.37,289.48] Ry
 Optimized for a Real-space Cutoff    0.71 Angstroem

   l    n(q)    QCUT    max X(q) W(low)/X(q) W(high)/X(q)  e(spline)
   0      7    16.076   280.207    0.42E-03    0.69E-03    0.60E-07
   0      7    16.076   228.978    0.42E-03    0.69E-03    0.61E-07
   1      6    16.076    86.127    0.11E-03    0.66E-03    0.10E-06
   1      6    16.076    65.368    0.11E-03    0.65E-03    0.10E-06
  PAW_PBE Mg_sv 12Apr2007               :
  PAW_PBE O_h 06Feb2004                 :

 POSCAR: Mg  O
  positions in direct lattice
 exchange correlation table for  LEXCH =        8
   RHO(1)=    0.500       N(1)  =     2000
   RHO(2)=  100.500       N(2)  =     4000

 ion  position               nearest neighbor table
   1  0.000  0.750  0.230-
   2  0.250  0.000  0.230-
   3  0.000  0.000  0.354-
   4  0.250  0.750  0.354-
   5  0.000  0.750  0.479-
   6  0.250  1.000  0.479-
   7  0.000  1.000  0.603-
   8  0.250  0.750  0.602-
   9  0.000  0.250  0.230-
  10  0.250  0.500  0.230-
  11  0.000  0.500  0.354-
  12  0.250  0.250  0.354-
  13  1.000  0.250  0.479-
  14  0.251  0.500  0.480-
  15  0.000  0.500  0.602-
  16  0.250  0.250  0.602-
  17  0.500  0.750  0.230-
  18  0.750  0.000  0.230-
  19  0.500  0.000  0.354-
  20  0.750  0.750  0.354-
  21  0.500  0.749  0.480-
  22  0.750  1.000  0.479-
  23  0.500  0.000  0.602-
  24  0.750  0.750  0.602-
  25  0.500  0.250  0.230-
  26  0.750  0.500  0.230-
  27  0.500  0.500  0.354-
  28  0.750  0.250  0.354-
  29  0.500  0.251  0.480-
  30  0.749  0.500  0.480-
  31  0.500  0.499  0.611-
  32  0.750  0.250  0.602-
  33  0.000  0.750  0.354-
  34  0.250  0.000  0.354-
  35  0.000  0.000  0.230-
  36  0.250  0.750  0.230-
  37  1.000  0.750  0.606-
  38  0.249  1.000  0.606-
  39  1.000  1.000  0.479-
  40  0.250  0.750  0.479-
  41  0.000  0.250  0.354-
  42  0.250  0.500  0.354-
  43  0.000  0.500  0.230-
  44  0.250  0.250  0.230-
  45  0.000  0.249  0.606-
  46  0.247  0.500  0.606-
  47  0.000  0.500  0.479-
  48  0.250  0.250  0.479-
  49  0.500  0.750  0.354-
  50  0.750  0.000  0.354-
  51  0.500  0.000  0.230-
  52  0.750  0.750  0.230-
  53  0.500  0.753  0.606-
  54  0.751  1.000  0.606-
  55  0.500  1.000  0.479-
  56  0.750  0.750  0.479-
  57  0.500  0.250  0.354-
  58  0.750  0.500  0.354-
  59  0.500  0.500  0.230-
  60  0.750  0.250  0.230-
  61  0.500  0.247  0.606-
  62  0.753  0.500  0.606-
  63  0.500  0.500  0.480-
  64  0.750  0.250  0.479-

IMPORTANT INFORMATION: All symmetrisations will be switched off!
NOSYMM: (Re-)initialisation of all symmetry stuff for point group C_1.

                                     Primitive cell

  volume of cell :    1211.2538

  direct lattice vectors                    reciprocal lattice vectors
     8.440984654  0.000000000  0.000000000     0.118469591  0.000000000  0.000000000
     0.000000000  8.440984654  0.000000000     0.000000000  0.118469591  0.000000000
     0.000000000  0.000000000 17.000000000     0.000000000  0.000000000  0.058823529

  length of vectors
     8.440984654  8.440984654 17.000000000     0.118469591  0.118469591  0.058823529

  position of ions in fractional coordinates (direct lattice)
     0.000000001  0.750005063  0.230190625
     0.250000001  0.000005063  0.230190625
     0.000000001  0.000005063  0.354322752
     0.250000001  0.750005063  0.354322752
     0.000000003  0.749688989  0.478992539
     0.250263523  0.999994937  0.479012029
     0.000000001  0.999958952  0.602562889
     0.249680170  0.750040946  0.602146405
     0.000000001  0.250005063  0.230190625
     0.250000001  0.500005063  0.230190625
     0.000000001  0.500005063  0.354322752
     0.250000001  0.250005063  0.354322752
     0.999999996  0.250234310  0.479017192
     0.251264403  0.499912485  0.479817993
     0.000000018  0.499894003  0.602327959
     0.249874846  0.249737023  0.602282337
     0.500000001  0.750005063  0.230190625
     0.750000001  0.000005063  0.230190625
     0.500000001  0.000005063  0.354322752
     0.750000001  0.750005063  0.354322752
     0.499999997  0.748694190  0.479856547
     0.749736478  0.999994937  0.479012045
     0.499999996  0.000235948  0.602315670
     0.750319839  0.750040932  0.602146398
     0.500000001  0.250005063  0.230190625
     0.750000001  0.500005063  0.230190625
     0.500000001  0.500005063  0.354322752
     0.750000001  0.250005063  0.354322752
     0.500000000  0.251193808  0.479761393
     0.748735611  0.499912479  0.479818037
     0.500000034  0.498643644  0.610784368
     0.750125162  0.249737020  0.602282348
     0.000000001  0.750005063  0.354322752
     0.250000001  0.000005063  0.354322752
     0.000000001  0.000005063  0.230190625
     0.250000001  0.750005063  0.230190625
     0.999999999  0.750491851  0.605981896
     0.249403678  0.999911150  0.606023354
     0.999999998  0.999937384  0.478809541
     0.249933155  0.750101855  0.478982330
     0.000000001  0.250005063  0.354322752
     0.250000001  0.500005063  0.354322752
     0.000000001  0.500005063  0.230190625
     0.250000001  0.250005063  0.230190625
     0.000000003  0.249368438  0.606057731
     0.247373171  0.499932707  0.606018755
     0.000000006  0.499983562  0.478713219
     0.249818530  0.249806475  0.478943030
     0.500000001  0.750005063  0.354322752
     0.750000001  0.000005063  0.354322752
     0.500000001  0.000005063  0.230190625
     0.750000001  0.750005063  0.230190625
     0.499999997  0.752922771  0.606464953
     0.750596323  0.999911142  0.606023376
     0.500000001  0.999876204  0.478718645
     0.750066840  0.750101852  0.478982337
     0.500000001  0.250005063  0.354322752
     0.750000001  0.500005063  0.354322752
     0.500000001  0.500005063  0.230190625
     0.750000001  0.250005063  0.230190625
     0.500000003  0.247335548  0.605753670
     0.752626877  0.499932691  0.606018757
     0.500000006  0.500046709  0.480056781
     0.750181474  0.249806464  0.478943037

  ion indices of the primitive-cell ions
   primitive index   ion index
                 1           1
                 2           2
                 3           3
                 4           4
                 5           5
                 6           6
                 7           7
                 8           8
                 9           9
                10          10
                11          11
                12          12
                13          13
                14          14
                15          15
                16          16
                17          17
                18          18
                19          19
                20          20
                21          21
                22          22
                23          23
                24          24
                25          25
                26          26
                27          27
                28          28
                29          29
                30          30
                31          31
                32          32
                33          33
                34          34
                35          35
                36          36
                37          37
                38          38
                39          39
                40          40
                41          41
                42          42
                43          43
                44          44
                45          45
                46          46
                47          47
                48          48
                49          49
                50          50
                51          51
                52          52
                53          53
                54          54
                55          55
                56          56
                57          57
                58          58
                59          59
                60          60
                61          61
                62          62
                63          63
                64          64

 KPOINTS: pymatgen v2020.8.13 with grid density =

Automatic generation of k-mesh.
 Grid dimensions read from file:
 generate k-points for:    2    2    1

 Generating k-lattice:

  Cartesian coordinates                     Fractional coordinates (reciprocal lattice)
     0.059234796  0.000000000  0.000000000     0.500000000  0.000000000  0.000000000
     0.000000000  0.059234796  0.000000000     0.000000000  0.500000000  0.000000000
     0.000000000  0.000000000  0.058823529     0.000000000  0.000000000  1.000000000

  Length of vectors
     0.059234796  0.059234796  0.058823529

  Shift w.r.t. Gamma in fractional coordinates (k-lattice)
     0.000000000  0.000000000  0.000000000

 Subroutine IBZKPT returns following result:

 Found      4 irreducible k-points:

 Following reciprocal coordinates:
            Coordinates               Weight
  0.000000  0.000000  0.000000      1.000000
  0.500000  0.000000  0.000000      1.000000
  0.000000  0.500000  0.000000      1.000000
  0.500000  0.500000  0.000000      1.000000

 Following cartesian coordinates:
            Coordinates               Weight
  0.000000  0.000000  0.000000      1.000000
  0.059235  0.000000  0.000000      1.000000
  0.000000  0.059235  0.000000      1.000000
  0.059235  0.059235  0.000000      1.000000

 SYSTEM =  Oxide-Surface
 POSCAR =  Mg  O

  energy-cutoff  :     1000.00
[...]
   O         183.649          4.817         18.528          3.43107939
   O         167.278          4.742         17.683          3.27457857
   O         167.128          4.742         17.675          3.27311675
   O         164.902          4.731         17.557          3.25124635
   O         164.051          4.727         17.511          3.24283795
   O         184.933          4.822         18.592          3.44305521
   O         189.435          4.842         18.817          3.48470514

  vdW correction parametrized for the method °#U    þ

  IVDW =  21
  VDW_RADIUS =    50.000 A
  VDW_IDAMPF =  0
  VDW_S6 =     1.000
  VDW_SR =     0.960
  VDW_D =    20.000
  LVDW_ONECELL = F F F
  LVDW_SAMETYPE T T
  LVDW_EWALD = F

  Number of pair interactions contributing to vdW energy:  892100
  Edisp (eV):   -3.59266

  FORCE on cell =-STRESS in cart. coord.  units (eV):
  Direction    XX          YY          ZZ          XY          YZ          ZX
  Alpha Z  1191.54525  1191.54525  1191.54525
  Ewald  112195.14665112195.40277************     0.00000     0.46211     0.00002
  Hartree128770.96755128771.10967************    -0.00000     0.23535     0.00002
  E(xc)   -3223.63580 -3223.63535 -3229.80026    -0.00000    -0.00079     0.00000
  Local  ************************250762.22051     0.00000    -0.66506    -0.00003
  n-local -5620.23269 -5620.23388 -5620.50593     0.00000    -0.00551    -0.00000
  augment   724.01228   724.01477   714.70105     0.00000    -0.00558    -0.00000
  Kinetic 12492.65850 12492.66043 12509.62949    -0.00001     0.05237    -0.00000
  Fock        0.00000     0.00000     0.00000     0.00000     0.00000     0.00000
  vdW        -5.09719    -5.09717    -3.47651    -0.00000     0.00029    -0.00000
  Total     -21.00342   -20.99429     4.03865    -0.00000     0.07318    -0.00000
  in kB     -27.78212   -27.77005     5.34209    -0.00000     0.09680    -0.00000

 VOLUME and BASIS-vectors are now :
  energy-cutoff  :     1000.00
  volume of cell :     1211.25
      direct lattice vectors                 reciprocal lattice vectors
     8.440984654  0.000000000  0.000000000     0.118469591  0.000000000  0.000000000
     0.000000000  8.440984654  0.000000000     0.000000000  0.118469591  0.000000000
     0.000000000  0.000000000 17.000000000     0.000000000  0.000000000  0.058823529

  length of vectors
     8.440984654  8.440984654 17.000000000     0.118469591  0.118469591  0.058823529

 FORCES acting on ions
    electron-ion (+dipol)            ewald-force                    non-local-force                 convergence-correction
   0.212E-04 0.367E+00 0.245E+04   -.949E-05 -.371E+00 -.244E+04   -.709E-06 0.339E-02 -.913E+01   -.837E-05 -.279E-04 -.116E-02
   -.367E+00 0.423E-01 0.245E+04   0.371E+00 -.433E-01 -.244E+04   -.338E-02 0.747E-03 -.914E+01   -.385E-04 0.284E-04 -.109E-02
   0.451E-04 0.880E-01 0.813E+03   -.303E-04 -.861E-01 -.813E+03   0.887E-05 -.161E-02 0.609E+00   -.239E-04 0.116E-04 0.393E-02
   -.209E+01 0.202E+01 0.810E+03   0.215E+01 -.207E+01 -.811E+03   -.491E-01 0.401E-01 0.743E+00   0.105E-04 -.196E-04 0.390E-02
   0.530E-04 0.110E+01 -.816E+03   -.178E-04 -.108E+01 0.816E+03   -.510E-05 0.179E-01 -.236E+00   -.343E-04 -.373E-04 0.591E-02
   -.113E+01 0.502E+00 -.817E+03   0.112E+01 -.503E+00 0.817E+03   -.190E-01 -.377E-02 -.238E+00   -.447E-04 -.113E-04 0.595E-02
   0.155E-04 0.248E+00 -.243E+04   0.231E-04 -.237E+00 0.242E+04   0.204E-04 -.928E-02 0.751E+01   -.614E-04 0.376E-04 -.284E-03
   -.410E+01 0.294E+01 -.242E+04   0.369E+01 -.242E+01 0.241E+04   0.370E+00 -.433E+00 0.763E+01   0.176E-03 -.198E-03 -.115E-03
   0.139E-04 -.367E+00 0.245E+04   -.894E-05 0.371E+00 -.244E+04   -.152E-06 -.313E-02 -.914E+01   -.381E-05 -.327E-05 -.113E-02
   -.442E+00 -.430E-01 0.245E+04   0.453E+00 0.437E-01 -.244E+04   -.865E-02 -.402E-03 -.917E+01   -.169E-04 -.690E-04 -.118E-02
   0.736E-04 -.958E-01 0.811E+03   -.620E-04 0.899E-01 -.811E+03   0.541E-05 0.452E-02 0.583E+00   -.183E-04 0.306E-04 0.382E-02
   -.193E+01 -.202E+01 0.811E+03   0.198E+01 0.207E+01 -.811E+03   -.304E-01 -.366E-01 0.735E+00   0.616E-04 0.559E-04 0.386E-02
   0.371E-04 -.108E+01 -.817E+03   0.108E-04 0.107E+01 0.817E+03   0.467E-05 -.186E-01 -.216E+00   -.549E-04 0.162E-04 0.598E-02
   -.628E+01 -.620E+00 -.826E+03   0.673E+01 0.623E+00 0.826E+03   -.454E+00 0.401E-02 -.379E+00   0.139E-03 -.334E-04 0.616E-02
   -.353E-04 -.243E+00 -.242E+04   0.991E-04 0.227E+00 0.242E+04   0.279E-04 0.184E-01 0.739E+01   -.901E-04 -.150E-04 -.444E-03
   -.163E+01 -.235E+01 -.242E+04   0.101E+01 0.181E+01 0.242E+04   0.503E+00 0.452E+00 0.770E+01   0.179E-03 0.226E-03 -.161E-03
   -.487E-04 0.442E+00 0.245E+04   0.955E-05 -.453E+00 -.244E+04   -.177E-04 0.865E-02 -.917E+01   0.545E-04 -.729E-05 -.122E-02
   0.367E+00 0.423E-01 0.245E+04   -.371E+00 -.433E-01 -.244E+04   0.340E-02 0.721E-03 -.914E+01   0.932E-06 0.698E-04 -.109E-02
   -.254E-04 0.260E+00 0.811E+03   0.328E-04 -.281E+00 -.811E+03   0.121E-04 0.154E-01 0.581E+00   -.177E-04 0.114E-04 0.378E-02
   0.209E+01 0.202E+01 0.810E+03   -.215E+01 -.207E+01 -.811E+03   0.491E-01 0.401E-01 0.743E+00   -.220E-05 -.669E-04 0.390E-02
   -.520E-04 0.659E+01 -.829E+03   0.902E-05 -.703E+01 0.829E+03   -.123E-04 0.447E+00 -.338E+00   0.573E-04 -.136E-03 0.612E-02
   0.113E+01 0.502E+00 -.817E+03   -.112E+01 -.503E+00 0.817E+03   0.190E-01 -.376E-02 -.238E+00   0.421E-04 -.258E-04 0.603E-02
   -.546E-04 0.153E+01 -.242E+04   0.240E-05 -.174E+01 0.242E+04   -.470E-04 0.152E+00 0.736E+01   0.954E-04 -.278E-04 -.328E-03
   0.410E+01 0.294E+01 -.242E+04   -.369E+01 -.242E+01 0.241E+04   -.370E+00 -.433E+00 0.763E+01   -.212E-03 -.172E-03 -.211E-03
   -.279E-04 -.442E+00 0.245E+04   0.919E-05 0.453E+00 -.244E+04   -.128E-04 -.836E-02 -.916E+01   0.293E-04 0.321E-04 -.119E-02
   0.442E+00 -.431E-01 0.245E+04   -.453E+00 0.437E-01 -.244E+04   0.867E-02 -.426E-03 -.917E+01   -.169E-04 0.600E-05 -.118E-02
   -.658E-04 -.269E+00 0.805E+03   0.663E-04 0.284E+00 -.805E+03   0.304E-07 -.118E-01 0.922E+00   -.173E-06 -.463E-04 0.407E-02
   0.193E+01 -.202E+01 0.811E+03   -.198E+01 0.207E+01 -.811E+03   0.304E-01 -.366E-01 0.735E+00   -.527E-05 -.385E-05 0.384E-02
   -.526E-04 -.610E+01 -.824E+03   0.194E-04 0.653E+01 0.824E+03   0.268E-06 -.438E+00 -.376E+00   0.360E-04 0.209E-03 0.622E-02
   0.628E+01 -.620E+00 -.826E+03   -.673E+01 0.623E+00 0.826E+03   0.454E+00 0.399E-02 -.379E+00   -.593E-04 -.145E-04 0.620E-02
   0.730E-04 -.621E+01 -.248E+04   -.111E-03 0.609E+01 0.247E+04   0.804E-05 0.249E+00 0.902E+01   0.406E-04 -.431E-04 -.699E-03
   0.163E+01 -.235E+01 -.242E+04   -.101E+01 0.181E+01 0.242E+04   -.503E+00 0.452E+00 0.770E+01   -.148E-03 0.235E-03 -.220E-03
   0.279E-04 0.735E+00 0.487E+03   -.226E-04 -.740E+00 -.487E+03   0.469E-05 0.687E-02 -.156E-01   -.943E-05 -.590E-04 -.596E-03
   -.743E+00 0.116E+00 0.487E+03   0.751E+00 -.115E+00 -.487E+03   -.116E-01 -.147E-02 -.246E-01   -.796E-05 0.190E-04 -.717E-03
   -.233E-04 0.191E-01 0.148E+04   -.465E-05 -.188E-01 -.149E+04   0.578E-06 -.516E-03 0.265E+01   0.252E-04 0.264E-04 -.160E-02
   -.254E+00 0.249E+00 0.148E+04   0.264E+00 -.257E+00 -.149E+04   -.125E-01 0.101E-01 0.263E+01   -.120E-04 0.114E-04 -.156E-02
   -.234E-04 0.949E+00 -.149E+04   0.284E-04 -.906E+00 0.150E+04   0.111E-04 -.949E-01 -.516E+01   -.116E-04 -.351E-04 -.115E-02
   -.103E+01 0.493E+00 -.149E+04   0.102E+01 -.577E+00 0.150E+04   0.560E-01 0.105E+00 -.516E+01   0.128E-05 -.199E-04 -.119E-02
   0.707E-04 0.584E-01 -.485E+03   -.298E-05 -.612E-01 0.484E+03   0.185E-04 0.191E-02 0.169E+00   -.754E-04 -.106E-04 0.101E-02
   -.241E+01 0.220E+01 -.484E+03   0.236E+01 -.213E+01 0.483E+03   0.741E-01 -.965E-01 0.523E+00   0.536E-04 -.652E-04 0.100E-02
   0.352E-04 -.745E+00 0.487E+03   -.173E-04 0.755E+00 -.487E+03   0.620E-05 -.138E-01 -.265E-01   -.219E-04 -.490E-05 -.609E-03
   -.106E+01 -.132E+00 0.483E+03   0.994E+00 0.138E+00 -.483E+03   0.851E-01 -.682E-02 -.115E+00   0.757E-04 -.571E-04 -.578E-03
   0.586E-04 -.190E-01 0.148E+04   -.705E-05 0.188E-01 -.149E+04   0.608E-05 0.173E-03 0.264E+01   -.511E-04 -.141E-04 -.153E-02
   -.242E+00 -.248E+00 0.148E+04   0.249E+00 0.256E+00 -.149E+04   -.895E-02 -.106E-01 0.263E+01   -.483E-04 -.153E-04 -.152E-02
   -.485E-05 -.953E+00 -.149E+04   0.308E-04 0.914E+00 0.150E+04   0.264E-04 0.889E-01 -.514E+01   -.420E-04 0.957E-05 -.121E-02
   -.770E+01 -.821E+00 -.149E+04   0.721E+01 0.907E+00 0.149E+04   0.812E+00 -.108E+00 -.407E+01   0.188E-03 -.186E-05 -.125E-02
   0.238E-04 -.692E-01 -.482E+03   0.198E-05 0.723E-01 0.481E+03   0.114E-04 -.495E-02 0.522E+00   -.329E-04 0.177E-04 0.100E-02
   -.195E+01 -.214E+01 -.483E+03   0.188E+01 0.207E+01 0.483E+03   0.107E+00 0.100E+00 0.513E+00   0.576E-04 0.103E-03 0.981E-03
   -.309E-04 0.106E+01 0.483E+03   0.227E-04 -.988E+00 -.483E+03   -.593E-05 -.901E-01 -.131E+00   0.132E-04 -.109E-03 -.525E-03
   0.743E+00 0.116E+00 0.487E+03   -.751E+00 -.115E+00 -.487E+03   0.116E-01 -.148E-02 -.246E-01   0.515E-04 0.511E-04 -.690E-03
   -.129E-04 0.308E-01 0.148E+04   0.472E-05 -.331E-01 -.149E+04   -.585E-05 0.296E-02 0.264E+01   0.115E-04 -.183E-04 -.157E-02
   0.254E+00 0.249E+00 0.148E+04   -.264E+00 -.257E+00 -.149E+04   0.125E-01 0.101E-01 0.263E+01   -.217E-04 -.230E-04 -.157E-02
   -.177E-04 0.977E+01 -.149E+04   -.130E-05 -.935E+01 0.149E+04   -.137E-04 -.780E+00 -.427E+01   0.278E-04 -.182E-03 -.125E-02
   0.103E+01 0.492E+00 -.149E+04   -.102E+01 -.577E+00 0.150E+04   -.560E-01 0.105E+00 -.516E+01   -.167E-04 0.376E-04 -.126E-02
   -.740E-04 0.562E+00 -.482E+03   0.148E-04 -.597E+00 0.481E+03   -.200E-04 0.406E-01 0.517E+00   0.694E-04 -.209E-04 0.104E-02
   0.241E+01 0.220E+01 -.484E+03   -.236E+01 -.213E+01 0.483E+03   -.741E-01 -.965E-01 0.523E+00   -.682E-04 -.172E-04 0.103E-02
   -.199E-04 -.107E+01 0.483E+03   0.216E-04 0.101E+01 -.483E+03   0.571E-05 0.815E-01 -.977E-01   -.621E-05 0.128E-03 -.591E-03
   0.106E+01 -.132E+00 0.483E+03   -.994E+00 0.138E+00 -.483E+03   -.851E-01 -.684E-02 -.115E+00   -.601E-04 0.489E-05 -.576E-03
   -.556E-04 -.306E-01 0.148E+04   0.718E-05 0.331E-01 -.149E+04   -.147E-04 -.336E-02 0.262E+01   0.539E-04 -.780E-05 -.160E-02
   0.242E+00 -.248E+00 0.148E+04   -.249E+00 0.256E+00 -.149E+04   0.895E-02 -.106E-01 0.263E+01   0.189E-04 -.255E-04 -.150E-02
   0.874E-05 -.616E+01 -.148E+04   -.298E-04 0.557E+01 0.149E+04   -.177E-04 0.908E+00 -.393E+01   0.329E-04 0.237E-03 -.120E-02
   0.770E+01 -.821E+00 -.149E+04   -.721E+01 0.907E+00 0.149E+04   -.813E+00 -.108E+00 -.407E+01   -.160E-03 -.645E-04 -.125E-02
   0.265E-04 -.866E+00 -.511E+03   0.345E-05 0.907E+00 0.512E+03   0.202E-05 -.530E-01 -.864E+00   -.285E-04 -.358E-04 0.996E-03
   0.195E+01 -.214E+01 -.483E+03   -.188E+01 0.207E+01 0.483E+03   -.107E+00 0.100E+00 0.513E+00   -.420E-04 0.523E-04 0.105E-02
   0.297E-04 -.533E+00 0.221E+02   0.776E-12 -.507E-12 -.148E-11   -.384E-04 0.544E+00 -.220E+02   0.294E-04 -.785E-04 0.490E-01

 POSITION                                       TOTAL-FORCE (eV/Angst)
      0.00000      6.33078      3.91324         0.000002     -0.001126      0.327166
      2.11025      0.00004      3.91324         0.000998     -0.000346      0.327743
      0.00000      0.00004      6.02349        -0.000001      0.000153      0.029632
      2.11025      6.33078      6.02349         0.015455     -0.013323      0.026971
      0.00000      6.32811      8.14287        -0.000005      0.028871      0.073930
      2.11247      8.44094      8.14320        -0.027839     -0.004645      0.074873
      0.00000      8.44064     10.24357        -0.000003      0.002351      0.101187
      2.10755      6.33108     10.23649        -0.047964      0.089233      0.136485
      0.00000      2.11029      3.91324         0.000001      0.000776      0.327961
      2.11025      4.22054      3.91324         0.002054      0.000017      0.332035
      0.00000      4.22054      6.02349        -0.000002     -0.001546      0.044194
      2.11025      2.11029      6.02349         0.010263      0.011711      0.023407
      8.44098      2.11222      8.14329        -0.000003     -0.029749      0.073064
      2.12092      4.21975      8.15691        -0.006959      0.006635     -0.003043
      0.00000      4.21960     10.23958         0.000001      0.001916      0.139472
      2.10919      2.10803     10.23880        -0.111894     -0.091478      0.095982
      4.22049      6.33078      3.91324        -0.000003     -0.002178      0.333024
      6.33074      0.00004      3.91324        -0.000998     -0.000346      0.327734
      4.22049      0.00004      6.02349         0.000001     -0.004843      0.044961
      6.33074      6.33078      6.02349        -0.015456     -0.013323      0.026979
      4.22049      6.31972      8.15756         0.000002      0.008687      0.019947
      6.32851      8.44094      8.14320         0.027838     -0.004651      0.074851
      4.22049      0.00199     10.23937        -0.000004     -0.054130      0.145141
      6.33344      6.33108     10.23649         0.047964      0.089236      0.136477
      4.22049      2.11029      3.91324        -0.000003      0.001820      0.331050
      6.33074      4.22054      3.91324        -0.002052      0.000018      0.332033
      4.22049      4.22054      6.02349         0.000000      0.003081      0.059115
      6.33074      2.11029      6.02349        -0.010264      0.011710      0.023406
      4.22049      2.12032      8.15594         0.000003     -0.009518     -0.016377
      6.32007      4.21975      8.15691         0.006964      0.006636     -0.003038
      4.22049      4.20904     10.38333         0.000011      0.125970     -0.767784
      6.33179      2.10803     10.23880         0.111895     -0.091486      0.095982
      0.00000      6.33078      6.02349         0.000000      0.002017      0.068577
      2.11025      0.00004      6.02349        -0.003237     -0.000755      0.067607
      0.00000      0.00004      3.91324        -0.000003     -0.000364     -0.506372
      2.11025      6.33078      3.91324        -0.002769      0.001956     -0.515944
      8.44098      6.33489     10.30169         0.000004     -0.052445     -0.095478
      2.10521      8.44023     10.30240         0.046425      0.020127     -0.098017
      8.44098      8.44046      8.13976         0.000011     -0.001156     -0.033070
      2.10968      6.33160      8.14270         0.020779     -0.028516     -0.007864
      0.00000      2.11029      6.02349         0.000002     -0.003936      0.067409
      2.11025      4.22054      6.02349         0.016708     -0.001458      0.098724
      0.00000      4.22054      3.91324         0.000006     -0.000176     -0.508922
      2.11025      2.11029      3.91324        -0.001922     -0.002565     -0.515648
      0.00000      2.10492     10.30298         0.000010      0.049916     -0.093708
      2.08807      4.21992     10.30232         0.327701     -0.021656      0.124356
      0.00000      4.22035      8.13812         0.000004     -0.001921      0.026112
      2.10871      2.10861      8.14203         0.033702      0.030782      0.003483
      4.22049      6.33078      6.02349        -0.000001     -0.018022      0.097132
      6.33074      0.00004      6.02349         0.003230     -0.000759      0.067604
      4.22049      0.00004      3.91324        -0.000003      0.000467     -0.509006
      6.33074      6.33078      3.91324         0.002776      0.001962     -0.515943
      4.22049      6.35541     10.30990        -0.000005     -0.365777      0.067567
      6.33577      8.44023     10.30240        -0.046423      0.020119     -0.098004
      4.22049      8.43994      8.13822        -0.000010      0.005519      0.025975
      6.33130      6.33160      8.14270        -0.020775     -0.028522     -0.007868
      4.22049      2.11029      6.02349         0.000001      0.015774      0.099306
      6.33074      4.22054      6.02349        -0.016712     -0.001465      0.098724
      4.22049      4.22054      3.91324        -0.000010     -0.001014     -0.513538
      6.33074      2.11029      3.91324         0.001924     -0.002562     -0.515651
      4.22049      2.08776     10.29781        -0.000006      0.321100      0.157826
      6.35291      4.21992     10.30232        -0.327710     -0.021650      0.124382
      4.22049      4.22089      8.16097         0.000003     -0.011946      0.042214
      6.33227      2.10861      8.14203        -0.033704      0.030791      0.003472
    total drift:                                0.000021      0.011726      0.101391

  FREE ENERGIE OF THE ION-ELECTRON SYSTEM (eV)
  free  energy   TOTEN  =      -376.15832067 eV

  energy  without entropy=     -376.15832067  energy(sigma->0) =     -376.15832067