 vasp.6.4.2 20Jul23 (build Feb 22 2024 13:53:45) complex
 executed on              LinuxNV date 2024.08.29  11:52:03
 OpenACC runtime initialized ...    4 GPUs detected

 INCAR:
   SYSTEM = Oxide-Surface
   ISMEAR = 0
   SIGMA = 0.05
   EDIFF = 1E-5
   ALGO = Normal
   IBRION = -1
   NSW = 0
   ISYM = 0
   DIPOL = 0.5 0.5 0.5
   IDIPOL = 3
   LDIPOL = .TRUE.
   ISTART = 1
   GGA = PE
   IVDW = 263
   ENCUT = 1000
   PREC = Normal
   PRECFOCK = Normal
   LASPH = .TRUE.
   LREAL = Auto
   ISPIN = 1
   NELM = 200
   NELMIN = 8
   NCORE = 1
   KPAR = 1
   LWAVE = .FALSE.
   LCHARG = .FALSE.

 POTCAR:    PAW_PBE Ti_sv 26Sep2005
 POTCAR:    PAW_PBE O_h 06Feb2004
 POTCAR:    PAW_PBE Ti_sv 26Sep2005
   VRHFIN =Ti: 3p4s3d

   TITEL  = PAW_PBE Ti_sv 26Sep2005
   POMASS =   47.880; ZVAL   =   12.000    mass and valenz
   ENMAX  =  274.610; ENMIN  =  205.957 eV

   TITEL  = PAW_PBE O_h 06Feb2004
   POMASS =   16.000; ZVAL   =    6.000    mass and valenz
   ENMAX  =  700.000; ENMIN  =  500.000 eV

 Optimization of the real space projectors (new method)

 maximal supplied QI-value         = 16.25
 optimisation between [QCUT,QGAM] = [ 16.09, 32.34] = [ 72.49,292.89] Ry
 Optimized for a Real-space Cutoff    1.24 Angstroem

   l    n(q)    QCUT    max X(q) W(low)/X(q) W(high)/X(q)  e(spline)
   0     12    16.089    12.277    0.23E-04    0.54E-05    0.15E-06
   0     12    16.089    11.419    0.26E-04    0.82E-06    0.19E-06
   1     12    16.089     4.010    0.40E-04    0.12E-04    0.58E-06
   1     12    16.089     6.182    0.55E-05    0.28E-04    0.27E-06
   2     11    16.089    47.177    0.17E-03    0.26E-03    0.90E-06
   2     11    16.089    42.437    0.17E-03    0.25E-03    0.88E-06
 Optimization of the real space projectors (new method)

 maximal supplied QI-value         = 34.20
 optimisation between [QCUT,QGAM] = [ 16.08, 32.15] = [ 72.37,289.48] Ry
 Optimized for a Real-space Cutoff    0.71 Angstroem

   l    n(q)    QCUT    max X(q) W(low)/X(q) W(high)/X(q)  e(spline)
   0      7    16.076   280.207    0.42E-03    0.69E-03    0.60E-07
   0      7    16.076   228.978    0.42E-03    0.69E-03    0.61E-07
   1      6    16.076    86.127    0.11E-03    0.66E-03    0.10E-06
   1      6    16.076    65.368    0.11E-03    0.65E-03    0.10E-06
  PAW_PBE Ti_sv 26Sep2005               :
  PAW_PBE O_h 06Feb2004                 :

 POSCAR: Ti  O
  positions in direct lattice
 exchange correlation table for  LEXCH =        8
   RHO(1)=    0.500       N(1)  =     2000
   RHO(2)=  100.500       N(2)  =     4000

 ion  position               nearest neighbor table
   1  0.796  0.625  0.211-  82 1.95 142 1.95 141 1.95  81 1.95  84 1.98 163 1.98
   2  0.046  0.750  0.211-  83 1.95  84 1.95 103 1.95 104 1.95  85 1.98
   3  0.046  0.625  0.341-  85 1.95 145 1.95  86 1.95 146 1.95  87 1.98  88 1.98
   4  0.796  0.750  0.341-  87 1.95 107 1.95 168 1.95 188 1.95  89 1.98  82 1.98
   5  0.796  0.625  0.471-  89 1.95  90 1.95 149 1.95 150 1.95  92 1.98 171 1.98
   6  0.046  0.750  0.471-  91 1.95  92 1.95 111 1.95 112 1.95  86 1.98  93 2.00
   7  0.054  0.625  0.598-  96 1.87 153 1.90  93 1.90  94 2.02 154 2.02  95 2.03
   8  0.803  0.750  0.606-  97 1.87  95 1.93 115 1.93 176 2.01 196 2.01  90 2.10
   9  0.798  0.626  0.739-  98 1.83 158 1.86 179 2.01 100 2.02  97 2.08 157 2.09
  10  0.047  0.750  0.725-  94 1.81 119 1.94 120 1.94  99 1.95 100 1.96
  11  0.796  0.875  0.211-  82 1.95 102 1.95 101 1.95  81 1.95 104 1.98 183 1.98
  12  0.046  0.000  0.211- 103 1.95 104 1.95 123 1.95 124 1.95 105 1.98
  13  0.046  0.875  0.341-  85 1.95 105 1.95  86 1.95 106 1.95 107 1.98 108 1.98
  14  0.796  0.000  0.341- 107 1.95 127 1.95 188 1.95 208 1.95 109 1.98 102 1.98
  15  0.796  0.875  0.471-  89 1.95  90 1.95 109 1.95 110 1.95 112 1.98 191 1.98
  16  0.046  0.000  0.471- 111 1.95 112 1.95 131 1.95 132 1.95 106 1.98 113 2.00
  17  0.054  0.875  0.598- 116 1.87  93 1.90 113 1.90 114 2.02  94 2.02 115 2.04
  18  0.802  1.000  0.606- 117 1.87 115 1.93 135 1.93 216 2.01 196 2.01 110 2.10
  19  0.797  0.875  0.740- 118 1.84  98 1.84 199 2.02 120 2.04  97 2.09 117 2.10
  20  0.047  1.000  0.725- 114 1.81 120 1.95 140 1.95 139 1.95 119 1.95
  21  0.796  0.125  0.211- 102 1.95 122 1.95 121 1.95 101 1.95 124 1.98 203 1.98
  22  0.046  0.250  0.211- 123 1.95 124 1.95 143 1.95 144 1.95 125 1.98
  23  0.046  0.125  0.341- 105 1.95 125 1.95 106 1.95 126 1.95 127 1.98 128 1.98
  24  0.796  0.250  0.341- 127 1.95 147 1.95 208 1.95 228 1.95 129 1.98 122 1.98
  25  0.796  0.125  0.471- 109 1.95 110 1.95 129 1.95 130 1.95 132 1.98 211 1.98
  26  0.046  0.250  0.471- 131 1.95 132 1.95 151 1.95 152 1.95 126 1.98 133 2.00
  27  0.054  0.125  0.598- 136 1.87 133 1.90 113 1.90 114 2.02 134 2.02 135 2.04
  28  0.803  0.250  0.606- 137 1.87 155 1.93 135 1.93 216 2.01 236 2.02 130 2.10
  29  0.797  0.124  0.740- 118 1.83 138 1.84 219 2.02 140 2.04 117 2.09 137 2.10
  30  0.047  0.250  0.725- 134 1.81 139 1.94 140 1.94 159 1.95 160 1.96
  31  0.796  0.375  0.211- 122 1.95 142 1.95 141 1.95 121 1.95 144 1.98 223 1.98
  32  0.046  0.500  0.211-  83 1.95  84 1.95 143 1.95 144 1.95 145 1.98
  33  0.046  0.375  0.341- 125 1.95 145 1.95 126 1.95 146 1.95 147 1.98 148 1.98
  34  0.796  0.500  0.341-  87 1.95 147 1.95 168 1.95 228 1.95 142 1.98 149 1.98
  35  0.796  0.375  0.471- 129 1.95 130 1.95 149 1.95 150 1.95 152 1.98 231 1.98
  36  0.046  0.500  0.471-  91 1.95  92 1.95 151 1.95 152 1.95 146 1.98 153 2.00
  37  0.054  0.375  0.598- 156 1.87 153 1.90 133 1.90 134 2.02 154 2.02 155 2.03
  38  0.803  0.500  0.606- 157 1.86 155 1.93  95 1.93 236 2.02 176 2.02 150 2.10
  39  0.799  0.373  0.739- 138 1.83 158 1.87 160 2.01 239 2.02 137 2.07 157 2.10
  40  0.048  0.500  0.725- 154 1.81  99 1.94 159 1.94 100 1.95 160 1.95
  41  0.296  0.625  0.211- 162 1.95 222 1.95 221 1.95 161 1.95  83 1.98 164 1.98
  42  0.546  0.750  0.211- 163 1.95 164 1.95 183 1.95 184 1.95 165 1.98
  43  0.546  0.625  0.341- 165 1.95 225 1.95 166 1.95 226 1.95 167 1.98 168 1.98
  44  0.296  0.750  0.341-  88 1.95 108 1.95 167 1.95 187 1.95 169 1.98 162 1.98
  45  0.296  0.625  0.471- 169 1.95 170 1.95 229 1.95 230 1.95  91 1.98 172 1.98
  46  0.546  0.750  0.471- 171 1.95 172 1.95 191 1.95 192 1.95 166 1.98 173 1.99
  47  0.554  0.623  0.600- 176 1.87 233 1.90 173 1.93 234 1.99 174 2.01 175 2.04  77 2.91
  48  0.303  0.750  0.606- 177 1.87 175 1.92 195 1.93  96 2.02 116 2.02 170 2.10
  49  0.298  0.625  0.740- 178 1.83 238 1.84  99 2.03 180 2.04 177 2.09 237 2.09
  50  0.548  0.750  0.724- 174 1.80 179 1.91 199 1.94 180 1.95 200 1.96
  51  0.296  0.875  0.211- 162 1.95 182 1.95 181 1.95 161 1.95 103 1.98 184 1.98
  52  0.546  0.000  0.211- 183 1.95 184 1.95 203 1.95 204 1.95 185 1.98
  53  0.546  0.875  0.341- 165 1.95 185 1.95 166 1.95 186 1.95 187 1.98 188 1.98
  54  0.296  0.000  0.341- 108 1.95 128 1.95 187 1.95 207 1.95 189 1.98 182 1.98
  55  0.296  0.875  0.471- 169 1.95 170 1.95 189 1.95 190 1.95 111 1.98 192 1.98
  56  0.546  0.000  0.471- 191 1.95 192 1.95 211 1.95 212 1.95 186 1.98 193 1.98
  57  0.554  0.874  0.597- 196 1.88 173 1.88 193 1.90 174 2.00 194 2.03 195 2.04
  58  0.303  1.000  0.606- 197 1.86 195 1.92 215 1.92 136 2.02 116 2.02 190 2.11
  59  0.298  0.875  0.740- 198 1.83 178 1.84 200 2.02 119 2.04 197 2.10 177 2.10
  60  0.547  1.000  0.724- 194 1.80 200 1.94 220 1.94 219 1.95 199 1.96
[...]
 226  0.546  0.500  0.392-  43 1.95  73 1.95  76 1.98
 227  0.394  0.375  0.341-  64 1.95  74 1.95  73 1.98
 228  0.698  0.375  0.341-  24 1.95  34 1.95  73 1.98
 229  0.296  0.500  0.420-  45 1.95  75 1.95  74 1.98
 230  0.296  0.500  0.522-  45 1.95  75 1.95  78 2.11
 231  0.644  0.375  0.471-  66 1.95  76 1.95  35 1.98
 232  0.448  0.375  0.471-  66 1.95  76 1.95  75 1.98
 233  0.548  0.500  0.551-  47 1.90  77 1.90  76 2.00
 234  0.546  0.500  0.654-  80 1.89  47 1.99  77 1.99
 235  0.397  0.375  0.602-  68 1.92  78 1.93  77 2.04
 236  0.698  0.375  0.603-  77 1.87  28 2.02  38 2.02
 237  0.298  0.500  0.681-  78 1.86  49 2.09  79 2.10
 238  0.299  0.500  0.784-  79 1.84  49 1.84
 239  0.644  0.372  0.733-  70 1.92  80 1.96  39 2.02
 240  0.454  0.374  0.737-  80 1.93  70 1.94  79 2.03

IMPORTANT INFORMATION: All symmetrisations will be switched off!
NOSYMM: (Re-)initialisation of all symmetry stuff for point group C_1.

                                     Primitive cell

  volume of cell :    3846.0501

  direct lattice vectors                    reciprocal lattice vectors
    13.003980404  0.000000000  0.000000000     0.076899531  0.000000000  0.000000000
     0.000000000 11.830378115  0.000000000     0.000000000  0.084528152  0.000000000
     0.000000000  0.000000000 25.000000000     0.000000000  0.000000000  0.040000000

  length of vectors
    13.003980404 11.830378115 25.000000000     0.076899531  0.084528152  0.040000000

  position of ions in fractional coordinates (direct lattice)
     0.796469805  0.625012682  0.210890236
     0.046469805  0.750012682  0.210890236
     0.046469805  0.625012682  0.340930040
     0.796469805  0.750012682  0.340930040
     0.796469805  0.625012682  0.470969844
     0.046469805  0.750012682  0.470969844
     0.053623656  0.625026990  0.598131909
     0.802773807  0.750088464  0.605722728
     0.798114496  0.625575600  0.738920944
     0.047264667  0.750185234  0.725389851
     0.796469805  0.875012682  0.210890236
     0.046469805  0.000012682  0.210890236
     0.046469805  0.875012682  0.340930040
     0.796469805  0.000012682  0.340930040
     0.796469805  0.875012682  0.470969844
     0.046469805  0.000012682  0.470969844
     0.053747774  0.875000886  0.598216515
     0.802293775  0.999949401  0.606062736
     0.797028260  0.874814460  0.740091583
     0.047442171  0.999873346  0.725337059
     0.796469805  0.125012682  0.210890236
     0.046469805  0.250012682  0.210890236
     0.046469805  0.125012682  0.340930040
     0.796469805  0.250012682  0.340930040
     0.796469805  0.125012682  0.470969844
     0.046469805  0.250012682  0.470969844
     0.053768063  0.124930326  0.598191771
     0.802754763  0.249821140  0.605692176
     0.796924074  0.124177669  0.740077984
     0.047361621  0.249559835  0.725368873
     0.796469805  0.375012682  0.210890236
     0.046469805  0.500012682  0.210890236
     0.046469805  0.375012682  0.340930040
     0.796469805  0.500012682  0.340930040
     0.796469805  0.375012682  0.470969844
     0.046469805  0.500012682  0.470969844
     0.053648518  0.374955751  0.598133362
     0.803033051  0.499971001  0.605916512
     0.798652412  0.373387703  0.738962983
     0.048099410  0.500010489  0.725307002
     0.296469805  0.625012682  0.210890236
     0.546469805  0.750012682  0.210890236
     0.546469805  0.625012682  0.340930040
     0.296469805  0.750012682  0.340930040
     0.296469805  0.625012682  0.470969844
     0.546469805  0.750012682  0.470969844
     0.553789888  0.622920794  0.599533192
     0.302783524  0.749876682  0.606056658
     0.297794688  0.625086510  0.740151961
     0.547996109  0.750059170  0.723945844
     0.296469805  0.875012682  0.210890236
     0.546469805  0.000012682  0.210890236
     0.546469805  0.875012682  0.340930040
     0.296469805  0.000012682  0.340930040
[...]
     0.000000000  0.000000000 25.000000000     0.000000000  0.000000000  0.040000000

  length of vectors
    13.003980404 11.830378115 25.000000000     0.076899531  0.084528152  0.040000000

 FORCES acting on ions
    electron-ion (+dipol)            ewald-force                    non-local-force                 convergence-correction
   0.212E-01 0.427E-01 0.370E+04   -.227E-01 -.423E-01 -.370E+04   -.161E-01 -.163E-02 0.118E+01   0.963E-05 -.287E-05 0.301E-04
   0.100E-02 0.372E-01 0.391E+04   -.349E-03 -.370E-01 -.391E+04   -.170E-01 -.159E-02 -.567E+01   -.703E-05 0.665E-05 0.110E-03
   -.744E-01 0.756E-01 0.188E+04   0.783E-01 -.754E-01 -.188E+04   0.123E-02 0.267E-02 -.176E+00   -.304E-05 0.178E-05 -.153E-04
   -.540E-01 0.229E+00 0.187E+04   0.484E-01 -.228E+00 -.187E+04   0.145E-02 0.247E-02 0.341E+00   0.650E-05 -.233E-05 0.930E-04
   0.318E+00 0.817E+00 -.293E+02   -.337E+00 -.836E+00 0.302E+02   0.300E-02 0.242E-02 -.247E+00   0.132E-05 -.324E-05 -.411E-04
   0.257E+01 0.397E-02 -.123E+02   -.257E+01 0.882E-03 0.110E+02   -.520E-02 -.348E-02 0.578E+00   0.439E-06 0.647E-07 0.142E-04
   0.189E+02 0.532E-01 -.186E+04   -.182E+02 -.416E-01 0.186E+04   -.714E+00 -.143E-01 0.805E+00   -.344E-05 0.268E-05 0.440E-04
   0.127E+02 -.150E+01 -.191E+04   -.121E+02 0.153E+01 0.191E+04   -.624E+00 -.127E-01 -.107E+01   0.180E-04 0.250E-05 0.261E-04
   -.160E+02 0.179E+02 -.367E+04   0.160E+02 -.184E+02 0.367E+04   0.225E+00 0.932E-02 -.161E+01   -.111E-04 0.259E-04 0.193E-03
   -.109E+01 0.582E+01 -.374E+04   0.107E+01 -.576E+01 0.374E+04   -.353E-01 -.804E-01 0.276E+01   -.711E-06 0.812E-05 -.171E-04
   0.303E-02 0.305E-01 0.370E+04   -.494E-02 -.304E-01 -.370E+04   -.159E-01 -.157E-02 0.118E+01   0.204E-04 0.209E-05 0.176E-04
   -.382E-03 -.708E-02 0.391E+04   0.107E-02 0.695E-02 -.391E+04   -.170E-01 -.153E-02 -.567E+01   -.395E-05 -.133E-04 0.957E-04
   -.447E-01 0.533E-01 0.188E+04   0.486E-01 -.538E-01 -.188E+04   0.122E-02 0.279E-02 -.176E+00   -.230E-05 -.465E-05 -.188E-04
   -.210E+00 -.247E-01 0.187E+04   0.203E+00 0.241E-01 -.187E+04   0.164E-02 0.276E-02 0.341E+00   0.488E-05 0.627E-06 0.902E-04
   -.198E+01 0.287E+00 -.286E+02   0.198E+01 -.259E+00 0.296E+02   -.317E-03 -.560E-02 -.252E+00   0.642E-06 0.845E-06 -.431E-04
   0.303E+01 -.472E-01 -.127E+02   -.303E+01 0.433E-01 0.114E+02   -.557E-02 0.972E-03 0.577E+00   0.881E-06 0.406E-06 0.181E-04
   0.218E+02 0.348E+00 -.186E+04   -.212E+02 -.341E+00 0.186E+04   -.740E+00 -.115E-01 0.828E+00   -.473E-05 0.143E-05 0.453E-04
   0.118E+02 -.963E-01 -.192E+04   -.112E+02 0.893E-01 0.192E+04   -.628E+00 -.244E-03 -.108E+01   0.175E-04 0.969E-06 0.223E-04
   0.280E+00 -.141E+01 -.367E+04   -.320E+00 0.129E+01 0.367E+04   0.967E-01 0.189E-01 -.163E+01   -.730E-05 -.721E-05 0.191E-03
   -.256E+01 0.281E+00 -.374E+04   0.248E+01 -.295E+00 0.374E+04   0.483E-01 0.216E-02 0.282E+01   -.605E-06 -.235E-06 -.148E-04
   0.566E-02 -.428E-01 0.370E+04   -.747E-02 0.422E-01 -.370E+04   -.160E-01 -.146E-02 0.118E+01   -.679E-06 -.844E-06 0.185E-04
   0.900E-04 -.373E-01 0.391E+04   0.579E-03 0.371E-01 -.391E+04   -.170E-01 -.152E-02 -.567E+01   -.387E-05 -.757E-05 0.950E-04
   -.444E-01 -.716E-01 0.188E+04   0.485E-01 0.715E-01 -.188E+04   0.116E-02 0.265E-02 -.176E+00   -.148E-05 -.287E-05 -.936E-05
   -.276E-01 -.230E+00 0.187E+04   0.223E-01 0.229E+00 -.187E+04   0.131E-02 0.284E-02 0.342E+00   0.453E-06 -.579E-06 0.914E-04
   -.188E+01 -.422E+00 -.287E+02   0.188E+01 0.385E+00 0.296E+02   -.294E-03 0.615E-02 -.250E+00   0.833E-06 -.725E-06 -.427E-04
   0.262E+01 -.379E-01 -.123E+02   -.262E+01 0.342E-01 0.110E+02   -.566E-02 0.174E-02 0.580E+00   0.142E-05 -.542E-06 0.154E-04
   0.228E+02 -.322E+00 -.186E+04   -.221E+02 0.308E+00 0.186E+04   -.745E+00 0.108E-01 0.831E+00   -.476E-05 -.136E-05 0.454E-04
   0.126E+02 0.105E+01 -.191E+04   -.120E+02 -.110E+01 0.191E+04   -.630E+00 0.267E-01 -.106E+01   0.182E-04 -.410E-05 0.258E-04
   0.470E+00 -.210E+01 -.367E+04   -.474E+00 0.209E+01 0.367E+04   0.886E-01 0.552E-01 -.162E+01   -.675E-05 0.139E-04 0.196E-03
   -.242E+00 -.601E+01 -.374E+04   0.214E+00 0.596E+01 0.374E+04   -.231E-01 0.604E-01 0.278E+01   -.158E-06 -.696E-05 -.160E-04
   0.239E-01 -.304E-01 0.370E+04   -.252E-01 0.304E-01 -.370E+04   -.161E-01 -.158E-02 0.118E+01   -.730E-05 0.145E-05 0.301E-04
   0.157E-02 0.711E-02 0.391E+04   -.952E-03 -.700E-02 -.391E+04   -.170E-01 -.158E-02 -.567E+01   -.407E-05 0.140E-04 0.115E-03
   -.748E-01 -.573E-01 0.188E+04   0.789E-01 0.576E-01 -.188E+04   0.118E-02 0.252E-02 -.176E+00   -.101E-05 0.601E-05 -.101E-04
   0.124E+00 0.258E-01 0.187E+04   -.129E+00 -.252E-01 -.187E+04   0.958E-03 0.254E-02 0.341E+00   0.181E-05 0.214E-05 0.808E-04
   0.466E+00 -.671E+00 -.294E+02   -.486E+00 0.699E+00 0.303E+02   0.334E-02 -.597E-02 -.245E+00   0.973E-06 0.294E-05 -.402E-04
   0.245E+01 0.507E-02 -.119E+02   -.245E+01 -.457E-02 0.107E+02   -.647E-02 -.587E-03 0.577E+00   0.289E-06 0.192E-06 0.120E-04
   0.195E+02 0.106E+00 -.186E+04   -.188E+02 -.104E+00 0.186E+04   -.722E+00 0.267E-02 0.814E+00   -.306E-05 -.239E-05 0.431E-04
   0.152E+02 0.175E+00 -.191E+04   -.144E+02 -.173E+00 0.191E+04   -.711E+00 0.308E-02 -.114E+01   0.177E-04 0.267E-06 0.355E-05
   -.139E+02 -.214E+02 -.367E+04   0.140E+02 0.218E+02 0.367E+04   0.820E-01 0.585E-01 -.159E+01   -.818E-05 -.349E-04 0.199E-03
   -.241E+00 0.476E+00 -.374E+04   0.765E-01 -.451E+00 0.373E+04   0.975E-01 -.123E-01 0.269E+01   0.569E-05 -.328E-06 -.174E-04
   -.283E-01 0.418E-01 0.370E+04   0.299E-01 -.414E-01 -.370E+04   -.173E-01 -.162E-02 0.118E+01   -.745E-05 -.415E-05 0.433E-04
   0.649E-02 0.655E-01 0.391E+04   -.690E-02 -.646E-01 -.391E+04   -.167E-01 -.175E-02 -.567E+01   0.551E-05 -.129E-04 0.911E-04
   0.255E+00 0.368E+00 0.188E+04   -.259E+00 -.352E+00 -.188E+04   0.323E-02 -.190E-02 -.179E+00   0.873E-06 -.752E-05 -.923E-05
   -.122E+00 0.269E+00 0.187E+04   0.127E+00 -.268E+00 -.187E+04   -.214E-02 0.240E-02 0.337E+00   -.364E-05 -.799E-06 0.850E-04
   -.225E+01 0.977E+00 -.311E+02   0.228E+01 -.987E+00 0.321E+02   -.142E-01 0.954E-03 -.262E+00   0.438E-06 0.338E-05 -.349E-04
   0.421E+01 0.337E+01 -.117E+02   -.423E+01 -.344E+01 0.105E+02   -.156E-02 0.405E-01 0.487E+00   -.189E-05 0.176E-05 0.184E-04
   0.237E+02 -.705E+01 -.187E+04   -.230E+02 0.722E+01 0.187E+04   -.752E+00 0.585E-01 0.660E+00   -.939E-05 0.336E-06 0.456E-04
   0.140E+02 -.328E+00 -.192E+04   -.135E+02 0.331E+00 0.192E+04   -.623E+00 0.141E-01 -.107E+01   0.206E-04 -.982E-06 0.195E-04
   -.669E+00 0.141E+01 -.366E+04   0.261E+00 -.132E+01 0.366E+04   0.225E+00 -.209E-01 -.167E+01   0.595E-05 -.126E-04 0.208E-03
   0.125E+02 -.666E+01 -.373E+04   -.122E+02 0.693E+01 0.373E+04   -.278E+00 0.213E-01 0.288E+01   0.195E-06 0.312E-05 -.789E-05
   -.101E-01 0.284E-01 0.370E+04   0.122E-01 -.281E-01 -.370E+04   -.175E-01 -.161E-02 0.118E+01   -.202E-04 0.919E-05 0.308E-04
   0.801E-02 -.112E-01 0.391E+04   -.845E-02 0.110E-01 -.391E+04   -.167E-01 -.150E-02 -.567E+01   0.508E-05 0.155E-04 0.909E-04
   0.233E+00 0.298E+00 0.188E+04   -.237E+00 -.295E+00 -.188E+04   0.338E-02 0.103E-02 -.180E+00   0.766E-06 0.271E-06 -.104E-05
   0.267E-01 -.268E-01 0.187E+04   -.205E-01 0.265E-01 -.187E+04   -.244E-02 0.275E-02 0.337E+00   -.355E-05 -.651E-07 0.813E-04
   -.326E+00 0.768E+00 -.299E+02   0.353E+00 -.760E+00 0.309E+02   -.103E-01 -.269E-02 -.262E+00   0.112E-05 -.240E-05 -.360E-04
   0.378E+01 -.339E+00 -.586E+01   -.381E+01 0.334E+00 0.457E+01   0.683E-02 0.364E-03 0.498E+00   -.162E-05 -.560E-06 0.202E-04
   0.206E+02 -.691E+01 -.184E+04   -.199E+02 0.687E+01 0.184E+04   -.722E+00 0.911E-01 0.699E+00   -.815E-05 0.181E-05 0.442E-04
   0.138E+02 0.270E+00 -.192E+04   -.132E+02 -.279E+00 0.192E+04   -.662E+00 -.128E-02 -.108E+01   0.210E-04 0.104E-05 0.221E-04
   0.433E+01 0.229E+01 -.366E+04   -.428E+01 -.227E+01 0.366E+04   -.947E-01 -.279E-01 -.168E+01   0.624E-05 0.228E-04 0.220E-03
   -.632E+01 0.525E+00 -.373E+04   0.621E+01 -.602E+00 0.373E+04   0.144E+00 0.151E-01 0.272E+01   -.384E-05 -.267E-06 -.120E-04
[...]
   -.634E+02 -.120E+00 0.937E+03   0.668E+02 0.119E+00 -.937E+03   -.305E+01 0.282E-02 0.179E+00   0.641E-05 -.666E-06 0.120E-04
   0.634E+02 -.112E+00 0.937E+03   -.669E+02 0.111E+00 -.937E+03   0.305E+01 0.118E-02 0.183E+00   -.594E-05 0.114E-06 0.128E-04
   -.619E+00 0.421E-01 0.421E+03   0.639E+00 -.420E-01 -.425E+03   -.260E-01 -.390E-03 0.376E+01   -.166E-06 0.118E-06 -.453E-05
   0.100E+01 0.225E+00 -.472E+03   -.127E+01 -.217E+00 0.479E+03   0.267E+00 -.113E-01 -.630E+01   0.199E-05 -.174E-06 -.118E-04
   -.649E+02 -.926E+00 -.751E+01   0.693E+02 0.918E+00 0.724E+01   -.483E+01 0.302E-01 0.336E+00   0.669E-05 0.269E-06 -.375E-05
   0.655E+02 -.976E+00 -.105E+02   -.698E+02 0.965E+00 0.103E+02   0.485E+01 0.346E-01 0.314E+00   -.756E-05 -.319E-06 -.688E-06
   0.140E+02 0.829E+00 -.496E+03   -.149E+02 -.902E+00 0.490E+03   0.969E+00 0.662E-01 0.615E+01   -.382E-05 -.233E-06 -.914E-05
   0.180E+02 -.168E+01 -.136E+04   -.190E+02 0.180E+01 0.136E+04   0.104E+01 -.155E+00 0.952E+00   -.420E-05 -.119E-06 0.506E-04
   -.671E+02 -.703E+00 -.931E+03   0.725E+02 0.612E+00 0.929E+03   -.537E+01 0.103E+00 0.130E+01   0.460E-06 -.330E-06 0.174E-04
   0.421E+01 0.881E+00 -.945E+03   -.470E+01 -.105E+01 0.945E+03   0.425E+00 0.174E+00 0.475E+00   -.117E-06 -.162E-05 0.148E-04
   0.516E+01 -.388E+00 -.149E+04   -.562E+01 0.408E+00 0.149E+04   0.490E+00 -.321E-01 -.114E+01   0.604E-05 -.102E-05 0.128E-04
   -.171E+01 0.687E+00 -.225E+04   0.171E+01 -.647E+00 0.226E+04   0.345E-01 -.920E-01 -.194E+02   0.537E-05 -.191E-05 0.439E-04
   -.362E+02 -.706E+01 -.188E+04   0.423E+02 0.722E+01 0.188E+04   -.662E+01 0.234E+00 0.767E+00   -.852E-05 0.994E-05 0.271E-04
   0.350E+02 0.231E+01 -.192E+04   -.410E+02 -.254E+01 0.193E+04   0.626E+01 0.511E+00 -.167E+01   0.323E-05 0.160E-04 0.243E-04
   0.257E+02 -.820E+00 0.860E+02   -.117E-11 -.127E-12 0.521E-10   -.262E+02 0.792E+00 -.856E+02   0.952E-04 -.433E-05 0.700E-02

 POSITION                                       TOTAL-FORCE (eV/Angst)
     10.35728      7.39414      5.27226        -0.015589     -0.001114     -3.381512
      0.60429      8.87293      5.27226        -0.014351     -0.001308      2.960704
      0.60429      7.39414      8.52325         0.006804      0.003023      0.512533
     10.35728      8.87293      8.52325        -0.002370      0.003407     -0.725431
     10.35728      7.39414     11.77425        -0.016441     -0.015452      0.653106
      0.60429      8.87293     11.77425        -0.003290      0.001459     -0.703292
      0.69732      7.39431     14.95330        -0.080984     -0.003132      0.083028
     10.43925      8.87383     15.14307         0.026422      0.022029      0.072346
     10.37867      7.40080     18.47302         0.153458     -0.477916      0.530528
      0.61463      8.87497     18.13475        -0.061665     -0.021262     -0.044383
     10.35728     10.35173      5.27226        -0.015843     -0.001374     -3.381641
      0.60429      0.00015      5.27226        -0.014326     -0.001552      2.960655
      0.60429     10.35173      8.52325         0.006782      0.002486      0.512629
     10.35728      0.00015      8.52325        -0.002818      0.002316     -0.726408
     10.35728     10.35173     11.77425        -0.007222      0.021756      0.659675
      0.60429      0.00015     11.77425        -0.003250     -0.002847     -0.702212
      0.69894     10.35159     14.95541        -0.073435     -0.004636      0.085129
     10.43301     11.82978     15.15157        -0.007857     -0.007490      0.043415
     10.36454     10.34939     18.50229         0.057765     -0.105719      0.156663
      0.61694     11.82888     18.13343        -0.032354     -0.012530     -0.061716
     10.35728      1.47895      5.27226        -0.015797     -0.001917     -3.381666
      0.60429      2.95774      5.27226        -0.014337     -0.001588      2.960791
      0.60429      1.47895      8.52325         0.006875      0.002614      0.512321
     10.35728      2.95774      8.52325        -0.002129      0.002134     -0.726623
     10.35728      1.47895     11.77425        -0.005836     -0.030675      0.654799
      0.60429      2.95774     11.77425        -0.002012     -0.001746     -0.705046
      0.69920      1.47797     14.95479        -0.074137     -0.003044      0.083937
     10.43901      2.95548     15.14230         0.028159     -0.014914      0.063173
     10.36319      1.46907     18.50195         0.086211      0.044605      0.128826
      0.61589      2.95239     18.13422        -0.051270      0.005113     -0.040092
     10.35728      4.43654      5.27226        -0.015543     -0.001410     -3.381535
      0.60429      5.91534      5.27226        -0.014373     -0.001342      2.960830
      0.60429      4.43654      8.52325         0.006910      0.002967      0.512296
     10.35728      5.91534      8.52325        -0.001763      0.003171     -0.725364
     10.35728      4.43654     11.77425        -0.017351      0.021545      0.648957
      0.60429      5.91534     11.77425        -0.002716      0.000011     -0.706635
      0.69764      4.43587     14.95333        -0.087790      0.005124      0.079791
     10.44263      5.91485     15.14791         0.040317      0.004058      0.089540
     10.38566      4.41732     18.47407         0.172472      0.542665      0.511922
      0.62548      5.91531     18.13268        -0.067449      0.012478     -0.013053
      3.85529      7.39414      5.27226        -0.013730     -0.001047     -3.379648
      7.10628      8.87293      5.27226        -0.015117     -0.000805      2.964469
      7.10628      7.39414      8.52325         0.001172      0.014135      0.522284
      3.85529      8.87293      8.52325         0.005039      0.003576     -0.716211
      3.85529      7.39414     11.77425         0.020102     -0.008118      0.684563
      7.10628      8.87293     11.77425        -0.017627     -0.032215     -0.640758
      7.20147      7.36939     14.98833        -0.025714      0.240777     -0.133188
      3.93739      8.87132     15.15142        -0.072429      0.016230     -0.016675
      3.87252      7.39501     18.50380        -0.183087      0.068402      0.084659
      7.12613      8.87348     18.09865         0.022474      0.287561      0.007582
      3.85529     10.35173      5.27226        -0.013474     -0.001211     -3.379837
      7.10628      0.00015      5.27226        -0.015128     -0.001637      2.964780
      7.10628     10.35173      8.52325         0.000861      0.004300      0.527262
      3.85529      0.00015      8.52325         0.005604      0.002527     -0.716464
      3.85529     10.35173     11.77425         0.016148      0.005858      0.683415
      7.10628      0.00015     11.77425        -0.022738     -0.004476     -0.792778
      7.19845     10.34094     14.92581        -0.017690      0.043053      0.046005
      3.93498     11.82989     15.15262        -0.064699     -0.009731     -0.005615
      3.87776     10.35132     18.50420        -0.042601     -0.014097      0.069402
      7.11002     11.82889     18.10474         0.034464     -0.061564     -0.066408
[...]
      7.10628      5.91534      9.79764         0.002379     -0.000985     -0.061757
      5.12967      4.43654      8.52325         0.468332      0.001664      0.044563
      9.08289      4.43654      8.52325        -0.461160      0.000254      0.045265
      3.85529      5.91534     10.49986        -0.004774     -0.000173     -0.149873
      3.85529      5.91534     13.04863         0.009459     -0.003477      0.081510
      8.38067      4.43654     11.77425        -0.401004      0.022252      0.065918
      5.83190      4.43654     11.77425         0.429900      0.024048      0.087023
      7.12081      5.91272     13.77646         0.009410     -0.006159      0.049454
      7.10255      5.91991     16.34467        -0.037025     -0.028503      0.761572
      5.16078      4.43648     15.04668         0.117040      0.010203      0.021114
      9.07412      4.43644     15.06405        -0.146676      0.006801      0.003963
      3.87066      5.91984     17.01761         0.042610     -0.011030     -0.035717
      3.88586      5.91340     19.58870         0.037364     -0.052521     -0.218923
      8.37443      4.39507     18.31395        -0.455784      0.376729      0.428281
      5.90128      4.42330     18.43087         0.215892      0.280050      0.284671
    total drift:                               -0.475062     -0.027767      0.376717

  FREE ENERGIE OF THE ION-ELECTRON SYSTEM (eV)
  free  energy   TOTEN  =     -2196.02307722 eV

  energy  without entropy=    -2196.02307722  energy(sigma->0) =    -2196.02307722