 vasp.6.3.0 20Jan22 (build Apr  1 2022 16:44:48) gamma-only
 executed on        HPECrayEX_GCC date 2023.03.12  03:51:39

 INCAR:
   SYSTEM = MgO-rocksalt
   ISMEAR = 0
   SIGMA = 0.05
   EDIFF = 1E-6
   ALGO = ALL
   ISTART = 0
   IBRION = -1
   NSW = 0
   ISYM = 0
   DIPOL = 0.5 0.5 0.5
   IDIPOL = 3
   LDIPOL = .TRUE.
   LHFCALC = .TRUE.
   GGA = B5
   AEXX = 0.2
   AGGAX = 0.72
   AGGAC = 0.81
   ALDAC = 0.19
   IVDW = 1
   VDW_S6 = 1.05
   VDW_C6 = 0.63 0.70
   VDW_R0 = 1.243 1.342
   ENCUT = 520
   PREC = Accurate
   LASPH = .TRUE.
   LREAL = Auto
   ISPIN = 1
   NELM = 200
   NELMIN = 8
   NCORE = 8
   KPAR = 1
   LWAVE = .FALSE.
   LCHARG = .FALSE.

 POTCAR:    PAW_PBE Mg_pv 13Apr2007
 POTCAR:    PAW_PBE O 08Apr2002
 POTCAR:    PAW_PBE Mg_pv 13Apr2007
   VRHFIN =Mg: p6s2

   TITEL  = PAW_PBE Mg_pv 13Apr2007
   POMASS =   24.305; ZVAL   =    8.000    mass and valenz
   ENMAX  =  403.929; ENMIN  =  302.947 eV

   TITEL  = PAW_PBE O 08Apr2002
   POMASS =   16.000; ZVAL   =    6.000    mass and valenz
   ENMAX  =  400.000; ENMIN  =  300.000 eV

 Optimization of the real space projectors (new method)

 maximal supplied QI-value         = 18.90
 optimisation between [QCUT,QGAM] = [ 11.53, 23.24] = [ 37.21,151.29] Ry
 Optimized for a Real-space Cutoff    1.28 Angstroem

   l    n(q)    QCUT    max X(q) W(low)/X(q) W(high)/X(q)  e(spline)
   1      8    11.527     2.974    0.44E-04    0.56E-04    0.12E-06
   1      8    11.527     4.279    0.12E-03    0.12E-03    0.26E-06
   0      9    11.527    16.381    0.46E-04    0.64E-04    0.78E-07
   0      9    11.527     5.611    0.26E-04    0.43E-04    0.55E-07
   2      8    11.527     4.652    0.22E-03    0.72E-04    0.47E-07
 Optimization of the real space projectors (new method)

 maximal supplied QI-value         = 24.76
 optimisation between [QCUT,QGAM] = [ 11.64, 23.27] = [ 37.91,151.63] Ry
 Optimized for a Real-space Cutoff    1.14 Angstroem

   l    n(q)    QCUT    max X(q) W(low)/X(q) W(high)/X(q)  e(spline)
   0      8    11.635    20.381    0.10E-03    0.33E-03    0.24E-06
   0      8    11.635    15.268    0.11E-03    0.35E-03    0.26E-06
   1      7    11.635     5.964    0.24E-03    0.31E-03    0.30E-06
   1      7    11.635     5.382    0.22E-03    0.25E-03    0.26E-06
|               ----> ADVICE to this user running VASP <----                  |
|     You enforced a specific xc type in the INCAR file but a different       |
|     type was found in the POTCAR file.                                      |
|     I HOPE YOU KNOW WHAT YOU ARE DOING!                                     |

  PAW_PBE Mg_pv 13Apr2007               :
  PAW_PBE O 08Apr2002                   :

 POSCAR: Mg  O
  positions in direct lattice
 exchange correlation table for  LEXCH =       12
   RHO(1)=    0.500       N(1)  =     2000
   RHO(2)=  100.500       N(2)  =     4000

 ion  position               nearest neighbor table
   1  0.125  0.000  0.351- 129 2.12 131 2.12 132 2.12 148 2.12 171 2.12
   2  0.250  0.125  0.351- 130 2.12 131 2.12 132 2.12 140 2.12 147 2.12
   3  0.125  0.125  0.450- 135 2.11 131 2.12 129 2.12 130 2.12 137 2.12 146 2.12
   4  0.250  0.000  0.450- 136 2.11 132 2.12 129 2.12 130 2.12 145 2.12 170 2.12
   5  0.125  1.000  0.550- 135 2.12 136 2.12 175 2.12 152 2.12 129 2.12 133 2.14
   6  0.250  0.125  0.550- 144 2.11 151 2.11 130 2.12 135 2.12 136 2.12 134 2.15
   7  0.125  0.125  0.647- 135 2.10 134 2.11 150 2.12 133 2.12 141 2.12
   8  0.250  1.000  0.647- 136 2.09 134 2.11 174 2.11 149 2.12 133 2.12
   9  0.125  0.250  0.351- 137 2.12 131 2.12 139 2.12 140 2.12 156 2.12
  10  0.250  0.375  0.351- 138 2.12 139 2.12 140 2.12 155 2.12 164 2.12
  11  0.125  0.375  0.450- 143 2.11 139 2.12 137 2.12 138 2.12 154 2.12 161 2.12
  12  0.250  0.250  0.450- 144 2.11 140 2.12 138 2.12 130 2.12 137 2.12 153 2.12
  13  0.125  0.250  0.550- 144 2.11 160 2.12 143 2.12 137 2.12 135 2.12 141 2.15
  14  0.250  0.375  0.550- 159 2.10 144 2.12 168 2.12 138 2.13 143 2.13 142 2.15
  15  0.125  0.375  0.647- 143 2.09 142 2.10 158 2.11 165 2.12 141 2.12
  16  0.250  0.250  0.647- 144 2.08 157 2.09 141 2.12 134 2.12 142 2.12
  17  0.375  0.000  0.351- 145 2.12 132 2.12 147 2.12 187 2.12 212 2.12
  18  0.000  0.125  0.351- 146 2.12 131 2.12 148 2.12 156 2.12 211 2.12
  19  0.375  0.125  0.450- 151 2.11 147 2.12 130 2.12 145 2.12 153 2.12 210 2.12
  20  0.000  0.000  0.450- 152 2.11 148 2.12 129 2.12 146 2.12 186 2.12 209 2.12
  21  0.375  1.000  0.550- 151 2.11 191 2.12 216 2.12 145 2.12 136 2.12 149 2.15
  22  0.000  0.125  0.550- 215 2.11 135 2.11 152 2.12 160 2.12 146 2.12 150 2.14
  23  0.375  0.125  0.647- 151 2.08 157 2.10 149 2.12 134 2.12 214 2.12
  24  0.000  1.000  0.648- 152 2.10 213 2.11 133 2.11 190 2.12 150 2.12
  25  0.375  0.250  0.351- 153 2.12 147 2.12 140 2.12 155 2.12 220 2.12
  26  0.000  0.375  0.351- 154 2.12 139 2.12 156 2.12 180 2.12 219 2.12
  27  0.375  0.375  0.450- 155 2.12 153 2.12 138 2.12 177 2.12 218 2.12 159 2.13
  28  0.000  0.250  0.450- 160 2.11 156 2.12 154 2.12 137 2.12 146 2.12 217 2.12
  29  0.376  0.251  0.550- 224 2.11 159 2.11 157 2.12 144 2.13 151 2.13 153 2.13
  30  0.000  0.375  0.550- 223 2.11 143 2.11 184 2.12 154 2.12 160 2.12 158 2.15
  31  0.375  0.375  0.651- 222 2.13 142 2.13 157 2.14 181 2.15 159 2.16
  32  0.000  0.250  0.647- 160 2.09 141 2.11 221 2.11 150 2.12 158 2.12
  33  0.125  0.500  0.351- 161 2.12 139 2.12 163 2.12 164 2.12 180 2.12
  34  0.250  0.625  0.351- 162 2.12 163 2.12 164 2.12 172 2.12 179 2.12
  35  0.125  0.625  0.450- 167 2.11 163 2.12 161 2.12 162 2.12 169 2.12 178 2.12
  36  0.250  0.500  0.450- 168 2.11 164 2.12 162 2.12 138 2.12 161 2.12 177 2.12
  37  0.125  0.500  0.550- 168 2.11 184 2.12 143 2.12 161 2.12 167 2.12 165 2.15
  38  0.250  0.625  0.550- 183 2.11 168 2.11 162 2.12 176 2.12 167 2.12 166 2.15
  39  0.125  0.625  0.647- 167 2.10 166 2.11 182 2.12 165 2.12 173 2.12
  40  0.250  0.500  0.647- 168 2.08 181 2.10 165 2.12 166 2.12 142 2.12
  41  0.125  0.750  0.351- 169 2.12 163 2.12 171 2.12 172 2.12 188 2.12
  42  0.250  0.875  0.351- 170 2.12 132 2.12 171 2.12 172 2.12 187 2.12
  43  0.125  0.875  0.450- 175 2.11 171 2.12 170 2.12 129 2.12 169 2.12 186 2.12
  44  0.250  0.750  0.450- 176 2.11 172 2.12 170 2.12 162 2.12 169 2.12 185 2.12
  45  0.125  0.750  0.550- 176 2.12 167 2.12 192 2.12 175 2.12 169 2.12 173 2.14
  46  0.250  0.875  0.550- 136 2.11 176 2.11 191 2.12 175 2.12 170 2.12 174 2.14
  47  0.125  0.875  0.648- 175 2.10 133 2.11 173 2.11 190 2.12 174 2.12
  48  0.250  0.750  0.648- 176 2.09 166 2.11 174 2.12 189 2.12 173 2.12
  49  0.375  0.500  0.351- 177 2.12 164 2.12 155 2.12 179 2.12 244 2.12
  50  0.000  0.625  0.351- 178 2.12 163 2.12 180 2.12 188 2.12 243 2.12
  51  0.375  0.625  0.450- 183 2.11 179 2.12 162 2.12 177 2.12 185 2.12 242 2.12
  52  0.000  0.500  0.450- 184 2.11 180 2.12 178 2.12 154 2.12 161 2.12 241 2.12
  53  0.376  0.499  0.550- 159 2.11 248 2.11 181 2.12 183 2.13 168 2.13 177 2.13
  54  0.000  0.625  0.550- 247 2.11 167 2.11 184 2.12 192 2.12 178 2.12 182 2.14
  55  0.375  0.625  0.647- 183 2.08 181 2.09 189 2.12 166 2.12 246 2.12
  56  0.000  0.500  0.647- 184 2.09 245 2.11 165 2.11 182 2.12 158 2.12
  57  0.375  0.750  0.351- 185 2.12 179 2.12 172 2.12 187 2.12 252 2.12
  58  0.000  0.875  0.351- 186 2.12 171 2.12 148 2.12 188 2.12 251 2.12
  59  0.375  0.875  0.450- 191 2.11 187 2.12 185 2.12 145 2.12 170 2.12 250 2.12
  60  0.000  0.750  0.450- 192 2.11 188 2.12 186 2.12 169 2.12 178 2.12 249 2.12
[...]
 242  0.500  0.625  0.450- 114 2.12  99 2.12  51 2.12 116 2.12 124 2.12 118 2.13
 243  0.875  0.625  0.351- 115 2.12  98 2.12 113 2.12  50 2.12 121 2.12
 244  0.500  0.500  0.351- 116 2.12  90 2.12  97 2.12 114 2.12  49 2.12
 245  0.875  0.500  0.650-  56 2.11 119 2.12 104 2.12  95 2.12 117 2.15
 246  0.500  0.626  0.650- 128 2.10  55 2.12 103 2.12 120 2.13 118 2.14
 247  0.875  0.625  0.549- 119 2.10 115 2.11  54 2.11 125 2.12 102 2.12 117 2.12
 248  0.500  0.500  0.550- 118 2.10 101 2.11  53 2.11  94 2.12 116 2.13 120 2.16
 249  0.875  0.750  0.450- 121 2.12 108 2.12 115 2.12  60 2.12 123 2.12 125 2.12
 250  0.500  0.875  0.450- 122 2.12  84 2.12 107 2.12  59 2.12 124 2.12 126 2.12
 251  0.875  0.875  0.351- 123 2.12  81 2.12 106 2.12 121 2.12  58 2.12
 252  0.500  0.750  0.351- 124 2.12 105 2.12 114 2.12 122 2.12  57 2.12
 253  0.875  0.750  0.650-  64 2.11 127 2.11 119 2.12 112 2.12 125 2.14
 254  0.500  0.875  0.650- 128 2.11  88 2.11 111 2.12  63 2.12 126 2.15
 255  0.875  0.875  0.549- 127 2.10 123 2.11  62 2.12  85 2.12 125 2.12 110 2.12
 256  0.500  0.750  0.549- 128 2.09 124 2.11 126 2.11 109 2.12  61 2.12 118 2.13

IMPORTANT INFORMATION: All symmetrisations will be switched off!
NOSYMM: (Re-)initialisation of all symmetry stuff for point group C_1.

                                     Primitive cell

  volume of cell :    6122.6422

  direct lattice vectors                    reciprocal lattice vectors
    16.934285261  0.000000000  0.000000000     0.059051798  0.000000000  0.000000000
     0.000000000 16.934285261  0.000000000     0.000000000  0.059051798  0.000000000
     0.000000000  0.000000000 21.350356973     0.000000000  0.000000000  0.046837624

  length of vectors
    16.934285261 16.934285261 21.350356973     0.059051798  0.059051798  0.046837624

  position of ions in fractional coordinates (direct lattice)
     0.125000000  0.000000000  0.351282183
     0.250000000  0.125000000  0.351282183
     0.125000000  0.125000000  0.450427394
     0.250000000  0.000000000  0.450427394
     0.124961126  0.999958047  0.549684610
     0.249976803  0.124972072  0.549552161
     0.124889510  0.124785179  0.647495998
     0.249805217  0.999854149  0.647465063
     0.125000000  0.250000000  0.351282183
     0.250000000  0.375000000  0.351282183
     0.125000000  0.375000000  0.450427394
     0.250000000  0.250000000  0.450427394
     0.124957007  0.250003723  0.549594080
     0.250468305  0.374988454  0.549977695
     0.124845454  0.375017262  0.647294198
     0.249768083  0.249646609  0.646861069
     0.375000000  0.000000000  0.351282183
     0.000000000  0.125000000  0.351282183
     0.375000000  0.125000000  0.450427394
     0.000000000  0.000000000  0.450427394
     0.375012780  0.999937819  0.549575986
     0.000007582  0.124920898  0.549659781
     0.374649623  0.124724989  0.646801648
     0.000010119  0.999902407  0.647579627
     0.375000000  0.250000000  0.351282183
     0.000000000  0.375000000  0.351282183
     0.375000000  0.375000000  0.450427394
     0.000000000  0.250000000  0.450427394
     0.375502411  0.250548203  0.550409836
     0.000014142  0.375026677  0.549617211
     0.374547243  0.374968114  0.651177674
     0.000018692  0.249854689  0.647473603
     0.125000000  0.500000000  0.351282183
     0.250000000  0.625000000  0.351282183
     0.125000000  0.625000000  0.450427394
     0.250000000  0.500000000  0.450427394
     0.124964233  0.500003590  0.549593501
     0.249995459  0.625035882  0.549559172
     0.124883733  0.625215439  0.647496937
     0.249790245  0.500354079  0.646825669
     0.125000000  0.750000000  0.351282183
     0.250000000  0.875000000  0.351282183
[...]
   4.23349442 10.58453592 11.73328451
   2.11481675 10.58757659 13.82429074
   4.23001926  8.47313871 13.80995892
   2.11678566 12.70071395  7.50000000
   4.23357132 14.81749960  7.50000000
   2.11678566 14.81749960  9.61678566
   4.23357132 12.70071395  9.61678566
   2.11615483 12.70132587 11.73627517
   4.23249695 14.81742187 11.73582328
   2.11475490 14.81767589 13.82620773
   4.23003437 12.70309023 13.82444719
   6.35035697  8.46714263  7.50000000
   0.00000000 10.58392829  7.50000000
   6.35035697 10.58392829  9.61678566
   0.00000000  8.46714263  9.61678566
   6.36014553  8.45858226 11.75154847
   0.00016092 10.58490176 11.73563439
   6.34478399 10.58832704 13.81079883
   0.00023633  8.46991550 13.82424335
   6.35035697 12.70071395  7.50000000
   0.00000000 14.81749960  7.50000000
   6.35035697 14.81749960  9.61678566
   0.00000000 12.70071395  9.61678566
[...]
   8.46714263 10.58392829  9.61678566
  14.81749960 10.58392829  7.50000000
   8.46714263  8.46714263  7.50000000
  14.82181723  8.47146019 13.88179742
   8.46702657 10.60769622 13.88565067
  14.81975101 10.58609462 11.72933742
   8.46791725  8.47391451 11.74417834
  14.81749960 12.70071395  9.61678566
   8.46714263 14.81749960  9.61678566
  14.81749960 14.81749960  7.50000000
   8.46714263 12.70071395  7.50000000
  14.82133627 12.70387475 13.88068815
   8.46737335 14.81749822 13.88049175
  14.81905231 14.81758001 11.72945377
   8.46743443 12.70422213 11.72862687

--------------------------------------- Iteration      FINAL  ---------------------------------------

--------------------OUTCAR has been truncated-------------------------

[...]

--------------------OUTCAR has been truncated-------------------------

  DFT-D2 method for vdW energy calculation

  Parameters of vdW forcefield:
         C6(Jnm^6/mol)     R0(A)
   Mg       0.630          1.243
   O        0.700          1.342

  vdW correction parametrized for the method &þ      

  IVDW =   1
  VDW_RADIUS =    50.000 A
  VDW_S6 =     1.050
  VDW_SR =     1.000
  VDW_D =    20.000
  LVDW_EWALD = F

  Number of pair interactions contributing to vdW energy: 2843596
  Edisp (eV):  -20.12096

 VOLUME and BASIS-vectors are now :
  energy-cutoff  :      520.00
  volume of cell :     6122.64
      direct lattice vectors                 reciprocal lattice vectors
    16.934285261  0.000000000  0.000000000     0.059051798  0.000000000  0.000000000
     0.000000000 16.934285261  0.000000000     0.000000000  0.059051798  0.000000000
     0.000000000  0.000000000 21.350356973     0.000000000  0.000000000  0.046837624

  length of vectors
    16.934285261 16.934285261 21.350356973     0.059051798  0.059051798  0.046837624

 FORCES acting on ions:
    Electron-Ion                     Ewald-Force                    Non-Local-Force
   -.381E+00 -.378E+00 0.206E+04   0.369E+00 0.367E+00 -.205E+04   0.757E-02 0.784E-02 -.639E+01
   -.101E+01 -.104E+01 0.206E+04   0.998E+00 0.103E+01 -.205E+04   0.835E-02 0.785E-02 -.637E+01
   -.921E+00 -.101E+01 0.684E+03   0.885E+00 0.976E+00 -.684E+03   0.241E-01 0.261E-01 0.278E+00
   -.933E+00 -.910E+00 0.684E+03   0.892E+00 0.872E+00 -.684E+03   0.271E-01 0.258E-01 0.271E+00
   -.691E+00 -.637E+00 -.685E+03   0.664E+00 0.615E+00 0.685E+03   0.150E-01 0.117E-01 -.219E+00
   -.200E+01 -.206E+01 -.683E+03   0.188E+01 0.196E+01 0.684E+03   0.600E-01 0.503E-01 -.118E+00
   -.142E+00 -.169E+01 -.204E+04   0.162E+00 0.167E+01 0.203E+04   -.376E-01 0.210E-01 0.533E+01
   -.143E+01 -.137E+00 -.204E+04   0.142E+01 0.168E+00 0.203E+04   0.616E-02 -.434E-01 0.532E+01
   -.875E+00 -.550E+00 0.206E+04   0.867E+00 0.539E+00 -.205E+04   0.488E-02 0.714E-02 -.638E+01
   -.171E+01 -.265E-01 0.205E+04   0.170E+01 0.260E-01 -.205E+04   0.185E-02 0.546E-03 -.638E+01
   -.241E+01 -.480E-01 0.683E+03   0.242E+01 0.456E-01 -.683E+03   0.962E-04 0.145E-02 0.286E+00
   -.404E+01 -.220E+01 0.682E+03   0.404E+01 0.220E+01 -.682E+03   0.515E-02 0.279E-02 0.290E+00
   -.926E+00 -.136E+01 -.685E+03   0.878E+00 0.133E+01 0.685E+03   0.397E-02 0.126E-01 -.153E+00
   -.432E+01 -.196E+00 -.689E+03   0.448E+01 0.199E+00 0.689E+03   -.229E+00 -.263E-03 -.987E-01
   0.918E+00 0.304E-01 -.204E+04   -.927E+00 -.242E-01 0.203E+04   -.677E-01 -.692E-02 0.527E+01
   0.120E+01 -.298E+01 -.203E+04   -.143E+01 0.266E+01 0.203E+04   0.240E-01 0.230E+00 0.534E+01
   -.498E+00 -.863E+00 0.206E+04   0.488E+00 0.855E+00 -.205E+04   0.722E-02 0.540E-02 -.638E+01
   -.137E-01 -.503E+00 0.206E+04   0.137E-01 0.487E+00 -.205E+04   0.277E-04 0.107E-01 -.639E+01
   -.206E+01 -.411E+01 0.682E+03   0.206E+01 0.412E+01 -.682E+03   0.114E-02 0.177E-02 0.292E+00
   -.210E-01 -.404E+00 0.684E+03   0.214E-01 0.380E+00 -.684E+03   -.190E-03 0.163E-01 0.293E+00
   -.120E+01 -.896E+00 -.684E+03   0.117E+01 0.847E+00 0.685E+03   0.138E-01 0.657E-02 -.158E+00
   -.477E-01 -.130E+01 -.685E+03   0.498E-01 0.126E+01 0.685E+03   -.980E-03 0.307E-01 -.221E+00
   -.347E+01 -.290E-01 -.203E+04   0.309E+01 -.308E+00 0.203E+04   0.273E+00 0.129E+00 0.536E+01
   -.284E-01 -.961E+00 -.204E+04   0.279E-01 0.943E+00 0.204E+04   0.806E-03 0.156E-01 0.536E+01
   -.124E+01 -.129E+01 0.205E+04   0.123E+01 0.129E+01 -.205E+04   0.121E-02 0.505E-03 -.638E+01
   -.205E-01 -.231E-01 0.206E+04   0.206E-01 0.226E-01 -.205E+04   -.113E-03 0.671E-03 -.638E+01
   -.475E+01 -.455E-01 0.675E+03   0.480E+01 0.503E-01 -.676E+03   -.232E-01 -.297E-02 0.559E+00
   -.260E-01 -.660E+00 0.684E+03   0.295E-01 0.630E+00 -.684E+03   -.227E-02 0.200E-01 0.290E+00
   -.465E+01 -.456E+01 -.691E+03   0.485E+01 0.476E+01 0.691E+03   -.236E+00 -.242E+00 -.358E+00
   -.716E-01 0.880E-01 -.685E+03   0.696E-01 -.849E-01 0.685E+03   0.166E-02 -.546E-02 -.209E+00
   -.375E+01 -.987E+00 -.207E+04   0.291E+01 0.901E+00 0.206E+04   0.552E+00 0.839E-01 0.621E+01
   0.455E-01 -.156E+01 -.204E+04   -.415E-01 0.150E+01 0.203E+04   -.397E-02 0.493E-01 0.534E+01
   -.877E+00 0.518E+00 0.206E+04   0.869E+00 -.508E+00 -.205E+04   0.460E-02 -.682E-02 -.638E+01
   -.101E+01 0.104E+01 0.206E+04   0.999E+00 -.103E+01 -.205E+04   0.791E-02 -.873E-02 -.637E+01
   -.940E+00 0.101E+01 0.684E+03   0.906E+00 -.966E+00 -.684E+03   0.228E-01 -.284E-01 0.280E+00
   -.401E+01 0.215E+01 0.682E+03   0.402E+01 -.215E+01 -.682E+03   -.205E-02 -.212E-02 0.293E+00
   -.107E+01 0.127E+01 -.685E+03   0.102E+01 -.124E+01 0.685E+03   0.926E-02 -.939E-02 -.165E+00
   -.188E+01 0.208E+01 -.683E+03   0.178E+01 -.197E+01 0.684E+03   0.465E-01 -.521E-01 -.122E+00
   -.149E+00 0.163E+01 -.204E+04   0.177E+00 -.162E+01 0.203E+04   -.427E-01 -.118E-01 0.533E+01
   -.361E-01 0.343E+01 -.203E+04   -.307E+00 -.308E+01 0.203E+04   0.138E+00 -.259E+00 0.535E+01
   -.393E+00 0.410E+00 0.206E+04   0.382E+00 -.398E+00 -.205E+04   0.733E-02 -.819E-02 -.639E+01
   -.479E+00 0.292E-01 0.206E+04   0.463E+00 -.296E-01 -.205E+04   0.111E-01 0.393E-03 -.639E+01
   -.450E+00 0.656E-01 0.684E+03   0.427E+00 -.663E-01 -.684E+03   0.156E-01 0.261E-03 0.274E+00
   -.937E+00 0.954E+00 0.684E+03   0.897E+00 -.916E+00 -.684E+03   0.266E-01 -.255E-01 0.290E+00
   -.757E+00 0.653E+00 -.685E+03   0.728E+00 -.632E+00 0.686E+03   0.169E-01 -.102E-01 -.217E+00
   -.107E+01 0.145E+00 -.685E+03   0.104E+01 -.142E+00 0.686E+03   0.252E-01 -.252E-02 -.216E+00
   -.969E+00 0.467E-01 -.204E+04   0.949E+00 -.433E-01 0.204E+04   0.179E-01 -.289E-02 0.534E+01
   -.152E+01 0.204E+00 -.204E+04   0.151E+01 -.227E+00 0.204E+04   0.980E-02 0.371E-01 0.534E+01
   -.124E+01 0.126E+01 0.205E+04   0.123E+01 -.126E+01 -.205E+04   0.706E-03 -.838E-03 -.638E+01
   -.174E-01 0.510E+00 0.206E+04   0.174E-01 -.493E+00 -.205E+04   -.617E-05 -.116E-01 -.639E+01
   -.208E+01 0.408E+01 0.682E+03   0.208E+01 -.409E+01 -.682E+03   0.359E-02 -.338E-02 0.291E+00
   -.494E-01 0.589E+00 0.683E+03   0.487E-01 -.558E+00 -.684E+03   0.645E-03 -.201E-01 0.319E+00
   -.439E+01 0.476E+01 -.691E+03   0.459E+01 -.496E+01 0.691E+03   -.236E+00 0.238E+00 -.354E+00
   -.265E-01 0.119E+01 -.685E+03   0.254E-01 -.115E+01 0.685E+03   0.723E-03 -.264E-01 -.224E+00
   -.296E+01 -.833E+00 -.203E+04   0.264E+01 0.108E+01 0.203E+04   0.226E+00 -.416E-01 0.534E+01
   -.393E-01 0.139E+01 -.204E+04   0.360E-01 -.135E+01 0.204E+04   0.296E-02 -.339E-01 0.536E+01
   -.499E+00 0.896E+00 0.206E+04   0.489E+00 -.889E+00 -.205E+04   0.747E-02 -.516E-02 -.638E+01
   -.102E-01 0.174E-01 0.206E+04   0.101E-01 -.172E-01 -.205E+04   0.313E-05 0.158E-03 -.639E+01
   -.551E+00 0.700E-01 0.684E+03   0.519E+00 -.746E-01 -.684E+03   0.216E-01 0.278E-02 0.296E+00
   -.142E-01 0.467E+00 0.684E+03   0.157E-01 -.442E+00 -.684E+03   -.927E-03 -.171E-01 0.266E+00
[...]
   0.430E+00 0.467E+00 0.154E+04   -.423E+00 -.458E+00 -.155E+04   -.642E-02 -.144E-01 0.313E+01
   0.146E-01 0.111E+01 0.154E+04   -.148E-01 -.111E+01 -.155E+04   0.243E-03 0.191E-02 0.313E+01
   0.108E+01 0.126E+01 -.156E+04   -.105E+01 -.130E+01 0.156E+04   -.607E-01 0.127E-01 -.508E+01
   -.387E+00 0.572E+01 -.155E+04   0.364E+00 -.536E+01 0.156E+04   0.336E-01 -.593E+00 -.471E+01
   0.934E+00 0.122E+01 -.507E+03   -.939E+00 -.123E+01 0.507E+03   -.106E-01 -.536E-02 0.247E+00
   -.780E-01 0.645E+01 -.520E+03   0.831E-01 -.652E+01 0.520E+03   -.545E-02 -.216E-01 0.111E+00
   0.421E+00 0.418E+00 0.513E+03   -.415E+00 -.412E+00 -.513E+03   -.526E-02 -.805E-02 -.872E-01
   0.165E-01 0.428E-01 0.513E+03   -.171E-01 -.457E-01 -.512E+03   0.752E-03 0.968E-03 -.486E-01
   0.223E+00 0.179E-01 0.154E+04   -.216E+00 -.178E-01 -.155E+04   -.573E-02 0.223E-02 0.313E+01
   0.671E-02 0.785E+00 0.154E+04   -.710E-02 -.780E+00 -.155E+04   0.498E-03 -.601E-02 0.314E+01
   0.803E+00 0.712E+00 -.156E+04   -.823E+00 -.730E+00 0.156E+04   0.114E-01 0.868E-02 -.497E+01
   0.148E-02 0.970E-02 -.156E+04   -.600E-03 -.978E-02 0.156E+04   -.119E-02 -.265E-03 -.502E+01
   0.570E+00 0.117E+00 -.507E+03   -.574E+00 -.118E+00 0.507E+03   -.294E-03 0.875E-03 0.250E+00
   0.778E-03 0.334E+01 -.506E+03   0.177E-02 -.344E+01 0.506E+03   -.273E-02 0.381E-01 0.378E+00
   0.518E-02 0.553E-01 0.807E+02   -.120E-11 0.232E-11 -.182E-10   0.107E-02 -.677E-01 -.711E+02

 POSITION                                       TOTAL-FORCE (eV/Angst)
      2.11679      0.00000      7.50000        -0.002653     -0.002541      0.509583
      4.23357      2.11679      7.50000        -0.002777     -0.002251      0.505105
      2.11679      2.11679      9.61679        -0.009055     -0.009461     -0.000849
      4.23357      0.00000      9.61679        -0.010149     -0.009886     -0.002038
      2.11613     16.93357     11.73596        -0.008577     -0.008594      0.028580
      4.23318      2.11631     11.73313        -0.044235     -0.044872      0.017881
      2.11491      2.11315     13.82427        -0.018947     -0.005101      0.045736
      4.23027     16.93182     13.82361        -0.006105     -0.015358      0.051721
      2.11679      4.23357      7.50000        -0.001487     -0.002208      0.506203
      4.23357      6.35036      7.50000        -0.000831     -0.000359      0.504962
      2.11679      6.35036      9.61679         0.006975     -0.000543      0.001977
      4.23357      4.23357      9.61679         0.006775      0.000852     -0.003509
      2.11606      4.23363     11.73403        -0.040036     -0.017626      0.032852
      4.24150      6.35016     11.74222        -0.082637      0.002667     -0.042517
      2.11417      6.35065     13.81996        -0.076835     -0.000730      0.095703
      4.22964      4.22759     13.81071        -0.189672     -0.061643      0.117740
      6.35036      0.00000      7.50000        -0.002221     -0.001793      0.505883
      0.00000      2.11679      7.50000        -0.000016     -0.003571      0.508762
      6.35036      2.11679      9.61679         0.001462      0.008610     -0.002506
      0.00000      0.00000      9.61679         0.000142     -0.005953      0.003442
      6.35057     16.93323     11.73364        -0.019262     -0.038942      0.034464
      0.00013      2.11545     11.73543         0.000940     -0.007255      0.034830
      6.34442      2.11213     13.80945        -0.069246     -0.182027      0.121915
      0.00017     16.93263     13.82606         0.000342     -0.000391      0.035332
      6.35036      4.23357      7.50000        -0.000645     -0.000088      0.504872
      0.00000      6.35036      7.50000         0.000006     -0.000040      0.505662
      6.35036      6.35036      9.61679         0.019732      0.001614      0.010315
      0.00000      4.23357      9.61679         0.000927     -0.007304     -0.003388
      6.35886      4.24285     11.75145        -0.052546     -0.058494     -0.131016
      0.00024      6.35081     11.73452        -0.000134     -0.003076      0.043522
      6.34269      6.34982     13.90288        -0.219667      0.004499     -0.602023
      0.00032      4.23111     13.82379        -0.000285      0.000415      0.055155
      2.11679      8.46714      7.50000        -0.001766      0.002248      0.505760
      4.23357     10.58393      7.50000        -0.002626      0.003190      0.505214
      2.11679     10.58393      9.61679        -0.008643      0.010710     -0.000633
      4.23357      8.46714      9.61679         0.009800     -0.001066     -0.002154
      2.11618      8.46720     11.73402        -0.037537      0.017496      0.034904
      4.23349     10.58454     11.73328        -0.044690      0.042554      0.018666
      2.11482     10.58758     13.82429        -0.017985      0.004231      0.046888
      4.23002      8.47314     13.80996        -0.178813      0.063081      0.122396
      2.11679     12.70071      7.50000        -0.002212      0.002779      0.509633
      4.23357     14.81750      7.50000        -0.003674     -0.000338      0.508848
      2.11679     14.81750      9.61679        -0.005561     -0.000218      0.004369
      4.23357     12.70071      9.61679        -0.009846      0.009806     -0.000476
      2.11615     12.70133     11.73628        -0.009461      0.010034      0.025121
      4.23250     14.81742     11.73582        -0.009926      0.000194      0.030445
      2.11475     14.81768     13.82621        -0.000946      0.000541      0.032994
      4.23003     12.70309     13.82445        -0.003678      0.015826      0.048144
      6.35036      8.46714      7.50000        -0.000116      0.000320      0.505232
      0.00000     10.58393      7.50000        -0.000020      0.003772      0.508644
      6.35036     10.58393      9.61679         0.000381     -0.007502     -0.003185
      0.00000      8.46714      9.61679        -0.000064      0.007725     -0.003135
      6.36015      8.45858     11.75155        -0.054954      0.055120     -0.129982
      0.00016     10.58490     11.73563        -0.000230      0.011438      0.033857
      6.34478     10.58833     13.81080        -0.063620      0.189109      0.116087
      0.00024      8.46992     13.82424        -0.000172     -0.001400      0.054389
      6.35036     12.70071      7.50000        -0.002658      0.001884      0.506078
      0.00000     14.81750      7.50000        -0.000043      0.000128      0.510803
      6.35036     14.81750      9.61679        -0.008236     -0.001179     -0.002885
      0.00000     12.70071      9.61679         0.000398      0.006324      0.003329
[...]
      8.46714     10.58393      9.61679         0.000281     -0.016714      0.039269
     14.81750     10.58393      7.50000        -0.000506     -0.006184     -0.392218
      8.46714      8.46714      7.50000         0.000065      0.000760     -0.394503
     14.82182      8.47146     13.88180        -0.041800     -0.020109     -0.220216
      8.46703     10.60770     13.88565         0.016119     -0.326173     -0.118086
     14.81975     10.58609     11.72934        -0.017746     -0.017793     -0.024493
      8.46792      8.47391     11.74418        -0.000924     -0.101944      0.136277
     14.81750     12.70071      9.61679        -0.000735     -0.002526      0.002827
      8.46714     14.81750      9.61679         0.000219     -0.001326      0.004545
     14.81750     14.81750      7.50000        -0.000287      0.002364     -0.395045
      8.46714     12.70071      7.50000         0.000155     -0.001887     -0.392169
     14.82134     12.70387     13.88069        -0.008598     -0.007907     -0.183018
      8.46737     14.81750     13.88049        -0.000498     -0.000088     -0.203290
     14.81905     14.81758     11.72945        -0.005232     -0.000759     -0.018962
      8.46743     12.70422     11.72863        -0.000668     -0.052772     -0.006089
    total drift:                                0.006022     -0.017447     -0.166751

  FREE ENERGIE OF THE ION-ELECTRON SYSTEM (eV)
  free  energy   TOTEN  =     -1752.75662528 eV

  energy  without entropy=    -1752.75662528  energy(sigma->0) =    -1752.75662528