 vasp.6.3.0 20Jan22 (build Apr  1 2022 16:44:48) gamma-only
 executed on        HPECrayEX_GCC date 2023.02.07  00:30:19

 INCAR:
   SYSTEM = MgO-rocksalt
   ISMEAR = 0
   SIGMA = 0.05
   EDIFF = 1E-7
   ALGO = ALL
   ISTART = 0
   IBRION = 2
   NSW = 1000
   ISYM = 0
   ISIF = 2
   EDIFFG = -0.01
   DIPOL = 0.5 0.5 0.5
   IDIPOL = 3
   LDIPOL = .TRUE.
   GGA = RE
   IVDW = 13
   VDW_S8 = 1.7468
   VDW_A1 = 0.5363
   VDW_A2 = 3.0726
   ENCUT = 520
   PREC = Accurate
   LASPH = .TRUE.
   LREAL = Auto
   ISPIN = 1
   NELM = 200
   NELMIN = 8
   NCORE = 8
   KPAR = 1
   LWAVE = .FALSE.
   LCHARG = .FALSE.

 POTCAR:    PAW_PBE C 08Apr2002
 POTCAR:    PAW_PBE H 15Jun2001
 POTCAR:    PAW_PBE O 08Apr2002
 POTCAR:    PAW_PBE Mg 13Apr2007
 POTCAR:    PAW_PBE O 08Apr2002
 POTCAR:    PAW_PBE C 08Apr2002
   VRHFIN =C: s2p2

   TITEL  = PAW_PBE C 08Apr2002
   POMASS =   12.011; ZVAL   =    4.000    mass and valenz
   ENMAX  =  400.000; ENMIN  =  300.000 eV

   TITEL  = PAW_PBE H 15Jun2001
   POMASS =    1.000; ZVAL   =    1.000    mass and valenz
   ENMAX  =  250.000; ENMIN  =  200.000 eV

[...]

   TITEL  = PAW_PBE O 08Apr2002
   POMASS =   16.000; ZVAL   =    6.000    mass and valenz
   ENMAX  =  400.000; ENMIN  =  300.000 eV

 Optimization of the real space projectors (new method)

 maximal supplied QI-value         = 25.13
 optimisation between [QCUT,QGAM] = [ 11.56, 23.12] = [ 37.43,149.72] Ry
 Optimized for a Real-space Cutoff    1.04 Angstroem

   l    n(q)    QCUT    max X(q) W(low)/X(q) W(high)/X(q)  e(spline)
   0      7    11.561   115.676    0.20E-03    0.60E-03    0.21E-06
   0      7    11.561    87.132    0.20E-03    0.59E-03    0.21E-06
   1      7    11.561     4.429    0.23E-03    0.35E-03    0.15E-06
   1      7    11.561     2.733    0.18E-03    0.25E-03    0.12E-06
 Optimization of the real space projectors (new method)

[...]

   l    n(q)    QCUT    max X(q) W(low)/X(q) W(high)/X(q)  e(spline)
   0      9    11.527    28.265    0.62E-04    0.53E-04    0.73E-07
   0      9    11.527    10.429    0.52E-04    0.40E-04    0.58E-07
   1      8    11.527    13.073    0.98E-04    0.18E-03    0.86E-07
   1      8    11.527     9.625    0.79E-04    0.15E-03    0.74E-07
   2      8    11.527     4.652    0.22E-03    0.72E-04    0.47E-07
 Optimization of the real space projectors (new method)

 maximal supplied QI-value         = 24.76
 optimisation between [QCUT,QGAM] = [ 11.64, 23.27] = [ 37.91,151.63] Ry
 Optimized for a Real-space Cutoff    1.14 Angstroem

   l    n(q)    QCUT    max X(q) W(low)/X(q) W(high)/X(q)  e(spline)
   0      8    11.635    20.381    0.10E-03    0.33E-03    0.24E-06
   0      8    11.635    15.268    0.11E-03    0.35E-03    0.26E-06
   1      7    11.635     5.964    0.24E-03    0.31E-03    0.30E-06
   1      7    11.635     5.382    0.22E-03    0.25E-03    0.26E-06
|               ----> ADVICE to this user running VASP <----                  |
|     You enforced a specific xc type in the INCAR file but a different       |
|     type was found in the POTCAR file.                                      |
|     I HOPE YOU KNOW WHAT YOU ARE DOING!                                     |

  PAW_PBE C 08Apr2002                   :
  PAW_PBE H 15Jun2001                   :
  PAW_PBE O 08Apr2002                   :
  PAW_PBE Mg 13Apr2007                  :
  PAW_PBE O 08Apr2002                   :

 POSCAR:  C  H  O Mg  O
  positions in direct lattice
|           W    W    AA    RRRRR   N    N  II  N    N   GGGG   !!!           |
|           W    W   A  A   R    R  NN   N  II  NN   N  G    G  !!!           |
|           W    W  A    A  R    R  N N  N  II  N N  N  G       !!!           |
|           W WW W  AAAAAA  RRRRR   N  N N  II  N  N N  G  GGG   !            |
|           WW  WW  A    A  R   R   N   NN  II  N   NN  G    G                |
|           W    W  A    A  R    R  N    N  II  N    N   GGGG   !!!           |
|     Specifying the vdW parameters                                           |
|     VDW_S8 = 1.747                                                          |
|     VDW_A1 = 0.536                                                          |
|     VDW_A2 = 3.073                                                          |
|     in the INCAR file will overwrite the defaults for revpbe. Please        |
|     make sure that is what you intended.                                    |

 ion  position               nearest neighbor table
   1  0.535  0.562  0.790-   8 1.10   7 1.10   5 1.10  21 1.44
   2  0.313  0.394  0.790-  12 1.10  11 1.10   9 1.10  22 1.44
   3  0.480  0.173  0.790-  16 1.10  15 1.10  13 1.10  23 1.44
   4  0.702  0.340  0.790-  20 1.10  19 1.10  17 1.10  24 1.44
   5  0.521  0.558  0.840-   1 1.10
   6  0.550  0.453  0.761-  21 0.99
   7  0.599  0.570  0.784-   1 1.10
   8  0.505  0.614  0.769-   1 1.10
   9  0.317  0.381  0.840-   2 1.10
  10  0.422  0.410  0.761-  22 0.99
  11  0.305  0.459  0.784-   2 1.10
  12  0.261  0.365  0.769-   2 1.10
  13  0.494  0.177  0.840-   3 1.10
  14  0.465  0.282  0.761-  23 0.99
  15  0.416  0.165  0.784-   3 1.10
  16  0.510  0.121  0.769-   3 1.10
  17  0.698  0.354  0.840-   4 1.10
  18  0.593  0.325  0.761-  24 0.99
  19  0.710  0.276  0.784-   4 1.10
  20  0.754  0.370  0.769-   4 1.10
  21  0.507  0.492  0.757-   6 0.99   1 1.44 127 2.31
  22  0.382  0.367  0.757-  10 0.99   2 1.44  48 2.31
  23  0.507  0.242  0.757-  14 0.99   3 1.44 103 2.31
  24  0.632  0.367  0.757-  18 0.99   4 1.44  96 2.31
  25  0.000  0.375  0.352- 153 2.11 156 2.11 163 2.11 187 2.11 236 2.11  35 2.98  59 2.98 108 2.98
                            28 2.98  58 2.98 114 2.98 138 2.98  34 2.98
  26  0.125  0.000  0.352- 154 2.11 155 2.11 164 2.11 171 2.11 188 2.11  36 2.98  43 2.98  60 2.98
                            27 2.98  57 2.98  33 2.98  73 2.98  49 2.98
  27  0.000  0.000  0.451- 155 2.11 154 2.11 161 2.11 185 2.11 234 2.11 159 2.12  57 2.98 106 2.98
                            26 2.98  33 2.98 116 2.98 140 2.98  60 2.98  36 2.98  37 3.00  61 3.00
  28  0.125  0.375  0.451- 156 2.11 153 2.11 162 2.11 169 2.11 186 2.11 160 2.12  41 2.98  58 2.98
                            25 2.98  34 2.98  59 2.98  75 2.98  51 2.98  35 2.98  62 3.00  38 3.00
  29  0.000  0.375  0.550- 160 2.11 167 2.11 191 2.11 240 2.11 153 2.13 157 2.15  63 2.98 112 2.98
                            32 2.98  39 2.98 118 2.98 142 2.98  38 2.98  62 2.98  28 3.00  35 3.00
  30  0.125  0.000  0.550- 159 2.11 168 2.11 175 2.11 192 2.11 154 2.13 158 2.15  47 2.98  64 2.98
                            31 2.98  40 2.98  37 2.98  77 2.98  53 2.98  61 2.98  27 3.00  36 3.00
  31  0.000  0.000  0.649- 158 2.11 165 2.11 189 2.11 238 2.11 159 2.11  37 2.98  61 2.98 110 2.98
                            30 2.98  40 2.98 120 2.98 144 2.98  64 2.98
  32  0.125  0.375  0.649- 157 2.11 166 2.11 173 2.11 190 2.11 160 2.11  38 2.98  45 2.98  62 2.98
                            29 2.98  39 2.98  63 2.98  79 2.98  55 2.98
  33  0.000  0.125  0.352- 161 2.11 155 2.11 163 2.11 164 2.11 244 2.11  35 2.98  36 2.98 116 2.98
                            27 2.98 106 2.98 114 2.98  26 2.98  34 2.98
  34  0.125  0.250  0.352- 162 2.11 156 2.11 163 2.11 164 2.11 179 2.11  35 2.98  36 2.98  51 2.98
                            28 2.98  41 2.98  49 2.98  25 2.98  33 2.98
  35  0.000  0.250  0.451- 163 2.11 161 2.11 162 2.11 153 2.11 242 2.11 167 2.12  34 2.98 114 2.98
                            25 2.98  33 2.98  28 2.98 116 2.98  36 2.98 108 2.98  38 3.00 118 3.00
  36  0.125  0.125  0.451- 164 2.11 161 2.11 162 2.11 154 2.11 177 2.11 168 2.12  34 2.98  49 2.98
                            26 2.98  33 2.98  27 2.98  51 2.98  35 2.98  43 2.98  38 3.00  53 3.00
  37  0.000  0.125  0.550- 159 2.11 167 2.11 168 2.11 248 2.11 161 2.13 165 2.15  40 2.98 120 2.98
                            31 2.98  39 2.98 118 2.98  30 2.98  38 2.98 110 2.98  35 3.00  36 3.00
  38  0.125  0.250  0.550- 160 2.11 167 2.11 168 2.11 183 2.11 162 2.13 166 2.15  40 2.98  55 2.98
                            32 2.98  39 2.98  53 2.98  29 2.98  37 2.98  45 2.98  35 3.00  36 3.00
  39  0.000  0.250  0.649- 157 2.11 165 2.11 166 2.11 246 2.11 167 2.11  37 2.98  38 2.98 118 2.98
                            29 2.98 112 2.98  32 2.98 120 2.98  40 2.98
  40  0.125  0.125  0.649- 158 2.11 165 2.11 166 2.11 181 2.11 168 2.11  37 2.98  38 2.98  53 2.98
                            30 2.98  47 2.98  31 2.98  55 2.98  39 2.98
  41  0.250  0.375  0.352- 169 2.11 156 2.11 172 2.11 179 2.11 203 2.11  44 2.98  51 2.98  75 2.98
                            28 2.98  58 2.98  74 2.98  50 2.98  34 2.98
  42  0.375  0.000  0.352- 170 2.11 171 2.11 180 2.11 204 2.11 219 2.11  52 2.98  76 2.98  91 2.98
                            43 2.98  73 2.98  97 2.98 121 2.98  49 2.98
  43  0.250  0.000  0.451- 171 2.11 170 2.11 154 2.11 177 2.11 201 2.11 175 2.12  49 2.98  73 2.98
                            26 2.98  42 2.98  36 2.98  76 2.98  52 2.98  60 2.98  53 3.00  77 3.00
  44  0.375  0.375  0.451- 172 2.11 169 2.11 178 2.11 202 2.11 217 2.11 176 2.12  74 2.98  89 2.98
                            41 2.98  50 2.98  99 2.98 123 2.98  75 2.98  51 2.98  54 3.00  78 3.00
  45  0.250  0.375  0.550- 160 2.11 176 2.11 183 2.11 207 2.11 169 2.13 173 2.15  55 2.98  79 2.98
                            32 2.98  48 2.98  78 2.98  54 2.98  38 2.98  62 2.98  44 3.00  28 3.00
  46  0.375  0.000  0.550- 175 2.11 184 2.11 208 2.11 223 2.11 170 2.13 174 2.15  80 2.98  95 2.98
                            47 2.98  56 2.98 101 2.98 125 2.98  53 2.98  77 2.98  43 3.00  52 3.00
  47  0.250  0.000  0.649- 158 2.11 174 2.11 181 2.11 205 2.11 175 2.11  46 2.98  53 2.98  77 2.98
                            30 2.98  64 2.98  40 2.98  80 2.98  56 2.98
  48  0.375  0.375  0.649- 173 2.11 182 2.11 206 2.11 221 2.11 176 2.11  22 2.31  54 2.98  78 2.98
                            93 2.98  45 2.98  55 2.98 103 2.98 127 2.98  79 2.98
  49  0.250  0.125  0.352- 177 2.11 171 2.11 164 2.11 179 2.11 180 2.11  43 2.98  51 2.98  52 2.98
                            36 2.98  50 2.98  26 2.98  42 2.98  34 2.98
  50  0.375  0.250  0.352- 178 2.11 172 2.11 179 2.11 180 2.11 227 2.11  51 2.98  52 2.98  99 2.98
                            44 2.98  89 2.98  97 2.98  41 2.98  49 2.98
  51  0.250  0.250  0.451- 179 2.11 169 2.11 177 2.11 178 2.11 162 2.11 183 2.12  49 2.98  50 2.98
                            34 2.98  41 2.98  28 2.98  52 2.98  44 2.98  36 2.98  53 3.00  54 3.00
  52  0.375  0.125  0.451- 180 2.11 177 2.11 178 2.11 170 2.11 225 2.11 184 2.12  50 2.98  97 2.98
                            42 2.98  49 2.98  43 2.98  99 2.98  51 2.98  91 2.98  54 3.00 101 3.00
  53  0.250  0.125  0.550- 168 2.11 175 2.11 183 2.11 184 2.11 177 2.13 181 2.15  55 2.98  56 2.98
                            40 2.98  47 2.98  30 2.98  46 2.98  38 2.98  54 2.98  43 3.00  51 3.00
  54  0.375  0.250  0.550- 176 2.11 183 2.11 184 2.11 231 2.11 178 2.13 182 2.15  56 2.98 103 2.98
                            48 2.98  55 2.98 101 2.98  45 2.98  53 2.98  93 2.98  51 3.00  52 3.00
  55  0.250  0.250  0.649- 166 2.11 173 2.11 181 2.11 182 2.11 183 2.11  45 2.98  53 2.98  54 2.98
[...]
  12.66147698 10.55123082 13.88644563
  14.77172314 12.66147698 13.88644563
  12.66147698 12.66147698 11.72956500
  14.77172314 10.55123082 11.72956500

--------------------------------------- Iteration      FINAL  ---------------------------------------

--------------------OUTCAR has been truncated-------------------------

[...]

--------------------OUTCAR has been truncated-------------------------

  FORCE on cell =-STRESS in cart. coord.  units (eV):
  Direction    XX          YY          ZZ          XY          YZ          ZX
  Alpha Z  1076.30651  1076.30651  1076.30651
  Ewald  202836.19841202836.23259************    -1.58681    -7.36150    -5.27855
  Hartree218620.05675218620.47600************    -1.06357    -4.89557    -4.72422
  E(xc)   -4832.41799 -4832.41973 -4846.79410    -0.00212    -0.00680    -0.00101
  Local  ************************421354.42863     2.55570    12.02454     9.98163
  n-local -2495.51601 -2495.52315 -2575.69091    -0.00994    -0.08792     0.00940
  augment   891.76922   891.77999   903.03169    -0.00091     0.02738    -0.00011
  Kinetic 18921.12234 18921.26540 19146.15024     0.10807     0.39151    -0.01965
  Fock        0.00000     0.00000     0.00000     0.00000     0.00000     0.00000
  vdW       -88.47089   -88.47048   -69.20552    -0.00051     0.00242     0.00197
  Total    -107.63798  -107.64235     1.67145    -0.00009     0.09405    -0.03054
  in kB     -28.36769   -28.36884     0.44051    -0.00002     0.02479    -0.00805

 VOLUME and BASIS-vectors are now :
  energy-cutoff  :      520.00
  volume of cell :     6079.28
      direct lattice vectors                 reciprocal lattice vectors
    16.881969308  0.000000000  0.000000000     0.059234796  0.000000000  0.000000000
     0.000000000 16.881969308  0.000000000     0.000000000  0.059234796  0.000000000
     0.000000000  0.000000000 21.330738491     0.000000000  0.000000000  0.046880702

  length of vectors
    16.881969308 16.881969308 21.330738491     0.059234796  0.059234796  0.046880702

 FORCES acting on ions:
    Electron-Ion                     Ewald-Force                    Non-Local-Force
   -.384E+02 -.192E+03 -.619E+03   0.396E+02 0.197E+03 0.622E+03   -.119E+01 -.563E+01 -.323E+01
   0.191E+03 -.362E+02 -.619E+03   -.197E+03 0.373E+02 0.622E+03   0.559E+01 -.108E+01 -.332E+01
   0.356E+02 0.191E+03 -.619E+03   -.367E+02 -.197E+03 0.623E+03   0.104E+01 0.557E+01 -.335E+01
   -.192E+03 0.385E+02 -.620E+03   0.198E+03 -.397E+02 0.623E+03   -.563E+01 0.118E+01 -.322E+01
   0.251E+01 -.184E+02 -.178E+03   -.321E+01 0.174E+02 0.183E+03   0.700E+00 0.103E+01 -.545E+01
   -.575E+02 0.215E+02 -.149E+03   0.631E+02 -.266E+02 0.149E+03   -.560E+01 0.513E+01 -.264E+00
   -.649E+02 -.473E+02 -.138E+03   0.702E+02 0.489E+02 0.137E+03   -.534E+01 -.157E+01 0.941E+00
   0.328E+02 -.741E+02 -.134E+03   -.362E+02 0.785E+02 0.132E+03   0.341E+01 -.439E+01 0.172E+01
   0.175E+02 0.366E+01 -.178E+03   -.164E+02 -.444E+01 0.183E+03   -.111E+01 0.785E+00 -.542E+01
   -.212E+02 -.582E+02 -.149E+03   0.263E+02 0.638E+02 0.150E+03   -.510E+01 -.563E+01 -.298E+00
   0.479E+02 -.645E+02 -.138E+03   -.496E+02 0.699E+02 0.137E+03   0.165E+01 -.534E+01 0.824E+00
   0.740E+02 0.334E+02 -.134E+03   -.783E+02 -.368E+02 0.132E+03   0.437E+01 0.343E+01 0.172E+01
   -.413E+01 0.173E+02 -.178E+03   0.494E+01 -.162E+02 0.183E+03   -.821E+00 -.114E+01 -.541E+01
   0.580E+02 -.210E+02 -.149E+03   -.636E+02 0.260E+02 0.149E+03   0.562E+01 -.508E+01 -.290E+00
   0.644E+02 0.482E+02 -.138E+03   -.698E+02 -.498E+02 0.137E+03   0.534E+01 0.167E+01 0.784E+00
   -.334E+02 0.740E+02 -.134E+03   0.368E+02 -.784E+02 0.132E+03   -.344E+01 0.437E+01 0.172E+01
   -.186E+02 -.293E+01 -.178E+03   0.175E+02 0.366E+01 0.184E+03   0.102E+01 -.736E+00 -.544E+01
   0.216E+02 0.570E+02 -.149E+03   -.267E+02 -.625E+02 0.149E+03   0.513E+01 0.557E+01 -.261E+00
   -.472E+02 0.650E+02 -.138E+03   0.488E+02 -.703E+02 0.137E+03   -.155E+01 0.535E+01 0.914E+00
   -.743E+02 -.325E+02 -.134E+03   0.787E+02 0.359E+02 0.132E+03   -.440E+01 -.339E+01 0.175E+01
   0.425E+02 -.107E+03 -.813E+03   -.724E+02 0.103E+03 0.794E+03   0.300E+02 0.392E+01 0.192E+02
   0.107E+03 0.387E+02 -.811E+03   -.104E+03 -.682E+02 0.791E+03   -.385E+01 0.295E+02 0.200E+02
   -.377E+02 0.108E+03 -.810E+03   0.669E+02 -.104E+03 0.790E+03   -.292E+02 -.384E+01 0.201E+02
   -.107E+03 -.425E+02 -.813E+03   0.103E+03 0.723E+02 0.794E+03   0.389E+01 -.298E+02 0.192E+02
   -.130E-01 -.103E-01 0.306E+03   0.130E-01 0.104E-01 -.304E+03   -.274E-04 -.220E-03 -.232E+01
   0.142E+01 0.143E+01 0.305E+03   -.142E+01 -.142E+01 -.303E+03   -.683E-03 -.879E-03 -.232E+01
   -.158E-01 0.199E+01 0.105E+03   0.161E-01 -.199E+01 -.105E+03   -.682E-04 -.273E-03 0.139E+00
   0.389E+01 -.534E-02 0.110E+03   -.387E+01 0.484E-02 -.110E+03   0.786E-04 -.431E-03 0.121E+00
   -.525E-01 -.165E-01 -.853E+02   0.518E-01 0.170E-01 0.853E+02   0.484E-03 -.243E-02 0.325E-01
   0.386E+01 0.387E+01 -.895E+02   -.386E+01 -.386E+01 0.895E+02   -.737E-02 -.903E-02 0.127E-01
   -.546E-01 0.468E+01 -.290E+03   0.554E-01 -.469E+01 0.289E+03   -.102E-02 0.423E-02 0.230E+01
   0.195E+02 0.405E+00 -.278E+03   -.194E+02 -.404E+00 0.276E+03   -.163E+00 -.146E-02 0.229E+01
   -.126E-01 0.188E+01 0.306E+03   0.127E-01 -.188E+01 -.303E+03   -.139E-04 -.690E-03 -.232E+01
   0.196E+01 0.145E+01 0.307E+03   -.195E+01 -.145E+01 -.304E+03   -.244E-02 -.896E-03 -.232E+01
   -.347E-01 0.209E+01 0.108E+03   0.357E-01 -.209E+01 -.108E+03   -.208E-03 -.334E-03 0.133E+00
   0.291E+01 0.328E+01 0.107E+03   -.290E+01 -.327E+01 -.107E+03   -.186E-02 -.856E-03 0.125E+00
   -.772E-01 0.480E+01 -.885E+02   0.775E-01 -.480E+01 0.886E+02   -.161E-04 -.581E-02 0.149E-01
   0.787E+01 0.457E+01 -.835E+02   -.782E+01 -.456E+01 0.835E+02   -.523E-01 -.153E-01 0.498E-01
   -.313E+00 0.571E+01 -.286E+03   0.313E+00 -.572E+01 0.284E+03   0.272E-03 0.104E-01 0.230E+01
   0.991E+01 0.959E+01 -.286E+03   -.988E+01 -.959E+01 0.284E+03   -.398E-01 -.795E-02 0.230E+01
   0.297E+01 -.955E-02 0.308E+03   -.295E+01 0.953E-02 -.306E+03   -.475E-02 -.779E-04 -.232E+01
   0.146E+01 0.197E+01 0.307E+03   -.146E+01 -.196E+01 -.304E+03   -.114E-02 -.243E-02 -.232E+01
   0.330E+01 0.292E+01 0.107E+03   -.329E+01 -.292E+01 -.107E+03   -.137E-02 -.250E-02 0.125E+00
   0.415E+01 -.185E-01 0.118E+03   -.411E+01 0.199E-01 -.118E+03   0.160E-02 -.501E-03 0.187E+00
   0.145E+02 0.901E-01 -.715E+02   -.144E+02 -.924E-01 0.716E+02   -.179E+00 0.373E-02 -.289E-01
   0.461E+01 0.800E+01 -.833E+02   -.459E+01 -.796E+01 0.833E+02   -.146E-01 -.488E-01 0.465E-01
   0.999E+01 0.101E+02 -.286E+03   -.999E+01 -.101E+02 0.284E+03   -.997E-02 -.433E-01 0.229E+01
   0.326E+02 0.139E+01 -.211E+03   -.325E+02 -.138E+01 0.210E+03   -.134E+00 -.186E-02 0.135E+01
   0.243E+01 0.242E+01 0.307E+03   -.242E+01 -.241E+01 -.305E+03   -.244E-02 -.234E-02 -.232E+01
   0.202E+01 0.200E+01 0.309E+03   -.201E+01 -.198E+01 -.307E+03   -.308E-02 -.309E-02 -.232E+01
   0.525E+01 0.309E+01 0.113E+03   -.522E+01 -.308E+01 -.113E+03   0.170E-03 -.216E-02 0.107E+00
   0.314E+01 0.524E+01 0.113E+03   -.312E+01 -.520E+01 -.113E+03   -.259E-02 0.673E-03 0.110E+00
   0.900E+01 0.885E+01 -.815E+02   -.898E+01 -.882E+01 0.815E+02   -.296E-01 -.332E-01 0.496E-01
   0.104E+02 0.102E+02 -.635E+02   -.103E+02 -.101E+02 0.638E+02   -.141E+00 -.145E+00 -.233E+00
   0.295E+02 0.169E+02 -.265E+03   -.294E+02 -.169E+02 0.263E+03   -.250E+00 -.666E-02 0.231E+01
   0.177E+02 0.295E+02 -.262E+03   -.177E+02 -.294E+02 0.261E+03   -.455E-04 -.201E+00 0.232E+01
   -.856E-02 0.812E-02 0.305E+03   0.863E-02 -.808E-02 -.303E+03   -.203E-04 -.203E-03 -.232E+01
   0.196E+01 -.146E+01 0.307E+03   -.195E+01 0.146E+01 -.304E+03   -.232E-02 0.909E-03 -.232E+01
   -.122E-01 -.212E+01 0.108E+03   0.116E-01 0.211E+01 -.108E+03   0.309E-03 0.494E-03 0.140E+00
   0.198E+01 0.159E-01 0.105E+03   -.197E+01 -.162E-01 -.105E+03   0.541E-05 -.564E-03 0.130E+00
[...]
   -.842E+01 -.522E+01 0.890E+03   0.839E+01 0.520E+01 -.894E+03   0.431E-01 0.245E-01 0.330E+01
   -.396E+01 0.262E-01 0.882E+03   0.395E+01 -.262E-01 -.886E+03   0.103E-01 0.339E-02 0.336E+01
   -.222E+02 -.286E+00 -.845E+03   0.222E+02 0.287E+00 0.850E+03   0.229E-01 -.178E-02 -.497E+01
   -.464E+02 -.261E+02 -.825E+03   0.464E+02 0.260E+02 0.830E+03   0.849E-01 0.668E-01 -.497E+01
   -.368E+02 -.211E+02 -.220E+03   0.365E+02 0.210E+02 0.220E+03   0.301E+00 0.714E-01 0.463E+00
   -.966E+01 0.506E-01 -.268E+03   0.965E+01 -.506E-01 0.268E+03   0.130E-01 -.908E-03 0.285E+00
   -.130E+02 -.129E+02 0.330E+03   0.129E+02 0.129E+02 -.330E+03   0.651E-01 0.692E-01 0.103E-01
   -.682E+01 -.672E+01 0.317E+03   0.680E+01 0.671E+01 -.317E+03   0.195E-01 0.150E-01 0.114E-01
   -.611E+01 -.504E+01 0.884E+03   0.610E+01 0.503E+01 -.888E+03   0.150E-01 0.155E-01 0.334E+01
   -.509E+01 -.610E+01 0.884E+03   0.508E+01 0.609E+01 -.888E+03   0.192E-01 0.118E-01 0.335E+01
   -.546E+02 -.519E+02 -.816E+03   0.545E+02 0.518E+02 0.821E+03   0.149E+00 0.166E+00 -.499E+01
   -.183E+02 -.180E+02 -.848E+03   0.183E+02 0.180E+02 0.853E+03   0.372E-01 0.346E-01 -.497E+01
   -.178E+02 -.168E+02 -.257E+03   0.177E+02 0.167E+02 0.256E+03   0.463E-01 0.538E-01 0.298E+00
   -.168E+02 -.175E+02 -.257E+03   0.168E+02 0.174E+02 0.257E+03   0.531E-01 0.448E-01 0.295E+00
   -.459E+00 0.158E+00 -.705E+01   -.192E-12 -.739E-12 -.182E-11   0.457E+00 -.182E+00 0.707E+01

 POSITION                                       TOTAL-FORCE (eV/Angst)
      8.91744      9.38861     16.94387        -0.004376     -0.002766      0.000164
      5.39043      6.77044     16.96373         0.001511     -0.002727      0.006157
      8.00607      3.27806     16.96650        -0.001882     -0.003632     -0.002996
     11.50092      5.85103     16.93857         0.000413      0.005333      0.005929
      8.77937      9.17436     18.01572         0.000324     -0.000931     -0.000581
      9.32474      7.57459     16.20043         0.001893     -0.002197     -0.001330
      9.96120      9.68474     16.75955        -0.002114      0.001628      0.000207
      8.26216     10.20871     16.63145        -0.002947     -0.003030      0.001222
      5.62105      6.61570     18.02986        -0.002458      0.002464      0.001292
      7.19267      7.20769     16.20481         0.002676      0.001438     -0.001244
      5.07880      7.81332     16.80231         0.000122      0.000081     -0.003344
      4.57390      6.11070     16.65133         0.002629     -0.003704     -0.000553
      8.16762      3.51291     18.03070        -0.005094     -0.001311      0.001784
      7.56045      5.07716     16.20068         0.002614      0.000670      0.000089
      6.96269      2.96358     16.81282         0.004966     -0.000747     -0.000992
      8.66603      2.46207     16.65296         0.000055     -0.000469      0.000843
     11.28826      5.99608     18.00997         0.000799     -0.003820     -0.003278
      9.68540      5.44621     16.19473        -0.000595      0.000232     -0.001160
     11.79288      4.80523     16.75951         0.001156      0.000116     -0.000552
     12.32302      6.50196     16.62168        -0.002971     -0.003956      0.004948
      8.58014      8.23566     16.14248         0.000409      0.007965      0.003486
      6.53598      6.45978     16.14177        -0.000319      0.000533      0.004512
      8.30924      4.42060     16.13813        -0.001646      0.006433     -0.001263
     10.34897      6.18933     16.13686         0.003623      0.001142      0.002771
      0.00000      6.33074      7.50000         0.000045     -0.000009      0.399686
      2.11025      0.00000      7.50000         0.002195      0.002027      0.397499
      0.00000      0.00000      9.61025         0.000274      0.000965      0.027734
      2.11025      6.33074      9.61025         0.024462     -0.000829      0.034486
      0.00015      6.33105     11.72309        -0.000239     -0.001202     -0.004685
      2.10976     -0.00036     11.72398        -0.001518     -0.003297     -0.001221
      0.00006     -0.00136     13.81799        -0.000024     -0.001722     -0.002849
      2.10918      6.33079     13.81149         0.000622      0.000413     -0.001904
      0.00000      2.11025      7.50000         0.000051      0.002365      0.397818
      2.11025      4.22049      7.50000         0.005655      0.002707      0.402676
      0.00000      4.22049      9.61025         0.000753      0.001491      0.021606
      2.11025      2.11025      9.61025         0.004540      0.003990      0.023432
      0.00007      2.10963     11.72396         0.000291     -0.004279     -0.002397
      2.10987      4.22074     11.72204         0.001752     -0.001842     -0.002254
      0.00004      4.21898     13.81650         0.000069     -0.001499     -0.000563
      2.10906      2.10792     13.81631        -0.000093     -0.001900     -0.001365
      4.22049      6.33074      7.50000         0.011062     -0.000047      0.413925
      6.33074      0.00000      7.50000         0.002496      0.005548      0.401719
      4.22049      0.00000      9.61025         0.002922      0.003061      0.024626
      6.33074      6.33074      9.61025         0.041356      0.001017      0.115169
      4.22793      6.33016     11.72860        -0.000015      0.000907     -0.001381
      6.33107     -0.00066     11.72197        -0.000761      0.001741     -0.002171
      4.21830     -0.00142     13.81605        -0.002008     -0.000531     -0.001993
      6.32474      6.32948     13.88668         0.003043      0.001152      0.002494
      4.22049      2.11025      7.50000         0.005888      0.006087      0.403996
      6.33074      4.22049      7.50000         0.007666      0.008063      0.421198
      4.22049      4.22049      9.61025         0.032938      0.014900      0.050814
      6.33074      2.11025      9.61025         0.015262      0.034519      0.050001
      4.22042      2.11018     11.72109         0.000657      0.000600     -0.002405
      6.33883      4.22900     11.73702        -0.001873      0.000825      0.000379
      4.21907      4.21658     13.80206         0.001757      0.000667     -0.000390
      6.32754      2.10831     13.80076        -0.001396      0.002201     -0.001475
      0.00000     14.77172      7.50000         0.000051     -0.000044      0.396204
      2.11025      8.44098      7.50000         0.005804     -0.002558      0.401546
      0.00000      8.44098      9.61025        -0.000307     -0.000974      0.022964
      2.11025     14.77172      9.61025         0.002224     -0.000727      0.025703
[...]
     14.77172      8.44098      9.61025         0.022728      0.009042      0.035723
     12.66148      8.44098      7.50000         0.012221      0.007019     -0.497587
     14.77172     14.77172      7.50000         0.005242      0.003408     -0.482955
     12.66370     14.77160     13.87013        -0.001383     -0.000193      0.001012
     14.77463      8.44457     13.87186         0.000016     -0.001989      0.000787
     12.66815      8.44404     11.71531         0.002045     -0.000685      0.000604
     14.77264     14.77157     11.71945        -0.000681     -0.000807      0.001622
     12.66148     10.55123      9.61025         0.019083      0.018773      0.033407
     14.77172     12.66148      9.61025         0.007526      0.004544      0.048301
     12.66148     12.66148      7.50000         0.004200      0.004441     -0.487873
     14.77172     10.55123      7.50000         0.007749      0.001014     -0.485655
     12.66813     10.55872     13.87061         0.000675     -0.000027      0.001692
     14.77429     12.66394     13.87031        -0.001625     -0.001735     -0.000061
     12.66316     12.66317     11.71913        -0.001318      0.000152      0.001918
     14.77354     10.55306     11.71912         0.000606     -0.002503      0.003364
    total drift:                               -0.001649     -0.024309      0.014463

  FREE ENERGIE OF THE ION-ELECTRON SYSTEM (eV)
  free  energy   TOTEN  =     -1614.20777178 eV

  energy  without entropy=    -1614.20777178  energy(sigma->0) =    -1614.20777178

 d Force = 0.4673884E-04[ 0.179E-04, 0.756E-04]  d Energy = 0.4574889E-04 0.990E-06
 d Force = 0.1619712E+01[ 0.162E+01, 0.162E+01]  d Ewald  = 0.1619712E+01 0.352E-06

 Conjugate gradient step on ions:
 trial-energy change:   -0.000046  1 .order   -0.000047   -0.000076   -0.000018
  (g-gl).g = 0.164E-03      g.g   = 0.160E-03  gl.gl    = 0.156E-03
 g(Force)  = 0.160E-03   g(Stress)= 0.000E+00 ortho     =-0.605E-05
 gamma     =   1.05303
 trial     =   0.49103
 opt step  =   0.66862  (harmonic =   0.64370) maximal distance =0.00131506
 next E    = -1614.207775   (d E  =  -0.00005)

 reached required accuracy - stopping structural energy minimisation