 vasp.6.4.2 20Jul23 (build Feb 22 2024 13:53:45) complex
 executed on              LinuxNV date 2024.08.28  22:34:01
 OpenACC runtime initialized ...    4 GPUs detected

 INCAR:
   SYSTEM = Oxide-Surface
   ISMEAR = 0
   SIGMA = 0.05
   EDIFF = 1E-5
   ALGO = Normal
   IBRION = -1
   NSW = 0
   ISYM = 0
   DIPOL = 0.5 0.5 0.5
   IDIPOL = 3
   LDIPOL = .TRUE.
   ISTART = 1
   METAGGA = R2SCAN
   ENCUT = 1000
   PREC = Normal
   PRECFOCK = Normal
   LASPH = .TRUE.
   LREAL = Auto
   ISPIN = 1
   NELM = 200
   NELMIN = 8
   NCORE = 1
   KPAR = 1
   LWAVE = .FALSE.
   LCHARG = .FALSE.

 POTCAR:    PAW_PBE N_h 06Feb2004
 POTCAR:    PAW_PBE H_h 06Feb2004
 POTCAR:    PAW_PBE Ti_sv 26Sep2005
 POTCAR:    PAW_PBE O_h 06Feb2004
 POTCAR:    PAW_PBE N_h 06Feb2004
   VRHFIN =N: s2p3

   TITEL  = PAW_PBE N_h 06Feb2004
   POMASS =   14.001; ZVAL   =    5.000    mass and valenz
   ENMAX  =  700.000; ENMIN  =  500.000 eV

[...]

   TITEL  = PAW_PBE Ti_sv 26Sep2005
   POMASS =   47.880; ZVAL   =   12.000    mass and valenz
   ENMAX  =  274.610; ENMIN  =  205.957 eV

   TITEL  = PAW_PBE O_h 06Feb2004
   POMASS =   16.000; ZVAL   =    6.000    mass and valenz
   ENMAX  =  700.000; ENMIN  =  500.000 eV

 Optimization of the real space projectors (new method)

 maximal supplied QI-value         = 34.20
 optimisation between [QCUT,QGAM] = [ 16.08, 32.15] = [ 72.37,289.48] Ry
 Optimized for a Real-space Cutoff    0.71 Angstroem

   l    n(q)    QCUT    max X(q) W(low)/X(q) W(high)/X(q)  e(spline)
   0      7    16.076   148.539    0.44E-03    0.75E-03    0.58E-07
   0      7    16.076   106.192    0.44E-03    0.75E-03    0.58E-07
   1      6    16.076    73.877    0.23E-03    0.61E-03    0.11E-06
   1      6    16.076    50.042    0.22E-03    0.60E-03    0.11E-06
 Optimization of the real space projectors (new method)

[...]

   l    n(q)    QCUT    max X(q) W(low)/X(q) W(high)/X(q)  e(spline)
   0     12    16.089    12.277    0.23E-04    0.54E-05    0.15E-06
   0     12    16.089    11.419    0.26E-04    0.82E-06    0.19E-06
   1     12    16.089     4.010    0.40E-04    0.12E-04    0.58E-06
   1     12    16.089     6.182    0.55E-05    0.28E-04    0.27E-06
   2     11    16.089    47.177    0.17E-03    0.26E-03    0.90E-06
   2     11    16.089    42.437    0.17E-03    0.25E-03    0.88E-06
 Optimization of the real space projectors (new method)

 maximal supplied QI-value         = 34.20
 optimisation between [QCUT,QGAM] = [ 16.08, 32.15] = [ 72.37,289.48] Ry
 Optimized for a Real-space Cutoff    0.71 Angstroem

   l    n(q)    QCUT    max X(q) W(low)/X(q) W(high)/X(q)  e(spline)
   0      7    16.076   280.207    0.42E-03    0.69E-03    0.60E-07
   0      7    16.076   228.978    0.42E-03    0.69E-03    0.61E-07
   1      6    16.076    86.127    0.11E-03    0.66E-03    0.10E-06
   1      6    16.076    65.368    0.11E-03    0.65E-03    0.10E-06
  PAW_PBE N_h 06Feb2004                 :
  PAW_PBE H_h 06Feb2004                 :
  PAW_PBE Ti_sv 26Sep2005               :
  PAW_PBE O_h 06Feb2004                 :

 POSCAR:  N  H Ti  O
  positions in direct lattice

 METAGGA = R2SCAN                                      LMAXTAU =  6    LMIXTAU =  F

 ion  position               nearest neighbor table
   1  0.617  0.500  0.769-   2 1.02   4 1.02   3 1.02  52 2.30
   2  0.554  0.500  0.800-   1 1.02
   3  0.676  0.428  0.772-   1 1.02
   4  0.676  0.572  0.772-   1 1.02
   5  0.813  0.833  0.229-  89 1.94  55 1.94  57 1.94  56 1.99  54 1.99
   6  0.597  0.667  0.264- 120 1.94  53 1.94  58 1.94  56 1.94  57 1.99  59 1.99
   7  0.313  0.667  0.229- 125 1.94  59 1.94  61 1.94  60 1.99  53 1.99
   8  0.097  0.833  0.264-  54 1.94  92 1.94  62 1.94  60 1.94  61 1.99  55 1.99
   9  0.950  0.833  0.372-  63 1.92  97 1.93  65 1.93  55 1.98  64 1.98  62 2.00
  10  0.732  0.666  0.404-  58 1.89 128 1.93  64 1.94  66 1.96  67 1.99  65 2.00
  11  0.450  0.666  0.371-  67 1.93 133 1.93  69 1.94  59 1.97  68 1.98  58 2.01
  12  0.231  0.833  0.404-  62 1.89 100 1.94  68 1.94  70 1.97  63 1.98  69 2.01
  13  0.091  0.833  0.514-  71 1.92 105 1.93  73 1.93  72 1.97  63 2.00  70 2.01
  14  0.870  0.666  0.542-  66 1.86 136 1.93  72 1.95  75 1.95  73 2.01  74 2.01
  15  0.590  0.666  0.513- 141 1.93  77 1.93  75 1.93  76 1.98  67 1.98  66 2.01
  16  0.369  0.833  0.543-  70 1.86 108 1.94  76 1.94  71 1.95  78 2.00  77 2.02
  17  0.237  0.833  0.659-  79 1.86  81 1.93 113 1.94  80 2.00  71 2.09  78 2.10  20 2.85
  18  0.006  0.666  0.682-  74 1.78  82 1.84 144 1.97  80 1.99  81 2.07  19 2.86
  19  0.735  0.667  0.657-  82 1.89 148 1.93  84 1.94  83 1.99  75 2.04  74 2.10  18 2.86
  20  0.508  0.835  0.681-  78 1.78  79 1.84  83 1.96 115 1.97  84 2.06  17 2.85
  21  0.813  0.167  0.229-  89 1.94  87 1.94 121 1.94  88 1.99  86 1.99
  22  0.597  0.000  0.264-  85 1.94  56 1.94  88 1.94  90 1.94  89 1.99  91 1.99
  23  0.313  0.000  0.229-  61 1.94  93 1.94  91 1.94  92 1.99  85 1.99
  24  0.097  0.167  0.264-  86 1.94  92 1.94  94 1.94 124 1.94  93 1.99  87 1.99
  25  0.950  0.167  0.372-  95 1.92  97 1.93 129 1.93  87 1.98  96 1.98  94 2.00
  26  0.731  1.000  0.404-  90 1.89  64 1.94  96 1.94  98 1.97  99 1.98  97 2.00
  27  0.450  0.000  0.372-  99 1.92 101 1.93  69 1.93  91 1.98 100 1.99  90 2.01
  28  0.231  0.167  0.404-  94 1.89 100 1.94 132 1.94 102 1.97  95 1.98 101 2.01
  29  0.091  0.167  0.514- 103 1.92 105 1.93 137 1.93 104 1.97  95 2.00 102 2.01
  30  0.869  0.000  0.543-  98 1.86 104 1.94  72 1.94 107 1.94 106 2.01 105 2.03
  31  0.590  1.000  0.514- 107 1.92  77 1.93 109 1.93 108 1.98  99 2.00  98 2.01
  32  0.369  0.167  0.543- 102 1.86 108 1.94 140 1.94 103 1.95 110 2.00 109 2.02
  33  0.237  0.167  0.659- 111 1.86 145 1.93 113 1.94 112 2.00 103 2.09 110 2.10  36 2.85
  34  0.009  1.000  0.682- 106 1.78 114 1.84  80 1.98 112 1.98 113 2.04  35 2.84
  35  0.738  1.000  0.659- 114 1.86  84 1.93 116 1.93 115 2.01 106 2.08 107 2.10  34 2.84
  36  0.508  0.165  0.681- 110 1.78 111 1.84 147 1.96 115 1.97 116 2.06  33 2.85
  37  0.813  0.500  0.229-  57 1.94 119 1.94 121 1.94 120 1.99 118 1.99
  38  0.597  0.333  0.264- 117 1.94 122 1.94 120 1.94  88 1.94 121 1.99 123 1.99
  39  0.313  0.333  0.229- 123 1.94  93 1.94 125 1.94 124 1.99 117 1.99
  40  0.097  0.500  0.264-  60 1.94 118 1.94 126 1.94 124 1.94 125 1.99 119 1.99
  41  0.952  0.500  0.371- 127 1.92  65 1.94 129 1.94 119 1.97 126 1.99 128 2.00
  42  0.732  0.334  0.404- 122 1.89 128 1.93  96 1.94 130 1.96 131 1.99 129 2.00
  43  0.450  0.334  0.371- 131 1.93 133 1.93 101 1.94 123 1.97 132 1.98 122 2.01
  44  0.231  0.500  0.405- 126 1.92  68 1.94 132 1.94 127 1.96 134 1.97 133 2.01
  45  0.094  0.500  0.514- 135 1.91 137 1.93  73 1.93 134 1.98 136 2.00 127 2.01
  46  0.870  0.334  0.542- 130 1.86 136 1.93 104 1.95 139 1.95 137 2.01 138 2.01
  47  0.590  0.334  0.513- 141 1.93 109 1.93 139 1.93 140 1.98 131 1.98 130 2.01
  48  0.371  0.500  0.547- 134 1.92  76 1.94 140 1.94 135 1.94 142 1.98 141 2.03
  49  0.240  0.500  0.660- 143 1.86 145 1.93  81 1.93 142 2.03 144 2.03 135 2.10  52 2.87
  50  0.006  0.334  0.682- 138 1.78 146 1.84 144 1.97 112 1.99 145 2.07  51 2.86
  51  0.735  0.333  0.657- 146 1.89 148 1.93 116 1.94 147 1.99 139 2.04 138 2.10  50 2.86
  52  0.512  0.500  0.688- 143 1.84 142 1.88  83 1.98 147 1.98 148 2.07   1 2.30  49 2.87
  53  0.494  0.667  0.200-   6 1.94   7 1.99
  54  0.994  0.833  0.200-   8 1.94   5 1.99
  55  0.917  0.833  0.294-   5 1.94   9 1.98   8 1.99
  56  0.633  0.833  0.258-  22 1.94   6 1.94   5 1.99
  57  0.778  0.667  0.235-  37 1.94   5 1.94   6 1.99
  58  0.630  0.667  0.340-  10 1.89   6 1.94  11 2.01
  59  0.417  0.667  0.294-   7 1.94  11 1.97   6 1.99
  60  0.133  0.667  0.258-  40 1.94   8 1.94   7 1.99
[...]
 134  0.270  0.500  0.482-  48 1.92  44 1.97  45 1.98
 135  0.197  0.500  0.578-  45 1.91  48 1.94  49 2.10
 136  0.909  0.500  0.540-  46 1.93  14 1.93  45 2.00
 137  0.056  0.333  0.517-  29 1.93  45 1.93  46 2.01
 138  0.919  0.333  0.620-  50 1.78  46 2.01  51 2.10
 139  0.699  0.332  0.576-  47 1.93  46 1.95  51 2.04
 140  0.409  0.333  0.541-  48 1.94  32 1.94  47 1.98
 141  0.555  0.500  0.518-  47 1.93  15 1.93  48 2.03
 142  0.417  0.500  0.624-  52 1.88  48 1.98  49 2.03
 143  0.350  0.500  0.719-  52 1.84  49 1.86
 144  0.057  0.500  0.691-  18 1.97  50 1.97  49 2.03
 145  0.200  0.334  0.660-  33 1.93  49 1.93  50 2.07
 146  0.848  0.336  0.716-  50 1.84  51 1.89
 147  0.558  0.331  0.689-  36 1.96  52 1.98  51 1.99
 148  0.698  0.500  0.657-  19 1.93  51 1.93  52 2.07

IMPORTANT INFORMATION: All symmetrisations will be switched off!
NOSYMM: (Re-)initialisation of all symmetry stuff for point group C_1.

                                     Primitive cell

  volume of cell :    2920.0096

  direct lattice vectors                    reciprocal lattice vectors
    10.273755933  0.000000000  0.000000000     0.097335386 -0.000000000  0.000000000
     0.000000000 11.368810418  0.000000000     0.000000000  0.087959950  0.000000000
     0.000000000  0.000000000 25.000000000     0.000000000  0.000000000  0.040000000

  length of vectors
    10.273755933 11.368810418 25.000000000     0.097335386  0.087959950  0.040000000

  position of ions in fractional coordinates (direct lattice)
     0.617314130  0.499999991  0.768800748
     0.554461951  0.499999990  0.800399715
     0.676411270  0.427964670  0.771865561
     0.676411265  0.572035311  0.771865560
     0.813287731  0.833333334  0.229019326
     0.597302620  0.666666667  0.264243083
     0.313287731  0.666666667  0.229019326
     0.097302620  0.833333334  0.264243083
     0.949951511  0.833365554  0.371561342
     0.731670001  0.666242110  0.403517730
     0.449501935  0.666435021  0.371432058
     0.230826968  0.833291647  0.403876606
     0.090689183  0.833458158  0.514084884
     0.870018681  0.666049809  0.542303570
     0.589612626  0.666489594  0.513264750
     0.368860989  0.833396839  0.543291790
     0.236508386  0.832650555  0.659396207
     0.006320531  0.665563878  0.681574537
     0.734980290  0.666506279  0.656534698
     0.508461603  0.834688342  0.681329757
     0.813287731  0.166666667  0.229019326
     0.597302620  0.000000000  0.264243083
     0.313287731  0.000000000  0.229019326
     0.097302620  0.166666667  0.264243083
     0.949951503  0.166634461  0.371561342
     0.731246509  0.999999998  0.403615753
     0.449681743  0.000000003  0.371540985
     0.230826968  0.166708358  0.403876607
     0.090689199  0.166541855  0.514084884
     0.868842600  0.000000013  0.542859306
     0.590245759  1.000000000  0.513669159
     0.368860985  0.166603176  0.543291793
     0.236508379  0.167349433  0.659396216
     0.008685820  0.999999989  0.681627336
     0.738180083  0.999999993  0.658784529
     0.508461596  0.165311651  0.681329751
     0.813287731  0.500000000  0.229019326
     0.597302620  0.333333334  0.264243083
     0.313287731  0.333333334  0.229019326
     0.097302620  0.500000000  0.264243083
     0.951542762  0.500000012  0.371354192
     0.731670010  0.333757895  0.403517738
     0.449501937  0.333564977  0.371432057
     0.231169387  0.500000003  0.405067062
     0.093781645  0.500000006  0.514353725
[...]
   0.426E+02 0.266E-04 -.337E+03   -.473E+02 0.299E-06 0.343E+03   0.482E+01 0.552E-04 -.563E+01   0.231E-03 0.623E-07 0.161E-02
   -.429E+02 0.551E+02 -.329E+03   0.472E+02 -.609E+02 0.329E+03   -.443E+01 0.597E+01 -.382E+00   0.116E-05 -.249E-04 0.156E-02
   -.429E+02 -.551E+02 -.329E+03   0.472E+02 0.609E+02 0.329E+03   -.443E+01 -.597E+01 -.382E+00   0.245E-06 0.245E-04 0.156E-02
   0.182E+01 -.243E+00 0.388E+04   0.473E+01 0.245E+00 -.388E+04   -.249E+01 -.328E-03 -.531E+01   -.450E-02 -.318E-04 -.631E-02
   0.886E+01 -.266E+00 0.319E+04   -.108E+02 0.268E+00 -.319E+04   0.144E+00 -.106E-02 0.365E+00   0.255E-02 0.876E-04 -.273E-03
   0.196E+01 0.184E-01 0.388E+04   0.455E+01 -.234E-01 -.387E+04   -.248E+01 0.180E-02 -.531E+01   -.433E-02 -.780E-04 -.662E-02
   0.717E+01 -.261E-01 0.319E+04   -.913E+01 0.177E-01 -.319E+04   0.157E+00 0.235E-02 0.361E+00   0.258E-02 0.282E-04 0.767E-04
   -.392E+00 0.452E-01 0.145E+04   0.231E+00 -.353E-01 -.145E+04   0.148E+00 -.898E-02 -.210E+00   0.429E-03 0.934E-04 -.448E-03
   0.535E+00 -.163E+01 0.916E+03   -.669E+00 0.156E+01 -.916E+03   0.169E+00 0.635E-01 0.204E+00   -.502E-03 0.128E-03 0.124E-02
   0.159E+01 -.340E+00 0.145E+04   -.176E+01 0.303E+00 -.145E+04   0.172E+00 0.399E-01 -.193E+00   0.251E-03 0.117E-03 -.345E-03
   -.680E+01 0.277E+00 0.908E+03   0.657E+01 -.279E+00 -.908E+03   0.235E+00 0.278E-02 0.182E+00   -.603E-03 0.805E-04 0.122E-02
   -.558E+01 -.289E+01 -.903E+03   0.525E+01 0.289E+01 0.903E+03   0.299E+00 -.115E-01 -.234E+00   -.359E-03 0.616E-05 -.118E-02
   -.138E+02 -.589E+01 -.136E+04   0.134E+02 0.582E+01 0.136E+04   0.531E+00 0.624E-01 0.378E+00   0.327E-03 0.781E-04 -.760E-03
   0.221E+01 -.179E+01 -.874E+03   -.255E+01 0.178E+01 0.874E+03   0.343E+00 0.769E-02 -.152E+00   -.214E-03 0.119E-03 -.949E-03
   -.293E+01 -.917E+00 -.138E+04   0.247E+01 0.943E+00 0.138E+04   0.524E+00 -.273E-01 0.256E+00   0.295E-03 0.164E-03 -.109E-02
   0.357E+02 -.129E+02 -.321E+04   -.365E+02 0.129E+02 0.321E+04   0.844E+00 0.659E-01 -.112E+01   -.308E-02 0.231E-03 -.216E-02
   -.106E+03 -.258E+02 -.366E+04   0.104E+03 0.256E+02 0.366E+04   0.217E+01 0.205E+00 0.235E+01   0.322E-02 0.164E-04 0.172E-02
   -.106E+02 -.481E+02 -.311E+04   0.975E+01 0.481E+02 0.311E+04   0.953E+00 0.330E-01 -.807E+00   -.231E-02 0.713E-04 -.163E-02
   -.751E+02 -.408E+02 -.365E+04   0.727E+02 0.407E+02 0.365E+04   0.226E+01 0.749E-01 0.228E+01   0.431E-02 0.195E-03 0.829E-03
   0.182E+01 0.243E+00 0.388E+04   0.473E+01 -.245E+00 -.388E+04   -.249E+01 0.448E-03 -.531E+01   -.453E-02 0.848E-04 -.647E-02
   0.881E+01 -.165E-03 0.319E+04   -.107E+02 0.733E-05 -.319E+04   0.152E+00 -.110E-03 0.360E+00   0.267E-02 0.287E-04 0.778E-04
   0.181E+01 0.102E-03 0.388E+04   0.472E+01 0.411E-05 -.387E+04   -.249E+01 0.737E-04 -.531E+01   -.441E-02 0.944E-05 -.620E-02
   0.717E+01 0.259E-01 0.319E+04   -.913E+01 -.177E-01 -.319E+04   0.157E+00 -.258E-02 0.361E+00   0.256E-02 -.201E-04 0.651E-04
   -.392E+00 -.450E-01 0.145E+04   0.231E+00 0.353E-01 -.145E+04   0.148E+00 0.921E-02 -.210E+00   0.414E-03 -.104E-03 -.409E-03
   -.230E+01 -.139E-03 0.912E+03   0.208E+01 0.495E-04 -.912E+03   0.250E+00 -.702E-04 0.210E+00   -.460E-03 0.114E-04 0.125E-02
   0.162E+01 0.705E-04 0.145E+04   -.176E+01 0.266E-04 -.145E+04   0.149E+00 0.114E-03 -.233E+00   0.358E-03 0.120E-04 -.385E-03
   -.680E+01 -.277E+00 0.908E+03   0.657E+01 0.279E+00 -.908E+03   0.235E+00 -.291E-02 0.182E+00   -.592E-03 -.853E-04 0.125E-02
   -.558E+01 0.289E+01 -.903E+03   0.525E+01 -.289E+01 0.903E+03   0.299E+00 0.116E-01 -.234E+00   -.320E-03 -.173E-04 -.117E-02
   -.135E+02 -.617E-04 -.138E+04   0.130E+02 0.377E-04 0.138E+04   0.642E+00 -.591E-04 0.320E+00   0.322E-03 -.102E-04 -.714E-03
   -.287E+01 -.461E-05 -.892E+03   0.252E+01 0.812E-04 0.893E+03   0.335E+00 0.732E-04 -.134E+00   -.274E-03 0.165E-04 -.931E-03
   -.293E+01 0.917E+00 -.138E+04   0.247E+01 -.943E+00 0.138E+04   0.524E+00 0.272E-01 0.256E+00   0.304E-03 -.167E-03 -.109E-02
   0.357E+02 0.129E+02 -.321E+04   -.365E+02 -.129E+02 0.321E+04   0.844E+00 -.657E-01 -.112E+01   -.314E-02 -.219E-03 -.220E-02
   -.922E+02 -.103E-03 -.368E+04   0.900E+02 0.137E-04 0.368E+04   0.213E+01 0.128E-03 0.234E+01   0.331E-02 0.439E-04 0.833E-03
   0.159E+02 -.665E-04 -.320E+04   -.165E+02 0.261E-04 0.320E+04   0.737E+00 0.126E-04 -.112E+01   -.276E-02 0.386E-04 -.180E-02
   -.751E+02 0.408E+02 -.365E+04   0.727E+02 -.407E+02 0.365E+04   0.226E+01 -.747E-01 0.228E+01   0.436E-02 -.201E-03 0.757E-03
   0.185E+01 0.144E-03 0.388E+04   0.471E+01 -.998E-05 -.388E+04   -.250E+01 0.798E-04 -.531E+01   -.429E-02 -.423E-04 -.672E-02
   0.886E+01 0.266E+00 0.319E+04   -.108E+02 -.268E+00 -.319E+04   0.144E+00 0.814E-03 0.365E+00   0.264E-02 -.106E-03 -.270E-03
   0.196E+01 -.182E-01 0.388E+04   0.455E+01 0.234E-01 -.387E+04   -.248E+01 -.165E-02 -.531E+01   -.435E-02 0.654E-04 -.660E-02
   0.582E+01 -.113E-03 0.319E+04   -.772E+01 -.149E-04 -.319E+04   0.135E+00 -.134E-03 0.349E+00   0.266E-02 0.101E-04 -.599E-04
   0.319E+01 0.140E-03 0.145E+04   -.322E+01 -.559E-04 -.145E+04   0.703E-03 0.119E-03 -.119E+00   0.571E-03 0.142E-04 -.402E-03
   0.535E+00 0.163E+01 0.916E+03   -.669E+00 -.156E+01 -.916E+03   0.169E+00 -.637E-01 0.204E+00   -.536E-03 -.158E-03 0.122E-02
   0.159E+01 0.340E+00 0.145E+04   -.176E+01 -.303E+00 -.145E+04   0.172E+00 -.397E-01 -.193E+00   0.276E-03 -.125E-03 -.299E-03
   -.118E+02 -.439E-04 0.888E+03   0.116E+02 -.453E-04 -.888E+03   0.278E+00 -.834E-04 0.610E-01   -.630E-03 -.146E-05 0.112E-02
   0.588E-01 0.699E-04 -.905E+03   -.443E-01 -.328E-04 0.906E+03   -.384E-01 0.499E-04 -.246E+00   -.493E-03 0.184E-04 -.135E-02
   -.138E+02 0.589E+01 -.136E+04   0.134E+02 -.582E+01 0.136E+04   0.531E+00 -.625E-01 0.378E+00   0.309E-03 -.744E-04 -.752E-03
   0.221E+01 0.179E+01 -.874E+03   -.255E+01 -.178E+01 0.874E+03   0.343E+00 -.753E-02 -.152E+00   -.223E-03 -.124E-03 -.978E-03
   -.399E+01 -.202E-04 -.143E+04   0.367E+01 -.610E-04 0.143E+04   0.379E+00 -.987E-04 -.121E-01   0.341E-03 -.586E-05 -.594E-03
   0.608E+02 0.275E-04 -.320E+04   -.609E+02 0.175E-04 0.320E+04   0.224E+00 0.113E-04 -.941E+00   -.332E-02 -.302E-04 -.279E-02
   -.106E+03 0.258E+02 -.366E+04   0.104E+03 -.256E+02 0.366E+04   0.217E+01 -.205E+00 0.235E+01   0.322E-02 -.655E-04 0.172E-02
   -.106E+02 0.481E+02 -.311E+04   0.975E+01 -.481E+02 0.311E+04   0.953E+00 -.329E-01 -.807E+00   -.231E-02 -.103E-03 -.160E-02
   0.124E+02 -.277E-04 -.359E+04   -.135E+02 -.210E-04 0.359E+04   0.108E+01 0.184E-04 0.314E+00   0.488E-02 0.118E-04 0.433E-03
   -.395E+02 -.171E+00 0.221E+04   0.453E+02 0.173E+00 -.222E+04   -.768E+01 -.245E-02 0.173E+02   -.755E-04 -.681E-04 -.458E-02
   -.400E+02 -.165E+00 0.221E+04   0.458E+02 0.163E+00 -.222E+04   -.768E+01 0.622E-03 0.173E+02   -.653E-04 -.152E-04 -.432E-02
   0.946E+02 -.464E-02 0.132E+04   -.986E+02 0.360E-02 -.131E+04   0.306E+01 0.299E-03 -.479E+01   0.302E-03 0.235E-04 0.196E-02
   0.890E+02 -.700E-01 0.161E+04   -.963E+02 0.722E-01 -.161E+04   0.772E+01 -.371E-02 -.278E+01   0.118E-02 -.399E-04 -.115E-02
   -.101E+03 -.133E+00 0.186E+04   0.108E+03 0.131E+00 -.186E+04   -.717E+01 0.274E-02 -.102E+01   -.118E-02 0.925E-04 -.352E-02
   -.797E+02 -.875E+00 0.102E+04   0.855E+02 0.926E+00 -.103E+04   -.598E+01 -.491E-01 0.444E+01   -.484E-03 0.552E-04 0.198E-02
   0.954E+02 0.657E-01 0.132E+04   -.994E+02 -.456E-01 -.131E+04   0.304E+01 -.213E-01 -.467E+01   0.231E-03 0.870E-05 0.181E-02
   0.880E+02 0.495E-01 0.161E+04   -.953E+02 -.623E-01 -.160E+04   0.774E+01 0.248E-01 -.281E+01   0.123E-02 -.171E-03 -.120E-02
[...]
   0.101E+03 0.115E-03 -.106E+04   -.108E+03 -.206E-04 0.106E+04   0.693E+01 0.302E-03 -.709E+01   0.115E-02 -.394E-05 -.121E-02
   0.823E+02 0.254E-05 -.696E+03   -.883E+02 0.117E-04 0.699E+03   0.608E+01 -.110E-03 -.310E+01   0.822E-03 0.247E-04 -.105E-02
   -.938E+02 0.560E+00 -.434E+03   0.100E+03 -.603E+00 0.431E+03   -.650E+01 0.404E-01 0.286E+01   -.988E-03 -.353E-04 0.680E-04
   -.725E+02 0.104E+02 -.121E+04   0.755E+02 -.107E+02 0.120E+04   -.313E+01 0.329E+00 0.921E+01   -.249E-03 -.184E-04 0.114E-02
   0.939E+02 0.923E+01 -.102E+04   -.100E+03 -.949E+01 0.103E+04   0.635E+01 0.265E+00 -.550E+01   0.105E-02 -.524E-04 -.981E-03
   0.926E+02 0.922E+00 -.711E+03   -.990E+02 -.945E+00 0.714E+03   0.647E+01 0.181E-01 -.334E+01   0.820E-03 0.536E-04 -.111E-02
   -.848E+02 0.163E-04 -.438E+03   0.910E+02 0.201E-04 0.436E+03   -.626E+01 0.131E-03 0.253E+01   -.975E-03 -.582E-04 0.547E-04
   -.727E+02 0.106E-03 -.124E+04   0.788E+02 0.126E-04 0.123E+04   -.621E+01 0.272E-03 0.607E+01   -.462E-03 -.659E-05 0.863E-03
   0.120E+03 0.870E-03 -.221E+04   -.126E+03 0.848E-05 0.223E+04   0.541E+01 0.148E-02 -.197E+02   0.810E-03 0.160E-05 -.600E-03
   0.538E+02 -.154E-03 -.194E+04   -.574E+02 0.809E-05 0.195E+04   0.365E+01 0.407E-03 -.744E+01   0.139E-02 -.128E-04 0.205E-02
   -.591E+02 0.628E+01 -.158E+04   0.642E+02 -.618E+01 0.157E+04   -.520E+01 -.101E+00 0.330E+01   -.174E-02 0.131E-03 0.127E-02
   0.231E+02 0.306E+02 -.221E+04   -.281E+02 -.305E+02 0.223E+04   0.502E+01 -.122E+00 -.190E+02   0.136E-02 -.322E-03 0.115E-02
   0.886E+02 0.460E+02 -.188E+04   -.937E+02 -.456E+02 0.189E+04   0.507E+01 -.453E+00 -.649E+01   0.180E-02 -.158E-03 0.108E-02
   -.780E+02 -.820E-04 -.149E+04   0.826E+02 0.139E-05 0.148E+04   -.473E+01 0.150E-03 0.447E+01   -.164E-02 0.101E-05 0.138E-02
   -.374E+01 -.260E-02 0.589E+02   -.284E-13 -.469E-12 -.121E-10   0.379E+01 0.495E-02 -.585E+02   0.466E-02 0.871E-05 -.360E-01

 POSITION                                       TOTAL-FORCE (eV/Angst)
      6.34213      5.68441     19.22002         0.023169     -0.000275      0.140558
      5.69641      5.68441     20.00999         0.182016      0.000066     -0.206615
      6.94928      4.86545     19.29664        -0.139433      0.200645     -0.018133
      6.94928      6.50336     19.29664        -0.139429     -0.200754     -0.018054
      8.35552      9.47401      5.72548         4.043979      0.001019      1.843167
      6.13654      7.57921      6.60608        -1.763519      0.000640     -2.074669
      3.21864      7.57921      5.72548         4.014294     -0.003294      1.829918
      0.99966      9.47401      6.60608        -1.793417     -0.006120     -2.079139
      9.75957      9.47437      9.28903        -0.012216      0.001003     -0.037005
      7.51700      7.57438     10.08794         0.034212     -0.001326      0.042694
      4.61807      7.57657      9.28580         0.002949      0.002918     -0.019406
      2.37146      9.47353     10.09692         0.003504      0.001333      0.030342
      0.93172      9.47543     12.85212        -0.025729     -0.004843     -0.038958
      8.93836      7.57219     13.55759         0.058823     -0.006174      0.093325
      6.05754      7.57719     12.83162        -0.002242     -0.006365     -0.033784
      3.78959      9.47473     13.58229         0.064414     -0.000716      0.061120
      2.42983      9.46625     16.48491         0.074187     -0.000443      0.092086
      0.06494      7.56667     17.03936        -0.048796     -0.016772      0.055041
      7.55101      7.57738     16.41337         0.062648      0.009580      0.101234
      5.22381      9.48941     17.03324        -0.079372     -0.010530      0.045801
      8.35552      1.89480      5.72548         4.044005     -0.000702      1.843160
      6.13654      0.00000      6.60608        -1.779510     -0.000255     -2.077604
      3.21864      0.00000      5.72548         4.033818      0.000173      1.836096
      0.99966      1.89480      6.60608        -1.793451      0.005594     -2.079186
      9.75957      1.89444      9.28903        -0.012227     -0.000595     -0.037019
      7.51265     11.36881     10.09039         0.022198     -0.000164      0.051362
      4.61992      0.00000      9.28852         0.003213      0.000207     -0.034470
      2.37146      1.89528     10.09692         0.003507     -0.001647      0.030342
      0.93172      1.89338     12.85212        -0.025732      0.005099     -0.038957
      8.92628      0.00000     13.57148         0.059807     -0.000109      0.048551
      6.06404     11.36881     12.84173        -0.019459      0.000150     -0.023714
      3.78959      1.89408     13.58229         0.064417      0.000526      0.061115
      2.42983      1.90256     16.48491         0.074147      0.000525      0.092039
      0.08924     11.36881     17.04068        -0.072566      0.000067      0.074510
      7.58388     11.36881     16.46961         0.065878     -0.000005      0.075435
      5.22381      1.87940     17.03324        -0.079374      0.010635      0.045778
      8.35552      5.68441      5.72548         4.056845      0.000155      1.841852
      6.13654      3.78960      6.60608        -1.763506     -0.001174     -2.074647
      3.21864      3.78960      5.72548         4.014274      0.003605      1.829910
      0.99966      5.68441      6.60608        -1.763594     -0.000268     -2.008428
      9.77592      5.68441      9.28385        -0.027162      0.000202     -0.042525
      7.51700      3.79443     10.08794         0.034197      0.000987      0.042683
      4.61807      3.79224      9.28580         0.002952     -0.002514     -0.019398
      2.37498      5.68441     10.12668         0.035363     -0.000190     -0.021273
      0.96349      5.68441     12.85884        -0.024725      0.000089     -0.078368
      8.93836      3.79662     13.55759         0.058794      0.005950      0.093310
      6.05754      3.79162     12.83162        -0.002256      0.006682     -0.033780
      3.80876      5.68441     13.66891         0.055810     -0.000202      0.052721
      2.46966      5.68441     16.50312         0.065701      0.000010      0.086343
      0.06494      3.80214     17.03936        -0.048786      0.016876      0.055018
      7.55101      3.79143     16.41337         0.062605     -0.009432      0.101254
      5.25517      5.68441     17.19821         0.021057     -0.000034      0.193869
      5.07194      7.57921      4.99001        -1.953750     -0.001269      1.296451
     10.20882      9.47401      4.99001        -1.950720     -0.000809      1.294028
      9.42012      9.47401      7.34155        -0.892674     -0.000728     -0.237232
      6.50222      9.47401      6.46096         0.527031     -0.001605     -0.143358
      7.98984      7.57921      5.87060         0.130649      0.001000     -1.101836
      6.46979      7.57921      8.51238        -0.189972      0.001678      0.487825
      4.28324      7.57921      7.34155        -0.898274     -0.001381     -0.223545
      1.36534      7.57921      6.46096         0.537861      0.012058     -0.152131
[...]
      2.77424      5.68441     12.05627        -0.128105      0.000066      0.059715
      2.02691      5.68441     14.44776         0.133921      0.000403     -0.052540
      9.33808      5.68441     13.49704         0.123002     -0.000076     -0.046910
      0.57450      3.79142     12.92875        -0.123269     -0.001891      0.037771
      9.43956      3.78626     15.50614        -0.129531      0.007901      0.092422
      7.17961      3.77877     14.40526         0.105270      0.008093     -0.049095
      4.20634      3.79019     13.53304         0.121165     -0.004376     -0.053286
      5.70520      5.68441     12.95031        -0.126334      0.000101      0.047028
      4.28726      5.68441     15.59184        -0.148566      0.000382      0.088604
      3.59586      5.68441     17.98291         0.096814      0.002397     -0.342487
      0.58811      5.68441     17.27820         0.086793      0.000240     -0.064080
      2.05851      3.79374     16.49565        -0.165555     -0.004319      0.093299
      8.71298      3.82129     17.89773         0.140289     -0.013717     -0.347723
      5.73708      3.76119     17.23361         0.099900     -0.039779     -0.076991
      7.17537      5.68441     16.41854        -0.140439      0.000034      0.093989
    total drift:                                0.050848      0.002358      0.401710

  FREE ENERGIE OF THE ION-ELECTRON SYSTEM (eV)
  free  energy   TOTEN  =     -1684.23420868 eV

  energy  without entropy=    -1684.23420868  energy(sigma->0) =    -1684.23420868

     |            E. Caldeweyher, S. Ehlert & S. Grimme          |
     |          Mulliken Center for Theoretical Chemistry        |
     |                    University of Bonn                     |

Rational (Becke-Johnson) damping: r2scan-D4-ATM
  s6         1.0000
  s8         0.6019
  s9         1.0000
  a1         0.5156
  a2         5.7734
 alp        16.0000

Dispersion energy:      -3.3452372279880E-01 Eh