 vasp.6.3.0 20Jan22 (build Apr  1 2022 16:44:48) complex
 executed on        HPECrayEX_GCC date 2022.10.08  14:40:15

 INCAR:
   SYSTEM = MgO-rocksalt
   ISMEAR = 0
   SIGMA = 0.05
   EDIFF = 1E-7
   ALGO = ALL
   ISTART = 0
   IBRION = 2
   NSW = 1000
   ISYM = 0
   ISIF = 2
   EDIFFG = -0.01
   DIPOL = 0.5 0.5 0.5
   IDIPOL = 3
   LDIPOL = .TRUE.
   LHFCALC = .TRUE.
   GGA = PE
   IVDW = 13
   VDW_S8 = 1.2007
   VDW_A1 = 0.4009
   VDW_A2 = 5.0293
   ENCUT = 600
   PREC = Accurate
   LASPH = .TRUE.
   LREAL = .FALSE.
   ISPIN = 1
   NELM = 200
   NELMIN = 8
   NCORE = 8
   KPAR = 1
   LWAVE = .FALSE.
   LCHARG = .FALSE.

 POTCAR:    PAW_PBE C 08Apr2002
 POTCAR:    PAW_PBE H 15Jun2001
 POTCAR:    PAW_PBE Mg_pv 13Apr2007
 POTCAR:    PAW_PBE O 08Apr2002
 POTCAR:    PAW_PBE C 08Apr2002
   VRHFIN =C: s2p2

   TITEL  = PAW_PBE C 08Apr2002
   POMASS =   12.011; ZVAL   =    4.000    mass and valenz
   ENMAX  =  400.000; ENMIN  =  300.000 eV

   TITEL  = PAW_PBE H 15Jun2001
   POMASS =    1.000; ZVAL   =    1.000    mass and valenz
   ENMAX  =  250.000; ENMIN  =  200.000 eV

   TITEL  = PAW_PBE Mg_pv 13Apr2007
   POMASS =   24.305; ZVAL   =    8.000    mass and valenz
   ENMAX  =  403.929; ENMIN  =  302.947 eV

   TITEL  = PAW_PBE O 08Apr2002
   POMASS =   16.000; ZVAL   =    6.000    mass and valenz
   ENMAX  =  400.000; ENMIN  =  300.000 eV

  PAW_PBE C 08Apr2002                   :
  PAW_PBE H 15Jun2001                   :
  PAW_PBE Mg_pv 13Apr2007               :
  PAW_PBE O 08Apr2002                   :

 POSCAR:  C  H Mg  O
  positions in direct lattice
|           W    W    AA    RRRRR   N    N  II  N    N   GGGG   !!!           |
|           W    W   A  A   R    R  NN   N  II  NN   N  G    G  !!!           |
|           W    W  A    A  R    R  N N  N  II  N N  N  G       !!!           |
|           W WW W  AAAAAA  RRRRR   N  N N  II  N  N N  G  GGG   !            |
|           WW  WW  A    A  R   R   N   NN  II  N   NN  G    G                |
|           W    W  A    A  R    R  N    N  II  N    N   GGGG   !!!           |
|     Specifying the vdW parameters                                           |
|     VDW_S8 = 1.201                                                          |
|     VDW_A1 = 0.401                                                          |
|     VDW_A2 = 5.029                                                          |
|     in the INCAR file will overwrite the defaults for pbe0. Please make     |
|     sure that is what you intended.                                         |

 ion  position               nearest neighbor table
   1  0.500  0.500  0.790-   2 1.09   5 1.09   3 1.09   4 1.09
   2  0.500  0.606  0.819-   1 1.09
   3  0.500  0.394  0.819-   1 1.09
   4  0.606  0.500  0.760-   1 1.09
   5  0.394  0.500  0.760-   1 1.09
   6  0.250  0.000  0.353-  40 2.09  41 2.09  48 2.09  57 2.09  38 2.09
   7  0.500  0.250  0.353-  40 2.09  41 2.09  49 2.09  56 2.09  39 2.09
   8  0.250  0.250  0.451-  38 2.09  39 2.09  46 2.09  55 2.09  40 2.09  44 2.10
   9  0.500  0.000  0.451-  38 2.09  39 2.09  47 2.09  54 2.09  41 2.09  45 2.10
  10  0.250  0.000  0.550-  44 2.09  45 2.09  52 2.09  61 2.09  38 2.10  42 2.12
  11  0.500  0.250  0.550-  44 2.09  45 2.09  53 2.09  60 2.09  39 2.10  43 2.12
  12  0.250  0.250  0.648-  44 2.08  43 2.09  42 2.09  50 2.09  59 2.09
  13  0.500  0.000  0.648-  45 2.08  43 2.09  42 2.09  51 2.09  58 2.09
  14  0.250  0.500  0.353-  40 2.09  48 2.09  49 2.09  65 2.09  46 2.09
  15  0.500  0.750  0.353-  41 2.09  48 2.09  49 2.09  64 2.09  47 2.09
  16  0.250  0.750  0.451-  38 2.09  46 2.09  47 2.09  63 2.09  48 2.09  52 2.10
  17  0.500  0.500  0.451-  39 2.09  46 2.09  47 2.09  62 2.09  49 2.09  53 2.10
  18  0.250  0.500  0.550-  44 2.09  52 2.09  53 2.09  69 2.09  46 2.10  50 2.12
  19  0.500  0.750  0.550-  45 2.09  52 2.09  53 2.09  68 2.09  47 2.10  51 2.12
  20  0.250  0.750  0.648-  52 2.08  50 2.09  51 2.09  42 2.09  67 2.09
  21  0.500  0.500  0.648-  53 2.08  50 2.09  51 2.09  43 2.09  66 2.09
  22  0.750  0.000  0.353-  41 2.09  56 2.09  57 2.09  64 2.09  54 2.09
  23  0.000  0.250  0.353-  40 2.09  56 2.09  57 2.09  65 2.09  55 2.09
  24  0.750  0.250  0.451-  39 2.09  54 2.09  55 2.09  62 2.09  56 2.09  60 2.10
  25  0.000  0.000  0.451-  38 2.09  54 2.09  55 2.09  63 2.09  57 2.09  61 2.10
  26  0.750  0.000  0.550-  45 2.09  60 2.09  61 2.09  68 2.09  54 2.10  58 2.12
  27  0.000  0.250  0.550-  44 2.09  60 2.09  61 2.09  69 2.09  55 2.10  59 2.12
  28  0.750  0.250  0.648-  60 2.08  58 2.09  59 2.09  43 2.09  66 2.09
  29  0.000  0.000  0.648-  61 2.08  58 2.09  59 2.09  42 2.09  67 2.09
  30  0.750  0.500  0.353-  49 2.09  56 2.09  64 2.09  65 2.09  62 2.09
  31  0.000  0.750  0.353-  48 2.09  57 2.09  64 2.09  65 2.09  63 2.09
  32  0.750  0.750  0.451-  47 2.09  54 2.09  62 2.09  63 2.09  64 2.09  68 2.10
  33  0.000  0.500  0.451-  46 2.09  55 2.09  62 2.09  63 2.09  65 2.09  69 2.10
  34  0.750  0.500  0.550-  53 2.09  60 2.09  68 2.09  69 2.09  62 2.10  66 2.12
  35  0.000  0.750  0.550-  52 2.09  61 2.09  68 2.09  69 2.09  63 2.10  67 2.12
  36  0.750  0.750  0.648-  68 2.08  58 2.09  66 2.09  67 2.09  51 2.09
  37  0.000  0.500  0.648-  69 2.08  59 2.09  66 2.09  67 2.09  50 2.09
  38  0.250  0.000  0.451-   8 2.09   9 2.09  16 2.09  25 2.09   6 2.09  10 2.10
  39  0.500  0.250  0.451-   8 2.09   9 2.09  17 2.09  24 2.09   7 2.09  11 2.10
  40  0.250  0.250  0.353-   6 2.09   7 2.09  14 2.09  23 2.09   8 2.09
  41  0.500  0.000  0.353-   6 2.09   7 2.09  15 2.09  22 2.09   9 2.09
  42  0.250  0.000  0.650-  12 2.09  13 2.09  20 2.09  29 2.09  10 2.12
  43  0.500  0.250  0.650-  12 2.09  13 2.09  21 2.09  28 2.09  11 2.12
  44  0.250  0.250  0.550-  12 2.08  11 2.09  10 2.09  18 2.09  27 2.09   8 2.10
  45  0.500  0.000  0.550-  13 2.08  11 2.09  10 2.09  19 2.09  26 2.09   9 2.10
  46  0.250  0.500  0.451-   8 2.09  16 2.09  17 2.09  33 2.09  14 2.09  18 2.10
  47  0.500  0.750  0.451-   9 2.09  16 2.09  17 2.09  32 2.09  15 2.09  19 2.10
  48  0.250  0.750  0.353-   6 2.09  14 2.09  15 2.09  31 2.09  16 2.09
  49  0.500  0.500  0.353-   7 2.09  14 2.09  15 2.09  30 2.09  17 2.09
  50  0.250  0.500  0.650-  12 2.09  20 2.09  21 2.09  37 2.09  18 2.12
  51  0.500  0.750  0.650-  13 2.09  20 2.09  21 2.09  36 2.09  19 2.12
  52  0.250  0.750  0.550-  20 2.08  18 2.09  19 2.09  10 2.09  35 2.09  16 2.10
  53  0.500  0.500  0.550-  21 2.08  18 2.09  19 2.09  11 2.09  34 2.09  17 2.10
  54  0.750  0.000  0.451-   9 2.09  24 2.09  25 2.09  32 2.09  22 2.09  26 2.10
  55  0.000  0.250  0.451-   8 2.09  24 2.09  25 2.09  33 2.09  23 2.09  27 2.10
  56  0.750  0.250  0.353-   7 2.09  22 2.09  23 2.09  30 2.09  24 2.09
  57  0.000  0.000  0.353-   6 2.09  22 2.09  23 2.09  31 2.09  25 2.09
  58  0.750  0.000  0.650-  13 2.09  28 2.09  29 2.09  36 2.09  26 2.12
  59  0.000  0.250  0.650-  12 2.09  28 2.09  29 2.09  37 2.09  27 2.12
  60  0.750  0.250  0.550-  28 2.08  26 2.09  27 2.09  11 2.09  34 2.09  24 2.10
  61  0.000  0.000  0.550-  29 2.08  26 2.09  27 2.09  10 2.09  35 2.09  25 2.10
  62  0.750  0.500  0.451-  17 2.09  24 2.09  32 2.09  33 2.09  30 2.09  34 2.10
  63  0.000  0.750  0.451-  16 2.09  25 2.09  32 2.09  33 2.09  31 2.09  35 2.10
  64  0.750  0.750  0.353-  15 2.09  22 2.09  30 2.09  31 2.09  32 2.09
  65  0.000  0.500  0.353-  14 2.09  23 2.09  30 2.09  31 2.09  33 2.09
  66  0.750  0.500  0.650-  21 2.09  28 2.09  36 2.09  37 2.09  34 2.12
  67  0.000  0.750  0.650-  20 2.09  29 2.09  36 2.09  37 2.09  35 2.12
  68  0.750  0.750  0.550-  36 2.08  26 2.09  34 2.09  35 2.09  19 2.09  32 2.10
  69  0.000  0.500  0.550-  37 2.08  27 2.09  34 2.09  35 2.09  18 2.09  33 2.10

IMPORTANT INFORMATION: All symmetrisations will be switched off!
NOSYMM: (Re-)initialisation of all symmetry stuff for point group C_1.

                                     Primitive cell

  volume of cell :    1482.1129

  direct lattice vectors                    reciprocal lattice vectors
     8.349111827  0.000000000  0.000000000     0.119773219  0.000000000  0.000000000
     0.000000000  8.349111827  0.000000000     0.000000000  0.119773219  0.000000000
     0.000000000  0.000000000 21.261833870     0.000000000  0.000000000  0.047032632

  length of vectors
     8.349111827  8.349111827 21.261833870     0.119773219  0.119773219  0.047032632

  position of ions in fractional coordinates (direct lattice)
     0.500000000  0.500000000  0.789568068
     0.500000012  0.606496998  0.819138788
     0.500000010  0.393502998  0.819138787
     0.606497008  0.499999999  0.759997344
     0.393503010  0.499999996  0.759997343
     0.250000000  0.000000000  0.352744737
     0.500000000  0.250000000  0.352744737
     0.250000000  0.250000000  0.450914912
     0.500000000  0.000000000  0.450914912
     0.250000000  0.000000000  0.549824939
     0.500000000  0.250000000  0.549824939
     0.250000000  0.250000000  0.647529520
     0.500000000  0.000000000  0.647529520
     0.250000000  0.500000000  0.352744737
     0.500000000  0.750000000  0.352744737
     0.250000000  0.750000000  0.450914912
     0.500000000  0.500000000  0.450914912
     0.250000000  0.500000000  0.549824939
     0.500000000  0.750000000  0.549824939
     0.250000000  0.750000000  0.647529520
     0.500000000  0.500000000  0.647529520
     0.750000000  0.000000000  0.352744737
     0.000000000  0.250000000  0.352744737
     0.750000000  0.250000000  0.450914912
     0.000000000  0.000000000  0.450914912
     0.750000000  0.000000000  0.549824939
     0.000000000  0.250000000  0.549824939
     0.750000000  0.250000000  0.647529520
     0.000000000  0.000000000  0.647529520
     0.750000000  0.500000000  0.352744737
     0.000000000  0.750000000  0.352744737
     0.750000000  0.750000000  0.450914912
     0.000000000  0.500000000  0.450914912
     0.750000000  0.500000000  0.549824939
     0.000000000  0.750000000  0.549824939
     0.750000000  0.750000000  0.647529520
     0.000000000  0.500000000  0.647529520
     0.250000000  0.000000000  0.450914912
     0.500000000  0.250000000  0.450914912
     0.250000000  0.250000000  0.352744737
     0.500000000  0.000000000  0.352744737
     0.250000000  0.000000000  0.649744381
     0.500000000  0.250000000  0.649744381
     0.250000000  0.250000000  0.549531649
     0.500000000  0.000000000  0.549531649
     0.250000000  0.500000000  0.450914912
     0.500000000  0.750000000  0.450914912
     0.250000000  0.750000000  0.352744737
     0.500000000  0.500000000  0.352744737
     0.250000000  0.500000000  0.649744381
     0.500000000  0.750000000  0.649744381
     0.250000000  0.750000000  0.549531649
     0.500000000  0.500000000  0.549531649
     0.750000000  0.000000000  0.450914912
     0.000000000  0.250000000  0.450914912
     0.750000000  0.250000000  0.352744737
     0.000000000  0.000000000  0.352744737
     0.750000000  0.000000000  0.649744381
     0.000000000  0.250000000  0.649744381
     0.750000000  0.250000000  0.549531649
     0.000000000  0.000000000  0.549531649
     0.750000000  0.500000000  0.450914912
     0.000000000  0.750000000  0.450914912
     0.750000000  0.750000000  0.352744737
[...]
   0.00000000  0.00000000 13.76766509
   6.26183387  4.17455591  7.50000000
   0.00000000  6.26183387  7.50000000
   6.26183387  6.26183387  9.58727796
   0.00000000  4.17455591  9.58727796
   6.26183387  4.17455591 11.69028651
   0.00000000  6.26183387 11.69028651
   6.26183387  6.26183387 13.76766509
   0.00000000  4.17455591 13.76766509
   2.08727796  0.00000000  9.58727796
   4.17455591  2.08727796  9.58727796
   2.08727796  2.08727796  7.50000000
   4.17455591  0.00000000  7.50000000
   2.08727796  0.00000000 13.81475709
   4.17455591  2.08727796 13.81475709
   2.08727796  2.08727796 11.68405063
   4.17455591  0.00000000 11.68405063
   2.08727796  4.17455591  9.58727796
   4.17455591  6.26183387  9.58727796
   2.08727796  6.26183387  7.50000000
   4.17455591  4.17455591  7.50000000
   2.08727796  4.17455591 13.81475709
   4.17455591  6.26183387 13.81475709
   2.08727796  6.26183387 11.68405063
   4.17455591  4.17455591 11.68405063
   6.26183387  0.00000000  9.58727796
   0.00000000  2.08727796  9.58727796
   6.26183387  2.08727796  7.50000000
   0.00000000  0.00000000  7.50000000
   6.26183387  0.00000000 13.81475709
   0.00000000  2.08727796 13.81475709
   6.26183387  2.08727796 11.68405063
   0.00000000  0.00000000 11.68405063
   6.26183387  4.17455591  9.58727796
   0.00000000  6.26183387  9.58727796
   6.26183387  6.26183387  7.50000000
   0.00000000  4.17455591  7.50000000
   6.26183387  4.17455591 13.81475709
   0.00000000  6.26183387 13.81475709
   6.26183387  6.26183387 11.68405063
   0.00000000  4.17455591 11.68405063

--------------------------------------- Iteration      FINAL  ---------------------------------------

--------------------OUTCAR has been truncated-------------------------

[...]

--------------------OUTCAR has been truncated-------------------------

  FORCE on cell =-STRESS in cart. coord.  units (eV):
  Direction    XX          YY          ZZ          XY          YZ          ZX
  Alpha Z   922.87098   922.87098   922.87098
  Ewald  163555.29303163552.19122************     0.00001    -0.00004     0.00019
  Hartree173793.20604173791.47163************     0.00001     0.00008     0.00000
  E(xc)   -1878.78043 -1878.78582 -1881.79146     0.00000     0.00000    -0.00000
  Local  ************************347582.63393    -0.00002    -0.00009    -0.00012
  n-local  -730.05206  -730.03618  -754.56516    -0.00000     0.00000    -0.00000
  augment   827.18305   827.18462   816.21272     0.00000     0.00000    -0.00000
  Kinetic  7440.04872  7440.08528  7477.65042    -0.00000     0.00000    -0.00001
  Fock    -2512.04295 -2512.04200 -2508.04689    -0.00000     0.00000    -0.00000
  vdW        -9.22813    -9.23273    -6.48224    -0.00000    -0.00000    -0.00000
  Total     -30.29956   -30.28324    -2.32233    -0.00000    -0.00004     0.00005
  in kB     -32.75410   -32.73646    -2.51046    -0.00000    -0.00004     0.00005

 VOLUME and BASIS-vectors are now :
  energy-cutoff  :      600.00
  volume of cell :     1482.11
      direct lattice vectors                 reciprocal lattice vectors
     8.349111827  0.000000000  0.000000000     0.119773219  0.000000000  0.000000000
     0.000000000  8.349111827  0.000000000     0.000000000  0.119773219  0.000000000
     0.000000000  0.000000000 21.261833870     0.000000000  0.000000000  0.047032632

  length of vectors
     8.349111827  8.349111827 21.261833870     0.119773219  0.119773219  0.047032632

 FORCES acting on ions:
    Electron-Ion                     Ewald-Force                    Non-Local-Force
   -.542E-04 -.472E-04 -.974E+03   0.971E-04 0.781E-04 0.974E+03   0.640E-04 0.445E-04 -.104E+00
   -.637E-04 -.435E+02 -.241E+03   0.677E-04 0.481E+02 0.244E+03   -.909E-05 -.446E+01 -.311E+01
   -.563E-04 0.435E+02 -.241E+03   0.599E-04 -.481E+02 0.244E+03   -.820E-05 0.446E+01 -.311E+01
   -.437E+02 -.520E-04 -.246E+03   0.484E+02 0.549E-04 0.243E+03   -.452E+01 -.664E-05 0.299E+01
   0.437E+02 -.549E-04 -.246E+03   -.484E+02 0.586E-04 0.243E+03   0.452E+01 -.673E-05 0.299E+01
   0.144E+00 0.568E-05 0.213E+04   -.143E+00 -.471E-05 -.213E+04   -.361E-03 -.613E-06 -.683E+01
   -.767E-06 0.127E+00 0.214E+04   0.101E-05 -.126E+00 -.213E+04   -.128E-06 -.719E-03 -.683E+01
   0.579E+00 0.521E+00 0.729E+03   -.575E+00 -.516E+00 -.730E+03   -.212E-02 -.299E-02 0.446E+00
   0.235E-05 0.326E-04 0.729E+03   0.566E-06 -.249E-04 -.730E+03   -.193E-05 -.481E-05 0.407E+00
   0.241E+01 0.133E-03 -.669E+03   -.240E+01 -.127E-03 0.669E+03   -.681E-02 -.591E-05 -.168E+00
   -.487E-04 0.395E+01 -.663E+03   0.519E-04 -.393E+01 0.663E+03   -.336E-06 -.243E-01 -.315E+00
   0.151E+02 0.153E+02 -.205E+04   -.151E+02 -.154E+02 0.204E+04   -.152E-01 0.745E-01 0.582E+01
   -.976E-04 0.853E-04 -.206E+04   0.889E-04 -.926E-04 0.205E+04   0.948E-05 0.577E-05 0.580E+01
   0.150E+00 -.608E-05 0.214E+04   -.149E+00 0.518E-05 -.213E+04   -.101E-02 0.576E-06 -.683E+01
   -.111E-05 -.127E+00 0.214E+04   0.137E-05 0.126E+00 -.213E+04   -.170E-06 0.719E-03 -.683E+01
   0.579E+00 -.521E+00 0.729E+03   -.575E+00 0.516E+00 -.730E+03   -.212E-02 0.299E-02 0.446E+00
   -.157E-04 -.470E-04 0.730E+03   0.182E-04 0.397E-04 -.730E+03   -.139E-05 0.480E-05 0.477E+00
   0.397E+01 -.192E-03 -.663E+03   -.395E+01 0.187E-03 0.664E+03   -.236E-01 0.619E-05 -.179E+00
   0.176E-04 -.395E+01 -.663E+03   -.123E-04 0.393E+01 0.663E+03   -.391E-05 0.243E-01 -.315E+00
   0.151E+02 -.153E+02 -.205E+04   -.151E+02 0.154E+02 0.204E+04   -.152E-01 -.745E-01 0.582E+01
   0.331E-04 -.357E-03 -.200E+04   -.307E-04 0.345E-03 0.199E+04   -.236E-05 0.156E-04 0.559E+01
   -.144E+00 0.628E-05 0.213E+04   0.143E+00 -.540E-05 -.213E+04   0.361E-03 -.524E-06 -.683E+01
   0.325E-07 0.120E+00 0.213E+04   -.388E-06 -.120E+00 -.213E+04   0.187E-06 -.553E-04 -.683E+01
   -.579E+00 0.521E+00 0.729E+03   0.575E+00 -.516E+00 -.730E+03   0.212E-02 -.299E-02 0.446E+00
   -.117E-04 0.139E-04 0.728E+03   0.938E-05 -.813E-05 -.728E+03   0.148E-05 -.357E-05 0.463E+00
   -.241E+01 0.145E-03 -.669E+03   0.240E+01 -.136E-03 0.669E+03   0.681E-02 -.861E-05 -.168E+00
   -.609E-04 0.234E+01 -.669E+03   0.575E-04 -.233E+01 0.670E+03   0.301E-05 -.912E-03 -.182E+00
   -.151E+02 0.153E+02 -.205E+04   0.151E+02 -.154E+02 0.204E+04   0.152E-01 0.745E-01 0.582E+01
   -.258E-03 0.409E-04 -.207E+04   0.247E-03 -.401E-04 0.206E+04   0.137E-04 0.358E-06 0.580E+01
   -.150E+00 -.639E-05 0.214E+04   0.149E+00 0.551E-05 -.213E+04   0.101E-02 0.543E-06 -.683E+01
   0.641E-06 -.120E+00 0.213E+04   -.104E-05 0.120E+00 -.213E+04   0.235E-06 0.553E-04 -.683E+01
   -.579E+00 -.521E+00 0.729E+03   0.575E+00 0.516E+00 -.730E+03   0.212E-02 0.299E-02 0.446E+00
   0.378E-05 -.271E-04 0.729E+03   -.599E-05 0.209E-04 -.729E+03   0.118E-05 0.393E-05 0.448E+00
   -.397E+01 -.111E-03 -.663E+03   0.395E+01 0.107E-03 0.664E+03   0.236E-01 0.211E-05 -.179E+00
   -.684E-04 -.233E+01 -.669E+03   0.683E-04 0.233E+01 0.670E+03   0.461E-06 0.904E-03 -.182E+00
   -.151E+02 -.153E+02 -.205E+04   0.151E+02 0.154E+02 0.204E+04   0.152E-01 -.745E-01 0.582E+01
   -.701E-04 -.537E-04 -.206E+04   0.757E-04 0.552E-04 0.205E+04   -.262E-05 -.266E-05 0.580E+01
   0.457E+00 0.261E-04 0.546E+03   -.447E+00 -.246E-04 -.546E+03   -.123E-01 -.207E-05 -.963E-01
   -.480E-05 0.419E+00 0.547E+03   0.682E-05 -.432E+00 -.547E+03   -.235E-05 0.147E-01 -.114E+00
   0.109E+00 0.926E-01 0.160E+04   -.108E+00 -.920E-01 -.161E+04   -.128E-02 -.704E-03 0.300E+01
   0.124E-06 0.492E-05 0.160E+04   0.333E-06 -.381E-05 -.161E+04   -.493E-06 -.133E-05 0.300E+01
   0.608E+01 0.620E-04 -.157E+04   -.607E+01 -.625E-04 0.158E+04   -.113E-01 0.273E-06 -.453E+01
   -.654E-04 0.195E+02 -.155E+04   0.704E-04 -.194E+02 0.155E+04   -.319E-05 -.791E-01 -.458E+01
   0.234E+01 0.230E+01 -.493E+03   -.232E+01 -.230E+01 0.493E+03   -.161E-01 -.192E-02 0.316E+00
   0.134E-04 0.121E-03 -.494E+03   -.977E-05 -.119E-03 0.493E+03   -.469E-05 -.491E-05 0.289E+00
   0.503E+00 -.329E-04 0.547E+03   -.509E+00 0.314E-04 -.546E+03   0.678E-02 0.199E-05 -.107E+00
   -.316E-05 -.419E+00 0.547E+03   0.388E-05 0.432E+00 -.547E+03   -.894E-06 -.147E-01 -.114E+00
   0.109E+00 -.926E-01 0.160E+04   -.108E+00 0.920E-01 -.161E+04   -.128E-02 0.704E-03 0.300E+01
   -.145E-05 -.528E-05 0.160E+04   0.172E-05 0.417E-05 -.161E+04   -.420E-06 0.135E-05 0.300E+01
   0.197E+02 -.170E-03 -.155E+04   -.196E+02 0.176E-03 0.155E+04   -.638E-01 -.242E-05 -.448E+01
   -.837E-04 -.195E+02 -.155E+04   0.922E-04 0.194E+02 0.155E+04   -.555E-05 0.791E-01 -.458E+01
   0.234E+01 -.230E+01 -.493E+03   -.232E+01 0.230E+01 0.493E+03   -.161E-01 0.192E-02 0.316E+00
   -.119E-04 -.229E-03 -.490E+03   0.147E-04 0.234E-03 0.489E+03   -.233E-05 0.203E-06 0.153E+00
   -.457E+00 0.337E-04 0.546E+03   0.447E+00 -.307E-04 -.546E+03   0.123E-01 -.369E-05 -.963E-01
   -.743E-05 0.369E+00 0.546E+03   0.642E-05 -.365E+00 -.546E+03   0.137E-05 -.488E-02 -.100E+00
   -.109E+00 0.926E-01 0.160E+04   0.108E+00 -.920E-01 -.161E+04   0.128E-02 -.704E-03 0.300E+01
   -.436E-06 0.361E-05 0.160E+04   0.153E-07 -.264E-05 -.161E+04   0.489E-06 -.114E-05 0.300E+01
   -.608E+01 0.584E-04 -.157E+04   0.607E+01 -.597E-04 0.158E+04   0.113E-01 0.856E-06 -.453E+01
   -.108E-03 0.636E+01 -.157E+04   0.116E-03 -.634E+01 0.158E+04   -.681E-05 -.183E-01 -.452E+01
   -.234E+01 0.230E+01 -.493E+03   0.232E+01 -.230E+01 0.493E+03   0.161E-01 -.192E-02 0.316E+00
   -.928E-04 0.570E-04 -.498E+03   0.948E-04 -.554E-04 0.498E+03   -.172E-06 -.290E-05 0.270E+00
   -.503E+00 -.307E-04 0.547E+03   0.509E+00 0.278E-04 -.546E+03   -.678E-02 0.359E-05 -.107E+00
   -.118E-05 -.369E+00 0.546E+03   0.153E-05 0.365E+00 -.546E+03   -.349E-06 0.488E-02 -.100E+00
   -.109E+00 -.926E-01 0.160E+04   0.108E+00 0.920E-01 -.161E+04   0.127E-02 0.704E-03 0.300E+01
   0.101E-05 -.386E-05 0.160E+04   -.134E-05 0.292E-05 -.161E+04   0.417E-06 0.115E-05 0.300E+01
   -.197E+02 -.114E-03 -.155E+04   0.196E+02 0.119E-03 0.155E+04   0.638E-01 -.303E-05 -.448E+01
   -.188E-03 -.636E+01 -.157E+04   0.201E-03 0.634E+01 0.158E+04   -.807E-05 0.183E-01 -.452E+01
   -.234E+01 -.230E+01 -.493E+03   0.232E+01 0.230E+01 0.493E+03   0.161E-01 0.192E-02 0.316E+00
   -.503E-04 -.125E-03 -.494E+03   0.519E-04 0.126E-03 0.494E+03   -.108E-05 0.220E-05 0.307E+00
   -.619E-04 -.459E-04 0.206E+02   -.570E-13 -.121E-12 -.216E-11   0.588E-04 0.424E-04 -.175E+02

 POSITION                                       TOTAL-FORCE (eV/Angst)
      4.17455      4.17456     16.81779         0.000111      0.000078     -0.007018
      4.17456      5.06686     17.44194        -0.000006     -0.002858      0.004732
      4.17456      3.28225     17.44193        -0.000005      0.002787      0.004776
      5.07384      4.17456     16.19813        -0.002468     -0.000004      0.009113
      3.27527      4.17456     16.19813         0.002367     -0.000003      0.009052
      2.08728      0.00000      7.50000         0.000203      0.000000      0.427127
      4.17456      2.08728      7.50000         0.000000      0.000243      0.427974
      2.08728      2.08728      9.58728         0.001410      0.001498      0.061646
      4.17456      0.00000      9.58728         0.000001      0.000002      0.064783
      2.08730      0.00000     11.68767         0.002876     -0.000001     -0.000677
      4.17456      2.08832     11.68923         0.000002     -0.001921      0.000148
      2.08772      2.08570     13.76187         0.001651     -0.000648      0.002638
      4.17456      0.00000     13.76251         0.000002     -0.000000     -0.001332
      2.08728      4.17456      7.50000         0.000391     -0.000000      0.427445
      4.17456      6.26183      7.50000         0.000000     -0.000243      0.427973
      2.08728      6.26183      9.58728         0.001410     -0.001498      0.061646
      4.17456      4.17456      9.58728         0.000001     -0.000002      0.069008
      2.08826      4.17456     11.68924        -0.000795      0.000001      0.000177
      4.17456      6.26079     11.68923         0.000001      0.001918      0.000157
      2.08772      6.26341     13.76187         0.001651      0.000646      0.002637
      4.17456      4.17456     13.77675        -0.000000      0.000005     -0.002430
      6.26183      0.00000      7.50000        -0.000203      0.000000      0.427127
      0.00000      2.08728      7.50000        -0.000000      0.000059      0.427058
      6.26183      2.08728      9.58728        -0.001410      0.001498      0.061646
      0.00000      0.00000      9.58728        -0.000001      0.000002      0.061331
      6.26182      0.00000     11.68767        -0.002878     -0.000001     -0.000681
     -0.00000      2.08718     11.68810        -0.000000      0.002351     -0.000247
      6.26139      2.08570     13.76187        -0.001655     -0.000648      0.002636
     -0.00000     -0.00000     13.76483         0.000004      0.000001     -0.002525
      6.26183      4.17456      7.50000        -0.000391     -0.000000      0.427445
      0.00000      6.26183      7.50000        -0.000000     -0.000059      0.427058
      6.26183      6.26183      9.58728        -0.001410     -0.001498      0.061646
      0.00000      4.17456      9.58728        -0.000001     -0.000002      0.066280
      6.26085      4.17456     11.68924         0.000793     -0.000001      0.000174
     -0.00000      6.26194     11.68810         0.000000     -0.002353     -0.000240
      6.26139      6.26341     13.76187        -0.001657      0.000647      0.002635
     -0.00000      4.17456     13.76280         0.000002     -0.000001     -0.001204
      2.08728      0.00000      9.58728        -0.004411     -0.000001      0.070256
      4.17456      2.08728      9.58728        -0.000001      0.004938      0.072422
      2.08728      2.08728      7.50000        -0.000439     -0.000252     -0.564602
      4.17456      0.00000      7.50000        -0.000000     -0.000000     -0.564821
      2.08678      0.00000     13.81186         0.002267     -0.000000     -0.002022
      4.17456      2.08506     13.80704         0.000001     -0.003555     -0.002172
      2.08658      2.08736     11.68164         0.000289      0.000259      0.002126
      4.17456      0.00000     11.68013        -0.000002     -0.000004      0.007752
      2.08728      4.17456      9.58728         0.001998      0.000001      0.074827
      4.17456      6.26183      9.58728        -0.000000     -0.004938      0.072424
      2.08728      6.26183      7.50000        -0.000439      0.000252     -0.564602
      4.17456      4.17456      7.50000        -0.000000      0.000000     -0.565108
      2.08421      4.17456     13.81354        -0.003780      0.000003     -0.004313
      4.17456      6.26405     13.80704         0.000002      0.003549     -0.002174
      2.08658      6.26175     11.68164         0.000290     -0.000260      0.002122
      4.17456      4.17456     11.68485         0.000000      0.000006     -0.001934
      6.26183      0.00000      9.58728         0.004411     -0.000001      0.070255
      0.00000      2.08728      9.58728         0.000001     -0.001553      0.071012
      6.26183      2.08728      7.50000         0.000439     -0.000252     -0.564603
      0.00000      0.00000      7.50000         0.000000     -0.000000     -0.564198
      6.26233      0.00000     13.81186        -0.002274     -0.000000     -0.002020
     -0.00000      2.08665     13.81196         0.000001      0.003558      0.002302
      6.26253      2.08736     11.68164        -0.000289      0.000263      0.002129
     -0.00000      0.00000     11.68281         0.000002     -0.000002     -0.008580
      6.26183      4.17456      9.58728        -0.001998      0.000001      0.074828
      0.00000      6.26183      9.58728        -0.000000      0.001553      0.071013
      6.26183      6.26183      7.50000         0.000439      0.000252     -0.564602
      0.00000      4.17456      7.50000         0.000000      0.000000     -0.564233
      6.26490      4.17456     13.81354         0.003781      0.000001     -0.004313
     -0.00000      6.26246     13.81196         0.000003     -0.003558      0.002301
      6.26253      6.26175     11.68164        -0.000289     -0.000261      0.002120
     -0.00000      4.17456     11.68229         0.000000      0.000004     -0.003305
    total drift:                               -0.000000     -0.000001      0.006050

  FREE ENERGIE OF THE ION-ELECTRON SYSTEM (eV)
  free  energy   TOTEN  =      -501.28858304 eV

  energy  without entropy=     -501.28858304  energy(sigma->0) =     -501.28858304

 d Force = 0.3215837E-04[ 0.261E-04, 0.382E-04]  d Energy = 0.3066276E-04 0.150E-05
 d Force = 0.9233615E+01[ 0.923E+01, 0.923E+01]  d Ewald  = 0.9233614E+01 0.187E-05

 reached required accuracy - stopping structural energy minimisation