 vasp.6.3.0 20Jan22 (build Apr  1 2022 16:44:48) complex
 executed on        HPECrayEX_GCC date 2023.03.02  02:34:56

 INCAR:
   SYSTEM = MgO-rocksalt
   ISMEAR = 0
   SIGMA = 0.05
   EDIFF = 1E-8
   ALGO = ALL
   ISTART = 0
   IBRION = 5
   POTIM = 0.01
   NFREE = 2
   ISYM = 0
   DIPOL = 0.5 0.5 0.5
   IDIPOL = 3
   LDIPOL = .TRUE.
   GGA = RE
   IVDW = 13
   VDW_S8 = 1.7468
   VDW_A1 = 0.5363
   VDW_A2 = 3.0726
   ENCUT = 600
   PREC = Accurate
   LASPH = .TRUE.
   LREAL = .FALSE.
   ISPIN = 1
   NELM = 200
   NELMIN = 8
   NCORE = 8
   KPAR = 1
   LWAVE = .FALSE.
   LCHARG = .FALSE.

 POTCAR:    PAW_PBE C 08Apr2002
 POTCAR:    PAW_PBE H 15Jun2001
 POTCAR:    PAW_PBE Mg_pv 13Apr2007
 POTCAR:    PAW_PBE O 08Apr2002
 POTCAR:    PAW_PBE C 08Apr2002
   VRHFIN =C: s2p2

   TITEL  = PAW_PBE C 08Apr2002
   POMASS =   12.011; ZVAL   =    4.000    mass and valenz
   ENMAX  =  400.000; ENMIN  =  300.000 eV

   TITEL  = PAW_PBE H 15Jun2001
   POMASS =    1.000; ZVAL   =    1.000    mass and valenz
   ENMAX  =  250.000; ENMIN  =  200.000 eV

   TITEL  = PAW_PBE Mg_pv 13Apr2007
   POMASS =   24.305; ZVAL   =    8.000    mass and valenz
   ENMAX  =  403.929; ENMIN  =  302.947 eV

   TITEL  = PAW_PBE O 08Apr2002
   POMASS =   16.000; ZVAL   =    6.000    mass and valenz
   ENMAX  =  400.000; ENMIN  =  300.000 eV

  PAW_PBE C 08Apr2002                   :
  PAW_PBE H 15Jun2001                   :
  PAW_PBE Mg_pv 13Apr2007               :
  PAW_PBE O 08Apr2002                   :

 POSCAR:  C  H Mg  O
  positions in direct lattice
|           W    W    AA    RRRRR   N    N  II  N    N   GGGG   !!!           |
|           W    W   A  A   R    R  NN   N  II  NN   N  G    G  !!!           |
|           W    W  A    A  R    R  N N  N  II  N N  N  G       !!!           |
|           W WW W  AAAAAA  RRRRR   N  N N  II  N  N N  G  GGG   !            |
|           WW  WW  A    A  R   R   N   NN  II  N   NN  G    G                |
|           W    W  A    A  R    R  N    N  II  N    N   GGGG   !!!           |
|     Specifying the vdW parameters                                           |
|     VDW_S8 = 1.747                                                          |
|     VDW_A1 = 0.536                                                          |
|     VDW_A2 = 3.073                                                          |
|     in the INCAR file will overwrite the defaults for revpbe. Please        |
|     make sure that is what you intended.                                    |

 ion  position               nearest neighbor table
   1  0.500  0.500  0.796-   3 1.10   2 1.10   4 1.10   5 1.10
   2  0.500  0.606  0.825-   1 1.10
   3  0.500  0.394  0.825-   1 1.10
   4  0.607  0.500  0.766-   1 1.10
   5  0.393  0.500  0.766-   1 1.10
   6  0.000  0.750  0.352-  38 2.11  40 2.11  41 2.11  48 2.11  57 2.11
   7  0.250  0.000  0.352-  39 2.11  40 2.11  41 2.11  49 2.11  56 2.11
   8  0.000  0.000  0.451-  40 2.11  39 2.11  38 2.11  46 2.11  55 2.11  44 2.12
   9  0.250  0.750  0.451-  41 2.11  39 2.11  38 2.11  47 2.11  54 2.11  45 2.12
  10  0.000  0.750  0.550-  61 2.11  45 2.11  44 2.11  52 2.11  38 2.12  42 2.15
  11  0.250  1.000  0.550-  53 2.11  45 2.11  44 2.11  60 2.11  39 2.12  43 2.15
  12  0.000  1.000  0.649-  44 2.11  59 2.11  43 2.11  42 2.11  50 2.11
  13  0.250  0.750  0.649-  45 2.11  58 2.11  43 2.11  51 2.11  42 2.11
  14  0.000  0.250  0.352-  46 2.11  40 2.11  48 2.11  49 2.11  65 2.11
  15  0.250  0.500  0.352-  47 2.11  41 2.11  48 2.11  49 2.11  64 2.11
  16  0.000  0.500  0.451-  48 2.11  46 2.11  47 2.11  38 2.11  63 2.11  52 2.12
  17  0.250  0.250  0.451-  49 2.11  46 2.11  47 2.11  39 2.11  62 2.11  53 2.12
  18  0.000  0.250  0.550-  53 2.11  69 2.11  44 2.11  52 2.11  46 2.12  50 2.15
  19  0.250  0.500  0.550-  68 2.11  45 2.11  53 2.11  52 2.11  47 2.12  51 2.15
  20  0.000  0.500  0.649-  52 2.11  67 2.11  51 2.11  42 2.11  50 2.11
  21  0.250  0.250  0.649-  53 2.11  66 2.11  43 2.11  51 2.11  50 2.11
  22  0.500  0.750  0.352-  54 2.11  41 2.11  56 2.11  57 2.11  64 2.11
  23  0.750  0.000  0.352-  55 2.11  40 2.11  56 2.11  57 2.11  65 2.11
  24  0.500  0.000  0.451-  56 2.11  54 2.11  55 2.11  39 2.11  62 2.11  60 2.12
  25  0.750  0.750  0.451-  57 2.11  54 2.11  55 2.11  38 2.11  63 2.11  61 2.12
  26  0.500  0.750  0.550-  68 2.11  45 2.11  61 2.11  60 2.11  54 2.13  58 2.15
  27  0.750  0.000  0.550-  69 2.11  61 2.11  44 2.11  60 2.11  55 2.12  59 2.15
  28  0.500  1.000  0.649-  66 2.11  58 2.11  60 2.11  43 2.11  59 2.11
  29  0.750  0.750  0.649-  61 2.11  58 2.11  59 2.11  67 2.11  42 2.11
  30  0.500  0.250  0.352-  62 2.11  56 2.11  49 2.11  64 2.11  65 2.11
  31  0.750  0.500  0.352-  63 2.11  57 2.11  48 2.11  64 2.11  65 2.11
  32  0.500  0.500  0.451-  64 2.11  54 2.11  62 2.11  63 2.11  47 2.11  68 2.12
  33  0.750  0.250  0.451-  65 2.11  55 2.11  62 2.11  63 2.11  46 2.11  69 2.12
  34  0.500  0.250  0.550-  68 2.11  53 2.11  69 2.11  60 2.11  62 2.13  66 2.15
  35  0.750  0.500  0.550-  68 2.11  61 2.11  69 2.11  52 2.11  63 2.12  67 2.15
  36  0.500  0.500  0.649-  66 2.11  58 2.11  51 2.11  67 2.11  68 2.12
  37  0.750  0.250  0.649-  69 2.11  66 2.11  59 2.11  67 2.11  50 2.11
  38  0.000  0.750  0.451-   6 2.11   8 2.11   9 2.11  16 2.11  25 2.11  10 2.12
  39  0.250  0.000  0.451-   7 2.11   8 2.11   9 2.11  17 2.11  24 2.11  11 2.12
  40  0.000  0.000  0.352-   8 2.11   7 2.11   6 2.11  14 2.11  23 2.11
  41  0.250  0.750  0.352-   9 2.11   7 2.11   6 2.11  15 2.11  22 2.11
  42  0.000  0.750  0.651-  12 2.11  20 2.11  29 2.11  13 2.11  10 2.15
  43  0.250  0.000  0.651-  21 2.11  13 2.11  12 2.11  28 2.11  11 2.15
  44  0.000  1.000  0.550-  10 2.11  18 2.11  12 2.11  11 2.11  27 2.11   8 2.12
  45  0.250  0.750  0.550-  13 2.11  10 2.11  11 2.11  19 2.11  26 2.11   9 2.12
  46  0.000  0.250  0.451-  14 2.11   8 2.11  16 2.11  17 2.11  33 2.11  18 2.12
  47  0.250  0.500  0.451-  15 2.11   9 2.11  16 2.11  17 2.11  32 2.11  19 2.12
  48  0.000  0.500  0.352-  16 2.11  14 2.11  15 2.11   6 2.11  31 2.11
  49  0.250  0.250  0.352-  17 2.11  14 2.11  15 2.11   7 2.11  30 2.11
  50  0.000  0.250  0.651-  12 2.11  20 2.11  21 2.11  37 2.11  18 2.15
  51  0.250  0.500  0.651-  20 2.11  21 2.11  13 2.11  36 2.11  19 2.15
  52  0.000  0.500  0.550-  20 2.11  10 2.11  18 2.11  19 2.11  35 2.11  16 2.12
  53  0.250  0.250  0.550-  21 2.11  18 2.11  11 2.11  19 2.11  34 2.11  17 2.12
  54  0.500  0.750  0.451-  22 2.11   9 2.11  24 2.11  25 2.11  32 2.11  26 2.13
  55  0.750  0.000  0.451-  23 2.11   8 2.11  24 2.11  25 2.11  33 2.11  27 2.12
  56  0.500  0.000  0.352-  24 2.11  22 2.11  23 2.11   7 2.11  30 2.11
  57  0.750  0.750  0.352-  25 2.11  22 2.11  23 2.11   6 2.11  31 2.11
  58  0.500  0.750  0.651-  28 2.11  13 2.11  29 2.11  36 2.11  26 2.15
  59  0.750  0.000  0.651-  37 2.11  29 2.11  12 2.11  28 2.11  27 2.15
  60  0.500  1.000  0.550-  28 2.11  27 2.11  11 2.11  26 2.11  34 2.11  24 2.12
  61  0.750  0.750  0.550-  29 2.11  10 2.11  27 2.11  35 2.11  26 2.11  25 2.12
  62  0.500  0.250  0.451-  30 2.11  24 2.11  17 2.11  32 2.11  33 2.11  34 2.13
  63  0.750  0.500  0.451-  31 2.11  25 2.11  16 2.11  32 2.11  33 2.11  35 2.12
  64  0.500  0.500  0.352-  32 2.11  22 2.11  30 2.11  31 2.11  15 2.11
  65  0.750  0.250  0.352-  33 2.11  23 2.11  30 2.11  31 2.11  14 2.11
  66  0.500  0.250  0.651-  28 2.11  21 2.11  37 2.11  36 2.11  34 2.15
  67  0.750  0.500  0.651-  20 2.11  29 2.11  37 2.11  36 2.11  35 2.15
  68  0.500  0.500  0.550-  35 2.11  19 2.11  34 2.11  26 2.11  36 2.12  32 2.12
  69  0.750  0.250  0.550-  37 2.11  18 2.11  27 2.11  35 2.11  34 2.11  33 2.12

IMPORTANT INFORMATION: All symmetrisations will be switched off!
NOSYMM: (Re-)initialisation of all symmetry stuff for point group C_1.

                                     Primitive cell

  volume of cell :    1519.8199

  direct lattice vectors                    reciprocal lattice vectors
     8.440984654  0.000000000  0.000000000     0.118469591  0.000000000  0.000000000
     0.000000000  8.440984654  0.000000000     0.000000000  0.118469591  0.000000000
     0.000000000  0.000000000 21.330738491     0.000000000  0.000000000  0.046880702

  length of vectors
     8.440984654  8.440984654 21.330738491     0.118469591  0.118469591  0.046880702

  position of ions in fractional coordinates (direct lattice)
     0.500000022  0.499997701  0.795765481
     0.499999966  0.606400245  0.825294148
     0.499999960  0.393601765  0.825293628
     0.607088423  0.500000081  0.766452828
     0.392911520  0.500000085  0.766452812
     0.000000000  0.750000000  0.351605267
     0.250000000  0.000000000  0.351605267
     0.000000000  0.000000000  0.450535089
     0.250000000  0.750000000  0.450535089
     0.000000003  0.750032167  0.550141647
     0.249992769  0.999999998  0.550135640
     0.000000010  0.999999991  0.648847037
     0.250116514  0.750097339  0.648710816
     0.000000000  0.250000000  0.351605267
     0.250000000  0.500000000  0.351605267
     0.000000000  0.500000000  0.450535089
     0.250000000  0.250000000  0.450535089
     0.000000007  0.249967822  0.550141651
     0.250108445  0.500000001  0.550153757
     0.000000011  0.499999994  0.648675549
     0.250116504  0.249902631  0.648710813
     0.500000000  0.750000000  0.351605267
     0.750000000  0.000000000  0.351605267
     0.500000000  0.000000000  0.450535089
     0.750000000  0.750000000  0.450535089
     0.499999994  0.749901112  0.550182719
     0.750007254  0.000000005  0.550135636
     0.500000006  0.999999998  0.648747779
     0.749883526  0.750097344  0.648710829
     0.500000000  0.250000000  0.351605267
     0.750000000  0.500000000  0.351605267
     0.500000000  0.500000000  0.450535089
     0.750000000  0.250000000  0.450535089
     0.500000001  0.250098874  0.550182703
     0.749891587  0.499999991  0.550153763
     0.500000014  0.499999988  0.649279172
     0.749883523  0.249902625  0.648710829
     0.000000000  0.750000000  0.450535089
     0.250000000  0.000000000  0.450535089
     0.000000000  0.000000000  0.351605267
     0.250000000  0.750000000  0.351605267
     0.000000011  0.750041776  0.650981394
     0.249939864  0.000000003  0.651016895
     0.000000015  0.999999981  0.549923091
     0.249924098  0.750012792  0.549866046
     0.000000000  0.250000000  0.450535089
     0.250000000  0.500000000  0.450535089
     0.000000000  0.500000000  0.351605267
     0.250000000  0.250000000  0.351605267
     0.000000016  0.249958209  0.650981374
     0.249749451  0.499999982  0.651002082
     0.000000017  0.500000002  0.549828664
     0.249924102  0.249987198  0.549866042
     0.500000000  0.750000000  0.450535089
     0.750000000  0.000000000  0.450535089
     0.500000000  0.000000000  0.351605267
     0.750000000  0.750000000  0.351605267
     0.500000003  0.750141602  0.650762171
     0.750060174  0.000000004  0.651016901
     0.500000013  0.999999987  0.549819177
     0.750075914  0.750012790  0.549866047
     0.500000000  0.250000000  0.450535089
     0.750000000  0.500000000  0.450535089
     0.500000000  0.500000000  0.351605267
     0.750000000  0.250000000  0.351605267
[...]
      6.32976      2.10942     13.83748        -0.001187     -0.000492      0.005039
      0.00000      6.33074      9.61025         0.000017      0.002188      0.079025
      2.11025      0.00000      9.61025        -0.003336     -0.000000      0.079563
      0.00000      0.00000      7.50000         0.000003      0.000000     -0.500719
      2.11025      6.33074      7.50000        -0.000215     -0.000024     -0.500729
      0.00000      6.33109     13.88591         0.000189     -0.005586      0.002630
      2.10974      0.00000     13.88667         0.003806     -0.000001     -0.002142
      0.00000      8.44098     11.73027         0.000021      0.000001     -0.007549
      2.10961      6.33085     11.72905        -0.000573     -0.001395     -0.000134
      0.00000      2.11025      9.61025         0.000017     -0.002188      0.079025
      2.11025      4.22049      9.61025         0.002756     -0.000000      0.081456
      0.00000      4.22049      7.50000         0.000003     -0.000000     -0.500401
      2.11025      2.11025      7.50000        -0.000215      0.000024     -0.500729
      0.00000      2.10989     13.88591         0.000188      0.005586      0.002632
      2.10813      4.22049     13.88636        -0.003940      0.000002      0.002687
      0.00000      4.22049     11.72825         0.000234     -0.000001      0.007405
      2.10961      2.11014     11.72905        -0.000573      0.001395     -0.000135
      4.22049      6.33074      9.61025        -0.000019     -0.003969      0.080912
      6.33074      0.00000      9.61025         0.003336      0.000000      0.079526
      4.22049      0.00000      7.50000        -0.000004      0.000000     -0.500906
      6.33074      6.33074      7.50000         0.000214     -0.000025     -0.500736
      4.22049      6.33193     13.88124        -0.000164      0.003326      0.001083
      6.33125      0.00000     13.88667        -0.003810     -0.000001     -0.002033
      4.22049      8.44098     11.72805        -0.000024     -0.000000      0.001979
      6.33138      6.33085     11.72905         0.000568     -0.001213     -0.000297
      4.22049      2.11025      9.61025        -0.000018      0.003968      0.080912
      6.33074      4.22049      9.61025        -0.002753     -0.000000      0.081428
      4.22049      4.22049      7.50000        -0.000004     -0.000000     -0.501051
      6.33074      2.11025      7.50000         0.000214      0.000025     -0.500736
      4.22049      2.10905     13.88124        -0.000164     -0.003329      0.001080
      6.33285      4.22049     13.88636         0.004061      0.000002      0.002074
      4.22049      4.22049     11.73184        -0.000182      0.000001     -0.008967
      6.33138      2.11014     11.72905         0.000570      0.001214     -0.000298
    total drift:                                0.000029      0.000000     -0.000839

  FREE ENERGIE OF THE ION-ELECTRON SYSTEM (eV)
  free  energy   TOTEN  =      -395.61471409 eV

  energy  without entropy=     -395.61471409  energy(sigma->0) =     -395.61471409

 d Force = 0.5647132E-04[-0.255E-02, 0.267E-02]  d Energy = 0.4928341E-04 0.719E-05
 d Force =-0.4649442E+01[-0.466E+01,-0.464E+01]  d Ewald  =-0.4649378E+01-0.644E-04

 Finite differences progress:
  Degree of freedom:  15/ 15
  Displacement:        2/  2
  Total:              30/ 30

 SECOND DERIVATIVES (NOT SYMMETRIZED)
               1X          1Y          1Z          2X          2Y          2Z          3X          3Y          3Z          4X          4Y          4Z          5X          5Y          5Z
  1X   -49.593392    0.000000    0.000179    3.927105    0.000145    0.000083    3.926099   -0.000143    0.000078   21.015943    0.000277  -11.460591   21.016019   -0.000275   11.460772
  1Y     0.000210  -50.080629    0.006586    0.000655   21.057544   11.959663    0.000919   21.063575  -11.965329   -0.000429    3.914856    0.000481   -0.002013    3.915015   -0.001761
  1Z     0.000131    0.005172  -49.265213   -0.000008   11.939221   12.418459   -0.000011  -11.947433   12.424069  -11.572783    0.000226   12.095667   11.572696    0.000223   12.095613
  2X     3.927508   -0.000367    0.000255   -4.041426   -0.001328   -0.000665    0.191331    0.001123   -0.000525   -0.087122   -2.106974   -1.346075   -0.091722    2.106960    1.345305
  2Y     0.000864   21.060507   11.945894   -0.000936  -22.742473  -13.131695   -0.000310    1.765639    1.490781    0.006961   -0.038294   -0.166718   -0.007908   -0.037863   -0.166567
  2Z    -0.000040   11.955176   12.419241   -0.000001  -13.128404  -13.211610   -0.000001   -1.488293   -1.121836    0.184390    1.308889    0.992854   -0.184393    1.308890    0.992868
  3X     3.927825   -0.000383    0.000086    0.191367    0.000060   -0.000877   -4.041427    0.000877   -0.000694   -0.089683    2.107484   -1.345718   -0.089451   -2.106594    1.345545
  3Y     0.000426   21.066595  -11.950946   -0.000316    1.765461   -1.490715   -0.000153  -22.748900   13.137602   -0.008279   -0.037801    0.166915    0.007261   -0.038376    0.167176
  3Z     0.000012  -11.960794   12.423200    0.000005    1.489314   -1.122138    0.000013   13.130918  -13.212169    0.185516   -1.308767    0.991663   -0.185525   -1.308765    0.991649
  4X    21.018975    0.000684  -11.579856   -0.087905    0.007591    0.183622   -0.087937   -0.007722    0.182559  -22.693845   -0.000883   12.521608    1.704250   -0.000522   -1.521974
  4Y     0.000630    3.915481    0.000535   -2.107038   -0.040743    1.306651    2.107254   -0.039916   -1.307844   -0.001861   -4.084106    0.000657    0.000590    0.230500   -0.000256
  4Z   -11.454194    0.000440   12.096958   -1.346962   -0.168131    0.992462   -1.346527    0.167136    0.992481   12.515485    0.000036  -13.057455    1.520273   -0.000218   -1.191275
  5X    21.019018   -0.000348   11.580394   -0.088082   -0.009296   -0.185118   -0.088110    0.009329   -0.185184    1.703523   -0.000012    1.521685  -22.692721    0.000352  -12.521229
  5Y    -0.000205    3.914919   -0.001350    2.107205   -0.040048    1.307476   -2.107161   -0.040169   -1.307195    0.000286    0.230652    0.000430    0.000389   -4.083299    0.000398
  5Z    11.454065    0.000414   12.097000    1.346861   -0.168166    0.992522    1.346426    0.167296    0.992470   -1.520504   -0.000183   -1.191050  -12.515436    0.000054  -13.057279

 Eigenvectors and eigenvalues of the dynamical matrix

   1 f  =   92.456675 THz   580.922424 2PiTHz 3084.022724 cm-1   382.369913 meV
             X         Y         Z           dx          dy          dz
      4.220493  4.220473 16.974265     0.000019    0.302204   -0.003129
      4.220492  5.118615 17.604134    -0.000014   -0.539806   -0.392736
      4.220492  3.322386 17.604123     0.000003   -0.550035    0.399482
      5.124424  4.220493 16.349005    -0.003246    0.020953    0.002012
      3.316560  4.220493 16.349004     0.003184    0.020959    0.001982
      0.000000  6.330738  7.500000            0           0           0
      2.110246  0.000000  7.500000            0           0           0
      0.000000  0.000000  9.610246            0           0           0
      2.110246  6.330738  9.610246            0           0           0
      0.000000  6.331010 11.734928            0           0           0
      2.110185  8.440985 11.734799            0           0           0
      0.000000  8.440985 13.840386            0           0           0
      2.111230  6.331560 13.837481            0           0           0
      0.000000  2.110246  7.500000            0           0           0
      2.110246  4.220492  7.500000            0           0           0
      0.000000  4.220492  9.610246            0           0           0
      2.110246  2.110246  9.610246            0           0           0
      0.000000  2.109975 11.734928            0           0           0
      2.111162  4.220492 11.735186            0           0           0
      0.000000  4.220492 13.836729            0           0           0
      2.111230  2.109424 13.837481            0           0           0
      4.220492  6.330738  7.500000            0           0           0
      6.330738  0.000000  7.500000            0           0           0
      4.220492  0.000000  9.610246            0           0           0
      6.330738  6.330738  9.610246            0           0           0
      4.220492  6.329904 11.735804            0           0           0
      6.330800  0.000000 11.734799            0           0           0
      4.220492  8.440985 13.838269            0           0           0
      6.329755  6.331560 13.837481            0           0           0
      4.220492  2.110246  7.500000            0           0           0
      6.330738  4.220492  7.500000            0           0           0
      4.220492  4.220492  9.610246            0           0           0
      6.330738  2.110246  9.610246            0           0           0
      4.220492  2.111081 11.735803            0           0           0
      6.329823  4.220492 11.735186            0           0           0
      4.220492  4.220492 13.849604            0           0           0
      6.329755  2.109424 13.837481            0           0           0
      0.000000  6.330738  9.610246            0           0           0
      2.110246  0.000000  9.610246            0           0           0
      0.000000  0.000000  7.500000            0           0           0
      2.110246  6.330738  7.500000            0           0           0
      0.000000  6.331091 13.885914            0           0           0
      2.109739  0.000000 13.886671            0           0           0
      0.000000  8.440984 11.730266            0           0           0
      2.109605  6.330846 11.729049            0           0           0
      0.000000  2.110246  9.610246            0           0           0
      2.110246  4.220492  9.610246            0           0           0
      0.000000  4.220492  7.500000            0           0           0
      2.110246  2.110246  7.500000            0           0           0
      0.000000  2.109893 13.885913            0           0           0
      2.108131  4.220492 13.886355            0           0           0
      0.000000  4.220492 11.728251            0           0           0
      2.109606  2.110138 11.729049            0           0           0
      4.220492  6.330738  9.610246            0           0           0
      6.330738  0.000000  9.610246            0           0           0
      4.220492  0.000000  7.500000            0           0           0
      6.330738  6.330738  7.500000            0           0           0
      4.220492  6.331934 13.881238            0           0           0
      6.331246  0.000000 13.886671            0           0           0
      4.220492  8.440985 11.728049            0           0           0
      6.331379  6.330846 11.729049            0           0           0
      4.220492  2.110246  9.610246            0           0           0
      6.330738  4.220492  9.610246            0           0           0
      4.220492  4.220492  7.500000            0           0           0
      6.330738  2.110246  7.500000            0           0           0
      4.220492  2.109051 13.881238            0           0           0
      6.332854  4.220492 13.886355            0           0           0
      4.220492  4.220492 11.731837            0           0           0
      6.331379  2.110138 11.729049            0           0           0

[...]

  15 f  =    0.222453 THz     1.397715 2PiTHz    7.420241 cm-1     0.919992 meV
             X         Y         Z           dx          dy          dz
      4.220493  4.220473 16.974265    -0.014810    0.735684   -0.001144
      4.220492  5.118615 17.604134    -0.006684    0.397745   -0.265387
      4.220492  3.322386 17.604123    -0.003084    0.397748    0.264760
      5.124424  4.220493 16.349005    -0.003600    0.029390    0.000637
      3.316560  4.220493 16.349004    -0.003604    0.025876   -0.001322
      0.000000  6.330738  7.500000            0           0           0
      2.110246  0.000000  7.500000            0           0           0
      0.000000  0.000000  9.610246            0           0           0
      2.110246  6.330738  9.610246            0           0           0
      0.000000  6.331010 11.734928            0           0           0
      2.110185  8.440985 11.734799            0           0           0
      0.000000  8.440985 13.840386            0           0           0
      2.111230  6.331560 13.837481            0           0           0
      0.000000  2.110246  7.500000            0           0           0
      2.110246  4.220492  7.500000            0           0           0
      0.000000  4.220492  9.610246            0           0           0
      2.110246  2.110246  9.610246            0           0           0
      0.000000  2.109975 11.734928            0           0           0
      2.111162  4.220492 11.735186            0           0           0
      0.000000  4.220492 13.836729            0           0           0
      2.111230  2.109424 13.837481            0           0           0
      4.220492  6.330738  7.500000            0           0           0
      6.330738  0.000000  7.500000            0           0           0
      4.220492  0.000000  9.610246            0           0           0
      6.330738  6.330738  9.610246            0           0           0
      4.220492  6.329904 11.735804            0           0           0
      6.330800  0.000000 11.734799            0           0           0
      4.220492  8.440985 13.838269            0           0           0
      6.329755  6.331560 13.837481            0           0           0
      4.220492  2.110246  7.500000            0           0           0
      6.330738  4.220492  7.500000            0           0           0
      4.220492  4.220492  9.610246            0           0           0
      6.330738  2.110246  9.610246            0           0           0
      4.220492  2.111081 11.735803            0           0           0
      6.329823  4.220492 11.735186            0           0           0
      4.220492  4.220492 13.849604            0           0           0
      6.329755  2.109424 13.837481            0           0           0
      0.000000  6.330738  9.610246            0           0           0
      2.110246  0.000000  9.610246            0           0           0
      0.000000  0.000000  7.500000            0           0           0
      2.110246  6.330738  7.500000            0           0           0
      0.000000  6.331091 13.885914            0           0           0
      2.109739  0.000000 13.886671            0           0           0
      0.000000  8.440984 11.730266            0           0           0
      2.109605  6.330846 11.729049            0           0           0
      0.000000  2.110246  9.610246            0           0           0
      2.110246  4.220492  9.610246            0           0           0
      0.000000  4.220492  7.500000            0           0           0
      2.110246  2.110246  7.500000            0           0           0
      0.000000  2.109893 13.885913            0           0           0
      2.108131  4.220492 13.886355            0           0           0
      0.000000  4.220492 11.728251            0           0           0
      2.109606  2.110138 11.729049            0           0           0
      4.220492  6.330738  9.610246            0           0           0
      6.330738  0.000000  9.610246            0           0           0
      4.220492  0.000000  7.500000            0           0           0
      6.330738  6.330738  7.500000            0           0           0
      4.220492  6.331934 13.881238            0           0           0
      6.331246  0.000000 13.886671            0           0           0
      4.220492  8.440985 11.728049            0           0           0
      6.331379  6.330846 11.729049            0           0           0
      4.220492  2.110246  9.610246            0           0           0
      6.330738  4.220492  9.610246            0           0           0
      4.220492  4.220492  7.500000            0           0           0
      6.330738  2.110246  7.500000            0           0           0
      4.220492  2.109051 13.881238            0           0           0
      6.332854  4.220492 13.886355            0           0           0
      4.220492  4.220492 11.731837            0           0           0
      6.331379  2.110138 11.729049            0           0           0

 Finite differences POTIM=   1.0000000000000000E-002