 vasp.6.4.2 20Jul23 (build Nov 17 2023 15:39:20) complex
 executed on              LinuxNV date 2024.02.25  15:33:07
 OpenACC runtime initialized ...    4 GPUs detected

 INCAR:
   SYSTEM = Oxide-Surface
   ISMEAR = 0
   SIGMA = 0.05
   EDIFF = 1E-4
   ALGO = Normal
   ISTART = 2
   IBRION = -1
   NSW = 0
   ISYM = 0
   DIPOL = 0.5 0.5 0.5
   IDIPOL = 3
   LDIPOL = .TRUE.
   LHFCALC = .TRUE.
   GGA = PE
   IVDW = 21
   VDW_SR = 0.96
   ENCUT = 450
   PREC = Normal
   LASPH = .TRUE.
   LREAL = Auto
   ISPIN = 1
   NELM = 200
   NELMIN = 8
   NCORE = 1
   KPAR = 1
   LWAVE = .FALSE.
   LCHARG = .FALSE.

 POTCAR:    PAW_PBE N 08Apr2002
 POTCAR:    PAW_PBE H 15Jun2001
 POTCAR:    PAW_PBE Ti_pv 07Sep2000
 POTCAR:    PAW_PBE O 08Apr2002
 POTCAR:    PAW_PBE N 08Apr2002
   VRHFIN =N: s2p3

   TITEL  = PAW_PBE N 08Apr2002
   POMASS =   14.001; ZVAL   =    5.000    mass and valenz
   ENMAX  =  400.000; ENMIN  =  300.000 eV

   TITEL  = PAW_PBE H 15Jun2001
   POMASS =    1.000; ZVAL   =    1.000    mass and valenz
   ENMAX  =  250.000; ENMIN  =  200.000 eV

   TITEL  = PAW_PBE Ti_pv 07Sep2000
   POMASS =   47.880; ZVAL   =   10.000    mass and valenz
   ENMAX  =  222.335; ENMIN  =  166.751 eV

   TITEL  = PAW_PBE O 08Apr2002
   POMASS =   16.000; ZVAL   =    6.000    mass and valenz
   ENMAX  =  400.000; ENMIN  =  300.000 eV

 Optimization of the real space projectors (new method)

 maximal supplied QI-value         = 25.13
 optimisation between [QCUT,QGAM] = [ 10.81, 21.61] = [ 32.71,130.83] Ry
 Optimized for a Real-space Cutoff    1.23 Angstroem

   l    n(q)    QCUT    max X(q) W(low)/X(q) W(high)/X(q)  e(spline)
   0      8    10.807    79.467    0.34E-03    0.68E-03    0.21E-06
   0      8    10.807    66.151    0.34E-03    0.67E-03    0.21E-06
   1      7    10.807    14.030    0.45E-03    0.13E-02    0.11E-05
   1      7    10.807     9.831    0.48E-03    0.13E-02    0.11E-05
 Optimization of the real space projectors (new method)

[...]

   l    n(q)    QCUT    max X(q) W(low)/X(q) W(high)/X(q)  e(spline)
   1      9    10.734     4.216    0.90E-04    0.17E-04    0.73E-07
   1      9    10.734     5.422    0.20E-03    0.95E-04    0.21E-06
   2      9    10.734    72.084    0.40E-03    0.60E-03    0.19E-06
   2      9    10.734    65.965    0.40E-03    0.59E-03    0.19E-06
   0      9    10.734    41.531    0.93E-04    0.36E-04    0.17E-06
   0      9    10.734    16.290    0.71E-04    0.26E-04    0.13E-06
 Optimization of the real space projectors (new method)

 maximal supplied QI-value         = 24.76
 optimisation between [QCUT,QGAM] = [ 10.64, 21.54] = [ 31.73,129.89] Ry
 Optimized for a Real-space Cutoff    1.23 Angstroem

   l    n(q)    QCUT    max X(q) W(low)/X(q) W(high)/X(q)  e(spline)
   0      8    10.645    20.381    0.38E-03    0.60E-03    0.15E-06
   0      8    10.645    15.268    0.40E-03    0.65E-03    0.17E-06
   1      7    10.645     5.964    0.30E-03    0.63E-03    0.18E-06
   1      7    10.645     5.382    0.24E-03    0.53E-03    0.16E-06
  PAW_PBE N 08Apr2002                   :
  PAW_PBE H 15Jun2001                   :
  PAW_PBE Ti_pv 07Sep2000               :
  PAW_PBE O 08Apr2002                   :

 POSCAR:  N  H Ti  O
  positions in direct lattice
 exchange correlation table for  LEXCH =        8
   RHO(1)=    0.500       N(1)  =     2000
   RHO(2)=  100.500       N(2)  =     4000

 ion  position               nearest neighbor table
   1  0.612  0.500  0.778-   2 1.02   4 1.02   3 1.02  52 2.30
   2  0.549  0.500  0.807-   1 1.02
   3  0.671  0.428  0.781-   1 1.02
   4  0.671  0.572  0.781-   1 1.02
   5  0.808  0.833  0.295-  89 1.94  55 1.94  57 1.94  54 1.99  56 1.99  22 3.05   8 3.05   6 3.05

   6  0.592  0.667  0.327-  53 1.94 120 1.94  56 1.94  58 1.94  57 1.99  59 1.99  37 3.05   7 3.05
                             5 3.05  11 3.08
   7  0.308  0.667  0.295- 125 1.94  59 1.94  61 1.94  53 1.99  60 1.99  40 3.05   6 3.05   8 3.05

   8  0.092  0.833  0.327-  54 1.94  92 1.94  60 1.94  62 1.94  61 1.99  55 1.99  23 3.05   5 3.05
                             7 3.05   9 3.08
   9  0.944  0.833  0.423-  63 1.92  97 1.93  65 1.93  55 1.98  64 1.98  62 2.00  12 3.00  10 3.05
                            26 3.05   8 3.08
  10  0.726  0.666  0.451-  58 1.89 128 1.93  64 1.94  66 1.96  67 1.99  65 2.00  11 3.01   9 3.05
                            41 3.05  15 3.11
  11  0.444  0.666  0.423-  67 1.93 133 1.93  69 1.94  59 1.97  68 1.98  58 2.01  10 3.01  12 3.05
                            44 3.05   6 3.08
  12  0.225  0.833  0.452-  62 1.89 100 1.94  68 1.94  70 1.97  63 1.98  69 2.01   9 3.00  27 3.05
                            11 3.05  13 3.11
  13  0.085  0.833  0.550-  71 1.92 105 1.93  73 1.93  72 1.97  63 2.00  70 2.01  16 2.95  14 3.04
                            30 3.05  12 3.11
  14  0.865  0.666  0.576-  66 1.86 136 1.93  72 1.95  75 1.95  73 2.01  74 2.01  15 2.97  13 3.04
                            45 3.06  19 3.17
  15  0.584  0.666  0.550- 141 1.93  77 1.93  75 1.93  76 1.98  67 1.98  66 2.01  14 2.97  16 3.05
                            48 3.06  10 3.11
  16  0.363  0.833  0.576-  70 1.86 108 1.94  76 1.94  71 1.95  78 2.00  77 2.02  13 2.95  15 3.05
                            31 3.05
  17  0.231  0.833  0.680-  79 1.86  81 1.93 113 1.94  80 2.00  71 2.09  78 2.10  20 2.85  34 3.07
                            18 3.08
  18  0.001  0.666  0.700-  74 1.78  82 1.84 144 1.97  80 1.99  81 2.07  19 2.86  17 3.08  49 3.10

[...]

  21  0.808  0.167  0.295-  89 1.94  87 1.94 121 1.94  86 1.99  88 1.99  22 3.05  24 3.05  38 3.05

[...]

  37  0.808  0.500  0.295-  57 1.94 121 1.94 119 1.94 120 1.99 118 1.99  38 3.05   6 3.05  40 3.05

  38  0.592  0.333  0.327- 117 1.94 120 1.94  88 1.94 122 1.94 121 1.99 123 1.99  37 3.05  39 3.05
                            21 3.05  43 3.08
  39  0.308  0.333  0.295- 125 1.94 123 1.94  93 1.94 124 1.99 117 1.99  40 3.05  38 3.05  24 3.05

  40  0.092  0.500  0.327- 118 1.94  60 1.94 124 1.94 126 1.94 125 1.99 119 1.99   7 3.05  39 3.05
                            37 3.05  41 3.07
  41  0.946  0.500  0.422- 127 1.92  65 1.94 129 1.94 119 1.97 126 1.99 128 2.00  44 2.99  10 3.05
                            42 3.05  40 3.07
  42  0.726  0.334  0.451- 122 1.89 128 1.93  96 1.94 130 1.96 131 1.99 129 2.00  43 3.01  25 3.05
                            41 3.05  47 3.11
  43  0.444  0.334  0.423- 131 1.93 133 1.93 101 1.94 123 1.97 132 1.98 122 2.01  42 3.01  28 3.05
                            44 3.05  38 3.08
  44  0.226  0.500  0.453- 126 1.92  68 1.94 132 1.94 127 1.96 134 1.97 133 2.01  41 2.99  11 3.05
                            43 3.05  45 3.08
  45  0.088  0.500  0.550- 135 1.91 137 1.93  73 1.93 134 1.98 136 2.00 127 2.01  48 2.96  14 3.06
                            46 3.06  44 3.08
  46  0.865  0.334  0.576- 130 1.86 136 1.93 104 1.95 139 1.95 137 2.01 138 2.01  47 2.97  29 3.04
                            45 3.06  51 3.17
  47  0.584  0.334  0.550- 141 1.93 109 1.93 139 1.93 140 1.98 131 1.98 130 2.01  46 2.97  32 3.05
                            48 3.06  42 3.11
  48  0.365  0.500  0.580- 134 1.92  76 1.94 140 1.94 135 1.94 142 1.98 141 2.03  45 2.96  15 3.06
                            47 3.06  49 3.13
  49  0.235  0.500  0.681- 143 1.86 145 1.93  81 1.93 142 2.03 144 2.03 135 2.10  52 2.87  18 3.10
                            50 3.10  48 3.13
  50  0.001  0.334  0.700- 138 1.78 146 1.84 144 1.97 112 1.99 145 2.07  51 2.86  33 3.08  49 3.10

  51  0.729  0.333  0.678- 146 1.89 148 1.93 116 1.94 147 1.99 139 2.04 138 2.10  50 2.86  36 3.08
                            52 3.08  46 3.17
  52  0.506  0.500  0.706- 143 1.84 142 1.88  83 1.98 147 1.98 148 2.07   1 2.30  49 2.87  19 3.08
                            51 3.08
  53  0.488  0.667  0.269-   6 1.94   7 1.99
  54  0.988  0.833  0.269-   8 1.94   5 1.99
  55  0.911  0.833  0.353-   5 1.94   9 1.98   8 1.99
  56  0.627  0.833  0.321-  22 1.94   6 1.94   5 1.99
  57  0.772  0.667  0.300-  37 1.94   5 1.94   6 1.99
  58  0.624  0.667  0.395-  10 1.89   6 1.94  11 2.01
  59  0.411  0.667  0.353-   7 1.94  11 1.97   6 1.99
  60  0.127  0.667  0.321-  40 1.94   8 1.94   7 1.99
  61  0.272  0.833  0.300-  23 1.94   7 1.94   8 1.99
  62  0.124  0.833  0.395-  12 1.89   8 1.94   9 2.00
  63  0.049  0.833  0.480-   9 1.92  12 1.98  13 2.00
  64  0.764  0.833  0.448-  26 1.94  10 1.94   9 1.98
  65  0.909  0.667  0.427-   9 1.93  41 1.94  10 2.00
  66  0.763  0.666  0.520-  14 1.86  10 1.96  15 2.01
  67  0.549  0.666  0.480-  11 1.93  15 1.98  10 1.99
  68  0.264  0.667  0.448-  44 1.94  12 1.94  11 1.98
  69  0.408  0.833  0.427-  27 1.93  11 1.94  12 2.01
  70  0.263  0.833  0.521-  16 1.86  12 1.97  13 2.01
  71  0.192  0.833  0.607-  13 1.92  16 1.95  17 2.09
  72  0.903  0.833  0.573-  30 1.94  14 1.95  13 1.97
  73  0.050  0.667  0.553-  13 1.93  45 1.93  14 2.01
  74  0.913  0.667  0.645-  18 1.78  14 2.01  19 2.10
  75  0.693  0.668  0.606-  15 1.93  14 1.95  19 2.04
  76  0.404  0.667  0.575-  48 1.94  16 1.94  15 1.98
  77  0.549  0.833  0.553-  15 1.93  31 1.93  16 2.02
  78  0.412  0.836  0.646-  20 1.78  16 2.00  17 2.10
  79  0.347  0.833  0.732-  20 1.84  17 1.86
  80  0.052  0.833  0.709-  34 1.98  18 1.99  17 2.00
  81  0.195  0.666  0.681-  17 1.93  49 1.93  18 2.07
  82  0.843  0.664  0.731-  18 1.84  19 1.89
  83  0.553  0.669  0.707-  20 1.96  52 1.98  19 1.99
  84  0.696  0.834  0.679-  35 1.93  19 1.94  20 2.06
  85  0.488  0.000  0.269-  22 1.94  23 1.99
  86  0.988  0.167  0.269-  24 1.94  21 1.99
  87  0.911  0.167  0.353-  21 1.94  25 1.98  24 1.99
  88  0.627  0.167  0.321-  22 1.94  38 1.94  21 1.99
  89  0.772  0.000  0.300-   5 1.94  21 1.94  22 1.99
  90  0.624  0.000  0.395-  26 1.89  22 1.94  27 2.01
  91  0.411  0.000  0.353-  23 1.94  27 1.98  22 1.99
  92  0.127  0.000  0.321-   8 1.94  24 1.94  23 1.99
  93  0.272  0.167  0.300-  23 1.94  39 1.94  24 1.99
  94  0.124  0.167  0.395-  28 1.89  24 1.94  25 2.00
  95  0.049  0.167  0.480-  25 1.92  28 1.98  29 2.00
  96  0.764  0.167  0.448-  26 1.94  42 1.94  25 1.98
  97  0.909  0.000  0.427-  25 1.93   9 1.93  26 2.00
  98  0.763  0.000  0.520-  30 1.86  26 1.97  31 2.01
  99  0.549  1.000  0.480-  27 1.92  26 1.98  31 2.00
 100  0.264  0.000  0.448-  12 1.94  28 1.94  27 1.99
 101  0.408  0.167  0.427-  27 1.93  43 1.94  28 2.01
 102  0.263  0.167  0.521-  32 1.86  28 1.97  29 2.01
 103  0.192  0.167  0.607-  29 1.92  32 1.95  33 2.09
 104  0.903  0.167  0.573-  30 1.94  46 1.95  29 1.97
 105  0.051  0.000  0.553-  13 1.93  29 1.93  30 2.03
 106  0.913  0.000  0.646-  34 1.78  30 2.01  35 2.08
 107  0.693  1.000  0.606-  31 1.92  30 1.94  35 2.10
 108  0.403  0.000  0.573-  32 1.94  16 1.94  31 1.98
 109  0.549  0.167  0.553-  47 1.93  31 1.93  32 2.02
 110  0.412  0.164  0.646-  36 1.78  32 2.00  33 2.10
 111  0.347  0.167  0.732-  36 1.84  33 1.86
 112  0.052  0.167  0.709-  34 1.98  50 1.99  33 2.00
[...]
 134  0.265  0.500  0.522-  48 1.92  44 1.97  45 1.98
 135  0.192  0.500  0.607-  45 1.91  48 1.94  49 2.10
 136  0.903  0.500  0.573-  46 1.93  14 1.93  45 2.00
 137  0.050  0.333  0.553-  29 1.93  45 1.93  46 2.01
 138  0.913  0.333  0.645-  50 1.78  46 2.01  51 2.10
[...]
     0.000000000  0.000000000 27.918672987     0.000000000  0.000000000  0.035818321

  length of vectors
    10.273755933 11.368810418 27.918672987     0.097335386  0.087959950  0.035818321

 FORCES acting on ions
    electron-ion (+dipol)            ewald-force                    non-local-force                 convergence-correction
   -.150E+02 -.141E-04 -.175E+04   0.549E+01 0.133E-05 0.174E+04   0.866E+01 -.201E-05 0.164E+02   0.225E-02 0.137E-04 -.741E-01
   0.429E+02 -.150E-05 -.372E+03   -.475E+02 0.264E-06 0.377E+03   0.460E+01 -.115E-07 -.538E+01   0.824E-03 0.123E-05 -.138E-01
   -.420E+02 0.549E+02 -.355E+03   0.463E+02 -.607E+02 0.355E+03   -.423E+01 0.571E+01 -.368E+00   0.587E-04 -.165E-03 -.147E-01
   -.420E+02 -.549E+02 -.355E+03   0.463E+02 0.607E+02 0.355E+03   -.423E+01 -.571E+01 -.368E+00   0.613E-04 0.170E-03 -.147E-01
   0.709E+01 -.413E-01 0.337E+04   -.161E+01 0.412E-01 -.337E+04   -.132E+01 -.251E-04 -.369E+01   -.141E-02 0.129E-03 0.126E+00
   0.455E+01 -.113E+00 0.277E+04   -.640E+01 0.114E+00 -.277E+04   0.118E-01 -.588E-03 0.308E-01   0.193E-02 0.621E-04 0.115E+00
   0.703E+01 0.138E+00 0.337E+04   -.158E+01 -.144E+00 -.337E+04   -.131E+01 0.156E-02 -.369E+01   -.167E-02 0.100E-03 0.126E+00
   0.327E+01 0.514E-01 0.277E+04   -.516E+01 -.599E-01 -.277E+04   0.200E-01 0.173E-02 0.278E-01   0.183E-02 0.422E-04 0.115E+00
   -.734E+00 0.553E-01 0.126E+04   0.537E+00 -.517E-01 -.126E+04   0.168E+00 -.639E-02 -.211E-01   0.271E-02 0.307E-03 0.702E-01
   0.320E+00 -.140E+01 0.800E+03   -.289E+00 0.137E+01 -.800E+03   0.588E-02 0.186E-01 -.723E-01   -.190E-02 0.341E-03 0.495E-01
   0.844E+00 -.360E+00 0.126E+04   -.103E+01 0.344E+00 -.126E+04   0.176E+00 0.140E-01 -.382E-01   0.276E-02 0.536E-03 0.702E-01
   -.529E+01 0.168E+00 0.793E+03   0.530E+01 -.172E+00 -.793E+03   0.394E-01 0.506E-03 -.769E-01   -.176E-02 0.334E-03 0.494E-01
   -.511E+01 -.236E+01 -.779E+03   0.480E+01 0.235E+01 0.779E+03   0.264E+00 0.132E-01 0.747E-01   -.811E-03 0.834E-03 -.192E-01
   -.114E+02 -.496E+01 -.117E+04   0.115E+02 0.495E+01 0.117E+04   0.167E-02 0.248E-02 -.132E+00   0.591E-03 0.108E-02 -.404E-01
   0.113E+01 -.167E+01 -.755E+03   -.142E+01 0.167E+01 0.755E+03   0.244E+00 -.144E-02 0.344E-01   0.175E-03 0.138E-02 -.187E-01
   -.226E+01 -.854E+00 -.119E+04   0.234E+01 0.872E+00 0.119E+04   0.195E-03 -.174E-01 -.161E+00   0.136E-02 0.114E-02 -.408E-01
   0.280E+02 -.109E+02 -.279E+04   -.288E+02 0.109E+02 0.279E+04   0.864E+00 0.906E-02 -.327E+00   -.162E-01 0.160E-02 -.126E+00
   -.876E+02 -.215E+02 -.318E+04   0.872E+02 0.213E+02 0.317E+04   0.428E+00 0.165E+00 0.108E+01   0.164E-01 -.434E-04 -.131E+00
   -.101E+02 -.399E+02 -.270E+04   0.935E+01 0.399E+02 0.270E+04   0.832E+00 -.570E-02 -.146E+00   -.134E-01 0.360E-02 -.120E+00
   -.614E+02 -.339E+02 -.317E+04   0.609E+02 0.339E+02 0.317E+04   0.490E+00 0.505E-01 0.107E+01   0.211E-01 0.140E-02 -.134E+00
   0.709E+01 0.413E-01 0.337E+04   -.161E+01 -.412E-01 -.337E+04   -.132E+01 0.266E-04 -.369E+01   -.114E-02 -.850E-04 0.126E+00
   0.451E+01 0.106E-03 0.277E+04   -.638E+01 0.565E-05 -.277E+04   0.169E-01 -.738E-05 0.271E-01   0.187E-02 -.105E-03 0.115E+00
   0.695E+01 0.353E-04 0.337E+04   -.148E+01 0.315E-05 -.337E+04   -.131E+01 0.733E-06 -.369E+01   -.156E-02 -.425E-04 0.126E+00
   0.327E+01 -.514E-01 0.277E+04   -.516E+01 0.599E-01 -.277E+04   0.200E-01 -.174E-02 0.278E-01   0.165E-02 0.160E-04 0.114E+00
   -.734E+00 -.553E-01 0.126E+04   0.537E+00 0.517E-01 -.126E+04   0.168E+00 0.640E-02 -.211E-01   0.266E-02 -.333E-03 0.702E-01
   -.198E+01 -.117E-04 0.796E+03   0.197E+01 0.388E-04 -.796E+03   0.681E-01 -.596E-06 -.766E-01   -.215E-02 -.267E-04 0.499E-01
   0.929E+00 0.318E-04 0.126E+04   -.111E+01 0.210E-04 -.126E+04   0.160E+00 0.320E-06 -.373E-01   0.304E-02 -.575E-04 0.706E-01
   -.529E+01 -.168E+00 0.793E+03   0.530E+01 0.172E+00 -.793E+03   0.394E-01 -.507E-03 -.769E-01   -.178E-02 -.366E-03 0.495E-01
   -.511E+01 0.236E+01 -.779E+03   0.480E+01 -.235E+01 0.779E+03   0.264E+00 -.132E-01 0.747E-01   -.748E-03 -.825E-03 -.192E-01
   -.111E+02 -.184E-04 -.119E+04   0.112E+02 0.277E-04 0.119E+04   0.333E-01 0.155E-05 -.130E+00   0.986E-03 -.982E-05 -.401E-01
   -.294E+01 -.969E-05 -.771E+03   0.261E+01 0.642E-04 0.771E+03   0.285E+00 0.188E-05 0.117E+00   -.271E-03 -.586E-04 -.189E-01
   -.226E+01 0.854E+00 -.119E+04   0.234E+01 -.872E+00 0.119E+04   0.191E-03 0.174E-01 -.161E+00   0.127E-02 -.110E-02 -.408E-01
   0.280E+02 0.109E+02 -.279E+04   -.288E+02 -.109E+02 0.279E+04   0.864E+00 -.906E-02 -.327E+00   -.163E-01 -.151E-02 -.126E+00
   -.759E+02 -.218E-04 -.319E+04   0.755E+02 0.121E-04 0.319E+04   0.426E+00 -.143E-04 0.106E+01   0.187E-01 0.324E-04 -.135E+00
   0.119E+02 -.269E-03 -.278E+04   -.127E+02 0.212E-04 0.278E+04   0.757E+00 -.316E-05 -.273E+00   -.164E-01 0.262E-03 -.125E+00
   -.614E+02 0.339E+02 -.317E+04   0.609E+02 -.339E+02 0.317E+04   0.490E+00 -.505E-01 0.107E+01   0.214E-01 -.145E-02 -.135E+00
   0.713E+01 0.515E-04 0.337E+04   -.163E+01 -.755E-05 -.337E+04   -.132E+01 0.897E-06 -.369E+01   -.184E-02 -.465E-04 0.126E+00
   0.455E+01 0.113E+00 0.277E+04   -.640E+01 -.114E+00 -.277E+04   0.118E-01 0.595E-03 0.308E-01   0.212E-02 0.443E-04 0.115E+00
   0.703E+01 -.138E+00 0.337E+04   -.158E+01 0.144E+00 -.337E+04   -.131E+01 -.156E-02 -.369E+01   -.196E-02 -.495E-04 0.126E+00
   0.233E+01 0.588E-04 0.277E+04   -.417E+01 -.111E-04 -.277E+04   0.482E-02 0.323E-05 0.264E-01   0.215E-02 -.536E-04 0.115E+00
   0.206E+01 0.222E-04 0.126E+04   -.223E+01 -.434E-04 -.126E+04   0.116E+00 -.242E-05 0.254E-01   0.256E-02 0.251E-04 0.699E-01
   0.320E+00 0.140E+01 0.800E+03   -.289E+00 -.137E+01 -.800E+03   0.588E-02 -.186E-01 -.723E-01   -.194E-02 -.315E-03 0.495E-01
   0.844E+00 0.360E+00 0.126E+04   -.103E+01 -.344E+00 -.126E+04   0.176E+00 -.140E-01 -.382E-01   0.283E-02 -.478E-03 0.702E-01
   -.897E+01 -.499E-06 0.776E+03   0.897E+01 -.342E-04 -.776E+03   0.462E-01 0.120E-05 -.187E-01   -.176E-02 0.343E-04 0.479E-01
   -.549E+00 0.258E-04 -.781E+03   0.343E+00 -.217E-04 0.781E+03   0.173E+00 0.156E-05 0.848E-01   -.106E-02 -.762E-05 -.195E-01
   -.114E+02 0.496E+01 -.117E+04   0.115E+02 -.495E+01 0.117E+04   0.166E-02 -.248E-02 -.132E+00   0.570E-03 -.107E-02 -.403E-01
   0.113E+01 0.167E+01 -.755E+03   -.142E+01 -.167E+01 0.755E+03   0.244E+00 0.144E-02 0.344E-01   0.187E-03 -.132E-02 -.187E-01
   -.256E+01 0.753E-04 -.123E+04   0.263E+01 -.453E-04 0.123E+04   -.787E-02 0.245E-05 -.934E-01   0.605E-03 -.367E-04 -.440E-01
   0.483E+02 0.547E-04 -.278E+04   -.487E+02 0.189E-04 0.278E+04   0.464E+00 -.152E-05 -.170E+00   -.173E-01 -.784E-04 -.127E+00
   -.876E+02 0.215E+02 -.318E+04   0.872E+02 -.213E+02 0.317E+04   0.428E+00 -.165E+00 0.108E+01   0.165E-01 0.374E-05 -.131E+00
   -.101E+02 0.399E+02 -.270E+04   0.935E+01 -.399E+02 0.270E+04   0.832E+00 0.570E-02 -.146E+00   -.135E-01 -.386E-02 -.120E+00
   0.110E+02 -.307E-04 -.312E+04   -.107E+02 -.164E-04 0.312E+04   -.145E+00 -.714E-05 -.479E-01   0.186E-01 0.578E-04 -.139E+00
   -.317E+02 -.205E-01 0.228E+04   0.370E+02 0.204E-01 -.229E+04   -.632E+01 0.198E-03 0.165E+02   0.785E-02 0.471E-04 0.776E-01
   -.320E+02 -.296E-01 0.228E+04   0.373E+02 0.274E-01 -.229E+04   -.632E+01 0.233E-02 0.165E+02   0.789E-02 0.778E-04 0.776E-01
   0.811E+02 0.266E-01 0.138E+04   -.860E+02 -.284E-01 -.138E+04   0.356E+01 0.649E-03 -.408E+01   0.330E-02 0.116E-03 0.733E-01
   0.744E+02 -.799E-02 0.169E+04   -.819E+02 0.902E-02 -.168E+04   0.701E+01 -.179E-02 -.250E+01   -.605E-02 0.101E-03 0.745E-01
   -.858E+02 -.424E-01 0.194E+04   0.934E+02 0.405E-01 -.194E+04   -.647E+01 0.266E-02 -.252E+00   -.366E-02 0.603E-04 0.774E-01
   -.687E+02 -.739E+00 0.106E+04   0.745E+02 0.796E+00 -.106E+04   -.525E+01 -.483E-01 0.410E+01   0.146E-03 0.151E-03 0.558E-01
   0.818E+02 0.903E-01 0.138E+04   -.867E+02 -.721E-01 -.138E+04   0.354E+01 -.172E-01 -.397E+01   0.328E-02 0.114E-03 0.732E-01
   0.735E+02 0.895E-01 0.169E+04   -.810E+02 -.100E+00 -.168E+04   0.703E+01 0.205E-01 -.252E+01   -.597E-02 0.250E-05 0.745E-01
[...]
   0.867E+02 0.395E-04 -.108E+04   -.939E+02 -.169E-04 0.109E+04   0.637E+01 0.487E-05 -.730E+01   -.811E-03 -.270E-04 -.385E-01
   0.699E+02 -.108E-05 -.715E+03   -.761E+02 0.100E-04 0.718E+03   0.553E+01 -.288E-06 -.285E+01   0.284E-03 -.815E-05 -.232E-01
   -.808E+02 0.696E+00 -.457E+03   0.874E+02 -.710E+00 0.454E+03   -.590E+01 0.119E-01 0.266E+01   -.248E-03 -.436E-03 -.131E-01
   -.662E+02 0.981E+01 -.128E+04   0.686E+02 -.101E+02 0.127E+04   -.222E+01 0.292E+00 0.921E+01   0.165E-02 -.759E-03 -.579E-01
   0.805E+02 0.870E+01 -.105E+04   -.871E+02 -.898E+01 0.105E+04   0.591E+01 0.244E+00 -.564E+01   -.625E-03 -.115E-02 -.378E-01
   0.794E+02 0.956E+00 -.730E+03   -.861E+02 -.992E+00 0.734E+03   0.598E+01 0.304E-01 -.311E+01   0.314E-03 -.618E-03 -.239E-01
   -.726E+02 -.288E-05 -.461E+03   0.789E+02 0.184E-04 0.459E+03   -.562E+01 0.290E-05 0.230E+01   -.262E-04 -.158E-04 -.137E-01
   -.613E+02 0.385E-05 -.131E+04   0.672E+02 0.114E-04 0.130E+04   -.534E+01 -.648E-06 0.590E+01   0.203E-02 -.144E-04 -.598E-01
   0.107E+03 -.761E-05 -.226E+04   -.113E+03 0.866E-05 0.229E+04   0.545E+01 0.904E-06 -.195E+02   0.138E-02 -.943E-06 -.938E-01
   0.450E+02 0.487E-04 -.201E+04   -.488E+02 0.806E-05 0.202E+04   0.333E+01 0.832E-05 -.709E+01   0.180E-02 -.590E-04 -.804E-01
   -.490E+02 0.664E+01 -.165E+04   0.541E+02 -.647E+01 0.165E+04   -.457E+01 -.167E+00 0.301E+01   -.476E-02 0.263E-03 -.724E-01
   0.114E+02 0.312E+02 -.226E+04   -.171E+02 -.311E+02 0.228E+04   0.505E+01 -.143E+00 -.187E+02   -.195E-03 0.351E-03 -.881E-01
   0.781E+02 0.459E+02 -.195E+04   -.834E+02 -.455E+02 0.195E+04   0.472E+01 -.420E+00 -.616E+01   0.407E-02 -.137E-02 -.808E-01
   -.683E+02 -.173E-04 -.156E+04   0.729E+02 0.217E-05 0.156E+04   -.410E+01 0.481E-05 0.411E+01   -.352E-02 0.121E-04 -.697E-01
   -.172E+02 -.926E-04 0.609E+02   0.284E-12 -.101E-11 -.682E-11   0.165E+02 0.291E-04 -.541E+02   0.524E-01 0.517E-04 0.585E+00

 POSITION                                       TOTAL-FORCE (eV/Angst)
      6.28582      5.68441     21.73001         0.006580     -0.000001      0.154560
      5.64009      5.68441     22.51999         0.158684      0.000000     -0.235039
      6.89297      4.86545     21.80663        -0.149172      0.195340     -0.055001
      6.89297      6.50336     21.80663        -0.149171     -0.195339     -0.055002
      8.29921      9.47401      8.23548         4.314750     -0.000047      2.130227
      6.08023      7.57921      9.11607        -1.873935      0.000530     -2.084932
      3.16233      7.57921      8.23548         4.285269     -0.004653      2.115320
      0.94335      9.47401      9.11607        -1.903791     -0.006840     -2.088803
      9.70326      9.47437     11.79903        -0.029578      0.002128     -0.013620
      7.46069      7.57438     12.59794         0.008780     -0.011455      0.003384
      4.56176      7.57657     11.79579        -0.024362     -0.005141     -0.005052
      2.31515      9.47353     12.60691         0.015339     -0.001011      0.003965
      0.87541      9.47543     15.36211        -0.031392      0.000424     -0.025733
      8.88205      7.57219     16.06758         0.007304     -0.009166      0.021322
      6.00122      7.57719     15.34161        -0.029160     -0.005309     -0.026981
      3.73327      9.47473     16.09229         0.017524     -0.000014      0.027087
      2.37352      9.46625     18.99490         0.072570     -0.013661      0.129272
      0.00862      7.56667     19.54936        -0.212031     -0.020538     -0.147919
      7.49469      7.57738     18.92336         0.033186     -0.007882      0.096208
      5.16750      9.48941     19.54324        -0.232224     -0.025838     -0.140264
      8.29921      1.89480      8.23548         4.314758      0.000051      2.130225
      6.08023      0.00000      9.11607        -1.889933     -0.000001     -2.086785
      3.16233      0.00000      8.23548         4.304973     -0.000004      2.123576
      0.94335      1.89480      9.11607        -1.903791      0.006840     -2.088822
      9.70326      1.89444     11.79903        -0.029582     -0.002130     -0.013615
      7.45633     11.36881     12.60039         0.006970     -0.000000      0.002430
      4.56361      0.00000     11.79852        -0.024605     -0.000005     -0.001578
      2.31515      1.89528     12.60691         0.015336      0.001010      0.003975
      0.87541      1.89338     15.36211        -0.031390     -0.000422     -0.025732
      8.86996      0.00000     16.08148         0.008147      0.000001      0.011832
      6.00773     11.36881     15.35172        -0.035463     -0.000002     -0.035327
      3.73327      1.89408     16.09229         0.017521      0.000017      0.027091
      2.37352      1.90256     18.99490         0.072556      0.013667      0.129269
      0.03292     11.36881     19.55068        -0.233795      0.000008     -0.135530
      7.52757     11.36881     18.97961         0.064518      0.000013      0.128690
      5.16750      1.87940     19.54324        -0.232194      0.025835     -0.140280
      8.29921      5.68441      8.23548         4.327900     -0.000002      2.126573
      6.08023      3.78960      9.11607        -1.873923     -0.000530     -2.084905
      3.16233      3.78960      8.23548         4.285247      0.004657      2.115329
      0.94335      5.68441      9.11607        -1.871673     -0.000004     -2.018397
      9.71960      5.68441     11.79385        -0.040398      0.000001     -0.016265
      7.46069      3.79443     12.59794         0.008776      0.011455      0.003391
      4.56176      3.79224     11.79579        -0.024355      0.005145     -0.005051
      2.31866      5.68441     12.63667         0.019463      0.000001     -0.002338
      0.90718      5.68441     15.36884        -0.020194     -0.000002     -0.026647
      8.88205      3.79662     16.06758         0.007300      0.009167      0.021327
      6.00122      3.79162     15.34161        -0.029158      0.005313     -0.026975
      3.75245      5.68441     16.17890         0.023240     -0.000004      0.028137
      2.41334      5.68441     19.01311         0.070070     -0.000007      0.133710
      0.00862      3.80214     19.54936        -0.212013      0.020530     -0.147907
      7.49469      3.79143     18.92336         0.033187      0.007867      0.096201
      5.19886      5.68441     19.70820        -0.096597      0.000004      0.085557
      5.01563      7.57921      7.50000        -2.112673      0.000175      1.597307
     10.15251      9.47401      7.50000        -2.109318      0.000659      1.593280
      9.36381      9.47401      9.85155        -0.824463     -0.000877     -0.320419
      6.44591      9.47401      8.97095         0.704020     -0.001059     -0.163353
      7.93353      7.57921      8.38059         0.023054      0.001407     -1.072791
      6.41347      7.57921     11.02238        -0.303714      0.000942      0.632008
      4.22693      7.57921      9.85155        -0.830090     -0.001861     -0.302374
      1.30903      7.57921      8.97095         0.715009      0.013677     -0.172659
[...]
      2.71792      5.68441     14.56626        -0.261923      0.000001      0.174270
      1.97059      5.68441     16.95776         0.270794      0.000001     -0.245175
      9.28176      5.68441     16.00703         0.237225      0.000001     -0.101938
      0.51819      3.79142     15.43874        -0.268629      0.000263      0.097481
      9.38325      3.78626     18.01613        -0.126097      0.010858      0.320128
      7.12329      3.77877     16.91525         0.237535      0.006430     -0.216009
      4.15003      3.79019     16.04303         0.250473     -0.000464     -0.115108
      5.64889      5.68441     15.46030        -0.259809      0.000003      0.093283
      4.23095      5.68441     18.10183        -0.234057      0.000000      0.213266
      3.53954      5.68441     20.49291         0.176971      0.000001     -0.704694
      0.53179      5.68441     19.78819         0.154783      0.000008     -0.195776
      2.00220      3.79374     19.00564        -0.264041     -0.016240      0.128856
      8.65667      3.82129     20.40772         0.226968     -0.029503     -0.679005
      5.68077      3.76119     19.74360         0.198932     -0.059841     -0.203240
      7.11906      5.68441     18.92853        -0.215960      0.000003      0.102641
    total drift:                                0.040978     -0.000012      0.185542

  FREE ENERGIE OF THE ION-ELECTRON SYSTEM (eV)
  free  energy   TOTEN  =     -1717.84741745 eV

  energy  without entropy=    -1717.84741745  energy(sigma->0) =    -1717.84741745