 vasp.6.3.0 20Jan22 (build Aug 21 2024 11:13:42) complex
 executed on        HPECrayEX_GCC date 2024.08.27  13:21:36

 INCAR:
   SYSTEM = MgO-rocksalt
   ISMEAR = 0
   SIGMA = 0.05
   EDIFF = 1E-6
   ALGO = ALL
   ISTART = 0
   IBRION = -1
   NSW = 0
   ISYM = 0
   DIPOL = 0.5 0.5 0.5
   IDIPOL = 3
   LDIPOL = .TRUE.
   GGA = PE
   IVDW = 1
   VDW_C6 = 0.63 0.70
   VDW_R0 = 1.243 1.342
   ENCUT = 600
   PREC = Accurate
   LASPH = .TRUE.
   LREAL = .FALSE.
   ISPIN = 1
   NELM = 200
   NELMIN = 8
   NCORE = 8
   KPAR = 1
   LWAVE = .FALSE.
   LCHARG = .FALSE.

 POTCAR:    PAW_PBE Mg_pv 13Apr2007
 POTCAR:    PAW_PBE O 08Apr2002
 POTCAR:    PAW_PBE Mg_pv 13Apr2007
   VRHFIN =Mg: p6s2

   TITEL  = PAW_PBE Mg_pv 13Apr2007
   POMASS =   24.305; ZVAL   =    8.000    mass and valenz
   ENMAX  =  403.929; ENMIN  =  302.947 eV

   TITEL  = PAW_PBE O 08Apr2002
   POMASS =   16.000; ZVAL   =    6.000    mass and valenz
   ENMAX  =  400.000; ENMIN  =  300.000 eV

  PAW_PBE Mg_pv 13Apr2007               :
  PAW_PBE O 08Apr2002                   :

 POSCAR: Mg  O
  positions in direct lattice
 exchange correlation table for  LEXCH =        8
   RHO(1)=    0.500       N(1)  =     2000
   RHO(2)=  100.500       N(2)  =     4000

 ion  position               nearest neighbor table
   1  0.250  0.000  0.351-  33 2.12  35 2.12  36 2.12  43 2.12  52 2.12
   2  0.500  0.250  0.351-  34 2.12  35 2.12  36 2.12  44 2.12  51 2.12
   3  0.250  0.250  0.450-  35 2.12  34 2.12  33 2.12  41 2.12  50 2.12  39 2.12
   4  0.500  0.000  0.450-  36 2.12  34 2.12  33 2.12  42 2.12  49 2.12  40 2.12
   5  0.250  0.000  0.550-  56 2.12  40 2.12  39 2.12  47 2.12  33 2.13  37 2.15
   6  0.500  0.250  0.550-  39 2.12  55 2.12  40 2.12  48 2.12  34 2.13  38 2.15
   7  0.250  0.250  0.648-  39 2.10  38 2.12  37 2.12  45 2.12  54 2.12
   8  0.500  1.000  0.649-  40 2.12  46 2.12  38 2.12  53 2.12  37 2.12
   9  0.250  0.500  0.351-  41 2.12  35 2.12  43 2.12  44 2.12  60 2.12
  10  0.500  0.750  0.351-  42 2.12  36 2.12  43 2.12  44 2.12  59 2.12
  11  0.250  0.750  0.450-  43 2.12  41 2.12  42 2.12  33 2.12  58 2.12  47 2.12
  12  0.500  0.500  0.450-  44 2.12  41 2.12  42 2.12  34 2.12  57 2.12  48 2.12
  13  0.250  0.500  0.550-  47 2.12  39 2.12  48 2.12  64 2.12  41 2.13  45 2.15
  14  0.500  0.750  0.550-  63 2.12  47 2.12  40 2.12  48 2.12  42 2.13  46 2.15
  15  0.250  0.750  0.648-  47 2.10  46 2.12  37 2.12  45 2.12  62 2.12
  16  0.500  0.500  0.649-  48 2.12  46 2.12  38 2.12  45 2.12  61 2.12
  17  0.750  0.000  0.351-  49 2.12  36 2.12  51 2.12  52 2.12  59 2.12
  18  0.000  0.250  0.351-  50 2.12  35 2.12  51 2.12  52 2.12  60 2.12
  19  0.750  0.250  0.450-  51 2.12  49 2.12  50 2.12  34 2.12  57 2.12  55 2.12
  20  0.000  0.000  0.450-  52 2.12  49 2.12  50 2.12  33 2.12  58 2.12  56 2.12
  21  0.750  1.000  0.550-  56 2.12  40 2.12  55 2.12  63 2.12  49 2.13  53 2.15
  22  0.000  0.250  0.550-  64 2.12  39 2.12  55 2.12  56 2.12  50 2.13  54 2.15
  23  0.750  0.250  0.648-  55 2.10  38 2.12  53 2.12  61 2.12  54 2.12
  24  0.000  1.000  0.649-  56 2.12  37 2.12  53 2.12  62 2.12  54 2.12
  25  0.750  0.500  0.351-  57 2.12  51 2.12  44 2.12  59 2.12  60 2.12
  26  0.000  0.750  0.351-  58 2.12  52 2.12  43 2.12  59 2.12  60 2.12
  27  0.750  0.750  0.450-  59 2.12  49 2.12  57 2.12  58 2.12  42 2.12  63 2.12
  28  0.000  0.500  0.450-  60 2.12  50 2.12  57 2.12  58 2.12  41 2.12  64 2.12
  29  0.750  0.500  0.550-  63 2.12  55 2.12  48 2.12  64 2.12  57 2.13  61 2.15
  30  1.000  0.750  0.550-  64 2.12  63 2.12  47 2.12  56 2.12  58 2.13  62 2.15
  31  0.750  0.750  0.648-  63 2.10  46 2.12  53 2.12  61 2.12  62 2.12
  32  1.000  0.500  0.649-  64 2.12  61 2.12  45 2.12  54 2.12  62 2.12
  33  0.250  0.000  0.450-   1 2.12   3 2.12   4 2.12  11 2.12  20 2.12   5 2.13
  34  0.500  0.250  0.450-   2 2.12   3 2.12   4 2.12  12 2.12  19 2.12   6 2.13
  35  0.250  0.250  0.351-   3 2.12   2 2.12   1 2.12   9 2.12  18 2.12
  36  0.500  0.000  0.351-   4 2.12   2 2.12   1 2.12  10 2.12  17 2.12
  37  0.250  1.000  0.651-  24 2.12   8 2.12  15 2.12   7 2.12   5 2.15
  38  0.500  0.250  0.651-  16 2.12   8 2.12  23 2.12   7 2.12   6 2.15
  39  0.250  0.250  0.550-   7 2.10  13 2.12   6 2.12  22 2.12   5 2.12   3 2.12
  40  0.500  0.000  0.550-   8 2.12   6 2.12  14 2.12  21 2.12   5 2.12   4 2.12
  41  0.250  0.500  0.450-   9 2.12   3 2.12  11 2.12  12 2.12  28 2.12  13 2.13
  42  0.500  0.750  0.450-  10 2.12   4 2.12  11 2.12  12 2.12  27 2.12  14 2.13
  43  0.250  0.750  0.351-  11 2.12   9 2.12  10 2.12   1 2.12  26 2.12
  44  0.500  0.500  0.351-  12 2.12   9 2.12  10 2.12   2 2.12  25 2.12
  45  0.250  0.500  0.651-  32 2.12  16 2.12  15 2.12   7 2.12  13 2.15
  46  0.500  0.750  0.651-  16 2.12   8 2.12  15 2.12  31 2.12  14 2.15
  47  0.250  0.750  0.550-  15 2.10  13 2.12  14 2.12  30 2.12   5 2.12  11 2.12
  48  0.500  0.500  0.550-  16 2.12  29 2.12  13 2.12  14 2.12   6 2.12  12 2.12
  49  0.750  0.000  0.450-  17 2.12   4 2.12  19 2.12  20 2.12  27 2.12  21 2.13
  50  0.000  0.250  0.450-  18 2.12   3 2.12  19 2.12  20 2.12  28 2.12  22 2.13
  51  0.750  0.250  0.351-  19 2.12  17 2.12  18 2.12   2 2.12  25 2.12
  52  0.000  0.000  0.351-  20 2.12  17 2.12  18 2.12   1 2.12  26 2.12
  53  0.750  0.000  0.651-  24 2.12   8 2.12  23 2.12  31 2.12  21 2.15
  54  1.000  0.250  0.651-  32 2.12  24 2.12  23 2.12   7 2.12  22 2.15
  55  0.750  0.250  0.550-  23 2.10  29 2.12   6 2.12  22 2.12  21 2.12  19 2.12
  56  0.000  1.000  0.550-  24 2.12  21 2.12   5 2.12  22 2.12  30 2.12  20 2.12
  57  0.750  0.500  0.450-  25 2.12  19 2.12  12 2.12  27 2.12  28 2.12  29 2.13
  58  0.000  0.750  0.450-  26 2.12  20 2.12  11 2.12  27 2.12  28 2.12  30 2.13
  59  0.750  0.750  0.351-  27 2.12  17 2.12  25 2.12  26 2.12  10 2.12
  60  0.000  0.500  0.351-  28 2.12  18 2.12  25 2.12  26 2.12   9 2.12
  61  0.750  0.500  0.651-  32 2.12  16 2.12  31 2.12  23 2.12  29 2.15
  62  1.000  0.750  0.651-  32 2.12  24 2.12  31 2.12  15 2.12  30 2.15
  63  0.750  0.750  0.550-  31 2.10  29 2.12  14 2.12  30 2.12  21 2.12  27 2.12
  64  1.000  0.500  0.550-  32 2.12  22 2.12  30 2.12  29 2.12  13 2.12  28 2.12

IMPORTANT INFORMATION: All symmetrisations will be switched off!
NOSYMM: (Re-)initialisation of all symmetry stuff for point group C_1.

                                     Primitive cell

  volume of cell :    1530.6606

  direct lattice vectors                    reciprocal lattice vectors
     8.467142631  0.000000000  0.000000000     0.118103597  0.000000000  0.000000000
     0.000000000  8.467142631  0.000000000     0.000000000  0.118103597  0.000000000
     0.000000000  0.000000000 21.350356973     0.000000000  0.000000000  0.046837624

  length of vectors
     8.467142631  8.467142631 21.350356973     0.118103597  0.118103597  0.046837624

  position of ions in fractional coordinates (direct lattice)
     0.250000000  0.000000000  0.351282183
     0.500000000  0.250000000  0.351282183
     0.250000000  0.250000000  0.450427394
     0.500000000  0.000000000  0.450427394
     0.249996012  0.000000009  0.550146106
     0.499999989  0.249997928  0.550174483
     0.250014511  0.249997006  0.647928579
     0.500000003  0.999999999  0.648914127
     0.250000000  0.500000000  0.351282183
     0.500000000  0.750000000  0.351282183
     0.250000000  0.750000000  0.450427394
     0.500000000  0.500000000  0.450427394
     0.250000190  0.500000004  0.550191111
     0.500000004  0.750002078  0.550174479
     0.250014510  0.750003006  0.647928569
     0.499999995  0.500000005  0.648955709
     0.750000000  0.000000000  0.351282183
     0.000000000  0.250000000  0.351282183
     0.750000000  0.250000000  0.450427394
     0.000000000  0.000000000  0.450427394
     0.750003995  0.999999999  0.550146103
     0.000000008  0.250022097  0.550140869
     0.749985485  0.249996987  0.647928564
     0.000000004  0.999999996  0.648924405
     0.750000000  0.500000000  0.351282183
     0.000000000  0.750000000  0.351282183
     0.750000000  0.750000000  0.450427394
     0.000000000  0.500000000  0.450427394
     0.749999809  0.500000007  0.550191114
     0.999999996  0.749977901  0.550140868
     0.749985489  0.750003010  0.647928563
     0.999999995  0.500000001  0.648972281
     0.250000000  0.000000000  0.450427394
     0.500000000  0.250000000  0.450427394
     0.250000000  0.250000000  0.351282183
     0.500000000  0.000000000  0.351282183
     0.249985264  0.999999997  0.650654172
     0.500000000  0.250008786  0.650708207
     0.250015431  0.250031130  0.549761565
     0.500000004  0.000000010  0.549846634
     0.250000000  0.500000000  0.450427394
     0.500000000  0.750000000  0.450427394
     0.250000000  0.750000000  0.351282183
     0.500000000  0.500000000  0.351282183
     0.249984636  0.500000008  0.650725015
     0.499999998  0.749991220  0.650708198
     0.250015432  0.749968870  0.549761559
     0.500000000  0.500000006  0.549857885
     0.750000000  0.000000000  0.450427394
     0.000000000  0.250000000  0.450427394
     0.750000000  0.250000000  0.351282183
     0.000000000  0.000000000  0.351282183
     0.750014742  0.000000007  0.650654168
     0.999999991  0.249999673  0.650662442
     0.749984573  0.250031130  0.549761561
     0.000000001  1.000000000  0.549843355
     0.750000000  0.500000000  0.450427394
     0.000000000  0.750000000  0.450427394
     0.750000000  0.750000000  0.351282183
     0.000000000  0.500000000  0.351282183
     0.750015361  0.499999999  0.650725012
     0.999999999  0.750000329  0.650662439
     0.749984569  0.749968868  0.549761563
     0.999999992  0.499999995  0.549897117

  ion indices of the primitive-cell ions
   primitive index   ion index
                 1           1
                 2           2
                 3           3
                 4           4
                 5           5
                 6           6
                 7           7
                 8           8
                 9           9
                10          10
                11          11
                12          12
                13          13
                14          14
                15          15
                16          16
                17          17
                18          18
                19          19
                20          20
                21          21
                22          22
                23          23
                24          24
                25          25
                26          26
                27          27
                28          28
                29          29
                30          30
                31          31
                32          32
                33          33
                34          34
                35          35
                36          36
                37          37
                38          38
                39          39
                40          40
                41          41
                42          42
                43          43
                44          44
                45          45
                46          46
                47          47
[...]
   2.11675189  0.00000008 11.74581576
   4.23357123  2.11676811 11.74642161
   2.11690852  2.11676031 13.83350645
   4.23357134  8.46714262 13.85454825
   2.11678566  4.23357132  7.50000000
   4.23357132  6.35035697  7.50000000
   2.11678566  6.35035697  9.61678566
   4.23357132  4.23357132  9.61678566
   2.11678726  4.23357135 11.74677662
   4.23357135  6.35037457 11.74642153
   2.11690852  6.35038243 13.83350623
   4.23357128  4.23357136 13.85543604
   6.35035697  0.00000000  7.50000000
   0.00000000  2.11678566  7.50000000
   6.35035697  2.11678566  9.61678566
   0.00000000  0.00000000  9.61678566
   6.35039080  8.46714262 11.74581569
   0.00000007  2.11697275 11.74570393
   6.35023407  2.11676014 13.83350613
   0.00000003  8.46714259 13.85476769
   6.35035697  4.23357132  7.50000000
   0.00000000  6.35035697  7.50000000
   6.35035697  6.35035697  9.61678566
   0.00000000  4.23357132  9.61678566
   6.35035536  4.23357138 11.74677668
   8.46714260  6.35016986 11.74570391
   6.35023411  6.35038246 13.83350611
   8.46714259  4.23357132 13.85578987
   2.11678566  0.00000000  9.61678566
   4.23357132  2.11678566  9.61678566
   2.11678566  2.11678566  7.50000000
   4.23357132  0.00000000  7.50000000
   2.11666088  8.46714261 13.89169884
   4.23357132  2.11686005 13.89285251
   2.11691632  2.11704924 11.73760567
   4.23357135  0.00000009 11.73942191
   2.11678566  4.23357132  9.61678566
   4.23357132  6.35035697  9.61678566
   2.11678566  6.35035697  7.50000000
   4.23357132  4.23357132  7.50000000
   2.11665557  4.23357138 13.89321136
   4.23357130  6.35028263 13.89285230
   2.11691633  6.35009339 11.73760554
   4.23357131  4.23357137 11.73966213
   6.35035697  0.00000000  9.61678566
   0.00000000  2.11678566  9.61678566
   6.35035697  2.11678566  7.50000000
   0.00000000  0.00000000  7.50000000
   6.35048180  0.00000006 13.89169876
   8.46714255  2.11678289 13.89187540
   6.35022635  2.11704924 11.73760558
   0.00000001  8.46714263 11.73935192
   6.35035697  4.23357132  9.61678566
   0.00000000  6.35035697  9.61678566
   6.35035697  6.35035697  7.50000000
   0.00000000  4.23357132  7.50000000
   6.35048704  4.23357130 13.89321129
   8.46714262  6.35035976 13.89187534
   6.35022631  6.35009337 11.73760561
   8.46714256  4.23357127 11.74049975

--------------------------------------- Iteration      FINAL  ---------------------------------------

--------------------OUTCAR has been truncated-------------------------

[...]

--------------------OUTCAR has been truncated-------------------------

  DFT-D2 method for vdW energy calculation

  Parameters of vdW forcefield:
         C6(Jnm^6/mol)     R0(A)
   Mg       0.630          1.243
   O        0.700          1.342

  vdW correction parametrized for the method pbe

  IVDW =   1
  VDW_RADIUS =    50.000 A
  VDW_S6 =     0.750
  VDW_SR =     1.000
  VDW_D =    20.000
  LVDW_EWALD = F

  Number of pair interactions contributing to vdW energy:  719008
  Edisp (eV):   -3.58354

  FORCE on cell =-STRESS in cart. coord.  units (eV):
  Direction    XX          YY          ZZ          XY          YZ          ZX
  Alpha Z   869.06037   869.06037   869.06037
  Ewald  160212.52823160212.52635************    -0.00000     0.00001    -0.00000
  Hartree170286.86782170286.86639************    -0.00000     0.00000    -0.00000
  E(xc)   -2455.62676 -2455.62677 -2460.81403     0.00000     0.00000    -0.00000
  Local  ************************340674.43952     0.00000    -0.00001    -0.00000
  n-local -2812.67314 -2812.67318 -2832.77833     0.00000    -0.00000    -0.00000
  augment  1047.87483  1047.87479  1038.83525    -0.00000    -0.00000     0.00000
  Kinetic  7297.85869  7297.85876  7340.86964    -0.00000    -0.00000     0.00001
  Fock        0.00000     0.00000     0.00000     0.00000     0.00000     0.00000
  vdW        -5.22545    -5.22545    -4.25828     0.00000     0.00000    -0.00000
  Total     -29.37605   -29.37590    -2.39726    -0.00000    -0.00000     0.00000
  in kB     -30.74858   -30.74842    -2.50926    -0.00000    -0.00000     0.00000

 VOLUME and BASIS-vectors are now :
  energy-cutoff  :      600.00
  volume of cell :     1530.66
      direct lattice vectors                 reciprocal lattice vectors
     8.467142631  0.000000000  0.000000000     0.118103597  0.000000000  0.000000000
     0.000000000  8.467142631  0.000000000     0.000000000  0.118103597  0.000000000
     0.000000000  0.000000000 21.350356973     0.000000000  0.000000000  0.046837624

  length of vectors
     8.467142631  8.467142631 21.350356973     0.118103597  0.118103597  0.046837624

 FORCES acting on ions:
    Electron-Ion                     Ewald-Force                    Non-Local-Force
   -.368E-02 -.460E-05 0.205E+04   0.438E-02 0.958E-06 -.205E+04   -.510E-03 -.161E-05 -.703E+01
   -.940E-06 -.118E-01 0.205E+04   -.328E-06 0.123E-01 -.205E+04   0.130E-05 -.363E-03 -.703E+01
   -.155E-01 -.499E-01 0.680E+03   0.206E-01 0.556E-01 -.680E+03   -.370E-02 -.413E-02 0.496E+00
   0.380E-05 -.507E-05 0.680E+03   -.533E-05 0.432E-05 -.680E+03   0.778E-06 -.314E-06 0.484E+00
   0.980E-02 0.168E-04 -.685E+03   -.146E-01 -.163E-04 0.685E+03   0.370E-02 -.433E-06 -.324E+00
   -.208E-04 -.278E-01 -.685E+03   0.200E-04 0.341E-01 0.685E+03   0.574E-06 -.442E-02 -.314E+00
   0.617E-01 0.912E-01 -.203E+04   -.665E-01 -.917E-01 0.203E+04   0.191E-02 0.286E-03 0.606E+01
   0.709E-05 -.349E-05 -.204E+04   -.690E-05 0.321E-05 0.204E+04   -.121E-06 0.501E-06 0.611E+01
   -.126E-02 0.147E-05 0.205E+04   0.178E-02 -.118E-05 -.205E+04   -.362E-03 -.235E-05 -.703E+01
   0.475E-06 0.118E-01 0.205E+04   -.845E-06 -.123E-01 -.205E+04   0.119E-05 0.363E-03 -.703E+01
   -.155E-01 0.499E-01 0.680E+03   0.206E-01 -.556E-01 -.680E+03   -.369E-02 0.413E-02 0.496E+00
   0.518E-06 0.131E-04 0.680E+03   0.482E-06 -.108E-04 -.680E+03   -.118E-05 -.642E-06 0.484E+00
   -.365E-02 0.151E-04 -.685E+03   0.264E-02 -.139E-04 0.686E+03   0.672E-03 -.115E-05 -.319E+00
   0.235E-04 0.278E-01 -.685E+03   -.237E-04 -.341E-01 0.685E+03   -.981E-08 0.443E-02 -.314E+00
   0.617E-01 -.911E-01 -.203E+04   -.665E-01 0.917E-01 0.203E+04   0.191E-02 -.287E-03 0.606E+01
   -.148E-04 0.661E-05 -.204E+04   0.145E-04 -.642E-05 0.204E+04   -.148E-05 0.149E-05 0.611E+01
   0.367E-02 -.409E-05 0.205E+04   -.438E-02 0.146E-05 -.205E+04   0.512E-03 -.670E-06 -.703E+01
   -.259E-08 -.141E-01 0.205E+04   0.469E-06 0.148E-01 -.205E+04   0.214E-05 -.540E-03 -.703E+01
   0.155E-01 -.499E-01 0.680E+03   -.206E-01 0.556E-01 -.680E+03   0.370E-02 -.413E-02 0.496E+00
   -.667E-05 -.607E-06 0.680E+03   0.737E-05 0.249E-05 -.680E+03   -.283E-06 -.150E-05 0.479E+00
   -.979E-02 -.765E-05 -.685E+03   0.146E-01 0.103E-04 0.685E+03   -.370E-02 -.338E-05 -.324E+00
   -.338E-05 0.305E-01 -.685E+03   0.254E-05 -.249E-01 0.685E+03   0.102E-05 -.605E-02 -.325E+00
   -.617E-01 0.911E-01 -.203E+04   0.664E-01 -.916E-01 0.203E+04   -.191E-02 0.288E-03 0.606E+01
   -.117E-04 -.118E-04 -.204E+04   0.937E-05 0.143E-04 0.204E+04   0.137E-05 0.107E-07 0.612E+01
   0.126E-02 0.389E-05 0.205E+04   -.178E-02 -.164E-05 -.205E+04   0.365E-03 0.334E-06 -.703E+01
   -.222E-07 0.141E-01 0.205E+04   0.931E-06 -.148E-01 -.205E+04   0.110E-05 0.537E-03 -.703E+01
   0.155E-01 0.499E-01 0.680E+03   -.206E-01 -.556E-01 -.680E+03   0.369E-02 0.412E-02 0.496E+00
   -.467E-05 0.391E-05 0.679E+03   0.311E-05 -.385E-05 -.680E+03   -.597E-07 0.756E-06 0.496E+00
   0.367E-02 0.383E-04 -.685E+03   -.266E-02 -.393E-04 0.686E+03   -.673E-03 0.965E-06 -.319E+00
   -.327E-04 -.305E-01 -.685E+03   0.325E-04 0.249E-01 0.685E+03   0.322E-06 0.605E-02 -.325E+00
   -.617E-01 -.911E-01 -.203E+04   0.664E-01 0.916E-01 0.203E+04   -.191E-02 -.288E-03 0.606E+01
   -.122E-04 -.190E-05 -.204E+04   0.102E-04 -.104E-05 0.204E+04   0.287E-05 0.885E-06 0.613E+01
   -.116E-01 -.475E-05 0.509E+03   0.124E-01 -.223E-06 -.509E+03   -.108E-02 0.204E-05 -.873E-01
   -.384E-05 -.324E-01 0.509E+03   0.250E-05 0.340E-01 -.509E+03   -.446E-06 -.210E-02 -.962E-01
   -.208E-02 -.960E-02 0.154E+04   0.286E-02 0.104E-01 -.155E+04   -.109E-02 -.108E-02 0.349E+01
   -.600E-06 -.457E-06 0.154E+04   -.716E-06 0.109E-05 -.155E+04   0.191E-05 -.471E-06 0.349E+01
   0.415E-03 -.161E-04 -.155E+04   -.281E-02 0.172E-04 0.156E+04   0.471E-02 -.740E-06 -.513E+01
   0.183E-05 0.719E-01 -.155E+04   0.626E-06 -.709E-01 0.156E+04   -.209E-05 -.251E-02 -.515E+01
   0.181E-01 0.226E-01 -.506E+03   -.214E-01 -.248E-01 0.505E+03   0.321E-02 0.202E-03 0.481E+00
   0.516E-05 0.571E-05 -.509E+03   -.547E-05 -.483E-05 0.509E+03   -.384E-06 -.149E-05 0.228E+00
   0.691E-02 0.910E-05 0.509E+03   -.401E-02 -.510E-05 -.509E+03   -.413E-02 -.147E-05 -.995E-01
   0.594E-05 0.324E-01 0.509E+03   -.386E-05 -.340E-01 -.509E+03   0.765E-06 0.211E-02 -.962E-01
   -.208E-02 0.960E-02 0.154E+04   0.286E-02 -.104E-01 -.155E+04   -.109E-02 0.107E-02 0.349E+01
   0.264E-05 0.469E-05 0.154E+04   -.207E-06 -.126E-05 -.155E+04   0.104E-05 0.191E-06 0.349E+01
   -.226E-01 0.115E-05 -.155E+04   0.199E-01 -.469E-06 0.156E+04   0.535E-02 -.107E-05 -.515E+01
   -.242E-05 -.719E-01 -.155E+04   0.376E-05 0.709E-01 0.156E+04   0.334E-06 0.251E-02 -.515E+01
   0.181E-01 -.227E-01 -.506E+03   -.214E-01 0.248E-01 0.505E+03   0.321E-02 -.204E-03 0.481E+00
   0.485E-05 0.201E-04 -.509E+03   -.247E-05 -.208E-04 0.509E+03   -.850E-06 0.511E-06 0.231E+00
   0.116E-01 -.543E-05 0.509E+03   -.124E-01 0.477E-05 -.509E+03   0.108E-02 -.813E-06 -.873E-01
   -.288E-05 -.454E-01 0.509E+03   0.145E-06 0.441E-01 -.509E+03   0.247E-05 0.187E-02 -.853E-01
   0.209E-02 -.960E-02 0.154E+04   -.286E-02 0.104E-01 -.155E+04   0.109E-02 -.107E-02 0.349E+01
   -.304E-05 0.820E-06 0.154E+04   0.798E-06 0.730E-06 -.155E+04   0.140E-05 -.180E-05 0.349E+01
   -.415E-03 0.176E-04 -.155E+04   0.281E-02 -.166E-04 0.156E+04   -.471E-02 -.148E-05 -.513E+01
   -.158E-04 0.860E-01 -.155E+04   0.133E-04 -.843E-01 0.156E+04   0.206E-05 -.305E-02 -.512E+01
   -.181E-01 0.226E-01 -.506E+03   0.214E-01 -.248E-01 0.505E+03   -.321E-02 0.201E-03 0.481E+00
   -.164E-04 -.196E-05 -.509E+03   0.173E-04 0.234E-06 0.509E+03   -.111E-05 0.942E-06 0.209E+00
   -.691E-02 0.760E-05 0.509E+03   0.401E-02 -.848E-05 -.509E+03   0.413E-02 0.170E-05 -.995E-01
   -.418E-05 0.454E-01 0.509E+03   0.500E-05 -.441E-01 -.509E+03   -.110E-05 -.187E-02 -.853E-01
   0.208E-02 0.960E-02 0.154E+04   -.286E-02 -.104E-01 -.155E+04   0.109E-02 0.107E-02 0.349E+01
   -.285E-06 0.196E-05 0.154E+04   0.301E-06 -.825E-06 -.155E+04   0.472E-06 -.234E-05 0.349E+01
   0.227E-01 0.553E-05 -.155E+04   -.200E-01 -.594E-05 0.156E+04   -.535E-02 0.174E-05 -.515E+01
   -.350E-05 -.860E-01 -.155E+04   0.331E-05 0.843E-01 0.156E+04   -.842E-06 0.305E-02 -.512E+01
   -.181E-01 -.227E-01 -.506E+03   0.214E-01 0.248E-01 0.505E+03   -.321E-02 -.201E-03 0.481E+00
   -.228E-04 0.597E-05 -.509E+03   0.211E-04 -.344E-05 0.509E+03   0.205E-05 0.199E-06 0.203E+00
   0.106E-05 -.734E-06 0.172E+02   0.347E-12 -.342E-12 -.909E-12   0.193E-04 -.138E-04 -.172E+02

 POSITION                                       TOTAL-FORCE (eV/Angst)
      2.11679      0.00000      7.50000         0.000189     -0.000005      0.393500
      4.23357      2.11679      7.50000        -0.000000      0.000149      0.394047
      2.11679      2.11679      9.61679         0.001402      0.001565      0.016855
      4.23357      0.00000      9.61679        -0.000001     -0.000001      0.026532
      2.11675      0.00000     11.74582        -0.001049      0.000000      0.000132
      4.23357      2.11677     11.74642        -0.000001      0.001819     -0.005039
      2.11691      2.11676     13.83351        -0.002751     -0.000207      0.076080
      4.23357      8.46714     13.85455        -0.000000      0.000000     -0.057916
      2.11679      4.23357      7.50000         0.000156     -0.000002      0.394096
      4.23357      6.35036      7.50000         0.000001     -0.000150      0.394047
      2.11679      6.35036      9.61679         0.001403     -0.001565      0.016851
      4.23357      4.23357      9.61679        -0.000000      0.000002      0.028654
      2.11679      4.23357     11.74678        -0.000337      0.000000     -0.005397
      4.23357      6.35037     11.74642        -0.000001     -0.001818     -0.005039
      2.11691      6.35038     13.83351        -0.002748      0.000208      0.076080
      4.23357      4.23357     13.85544        -0.000002      0.000002     -0.059949
      6.35036      0.00000      7.50000        -0.000188     -0.000003      0.393501
      0.00000      2.11679      7.50000         0.000002      0.000187      0.393393
      6.35036      2.11679      9.61679        -0.001402      0.001565      0.016855
      0.00000      0.00000      9.61679         0.000000      0.000001      0.026685
      6.35039      8.46714     11.74582         0.001049     -0.000001      0.000131
      0.00000      2.11697     11.74570        -0.000000     -0.000437      0.003592
      6.35023      2.11676     13.83351         0.002752     -0.000208      0.076084
      0.00000      8.46714     13.85477        -0.000001      0.000003     -0.062978
      6.35036      4.23357      7.50000        -0.000154      0.000003      0.394095
      0.00000      6.35036      7.50000         0.000002     -0.000191      0.393390
      6.35036      6.35036      9.61679        -0.001403     -0.001566      0.016855
      0.00000      4.23357      9.61679        -0.000002      0.000001      0.028708
      6.35036      4.23357     11.74678         0.000338      0.000000     -0.005399
      8.46714      6.35017     11.74570        -0.000000      0.000437      0.003591
      6.35023      6.35038     13.83351         0.002750      0.000209      0.076083
      8.46714      4.23357     13.85579         0.000001     -0.000002     -0.063947
      2.11679      0.00000      9.61679        -0.000268     -0.000003      0.056060
      4.23357      2.11679      9.61679        -0.000002     -0.000536      0.056243
      2.11679      2.11679      7.50000        -0.000309     -0.000308     -0.476079
      4.23357      0.00000      7.50000         0.000000      0.000000     -0.476261
      2.11666      8.46714     13.89170         0.002316      0.000001      0.007507
      4.23357      2.11686     13.89285         0.000000     -0.001541      0.002164
      2.11692      2.11705     11.73761        -0.000086     -0.001956     -0.015093
      4.23357      0.00000     11.73942        -0.000001     -0.000000      0.003390
      2.11679      4.23357      9.61679        -0.001245      0.000003      0.056999
      4.23357      6.35036      9.61679         0.000003      0.000536      0.056243
      2.11679      6.35036      7.50000        -0.000306      0.000307     -0.476079
      4.23357      4.23357      7.50000         0.000003      0.000004     -0.476573
      2.11666      4.23357     13.89321         0.002662     -0.000000      0.002652
      4.23357      6.35028     13.89285         0.000001      0.001541      0.002164
      2.11692      6.35009     11.73761        -0.000086      0.001957     -0.015095
      4.23357      4.23357     11.73966         0.000001      0.000000      0.005768
      6.35036      0.00000      9.61679         0.000267     -0.000001      0.056060
      0.00000      2.11679      9.61679        -0.000001      0.000574      0.056200
      6.35036      2.11679      7.50000         0.000310     -0.000306     -0.476080
      0.00000      0.00000      7.50000        -0.000001     -0.000000     -0.475837
      6.35048      0.00000     13.89170        -0.002316     -0.000000      0.007506
      8.46714      2.11678     13.89188        -0.000001     -0.001276      0.008493
      6.35023      2.11705     11.73761         0.000087     -0.001958     -0.015094
      0.00000      8.46714     11.73935        -0.000001     -0.000001      0.000351
      6.35036      4.23357      9.61679         0.001242      0.000001      0.057000
      0.00000      6.35036      9.61679        -0.000001     -0.000579      0.056199
      6.35036      6.35036      7.50000         0.000308      0.000307     -0.476076
      0.00000      4.23357      7.50000         0.000000     -0.000001     -0.476207
      6.35049      4.23357     13.89321        -0.002662      0.000002      0.002651
      8.46714      6.35036     13.89188        -0.000001      0.001276      0.008494
      6.35023      6.35009     11.73761         0.000086      0.001960     -0.015096
      8.46714      4.23357     11.74050         0.000000      0.000003     -0.006748
    total drift:                                0.000020     -0.000015      0.018026

  FREE ENERGIE OF THE ION-ELECTRON SYSTEM (eV)
  free  energy   TOTEN  =      -375.64790750 eV

  energy  without entropy=     -375.64790750  energy(sigma->0) =     -375.64790750