 vasp.6.4.1 05Apr23 (build Sep 19 2024 10:44:22) complex

 executed on             LinuxIFC date 2024.10.13  12:34:26

 INCAR:
   SYSTEM = TiO2
   ISMEAR = 0
   SIGMA = 0.05
   EDIFF = 1E-7
   ALGO = ALL
   ISTART = 0
   IBRION = 2
   NSW = 1000
   ISYM = 0
   ISIF = 2
   EDIFFG = -0.01
   DIPOL = 0.5 0.5 0.5
   IDIPOL = 3
   LDIPOL = .TRUE.
   GGA = RE
   AGGAC = 0.0
   LUSE_VDW = .TRUE.
   LASPH = .TRUE.
   ENCUT = 600
   PREC = Accurate
   LASPH = .TRUE.
   LREAL = .FALSE.
   ISPIN = 1
   NELM = 200
   NELMIN = 8
   NCORE = 8
   KPAR = 1
   LWAVE = .FALSE.
   LCHARG = .FALSE.

 POTCAR:    PAW_PBE H 15Jun2001
 POTCAR:    PAW_PBE O 08Apr2002
 POTCAR:    PAW_PBE Ti_pv 07Sep2000
 POTCAR:    PAW_PBE O 08Apr2002
|           W    W    AA    RRRRR   N    N  II  N    N   GGGG   !!!           |
|           W    W   A  A   R    R  NN   N  II  NN   N  G    G  !!!           |
|           W    W  A    A  R    R  N N  N  II  N N  N  G       !!!           |
|           W WW W  AAAAAA  RRRRR   N  N N  II  N  N N  G  GGG   !            |
|           WW  WW  A    A  R   R   N   NN  II  N   NN  G    G                |
|           W    W  A    A  R    R  N    N  II  N    N   GGGG   !!!           |
|     For optimal performance we recommend to set                             |
|       NCORE = 2 up to number-of-cores-per-socket                            |
|     This setting can greatly improve the performance of VASP for DFT.       |
|     The default, NCORE=1 might be grossly inefficient on modern             |
|     multi-core architectures or massively parallel machines. Do your        |
|     Unfortunately you need to use the default for GW and RPA                |
|     calculations (for HF NCORE is supported but not extensively tested      |
|     yet).                                                                   |

   TITEL  = PAW_PBE H 15Jun2001
   POMASS =    1.000; ZVAL   =    1.000    mass and valenz
   ENMAX  =  250.000; ENMIN  =  200.000 eV

   TITEL  = PAW_PBE O 08Apr2002
   POMASS =   16.000; ZVAL   =    6.000    mass and valenz
   ENMAX  =  400.000; ENMIN  =  300.000 eV

   TITEL  = PAW_PBE Ti_pv 07Sep2000
   POMASS =   47.880; ZVAL   =   10.000    mass and valenz
   ENMAX  =  222.335; ENMIN  =  166.751 eV

   TITEL  = PAW_PBE O 08Apr2002
   POMASS =   16.000; ZVAL   =    6.000    mass and valenz
   ENMAX  =  400.000; ENMIN  =  300.000 eV

  PAW_PBE H 15Jun2001                   :
  PAW_PBE O 08Apr2002                   :
  PAW_PBE Ti_pv 07Sep2000               :
  PAW_PBE O 08Apr2002                   :

 POSCAR:  H  O Ti  O
  positions in direct lattice
 exchange correlation table for  LEXCH =       40
   RHO(1)=    0.500       N(1)  =     2000
   RHO(2)=  100.500       N(2)  =     4000

 ion  position               nearest neighbor table
   1  0.509  0.550  0.800-   3 0.97
   2  0.610  0.497  0.781-   3 1.00
   3  0.535  0.492  0.781-   1 0.97   2 1.00  83 2.23
   4  0.750  0.625  0.285-  84 1.98 144 1.98  85 1.98 145 1.98 166 2.02  87 2.02  14 3.00  34 3.00

   5  0.000  0.750  0.285-  86 1.98  87 1.98 106 1.98 107 1.98  88 2.02  35 3.00  15 3.00
   6  0.000  0.625  0.393-  88 1.98 148 1.98  89 1.98 149 1.98  90 2.02  91 2.02  16 3.00  36 3.00

[...]

  84  0.750  0.750  0.243-   4 1.98  14 1.98
  85  0.750  0.750  0.327-   4 1.98  14 1.98   7 2.02
  86  0.098  0.625  0.285-   5 1.98  35 1.98  44 2.02
  87  0.902  0.625  0.285-   5 1.98  35 1.98   4 2.02
  88  0.000  0.750  0.351-   6 1.98  16 1.98   5 2.02
  89  0.000  0.750  0.434-   6 1.98  16 1.98   9 2.02
  90  0.848  0.625  0.393-   7 1.98  37 1.98   6 2.02
  91  0.152  0.625  0.393-  47 1.98  77 1.98   6 2.02
  92  0.750  0.750  0.458-   8 1.98  18 1.98   7 2.02
  93  0.750  0.750  0.542-   8 1.98  18 1.98  11 2.17
  94  0.098  0.625  0.500-   9 1.98  39 1.98  48 2.02
  95  0.902  0.625  0.500-   9 1.98  39 1.98   8 2.02
  96  0.000  0.750  0.567-  10 1.92  20 1.92   9 2.05
  97  0.000  0.750  0.651-  13 1.83  20 2.05  10 2.05
  98  0.850  0.625  0.608-  10 1.99  11 2.00  41 2.00
  99  0.150  0.625  0.608-  10 1.99  81 2.00  51 2.00
 100  0.750  0.750  0.673-  11 1.88  12 2.13  22 2.13
 101  0.750  0.750  0.758-  22 1.85  12 1.85
 102  0.094  0.625  0.721-  43 1.97  13 1.97  52 2.07
 103  0.906  0.625  0.721-  13 1.97  43 1.97  12 2.07
 104  0.750  0.000  0.243-  14 1.98  24 1.98
 105  0.750  0.000  0.327-  14 1.98  24 1.98  17 2.02
 106  0.098  0.875  0.285-   5 1.98  15 1.98  54 2.02
 107  0.902  0.875  0.285-   5 1.98  15 1.98  14 2.02
 108  0.000  0.000  0.351-  16 1.98  26 1.98  15 2.02
 109  0.000  0.000  0.434-  16 1.98  26 1.98  19 2.02
 110  0.848  0.875  0.393-   7 1.98  17 1.98  16 2.02
 111  0.152  0.875  0.393-  47 1.98  57 1.98  16 2.02
 112  0.750  0.000  0.458-  18 1.98  28 1.98  17 2.02
 113  0.750  0.000  0.542-  18 1.98  28 1.98  21 2.17
 114  0.098  0.875  0.500-   9 1.98  19 1.98  58 2.02
 115  0.902  0.875  0.500-   9 1.98  19 1.98  18 2.02
 116  0.000  0.000  0.567-  30 1.92  20 1.92  19 2.05
 117  0.000  0.000  0.651-  23 1.83  30 2.05  20 2.05
 118  0.850  0.875  0.608-  20 1.99  11 2.00  21 2.00
 119  0.150  0.875  0.608-  20 1.99  61 2.00  51 2.00
 120  0.750  0.000  0.673-  21 1.88  32 2.13  22 2.13
 121  0.750  1.000  0.758-  22 1.85  32 1.85
 122  0.094  0.875  0.721-  23 1.97  13 1.97  62 2.07
 123  0.906  0.875  0.721-  13 1.97  23 1.97  22 2.07
 124  0.750  0.250  0.243-  24 1.98  34 1.98
 125  0.750  0.250  0.327-  24 1.98  34 1.98  27 2.02
 126  0.098  0.125  0.285-  15 1.98  25 1.98  64 2.02
 127  0.902  0.125  0.285-  15 1.98  25 1.98  24 2.02
 128  0.000  0.250  0.351-  26 1.98  36 1.98  25 2.02
 129  0.000  0.250  0.434-  26 1.98  36 1.98  29 2.02
 130  0.848  0.125  0.393-  17 1.98  27 1.98  26 2.02
 131  0.152  0.125  0.393-  57 1.98  67 1.98  26 2.02
 132  0.750  0.250  0.458-  28 1.98  38 1.98  27 2.02
 133  0.750  0.250  0.542-  28 1.98  38 1.98  31 2.17
 134  0.098  0.125  0.500-  19 1.98  29 1.98  68 2.02
 135  0.902  0.125  0.500-  19 1.98  29 1.98  28 2.02
 136  0.000  0.250  0.567-  30 1.92  40 1.92  29 2.05
 137  0.000  0.250  0.651-  33 1.83  40 2.05  30 2.05
 138  0.850  0.125  0.608-  30 1.99  21 2.00  31 2.00
 139  0.150  0.125  0.608-  30 1.99  71 2.00  61 2.00
 140  0.750  0.250  0.673-  31 1.88  32 2.13  42 2.13
 141  0.750  0.250  0.758-  42 1.85  32 1.85
 142  0.094  0.125  0.721-  23 1.97  33 1.97  72 2.07
 143  0.906  0.125  0.721-  23 1.97  33 1.97  32 2.07
[...]
 229  0.500  0.500  0.434-  46 1.98  76 1.98  79 2.02
 230  0.348  0.375  0.393-  67 1.98  77 1.98  76 2.02
 231  0.652  0.375  0.393-  27 1.98  37 1.98  76 2.02
 232  0.250  0.500  0.458-  48 1.98  78 1.98  77 2.02
 233  0.250  0.500  0.542-  48 1.98  78 1.98  81 2.17
 234  0.598  0.375  0.500-  69 1.98  79 1.98  38 2.02
 235  0.402  0.375  0.500-  69 1.98  79 1.98  78 2.02
 236  0.500  0.500  0.567-  50 1.92  80 1.92  79 2.05
 237  0.500  0.500  0.651-  83 1.83  80 2.05  50 2.05
 238  0.350  0.375  0.608-  80 1.99  81 2.00  71 2.00
 239  0.650  0.375  0.608-  80 1.99  31 2.00  41 2.00
 240  0.250  0.500  0.673-  81 1.88  82 2.13  52 2.13
 241  0.250  0.500  0.758-  52 1.85  82 1.85
 242  0.594  0.375  0.721-  73 1.97  83 1.97  42 2.07
 243  0.406  0.375  0.721-  83 1.97  73 1.97  82 2.07

IMPORTANT INFORMATION: All symmetrisations will be switched off!
NOSYMM: (Re-)initialisation of all symmetry stuff for point group C_1.

                                     Primitive cell

  volume of cell :    4896.0359

  direct lattice vectors                    reciprocal lattice vectors
    13.251808214  0.000000000  0.000000000     0.075461400  0.000000000  0.000000000
     0.000000000 11.981455428  0.000000000     0.000000000  0.083462314  0.000000000
     0.000000000  0.000000000 30.836130416     0.000000000  0.000000000  0.032429491

  length of vectors
    13.251808214 11.981455428 30.836130416     0.075461400  0.083462314  0.032429491

  position of ions in fractional coordinates (direct lattice)
     0.509047017  0.549913908  0.799924047
     0.610027810  0.496927899  0.781217795
     0.535037591  0.492027647  0.780878538
     0.750000000  0.625000000  0.285125305
     0.000000000  0.750000000  0.285125305
     0.000000000  0.625000000  0.392562653
     0.750000000  0.750000000  0.392562653
     0.750000000  0.625000000  0.500000000
     0.000000000  0.750000000  0.500000000
     0.999999783  0.625000001  0.605415143
     0.750000059  0.750000045  0.612299575
     0.749999979  0.624999985  0.722555212
     0.999999987  0.749999999  0.710254076
     0.750000000  0.875000000  0.285125305
     0.000000000  0.000000000  0.285125305
     0.000000000  0.875000000  0.392562653
     0.750000000  0.000000000  0.392562653
     0.750000000  0.875000000  0.500000000
     0.000000000  0.000000000  0.500000000
     0.000000096  0.875000007  0.605415150
     0.749999916  0.999999960  0.612299606
     0.750000032  0.874999978  0.722555251
     0.000000049  0.000000006  0.710254087
     0.750000000  0.125000000  0.285125305
     0.000000000  0.250000000  0.285125305
     0.000000000  0.125000000  0.392562653
     0.750000000  0.250000000  0.392562653
     0.750000000  0.125000000  0.500000000
     0.000000000  0.250000000  0.500000000
     0.999999563  0.124999999  0.605415157
     0.749999603  0.250000064  0.612299578
     0.750000031  0.125000000  0.722555226
     0.000000041  0.250000001  0.710254079
     0.750000000  0.375000000  0.285125305
     0.000000000  0.500000000  0.285125305
     0.000000000  0.375000000  0.392562653
     0.750000000  0.500000000  0.392562653
     0.750000000  0.375000000  0.500000000
     0.000000000  0.500000000  0.500000000
     0.999999638  0.374999995  0.605415153
     0.749999749  0.499999924  0.612299590
     0.750000054  0.374999970  0.722555241
     0.000000014  0.499999998  0.710254077
     0.250000000  0.625000000  0.285125305
     0.500000000  0.750000000  0.285125305
     0.500000000  0.625000000  0.392562653
     0.250000000  0.750000000  0.392562653
     0.250000000  0.625000000  0.500000000
     0.500000000  0.750000000  0.500000000
     0.499999981  0.624999999  0.605415145
     0.250000064  0.749999950  0.612299588
     0.249999988  0.624999978  0.722555237
     0.500000009  0.750000003  0.710254081
     0.250000000  0.875000000  0.285125305
     0.500000000  0.000000000  0.285125305
     0.500000000  0.875000000  0.392562653
     0.250000000  0.000000000  0.392562653
     0.250000000  0.875000000  0.500000000
     0.500000000  0.000000000  0.500000000
     0.499999929  0.875000001  0.605415159
[...]
     0.500000000  0.500000000  0.434466779
     0.347508286  0.375000000  0.392562653
     0.652491714  0.375000000  0.392562653
     0.250000000  0.500000000  0.458095874
     0.250000000  0.500000000  0.541904126
     0.597508286  0.375000000  0.500000000
     0.402491714  0.375000000  0.500000000
     0.500000026  0.499999998  0.566523431
     0.500000050  0.500000001  0.650778877
     0.349910089  0.375000000  0.608432961
     0.650090245  0.374999990  0.608432981
     0.250000017  0.499999978  0.673369700
     0.250000013  0.499999980  0.757689651
     0.593690527  0.375000005  0.720975582
     0.406309527  0.374999995  0.720975576

[...]
   6.62590411  0.00000000 15.41806521
   6.62590316 10.48377352 18.66866079
[...]
   6.62590411  5.99072771 13.39727426
   4.60511315  4.49304579 12.10511315
   8.64669506  4.49304579 12.10511315
   3.31295205  5.99072771 14.12590411
   3.31295205  5.99072771 16.71022631
   7.91806521  4.49304579 15.41806521
   5.33374301  4.49304579 15.41806521
   6.62590446  5.99072768 17.46939040
   6.62590476  5.99072773 20.06750233
   4.63694139  4.49304579 18.76171815
   8.61487125  4.49304567 18.76171875
   3.31295227  5.99072745 20.76411590
   3.31295223  5.99072748 23.36421690
   7.86747301  4.49304585 22.23209707
   5.38433593  4.49304573 22.23209688

--------------------------------------- Iteration      FINAL  ---------------------------------------

--------------------OUTCAR has been truncated-------------------------

[...]

--------------------OUTCAR has been truncated-------------------------

  FORCE on cell =-STRESS in cart. coord.  units (eV):
  Direction    XX          YY          ZZ          XY          YZ          ZX
  Alpha Z  4498.56372  4498.56372  4498.56372
  Ewald  935259.79749953175.12838************   -25.88332    34.27840   -32.86313
  Hartree976410.68121986282.38141************    -6.53953     5.85369   -18.55370
  E(xc)   -8828.92799 -8802.75394 -8828.88330    -0.14878     0.23469    -0.14181
  Local  ************************************    26.21928   -29.56907    49.10245
  n-local -5470.85114 -5391.44770 -5506.95704    -0.27342     0.03087    -0.29664
  augment  5309.45885  5292.66964  5315.72164     0.39169    -0.72084     0.03371
  Kinetic 28731.81095 28281.10068 28783.79876     6.25739   -10.11140     3.01443
  Fock        0.00000     0.00000     0.00000     0.00000     0.00000     0.00000
  Total      11.42614   -32.22905   -34.32603     0.02330    -0.00367     0.29531
  in kB       3.73909   -10.54663   -11.23284     0.00762    -0.00120     0.09664

 VOLUME and BASIS-vectors are now :
  energy-cutoff  :      600.00
  volume of cell :     4896.04
      direct lattice vectors                 reciprocal lattice vectors
    13.251808214  0.000000000  0.000000000     0.075461400  0.000000000  0.000000000
     0.000000000 11.981455428  0.000000000     0.000000000  0.083462314  0.000000000
     0.000000000  0.000000000 30.836130416     0.000000000  0.000000000  0.032429491

  length of vectors
    13.251808214 11.981455428 30.836130416     0.075461400  0.083462314  0.032429491

 FORCES acting on ions:
    Electron-Ion                     Ewald-Force                    Non-Local-Force
   0.448E+02 -.540E+02 -.432E+03   -.493E+02 0.592E+02 0.437E+03   0.448E+01 -.520E+01 -.500E+01
   -.722E+02 -.722E+01 -.420E+03   0.804E+02 0.790E+01 0.421E+03   -.818E+01 -.682E+00 -.144E+01
   0.352E+02 0.377E+02 -.244E+04   -.512E+02 -.687E+02 0.242E+04   0.160E+02 0.309E+02 0.222E+02
   -.107E+00 -.179E-01 0.364E+04   0.105E+00 0.181E-01 -.364E+04   0.797E-03 -.135E-04 0.357E+00
   -.342E-01 -.323E-01 0.381E+04   0.349E-01 0.325E-01 -.381E+04   -.111E-03 -.266E-04 -.365E+01
   -.535E-01 -.396E-01 0.186E+04   0.557E-01 0.399E-01 -.186E+04   -.369E-03 0.320E-04 -.465E-01
   -.314E+00 -.602E-02 0.185E+04   0.307E+00 0.677E-02 -.185E+04   0.202E-02 -.105E-04 0.204E+00
   -.187E+01 -.125E+00 0.702E+00   0.185E+01 0.117E+00 0.700E-01   0.890E-02 0.518E-03 -.119E+00
   0.233E+01 -.513E+00 0.833E+01   -.236E+01 0.519E+00 -.941E+01   0.107E-01 -.270E-02 0.383E+00
   0.283E+02 -.164E+01 -.179E+04   -.282E+02 0.164E+01 0.179E+04   -.149E+00 -.487E-02 0.226E+00
   0.555E+01 -.516E+01 -.185E+04   -.544E+01 0.517E+01 0.185E+04   -.174E+00 -.910E-02 -.274E+00
   -.576E+02 -.169E+02 -.359E+04   0.575E+02 0.169E+02 0.359E+04   0.114E+00 0.492E-01 -.188E+00
   -.209E+01 -.224E+01 -.364E+04   0.211E+01 0.225E+01 0.363E+04   -.183E-01 -.199E-01 0.979E+00
   -.115E+00 -.220E-01 0.364E+04   0.112E+00 0.224E-01 -.364E+04   0.868E-03 -.167E-04 0.357E+00
   -.327E-01 -.251E-02 0.381E+04   0.333E-01 0.258E-02 -.381E+04   -.106E-03 -.732E-05 -.365E+01
   -.335E-01 -.567E-01 0.186E+04   0.355E-01 0.568E-01 -.186E+04   -.338E-03 0.240E-04 -.466E-01
   -.393E+00 -.161E-01 0.185E+04   0.386E+00 0.160E-01 -.185E+04   0.204E-02 0.725E-05 0.204E+00
   -.300E+01 -.357E+00 -.544E-01   0.298E+01 0.378E+00 0.836E+00   0.643E-02 -.873E-03 -.121E+00
   0.259E+01 -.452E-01 0.762E+01   -.262E+01 0.443E-01 -.869E+01   0.108E-01 0.203E-03 0.380E+00
   0.301E+02 -.147E+01 -.180E+04   -.300E+02 0.147E+01 0.180E+04   -.158E+00 -.507E-02 0.230E+00
   0.672E+01 0.183E+00 -.186E+04   -.660E+01 -.179E+00 0.186E+04   -.170E+00 -.351E-02 -.274E+00
   -.153E+02 -.148E+02 -.362E+04   0.152E+02 0.148E+02 0.362E+04   0.642E-01 0.348E-02 -.282E+00
   -.244E+01 0.291E+00 -.364E+04   0.243E+01 -.289E+00 0.364E+04   0.163E-01 -.235E-02 0.101E+01
   -.114E+00 0.178E-01 0.364E+04   0.111E+00 -.181E-01 -.364E+04   0.862E-03 0.241E-04 0.357E+00
   -.344E-01 0.323E-01 0.381E+04   0.351E-01 -.325E-01 -.381E+04   -.113E-03 0.266E-04 -.365E+01
   -.337E-01 0.406E-01 0.186E+04   0.357E-01 -.411E-01 -.186E+04   -.353E-03 0.412E-04 -.466E-01
   -.303E+00 0.664E-02 0.185E+04   0.297E+00 -.735E-02 -.185E+04   0.197E-02 -.162E-04 0.204E+00
   -.297E+01 0.250E+00 -.125E+00   0.296E+01 -.269E+00 0.908E+00   0.690E-02 0.112E-02 -.121E+00
   0.234E+01 0.587E+00 0.822E+01   -.236E+01 -.591E+00 -.930E+01   0.105E-01 0.114E-02 0.384E+00
   0.305E+02 0.137E+01 -.180E+04   -.305E+02 -.137E+01 0.180E+04   -.154E+00 0.583E-02 0.229E+00
   0.526E+01 0.524E+01 -.185E+04   -.515E+01 -.524E+01 0.185E+04   -.176E+00 0.250E-02 -.276E+00
   -.156E+02 0.120E+02 -.362E+04   0.155E+02 -.120E+02 0.362E+04   0.732E-01 -.133E-01 -.285E+00
   -.177E+01 0.211E+01 -.364E+04   0.178E+01 -.212E+01 0.363E+04   -.153E-01 0.175E-01 0.978E+00
   -.106E+00 0.221E-01 0.364E+04   0.104E+00 -.224E-01 -.364E+04   0.791E-03 0.173E-04 0.357E+00
   -.360E-01 0.251E-02 0.381E+04   0.366E-01 -.257E-02 -.381E+04   -.118E-03 0.680E-05 -.365E+01
   -.542E-01 0.556E-01 0.186E+04   0.565E-01 -.557E-01 -.186E+04   -.387E-03 -.443E-04 -.465E-01
   -.227E+00 0.155E-01 0.185E+04   0.220E+00 -.154E-01 -.185E+04   0.183E-02 -.515E-04 0.204E+00
   -.183E+01 0.228E+00 0.603E+00   0.181E+01 -.222E+00 0.171E+00   0.907E-02 0.907E-04 -.120E+00
   0.218E+01 0.267E-01 0.899E+01   -.221E+01 -.268E-01 -.101E+02   0.101E-01 -.167E-03 0.382E+00
   0.283E+02 0.178E+01 -.179E+04   -.282E+02 -.179E+01 0.179E+04   -.152E+00 0.308E-02 0.230E+00
   0.377E+01 0.241E+00 -.184E+04   -.364E+01 -.239E+00 0.184E+04   -.191E+00 -.197E-02 -.286E+00
   -.576E+02 0.137E+02 -.359E+04   0.576E+02 -.136E+02 0.359E+04   0.726E-01 -.678E-01 -.195E+00
   -.329E+01 0.204E+00 -.363E+04   0.327E+01 -.206E+00 0.363E+04   0.182E-01 0.566E-03 0.940E+00
   0.987E-01 -.153E-01 0.364E+04   -.962E-01 0.154E-01 -.364E+04   -.714E-03 -.396E-05 0.357E+00
   0.427E-01 -.199E-01 0.381E+04   -.432E-01 0.203E-01 -.381E+04   0.106E-03 -.574E-04 -.366E+01
   0.247E+00 0.107E+00 0.186E+04   -.249E+00 -.969E-01 -.186E+04   0.361E-03 -.215E-02 -.479E-01
   0.125E+00 0.215E-01 0.185E+04   -.118E+00 -.208E-01 -.185E+04   -.977E-03 -.830E-04 0.202E+00
   -.979E+00 0.549E-01 -.815E+00   0.103E+01 -.650E-01 0.162E+01   -.713E-02 0.610E-03 -.125E+00
   0.375E+01 0.109E+01 0.108E+02   -.379E+01 -.114E+01 -.117E+02   0.112E-01 0.277E-01 0.321E+00
   0.333E+02 -.996E+01 -.179E+04   -.332E+02 0.100E+02 0.179E+04   -.174E+00 -.429E-01 0.162E+00
   0.185E+02 -.503E+01 -.185E+04   -.184E+02 0.502E+01 0.185E+04   -.189E+00 0.642E-02 -.284E+00
   0.384E+02 -.138E+02 -.360E+04   -.384E+02 0.138E+02 0.360E+04   0.447E-01 0.103E-01 -.275E+00
   0.147E+02 -.514E+02 -.359E+04   -.146E+02 0.514E+02 0.359E+04   -.105E+00 -.457E-02 0.106E+01
   0.107E+00 -.197E-01 0.364E+04   -.104E+00 0.201E-01 -.364E+04   -.785E-03 -.111E-04 0.357E+00
   0.413E-01 -.385E-02 0.381E+04   -.418E-01 0.391E-02 -.381E+04   0.107E-03 -.556E-05 -.366E+01
   0.230E+00 0.698E-01 0.186E+04   -.233E+00 -.673E-01 -.186E+04   0.461E-03 -.106E-02 -.486E-01
   0.200E+00 -.178E-01 0.185E+04   -.193E+00 0.177E-01 -.185E+04   -.106E-02 0.517E-04 0.202E+00
   -.591E-01 -.943E-01 -.120E+01   0.991E-01 0.103E+00 0.199E+01   -.414E-02 -.769E-03 -.124E+00
   0.348E+01 -.196E+00 0.136E+02   -.353E+01 0.195E+00 -.146E+02   0.168E-01 -.442E-03 0.332E+00
   0.300E+02 -.960E+01 -.177E+04   -.299E+02 0.961E+01 0.177E+04   -.186E+00 0.615E-02 0.139E+00
[...]
   -.560E+02 -.225E-01 0.111E+04   0.601E+02 0.217E-01 -.111E+04   -.377E+01 0.121E-02 0.157E+00
   0.560E+02 -.149E-01 0.111E+04   -.602E+02 0.141E-01 -.111E+04   0.377E+01 0.126E-02 0.160E+00
   -.208E+00 0.313E-01 0.488E+03   0.230E+00 -.318E-01 -.493E+03   -.308E-01 0.137E-02 0.434E+01
   0.149E+01 0.134E+00 -.505E+03   -.176E+01 -.131E+00 0.512E+03   0.272E+00 -.421E-02 -.746E+01
   -.570E+02 -.276E+00 0.736E+01   0.619E+02 0.271E+00 -.762E+01   -.532E+01 0.217E-01 0.341E+00
   0.579E+02 -.335E+00 0.367E+01   -.628E+02 0.330E+00 -.384E+01   0.533E+01 0.221E-01 0.262E+00
   0.192E+02 0.236E+00 -.591E+03   -.209E+02 -.276E+00 0.584E+03   0.167E+01 0.416E-01 0.710E+01
   0.183E+02 -.162E+01 -.154E+04   -.196E+02 0.166E+01 0.154E+04   0.132E+01 -.363E-01 -.633E+00
   -.663E+02 0.192E+01 -.108E+04   0.741E+02 -.197E+01 0.108E+04   -.777E+01 0.493E-01 0.135E+01
   -.960E+01 0.352E+01 -.108E+04   0.110E+02 -.364E+01 0.108E+04   -.141E+01 0.111E+00 0.609E+00
   0.200E+02 -.726E+00 -.173E+04   -.206E+02 0.738E+00 0.174E+04   0.576E+00 -.103E-01 -.226E+01
   0.370E+02 -.123E+00 -.261E+04   -.367E+02 0.124E+00 0.263E+04   -.273E+00 0.470E-03 -.201E+02
   -.528E+02 0.371E+02 -.216E+04   0.588E+02 -.368E+02 0.216E+04   -.601E+01 -.258E+00 -.169E+01
   0.630E+02 0.339E+02 -.220E+04   -.692E+02 -.340E+02 0.220E+04   0.618E+01 0.157E+00 -.292E+01
   0.316E+02 -.257E+02 0.715E+02   -.526E-12 -.146E-11 -.277E-10   -.316E+02 0.257E+02 -.715E+02

 POSITION                                       TOTAL-FORCE (eV/Angst)
      6.43422      6.49508     24.84964        -0.005827      0.007397     -0.000652
      7.87948      5.98923     24.45995        -0.006666      0.000244     -0.002731
      6.92227      5.88202     24.27180         0.002984     -0.003073     -0.004812
      9.93886      7.48841      8.79216        -0.001717      0.000164     -3.341515
      0.00000      8.98609      8.79216         0.000506      0.000181      2.735768
      0.00000      7.48841     12.10511         0.001786      0.000359      0.488010
      9.93886      8.98609     12.10511        -0.004946      0.000734     -0.689041
      9.93886      7.48841     15.41807        -0.014459     -0.008039      0.652798
      0.00000      8.98609     15.41807        -0.018187      0.003493     -0.698242
      0.12353      7.48969     18.66288        -0.002325     -0.000955     -0.004481
     10.03699      8.98901     18.86574         0.000020      0.001232      0.001069
      9.94785      7.49149     22.25096        -0.002439      0.002660     -0.005347
     -0.00017      8.99117     21.89720         0.000995     -0.002244     -0.003013
      9.93886     10.48377      8.79216        -0.001804      0.000389     -3.341597
      0.00000      0.00000      8.79216         0.000499      0.000061      2.735613
      0.00000     10.48377     12.10511         0.001693      0.000173      0.488417
      9.93886      0.00000     12.10511        -0.005231     -0.000109     -0.688518
      9.93886     10.48377     15.41807        -0.004973      0.020316      0.660674
      0.00000      0.00000     15.41807        -0.018907     -0.000640     -0.697404
      0.12438     10.48463     18.66426         0.000845      0.000063     -0.002113
     10.03041      0.00089     18.87310         0.004314      0.000200     -0.000019
      9.92950     10.48118     22.27193         0.002993      0.001051     -0.001540
     -0.00387     -0.00008     21.89666         0.003089      0.000905     -0.001732
      9.93886      1.49768      8.79216        -0.001796     -0.000240     -3.341665
      0.00000      2.99536      8.79216         0.000512     -0.000180      2.735617
      0.00000      1.49768     12.10511         0.001721     -0.000415      0.488203
      9.93886      2.99536     12.10511        -0.004810     -0.000731     -0.688804
      9.93886      1.49768     15.41807        -0.004432     -0.018044      0.662492
      0.00000      2.99536     15.41807        -0.017482     -0.002288     -0.698052
      0.12409      1.49712     18.66407        -0.003905      0.001456     -0.003275
     10.03653      2.99426     18.86676        -0.000386     -0.002684      0.002085
      9.92680      1.49020     22.27232         0.003539      0.004719     -0.003610
     -0.00026      2.99032     21.89694         0.000358      0.000563      0.000500
      9.93886      4.49305      8.79216        -0.001712     -0.000312     -3.341600
      0.00000      5.99073      8.79216         0.000504     -0.000058      2.735776
      0.00000      4.49305     12.10511         0.001825     -0.000118      0.487840
      9.93886      5.99073     12.10511        -0.004557      0.000078     -0.689294
      9.93886      4.49305     15.41807        -0.014950      0.005722      0.654993
      0.00000      5.99073     15.41807        -0.017095     -0.000284     -0.699278
      0.12198      4.49304     18.66278         0.002816     -0.001401     -0.002952
     10.04159      5.99204     18.86884        -0.003084     -0.000351      0.000576
      9.95234      4.48098     22.25414        -0.001994     -0.004511     -0.006867
      0.00519      5.99172     21.89539        -0.001995     -0.001145      0.001364
      3.31295      7.48841      8.79216         0.001762      0.000072     -3.340734
      6.62590      8.98609      8.79216        -0.000427      0.000366      2.740581
      6.62590      7.48841     12.10511        -0.002266      0.007873      0.503516
      3.31295      8.98609     12.10511         0.005783      0.000678     -0.682620
      3.31295      7.48841     15.41807         0.040394     -0.009433      0.676596
      6.62590      8.98609     15.41807        -0.027624     -0.030128     -0.595994
      6.75297      7.46640     18.69574         0.003338     -0.005015     -0.004950
      3.41096      8.98491     18.87103        -0.001718     -0.000968     -0.003807
      3.31088      7.49303     22.26834        -0.002620     -0.000795     -0.002604
      6.63666      8.98675     21.86648         0.001420     -0.004280      0.001360
      3.31295     10.48377      8.79216         0.001855      0.000322     -3.340803
      6.62590      0.00000      8.79216        -0.000398      0.000047      2.740673
      6.62590     10.48377     12.10511        -0.002416      0.001368      0.506641
      3.31295      0.00000     12.10511         0.006159     -0.000042     -0.682419
      3.31295     10.48377     15.41807         0.035844      0.008300      0.674847
      6.62590      0.00000     15.41807        -0.031649     -0.000652     -0.727471
      6.74873     10.47438     18.63893         0.008200     -0.001587     -0.003291
[...]
      6.62590      5.99073     13.39727         0.001966     -0.000440     -0.099802
      4.60511      4.49305     12.10511         0.415849      0.000398      0.049777
      8.64670      4.49305     12.10511        -0.413980      0.000477      0.050636
      3.31295      5.99073     14.12590        -0.009604      0.000796     -0.122521
      3.31295      5.99073     16.71023        -0.000595     -0.000909     -0.035834
      7.91807      4.49305     15.41807        -0.439752      0.017045      0.087005
      5.33374      4.49305     15.41807         0.455874      0.017540      0.095844
      6.63392      5.98921     17.47275        -0.000771      0.001718      0.004943
      6.62607      5.99427     20.08290        -0.002480      0.001733     -0.006470
      4.62160      4.49295     18.76495         0.006458      0.001679     -0.000621
      8.62404      4.49503     18.76519        -0.002982     -0.002895     -0.000923
      3.31213      5.99435     20.75887        -0.002634      0.001638     -0.000710
      3.33832      5.99141     23.35756         0.003470      0.002134      0.001718
      7.89134      4.45872     22.13291         0.001121      0.001462     -0.001059
      5.38239      4.47686     22.18507        -0.002243      0.002505     -0.003373
    total drift:                                0.001424      0.000165      0.014208

  FREE ENERGIE OF THE ION-ELECTRON SYSTEM (eV)
  free  energy   TOTEN  =     -1579.00955971 eV

  energy  without entropy=    -1579.00955971  energy(sigma->0) =    -1579.00955971

 d Force = 0.8699881E-05[ 0.231E-05, 0.151E-04]  d Energy = 0.1014033E-04-0.144E-05
 d Force =-0.1005769E+02[-0.101E+02,-0.101E+02]  d Ewald  =-0.1005769E+02-0.554E-06

 reached required accuracy - stopping structural energy minimisation