 vasp.6.3.0 20Jan22 (build Apr  1 2022 16:44:48) complex
 executed on        HPECrayEX_GCC date 2022.12.19  14:52:59

 INCAR:
   SYSTEM = MgO-rocksalt
   ISMEAR = 0
   SIGMA = 0.05
   EDIFF = 1E-7
   ALGO = ALL
   ISTART = 0
   IBRION = 5
   POTIM = 0.035
   NFREE = 2
   ISYM = 0
   DIPOL = 0.5 0.5 0.5
   IDIPOL = 3
   LDIPOL = .TRUE.
   GGA = RE
   IVDW = 13
   VDW_S8 = 1.7468
   VDW_A1 = 0.5363
   VDW_A2 = 3.0726
   ENCUT = 600
   PREC = Accurate
   LASPH = .TRUE.
   LREAL = .FALSE.
   ISPIN = 1
   NELM = 200
   NELMIN = 8
   NCORE = 8
   KPAR = 1
   LWAVE = .FALSE.
   LCHARG = .FALSE.

 POTCAR:    PAW_PBE C 08Apr2002
 POTCAR:    PAW_PBE O 08Apr2002
 POTCAR:    PAW_PBE Mg_pv 13Apr2007
 POTCAR:    PAW_PBE O 08Apr2002
 POTCAR:    PAW_PBE C 08Apr2002
   VRHFIN =C: s2p2

   TITEL  = PAW_PBE C 08Apr2002
   POMASS =   12.011; ZVAL   =    4.000    mass and valenz
   ENMAX  =  400.000; ENMIN  =  300.000 eV

[...]

   TITEL  = PAW_PBE Mg_pv 13Apr2007
   POMASS =   24.305; ZVAL   =    8.000    mass and valenz
   ENMAX  =  403.929; ENMIN  =  302.947 eV

   TITEL  = PAW_PBE O 08Apr2002
   POMASS =   16.000; ZVAL   =    6.000    mass and valenz
   ENMAX  =  400.000; ENMIN  =  300.000 eV

  PAW_PBE C 08Apr2002                   :
  PAW_PBE O 08Apr2002                   :
  PAW_PBE Mg_pv 13Apr2007               :
  PAW_PBE O 08Apr2002                   :

 POSCAR:  C  O Mg  O
  positions in direct lattice
|           W    W    AA    RRRRR   N    N  II  N    N   GGGG   !!!           |
|           W    W   A  A   R    R  NN   N  II  NN   N  G    G  !!!           |
|           W    W  A    A  R    R  N N  N  II  N N  N  G       !!!           |
|           W WW W  AAAAAA  RRRRR   N  N N  II  N  N N  G  GGG   !            |
|           WW  WW  A    A  R   R   N   NN  II  N   NN  G    G                |
|           W    W  A    A  R    R  N    N  II  N    N   GGGG   !!!           |
|     Specifying the vdW parameters                                           |
|     VDW_S8 = 1.747                                                          |
|     VDW_A1 = 0.536                                                          |
|     VDW_A2 = 3.073                                                          |
|     in the INCAR file will overwrite the defaults for revpbe. Please        |
|     make sure that is what you intended.                                    |

 ion  position               nearest neighbor table
   1  0.500  0.750  0.724-   3 1.26   2 1.26  56 1.47
   2  0.500  0.887  0.747-   1 1.26  26 2.17
   3  0.500  0.613  0.747-   1 1.26  34 2.17
   4  0.000  0.750  0.352-  36 2.11  38 2.11  39 2.11  46 2.11  55 2.11
   5  0.250  0.000  0.352-  37 2.11  38 2.11  39 2.11  47 2.11  54 2.11
   6  0.000  0.000  0.451-  42 2.11  38 2.11  36 2.11  37 2.11  44 2.11  53 2.11
   7  0.250  0.750  0.451-  39 2.11  37 2.11  36 2.11  45 2.11  52 2.11  43 2.13
   8  1.000  0.750  0.549-  36 2.10  50 2.11  42 2.11  59 2.13  43 2.13  40 2.14
   9  0.252  0.001  0.551-  58 2.09  51 2.10  41 2.11  43 2.12  42 2.13  37 2.14
  10  0.000  0.002  0.649-  48 2.09  41 2.10  57 2.10  42 2.12  40 2.13
  11  0.237  0.750  0.647-  40 2.00  43 2.08  49 2.10  41 2.10  56 2.22
  12  0.000  0.250  0.352-  44 2.11  38 2.11  46 2.11  47 2.11  63 2.11
  13  0.250  0.500  0.352-  45 2.11  39 2.11  46 2.11  47 2.11  62 2.11
  14  0.000  0.500  0.451-  50 2.11  46 2.11  45 2.11  36 2.11  44 2.11  61 2.11
  15  0.250  0.250  0.451-  47 2.11  44 2.11  45 2.11  37 2.11  60 2.11  51 2.12
  16  0.000  0.250  0.550-  44 2.11  51 2.11  67 2.11  50 2.11  42 2.11  48 2.14
  17  0.252  0.499  0.551-  66 2.09  51 2.10  49 2.11  43 2.12  50 2.13  45 2.14
  18  0.000  0.498  0.649-  48 2.09  49 2.10  65 2.10  50 2.12  40 2.13
  19  0.248  0.250  0.649-  48 2.09  51 2.11  49 2.12  41 2.12  64 2.13
  20  0.500  0.750  0.352-  52 2.11  39 2.11  54 2.11  55 2.11  62 2.11
  21  0.750  0.000  0.352-  53 2.11  38 2.11  54 2.11  55 2.11  63 2.11
  22  0.500  0.000  0.451-  54 2.11  52 2.11  53 2.11  37 2.11  60 2.11  58 2.15
  23  0.750  0.750  0.451-  55 2.11  52 2.11  53 2.11  36 2.11  61 2.11  59 2.13
  24  0.500  0.750  0.548-  52 2.07  59 2.09  43 2.09  66 2.09  58 2.09
  25  0.748  0.001  0.551-  58 2.09  67 2.10  57 2.11  59 2.12  42 2.13  53 2.14
  26  0.500  0.011  0.658-  64 2.02  41 2.14  57 2.14   2 2.17  56 2.21
  27  0.763  0.750  0.647-  40 2.00  59 2.08  65 2.10  57 2.10  56 2.22
  28  0.500  0.250  0.352-  60 2.11  54 2.11  47 2.11  62 2.11  63 2.11
  29  0.750  0.500  0.352-  61 2.11  55 2.11  46 2.11  62 2.11  63 2.11
  30  0.500  0.500  0.451-  62 2.11  52 2.11  60 2.11  61 2.11  45 2.11  66 2.15
  31  0.750  0.250  0.451-  63 2.11  53 2.11  60 2.11  61 2.11  44 2.11  67 2.12
  32  0.500  0.250  0.551-  51 2.11  67 2.11  66 2.13  58 2.13  64 2.14  60 2.15
  33  0.748  0.499  0.551-  66 2.09  67 2.10  65 2.11  59 2.12  50 2.13  61 2.14
  34  0.500  0.489  0.658-  64 2.02  49 2.14  65 2.14   3 2.17  56 2.21
  35  0.752  0.250  0.649-  48 2.09  67 2.11  65 2.12  57 2.12  64 2.13
  36  0.000  0.750  0.451-   8 2.10   4 2.11   7 2.11   6 2.11  14 2.11  23 2.11
  37  0.250  0.000  0.451-   5 2.11   6 2.11   7 2.11  15 2.11  22 2.11   9 2.14
  38  0.000  0.000  0.352-   6 2.11   5 2.11   4 2.11  12 2.11  21 2.11
  39  0.250  0.750  0.352-   7 2.11   5 2.11   4 2.11  13 2.11  20 2.11
  40  0.000  0.750  0.649-  11 2.00  27 2.00  10 2.13  18 2.13   8 2.14
  41  0.248  0.999  0.650-  10 2.10  11 2.10   9 2.11  19 2.12  26 2.14
  42  0.000  0.999  0.549-   8 2.11   6 2.11  16 2.11  10 2.12   9 2.13  25 2.13
  43  0.252  0.750  0.550-  11 2.08  24 2.09   9 2.12  17 2.12   7 2.13   8 2.13
  44  0.000  0.250  0.451-  12 2.11   6 2.11  14 2.11  15 2.11  31 2.11  16 2.11
  45  0.250  0.500  0.451-  13 2.11   7 2.11  14 2.11  15 2.11  30 2.11  17 2.14
  46  0.000  0.500  0.352-  14 2.11  12 2.11  13 2.11   4 2.11  29 2.11
  47  0.250  0.250  0.352-  15 2.11  12 2.11  13 2.11   5 2.11  28 2.11
  48  0.000  0.250  0.650-  19 2.09  35 2.09  10 2.09  18 2.09  16 2.14
  49  0.248  0.501  0.650-  18 2.10  11 2.10  17 2.11  19 2.12  34 2.14
  50  0.000  0.501  0.549-   8 2.11  14 2.11  16 2.11  18 2.12  17 2.13  33 2.13
  51  0.251  0.250  0.550-   9 2.10  17 2.10  32 2.11  19 2.11  16 2.11  15 2.12
  52  0.500  0.750  0.451-  24 2.07  20 2.11  22 2.11  23 2.11   7 2.11  30 2.11
  53  0.750  0.000  0.451-  21 2.11   6 2.11  22 2.11  23 2.11  31 2.11  25 2.14
  54  0.500  0.000  0.352-  22 2.11  20 2.11  21 2.11   5 2.11  28 2.11
  55  0.750  0.750  0.352-  23 2.11  20 2.11  21 2.11   4 2.11  29 2.11
  56  0.500  0.750  0.655-   1 1.47  26 2.21  34 2.21  11 2.22  27 2.22
  57  0.752  0.999  0.650-  10 2.10  27 2.10  25 2.11  35 2.12  26 2.14
  58  0.500  0.998  0.551-  24 2.09   9 2.09  25 2.09  32 2.13  22 2.15
  59  0.748  0.750  0.550-  27 2.08  24 2.09  25 2.12  33 2.12  23 2.13   8 2.13
  60  0.500  0.250  0.451-  28 2.11  22 2.11  15 2.11  30 2.11  31 2.11  32 2.15
  61  0.750  0.500  0.451-  29 2.11  23 2.11  14 2.11  30 2.11  31 2.11  33 2.14
  62  0.500  0.500  0.352-  30 2.11  20 2.11  28 2.11  29 2.11  13 2.11
  63  0.750  0.250  0.352-  31 2.11  21 2.11  28 2.11  29 2.11  12 2.11
  64  0.500  0.250  0.652-  26 2.02  34 2.02  35 2.13  19 2.13  32 2.14
  65  0.752  0.501  0.650-  18 2.10  27 2.10  33 2.11  35 2.12  34 2.14
  66  0.500  0.502  0.551-  24 2.09  17 2.09  33 2.09  32 2.13  30 2.15
  67  0.749  0.250  0.550-  25 2.10  33 2.10  32 2.11  35 2.11  16 2.11  31 2.12

IMPORTANT INFORMATION: All symmetrisations will be switched off!
NOSYMM: (Re-)initialisation of all symmetry stuff for point group C_1.

                                     Primitive cell

  volume of cell :    1519.8199

  direct lattice vectors                    reciprocal lattice vectors
     8.440984654  0.000000000  0.000000000     0.118469591  0.000000000  0.000000000
     0.000000000  8.440984654  0.000000000     0.000000000  0.118469591  0.000000000
     0.000000000  0.000000000 21.330738491     0.000000000  0.000000000  0.046880702

  length of vectors
     8.440984654  8.440984654 21.330738491     0.118469591  0.118469591  0.046880702

  position of ions in fractional coordinates (direct lattice)
     0.499999999  0.749992575  0.723945469
     0.500000054  0.886923811  0.747131544
     0.500000003  0.613085469  0.747130390
     0.000000000  0.750000000  0.351605267
     0.250000000  0.000000000  0.351605267
     0.000000000  0.000000000  0.450535089
     0.250000000  0.750000000  0.450535089
     0.999999975  0.749999946  0.548865087
     0.252039878  0.000756628  0.550788885
     0.000000022  0.002311195  0.648546918
     0.237174188  0.749999934  0.647363126
     0.000000000  0.250000000  0.351605267
     0.250000000  0.500000000  0.351605267
     0.000000000  0.500000000  0.450535089
     0.250000000  0.250000000  0.450535089
     0.000000013  0.249999998  0.549624541
     0.252039900  0.499243377  0.550788959
     0.000000021  0.497688821  0.648546972
     0.247666318  0.250000068  0.648931672
     0.500000000  0.750000000  0.351605267
     0.750000000  0.000000000  0.351605267
     0.500000000  0.000000000  0.450535089
     0.750000000  0.750000000  0.450535089
     0.500000019  0.750000015  0.547754495
     0.747960121  0.000756607  0.550788926
     0.499999989  0.011207993  0.658121991
     0.762825847  0.749999939  0.647363220
     0.500000000  0.250000000  0.351605267
     0.750000000  0.500000000  0.351605267
     0.500000000  0.500000000  0.450535089
     0.750000000  0.250000000  0.450535089
     0.499999992  0.250000035  0.551140650
     0.747960100  0.499243403  0.550789001
     0.499999989  0.488792575  0.658122307
     0.752333689  0.250000066  0.648931633
     0.000000000  0.750000000  0.450535089
     0.250000000  0.000000000  0.450535089
     0.000000000  0.000000000  0.351605267
     0.250000000  0.750000000  0.351605267
     0.000000022  0.750000036  0.649408351
     0.248158655  0.998502614  0.649732587
     0.000000003  0.999457034  0.549345342
     0.252314547  0.750000035  0.550267426
     0.000000000  0.250000000  0.450535089
     0.250000000  0.500000000  0.450535089
     0.000000000  0.500000000  0.351605267
     0.250000000  0.250000000  0.351605267
     0.000000004  0.249999984  0.650138735
     0.248158633  0.501497394  0.649732528
     0.000000002  0.500542928  0.549345336
     0.250533587  0.249999977  0.549905895
     0.500000000  0.750000000  0.450535089
     0.750000000  0.000000000  0.450535089
     0.500000000  0.000000000  0.351605267
     0.750000000  0.750000000  0.351605267
     0.499999960  0.750000818  0.655054079
     0.751841360  0.998502595  0.649732592
     0.499999996  0.997699832  0.551095612
     0.747685455  0.750000036  0.550267463
     0.500000000  0.250000000  0.450535089
     0.750000000  0.500000000  0.450535089
     0.500000000  0.500000000  0.351605267
     0.750000000  0.250000000  0.351605267
     0.500000007  0.249999918  0.651663796
     0.751841378  0.501497418  0.649732540
     0.499999996  0.502300219  0.551095607
     0.749466420  0.249999975  0.549905909

  ion indices of the primitive-cell ions
   primitive index   ion index
                 1           1
                 2           2
[...]
      0.00000      0.01951     13.83398        -0.000000      0.000088     -0.006734
      2.00198      6.33074     13.80873         0.014395      0.001550     -0.013009
      0.00000      2.11025      7.50000        -0.000000     -0.000020      0.346034
      2.11025      4.22049      7.50000        -0.000594     -0.009871      0.344956
      0.00000      4.22049      9.61025        -0.000001     -0.043157      0.114492
      2.11025      2.11025      9.61025         0.022887     -0.000080      0.112519
      0.00000      2.11025     11.72390        -0.000001      0.000215     -0.003404
      2.12746      4.21411     11.74874         0.001232      0.000933     -0.000802
      0.00000      4.20098     13.83399        -0.000000     -0.000211     -0.008680
      2.09055      2.11025     13.84219        -0.000865     -0.000096     -0.003389
      4.22049      6.33074      7.50000         0.000000      0.000009      0.305717
      6.33074      0.00000      7.50000         0.000606      0.009863      0.344991
      4.22049      0.00000      9.61025         0.000001      0.090659      0.130092
      6.33074      6.33074      9.61025         0.024320      0.000047      0.038662
      4.22049      6.33074     11.68401         0.000000      0.003518      0.019502
      6.31352      0.00639     11.74873        -0.002571     -0.001171     -0.001185
      4.22049      0.09461     14.03823         0.000000     -0.019306     -0.019164
      6.43900      6.33074     13.80874        -0.014395      0.001550     -0.013009
      4.22049      2.11025      7.50000         0.000000     -0.000006      0.347736
      6.33074      4.22049      7.50000         0.000594     -0.009871      0.344956
      4.22049      4.22049      9.61025         0.000001     -0.090552      0.129246
      6.33074      2.11025      9.61025        -0.022887     -0.000080      0.112521
      4.22049      2.11025     11.75624         0.000000     -0.000762     -0.002288
      6.31352      4.21411     11.74874        -0.001232      0.000933     -0.000802
      4.22049      4.12589     14.03823        -0.000001     -0.014285     -0.089558
      6.35044      2.11025     13.84219         0.000866     -0.000096     -0.003390
      0.00000      6.33074      9.61025        -0.000000      0.000025      0.067394
      2.11025      0.00000      9.61025         0.036183     -0.041271      0.079096
      0.00000      0.00000      7.50000         0.000000     -0.013281     -0.503812
      2.11025      6.33074      7.50000         0.003765     -0.000024     -0.486958
      0.00000      6.33074     13.85236        -0.000000     -0.000023      0.004664
      2.09470      8.42835     13.85928        -0.004262      0.005022      0.007297
      0.00000      8.43640     11.71794         0.000000      0.000519      0.001324
      2.12978      6.33074     11.73761        -0.005196     -0.000530     -0.002941
      0.00000      2.11025      9.61025         0.000000     -0.000021      0.035339
      2.11025      4.22049      9.61025         0.036473      0.041222      0.079236
      0.00000      4.22049      7.50000         0.000000      0.013275     -0.503780
      2.11025      2.11025      7.50000        -0.001839      0.000016     -0.510536
      0.00000      2.11025     13.86794        -0.000000     -0.000088      0.003909
      2.09470      4.23313     13.85927        -0.009887     -0.005678      0.004169
      0.00000      4.22508     11.71794        -0.000000     -0.000529      0.000672
      2.11475      2.11025     11.72990        -0.001076      0.000084      0.003038
      4.22049      6.33074      9.61025         0.000000     -0.000208     -0.019844
      6.33074      0.00000      9.61025        -0.036183     -0.041272      0.079098
      4.22049      0.00000      7.50000        -0.000000     -0.018897     -0.500661
      6.33074      6.33074      7.50000        -0.003765     -0.000024     -0.486958
      4.22049      6.33075     13.97279         0.000001      0.194860     -0.218300
      6.34628      8.42835     13.85928         0.004262      0.005022      0.007297
      4.22049      8.42157     11.75528         0.000001      0.007948     -0.004585
      6.31120      6.33074     11.73761         0.005196     -0.000530     -0.002941
      4.22049      2.11025      9.61025         0.000000      0.000395      0.131694
      6.33074      4.22049      9.61025        -0.036473      0.041222      0.079237
      4.22049      4.22049      7.50000        -0.000000      0.018900     -0.500643
      6.33074      2.11025      7.50000         0.001839      0.000016     -0.510536
      4.22049      2.11025     13.90047        -0.000001     -0.000294      0.009356
      6.34628      4.23313     13.85927         0.009888     -0.005677      0.004170
      4.22049      4.23991     11.75528         0.000000     -0.003976     -0.000775
      6.32623      2.11025     11.72990         0.001076      0.000084      0.003038
    total drift:                                0.000000      0.000187     -0.003354

  FREE ENERGIE OF THE ION-ELECTRON SYSTEM (eV)
  free  energy   TOTEN  =      -394.30123361 eV

  energy  without entropy=     -394.30123361  energy(sigma->0) =     -394.30123361

 d Force =-0.6267789E-03[-0.532E-01, 0.519E-01]  d Energy =-0.5562097E-04-0.571E-03
 d Force =-0.1275940E+03[-0.128E+03,-0.127E+03]  d Ewald  =-0.1276047E+03 0.107E-01

 Finite differences progress:
  Degree of freedom:   9/  9
  Displacement:        2/  2
  Total:              18/ 18

 SECOND DERIVATIVES (NOT SYMMETRIZED)
               1X          1Y          1Z          2X          2Y          2Z          3X          3Y          3Z
  1X   -21.225595   -0.000036    0.001122    7.055109   -0.001189   -0.000081    7.048615    0.001212   -0.000130
  1Y     0.002980  -94.729898    0.030448   -0.002264   42.476464   15.642265   -0.001759   42.540827  -15.673928
  1Z    -0.000027    0.033343  -34.398114    0.000008   13.127925   15.448869   -0.000024  -13.161744   15.459451
  2X     7.064404   -0.000701    0.002312   -3.525109   -0.002434   -0.001633   -2.245133   -0.000222    0.000018
  2Y    -0.000251   42.477546   13.376533    0.001153  -52.605608  -18.672570   -0.000367    8.790955    1.636736
  2Z    -0.000003   15.397605   15.452282   -0.000032  -18.435716  -21.437906    0.000011   -1.633424   -2.777813
  3X     7.059734    0.000577    0.002067   -2.245433   -0.001737    0.001480   -3.518330    0.001700   -0.000449
  3Y     0.000550   42.538383  -13.408961   -0.000612    8.790982   -1.636422    0.002987  -52.669332   18.705667
  3Z     0.000001  -15.435758   15.463764    0.000007    1.634172   -2.777075   -0.000007   18.470173  -21.443993

 Eigenvectors and eigenvalues of the dynamical matrix

   1 f  =   51.314139 THz   322.416242 2PiTHz 1711.655425 cm-1   212.218130 meV
             X         Y         Z           dx          dy          dz
      4.220492  6.330676 15.442291     0.000012   -0.847655    0.000613
      4.220493  7.486510 15.936868    -0.000006    0.345723    0.144109
      4.220492  5.175045 15.936843    -0.000008    0.346775   -0.144694
      0.000000  6.330738  7.500000            0           0           0
      2.110246  0.000000  7.500000            0           0           0
      0.000000  0.000000  9.610246            0           0           0
      2.110246  6.330738  9.610246            0           0           0
      8.440984  6.330738 11.707698            0           0           0
      2.127465  0.006387 11.748734            0           0           0
      0.000000  0.019509 13.833985            0           0           0
      2.001984  6.330738 13.808734            0           0           0
      0.000000  2.110246  7.500000            0           0           0
      2.110246  4.220492  7.500000            0           0           0
      0.000000  4.220492  9.610246            0           0           0
      2.110246  2.110246  9.610246            0           0           0
      0.000000  2.110246 11.723897            0           0           0
      2.127465  4.214106 11.748735            0           0           0
      0.000000  4.200984 13.833986            0           0           0
      2.090548  2.110247 13.842192            0           0           0
      4.220492  6.330738  7.500000            0           0           0
      6.330738  0.000000  7.500000            0           0           0
      4.220492  0.000000  9.610246            0           0           0
      6.330738  6.330738  9.610246            0           0           0
      4.220492  6.330739 11.684008            0           0           0
      6.313520  0.006387 11.748735            0           0           0
      4.220492  0.094606 14.038228            0           0           0
      6.439001  6.330738 13.808736            0           0           0
      4.220492  2.110246  7.500000            0           0           0
      6.330738  4.220492  7.500000            0           0           0
      4.220492  4.220492  9.610246            0           0           0
      6.330738  2.110246  9.610246            0           0           0
      4.220492  2.110246 11.756237            0           0           0
      6.313520  4.214106 11.748736            0           0           0
      4.220492  4.125891 14.038235            0           0           0
      6.350437  2.110247 13.842191            0           0           0
      0.000000  6.330738  9.610246            0           0           0
      2.110246  0.000000  9.610246            0           0           0
      0.000000  0.000000  7.500000            0           0           0
      2.110246  6.330738  7.500000            0           0           0
      0.000000  6.330739 13.852360            0           0           0
      2.094703  8.428345 13.859276            0           0           0
      0.000000  8.436401 11.717942            0           0           0
      2.129783  6.330739 11.737611            0           0           0
      0.000000  2.110246  9.610246            0           0           0
      2.110246  4.220492  9.610246            0           0           0
      0.000000  4.220492  7.500000            0           0           0
      2.110246  2.110246  7.500000            0           0           0
      0.000000  2.110246 13.867939            0           0           0
      2.094703  4.233132 13.859275            0           0           0
      0.000000  4.225075 11.717942            0           0           0
      2.114750  2.110246 11.729899            0           0           0
      4.220492  6.330738  9.610246            0           0           0
      6.330738  0.000000  9.610246            0           0           0
      4.220492  0.000000  7.500000            0           0           0
      6.330738  6.330738  7.500000            0           0           0
      4.220492  6.330745 13.972787            0           0           0
      6.346281  8.428345 13.859276            0           0           0
      4.220492  8.421569 11.755276            0           0           0
      6.311201  6.330739 11.737611            0           0           0
      4.220492  2.110246  9.610246            0           0           0
      6.330738  4.220492  9.610246            0           0           0
      4.220492  4.220492  7.500000            0           0           0
      6.330738  2.110246  7.500000            0           0           0
      4.220492  2.110245 13.900470            0           0           0
      6.346282  4.233132 13.859275            0           0           0
      4.220492  4.239908 11.755276            0           0           0
      6.326235  2.110246 11.729899            0           0           0

[...]

   9 f  =    3.742944 THz    23.517613 2PiTHz  124.851187 cm-1    15.479567 meV
             X         Y         Z           dx          dy          dz
      4.220492  6.330676 15.442291     0.388044   -0.000079    0.000092
      4.220493  7.486510 15.936868     0.649024   -0.000136    0.000133
      4.220492  5.175045 15.936843     0.654362   -0.000085    0.000035
      0.000000  6.330738  7.500000            0           0           0
      2.110246  0.000000  7.500000            0           0           0
      0.000000  0.000000  9.610246            0           0           0
      2.110246  6.330738  9.610246            0           0           0
      8.440984  6.330738 11.707698            0           0           0
      2.127465  0.006387 11.748734            0           0           0
      0.000000  0.019509 13.833985            0           0           0
      2.001984  6.330738 13.808734            0           0           0
      0.000000  2.110246  7.500000            0           0           0
      2.110246  4.220492  7.500000            0           0           0
      0.000000  4.220492  9.610246            0           0           0
      2.110246  2.110246  9.610246            0           0           0
      0.000000  2.110246 11.723897            0           0           0
      2.127465  4.214106 11.748735            0           0           0
      0.000000  4.200984 13.833986            0           0           0
      2.090548  2.110247 13.842192            0           0           0
      4.220492  6.330738  7.500000            0           0           0
      6.330738  0.000000  7.500000            0           0           0
      4.220492  0.000000  9.610246            0           0           0
      6.330738  6.330738  9.610246            0           0           0
      4.220492  6.330739 11.684008            0           0           0
      6.313520  0.006387 11.748735            0           0           0
      4.220492  0.094606 14.038228            0           0           0
      6.439001  6.330738 13.808736            0           0           0
      4.220492  2.110246  7.500000            0           0           0
      6.330738  4.220492  7.500000            0           0           0
      4.220492  4.220492  9.610246            0           0           0
      6.330738  2.110246  9.610246            0           0           0
      4.220492  2.110246 11.756237            0           0           0
      6.313520  4.214106 11.748736            0           0           0
      4.220492  4.125891 14.038235            0           0           0
      6.350437  2.110247 13.842191            0           0           0
      0.000000  6.330738  9.610246            0           0           0
      2.110246  0.000000  9.610246            0           0           0
      0.000000  0.000000  7.500000            0           0           0
      2.110246  6.330738  7.500000            0           0           0
      0.000000  6.330739 13.852360            0           0           0
      2.094703  8.428345 13.859276            0           0           0
      0.000000  8.436401 11.717942            0           0           0
      2.129783  6.330739 11.737611            0           0           0
      0.000000  2.110246  9.610246            0           0           0
      2.110246  4.220492  9.610246            0           0           0
      0.000000  4.220492  7.500000            0           0           0
      2.110246  2.110246  7.500000            0           0           0
      0.000000  2.110246 13.867939            0           0           0
      2.094703  4.233132 13.859275            0           0           0
      0.000000  4.225075 11.717942            0           0           0
      2.114750  2.110246 11.729899            0           0           0
      4.220492  6.330738  9.610246            0           0           0
      6.330738  0.000000  9.610246            0           0           0
      4.220492  0.000000  7.500000            0           0           0
      6.330738  6.330738  7.500000            0           0           0
      4.220492  6.330745 13.972787            0           0           0
      6.346281  8.428345 13.859276            0           0           0
      4.220492  8.421569 11.755276            0           0           0
      6.311201  6.330739 11.737611            0           0           0
      4.220492  2.110246  9.610246            0           0           0
      6.330738  4.220492  9.610246            0           0           0
      4.220492  4.220492  7.500000            0           0           0
      6.330738  2.110246  7.500000            0           0           0
      4.220492  2.110245 13.900470            0           0           0
      6.346282  4.233132 13.859275            0           0           0
      4.220492  4.239908 11.755276            0           0           0
      6.326235  2.110246 11.729899            0           0           0

 Finite differences POTIM=   3.5000000000000003E-002