 vasp.6.3.0 20Jan22 (build Aug 21 2024 11:13:42) complex
 executed on        HPECrayEX_GCC date 2024.11.26  21:58:17

 INCAR:
   SYSTEM = TiO2
   ISMEAR = 0
   SIGMA = 0.05
   EDIFF = 1E-4
   ALGO = ALL
   ISTART = 0
   IBRION = -1
   NSW = 0
   ISYM = 0
   ISIF = 2
   EDIFFG = -0.01
   DIPOL = 0.5 0.5 0.5
   IDIPOL = 3
   LDIPOL = .TRUE.
   GGA = RE
   AGGAC = 0.0
   LUSE_VDW = .TRUE.
   LASPH = .TRUE.
   ENCUT = 600
   PREC = Accurate
   LASPH = .TRUE.
   LREAL = .FALSE.
   ISPIN = 1
   NELM = 200
   NELMIN = 8
   NCORE = 16
   KPAR = 1
   LWAVE = .FALSE.
   LCHARG = .FALSE.

 POTCAR:    PAW_PBE C 08Apr2002
 POTCAR:    PAW_PBE H 15Jun2001
 POTCAR:    PAW_PBE Ti_pv 07Sep2000
 POTCAR:    PAW_PBE O 08Apr2002
|               ----> ADVICE to this user running VASP <----                  |
|     You have switched on vdW-DFT.                                           |
|     This routine was written and supplied by Jiri Klimes. We recommend      |
|     that you carefully read and cite the following publications:            |
|       J. Klimes, D.R. Bowler, A. Michelides                                 |
|          J. Phys.: Cond Matt. 22 022201 (2010)                              |
|       J. Klimes, D.R. Bowler, A. Michelides                                 |
|          Phys. Rev. B. 83, 195131 (2011)                                    |
|     and references therein.                                                 |

   TITEL  = PAW_PBE C 08Apr2002
   POMASS =   12.011; ZVAL   =    4.000    mass and valenz
   ENMAX  =  400.000; ENMIN  =  300.000 eV

   TITEL  = PAW_PBE H 15Jun2001
   POMASS =    1.000; ZVAL   =    1.000    mass and valenz
   ENMAX  =  250.000; ENMIN  =  200.000 eV

   TITEL  = PAW_PBE Ti_pv 07Sep2000
   POMASS =   47.880; ZVAL   =   10.000    mass and valenz
   ENMAX  =  222.335; ENMIN  =  166.751 eV

   TITEL  = PAW_PBE O 08Apr2002
   POMASS =   16.000; ZVAL   =    6.000    mass and valenz
   ENMAX  =  400.000; ENMIN  =  300.000 eV

  PAW_PBE C 08Apr2002                   :
  PAW_PBE H 15Jun2001                   :
  PAW_PBE Ti_pv 07Sep2000               :
  PAW_PBE O 08Apr2002                   :

 POSCAR:  C  H Ti  O
  positions in direct lattice
 exchange correlation table for  LEXCH =       40
   RHO(1)=    0.500       N(1)  =     2000
   RHO(2)=  100.500       N(2)  =     4000

 ion  position               nearest neighbor table
   1  0.500  0.500  0.828-   2 1.09   3 1.09   4 1.10   5 1.10
   2  0.498  0.575  0.848-   1 1.09
   3  0.503  0.425  0.848-   1 1.09
   4  0.569  0.503  0.808-   1 1.10
   5  0.432  0.497  0.808-   1 1.10
   6  0.750  0.625  0.285-  86 1.98 146 1.98  87 1.98 147 1.98 168 2.02  89 2.02  16 3.00  36 3.00

   7  0.000  0.750  0.285-  88 1.98  89 1.98 108 1.98 109 1.98  90 2.02  37 3.00  17 3.00
   8  0.000  0.625  0.393-  90 1.98 150 1.98  91 1.98 151 1.98  92 2.02  93 2.02  18 3.00  38 3.00

[...]

  85  0.501  0.500  0.710- 239 1.84 244 1.97 184 1.97 185 1.98 245 1.98  55 2.99  75 2.99
  86  0.750  0.750  0.243-   6 1.98  16 1.98
  87  0.750  0.750  0.327-   6 1.98  16 1.98   9 2.02
  88  0.098  0.625  0.285-   7 1.98  37 1.98  46 2.02
  89  0.902  0.625  0.285-   7 1.98  37 1.98   6 2.02
  90  0.000  0.750  0.351-   8 1.98  18 1.98   7 2.02
  91  0.000  0.750  0.434-   8 1.98  18 1.98  11 2.02
  92  0.848  0.625  0.393-   9 1.98  39 1.98   8 2.02
  93  0.152  0.625  0.393-  49 1.98  79 1.98   8 2.02
  94  0.750  0.750  0.458-  10 1.98  20 1.98   9 2.02
  95  0.750  0.750  0.542-  10 1.98  20 1.98  13 2.17
  96  0.098  0.625  0.500-  11 1.98  41 1.98  50 2.02
  97  0.902  0.625  0.500-  11 1.98  41 1.98  10 2.02
  98  0.000  0.750  0.566-  22 1.92  12 1.92  11 2.05
  99  0.000  0.750  0.651-  15 1.83  22 2.05  12 2.05
 100  0.850  0.625  0.608-  12 1.87  13 2.07  43 2.07
 101  0.151  0.625  0.608-  83 1.93  53 1.93  12 2.13
 102  0.750  0.750  0.673-  13 1.88  14 2.13  24 2.13
 103  0.751  0.750  0.758-  14 1.85  24 1.85
 104  0.094  0.625  0.721-  45 1.97  15 1.97  54 2.07
 105  0.907  0.625  0.721-  45 1.97  15 1.98  14 2.07
 106  0.750  0.000  0.243-  16 1.98  26 1.98
 107  0.750  0.000  0.327-  16 1.98  26 1.98  19 2.02
 108  0.098  0.875  0.285-   7 1.98  17 1.98  56 2.02
 109  0.902  0.875  0.285-   7 1.98  17 1.98  16 2.02
 110  0.000  0.000  0.351-  18 1.98  28 1.98  17 2.02
 111  0.000  0.000  0.434-  18 1.98  28 1.98  21 2.02
 112  0.848  0.875  0.393-   9 1.98  19 1.98  18 2.02
 113  0.152  0.875  0.393-  49 1.98  59 1.98  18 2.02
 114  0.750  0.000  0.458-  20 1.98  30 1.98  19 2.02
 115  0.750  0.000  0.542-  20 1.98  30 1.98  23 2.17
 116  0.098  0.875  0.500-  11 1.98  21 1.98  60 2.02
 117  0.902  0.875  0.500-  11 1.98  21 1.98  20 2.02
 118  0.000  1.000  0.566-  32 1.92  22 1.92  21 2.05
 119  0.000  1.000  0.651-  25 1.83  22 2.05  32 2.05
 120  0.850  0.875  0.608-  22 1.87  23 2.07  13 2.07
 121  0.151  0.875  0.608-  63 1.93  53 1.93  22 2.13
 122  0.750  1.000  0.673-  23 1.88  24 2.13  34 2.13
 123  0.751  0.000  0.758-  24 1.85  34 1.85
 124  0.094  0.875  0.721-  15 1.97  25 1.97  64 2.08
 125  0.907  0.875  0.721-  15 1.97  25 1.98  24 2.07
 126  0.750  0.250  0.243-  26 1.98  36 1.98
 127  0.750  0.250  0.327-  26 1.98  36 1.98  29 2.02
 128  0.098  0.125  0.285-  17 1.98  27 1.98  66 2.02
 129  0.902  0.125  0.285-  17 1.98  27 1.98  26 2.02
 130  0.000  0.250  0.351-  28 1.98  38 1.98  27 2.02
 131  0.000  0.250  0.434-  28 1.98  38 1.98  31 2.02
 132  0.848  0.125  0.393-  19 1.98  29 1.98  28 2.02
 133  0.152  0.125  0.393-  59 1.98  69 1.98  28 2.02
 134  0.750  0.250  0.458-  30 1.98  40 1.98  29 2.02
 135  0.750  0.250  0.542-  30 1.98  40 1.98  33 2.17
 136  0.098  0.125  0.500-  21 1.98  31 1.98  70 2.02
 137  0.902  0.125  0.500-  21 1.98  31 1.98  30 2.02
 138  0.000  0.250  0.566-  32 1.92  42 1.92  31 2.05
 139  0.000  0.250  0.651-  35 1.83  42 2.05  32 2.05
 140  0.850  0.125  0.608-  32 1.87  23 2.07  33 2.07
 141  0.151  0.125  0.608-  73 1.93  63 1.93  32 2.13
 142  0.750  0.250  0.673-  33 1.89  44 2.13  34 2.13
 143  0.751  0.250  0.758-  44 1.85  34 1.85
 144  0.094  0.125  0.721-  35 1.97  25 1.97  74 2.08
[...]
 231  0.500  0.500  0.434-  48 1.98  78 1.98  81 2.02
 232  0.348  0.375  0.393-  69 1.98  79 1.98  78 2.02
 233  0.652  0.375  0.393-  29 1.98  39 1.98  78 2.02
 234  0.250  0.500  0.458-  50 1.98  80 1.98  79 2.02
 235  0.250  0.500  0.542-  50 1.98  80 1.98  83 2.17
 236  0.598  0.375  0.500-  71 1.98  81 1.98  40 2.02
 237  0.402  0.375  0.500-  71 1.98  81 1.98  80 2.02
 238  0.500  0.500  0.566-  52 1.92  82 1.92  81 2.05
 239  0.500  0.500  0.651-  85 1.84  52 2.05  82 2.05
 240  0.350  0.375  0.608-  82 1.87  83 2.07  73 2.07
 241  0.651  0.375  0.609-  33 1.93  43 1.93  82 2.13
 242  0.250  0.500  0.673-  83 1.88  84 2.13  54 2.13
 243  0.251  0.500  0.757-  54 1.85  84 1.85
 244  0.595  0.375  0.720-  75 1.97  85 1.97  44 2.08
 245  0.407  0.375  0.721-  75 1.97  85 1.98  84 2.07

IMPORTANT INFORMATION: All symmetrisations will be switched off!
NOSYMM: (Re-)initialisation of all symmetry stuff for point group C_1.

                                     Primitive cell

  volume of cell :    4896.0359

  direct lattice vectors                    reciprocal lattice vectors
    13.251808214  0.000000000  0.000000000     0.075461400  0.000000000  0.000000000
     0.000000000 11.981455428  0.000000000     0.000000000  0.083462314  0.000000000
     0.000000000  0.000000000 30.836130416     0.000000000  0.000000000  0.032429491

  length of vectors
    13.251808214 11.981455428 30.836130416     0.075461400  0.083462314  0.032429491

  position of ions in fractional coordinates (direct lattice)
     0.500072221  0.500006268  0.827590808
     0.497591955  0.574539952  0.848096338
     0.502531081  0.425462134  0.848097320
     0.568532976  0.502721370  0.807674872
     0.431641178  0.497281887  0.807655888
     0.750000000  0.625000000  0.285125305
     0.000000000  0.750000000  0.285125305
     0.000000000  0.625000000  0.392562653
     0.750000000  0.750000000  0.392562653
     0.750000000  0.625000000  0.500000000
     0.000000000  0.750000000  0.500000000
     0.990932344  0.625002191  0.605209158
     0.743086550  0.749998349  0.612116716
     0.751148301  0.625051807  0.722306713
     0.000924413  0.750079674  0.709994613
     0.750000000  0.875000000  0.285125305
     0.000000000  0.000000000  0.285125305
     0.000000000  0.875000000  0.392562653
     0.750000000  0.000000000  0.392562653
     0.750000000  0.875000000  0.500000000
     0.000000000  0.000000000  0.500000000
     0.990878202  0.875007317  0.605232593
     0.743084779  0.000000903  0.612149048
     0.750908904  0.875006372  0.722398350
     0.000906260  0.999998555  0.709992264
     0.750000000  0.125000000  0.285125305
     0.000000000  0.250000000  0.285125305
     0.000000000  0.125000000  0.392562653
     0.750000000  0.250000000  0.392562653
     0.750000000  0.125000000  0.500000000
     0.000000000  0.250000000  0.500000000
     0.990916560  0.124992526  0.605223352
     0.743101567  0.250003959  0.612112826
     0.750888366  0.125002969  0.722393370
     0.000886714  0.249922458  0.709991538
     0.750000000  0.375000000  0.285125305
     0.000000000  0.500000000  0.285125305
     0.000000000  0.375000000  0.392562653
     0.750000000  0.500000000  0.392562653
     0.750000000  0.375000000  0.500000000
     0.000000000  0.500000000  0.500000000
     0.990945430  0.374998044  0.605215814
     0.743096869  0.499994210  0.612116449
     0.751106298  0.374966770  0.722310844
     0.000909408  0.499996627  0.709987013
     0.250000000  0.625000000  0.285125305
     0.500000000  0.750000000  0.285125305
     0.500000000  0.625000000  0.392562653
     0.250000000  0.750000000  0.392562653
     0.250000000  0.625000000  0.500000000
     0.500000000  0.750000000  0.500000000
     0.490870903  0.624902511  0.605334639
     0.243056090  0.750017780  0.612122656
     0.250918478  0.625042474  0.722309720
     0.500931531  0.749928255  0.709942426
     0.250000000  0.875000000  0.285125305
     0.500000000  0.000000000  0.285125305
     0.500000000  0.875000000  0.392562653
     0.250000000  0.000000000  0.392562653
     0.250000000  0.875000000  0.500000000
[...]
     0.500000000  0.500000000  0.434466779
     0.347508286  0.375000000  0.392562653
     0.652491714  0.375000000  0.392562653
     0.250000000  0.500000000  0.458095874
     0.250000000  0.500000000  0.541904126
     0.597508286  0.375000000  0.500000000
     0.402491714  0.375000000  0.500000000
     0.500046012  0.500010540  0.566460351
     0.500163320  0.500014539  0.650687871
     0.350027162  0.375002335  0.608086417
     0.651290292  0.374996262  0.608500671
     0.249918484  0.500015203  0.673143834
     0.251009770  0.499980033  0.757471361
     0.594522174  0.374761854  0.720469472
     0.406893976  0.374729164  0.720511087

  ion indices of the primitive-cell ions
   primitive index   ion index
                 1           1
                 2           2
                 3           3
                 4           4
                 5           5
                 6           6
                 7           7
                 8           8
[...]
   3.22093268  8.98630461 18.87549406
   3.32512354  7.48891854 22.27323672
   6.63824858  8.98523197 21.89187724
   3.31295205 10.48377350  8.79216110
   6.62590411  0.00000000  8.79216110
   6.62590411 10.48377350 12.10511315
   3.31295205  0.00000000 12.10511315
   3.31295205 10.48377350 15.41806521
[...]
   6.62590411  5.99072771 13.39727426
   4.60511315  4.49304579 12.10511315
   8.64669506  4.49304579 12.10511315
   3.31295205  5.99072771 14.12590411
   3.31295205  5.99072771 16.71022631
   7.91806521  4.49304579 15.41806521
   5.33374301  4.49304579 15.41806521
   6.62651385  5.99085400 17.46744526
   6.62806839  5.99090191 20.06469605
   4.63849282  4.49307376 18.75103207
   8.63077404  4.49300100 18.76380604
   3.31187182  5.99090986 20.75715107
   3.32633334  5.99048848 23.35748569
   7.87849382  4.49019245 22.21649059
   5.39208093  4.48980077 22.21777386

--------------------------------------- Iteration      FINAL  ---------------------------------------

--------------------OUTCAR has been truncated-------------------------

[...]

--------------------OUTCAR has been truncated-------------------------

  FORCE on cell =-STRESS in cart. coord.  units (eV):
  Direction    XX          YY          ZZ          XY          YZ          ZX
  Alpha Z  4499.37619  4499.37619  4499.37619
  Ewald  931226.95687949328.58595************    -0.20352    -0.01909    20.76203
  Hartree972249.77669982219.28616************    -0.11522    -0.02521    11.37369
  E(xc)   -8820.18029 -8793.42492 -8819.96858    -0.00006     0.00008     0.04929
  Local  ************************************     0.32855     0.04635   -32.08716
  n-local -5456.90448 -5376.59349 -5493.99350    -0.00133     0.00007     0.34388
  augment  5303.04303  5284.98663  5307.81739    -0.00129    -0.00006     0.03948
  Kinetic 28696.43140 28223.08779 28731.01315    -0.00742    -0.00063    -1.19199
  Fock        0.00000     0.00000     0.00000     0.00000     0.00000     0.00000
  Total      11.42494   -32.43978   -34.43502    -0.00029     0.00151    -0.71078
  in kB       3.73869   -10.61558   -11.26850    -0.00010     0.00049    -0.23259

 VOLUME and BASIS-vectors are now :
  energy-cutoff  :      600.00
  volume of cell :     4896.04
      direct lattice vectors                 reciprocal lattice vectors
    13.251808214  0.000000000  0.000000000     0.075461400  0.000000000  0.000000000
     0.000000000 11.981455428  0.000000000     0.000000000  0.083462314  0.000000000
     0.000000000  0.000000000 30.836130416     0.000000000  0.000000000  0.032429491

  length of vectors
    13.251808214 11.981455428 30.836130416     0.075461400  0.083462314  0.032429491

 FORCES acting on ions:
    Electron-Ion                     Ewald-Force                    Non-Local-Force
   -.215E+00 0.790E-02 -.136E+04   0.200E+00 -.955E-02 0.136E+04   0.120E-01 -.186E-02 -.382E+00
   0.146E+01 -.433E+02 -.334E+03   -.164E+01 0.480E+02 0.337E+03   0.173E+00 -.465E+01 -.331E+01
   -.151E+01 0.433E+02 -.333E+03   0.168E+01 -.480E+02 0.337E+03   -.170E+00 0.465E+01 -.331E+01
   -.373E+02 -.157E+01 -.349E+03   0.421E+02 0.174E+01 0.346E+03   -.478E+01 -.169E+00 0.306E+01
   0.371E+02 0.158E+01 -.349E+03   -.419E+02 -.175E+01 0.346E+03   0.478E+01 0.169E+00 0.306E+01
   -.139E+00 -.480E-01 0.363E+04   0.139E+00 0.480E-01 -.364E+04   -.559E-04 -.366E-04 0.357E+00
   -.312E-02 -.619E-01 0.381E+04   0.304E-02 0.618E-01 -.380E+04   -.111E-04 0.677E-05 -.366E+01
   -.867E-01 -.618E-01 0.185E+04   0.875E-01 0.615E-01 -.185E+04   -.231E-03 0.803E-04 -.469E-01
   -.546E-01 -.792E-01 0.184E+04   0.544E-01 0.794E-01 -.185E+04   -.474E-03 -.208E-05 0.201E+00
   0.957E+00 -.298E+00 -.430E+01   -.974E+00 0.298E+00 0.512E+01   -.109E-02 -.304E-04 -.125E+00
   -.262E+01 -.400E+00 0.506E+01   0.266E+01 0.401E+00 -.613E+01   -.184E-01 -.773E-03 0.378E+00
   -.318E+02 -.116E+01 -.179E+04   0.317E+02 0.116E+01 0.179E+04   0.158E+00 -.547E-03 0.210E+00
   -.143E+02 -.289E+01 -.185E+04   0.142E+02 0.289E+01 0.185E+04   0.191E+00 0.529E-04 -.282E+00
   -.270E+02 -.114E+02 -.359E+04   0.270E+02 0.114E+02 0.359E+04   -.968E-02 0.205E-02 -.326E+00
   -.101E+01 -.436E+01 -.363E+04   0.101E+01 0.436E+01 0.363E+04   -.407E-02 -.535E-03 0.100E+01
   -.132E+00 -.473E-01 0.363E+04   0.132E+00 0.474E-01 -.364E+04   -.790E-04 -.347E-04 0.357E+00
   -.320E-02 0.487E-03 0.381E+04   0.312E-02 -.461E-03 -.380E+04   -.836E-05 0.202E-04 -.366E+01
   -.889E-01 -.576E-01 0.185E+04   0.897E-01 0.573E-01 -.185E+04   -.245E-03 0.701E-04 -.469E-01
   -.587E-01 0.213E-02 0.184E+04   0.583E-01 -.209E-02 -.185E+04   -.430E-03 0.510E-05 0.201E+00
   0.931E+00 -.294E+00 -.492E+01   -.949E+00 0.298E+00 0.574E+01   -.749E-03 -.191E-03 -.125E+00
   -.264E+01 0.103E-01 0.465E+01   0.269E+01 -.109E-01 -.572E+01   -.183E-01 0.238E-03 0.378E+00
   -.319E+02 -.976E+00 -.179E+04   0.318E+02 0.976E+00 0.179E+04   0.161E+00 -.151E-02 0.209E+00
   -.132E+02 0.921E-02 -.186E+04   0.131E+02 -.819E-02 0.186E+04   0.189E+00 -.788E-04 -.280E+00
   -.115E+02 -.820E+01 -.361E+04   0.115E+02 0.821E+01 0.361E+04   0.233E-02 -.857E-03 -.331E+00
   -.107E+01 -.402E-01 -.363E+04   0.107E+01 0.394E-01 0.363E+04   -.438E-02 0.204E-03 0.101E+01
   -.132E+00 0.478E-01 0.363E+04   0.132E+00 -.480E-01 -.364E+04   -.227E-04 0.260E-04 0.357E+00
   -.299E-02 0.619E-01 0.381E+04   0.296E-02 -.618E-01 -.380E+04   -.277E-05 -.882E-05 -.366E+01
   -.880E-01 0.614E-01 0.185E+04   0.887E-01 -.612E-01 -.185E+04   -.240E-03 -.590E-04 -.469E-01
   -.549E-01 0.794E-01 0.184E+04   0.546E-01 -.796E-01 -.185E+04   -.462E-03 -.528E-06 0.201E+00
   0.923E+00 0.308E+00 -.491E+01   -.942E+00 -.313E+00 0.573E+01   -.657E-03 0.175E-03 -.125E+00
   -.259E+01 0.406E+00 0.510E+01   0.264E+01 -.406E+00 -.617E+01   -.184E-01 0.446E-03 0.378E+00
   -.317E+02 0.104E+01 -.179E+04   0.317E+02 -.104E+01 0.179E+04   0.160E+00 0.136E-02 0.210E+00
   -.144E+02 0.291E+01 -.185E+04   0.143E+02 -.291E+01 0.185E+04   0.192E+00 -.168E-04 -.281E+00
   -.115E+02 0.818E+01 -.361E+04   0.115E+02 -.818E+01 0.361E+04   0.313E-02 0.727E-03 -.331E+00
   -.994E+00 0.441E+01 -.363E+04   0.997E+00 -.441E+01 0.363E+04   -.451E-02 0.607E-03 0.100E+01
   -.139E+00 0.474E-01 0.363E+04   0.139E+00 -.474E-01 -.364E+04   -.693E-05 -.195E-04 0.357E+00
   -.299E-02 -.391E-03 0.381E+04   0.288E-02 0.463E-03 -.380E+04   0.782E-05 0.849E-05 -.366E+01
   -.859E-01 0.580E-01 0.185E+04   0.867E-01 -.576E-01 -.185E+04   -.235E-03 -.713E-04 -.469E-01
   -.501E-01 -.225E-02 0.184E+04   0.501E-01 0.226E-02 -.185E+04   -.533E-03 0.168E-07 0.201E+00
   0.951E+00 0.283E+00 -.428E+01   -.968E+00 -.283E+00 0.509E+01   -.117E-02 0.554E-04 -.125E+00
   -.258E+01 -.168E-01 0.559E+01   0.262E+01 0.167E-01 -.666E+01   -.185E-01 0.102E-03 0.375E+00
   -.317E+02 0.111E+01 -.179E+04   0.316E+02 -.111E+01 0.179E+04   0.159E+00 0.490E-03 0.210E+00
   -.152E+02 -.916E-02 -.185E+04   0.151E+02 0.910E-02 0.185E+04   0.189E+00 0.539E-04 -.282E+00
   -.269E+02 0.115E+02 -.359E+04   0.269E+02 -.115E+02 0.359E+04   -.885E-02 -.170E-02 -.327E+00
   -.914E+00 -.186E-01 -.363E+04   0.916E+00 0.195E-01 0.363E+04   -.469E-02 -.254E-03 0.994E+00
   0.147E+00 -.480E-01 0.363E+04   -.147E+00 0.482E-01 -.364E+04   -.340E-05 -.488E-05 0.357E+00
   -.493E-02 -.731E-01 0.381E+04   0.493E-02 0.733E-01 -.380E+04   0.222E-05 -.406E-04 -.366E+01
   -.981E-01 -.512E-01 0.185E+04   0.988E-01 0.530E-01 -.185E+04   -.170E-03 -.346E-03 -.470E-01
   0.236E+00 -.819E-01 0.184E+04   -.236E+00 0.821E-01 -.185E+04   -.532E-03 -.358E-05 0.201E+00
   0.210E+01 -.318E+00 -.425E+01   -.212E+01 0.319E+00 0.506E+01   -.119E-02 -.865E-04 -.125E+00
   -.268E+01 -.393E+00 0.627E+01   0.273E+01 0.389E+00 -.732E+01   -.179E-01 0.322E-02 0.374E+00
   -.316E+02 -.244E+01 -.178E+04   0.315E+02 0.245E+01 0.178E+04   0.163E+00 -.625E-02 0.208E+00
   -.713E+01 -.275E+01 -.185E+04   0.699E+01 0.275E+01 0.185E+04   0.192E+00 -.128E-02 -.280E+00
   0.261E+02 -.117E+02 -.359E+04   -.261E+02 0.117E+02 0.359E+04   -.746E-02 0.163E-02 -.327E+00
   -.110E+01 -.260E+02 -.360E+04   0.110E+01 0.260E+02 0.360E+04   -.437E-02 0.242E-03 0.102E+01
   0.140E+00 -.475E-01 0.363E+04   -.140E+00 0.475E-01 -.364E+04   -.372E-04 -.310E-04 0.357E+00
   -.493E-02 0.459E-03 0.381E+04   0.485E-02 -.451E-03 -.380E+04   0.160E-05 -.436E-05 -.366E+01
   -.967E-01 -.498E-01 0.185E+04   0.974E-01 0.508E-01 -.185E+04   -.184E-03 -.253E-03 -.470E-01
   0.240E+00 0.322E-02 0.184E+04   -.240E+00 -.323E-02 -.185E+04   -.584E-03 0.201E-04 0.201E+00
   0.216E+01 -.313E+00 -.491E+01   -.217E+01 0.316E+00 0.573E+01   -.130E-02 -.173E-03 -.126E+00
[...]
   -.560E+02 0.313E-01 0.111E+04   0.601E+02 -.315E-01 -.111E+04   -.376E+01 0.359E-03 0.160E+00
   0.560E+02 0.309E-01 0.111E+04   -.602E+02 -.311E-01 -.111E+04   0.376E+01 0.388E-03 0.160E+00
   0.511E+00 -.512E-02 0.486E+03   -.522E+00 0.534E-02 -.491E+03   0.160E-01 -.513E-03 0.433E+01
   -.720E-01 -.107E-01 -.507E+03   0.355E+00 0.996E-02 0.515E+03   -.286E+00 0.683E-03 -.750E+01
   -.580E+02 0.112E+00 0.221E+01   0.629E+02 -.113E+00 -.243E+01   -.538E+01 0.440E-02 0.319E+00
   0.577E+02 0.112E+00 0.525E+01   -.627E+02 -.113E+00 -.558E+01   0.540E+01 0.452E-02 0.437E+00
   -.189E+02 -.148E-01 -.598E+03   0.207E+02 0.185E-01 0.591E+03   -.181E+01 -.460E-02 0.669E+01
   -.113E+02 0.973E-01 -.153E+04   0.125E+02 -.103E+00 0.152E+04   -.116E+01 0.378E-02 0.281E+01
   0.105E+02 0.146E+01 -.108E+04   -.121E+02 -.147E+01 0.108E+04   0.159E+01 0.138E-01 0.729E+00
   0.673E+02 0.135E+01 -.108E+04   -.749E+02 -.136E+01 0.108E+04   0.760E+01 0.910E-02 0.127E+01
   0.224E+01 -.225E-01 -.173E+04   -.170E+01 0.256E-01 0.174E+04   -.540E+00 -.367E-02 -.240E+01
   0.330E+02 0.228E-01 -.260E+04   -.330E+02 -.265E-01 0.262E+04   0.629E-01 0.340E-02 -.204E+02
   -.382E+02 0.157E+02 -.222E+04   0.442E+02 -.157E+02 0.223E+04   -.604E+01 -.119E-01 -.381E+01
   0.367E+02 0.158E+02 -.222E+04   -.425E+02 -.157E+02 0.223E+04   0.580E+01 -.176E-01 -.383E+01
   -.439E+02 -.770E-03 0.942E+02   -.453E-11 -.101E-11 0.236E-10   0.439E+02 0.532E-03 -.943E+02

 POSITION                                       TOTAL-FORCE (eV/Angst)
      6.62686      5.99080     25.51970        -0.002956     -0.003486     -0.002981
      6.59399      6.88382     26.15201         0.000369      0.006643     -0.005870
      6.65945      5.09766     26.15204         0.000578     -0.003784     -0.007494
      7.53409      6.02333     24.90557        -0.002513     -0.000458     -0.006845
      5.72003      5.95816     24.90498         0.006325      0.001067     -0.004986
      9.93886      7.48841      8.79216         0.000059     -0.000074     -3.345149
      0.00000      8.98609      8.79216        -0.000085     -0.000041      2.737789
      0.00000      7.48841     12.10511         0.000631     -0.000261      0.490599
      9.93886      8.98609     12.10511        -0.000702      0.000202     -0.683748
      9.93886      7.48841     15.41807        -0.018631      0.000137      0.688913
      0.00000      8.98609     15.41807         0.030182      0.000424     -0.698211
     13.13165      7.48844     18.66231         0.000013      0.000146     -0.000166
      9.84724      8.98607     18.87531        -0.002498      0.000923      0.004874
      9.95407      7.48903     22.27314        -0.001812      0.002032      0.004256
      0.01225      8.98705     21.89349        -0.002063     -0.000183      0.003509
      9.93886     10.48377      8.79216        -0.000040      0.000013     -3.344982
      0.00000      0.00000      8.79216        -0.000078      0.000047      2.737752
      0.00000     10.48377     12.10511         0.000559     -0.000172      0.490348
      9.93886      0.00000     12.10511        -0.000870      0.000041     -0.683470
      9.93886     10.48377     15.41807        -0.019218      0.003864      0.691474
      0.00000      0.00000     15.41807         0.030095     -0.000439     -0.697765
     13.13093     10.48386     18.66303         0.003300     -0.000792     -0.000763
      9.84722      0.00001     18.87631        -0.006923      0.001032      0.005150
      9.95090     10.48385     22.27597         0.001143      0.001777      0.006892
      0.01201     11.98144     21.89341        -0.001182     -0.000586      0.006095
      9.93886      1.49768      8.79216        -0.000007     -0.000139     -3.345011
      0.00000      2.99536      8.79216        -0.000024      0.000018      2.737739
      0.00000      1.49768     12.10511         0.000545      0.000200      0.490314
      9.93886      2.99536     12.10511        -0.000702     -0.000217     -0.683705
      9.93886      1.49768     15.41807        -0.019468     -0.003898      0.691391
      0.00000      2.99536     15.41807         0.029896      0.000093     -0.698730
     13.13144      1.49759     18.66275         0.000181      0.000086      0.000117
      9.84744      2.99541     18.87519        -0.000910     -0.002263      0.005225
      9.95063      1.49772     22.27582         0.001113     -0.000874      0.007505
      0.01175      2.99443     21.89339        -0.001937      0.000157      0.002925
      9.93886      4.49305      8.79216         0.000134     -0.000070     -3.345213
      0.00000      5.99073      8.79216        -0.000090      0.000081      2.737706
      0.00000      4.49305     12.10511         0.000577      0.000303      0.490614
      9.93886      5.99073     12.10511        -0.000518      0.000011     -0.684037
      9.93886      4.49305     15.41807        -0.018529     -0.000062      0.688830
      0.00000      5.99073     15.41807         0.030005     -0.000049     -0.698878
     13.13182      4.49302     18.66251        -0.002352      0.000564     -0.000989
      9.84738      5.99066     18.87530         0.003592     -0.000034      0.002092
      9.95352      4.49265     22.27327        -0.001425     -0.002821      0.005201
      0.01205      5.99069     21.89325        -0.002572      0.000616      0.003617
      3.31295      7.48841      8.79216         0.000046      0.000212     -3.345202
      6.62590      8.98609      8.79216         0.000008      0.000089      2.738061
      6.62590      7.48841     12.10511         0.000472      0.001511      0.490113
      3.31295      8.98609     12.10511        -0.000598      0.000218     -0.683276
      3.31295      7.48841     15.41807        -0.017838      0.000775      0.690099
      6.62590      8.98609     15.41807         0.029406     -0.000939     -0.690505
      6.50493      7.48724     18.66618         0.002877      0.000680      0.001897
      3.22093      8.98630     18.87549        -0.004383      0.000555      0.002386
      3.32512      7.48892     22.27324         0.001927      0.001865      0.005417
      6.63825      8.98523     21.89188        -0.004411     -0.003391      0.005279
      3.31295     10.48377      8.79216         0.000084     -0.000082     -3.345168
      6.62590      0.00000      8.79216        -0.000066      0.000005      2.737945
      6.62590     10.48377     12.10511         0.000474      0.000739      0.491404
      3.31295      0.00000     12.10511        -0.000394      0.000004     -0.683137
      3.31295     10.48377     15.41807        -0.017883      0.003314      0.692721
[...]
      6.62590      5.99073     13.39727        -0.000998      0.000005     -0.096708
      4.60511      4.49305     12.10511         0.420541      0.000139      0.049081
      8.64670      4.49305     12.10511        -0.419686      0.000140      0.048924
      3.31295      5.99073     14.12590         0.005536     -0.000290     -0.127563
      3.31295      5.99073     16.71023        -0.002692     -0.000008     -0.045065
      7.91807      4.49305     15.41807        -0.470171      0.003664      0.101972
      5.33374      4.49305     15.41807         0.470063      0.003781      0.108741
      6.62651      5.99085     17.46745        -0.000167     -0.000887     -0.007516
      6.62807      5.99090     20.06470        -0.003390     -0.001781     -0.004880
      4.63849      4.49307     18.75103         0.002006      0.001430      0.001999
      8.63077      4.49300     18.76381        -0.002930      0.002022      0.000280
      3.31187      5.99091     20.75715         0.004386     -0.000647     -0.002311
      3.32633      5.99049     23.35749        -0.001605     -0.000338      0.000641
      7.87849      4.49019     22.21649         0.000061      0.002657      0.003905
      5.39208      4.48980     22.21777        -0.002459      0.002081      0.003512
    total drift:                               -0.004547     -0.000238     -0.104703

  FREE ENERGIE OF THE ION-ELECTRON SYSTEM (eV)
  free  energy   TOTEN  =     -1588.80149342 eV

  energy  without entropy=    -1588.80149342  energy(sigma->0) =    -1588.80149342