 vasp.6.3.0 20Jan22 (build Mar 11 2022 13:48:16) complex

 executed on             LinuxIFC date 2024.01.22  05:29:56

 INCAR:
   SYSTEM = TiO2
   ISMEAR = 0
   SIGMA = 0.05
   EDIFF = 1E-5
   ALGO = ALL
   ISTART = 0
   IBRION = -1
   NSW = 0
   ISYM = 0
   ISIF = 2
   EDIFFG = -0.01
   DIPOL = 0.5 0.5 0.5
   IDIPOL = 3
   LDIPOL = .TRUE.
   GGA = RE
   AGGAC = 0.0
   LUSE_VDW = .TRUE.
   LASPH = .TRUE.
   ENCUT = 600
   PREC = Accurate
   LASPH = .TRUE.
   LREAL = .FALSE.
   ISPIN = 1
   NELM = 200
   NELMIN = 8
   NCORE = 2
   KPAR = 1
   LWAVE = .FALSE.
   LCHARG = .FALSE.

 POTCAR:    PAW_PBE C 08Apr2002
 POTCAR:    PAW_PBE H 15Jun2001
 POTCAR:    PAW_PBE Ti_pv 07Sep2000
 POTCAR:    PAW_PBE O 08Apr2002
|           W    W    AA    RRRRR   N    N  II  N    N   GGGG   !!!           |
|           W    W   A  A   R    R  NN   N  II  NN   N  G    G  !!!           |
|           W    W  A    A  R    R  N N  N  II  N N  N  G       !!!           |
|           W WW W  AAAAAA  RRRRR   N  N N  II  N  N N  G  GGG   !            |
|           WW  WW  A    A  R   R   N   NN  II  N   NN  G    G                |
|           W    W  A    A  R    R  N    N  II  N    N   GGGG   !!!           |
|     For optimal performance we recommend to set                             |
|       NCORE = 2 up to number-of-cores-per-socket                            |
|     This setting can greatly improve the performance of VASP for DFT.       |
|     The default, NCORE=1 might be grossly inefficient on modern             |
|     multi-core architectures or massively parallel machines. Do your        |
|     Unfortunately you need to use the default for GW and RPA                |
|     calculations (for HF NCORE is supported but not extensively tested      |
|     yet).                                                                   |

   TITEL  = PAW_PBE C 08Apr2002
   POMASS =   12.011; ZVAL   =    4.000    mass and valenz
   ENMAX  =  400.000; ENMIN  =  300.000 eV

   TITEL  = PAW_PBE H 15Jun2001
   POMASS =    1.000; ZVAL   =    1.000    mass and valenz
   ENMAX  =  250.000; ENMIN  =  200.000 eV

   TITEL  = PAW_PBE Ti_pv 07Sep2000
   POMASS =   47.880; ZVAL   =   10.000    mass and valenz
   ENMAX  =  222.335; ENMIN  =  166.751 eV

   TITEL  = PAW_PBE O 08Apr2002
   POMASS =   16.000; ZVAL   =    6.000    mass and valenz
   ENMAX  =  400.000; ENMIN  =  300.000 eV

  PAW_PBE C 08Apr2002                   :
  PAW_PBE H 15Jun2001                   :
  PAW_PBE Ti_pv 07Sep2000               :
  PAW_PBE O 08Apr2002                   :

 POSCAR:  C  H Ti  O
  positions in direct lattice
 exchange correlation table for  LEXCH =       40
   RHO(1)=    0.500       N(1)  =     2000
   RHO(2)=  100.500       N(2)  =     4000

 ion  position               nearest neighbor table
   1  0.500  0.500  0.828-   3 1.09   2 1.09   5 1.10   4 1.10
   2  0.498  0.575  0.848-   1 1.09
   3  0.502  0.425  0.848-   1 1.09
   4  0.569  0.503  0.808-   1 1.10
   5  0.432  0.497  0.808-   1 1.10
   6  0.750  0.625  0.285-  87 1.98 147 1.98 146 1.98  86 1.98  89 2.02 168 2.02  16 3.00  36 3.00

   7  0.000  0.750  0.285-  88 1.98  89 1.98 108 1.98 109 1.98  90 2.02  37 3.00  17 3.00
   8  0.000  0.625  0.393-  90 1.98 150 1.98  91 1.98 151 1.98  92 2.02  93 2.02  18 3.00  38 3.00

[...]

  85  0.501  0.500  0.710- 239 1.84 244 1.97 184 1.97 245 1.98 185 1.98  75 2.99  55 2.99
  86  0.750  0.750  0.243-   6 1.98  16 1.98
  87  0.750  0.750  0.327-   6 1.98  16 1.98   9 2.02
  88  0.098  0.625  0.285-   7 1.98  37 1.98  46 2.02
  89  0.902  0.625  0.285-   7 1.98  37 1.98   6 2.02
  90  0.000  0.750  0.351-   8 1.98  18 1.98   7 2.02
  91  0.000  0.750  0.434-   8 1.98  18 1.98  11 2.02
  92  0.848  0.625  0.393-   9 1.98  39 1.98   8 2.02
  93  0.152  0.625  0.393-  49 1.98  79 1.98   8 2.02
  94  0.750  0.750  0.458-  10 1.98  20 1.98   9 2.02
  95  0.750  0.750  0.542-  10 1.98  20 1.98  13 2.17
  96  0.098  0.625  0.500-  11 1.98  41 1.98  50 2.02
  97  0.902  0.625  0.500-  11 1.98  41 1.98  10 2.02
  98  1.000  0.750  0.566-  22 1.92  12 1.92  11 2.05
  99  0.000  0.750  0.651-  15 1.83  12 2.05  22 2.05
 100  0.850  0.625  0.608-  12 1.87  43 2.07  13 2.07
 101  0.151  0.625  0.608-  53 1.93  83 1.93  12 2.13
 102  0.750  0.750  0.673-  13 1.88  14 2.13  24 2.13
 103  0.750  0.750  0.758-  14 1.85  24 1.85
 104  0.094  0.625  0.721-  15 1.97  45 1.97  54 2.08
 105  0.907  0.625  0.721-  45 1.98  15 1.98  14 2.07
 106  0.750  0.000  0.243-  16 1.98  26 1.98
 107  0.750  0.000  0.327-  16 1.98  26 1.98  19 2.02
 108  0.098  0.875  0.285-   7 1.98  17 1.98  56 2.02
 109  0.902  0.875  0.285-   7 1.98  17 1.98  16 2.02
 110  0.000  0.000  0.351-  18 1.98  28 1.98  17 2.02
 111  0.000  0.000  0.434-  18 1.98  28 1.98  21 2.02
 112  0.848  0.875  0.393-   9 1.98  19 1.98  18 2.02
 113  0.152  0.875  0.393-  49 1.98  59 1.98  18 2.02
 114  0.750  0.000  0.458-  20 1.98  30 1.98  19 2.02
 115  0.750  0.000  0.542-  20 1.98  30 1.98  23 2.17
 116  0.098  0.875  0.500-  11 1.98  21 1.98  60 2.02
 117  0.902  0.875  0.500-  11 1.98  21 1.98  20 2.02
 118  0.000  1.000  0.566-  32 1.92  22 1.92  21 2.05
 119  0.000  0.000  0.651-  25 1.83  32 2.05  22 2.05
 120  0.850  0.875  0.608-  22 1.87  23 2.07  13 2.07
 121  0.151  0.875  0.608-  53 1.93  63 1.93  22 2.13
 122  0.750  0.000  0.673-  23 1.88  34 2.13  24 2.13
 123  0.751  0.000  0.758-  24 1.85  34 1.85
 124  0.094  0.875  0.721-  15 1.97  25 1.97  64 2.08
 125  0.907  0.875  0.721-  15 1.98  25 1.98  24 2.07
 126  0.750  0.250  0.243-  26 1.98  36 1.98
 127  0.750  0.250  0.327-  26 1.98  36 1.98  29 2.02
 128  0.098  0.125  0.285-  17 1.98  27 1.98  66 2.02
 129  0.902  0.125  0.285-  17 1.98  27 1.98  26 2.02
 130  0.000  0.250  0.351-  28 1.98  38 1.98  27 2.02
 131  0.000  0.250  0.434-  28 1.98  38 1.98  31 2.02
 132  0.848  0.125  0.393-  19 1.98  29 1.98  28 2.02
 133  0.152  0.125  0.393-  59 1.98  69 1.98  28 2.02
 134  0.750  0.250  0.458-  30 1.98  40 1.98  29 2.02
 135  0.750  0.250  0.542-  30 1.98  40 1.98  33 2.17
 136  0.098  0.125  0.500-  21 1.98  31 1.98  70 2.02
 137  0.902  0.125  0.500-  21 1.98  31 1.98  30 2.02
 138  0.000  0.250  0.566-  42 1.92  32 1.92  31 2.05
 139  0.000  0.250  0.651-  35 1.83  32 2.05  42 2.05
 140  0.850  0.125  0.608-  32 1.87  33 2.07  23 2.07
 141  0.151  0.125  0.608-  63 1.93  73 1.93  32 2.13
 142  0.750  0.250  0.673-  33 1.88  44 2.13  34 2.13
 143  0.750  0.250  0.758-  44 1.85  34 1.85
 144  0.094  0.125  0.721-  25 1.97  35 1.97  74 2.08
[...]
 231  0.500  0.500  0.434-  48 1.98  78 1.98  81 2.02
 232  0.348  0.375  0.393-  69 1.98  79 1.98  78 2.02
 233  0.652  0.375  0.393-  29 1.98  39 1.98  78 2.02
 234  0.250  0.500  0.458-  50 1.98  80 1.98  79 2.02
 235  0.250  0.500  0.542-  50 1.98  80 1.98  83 2.17
 236  0.598  0.375  0.500-  71 1.98  81 1.98  40 2.02
 237  0.402  0.375  0.500-  71 1.98  81 1.98  80 2.02
 238  0.500  0.500  0.566-  82 1.92  52 1.92  81 2.05
 239  0.500  0.500  0.651-  85 1.84  82 2.05  52 2.05
 240  0.350  0.375  0.608-  82 1.87  83 2.07  73 2.07
 241  0.651  0.375  0.608-  43 1.93  33 1.93  82 2.13
 242  0.250  0.500  0.673-  83 1.88  84 2.13  54 2.13
 243  0.251  0.500  0.757-  54 1.85  84 1.85
 244  0.594  0.375  0.720-  75 1.97  85 1.97  44 2.08
 245  0.407  0.375  0.721-  75 1.97  85 1.98  84 2.07

IMPORTANT INFORMATION: All symmetrisations will be switched off!
NOSYMM: (Re-)initialisation of all symmetry stuff for point group C_1.

                                     Primitive cell

  volume of cell :    4895.9617

  direct lattice vectors                    reciprocal lattice vectors
    13.251680751  0.000000000  0.000000000     0.075462126  0.000000000  0.000000000
     0.000000000 11.981436613  0.000000000     0.000000000  0.083462445  0.000000000
     0.000000000  0.000000000 30.836008487     0.000000000  0.000000000  0.032429619

  length of vectors
    13.251680751 11.981436613 30.836008487     0.075462126  0.083462445  0.032429619

  position of ions in fractional coordinates (direct lattice)
     0.500090092  0.500003046  0.827930835
     0.497794248  0.574594927  0.848423326
     0.502367048  0.425414588  0.848422223
     0.568532760  0.502517379  0.807992223
     0.431685840  0.497499077  0.807973723
     0.750000000  0.625000000  0.285126523
     0.000000000  0.750000000  0.285126523
     0.000000000  0.625000000  0.392563261
     0.750000000  0.750000000  0.392563261
     0.750000000  0.625000000  0.500000000
     0.000000000  0.750000000  0.500000000
     0.990860722  0.625010312  0.605211217
     0.742984532  0.750001809  0.612102535
     0.750989427  0.625054114  0.722285544
     0.000805496  0.750059263  0.709966652
     0.750000000  0.875000000  0.285126523
     0.000000000  0.000000000  0.285126523
     0.000000000  0.875000000  0.392563261
     0.750000000  0.000000000  0.392563261
     0.750000000  0.875000000  0.500000000
     0.000000000  0.000000000  0.500000000
     0.990855767  0.875005284  0.605202357
     0.743033464  0.999998594  0.612136516
     0.750833206  0.875005954  0.722394568
     0.000763672  0.999999268  0.709961820
     0.750000000  0.125000000  0.285126523
     0.000000000  0.250000000  0.285126523
     0.000000000  0.125000000  0.392563261
     0.750000000  0.250000000  0.392563261
     0.750000000  0.125000000  0.500000000
     0.000000000  0.250000000  0.500000000
     0.990914333  0.124988265  0.605199383
     0.743116819  0.250008033  0.612107166
     0.750756218  0.125005460  0.722384311
     0.000722150  0.249936450  0.709950987
     0.750000000  0.375000000  0.285126523
     0.000000000  0.500000000  0.285126523
     0.000000000  0.375000000  0.392563261
     0.750000000  0.500000000  0.392563261
     0.750000000  0.375000000  0.500000000
     0.000000000  0.500000000  0.500000000
     0.990953166  0.374996140  0.605194993
     0.743080127  0.499995664  0.612096310
     0.750910787  0.374944737  0.722288471
     0.000764450  0.500001086  0.709968481
     0.250000000  0.625000000  0.285126523
     0.500000000  0.750000000  0.285126523
     0.500000000  0.625000000  0.392563261
     0.250000000  0.750000000  0.392563261
     0.250000000  0.625000000  0.500000000
     0.500000000  0.750000000  0.500000000
     0.490850053  0.624913445  0.605311704
     0.242944062  0.750022121  0.612106072
     0.250874750  0.625057540  0.722296602
     0.500809930  0.749926844  0.709931604
     0.250000000  0.875000000  0.285126523
     0.500000000  0.000000000  0.285126523
     0.500000000  0.875000000  0.392563261
     0.250000000  0.000000000  0.392563261
     0.250000000  0.875000000  0.500000000
[...]
     0.500000000  0.500000000  0.434467643
     0.347509432  0.375000000  0.392563261
     0.652490568  0.375000000  0.392563261
     0.250000000  0.500000000  0.458095618
     0.250000000  0.500000000  0.541904382
     0.597509432  0.375000000  0.500000000
     0.402490568  0.375000000  0.500000000
     0.500014597  0.499996645  0.566425033
     0.500030242  0.499976497  0.650659698
     0.350018309  0.375018064  0.608079048
     0.651255145  0.374995887  0.608490286
     0.249942581  0.499992468  0.673120098
     0.250827902  0.499976828  0.757445727
[...]
   3.21941714  8.98634251 18.87490802
   3.32451210  7.48908729 22.27274415
   6.63657332  8.98520094 21.89145696
   3.31292019 10.48375704  8.79216387
   6.62584038  0.00000000  8.79216387
   6.62584038 10.48375704 12.10508406
   3.31292019  0.00000000 12.10508406
   3.31292019 10.48375704 15.41800424
[...]
   6.62584038  5.99071831 13.39724792
   4.60508406  4.49303873 12.10508406
   8.64659670  4.49303873 12.10508406
   3.31292019  5.99071831 14.12584038
   3.31292019  5.99071831 16.71016811
   7.91800424  4.49303873 15.41800424
   5.33367651  4.49303873 15.41800424
   6.62603381  5.99067811 17.46628714
   6.62624113  5.99043671 20.06374797
   4.63833089  4.49325517 18.75073068
   8.63022526  4.49298945 18.76341163
   3.31215929  5.99062806 20.75633706
   3.32389129  5.99044068 23.35660286
   7.87629573  4.49072973 22.21635765
   5.39017445  4.49017078 22.21763478

--------------------------------------- Iteration      FINAL  ---------------------------------------

--------------------OUTCAR has been truncated-------------------------

[...]

--------------------OUTCAR has been truncated-------------------------

  FORCE on cell =-STRESS in cart. coord.  units (eV):
  Direction    XX          YY          ZZ          XY          YZ          ZX
  Alpha Z  4499.44432  4499.44432  4499.44432
  Ewald  931334.10674949439.23002************    -0.10009    -0.03572    17.06852
  Hartree972358.04425982329.77930************    -0.07795    -0.01883     9.40809
  E(xc)   -8820.21489 -8793.45330 -8819.99363     0.00025    -0.00007     0.04158
  Local  ************************************     0.18580     0.05367   -26.45608
  n-local -5456.75892 -5376.42767 -5493.79583     0.00087     0.00022     0.31050
  augment  5303.05823  5284.95607  5307.82733    -0.00029    -0.00031     0.02902
  Kinetic 28696.52101 28223.08734 28731.17822    -0.00651    -0.00041    -0.99290
  Fock        0.00000     0.00000     0.00000     0.00000     0.00000     0.00000
  Total      11.58750   -32.19874   -33.94521     0.00206    -0.00145    -0.59128
  in kB       3.79195   -10.53687   -11.10839     0.00068    -0.00047    -0.19349

 VOLUME and BASIS-vectors are now :
  energy-cutoff  :      600.00
  volume of cell :     4895.96
      direct lattice vectors                 reciprocal lattice vectors
    13.251680751  0.000000000  0.000000000     0.075462126  0.000000000  0.000000000
     0.000000000 11.981436613  0.000000000     0.000000000  0.083462445  0.000000000
     0.000000000  0.000000000 30.836008487     0.000000000  0.000000000  0.032429619

  length of vectors
    13.251680751 11.981436613 30.836008487     0.075462126  0.083462445  0.032429619

 FORCES acting on ions:
    Electron-Ion                     Ewald-Force                    Non-Local-Force
   -.182E+00 0.134E-01 -.136E+04   0.172E+00 -.131E-01 0.136E+04   0.108E-01 0.149E-02 -.388E+00
   0.136E+01 -.433E+02 -.333E+03   -.152E+01 0.480E+02 0.336E+03   0.160E+00 -.465E+01 -.331E+01
   -.140E+01 0.433E+02 -.333E+03   0.156E+01 -.480E+02 0.336E+03   -.158E+00 0.465E+01 -.331E+01
   -.373E+02 -.145E+01 -.348E+03   0.421E+02 0.161E+01 0.345E+03   -.478E+01 -.156E+00 0.306E+01
   0.372E+02 0.145E+01 -.348E+03   -.419E+02 -.161E+01 0.345E+03   0.478E+01 0.156E+00 0.307E+01
   -.141E+00 -.476E-01 0.364E+04   0.141E+00 0.477E-01 -.364E+04   -.523E-04 -.110E-04 0.357E+00
   -.359E-02 -.606E-01 0.381E+04   0.359E-02 0.606E-01 -.380E+04   -.639E-05 -.735E-05 -.366E+01
   -.919E-01 -.545E-01 0.185E+04   0.927E-01 0.548E-01 -.185E+04   -.210E-03 -.268E-04 -.473E-01
   -.566E-01 -.751E-01 0.185E+04   0.563E-01 0.754E-01 -.185E+04   -.439E-03 -.565E-05 0.201E+00
   0.943E+00 -.288E+00 -.421E+01   -.962E+00 0.289E+00 0.502E+01   -.898E-03 -.137E-03 -.125E+00
   -.272E+01 -.346E+00 0.526E+01   0.277E+01 0.348E+00 -.634E+01   -.173E-01 -.136E-03 0.376E+00
   -.319E+02 -.998E+00 -.179E+04   0.318E+02 0.100E+01 0.179E+04   0.160E+00 -.156E-02 0.210E+00
   -.144E+02 -.284E+01 -.185E+04   0.142E+02 0.284E+01 0.185E+04   0.190E+00 -.110E-02 -.280E+00
   -.269E+02 -.115E+02 -.359E+04   0.269E+02 0.115E+02 0.359E+04   -.115E-01 0.248E-02 -.326E+00
   -.982E+00 -.448E+01 -.363E+04   0.984E+00 0.448E+01 0.363E+04   -.539E-02 -.707E-03 0.100E+01
   -.133E+00 -.468E-01 0.364E+04   0.133E+00 0.469E-01 -.364E+04   -.384E-04 -.676E-05 0.357E+00
   -.351E-02 0.657E-03 0.381E+04   0.349E-02 -.646E-03 -.380E+04   -.107E-04 0.112E-05 -.366E+01
   -.917E-01 -.495E-01 0.185E+04   0.925E-01 0.497E-01 -.185E+04   -.205E-03 -.347E-04 -.474E-01
   -.577E-01 0.283E-02 0.184E+04   0.573E-01 -.281E-02 -.185E+04   -.423E-03 -.282E-05 0.201E+00
   0.942E+00 -.285E+00 -.482E+01   -.961E+00 0.289E+00 0.563E+01   -.719E-03 -.240E-03 -.125E+00
   -.267E+01 0.221E-01 0.498E+01   0.272E+01 -.223E-01 -.605E+01   -.180E-01 0.746E-04 0.375E+00
   -.318E+02 -.106E+01 -.179E+04   0.317E+02 0.106E+01 0.179E+04   0.160E+00 -.776E-03 0.209E+00
   -.135E+02 0.690E-01 -.186E+04   0.134E+02 -.698E-01 0.186E+04   0.192E+00 0.560E-03 -.277E+00
   -.114E+02 -.824E+01 -.361E+04   0.114E+02 0.824E+01 0.361E+04   -.296E-02 0.121E-03 -.330E+00
   -.106E+01 0.121E+00 -.363E+04   0.106E+01 -.120E+00 0.363E+04   -.472E-02 -.716E-03 0.100E+01
   -.133E+00 0.475E-01 0.364E+04   0.133E+00 -.477E-01 -.364E+04   -.267E-04 0.165E-04 0.357E+00
   -.347E-02 0.606E-01 0.381E+04   0.343E-02 -.606E-01 -.380E+04   -.888E-05 0.991E-05 -.366E+01
   -.900E-01 0.551E-01 0.185E+04   0.907E-01 -.553E-01 -.185E+04   -.217E-03 0.162E-04 -.474E-01
   -.574E-01 0.751E-01 0.185E+04   0.571E-01 -.754E-01 -.185E+04   -.431E-03 -.531E-05 0.201E+00
   0.930E+00 0.299E+00 -.481E+01   -.949E+00 -.304E+00 0.563E+01   -.675E-03 0.255E-03 -.125E+00
   -.263E+01 0.347E+00 0.534E+01   0.268E+01 -.349E+00 -.641E+01   -.182E-01 0.334E-03 0.376E+00
   -.319E+02 0.108E+01 -.179E+04   0.319E+02 -.108E+01 0.179E+04   0.162E+00 0.908E-03 0.206E+00
   -.143E+02 0.290E+01 -.185E+04   0.142E+02 -.290E+01 0.185E+04   0.190E+00 0.136E-02 -.279E+00
   -.114E+02 0.829E+01 -.361E+04   0.114E+02 -.829E+01 0.361E+04   -.742E-04 0.106E-02 -.327E+00
   -.111E+01 0.443E+01 -.363E+04   0.112E+01 -.444E+01 0.363E+04   -.415E-02 0.723E-03 0.100E+01
   -.141E+00 0.468E-01 0.364E+04   0.141E+00 -.469E-01 -.364E+04   -.396E-04 0.847E-05 0.357E+00
   -.356E-02 -.652E-03 0.381E+04   0.353E-02 0.647E-03 -.380E+04   0.646E-05 0.468E-06 -.366E+01
   -.901E-01 0.489E-01 0.185E+04   0.909E-01 -.492E-01 -.185E+04   -.219E-03 0.440E-04 -.473E-01
   -.564E-01 -.280E-02 0.185E+04   0.561E-01 0.277E-02 -.185E+04   -.470E-03 0.576E-05 0.201E+00
   0.929E+00 0.273E+00 -.421E+01   -.948E+00 -.275E+00 0.502E+01   -.703E-03 0.125E-03 -.125E+00
   -.267E+01 -.238E-01 0.559E+01   0.272E+01 0.245E-01 -.666E+01   -.178E-01 -.247E-03 0.377E+00
   -.319E+02 0.990E+00 -.179E+04   0.318E+02 -.992E+00 0.179E+04   0.162E+00 0.146E-02 0.208E+00
   -.152E+02 -.117E+00 -.185E+04   0.151E+02 0.119E+00 0.185E+04   0.190E+00 -.846E-03 -.281E+00
   -.269E+02 0.115E+02 -.359E+04   0.269E+02 -.115E+02 0.359E+04   -.857E-02 -.351E-02 -.326E+00
   -.106E+01 -.817E-01 -.363E+04   0.106E+01 0.808E-01 0.363E+04   -.450E-02 0.721E-03 0.100E+01
   0.149E+00 -.476E-01 0.364E+04   -.149E+00 0.478E-01 -.364E+04   -.515E-04 -.361E-06 0.357E+00
   -.456E-02 -.729E-01 0.381E+04   0.451E-02 0.730E-01 -.380E+04   -.462E-06 -.209E-04 -.366E+01
   -.965E-01 -.520E-01 0.185E+04   0.970E-01 0.533E-01 -.185E+04   -.168E-03 -.252E-03 -.474E-01
   0.241E+00 -.746E-01 0.185E+04   -.241E+00 0.749E-01 -.185E+04   -.548E-03 -.263E-05 0.201E+00
   0.217E+01 -.297E+00 -.421E+01   -.218E+01 0.299E+00 0.502E+01   -.150E-02 -.173E-03 -.125E+00
   -.275E+01 -.376E+00 0.643E+01   0.279E+01 0.373E+00 -.749E+01   -.169E-01 0.247E-02 0.373E+00
   -.315E+02 -.241E+01 -.178E+04   0.314E+02 0.241E+01 0.178E+04   0.162E+00 -.610E-02 0.209E+00
   -.718E+01 -.262E+01 -.185E+04   0.705E+01 0.262E+01 0.185E+04   0.192E+00 -.197E-02 -.280E+00
   0.266E+02 -.116E+02 -.359E+04   -.265E+02 0.116E+02 0.359E+04   -.146E-01 0.218E-02 -.328E+00
   -.110E+01 -.257E+02 -.360E+04   0.110E+01 0.257E+02 0.360E+04   -.551E-02 -.143E-02 0.102E+01
   0.141E+00 -.467E-01 0.364E+04   -.141E+00 0.467E-01 -.364E+04   -.780E-04 -.554E-05 0.357E+00
   -.461E-02 0.620E-03 0.381E+04   0.458E-02 -.626E-03 -.380E+04   0.172E-05 0.563E-06 -.366E+01
   -.969E-01 -.477E-01 0.185E+04   0.975E-01 0.485E-01 -.185E+04   -.187E-03 -.179E-03 -.475E-01
   0.242E+00 0.437E-02 0.184E+04   -.241E+00 -.438E-02 -.185E+04   -.570E-03 -.716E-05 0.201E+00
   0.218E+01 -.273E+00 -.480E+01   -.220E+01 0.277E+00 0.562E+01   -.158E-02 -.205E-03 -.126E+00
[...]
   -.560E+02 0.292E-01 0.111E+04   0.601E+02 -.294E-01 -.111E+04   -.376E+01 0.323E-03 0.160E+00
   0.560E+02 0.298E-01 0.111E+04   -.602E+02 -.300E-01 -.111E+04   0.376E+01 0.366E-03 0.160E+00
   0.533E+00 -.786E-02 0.486E+03   -.543E+00 0.803E-02 -.491E+03   0.153E-01 -.411E-03 0.434E+01
   0.245E-01 -.271E-01 -.507E+03   0.264E+00 0.272E-01 0.515E+03   -.292E+00 -.252E-03 -.749E+01
   -.581E+02 0.124E+00 0.229E+01   0.630E+02 -.124E+00 -.250E+01   -.537E+01 0.364E-02 0.319E+00
   0.578E+02 0.128E+00 0.534E+01   -.627E+02 -.128E+00 -.567E+01   0.540E+01 0.311E-02 0.435E+00
   -.189E+02 -.429E-01 -.598E+03   0.207E+02 0.449E-01 0.591E+03   -.180E+01 -.179E-02 0.668E+01
   -.113E+02 -.114E+00 -.153E+04   0.125E+02 0.117E+00 0.152E+04   -.113E+01 -.374E-03 0.281E+01
   0.105E+02 0.143E+01 -.109E+04   -.121E+02 -.143E+01 0.108E+04   0.158E+01 0.232E-02 0.722E+00
   0.671E+02 0.139E+01 -.108E+04   -.747E+02 -.141E+01 0.108E+04   0.757E+01 0.122E-01 0.126E+01
   0.238E+01 -.162E+00 -.174E+04   -.182E+01 0.168E+00 0.174E+04   -.564E+00 -.521E-02 -.240E+01
   0.333E+02 0.523E-01 -.260E+04   -.333E+02 -.626E-01 0.262E+04   0.832E-01 0.105E-01 -.204E+02
   -.380E+02 0.158E+02 -.222E+04   0.440E+02 -.158E+02 0.223E+04   -.603E+01 -.915E-02 -.382E+01
   0.365E+02 0.157E+02 -.223E+04   -.423E+02 -.156E+02 0.223E+04   0.579E+01 -.260E-01 -.385E+01
   -.438E+02 -.890E-03 0.940E+02   -.163E-11 -.906E-12 -.105E-10   0.438E+02 0.925E-03 -.940E+02

 POSITION                                       TOTAL-FORCE (eV/Angst)
      6.62703      5.99075     25.53008         0.000544      0.001749     -0.008609
      6.59661      6.88447     26.16199         0.000767     -0.003419     -0.008004
      6.65721      5.09708     26.16195        -0.000244      0.001950     -0.007123
      7.53401      6.02088     24.91526        -0.003394     -0.000469     -0.004329
      5.72056      5.96075     24.91468         0.003530      0.000166     -0.004493
      9.93876      7.48840      8.79216        -0.000067      0.000109     -3.340665
      0.00000      8.98608      8.79216        -0.000037      0.000068      2.736114
      0.00000      7.48840     12.10508         0.000493      0.000227      0.493260
      9.93876      8.98608     12.10508        -0.000803      0.000274     -0.680387
      9.93876      7.48840     15.41800        -0.019247      0.001606      0.687121
      0.00000      8.98608     15.41800         0.029264      0.001175     -0.701282
     13.13057      7.48852     18.66230        -0.002586      0.000895     -0.001922
      9.84579      8.98610     18.87480         0.001072      0.001027     -0.000657
      9.95187      7.48905     22.27240        -0.001813     -0.001278     -0.005526
      0.01067      8.98679     21.89254        -0.001781      0.000760     -0.000766
      9.93876     10.48376      8.79216        -0.000078      0.000099     -3.340664
      0.00000      0.00000      8.79216        -0.000058      0.000012      2.736106
      0.00000     10.48376     12.10508         0.000494      0.000210      0.493511
      9.93876      0.00000     12.10508        -0.000880      0.000020     -0.679977
      9.93876     10.48376     15.41800        -0.019308      0.004312      0.690934
      0.00000      0.00000     15.41800         0.029560     -0.000130     -0.701822
     13.13050     10.48382     18.66203        -0.001953      0.000502      0.000021
      9.84644     11.98142     18.87585        -0.000713     -0.000163     -0.000504
      9.94980     10.48383     22.27577        -0.002716     -0.000242     -0.008171
      0.01012     11.98143     21.89239        -0.001462      0.000375      0.000604
      9.93876      1.49768      8.79216        -0.000079     -0.000101     -3.340627
      0.00000      2.99536      8.79216        -0.000072     -0.000047      2.736104
      0.00000      1.49768     12.10508         0.000487     -0.000143      0.493543
      9.93876      2.99536     12.10508        -0.000828     -0.000287     -0.680357
      9.93876      1.49768     15.41800        -0.019554     -0.004132      0.691106
      0.00000      2.99536     15.41800         0.029559     -0.001505     -0.702451
     13.13128      1.49754     18.66193        -0.001790     -0.000714      0.000132
      9.84755      2.99546     18.87494        -0.003023     -0.001902     -0.000921
      9.94878      1.49774     22.27545        -0.000712      0.000081     -0.005861
      0.00957      2.99460     21.89205        -0.001482     -0.000838      0.002016
      9.93876      4.49304      8.79216        -0.000042     -0.000079     -3.340666
      0.00000      5.99072      8.79216        -0.000045     -0.000005      2.736112
      0.00000      4.49304     12.10508         0.000485     -0.000291      0.493262
      9.93876      5.99072     12.10508        -0.000757     -0.000019     -0.680803
      9.93876      4.49304     15.41800        -0.019696     -0.001780      0.687201
      0.00000      5.99072     15.41800         0.029313      0.000454     -0.702112
     13.13179      4.49299     18.66180        -0.002015     -0.000807     -0.000075
      9.84706      5.99067     18.87461        -0.002042      0.000937      0.000311
      9.95083      4.49238     22.27249        -0.000339      0.001500     -0.003537
      0.01013      5.99073     21.89259        -0.001413     -0.000258     -0.001911
      3.31292      7.48840      8.79216        -0.000040      0.000115     -3.340692
      6.62584      8.98608      8.79216        -0.000079      0.000059      2.736387
      6.62584      7.48840     12.10508         0.000360      0.001027      0.493536
      3.31292      8.98608     12.10508        -0.000461      0.000256     -0.680112
      3.31292      7.48840     15.41800        -0.016534      0.001912      0.688000
      6.62584      8.98608     15.41800         0.028724     -0.000532     -0.691369
      6.50459      7.48736     18.66540        -0.002776     -0.000854     -0.003043
      3.21942      8.98634     18.87491         0.003656      0.000365     -0.000856
      3.32451      7.48909     22.27274        -0.002229     -0.002422     -0.005353
      6.63657      8.98520     21.89146        -0.002468      0.001703     -0.001371
      3.31292     10.48376      8.79216        -0.000060      0.000063     -3.340597
      6.62584      0.00000      8.79216        -0.000053     -0.000005      2.736410
      6.62584     10.48376     12.10508         0.000378      0.000634      0.494461
      3.31292      0.00000     12.10508        -0.000413     -0.000012     -0.679838
      3.31292     10.48376     15.41800        -0.017143      0.003928      0.691709
[...]
      6.62584      5.99072     13.39725        -0.001072      0.000009     -0.097519
      4.60508      4.49304     12.10508         0.420208      0.000129      0.050944
      8.64660      4.49304     12.10508        -0.419480      0.000149      0.050784
      3.31292      5.99072     14.12584         0.005278     -0.000235     -0.125454
      3.31292      5.99072     16.71017        -0.004360     -0.000194     -0.044632
      7.91800      4.49304     15.41800        -0.469608      0.002749      0.101685
      5.33368      4.49304     15.41800         0.469067      0.002483      0.107855
      6.62603      5.99068     17.46629        -0.000106      0.000249      0.003677
      6.62624      5.99044     20.06375         0.001559      0.002360     -0.000520
      4.63833      4.49326     18.75073         0.000196     -0.001768     -0.000688
      8.63023      4.49299     18.76341        -0.005608     -0.000330     -0.002394
      3.31216      5.99063     20.75634        -0.000503      0.001325      0.002507
      3.32389      5.99044     23.35660        -0.002216      0.000238      0.003294
      7.87630      4.49073     22.21636        -0.000434     -0.002879      0.001908
      5.39017      4.49017     22.21763        -0.000795     -0.001709      0.002418
    total drift:                                0.004095      0.000035      0.026310

  FREE ENERGIE OF THE ION-ELECTRON SYSTEM (eV)
  free  energy   TOTEN  =     -1588.80132334 eV

  energy  without entropy=    -1588.80132334  energy(sigma->0) =    -1588.80132334