 vasp.6.4.2 20Jul23 (build Feb 22 2024 13:53:45) complex
 executed on              LinuxNV date 2024.08.28  21:17:00
 OpenACC runtime initialized ...    4 GPUs detected

 INCAR:
   SYSTEM = Oxide-Surface
   ISMEAR = 0
   SIGMA = 0.05
   EDIFF = 1E-5
   ALGO = Normal
   IBRION = -1
   NSW = 0
   ISYM = 0
   DIPOL = 0.5 0.5 0.5
   IDIPOL = 3
   LDIPOL = .TRUE.
   ISTART = 1
   METAGGA = R2SCAN
   ENCUT = 1000
   PREC = Normal
   PRECFOCK = Normal
   LASPH = .TRUE.
   LREAL = Auto
   ISPIN = 1
   NELM = 200
   NELMIN = 8
   NCORE = 1
   KPAR = 1
   LWAVE = .FALSE.
   LCHARG = .FALSE.

 POTCAR:    PAW_PBE Ti_sv 26Sep2005
 POTCAR:    PAW_PBE O_h 06Feb2004
 POTCAR:    PAW_PBE Ti_sv 26Sep2005
   VRHFIN =Ti: 3p4s3d

   TITEL  = PAW_PBE Ti_sv 26Sep2005
   POMASS =   47.880; ZVAL   =   12.000    mass and valenz
   ENMAX  =  274.610; ENMIN  =  205.957 eV

   TITEL  = PAW_PBE O_h 06Feb2004
   POMASS =   16.000; ZVAL   =    6.000    mass and valenz
   ENMAX  =  700.000; ENMIN  =  500.000 eV

 Optimization of the real space projectors (new method)

 maximal supplied QI-value         = 16.25
 optimisation between [QCUT,QGAM] = [ 16.09, 32.34] = [ 72.49,292.89] Ry
 Optimized for a Real-space Cutoff    1.24 Angstroem

   l    n(q)    QCUT    max X(q) W(low)/X(q) W(high)/X(q)  e(spline)
   0     12    16.089    12.277    0.23E-04    0.54E-05    0.15E-06
   0     12    16.089    11.419    0.26E-04    0.82E-06    0.19E-06
   1     12    16.089     4.010    0.40E-04    0.12E-04    0.58E-06
   1     12    16.089     6.182    0.55E-05    0.28E-04    0.27E-06
   2     11    16.089    47.177    0.17E-03    0.26E-03    0.90E-06
   2     11    16.089    42.437    0.17E-03    0.25E-03    0.88E-06
 Optimization of the real space projectors (new method)

 maximal supplied QI-value         = 34.20
 optimisation between [QCUT,QGAM] = [ 16.08, 32.15] = [ 72.37,289.48] Ry
 Optimized for a Real-space Cutoff    0.71 Angstroem

   l    n(q)    QCUT    max X(q) W(low)/X(q) W(high)/X(q)  e(spline)
   0      7    16.076   280.207    0.42E-03    0.69E-03    0.60E-07
   0      7    16.076   228.978    0.42E-03    0.69E-03    0.61E-07
   1      6    16.076    86.127    0.11E-03    0.66E-03    0.10E-06
   1      6    16.076    65.368    0.11E-03    0.65E-03    0.10E-06
  PAW_PBE Ti_sv 26Sep2005               :
  PAW_PBE O_h 06Feb2004                 :

 POSCAR: Ti  O
  positions in direct lattice

 METAGGA = R2SCAN                                      LMAXTAU =  6    LMIXTAU =  F

 ion  position               nearest neighbor table
   1  0.808  0.916  0.247-  53 1.94  51 1.94  85 1.94  52 1.99  50 1.99
   2  0.592  0.749  0.282-  49 1.94  52 1.94  54 1.94 116 1.94  53 1.99  55 1.99
   3  0.308  0.749  0.247-  57 1.94  55 1.94 121 1.94  56 1.99  49 1.99
   4  0.092  0.916  0.282-  50 1.94  56 1.94  58 1.94  88 1.94  57 1.99  51 1.99
   5  0.945  0.916  0.390-  59 1.92  93 1.93  61 1.94  51 1.98  60 1.98  58 2.00
   6  0.727  0.749  0.421-  54 1.89 124 1.93  60 1.94  62 1.96  63 1.99  61 2.00
   7  0.444  0.749  0.390-  63 1.93 129 1.93  65 1.93  55 1.97  64 1.99  54 2.00
   8  0.226  0.916  0.422-  58 1.90  96 1.94  64 1.94  59 1.97  66 1.97  65 2.01
   9  0.086  0.916  0.532-  67 1.92 101 1.93  69 1.94  68 1.97  66 2.01  59 2.01
  10  0.865  0.749  0.560-  62 1.86 132 1.93  68 1.94  71 1.95  69 2.01  70 2.01
  11  0.584  0.749  0.531- 137 1.93  71 1.93  73 1.93  63 1.97  72 1.98  62 2.02
  12  0.364  0.916  0.562-  66 1.86 104 1.94  72 1.94  67 1.95  74 2.00  73 2.02
  13  0.231  0.915  0.678-  75 1.86  77 1.93 109 1.94  76 2.00  74 2.10  67 2.10  16 2.85
  14  0.000  0.749  0.700-  70 1.78  78 1.84 140 1.97  76 1.98  77 2.07  15 2.86
  15  0.729  0.748  0.674-  78 1.89 144 1.92  80 1.94  79 1.99  71 2.03  70 2.10  14 2.86
  16  0.503  0.917  0.700-  74 1.78  75 1.84  79 1.97 111 1.97  80 2.06  13 2.85
  17  0.808  0.249  0.247-  85 1.94 117 1.94  83 1.94  84 1.99  82 1.99
  18  0.592  0.083  0.282-  81 1.94  84 1.94  86 1.94  52 1.94  85 1.99  87 1.99
  19  0.308  0.083  0.247-  89 1.94  87 1.94  57 1.94  88 1.99  81 1.99
  20  0.092  0.249  0.282-  82 1.94  88 1.94 120 1.94  90 1.94  89 1.99  83 1.99
  21  0.945  0.249  0.390-  91 1.92  93 1.93 125 1.94  83 1.98  92 1.98  90 2.00
  22  0.726  0.083  0.422-  86 1.89  92 1.94  60 1.94  94 1.97  95 1.98  93 2.00
  23  0.444  0.083  0.390-  95 1.92  65 1.93  97 1.93  87 1.98  96 1.99  86 2.00
  24  0.226  0.249  0.422-  90 1.90  96 1.94 128 1.94  91 1.97  98 1.97  97 2.01
  25  0.086  0.249  0.532-  99 1.92 101 1.93 133 1.94 100 1.97  98 2.01  91 2.01
  26  0.864  0.083  0.561-  94 1.86 100 1.94  68 1.94 103 1.94 102 2.01 101 2.03
  27  0.585  0.083  0.532- 103 1.92  73 1.93 105 1.93 104 1.98  95 2.00  94 2.01
  28  0.364  0.249  0.562-  98 1.86 104 1.94 136 1.94  99 1.95 106 2.00 105 2.02
  29  0.231  0.250  0.678- 107 1.86 141 1.93 109 1.94 108 2.00 106 2.10  99 2.10  32 2.85
  30  0.003  0.083  0.700- 102 1.78 110 1.83 108 1.98  76 1.98 109 2.05  31 2.84
  31  0.732  0.083  0.677- 110 1.86  80 1.93 112 1.93 111 2.00 102 2.09 103 2.09  30 2.84
  32  0.503  0.249  0.700- 106 1.78 107 1.84 143 1.97 111 1.97 112 2.06  29 2.85
  33  0.808  0.583  0.247- 117 1.94 115 1.94  53 1.94 116 1.99 114 1.99
  34  0.592  0.416  0.282- 113 1.94  84 1.94 116 1.94 118 1.94 117 1.99 119 1.99
  35  0.308  0.416  0.247-  89 1.94 121 1.94 119 1.94 120 1.99 113 1.99
  36  0.092  0.583  0.282- 114 1.94 120 1.94 122 1.94  56 1.94 121 1.99 115 1.99
  37  0.946  0.583  0.389- 123 1.93  61 1.93 125 1.94 115 1.97 122 1.98 124 2.00
  38  0.727  0.417  0.421- 118 1.89 124 1.93  92 1.94 126 1.96 127 1.99 125 2.00
  39  0.444  0.416  0.389- 127 1.93 129 1.93  97 1.93 119 1.97 128 1.99 118 2.01
  40  0.226  0.583  0.423- 122 1.92 128 1.94  64 1.94 123 1.96 130 1.97 129 2.01
  41  0.089  0.583  0.533- 131 1.92  69 1.93 133 1.93 130 1.98 132 2.00 123 2.01
  42  0.865  0.417  0.560- 126 1.86 132 1.93 100 1.94 135 1.95 133 2.01 134 2.01
  43  0.584  0.416  0.531- 137 1.93 135 1.93 105 1.93 127 1.97 136 1.98 126 2.02
  44  0.366  0.583  0.565- 130 1.92  72 1.94 136 1.94 131 1.94 138 2.00 137 2.03
  45  0.234  0.583  0.678- 139 1.86 141 1.93  77 1.93 140 2.03 138 2.05 131 2.10  48 2.87
  46  1.000  0.417  0.700- 134 1.78 142 1.84 140 1.97 108 1.98 141 2.07  47 2.86
  47  0.729  0.417  0.673- 142 1.90 144 1.92 112 1.94 143 1.99 135 2.03 134 2.10  46 2.86
  48  0.505  0.583  0.707- 139 1.82 138 1.86 143 1.98  79 1.98 144 2.11  45 2.87
  49  0.488  0.749  0.218-   2 1.94   3 1.99
  50  0.988  0.916  0.218-   4 1.94   1 1.99
  51  0.911  0.916  0.312-   1 1.94   5 1.98   4 1.99
  52  0.627  0.916  0.277-   2 1.94  18 1.94   1 1.99
  53  0.772  0.749  0.253-   1 1.94  33 1.94   2 1.99
  54  0.624  0.749  0.359-   6 1.89   2 1.94   7 2.00
  55  0.411  0.749  0.312-   3 1.94   7 1.97   2 1.99
  56  0.127  0.749  0.277-   4 1.94  36 1.94   3 1.99
  57  0.272  0.916  0.253-   3 1.94  19 1.94   4 1.99
  58  0.124  0.916  0.359-   8 1.90   4 1.94   5 2.00
  59  0.049  0.916  0.453-   5 1.92   8 1.97   9 2.01
  60  0.764  0.916  0.417-  22 1.94   6 1.94   5 1.98
[...]
 130  0.266  0.583  0.501-  44 1.92  40 1.97  41 1.98
 131  0.193  0.583  0.596-  41 1.92  44 1.94  45 2.10
 132  0.904  0.583  0.558-  42 1.93  10 1.93  41 2.00
 133  0.052  0.416  0.535-  41 1.93  25 1.94  42 2.01
 134  0.914  0.415  0.638-  46 1.78  42 2.01  47 2.10
 135  0.694  0.414  0.594-  43 1.93  42 1.95  47 2.03
 136  0.405  0.416  0.560-  44 1.94  28 1.94  43 1.98
 137  0.551  0.583  0.536-  43 1.93  11 1.93  44 2.03
 138  0.413  0.583  0.642-  48 1.86  44 2.00  45 2.05
 139  0.345  0.583  0.738-  48 1.82  45 1.86
 140  0.052  0.583  0.709-  46 1.97  14 1.97  45 2.03
 141  0.195  0.417  0.678-  29 1.93  45 1.93  46 2.07
 142  0.841  0.422  0.734-  46 1.84  47 1.90
 143  0.554  0.415  0.708-  32 1.97  48 1.98  47 1.99
 144  0.693  0.583  0.672-  15 1.92  47 1.92  48 2.11

IMPORTANT INFORMATION: All symmetrisations will be switched off!
NOSYMM: (Re-)initialisation of all symmetry stuff for point group C_1.

                                     Primitive cell

  volume of cell :    2920.0096

  direct lattice vectors                    reciprocal lattice vectors
    10.273755933  0.000000000  0.000000000     0.097335386 -0.000000000  0.000000000
     0.000000000 11.368810418  0.000000000     0.000000000  0.087959950  0.000000000
     0.000000000  0.000000000 25.000000000     0.000000000  0.000000000  0.040000000

  length of vectors
    10.273755933 11.368810418 25.000000000     0.097335386  0.087959950  0.040000000

  position of ions in fractional coordinates (direct lattice)
     0.807824645  0.915977663  0.247143925
     0.591839534  0.749310996  0.282367682
     0.307824645  0.749310996  0.247143925
     0.091839534  0.915977663  0.282367682
     0.944954220  0.916237323  0.389700498
     0.726802437  0.749004988  0.421475092
     0.444172613  0.749180500  0.389505817
     0.225535096  0.915999740  0.422103230
     0.086239035  0.916480641  0.532342036
     0.865389355  0.749086479  0.560081940
     0.584381983  0.749391056  0.531007772
     0.364022870  0.916207900  0.561736432
     0.231111939  0.915490957  0.677904271
     0.000077673  0.748570951  0.699690556
     0.728786461  0.748487298  0.673604429
     0.503369768  0.917020402  0.699919933
     0.807824645  0.249310996  0.247143925
     0.591839534  0.082644329  0.282367682
     0.307824645  0.082644329  0.247143925
     0.091839534  0.249310996  0.282367682
     0.944925394  0.249278629  0.389698373
     0.725984638  0.082750601  0.421695174
     0.444360078  0.082706518  0.389680038
     0.225546304  0.249416631  0.422089671
     0.086213114  0.249263187  0.532326041
     0.863922473  0.082863653  0.560827382
     0.585055510  0.082809817  0.531711629
     0.363997622  0.249399877  0.561731149
     0.231092860  0.250321606  0.677896287
     0.002739359  0.082926030  0.699693602
     0.732066551  0.082822047  0.676640387
     0.503333687  0.248570229  0.699899075
     0.807824645  0.582644329  0.247143925
     0.591839534  0.415977663  0.282367682
     0.307824645  0.415977663  0.247143925
     0.091839534  0.582644329  0.282367682
     0.946443895  0.582772630  0.389463535
     0.726838877  0.416508891  0.421465408
     0.444150116  0.416244666  0.389496715
     0.225945842  0.582709498  0.423263521
     0.089188107  0.582907753  0.532563183
     0.865477084  0.416661179  0.560046594
     0.584313763  0.416223785  0.530970212
     0.366097642  0.582819218  0.565067907
     0.234474013  0.582872289  0.678432559
     0.999922327  0.417256646  0.699723959
     0.728630038  0.417195281  0.673443408
     0.505186475  0.582794753  0.706663688
     0.488216390  0.749310996  0.217724884
     0.988216390  0.915977663  0.217724884
     0.911447789  0.915977663  0.311786723
     0.627432900  0.915977663  0.276562967
     0.772231279  0.749310996  0.252948640
     0.624275946  0.749310996  0.358619910
     0.411447789  0.749310996  0.311786723
     0.127432900  0.749310996  0.276562967
     0.272231279  0.915977663  0.252948640
     0.124275946  0.915977663  0.358619910
     0.049468933  0.916260703  0.453460822
     0.763950733  0.916030408  0.417336416
[...]
     0.265547805  0.582756753  0.500552647
[...]
   0.902E+01 -.159E+00 0.319E+04   -.109E+02 0.165E+00 -.319E+04   0.125E+00 -.952E-03 0.366E+00   0.524E-04 0.167E-03 0.350E-02
   0.186E+01 0.253E+00 0.389E+04   0.464E+01 -.253E+00 -.388E+04   -.246E+01 0.179E-01 -.532E+01   -.172E-02 0.103E-04 -.202E-02
   0.683E+01 0.233E+00 0.319E+04   -.878E+01 -.238E+00 -.319E+04   0.144E+00 0.273E-02 0.361E+00   -.680E-04 -.219E-03 0.311E-02
   0.581E+00 0.247E+00 0.144E+04   -.724E+00 -.223E+00 -.144E+04   0.129E+00 -.801E-02 -.225E+00   -.194E-04 0.351E-04 0.430E-02
   0.256E+01 -.171E+01 0.900E+03   -.266E+01 0.165E+01 -.900E+03   0.117E+00 0.541E-01 0.183E+00   -.451E-04 -.355E-04 0.370E-02
   0.259E+01 0.187E+00 0.144E+04   -.273E+01 -.210E+00 -.144E+04   0.129E+00 0.513E-01 -.231E+00   0.742E-04 -.194E-04 0.455E-02
   -.858E+01 0.120E+01 0.887E+03   0.833E+01 -.119E+01 -.888E+03   0.288E+00 -.128E-01 0.142E+00   -.731E-05 -.689E-05 0.355E-02
   -.571E+01 0.145E+00 -.939E+03   0.537E+01 -.941E-01 0.939E+03   0.328E+00 -.515E-01 -.268E+00   0.346E-03 -.165E-04 0.106E-02
   -.111E+02 0.349E+00 -.139E+04   0.107E+02 -.347E+00 0.139E+04   0.534E+00 0.210E-01 0.323E+00   -.130E-03 -.641E-04 0.120E-02
   0.302E+01 0.239E+01 -.907E+03   -.330E+01 -.236E+01 0.907E+03   0.321E+00 -.303E-02 -.139E+00   0.485E-03 0.179E-03 0.812E-03
   -.546E+01 0.302E+01 -.143E+04   0.500E+01 -.293E+01 0.143E+04   0.518E+00 -.596E-01 0.279E+00   -.119E-03 0.288E-03 0.137E-02
   0.297E+02 -.180E+01 -.324E+04   -.306E+02 0.177E+01 0.325E+04   0.878E+00 0.529E-01 -.118E+01   0.146E-02 -.387E-04 0.311E-02
   -.810E+02 -.106E+02 -.371E+04   0.783E+02 0.103E+02 0.371E+04   0.227E+01 0.253E+00 0.235E+01   -.198E-02 -.101E-03 0.391E-02
   0.139E+02 -.944E+01 -.319E+04   -.142E+02 0.943E+01 0.319E+04   0.842E+00 0.126E+00 -.890E+00   0.126E-02 -.131E-03 0.367E-02
   -.890E+02 -.349E+01 -.371E+04   0.868E+02 0.372E+01 0.371E+04   0.219E+01 -.674E-01 0.233E+01   -.137E-02 0.144E-03 0.416E-02
   0.195E+01 0.478E-01 0.389E+04   0.459E+01 -.538E-01 -.388E+04   -.247E+01 0.196E-01 -.533E+01   -.999E-03 -.194E-03 -.183E-02
   0.893E+01 0.295E-01 0.319E+04   -.109E+02 -.303E-01 -.319E+04   0.138E+00 0.142E-02 0.357E+00   -.253E-03 -.559E-04 0.288E-02
   0.166E+01 0.137E-01 0.389E+04   0.487E+01 -.145E-01 -.388E+04   -.247E+01 0.179E-01 -.533E+01   -.520E-03 0.140E-03 -.178E-02
   0.684E+01 -.180E+00 0.319E+04   -.880E+01 0.182E+00 -.319E+04   0.144E+00 0.477E-03 0.361E+00   0.681E-04 0.231E-03 0.303E-02
   0.422E+00 -.396E+00 0.144E+04   -.561E+00 0.367E+00 -.144E+04   0.133E+00 0.211E-01 -.232E+00   -.170E-04 -.117E-04 0.431E-02
   -.210E+01 0.113E-01 0.895E+03   0.188E+01 -.144E-01 -.895E+03   0.239E+00 -.300E-02 0.171E+00   -.780E-04 0.274E-04 0.353E-02
   0.269E+01 -.395E-01 0.144E+04   -.282E+01 0.364E-01 -.144E+04   0.115E+00 0.162E-01 -.263E+00   0.227E-03 0.115E-04 0.409E-02
   -.847E+01 -.100E+01 0.888E+03   0.822E+01 0.992E+00 -.888E+03   0.285E+00 -.979E-02 0.144E+00   -.209E-04 0.446E-04 0.352E-02
   -.596E+01 -.262E+00 -.939E+03   0.563E+01 0.210E+00 0.939E+03   0.323E+00 0.491E-01 -.274E+00   0.352E-03 0.536E-05 0.104E-02
   -.113E+02 0.956E-02 -.141E+04   0.108E+02 -.879E-02 0.141E+04   0.657E+00 -.584E-02 0.271E+00   -.236E-03 -.172E-04 0.119E-02
   -.115E+01 -.684E-02 -.925E+03   0.869E+00 0.517E-02 0.926E+03   0.295E+00 0.299E-02 -.198E+00   0.104E-03 -.426E-05 0.107E-02
   -.533E+01 -.308E+01 -.143E+04   0.487E+01 0.299E+01 0.143E+04   0.514E+00 0.476E-01 0.274E+00   -.108E-03 -.270E-03 0.135E-02
   0.301E+02 0.120E+01 -.324E+04   -.310E+02 -.117E+01 0.325E+04   0.883E+00 -.792E-01 -.118E+01   0.148E-02 -.521E-06 0.307E-02
   -.851E+02 -.294E+00 -.370E+04   0.829E+02 0.295E+00 0.370E+04   0.216E+01 0.530E-03 0.234E+01   -.128E-02 -.517E-04 0.363E-02
   0.191E+02 -.408E-01 -.323E+04   -.198E+02 0.455E-01 0.323E+04   0.749E+00 0.159E-01 -.112E+01   0.559E-03 -.181E-04 0.313E-02
   -.895E+02 0.369E+01 -.371E+04   0.873E+02 -.393E+01 0.371E+04   0.219E+01 0.831E-01 0.233E+01   -.134E-02 -.164E-03 0.418E-02
   0.196E+01 -.445E-02 0.389E+04   0.459E+01 0.482E-02 -.388E+04   -.247E+01 0.176E-01 -.532E+01   -.937E-03 0.556E-04 -.198E-02
   0.901E+01 0.177E+00 0.319E+04   -.109E+02 -.184E+00 -.319E+04   0.124E+00 0.348E-02 0.366E+00   -.140E-04 -.118E-03 0.363E-02
   0.186E+01 -.264E+00 0.389E+04   0.463E+01 0.264E+00 -.388E+04   -.246E+01 0.174E-01 -.532E+01   -.187E-02 -.141E-03 -.203E-02
   0.540E+01 0.186E-01 0.319E+04   -.729E+01 -.191E-01 -.319E+04   0.119E+00 0.145E-02 0.358E+00   0.473E-03 -.122E-04 0.276E-02
   0.171E+01 -.815E-01 0.143E+04   -.176E+01 0.835E-01 -.143E+04   -.275E-02 0.892E-02 -.799E-01   -.137E-03 -.235E-04 0.448E-02
   0.285E+01 0.168E+01 0.900E+03   -.295E+01 -.162E+01 -.900E+03   0.115E+00 -.601E-01 0.176E+00   -.466E-04 0.589E-05 0.366E-02
   0.243E+01 -.309E+00 0.144E+04   -.257E+01 0.330E+00 -.144E+04   0.136E+00 -.254E-01 -.214E+00   0.670E-04 0.615E-05 0.456E-02
   -.126E+02 0.988E-01 0.867E+03   0.123E+02 -.970E-01 -.867E+03   0.268E+00 -.103E-01 0.112E+00   0.259E-04 -.371E-04 0.353E-02
   -.168E+01 -.364E-01 -.947E+03   0.153E+01 0.387E-01 0.947E+03   0.329E-01 0.803E-04 -.156E+00   0.877E-04 0.113E-04 0.881E-03
   -.109E+02 -.525E+00 -.139E+04   0.104E+02 0.522E+00 0.139E+04   0.531E+00 -.169E-01 0.323E+00   -.123E-03 0.845E-04 0.116E-02
   0.294E+01 -.235E+01 -.907E+03   -.322E+01 0.233E+01 0.907E+03   0.329E+00 -.133E-01 -.136E+00   0.434E-03 -.173E-03 0.796E-03
   -.109E+02 0.249E+00 -.148E+04   0.104E+02 -.244E+00 0.148E+04   0.452E+00 0.852E-02 0.305E+00   -.199E-03 -.197E-04 0.263E-03
   0.352E+02 0.121E+00 -.326E+04   -.363E+02 -.123E+00 0.326E+04   0.643E+00 0.149E-01 -.932E+00   0.772E-04 0.381E-04 0.256E-02
   -.805E+02 0.111E+02 -.371E+04   0.778E+02 -.108E+02 0.371E+04   0.228E+01 -.252E+00 0.236E+01   -.199E-02 0.159E-03 0.395E-02
   0.131E+02 0.100E+02 -.319E+04   -.133E+02 -.100E+02 0.319E+04   0.864E+00 -.107E+00 -.858E+00   0.124E-02 0.157E-03 0.369E-02
   -.104E+03 -.988E-02 -.382E+04   0.101E+03 0.259E-01 0.381E+04   0.277E+01 0.178E-01 0.387E+01   0.128E-02 0.202E-04 0.597E-02
   -.396E+02 0.482E-02 0.221E+04   0.454E+02 -.232E-02 -.223E+04   -.769E+01 -.172E-02 0.173E+02   -.186E-03 0.145E-05 -.105E-02
   -.399E+02 0.550E-02 0.221E+04   0.457E+02 -.542E-02 -.223E+04   -.768E+01 0.121E-02 0.173E+02   0.107E-02 -.847E-04 -.104E-02
   0.950E+02 0.193E+00 0.132E+04   -.990E+02 -.217E+00 -.131E+04   0.311E+01 0.229E-01 -.482E+01   0.111E-02 0.388E-04 0.199E-02
   0.891E+02 -.358E-01 0.161E+04   -.963E+02 0.420E-01 -.161E+04   0.771E+01 -.176E-01 -.279E+01   -.532E-03 0.614E-03 0.122E-02
   -.100E+03 -.641E-01 0.187E+04   0.108E+03 0.665E-01 -.187E+04   -.716E+01 -.913E-02 -.104E+01   -.101E-02 -.939E-04 -.862E-04
   -.794E+02 -.754E+00 0.102E+04   0.852E+02 0.781E+00 -.102E+04   -.597E+01 -.208E-01 0.436E+01   0.354E-03 0.500E-04 0.224E-02
   0.957E+02 0.190E+00 0.131E+04   -.997E+02 -.178E+00 -.131E+04   0.306E+01 -.134E-01 -.464E+01   0.202E-03 -.197E-05 0.120E-02
   0.879E+02 0.131E+00 0.161E+04   -.951E+02 -.137E+00 -.161E+04   0.774E+01 0.780E-02 -.281E+01   0.417E-03 0.482E-04 0.769E-03
   -.101E+03 0.758E-01 0.187E+04   0.108E+03 -.688E-01 -.187E+04   -.713E+01 -.148E-01 -.105E+01   -.137E-02 -.192E-02 -.194E-04
   -.854E+02 0.556E+00 0.102E+04   0.914E+02 -.577E+00 -.102E+04   -.610E+01 0.196E-01 0.454E+01   0.136E-03 -.188E-04 0.191E-02
   0.917E+02 -.216E+00 0.124E+03   -.982E+02 0.229E+00 -.120E+03   0.664E+01 -.108E-01 -.485E+01   0.491E-03 -.104E-04 0.131E-02
   0.940E+02 0.289E+00 0.446E+03   -.101E+03 -.354E+00 -.443E+03   0.672E+01 0.627E-01 -.306E+01   -.266E-03 -.499E-05 0.202E-02
[...]
   0.999E+02 -.394E-01 -.108E+04   -.107E+03 0.478E-01 0.109E+04   0.725E+01 -.104E-01 -.661E+01   -.231E-03 0.572E-05 -.138E-03
   0.843E+02 -.197E+00 -.720E+03   -.903E+02 0.206E+00 0.723E+03   0.615E+01 -.599E-02 -.330E+01   0.308E-03 0.142E-04 0.425E-03
   -.948E+02 -.336E+00 -.454E+03   0.101E+03 0.227E+00 0.451E+03   -.657E+01 0.122E+00 0.279E+01   0.193E-03 0.179E-03 0.549E-03
   -.669E+02 0.802E+01 -.123E+04   0.702E+02 -.869E+01 0.123E+04   -.339E+01 0.672E+00 0.885E+01   0.936E-04 0.584E-04 0.122E-02
   0.953E+02 0.102E+02 -.104E+04   -.101E+03 -.110E+02 0.105E+04   0.614E+01 0.816E+00 -.528E+01   -.125E-03 -.336E-04 0.130E-03
   0.908E+02 -.933E+00 -.736E+03   -.971E+02 0.776E+00 0.740E+03   0.640E+01 0.204E+00 -.335E+01   0.164E-03 -.115E-03 0.381E-03
   -.856E+02 -.631E-01 -.463E+03   0.919E+02 0.664E-01 0.461E+03   -.645E+01 -.532E-02 0.241E+01   0.925E-04 -.428E-05 0.475E-03
   -.806E+02 -.468E+00 -.128E+04   0.854E+02 0.508E+00 0.127E+04   -.461E+01 -.446E-01 0.863E+01   0.790E-03 0.374E-05 0.168E-02
   0.737E+02 0.126E+00 -.224E+04   -.800E+02 -.122E+00 0.226E+04   0.684E+01 -.646E-02 -.194E+02   0.183E-02 0.285E-05 0.313E-02
   0.647E+02 0.529E-01 -.196E+04   -.689E+02 -.539E-01 0.197E+04   0.435E+01 0.435E-02 -.764E+01   -.657E-03 0.311E-05 0.222E-02
   -.632E+02 0.748E+00 -.160E+04   0.679E+02 -.765E+00 0.160E+04   -.468E+01 0.923E-01 0.317E+01   0.211E-03 -.647E-03 0.137E-02
   0.640E+02 -.668E+01 -.223E+04   -.699E+02 0.784E+01 0.225E+04   0.618E+01 -.131E+01 -.204E+02   -.354E-04 0.361E-03 0.293E-02
   0.664E+02 0.216E+01 -.195E+04   -.710E+02 -.278E+01 0.196E+04   0.444E+01 0.114E+01 -.596E+01   -.238E-03 0.772E-03 0.272E-02
   -.502E+02 0.187E-01 -.153E+04   0.544E+02 -.271E-01 0.153E+04   -.466E+01 0.928E-02 0.648E+01   -.525E-03 -.567E-05 0.206E-02
   -.468E+01 0.275E-01 0.687E+02   -.355E-12 -.458E-12 0.102E-10   0.465E+01 0.461E-01 -.690E+02   -.326E-02 -.553E-05 0.226E+00

 POSITION                                       TOTAL-FORCE (eV/Angst)
      8.29939     10.41358      6.17860         4.073837      0.021200      1.834896
      6.08041      8.51877      7.05919        -1.770689      0.004448     -2.075961
      3.16252      8.51877      6.17860         4.039128      0.017190      1.810150
      0.94354     10.41358      7.05919        -1.813979     -0.002491     -2.078786
      9.70823     10.41653      9.74251        -0.014216      0.015914     -0.060477
      7.46699      8.51530     10.53688         0.016750     -0.006604      0.065363
      4.56332      8.51729      9.73765        -0.011947      0.028032     -0.067837
      2.31709     10.41383     10.55258         0.038773     -0.005459      0.011789
      0.88600     10.41929     13.30855        -0.009031     -0.001028     -0.033087
      8.89080      8.51622     14.00205         0.081157      0.022692      0.194779
      6.00380      8.51968     13.27519         0.041403      0.022102     -0.011519
      3.73988     10.41619     14.04341         0.058741      0.027775      0.095493
      2.37439     10.40804     16.94761        -0.004532      0.021602      0.127883
      0.00080      8.51036     17.49226        -0.413541     -0.042718      0.305330
      7.48737      8.50941     16.84011         0.551883      0.109950      0.553648
      5.17150     10.42543     17.49800        -0.069001      0.163176      0.092034
      8.29939      2.83437      6.17860         4.073223      0.012883      1.834105
      6.08041      0.93957      7.05919        -1.796664      0.000031     -2.071336
      3.16252      0.93957      6.17860         4.065184      0.016721      1.827816
      0.94354      2.83437      7.05919        -1.813414      0.002411     -2.078633
      9.70793      2.83400      9.74246        -0.006971     -0.008926     -0.066294
      7.45859      0.94078     10.54238         0.017624     -0.006610      0.056652
      4.56525      0.94027      9.74200        -0.010384      0.012669     -0.060480
      2.31721      2.83557     10.55224         0.034755     -0.018383      0.015607
      0.88573      2.83383     13.30815        -0.014363     -0.004238     -0.040493
      8.87573      0.94206     14.02068         0.075481     -0.005601      0.104569
      6.01072      0.94145     13.29279         0.012231      0.000807     -0.036284
      3.73962      2.83538     14.04328         0.052664     -0.043492      0.089368
      2.37419      2.84586     16.94741        -0.005584     -0.050323      0.121226
      0.02814      0.94277     17.49234        -0.093910      0.001085      0.149293
      7.52107      0.94159     16.91601         0.128171      0.020123      0.161675
      5.17113      2.82595     17.49748        -0.074926     -0.156021      0.078246
      8.29939      6.62397      6.17860         4.078213      0.017515      1.824966
      6.08041      4.72917      7.05919        -1.769120     -0.003657     -2.075732
      3.16252      4.72917      6.17860         4.038152      0.017374      1.808990
      0.94354      6.62397      7.05919        -1.780156      0.000357     -2.021739
      9.72353      6.62543      9.73659        -0.049414      0.010349     -0.057775
      7.46737      4.73521     10.53664         0.017274      0.002181      0.059189
      4.56309      4.73221      9.73742        -0.003664     -0.004899     -0.051533
      2.32131      6.62471     10.58159         0.023958     -0.009085     -0.041549
      0.91630      6.62697     13.31408        -0.110112      0.001871     -0.074411
      8.89170      4.73694     14.00116         0.083144     -0.020672      0.192401
      6.00310      4.73197     13.27426         0.054568     -0.038524     -0.012264
      3.76120      6.62596     14.12670        -0.016047      0.012333     -0.226598
      2.40893      6.62656     16.96081        -0.414324      0.012375      0.000614
     10.27296      4.74371     17.49310        -0.437147      0.050141      0.307169
      7.48577      4.74301     16.83609         0.592594     -0.085697      0.594494
      5.19016      6.62568     17.66659        -0.751011      0.033371     -1.776040
      5.01582      8.51877      5.44312        -1.959949      0.000684      1.288868
     10.15269     10.41358      5.44312        -1.952693      0.001140      1.282447
      9.36399     10.41358      7.79467        -0.880991     -0.000493     -0.222153
      6.44609     10.41358      6.91407         0.529293     -0.011174     -0.139586
      7.93372      8.51877      6.32372         0.131294     -0.007027     -1.121889
      6.41366      8.51877      8.96550        -0.195646      0.005983      0.461278
      4.22711      8.51877      7.79467        -0.892398     -0.002176     -0.210140
      1.30921      8.51877      6.91407         0.541471      0.001015     -0.146704
      2.79684     10.41358      6.32372         0.143207     -0.010051     -1.122851
      1.27678     10.41358      8.96550        -0.104637     -0.001374      0.541217
      0.50823     10.41679     11.33652         0.128396      0.001916     -0.049593
      7.84864     10.41418     10.43341         0.115154     -0.001955     -0.049537
[...]
      2.72817      6.62525     12.51382        -0.081695      0.002822      0.127482
      1.98527      6.62686     14.90732         0.224349     -0.002213      0.032949
      9.29033      6.62630     13.95045         0.147895      0.002662     -0.051879
      0.52926      4.73423     13.38365        -0.118976      0.014558      0.035589
      9.38611      4.71719     15.95241        -0.194929      0.010117     -0.067519
      7.13042      4.70139     14.84234         0.048089      0.030035     -0.091238
      4.15814      4.73323     13.99082         0.097178      0.048060     -0.038772
      5.65798      6.62575     13.40584        -0.172177     -0.002118      0.064726
      4.24724      6.62769     16.06170         0.160605     -0.005500      0.738454
      3.54223      6.62603     18.44083         0.555398     -0.002000     -0.080635
      0.52923      6.62674     17.72076         0.263867      0.003215     -0.145167
      1.99958      4.73727     16.95421        -0.006938      0.075204      0.075471
      8.63898      4.80105     18.34066         0.319711     -0.159395     -0.819041
      5.69352      4.71342     17.70097        -0.053287      0.536327      0.251329
      7.11547      6.62677     16.79316        -0.474897      0.000727      0.542801
    total drift:                               -0.027834      0.073596     -0.077060

  FREE ENERGIE OF THE ION-ELECTRON SYSTEM (eV)
  free  energy   TOTEN  =     -1662.22985867 eV

  energy  without entropy=    -1662.22985867  energy(sigma->0) =    -1662.22985867

     |            E. Caldeweyher, S. Ehlert & S. Grimme          |
     |          Mulliken Center for Theoretical Chemistry        |
     |                    University of Bonn                     |

Rational (Becke-Johnson) damping: r2scan-D4-ATM
  s6         1.0000
  s8         0.6019
  s9         1.0000
  a1         0.5156
  a2         5.7734
 alp        16.0000

Dispersion energy:      -3.3067113034809E-01 Eh