 vasp.6.3.0 20Jan22 (build Aug 21 2024 11:13:42) complex
 executed on        HPECrayEX_GCC date 2024.11.26  16:31:50

 INCAR:
   SYSTEM = TiO2
   ISMEAR = 0
   SIGMA = 0.05
   EDIFF = 1E-4
   ALGO = ALL
   ISTART = 0
   IBRION = -1
   NSW = 0
   ISYM = 0
   ISIF = 2
   EDIFFG = -0.01
   DIPOL = 0.5 0.5 0.5
   IDIPOL = 3
   LDIPOL = .TRUE.
   GGA = PE
   IVDW = 21
   ENCUT = 600
   PREC = Accurate
   LASPH = .TRUE.
   LREAL = .FALSE.
   ISPIN = 1
   NELM = 200
   NELMIN = 8
   NCORE = 2
   KPAR = 1
   LWAVE = .FALSE.
   LCHARG = .FALSE.

 POTCAR:    PAW_PBE Ti_pv 07Sep2000
 POTCAR:    PAW_PBE O 08Apr2002
 POTCAR:    PAW_PBE Ti_pv 07Sep2000
   VRHFIN =Ti: d3 s1

   TITEL  = PAW_PBE Ti_pv 07Sep2000
   POMASS =   47.880; ZVAL   =   10.000    mass and valenz
   ENMAX  =  222.335; ENMIN  =  166.751 eV

   TITEL  = PAW_PBE O 08Apr2002
   POMASS =   16.000; ZVAL   =    6.000    mass and valenz
   ENMAX  =  400.000; ENMIN  =  300.000 eV

  PAW_PBE Ti_pv 07Sep2000               :
  PAW_PBE O 08Apr2002                   :

 POSCAR: Ti  O
  positions in direct lattice
 exchange correlation table for  LEXCH =        8
   RHO(1)=    0.500       N(1)  =     2000
   RHO(2)=  100.500       N(2)  =     4000

 ion  position               nearest neighbor table
   1  0.750  0.625  0.287-  81 1.95 141 1.95  82 1.95 142 1.95 163 1.98  84 1.98  11 2.96  31 2.96

   2  0.000  0.750  0.287-  84 1.95 104 1.95 103 1.95  83 1.95  85 1.98  32 2.96  12 2.96
   3  0.000  0.625  0.394-  85 1.95 145 1.95  86 1.95 146 1.95  87 1.98  88 1.98  13 2.96  33 2.96

[...]

  80  0.502  0.499  0.712- 234 1.89 240 1.93 180 1.94 239 1.96 179 1.98  70 2.96  50 2.97
  81  0.750  0.750  0.245-   1 1.95  11 1.95
  82  0.750  0.750  0.329-   1 1.95  11 1.95   4 1.98
  83  0.098  0.625  0.287-   2 1.95  32 1.95  41 1.98
  84  0.902  0.625  0.287-   2 1.95  32 1.95   1 1.98
  85  0.000  0.750  0.352-   3 1.95  13 1.95   2 1.98
  86  0.000  0.750  0.435-   3 1.95  13 1.95   6 1.98
  87  0.848  0.625  0.394-   4 1.95  34 1.95   3 1.98
  88  0.152  0.625  0.394-  44 1.95  74 1.95   3 1.98
  89  0.750  0.750  0.458-   5 1.95  15 1.95   4 1.98
  90  0.750  0.750  0.542-   5 1.95  15 1.95   8 2.10
  91  0.098  0.625  0.500-   6 1.95  36 1.95  45 1.98
  92  0.902  0.625  0.500-   6 1.95  36 1.95   5 1.98
  93  0.001  0.750  0.565-  17 1.90   7 1.90   6 2.00
  94  0.000  0.750  0.649-  10 1.81   7 2.02  17 2.02
  95  0.851  0.625  0.607-   8 1.93  38 1.93   7 2.03
  96  0.151  0.625  0.607-   7 1.87  48 2.02  78 2.02
  97  0.754  0.751  0.671-   8 1.87   9 2.08  19 2.09
  98  0.750  0.749  0.756-   9 1.83  19 1.84
  99  0.095  0.625  0.719-  40 1.94  10 1.95  49 2.03
 100  0.907  0.624  0.720-  40 1.95  10 1.96   9 2.02
 101  0.750  0.000  0.245-  11 1.95  21 1.95
 102  0.750  0.000  0.329-  11 1.95  21 1.95  14 1.98
 103  0.098  0.875  0.287-   2 1.95  12 1.95  51 1.98
 104  0.902  0.875  0.287-   2 1.95  12 1.95  11 1.98
 105  0.000  0.000  0.352-  13 1.95  23 1.95  12 1.98
 106  0.000  0.000  0.435-  13 1.95  23 1.95  16 1.98
 107  0.848  0.875  0.394-   4 1.95  14 1.95  13 1.98
 108  0.152  0.875  0.394-  44 1.95  54 1.95  13 1.98
 109  0.750  0.000  0.458-  15 1.95  25 1.95  14 1.98
 110  0.750  0.000  0.542-  15 1.95  25 1.95  18 2.10
 111  0.098  0.875  0.500-   6 1.95  16 1.95  55 1.98
 112  0.902  0.875  0.500-   6 1.95  16 1.95  15 1.98
 113  0.001  1.000  0.565-  27 1.90  17 1.90  16 2.00
 114  0.000  1.000  0.649-  20 1.81  17 2.02  27 2.02
 115  0.851  0.875  0.607-  18 1.93   8 1.93  17 2.04
 116  0.151  0.875  0.607-  17 1.87  48 2.02  58 2.02
 117  0.752  1.000  0.672-  18 1.87  29 2.09  19 2.09
 118  0.751  1.000  0.756-  29 1.83  19 1.84
 119  0.095  0.875  0.718-  10 1.94  20 1.95  59 2.04
 120  0.907  0.875  0.719-  10 1.94  20 1.95  19 2.04
 121  0.750  0.250  0.245-  21 1.95  31 1.95
 122  0.750  0.250  0.329-  21 1.95  31 1.95  24 1.98
 123  0.098  0.125  0.287-  12 1.95  22 1.95  61 1.98
 124  0.902  0.125  0.287-  12 1.95  22 1.95  21 1.98
 125  0.000  0.250  0.352-  23 1.95  33 1.95  22 1.98
 126  0.000  0.250  0.435-  23 1.95  33 1.95  26 1.98
 127  0.848  0.125  0.394-  14 1.95  24 1.95  23 1.98
 128  0.152  0.125  0.394-  54 1.95  64 1.95  23 1.98
 129  0.750  0.250  0.458-  25 1.95  35 1.95  24 1.98
 130  0.750  0.250  0.542-  25 1.95  35 1.95  28 2.09
 131  0.098  0.125  0.500-  16 1.95  26 1.95  65 1.98
 132  0.902  0.125  0.500-  16 1.95  26 1.95  25 1.98
 133  0.001  0.250  0.565-  27 1.90  37 1.90  26 2.00
 134  0.000  0.250  0.649-  30 1.81  37 2.02  27 2.02
 135  0.851  0.125  0.607-  28 1.93  18 1.93  27 2.04
 136  0.151  0.125  0.607-  27 1.87  58 2.02  68 2.02
 137  0.754  0.250  0.671-  28 1.87  39 2.07  29 2.10
 138  0.750  0.251  0.755-  39 1.83  29 1.84
 139  0.095  0.125  0.719-  30 1.94  20 1.95  69 2.04
[...]
 226  0.500  0.500  0.435-  43 1.95  73 1.95  76 1.98
 227  0.348  0.375  0.394-  64 1.95  74 1.95  73 1.98
 228  0.652  0.375  0.394-  24 1.95  34 1.95  73 1.98
 229  0.250  0.500  0.458-  45 1.95  75 1.95  74 1.98
 230  0.250  0.500  0.542-  45 1.95  75 1.95  78 2.11
 231  0.598  0.375  0.500-  66 1.95  76 1.95  35 1.98
 232  0.402  0.375  0.500-  66 1.95  76 1.95  75 1.98
 233  0.501  0.500  0.566-  47 1.90  77 1.90  76 2.00
 234  0.500  0.500  0.650-  80 1.89  47 1.99  77 1.99
 235  0.351  0.375  0.607-  68 1.92  78 1.92  77 2.04
 236  0.651  0.375  0.608-  77 1.87  28 2.02  38 2.02
 237  0.251  0.500  0.672-  78 1.86  49 2.09  79 2.10
 238  0.252  0.500  0.756-  79 1.84  49 1.84
 239  0.598  0.372  0.714-  70 1.92  80 1.96  39 2.02
 240  0.407  0.374  0.718-  80 1.93  70 1.94  79 2.03

IMPORTANT INFORMATION: All symmetrisations will be switched off!
NOSYMM: (Re-)initialisation of all symmetry stuff for point group C_1.

                                     Primitive cell

  volume of cell :    4700.2642

  direct lattice vectors                    reciprocal lattice vectors
    13.003962940  0.000000000  0.000000000     0.076899635  0.000000000  0.000000000
     0.000000000 11.830322230  0.000000000     0.000000000  0.084528551  0.000000000
     0.000000000  0.000000000 30.552726600     0.000000000  0.000000000  0.032730303

  length of vectors
    13.003962940 11.830322230 30.552726600     0.076899635  0.084528551  0.032730303

  position of ions in fractional coordinates (direct lattice)
     0.750000000  0.625000000  0.287188176
     0.000000000  0.750000000  0.287188176
     0.000000000  0.625000000  0.393594088
     0.750000000  0.750000000  0.393594088
     0.750000000  0.625000000  0.500000000
     0.000000000  0.750000000  0.500000000
     0.007507478  0.625044791  0.604034431
     0.756622165  0.750135588  0.610255783
     0.751837429  0.625660325  0.719233261
     0.000895964  0.750260863  0.708165998
     0.750000000  0.875000000  0.287188176
     0.000000000  0.000000000  0.287188176
     0.000000000  0.875000000  0.393594088
     0.750000000  0.000000000  0.393594088
     0.750000000  0.875000000  0.500000000
     0.000000000  0.000000000  0.500000000
     0.007490079  0.875012406  0.604125507
     0.755855553  0.999969567  0.610537310
     0.750576879  0.874897620  0.720206233
     0.001045219  0.999909588  0.708124905
     0.750000000  0.125000000  0.287188176
     0.000000000  0.250000000  0.287188176
     0.000000000  0.125000000  0.393594088
     0.750000000  0.250000000  0.393594088
     0.750000000  0.125000000  0.500000000
     0.000000000  0.250000000  0.500000000
     0.007403812  0.124921853  0.604081969
     0.756462270  0.249840398  0.610225353
     0.750511466  0.124247815  0.720174965
     0.001018462  0.249571608  0.708143291
     0.750000000  0.375000000  0.287188176
     0.000000000  0.500000000  0.287188176
     0.000000000  0.375000000  0.393594088
     0.750000000  0.500000000  0.393594088
     0.750000000  0.375000000  0.500000000
     0.000000000  0.500000000  0.500000000
     0.007585273  0.374952221  0.604037452
     0.756937476  0.499924534  0.610398616
     0.752354854  0.373442988  0.719256686
     0.001773998  0.500037448  0.708101361
     0.250000000  0.625000000  0.287188176
     0.500000000  0.750000000  0.287188176
     0.500000000  0.625000000  0.393594088
     0.250000000  0.750000000  0.393594088
     0.250000000  0.625000000  0.500000000
     0.500000000  0.750000000  0.500000000
     0.507796463  0.622929741  0.605192151
     0.256582397  0.749882420  0.610528349
     0.251398451  0.625144596  0.720256794
     0.501602825  0.750040791  0.706999744
     0.250000000  0.875000000  0.287188176
     0.500000000  0.000000000  0.287188176
     0.500000000  0.875000000  0.393594088
     0.250000000  0.000000000  0.393594088
     0.250000000  0.875000000  0.500000000
     0.500000000  0.000000000  0.500000000
     0.507266277  0.874112881  0.603157904
     0.256199941  0.999976362  0.610572895
     0.251842741  0.875035261  0.720261637
     0.500368741  0.999907999  0.707188338
[...]
     0.500000000  0.500000000  0.435304992
     0.347999497  0.375000000  0.393594088
     0.652000503  0.375000000  0.393594088
     0.250000000  0.500000000  0.458289097
     0.250000000  0.500000000  0.541710903
     0.597999497  0.375000000  0.500000000
     0.402000503  0.375000000  0.500000000
     0.501286422  0.499784043  0.565537968
     0.499916940  0.500419197  0.649579376
     0.350539278  0.374989362  0.607089948
     0.651492392  0.375004268  0.607669629
     0.251402374  0.500368733  0.671614860
     0.252415554  0.499890376  0.755773059
     0.597690215  0.371519145  0.713985628
     0.407479946  0.373951130  0.717879177

  ion indices of the primitive-cell ions
   primitive index   ion index
                 1           1
                 2           2
                 3           3
                 4           4
                 5           5
                 6           6
                 7           7
                 8           8
                 9           9
                10          10
                11          11
                12          12
                13          13
                14          14
                15          15
                16          16
                17          17
                18          18
                19          19
                20          20
                21          21
                22          22
                23          23
                24          24
                25          25
                26          26
                27          27
                28          28
                29          29
                30          30
                31          31
                32          32
                33          33
                34          34
                35          35
                36          36
                37          37
                38          38
                39          39
                40          40
                41          41
                42          42
                43          43
                44          44
                45          45
                46          46
                47          47
                48          48
                49          49
                50          50
                51          51
[...]
   O          53.583          3.923         10.008          1.85332159
   O          53.314          3.920          9.983          1.84866614
   O          53.000          3.916          9.953          1.84320657
   O          52.478          3.909          9.904          1.83411015
   O          53.189          3.918          9.971          1.84649300
   O          53.058          3.916          9.959          1.84421692
   O          53.729          3.925         10.022          1.85584708
   O          36.702          3.683          8.283          1.53384508
   O          52.952          3.915          9.949          1.84237661
   O          52.300          3.907          9.887          1.83100041

  vdW correction parametrized for the method pbe

  IVDW =  21
  VDW_RADIUS =    50.000 A
  VDW_IDAMPF =  0
  VDW_S6 =     1.000
  VDW_SR =     0.950
  VDW_D =    20.000
  LVDW_ONECELL = F F F
  LVDW_SAMETYPE T T
  LVDW_EWALD = F

  Number of pair interactions contributing to vdW energy: 3260527
  Edisp (eV):  -34.96732

  FORCE on cell =-STRESS in cart. coord.  units (eV):
  Direction    XX          YY          ZZ          XY          YZ          ZX
  Alpha Z  4654.23472  4654.23472  4654.23472
  Ewald  982843.96564************************    -3.16264     0.70501   -14.84351
  Hartree************************************    -1.34543     0.50626   -11.01943
  E(xc)   -8594.84821 -8576.71962 -8604.39776    -0.00546     0.00163    -0.02994
  Local  ************************************     4.50515    -1.16982    27.18820
  n-local -5401.32648 -5325.37599 -5446.88279    -0.06673     0.04023    -0.32080
  augment  5219.34514  5201.84197  5223.12246    -0.02320    -0.01326    -0.33756
  Kinetic 28620.10493 28147.74227 28667.13770     0.03212     0.02714    -0.14961
  Fock        0.00000     0.00000     0.00000     0.00000     0.00000     0.00000
  vdW       -50.71101   -28.96328   -43.07561     0.00095     0.00229     0.08407
  Total      44.70469     9.86667    -7.66100    -0.06524     0.09948     0.57142
  in kB      15.23847     3.36325    -2.61140    -0.02224     0.03391     0.19478

 VOLUME and BASIS-vectors are now :
  energy-cutoff  :      600.00
  volume of cell :     4700.26
      direct lattice vectors                 reciprocal lattice vectors
    13.003962940  0.000000000  0.000000000     0.076899635  0.000000000  0.000000000
     0.000000000 11.830322230  0.000000000     0.000000000  0.084528551  0.000000000
     0.000000000  0.000000000 30.552726600     0.000000000  0.000000000  0.032730303

  length of vectors
    13.003962940 11.830322230 30.552726600     0.076899635  0.084528551  0.032730303

 FORCES acting on ions:
    Electron-Ion                     Ewald-Force                    Non-Local-Force
   0.117E-01 0.248E-01 0.380E+04   -.134E-01 -.246E-01 -.380E+04   0.519E-03 -.108E-04 0.437E+00
   -.195E-01 0.208E-01 0.398E+04   0.203E-01 -.208E-01 -.397E+04   -.144E-03 -.228E-05 -.389E+01
   -.519E-01 0.498E-01 0.193E+04   0.557E-01 -.499E-01 -.193E+04   -.748E-03 0.121E-03 -.434E-01
   -.428E-01 0.164E+00 0.192E+04   0.378E-01 -.163E+00 -.192E+04   0.163E-02 -.509E-04 0.207E+00
   0.151E+00 0.574E+00 -.191E+02   -.169E+00 -.589E+00 0.198E+02   0.566E-02 0.857E-03 -.128E+00
   0.213E+01 0.533E-03 -.785E+01   -.213E+01 0.450E-02 0.682E+01   -.221E-02 -.281E-02 0.334E+00
   0.154E+02 0.284E+00 -.190E+04   -.157E+02 -.281E+00 0.190E+04   0.569E-01 -.669E-02 0.527E-01
   0.107E+02 -.982E+00 -.196E+04   -.107E+02 0.101E+01 0.196E+04   -.540E-01 -.121E-01 -.982E-01
   -.130E+02 0.144E+02 -.380E+04   0.130E+02 -.150E+02 0.380E+04   0.124E+00 0.101E+00 -.152E+00
   -.875E+00 0.477E+01 -.381E+04   0.830E+00 -.481E+01 0.381E+04   -.233E-01 -.401E-02 0.904E+00
   -.515E-02 0.205E-01 0.380E+04   0.315E-02 -.204E-01 -.380E+04   0.618E-03 0.202E-05 0.437E+00
   -.184E-01 -.210E-02 0.398E+04   0.192E-01 0.206E-02 -.397E+04   -.160E-03 0.631E-05 -.389E+01
   -.325E-01 0.371E-01 0.193E+04   0.363E-01 -.377E-01 -.193E+04   -.718E-03 0.969E-04 -.435E-01
   -.156E+00 -.137E-01 0.192E+04   0.151E+00 0.133E-01 -.192E+04   0.169E-02 0.770E-05 0.207E+00
   -.150E+01 0.228E+00 -.186E+02   0.150E+01 -.204E+00 0.194E+02   0.529E-02 -.855E-03 -.132E+00
   0.233E+01 -.274E-01 -.819E+01   -.234E+01 0.233E-01 0.716E+01   -.103E-02 0.166E-02 0.333E+00
   0.178E+02 0.342E+00 -.190E+04   -.180E+02 -.345E+00 0.190E+04   0.532E-01 -.490E-02 0.629E-01
   0.964E+01 0.794E-01 -.197E+04   -.964E+01 -.814E-01 0.197E+04   -.581E-01 -.181E-02 -.972E-01
   0.112E+00 -.852E+00 -.380E+04   -.792E-01 0.718E+00 0.380E+04   0.294E-01 0.200E-01 -.171E+00
   -.203E+01 0.170E+00 -.381E+04   0.196E+01 -.182E+00 0.381E+04   0.317E-01 0.422E-03 0.947E+00
   -.379E-02 -.248E-01 0.380E+04   0.180E-02 0.245E-01 -.380E+04   0.600E-03 0.409E-04 0.437E+00
   -.198E-01 -.209E-01 0.398E+04   0.207E-01 0.208E-01 -.397E+04   -.170E-03 0.221E-05 -.389E+01
   -.339E-01 -.462E-01 0.193E+04   0.378E-01 0.464E-01 -.193E+04   -.765E-03 -.124E-03 -.434E-01
   -.239E-01 -.165E+00 0.192E+04   0.192E-01 0.164E+00 -.192E+04   0.154E-02 0.317E-04 0.207E+00
   -.144E+01 -.295E+00 -.186E+02   0.143E+01 0.263E+00 0.194E+02   0.589E-02 0.175E-02 -.131E+00
   0.211E+01 -.235E-01 -.780E+01   -.211E+01 0.208E-01 0.676E+01   -.183E-02 0.219E-02 0.335E+00
   0.184E+02 -.375E+00 -.190E+04   -.186E+02 0.373E+00 0.190E+04   0.547E-01 0.608E-02 0.600E-01
   0.104E+02 0.864E+00 -.196E+04   -.103E+02 -.894E+00 0.196E+04   -.579E-01 0.111E-01 -.102E+00
   0.259E+00 -.151E+01 -.380E+04   -.187E+00 0.161E+01 0.380E+04   0.201E-01 -.274E-01 -.161E+00
   -.266E+00 -.484E+01 -.381E+04   0.208E+00 0.489E+01 0.381E+04   -.149E-01 0.780E-03 0.902E+00
   0.131E-01 -.205E-01 0.380E+04   -.148E-01 0.205E-01 -.380E+04   0.503E-03 -.175E-04 0.437E+00
   -.209E-01 0.215E-02 0.398E+04   0.217E-01 -.210E-02 -.397E+04   -.148E-03 -.759E-06 -.389E+01
   -.536E-01 -.407E-01 0.193E+04   0.575E-01 0.411E-01 -.193E+04   -.774E-03 -.129E-03 -.434E-01
   0.869E-01 0.146E-01 0.192E+04   -.908E-01 -.142E-01 -.192E+04   0.122E-02 -.230E-04 0.207E+00
   0.256E+00 -.502E+00 -.191E+02   -.276E+00 0.525E+00 0.199E+02   0.580E-02 -.128E-02 -.127E+00
   0.211E+01 0.154E-01 -.756E+01   -.211E+01 -.146E-01 0.652E+01   -.372E-02 -.112E-03 0.333E+00
   0.162E+02 -.138E+00 -.190E+04   -.164E+02 0.141E+00 0.190E+04   0.566E-01 0.390E-02 0.573E-01
   0.125E+02 -.218E+00 -.196E+04   -.124E+02 0.228E+00 0.196E+04   -.111E+00 -.440E-02 -.945E-01
   -.113E+02 -.168E+02 -.380E+04   0.115E+02 0.175E+02 0.380E+04   0.588E-01 -.136E+00 -.148E+00
   -.237E+00 0.291E+00 -.381E+04   0.629E-01 -.279E+00 0.381E+04   0.702E-01 -.690E-03 0.846E+00
   -.179E-01 0.269E-01 0.380E+04   0.196E-01 -.267E-01 -.380E+04   -.421E-03 -.227E-04 0.437E+00
   0.258E-01 0.469E-01 0.398E+04   -.265E-01 -.466E-01 -.397E+04   0.133E-03 -.653E-04 -.389E+01
   0.199E+00 0.267E+00 0.193E+04   -.202E+00 -.252E+00 -.193E+04   0.195E-03 -.301E-02 -.440E-01
   -.980E-01 0.192E+00 0.192E+04   0.102E+00 -.191E+00 -.192E+04   -.464E-03 -.904E-04 0.205E+00
   -.178E+01 0.696E+00 -.204E+02   0.180E+01 -.704E+00 0.212E+02   -.313E-02 0.384E-03 -.138E+00
   0.335E+01 0.229E+01 -.740E+01   -.337E+01 -.236E+01 0.648E+01   -.803E-03 0.370E-01 0.283E+00
   0.196E+02 -.508E+01 -.191E+04   -.198E+02 0.547E+01 0.191E+04   0.450E-01 -.139E+00 0.858E-01
   0.114E+02 -.439E+00 -.197E+04   -.115E+02 0.465E+00 0.197E+04   -.247E-01 0.354E-02 -.862E-01
   -.868E+00 0.146E+01 -.379E+04   0.559E+00 -.140E+01 0.379E+04   0.139E+00 0.553E-02 -.180E+00
   0.101E+02 -.533E+01 -.380E+04   -.998E+01 0.575E+01 0.380E+04   -.157E+00 -.981E-01 0.957E+00
   -.116E-02 0.223E-01 0.380E+04   0.308E-02 -.221E-01 -.380E+04   -.543E-03 -.266E-04 0.437E+00
   0.248E-01 -.427E-02 0.398E+04   -.255E-01 0.420E-02 -.397E+04   0.146E-03 0.222E-05 -.389E+01
   0.181E+00 0.219E+00 0.193E+04   -.184E+00 -.216E+00 -.193E+04   0.320E-03 -.151E-02 -.445E-01
   0.135E-01 -.173E-01 0.192E+04   -.836E-02 0.170E-01 -.192E+04   -.707E-03 0.358E-04 0.204E+00
   -.339E+00 0.550E+00 -.195E+02   0.358E+00 -.542E+00 0.204E+02   0.297E-04 -.848E-03 -.138E+00
   0.291E+01 -.221E+00 -.304E+01   -.294E+01 0.217E+00 0.194E+01   0.753E-02 -.143E-04 0.302E+00
   0.168E+02 -.545E+01 -.188E+04   -.169E+02 0.555E+01 0.188E+04   0.338E-01 -.250E-01 -.612E-01
   0.115E+02 0.249E+00 -.197E+04   -.116E+02 -.257E+00 0.197E+04   -.625E-01 0.148E-02 -.723E-01
   0.336E+01 0.193E+01 -.380E+04   -.338E+01 -.194E+01 0.380E+04   -.424E-01 0.937E-03 -.177E+00
   -.504E+01 0.468E+00 -.380E+04   0.504E+01 -.543E+00 0.380E+04   0.495E-01 0.148E-01 0.839E+00
[...]
   -.534E+02 -.105E+00 0.115E+04   0.574E+02 0.104E+00 -.115E+04   -.356E+01 0.161E-02 0.156E+00
   0.534E+02 -.987E-01 0.115E+04   -.574E+02 0.976E-01 -.115E+04   0.356E+01 0.137E-02 0.160E+00
   -.581E+00 0.340E-01 0.498E+03   0.594E+00 -.340E-01 -.502E+03   -.205E-01 -.937E-04 0.416E+01
   0.664E+00 0.230E+00 -.539E+03   -.978E+00 -.228E+00 0.546E+03   0.319E+00 -.569E-02 -.709E+01
   -.544E+02 -.831E+00 -.539E+01   0.591E+02 0.827E+00 0.517E+01   -.510E+01 0.266E-01 0.293E+00
   0.549E+02 -.897E+00 -.820E+01   -.595E+02 0.890E+00 0.803E+01   0.512E+01 0.313E-01 0.268E+00
   0.118E+02 0.530E+00 -.641E+03   -.129E+02 -.610E+00 0.634E+03   0.109E+01 0.755E-01 0.696E+01
   0.154E+02 -.158E+01 -.166E+04   -.166E+02 0.168E+01 0.166E+04   0.116E+01 -.132E+00 0.521E+00
   -.551E+02 -.621E+00 -.115E+04   0.613E+02 0.515E+00 0.115E+04   -.615E+01 0.118E+00 0.138E+01
   0.432E+01 0.321E+00 -.116E+04   -.415E+01 -.462E+00 0.116E+04   -.227E+00 0.150E+00 0.444E+00
   0.433E+01 -.501E+00 -.184E+04   -.483E+01 0.511E+00 0.184E+04   0.532E+00 -.237E-01 -.212E+01
   -.150E+01 0.586E+00 -.274E+04   0.154E+01 -.547E+00 0.276E+04   -.103E-01 -.852E-01 -.209E+02
   -.250E+02 -.608E+01 -.231E+04   0.316E+02 0.646E+01 0.231E+04   -.703E+01 0.153E-01 0.280E+00
   0.239E+02 0.137E+01 -.236E+04   -.305E+02 -.159E+01 0.236E+04   0.677E+01 0.505E+00 -.220E+01
   0.250E+02 -.663E+00 0.882E+02   0.682E-12 0.226E-11 -.255E-10   -.250E+02 0.661E+00 -.884E+02

 POSITION                                       TOTAL-FORCE (eV/Angst)
      9.75297      7.39395      8.77438        -0.001176      0.000170     -3.472627
      0.00000      8.87274      8.77438         0.000644      0.000045      2.757427
      0.00000      7.39395     12.02537         0.003055      0.000086      0.527277
      9.75297      8.87274     12.02537        -0.003366      0.000791     -0.724157
      9.75297      7.39395     15.27636        -0.012860     -0.014180      0.642160
      0.00000      8.87274     15.27636        -0.002118      0.002192     -0.704954
      0.09763      7.39448     18.45490        -0.073937     -0.004022      0.132562
      9.83909      8.87435     18.64498         0.005400      0.018036      0.052374
      9.77687      7.40176     21.97454         0.155397     -0.515379      0.529754
      0.01165      8.87583     21.63640        -0.062266     -0.041769      0.134156
      9.75297     10.35153      8.77438        -0.001376      0.000111     -3.472525
      0.00000      0.00000      8.77438         0.000659     -0.000016      2.757444
      0.00000     10.35153     12.02537         0.002985     -0.000451      0.527241
      9.75297      0.00000     12.02537        -0.003930     -0.000409     -0.724992
      9.75297     10.35153     15.27636        -0.003175      0.022774      0.648623
      0.00000      0.00000     15.27636        -0.002646     -0.002381     -0.705302
      0.09740     10.35168     18.45768        -0.067565     -0.007314      0.123604
      9.82912     11.82996     18.65358        -0.012068     -0.003465      0.031205
      9.76047     10.35032     22.00426         0.057765     -0.107649      0.137317
      0.01359     11.82925     21.63515        -0.031826     -0.012134      0.116404
      9.75297      1.47879      8.77438        -0.001390     -0.000282     -3.472651
      0.00000      2.95758      8.77438         0.000647     -0.000006      2.757610
      0.00000      1.47879     12.02537         0.003112      0.000162      0.526939
      9.75297      2.95758     12.02537        -0.003156     -0.000761     -0.725396
      9.75297      1.47879     15.27636        -0.001821     -0.030201      0.643757
      0.00000      2.95758     15.27636        -0.001151     -0.000585     -0.707779
      0.09628      1.47787     18.45635        -0.066240      0.003721      0.124349
      9.83701      2.95569     18.64405         0.011327     -0.018740      0.045059
      9.75962      1.46989     22.00331         0.086654      0.057117      0.117045
      0.01324      2.95251     21.63571        -0.066979      0.041214      0.127674
      9.75297      4.43637      8.77438        -0.001187      0.000052     -3.472749
      0.00000      5.91516      8.77438         0.000622      0.000061      2.757425
      0.00000      4.43637     12.02537         0.003167      0.000240      0.527107
      9.75297      5.91516     12.02537        -0.002699      0.000409     -0.724442
      9.75297      4.43637     15.27636        -0.014094      0.021703      0.637680
      0.00000      5.91516     15.27636        -0.001733      0.000685     -0.708531
      0.09864      4.43581     18.45499        -0.079230      0.007297      0.130241
      9.84319      5.91427     18.64934         0.027838      0.005631      0.081528
      9.78359      4.41795     21.97525         0.177560      0.580072      0.497939
      0.02307      5.91560     21.63443        -0.100943      0.010888      0.151935
      3.25099      7.39395      8.77438         0.001245      0.000112     -3.471309
      6.50198      8.87274      8.77438        -0.000581      0.000302      2.760336
      6.50198      7.39395     12.02537        -0.002890      0.011445      0.536148
      3.25099      8.87274     12.02537         0.003706      0.000927     -0.714845
      3.25099      7.39395     15.27636         0.022098     -0.007269      0.673394
      6.50198      8.87274     15.27636        -0.017641     -0.029468     -0.640889
      6.60337      7.36946     18.49027        -0.015687      0.255153     -0.097006
      3.33659      8.87135     18.65331        -0.087165      0.027805     -0.031426
      3.26918      7.39566     22.00581        -0.175020      0.063137      0.070686
      6.52282      8.87322     21.60077         0.001120      0.292439      0.170157
      3.25099     10.35153      8.77438         0.001371      0.000132     -3.471088
      6.50198      0.00000      8.77438        -0.000556     -0.000054      2.761087
      6.50198     10.35153     12.02537        -0.003182      0.001906      0.541481
      3.25099      0.00000     12.02537         0.004368     -0.000195     -0.714864
      3.25099     10.35153     15.27636         0.019041      0.006734      0.672965
      6.50198      0.00000     15.27636        -0.021731     -0.003087     -0.790319
      6.59647     10.34104     18.42812        -0.013594      0.058550      0.088647
      3.33161     11.83004     18.65467        -0.074452     -0.006423     -0.021901
      3.27495     10.35195     22.00596        -0.052059     -0.007619      0.050415
      6.50678     11.82923     21.60653         0.036700     -0.060081      0.117742
[...]
      6.50198      5.91516     13.29975         0.002756     -0.000832     -0.093973
      4.52537      4.43637     12.02537         0.443685      0.000453      0.054946
      8.47859      4.43637     12.02537        -0.440400      0.000350      0.056056
      3.25099      5.91516     14.00198        -0.007111     -0.000059     -0.115107
      3.25099      5.91516     16.55075         0.002565     -0.003418      0.084619
      7.77636      4.43637     15.27636        -0.431715      0.022003      0.062203
      5.22760      4.43637     15.27636         0.460263      0.024403      0.094281
      6.51871      5.91261     17.27873        -0.005105     -0.004775      0.051568
      6.50090      5.92012     19.84642        -0.058372     -0.026381      0.742373
      4.55840      4.43624     18.54825         0.088463      0.011257      0.003965
      8.47198      4.43642     18.56596        -0.058463      0.007640      0.001624
      3.26923      5.91952     20.51967         0.033134     -0.013456      0.036190
      3.28240      5.91386     23.09093         0.028373     -0.046602     -0.016444
      7.77234      4.39519     21.81421        -0.468526      0.396204      0.460586
      5.29885      4.42396     21.93317         0.226063      0.282227      0.340454
    total drift:                                0.000504     -0.002602     -0.162683

  FREE ENERGIE OF THE ION-ELECTRON SYSTEM (eV)
  free  energy   TOTEN  =     -2154.53042008 eV

  energy  without entropy=    -2154.53042008  energy(sigma->0) =    -2154.53042008