 vasp.6.3.0 20Jan22 (build Apr  1 2022 16:44:48) complex
 executed on        HPECrayEX_GCC date 2023.01.23  22:17:08

 INCAR:
   SYSTEM = MgO-rocksalt
   ISMEAR = 0
   SIGMA = 0.05
   EDIFF = 1E-8
   ALGO = ALL
   ISTART = 0
   IBRION = 5
   POTIM = 0.01
   NFREE = 2
   ISYM = 0
   DIPOL = 0.5 0.5 0.5
   IDIPOL = 3
   LDIPOL = .TRUE.
   GGA = PE
   IVDW = 1
   VDW_C6 = 1.23 0.70 0.63 0.70
   VDW_R0 = 1.397 1.342 1.243 1.342
   ENCUT = 600
   PREC = Accurate
   LASPH = .TRUE.
   LREAL = .FALSE.
   ISPIN = 2
   MAGMOM = 1.0 0.0 0.0 0.0 0.0 0.0 0.0 0.0 0.0 0.0 0.0 0.0 0.0 0.0 0.0 0.0 0.0 0.0 0.0 0.0 0.0 0.0 0.0 0.0 0.0 0.0 0.0 0.0 0.0 0.0 0.0 0.0 0.0 0.0 0.0 0.0 0.0 0.0 0.0 0.0 0.0 0.0 0.0 0.0 0.0 0.0 0.0 0.0 0.0 0.0 0.0 0.0 0.0 0.0 0.0 0.0 0.0 0.0 0.0 0.0 0.0 0.0 0.0 0.0 0.0 0.0
   NELM = 200
   NELMIN = 8
   NCORE = 8
   KPAR = 1
   LWAVE = .FALSE.
   LCHARG = .FALSE.

 POTCAR:    PAW_PBE N 08Apr2002
 POTCAR:    PAW_PBE O 08Apr2002
 POTCAR:    PAW_PBE Mg_pv 13Apr2007
 POTCAR:    PAW_PBE O 08Apr2002
 POTCAR:    PAW_PBE N 08Apr2002
   VRHFIN =N: s2p3

   TITEL  = PAW_PBE N 08Apr2002
   POMASS =   14.001; ZVAL   =    5.000    mass and valenz
   ENMAX  =  400.000; ENMIN  =  300.000 eV

[...]

   TITEL  = PAW_PBE Mg_pv 13Apr2007
   POMASS =   24.305; ZVAL   =    8.000    mass and valenz
   ENMAX  =  403.929; ENMIN  =  302.947 eV

   TITEL  = PAW_PBE O 08Apr2002
   POMASS =   16.000; ZVAL   =    6.000    mass and valenz
   ENMAX  =  400.000; ENMIN  =  300.000 eV

  PAW_PBE N 08Apr2002                   :
  PAW_PBE O 08Apr2002                   :
  PAW_PBE Mg_pv 13Apr2007               :
  PAW_PBE O 08Apr2002                   :

 POSCAR:  N  O Mg  O
  positions in direct lattice
 exchange correlation table for  LEXCH =        8
   RHO(1)=    0.500       N(1)  =     2000
   RHO(2)=  100.500       N(2)  =     4000

 ion  position               nearest neighbor table
   1  0.625  0.625  0.756-   2 1.18
   2  0.625  0.625  0.811-   1 1.18
   3  0.250  0.000  0.351-  35 2.12  37 2.12  38 2.12  45 2.12  54 2.12
   4  0.500  0.250  0.351-  36 2.12  37 2.12  38 2.12  46 2.12  53 2.12
   5  0.250  0.250  0.450-  37 2.12  36 2.12  35 2.12  43 2.12  52 2.12  41 2.12
   6  0.500  0.000  0.450-  38 2.12  36 2.12  35 2.12  44 2.12  51 2.12  42 2.12
   7  0.250  0.000  0.550-  58 2.12  41 2.12  49 2.12  42 2.12  35 2.13  39 2.15
   8  0.500  0.250  0.550-  50 2.11  41 2.12  57 2.12  42 2.12  36 2.13  40 2.15
   9  0.250  0.250  0.649-  41 2.11  39 2.12  56 2.12  47 2.12  40 2.12
  10  0.500  0.001  0.648-  42 2.10  40 2.11  48 2.11  39 2.12  55 2.12
  11  0.250  0.500  0.351-  43 2.12  37 2.12  45 2.12  46 2.12  62 2.12
  12  0.500  0.750  0.351-  44 2.12  38 2.12  45 2.12  46 2.12  61 2.12
  13  0.250  0.750  0.450-  45 2.12  43 2.12  44 2.12  35 2.12  60 2.12  49 2.12
  14  0.500  0.500  0.450-  46 2.12  43 2.12  44 2.12  36 2.12  59 2.12  50 2.13
  15  0.250  0.500  0.550-  50 2.11  41 2.12  49 2.12  66 2.12  43 2.13  47 2.15
  16  0.500  0.750  0.550-  50 2.11  65 2.11  49 2.12  42 2.12  44 2.13  48 2.13
  17  0.249  0.750  0.648-  49 2.10  64 2.11  48 2.11  39 2.12  47 2.12
  18  0.500  0.500  0.650-  47 2.12  40 2.12  50 2.13  48 2.13  63 2.13
  19  0.750  0.000  0.351-  51 2.12  38 2.12  53 2.12  54 2.12  61 2.12
  20  0.000  0.250  0.351-  52 2.12  37 2.12  53 2.12  54 2.12  62 2.12
  21  0.750  0.250  0.450-  53 2.12  51 2.12  52 2.12  36 2.12  59 2.12  57 2.12
  22  0.000  0.000  0.450-  54 2.12  51 2.12  52 2.12  35 2.12  60 2.12  58 2.12
  23  0.750  1.000  0.550-  65 2.11  58 2.12  42 2.12  57 2.12  51 2.13  55 2.15
  24  0.000  0.250  0.550-  58 2.12  41 2.12  57 2.12  66 2.12  52 2.13  56 2.15
  25  0.750  0.249  0.648-  57 2.10  55 2.11  63 2.11  56 2.12  40 2.12
  26  0.000  0.000  0.649-  58 2.11  39 2.12  56 2.12  55 2.12  64 2.12
  27  0.750  0.500  0.351-  59 2.12  53 2.12  46 2.12  61 2.12  62 2.12
  28  0.000  0.750  0.351-  60 2.12  54 2.12  45 2.12  61 2.12  62 2.12
  29  0.750  0.750  0.450-  61 2.12  51 2.12  59 2.12  60 2.12  44 2.12  65 2.13
  30  0.000  0.500  0.450-  62 2.12  52 2.12  59 2.12  60 2.12  43 2.12  66 2.12
  31  0.750  0.500  0.550-  50 2.11  65 2.11  57 2.12  66 2.12  59 2.13  63 2.13
  32  1.000  0.750  0.550-  65 2.11  58 2.12  66 2.12  49 2.12  60 2.13  64 2.15
  33  0.750  0.750  0.650-  55 2.12  64 2.12  65 2.13  48 2.13  63 2.13
  34  0.001  0.500  0.648-  66 2.10  47 2.11  63 2.11  56 2.12  64 2.12
  35  0.250  0.000  0.450-   3 2.12   5 2.12   6 2.12  13 2.12  22 2.12   7 2.13
  36  0.500  0.250  0.450-   4 2.12   5 2.12   6 2.12  14 2.12  21 2.12   8 2.13
  37  0.250  0.250  0.351-   5 2.12   4 2.12   3 2.12  11 2.12  20 2.12
  38  0.500  0.000  0.351-   6 2.12   4 2.12   3 2.12  12 2.12  19 2.12
  39  0.250  0.000  0.651-  26 2.12   9 2.12  17 2.12  10 2.12   7 2.15
  40  0.500  0.250  0.651-  10 2.11  18 2.12   9 2.12  25 2.12   8 2.15
  41  0.250  0.250  0.550-   9 2.11  24 2.12   7 2.12  15 2.12   8 2.12   5 2.12
  42  0.500  0.000  0.550-  10 2.10   7 2.12  23 2.12   8 2.12  16 2.12   6 2.12
  43  0.250  0.500  0.450-  11 2.12   5 2.12  13 2.12  14 2.12  30 2.12  15 2.13
  44  0.500  0.750  0.450-  12 2.12   6 2.12  13 2.12  14 2.12  29 2.12  16 2.13
  45  0.250  0.750  0.351-  13 2.12  11 2.12  12 2.12   3 2.12  28 2.12
  46  0.500  0.500  0.351-  14 2.12  11 2.12  12 2.12   4 2.12  27 2.12
  47  0.250  0.500  0.651-  34 2.11  18 2.12   9 2.12  17 2.12  15 2.15
  48  0.498  0.752  0.650-  17 2.11  10 2.11  16 2.13  18 2.13  33 2.13
  49  0.250  0.750  0.550-  17 2.10   7 2.12  15 2.12  32 2.12  16 2.12  13 2.12
  50  0.500  0.500  0.550-   8 2.11  15 2.11  16 2.11  31 2.11  14 2.13  18 2.13
  51  0.750  0.000  0.450-  19 2.12   6 2.12  21 2.12  22 2.12  29 2.12  23 2.13
  52  0.000  0.250  0.450-  20 2.12   5 2.12  21 2.12  22 2.12  30 2.12  24 2.13
  53  0.750  0.250  0.351-  21 2.12  19 2.12  20 2.12   4 2.12  27 2.12
  54  0.000  0.000  0.351-  22 2.12  19 2.12  20 2.12   3 2.12  28 2.12
  55  0.750  1.000  0.651-  25 2.11  33 2.12  26 2.12  10 2.12  23 2.15
  56  0.000  0.250  0.651-  26 2.12   9 2.12  25 2.12  34 2.12  24 2.15
  57  0.750  0.250  0.550-  25 2.10  24 2.12   8 2.12  23 2.12  31 2.12  21 2.12
  58  1.000  1.000  0.550-  26 2.11   7 2.12  24 2.12  32 2.12  23 2.12  22 2.12
  59  0.750  0.500  0.450-  27 2.12  21 2.12  14 2.12  29 2.12  30 2.12  31 2.13
  60  0.000  0.750  0.450-  28 2.12  22 2.12  13 2.12  29 2.12  30 2.12  32 2.13
  61  0.750  0.750  0.351-  29 2.12  19 2.12  27 2.12  28 2.12  12 2.12
  62  0.000  0.500  0.351-  30 2.12  20 2.12  27 2.12  28 2.12  11 2.12
  63  0.752  0.498  0.650-  25 2.11  34 2.11  31 2.13  18 2.13  33 2.13
  64  1.000  0.750  0.651-  17 2.11  33 2.12  26 2.12  34 2.12  32 2.15
  65  0.750  0.750  0.550-  23 2.11  32 2.11  31 2.11  16 2.11  29 2.13  33 2.13
  66  0.000  0.500  0.550-  34 2.10  24 2.12  32 2.12  15 2.12  31 2.12  30 2.12

IMPORTANT INFORMATION: All symmetrisations will be switched off!
NOSYMM: (Re-)initialisation of all symmetry stuff for point group C_1.

                                     Primitive cell

  volume of cell :    1530.6606

  direct lattice vectors                    reciprocal lattice vectors
     8.467142631  0.000000000  0.000000000     0.118103597  0.000000000  0.000000000
     0.000000000  8.467142631  0.000000000     0.000000000  0.118103597  0.000000000
     0.000000000  0.000000000 21.350356973     0.000000000  0.000000000  0.046837624

  length of vectors
     8.467142631  8.467142631 21.350356973     0.118103597  0.118103597  0.046837624

  position of ions in fractional coordinates (direct lattice)
     0.624999999  0.624999997  0.756294935
     0.624999998  0.624999990  0.811361018
     0.250000000  0.000000000  0.351282183
     0.500000000  0.250000000  0.351282183
     0.250000000  0.250000000  0.450427394
     0.500000000  0.000000000  0.450427394
     0.249937844  0.000062152  0.550128748
     0.500029213  0.250463329  0.550227208
     0.249978371  0.249978371  0.648557316
     0.499657893  0.000976693  0.648276515
     0.250000000  0.500000000  0.351282183
     0.500000000  0.750000000  0.351282183
     0.250000000  0.750000000  0.450427394
     0.500000000  0.500000000  0.450427394
     0.250463325  0.500029211  0.550227207
     0.500113427  0.749886564  0.549984896
     0.249023307  0.750342106  0.648276541
     0.499941778  0.499941778  0.649861115
     0.750000000  0.000000000  0.351282183
     0.000000000  0.250000000  0.351282183
     0.750000000  0.250000000  0.450427394
     0.000000000  0.000000000  0.450427394
     0.749970793  0.999536681  0.550227223
     0.000062151  0.249937845  0.550128747
     0.750342106  0.249023306  0.648276540
     0.000021631  0.000021630  0.648557307
     0.750000000  0.500000000  0.351282183
     0.000000000  0.750000000  0.351282183
     0.750000000  0.750000000  0.450427394
     0.000000000  0.500000000  0.450427394
     0.749886565  0.500113427  0.549984896
     0.999536682  0.749970793  0.550227222
     0.750058217  0.750058218  0.649861111
     0.000976693  0.499657895  0.648276516
     0.250000000  0.000000000  0.450427394
     0.500000000  0.250000000  0.450427394
     0.250000000  0.250000000  0.351282183
     0.500000000  0.000000000  0.351282183
     0.249771214  0.000228785  0.650770012
     0.500158286  0.250064556  0.650845058
     0.250039319  0.250039320  0.549855041
     0.499931256  0.000240257  0.549738904
     0.250000000  0.500000000  0.450427394
     0.500000000  0.750000000  0.450427394
     0.250000000  0.750000000  0.351282183
     0.500000000  0.500000000  0.351282183
     0.250064556  0.500158284  0.650845058
     0.498164512  0.751835479  0.649835775
     0.249759742  0.750068747  0.549738913
     0.500139030  0.500139030  0.550073341
     0.750000000  0.000000000  0.450427394
     0.000000000  0.250000000  0.450427394
     0.750000000  0.250000000  0.351282183
     0.000000000  0.000000000  0.351282183
     0.749841717  0.999935442  0.650845058
     0.000228784  0.249771214  0.650770012
     0.750068747  0.249759743  0.549738913
     0.999960680  0.999960680  0.549855042
     0.750000000  0.500000000  0.450427394
     0.000000000  0.750000000  0.450427394
     0.750000000  0.750000000  0.351282183
     0.000000000  0.500000000  0.351282183
     0.751835480  0.498164511  0.649835775
     0.999935443  0.749841715  0.650845058
     0.749860971  0.749860970  0.550073347
     0.000240256  0.499931255  0.549738905

  ion indices of the primitive-cell ions
   primitive index   ion index
                 1           1
                 2           2
                 3           3
                 4           4
                 5           5
                 6           6
                 7           7
                 8           8
                 9           9
                10          10
                11          11
                12          12
                13          13
                14          14
                15          15
                16          16
                17          17
                18          18
                19          19
                20          20
                21          21
                22          22
[...]
      2.114848  0.001937 13.894172            0           0           0
      4.234912  2.117332 13.895774            0           0           0
      2.117119  2.117119 11.739601            0           0           0
      4.232989  0.002034 11.737122            0           0           0
      2.116786  4.233571  9.616786            0           0           0
      4.233571  6.350357  9.616786            0           0           0
      2.116786  6.350357  7.500000            0           0           0
      4.233571  4.233571  7.500000            0           0           0
      2.117332  4.234912 13.895774            0           0           0
      4.218030  6.365898 13.874226            0           0           0
      2.114751  6.350939 11.737122            0           0           0
      4.234749  4.234749 11.744262            0           0           0
      6.350357  0.000000  9.616786            0           0           0
      0.000000  2.116786  9.616786            0           0           0
      6.350357  2.116786  7.500000            0           0           0
      0.000000  0.000000  7.500000            0           0           0
      6.349017  8.466596 13.895774            0           0           0
      0.001937  2.114848 13.894172            0           0           0
      6.350939  2.114751 11.737122            0           0           0
      8.466810  8.466810 11.739601            0           0           0
      6.350357  4.233571  9.616786            0           0           0
      0.000000  6.350357  9.616786            0           0           0
      6.350357  6.350357  7.500000            0           0           0
      0.000000  4.233571  7.500000            0           0           0
      6.365898  4.218030 13.874226            0           0           0
      8.466596  6.349017 13.895774            0           0           0
      6.349180  6.349180 11.744262            0           0           0
      0.002034  4.232989 11.737122            0           0           0

[...]

   4 f  =    2.852863 THz    17.925067 2PiTHz   95.161266 cm-1    11.798488 meV
             X         Y         Z           dx          dy          dz
      5.291964  5.291964 16.147167    -0.001471    0.003320    0.686231
      5.291964  5.291964 17.322847    -0.004095    0.011712    0.727269
      2.116786  0.000000  7.500000            0           0           0
      4.233571  2.116786  7.500000            0           0           0
      2.116786  2.116786  9.616786            0           0           0
      4.233571  0.000000  9.616786            0           0           0
      2.116259  0.000526 11.745445            0           0           0
      4.233819  2.120709 11.747547            0           0           0
      2.116603  2.116603 13.846930            0           0           0
      4.230675  0.008270 13.840935            0           0           0
      2.116786  4.233571  7.500000            0           0           0
      4.233571  6.350357  7.500000            0           0           0
      2.116786  6.350357  9.616786            0           0           0
      4.233571  4.233571  9.616786            0           0           0
      2.120709  4.233819 11.747547            0           0           0
      4.234532  6.349396 11.742374            0           0           0
      2.108516  6.353254 13.840936            0           0           0
      4.233078  4.233078 13.874767            0           0           0
      6.350357  0.000000  7.500000            0           0           0
      0.000000  2.116786  7.500000            0           0           0
      6.350357  2.116786  9.616786            0           0           0
      0.000000  0.000000  9.616786            0           0           0
      6.350110  8.463220 11.747548            0           0           0
      0.000526  2.116259 11.745445            0           0           0
      6.353254  2.108516 13.840936            0           0           0
      0.000183  0.000183 13.846930            0           0           0
      6.350357  4.233571  7.500000            0           0           0
      0.000000  6.350357  7.500000            0           0           0
      6.350357  6.350357  9.616786            0           0           0
      0.000000  4.233571  9.616786            0           0           0
      6.349397  4.234532 11.742374            0           0           0
      8.463220  6.350110 11.747548            0           0           0
      6.350850  6.350850 13.874767            0           0           0
      0.008270  4.230675 13.840935            0           0           0
      2.116786  0.000000  9.616786            0           0           0
      4.233571  2.116786  9.616786            0           0           0
      2.116786  2.116786  7.500000            0           0           0
      4.233571  0.000000  7.500000            0           0           0
      2.114848  0.001937 13.894172            0           0           0
      4.234912  2.117332 13.895774            0           0           0
      2.117119  2.117119 11.739601            0           0           0
      4.232989  0.002034 11.737122            0           0           0
      2.116786  4.233571  9.616786            0           0           0
      4.233571  6.350357  9.616786            0           0           0
      2.116786  6.350357  7.500000            0           0           0
      4.233571  4.233571  7.500000            0           0           0
      2.117332  4.234912 13.895774            0           0           0
      4.218030  6.365898 13.874226            0           0           0
      2.114751  6.350939 11.737122            0           0           0
      4.234749  4.234749 11.744262            0           0           0
      6.350357  0.000000  9.616786            0           0           0
      0.000000  2.116786  9.616786            0           0           0
      6.350357  2.116786  7.500000            0           0           0
      0.000000  0.000000  7.500000            0           0           0
      6.349017  8.466596 13.895774            0           0           0
      0.001937  2.114848 13.894172            0           0           0
      6.350939  2.114751 11.737122            0           0           0
      8.466810  8.466810 11.739601            0           0           0
      6.350357  4.233571  9.616786            0           0           0
      0.000000  6.350357  9.616786            0           0           0
      6.350357  6.350357  7.500000            0           0           0
      0.000000  4.233571  7.500000            0           0           0
      6.365898  4.218030 13.874226            0           0           0
      8.466596  6.349017 13.895774            0           0           0
      6.349180  6.349180 11.744262            0           0           0
      0.002034  4.232989 11.737122            0           0           0

   5 f/i=    0.648235 THz     4.072978 2PiTHz   21.622776 cm-1     2.680881 meV
             X         Y         Z           dx          dy          dz
      5.291964  5.291964 16.147167    -0.401522   -0.369456    0.002947
      5.291964  5.291964 17.322847    -0.643072   -0.537330    0.003126
      2.116786  0.000000  7.500000            0           0           0
      4.233571  2.116786  7.500000            0           0           0
      2.116786  2.116786  9.616786            0           0           0
      4.233571  0.000000  9.616786            0           0           0
      2.116259  0.000526 11.745445            0           0           0
      4.233819  2.120709 11.747547            0           0           0
      2.116603  2.116603 13.846930            0           0           0
      4.230675  0.008270 13.840935            0           0           0
      2.116786  4.233571  7.500000            0           0           0
      4.233571  6.350357  7.500000            0           0           0
      2.116786  6.350357  9.616786            0           0           0
      4.233571  4.233571  9.616786            0           0           0
      2.120709  4.233819 11.747547            0           0           0
      4.234532  6.349396 11.742374            0           0           0
      2.108516  6.353254 13.840936            0           0           0
      4.233078  4.233078 13.874767            0           0           0
      6.350357  0.000000  7.500000            0           0           0
      0.000000  2.116786  7.500000            0           0           0
      6.350357  2.116786  9.616786            0           0           0
      0.000000  0.000000  9.616786            0           0           0
      6.350110  8.463220 11.747548            0           0           0
      0.000526  2.116259 11.745445            0           0           0
      6.353254  2.108516 13.840936            0           0           0
      0.000183  0.000183 13.846930            0           0           0
      6.350357  4.233571  7.500000            0           0           0
      0.000000  6.350357  7.500000            0           0           0
      6.350357  6.350357  9.616786            0           0           0
      0.000000  4.233571  9.616786            0           0           0
      6.349397  4.234532 11.742374            0           0           0
      8.463220  6.350110 11.747548            0           0           0
      6.350850  6.350850 13.874767            0           0           0
      0.008270  4.230675 13.840935            0           0           0
      2.116786  0.000000  9.616786            0           0           0
      4.233571  2.116786  9.616786            0           0           0
      2.116786  2.116786  7.500000            0           0           0
      4.233571  0.000000  7.500000            0           0           0
      2.114848  0.001937 13.894172            0           0           0
      4.234912  2.117332 13.895774            0           0           0
      2.117119  2.117119 11.739601            0           0           0
      4.232989  0.002034 11.737122            0           0           0
      2.116786  4.233571  9.616786            0           0           0
      4.233571  6.350357  9.616786            0           0           0
      2.116786  6.350357  7.500000            0           0           0
      4.233571  4.233571  7.500000            0           0           0
      2.117332  4.234912 13.895774            0           0           0
      4.218030  6.365898 13.874226            0           0           0
      2.114751  6.350939 11.737122            0           0           0
      4.234749  4.234749 11.744262            0           0           0
      6.350357  0.000000  9.616786            0           0           0
      0.000000  2.116786  9.616786            0           0           0
      6.350357  2.116786  7.500000            0           0           0
      0.000000  0.000000  7.500000            0           0           0
      6.349017  8.466596 13.895774            0           0           0
      0.001937  2.114848 13.894172            0           0           0
      6.350939  2.114751 11.737122            0           0           0
      8.466810  8.466810 11.739601            0           0           0
      6.350357  4.233571  9.616786            0           0           0
      0.000000  6.350357  9.616786            0           0           0
      6.350357  6.350357  7.500000            0           0           0
      0.000000  4.233571  7.500000            0           0           0
      6.365898  4.218030 13.874226            0           0           0
      8.466596  6.349017 13.895774            0           0           0
      6.349180  6.349180 11.744262            0           0           0
      0.002034  4.232989 11.737122            0           0           0

   6 f/i=    1.421993 THz     8.934644 2PiTHz   47.432571 cm-1     5.880887 meV
             X         Y         Z           dx          dy          dz
      5.291964  5.291964 16.147167     0.183786   -0.240840    0.008282
      5.291964  5.291964 17.322847     0.624856   -0.719464    0.008762
      2.116786  0.000000  7.500000            0           0           0
      4.233571  2.116786  7.500000            0           0           0
      2.116786  2.116786  9.616786            0           0           0
      4.233571  0.000000  9.616786            0           0           0
      2.116259  0.000526 11.745445            0           0           0
      4.233819  2.120709 11.747547            0           0           0
      2.116603  2.116603 13.846930            0           0           0
      4.230675  0.008270 13.840935            0           0           0
      2.116786  4.233571  7.500000            0           0           0
      4.233571  6.350357  7.500000            0           0           0
      2.116786  6.350357  9.616786            0           0           0
      4.233571  4.233571  9.616786            0           0           0
      2.120709  4.233819 11.747547            0           0           0
      4.234532  6.349396 11.742374            0           0           0
      2.108516  6.353254 13.840936            0           0           0
      4.233078  4.233078 13.874767            0           0           0
      6.350357  0.000000  7.500000            0           0           0
      0.000000  2.116786  7.500000            0           0           0
      6.350357  2.116786  9.616786            0           0           0
      0.000000  0.000000  9.616786            0           0           0
      6.350110  8.463220 11.747548            0           0           0
      0.000526  2.116259 11.745445            0           0           0
      6.353254  2.108516 13.840936            0           0           0
      0.000183  0.000183 13.846930            0           0           0
      6.350357  4.233571  7.500000            0           0           0
      0.000000  6.350357  7.500000            0           0           0
      6.350357  6.350357  9.616786            0           0           0
      0.000000  4.233571  9.616786            0           0           0
      6.349397  4.234532 11.742374            0           0           0
      8.463220  6.350110 11.747548            0           0           0
      6.350850  6.350850 13.874767            0           0           0
      0.008270  4.230675 13.840935            0           0           0
      2.116786  0.000000  9.616786            0           0           0
      4.233571  2.116786  9.616786            0           0           0
      2.116786  2.116786  7.500000            0           0           0
      4.233571  0.000000  7.500000            0           0           0
      2.114848  0.001937 13.894172            0           0           0
      4.234912  2.117332 13.895774            0           0           0
      2.117119  2.117119 11.739601            0           0           0
      4.232989  0.002034 11.737122            0           0           0
      2.116786  4.233571  9.616786            0           0           0
      4.233571  6.350357  9.616786            0           0           0
      2.116786  6.350357  7.500000            0           0           0
      4.233571  4.233571  7.500000            0           0           0
      2.117332  4.234912 13.895774            0           0           0
      4.218030  6.365898 13.874226            0           0           0
      2.114751  6.350939 11.737122            0           0           0
      4.234749  4.234749 11.744262            0           0           0
      6.350357  0.000000  9.616786            0           0           0
      0.000000  2.116786  9.616786            0           0           0
      6.350357  2.116786  7.500000            0           0           0
      0.000000  0.000000  7.500000            0           0           0
      6.349017  8.466596 13.895774            0           0           0
      0.001937  2.114848 13.894172            0           0           0
      6.350939  2.114751 11.737122            0           0           0
      8.466810  8.466810 11.739601            0           0           0
      6.350357  4.233571  9.616786            0           0           0
      0.000000  6.350357  9.616786            0           0           0
      6.350357  6.350357  7.500000            0           0           0
      0.000000  4.233571  7.500000            0           0           0
      6.365898  4.218030 13.874226            0           0           0
      8.466596  6.349017 13.895774            0           0           0
      6.349180  6.349180 11.744262            0           0           0
      0.002034  4.232989 11.737122            0           0           0

 Finite differences POTIM=   1.0000000000000000E-002