 vasp.6.4.2 20Jul23 (build Feb 22 2024 13:53:45) complex
 executed on              LinuxNV date 2024.08.27  18:21:12
 OpenACC runtime initialized ...    4 GPUs detected

 INCAR:
   SYSTEM = Oxide-Surface
   ISMEAR = 0
   SIGMA = 0.05
   EDIFF = 1E-5
   ALGO = Normal
   IBRION = -1
   NSW = 0
   ISYM = 0
   DIPOL = 0.5 0.5 0.5
   IDIPOL = 3
   LDIPOL = .TRUE.
   ISTART = 1
   METAGGA = R2SCAN
   ENCUT = 1000
   PREC = Normal
   PRECFOCK = Normal
   LASPH = .TRUE.
   LREAL = Auto
   ISPIN = 1
   NELM = 200
   NELMIN = 8
   NCORE = 1
   KPAR = 1
   LWAVE = .FALSE.
   LCHARG = .FALSE.

 POTCAR:    PAW_PBE C_h 06Feb2004
 POTCAR:    PAW_PBE O_h 06Feb2004
 POTCAR:    PAW_PBE Mg_sv 12Apr2007
 POTCAR:    PAW_PBE O_h 06Feb2004
 POTCAR:    PAW_PBE C_h 06Feb2004
   VRHFIN =C: s2p2

   TITEL  = PAW_PBE C_h 06Feb2004
   POMASS =   12.011; ZVAL   =    4.000    mass and valenz
   ENMAX  =  700.000; ENMIN  =  500.000 eV

[...]

   TITEL  = PAW_PBE Mg_sv 12Apr2007
   POMASS =   24.305; ZVAL   =   10.000    mass and valenz
   ENMAX  =  495.223; ENMIN  =  371.417 eV

   TITEL  = PAW_PBE O_h 06Feb2004
   POMASS =   16.000; ZVAL   =    6.000    mass and valenz
   ENMAX  =  700.000; ENMIN  =  500.000 eV

 Optimization of the real space projectors (new method)

 maximal supplied QI-value         = 34.20
 optimisation between [QCUT,QGAM] = [ 16.08, 32.15] = [ 72.37,289.48] Ry
 Optimized for a Real-space Cutoff    0.71 Angstroem

   l    n(q)    QCUT    max X(q) W(low)/X(q) W(high)/X(q)  e(spline)
   0      7    16.076   134.812    0.49E-03    0.92E-03    0.59E-07
   0      7    16.076    80.524    0.48E-03    0.91E-03    0.58E-07
   1      6    16.076    79.026    0.37E-03    0.58E-03    0.12E-06
   1      6    16.076    45.188    0.36E-03    0.56E-03    0.12E-06
 Optimization of the real space projectors (new method)

[...]

   l    n(q)    QCUT    max X(q) W(low)/X(q) W(high)/X(q)  e(spline)
   0      9    16.140     8.730    0.14E-04    0.12E-04    0.27E-07
   0      9    16.140     8.910    0.19E-04    0.17E-04    0.41E-07
   1      9    16.140     2.513    0.16E-04    0.28E-04    0.54E-07
   1      9    16.140     3.341    0.27E-04    0.13E-03    0.17E-06
   2      9    16.140     3.683    0.18E-03    0.21E-03    0.81E-07
 Optimization of the real space projectors (new method)

 maximal supplied QI-value         = 34.20
 optimisation between [QCUT,QGAM] = [ 16.08, 32.15] = [ 72.37,289.48] Ry
 Optimized for a Real-space Cutoff    0.71 Angstroem

   l    n(q)    QCUT    max X(q) W(low)/X(q) W(high)/X(q)  e(spline)
   0      7    16.076   280.207    0.42E-03    0.69E-03    0.60E-07
   0      7    16.076   228.978    0.42E-03    0.69E-03    0.61E-07
   1      6    16.076    86.127    0.11E-03    0.66E-03    0.10E-06
   1      6    16.076    65.368    0.11E-03    0.65E-03    0.10E-06
  PAW_PBE C_h 06Feb2004                 :
  PAW_PBE O_h 06Feb2004                 :
  PAW_PBE Mg_sv 12Apr2007               :
  PAW_PBE O_h 06Feb2004                 :

 POSCAR:  C  O Mg  O
  positions in direct lattice

 METAGGA = R2SCAN                                      LMAXTAU =  6    LMIXTAU =  F

 ion  position               nearest neighbor table
   1  0.500  0.750  0.719-   3 1.26   2 1.26  56 1.47
   2  0.500  0.887  0.748-   1 1.26
   3  0.500  0.613  0.748-   1 1.26
   4  0.000  0.750  0.252-
   5  0.250  0.000  0.252-
   6  0.000  0.000  0.376-
   7  0.250  0.750  0.376-
   8  1.000  0.750  0.499-
   9  0.252  0.001  0.502-
  10  0.000  0.003  0.624-
  11  0.237  0.750  0.623-  40 2.00
  12  0.000  0.250  0.252-
  13  0.250  0.500  0.252-
  14  0.000  0.500  0.376-
  15  0.250  0.250  0.376-
  16  0.000  0.250  0.500-
  17  0.252  0.500  0.502-
  18  0.000  0.498  0.624-
  19  0.248  0.250  0.625-
  20  0.500  0.750  0.252-
  21  0.750  0.000  0.252-
  22  0.500  0.000  0.376-
  23  0.750  0.750  0.376-
  24  0.500  0.750  0.498-
  25  0.748  0.001  0.502-
  26  0.500  0.011  0.636-  64 2.02
  27  0.763  0.750  0.623-  40 2.00
  28  0.500  0.250  0.252-
  29  0.750  0.500  0.252-
  30  0.500  0.500  0.376-
  31  0.750  0.250  0.376-
  32  0.500  0.250  0.502-
  33  0.748  0.500  0.502-
  34  0.500  0.489  0.636-  64 2.02
  35  0.752  0.250  0.625-
  36  0.000  0.750  0.376-
  37  0.250  0.000  0.376-
  38  0.000  0.000  0.252-
  39  0.250  0.750  0.252-
  40  0.000  0.750  0.626-  11 2.00  27 2.00
  41  0.248  0.999  0.626-
  42  0.000  1.000  0.500-
  43  0.252  0.750  0.501-
  44  0.000  0.250  0.376-
  45  0.250  0.500  0.376-
  46  0.000  0.500  0.252-
  47  0.250  0.250  0.252-
  48  0.000  0.250  0.626-
  49  0.248  0.502  0.626-
  50  0.000  0.501  0.500-
  51  0.251  0.250  0.501-
  52  0.500  0.750  0.376-
  53  0.750  0.000  0.376-
  54  0.500  0.000  0.252-
  55  0.750  0.750  0.252-
  56  0.500  0.750  0.633-   1 1.47
  57  0.752  0.999  0.626-
  58  0.500  0.998  0.502-
  59  0.748  0.750  0.501-
  60  0.500  0.250  0.376-
  61  0.750  0.500  0.376-
  62  0.500  0.500  0.252-
  63  0.750  0.250  0.252-
  64  0.500  0.250  0.628-  26 2.02  34 2.02
  65  0.752  0.502  0.626-
  66  0.500  0.503  0.502-
  67  0.749  0.250  0.501-

IMPORTANT INFORMATION: All symmetrisations will be switched off!
NOSYMM: (Re-)initialisation of all symmetry stuff for point group C_1.

                                     Primitive cell

  volume of cell :    1211.2538

  direct lattice vectors                    reciprocal lattice vectors
     8.440984654  0.000000000  0.000000000     0.118469591  0.000000000  0.000000000
     0.000000000  8.440984654  0.000000000     0.000000000  0.118469591  0.000000000
     0.000000000  0.000000000 17.000000000     0.000000000  0.000000000  0.058823529

  length of vectors
     8.440984654  8.440984654 17.000000000     0.118469591  0.118469591  0.058823529

  position of ions in fractional coordinates (direct lattice)
     0.500000012  0.750264058  0.719050453
     0.500000066  0.887195294  0.748143164
     0.500000015  0.613356952  0.748141716
     0.000000012  0.750271483  0.251856836
     0.250000012  0.000271483  0.251856836
     0.000000012  0.000271483  0.375988963
     0.250000012  0.750271483  0.375988963
     0.999999988  0.750271429  0.499368462
     0.252039891  0.001028111  0.501782346
     0.000000034  0.002582678  0.624444171
     0.237174200  0.750271417  0.622958809
     0.000000012  0.250271483  0.251856836
     0.250000012  0.500271483  0.251856836
     0.000000012  0.500271483  0.375988963
     0.250000012  0.250271483  0.375988963
     0.000000025  0.250271481  0.500321386
     0.252039913  0.499514860  0.501782439
     0.000000033  0.497960304  0.624444240
     0.247666331  0.250271551  0.624926941
     0.500000012  0.750271483  0.251856836
     0.750000012  0.000271483  0.251856836
     0.500000012  0.000271483  0.375988963
     0.750000012  0.750271483  0.375988963
     0.500000031  0.750271498  0.497974947
     0.747960134  0.001028090  0.501782397
     0.500000002  0.011479476  0.636458488
     0.762825859  0.750271422  0.622958927
     0.500000012  0.250271483  0.251856836
     0.750000012  0.500271483  0.251856836
     0.500000012  0.500271483  0.375988963
     0.750000012  0.250271483  0.375988963
     0.500000005  0.250271518  0.502223723
     0.747960113  0.499514886  0.501782491
     0.500000001  0.489064058  0.636458884
     0.752333702  0.250271549  0.624926893
     0.000000012  0.750271483  0.375988963
     0.250000012  0.000271483  0.375988963
     0.000000012  0.000271483  0.251856836
     0.250000012  0.750271483  0.251856836
     0.000000034  0.750271519  0.625525054
     0.248158668  0.998774097  0.625931889
     0.000000015  0.999728517  0.499971061
     0.252314560  0.750271518  0.501128046
     0.000000012  0.250271483  0.375988963
     0.250000012  0.500271483  0.375988963
     0.000000012  0.500271483  0.251856836
     0.250000012  0.250271483  0.251856836
     0.000000017  0.250271467  0.626441503
     0.248158646  0.501768877  0.625931815
     0.000000014  0.500814411  0.499971054
     0.250533599  0.250271460  0.500674415
     0.500000012  0.750271483  0.375988963
     0.750000012  0.000271483  0.375988963
     0.500000012  0.000271483  0.251856836
     0.750000012  0.750271483  0.251856836
     0.499999972  0.750272301  0.632609027
     0.751841373  0.998774078  0.625931895
     0.500000008  0.997971315  0.502167211
     0.747685467  0.750271518  0.501128092
     0.500000012  0.250271483  0.375988963
     0.750000012  0.500271483  0.375988963
     0.500000012  0.500271483  0.251856836
     0.750000012  0.250271483  0.251856836
     0.500000019  0.250271401  0.628355073
     0.751841390  0.501768901  0.625931830
     0.500000009  0.502571702  0.502167205
     0.749466433  0.250271458  0.500674433

  ion indices of the primitive-cell ions
   primitive index   ion index
                 1           1
                 2           2
                 3           3
                 4           4
                 5           5
                 6           6
                 7           7
                 8           8
                 9           9
                10          10
                11          11
                12          12
                13          13
                14          14
                15          15
                16          16
                17          17
                18          18
                19          19
                20          20
                21          21
                22          22
                23          23
                24          24
                25          25
                26          26
                27          27
                28          28
                29          29
                30          30
                31          31
                32          32
                33          33
                34          34
                35          35
                36          36
                37          37
                38          38
                39          39
                40          40
                41          41
                42          42
                43          43
                44          44
                45          45
                46          46
                47          47
                48          48
                49          49
                50          50
                51          51
                52          52
                53          53
                54          54
                55          55
                56          56
                57          57
                58          58
                59          59
                60          60
                61          61
                62          62
                63          63
                64          64
                65          65
                66          66
                67          67

 KPOINTS: pymatgen v2020.8.13 with grid density =

Automatic generation of k-mesh.
 Grid dimensions read from file:
 generate k-points for:    2    2    1

 Generating k-lattice:

  Cartesian coordinates                     Fractional coordinates (reciprocal lattice)
[...]
  Alpha Z  1248.31882  1248.31882  1248.31882
  Ewald  107229.64142108137.04893************     0.00010    -0.02651    -0.00000
  Hartree124362.65152124898.43846************     0.00004    -0.00201     0.00001
  E(xc)   -3525.44739 -3525.10992 -3525.61330     0.00000    -0.00138     0.00013
  Local  ************************241028.62898    -0.00013     0.02511    -0.00021
  n-local -5537.12606 -5534.07967 -5539.49607    -0.00000     0.00949    -0.00034
  augment   833.24190   832.94020   826.73910    -0.00001    -0.01528    -0.00031
  Kinetic 12929.98819 12885.38015 12931.77931    -0.00000    -0.00038    -0.00045
  Fock        0.00000     0.00000     0.00000     0.00000     0.00000     0.00000
  Total     -33.93338   -38.87471    -9.34969    -0.00000    -0.01096    -0.00117
  in kB     -44.88514   -51.42124   -12.36724    -0.00000    -0.01450    -0.00154

 VOLUME and BASIS-vectors are now :
  energy-cutoff  :     1000.00
  volume of cell :     1211.25
      direct lattice vectors                 reciprocal lattice vectors
     8.440984654  0.000000000  0.000000000     0.118469591  0.000000000  0.000000000
     0.000000000  8.440984654  0.000000000     0.000000000  0.118469591  0.000000000
     0.000000000  0.000000000 17.000000000     0.000000000  0.000000000  0.058823529

  length of vectors
     8.440984654  8.440984654 17.000000000     0.118469591  0.118469591  0.058823529

 FORCES acting on ions
    electron-ion (+dipol)            ewald-force                    non-local-force                 convergence-correction
   0.634E-04 -.542E-01 -.968E+03   -.119E-03 0.585E-01 0.976E+03   0.114E-04 0.207E-02 -.677E+01   0.371E-06 -.498E-05 0.260E-03
   0.216E-03 -.214E+03 -.155E+04   0.723E-04 0.256E+03 0.158E+04   -.648E-03 -.426E+02 -.276E+02   -.116E-05 0.153E-03 0.987E-03
   0.313E-03 0.214E+03 -.155E+04   -.511E-04 -.256E+03 0.158E+04   -.621E-03 0.426E+02 -.276E+02   -.533E-06 -.158E-03 0.996E-03
   0.180E-04 0.596E-03 0.245E+04   -.208E-04 -.334E-04 -.244E+04   0.376E-05 -.694E-02 -.951E+01   0.129E-05 -.572E-05 -.204E-02
   0.580E+00 -.145E+01 0.245E+04   -.571E+00 0.149E+01 -.244E+04   -.697E-02 -.388E-01 -.967E+01   -.370E-04 0.938E-05 -.204E-02
   0.106E-03 -.337E+01 0.863E+03   -.101E-03 0.356E+01 -.863E+03   0.474E-05 -.155E+00 0.283E+00   -.260E-05 -.537E-04 -.382E-02
   0.305E+01 0.421E-03 0.863E+03   -.311E+01 -.164E-03 -.865E+03   0.369E-01 -.536E-02 0.117E+01   0.129E-04 -.312E-05 -.371E-02
   0.635E-04 0.434E-03 -.692E+03   -.562E-04 0.545E-04 0.692E+03   0.194E-04 -.952E-03 0.852E-01   -.302E-05 0.155E-05 -.409E-02
   0.342E+01 -.917E+01 -.717E+03   -.262E+01 0.948E+01 0.719E+03   -.805E+00 -.340E+00 -.166E+01   0.127E-03 -.839E-04 -.390E-02
   0.160E-03 -.228E+02 -.235E+04   0.848E-05 0.238E+02 0.234E+04   -.176E-03 -.984E+00 0.821E+01   -.143E-05 -.863E-04 -.260E-02
   0.517E+02 0.583E-03 -.223E+04   -.593E+02 0.116E-02 0.222E+04   0.758E+01 -.719E-02 0.924E+01   0.288E-03 -.370E-05 -.257E-02
   0.212E-04 0.495E-03 0.245E+04   -.216E-04 0.344E-04 -.244E+04   0.861E-05 -.704E-02 -.965E+01   -.385E-05 0.620E-05 -.215E-02
   0.579E+00 0.145E+01 0.245E+04   -.571E+00 -.149E+01 -.244E+04   -.696E-02 0.261E-01 -.967E+01   -.319E-04 -.975E-05 -.204E-02
   0.106E-03 0.337E+01 0.863E+03   -.104E-03 -.356E+01 -.863E+03   -.160E-04 0.141E+00 0.283E+00   -.327E-06 0.554E-04 -.383E-02
   -.198E+01 0.186E-04 0.859E+03   0.208E+01 0.171E-03 -.859E+03   -.767E-01 -.549E-02 0.677E+00   0.403E-04 0.465E-05 -.378E-02
   0.868E-04 -.385E-03 -.721E+03   -.615E-04 0.424E-04 0.721E+03   -.428E-04 0.175E-02 -.124E+00   -.555E-06 -.257E-05 -.429E-02
   0.342E+01 0.917E+01 -.717E+03   -.262E+01 -.948E+01 0.719E+03   -.800E+00 0.321E+00 -.166E+01   0.130E-03 0.836E-04 -.391E-02
   0.174E-03 0.228E+02 -.235E+04   -.682E-05 -.238E+02 0.234E+04   -.227E-03 0.967E+00 0.821E+01   0.446E-05 0.893E-04 -.260E-02
   0.372E+02 -.352E-03 -.233E+04   -.383E+02 0.405E-04 0.232E+04   0.105E+01 -.535E-02 0.833E+01   0.219E-03 0.291E-05 -.256E-02
   -.156E-04 0.617E-03 0.245E+04   0.211E-04 -.406E-04 -.244E+04   -.247E-04 -.698E-02 -.942E+01   -.175E-05 -.123E-04 -.192E-02
   -.580E+00 -.145E+01 0.245E+04   0.571E+00 0.149E+01 -.244E+04   0.694E-02 -.388E-01 -.967E+01   0.377E-04 0.145E-04 -.205E-02
   -.110E-03 -.839E+01 0.857E+03   0.104E-03 0.874E+01 -.858E+03   0.182E-04 -.268E+00 0.969E+00   0.143E-05 -.268E-04 -.380E-02
   -.305E+01 0.421E-03 0.863E+03   0.311E+01 -.166E-03 -.865E+03   -.368E-01 -.537E-02 0.117E+01   -.115E-04 -.235E-06 -.370E-02
   -.451E-04 0.206E-03 -.706E+03   0.818E-04 -.288E-03 0.700E+03   -.474E-04 -.805E-03 0.645E+01   0.721E-06 -.108E-05 -.380E-02
   -.342E+01 -.917E+01 -.717E+03   0.262E+01 0.948E+01 0.719E+03   0.805E+00 -.340E+00 -.166E+01   -.125E-03 -.836E-04 -.392E-02
   0.373E-04 -.970E+02 -.222E+04   -.118E-04 0.101E+03 0.221E+04   -.709E-04 -.446E+01 0.176E+01   0.213E-05 -.232E-03 -.211E-02
   -.517E+02 0.598E-03 -.223E+04   0.593E+02 0.114E-02 0.222E+04   -.758E+01 -.720E-02 0.924E+01   -.283E-03 0.288E-05 -.258E-02
   -.214E-04 0.500E-03 0.245E+04   0.217E-04 0.407E-04 -.244E+04   -.164E-06 -.704E-02 -.967E+01   0.227E-05 0.103E-04 -.204E-02
   -.579E+00 0.145E+01 0.245E+04   0.571E+00 -.149E+01 -.244E+04   0.695E-02 0.261E-01 -.967E+01   0.322E-04 -.135E-04 -.204E-02
   -.111E-03 0.839E+01 0.857E+03   0.108E-03 -.874E+01 -.858E+03   0.321E-04 0.254E+00 0.970E+00   0.275E-06 0.303E-04 -.382E-02
   0.198E+01 0.147E-04 0.859E+03   -.208E+01 0.177E-03 -.859E+03   0.767E-01 -.548E-02 0.677E+00   -.398E-04 0.291E-05 -.379E-02
   -.987E-04 -.868E-04 -.724E+03   0.655E-04 0.571E-03 0.725E+03   0.396E-04 -.844E-02 -.685E+00   0.249E-05 0.198E-05 -.399E-02
   -.342E+01 0.917E+01 -.717E+03   0.262E+01 -.948E+01 0.719E+03   0.800E+00 0.321E+00 -.166E+01   -.130E-03 0.836E-04 -.392E-02
   0.120E-04 0.970E+02 -.222E+04   0.145E-04 -.101E+03 0.221E+04   -.604E-04 0.443E+01 0.175E+01   -.391E-05 0.233E-03 -.210E-02
   -.372E+02 -.380E-03 -.233E+04   0.383E+02 0.683E-04 0.232E+04   -.105E+01 -.532E-02 0.833E+01   -.222E-03 -.293E-05 -.256E-02
   0.466E-04 0.146E-02 0.521E+03   -.429E-04 -.370E-04 -.522E+03   0.710E-05 -.154E-02 0.314E+00   -.243E-06 -.133E-05 -.216E-02
   0.135E+00 -.217E+01 0.514E+03   -.287E+00 0.230E+01 -.513E+03   0.191E+00 -.174E+00 -.295E+00   0.185E-04 -.208E-04 -.217E-02
   0.131E-04 -.687E+00 0.149E+04   -.130E-04 0.732E+00 -.149E+04   0.196E-06 -.590E-01 0.233E+01   -.159E-05 0.414E-05 -.116E-02
   0.553E+00 0.158E-02 0.149E+04   -.560E+00 -.235E-04 -.149E+04   0.901E-02 -.114E-02 0.243E+01   -.278E-04 -.199E-05 -.110E-02
   -.190E-03 0.244E-03 -.142E+04   0.491E-04 0.176E-03 0.143E+04   0.210E-03 -.387E-02 -.469E+01   -.199E-05 0.250E-05 -.169E-02
   0.342E+02 -.268E+02 -.139E+04   -.334E+02 0.270E+02 0.139E+04   -.866E+00 -.910E-01 -.473E+01   0.168E-03 -.677E-04 -.172E-02
   0.700E-04 -.611E+01 -.424E+03   -.435E-04 0.619E+01 0.424E+03   -.332E-04 -.804E-01 0.938E-01   -.828E-06 -.338E-04 -.238E-02
   0.117E+01 0.147E-02 -.418E+03   -.145E+01 -.388E-04 0.417E+03   0.262E+00 -.118E-02 0.851E+00   0.694E-04 -.616E-06 -.233E-02
   0.581E-04 0.130E-02 0.517E+03   -.557E-04 0.585E-04 -.516E+03   -.201E-05 -.148E-02 -.103E+00   -.146E-05 0.136E-05 -.219E-02
   0.135E+00 0.217E+01 0.514E+03   -.287E+00 -.230E+01 -.513E+03   0.191E+00 0.172E+00 -.294E+00   0.203E-04 0.228E-04 -.218E-02
   0.140E-04 0.689E+00 0.149E+04   -.133E-04 -.732E+00 -.149E+04   -.879E-05 0.548E-01 0.233E+01   0.697E-06 -.537E-05 -.116E-02
   0.154E+00 0.150E-02 0.148E+04   -.143E+00 0.237E-04 -.149E+04   -.140E-01 -.112E-02 0.230E+01   -.196E-04 0.192E-05 -.116E-02
   0.490E-04 0.682E-03 -.144E+04   -.213E-04 -.488E-04 0.144E+04   -.299E-04 -.493E-02 -.454E+01   0.152E-05 -.516E-05 -.176E-02
   0.342E+02 0.269E+02 -.139E+04   -.334E+02 -.270E+02 0.139E+04   -.863E+00 0.841E-01 -.473E+01   0.173E-03 0.703E-04 -.172E-02
   0.727E-04 0.612E+01 -.424E+03   -.466E-04 -.619E+01 0.424E+03   -.430E-04 0.749E-01 0.947E-01   0.748E-06 0.332E-04 -.238E-02
   0.228E+01 0.114E-02 -.426E+03   -.240E+01 0.110E-03 0.426E+03   0.123E+00 -.172E-02 0.342E+00   0.665E-04 0.104E-05 -.235E-02
   -.478E-04 0.144E-02 0.526E+03   0.472E-04 -.822E-04 -.527E+03   -.643E-05 -.143E-02 0.458E+00   -.780E-06 -.342E-05 -.214E-02
   -.135E+00 -.217E+01 0.514E+03   0.287E+00 0.230E+01 -.513E+03   -.191E+00 -.174E+00 -.295E+00   -.173E-04 -.206E-04 -.217E-02
   -.112E-04 -.109E+01 0.148E+04   0.131E-04 0.115E+01 -.149E+04   -.791E-05 -.828E-01 0.238E+01   0.628E-06 0.125E-04 -.108E-02
   -.553E+00 0.159E-02 0.149E+04   0.560E+00 -.237E-04 -.149E+04   -.902E-02 -.115E-02 0.243E+01   0.276E-04 -.111E-05 -.110E-02
   -.137E-03 -.397E-02 -.116E+04   -.903E-05 0.709E-02 0.113E+04   0.245E-03 -.533E-02 0.241E+02   -.113E-05 -.146E-05 -.154E-02
   -.342E+02 -.268E+02 -.139E+04   0.334E+02 0.270E+02 0.139E+04   0.866E+00 -.912E-01 -.473E+01   -.168E-03 -.676E-04 -.172E-02
   -.515E-04 -.701E+01 -.451E+03   0.441E-04 0.739E+01 0.453E+03   0.122E-04 -.375E+00 -.171E+01   0.203E-06 -.398E-04 -.228E-02
   -.117E+01 0.146E-02 -.418E+03   0.145E+01 -.395E-04 0.417E+03   -.262E+00 -.117E-02 0.851E+00   -.681E-04 0.593E-06 -.233E-02
   -.591E-04 0.120E-02 0.510E+03   0.554E-04 0.757E-04 -.510E+03   -.299E-05 -.134E-02 -.190E+00   0.677E-06 0.316E-05 -.215E-02
   -.135E+00 0.217E+01 0.514E+03   0.287E+00 -.230E+01 -.513E+03   -.191E+00 0.172E+00 -.294E+00   -.194E-04 0.210E-04 -.217E-02
   -.972E-05 0.109E+01 0.148E+04   0.134E-04 -.115E+01 -.149E+04   -.943E-05 0.787E-01 0.238E+01   -.128E-05 -.115E-04 -.108E-02
   -.154E+00 0.150E-02 0.148E+04   0.143E+00 0.240E-04 -.149E+04   0.140E-01 -.111E-02 0.230E+01   0.204E-04 0.185E-06 -.116E-02
   -.473E-04 -.129E-02 -.139E+04   0.196E-04 0.172E-02 0.139E+04   0.508E-04 -.668E-02 -.359E+01   0.591E-06 0.900E-07 -.163E-02
   -.342E+02 0.269E+02 -.139E+04   0.334E+02 -.270E+02 0.139E+04   0.863E+00 0.843E-01 -.473E+01   -.172E-03 0.698E-04 -.173E-02
   -.599E-04 0.701E+01 -.451E+03   0.510E-04 -.739E+01 0.453E+03   0.147E-04 0.369E+00 -.171E+01   0.255E-06 0.395E-04 -.228E-02
   -.228E+01 0.112E-02 -.426E+03   0.240E+01 0.128E-03 0.426E+03   -.123E+00 -.172E-02 0.342E+00   -.666E-04 -.611E-06 -.235E-02
   0.456E-03 0.483E-01 0.693E+02   0.000E+00 0.199E-12 0.165E-11   -.136E-02 -.294E+00 -.689E+02   0.179E-05 0.234E-05 -.154E+00

 POSITION                                       TOTAL-FORCE (eV/Angst)
      4.22049      6.33297     12.22386        -0.000033      0.010105      0.458195
      4.22049      7.48880     12.71843        -0.000395     -1.118647     -0.643486
      4.22049      5.17734     12.71841        -0.000389      1.109952     -0.638580
      0.00000      6.33303      4.28157         0.000016     -0.002715      0.427543
      2.11025      0.00229      4.28157         0.001600      0.007572      0.453846
      0.00000      0.00229      6.39181         0.000020      0.042858      0.155987
      2.11025      6.33303      6.39181        -0.023174     -0.001435      0.064170
      8.44098      6.33303      8.48926         0.000037      0.003210     -0.044559
      2.12746      0.00868      8.53030        -0.007985     -0.028239      0.040196
      0.00000      0.02180     10.61555         0.000005      0.045722     -0.116787
      2.00198      6.33303     10.59030        -0.035850     -0.001787     -0.070051
      0.00000      2.11254      4.28157         0.000018     -0.002832      0.457004
      2.11025      4.22278      4.28157         0.001603     -0.011571      0.453837
      0.00000      4.22278      6.39181        -0.000000     -0.047356      0.155993
      2.11025      2.11254      6.39181         0.023373     -0.001620      0.146228
      0.00000      2.11254      8.50546        -0.000005      0.005076      0.073508
      2.12747      4.21640      8.53030        -0.003804      0.019002      0.041177
      0.00000      4.20328     10.61555        -0.000042     -0.052322     -0.122829
      2.09055      2.11254     10.62376        -0.063033     -0.001982     -0.132954
      4.22049      6.33303      4.28157        -0.000007     -0.002745      0.408318
      6.33074      0.00229      4.28157        -0.001605      0.007577      0.454058
      4.22049      0.00229      6.39181         0.000028      0.089581      0.153692
      6.33074      6.33303      6.39181         0.023239     -0.001443      0.064193
      4.22049      6.33303      8.46557         0.000004      0.002783     -0.013739
      6.31352      0.00868      8.53030         0.007979     -0.028248      0.040161
      4.22049      0.09690     10.81979        -0.000030     -0.034783     -0.024268
      6.43900      6.33303     10.59030         0.036047     -0.001792     -0.070164
      4.22049      2.11254      4.28157         0.000016     -0.002818      0.458425
      6.33074      4.22278      4.28157        -0.001590     -0.011571      0.453910
      4.22049      4.22278      6.39181         0.000043     -0.094154      0.153803
      6.33074      2.11254      6.39181        -0.023357     -0.001618      0.146210
      4.22049      2.11254      8.53780         0.000022     -0.004278     -0.006064
      6.31352      4.21640      8.53030         0.003807      0.019006      0.041076
      4.22049      4.12818     10.81980        -0.000024      0.016939     -0.033640
      6.35044      2.11254     10.62376         0.063073     -0.001967     -0.132989
      0.00000      6.33303      6.39181         0.000022      0.003409      0.038781
      2.11025      0.00229      6.39181         0.040222     -0.038815      0.046632
      0.00000      0.00229      4.28157         0.000015     -0.010515     -0.405930
      2.11025      6.33303      4.28157         0.002269      0.003987     -0.387676
      0.00000      6.33303     10.63393         0.000094      0.000119     -0.135353
      2.09470      8.43064     10.64084        -0.013998      0.012826     -0.132005
      0.00000      8.43869      8.49951         0.000009     -0.000605      0.012711
      2.12978      6.33303      8.51918        -0.009719      0.003784      0.021244
      0.00000      2.11254      6.39181         0.000010      0.003403     -0.001206
      2.11025      4.22278      6.39181         0.040218      0.046196      0.046812
      0.00000      4.22278      4.28157         0.000008      0.015685     -0.405864
      2.11025      2.11254      4.28157        -0.003233      0.003979     -0.415195
      0.00000      2.11254     10.64951         0.000013     -0.000763     -0.135075
      2.09470      4.23542     10.64084        -0.011365     -0.010861     -0.131940
      0.00000      4.22737      8.49951         0.000002      0.004245      0.013055
      2.11475      2.11254      8.51147         0.005094      0.003046      0.019421
      4.22049      6.33303      6.39181         0.000008      0.003449     -0.029632
      6.33074      0.00229      6.39181        -0.040192     -0.038813      0.046643
      4.22049      0.00229      4.28157         0.000012     -0.016172     -0.394460
      6.33074      6.33303      4.28157        -0.002244      0.003971     -0.387614
      4.22049      6.33304     10.75435         0.000104      0.001261      0.503290
      6.34628      8.43064     10.64084         0.013928      0.012816     -0.131889
      4.22049      8.42386      8.53684         0.000014      0.011734     -0.027169
      6.31120      6.33303      8.51918         0.009736      0.003790      0.021209
      4.22049      2.11254      6.39181         0.000006      0.003458      0.100517
      6.33074      4.22278      6.39181        -0.040187      0.046198      0.046808
      4.22049      4.22278      4.28157         0.000009      0.021352     -0.394413
      6.33074      2.11254      4.28157         0.003270      0.003981     -0.415166
      4.22049      2.11254     10.68204         0.000038     -0.002732     -0.097088
      6.34628      4.23542     10.64084         0.011292     -0.010854     -0.131849
      4.22049      4.24220      8.53684         0.000015     -0.009063     -0.028426
      6.32623      2.11254      8.51147        -0.005073      0.003043      0.019408
    total drift:                               -0.000906     -0.246019      0.242054

  FREE ENERGIE OF THE ION-ELECTRON SYSTEM (eV)
  free  energy   TOTEN  =      -533.64703929 eV

  energy  without entropy=     -533.64703929  energy(sigma->0) =     -533.64703929

     |            E. Caldeweyher, S. Ehlert & S. Grimme          |
     |          Mulliken Center for Theoretical Chemistry        |
     |                    University of Bonn                     |

Rational (Becke-Johnson) damping: r2scan-D4-ATM
  s6         1.0000
  s8         0.6019
  s9         1.0000
  a1         0.5156
  a2         5.7734
 alp        16.0000

Dispersion energy:      -1.1721503614100E-01 Eh