 vasp.6.3.0 20Jan22 (build Mar 11 2022 13:48:16) complex

 executed on             LinuxIFC date 2023.12.30  22:34:31

 INCAR:
   SYSTEM = TiO2
   ISMEAR = 0
   SIGMA = 0.05
   EDIFF = 1E-7
   ALGO = ALL
   ISTART = 0
   IBRION = 2
   NSW = 1000
   ISYM = 0
   ISIF = 2
   EDIFFG = -0.015
   DIPOL = 0.5 0.5 0.5
   IDIPOL = 3
   LDIPOL = .TRUE.
   METAGGA = R2SCAN
   LUSE_VDW = .TRUE.
   BPARAM = 11.95
   CPARAM = 0.0093
   LASPH = .TRUE.
   ENCUT = 600
   PREC = Accurate
   LASPH = .TRUE.
   LREAL = .FALSE.
   ISPIN = 1
   NELM = 200
   NELMIN = 8
   NCORE = 19
   KPAR = 1
   LWAVE = .FALSE.
   LCHARG = .FALSE.

 POTCAR:    PAW_PBE C 08Apr2002
 POTCAR:    PAW_PBE O 08Apr2002
 POTCAR:    PAW_PBE Ti_pv 07Sep2000
 POTCAR:    PAW_PBE O 08Apr2002
|               ----> ADVICE to this user running VASP <----                  |
|     You have switched on vdW-DFT.                                           |
|     This routine was written and supplied by Jiri Klimes. We recommend      |
|     that you carefully read and cite the following publications:            |
|       J. Klimes, D.R. Bowler, A. Michelides                                 |
|          J. Phys.: Cond Matt. 22 022201 (2010)                              |
|       J. Klimes, D.R. Bowler, A. Michelides                                 |
|          Phys. Rev. B. 83, 195131 (2011)                                    |
|     and references therein.                                                 |

   TITEL  = PAW_PBE C 08Apr2002
   POMASS =   12.011; ZVAL   =    4.000    mass and valenz
   ENMAX  =  400.000; ENMIN  =  300.000 eV

[...]

   TITEL  = PAW_PBE Ti_pv 07Sep2000
   POMASS =   47.880; ZVAL   =   10.000    mass and valenz
   ENMAX  =  222.335; ENMIN  =  166.751 eV

   TITEL  = PAW_PBE O 08Apr2002
   POMASS =   16.000; ZVAL   =    6.000    mass and valenz
   ENMAX  =  400.000; ENMIN  =  300.000 eV

  PAW_PBE C 08Apr2002                   :
  PAW_PBE O 08Apr2002                   :
  PAW_PBE Ti_pv 07Sep2000               :
  PAW_PBE O 08Apr2002                   :

 POSCAR:  C  O Ti  O
  positions in direct lattice
  velocities in cartesian coordinates

 METAGGA = R2SCA    LMAXTAU =  6    LMIXTAU =  F

 ion  position               nearest neighbor table
   1  0.500  0.609  0.799-   2 1.16   3 1.17
   2  0.500  0.706  0.805-   1 1.16
   3  0.500  0.512  0.791-   1 1.17  83 2.50
   4  0.750  0.625  0.287-  85 1.95 145 1.95 144 1.95  84 1.95  87 1.97 166 1.97  14 2.96  34 2.96

   5  0.000  0.750  0.287-  86 1.95  87 1.95 106 1.95 107 1.95  88 1.97  35 2.96  15 2.96
   6  0.000  0.625  0.394-  88 1.95  89 1.95 148 1.95 149 1.95  90 1.97  91 1.97  16 2.96  36 2.96

[...]

  84  0.750  0.750  0.246-   4 1.95  14 1.95
  85  0.750  0.750  0.329-   4 1.95  14 1.95   7 1.97
  86  0.098  0.625  0.287-   5 1.95  35 1.95  44 1.97
  87  0.902  0.625  0.287-   5 1.95  35 1.95   4 1.97
  88  0.000  0.750  0.352-   6 1.95  16 1.95   5 1.97
  89  0.000  0.750  0.435-   6 1.95  16 1.95   9 1.97
  90  0.848  0.625  0.394-   7 1.95  37 1.95   6 1.97
  91  0.152  0.625  0.394-  47 1.95  77 1.95   6 1.97
  92  0.750  0.750  0.458-   8 1.95  18 1.95   7 1.97
  93  0.750  0.750  0.542-   8 1.95  18 1.95  11 2.09
  94  0.098  0.625  0.500-   9 1.95  39 1.95  48 1.97
  95  0.902  0.625  0.500-   9 1.95  39 1.95   8 1.97
  96  1.000  0.750  0.565-  10 1.90  20 1.90   9 1.99
  97  0.000  0.750  0.649-  13 1.81  10 2.01  20 2.01
  98  0.850  0.625  0.607-  10 1.95  11 1.97  41 1.97
  99  0.150  0.625  0.607-  10 1.95  51 1.97  81 1.97
 100  0.751  0.750  0.671-  11 1.87  12 2.08  22 2.09
 101  0.749  0.750  0.755-  12 1.83  22 1.83
 102  0.094  0.625  0.719-  43 1.94  13 1.94  52 2.03
 103  0.906  0.625  0.719-  43 1.94  13 1.94  12 2.03
 104  0.750  0.000  0.246-  14 1.95  24 1.95
 105  0.750  0.000  0.329-  14 1.95  24 1.95  17 1.97
 106  0.098  0.875  0.287-   5 1.95  15 1.95  54 1.97
 107  0.902  0.875  0.287-   5 1.95  15 1.95  14 1.97
 108  0.000  0.000  0.352-  16 1.95  26 1.95  15 1.97
 109  0.000  0.000  0.435-  16 1.95  26 1.95  19 1.97
 110  0.848  0.875  0.394-   7 1.95  17 1.95  16 1.97
 111  0.152  0.875  0.394-  47 1.95  57 1.95  16 1.97
 112  0.750  0.000  0.458-  18 1.95  28 1.95  17 1.97
 113  0.750  0.000  0.542-  18 1.95  28 1.95  21 2.09
 114  0.098  0.875  0.500-   9 1.95  19 1.95  58 1.97
 115  0.902  0.875  0.500-   9 1.95  19 1.95  18 1.97
 116  1.000  0.000  0.565-  30 1.90  20 1.90  19 1.99
 117  0.000  1.000  0.649-  23 1.81  20 2.01  30 2.01
 118  0.850  0.875  0.607-  20 1.95  21 1.97  11 1.97
 119  0.150  0.875  0.607-  20 1.95  61 1.97  51 1.97
 120  0.750  0.000  0.671-  21 1.87  22 2.09  32 2.09
 121  0.750  0.000  0.755-  22 1.83  32 1.83
 122  0.094  0.875  0.718-  13 1.94  23 1.94  62 2.03
 123  0.906  0.875  0.718-  13 1.94  23 1.94  22 2.03
 124  0.750  0.250  0.246-  24 1.95  34 1.95
 125  0.750  0.250  0.329-  24 1.95  34 1.95  27 1.97
 126  0.098  0.125  0.287-  15 1.95  25 1.95  64 1.97
 127  0.902  0.125  0.287-  15 1.95  25 1.95  24 1.97
 128  0.000  0.250  0.352-  26 1.95  36 1.95  25 1.97
 129  0.000  0.250  0.435-  26 1.95  36 1.95  29 1.97
 130  0.848  0.125  0.394-  17 1.95  27 1.95  26 1.97
 131  0.152  0.125  0.394-  57 1.95  67 1.95  26 1.97
 132  0.750  0.250  0.458-  28 1.95  38 1.95  27 1.97
 133  0.750  0.250  0.542-  28 1.95  38 1.95  31 2.09
 134  0.098  0.125  0.500-  19 1.95  29 1.95  68 1.97
 135  0.902  0.125  0.500-  19 1.95  29 1.95  28 1.97
 136  1.000  0.250  0.565-  40 1.90  30 1.90  29 1.99
 137  0.000  0.250  0.649-  33 1.81  40 2.01  30 2.01
 138  0.850  0.125  0.607-  30 1.95  21 1.97  31 1.97
 139  0.150  0.125  0.607-  30 1.95  61 1.97  71 1.97
 140  0.751  0.250  0.671-  31 1.87  32 2.09  42 2.09
 141  0.750  0.250  0.755-  42 1.83  32 1.83
 142  0.094  0.125  0.718-  33 1.94  23 1.94  72 2.03
 143  0.906  0.125  0.718-  33 1.94  23 1.94  32 2.03
[...]
 229  0.500  0.500  0.435-  46 1.95  76 1.95  79 1.97
 230  0.348  0.375  0.394-  67 1.95  77 1.95  76 1.97
 231  0.652  0.375  0.394-  27 1.95  37 1.95  76 1.97
 232  0.250  0.500  0.458-  48 1.95  78 1.95  77 1.97
 233  0.250  0.500  0.542-  48 1.95  78 1.95  81 2.09
 234  0.598  0.375  0.500-  69 1.95  79 1.95  38 1.97
 235  0.402  0.375  0.500-  69 1.95  79 1.95  78 1.97
 236  0.500  0.500  0.565-  80 1.90  50 1.90  79 1.99
 237  0.500  0.500  0.649-  83 1.83  80 2.00  50 2.00
 238  0.350  0.375  0.607-  80 1.95  81 1.97  71 1.97
 239  0.650  0.375  0.607-  80 1.95  41 1.97  31 1.97
 240  0.249  0.500  0.671-  81 1.87  52 2.09  82 2.09
 241  0.252  0.500  0.755-  82 1.83  52 1.83
 242  0.594  0.374  0.718-  83 1.93  73 1.94  42 2.03
 243  0.406  0.374  0.718-  83 1.93  73 1.94  82 2.03

IMPORTANT INFORMATION: All symmetrisations will be switched off!
NOSYMM: (Re-)initialisation of all symmetry stuff for point group C_1.

                                     Primitive cell

  volume of cell :    4687.8040

  direct lattice vectors                    reciprocal lattice vectors
    12.981773603  0.000000000  0.000000000     0.077031077  0.000000000  0.000000000
     0.000000000 11.829932295  0.000000000     0.000000000  0.084531338  0.000000000
     0.000000000  0.000000000 30.524823105     0.000000000  0.000000000  0.032760223

  length of vectors
    12.981773603 11.829932295 30.524823105     0.077031077  0.084531338  0.032760223

  position of ions in fractional coordinates (direct lattice)
     0.499999969  0.609330004  0.798605684
     0.499999893  0.706291577  0.805036088
     0.500000003  0.512025067  0.791041544
     0.750000000  0.625000000  0.287357103
     0.000000000  0.750000000  0.287357103
     0.000000000  0.625000000  0.393678552
     0.750000000  0.750000000  0.393678552
     0.750000000  0.625000000  0.500000000
     0.000000000  0.750000000  0.500000000
     0.999999895  0.625033260  0.604143020
     0.750038199  0.750059279  0.610063234
     0.750211342  0.625243845  0.719338251
     0.000000092  0.750167473  0.708049104
     0.750000000  0.875000000  0.287357103
     0.000000000  0.000000000  0.287357103
     0.000000000  0.875000000  0.393678552
     0.750000000  0.000000000  0.393678552
     0.750000000  0.875000000  0.500000000
     0.000000000  0.000000000  0.500000000
     0.999999899  0.875042396  0.604155482
     0.749989585  0.000030517  0.610169106
     0.749896232  0.875143414  0.719721866
     0.000000135  0.000045124  0.708067649
     0.750000000  0.125000000  0.287357103
     0.000000000  0.250000000  0.287357103
     0.000000000  0.125000000  0.393678552
     0.750000000  0.250000000  0.393678552
     0.750000000  0.125000000  0.500000000
     0.000000000  0.250000000  0.500000000
     0.999999905  0.125008930  0.604177922
     0.750026080  0.249992082  0.610166493
     0.749938025  0.125082404  0.719709419
     0.000000147  0.249980958  0.708073812
     0.750000000  0.375000000  0.287357103
     0.000000000  0.500000000  0.287357103
     0.000000000  0.375000000  0.393678552
     0.750000000  0.500000000  0.393678552
     0.750000000  0.375000000  0.500000000
     0.000000000  0.500000000  0.500000000
     0.999999898  0.375002819  0.604145479
     0.750072839  0.499994534  0.610096264
     0.750180312  0.375085332  0.719664219
     0.000000064  0.500074970  0.708039156
     0.250000000  0.625000000  0.287357103
     0.500000000  0.750000000  0.287357103
     0.500000000  0.625000000  0.393678552
     0.250000000  0.750000000  0.393678552
     0.250000000  0.625000000  0.500000000
     0.500000000  0.750000000  0.500000000
     0.499999893  0.624518537  0.604646160
     0.249961542  0.750059280  0.610063218
     0.249788700  0.625243867  0.719338207
     0.500000112  0.750853191  0.707844225
     0.250000000  0.875000000  0.287357103
     0.500000000  0.000000000  0.287357103
     0.500000000  0.875000000  0.393678552
     0.250000000  0.000000000  0.393678552
     0.250000000  0.875000000  0.500000000
     0.500000000  0.000000000  0.500000000
     0.499999882  0.874735291  0.603893022
[...]
     0.500000000  0.500000000  0.435333986
     0.347946921  0.375000000  0.393678552
     0.652053079  0.375000000  0.393678552
     0.250000000  0.500000000  0.458344566
     0.250000000  0.500000000  0.541655434
     0.597946921  0.375000000  0.500000000
     0.402053079  0.375000000  0.500000000
     0.499999940  0.500060298  0.565317171
     0.500000094  0.499889068  0.649113940
     0.349917230  0.375036223  0.606982197
     0.650082899  0.375036208  0.606982167
     0.249143077  0.500008073  0.671249516
     0.251553231  0.500420401  0.754858882
     0.594242616  0.373941982  0.717519043
     0.405757651  0.373941906  0.717519144

  ion indices of the primitive-cell ions
   primitive index   ion index
                 1           1
                 2           2
                 3           3
                 4           4
                 5           5
                 6           6
                 7           7
                 8           8
                 9           9
                10          10
                11          11
                12          12
                13          13
                14          14
                15          15
                16          16
[...]
   4.54254626  4.43665313 18.52802419
   8.43922902  4.43665295 18.52802328
   3.23431902  5.91506165 20.48977274
   3.26560710  5.91993947 23.04193384
   7.71432311  4.42370833 21.90214187
   5.26745397  4.42370743 21.90214495

--------------------------------------- Iteration      FINAL  ---------------------------------------

--------------------OUTCAR has been truncated-------------------------

[...]

--------------------OUTCAR has been truncated-------------------------

  FORCE on cell =-STRESS in cart. coord.  units (eV):
  Direction    XX          YY          ZZ          XY          YZ          ZX
  Alpha Z  4734.35770  4734.35770  4734.35770
  Ewald  976586.79309994836.34008************    -0.00060   143.42011     0.00075
  Hartree************************************    -0.00023    66.61998     0.00068
  E(xc)   -9206.96016 -9216.42947 -9204.88489    -0.00000     0.00773    -0.00000
  Local  ************************************     0.00079  -196.66232    -0.00152
  n-local -5217.18327 -5128.04597 -5261.95566     0.00001    -1.11643    -0.00017
  augment  5530.72083  5494.85883  5534.36485     0.00000    -0.55709    -0.00004
  Kinetic 29021.19624 28467.69891 29059.22106     0.00004   -11.82657     0.00008
  Fock        0.00000     0.00000     0.00000     0.00000     0.00000     0.00000
  Total       4.94366   -44.82125   -36.23090     0.00001    -0.11459    -0.00022
  in kB       1.68962   -15.31881   -12.38284     0.00001    -0.03916    -0.00007

 VOLUME and BASIS-vectors are now :
  energy-cutoff  :      600.00
  volume of cell :     4687.80
      direct lattice vectors                 reciprocal lattice vectors
    12.981773603  0.000000000  0.000000000     0.077031077  0.000000000  0.000000000
     0.000000000 11.829932295  0.000000000     0.000000000  0.084531338  0.000000000
     0.000000000  0.000000000 30.524823105     0.000000000  0.000000000  0.032760223

  length of vectors
    12.981773603 11.829932295 30.524823105     0.077031077  0.084531338  0.032760223

 FORCES acting on ions:
    Electron-Ion                     Ewald-Force                    Non-Local-Force
   -.121E-03 0.527E+01 -.164E+04   0.108E-03 -.525E+01 0.164E+04   0.144E-04 -.363E-01 0.254E-01
   0.202E-03 -.274E+03 -.242E+04   -.272E-03 0.340E+03 0.243E+04   0.705E-04 -.659E+02 -.129E+02
   -.814E-04 0.269E+03 -.247E+04   0.950E-04 -.333E+03 0.246E+04   -.116E-04 0.638E+02 0.814E+01
   -.228E+00 0.247E-02 0.381E+04   0.227E+00 -.243E-02 -.381E+04   0.428E-05 -.480E-05 0.444E+00
   -.255E-03 -.605E-01 0.399E+04   -.243E-05 0.607E-01 -.398E+04   0.261E-03 -.184E-04 -.402E+01
   0.555E-04 0.297E-02 0.195E+04   -.114E-04 -.300E-02 -.195E+04   -.747E-04 0.245E-04 -.620E-01
   -.458E+00 -.117E+00 0.194E+04   0.456E+00 0.117E+00 -.195E+04   0.668E-03 -.160E-04 0.217E+00
   -.197E+01 0.857E-01 0.205E+02   0.196E+01 -.889E-01 -.197E+02   0.205E-02 0.300E-03 -.125E+00
   -.265E-03 -.719E+00 0.296E+02   0.142E-04 0.723E+00 -.306E+02   0.242E-03 -.109E-02 0.316E+00
   -.443E-03 -.402E+00 -.186E+04   0.380E-03 0.403E+00 0.186E+04   0.636E-04 -.875E-03 0.135E+00
   -.130E+02 -.580E+01 -.191E+04   0.130E+02 0.581E+01 0.191E+04   -.406E-02 -.525E-02 -.165E+00
   -.892E+02 -.482E+01 -.371E+04   0.892E+02 0.482E+01 0.371E+04   0.169E-01 -.594E-03 -.259E+00
   0.723E-04 -.757E+01 -.378E+04   -.359E-03 0.757E+01 0.378E+04   0.290E-03 -.329E-02 0.117E+01
   -.226E+00 -.899E-01 0.381E+04   0.226E+00 0.904E-01 -.381E+04   0.569E-04 -.321E-04 0.444E+00
   -.256E-03 -.607E-01 0.399E+04   -.231E-05 0.608E-01 -.398E+04   0.261E-03 -.986E-05 -.402E+01
   0.544E-04 -.195E+00 0.195E+04   -.103E-04 0.195E+00 -.195E+04   -.743E-04 0.958E-05 -.621E-01
   -.470E+00 -.153E+00 0.194E+04   0.467E+00 0.154E+00 -.195E+04   0.759E-03 0.887E-05 0.217E+00
   -.221E+01 -.112E+01 0.193E+02   0.221E+01 0.113E+01 -.185E+02   0.119E-02 -.118E-02 -.127E+00
   -.272E-03 -.635E+00 0.282E+02   0.207E-04 0.640E+00 -.293E+02   0.242E-03 -.136E-02 0.315E+00
   -.472E-03 -.375E+01 -.186E+04   0.410E-03 0.375E+01 0.186E+04   0.629E-04 -.217E-02 0.133E+00
   -.886E+01 -.431E+01 -.192E+04   0.886E+01 0.431E+01 0.192E+04   0.163E-02 0.176E-04 -.159E+00
   -.466E+02 -.322E+02 -.375E+04   0.466E+02 0.322E+02 0.375E+04   0.248E-01 0.367E-04 -.290E+00
   0.985E-04 -.597E+01 -.379E+04   -.384E-03 0.597E+01 0.379E+04   0.291E-03 -.546E-03 0.118E+01
   -.220E+00 -.250E-02 0.381E+04   0.219E+00 0.244E-02 -.381E+04   0.643E-04 0.430E-05 0.444E+00
   -.256E-03 0.605E-01 0.399E+04   -.233E-05 -.606E-01 -.398E+04   0.261E-03 0.221E-04 -.402E+01
   0.538E-04 -.295E-02 0.195E+04   -.961E-05 0.291E-02 -.195E+04   -.747E-04 0.857E-05 -.622E-01
   -.436E+00 0.117E+00 0.194E+04   0.433E+00 -.118E+00 -.195E+04   0.698E-03 0.986E-05 0.217E+00
   -.204E+01 -.784E-01 0.181E+02   0.204E+01 0.778E-01 -.173E+02   0.135E-02 0.253E-04 -.129E+00
   -.270E-03 0.735E+00 0.283E+02   0.195E-04 -.739E+00 -.294E+02   0.241E-03 0.102E-02 0.316E+00
   -.471E-03 0.264E+00 -.186E+04   0.409E-03 -.266E+00 0.186E+04   0.627E-04 0.239E-02 0.138E+00
   -.936E+01 0.556E+01 -.192E+04   0.936E+01 -.556E+01 0.192E+04   -.159E-02 0.171E-02 -.162E+00
   -.245E+02 0.366E+01 -.377E+04   0.245E+02 -.366E+01 0.377E+04   0.133E-01 -.199E-02 -.291E+00
   0.865E-04 0.655E+01 -.379E+04   -.374E-03 -.655E+01 0.379E+04   0.291E-03 0.431E-02 0.117E+01
   -.222E+00 0.899E-01 0.381E+04   0.221E+00 -.904E-01 -.381E+04   0.177E-04 0.342E-04 0.444E+00
   -.255E-03 0.607E-01 0.399E+04   -.246E-05 -.608E-01 -.398E+04   0.261E-03 0.153E-04 -.402E+01
   0.548E-04 0.194E+00 0.195E+04   -.107E-04 -.195E+00 -.195E+04   -.746E-04 0.115E-04 -.621E-01
   -.424E+00 0.153E+00 0.194E+04   0.422E+00 -.153E+00 -.195E+04   0.553E-03 -.175E-04 0.217E+00
   -.180E+01 0.111E+01 0.193E+02   0.179E+01 -.112E+01 -.185E+02   0.193E-02 0.107E-02 -.127E+00
   -.257E-03 0.666E+00 0.297E+02   0.551E-05 -.669E+00 -.308E+02   0.242E-03 0.137E-03 0.316E+00
   -.443E-03 0.379E+01 -.186E+04   0.381E-03 -.379E+01 0.186E+04   0.626E-04 0.210E-02 0.134E+00
   -.135E+02 0.452E+01 -.190E+04   0.135E+02 -.453E+01 0.190E+04   -.407E-02 0.258E-02 -.170E+00
   -.575E+02 0.340E+02 -.374E+04   0.575E+02 -.340E+02 0.374E+04   0.181E-01 0.241E-02 -.281E+00
   0.103E-03 0.659E+01 -.378E+04   -.387E-03 -.659E+01 0.378E+04   0.289E-03 0.372E-02 0.116E+01
   0.228E+00 0.247E-02 0.381E+04   -.227E+00 -.243E-02 -.381E+04   -.329E-03 -.557E-05 0.444E+00
   -.260E-03 -.630E-01 0.399E+04   0.256E-05 0.634E-01 -.398E+04   0.261E-03 -.747E-04 -.402E+01
   0.306E-04 0.604E-01 0.195E+04   0.144E-04 -.562E-01 -.195E+04   -.749E-04 -.868E-03 -.624E-01
   0.457E+00 -.117E+00 0.194E+04   -.456E+00 0.117E+00 -.195E+04   -.196E-03 -.166E-04 0.217E+00
   0.197E+01 0.857E-01 0.205E+02   -.196E+01 -.889E-01 -.197E+02   -.238E-02 0.300E-03 -.125E+00
   -.384E-03 -.476E+00 0.339E+02   0.135E-03 0.447E+00 -.349E+02   0.241E-03 0.153E-01 0.299E+00
   -.725E-03 -.152E+01 -.183E+04   0.675E-03 0.155E+01 0.183E+04   0.522E-04 -.260E-01 0.142E+00
   0.130E+02 -.580E+01 -.191E+04   -.130E+02 0.581E+01 0.191E+04   0.446E-02 -.525E-02 -.165E+00
   0.892E+02 -.482E+01 -.371E+04   -.892E+02 0.482E+01 0.371E+04   -.170E-01 -.603E-03 -.259E+00
   -.327E-04 -.761E+02 -.363E+04   -.256E-03 0.761E+02 0.363E+04   0.294E-03 -.255E-01 0.128E+01
   0.226E+00 -.899E-01 0.381E+04   -.226E+00 0.904E-01 -.381E+04   -.382E-03 -.321E-04 0.444E+00
   -.260E-03 -.703E-01 0.399E+04   0.244E-05 0.704E-01 -.398E+04   0.261E-03 -.250E-04 -.402E+01
   0.317E-04 -.171E+00 0.195E+04   0.134E-04 0.174E+00 -.195E+04   -.750E-04 -.736E-03 -.627E-01
   0.469E+00 -.153E+00 0.194E+04   -.467E+00 0.154E+00 -.195E+04   -.286E-03 0.872E-05 0.217E+00
   0.221E+01 -.112E+01 0.193E+02   -.221E+01 0.113E+01 -.185E+02   -.152E-02 -.118E-02 -.127E+00
   -.375E-03 -.916E+00 0.336E+02   0.126E-03 0.920E+00 -.347E+02   0.240E-03 -.377E-03 0.300E+00
   -.732E-03 -.117E+02 -.183E+04   0.688E-03 0.117E+02 0.183E+04   0.470E-04 -.754E-04 0.675E-01
[...]
   -.529E+02 0.110E+00 0.117E+04   0.570E+02 -.111E+00 -.117E+04   -.361E+01 0.150E-02 0.180E+00
   0.529E+02 0.110E+00 0.117E+04   -.570E+02 -.111E+00 -.117E+04   0.361E+01 0.150E-02 0.180E+00
   0.609E+00 0.251E+00 0.517E+03   -.605E+00 -.253E+00 -.522E+03   -.621E-02 0.529E-02 0.431E+01
   0.213E+01 0.961E+00 -.508E+03   -.212E+01 -.964E+00 0.515E+03   -.100E-01 0.586E-02 -.713E+01
   -.555E+02 0.506E+00 0.183E+02   0.603E+02 -.511E+00 -.185E+02   -.530E+01 0.173E-01 0.323E+00
   0.555E+02 0.506E+00 0.183E+02   -.603E+02 -.511E+00 -.185E+02   0.530E+01 0.173E-01 0.323E+00
   -.190E-03 0.136E+01 -.610E+03   0.193E-03 -.130E+01 0.604E+03   -.160E-05 -.628E-01 0.658E+01
   -.229E-03 0.811E+01 -.157E+04   0.267E-03 -.796E+01 0.157E+04   -.375E-04 -.149E+00 0.169E+01
   -.231E+02 0.551E+01 -.112E+04   0.261E+02 -.556E+01 0.112E+04   -.305E+01 0.440E-01 0.848E+00
   0.231E+02 0.551E+01 -.112E+04   -.261E+02 -.556E+01 0.112E+04   0.305E+01 0.440E-01 0.848E+00
   0.246E+02 0.793E+01 -.179E+04   -.248E+02 -.802E+01 0.179E+04   0.116E+00 0.922E-01 -.219E+01
   0.705E+02 0.212E+02 -.271E+04   -.702E+02 -.212E+02 0.273E+04   -.282E+00 0.510E-02 -.213E+02
   -.572E+02 0.526E+02 -.229E+04   0.636E+02 -.527E+02 0.229E+04   -.646E+01 0.125E+00 -.352E+01
   0.572E+02 0.526E+02 -.229E+04   -.636E+02 -.527E+02 0.229E+04   0.647E+01 0.125E+00 -.352E+01
   -.104E-01 0.151E+01 0.989E+02   -.235E-11 -.257E-11 -.141E-10   0.104E-01 -.150E+01 -.989E+02

 POSITION                                       TOTAL-FORCE (eV/Angst)
      6.49089      7.20801     24.37705         0.000001     -0.004596     -0.002972
      6.49089      8.35526     24.57322         0.000000     -0.008318     -0.009189
      6.49089      6.05669     24.14642         0.000002     -0.001876      0.001237
      9.73633      7.39371      8.77152        -0.000460      0.000026     -3.754874
      0.00000      8.87245      8.77152        -0.000001      0.000135      2.941976
      0.00000      7.39371     12.01697        -0.000030     -0.000009      0.542749
      9.73633      8.87245     12.01697        -0.001535      0.000629     -0.755029
      9.73633      7.39371     15.26241        -0.009592     -0.002873      0.650884
      0.00000      8.87245     15.26241        -0.000013      0.002375     -0.741632
     12.98177      7.39412     18.44134        -0.000001      0.000290     -0.000740
      9.73681      8.87316     18.62203         0.000461      0.000562     -0.000667
      9.73906      7.39661     21.95760        -0.000207     -0.000009     -0.000372
      0.00000      8.87437     21.61307        -0.000001      0.001014     -0.000579
      9.73633     10.35119      8.77152        -0.000547      0.000463     -3.754921
      0.00000      0.00000      8.77152        -0.000001      0.000099      2.941863
      0.00000     10.35119     12.01697        -0.000029      0.000371      0.542941
      9.73633      0.00000     12.01697        -0.001853      0.000465     -0.753240
      9.73633     10.35119     15.26241        -0.005601      0.015260      0.658914
      0.00000      0.00000     15.26241        -0.000013      0.003306     -0.738931
     12.98177     10.35170     18.44179        -0.000000      0.000724     -0.000536
      9.73612      0.00038     18.62525         0.000265      0.000204     -0.000400
      9.73502     10.35290     21.96935         0.000262      0.000226     -0.000163
      0.00000      0.00057     21.61367         0.000001     -0.000511     -0.000775
      9.73633      1.47874      8.77152        -0.000567     -0.000065     -3.754791
      0.00000      2.95748      8.77152        -0.000001     -0.000157      2.941906
      0.00000      1.47874     12.01697        -0.000030     -0.000034      0.543189
      9.73633      2.95748     12.01697        -0.001619     -0.000664     -0.752838
      9.73633      1.47874     15.26241        -0.005768     -0.000592      0.668911
      0.00000      2.95748     15.26241        -0.000013     -0.003204     -0.739455
     12.98177      1.47885     18.44247        -0.000001      0.000003     -0.000518
      9.73664      2.95741     18.62515         0.000669     -0.000258     -0.000628
      9.73559      1.47973     21.96895         0.000469      0.000187     -0.000727
      0.00000      2.95727     21.61385        -0.000001      0.000933     -0.001087
      9.73633      4.43622      8.77152        -0.000471     -0.000456     -3.754834
      0.00000      5.91497      8.77152        -0.000001     -0.000103      2.942007
      0.00000      4.43622     12.01697        -0.000030     -0.000345      0.542918
      9.73633      5.91497     12.01697        -0.001301     -0.000467     -0.754489
      9.73633      4.43622     15.26241        -0.009100     -0.011934      0.660625
      0.00000      5.91497     15.26241        -0.000013     -0.002416     -0.741988
     12.98177      4.43628     18.44143        -0.000001     -0.000538     -0.000491
      9.73729      5.91491     18.62306         0.000781      0.000090     -0.000485
      9.73869      4.43723     21.96758        -0.000223      0.000176     -0.000575
      0.00000      5.91593     21.61279         0.000000     -0.000725     -0.000810
      3.24544      7.39371      8.77152         0.000396      0.000025     -3.754875
      6.49089      8.87245      8.77152        -0.000001      0.000302      2.943414
      6.49089      7.39371     12.01697        -0.000029      0.003340      0.546451
      3.24544      8.87245     12.01697         0.001504      0.000629     -0.755030
      3.24544      7.39371     15.26241         0.009514     -0.002872      0.650879
      6.49089      8.87245     15.26241        -0.000011     -0.013437     -0.697985
      6.49089      7.38798     18.45674         0.000001      0.000696     -0.000713
      3.24496      8.87316     18.62203        -0.000462      0.000561     -0.000673
      3.24271      7.39661     21.95760         0.000202     -0.000004     -0.000373
      6.49089      8.88248     21.60684         0.000001      0.000916      0.000542
      3.24544     10.35119      8.77152         0.000482      0.000464     -3.754921
      6.49089      0.00000      8.77152        -0.000001      0.000129      2.943587
      6.49089     10.35119     12.01697        -0.000029      0.002440      0.548713
      3.24544      0.00000     12.01697         0.001823      0.000464     -0.753241
      3.24544     10.35119     15.26241         0.005522      0.015263      0.658912
      6.49089      0.00000     15.26241        -0.000012      0.003207     -0.759839
      6.49089     10.34807     18.43373         0.000001     -0.000095      0.000326
[...]
      6.49089      5.91497     13.28849        -0.000002      0.000470     -0.128592
      4.51697      4.43622     12.01697         0.447709      0.000618      0.056987
      8.46481      4.43622     12.01697        -0.447663      0.000618      0.056986
      3.24544      5.91497     13.99089        -0.001727      0.002850     -0.079741
      3.24544      5.91497     16.53394         0.000443      0.002769      0.045423
      7.76241      4.43622     15.26241        -0.457665      0.012095      0.086213
      5.21936      4.43622     15.26241         0.457717      0.012095      0.086211
      6.49089      5.91570     17.25609         0.000001      0.000205     -0.000331
      6.49089      5.91362     19.81402         0.000000     -0.000389     -0.001754
      4.54253      4.43665     18.52798         0.000362      0.000058     -0.000807
      8.43925      4.43664     18.52798        -0.000363      0.000058     -0.000806
      3.23427      5.91507     20.48973        -0.000914      0.000202     -0.000990
      3.26559      5.91997     23.04189        -0.000441      0.000550     -0.001154
      7.71435      4.42369     21.90208        -0.000139     -0.000284     -0.001596
      5.26742      4.42369     21.90209         0.000141     -0.000284     -0.001597
    total drift:                                0.000022      0.001704     -0.061840

  FREE ENERGIE OF THE ION-ELECTRON SYSTEM (eV)
  free  energy   TOTEN  =     -2735.85882296 eV

  energy  without entropy=    -2735.85882296  energy(sigma->0) =    -2735.85882296

 d Force = 0.7295412E-05[ 0.717E-05, 0.742E-05]  d Energy = 0.5413982E-05 0.188E-05
 d Force =-0.4686356E+01[-0.469E+01,-0.469E+01]  d Ewald  =-0.4686357E+01 0.703E-06

 Conjugate gradient step on ions:
 trial-energy change:   -0.000005  1 .order   -0.000007   -0.000007   -0.000007
  (g-gl).g = 0.219E-04      g.g   = 0.222E-04  gl.gl    = 0.183E-04
 g(Force)  = 0.222E-04   g(Stress)= 0.000E+00 ortho     = 0.901E-06
 gamma     =   1.19452
 trial     =   0.31839
 opt step  =   1.27356  (harmonic =   9.64254) maximal distance =0.00025315
 next E    = -2735.858930   (d E  =  -0.00011)

 reached required accuracy - stopping structural energy minimisation