 vasp.6.4.1 05Apr23 (build Sep 19 2024 10:44:22) complex

 executed on             LinuxIFC date 2024.10.16  10:06:40

 INCAR:
   SYSTEM = TiO2
   ISMEAR = 0
   SIGMA = 0.05
   EDIFF = 1E-7
   ALGO = ALL
   ISTART = 0
   IBRION = 2
   NSW = 1000
   ISYM = 0
   ISIF = 2
   EDIFFG = -0.01
   DIPOL = 0.5 0.5 0.5
   IDIPOL = 3
   LDIPOL = .TRUE.
   METAGGA = R2SCAN
   LUSE_VDW = .TRUE.
   BPARAM = 11.95
   CPARAM = 0.0093
   LASPH = .TRUE.
   ENCUT = 600
   PREC = Accurate
   LASPH = .TRUE.
   LREAL = .FALSE.
   ISPIN = 1
   NELM = 200
   NELMIN = 8
   NCORE = 8
   KPAR = 1
   LWAVE = .FALSE.
   LCHARG = .FALSE.

 POTCAR:    PAW_PBE C 08Apr2002
 POTCAR:    PAW_PBE O 08Apr2002
 POTCAR:    PAW_PBE Ti_pv 07Sep2000
 POTCAR:    PAW_PBE O 08Apr2002
|           W    W    AA    RRRRR   N    N  II  N    N   GGGG   !!!           |
|           W    W   A  A   R    R  NN   N  II  NN   N  G    G  !!!           |
|           W    W  A    A  R    R  N N  N  II  N N  N  G       !!!           |
|           W WW W  AAAAAA  RRRRR   N  N N  II  N  N N  G  GGG   !            |
|           WW  WW  A    A  R   R   N   NN  II  N   NN  G    G                |
|           W    W  A    A  R    R  N    N  II  N    N   GGGG   !!!           |
|     For optimal performance we recommend to set                             |
|       NCORE = 2 up to number-of-cores-per-socket                            |
|     This setting can greatly improve the performance of VASP for DFT.       |
|     The default, NCORE=1 might be grossly inefficient on modern             |
|     multi-core architectures or massively parallel machines. Do your        |
|     Unfortunately you need to use the default for GW and RPA                |
|     calculations (for HF NCORE is supported but not extensively tested      |
|     yet).                                                                   |

   TITEL  = PAW_PBE C 08Apr2002
   POMASS =   12.011; ZVAL   =    4.000    mass and valenz
   ENMAX  =  400.000; ENMIN  =  300.000 eV

[...]

   TITEL  = PAW_PBE Ti_pv 07Sep2000
   POMASS =   47.880; ZVAL   =   10.000    mass and valenz
   ENMAX  =  222.335; ENMIN  =  166.751 eV

   TITEL  = PAW_PBE O 08Apr2002
   POMASS =   16.000; ZVAL   =    6.000    mass and valenz
   ENMAX  =  400.000; ENMIN  =  300.000 eV

  PAW_PBE C 08Apr2002                   :
  PAW_PBE O 08Apr2002                   :
  PAW_PBE Ti_pv 07Sep2000               :
  PAW_PBE O 08Apr2002                   :

 POSCAR:  C  O Ti  O
  positions in direct lattice

 METAGGA = R2SCAN                                      LMAXTAU =  6    LMIXTAU =  F

 ion  position               nearest neighbor table
   1  0.500  0.611  0.802-   2 1.18   3 1.18
   2  0.500  0.710  0.807-   1 1.18
   3  0.500  0.513  0.796-   1 1.18
   4  0.750  0.625  0.287-  85 1.95 145 1.95 144 1.95  84 1.95  87 1.97 166 1.97  14 2.96  34 2.96

   5  0.000  0.750  0.287-  86 1.95  87 1.95 106 1.95 107 1.95  88 1.97  35 2.96  15 2.96
   6  0.000  0.625  0.394-  88 1.95  89 1.95 148 1.95 149 1.95  90 1.97  91 1.97  16 2.96  36 2.96

[...]

  83  0.500  0.500  0.708- 237 1.81 182 1.94 183 1.94 242 1.94 243 1.94  53 2.96  73 2.96
  84  0.750  0.750  0.246-   4 1.95  14 1.95
  85  0.750  0.750  0.329-   4 1.95  14 1.95   7 1.97
  86  0.098  0.625  0.287-   5 1.95  35 1.95  44 1.97
  87  0.902  0.625  0.287-   5 1.95  35 1.95   4 1.97
  88  0.000  0.750  0.352-   6 1.95  16 1.95   5 1.97
  89  0.000  0.750  0.435-   6 1.95  16 1.95   9 1.97
  90  0.848  0.625  0.394-   7 1.95  37 1.95   6 1.97
  91  0.152  0.625  0.394-  47 1.95  77 1.95   6 1.97
  92  0.750  0.750  0.458-   8 1.95  18 1.95   7 1.97
  93  0.750  0.750  0.542-   8 1.95  18 1.95  11 2.09
  94  0.098  0.625  0.500-   9 1.95  39 1.95  48 1.97
  95  0.902  0.625  0.500-   9 1.95  39 1.95   8 1.97
  96  1.000  0.750  0.565-  20 1.90  10 1.90   9 1.99
  97  0.000  0.750  0.649-  13 1.81  10 2.01  20 2.01
  98  0.850  0.625  0.607-  10 1.95  11 1.97  41 1.97
  99  0.150  0.625  0.607-  10 1.95  81 1.97  51 1.97
 100  0.750  0.750  0.671-  11 1.87  22 2.09  12 2.09
 101  0.750  0.750  0.755-  22 1.83  12 1.83
 102  0.094  0.625  0.718-  43 1.94  13 1.94  52 2.03
 103  0.906  0.625  0.718-  43 1.94  13 1.94  12 2.03
 104  0.750  0.000  0.246-  14 1.95  24 1.95
 105  0.750  0.000  0.329-  14 1.95  24 1.95  17 1.97
 106  0.098  0.875  0.287-   5 1.95  15 1.95  54 1.97
 107  0.902  0.875  0.287-   5 1.95  15 1.95  14 1.97
 108  0.000  0.000  0.352-  16 1.95  26 1.95  15 1.97
 109  0.000  0.000  0.435-  16 1.95  26 1.95  19 1.97
 110  0.848  0.875  0.394-   7 1.95  17 1.95  16 1.97
 111  0.152  0.875  0.394-  47 1.95  57 1.95  16 1.97
 112  0.750  0.000  0.458-  18 1.95  28 1.95  17 1.97
 113  0.750  0.000  0.542-  18 1.95  28 1.95  21 2.09
 114  0.098  0.875  0.500-   9 1.95  19 1.95  58 1.97
 115  0.902  0.875  0.500-   9 1.95  19 1.95  18 1.97
 116  1.000  0.000  0.565-  20 1.90  30 1.90  19 1.99
 117  0.000  1.000  0.649-  23 1.81  30 2.01  20 2.01
 118  0.850  0.875  0.607-  20 1.95  21 1.97  11 1.97
 119  0.150  0.875  0.607-  20 1.95  61 1.97  51 1.97
 120  0.750  0.000  0.671-  21 1.87  32 2.09  22 2.09
 121  0.750  1.000  0.755-  32 1.83  22 1.83
 122  0.094  0.875  0.718-  13 1.94  23 1.94  62 2.03
 123  0.906  0.875  0.718-  23 1.94  13 1.94  22 2.03
 124  0.750  0.250  0.246-  24 1.95  34 1.95
 125  0.750  0.250  0.329-  24 1.95  34 1.95  27 1.97
 126  0.098  0.125  0.287-  15 1.95  25 1.95  64 1.97
 127  0.902  0.125  0.287-  15 1.95  25 1.95  24 1.97
 128  0.000  0.250  0.352-  26 1.95  36 1.95  25 1.97
 129  0.000  0.250  0.435-  26 1.95  36 1.95  29 1.97
 130  0.848  0.125  0.394-  17 1.95  27 1.95  26 1.97
 131  0.152  0.125  0.394-  57 1.95  67 1.95  26 1.97
 132  0.750  0.250  0.458-  28 1.95  38 1.95  27 1.97
 133  0.750  0.250  0.542-  28 1.95  38 1.95  31 2.09
 134  0.098  0.125  0.500-  19 1.95  29 1.95  68 1.97
 135  0.902  0.125  0.500-  19 1.95  29 1.95  28 1.97
 136  1.000  0.250  0.565-  40 1.90  30 1.90  29 1.99
 137  0.000  0.250  0.649-  33 1.81  30 2.01  40 2.01
 138  0.850  0.125  0.607-  30 1.95  31 1.97  21 1.97
 139  0.150  0.125  0.607-  30 1.95  61 1.97  71 1.97
 140  0.750  0.250  0.671-  31 1.87  42 2.09  32 2.09
 141  0.750  0.250  0.755-  42 1.83  32 1.83
 142  0.094  0.125  0.718-  33 1.94  23 1.94  72 2.03
[...]
 229  0.500  0.500  0.435-  46 1.95  76 1.95  79 1.97
 230  0.348  0.375  0.394-  67 1.95  77 1.95  76 1.97
 231  0.652  0.375  0.394-  27 1.95  37 1.95  76 1.97
 232  0.250  0.500  0.458-  48 1.95  78 1.95  77 1.97
 233  0.250  0.500  0.542-  48 1.95  78 1.95  81 2.09
 234  0.598  0.375  0.500-  69 1.95  79 1.95  38 1.97
 235  0.402  0.375  0.500-  69 1.95  79 1.95  78 1.97
 236  0.500  0.500  0.565-  80 1.90  50 1.90  79 1.99
 237  0.500  0.500  0.649-  83 1.81  50 2.01  80 2.01
 238  0.350  0.375  0.607-  80 1.95  71 1.97  81 1.97
 239  0.650  0.375  0.607-  80 1.95  41 1.97  31 1.97
 240  0.250  0.500  0.671-  81 1.87  82 2.09  52 2.09
 241  0.250  0.500  0.755-  52 1.83  82 1.83
 242  0.594  0.375  0.718-  83 1.94  73 1.94  42 2.03
 243  0.406  0.375  0.718-  73 1.94  83 1.94  82 2.03

IMPORTANT INFORMATION: All symmetrisations will be switched off!
NOSYMM: (Re-)initialisation of all symmetry stuff for point group C_1.

                                     Primitive cell

  volume of cell :    4687.7932

  direct lattice vectors                    reciprocal lattice vectors
    12.981765453  0.000000000  0.000000000     0.077031125  0.000000000  0.000000000
     0.000000000 11.829918508  0.000000000     0.000000000  0.084531436  0.000000000
     0.000000000  0.000000000 30.524807391     0.000000000  0.000000000  0.032760239

  length of vectors
    12.981765453 11.829918508 30.524807391     0.077031125  0.084531436  0.032760239

  position of ions in fractional coordinates (direct lattice)
     0.499999749  0.611166601  0.802026860
     0.499999639  0.709562904  0.807440838
     0.499999876  0.512614420  0.795642107
     0.750000000  0.625000000  0.287357127
     0.000000000  0.750000000  0.287357127
     0.000000000  0.625000000  0.393678564
     0.750000000  0.750000000  0.393678564
     0.750000000  0.625000000  0.500000000
     0.000000000  0.750000000  0.500000000
     0.999999975  0.624999996  0.604133439
     0.749999938  0.749999994  0.610202908
     0.750000066  0.624999975  0.719737307
     0.000000051  0.749999998  0.707967630
     0.750000000  0.875000000  0.287357127
     0.000000000  0.000000000  0.287357127
     0.000000000  0.875000000  0.393678564
     0.750000000  0.000000000  0.393678564
     0.750000000  0.875000000  0.500000000
     0.000000000  0.000000000  0.500000000
     0.999999953  0.875000007  0.604133430
     0.749999934  0.999999993  0.610202922
     0.750000020  0.874999952  0.719737329
     0.999999999  0.999999991  0.707967643
     0.750000000  0.125000000  0.287357127
     0.000000000  0.250000000  0.287357127
     0.000000000  0.125000000  0.393678564
     0.750000000  0.250000000  0.393678564
     0.750000000  0.125000000  0.500000000
     0.000000000  0.250000000  0.500000000
     0.999999971  0.124999995  0.604133456
     0.749999939  0.249999987  0.610202920
     0.750000026  0.124999981  0.719737342
     0.000000064  0.250000002  0.707967647
     0.750000000  0.375000000  0.287357127
     0.000000000  0.500000000  0.287357127
     0.000000000  0.375000000  0.393678564
     0.750000000  0.500000000  0.393678564
     0.750000000  0.375000000  0.500000000
     0.000000000  0.500000000  0.500000000
     0.999999958  0.374999994  0.604133442
     0.749999936  0.500000001  0.610202903
     0.750000076  0.374999948  0.719737327
     0.000000077  0.500000004  0.707967634
     0.250000000  0.625000000  0.287357127
     0.500000000  0.750000000  0.287357127
     0.500000000  0.625000000  0.393678564
     0.250000000  0.750000000  0.393678564
     0.250000000  0.625000000  0.500000000
     0.500000000  0.750000000  0.500000000
     0.499999960  0.625000000  0.604133443
     0.249999931  0.750000018  0.610202917
     0.250000052  0.625000010  0.719737319
     0.500000061  0.750000004  0.707967626
     0.250000000  0.875000000  0.287357127
     0.500000000  0.000000000  0.287357127
     0.500000000  0.875000000  0.393678564
     0.250000000  0.000000000  0.393678564
     0.250000000  0.875000000  0.500000000
     0.500000000  0.000000000  0.500000000
     0.499999978  0.875000003  0.604133432
[...]
     0.500000000  0.500000000  0.435333895
     0.347946691  0.375000000  0.393678564
     0.652053309  0.375000000  0.393678564
     0.250000000  0.500000000  0.458344669
     0.250000000  0.500000000  0.541655331
     0.597946691  0.375000000  0.500000000
     0.402053309  0.375000000  0.500000000
     0.499999903  0.499999995  0.565135701
     0.500000068  0.500000001  0.648583822
     0.350049465  0.374999983  0.606878662
     0.649950581  0.374999992  0.606878611
     0.250000059  0.499999994  0.671309955
     0.249999858  0.500000005  0.754960536
     0.593849835  0.375000016  0.718284261
     0.406150406  0.375000010  0.718284401

  ion indices of the primitive-cell ions
   primitive index   ion index
                 1           1
                 2           2
[...]
   6.49088273  0.00000000 15.26240370
   6.49088244 10.35117873 18.44105664
[...]
   6.49088273  5.91495925 13.28848330
   4.51696233  4.43621944 12.01696233
   8.46480312  4.43621944 12.01696233
   3.24544136  5.91495925 13.99088273
   3.24544136  5.91495925 16.53392466
   7.76240370  4.43621944 15.26240370
   5.21936176  4.43621944 15.26240370
   6.49088147  5.91495920 17.25065843
   6.49088361  5.91495926 19.79789623
   4.54426006  4.43621924 18.52485426
   8.43750600  4.43621934 18.52485272
   3.24544213  5.91495918 20.49160707
   3.24543952  5.91495932 23.04502496
   7.70921927  4.43621963 21.92548873
   5.27254931  4.43621956 21.92549300

--------------------------------------- Iteration      FINAL  ---------------------------------------

--------------------OUTCAR has been truncated-------------------------

[...]

--------------------OUTCAR has been truncated-------------------------

  FORCE on cell =-STRESS in cart. coord.  units (eV):
  Direction    XX          YY          ZZ          XY          YZ          ZX
  Alpha Z  4734.36863  4734.36863  4734.36863
  Ewald  976698.29223994947.76753************    -0.00065   143.72943     0.00089
  Hartree************************************    -0.00030    66.77003     0.00070
  E(xc)   -9206.98377 -9216.45293 -9204.90342    -0.00000     0.00804    -0.00000
  Local  ************************************     0.00090  -197.08039    -0.00168
  n-local -5217.18394 -5128.02853 -5261.90814     0.00001    -1.12329    -0.00017
  augment  5530.72408  5494.85814  5534.36356     0.00000    -0.55858    -0.00004
  Kinetic 29021.27645 28467.78379 29059.32887     0.00004   -11.84783     0.00007
  Fock        0.00000     0.00000     0.00000     0.00000     0.00000     0.00000
  Total       4.96248   -44.74746   -36.02176     0.00002    -0.10260    -0.00022
  in kB       1.69606   -15.29363   -12.31139     0.00001    -0.03506    -0.00008

 VOLUME and BASIS-vectors are now :
  energy-cutoff  :      600.00
  volume of cell :     4687.79
      direct lattice vectors                 reciprocal lattice vectors
    12.981765453  0.000000000  0.000000000     0.077031125  0.000000000  0.000000000
     0.000000000 11.829918508  0.000000000     0.000000000  0.084531436  0.000000000
     0.000000000  0.000000000 30.524807391     0.000000000  0.000000000  0.032760239

  length of vectors
    12.981765453 11.829918508 30.524807391     0.077031125  0.084531436  0.032760239

 FORCES acting on ions:
    Electron-Ion                     Ewald-Force                    Non-Local-Force
   -.140E-03 0.533E+01 -.164E+04   0.127E-03 -.530E+01 0.164E+04   0.142E-04 -.371E-01 0.258E-01
   0.144E-03 -.274E+03 -.242E+04   -.203E-03 0.340E+03 0.244E+04   0.597E-04 -.659E+02 -.129E+02
   -.927E-04 0.269E+03 -.247E+04   0.105E-03 -.333E+03 0.246E+04   -.121E-04 0.638E+02 0.815E+01
   -.230E+00 0.185E-02 0.381E+04   0.230E+00 -.179E-02 -.381E+04   0.246E-04 -.108E-04 0.444E+00
   -.258E-03 -.611E-01 0.399E+04   0.280E-06 0.613E-01 -.398E+04   0.261E-03 -.209E-04 -.402E+01
   0.424E-04 0.593E-03 0.195E+04   0.206E-05 -.490E-03 -.195E+04   -.745E-04 0.128E-04 -.619E-01
   -.470E+00 -.120E+00 0.194E+04   0.468E+00 0.121E+00 -.195E+04   0.698E-03 -.286E-04 0.218E+00
   -.201E+01 0.707E-01 0.206E+02   0.200E+01 -.741E-01 -.198E+02   0.206E-02 0.309E-03 -.125E+00
   -.330E-03 -.734E+00 0.297E+02   0.798E-04 0.738E+00 -.307E+02   0.241E-03 -.141E-02 0.315E+00
   -.585E-03 -.420E+00 -.186E+04   0.525E-03 0.423E+00 0.186E+04   0.627E-04 -.123E-02 0.134E+00
   -.129E+02 -.596E+01 -.191E+04   0.129E+02 0.597E+01 0.191E+04   -.560E-02 -.515E-02 -.165E+00
   -.893E+02 -.490E+01 -.371E+04   0.893E+02 0.490E+01 0.371E+04   0.175E-01 0.271E-03 -.259E+00
   0.316E-04 -.768E+01 -.378E+04   -.319E-03 0.769E+01 0.378E+04   0.292E-03 -.303E-02 0.117E+01
   -.228E+00 -.900E-01 0.381E+04   0.228E+00 0.906E-01 -.381E+04   0.780E-04 -.350E-04 0.444E+00
   -.258E-03 -.604E-01 0.399E+04   0.288E-06 0.605E-01 -.398E+04   0.261E-03 -.950E-05 -.402E+01
   0.415E-04 -.197E+00 0.195E+04   0.300E-05 0.197E+00 -.195E+04   -.747E-04 0.554E-05 -.620E-01
   -.483E+00 -.152E+00 0.194E+04   0.480E+00 0.153E+00 -.195E+04   0.804E-03 0.624E-05 0.217E+00
   -.226E+01 -.113E+01 0.194E+02   0.226E+01 0.115E+01 -.186E+02   0.124E-02 -.122E-02 -.127E+00
   -.332E-03 -.636E+00 0.283E+02   0.823E-04 0.641E+00 -.293E+02   0.241E-03 -.141E-02 0.315E+00
   -.656E-03 -.376E+01 -.186E+04   0.597E-03 0.376E+01 0.186E+04   0.626E-04 -.157E-02 0.133E+00
   -.891E+01 -.429E+01 -.192E+04   0.891E+01 0.429E+01 0.192E+04   0.196E-02 0.434E-03 -.158E+00
   -.465E+02 -.321E+02 -.375E+04   0.464E+02 0.321E+02 0.375E+04   0.244E-01 0.128E-02 -.290E+00
   0.974E-04 -.596E+01 -.379E+04   -.384E-03 0.596E+01 0.379E+04   0.292E-03 -.770E-03 0.118E+01
   -.222E+00 -.187E-02 0.381E+04   0.222E+00 0.180E-02 -.381E+04   0.874E-04 0.778E-05 0.444E+00
   -.258E-03 0.611E-01 0.399E+04   0.180E-06 -.613E-01 -.398E+04   0.261E-03 0.275E-04 -.402E+01
   0.423E-04 -.363E-03 0.195E+04   0.218E-05 0.213E-03 -.195E+04   -.747E-04 0.304E-04 -.622E-01
   -.449E+00 0.121E+00 0.194E+04   0.447E+00 -.121E+00 -.195E+04   0.742E-03 0.201E-04 0.217E+00
   -.210E+01 -.593E-01 0.182E+02   0.209E+01 0.579E-01 -.174E+02   0.144E-02 0.602E-04 -.128E+00
   -.312E-03 0.758E+00 0.284E+02   0.617E-04 -.762E+00 -.295E+02   0.241E-03 0.103E-02 0.316E+00
   -.538E-03 0.325E+00 -.186E+04   0.479E-03 -.328E+00 0.186E+04   0.621E-04 0.255E-02 0.138E+00
   -.932E+01 0.571E+01 -.192E+04   0.933E+01 -.572E+01 0.192E+04   -.265E-02 0.117E-02 -.161E+00
   -.243E+02 0.371E+01 -.377E+04   0.243E+02 -.371E+01 0.377E+04   0.118E-01 -.184E-02 -.292E+00
   0.861E-04 0.671E+01 -.379E+04   -.372E-03 -.672E+01 0.379E+04   0.291E-03 0.505E-02 0.117E+01
   -.224E+00 0.901E-01 0.381E+04   0.223E+00 -.906E-01 -.381E+04   0.423E-04 0.363E-04 0.444E+00
   -.258E-03 0.604E-01 0.399E+04   0.172E-06 -.606E-01 -.398E+04   0.261E-03 0.155E-04 -.402E+01
   0.432E-04 0.197E+00 0.195E+04   0.125E-05 -.197E+00 -.195E+04   -.747E-04 0.274E-04 -.621E-01
   -.436E+00 0.152E+00 0.194E+04   0.434E+00 -.153E+00 -.195E+04   0.590E-03 -.131E-04 0.217E+00
   -.186E+01 0.112E+01 0.194E+02   0.185E+01 -.113E+01 -.186E+02   0.200E-02 0.107E-02 -.127E+00
   -.315E-03 0.676E+00 0.298E+02   0.648E-04 -.678E+00 -.309E+02   0.241E-03 0.366E-04 0.316E+00
   -.508E-03 0.374E+01 -.186E+04   0.446E-03 -.374E+01 0.186E+04   0.630E-04 0.219E-02 0.133E+00
   -.136E+02 0.455E+01 -.190E+04   0.136E+02 -.455E+01 0.190E+04   -.398E-02 0.259E-02 -.169E+00
   -.576E+02 0.340E+02 -.374E+04   0.575E+02 -.340E+02 0.374E+04   0.181E-01 0.158E-02 -.281E+00
   0.416E-04 0.654E+01 -.378E+04   -.326E-03 -.654E+01 0.378E+04   0.289E-03 0.285E-02 0.116E+01
   0.230E+00 0.185E-02 0.381E+04   -.230E+00 -.179E-02 -.381E+04   -.349E-03 -.108E-04 0.444E+00
   -.258E-03 -.635E-01 0.399E+04   -.157E-06 0.639E-01 -.398E+04   0.260E-03 -.815E-04 -.402E+01
   0.440E-04 0.574E-01 0.195E+04   0.795E-06 -.532E-01 -.195E+04   -.749E-04 -.853E-03 -.624E-01
   0.469E+00 -.120E+00 0.194E+04   -.468E+00 0.121E+00 -.195E+04   -.225E-03 -.286E-04 0.218E+00
   0.201E+01 0.707E-01 0.206E+02   -.200E+01 -.741E-01 -.198E+02   -.239E-02 0.309E-03 -.125E+00
   -.317E-03 -.483E+00 0.341E+02   0.672E-04 0.456E+00 -.351E+02   0.241E-03 0.147E-01 0.298E+00
   -.600E-03 -.174E+01 -.183E+04   0.548E-03 0.176E+01 0.183E+04   0.519E-04 -.239E-01 0.140E+00
   0.129E+02 -.596E+01 -.191E+04   -.129E+02 0.597E+01 0.191E+04   0.600E-02 -.515E-02 -.165E+00
   0.893E+02 -.490E+01 -.371E+04   -.893E+02 0.490E+01 0.371E+04   -.176E-01 0.263E-03 -.259E+00
   0.457E-04 -.763E+02 -.363E+04   -.336E-03 0.763E+02 0.363E+04   0.294E-03 -.264E-01 0.128E+01
   0.229E+00 -.900E-01 0.381E+04   -.228E+00 0.906E-01 -.381E+04   -.403E-03 -.350E-04 0.444E+00
   -.258E-03 -.699E-01 0.399E+04   -.165E-06 0.700E-01 -.398E+04   0.261E-03 -.242E-04 -.402E+01
   0.447E-04 -.172E+00 0.195E+04   0.668E-07 0.175E+00 -.195E+04   -.750E-04 -.778E-03 -.627E-01
   0.483E+00 -.152E+00 0.194E+04   -.480E+00 0.153E+00 -.195E+04   -.331E-03 0.631E-05 0.217E+00
   0.226E+01 -.113E+01 0.194E+02   -.226E+01 0.115E+01 -.186E+02   -.157E-02 -.122E-02 -.127E+00
   -.313E-03 -.912E+00 0.339E+02   0.636E-04 0.916E+00 -.349E+02   0.240E-03 -.259E-03 0.298E+00
   -.605E-03 -.117E+02 -.183E+04   0.557E-03 0.117E+02 0.183E+04   0.472E-04 0.220E-04 0.668E-01
[...]
   -.529E+02 0.111E+00 0.117E+04   0.570E+02 -.112E+00 -.117E+04   -.361E+01 0.160E-02 0.180E+00
   0.529E+02 0.111E+00 0.117E+04   -.570E+02 -.112E+00 -.117E+04   0.361E+01 0.160E-02 0.180E+00
   0.627E+00 0.250E+00 0.518E+03   -.623E+00 -.252E+00 -.522E+03   -.638E-02 0.537E-02 0.431E+01
   0.217E+01 0.964E+00 -.508E+03   -.216E+01 -.968E+00 0.515E+03   -.114E-01 0.704E-02 -.712E+01
   -.555E+02 0.505E+00 0.184E+02   0.603E+02 -.510E+00 -.186E+02   -.530E+01 0.179E-01 0.323E+00
   0.555E+02 0.505E+00 0.184E+02   -.603E+02 -.510E+00 -.186E+02   0.530E+01 0.179E-01 0.323E+00
   -.108E-03 0.138E+01 -.610E+03   0.111E-03 -.132E+01 0.604E+03   -.244E-05 -.592E-01 0.656E+01
   -.206E-03 0.801E+01 -.157E+04   0.245E-03 -.785E+01 0.157E+04   -.381E-04 -.160E+00 0.169E+01
   -.231E+02 0.552E+01 -.112E+04   0.261E+02 -.555E+01 0.112E+04   -.305E+01 0.382E-01 0.850E+00
   0.231E+02 0.552E+01 -.112E+04   -.261E+02 -.555E+01 0.112E+04   0.305E+01 0.382E-01 0.850E+00
   0.247E+02 0.793E+01 -.179E+04   -.249E+02 -.802E+01 0.179E+04   0.126E+00 0.916E-01 -.220E+01
   0.706E+02 0.211E+02 -.271E+04   -.703E+02 -.211E+02 0.273E+04   -.279E+00 0.203E-03 -.213E+02
   -.574E+02 0.528E+02 -.229E+04   0.638E+02 -.529E+02 0.229E+04   -.647E+01 0.126E+00 -.353E+01
   0.574E+02 0.528E+02 -.229E+04   -.638E+02 -.529E+02 0.229E+04   0.647E+01 0.126E+00 -.353E+01
   -.104E-01 0.155E+01 0.990E+02   -.124E-11 0.167E-11 -.223E-10   0.104E-01 -.154E+01 -.991E+02

 POSITION                                       TOTAL-FORCE (eV/Angst)
      6.49088      7.20295     24.37192         0.000001      0.001931      0.001424
      6.49088      8.35003     24.56878         0.000001     -0.004138     -0.004271
      6.49088      6.05178     24.14055         0.000000     -0.002564      0.002858
      9.73632      7.39370      8.77152        -0.000509      0.000018     -3.754948
      0.00000      8.87244      8.77152        -0.000001      0.000129      2.941930
      0.00000      7.39370     12.01696        -0.000029      0.000093      0.542670
      9.73632      8.87244     12.01696        -0.001647      0.000684     -0.755405
      9.73632      7.39370     15.26240        -0.009657     -0.003091      0.649139
      0.00000      8.87244     15.26240        -0.000012      0.002967     -0.741146
     12.98176      7.39425     18.44107         0.000001      0.001145      0.001117
      9.73683      8.87318     18.62163         0.001686      0.003222      0.001696
      9.73896      7.39682     21.95697        -0.000001     -0.000342      0.003453
      0.00000      8.87438     21.61293        -0.000001      0.002832     -0.002158
      9.73632     10.35118      8.77152        -0.000596      0.000464     -3.754985
      0.00000      0.00000      8.77152        -0.000001      0.000083      2.941810
      0.00000     10.35118     12.01696        -0.000029      0.000429      0.542999
      9.73632      0.00000     12.01696        -0.001985      0.000467     -0.753535
      9.73632     10.35118     15.26240        -0.005894      0.016032      0.657611
      0.00000      0.00000     15.26240        -0.000012      0.003187     -0.738868
     12.98176     10.35189     18.44172         0.000003     -0.000915      0.001016
      9.73610      0.00052     18.62506         0.001731     -0.001145     -0.000690
      9.73509     10.35317     21.96901        -0.000851     -0.004098      0.000896
      0.00000      0.00068     21.61373         0.000001     -0.001081     -0.004328
      9.73632      1.47874      8.77152        -0.000620     -0.000090     -3.754845
      0.00000      2.95748      8.77152        -0.000001     -0.000180      2.941840
      0.00000      1.47874     12.01696        -0.000029     -0.000143      0.543223
      9.73632      2.95748     12.01696        -0.001765     -0.000750     -0.753202
      9.73632      1.47874     15.26240        -0.006223     -0.001326      0.667588
      0.00000      2.95748     15.26240        -0.000012     -0.003639     -0.739544
     12.98176      1.47894     18.44242         0.000001     -0.000916      0.000125
      9.73670      2.95760     18.62477         0.001134     -0.001672     -0.000650
      9.73584      1.47990     21.96846        -0.001518      0.000124      0.001584
      0.00000      2.95770     21.61382         0.000001     -0.004254     -0.004639
      9.73632      4.43622      8.77152        -0.000522     -0.000489     -3.754911
      0.00000      5.91496      8.77152        -0.000001     -0.000118      2.941948
      0.00000      4.43622     12.01696        -0.000029     -0.000451      0.542828
      9.73632      5.91496     12.01696        -0.001425     -0.000499     -0.754963
      9.73632      4.43622     15.26240        -0.009426     -0.011819      0.658970
      0.00000      5.91496     15.26240        -0.000012     -0.002468     -0.741729
     12.98176      4.43628     18.44130        -0.000000      0.001048      0.000167
      9.73739      5.91506     18.62273         0.001648     -0.000547      0.000116
      9.73866      4.43730     21.96710        -0.000089      0.003974      0.002637
      0.00000      5.91609     21.61264         0.000000      0.002746     -0.003187
      3.24544      7.39370      8.77152         0.000444      0.000018     -3.754948
      6.49088      8.87244      8.77152        -0.000001      0.000294      2.943392
      6.49088      7.39370     12.01696        -0.000029      0.003323      0.546659
      3.24544      8.87244     12.01696         0.001616      0.000684     -0.755405
      3.24544      7.39370     15.26240         0.009579     -0.003089      0.649138
      6.49088      8.87244     15.26240        -0.000012     -0.012403     -0.702507
      6.49088      7.38817     18.45596        -0.000001     -0.000901      0.003424
      3.24493      8.87318     18.62163        -0.001687      0.003222      0.001698
      3.24281      7.39682     21.95697         0.000002     -0.000344      0.003447
      6.49088      8.88232     21.60634        -0.000001      0.000330      0.003168
      3.24544     10.35118      8.77152         0.000532      0.000464     -3.754985
      6.49088      0.00000      8.77152        -0.000001      0.000123      2.943659
      6.49088     10.35118     12.01696        -0.000029      0.002692      0.549105
      3.24544      0.00000     12.01696         0.001955      0.000467     -0.753535
      3.24544     10.35118     15.26240         0.005815      0.016033      0.657612
      6.49088      0.00000     15.26240        -0.000012      0.003275     -0.763363
      6.49088     10.34820     18.43336        -0.000002     -0.000494      0.003576
[...]
      6.49088      5.91496     13.28848        -0.000002      0.000541     -0.129392
      4.51696      4.43622     12.01696         0.447555      0.000647      0.056974
      8.46480      4.43622     12.01696        -0.447509      0.000647      0.056973
      3.24544      5.91496     13.99088        -0.001762      0.002890     -0.079193
      3.24544      5.91496     16.53392         0.000109      0.002948      0.043811
      7.76240      4.43622     15.26240        -0.456468      0.012547      0.085866
      5.21936      4.43622     15.26240         0.456521      0.012547      0.085864
      6.49088      5.91578     17.25570        -0.000000     -0.000635     -0.001551
      6.49088      5.91354     19.81242         0.000000     -0.000252      0.004890
      4.54241      4.43667     18.52754         0.002692     -0.000048      0.000176
      8.43935      4.43667     18.52754        -0.002693     -0.000047      0.000177
      3.23382      5.91511     20.48935         0.000428     -0.000531     -0.002911
      3.26563      5.92011     23.04144         0.000855     -0.001185     -0.003342
      7.71441      4.42368     21.90107        -0.000258     -0.001923     -0.003888
      5.26736      4.42368     21.90107         0.000256     -0.001924     -0.003888
    total drift:                                0.000026      0.005472     -0.052716

  FREE ENERGIE OF THE ION-ELECTRON SYSTEM (eV)
  free  energy   TOTEN  =     -2735.85902772 eV

  energy  without entropy=    -2735.85902772  energy(sigma->0) =    -2735.85902772

 d Force = 0.8506673E-05[-0.705E-05, 0.241E-04]  d Energy = 0.9786105E-05-0.128E-05
 d Force =-0.1197318E+02[-0.120E+02,-0.120E+02]  d Ewald  =-0.1197318E+02 0.280E-06

 reached required accuracy - stopping structural energy minimisation