 vasp.6.3.0 20Jan22 (build Apr  1 2022 16:44:48) complex
 executed on        HPECrayEX_GCC date 2023.01.23  22:14:37

 INCAR:
   SYSTEM = MgO-rocksalt
   ISMEAR = 0
   SIGMA = 0.05
   EDIFF = 1E-8
   ALGO = ALL
   ISTART = 0
   IBRION = 5
   POTIM = 0.01
   NFREE = 2
   ISYM = 0
   DIPOL = 0.5 0.5 0.5
   IDIPOL = 3
   LDIPOL = .TRUE.
   GGA = RE
   IVDW = 13
   VDW_S8 = 1.7468
   VDW_A1 = 0.5363
   VDW_A2 = 3.0726
   ENCUT = 600
   PREC = Accurate
   LASPH = .TRUE.
   LREAL = .FALSE.
   ISPIN = 1
   NELM = 200
   NELMIN = 8
   NCORE = 8
   KPAR = 1
   LWAVE = .FALSE.
   LCHARG = .FALSE.

 POTCAR:    PAW_PBE C 08Apr2002
 POTCAR:    PAW_PBE O 08Apr2002
 POTCAR:    PAW_PBE H 15Jun2001
 POTCAR:    PAW_PBE Mg_pv 13Apr2007
 POTCAR:    PAW_PBE O 08Apr2002
 POTCAR:    PAW_PBE C 08Apr2002
   VRHFIN =C: s2p2

   TITEL  = PAW_PBE C 08Apr2002
   POMASS =   12.011; ZVAL   =    4.000    mass and valenz
   ENMAX  =  400.000; ENMIN  =  300.000 eV

[...]

   TITEL  = PAW_PBE H 15Jun2001
   POMASS =    1.000; ZVAL   =    1.000    mass and valenz
   ENMAX  =  250.000; ENMIN  =  200.000 eV

   TITEL  = PAW_PBE Mg_pv 13Apr2007
   POMASS =   24.305; ZVAL   =    8.000    mass and valenz
   ENMAX  =  403.929; ENMIN  =  302.947 eV

   TITEL  = PAW_PBE O 08Apr2002
   POMASS =   16.000; ZVAL   =    6.000    mass and valenz
   ENMAX  =  400.000; ENMIN  =  300.000 eV

  PAW_PBE C 08Apr2002                   :
  PAW_PBE O 08Apr2002                   :
  PAW_PBE H 15Jun2001                   :
  PAW_PBE Mg_pv 13Apr2007               :
  PAW_PBE O 08Apr2002                   :

 POSCAR:  C  O  H Mg  O
  positions in direct lattice
|           W    W    AA    RRRRR   N    N  II  N    N   GGGG   !!!           |
|           W    W   A  A   R    R  NN   N  II  NN   N  G    G  !!!           |
|           W    W  A    A  R    R  N N  N  II  N N  N  G       !!!           |
|           W WW W  AAAAAA  RRRRR   N  N N  II  N  N N  G  GGG   !            |
|           WW  WW  A    A  R   R   N   NN  II  N   NN  G    G                |
|           W    W  A    A  R    R  N    N  II  N    N   GGGG   !!!           |
|     Specifying the vdW parameters                                           |
|     VDW_S8 = 1.747                                                          |
|     VDW_A1 = 0.536                                                          |
|     VDW_A2 = 3.073                                                          |
|     in the INCAR file will overwrite the defaults for revpbe. Please        |
|     make sure that is what you intended.                                    |

 ion  position               nearest neighbor table
   1  0.416  0.627  0.796-   3 1.10   6 1.10   5 1.10   2 1.44
   2  0.416  0.494  0.754-   4 1.02   1 1.44
   3  0.519  0.615  0.827-   1 1.10
   4  0.320  0.499  0.725-   2 1.02
   5  0.425  0.740  0.770-   1 1.10
   6  0.308  0.627  0.825-   1 1.10
   7  0.000  0.750  0.352-  39 2.11  41 2.11  42 2.11  49 2.11  58 2.11
   8  0.250  0.000  0.352-  40 2.11  41 2.11  42 2.11  50 2.11  57 2.11
   9  0.000  0.000  0.451-  41 2.11  40 2.11  39 2.11  47 2.11  56 2.11  45 2.12
  10  0.250  0.750  0.451-  42 2.11  40 2.11  39 2.11  48 2.11  55 2.11  46 2.12
  11  1.000  0.750  0.550-  62 2.10  53 2.11  46 2.11  45 2.11  39 2.12  43 2.15
  12  0.250  0.000  0.550-  61 2.11  45 2.11  54 2.11  46 2.12  40 2.12  44 2.15
  13  0.999  1.000  0.649-  60 2.10  51 2.10  43 2.11  45 2.11  44 2.11
  14  0.249  0.753  0.648-  46 2.09  44 2.09  43 2.11  59 2.11  52 2.14
  15  0.000  0.250  0.352-  47 2.11  41 2.11  49 2.11  50 2.11  66 2.11
  16  0.250  0.500  0.352-  48 2.11  42 2.11  49 2.11  50 2.11  65 2.11
  17  0.000  0.500  0.451-  49 2.11  47 2.11  48 2.11  39 2.11  64 2.11  53 2.12
  18  0.250  0.250  0.451-  50 2.11  47 2.11  48 2.11  40 2.11  63 2.11  54 2.12
  19  1.000  0.250  0.550-  70 2.10  54 2.11  53 2.11  45 2.11  47 2.12  51 2.15
  20  0.251  0.500  0.550-  69 2.10  54 2.10  46 2.11  53 2.12  48 2.13  52 2.19
  21  0.997  0.500  0.649-  68 2.07  52 2.09  53 2.10  51 2.12  43 2.12
  22  0.250  0.247  0.648-  44 2.09  54 2.10  67 2.11  51 2.11  52 2.14
  23  0.500  0.750  0.352-  55 2.11  42 2.11  57 2.11  58 2.11  65 2.11
  24  0.750  0.000  0.352-  56 2.11  41 2.11  57 2.11  58 2.11  66 2.11
  25  0.500  0.000  0.451-  57 2.11  55 2.11  56 2.11  40 2.11  63 2.11  61 2.11
  26  0.750  0.750  0.451-  58 2.11  55 2.11  56 2.11  39 2.11  64 2.11  62 2.12
  27  0.500  0.749  0.551-  69 2.10  62 2.11  46 2.12  61 2.12  59 2.13  55 2.13
  28  0.750  1.000  0.550-  61 2.11  70 2.11  62 2.11  45 2.11  56 2.12  60 2.15
  29  0.500  0.000  0.648-  67 2.09  59 2.10  61 2.11  60 2.11  44 2.12
  30  0.750  0.751  0.649-  60 2.10  62 2.11  43 2.11  59 2.11  68 2.12
  31  0.500  0.250  0.352-  63 2.11  57 2.11  50 2.11  65 2.11  66 2.11
  32  0.750  0.500  0.352-  64 2.11  58 2.11  49 2.11  65 2.11  66 2.11
  33  0.500  0.500  0.451-  65 2.11  55 2.11  63 2.11  64 2.11  48 2.11  69 2.14
  34  0.750  0.250  0.451-  66 2.11  56 2.11  63 2.11  64 2.11  47 2.11  70 2.12
  35  0.500  0.251  0.551-  69 2.10  70 2.11  54 2.12  67 2.12  61 2.12  63 2.13
  36  0.749  0.500  0.550-  69 2.11  70 2.11  62 2.11  53 2.12  64 2.13  68 2.15
  37  0.507  0.499  0.654-  68 2.07  67 2.12  59 2.13  69 2.20  52 2.21
  38  0.750  0.249  0.649-  60 2.10  67 2.11  70 2.11  51 2.11  68 2.12
  39  0.000  0.750  0.451-   7 2.11   9 2.11  10 2.11  17 2.11  26 2.11  11 2.12
  40  0.250  0.000  0.451-   8 2.11   9 2.11  10 2.11  18 2.11  25 2.11  12 2.12
  41  0.000  0.000  0.352-   9 2.11   8 2.11   7 2.11  15 2.11  24 2.11
  42  0.250  0.750  0.352-  10 2.11   8 2.11   7 2.11  16 2.11  23 2.11
  43  1.000  0.750  0.651-  13 2.11  14 2.11  30 2.11  21 2.12  11 2.15
  44  0.250  1.000  0.651-  14 2.09  22 2.09  13 2.11  29 2.12  12 2.15
  45  0.000  1.000  0.550-  13 2.11  12 2.11  11 2.11  19 2.11  28 2.11   9 2.12
  46  0.250  0.749  0.550-  14 2.09  20 2.11  11 2.11  27 2.12  12 2.12  10 2.12
  47  0.000  0.250  0.451-  15 2.11   9 2.11  17 2.11  18 2.11  34 2.11  19 2.12
  48  0.250  0.500  0.451-  16 2.11  10 2.11  17 2.11  18 2.11  33 2.11  20 2.13
  49  0.000  0.500  0.352-  17 2.11  15 2.11  16 2.11   7 2.11  32 2.11
  50  0.250  0.250  0.352-  18 2.11  15 2.11  16 2.11   8 2.11  31 2.11
  51  1.000  0.249  0.651-  13 2.10  22 2.11  38 2.11  21 2.12  19 2.15
  52  0.245  0.500  0.653-  21 2.09  14 2.14  22 2.14  20 2.19  37 2.21
  53  0.000  0.500  0.550-  21 2.10  11 2.11  19 2.11  20 2.12  17 2.12  36 2.12
  54  0.250  0.250  0.550-  22 2.10  20 2.10  19 2.11  12 2.11  35 2.12  18 2.12
  55  0.500  0.750  0.451-  23 2.11  10 2.11  25 2.11  26 2.11  33 2.11  27 2.13
  56  0.750  0.000  0.451-  24 2.11   9 2.11  25 2.11  26 2.11  34 2.11  28 2.12
  57  0.500  0.000  0.352-  25 2.11  23 2.11  24 2.11   8 2.11  31 2.11
  58  0.750  0.750  0.352-  26 2.11  23 2.11  24 2.11   7 2.11  32 2.11
  59  0.500  0.751  0.650-  29 2.10  14 2.11  30 2.11  37 2.13  27 2.13
  60  0.750  1.000  0.651-  30 2.10  13 2.10  38 2.10  29 2.11  28 2.15
  61  0.500  1.000  0.550-  29 2.11  12 2.11  28 2.11  25 2.11  27 2.12  35 2.12
  62  0.750  0.750  0.550-  11 2.10  30 2.11  27 2.11  36 2.11  28 2.11  26 2.12
  63  0.500  0.250  0.451-  31 2.11  25 2.11  18 2.11  33 2.11  34 2.11  35 2.13
  64  0.750  0.500  0.451-  32 2.11  26 2.11  17 2.11  33 2.11  34 2.11  36 2.13
  65  0.500  0.500  0.352-  33 2.11  23 2.11  31 2.11  32 2.11  16 2.11
  66  0.750  0.250  0.352-  34 2.11  24 2.11  31 2.11  32 2.11  15 2.11
  67  0.500  0.248  0.650-  29 2.09  22 2.11  38 2.11  35 2.12  37 2.12
  68  0.752  0.500  0.651-  37 2.07  21 2.07  30 2.12  38 2.12  36 2.15
  69  0.499  0.500  0.551-  20 2.10  27 2.10  35 2.10  36 2.11  33 2.14  37 2.20
  70  0.750  0.250  0.550-  19 2.10  36 2.11  28 2.11  38 2.11  35 2.11  34 2.12

IMPORTANT INFORMATION: All symmetrisations will be switched off!
NOSYMM: (Re-)initialisation of all symmetry stuff for point group C_1.

                                     Primitive cell

  volume of cell :    1519.8199

  direct lattice vectors                    reciprocal lattice vectors
     8.440984654  0.000000000  0.000000000     0.118469591  0.000000000  0.000000000
     0.000000000  8.440984654  0.000000000     0.000000000  0.118469591  0.000000000
     0.000000000  0.000000000 21.330738491     0.000000000  0.000000000  0.046880702

  length of vectors
     8.440984654  8.440984654 21.330738491     0.118469591  0.118469591  0.046880702

  position of ions in fractional coordinates (direct lattice)
     0.415525303  0.626509350  0.795741410
     0.416324820  0.493575868  0.753701086
     0.519002017  0.615382953  0.826623592
     0.319614120  0.499271265  0.725393517
     0.424857174  0.739555082  0.769959126
     0.307740400  0.627118317  0.824959915
     0.000000000  0.750000000  0.351605267
     0.250000000  0.000000000  0.351605267
     0.000000000  0.000000000  0.450535089
     0.250000000  0.750000000  0.450535089
     0.999563908  0.749764684  0.549986305
     0.250127956  0.000116730  0.549798927
     0.999362416  0.999984282  0.648653567
     0.249374068  0.752659422  0.647733904
     0.000000000  0.250000000  0.351605267
     0.250000000  0.500000000  0.351605267
     0.000000000  0.500000000  0.450535089
     0.250000000  0.250000000  0.450535089
     0.999710421  0.250051069  0.550099330
     0.251023676  0.499723648  0.550406439
     0.997370222  0.499714498  0.648632417
     0.250017857  0.247088788  0.648499312
     0.500000000  0.750000000  0.351605267
     0.750000000  0.000000000  0.351605267
     0.500000000  0.000000000  0.450535089
     0.750000000  0.750000000  0.450535089
     0.500213365  0.748833867  0.550505281
     0.749707933  0.999999257  0.549909484
     0.500355013  0.000239253  0.648324023
     0.750054991  0.750771690  0.648584595
     0.500000000  0.250000000  0.351605267
     0.750000000  0.500000000  0.351605267
     0.500000000  0.500000000  0.450535089
     0.750000000  0.250000000  0.450535089
     0.500136856  0.250960236  0.550501652
     0.749039920  0.499813896  0.550375482
     0.506611541  0.499259346  0.654114457
     0.749717086  0.248977173  0.648821437
     0.000000000  0.750000000  0.450535089
     0.250000000  0.000000000  0.450535089
     0.000000000  0.000000000  0.351605267
     0.250000000  0.750000000  0.351605267
     0.999931378  0.750499252  0.650945361
     0.249589581  0.999642836  0.650687451
     0.000097463  0.999854923  0.549722538
     0.249615975  0.749330324  0.549963429
     0.000000000  0.250000000  0.450535089
     0.250000000  0.500000000  0.450535089
     0.000000000  0.500000000  0.351605267
     0.250000000  0.250000000  0.351605267
     0.999904773  0.249193479  0.650954252
     0.244735580  0.500114000  0.653183369
     0.000447101  0.499963904  0.549981854
     0.249531303  0.250491217  0.550060919
     0.500000000  0.750000000  0.450535089
     0.750000000  0.000000000  0.450535089
     0.500000000  0.000000000  0.351605267
     0.750000000  0.750000000  0.351605267
     0.499630408  0.751353426  0.650399591
     0.750176024  0.999735778  0.650791269
     0.499796986  0.999712707  0.549547722
     0.750205742  0.749878658  0.549833611
[...]
      2.10629      2.11439     11.73321        -0.001655      0.002845     -0.004078
      4.22049      6.33074      9.61025        -0.007655     -0.024005      0.088741
      6.33074      0.00000      9.61025         0.009461     -0.002941      0.062504
      4.22049      0.00000      7.50000        -0.002495      0.000102     -0.501395
      6.33074      6.33074      7.50000         0.003020      0.000566     -0.501108
      4.21737      6.34216     13.87350         0.001164     -0.003264     -0.000535
      6.33222      8.43875     13.88186        -0.005356      0.000286      0.003928
      4.21878      8.43856     11.72226        -0.003971     -0.000958     -0.003506
      6.33248      6.32971     11.72836         0.000491     -0.004059     -0.001044
      4.22049      2.11025      9.61025        -0.009492      0.020056      0.093282
      6.33074      4.22049      9.61025        -0.010964      0.000203      0.102525
      4.22049      4.22049      7.50000         0.000160     -0.000247     -0.504405
      6.33074      2.11025      7.50000         0.001965     -0.000641     -0.501525
      4.21809      2.09598     13.85854         0.000992      0.005495     -0.000475
      6.34706      4.22082     13.88494         0.000152      0.002888     -0.001006
      4.21522      4.22096     11.74881         0.005023      0.002082      0.000362
      6.33357      2.10977     11.72809         0.001626      0.005714     -0.002369
    total drift:                               -0.002411     -0.001346      0.002455

  FREE ENERGIE OF THE ION-ELECTRON SYSTEM (eV)
  free  energy   TOTEN  =      -402.10184616 eV

  energy  without entropy=     -402.10184616  energy(sigma->0) =     -402.10184616

 d Force =-0.3969144E-05[-0.251E-02, 0.250E-02]  d Energy = 0.3774807E-05-0.774E-05
 d Force =-0.4942385E+01[-0.495E+01,-0.493E+01]  d Ewald  =-0.4942451E+01 0.652E-04

 Finite differences progress:
  Degree of freedom:  18/ 18
  Displacement:        2/  2
  Total:              36/ 36

 SECOND DERIVATIVES (NOT SYMMETRIZED)
               1X          1Y          1Z          2X          2Y          2Z          3X          3Y          3Z          4X          4Y          4Z          5X          5Y          5Z          6X          6Y          6Z
  1X   -53.643502    0.096761   -1.244628    7.623555   -1.643421   -0.463576   20.444517   -2.922710   11.127950   -0.464873    2.485874    1.375125    4.948131    1.306099   -0.711248   21.033023    1.099409  -10.278717
  1Y     0.092505  -44.048105    5.285376    0.198655   14.443826    7.504557   -2.213363    4.546648   -1.781613    0.408022    0.424512    0.864462    1.487769   20.048915  -10.752060    0.675078    4.460309   -0.741430
  1Z    -1.243765    5.281107  -48.349816    1.194957    5.971673   11.418219   11.615127   -2.341143   12.421565   -0.169605    1.995480    1.822087   -0.866232  -10.252082   11.152474  -10.501326   -0.828730   11.107094
  2X     7.621261    0.199838    1.197553  -29.107772    3.094048  -15.292335   -0.369427    2.495538    1.821988   21.761597   -4.374376   10.920731   -0.332666    0.283870    0.139629   -0.708476   -2.240162   -1.470065
  2Y    -1.640679   14.443405    5.977872    3.100623  -22.656864  -11.423496    0.308776    0.347002    0.682613   -1.666578    3.727202    0.430928   -0.010892    3.292574    2.680327   -0.354481    0.831637    1.182703
  2Z    -0.463436    7.500358   11.419241  -15.276307  -11.425516  -29.319742    0.098805    2.430511    1.832784   14.007546   -1.243171   10.510073    0.036135    0.420214   -0.843744   -0.122174    2.541070    1.918124
  3X    20.445580   -2.214462   11.620556   -0.367599    0.307327    0.099765  -21.584104    2.294698  -12.754308   -0.170768   -0.034254   -0.139144   -0.249696    0.039798   -0.260785    1.902514   -0.403891    1.439391
  3Y    -2.921009    4.547240   -2.341203    2.495643    0.344712    2.428062    2.290767   -5.307058    1.037793   -0.230352    0.371648    0.071637   -2.068926    0.151062   -1.387050    0.229715   -0.072650    0.009731
  3Z    11.121914   -1.781013   12.422914    1.821501    0.679772    1.830845  -12.749496    1.038166  -14.084682   -0.299811    0.276363   -0.062343    1.358787   -0.314626    0.827656   -1.336169    0.127414   -1.079605
  4X    -0.464128    0.407904   -0.166697   21.759150   -1.666648   14.011652   -0.170430   -0.231722   -0.303979  -22.718651    1.896026  -10.633550    0.031765   -0.262209   -0.056071   -0.057319   -0.122547   -0.160269
  4Y     2.485533    0.424457    1.995480   -4.368306    3.732135   -1.240013   -0.034665    0.371740    0.276395    1.892929   -5.671993   -0.975849    0.079280   -0.026813    0.009423   -0.065482   -0.087621    0.001421
  4Z     1.377016    0.864092    1.822450   10.908348    0.432250   10.512250   -0.138911    0.071103   -0.063174  -10.625198   -0.976009  -10.601215   -0.011563   -0.238679   -0.173112    0.116635   -0.177344   -0.119102
  5X     4.950422    1.487004   -0.865806   -0.332287   -0.011198    0.037647   -0.251013   -2.068622    1.358341    0.030196    0.079144   -0.013967   -4.570536   -1.552663    0.824717    0.105236    2.082312   -1.411978
  5Y     1.309388   20.050320  -10.256857    0.284037    3.288925    0.417935    0.038343    0.152645   -0.315529   -0.262024   -0.026173   -0.238273   -1.554479  -23.391484   10.656171   -0.010403   -0.128969   -0.190781
  5Z    -0.711765  -10.745874   11.154215    0.139370    2.678450   -0.840216   -0.261041   -1.388026    0.827006   -0.056705    0.008573   -0.173541    0.824722   10.646803  -11.648552    0.030809   -1.227985    0.694425
  6X    21.035343    0.674367  -10.509301   -0.708978   -0.352267   -0.121293    1.902738    0.229542   -1.337412   -0.058016   -0.066119    0.116118    0.106348   -0.010525    0.030120  -22.257023   -0.490212   11.830714
  6Y     1.100064    4.459479   -0.830295   -2.240412    0.834534    2.542134   -0.403864   -0.072458    0.127079   -0.122959   -0.087789   -0.177785    2.081529   -0.130180   -1.227995   -0.490845   -5.057594   -0.300057
  6Z   -10.269988   -0.739111   11.107713   -1.469050    1.178130    1.914952    1.437467    0.009426   -1.080217   -0.161064    0.001742   -0.119310   -1.412762   -0.190554    0.694747   11.824194   -0.302332  -12.510103

 Eigenvectors and eigenvalues of the dynamical matrix

   1 f  =   91.135092 THz   572.618668 2PiTHz 3039.939436 cm-1   376.904284 meV
             X         Y         Z           dx          dy          dz
      3.507443  5.288356 16.973752    -0.256083    0.059501   -0.136517
      3.514191  4.166266 16.077001    -0.015523   -0.001497   -0.013311
      4.380888  5.194438 17.632492     0.725509   -0.089402    0.540614
      2.697858  4.214341 15.473179     0.070571    0.002385    0.046015
      3.586213  6.242573 16.423797    -0.032084   -0.126408    0.075373
      2.597632  5.293496 17.597004     0.186416    0.013766   -0.143078
      0.000000  6.330738  7.500000            0           0           0
      2.110246  0.000000  7.500000            0           0           0
      0.000000  0.000000  9.610246            0           0           0
      2.110246  6.330738  9.610246            0           0           0
      8.437304  6.328752 11.731614            0           0           0
      2.111326  0.000985 11.727617            0           0           0
      8.435603  8.440852 13.836260            0           0           0
      2.104963  6.353187 13.816643            0           0           0
      0.000000  2.110246  7.500000            0           0           0
      2.110246  4.220492  7.500000            0           0           0
      0.000000  4.220492  9.610246            0           0           0
      2.110246  2.110246  9.610246            0           0           0
      8.438540  2.110677 11.734025            0           0           0
      2.118887  4.218160 11.740576            0           0           0
      8.418787  4.218082 13.835808            0           0           0
      2.110397  2.085673 13.832969            0           0           0
      4.220492  6.330738  7.500000            0           0           0
      6.330738  0.000000  7.500000            0           0           0
      4.220492  0.000000  9.610246            0           0           0
      6.330738  6.330738  9.610246            0           0           0
      4.222293  6.320895 11.742684            0           0           0
      6.328273  8.440978 11.729975            0           0           0
      4.223489  0.002020 13.829230            0           0           0
      6.331203  6.337252 13.834788            0           0           0
      4.220492  2.110246  7.500000            0           0           0
      6.330738  4.220492  7.500000            0           0           0
      4.220492  4.220492  9.610246            0           0           0
      6.330738  2.110246  9.610246            0           0           0
      4.221648  2.118352 11.742607            0           0           0
      6.322634  4.218921 11.739915            0           0           0
      4.276300  4.214240 13.952744            0           0           0
      6.328350  2.101612 13.839840            0           0           0
      0.000000  6.330738  9.610246            0           0           0
      2.110246  0.000000  9.610246            0           0           0
      0.000000  0.000000  7.500000            0           0           0
      2.110246  6.330738  7.500000            0           0           0
      8.440405  6.334953 13.885145            0           0           0
      2.106782  8.437970 13.879644            0           0           0
      0.000823  8.439760 11.725988            0           0           0
      2.107005  6.325086 11.731126            0           0           0
      0.000000  2.110246  9.610246            0           0           0
      2.110246  4.220492  9.610246            0           0           0
      0.000000  4.220492  7.500000            0           0           0
      2.110246  2.110246  7.500000            0           0           0
      8.440181  2.103438 13.885335            0           0           0
      2.065809  4.221455 13.932884            0           0           0
      0.003774  4.220188 11.731519            0           0           0
      2.106290  2.114393 11.733206            0           0           0
      4.220492  6.330738  9.610246            0           0           0
      6.330738  0.000000  9.610246            0           0           0
      4.220492  0.000000  7.500000            0           0           0
      6.330738  6.330738  7.500000            0           0           0
      4.217373  6.342163 13.873504            0           0           0
      6.332224  8.438754 13.881858            0           0           0
      4.218779  8.438560 11.722259            0           0           0
      6.332475  6.329714 11.728357            0           0           0
      4.220492  2.110246  9.610246            0           0           0
      6.330738  4.220492  9.610246            0           0           0
      4.220492  4.220492  7.500000            0           0           0
      6.330738  2.110246  7.500000            0           0           0
      4.218090  2.095977 13.858535            0           0           0
      6.347061  4.220815 13.884943            0           0           0
      4.215219  4.220961 11.748805            0           0           0
      6.333571  2.109768 11.728092            0           0           0

[...]

  18 f  =    1.834099 THz    11.523983 2PiTHz   61.178951 cm-1     7.585220 meV
             X         Y         Z           dx          dy          dz
      3.507443  5.288356 16.973752    -0.764525    0.166896   -0.052005
      3.514191  4.166266 16.077001    -0.318793    0.096592    0.069108
      4.380888  5.194438 17.632492    -0.313696    0.084006    0.113780
      2.697858  4.214341 15.473179    -0.039479   -0.016379   -0.049017
      3.586213  6.242573 16.423797    -0.157558    0.035672   -0.029721
      2.597632  5.293496 17.597004    -0.309549    0.054791   -0.144107
      0.000000  6.330738  7.500000            0           0           0
      2.110246  0.000000  7.500000            0           0           0
      0.000000  0.000000  9.610246            0           0           0
      2.110246  6.330738  9.610246            0           0           0
      8.437304  6.328752 11.731614            0           0           0
      2.111326  0.000985 11.727617            0           0           0
      8.435603  8.440852 13.836260            0           0           0
      2.104963  6.353187 13.816643            0           0           0
      0.000000  2.110246  7.500000            0           0           0
      2.110246  4.220492  7.500000            0           0           0
      0.000000  4.220492  9.610246            0           0           0
      2.110246  2.110246  9.610246            0           0           0
      8.438540  2.110677 11.734025            0           0           0
      2.118887  4.218160 11.740576            0           0           0
      8.418787  4.218082 13.835808            0           0           0
      2.110397  2.085673 13.832969            0           0           0
      4.220492  6.330738  7.500000            0           0           0
      6.330738  0.000000  7.500000            0           0           0
      4.220492  0.000000  9.610246            0           0           0
      6.330738  6.330738  9.610246            0           0           0
      4.222293  6.320895 11.742684            0           0           0
      6.328273  8.440978 11.729975            0           0           0
      4.223489  0.002020 13.829230            0           0           0
      6.331203  6.337252 13.834788            0           0           0
      4.220492  2.110246  7.500000            0           0           0
      6.330738  4.220492  7.500000            0           0           0
      4.220492  4.220492  9.610246            0           0           0
      6.330738  2.110246  9.610246            0           0           0
      4.221648  2.118352 11.742607            0           0           0
      6.322634  4.218921 11.739915            0           0           0
      4.276300  4.214240 13.952744            0           0           0
      6.328350  2.101612 13.839840            0           0           0
      0.000000  6.330738  9.610246            0           0           0
      2.110246  0.000000  9.610246            0           0           0
      0.000000  0.000000  7.500000            0           0           0
      2.110246  6.330738  7.500000            0           0           0
      8.440405  6.334953 13.885145            0           0           0
      2.106782  8.437970 13.879644            0           0           0
      0.000823  8.439760 11.725988            0           0           0
      2.107005  6.325086 11.731126            0           0           0
      0.000000  2.110246  9.610246            0           0           0
      2.110246  4.220492  9.610246            0           0           0
      0.000000  4.220492  7.500000            0           0           0
      2.110246  2.110246  7.500000            0           0           0
      8.440181  2.103438 13.885335            0           0           0
      2.065809  4.221455 13.932884            0           0           0
      0.003774  4.220188 11.731519            0           0           0
      2.106290  2.114393 11.733206            0           0           0
      4.220492  6.330738  9.610246            0           0           0
      6.330738  0.000000  9.610246            0           0           0
      4.220492  0.000000  7.500000            0           0           0
      6.330738  6.330738  7.500000            0           0           0
      4.217373  6.342163 13.873504            0           0           0
      6.332224  8.438754 13.881858            0           0           0
      4.218779  8.438560 11.722259            0           0           0
      6.332475  6.329714 11.728357            0           0           0
      4.220492  2.110246  9.610246            0           0           0
      6.330738  4.220492  9.610246            0           0           0
      4.220492  4.220492  7.500000            0           0           0
      6.330738  2.110246  7.500000            0           0           0
      4.218090  2.095977 13.858535            0           0           0
      6.347061  4.220815 13.884943            0           0           0
      4.215219  4.220961 11.748805            0           0           0
      6.333571  2.109768 11.728092            0           0           0

 Finite differences POTIM=   1.0000000000000000E-002