 vasp.6.3.0 20Jan22 (build Apr  1 2022 16:44:48) complex
 executed on        HPECrayEX_GCC date 2022.11.08  23:48:24

 INCAR:
   SYSTEM = MgO-rocksalt
   ISMEAR = 0
   SIGMA = 0.05
   EDIFF = 1E-8
   ALGO = ALL
   ISTART = 0
   IBRION = 2
   NSW = 1000
   ISYM = 0
   ISIF = 2
   EDIFFG = -0.015
   DIPOL = 0.5 0.5 0.5
   IDIPOL = 3
   LDIPOL = .TRUE.
   LHFCALC = .TRUE.
   GGA = PE
   IVDW = 13
   VDW_S8 = 1.2007
   VDW_A1 = 0.4009
   VDW_A2 = 5.0293
   ENCUT = 600
   PREC = Accurate
   LASPH = .TRUE.
   LREAL = .FALSE.
   ISPIN = 1
   NELM = 200
   NELMIN = 8
   NCORE = 8
   KPAR = 1
   LWAVE = .FALSE.
   LCHARG = .FALSE.

 POTCAR:    PAW_PBE C 08Apr2002
 POTCAR:    PAW_PBE H 15Jun2001
 POTCAR:    PAW_PBE Mg_pv 13Apr2007
 POTCAR:    PAW_PBE O 08Apr2002
 POTCAR:    PAW_PBE C 08Apr2002
   VRHFIN =C: s2p2

   TITEL  = PAW_PBE C 08Apr2002
   POMASS =   12.011; ZVAL   =    4.000    mass and valenz
   ENMAX  =  400.000; ENMIN  =  300.000 eV

   TITEL  = PAW_PBE H 15Jun2001
   POMASS =    1.000; ZVAL   =    1.000    mass and valenz
   ENMAX  =  250.000; ENMIN  =  200.000 eV

   TITEL  = PAW_PBE Mg_pv 13Apr2007
   POMASS =   24.305; ZVAL   =    8.000    mass and valenz
   ENMAX  =  403.929; ENMIN  =  302.947 eV

   TITEL  = PAW_PBE O 08Apr2002
   POMASS =   16.000; ZVAL   =    6.000    mass and valenz
   ENMAX  =  400.000; ENMIN  =  300.000 eV

  PAW_PBE C 08Apr2002                   :
  PAW_PBE H 15Jun2001                   :
  PAW_PBE Mg_pv 13Apr2007               :
  PAW_PBE O 08Apr2002                   :

 POSCAR:  C  H Mg  O
  positions in direct lattice
  velocities in cartesian coordinates
|           W    W    AA    RRRRR   N    N  II  N    N   GGGG   !!!           |
|           W    W   A  A   R    R  NN   N  II  NN   N  G    G  !!!           |
|           W    W  A    A  R    R  N N  N  II  N N  N  G       !!!           |
|           W WW W  AAAAAA  RRRRR   N  N N  II  N  N N  G  GGG   !            |
|           WW  WW  A    A  R   R   N   NN  II  N   NN  G    G                |
|           W    W  A    A  R    R  N    N  II  N    N   GGGG   !!!           |
|     Specifying the vdW parameters                                           |
|     VDW_S8 = 1.201                                                          |
|     VDW_A1 = 0.401                                                          |
|     VDW_A2 = 5.029                                                          |
|     in the INCAR file will overwrite the defaults for pbe0. Please make     |
|     sure that is what you intended.                                         |

 ion  position               nearest neighbor table
   1  0.451  0.500  0.795-  11 1.09   9 1.09  10 1.09   2 1.51
   2  0.297  0.427  0.819-  13 1.09  14 1.09  12 1.09   1 1.51
   3  0.451  1.000  0.795-  17 1.09  15 1.09  16 1.09   4 1.51
   4  0.297  0.927  0.819-  19 1.09  20 1.09  18 1.09   3 1.51
   5  0.794  0.750  0.795-  23 1.09  22 1.09  21 1.09   6 1.51
   6  0.948  0.678  0.820-  26 1.09  24 1.09  25 1.09   5 1.51
   7  0.794  0.250  0.795-  29 1.09  28 1.09  27 1.09   8 1.51
   8  0.948  0.178  0.820-  32 1.09  30 1.09  31 1.09   7 1.51
   9  0.429  0.610  0.769-   1 1.09
  10  0.513  0.415  0.764-   1 1.09
  11  0.534  0.529  0.833-   1 1.09
  12  0.214  0.401  0.781-   2 1.09
  13  0.236  0.509  0.852-   2 1.09
  14  0.320  0.316  0.845-   2 1.09
  15  0.429  0.110  0.769-   3 1.09
  16  0.513  0.915  0.764-   3 1.09
  17  0.534  0.029  0.833-   3 1.09
  18  0.214  0.901  0.781-   4 1.09
  19  0.236  0.008  0.852-   4 1.09
  20  0.320  0.816  0.845-   4 1.09
  21  0.733  0.665  0.764-   5 1.09
  22  0.816  0.861  0.769-   5 1.09
  23  0.711  0.779  0.832-   5 1.09
  24  0.031  0.652  0.781-   6 1.09
  25  0.925  0.566  0.845-   6 1.09
  26  0.008  0.759  0.852-   6 1.09
  27  0.733  0.165  0.764-   7 1.09
  28  0.816  0.361  0.769-   7 1.09
  29  0.711  0.279  0.832-   7 1.09
  30  0.031  0.152  0.781-   8 1.09
  31  0.925  0.066  0.845-   8 1.09
  32  0.008  0.259  0.852-   8 1.09
  33  0.250  0.000  0.353-  67 2.09  68 2.09  84 2.09  65 2.09  75 2.09
  34  0.500  0.250  0.353-  83 2.09  68 2.09  76 2.09  67 2.09  66 2.09
  35  0.250  0.250  0.451-  65 2.09  66 2.09  73 2.09  82 2.09  67 2.09  71 2.09
  36  0.500  0.000  0.451-  81 2.09  66 2.09  65 2.09  68 2.09  74 2.09  72 2.10
  37  0.250  0.000  0.550-  72 2.09  71 2.09  79 2.09  88 2.09  65 2.10  69 2.12
  38  0.500  0.250  0.550-  87 2.08  72 2.09  80 2.09  71 2.09  66 2.10  70 2.12
  39  0.250  0.251  0.647-  71 2.07  86 2.08  77 2.09  70 2.09  69 2.09
  40  0.500  0.001  0.648-  70 2.09  78 2.09  69 2.09  85 2.09  72 2.09
  41  0.250  0.500  0.353-  75 2.09  67 2.09  76 2.09  92 2.09  73 2.09
  42  0.500  0.750  0.353-  76 2.09  91 2.09  75 2.09  74 2.09  68 2.09
  43  0.250  0.750  0.451-  73 2.09  74 2.09  90 2.09  75 2.09  65 2.09  79 2.09
  44  0.500  0.500  0.451-  74 2.09  89 2.09  66 2.09  73 2.09  76 2.09  80 2.10
  45  0.250  0.500  0.550-  80 2.09  79 2.09  71 2.09  96 2.09  73 2.10  77 2.12
  46  0.500  0.751  0.550-  95 2.08  72 2.09  80 2.09  79 2.09  74 2.10  78 2.12
  47  0.250  0.751  0.647-  79 2.07  94 2.08  77 2.09  78 2.09  69 2.09
  48  0.499  0.501  0.648-  80 2.09  78 2.09  77 2.09  70 2.09  93 2.09
  49  0.750  0.000  0.353-  68 2.09  83 2.09  81 2.09  84 2.09  91 2.09
  50  0.000  0.250  0.353-  67 2.09  84 2.09  92 2.09  82 2.09  83 2.09
  51  0.750  0.250  0.451-  66 2.09  81 2.09  89 2.09  83 2.09  82 2.09  87 2.10
  52  0.000  0.000  0.451-  65 2.09  82 2.09  84 2.09  81 2.09  90 2.09  88 2.09
  53  0.750  0.000  0.550-  72 2.08  87 2.09  95 2.09  88 2.09  81 2.11  85 2.12
  54  1.000  0.250  0.550-  87 2.09  88 2.09  96 2.09  71 2.09  82 2.10  86 2.12
  55  0.750  0.251  0.648-  93 2.09  85 2.09  86 2.09  70 2.09  87 2.09
  56  1.000  0.001  0.647-  88 2.07  69 2.08  85 2.09  94 2.09  86 2.09
  57  0.750  0.500  0.353-  76 2.09  91 2.09  83 2.09  89 2.09  92 2.09
  58  0.000  0.750  0.353-  92 2.09  75 2.09  90 2.09  91 2.09  84 2.09
  59  0.750  0.750  0.451-  74 2.09  89 2.09  91 2.09  90 2.09  81 2.09  95 2.10
  60  0.000  0.500  0.451-  90 2.09  82 2.09  73 2.09  92 2.09  89 2.09  96 2.09
[...]
  82  0.000  0.250  0.451-  35 2.09  52 2.09  60 2.09  50 2.09  51 2.09  54 2.10
  83  0.750  0.250  0.353-  34 2.09  49 2.09  57 2.09  51 2.09  50 2.09
  84  0.000  0.000  0.353-  33 2.09  50 2.09  52 2.09  49 2.09  58 2.09
  85  0.750  0.001  0.650-  63 2.09  56 2.09  55 2.09  40 2.09  53 2.12
  86  0.000  0.251  0.649-  39 2.08  56 2.09  55 2.09  64 2.09  54 2.12
  87  0.750  0.250  0.550-  38 2.08  54 2.09  61 2.09  53 2.09  55 2.09  51 2.10
  88  1.000  0.000  0.549-  56 2.07  62 2.09  54 2.09  37 2.09  53 2.09  52 2.09
  89  0.750  0.500  0.451-  44 2.09  59 2.09  51 2.09  57 2.09  60 2.09  61 2.10
  90  0.000  0.750  0.451-  60 2.09  43 2.09  58 2.09  59 2.09  52 2.09  62 2.10
  91  0.750  0.750  0.353-  42 2.09  57 2.09  59 2.09  58 2.09  49 2.09
  92  0.000  0.500  0.353-  58 2.09  50 2.09  41 2.09  60 2.09  57 2.09
  93  0.750  0.501  0.650-  55 2.09  64 2.09  63 2.09  48 2.09  61 2.12
  94  0.000  0.751  0.649-  47 2.08  56 2.09  63 2.09  64 2.09  62 2.12
  95  0.750  0.750  0.550-  46 2.08  62 2.09  61 2.09  53 2.09  63 2.09  59 2.10
  96  1.000  0.500  0.549-  64 2.08  62 2.09  54 2.09  61 2.09  45 2.09  60 2.09

IMPORTANT INFORMATION: All symmetrisations will be switched off!
NOSYMM: (Re-)initialisation of all symmetry stuff for point group C_1.

                                     Primitive cell

  volume of cell :    1482.1129

  direct lattice vectors                    reciprocal lattice vectors
     8.349111827  0.000000000  0.000000000     0.119773219  0.000000000  0.000000000
     0.000000000  8.349111827  0.000000000     0.000000000  0.119773219  0.000000000
     0.000000000  0.000000000 21.261833870     0.000000000  0.000000000  0.047032632

  length of vectors
     8.349111827  8.349111827 21.261833870     0.119773219  0.119773219  0.047032632

  position of ions in fractional coordinates (direct lattice)
     0.450842925  0.499879103  0.794843259
     0.297002267  0.427352597  0.819443338
     0.450843415  0.999896324  0.794824287
     0.296994702  0.927338826  0.819436455
     0.794184842  0.749876482  0.794613730
     0.947703638  0.677621623  0.819622708
     0.794180966  0.249871696  0.794618030
     0.947700540  0.177618551  0.819619734
     0.428690383  0.610418268  0.768707918
     0.512775524  0.415342256  0.763987521
     0.533736844  0.529045106  0.832832244
     0.214167525  0.401344380  0.781080480
     0.235751694  0.508527313  0.851631231
     0.319712480  0.315653821  0.844545361
     0.428704316  0.110426026  0.768688915
     0.512818730  0.915363844  0.763966934
     0.533660447  0.028985578  0.832831429
     0.214249193  0.901401912  0.781034433
     0.235755495  0.008410121  0.851690309
     0.319657917  0.815738718  0.844612172
     0.732974843  0.665336994  0.763510517
     0.816494210  0.860648490  0.768616451
     0.710505039  0.778609390  0.832391275
     0.030990787  0.651685396  0.781415209
     0.924771969  0.566022780  0.844775644
     0.008321249  0.758856160  0.851967877
     0.732990707  0.165322190  0.763510855
     0.816489081  0.360650933  0.768627597
     0.710501344  0.278647663  0.832385523
     0.030992410  0.151670019  0.781420344
     0.924779335  0.066006917  0.844767335
     0.008313296  0.258868630  0.851961984
     0.250000245  0.000000000  0.352744737
     0.500000489  0.250000245  0.352744737
     0.250000245  0.250000245  0.450915008
     0.500000489  0.000000000  0.450915008
     0.250105447  0.000419904  0.549628090
     0.500429908  0.250238669  0.549862947
     0.249853125  0.250870244  0.646954173
     0.499594324  0.000885731  0.648048295
     0.250000245  0.500000489  0.352744737
     0.500000489  0.749999536  0.352744737
     0.250000245  0.749999536  0.450915008
     0.500000489  0.500000489  0.450915008
     0.249985812  0.500414286  0.549702594
     0.500424670  0.750548279  0.549878327
     0.249880373  0.750637231  0.646950237
     0.499381501  0.500919157  0.647740873
     0.749999536  0.000000000  0.352744737
     0.000000000  0.250000245  0.352744737
     0.749999536  0.250000245  0.450915008
     0.000000000  0.000000000  0.450915008
     0.749586321  0.000419801  0.549919244
     0.999759178  0.250324552  0.549692823
     0.750334237  0.250849937  0.648019643
     0.999856080  0.000746964  0.646924179
     0.749999536  0.500000489  0.352744737
     0.000000000  0.749999536  0.352744737
     0.749999536  0.749999536  0.450915008
     0.000000000  0.500000489  0.450915008
[...]
     0.000000000  0.250000245  0.450915008
     0.749999536  0.250000245  0.352744737
     0.000000000  0.000000000  0.352744737
     0.750065144  0.000800306  0.649583550
     0.000458985  0.250623734  0.649452646
     0.749984020  0.250471361  0.549597434
     0.999944684  0.000392674  0.549334456
     0.749999536  0.500000489  0.450915008
     0.000000000  0.749999536  0.450915008
     0.749999536  0.749999536  0.352744737
     0.000000000  0.500000489  0.352744737
     0.750032810  0.500795357  0.649655824
     0.000455185  0.750909426  0.649454309
     0.750009028  0.750336753  0.549599154
[...]
   6.26210780  4.18119644 13.81287420
   0.00380039  6.26942677 13.80858962
   6.26190925  6.26464546 11.68548590
   8.34736665  4.17796112 11.68068326

--------------------------------------- Iteration      FINAL  ---------------------------------------

--------------------OUTCAR has been truncated-------------------------

[...]

--------------------OUTCAR has been truncated-------------------------

  FORCE on cell =-STRESS in cart. coord.  units (eV):
  Direction    XX          YY          ZZ          XY          YZ          ZX
  Alpha Z  1085.46913  1085.46913  1085.46913
  Ewald  148698.03421148520.79709************     0.30088   -46.38432     0.21723
  Hartree159663.31679159551.33070************     0.22168   -30.23849     0.22744
  E(xc)   -2005.71964 -2005.86025 -2008.64510    -0.00061    -0.04463     0.00030
  Local  ************************318190.48254    -0.53589    79.89818    -0.51001
  n-local  -808.75136  -811.64115  -836.10858     0.00529    -0.60542     0.00153
  augment   826.97889   826.85661   815.98752     0.00003    -0.00670    -0.00122
  Kinetic  8088.17274  8076.56685  8112.08417     0.00012    -3.25264     0.13345
  Fock    -2558.15103 -2558.66634 -2554.81032     0.00010    -0.10819     0.00255
  vdW       -10.57727   -10.66076    -8.16192    -0.00007    -0.01346     0.00067
  Total     -28.69810   -29.70089    -3.01951    -0.00850    -0.75566     0.07195
  in kB     -31.02290   -32.10692    -3.26412    -0.00919    -0.81688     0.07778

 VOLUME and BASIS-vectors are now :
  energy-cutoff  :      600.00
  volume of cell :     1482.11
      direct lattice vectors                 reciprocal lattice vectors
     8.349111827  0.000000000  0.000000000     0.119773219  0.000000000  0.000000000
     0.000000000  8.349111827  0.000000000     0.000000000  0.119773219  0.000000000
     0.000000000  0.000000000 21.261833870     0.000000000  0.000000000  0.047032632

  length of vectors
     8.349111827  8.349111827 21.261833870     0.119773219  0.119773219  0.047032632

 FORCES acting on ions:
    Electron-Ion                     Ewald-Force                    Non-Local-Force
   -.371E+02 -.199E+02 -.910E+03   0.370E+02 0.200E+02 0.911E+03   0.878E-01 -.149E+00 -.108E+00
   0.406E+02 0.196E+02 -.888E+03   -.409E+02 -.196E+02 0.888E+03   0.238E+00 0.453E-01 0.103E+00
   -.371E+02 -.199E+02 -.910E+03   0.370E+02 0.200E+02 0.911E+03   0.887E-01 -.149E+00 -.108E+00
   0.406E+02 0.196E+02 -.888E+03   -.409E+02 -.196E+02 0.888E+03   0.235E+00 0.444E-01 0.103E+00
   0.370E+02 -.198E+02 -.911E+03   -.369E+02 0.199E+02 0.911E+03   -.818E-01 -.147E+00 -.118E+00
   -.405E+02 0.195E+02 -.888E+03   0.408E+02 -.196E+02 0.888E+03   -.242E+00 0.493E-01 0.103E+00
   0.370E+02 -.198E+02 -.911E+03   -.369E+02 0.199E+02 0.911E+03   -.815E-01 -.147E+00 -.118E+00
   -.405E+02 0.195E+02 -.888E+03   0.408E+02 -.196E+02 0.888E+03   -.243E+00 0.491E-01 0.104E+00
   0.655E+01 -.395E+02 -.219E+03   -.748E+01 0.443E+02 0.216E+03   0.883E+00 -.460E+01 0.274E+01
   -.228E+02 0.275E+02 -.218E+03   0.255E+02 -.312E+02 0.215E+03   -.259E+01 0.352E+01 0.314E+01
   -.318E+02 -.115E+02 -.248E+03   0.354E+02 0.128E+02 0.253E+03   -.346E+01 -.123E+01 -.397E+01
   0.327E+02 0.105E+02 -.201E+03   -.363E+02 -.116E+02 0.197E+03   0.346E+01 0.105E+01 0.404E+01
   0.233E+02 -.266E+02 -.232E+03   -.260E+02 0.301E+02 0.235E+03   0.258E+01 -.333E+01 -.339E+01
   -.559E+01 0.400E+02 -.230E+03   0.653E+01 -.449E+02 0.233E+03   -.893E+00 0.462E+01 -.265E+01
   0.655E+01 -.395E+02 -.219E+03   -.748E+01 0.443E+02 0.216E+03   0.884E+00 -.460E+01 0.274E+01
   -.228E+02 0.275E+02 -.218E+03   0.255E+02 -.312E+02 0.215E+03   -.259E+01 0.352E+01 0.314E+01
   -.318E+02 -.115E+02 -.248E+03   0.354E+02 0.128E+02 0.253E+03   -.346E+01 -.123E+01 -.397E+01
   0.327E+02 0.105E+02 -.201E+03   -.363E+02 -.116E+02 0.197E+03   0.346E+01 0.105E+01 0.404E+01
   0.233E+02 -.266E+02 -.232E+03   -.260E+02 0.301E+02 0.235E+03   0.258E+01 -.333E+01 -.339E+01
   -.559E+01 0.400E+02 -.230E+03   0.652E+01 -.449E+02 0.233E+03   -.893E+00 0.462E+01 -.265E+01
   0.226E+02 0.276E+02 -.218E+03   -.253E+02 -.313E+02 0.215E+03   0.256E+01 0.352E+01 0.316E+01
   -.664E+01 -.396E+02 -.219E+03   0.759E+01 0.444E+02 0.216E+03   -.893E+00 -.461E+01 0.272E+01
   0.320E+02 -.114E+02 -.248E+03   -.357E+02 0.127E+02 0.253E+03   0.349E+01 -.122E+01 -.395E+01
   -.329E+02 0.105E+02 -.201E+03   0.365E+02 -.116E+02 0.197E+03   -.348E+01 0.105E+01 0.402E+01
   0.570E+01 0.400E+02 -.230E+03   -.665E+01 -.449E+02 0.233E+03   0.905E+00 0.462E+01 -.265E+01
   -.231E+02 -.267E+02 -.232E+03   0.258E+02 0.302E+02 0.235E+03   -.255E+01 -.334E+01 -.340E+01
   0.226E+02 0.276E+02 -.218E+03   -.253E+02 -.313E+02 0.215E+03   0.256E+01 0.352E+01 0.316E+01
   -.664E+01 -.396E+02 -.219E+03   0.758E+01 0.444E+02 0.216E+03   -.893E+00 -.461E+01 0.272E+01
   0.320E+02 -.114E+02 -.248E+03   -.357E+02 0.127E+02 0.253E+03   0.349E+01 -.122E+01 -.395E+01
   -.329E+02 0.105E+02 -.201E+03   0.365E+02 -.116E+02 0.197E+03   -.348E+01 0.105E+01 0.402E+01
   0.570E+01 0.400E+02 -.230E+03   -.665E+01 -.449E+02 0.233E+03   0.905E+00 0.462E+01 -.265E+01
   -.231E+02 -.267E+02 -.232E+03   0.258E+02 0.302E+02 0.235E+03   -.255E+01 -.334E+01 -.340E+01
   -.607E-01 0.815E-03 0.218E+04   0.626E-01 0.595E-04 -.217E+04   -.121E-02 -.621E-03 -.682E+01
   -.662E-01 0.404E-02 0.218E+04   0.684E-01 -.307E-02 -.217E+04   -.149E-02 -.666E-03 -.683E+01
   -.174E+00 0.525E-01 0.870E+03   0.191E+00 -.350E-01 -.870E+03   -.105E-01 -.103E-01 0.424E+00
   -.222E+00 0.342E-01 0.869E+03   0.236E+00 -.158E-01 -.870E+03   -.886E-02 -.106E-01 0.490E+00
   0.988E+00 -.896E-02 -.427E+03   -.930E+00 0.101E-01 0.427E+03   -.536E-01 -.117E-02 -.216E+00
   0.546E+00 0.100E-01 -.427E+03   -.489E+00 -.705E-02 0.427E+03   -.491E-01 -.308E-02 -.242E+00
   0.758E+01 0.915E+00 -.172E+04   -.770E+01 -.931E+00 0.171E+04   0.105E+00 0.136E-01 0.589E+01
   0.198E+01 -.523E+00 -.170E+04   -.205E+01 0.545E+00 0.170E+04   0.605E-01 -.202E-01 0.567E+01
   -.600E-01 0.465E-02 0.218E+04   0.618E-01 -.367E-02 -.217E+04   -.115E-02 -.741E-03 -.682E+01
   -.662E-01 -.434E-02 0.218E+04   0.684E-01 0.509E-02 -.217E+04   -.149E-02 -.452E-03 -.683E+01
   -.171E+00 0.207E-01 0.870E+03   0.188E+00 -.458E-02 -.870E+03   -.105E-01 -.927E-02 0.424E+00
   -.240E+00 0.424E-01 0.869E+03   0.253E+00 -.240E-01 -.870E+03   -.857E-02 -.107E-01 0.486E+00
   0.945E+00 -.406E-02 -.427E+03   -.888E+00 0.547E-02 0.427E+03   -.524E-01 -.141E-02 -.217E+00
   0.545E+00 -.220E-01 -.427E+03   -.489E+00 0.217E-01 0.427E+03   -.491E-01 0.143E-04 -.241E+00
   0.758E+01 0.872E+00 -.172E+04   -.770E+01 -.890E+00 0.171E+04   0.105E+00 0.146E-01 0.589E+01
   0.198E+01 -.523E+00 -.170E+04   -.205E+01 0.546E+00 0.170E+04   0.615E-01 -.205E-01 0.567E+01
   0.580E-01 0.106E-02 0.218E+04   -.604E-01 -.105E-03 -.217E+04   0.165E-02 -.677E-03 -.683E+01
   0.685E-01 0.310E-02 0.218E+04   -.704E-01 -.212E-02 -.217E+04   0.129E-02 -.676E-03 -.682E+01
   0.192E+00 0.333E-01 0.869E+03   -.209E+00 -.148E-01 -.870E+03   0.103E-01 -.107E-01 0.491E+00
   0.188E+00 0.388E-01 0.870E+03   -.210E+00 -.218E-01 -.870E+03   0.132E-01 -.993E-02 0.424E+00
   -.672E+00 -.540E-02 -.427E+03   0.616E+00 0.713E-02 0.427E+03   0.494E-01 -.175E-02 -.239E+00
   -.859E+00 0.495E-01 -.427E+03   0.800E+00 -.472E-01 0.427E+03   0.537E-01 -.335E-02 -.202E+00
   -.232E+01 -.541E+00 -.170E+04   0.239E+01 0.563E+00 0.170E+04   -.589E-01 -.196E-01 0.566E+01
   -.731E+01 0.847E+00 -.172E+04   0.744E+01 -.864E+00 0.171E+04   -.111E+00 0.142E-01 0.589E+01
   0.573E-01 0.485E-02 0.218E+04   -.596E-01 -.380E-02 -.217E+04   0.159E-02 -.795E-03 -.683E+01
   0.685E-01 -.379E-02 0.218E+04   -.705E-01 0.438E-02 -.217E+04   0.129E-02 -.345E-03 -.682E+01
   0.189E+00 0.372E-01 0.869E+03   -.206E+00 -.192E-01 -.870E+03   0.102E-01 -.103E-01 0.491E+00
   0.206E+00 0.403E-01 0.870E+03   -.228E+00 -.231E-01 -.870E+03   0.128E-01 -.101E-01 0.428E+00
[...]
   0.438E-01 0.580E-04 0.163E+04   -.459E-01 -.581E-03 -.164E+04   0.252E-02 0.671E-03 0.300E+01
   0.511E-01 -.780E-03 0.163E+04   -.531E-01 0.222E-03 -.164E+04   0.239E-02 0.696E-03 0.301E+01
   -.409E+01 0.258E+00 -.130E+04   0.399E+01 -.225E+00 0.131E+04   0.849E-01 -.299E-01 -.448E+01
   -.832E+01 -.743E+00 -.131E+04   0.820E+01 0.742E+00 0.131E+04   0.104E+00 -.142E-02 -.455E+01
   -.418E+00 -.539E-02 -.315E+03   0.419E+00 0.712E-02 0.315E+03   -.110E-02 -.116E-02 0.201E+00
   -.577E+00 -.255E-02 -.313E+03   0.582E+00 0.492E-02 0.313E+03   -.325E-02 -.231E-02 0.371E+00
   0.110E+00 0.403E-01 0.651E+03   -.961E-01 -.625E-01 -.651E+03   -.157E-01 0.252E-01 -.126E+00
   0.129E+00 0.259E-01 0.652E+03   -.119E+00 -.457E-01 -.652E+03   -.115E-01 0.225E-01 -.884E-01
   0.436E-01 -.412E-02 0.163E+04   -.456E-01 0.359E-02 -.164E+04   0.251E-02 0.761E-03 0.300E+01
   0.526E-01 0.187E-02 0.163E+04   -.545E-01 -.249E-02 -.164E+04   0.233E-02 0.714E-03 0.300E+01
   -.403E+01 0.257E+00 -.130E+04   0.393E+01 -.223E+00 0.131E+04   0.837E-01 -.299E-01 -.448E+01
   -.832E+01 -.842E+00 -.131E+04   0.820E+01 0.843E+00 0.131E+04   0.104E+00 -.663E-03 -.455E+01
   -.423E+00 -.407E-02 -.315E+03   0.423E+00 0.736E-02 0.315E+03   -.801E-03 -.363E-02 0.201E+00
   -.541E+00 -.430E-02 -.314E+03   0.547E+00 0.653E-02 0.313E+03   -.577E-02 -.209E-02 0.364E+00
   0.881E-03 0.384E+00 0.207E+02   0.568E-12 -.568E-13 -.296E-11   0.921E-03 -.355E+00 -.176E+02

 POSITION                                       TOTAL-FORCE (eV/Angst)
      3.76431      4.17289     16.89952         0.008712      0.001089      0.001771
      2.47990      3.56719     17.42307         0.005366     -0.008813      0.005015
      3.76429      8.34747     16.89959         0.011215      0.000015     -0.000307
      2.47997      7.74177     17.42311         0.001261     -0.010062      0.005619
      6.63027      6.26012     16.89491        -0.002625      0.002119      0.001169
      7.91232      5.65661     17.42692        -0.008235     -0.004607      0.001327
      6.63027      2.08557     16.89493        -0.002167      0.001995      0.000593
      7.91233      1.48205     17.42692        -0.008830     -0.005100      0.001862
      3.57963      5.09455     16.34298        -0.003930     -0.000529     -0.000233
      4.28303      3.46953     16.24175         0.002091     -0.001149      0.002415
      4.45580      4.41714     17.70761        -0.002425     -0.000502     -0.005580
      1.78911      3.35062     16.60652        -0.003546     -0.003784     -0.002461
      1.96790      4.24417     18.10920         0.002121     -0.004636     -0.000879
      2.66813      2.63439     17.95789        -0.001124     -0.002533     -0.002753
      3.57960      0.92002     16.34311        -0.003755     -0.000534     -0.001287
      4.28298      7.64396     16.24187         0.001612      0.000625      0.002327
      4.45594      0.24264     17.70753        -0.002988     -0.000791     -0.004616
      1.78904      7.52511     16.60664        -0.001755     -0.002917     -0.002307
      1.96785      0.06976     18.10910         0.003083     -0.006392     -0.000438
      2.66819      6.80885     17.95778        -0.001397     -0.000832     -0.001845
      6.11787      5.55640     16.23262        -0.003547     -0.001955      0.001995
      6.81693      7.18346     16.34150         0.003321     -0.003341     -0.001429
      5.93210      6.50146     17.69797         0.003420      0.000724     -0.003204
      0.25903      5.44035     16.61470         0.004346     -0.003524     -0.003359
      7.72180      4.72416     17.96130         0.001847     -0.005835     -0.000156
      0.07017      6.33513     18.11524        -0.001673     -0.005121      0.001223
      6.11788      1.38185     16.23263        -0.003596     -0.002071      0.002039
      6.81692      3.00890     16.34147         0.003412     -0.003455     -0.001125
      5.93209      2.32693     17.69795         0.003155      0.000844     -0.002774
      0.25899      1.26578     16.61468         0.004687     -0.003524     -0.003520
      7.72182      0.54957     17.96131         0.001798     -0.005177     -0.000579
      0.07019      2.16054     18.11526        -0.001638     -0.005032      0.001084
      2.08728      0.00000      7.50000         0.000489      0.000103      0.425621
      4.17456      2.08728      7.50000         0.000493      0.000181      0.427171
      2.08728      2.08728      9.58728         0.005100      0.005493      0.061096
      4.17456      0.00000      9.58728         0.003774      0.005888      0.073170
      2.08847      0.00330     11.68691        -0.001742     -0.000218     -0.002678
      4.17604      2.09089     11.69144         0.001745     -0.000595     -0.002432
      2.08533      2.09314     13.75569         0.001168     -0.000782     -0.002168
      4.17125      0.00738     13.77459        -0.000434     -0.001013      0.000488
      2.08728      4.17456      7.50000         0.000475      0.000073      0.425711
      4.17456      6.26183      7.50000         0.000493      0.000195      0.427160
      2.08728      6.26183      9.58728         0.005066      0.005246      0.061091
      4.17456      4.17456      9.58728         0.003726      0.005823      0.073053
      2.08840      4.17787     11.68693        -0.000903     -0.000269     -0.002523
      4.17605      6.26536     11.69142         0.001737     -0.000350     -0.002175
      2.08533      6.26772     13.75570         0.001291     -0.001374     -0.002236
      4.17127      4.18194     13.77469        -0.001081     -0.000893     -0.001367
      6.26183      0.00000      7.50000        -0.000530      0.000160      0.427182
      0.00000      2.08728      7.50000        -0.000528      0.000145      0.425655
      6.26183      2.08728      9.58728        -0.004684      0.005965      0.073563
      0.00000      0.00000      9.58728        -0.006435      0.005390      0.061442
      6.25962      0.00357     11.69142        -0.000657     -0.000262     -0.001397
      8.34732      2.09074     11.68696         0.000566     -0.001460     -0.001929
      6.26373      2.09470     13.77521         0.001055     -0.000949     -0.000257
      0.00076      0.00592     13.75554        -0.001187     -0.001360      0.000257
      6.26183      4.17456      7.50000        -0.000515      0.000130      0.427202
      0.00000      6.26183      7.50000        -0.000528      0.000128      0.425658
      6.26183      6.26183      9.58728        -0.004647      0.005841      0.073569
      0.00000      4.17456      9.58728        -0.006345      0.005398      0.061215
[...]
      0.00000      2.08728      9.58728        -0.003645      0.007231      0.069781
      6.26183      2.08728      7.50000         0.000953      0.000216     -0.563849
      0.00000      0.00000      7.50000         0.000819      0.000211     -0.562845
      6.26369      0.00637     13.81366        -0.001019     -0.000879     -0.003200
      0.00417      2.09349     13.80817         0.001490     -0.002107     -0.001536
      6.26160      2.09070     11.68566        -0.000379      0.000383      0.000103
      8.34811      0.00329     11.68010         0.001282     -0.000329      0.001914
      6.26183      4.17456      9.58728        -0.004942      0.007403      0.081195
      0.00000      6.26183      9.58728        -0.003640      0.006735      0.069841
      6.26183      6.26183      7.50000         0.000950      0.000317     -0.563855
      0.00000      4.17456      7.50000         0.000800      0.000168     -0.562913
      6.26377      4.18092     13.81350        -0.002495     -0.000828     -0.001777
      0.00417      6.26790     13.80817         0.001456     -0.000025     -0.001557
      6.26159      6.26534     11.68566        -0.000180     -0.001032      0.000155
      8.34822      4.17784     11.68029        -0.000501     -0.000200     -0.000344
    total drift:                                0.000014      0.004850      0.007204

  FREE ENERGIE OF THE ION-ELECTRON SYSTEM (eV)
  free  energy   TOTEN  =      -668.09878329 eV

  energy  without entropy=     -668.09878329  energy(sigma->0) =     -668.09878329

 d Force = 0.8842408E-04[ 0.306E-04, 0.146E-03]  d Energy = 0.8768994E-04 0.734E-06
 d Force =-0.3498666E+01[-0.350E+01,-0.350E+01]  d Ewald  =-0.3498667E+01 0.957E-06

 Conjugate gradient step on ions:
 trial-energy change:   -0.000088  1 .order   -0.000088   -0.000146   -0.000031
  (g-gl).g = 0.190E-03      g.g   = 0.191E-03  gl.gl    = 0.383E-03
 g(Force)  = 0.191E-03   g(Stress)= 0.000E+00 ortho     = 0.148E-05
 gamma     =   0.49455
 trial     =   0.76159
 opt step  =   0.97297  (harmonic =   0.96269) maximal distance =0.00076113
 next E    =  -668.098788   (d E  =  -0.00009)

 reached required accuracy - stopping structural energy minimisation