 vasp.6.3.0 20Jan22 (build Apr  1 2022 16:44:48) complex
 executed on        HPECrayEX_GCC date 2022.11.07  01:22:08

 INCAR:
   SYSTEM = MgO-rocksalt
   ISMEAR = 0
   SIGMA = 0.05
   EDIFF = 1E-6
   ALGO = ALL
   ISTART = 0
   IBRION = -1
   NSW = 0
   ISYM = 0
   DIPOL = 0.5 0.5 0.5
   IDIPOL = 3
   LDIPOL = .TRUE.
   LHFCALC = .TRUE.
   GGA = PE
   IVDW = 13
   VDW_S8 = 1.2007
   VDW_A1 = 0.4009
   VDW_A2 = 5.0293
   ENCUT = 600
   PREC = Accurate
   LASPH = .TRUE.
   LREAL = .FALSE.
   ISPIN = 1
   NELM = 200
   NELMIN = 8
   NCORE = 8
   KPAR = 1
   LWAVE = .FALSE.
   LCHARG = .FALSE.

 POTCAR:    PAW_PBE C 08Apr2002
 POTCAR:    PAW_PBE H 15Jun2001
 POTCAR:    PAW_PBE Mg_pv 13Apr2007
 POTCAR:    PAW_PBE O 08Apr2002
 POTCAR:    PAW_PBE C 08Apr2002
   VRHFIN =C: s2p2

   TITEL  = PAW_PBE C 08Apr2002
   POMASS =   12.011; ZVAL   =    4.000    mass and valenz
   ENMAX  =  400.000; ENMIN  =  300.000 eV

   TITEL  = PAW_PBE H 15Jun2001
   POMASS =    1.000; ZVAL   =    1.000    mass and valenz
   ENMAX  =  250.000; ENMIN  =  200.000 eV

   TITEL  = PAW_PBE Mg_pv 13Apr2007
   POMASS =   24.305; ZVAL   =    8.000    mass and valenz
   ENMAX  =  403.929; ENMIN  =  302.947 eV

   TITEL  = PAW_PBE O 08Apr2002
   POMASS =   16.000; ZVAL   =    6.000    mass and valenz
   ENMAX  =  400.000; ENMIN  =  300.000 eV

  PAW_PBE C 08Apr2002                   :
  PAW_PBE H 15Jun2001                   :
  PAW_PBE Mg_pv 13Apr2007               :
  PAW_PBE O 08Apr2002                   :

 POSCAR:  C  H Mg  O
  positions in direct lattice
|           W    W    AA    RRRRR   N    N  II  N    N   GGGG   !!!           |
|           W    W   A  A   R    R  NN   N  II  NN   N  G    G  !!!           |
|           W    W  A    A  R    R  N N  N  II  N N  N  G       !!!           |
|           W WW W  AAAAAA  RRRRR   N  N N  II  N  N N  G  GGG   !            |
|           WW  WW  A    A  R   R   N   NN  II  N   NN  G    G                |
|           W    W  A    A  R    R  N    N  II  N    N   GGGG   !!!           |
|     Specifying the vdW parameters                                           |
|     VDW_S8 = 1.201                                                          |
|     VDW_A1 = 0.401                                                          |
|     VDW_A2 = 5.029                                                          |
|     in the INCAR file will overwrite the defaults for pbe0. Please make     |
|     sure that is what you intended.                                         |

 ion  position               nearest neighbor table
   1  0.500  0.500  0.791-   3 1.09   2 1.09   4 1.09   5 1.09
   2  0.500  0.606  0.820-   1 1.09
   3  0.500  0.394  0.820-   1 1.09
   4  0.607  0.500  0.762-   1 1.09
   5  0.393  0.500  0.762-   1 1.09
   6  0.250  0.000  0.352-  40 2.10  41 2.10  48 2.10  57 2.10  38 2.10
   7  0.500  0.250  0.352-  40 2.10  41 2.10  49 2.10  56 2.10  39 2.10
   8  0.250  0.250  0.451-  38 2.10  39 2.10  46 2.10  55 2.10  40 2.10  44 2.10
   9  0.500  0.000  0.451-  38 2.10  39 2.10  47 2.10  54 2.10  41 2.10  45 2.11
  10  0.250  1.000  0.550-  61 2.10  45 2.10  52 2.10  44 2.10  38 2.11  42 2.13
  11  0.500  0.250  0.550-  60 2.10  44 2.10  53 2.10  45 2.10  39 2.11  43 2.13
  12  0.250  0.250  0.647-  44 2.08  42 2.10  59 2.10  43 2.10  50 2.10
  13  0.500  1.000  0.648-  45 2.10  51 2.10  43 2.10  42 2.10  58 2.10
  14  0.250  0.500  0.352-  40 2.10  48 2.10  49 2.10  65 2.10  46 2.10
  15  0.500  0.750  0.352-  41 2.10  48 2.10  49 2.10  64 2.10  47 2.10
  16  0.250  0.750  0.451-  38 2.10  46 2.10  47 2.10  63 2.10  48 2.10  52 2.10
  17  0.500  0.500  0.451-  39 2.10  46 2.10  47 2.10  62 2.10  49 2.10  53 2.11
  18  0.250  0.500  0.550-  52 2.10  44 2.10  69 2.10  53 2.10  46 2.11  50 2.13
  19  0.500  0.750  0.550-  52 2.10  68 2.10  53 2.10  45 2.10  47 2.11  51 2.13
  20  0.250  0.750  0.647-  52 2.08  42 2.10  67 2.10  51 2.10  50 2.10
  21  0.500  0.500  0.648-  53 2.10  66 2.10  50 2.10  51 2.10  43 2.10
  22  0.750  0.000  0.352-  41 2.10  56 2.10  57 2.10  64 2.10  54 2.10
  23  0.000  0.250  0.352-  40 2.10  56 2.10  57 2.10  65 2.10  55 2.10
  24  0.750  0.250  0.451-  39 2.10  54 2.10  55 2.10  62 2.10  56 2.10  60 2.10
  25  0.000  0.000  0.451-  38 2.10  54 2.10  55 2.10  63 2.10  57 2.10  61 2.11
  26  0.750  1.000  0.550-  61 2.10  45 2.10  60 2.10  68 2.10  54 2.11  58 2.13
  27  0.000  0.250  0.550-  69 2.10  44 2.10  60 2.10  61 2.10  55 2.11  59 2.13
  28  0.750  0.250  0.647-  60 2.08  58 2.10  59 2.10  43 2.10  66 2.10
  29  0.000  1.000  0.648-  61 2.10  42 2.10  58 2.10  59 2.10  67 2.10
  30  0.750  0.500  0.352-  49 2.10  56 2.10  64 2.10  65 2.10  62 2.10
  31  0.000  0.750  0.352-  48 2.10  57 2.10  64 2.10  65 2.10  63 2.10
  32  0.750  0.750  0.451-  47 2.10  54 2.10  62 2.10  63 2.10  64 2.10  68 2.10
  33  0.000  0.500  0.451-  46 2.10  55 2.10  62 2.10  63 2.10  65 2.10  69 2.11
  34  0.750  0.500  0.550-  60 2.10  68 2.10  69 2.10  53 2.10  62 2.11  66 2.13
  35  0.000  0.750  0.550-  69 2.10  52 2.10  68 2.10  61 2.10  63 2.11  67 2.13
  36  0.750  0.750  0.647-  68 2.08  58 2.10  67 2.10  51 2.10  66 2.10
  37  0.000  0.500  0.648-  69 2.10  59 2.10  67 2.10  66 2.10  50 2.10
  38  0.250  0.000  0.451-   8 2.10   9 2.10  16 2.10  25 2.10   6 2.10  10 2.11
  39  0.500  0.250  0.451-   8 2.10   9 2.10  17 2.10  24 2.10   7 2.10  11 2.11
  40  0.250  0.250  0.352-   6 2.10   7 2.10  14 2.10  23 2.10   8 2.10
  41  0.500  0.000  0.352-   6 2.10   7 2.10  15 2.10  22 2.10   9 2.10
  42  0.250  1.000  0.650-  29 2.10  20 2.10  12 2.10  13 2.10  10 2.13
  43  0.500  0.250  0.650-  13 2.10  12 2.10  28 2.10  21 2.10  11 2.13
  44  0.250  0.250  0.549-  12 2.08  11 2.10  18 2.10  10 2.10  27 2.10   8 2.10
  45  0.500  1.000  0.550-  13 2.10  26 2.10  10 2.10  11 2.10  19 2.10   9 2.11
  46  0.250  0.500  0.451-   8 2.10  16 2.10  17 2.10  33 2.10  14 2.10  18 2.11
  47  0.500  0.750  0.451-   9 2.10  16 2.10  17 2.10  32 2.10  15 2.10  19 2.11
  48  0.250  0.750  0.352-   6 2.10  14 2.10  15 2.10  31 2.10  16 2.10
  49  0.500  0.500  0.352-   7 2.10  14 2.10  15 2.10  30 2.10  17 2.10
  50  0.250  0.500  0.650-  21 2.10  37 2.10  12 2.10  20 2.10  18 2.13
  51  0.500  0.750  0.650-  13 2.10  36 2.10  20 2.10  21 2.10  19 2.13
  52  0.250  0.750  0.549-  20 2.08  19 2.10  18 2.10  10 2.10  35 2.10  16 2.10
  53  0.500  0.500  0.550-  21 2.10  11 2.10  19 2.10  18 2.10  34 2.10  17 2.11
  54  0.750  0.000  0.451-   9 2.10  24 2.10  25 2.10  32 2.10  22 2.10  26 2.11
  55  0.000  0.250  0.451-   8 2.10  24 2.10  25 2.10  33 2.10  23 2.10  27 2.11
  56  0.750  0.250  0.352-   7 2.10  22 2.10  23 2.10  30 2.10  24 2.10
  57  0.000  0.000  0.352-   6 2.10  22 2.10  23 2.10  31 2.10  25 2.10
  58  0.750  1.000  0.650-  29 2.10  28 2.10  36 2.10  13 2.10  26 2.13
  59  0.000  0.250  0.650-  37 2.10  29 2.10  28 2.10  12 2.10  27 2.13
  60  0.750  0.250  0.549-  28 2.08  11 2.10  34 2.10  26 2.10  27 2.10  24 2.10
  61  0.000  1.000  0.550-  29 2.10  26 2.10  10 2.10  35 2.10  27 2.10  25 2.11
  62  0.750  0.500  0.451-  17 2.10  24 2.10  32 2.10  33 2.10  30 2.10  34 2.11
  63  0.000  0.750  0.451-  16 2.10  25 2.10  32 2.10  33 2.10  31 2.10  35 2.11
  64  0.750  0.750  0.352-  15 2.10  22 2.10  30 2.10  31 2.10  32 2.10
  65  0.000  0.500  0.352-  14 2.10  23 2.10  30 2.10  31 2.10  33 2.10
  66  0.750  0.500  0.650-  21 2.10  37 2.10  36 2.10  28 2.10  34 2.13
  67  0.000  0.750  0.650-  37 2.10  29 2.10  20 2.10  36 2.10  35 2.13
  68  0.750  0.750  0.549-  36 2.08  19 2.10  34 2.10  26 2.10  35 2.10  32 2.10
  69  0.000  0.500  0.550-  37 2.10  35 2.10  27 2.10  18 2.10  34 2.10  33 2.11

IMPORTANT INFORMATION: All symmetrisations will be switched off!
NOSYMM: (Re-)initialisation of all symmetry stuff for point group C_1.

                                     Primitive cell

  volume of cell :    1504.9259

  direct lattice vectors                    reciprocal lattice vectors
     8.404861995  0.000000000  0.000000000     0.118978753  0.000000000  0.000000000
     0.000000000  8.404861995  0.000000000     0.000000000  0.118978753  0.000000000
     0.000000000  0.000000000 21.303646496     0.000000000  0.000000000  0.046940321

  length of vectors
     8.404861995  8.404861995 21.303646496     0.118978753  0.118978753  0.046940321

  position of ions in fractional coordinates (direct lattice)
     0.500003812  0.499996287  0.791119279
     0.499999540  0.606329819  0.820436864
     0.499999439  0.393678694  0.820435644
     0.606930690  0.500001879  0.761974110
     0.393064195  0.500001910  0.761973342
     0.250000000  0.000000000  0.352052406
     0.500000000  0.250000000  0.352052406
     0.250000000  0.250000000  0.450684135
     0.500000000  0.000000000  0.450684135
     0.249981383  0.999999883  0.549785611
     0.500000092  0.250021738  0.549809574
     0.249987197  0.249982572  0.647130316
     0.500000018  0.999999757  0.648084753
     0.250000000  0.500000000  0.352052406
     0.500000000  0.750000000  0.352052406
     0.250000000  0.750000000  0.450684135
     0.500000000  0.500000000  0.450684135
     0.249993345  0.499999893  0.549829400
     0.500000082  0.749978009  0.549809581
     0.249986874  0.750017140  0.647130392
     0.500000123  0.499999853  0.648163177
     0.750000000  0.000000000  0.352052406
     0.000000000  0.250000000  0.352052406
     0.750000000  0.250000000  0.450684135
     0.000000000  0.000000000  0.450684135
     0.750018865  0.999999893  0.549785611
     0.000000111  0.250035704  0.549797598
     0.750013088  0.249982562  0.647130333
     0.000000119  0.999999839  0.648066009
     0.750000000  0.500000000  0.352052406
     0.000000000  0.750000000  0.352052406
     0.750000000  0.750000000  0.450684135
     0.000000000  0.500000000  0.450684135
     0.750006795  0.499999878  0.549829409
     0.000000108  0.749964043  0.549797590
     0.750013031  0.750016940  0.647130255
     0.000000014  0.499999763  0.648144849
     0.250000000  0.000000000  0.450684135
     0.500000000  0.250000000  0.450684135
     0.250000000  0.250000000  0.352052406
     0.500000000  0.000000000  0.352052406
     0.249948740  0.999999798  0.649680437
     0.500000079  0.249921046  0.649732577
     0.250028174  0.250023778  0.549466341
     0.500000135  0.999999917  0.549572534
     0.250000000  0.500000000  0.450684135
     0.500000000  0.750000000  0.450684135
     0.250000000  0.750000000  0.352052406
     0.500000000  0.500000000  0.352052406
     0.250044018  0.499999823  0.649765006
     0.500000064  0.750078536  0.649732421
     0.250028115  0.749976005  0.549466345
     0.500000049  0.499999848  0.549604738
     0.750000000  0.000000000  0.450684135
     0.000000000  0.250000000  0.450684135
     0.750000000  0.250000000  0.352052406
     0.000000000  0.000000000  0.352052406
     0.750051312  0.999999812  0.649680535
     0.000000062  0.250034065  0.649705208
     0.749972007  0.250023702  0.549466349
     0.000000036  0.999999867  0.549551894
     0.750000000  0.500000000  0.450684135
     0.000000000  0.750000000  0.450684135
     0.750000000  0.750000000  0.352052406
     0.000000000  0.500000000  0.352052406
[...]
   0.75000000  0.75000000  0.35205241
   0.00000000  0.50000000  0.35205241
   0.74995618  0.49999981  0.64976488
   0.00000006  0.74996550  0.64970536
   0.74997206  0.74997607  0.54946634
   0.00000009  0.49999991  0.54959810

 position of ions in cartesian coordinates  (Angst):
   4.20246304  4.20239979 16.85372546
   4.20242713  5.09611845 17.47829692
   4.20242628  3.30881509 17.47827093
   5.10116869  4.20244679 16.23282709
   3.30365031  4.20244705 16.23281073
   2.10121550  0.00000000  7.50000000
   4.20243100  2.10121550  7.50000000
   2.10121550  2.10121550  9.60121550
   4.20243100  0.00000000  9.60121550
   2.10105902  8.40486101 11.71243830
   4.20243177  2.10139820 11.71294880
   2.10110789  2.10106902 13.78623549
   4.20243115  8.40485995 13.80656848
   2.10121550  4.20243100  7.50000000
   4.20243100  6.30364650  7.50000000
   2.10121550  6.30364650  9.60121550
   4.20243100  4.20243100  9.60121550
   2.10115956  4.20243009 11.71337117
   4.20243169  6.30346166 11.71294896
   2.10110517  6.30379056 13.78623710
   4.20243203  4.20242976 13.80823920
   6.30364650  0.00000000  7.50000000
   0.00000000  2.10121550  7.50000000
   6.30364650  2.10121550  9.60121550
   0.00000000  0.00000000  9.60121550
   6.30380505  8.40486109 11.71243831
   0.00000093  2.10151559 11.71269368
   6.30375650  2.10106893 13.78623584
   0.00000100  8.40486064 13.80616916
   6.30364650  4.20243100  7.50000000
   0.00000000  6.30364650  7.50000000
   6.30364650  6.30364650  9.60121550
   0.00000000  4.20243100  9.60121550
   6.30370361  4.20242997 11.71337137
   0.00000091  6.30334428 11.71269350
   6.30375602  6.30378887 13.78623420
   0.00000012  4.20242901 13.80784874
   2.10121550  0.00000000  9.60121550
   4.20243100  2.10121550  9.60121550
   2.10121550  2.10121550  7.50000000
   4.20243100  0.00000000  7.50000000
   2.10078466  8.40486030 13.84056236
   4.20243166  2.10055190 13.84167313
   2.10145230  2.10141535 11.70563670
   4.20243213  8.40486130 11.70789899
   2.10121550  4.20243100  9.60121550
   4.20243100  6.30364650  9.60121550
   2.10121550  6.30364650  7.50000000
   4.20243100  4.20243100  7.50000000
   2.10158546  4.20242951 13.84236398
   4.20243154  6.30430658 13.84166982
   2.10145180  6.30344482 11.70563677
   4.20243141  4.20242972 11.70858505
   6.30364650  0.00000000  9.60121550
   0.00000000  2.10121550  9.60121550
   6.30364650  2.10121550  7.50000000
   0.00000000  0.00000000  7.50000000
   6.30407777  8.40486041 13.84056445
   0.00000052  2.10150181 13.84109009
   6.30341122  2.10141471 11.70563686
   0.00000031  8.40486088 11.70745928
   6.30364650  4.20243100  9.60121550
   0.00000000  6.30364650  9.60121550
   6.30364650  6.30364650  7.50000000
   0.00000000  4.20243100  7.50000000
   6.30327815  4.20242941 13.84236137
   0.00000053  6.30335655 13.84109326
   6.30341168  6.30344534 11.70563666
   0.00000076  4.20243021 11.70844365

--------------------------------------- Iteration      FINAL  ---------------------------------------

--------------------OUTCAR has been truncated-------------------------

[...]

--------------------OUTCAR has been truncated-------------------------

 VOLUME and BASIS-vectors are now :
  energy-cutoff  :      600.00
  volume of cell :     1504.93
      direct lattice vectors                 reciprocal lattice vectors
     8.404861995  0.000000000  0.000000000     0.118978753  0.000000000  0.000000000
     0.000000000  8.404861995  0.000000000     0.000000000  0.118978753  0.000000000
     0.000000000  0.000000000 21.303646496     0.000000000  0.000000000  0.046940321

  length of vectors
     8.404861995  8.404861995 21.303646496     0.118978753  0.118978753  0.046940321

 FORCES acting on ions:
    Electron-Ion                     Ewald-Force                    Non-Local-Force
   0.153E-02 -.210E-02 -.960E+03   -.269E-02 0.360E-02 0.960E+03   -.161E-02 0.208E-02 -.104E+00
   0.151E-02 -.434E+02 -.238E+03   -.160E-02 0.480E+02 0.241E+03   0.217E-03 -.444E+01 -.309E+01
   0.155E-02 0.434E+02 -.238E+03   -.165E-02 -.481E+02 0.241E+03   0.222E-03 0.444E+01 -.309E+01
   -.437E+02 -.200E-02 -.242E+03   0.484E+02 0.213E-02 0.239E+03   -.451E+01 -.282E-03 0.300E+01
   0.436E+02 -.201E-02 -.242E+03   -.484E+02 0.214E-02 0.239E+03   0.451E+01 -.282E-03 0.300E+01
   0.150E+00 0.439E-05 0.210E+04   -.149E+00 -.174E-05 -.209E+04   -.538E-03 -.652E-06 -.679E+01
   0.138E-05 0.172E+00 0.210E+04   -.195E-05 -.172E+00 -.209E+04   0.458E-06 -.293E-03 -.680E+01
   0.693E+00 0.681E+00 0.719E+03   -.687E+00 -.677E+00 -.719E+03   -.399E-02 -.245E-02 0.414E+00
   0.391E-04 0.283E-04 0.718E+03   -.315E-04 -.299E-04 -.719E+03   -.361E-05 0.140E-05 0.397E+00
   0.240E+01 0.444E-04 -.658E+03   -.237E+01 -.512E-04 0.658E+03   -.141E-01 0.375E-05 -.269E+00
   0.718E-05 0.452E+01 -.652E+03   -.252E-05 -.453E+01 0.652E+03   -.351E-05 0.779E-02 -.321E+00
   0.151E+02 0.160E+02 -.202E+04   -.151E+02 -.161E+02 0.201E+04   -.543E-01 0.362E-01 0.591E+01
   0.821E-05 0.101E-03 -.203E+04   0.269E-04 -.813E-04 0.203E+04   -.227E-04 -.112E-04 0.596E+01
   0.176E+00 -.203E-05 0.210E+04   -.175E+00 0.173E-05 -.209E+04   -.600E-03 -.826E-06 -.679E+01
   0.604E-05 -.172E+00 0.210E+04   -.403E-05 0.172E+00 -.209E+04   0.934E-06 0.290E-03 -.680E+01
   0.693E+00 -.681E+00 0.719E+03   -.687E+00 0.677E+00 -.719E+03   -.399E-02 0.246E-02 0.414E+00
   0.232E-05 -.419E-04 0.720E+03   0.334E-06 0.334E-04 -.720E+03   0.453E-06 0.718E-05 0.413E+00
   0.439E+01 -.718E-04 -.652E+03   -.438E+01 0.805E-04 0.652E+03   -.506E-02 -.526E-05 -.250E+00
   0.168E-03 -.452E+01 -.652E+03   -.185E-03 0.453E+01 0.652E+03   0.891E-05 -.779E-02 -.321E+00
   0.151E+02 -.160E+02 -.202E+04   -.150E+02 0.161E+02 0.201E+04   -.542E-01 -.362E-01 0.591E+01
   0.283E-03 -.851E-04 -.197E+04   -.344E-03 0.643E-04 0.196E+04   0.370E-04 0.479E-05 0.562E+01
   -.150E+00 0.703E-06 0.210E+04   0.149E+00 0.228E-06 -.209E+04   0.540E-03 -.117E-05 -.679E+01
   -.313E-05 0.147E+00 0.210E+04   0.192E-05 -.146E+00 -.209E+04   -.988E-06 -.245E-03 -.679E+01
   -.693E+00 0.681E+00 0.719E+03   0.687E+00 -.677E+00 -.719E+03   0.399E-02 -.245E-02 0.414E+00
   -.496E-04 -.274E-04 0.717E+03   0.491E-04 0.199E-04 -.718E+03   0.398E-06 0.454E-05 0.409E+00
   -.240E+01 0.259E-04 -.658E+03   0.237E+01 -.138E-04 0.658E+03   0.141E-01 -.713E-05 -.269E+00
   -.556E-04 0.263E+01 -.658E+03   0.460E-04 -.262E+01 0.658E+03   0.481E-05 -.992E-02 -.250E+00
   -.151E+02 0.160E+02 -.202E+04   0.151E+02 -.161E+02 0.201E+04   0.542E-01 0.362E-01 0.591E+01
   0.261E-03 0.100E-03 -.204E+04   -.269E-03 -.864E-04 0.204E+04   -.320E-05 -.140E-04 0.595E+01
   -.176E+00 -.983E-06 0.210E+04   0.175E+00 -.408E-06 -.209E+04   0.597E-03 -.352E-05 -.679E+01
   -.218E-05 -.147E+00 0.210E+04   0.397E-05 0.146E+00 -.209E+04   -.412E-05 0.244E-03 -.679E+01
   -.693E+00 -.681E+00 0.719E+03   0.687E+00 0.677E+00 -.719E+03   0.399E-02 0.245E-02 0.414E+00
   0.168E-04 0.154E-04 0.718E+03   -.126E-04 -.194E-04 -.719E+03   -.275E-05 0.114E-05 0.422E+00
   -.439E+01 0.612E-04 -.652E+03   0.438E+01 -.748E-04 0.652E+03   0.506E-02 0.623E-05 -.250E+00
   -.819E-04 -.263E+01 -.658E+03   0.871E-04 0.262E+01 0.658E+03   -.571E-05 0.993E-02 -.250E+00
   -.151E+02 -.160E+02 -.202E+04   0.151E+02 0.161E+02 0.201E+04   0.542E-01 -.362E-01 0.591E+01
   -.374E-03 0.438E-04 -.203E+04   0.385E-03 -.416E-04 0.203E+04   -.153E-05 -.198E-06 0.600E+01
   0.428E+00 0.305E-05 0.538E+03   -.423E+00 0.611E-05 -.538E+03   -.586E-02 -.620E-05 -.911E-01
   0.102E-04 0.594E+00 0.539E+03   -.151E-04 -.597E+00 -.539E+03   0.473E-05 0.302E-02 -.101E+00
   0.123E+00 0.119E+00 0.158E+04   -.122E+00 -.119E+00 -.158E+04   -.136E-02 -.525E-03 0.302E+01
   0.490E-05 0.283E-05 0.158E+04   -.359E-05 -.273E-05 -.158E+04   -.824E-06 -.296E-05 0.302E+01
   0.613E+01 -.110E-03 -.155E+04   -.609E+01 0.124E-03 0.155E+04   -.511E-01 -.125E-04 -.444E+01
   -.512E-04 0.203E+02 -.152E+04   0.608E-04 -.202E+02 0.153E+04   -.578E-05 -.106E+00 -.461E+01
   0.255E+01 0.263E+01 -.484E+03   -.253E+01 -.264E+01 0.483E+03   -.271E-01 0.732E-02 0.401E+00
   0.306E-05 0.685E-04 -.488E+03   0.157E-04 -.709E-04 0.488E+03   -.210E-04 0.218E-05 0.142E+00
   0.595E+00 -.200E-04 0.539E+03   -.591E+00 0.229E-04 -.539E+03   -.431E-02 -.602E-05 -.982E-01
   0.284E-04 -.594E+00 0.539E+03   -.284E-04 0.597E+00 -.539E+03   0.438E-05 -.304E-02 -.101E+00
   0.123E+00 -.119E+00 0.158E+04   -.122E+00 0.119E+00 -.158E+04   -.136E-02 0.525E-03 0.302E+01
   0.306E-05 -.487E-05 0.158E+04   -.657E-06 0.237E-05 -.158E+04   -.199E-05 0.232E-05 0.302E+01
   0.206E+02 -.948E-04 -.152E+04   -.205E+02 0.870E-04 0.153E+04   -.140E+00 0.973E-05 -.444E+01
   0.320E-03 -.203E+02 -.152E+04   -.357E-03 0.202E+02 0.153E+04   0.318E-04 0.106E+00 -.461E+01
   0.255E+01 -.263E+01 -.484E+03   -.253E+01 0.264E+01 0.483E+03   -.271E-01 -.732E-02 0.401E+00
   0.781E-04 -.629E-05 -.481E+03   -.782E-04 0.252E-05 0.481E+03   0.440E-05 0.488E-05 0.151E+00
   -.428E+00 -.810E-05 0.538E+03   0.423E+00 0.157E-04 -.538E+03   0.587E-02 -.821E-05 -.911E-01
   0.458E-05 0.433E+00 0.538E+03   -.116E-04 -.435E+00 -.538E+03   0.774E-05 0.209E-02 -.888E-01
   -.123E+00 0.119E+00 0.158E+04   0.122E+00 -.119E+00 -.158E+04   0.136E-02 -.527E-03 0.302E+01
   0.251E-06 -.815E-06 0.158E+04   0.427E-05 0.119E-05 -.158E+04   0.276E-06 0.163E-05 0.302E+01
   -.613E+01 0.212E-03 -.155E+04   0.609E+01 -.227E-03 0.155E+04   0.511E-01 0.932E-05 -.444E+01
   -.252E-03 0.675E+01 -.155E+04   0.271E-03 -.677E+01 0.155E+04   -.141E-04 0.191E-01 -.442E+01
   -.255E+01 0.263E+01 -.484E+03   0.253E+01 -.264E+01 0.483E+03   0.271E-01 0.733E-02 0.401E+00
   -.161E-03 0.491E-04 -.491E+03   0.172E-03 -.498E-04 0.491E+03   -.636E-05 -.572E-06 0.186E+00
   -.595E+00 -.332E-05 0.539E+03   0.591E+00 0.977E-05 -.539E+03   0.432E-02 -.543E-05 -.982E-01
   -.807E-05 -.433E+00 0.538E+03   0.180E-05 0.435E+00 -.538E+03   0.560E-05 -.211E-02 -.888E-01
   -.123E+00 -.119E+00 0.158E+04   0.122E+00 0.119E+00 -.158E+04   0.136E-02 0.524E-03 0.302E+01
   -.394E-06 0.180E-05 0.158E+04   0.557E-06 -.160E-05 -.158E+04   0.112E-05 -.402E-06 0.302E+01
   -.206E+02 0.881E-04 -.152E+04   0.205E+02 -.118E-03 0.153E+04   0.140E+00 0.302E-04 -.444E+01
   0.241E-03 -.675E+01 -.155E+04   -.272E-03 0.677E+01 0.155E+04   0.241E-04 -.190E-01 -.442E+01
   -.255E+01 -.263E+01 -.484E+03   0.253E+01 0.264E+01 0.483E+03   0.271E-01 -.733E-02 0.401E+00
   -.750E-04 0.214E-04 -.488E+03   0.772E-04 -.330E-04 0.488E+03   -.536E-05 0.753E-05 0.172E+00
   0.235E-02 -.302E-02 0.194E+02   -.164E-12 0.121E-12 -.568E-11   -.220E-02 0.281E-02 -.165E+02

 POSITION                                       TOTAL-FORCE (eV/Angst)
      4.20246      4.20240     16.85373        -0.002872      0.003710      0.016680
      4.20243      5.09612     17.47830         0.000133     -0.043302     -0.022594
      4.20243      3.30882     17.47827         0.000136      0.039926     -0.020469
      5.10117      4.20245     16.23283        -0.001458     -0.000166      0.019728
      3.30365      4.20245     16.23281         0.004078     -0.000162      0.021312
      2.10122      0.00000      7.50000         0.000252      0.000003      0.525031
      4.20243      2.10122      7.50000         0.000000      0.000110      0.525672
      2.10122      2.10122      9.60122         0.001821      0.001071      0.041051
      4.20243      0.00000      9.60122         0.000003      0.000000      0.055972
      2.10106      8.40486     11.71244         0.008865     -0.000002     -0.012000
      4.20243      2.10140     11.71295         0.000001     -0.004392      0.001928
      2.10111      2.10107     13.78624         0.024963     -0.011419     -0.037494
      4.20243      8.40486     13.80657         0.000009      0.000007     -0.166545
      2.10122      4.20243      7.50000         0.000262     -0.000002      0.525304
      4.20243      6.30365      7.50000         0.000004     -0.000112      0.525684
      2.10122      6.30365      9.60122         0.001817     -0.001074      0.041051
      4.20243      4.20243      9.60122         0.000004     -0.000000      0.055394
      2.10116      4.20243     11.71337         0.004924      0.000003     -0.017993
      4.20243      6.30346     11.71295        -0.000005      0.004392      0.001921
      2.10111      6.30379     13.78624         0.024975      0.011415     -0.037509
      4.20243      4.20243     13.80824        -0.000018     -0.000014     -0.072653
      6.30365      0.00000      7.50000        -0.000250      0.000001      0.525019
      0.00000      2.10122      7.50000        -0.000003      0.000086      0.524624
      6.30365      2.10122      9.60122        -0.001817      0.001070      0.041054
      0.00000      0.00000      9.60122         0.000000     -0.000002      0.049334
      6.30381      8.40486     11.71244        -0.008876      0.000004     -0.011995
      0.00000      2.10152     11.71269        -0.000005     -0.000480     -0.018789
      6.30376      2.10107     13.78624        -0.024968     -0.011430     -0.037483
      0.00000      8.40486     13.80617        -0.000011     -0.000002     -0.166692
      6.30365      4.20243      7.50000        -0.000264     -0.000005      0.525307
      0.00000      6.30365      7.50000        -0.000003     -0.000087      0.524621
      6.30365      6.30365      9.60122        -0.001819     -0.001072      0.041050
      0.00000      4.20243      9.60122         0.000001     -0.000003      0.051372
      6.30370      4.20243     11.71337        -0.004924     -0.000008     -0.018005
      0.00000      6.30334     11.71269        -0.000001      0.000487     -0.018785
      6.30376      6.30379     13.78623        -0.024957      0.011444     -0.037512
      0.00000      4.20243     13.80785         0.000008      0.000002     -0.192254
      2.10122      0.00000      9.60122        -0.001823      0.000002      0.050493
      4.20243      2.10122      9.60122         0.000001      0.000988      0.049467
      2.10122      2.10122      7.50000        -0.000477     -0.000196     -0.470817
      4.20243      0.00000      7.50000         0.000001     -0.000003     -0.471129
      2.10078      8.40486     13.84056        -0.012342      0.000001     -0.015800
      4.20243      2.10055     13.84167         0.000003     -0.026438     -0.069818
      2.10145      2.10142     11.70564        -0.010447      0.001542     -0.021099
      4.20243      8.40486     11.70790        -0.000006      0.000000     -0.022751
      2.10122      4.20243      9.60122        -0.001433     -0.000004      0.052654
      4.20243      6.30365      9.60122         0.000005     -0.000992      0.049472
      2.10122      6.30365      7.50000        -0.000479      0.000195     -0.470815
      4.20243      4.20243      7.50000         0.000000      0.000000     -0.471167
      2.10159      4.20243     13.84236        -0.057617      0.000004     -0.032384
      4.20243      6.30431     13.84167         0.000001      0.026431     -0.069787
      2.10145      6.30344     11.70564        -0.010448     -0.001540     -0.021098
      4.20243      4.20243     11.70859         0.000005      0.000002     -0.014482
      6.30365      0.00000      9.60122         0.001826     -0.000002      0.050492
      0.00000      2.10122      9.60122         0.000002      0.000681      0.052517
      6.30365      2.10122      7.50000         0.000474     -0.000196     -0.470817
      0.00000      0.00000      7.50000         0.000005      0.000003     -0.470461
      6.30408      8.40486     13.84056         0.012348     -0.000005     -0.015817
      0.00000      2.10150     13.84109         0.000003      0.004605     -0.010128
      6.30341      2.10141     11.70564         0.010445      0.001555     -0.021102
      0.00000      8.40486     11.70746         0.000004     -0.000001     -0.005403
      6.30365      4.20243      9.60122         0.001434      0.000000      0.052654
      0.00000      6.30365      9.60122         0.000000     -0.000685      0.052515
      6.30365      6.30365      7.50000         0.000477      0.000194     -0.470815
      0.00000      4.20243      7.50000         0.000002      0.000000     -0.470601
      6.30328      4.20243     13.84236         0.057593      0.000006     -0.032356
      0.00000      6.30336     13.84109        -0.000003     -0.004595     -0.010146
      6.30341      6.30345     11.70564         0.010441     -0.001548     -0.021100
      0.00000      4.20243     11.70844        -0.000004     -0.000003     -0.010706
    total drift:                               -0.000006     -0.000019      0.001914

  FREE ENERGIE OF THE ION-ELECTRON SYSTEM (eV)
  free  energy   TOTEN  =      -500.85571255 eV

  energy  without entropy=     -500.85571255  energy(sigma->0) =     -500.85571255