 vasp.6.3.0 20Jan22 (build Apr  1 2022 16:44:48) complex
 executed on        HPECrayEX_GCC date 2023.02.26  11:40:08

 INCAR:
   SYSTEM = MgO-rocksalt
   ISMEAR = 0
   SIGMA = 0.05
   EDIFF = 1E-7
   ALGO = ALL
   ISTART = 0
   IBRION = 2
   NSW = 1000
   ISYM = 0
   ISIF = 2
   EDIFFG = -0.01
   DIPOL = 0.5 0.5 0.5
   IDIPOL = 3
   LDIPOL = .TRUE.
   GGA = MK
   LUSE_VDW = .TRUE.
   PARAM1 = 0.1234
   PARAM2 = 0.711357
   ZAB_VDW = -1.8867
   AGGAC = 0.0
   ENCUT = 600
   PREC = Accurate
   LASPH = .TRUE.
   LREAL = .FALSE.
   ISPIN = 1
   NELM = 200
   NELMIN = 8
   NCORE = 8
   KPAR = 1
   LWAVE = .FALSE.
   LCHARG = .FALSE.

 POTCAR:    PAW_PBE N 08Apr2002
 POTCAR:    PAW_PBE O 08Apr2002
 POTCAR:    PAW_PBE Mg_pv 13Apr2007
 POTCAR:    PAW_PBE O 08Apr2002
|               ----> ADVICE to this user running VASP <----                  |
|     You have switched on vdW-DFT.                                           |
|     This routine was written and supplied by Jiri Klimes. We recommend      |
|     that you carefully read and cite the following publications:            |
|       J. Klimes, D.R. Bowler, A. Michelides                                 |
|          J. Phys.: Cond Matt. 22 022201 (2010)                              |
|       J. Klimes, D.R. Bowler, A. Michelides                                 |
|          Phys. Rev. B. 83, 195131 (2011)                                    |
|     and references therein.                                                 |

   TITEL  = PAW_PBE N 08Apr2002
   POMASS =   14.001; ZVAL   =    5.000    mass and valenz
   ENMAX  =  400.000; ENMIN  =  300.000 eV

[...]

   TITEL  = PAW_PBE Mg_pv 13Apr2007
   POMASS =   24.305; ZVAL   =    8.000    mass and valenz
   ENMAX  =  403.929; ENMIN  =  302.947 eV

   TITEL  = PAW_PBE O 08Apr2002
   POMASS =   16.000; ZVAL   =    6.000    mass and valenz
   ENMAX  =  400.000; ENMIN  =  300.000 eV

  PAW_PBE N 08Apr2002                   :
  PAW_PBE O 08Apr2002                   :
  PAW_PBE Mg_pv 13Apr2007               :
  PAW_PBE O 08Apr2002                   :

 POSCAR:  N  O Mg  O
  positions in direct lattice
 exchange correlation table for  LEXCH =       43
   RHO(1)=    0.500       N(1)  =     2000
   RHO(2)=  100.500       N(2)  =     4000

 ion  position               nearest neighbor table
   1  0.525  0.547  0.790-   2 1.14
   2  0.624  0.638  0.783-   1 1.14   3 1.20
   3  0.727  0.733  0.774-   2 1.20
   4  0.250  0.000  0.352-  36 2.11  38 2.11  39 2.11  46 2.11  55 2.11
   5  0.500  0.250  0.352-  37 2.11  38 2.11  39 2.11  47 2.11  54 2.11
   6  0.250  0.250  0.451-  38 2.11  37 2.11  36 2.11  44 2.11  53 2.11  42 2.12
   7  0.500  0.000  0.451-  39 2.11  37 2.11  36 2.11  45 2.11  52 2.11  43 2.12
   8  0.250  0.000  0.550-  42 2.11  43 2.11  50 2.11  59 2.11  36 2.12  40 2.14
   9  0.500  0.250  0.550-  42 2.11  43 2.11  51 2.11  58 2.11  37 2.12  41 2.14
  10  0.250  0.250  0.648-  42 2.10  41 2.11  40 2.11  48 2.11  57 2.11
  11  0.500  0.000  0.648-  43 2.10  41 2.11  40 2.11  49 2.11  56 2.11
  12  0.250  0.500  0.352-  44 2.11  38 2.11  46 2.11  47 2.11  63 2.11
  13  0.500  0.750  0.352-  45 2.11  39 2.11  46 2.11  47 2.11  62 2.11
  14  0.250  0.750  0.451-  46 2.11  44 2.11  45 2.11  36 2.11  61 2.11  50 2.12
  15  0.500  0.500  0.451-  47 2.11  44 2.11  45 2.11  37 2.11  60 2.11  51 2.12
  16  0.250  0.500  0.550-  42 2.11  50 2.11  51 2.11  67 2.11  44 2.12  48 2.14
  17  0.500  0.750  0.550-  43 2.11  50 2.11  51 2.11  66 2.11  45 2.12  49 2.14
  18  0.250  0.750  0.648-  50 2.10  48 2.11  49 2.11  40 2.11  65 2.11
  19  0.500  0.500  0.648-  51 2.10  48 2.11  49 2.11  41 2.11  64 2.11
  20  0.750  0.000  0.352-  52 2.11  39 2.11  54 2.11  55 2.11  62 2.11
  21  0.000  0.250  0.352-  53 2.11  38 2.11  54 2.11  55 2.11  63 2.11
  22  0.750  0.250  0.451-  54 2.11  52 2.11  53 2.11  37 2.11  60 2.11  58 2.12
  23  0.000  0.000  0.451-  55 2.11  52 2.11  53 2.11  36 2.11  61 2.11  59 2.12
  24  0.750  0.000  0.550-  43 2.11  58 2.11  59 2.11  66 2.11  52 2.12  56 2.14
  25  0.000  0.250  0.550-  42 2.11  58 2.11  59 2.11  67 2.11  53 2.12  57 2.14
  26  0.750  0.250  0.648-  58 2.10  56 2.11  57 2.11  41 2.11  64 2.11
  27  0.000  0.000  0.648-  59 2.10  56 2.11  57 2.11  40 2.11  65 2.11
  28  0.750  0.500  0.352-  60 2.11  54 2.11  47 2.11  62 2.11  63 2.11
  29  0.000  0.750  0.352-  61 2.11  55 2.11  46 2.11  62 2.11  63 2.11
  30  0.750  0.750  0.451-  62 2.11  52 2.11  60 2.11  61 2.11  45 2.11  66 2.12
  31  0.000  0.500  0.451-  63 2.11  53 2.11  60 2.11  61 2.11  44 2.11  67 2.12
  32  0.750  0.500  0.550-  51 2.11  58 2.11  66 2.11  67 2.11  60 2.12  64 2.14
  33  0.000  0.750  0.550-  50 2.11  59 2.11  66 2.11  67 2.11  61 2.12  65 2.14
  34  0.750  0.750  0.648-  66 2.10  56 2.11  64 2.11  65 2.11  49 2.11
  35  0.000  0.500  0.648-  67 2.10  57 2.11  64 2.11  65 2.11  48 2.11
  36  0.250  0.000  0.451-   4 2.11   6 2.11   7 2.11  14 2.11  23 2.11   8 2.12
  37  0.500  0.250  0.451-   5 2.11   6 2.11   7 2.11  15 2.11  22 2.11   9 2.12
  38  0.250  0.250  0.352-   6 2.11   5 2.11   4 2.11  12 2.11  21 2.11
  39  0.500  0.000  0.352-   7 2.11   5 2.11   4 2.11  13 2.11  20 2.11
  40  0.250  0.000  0.650-  10 2.11  11 2.11  18 2.11  27 2.11   8 2.14
  41  0.500  0.250  0.650-  10 2.11  11 2.11  19 2.11  26 2.11   9 2.14
  42  0.250  0.250  0.550-  10 2.10   9 2.11   8 2.11  16 2.11  25 2.11   6 2.12
  43  0.500  0.000  0.550-  11 2.10   9 2.11   8 2.11  17 2.11  24 2.11   7 2.12
  44  0.250  0.500  0.451-  12 2.11   6 2.11  14 2.11  15 2.11  31 2.11  16 2.12
  45  0.500  0.750  0.451-  13 2.11   7 2.11  14 2.11  15 2.11  30 2.11  17 2.12
  46  0.250  0.750  0.352-  14 2.11  12 2.11  13 2.11   4 2.11  29 2.11
  47  0.500  0.500  0.352-  15 2.11  12 2.11  13 2.11   5 2.11  28 2.11
  48  0.250  0.500  0.650-  10 2.11  18 2.11  19 2.11  35 2.11  16 2.14
  49  0.500  0.750  0.650-  11 2.11  18 2.11  19 2.11  34 2.11  17 2.14
  50  0.250  0.750  0.550-  18 2.10  16 2.11  17 2.11   8 2.11  33 2.11  14 2.12
  51  0.500  0.500  0.550-  19 2.10  16 2.11  17 2.11   9 2.11  32 2.11  15 2.12
  52  0.750  0.000  0.451-  20 2.11   7 2.11  22 2.11  23 2.11  30 2.11  24 2.12
  53  0.000  0.250  0.451-  21 2.11   6 2.11  22 2.11  23 2.11  31 2.11  25 2.12
  54  0.750  0.250  0.352-  22 2.11  20 2.11  21 2.11   5 2.11  28 2.11
  55  0.000  0.000  0.352-  23 2.11  20 2.11  21 2.11   4 2.11  29 2.11
  56  0.750  0.000  0.650-  11 2.11  26 2.11  27 2.11  34 2.11  24 2.14
  57  0.000  0.250  0.650-  10 2.11  26 2.11  27 2.11  35 2.11  25 2.14
  58  0.750  0.250  0.550-  26 2.10  24 2.11  25 2.11   9 2.11  32 2.11  22 2.12
  59  0.000  0.000  0.550-  27 2.10  24 2.11  25 2.11   8 2.11  33 2.11  23 2.12
  60  0.750  0.500  0.451-  28 2.11  22 2.11  15 2.11  30 2.11  31 2.11  32 2.12
  61  0.000  0.750  0.451-  29 2.11  23 2.11  14 2.11  30 2.11  31 2.11  33 2.12
  62  0.750  0.750  0.352-  30 2.11  20 2.11  28 2.11  29 2.11  13 2.11
  63  0.000  0.500  0.352-  31 2.11  21 2.11  28 2.11  29 2.11  12 2.11
  64  0.750  0.500  0.650-  19 2.11  26 2.11  34 2.11  35 2.11  32 2.14
  65  0.000  0.750  0.650-  18 2.11  27 2.11  34 2.11  35 2.11  33 2.14
  66  0.750  0.750  0.550-  34 2.10  24 2.11  32 2.11  33 2.11  17 2.11  30 2.12
  67  0.000  0.500  0.550-  35 2.10  25 2.11  32 2.11  33 2.11  16 2.11  31 2.12

IMPORTANT INFORMATION: All symmetrisations will be switched off!
NOSYMM: (Re-)initialisation of all symmetry stuff for point group C_1.

                                     Primitive cell

  volume of cell :    1519.6535

  direct lattice vectors                    reciprocal lattice vectors
     8.440582262  0.000000000  0.000000000     0.118475239  0.000000000  0.000000000
     0.000000000  8.440582262  0.000000000     0.000000000  0.118475239  0.000000000
     0.000000000  0.000000000 21.330436697     0.000000000  0.000000000  0.046881366

  length of vectors
     8.440582262  8.440582262 21.330436697     0.118475239  0.118475239  0.046881366

  position of ions in fractional coordinates (direct lattice)
     0.524543713  0.547415367  0.790408816
     0.623574728  0.637974135  0.782790634
     0.727425732  0.732983529  0.773948410
     0.250000000  0.000000000  0.351610242
     0.500000000  0.250000000  0.351610242
     0.250000000  0.250000000  0.450536747
     0.500000000  0.000000000  0.450536747
     0.250000000  0.000000000  0.549966382
     0.500000000  0.250000000  0.549966382
     0.250000000  0.250000000  0.648348359
     0.500000000  0.000000000  0.648348359
     0.250000000  0.500000000  0.351610242
     0.500000000  0.750000000  0.351610242
     0.250000000  0.750000000  0.450536747
     0.500000000  0.500000000  0.450536747
     0.250000000  0.500000000  0.549966382
     0.500000000  0.750000000  0.549966382
     0.250000000  0.750000000  0.648348359
     0.500000000  0.500000000  0.648348359
     0.750000000  0.000000000  0.351610242
     0.000000000  0.250000000  0.351610242
     0.750000000  0.250000000  0.450536747
     0.000000000  0.000000000  0.450536747
     0.750000000  0.000000000  0.549966382
     0.000000000  0.250000000  0.549966382
     0.750000000  0.250000000  0.648348359
     0.000000000  0.000000000  0.648348359
     0.750000000  0.500000000  0.351610242
     0.000000000  0.750000000  0.351610242
     0.750000000  0.750000000  0.450536747
     0.000000000  0.500000000  0.450536747
     0.750000000  0.500000000  0.549966382
     0.000000000  0.750000000  0.549966382
     0.750000000  0.750000000  0.648348359
     0.000000000  0.500000000  0.648348359
     0.250000000  0.000000000  0.450536747
     0.500000000  0.250000000  0.450536747
     0.250000000  0.250000000  0.351610242
     0.500000000  0.000000000  0.351610242
     0.250000000  0.000000000  0.650177506
     0.500000000  0.250000000  0.650177506
     0.250000000  0.250000000  0.549707339
     0.500000000  0.000000000  0.549707339
     0.250000000  0.500000000  0.450536747
     0.500000000  0.750000000  0.450536747
     0.250000000  0.750000000  0.351610242
     0.500000000  0.500000000  0.351610242
     0.250000000  0.500000000  0.650177506
     0.500000000  0.750000000  0.650177506
     0.250000000  0.750000000  0.549707339
     0.500000000  0.500000000  0.549707339
     0.750000000  0.000000000  0.450536747
     0.000000000  0.250000000  0.450536747
     0.750000000  0.250000000  0.351610242
     0.000000000  0.000000000  0.351610242
     0.750000000  0.000000000  0.650177506
     0.000000000  0.250000000  0.650177506
     0.750000000  0.250000000  0.549707339
     0.000000000  0.000000000  0.549707339
     0.750000000  0.500000000  0.450536747
     0.000000000  0.750000000  0.450536747
     0.750000000  0.750000000  0.351610242
     0.000000000  0.500000000  0.351610242
     0.750000000  0.500000000  0.650177506
     0.000000000  0.750000000  0.650177506
     0.750000000  0.750000000  0.549707339
     0.000000000  0.500000000  0.549707339

  ion indices of the primitive-cell ions
   primitive index   ion index
                 1           1
                 2           2
                 3           3
                 4           4
                 5           5
                 6           6
[...]
   4.22029113  4.22029113  9.61014557
   2.11014557  4.22029113 11.73102311
   4.22029113  6.33043670 11.73102311
   2.11014557  6.33043670 13.82955363
   4.22029113  4.22029113 13.82955363
   6.33043670  0.00000000  7.50000000
   0.00000000  2.11014557  7.50000000
   6.33043670  2.11014557  9.61014557
   0.00000000  0.00000000  9.61014557
   6.33043670  0.00000000 11.73102311
   0.00000000  2.11014557 11.73102311
   6.33043670  2.11014557 13.82955363
   0.00000000  0.00000000 13.82955363
   6.33043670  4.22029113  7.50000000
   0.00000000  6.33043670  7.50000000
   6.33043670  6.33043670  9.61014557
   0.00000000  4.22029113  9.61014557
   6.33043670  4.22029113 11.73102311
   0.00000000  6.33043670 11.73102311
   6.33043670  6.33043670 13.82955363
   0.00000000  4.22029113 13.82955363
   2.11014557  0.00000000  9.61014557
   4.22029113  2.11014557  9.61014557
   2.11014557  2.11014557  7.50000000
   4.22029113  0.00000000  7.50000000
   2.11014557  0.00000000 13.86857013
   4.22029113  2.11014557 13.86857013
   2.11014557  2.11014557 11.72549760
   4.22029113  0.00000000 11.72549760
   2.11014557  4.22029113  9.61014557
   4.22029113  6.33043670  9.61014557
   2.11014557  6.33043670  7.50000000
   4.22029113  4.22029113  7.50000000
   2.11014557  4.22029113 13.86857013
   4.22029113  6.33043670 13.86857013
   2.11014557  6.33043670 11.72549760
   4.22029113  4.22029113 11.72549760
   6.33043670  0.00000000  9.61014557
   0.00000000  2.11014557  9.61014557
   6.33043670  2.11014557  7.50000000
   0.00000000  0.00000000  7.50000000
   6.33043670  0.00000000 13.86857013
   0.00000000  2.11014557 13.86857013
   6.33043670  2.11014557 11.72549760
   0.00000000  0.00000000 11.72549760
   6.33043670  4.22029113  9.61014557
   0.00000000  6.33043670  9.61014557
   6.33043670  6.33043670  7.50000000
   0.00000000  4.22029113  7.50000000
   6.33043670  4.22029113 13.86857013
   0.00000000  6.33043670 13.86857013
   6.33043670  6.33043670 11.72549760
   0.00000000  4.22029113 11.72549760

--------------------------------------- Iteration      FINAL  ---------------------------------------

--------------------OUTCAR has been truncated-------------------------

[...]

--------------------OUTCAR has been truncated-------------------------

  FORCE on cell =-STRESS in cart. coord.  units (eV):
  Direction    XX          YY          ZZ          XY          YZ          ZX
  Alpha Z   926.84838   926.84838   926.84838
  Ewald  157810.21881157774.66854************   399.25473  -110.02651  -116.15054
  Hartree168211.92942168194.72008************   177.74888   -50.54847   -53.09901
  E(xc)   -2527.75847 -2527.84746 -2529.03024     1.07682    -0.28115    -0.29333
  Local  ************************335320.56618  -535.58443   149.66881   157.70519
  n-local -2880.60275 -2880.37387 -2896.84539    -2.71190     0.68323     0.66897
  augment  1059.29457  1059.41403  1051.33123    -1.45863     0.40420     0.42851
  Kinetic  7615.16605  7618.31230  7688.36344   -38.12255    10.13272    10.89314
  Fock        0.00000     0.00000     0.00000     0.00000     0.00000     0.00000
  Total     -29.77823   -29.76626    -2.45084     0.20292     0.03282     0.15294
  in kB     -31.39532   -31.38270    -2.58394     0.21394     0.03460     0.16125

 VOLUME and BASIS-vectors are now :
  energy-cutoff  :      600.00
  volume of cell :     1519.65
      direct lattice vectors                 reciprocal lattice vectors
     8.440582262  0.000000000  0.000000000     0.118475239  0.000000000  0.000000000
     0.000000000  8.440582262  0.000000000     0.000000000  0.118475239  0.000000000
     0.000000000  0.000000000 21.330436697     0.000000000  0.000000000  0.046881366

  length of vectors
     8.440582262  8.440582262 21.330436697     0.118475239  0.118475239  0.046881366

 FORCES acting on ions:
    Electron-Ion                     Ewald-Force                    Non-Local-Force
   0.210E+03 0.201E+03 -.125E+04   -.246E+03 -.236E+03 0.126E+04   0.363E+02 0.348E+02 -.928E+01
   0.155E+02 0.149E+02 -.126E+04   -.151E+02 -.145E+02 0.126E+04   -.372E+00 -.366E+00 -.107E+00
   -.213E+03 -.205E+03 -.151E+04   0.259E+03 0.249E+03 0.150E+04   -.456E+02 -.438E+02 0.108E+02
   0.177E+00 -.169E+00 0.209E+04   -.177E+00 0.167E+00 -.209E+04   -.194E-03 0.154E-02 -.679E+01
   0.149E+00 0.179E+00 0.209E+04   -.147E+00 -.179E+00 -.209E+04   -.117E-02 0.182E-03 -.679E+01
   0.853E+00 0.765E+00 0.739E+03   -.868E+00 -.777E+00 -.740E+03   0.101E-01 0.816E-02 0.402E+00
   0.726E+00 -.738E+00 0.741E+03   -.721E+00 0.694E+00 -.741E+03   -.309E-02 0.307E-01 0.441E+00
   0.303E+01 -.423E+01 -.610E+03   -.304E+01 0.421E+01 0.611E+03   0.156E-01 0.155E-01 -.203E+00
   0.390E+01 0.467E+01 -.602E+03   -.388E+01 -.470E+01 0.603E+03   -.201E-01 0.327E-01 -.268E+00
   0.139E+02 0.135E+02 -.197E+04   -.139E+02 -.135E+02 0.197E+04   0.106E-01 0.595E-02 0.597E+01
   0.224E+02 -.292E+02 -.195E+04   -.224E+02 0.293E+02 0.194E+04   0.154E-01 -.147E+00 0.599E+01
   0.202E+00 0.168E+00 0.209E+04   -.202E+00 -.167E+00 -.209E+04   0.421E-03 -.126E-02 -.679E+01
   0.169E+00 -.181E+00 0.209E+04   -.166E+00 0.180E+00 -.209E+04   -.243E-02 0.455E-03 -.681E+01
   0.780E+00 -.774E+00 0.741E+03   -.758E+00 0.780E+00 -.741E+03   -.155E-01 -.433E-02 0.414E+00
   0.648E+00 0.739E+00 0.742E+03   -.621E+00 -.710E+00 -.743E+03   -.200E-01 -.211E-01 0.449E+00
   0.503E+01 0.425E+01 -.602E+03   -.506E+01 -.423E+01 0.602E+03   0.364E-01 -.184E-01 -.284E+00
   0.654E+01 -.482E+01 -.594E+03   -.647E+01 0.484E+01 0.595E+03   -.691E-01 -.253E-01 -.163E+00
   0.217E+02 -.149E+02 -.195E+04   -.219E+02 0.149E+02 0.195E+04   0.105E+00 0.617E-03 0.597E+01
   0.329E+02 0.362E+02 -.188E+04   -.331E+02 -.365E+02 0.187E+04   0.243E+00 0.259E+00 0.600E+01
   -.177E+00 -.187E+00 0.209E+04   0.177E+00 0.184E+00 -.209E+04   0.300E-03 0.223E-02 -.679E+01
   -.150E+00 0.154E+00 0.209E+04   0.148E+00 -.154E+00 -.208E+04   0.168E-02 -.400E-03 -.679E+01
   -.874E+00 0.681E+00 0.740E+03   0.877E+00 -.654E+00 -.741E+03   -.269E-02 -.192E-01 0.418E+00
   -.744E+00 -.810E+00 0.739E+03   0.737E+00 0.805E+00 -.740E+03   0.470E-02 0.315E-02 0.428E+00
   -.304E+01 -.680E+01 -.601E+03   0.305E+01 0.675E+01 0.601E+03   -.154E-01 0.598E-01 -.418E+00
   -.389E+01 0.268E+01 -.611E+03   0.388E+01 -.269E+01 0.611E+03   0.173E-01 0.107E-01 -.209E+00
   -.150E+02 0.190E+02 -.195E+04   0.150E+02 -.191E+02 0.195E+04   -.196E-02 0.117E+00 0.596E+01
   -.209E+02 -.212E+02 -.197E+04   0.209E+02 0.213E+02 0.196E+04   -.155E-01 -.192E-01 0.599E+01
   -.204E+00 0.189E+00 0.209E+04   0.204E+00 -.185E+00 -.209E+04   0.527E-03 -.257E-02 -.681E+01
   -.168E+00 -.154E+00 0.209E+04   0.165E+00 0.153E+00 -.209E+04   0.241E-02 0.270E-03 -.679E+01
   -.802E+00 -.690E+00 0.742E+03   0.782E+00 0.671E+00 -.742E+03   0.150E-01 0.142E-01 0.517E+00
   -.659E+00 0.807E+00 0.740E+03   0.611E+00 -.799E+00 -.741E+03   0.340E-01 -.496E-02 0.450E+00
   -.519E+01 0.690E+01 -.596E+03   0.522E+01 -.683E+01 0.596E+03   -.271E-01 -.685E-01 -.142E+00
   -.646E+01 -.270E+01 -.601E+03   0.640E+01 0.270E+01 0.601E+03   0.614E-01 -.974E-02 -.403E+00
   -.311E+02 -.273E+02 -.185E+04   0.314E+02 0.276E+02 0.184E+04   -.275E+00 -.262E+00 0.555E+01
   -.264E+02 0.225E+02 -.195E+04   0.265E+02 -.225E+02 0.195E+04   -.156E+00 0.166E-01 0.599E+01
   0.510E+00 -.559E+00 0.554E+03   -.506E+00 0.561E+00 -.554E+03   -.391E-02 -.234E-02 -.652E-01
   0.476E+00 0.580E+00 0.555E+03   -.467E+00 -.567E+00 -.555E+03   -.116E-01 -.164E-01 -.422E-01
   0.147E+00 0.130E+00 0.157E+04   -.148E+00 -.131E+00 -.158E+04   0.101E-02 0.114E-02 0.361E+01
   0.123E+00 -.128E+00 0.157E+04   -.121E+00 0.124E+00 -.158E+04   -.188E-02 0.569E-02 0.360E+01
   0.852E+01 -.111E+02 -.150E+04   -.851E+01 0.111E+02 0.150E+04   -.380E-02 0.422E-01 -.492E+01
   0.110E+02 0.195E+02 -.148E+04   -.109E+02 -.196E+02 0.149E+04   -.489E-01 0.805E-01 -.498E+01
   0.295E+01 0.279E+01 -.453E+03   -.295E+01 -.279E+01 0.453E+03   -.408E-02 -.453E-02 0.252E+00
   0.373E+01 -.401E+01 -.447E+03   -.372E+01 0.402E+01 0.446E+03   -.201E-01 -.617E-02 0.324E+00
   0.647E+00 0.545E+00 0.555E+03   -.629E+00 -.539E+00 -.555E+03   -.240E-01 -.774E-02 -.425E-01
   0.635E+00 -.617E+00 0.556E+03   -.650E+00 0.622E+00 -.556E+03   0.202E-01 -.749E-02 -.128E+00
   0.139E+00 -.130E+00 0.157E+04   -.137E+00 0.131E+00 -.158E+04   -.287E-02 -.148E-02 0.360E+01
   0.115E+00 0.130E+00 0.157E+04   -.110E+00 -.125E+00 -.158E+04   -.701E-02 -.664E-02 0.360E+01
   0.208E+02 0.121E+02 -.148E+04   -.208E+02 -.121E+02 0.149E+04   0.853E-01 -.495E-01 -.499E+01
   0.368E+02 -.251E+02 -.143E+04   -.367E+02 0.251E+02 0.143E+04   -.150E+00 0.262E-01 -.466E+01
   0.310E+01 -.280E+01 -.447E+03   -.310E+01 0.278E+01 0.447E+03   0.865E-02 0.192E-01 0.304E+00
   0.376E+01 0.412E+01 -.438E+03   -.377E+01 -.413E+01 0.437E+03   0.108E-01 0.521E-02 0.450E+00
   -.510E+00 -.685E+00 0.555E+03   0.510E+00 0.695E+00 -.555E+03   0.917E-04 -.127E-01 -.861E-01
   -.504E+00 0.441E+00 0.554E+03   0.510E+00 -.442E+00 -.554E+03   -.754E-02 0.245E-02 -.662E-01
   -.147E+00 0.121E+00 0.157E+04   0.148E+00 -.119E+00 -.158E+04   -.164E-02 -.291E-02 0.360E+01
   -.123E+00 -.137E+00 0.157E+04   0.122E+00 0.135E+00 -.158E+04   0.178E-02 0.197E-02 0.360E+01
   -.968E+01 -.317E+02 -.147E+04   0.966E+01 0.316E+02 0.148E+04   0.214E-01 0.218E-01 -.498E+01
   -.101E+02 0.756E+01 -.150E+04   0.101E+02 -.755E+01 0.151E+04   0.417E-01 -.531E-02 -.492E+01
   -.294E+01 0.270E+01 -.448E+03   0.293E+01 -.271E+01 0.447E+03   0.210E-01 0.139E-01 0.301E+00
   -.375E+01 -.388E+01 -.451E+03   0.375E+01 0.388E+01 0.451E+03   0.643E-02 0.563E-02 0.273E+00
   -.700E+00 0.705E+00 0.556E+03   0.708E+00 -.724E+00 -.556E+03   -.113E-01 0.253E-01 -.130E+00
   -.631E+00 -.431E+00 0.555E+03   0.645E+00 0.429E+00 -.555E+03   -.191E-01 0.239E-02 -.872E-01
   -.140E+00 -.122E+00 0.157E+04   0.138E+00 0.120E+00 -.158E+04   0.303E-02 0.347E-02 0.360E+01
   -.113E+00 0.136E+00 0.157E+04   0.109E+00 -.135E+00 -.158E+04   0.567E-02 -.179E-02 0.360E+01
   -.259E+02 0.375E+02 -.143E+04   0.259E+02 -.374E+02 0.144E+04   0.162E-01 -.150E+00 -.469E+01
   -.303E+02 -.853E+01 -.147E+04   0.303E+02 0.851E+01 0.148E+04   0.178E-01 0.188E-01 -.497E+01
   -.318E+01 -.279E+01 -.440E+03   0.318E+01 0.280E+01 0.440E+03   -.358E-03 -.837E-02 0.297E-01
   -.363E+01 0.387E+01 -.448E+03   0.364E+01 -.386E+01 0.447E+03   -.105E-01 -.186E-01 0.312E+00
   0.982E+01 0.951E+01 0.128E+02   -.206E-12 0.204E-12 -.620E-11   -.982E+01 -.951E+01 -.128E+02

 POSITION                                       TOTAL-FORCE (eV/Angst)
      4.48983      4.61295     16.86001         0.003040     -0.004036      0.001827
      5.29845      5.38872     16.65568         0.007776      0.004348     -0.001135
      6.14786      6.20371     16.41966         0.005571      0.001564     -0.000710
      2.11015      0.00000      7.50000         0.000153     -0.000553      0.317826
      4.22029      2.11015      7.50000         0.000562      0.000008      0.316259
      2.11015      2.11015      9.61015        -0.004192     -0.003276      0.021081
      4.22029      0.00000      9.61015         0.002013     -0.013070      0.026291
      2.10918     -0.00125     11.72893         0.001578      0.003575      0.005013
      4.21970      2.10790     11.72783         0.001092      0.001650      0.000933
      2.10815      2.10922     13.82671        -0.005156     -0.005019      0.006243
      4.21925      0.00110     13.82579         0.002145      0.000251     -0.001116
      2.11015      4.22029      7.50000         0.000016      0.000518      0.316213
      4.22029      6.33044      7.50000         0.000861     -0.000175      0.320771
      2.11015      6.33044      9.61015         0.006267      0.001212      0.031880
      4.22029      4.22029      9.61015         0.007147      0.007906      0.028772
      2.10704      4.22026     11.72800         0.002441      0.000869      0.000720
      4.22229      6.33023     11.73517         0.001950     -0.004383     -0.003218
      2.10725      6.32942     13.82574        -0.001924      0.000952      0.000862
      4.20808      4.20918     13.81868         0.004012      0.003916     -0.005808
      6.33044      0.00000      7.50000        -0.000068     -0.000717      0.317814
      0.00000      2.11015      7.50000        -0.000519      0.000130      0.317788
      6.33044      2.11015      9.61015         0.000542      0.007742      0.032153
      0.00000      0.00000      9.61015        -0.002373     -0.001646      0.024876
      6.33083     -0.00161     11.73259        -0.006577      0.001849     -0.003661
     -0.00189      2.10994     11.72919         0.003728      0.001232      0.004718
      6.32850      2.10848     13.82632         0.001276     -0.001633      0.000526
      0.00003      0.00112     13.82744         0.003612      0.003223      0.003626
      6.33044      4.22029      7.50000        -0.000123      0.000828      0.320846
      0.00000      6.33044      7.50000        -0.000692     -0.000130      0.317876
      6.33044      6.33044      9.61015        -0.005291     -0.004622      0.041418
      0.00000      4.22029      9.61015        -0.014436      0.002760      0.026677
      6.32965      4.22299     11.73535        -0.005147      0.001609     -0.003271
     -0.00235      6.33119     11.73265         0.002050     -0.005509     -0.003553
      6.33927      6.34037     13.85497        -0.001515     -0.001805     -0.005414
     -0.00025      4.22024     13.82724         0.000273      0.001789     -0.000811
      2.11015      0.00000      9.61015        -0.000535     -0.000510      0.046493
      4.22029      2.11015      9.61015        -0.002768     -0.003591      0.048267
      2.11015      2.11015      7.50000         0.000346      0.000321     -0.401603
      4.22029      0.00000      7.50000        -0.000472      0.001619     -0.402910
      2.10942      0.00009     13.86719         0.004173      0.000408      0.004277
      4.21736      2.10742     13.86219        -0.002517      0.002230      0.004782
      2.10921      2.10977     11.72255        -0.003332     -0.003342      0.007011
      4.21979     -0.00169     11.72463        -0.004420     -0.002237      0.002028
      2.11015      4.22029      9.61015        -0.005433     -0.001918      0.049099
      4.22029      6.33044      9.61015         0.005416     -0.002317      0.058348
      2.11015      6.33044      7.50000        -0.000761     -0.000421     -0.402884
      4.22029      4.22029      7.50000        -0.001955     -0.001910     -0.403094
      2.10633      4.21834     13.86171         0.003055     -0.002192      0.004362
      4.21584      6.32700     13.87942         0.001043     -0.000804     -0.000429
      2.11073      6.32966     11.72408         0.001511      0.005984     -0.001289
      4.21930      4.21981     11.72459         0.001143      0.001417      0.003153
      6.33044      0.00000      9.61015        -0.000321     -0.003402      0.058850
      0.00000      2.11015      9.61015        -0.001734      0.000987      0.047513
      6.33044      2.11015      7.50000        -0.000408     -0.000834     -0.402891
      0.00000      0.00000      7.50000         0.000567      0.000560     -0.402611
      6.33020      0.00591     13.86291        -0.001033     -0.002540     -0.000973
     -0.00085      2.11041     13.86738         0.000131      0.003709      0.003691
      6.32907      2.11159     11.72431         0.006307      0.001919     -0.001398
     -0.00027      0.00029     11.72409         0.002886      0.002470     -0.000550
      6.33044      4.22029      9.61015        -0.003147      0.006586      0.058441
      0.00000      6.33044      9.61015        -0.004927      0.000160      0.058786
      6.33044      6.33044      7.50000         0.000941      0.001009     -0.404442
      0.00000      4.22029      7.50000         0.001674     -0.000507     -0.402920
      6.32513      4.21747     13.88102        -0.000651      0.001152     -0.001174
      0.00461      6.33118     13.86378        -0.002642     -0.000893     -0.001283
      6.32935      6.32987     11.73172         0.000210     -0.000192     -0.000246
     -0.00254      4.22037     11.72516        -0.002439     -0.004278      0.001283
    total drift:                               -0.004462     -0.000055     -0.010116

  FREE ENERGIE OF THE ION-ELECTRON SYSTEM (eV)
  free  energy   TOTEN  =      -282.36721728 eV

  energy  without entropy=     -282.36721728  energy(sigma->0) =     -282.36721728

 d Force = 0.7857540E-05[ 0.697E-05, 0.875E-05]  d Energy = 0.7884904E-05-0.274E-07
 d Force =-0.1274445E+01[-0.127E+01,-0.127E+01]  d Ewald  =-0.1274445E+01 0.123E-08

 reached required accuracy - stopping structural energy minimisation