 vasp.6.3.0 20Jan22 (build Apr  1 2022 16:44:48) complex
 executed on        HPECrayEX_GCC date 2023.03.11  23:06:45

 INCAR:
   SYSTEM = MgO-rocksalt
   ISMEAR = 0
   SIGMA = 0.05
   EDIFF = 1E-6
   ALGO = ALL
   ISTART = 0
   IBRION = -1
   NSW = 0
   ISYM = 0
   DIPOL = 0.5 0.5 0.5
   IDIPOL = 3
   LDIPOL = .TRUE.
   LHFCALC = .TRUE.
   GGA = B5
   AEXX = 0.2
   AGGAX = 0.72
   AGGAC = 0.81
   ALDAC = 0.19
   IVDW = 1
   VDW_S6 = 1.05
   VDW_C6 = 1.23 0.70 0.63 0.70
   VDW_R0 = 1.397 1.342 1.243 1.342
   ENCUT = 600
   PREC = Accurate
   LASPH = .TRUE.
   LREAL = .FALSE.
   ISPIN = 1
   NELM = 200
   NELMIN = 8
   NCORE = 8
   KPAR = 1
   LWAVE = .FALSE.
   LCHARG = .FALSE.

 POTCAR:    PAW_PBE N 08Apr2002
 POTCAR:    PAW_PBE O 08Apr2002
 POTCAR:    PAW_PBE Mg_pv 13Apr2007
 POTCAR:    PAW_PBE O 08Apr2002
 POTCAR:    PAW_PBE N 08Apr2002
   VRHFIN =N: s2p3

   TITEL  = PAW_PBE N 08Apr2002
   POMASS =   14.001; ZVAL   =    5.000    mass and valenz
   ENMAX  =  400.000; ENMIN  =  300.000 eV

[...]

   TITEL  = PAW_PBE Mg_pv 13Apr2007
   POMASS =   24.305; ZVAL   =    8.000    mass and valenz
   ENMAX  =  403.929; ENMIN  =  302.947 eV

   TITEL  = PAW_PBE O 08Apr2002
   POMASS =   16.000; ZVAL   =    6.000    mass and valenz
   ENMAX  =  400.000; ENMIN  =  300.000 eV

  PAW_PBE N 08Apr2002                   :
  PAW_PBE O 08Apr2002                   :
  PAW_PBE Mg_pv 13Apr2007               :
  PAW_PBE O 08Apr2002                   :

 POSCAR:  N  O Mg  O
  positions in direct lattice
 exchange correlation table for  LEXCH =       12
   RHO(1)=    0.500       N(1)  =     2000
   RHO(2)=  100.500       N(2)  =     4000

 ion  position               nearest neighbor table
   1  0.493  0.519  0.766-   2 1.14
   2  0.471  0.594  0.810-   1 1.14   3 1.20
   3  0.448  0.673  0.856-   2 1.20
   4  0.000  0.750  0.352-  36 2.11  38 2.11  39 2.11  46 2.11  55 2.11
   5  0.250  0.000  0.352-  37 2.11  38 2.11  39 2.11  47 2.11  54 2.11
   6  0.000  0.000  0.451-  38 2.11  37 2.11  36 2.11  44 2.11  53 2.11  42 2.12
   7  0.250  0.750  0.451-  39 2.11  37 2.11  36 2.11  45 2.11  52 2.11  43 2.12
   8  1.000  0.750  0.550-  50 2.11  59 2.11  42 2.11  43 2.11  36 2.12  40 2.15
   9  0.250  0.000  0.550-  51 2.11  58 2.11  43 2.11  42 2.11  37 2.12  41 2.15
  10  1.000  0.000  0.649-  48 2.11  57 2.11  42 2.11  41 2.11  40 2.11
  11  0.250  0.750  0.648-  43 2.10  40 2.11  41 2.11  49 2.11  56 2.11
  12  0.000  0.250  0.352-  44 2.11  38 2.11  46 2.11  47 2.11  63 2.11
  13  0.250  0.500  0.352-  45 2.11  39 2.11  46 2.11  47 2.11  62 2.11
  14  0.000  0.500  0.451-  46 2.11  44 2.11  45 2.11  36 2.11  61 2.11  50 2.12
  15  0.250  0.250  0.451-  47 2.11  44 2.11  45 2.11  37 2.11  60 2.11  51 2.12
  16  1.000  0.250  0.550-  67 2.11  51 2.11  50 2.11  42 2.11  44 2.12  48 2.15
  17  0.250  0.500  0.550-  66 2.11  51 2.11  43 2.11  50 2.11  45 2.13  49 2.15
  18  1.000  0.500  0.649-  65 2.10  49 2.10  50 2.11  48 2.11  40 2.11
  19  0.250  0.250  0.649-  51 2.11  64 2.11  48 2.11  41 2.11  49 2.11
  20  0.500  0.750  0.352-  52 2.11  39 2.11  54 2.11  55 2.11  62 2.11
  21  0.750  0.000  0.352-  53 2.11  38 2.11  54 2.11  55 2.11  63 2.11
  22  0.500  0.000  0.451-  54 2.11  52 2.11  53 2.11  37 2.11  60 2.11  58 2.12
  23  0.750  0.750  0.451-  55 2.11  52 2.11  53 2.11  36 2.11  61 2.11  59 2.12
  24  0.500  0.750  0.550-  66 2.11  59 2.11  43 2.11  58 2.11  52 2.13  56 2.15
  25  0.750  0.000  0.550-  67 2.11  58 2.11  59 2.11  42 2.11  53 2.12  57 2.15
  26  0.500  0.000  0.649-  64 2.10  56 2.11  58 2.11  57 2.11  41 2.11
  27  0.750  0.750  0.649-  59 2.10  65 2.11  40 2.11  57 2.11  56 2.11
  28  0.500  0.250  0.352-  60 2.11  54 2.11  47 2.11  62 2.11  63 2.11
  29  0.750  0.500  0.352-  61 2.11  55 2.11  46 2.11  62 2.11  63 2.11
  30  0.500  0.500  0.451-  62 2.11  52 2.11  60 2.11  61 2.11  45 2.11  66 2.13
  31  0.750  0.250  0.451-  63 2.11  53 2.11  60 2.11  61 2.11  44 2.11  67 2.12
  32  0.500  0.250  0.550-  66 2.11  67 2.11  51 2.11  58 2.12  60 2.13  64 2.14
  33  0.750  0.500  0.550-  66 2.11  67 2.11  59 2.11  50 2.11  61 2.13  65 2.14
  34  0.500  0.499  0.651-  64 2.11  65 2.12  49 2.12  56 2.12  66 2.15
  35  0.750  0.250  0.649-  67 2.11  64 2.11  65 2.11  48 2.11  57 2.11
  36  0.000  0.750  0.451-   4 2.11   6 2.11   7 2.11  14 2.11  23 2.11   8 2.12
  37  0.250  0.000  0.451-   5 2.11   6 2.11   7 2.11  15 2.11  22 2.11   9 2.12
  38  0.000  0.000  0.352-   6 2.11   5 2.11   4 2.11  12 2.11  21 2.11
  39  0.250  0.750  0.352-   7 2.11   5 2.11   4 2.11  13 2.11  20 2.11
  40  0.000  0.750  0.651-  11 2.11  27 2.11  10 2.11  18 2.11   8 2.15
  41  0.250  1.000  0.651-  11 2.11  10 2.11  19 2.11  26 2.11   9 2.15
  42  0.000  1.000  0.550-  10 2.11   8 2.11   9 2.11  25 2.11  16 2.11   6 2.12
  43  0.250  0.750  0.550-  11 2.10  24 2.11   8 2.11   9 2.11  17 2.11   7 2.12
  44  0.000  0.250  0.451-  12 2.11   6 2.11  14 2.11  15 2.11  31 2.11  16 2.12
  45  0.250  0.500  0.451-  13 2.11   7 2.11  14 2.11  15 2.11  30 2.11  17 2.13
  46  0.000  0.500  0.352-  14 2.11  12 2.11  13 2.11   4 2.11  29 2.11
  47  0.250  0.250  0.352-  15 2.11  12 2.11  13 2.11   5 2.11  28 2.11
  48  0.000  0.250  0.651-  10 2.11  19 2.11  18 2.11  35 2.11  16 2.15
  49  0.249  0.500  0.651-  18 2.10  11 2.11  19 2.11  34 2.12  17 2.15
  50  0.000  0.500  0.550-  18 2.11   8 2.11  16 2.11  17 2.11  33 2.11  14 2.12
  51  0.250  0.250  0.550-  19 2.11   9 2.11  16 2.11  17 2.11  32 2.11  15 2.12
  52  0.500  0.750  0.451-  20 2.11   7 2.11  22 2.11  23 2.11  30 2.11  24 2.13
  53  0.750  0.000  0.451-  21 2.11   6 2.11  22 2.11  23 2.11  31 2.11  25 2.12
  54  0.500  0.000  0.352-  22 2.11  20 2.11  21 2.11   5 2.11  28 2.11
  55  0.750  0.750  0.352-  23 2.11  20 2.11  21 2.11   4 2.11  29 2.11
  56  0.500  0.751  0.651-  26 2.11  11 2.11  27 2.11  34 2.12  24 2.15
  57  0.750  1.000  0.651-  10 2.11  27 2.11  35 2.11  26 2.11  25 2.15
  58  0.500  1.000  0.550-  26 2.11   9 2.11  25 2.11  24 2.11  32 2.12  22 2.12
  59  0.750  0.750  0.550-  27 2.10   8 2.11  24 2.11  25 2.11  33 2.11  23 2.12
  60  0.500  0.250  0.451-  28 2.11  22 2.11  15 2.11  30 2.11  31 2.11  32 2.13
  61  0.750  0.500  0.451-  29 2.11  23 2.11  14 2.11  30 2.11  31 2.11  33 2.13
  62  0.500  0.500  0.352-  30 2.11  20 2.11  28 2.11  29 2.11  13 2.11
  63  0.750  0.250  0.352-  31 2.11  21 2.11  28 2.11  29 2.11  12 2.11
  64  0.500  0.249  0.651-  26 2.10  19 2.11  35 2.11  34 2.11  32 2.14
  65  0.751  0.500  0.651-  18 2.10  27 2.11  35 2.11  34 2.12  33 2.14
  66  0.500  0.500  0.550-  24 2.11  17 2.11  33 2.11  32 2.11  30 2.13  34 2.15
  67  0.750  0.250  0.550-  35 2.11  25 2.11  16 2.11  33 2.11  32 2.11  31 2.12

IMPORTANT INFORMATION: All symmetrisations will be switched off!
NOSYMM: (Re-)initialisation of all symmetry stuff for point group C_1.

                                     Primitive cell

  volume of cell :    1519.8199

  direct lattice vectors                    reciprocal lattice vectors
     8.440984654  0.000000000  0.000000000     0.118469591  0.000000000  0.000000000
     0.000000000  8.440984654  0.000000000     0.000000000  0.118469591  0.000000000
     0.000000000  0.000000000 21.330738491     0.000000000  0.000000000  0.046880702

  length of vectors
     8.440984654  8.440984654 21.330738491     0.118469591  0.118469591  0.046880702

  position of ions in fractional coordinates (direct lattice)
     0.493398131  0.519404002  0.766108779
     0.471138949  0.594205185  0.809960549
     0.447548019  0.673291737  0.855770475
     0.000000000  0.750000000  0.351605267
     0.250000000  0.000000000  0.351605267
     0.000000000  0.000000000  0.450535089
     0.250000000  0.750000000  0.450535089
     0.999954346  0.749943911  0.550033337
     0.250059217  0.000083621  0.550049328
     0.999974613  0.000078779  0.648776369
     0.249800109  0.750104580  0.648369797
     0.000000000  0.250000000  0.351605267
     0.250000000  0.500000000  0.351605267
     0.000000000  0.500000000  0.450535089
     0.250000000  0.250000000  0.450535089
     0.999992643  0.250071267  0.550081376
     0.250466599  0.499936424  0.550285804
     0.999910591  0.499944107  0.648595353
     0.250071256  0.249972791  0.648663217
     0.500000000  0.750000000  0.351605267
     0.750000000  0.000000000  0.351605267
     0.500000000  0.000000000  0.450535089
     0.750000000  0.750000000  0.450535089
     0.500019170  0.749513781  0.550294524
     0.749931195  0.000045804  0.550067803
     0.500000635  0.000284138  0.648599469
     0.750105583  0.749980305  0.648513915
     0.500000000  0.250000000  0.351605267
     0.750000000  0.500000000  0.351605267
     0.500000000  0.500000000  0.450535089
     0.750000000  0.250000000  0.450535089
     0.500014918  0.250394168  0.550308765
     0.749553765  0.499942387  0.550295926
     0.500181848  0.499312364  0.650965447
     0.749943309  0.249994221  0.648681965
     0.000000000  0.750000000  0.450535089
     0.250000000  0.000000000  0.450535089
     0.000000000  0.000000000  0.351605267
     0.250000000  0.750000000  0.351605267
     0.000012200  0.750130927  0.651051999
     0.249850447  0.999920408  0.651044229
     0.000002071  0.999970731  0.549879102
     0.249988900  0.750048197  0.549864299
     0.000000000  0.250000000  0.450535089
     0.250000000  0.500000000  0.450535089
     0.000000000  0.500000000  0.351605267
     0.250000000  0.250000000  0.351605267
     0.000021798  0.249888812  0.651053889
     0.249183234  0.500152064  0.651003323
     0.000044966  0.500042088  0.549823568
     0.249901523  0.249969111  0.549858607
     0.500000000  0.750000000  0.450535089
     0.750000000  0.000000000  0.450535089
     0.500000000  0.000000000  0.351605267
     0.750000000  0.750000000  0.351605267
     0.499910216  0.750845655  0.651282283
     0.750127192  0.999910415  0.651062982
     0.499988513  0.999825680  0.549826079
     0.749987876  0.750064282  0.549877255
     0.500000000  0.250000000  0.450535089
     0.750000000  0.500000000  0.450535089
     0.500000000  0.500000000  0.351605267
     0.750000000  0.250000000  0.351605267
     0.499985243  0.249093791  0.650645830
     0.750813028  0.500082222  0.650835349
     0.499974736  0.500084682  0.550243536
     0.750104413  0.249925398  0.549847355

  ion indices of the primitive-cell ions
   primitive index   ion index
                 1           1
                 2           2
                 3           3
                 4           4
                 5           5
                 6           6
                 7           7
                 8           8
                 9           9
                10          10
                11          11
                12          12
                13          13
                14          14
                15          15
                16          16
                17          17
                18          18
                19          19
                20          20
                21          21
                22          22
                23          23
                24          24
                25          25
                26          26
[...]
   0.49998524  0.24909379  0.65064583
   0.75081303  0.50008222  0.65083535
   0.49997474  0.50008468  0.55024354
   0.75010441  0.24992540  0.54984736

 position of ions in cartesian coordinates  (Angst):
   4.16476605  4.38428121 16.34166602
   3.97687664  5.01567685 17.27705666
   3.77774596  5.68324522 18.25421621
   0.00000000  6.33073849  7.50000000
   2.11024616  0.00000000  7.50000000
   0.00000000  0.00000000  9.61024616
   2.11024616  6.33073849  9.61024616
   8.44059929  6.33026504 11.73261728
   2.11074601  0.00070585 11.73295836
   8.44077037  0.00066497 13.83887907
   2.10855889  6.33162125 13.83020658
   0.00000000  2.11024616  7.50000000
   2.11024616  4.22049233  7.50000000
   0.00000000  4.22049233  9.61024616
   2.11024616  2.11024616  9.61024616
   8.44092255  2.11084773 11.73364199
   2.11418471  4.21995568 11.73800259
   8.44022996  4.22002054 13.83501787
   2.11084764  2.11001649 13.83646546
   4.22049233  6.33073849  7.50000000
   6.33073849  0.00000000  7.50000000
   4.22049233  0.00000000  9.61024616
   6.33073849  6.33073849  9.61024616
   4.22065414  6.32663433 11.73818858
   6.33015771  0.00038663 11.73335245
   4.22049769  0.00239840 13.83510567
   6.33162971  6.33057225 13.83328073
   4.22049233  2.11024616  7.50000000
   6.33073849  4.22049233  7.50000000
   4.22049233  4.22049233  9.61024616
   6.33073849  2.11024616  9.61024616
   4.22061825  2.11357333 11.73849236
   6.32697183  4.22000602 11.73821849
   4.22202730  4.21468800 13.88557373
   6.33025996  2.11019738 13.83686536
   0.00000000  6.33073849  9.61024616
   2.11024616  0.00000000  9.61024616
   0.00000000  0.00000000  7.50000000
   2.11024616  6.33073849  7.50000000
   0.00010298  6.33184364 13.88741994
   2.10898379  8.44031282 13.88725419
   0.00001748  8.44073759 11.72932734
   2.11015247  6.33114532 11.72901158
   0.00000000  2.11024616  9.61024616
   2.11024616  4.22049233  9.61024616
   0.00000000  4.22049233  7.50000000
   2.11024616  2.11024616  7.50000000
   0.00018400  2.10930763 13.88746024
   2.10335185  4.22177590 13.88638164
   0.00037956  4.22084759 11.72814275
   2.10941492  2.10998543 11.72889016
   4.22049233  6.33073849  9.61024616
   6.33073849  0.00000000  9.61024616
   4.22049233  0.00000000  7.50000000
   6.33073849  6.33073849  7.50000000
   4.21973446  6.33787666 13.89233205
   6.33181212  8.44022847 13.88765421
   4.22039536  8.43951322 11.72819632
   6.33063615  6.33128109 11.72928792
   4.22049233  2.11024616  9.61024616
   6.33073849  4.22049233  9.61024616
   4.22049233  4.22049233  7.50000000
   6.33073849  2.11024616  7.50000000
   4.22036776  2.10259687 13.87875605
   6.33760125  4.22118636 13.88279863
   4.22027908  4.22120712 11.73710097
   6.33161984  2.10961645 11.72865014

--------------------------------------- Iteration      FINAL  ---------------------------------------

--------------------OUTCAR has been truncated-------------------------

[...]

--------------------OUTCAR has been truncated-------------------------

  DFT-D2 method for vdW energy calculation

  Parameters of vdW forcefield:
         C6(Jnm^6/mol)     R0(A)
   N        1.230          1.397
   O        0.700          1.342
   Mg       0.630          1.243
   O        0.700          1.342

  vdW correction parametrized for the method        

  IVDW =   1
  VDW_RADIUS =    50.000 A
  VDW_S6 =     1.050
  VDW_SR =     1.000
  VDW_D =    20.000
  LVDW_EWALD = F

  Number of pair interactions contributing to vdW energy:  791220
  Edisp (eV):   -5.18462

 VOLUME and BASIS-vectors are now :
  energy-cutoff  :      600.00
  volume of cell :     1519.82
      direct lattice vectors                 reciprocal lattice vectors
     8.440984654  0.000000000  0.000000000     0.118469591  0.000000000  0.000000000
     0.000000000  8.440984654  0.000000000     0.000000000  0.118469591  0.000000000
     0.000000000  0.000000000 21.330738491     0.000000000  0.000000000  0.046880702

  length of vectors
     8.440984654  8.440984654 21.330738491     0.118469591  0.118469591  0.046880702

 FORCES acting on ions:
    Electron-Ion                     Ewald-Force                    Non-Local-Force
   -.482E+02 0.162E+03 -.108E+04   0.563E+02 -.189E+03 0.104E+04   -.782E+01 0.263E+02 0.385E+02
   -.438E+01 0.145E+02 -.106E+04   0.429E+01 -.141E+02 0.106E+04   0.314E+00 -.114E+01 -.128E+01
   0.502E+02 -.168E+03 -.125E+04   -.612E+02 0.205E+03 0.130E+04   0.988E+01 -.332E+02 -.484E+02
   0.542E-01 -.160E+00 0.208E+04   -.545E-01 0.157E+00 -.207E+04   0.166E-03 0.160E-02 -.638E+01
   0.214E+00 -.143E+00 0.208E+04   -.211E+00 0.143E+00 -.207E+04   -.187E-02 -.444E-03 -.639E+01
   0.155E+00 -.411E+00 0.726E+03   -.159E+00 0.422E+00 -.726E+03   0.230E-02 -.678E-02 0.465E+00
   0.777E+00 -.598E+00 0.728E+03   -.748E+00 0.575E+00 -.729E+03   -.188E-01 0.142E-01 0.470E+00
   0.805E+00 -.350E+01 -.616E+03   -.816E+00 0.346E+01 0.616E+03   0.990E-02 0.264E-01 -.458E-01
   0.421E+01 -.206E+01 -.617E+03   -.418E+01 0.209E+01 0.617E+03   -.250E-01 -.239E-01 -.586E-01
   0.222E+01 -.561E+01 -.197E+04   -.223E+01 0.564E+01 0.197E+04   0.385E-02 -.212E-01 0.531E+01
   0.300E+02 -.240E+02 -.193E+04   -.301E+02 0.240E+02 0.192E+04   0.844E-01 -.475E-01 0.541E+01
   0.492E-01 0.160E+00 0.208E+04   -.494E-01 -.157E+00 -.207E+04   0.913E-04 -.162E-02 -.639E+01
   0.225E+00 0.143E+00 0.208E+04   -.220E+00 -.144E+00 -.207E+04   -.312E-02 0.417E-03 -.640E+01
   0.182E+00 0.414E+00 0.727E+03   -.180E+00 -.424E+00 -.728E+03   -.110E-02 0.635E-02 0.417E+00
   0.676E+00 0.593E+00 0.727E+03   -.662E+00 -.569E+00 -.728E+03   -.885E-02 -.151E-01 0.452E+00
   0.576E+00 0.347E+01 -.620E+03   -.581E+00 -.344E+01 0.620E+03   0.406E-02 -.254E-01 -.709E-01
   0.616E+01 0.216E+01 -.609E+03   -.603E+01 -.219E+01 0.609E+03   -.121E+00 0.239E-01 -.214E+00
   0.355E+01 0.602E+01 -.196E+04   -.359E+01 -.605E+01 0.195E+04   0.302E-01 0.217E-01 0.533E+01
   0.220E+02 0.219E+02 -.195E+04   -.220E+02 -.220E+02 0.195E+04   -.487E-02 0.440E-01 0.537E+01
   -.545E-01 -.171E+00 0.208E+04   0.547E-01 0.166E+00 -.207E+04   -.113E-03 0.293E-02 -.640E+01
   -.214E+00 -.138E+00 0.208E+04   0.211E+00 0.138E+00 -.207E+04   0.189E-02 -.384E-03 -.639E+01
   -.157E+00 -.511E+00 0.728E+03   0.160E+00 0.503E+00 -.728E+03   -.201E-02 0.520E-02 0.419E+00
   -.775E+00 -.571E+00 0.728E+03   0.744E+00 0.552E+00 -.728E+03   0.197E-01 0.118E-01 0.469E+00
   -.856E+00 -.542E+01 -.607E+03   0.867E+00 0.528E+01 0.607E+03   -.941E-02 0.117E+00 -.104E+00
   -.419E+01 -.183E+01 -.618E+03   0.416E+01 0.185E+01 0.618E+03   0.249E-01 -.179E-01 -.611E-01
   -.249E+01 -.115E+02 -.195E+04   0.249E+01 0.116E+02 0.194E+04   -.353E-02 -.112E+00 0.532E+01
   -.289E+02 -.218E+02 -.194E+04   0.290E+02 0.218E+02 0.193E+04   -.802E-01 -.177E-01 0.539E+01
   -.493E-01 0.170E+00 0.208E+04   0.495E-01 -.166E+00 -.207E+04   -.108E-03 -.274E-02 -.640E+01
   -.225E+00 0.138E+00 0.208E+04   0.220E+00 -.139E+00 -.207E+04   0.308E-02 0.391E-03 -.640E+01
   -.183E+00 0.510E+00 0.728E+03   0.183E+00 -.508E+00 -.729E+03   0.382E-03 -.212E-02 0.515E+00
   -.675E+00 0.566E+00 0.727E+03   0.661E+00 -.547E+00 -.728E+03   0.867E-02 -.116E-01 0.445E+00
   -.602E+00 0.535E+01 -.610E+03   0.607E+00 -.521E+01 0.611E+03   -.392E-02 -.119E+00 -.376E+00
   -.613E+01 0.191E+01 -.610E+03   0.599E+01 -.193E+01 0.610E+03   0.122E+00 0.182E-01 -.289E+00
   -.589E+01 0.180E+02 -.186E+04   0.594E+01 -.182E+02 0.186E+04   -.449E-01 0.165E+00 0.470E+01
   -.216E+02 0.203E+02 -.196E+04   0.216E+02 -.203E+02 0.195E+04   0.515E-02 0.180E-01 0.537E+01
   0.124E+00 -.474E+00 0.545E+03   -.123E+00 0.461E+00 -.545E+03   -.131E-02 0.155E-01 -.663E-01
   0.584E+00 -.313E+00 0.545E+03   -.572E+00 0.314E+00 -.545E+03   -.154E-01 -.168E-02 -.750E-01
   0.377E-01 -.101E+00 0.156E+04   -.382E-01 0.102E+00 -.157E+04   0.559E-03 -.186E-02 0.313E+01
   0.169E+00 -.124E+00 0.156E+04   -.164E+00 0.120E+00 -.157E+04   -.569E-02 0.459E-02 0.313E+01
   0.297E+01 -.909E+01 -.149E+04   -.298E+01 0.905E+01 0.150E+04   0.961E-02 0.370E-01 -.458E+01
   0.116E+02 -.750E+01 -.149E+04   -.116E+02 0.752E+01 0.150E+04   -.424E-01 -.174E-01 -.459E+01
   0.470E+00 -.125E+01 -.461E+03   -.472E+00 0.126E+01 0.461E+03   0.166E-02 -.102E-01 0.246E+00
   0.403E+01 -.334E+01 -.451E+03   -.402E+01 0.333E+01 0.451E+03   -.707E-02 0.150E-01 0.394E+00
   0.104E+00 0.474E+00 0.544E+03   -.105E+00 -.462E+00 -.544E+03   0.192E-02 -.145E-01 -.908E-01
   0.667E+00 0.318E+00 0.546E+03   -.687E+00 -.321E+00 -.545E+03   0.236E-01 0.382E-02 -.131E+00
   0.403E-01 0.101E+00 0.156E+04   -.403E-01 -.102E+00 -.157E+04   0.550E-04 0.188E-02 0.313E+01
   0.158E+00 0.124E+00 0.156E+04   -.155E+00 -.120E+00 -.157E+04   -.371E-02 -.451E-02 0.313E+01
   0.175E+01 0.876E+01 -.150E+04   -.175E+01 -.872E+01 0.150E+04   0.428E-03 -.411E-01 -.458E+01
   0.322E+02 0.917E+01 -.146E+04   -.320E+02 -.919E+01 0.146E+04   -.186E+00 0.133E-01 -.454E+01
   0.552E+00 0.127E+01 -.455E+03   -.556E+00 -.128E+01 0.455E+03   0.398E-02 0.755E-02 0.297E+00
   0.358E+01 0.326E+01 -.455E+03   -.355E+01 -.325E+01 0.455E+03   -.259E-01 -.183E-01 0.301E+00
   -.128E+00 -.557E+00 0.546E+03   0.129E+00 0.580E+00 -.546E+03   -.771E-03 -.260E-01 -.134E+00
   -.584E+00 -.293E+00 0.545E+03   0.572E+00 0.296E+00 -.545E+03   0.148E-01 -.485E-02 -.829E-01
   -.378E-01 -.111E+00 0.156E+04   0.382E-01 0.111E+00 -.157E+04   -.569E-03 -.591E-04 0.313E+01
   -.168E+00 -.121E+00 0.156E+04   0.164E+00 0.118E+00 -.157E+04   0.561E-02 0.401E-02 0.313E+01
   -.395E+01 -.311E+02 -.144E+04   0.396E+01 0.309E+02 0.145E+04   -.530E-02 0.219E+00 -.448E+01
   -.114E+02 -.622E+01 -.150E+04   0.113E+02 0.623E+01 0.150E+04   0.428E-01 -.941E-02 -.458E+01
   -.484E+00 -.163E+01 -.454E+03   0.486E+00 0.165E+01 0.454E+03   -.157E-02 -.184E-01 0.299E+00
   -.399E+01 -.323E+01 -.453E+03   0.399E+01 0.321E+01 0.453E+03   0.790E-02 0.206E-01 0.355E+00
   -.104E+00 0.546E+00 0.545E+03   0.105E+00 -.562E+00 -.545E+03   -.146E-02 0.188E-01 -.133E+00
   -.664E+00 0.294E+00 0.545E+03   0.682E+00 -.297E+00 -.545E+03   -.218E-01 0.460E-02 -.132E+00
   -.405E-01 0.112E+00 0.156E+04   0.405E-01 -.112E+00 -.157E+04   0.105E-04 -.180E-03 0.312E+01
   -.158E+00 0.121E+00 0.156E+04   0.155E+00 -.118E+00 -.157E+04   0.372E-02 -.400E-02 0.312E+01
   -.210E+01 0.268E+02 -.147E+04   0.210E+01 -.266E+02 0.147E+04   -.266E-02 -.146E+00 -.459E+01
   -.306E+02 0.745E+01 -.146E+04   0.305E+02 -.747E+01 0.147E+04   0.165E+00 0.117E-01 -.457E+01
   -.591E+00 0.172E+01 -.452E+03   0.598E+00 -.174E+01 0.452E+03   -.669E-02 0.255E-01 -.222E+00
   -.356E+01 0.317E+01 -.456E+03   0.354E+01 -.315E+01 0.455E+03   0.254E-01 -.226E-01 0.293E+00
   -.299E+01 0.101E+02 0.335E+02   -.135E-12 -.178E-12 0.375E-11   0.235E+01 -.790E+01 -.281E+02

 POSITION                                       TOTAL-FORCE (eV/Angst)
      4.16477      4.38428     16.34167        -0.391103      1.319691      2.065697
      3.97688      5.01568     17.27706         0.256198     -0.857584     -1.312002
      3.77775      5.68325     18.25422         0.135570     -0.453203     -0.642463
      0.00000      6.33074      7.50000        -0.000051     -0.000718      0.463418
      2.11025      0.00000      7.50000         0.000860      0.000213      0.463942
      0.00000      0.00000      9.61025        -0.001007      0.003006      0.037560
      2.11025      6.33074      9.61025         0.008233     -0.006406      0.040720
      8.44060      6.33027     11.73262        -0.000444     -0.003881      0.027524
      2.11075      0.00071     11.73296         0.003142      0.001720      0.027291
      8.44077      0.00066     13.83888         0.000138      0.000006     -0.083358
      2.10856      6.33162     13.83021        -0.012756      0.009891     -0.098482
      0.00000      2.11025      7.50000        -0.000069      0.000705      0.465446
      2.11025      4.22049      7.50000         0.001210     -0.000137      0.467125
      0.00000      4.22049      9.61025         0.000368     -0.002749      0.052829
      2.11025      2.11025      9.61025         0.004602      0.006997      0.043406
      8.44092      2.11085     11.73364        -0.000529      0.003142      0.026094
      2.11418      4.21996     11.73800         0.002804     -0.002095      0.025275
      8.44023      4.22002     13.83502        -0.000165     -0.001254     -0.085378
      2.11085      2.11002     13.83647        -0.007150     -0.007657     -0.090463
      4.22049      6.33074      7.50000         0.000042     -0.001082      0.467189
      6.33074      0.00000      7.50000        -0.000849      0.000199      0.464659
      4.22049      0.00000      9.61025         0.000887     -0.001786      0.052445
      6.33074      6.33074      9.61025        -0.008691     -0.005597      0.041250
      4.22065      6.32663     11.73819         0.000491     -0.003086      0.022989
      6.33016      0.00039     11.73335        -0.003076      0.001782      0.026654
      4.22050      0.00240     13.83511         0.000065      0.001874     -0.084040
      6.33163      6.33057     13.83328         0.011898      0.008412     -0.095170
      4.22049      2.11025      7.50000         0.000054      0.001042      0.466959
      6.33074      4.22049      7.50000        -0.001167     -0.000165      0.467101
      4.22049      4.22049      9.61025         0.000089      0.000042      0.059706
      6.33074      2.11025      9.61025        -0.004490      0.005598      0.044580
      4.22062      2.11357     11.73849         0.000313      0.003885      0.024761
      6.32697      4.22001     11.73822        -0.003186     -0.001913      0.025295
      4.22203      4.21469     13.88557         0.003879     -0.013963     -0.152943
      6.33026      2.11020     13.83687         0.006249     -0.006153     -0.088583
      0.00000      6.33074      9.61025        -0.000276      0.005278      0.062023
      2.11025      0.00000      9.61025        -0.005210     -0.000940      0.060574
      0.00000      0.00000      7.50000         0.000179     -0.000594     -0.433465
      2.11025      6.33074      7.50000        -0.001884      0.001533     -0.434425
      0.00010      6.33184     13.88742        -0.000234      0.003143     -0.112856
      2.10898      8.44031     13.88725        -0.003468     -0.000061     -0.114672
      0.00002      8.44074     11.72933         0.000315     -0.001697      0.023969
      2.11015      6.33115     11.72901        -0.001891      0.002834      0.030388
      0.00000      2.11025      9.61025         0.000689     -0.004934      0.058302
      2.11025      4.22049      9.61025         0.006756      0.001580      0.065949
      0.00000      4.22049      7.50000        -0.000003      0.000621     -0.435169
      2.11025      2.11025      7.50000        -0.001241     -0.001487     -0.435438
      0.00018      2.10931     13.88746        -0.000139     -0.004028     -0.114190
      2.10335      4.22178     13.88638         0.000196      0.000704     -0.104398
      0.00038      4.22085     11.72814         0.000131      0.000987      0.024276
      2.10941      2.10999     11.72889        -0.003446     -0.003504      0.029899
      4.22049      6.33074      9.61025        -0.000355     -0.007558      0.065569
      6.33074      0.00000      9.61025         0.005044     -0.001870      0.059714
      4.22049      0.00000      7.50000        -0.000176      0.000015     -0.435156
      6.33074      6.33074      7.50000         0.001873      0.001339     -0.434838
      4.21973      6.33788     13.89233        -0.000034      0.000304     -0.102383
      6.33181      8.44023     13.88765         0.003417     -0.000291     -0.114293
      4.22040      8.43951     11.72820        -0.000251     -0.001419      0.024894
      6.33064      6.33128     11.72929         0.002002      0.003287      0.030094
      4.22049      2.11025      9.61025        -0.000554      0.005363      0.068235
      6.33074      4.22049      9.61025        -0.006225      0.001838      0.067002
      4.22049      4.22049      7.50000         0.000019     -0.000085     -0.437242
      6.33074      2.11025      7.50000         0.001248     -0.001332     -0.435724
      4.22037      2.10260     13.87876        -0.000408      0.001299     -0.103359
      6.33760      4.22119     13.88280        -0.000881      0.001225     -0.104076
      4.22028      4.22121     11.73710        -0.000880      0.003413      0.013515
      6.33162      2.10962     11.72865         0.003327     -0.003737      0.030250
    total drift:                               -0.000079     -0.000510     -0.000503

  FREE ENERGIE OF THE ION-ELECTRON SYSTEM (eV)
  free  energy   TOTEN  =      -464.88997600 eV

  energy  without entropy=     -464.88997600  energy(sigma->0) =     -464.88997600