 vasp.6.3.0 20Jan22 (build Mar 11 2022 13:48:16) complex

 executed on             LinuxIFC date 2023.12.26  17:59:15

 INCAR:
   SYSTEM = MgO-rocksalt
   ISMEAR = 0
   SIGMA = 0.05
   EDIFF = 1E-6
   ALGO = ALL
   ISTART = 0
   IBRION = -1
   NSW = 0
   ISYM = 0
   DIPOL = 0.5 0.5 0.5
   IDIPOL = 3
   LDIPOL = .TRUE.
   GGA = MK
   LUSE_VDW = .TRUE.
   PARAM1 = 0.1234
   PARAM2 = 0.711357
   ZAB_VDW = -1.8867
   AGGAC = 0.0
   ENCUT = 520
   PREC = Accurate
   LASPH = .TRUE.
   LREAL = Auto
   ISPIN = 1
   NELM = 200
   NELMIN = 8
   NCORE = 2
   KPAR = 1
   LWAVE = .FALSE.
   LCHARG = .FALSE.

 POTCAR:    PAW_PBE Mg_pv 13Apr2007
 POTCAR:    PAW_PBE O 08Apr2002
|           W    W    AA    RRRRR   N    N  II  N    N   GGGG   !!!           |
|           W    W   A  A   R    R  NN   N  II  NN   N  G    G  !!!           |
|           W    W  A    A  R    R  N N  N  II  N N  N  G       !!!           |
|           W WW W  AAAAAA  RRRRR   N  N N  II  N  N N  G  GGG   !            |
|           WW  WW  A    A  R   R   N   NN  II  N   NN  G    G                |
|           W    W  A    A  R    R  N    N  II  N    N   GGGG   !!!           |
|     For optimal performance we recommend to set                             |
|       NCORE = 2 up to number-of-cores-per-socket                            |
|     This setting can greatly improve the performance of VASP for DFT.       |
|     The default, NCORE=1 might be grossly inefficient on modern             |
|     multi-core architectures or massively parallel machines. Do your        |
|     Unfortunately you need to use the default for GW and RPA                |
|     calculations (for HF NCORE is supported but not extensively tested      |
|     yet).                                                                   |

   TITEL  = PAW_PBE Mg_pv 13Apr2007
   POMASS =   24.305; ZVAL   =    8.000    mass and valenz
   ENMAX  =  403.929; ENMIN  =  302.947 eV

   TITEL  = PAW_PBE O 08Apr2002
   POMASS =   16.000; ZVAL   =    6.000    mass and valenz
   ENMAX  =  400.000; ENMIN  =  300.000 eV

 Optimization of the real space projectors (new method)

 maximal supplied QI-value         = 18.90
 optimisation between [QCUT,QGAM] = [ 11.53, 23.24] = [ 37.21,151.29] Ry
 Optimized for a Real-space Cutoff    1.28 Angstroem

   l    n(q)    QCUT    max X(q) W(low)/X(q) W(high)/X(q)  e(spline)
   1      8    11.527     2.974    0.44E-04    0.56E-04    0.12E-06
   1      8    11.527     4.279    0.12E-03    0.12E-03    0.26E-06
   0      9    11.527    16.381    0.46E-04    0.64E-04    0.78E-07
   0      9    11.527     5.611    0.26E-04    0.43E-04    0.55E-07
   2      8    11.527     4.652    0.22E-03    0.72E-04    0.47E-07
 Optimization of the real space projectors (new method)

 maximal supplied QI-value         = 24.76
 optimisation between [QCUT,QGAM] = [ 11.64, 23.27] = [ 37.91,151.63] Ry
 Optimized for a Real-space Cutoff    1.14 Angstroem

   l    n(q)    QCUT    max X(q) W(low)/X(q) W(high)/X(q)  e(spline)
   0      8    11.635    20.381    0.10E-03    0.33E-03    0.24E-06
   0      8    11.635    15.268    0.11E-03    0.35E-03    0.26E-06
   1      7    11.635     5.964    0.24E-03    0.31E-03    0.30E-06
   1      7    11.635     5.382    0.22E-03    0.25E-03    0.26E-06
|               ----> ADVICE to this user running VASP <----                  |
|     You enforced a specific xc type in the INCAR file but a different       |
|     type was found in the POTCAR file.                                      |
|     I HOPE YOU KNOW WHAT YOU ARE DOING!                                     |

  PAW_PBE Mg_pv 13Apr2007               :
  PAW_PBE O 08Apr2002                   :

 POSCAR: Mg  O
  positions in direct lattice
 exchange correlation table for  LEXCH =       43
   RHO(1)=    0.500       N(1)  =     2000
   RHO(2)=  100.500       N(2)  =     4000

 ion  position               nearest neighbor table
   1  0.125  0.000  0.352- 129 2.11 131 2.11 132 2.11 148 2.11 171 2.11
   2  0.250  0.125  0.352- 130 2.11 131 2.11 132 2.11 140 2.11 147 2.11
   3  0.125  0.125  0.451- 131 2.11 130 2.11 129 2.11 137 2.11 146 2.11 135 2.11
   4  0.250  0.000  0.451- 132 2.11 130 2.11 129 2.11 145 2.11 170 2.11 136 2.11
   5  0.125  1.000  0.550- 135 2.11 152 2.11 136 2.11 175 2.11 129 2.12 133 2.13
   6  0.250  0.125  0.550- 144 2.11 151 2.11 135 2.11 136 2.11 130 2.12 134 2.14
   7  0.125  0.125  0.648- 135 2.10 134 2.11 141 2.11 133 2.11 150 2.11
   8  0.250  1.000  0.648- 136 2.10 149 2.11 134 2.11 133 2.11 174 2.11
   9  0.125  0.250  0.352- 137 2.11 131 2.11 139 2.11 140 2.11 156 2.11
  10  0.250  0.375  0.352- 138 2.11 139 2.11 140 2.11 155 2.11 164 2.11
  11  0.125  0.375  0.451- 139 2.11 138 2.11 137 2.11 154 2.11 161 2.11 143 2.11
  12  0.250  0.250  0.451- 140 2.11 137 2.11 138 2.11 130 2.11 153 2.11 144 2.11
  13  0.125  0.250  0.550- 144 2.11 143 2.11 135 2.11 160 2.11 137 2.12 141 2.14
  14  0.250  0.375  0.550- 159 2.10 168 2.11 144 2.11 143 2.11 138 2.12 142 2.14
  15  0.125  0.375  0.648- 143 2.10 141 2.11 165 2.11 142 2.11 158 2.11
  16  0.250  0.250  0.648- 144 2.10 157 2.11 142 2.11 134 2.11 141 2.11
  17  0.375  0.000  0.352- 145 2.11 132 2.11 147 2.11 187 2.11 212 2.11
  18  0.000  0.125  0.352- 146 2.11 131 2.11 148 2.11 156 2.11 211 2.11
  19  0.375  0.125  0.451- 147 2.11 145 2.11 130 2.11 153 2.11 210 2.11 151 2.11
  20  0.000  0.000  0.451- 148 2.11 146 2.11 129 2.11 186 2.11 209 2.11 152 2.11
  21  0.375  0.000  0.550- 151 2.11 216 2.11 191 2.11 136 2.11 145 2.12 149 2.14
  22  1.000  0.125  0.550- 215 2.11 135 2.11 152 2.11 160 2.11 146 2.12 150 2.13
  23  0.375  0.125  0.648- 151 2.10 157 2.11 214 2.11 134 2.11 149 2.11
  24  0.000  1.000  0.648- 152 2.10 190 2.11 213 2.11 133 2.11 150 2.11
  25  0.375  0.250  0.352- 153 2.11 147 2.11 140 2.11 155 2.11 220 2.11
  26  0.000  0.375  0.352- 154 2.11 139 2.11 156 2.11 180 2.11 219 2.11
  27  0.375  0.375  0.451- 159 2.11 155 2.11 138 2.11 153 2.11 177 2.11 218 2.11
  28  0.000  0.250  0.451- 156 2.11 146 2.11 154 2.11 137 2.11 217 2.11 160 2.11
  29  0.375  0.250  0.550- 159 2.11 224 2.11 144 2.11 151 2.11 153 2.12 157 2.14
  30  1.000  0.375  0.550- 160 2.11 184 2.11 223 2.11 143 2.11 154 2.12 158 2.14
  31  0.376  0.375  0.648- 222 2.10 159 2.11 181 2.11 157 2.11 142 2.12
  32  1.000  0.250  0.648- 160 2.10 150 2.11 158 2.11 141 2.11 221 2.11
  33  0.125  0.500  0.352- 161 2.11 139 2.11 163 2.11 164 2.11 180 2.11
  34  0.250  0.625  0.352- 162 2.11 163 2.11 164 2.11 172 2.11 179 2.11
  35  0.125  0.625  0.451- 163 2.11 162 2.11 161 2.11 169 2.11 178 2.11 167 2.11
  36  0.250  0.500  0.451- 164 2.11 161 2.11 162 2.11 138 2.11 177 2.11 168 2.11
  37  0.125  0.500  0.550- 168 2.11 143 2.11 184 2.11 167 2.11 161 2.12 165 2.14
  38  0.250  0.625  0.550- 183 2.11 168 2.11 176 2.11 167 2.11 162 2.12 166 2.14
  39  0.125  0.625  0.648- 167 2.10 166 2.11 165 2.11 182 2.11 173 2.11
  40  0.250  0.500  0.648- 168 2.10 181 2.11 142 2.11 165 2.11 166 2.11
  41  0.125  0.750  0.352- 169 2.11 163 2.11 171 2.11 172 2.11 188 2.11
  42  0.250  0.875  0.352- 170 2.11 132 2.11 171 2.11 172 2.11 187 2.11
  43  0.125  0.875  0.451- 171 2.11 169 2.11 170 2.11 129 2.11 186 2.11 175 2.11
  44  0.250  0.750  0.451- 172 2.11 169 2.11 170 2.11 162 2.11 185 2.11 176 2.11
  45  0.125  0.750  0.550- 176 2.11 167 2.11 192 2.11 175 2.11 169 2.12 173 2.13
  46  0.250  0.875  0.550- 176 2.11 136 2.11 175 2.11 191 2.11 170 2.12 174 2.13
  47  0.125  0.875  0.648- 175 2.10 173 2.11 190 2.11 133 2.11 174 2.11
  48  0.250  0.750  0.648- 176 2.10 166 2.11 189 2.11 173 2.11 174 2.11
  49  0.375  0.500  0.352- 177 2.11 164 2.11 155 2.11 179 2.11 244 2.11
  50  0.000  0.625  0.352- 178 2.11 163 2.11 180 2.11 188 2.11 243 2.11
  51  0.375  0.625  0.451- 179 2.11 177 2.11 162 2.11 185 2.11 242 2.11 183 2.11
  52  0.000  0.500  0.451- 180 2.11 161 2.11 178 2.11 154 2.11 241 2.11 184 2.11
  53  0.375  0.500  0.550- 248 2.11 159 2.11 183 2.11 168 2.11 177 2.12 181 2.13
  54  1.000  0.625  0.550- 247 2.11 167 2.11 184 2.11 192 2.11 178 2.12 182 2.13
  55  0.375  0.625  0.648- 183 2.10 181 2.11 246 2.11 166 2.11 189 2.11
  56  1.000  0.500  0.648- 184 2.10 158 2.11 245 2.11 165 2.11 182 2.11
  57  0.375  0.750  0.352- 185 2.11 179 2.11 172 2.11 187 2.11 252 2.11
  58  0.000  0.875  0.352- 186 2.11 171 2.11 148 2.11 188 2.11 251 2.11
  59  0.375  0.875  0.451- 187 2.11 170 2.11 185 2.11 145 2.11 250 2.11 191 2.11
  60  0.000  0.750  0.451- 188 2.11 178 2.11 186 2.11 169 2.11 249 2.11 192 2.11
[...]
 242  0.500  0.625  0.451- 114 2.11  99 2.11  51 2.11 116 2.11 124 2.11 118 2.12
 243  0.875  0.625  0.352- 115 2.11  98 2.11 113 2.11  50 2.11 121 2.11
 244  0.500  0.500  0.352- 116 2.11  90 2.11  97 2.11 114 2.11  49 2.11
 245  0.875  0.500  0.650- 119 2.11  95 2.11  56 2.11 104 2.11 117 2.14
 246  0.500  0.625  0.650- 128 2.11 103 2.11  55 2.11 120 2.12 118 2.14
 247  0.875  0.625  0.549- 119 2.10  54 2.11 125 2.11 115 2.11 102 2.11 117 2.11
 248  0.500  0.500  0.549- 118 2.10  53 2.11 101 2.11 116 2.11 120 2.11  94 2.11
 249  0.875  0.750  0.451- 121 2.11 108 2.11 115 2.11  60 2.11 123 2.11 125 2.12
 250  0.500  0.875  0.451- 122 2.11  84 2.11 107 2.11  59 2.11 124 2.11 126 2.12
 251  0.875  0.875  0.352- 123 2.11  81 2.11 106 2.11 121 2.11  58 2.11
 252  0.500  0.750  0.352- 124 2.11 105 2.11 114 2.11 122 2.11  57 2.11
 253  0.875  0.750  0.650- 127 2.11  64 2.11 112 2.11 119 2.11 125 2.13
 254  0.500  0.875  0.650-  63 2.11 111 2.11 128 2.11  88 2.11 126 2.14
 255  0.875  0.875  0.549- 127 2.10  85 2.11  62 2.11 125 2.11 110 2.11 123 2.11
 256  0.500  0.750  0.550- 128 2.10  61 2.11 109 2.11 126 2.11 124 2.11 118 2.11

IMPORTANT INFORMATION: All symmetrisations will be switched off!
NOSYMM: (Re-)initialisation of all symmetry stuff for point group C_1.

                                     Primitive cell

  volume of cell :    6078.6138

  direct lattice vectors                    reciprocal lattice vectors
    16.881164524  0.000000000  0.000000000     0.059237619  0.000000000  0.000000000
     0.000000000 16.881164524  0.000000000     0.000000000  0.059237619  0.000000000
     0.000000000  0.000000000 21.330436697     0.000000000  0.000000000  0.046881366

  length of vectors
    16.881164524 16.881164524 21.330436697     0.059237619  0.059237619  0.046881366

  position of ions in fractional coordinates (direct lattice)
     0.125000000  0.000000000  0.351610242
     0.250000000  0.125000000  0.351610242
     0.125000000  0.125000000  0.450536747
     0.250000000  0.000000000  0.450536747
     0.124994378  0.999996972  0.549773366
     0.250022088  0.125024507  0.549767563
     0.125016707  0.125001538  0.647900666
     0.250007171  0.999998489  0.647896471
     0.125000000  0.250000000  0.351610242
     0.250000000  0.375000000  0.351610242
     0.125000000  0.375000000  0.450536747
     0.250000000  0.250000000  0.450536747
     0.125030056  0.250005716  0.549768271
     0.250142848  0.374996525  0.549792642
     0.125026647  0.374980140  0.647916052
     0.250087378  0.250052124  0.647844830
     0.375000000  0.000000000  0.351610242
     0.000000000  0.125000000  0.351610242
     0.375000000  0.125000000  0.450536747
[...]
   6.33263694  8.43872694 11.72792907
  16.88104454 10.55042117 11.72681863
   6.33047862 10.54911100 13.81592423
  16.88093516  8.44003404 13.82008658
   6.33043670 12.66087339  7.50000000
   0.00000000 14.77101896  7.50000000
   6.33043670 14.77101896  9.61014557
   0.00000000 12.66087339  9.61014557
[...]
   8.44058226 10.55072783  9.61014557
  14.77101896 10.55072783  7.50000000
   8.44058226  8.44058226  7.50000000
  14.77046197  8.44038132 13.86219546
   8.44042797 10.55009930 13.86904130
  14.77120870 10.55069540 11.72069149
   8.44017881  8.44495066 11.71978304
  14.77101896 12.66087339  9.61014557
   8.44058226 14.77101896  9.61014557
  14.77101896 14.77101896  7.50000000
   8.44058226 12.66087339  7.50000000
  14.77109946 12.66087092 13.86137273
   8.44034729 14.77031361 13.86224400
  14.77110028 14.77090585 11.72063587
   8.44038964 12.66032486 11.72165644

--------------------------------------- Iteration      FINAL  ---------------------------------------

--------------------OUTCAR has been truncated-------------------------

[...]

--------------------OUTCAR has been truncated-------------------------

  FORCE on cell =-STRESS in cart. coord.  units (eV):
  Direction    XX          YY          ZZ          XY          YZ          ZX
  Alpha Z  3501.42050  3501.42050  3501.42050
  Ewald  647317.43921647317.45548************    -0.00780    -0.14822    -0.07864
  Hartree687434.94856687434.96040************    -0.00318    -0.10083    -0.05169
  E(xc)   -9824.42978 -9824.42977 -9824.70271    -0.00000    -0.00019    -0.00011
  Local  ************************************     0.01072     0.25624     0.13332
  n-local-11319.41881-11319.41598-11394.67681    -0.00067    -0.00821    -0.00480
  augment  4204.48998  4204.48890  4167.67777     0.00000    -0.00267    -0.00081
  Kinetic 29214.04683 29214.04651 29369.89894     0.00024     0.02989     0.01783
  Fock        0.00000     0.00000     0.00000     0.00000     0.00000     0.00000
  Total    -108.47689  -108.47584     4.44306    -0.00070     0.02600     0.01510
  in kB     -28.59191   -28.59164     1.17108    -0.00019     0.00685     0.00398

 VOLUME and BASIS-vectors are now :
  energy-cutoff  :      520.00
  volume of cell :     6078.61
      direct lattice vectors                 reciprocal lattice vectors
    16.881164524  0.000000000  0.000000000     0.059237619  0.000000000  0.000000000
     0.000000000 16.881164524  0.000000000     0.000000000  0.059237619  0.000000000
     0.000000000  0.000000000 21.330436697     0.000000000  0.000000000  0.046881366

  length of vectors
    16.881164524 16.881164524 21.330436697     0.059237619  0.059237619  0.046881366

 FORCES acting on ions:
    Electron-Ion                     Ewald-Force                    Non-Local-Force
   0.979E-02 -.182E-01 0.207E+04   -.119E-01 0.160E-01 -.206E+04   0.170E-02 0.169E-02 -.680E+01
   0.603E-01 0.400E-01 0.207E+04   -.632E-01 -.426E-01 -.206E+04   0.218E-02 0.211E-02 -.679E+01
   0.325E-01 -.120E-01 0.686E+03   -.376E-01 0.677E-02 -.687E+03   0.400E-02 0.403E-02 0.375E+00
   0.167E-01 -.246E-01 0.686E+03   -.223E-01 0.187E-01 -.687E+03   0.417E-02 0.458E-02 0.377E+00
   -.904E-02 -.839E-01 -.691E+03   0.131E-01 0.840E-01 0.691E+03   -.240E-02 -.517E-03 -.263E+00
   0.190E+00 0.162E+00 -.691E+03   -.200E+00 -.175E+00 0.691E+03   0.120E-02 0.323E-02 -.254E+00
   0.106E+00 0.994E-02 -.206E+04   -.977E-01 0.515E-02 0.205E+04   -.919E-02 -.134E-01 0.596E+01
   -.544E-01 0.762E-02 -.206E+04   0.649E-01 -.433E-02 0.205E+04   -.844E-02 -.396E-02 0.596E+01
   0.544E-01 0.140E-01 0.207E+04   -.563E-01 -.156E-01 -.206E+04   0.162E-02 0.126E-02 -.679E+01
   0.151E+00 0.287E-01 0.207E+04   -.157E+00 -.292E-01 -.206E+04   0.472E-02 0.307E-03 -.680E+01
   0.130E+00 0.556E-01 0.686E+03   -.122E+00 -.589E-01 -.686E+03   -.596E-02 0.218E-02 0.389E+00
   0.208E+00 0.132E+00 0.686E+03   -.211E+00 -.129E+00 -.687E+03   0.288E-02 -.195E-02 0.403E+00
   0.255E+00 -.434E-01 -.691E+03   -.263E+00 0.485E-01 0.691E+03   -.115E-02 -.723E-02 -.269E+00
   0.158E+01 0.147E+00 -.692E+03   -.152E+01 -.151E+00 0.692E+03   -.932E-01 0.302E-02 -.171E+00
   0.226E-01 -.174E-01 -.206E+04   -.408E-01 0.206E-01 0.205E+04   0.130E-01 -.195E-02 0.594E+01
   0.594E+00 0.352E-01 -.206E+04   -.655E+00 -.136E-01 0.205E+04   0.290E-01 -.263E-01 0.594E+01
   0.216E-01 0.313E-01 0.207E+04   -.232E-01 -.336E-01 -.206E+04   0.115E-02 0.180E-02 -.679E+01
   -.184E-01 -.768E-02 0.207E+04   0.184E-01 0.486E-02 -.206E+04   -.530E-04 0.224E-02 -.680E+01
   0.165E+00 0.173E+00 0.686E+03   -.164E+00 -.176E+00 -.687E+03   -.778E-03 0.295E-02 0.394E+00
   -.316E-01 -.512E-01 0.686E+03   0.317E-01 0.483E-01 -.687E+03   -.424E-04 0.215E-02 0.394E+00
   -.578E-01 0.192E+00 -.691E+03   0.565E-01 -.200E+00 0.691E+03   -.235E-02 -.273E-03 -.262E+00
   -.495E-01 -.909E-01 -.691E+03   0.496E-01 0.923E-01 0.691E+03   0.437E-03 0.521E-04 -.266E+00
   -.781E-01 0.615E+00 -.206E+04   0.981E-01 -.676E+00 0.205E+04   -.228E-01 0.299E-01 0.593E+01
   -.195E-01 -.128E+00 -.206E+04   0.177E-01 0.131E+00 0.205E+04   0.138E-02 -.453E-03 0.598E+01
   0.126E+00 0.112E+00 0.207E+04   -.130E+00 -.116E+00 -.206E+04   0.313E-02 0.311E-02 -.679E+01
   -.160E-01 0.237E-01 0.207E+04   0.157E-01 -.238E-01 -.206E+04   0.183E-03 -.180E-04 -.679E+01
   0.194E+00 0.180E-02 0.687E+03   -.239E+00 -.380E-02 -.688E+03   0.345E-01 0.146E-02 0.367E+00
   -.351E-01 -.479E-01 0.686E+03   0.354E-01 0.427E-01 -.687E+03   -.874E-04 0.382E-02 0.377E+00
   0.102E+01 0.106E+01 -.692E+03   -.103E+01 -.105E+01 0.692E+03   -.139E-01 -.271E-01 -.157E+00
   -.246E-01 -.285E-02 -.691E+03   0.259E-01 -.347E-02 0.691E+03   -.483E-03 0.527E-02 -.274E+00
   0.335E+01 0.197E+00 -.206E+04   -.370E+01 -.236E+00 0.206E+04   0.159E+00 0.226E-01 0.618E+01
   0.339E-01 -.152E-01 -.206E+04   -.332E-01 0.218E-01 0.205E+04   -.143E-02 -.491E-02 0.596E+01
   0.643E-01 0.277E-01 0.207E+04   -.669E-01 -.264E-01 -.206E+04   0.210E-02 -.985E-03 -.679E+01
   0.568E-01 -.334E-01 0.207E+04   -.596E-01 0.366E-01 -.206E+04   0.215E-02 -.232E-02 -.679E+01
   0.929E-01 0.179E-01 0.686E+03   -.101E+00 -.117E-01 -.687E+03   0.627E-02 -.463E-02 0.374E+00
   0.137E+00 -.186E-01 0.686E+03   -.141E+00 0.134E-01 -.687E+03   0.422E-02 0.349E-02 0.387E+00
   0.435E+00 0.179E+00 -.691E+03   -.436E+00 -.179E+00 0.691E+03   -.686E-02 0.276E-02 -.259E+00
   0.276E+00 -.156E+00 -.691E+03   -.300E+00 0.173E+00 0.691E+03   0.119E-01 -.795E-02 -.238E+00
   0.159E+00 0.116E+00 -.206E+04   -.151E+00 -.124E+00 0.205E+04   -.929E-02 0.699E-02 0.596E+01
   0.102E+01 0.926E-01 -.206E+04   -.109E+01 -.111E+00 0.205E+04   0.259E-01 0.217E-01 0.593E+01
   0.151E-01 -.237E-01 0.207E+04   -.172E-01 0.260E-01 -.206E+04   0.173E-02 -.181E-02 -.680E+01
   0.894E-02 -.352E-01 0.207E+04   -.117E-01 0.351E-01 -.206E+04   0.215E-02 -.581E-04 -.680E+01
   0.129E-01 -.731E-01 0.686E+03   -.148E-01 0.721E-01 -.687E+03   0.153E-02 0.644E-03 0.373E+00
   0.319E-01 -.960E-01 0.686E+03   -.389E-01 0.103E+00 -.687E+03   0.515E-02 -.564E-02 0.376E+00
   0.485E-01 -.124E-01 -.691E+03   -.530E-01 0.133E-01 0.691E+03   0.177E-02 -.361E-03 -.265E+00
   -.903E-01 -.120E+00 -.691E+03   0.878E-01 0.123E+00 0.691E+03   0.282E-02 -.761E-03 -.267E+00
   -.638E-01 -.557E-01 -.206E+04   0.669E-01 0.537E-01 0.205E+04   -.124E-02 0.165E-02 0.597E+01
   -.604E-01 -.152E+00 -.206E+04   0.739E-01 0.142E+00 0.205E+04   -.111E-01 0.118E-01 0.596E+01
   0.105E+00 -.734E-01 0.207E+04   -.109E+00 0.774E-01 -.206E+04   0.279E-02 -.301E-02 -.679E+01
   -.198E-01 0.154E-01 0.207E+04   0.197E-01 -.126E-01 -.206E+04   0.542E-04 -.204E-02 -.680E+01
   0.506E-01 -.816E-01 0.687E+03   -.463E-01 0.874E-01 -.687E+03   -.320E-02 -.511E-02 0.389E+00
   -.425E-01 0.115E+00 0.686E+03   0.423E-01 -.112E+00 -.687E+03   0.284E-03 -.242E-02 0.395E+00
   0.818E+00 -.849E+00 -.691E+03   -.797E+00 0.846E+00 0.691E+03   -.455E-01 0.249E-01 -.211E+00
   -.455E-01 0.143E+00 -.691E+03   0.451E-01 -.135E+00 0.691E+03   0.711E-03 -.590E-02 -.267E+00
   -.339E+00 -.852E+00 -.206E+04   0.338E+00 0.933E+00 0.205E+04   -.276E-02 -.364E-01 0.593E+01
   -.330E-02 0.990E-02 -.206E+04   0.726E-03 -.154E-01 0.205E+04   0.238E-02 0.643E-02 0.598E+01
   0.132E-01 -.696E-01 0.207E+04   -.148E-01 0.721E-01 -.206E+04   0.111E-02 -.194E-02 -.679E+01
   -.167E-01 -.319E-01 0.207E+04   0.168E-01 0.319E-01 -.206E+04   -.439E-04 -.247E-04 -.680E+01
   -.370E-01 -.865E-01 0.686E+03   0.313E-01 0.864E-01 -.687E+03   0.415E-02 0.173E-03 0.375E+00
   -.346E-01 -.184E-01 0.686E+03   0.344E-01 0.199E-01 -.687E+03   0.136E-03 -.126E-02 0.375E+00
[...]
   -.526E-01 0.869E-05 0.155E+04   0.545E-01 0.218E-02 -.156E+04   0.550E-03 -.629E-02 0.361E+01
   0.139E-01 -.651E-01 0.155E+04   -.139E-01 0.713E-01 -.156E+04   0.254E-04 -.856E-02 0.361E+01
   0.342E-03 0.429E-01 -.156E+04   -.869E-02 -.402E-01 0.157E+04   0.385E-02 -.478E-02 -.509E+01
   0.682E-02 0.927E+00 -.157E+04   -.118E-01 -.950E+00 0.157E+04   0.575E-02 -.231E-01 -.511E+01
   -.967E-01 0.541E-01 -.513E+03   0.974E-01 -.552E-01 0.512E+03   -.462E-02 -.167E-02 0.257E+00
   0.727E-02 -.635E+00 -.513E+03   -.193E-02 0.629E+00 0.513E+03   -.303E-02 -.453E-01 0.185E+00
   -.740E-01 -.338E-01 0.514E+03   0.755E-01 0.362E-01 -.514E+03   -.736E-04 -.333E-02 -.719E-01
   0.353E-01 -.679E-01 0.514E+03   -.343E-01 0.672E-01 -.514E+03   -.136E-02 -.482E-03 -.616E-01
   -.246E-01 -.251E-01 0.155E+04   0.258E-01 0.250E-01 -.156E+04   0.163E-02 0.344E-02 0.360E+01
   0.200E-01 -.617E-01 0.155E+04   -.200E-01 0.622E-01 -.156E+04   -.227E-04 -.661E-03 0.361E+01
   0.551E-01 0.599E-01 -.156E+04   -.582E-01 -.687E-01 0.157E+04   0.373E-02 0.904E-02 -.505E+01
   -.203E-01 -.981E-01 -.156E+04   0.210E-01 0.976E-01 0.157E+04   -.414E-03 0.122E-02 -.506E+01
   -.278E-01 -.645E-01 -.513E+03   0.259E-01 0.623E-01 0.512E+03   0.219E-02 0.277E-02 0.264E+00
   0.698E-01 0.291E+00 -.513E+03   -.688E-01 -.306E+00 0.513E+03   -.150E-02 0.471E-02 0.275E+00
   -.290E-01 -.820E-01 0.599E+02   0.580E-11 0.225E-12 0.205E-11   0.253E-01 0.862E-01 -.601E+02

 POSITION                                       TOTAL-FORCE (eV/Angst)
      2.11015      0.00000      7.50000        -0.000404     -0.000518      0.318356
      4.22029      2.11015      7.50000        -0.000658     -0.000493      0.317843
      2.11015      2.11015      9.61015        -0.001041     -0.001217      0.014046
      4.22029      0.00000      9.61015        -0.001383     -0.001282      0.014455
      2.11005     16.88111     11.72691         0.001665     -0.000372      0.012898
      4.22066      2.11056     11.72678        -0.008392     -0.009894      0.013546
      2.11043      2.11017     13.82000        -0.001173      0.001686      0.044548
      4.22041     16.88114     13.81991         0.002040     -0.000657      0.045281
      2.11015      4.22029      7.50000        -0.000263     -0.000353      0.318134
      4.22029      6.33044      7.50000        -0.001261     -0.000274      0.318978
      2.11015      6.33044      9.61015         0.002489     -0.001056      0.015427
      4.22029      4.22029      9.61015        -0.000111      0.000838      0.012751
      2.11065      4.22039     11.72680        -0.009414     -0.002061      0.015761
      4.22270      6.33038     11.72732        -0.029259     -0.001223      0.014455
      2.11060      6.33010     13.82033        -0.005058      0.001178      0.051931
      4.22177      4.22117     13.81881        -0.031704     -0.004437      0.062196
      6.33044      0.00000      7.50000        -0.000382     -0.000526      0.317788
      0.00000      2.11015      7.50000         0.000032     -0.000594      0.318285
      6.33044      2.11015      9.61015         0.000236      0.000116      0.011645
      0.00000      0.00000      9.61015         0.000015     -0.000711      0.014262
      6.33063      0.00026     11.72673        -0.003541     -0.008195      0.017210
     16.88111      2.10999     11.72686         0.000481      0.001469      0.014195
      6.33131      2.11132     13.81833        -0.002644     -0.030454      0.064418
      0.00000     16.88086     13.82040        -0.000376      0.002245      0.042174
      6.33044      4.22029      7.50000        -0.001187     -0.001025      0.317612
      0.00000      6.33044      7.50000        -0.000032     -0.000091      0.317445
      6.33044      6.33044      9.61015        -0.010950     -0.000551     -0.002426
      0.00000      4.22029      9.61015         0.000213     -0.001380      0.014681
      6.33214      4.22223     11.72757        -0.021931     -0.024199     -0.013859
     16.88102      6.33014     11.72712         0.000872     -0.001065      0.016820
      6.34002      6.33159     13.82563        -0.185914     -0.015863     -0.066698
     16.88104      4.22001     13.81989        -0.000651      0.001629      0.045508
      2.11015      8.44058      7.50000        -0.000490      0.000249      0.317714
      4.22029     10.55073      7.50000        -0.000652      0.000872      0.317666
      2.11015     10.55073      9.61015        -0.002027      0.001498      0.013438
      4.22029      8.44058      9.61015        -0.000177     -0.001619      0.010680
      2.11028      8.44006     11.72646        -0.008364      0.002551      0.018976
      4.22038     10.55036     11.72620        -0.011589      0.008786      0.013708
      2.11009     10.55041     13.81984        -0.001599     -0.001914      0.045331
      4.22144      8.43998     13.81696        -0.043982      0.003099      0.069769
      2.11015     12.66087      7.50000        -0.000325      0.000520      0.318777
      4.22029     14.77102      7.50000        -0.000619     -0.000179      0.318706
      2.11015     14.77102      9.61015        -0.000349     -0.000395      0.013540
      4.22029     12.66087      9.61015        -0.001735      0.001820      0.013502
      2.11013     12.66074     11.72680        -0.002688      0.000565      0.011594
      4.22020     14.77089     11.72676         0.000361      0.001704      0.012700
      2.11010     14.77080     13.82008         0.001816     -0.000327      0.041241
      4.22016     12.66056     13.81959         0.002425      0.001285      0.047024
      6.33044      8.44058      7.50000        -0.000981      0.000973      0.317120
      0.00000     10.55073      7.50000        -0.000001      0.000675      0.318340
      6.33044     10.55073      9.61015         0.001156      0.000663      0.009280
      0.00000      8.44058      9.61015         0.000089      0.000625      0.014133
      6.33264      8.43873     11.72793        -0.023211      0.021656     -0.024810
     16.88104     10.55042     11.72682         0.000316      0.002157      0.014675
      6.33048     10.54911     13.81592        -0.003549      0.043338      0.075745
     16.88094      8.44003     13.82009        -0.000186      0.000905      0.046415
      6.33044     12.66087      7.50000        -0.000448      0.000530      0.318165
      0.00000     14.77102      7.50000         0.000026     -0.000093      0.318445
      6.33044     14.77102      9.61015        -0.001595      0.000007      0.013642
      0.00000     12.66087      9.61015        -0.000010      0.000236      0.014262
[...]
      8.44058     10.55073      9.61015        -0.001174      0.001089      0.033706
     14.77102     10.55073      7.50000         0.002509     -0.004116     -0.402987
      8.44058      8.44058      7.50000         0.000024     -0.002440     -0.405725
     14.77046      8.44038     13.86220        -0.004478     -0.002068     -0.022889
      8.44043     10.55010     13.86904         0.000794     -0.046434     -0.045687
     14.77121     10.55070     11.72069        -0.003871     -0.002764     -0.009300
      8.44018      8.44495     11.71978         0.002322     -0.050888      0.044775
     14.77102     12.66087      9.61015         0.001523     -0.000942      0.032482
      8.44058     14.77102      9.61015        -0.000320     -0.001200      0.036574
     14.77102     14.77102      7.50000         0.002811      0.003287     -0.403500
      8.44058     12.66087      7.50000         0.000004     -0.000177     -0.403945
     14.77110     12.66087     13.86137         0.000563      0.000301     -0.011472
      8.44035     14.77031     13.86224         0.000293      0.000725     -0.015194
     14.77110     14.77091     11.72064         0.000304      0.000599     -0.006617
      8.44039     12.66032     11.72166        -0.000504     -0.010474     -0.008922
    total drift:                               -0.003680      0.004114     -0.144046

  FREE ENERGIE OF THE ION-ELECTRON SYSTEM (eV)
  free  energy   TOTEN  =     -1059.16167595 eV

  energy  without entropy=    -1059.16167595  energy(sigma->0) =    -1059.16167595