 vasp.6.3.0 20Jan22 (build Apr  1 2022 16:44:48) complex
 executed on        HPECrayEX_GCC date 2022.11.01  21:37:54

 INCAR:
   SYSTEM = MgO-rocksalt
   ISMEAR = 0
   SIGMA = 0.05
   EDIFF = 1E-9
   ALGO = ALL
   ISTART = 0
   IBRION = 2
   NSW = 1000
   ISYM = 0
   ISIF = 2
   EDIFFG = -0.01
   DIPOL = 0.5 0.5 0.5
   IDIPOL = 3
   LDIPOL = .TRUE.
   GGA = RE
   AGGAC = 0.0
   LUSE_VDW = .TRUE.
   LASPH = .TRUE.
   ENCUT = 600
   PREC = Accurate
   LASPH = .TRUE.
   LREAL = .FALSE.
   ISPIN = 2
   MAGMOM = 1.0 0.0 0.0 0.0 0.0 0.0 0.0 0.0 0.0 0.0 0.0 0.0 0.0 0.0 0.0 0.0 0.0 0.0 0.0 0.0 0.0 0.0 0.0 0.0 0.0 0.0 0.0 0.0 0.0 0.0 0.0 0.0 0.0 0.0 0.0 0.0 0.0 0.0 0.0 0.0 0.0 0.0 0.0 0.0 0.0 0.0 0.0 0.0 0.0 0.0 0.0 0.0 0.0 0.0 0.0 0.0 0.0 0.0 0.0 0.0 0.0 0.0 0.0 0.0 0.0 0.0
   NELM = 200
   NELMIN = 8
   NCORE = 8
   KPAR = 1
   LWAVE = .FALSE.
   LCHARG = .FALSE.

 POTCAR:    PAW_PBE N 08Apr2002
 POTCAR:    PAW_PBE O 08Apr2002
 POTCAR:    PAW_PBE Mg_pv 13Apr2007
 POTCAR:    PAW_PBE O 08Apr2002
|               ----> ADVICE to this user running VASP <----                  |
|     You have switched on vdW-DFT.                                           |
|     This routine was written and supplied by Jiri Klimes. We recommend      |
|     that you carefully read and cite the following publications:            |
|       J. Klimes, D.R. Bowler, A. Michelides                                 |
|          J. Phys.: Cond Matt. 22 022201 (2010)                              |
|       J. Klimes, D.R. Bowler, A. Michelides                                 |
|          Phys. Rev. B. 83, 195131 (2011)                                    |
|     and references therein.                                                 |

   TITEL  = PAW_PBE N 08Apr2002
   POMASS =   14.001; ZVAL   =    5.000    mass and valenz
   ENMAX  =  400.000; ENMIN  =  300.000 eV

[...]

   TITEL  = PAW_PBE Mg_pv 13Apr2007
   POMASS =   24.305; ZVAL   =    8.000    mass and valenz
   ENMAX  =  403.929; ENMIN  =  302.947 eV

   TITEL  = PAW_PBE O 08Apr2002
   POMASS =   16.000; ZVAL   =    6.000    mass and valenz
   ENMAX  =  400.000; ENMIN  =  300.000 eV

  PAW_PBE N 08Apr2002                   :
  PAW_PBE O 08Apr2002                   :
  PAW_PBE Mg_pv 13Apr2007               :
  PAW_PBE O 08Apr2002                   :

 POSCAR:  N  O Mg  O
  positions in direct lattice
 exchange correlation table for  LEXCH =       40
   RHO(1)=    0.500       N(1)  =     2000
   RHO(2)=  100.500       N(2)  =     4000

 ion  position               nearest neighbor table
   1  0.641  0.500  0.746-   2 1.19
   2  0.703  0.587  0.782-   1 1.19
   3  0.000  0.750  0.350-  35 2.14  37 2.14  38 2.14  45 2.14  54 2.14
   4  0.250  0.000  0.350-  36 2.14  37 2.14  38 2.14  46 2.14  53 2.14
   5  0.000  0.000  0.450-  37 2.14  36 2.14  35 2.14  43 2.14  52 2.14  41 2.14
   6  0.250  0.750  0.450-  38 2.14  36 2.14  35 2.14  44 2.14  51 2.14  42 2.14
   7  0.000  0.750  0.550-  41 2.14  42 2.14  49 2.14  58 2.14  35 2.15  39 2.16
   8  0.250  0.000  0.550-  41 2.14  42 2.14  50 2.14  57 2.14  36 2.15  40 2.16
   9  0.000  0.000  0.650-  41 2.13  40 2.14  39 2.14  47 2.14  56 2.14
  10  0.250  0.750  0.650-  42 2.13  40 2.14  39 2.14  48 2.14  55 2.14
  11  0.000  0.250  0.350-  43 2.14  37 2.14  45 2.14  46 2.14  62 2.14
  12  0.250  0.500  0.350-  44 2.14  38 2.14  45 2.14  46 2.14  61 2.14
  13  0.000  0.500  0.450-  45 2.14  43 2.14  44 2.14  35 2.14  60 2.14  49 2.14
  14  0.250  0.250  0.450-  46 2.14  43 2.14  44 2.14  36 2.14  59 2.14  50 2.14
  15  0.000  0.250  0.550-  41 2.14  49 2.14  50 2.14  66 2.14  43 2.15  47 2.16
  16  0.250  0.500  0.550-  42 2.14  49 2.14  50 2.14  65 2.14  44 2.15  48 2.16
  17  0.000  0.500  0.650-  49 2.13  47 2.14  48 2.14  39 2.14  64 2.14
  18  0.250  0.250  0.650-  50 2.13  47 2.14  48 2.14  40 2.14  63 2.14
  19  0.500  0.750  0.350-  51 2.14  38 2.14  53 2.14  54 2.14  61 2.14
  20  0.750  0.000  0.350-  52 2.14  37 2.14  53 2.14  54 2.14  62 2.14
  21  0.500  0.000  0.450-  53 2.14  51 2.14  52 2.14  36 2.14  59 2.14  57 2.14
  22  0.750  0.750  0.450-  54 2.14  51 2.14  52 2.14  35 2.14  60 2.14  58 2.14
  23  0.500  0.750  0.550-  42 2.14  57 2.14  58 2.14  65 2.14  51 2.15  55 2.16
  24  0.750  0.000  0.550-  41 2.14  57 2.14  58 2.14  66 2.14  52 2.15  56 2.16
  25  0.500  0.000  0.650-  57 2.13  55 2.14  56 2.14  40 2.14  63 2.14
  26  0.750  0.750  0.650-  58 2.13  55 2.14  56 2.14  39 2.14  64 2.14
  27  0.500  0.250  0.350-  59 2.14  53 2.14  46 2.14  61 2.14  62 2.14
  28  0.750  0.500  0.350-  60 2.14  54 2.14  45 2.14  61 2.14  62 2.14
  29  0.500  0.500  0.450-  61 2.14  51 2.14  59 2.14  60 2.14  44 2.14  65 2.14
  30  0.750  0.250  0.450-  62 2.14  52 2.14  59 2.14  60 2.14  43 2.14  66 2.14
  31  0.500  0.250  0.550-  50 2.14  57 2.14  65 2.14  66 2.14  59 2.15  63 2.16
  32  0.750  0.500  0.550-  49 2.14  58 2.14  65 2.14  66 2.14  60 2.15  64 2.16
  33  0.500  0.500  0.650-  65 2.13  55 2.14  63 2.14  64 2.14  48 2.14
  34  0.750  0.250  0.650-  66 2.13  56 2.14  63 2.14  64 2.14  47 2.14
  35  0.000  0.750  0.450-   3 2.14   5 2.14   6 2.14  13 2.14  22 2.14   7 2.15
  36  0.250  0.000  0.450-   4 2.14   5 2.14   6 2.14  14 2.14  21 2.14   8 2.15
  37  0.000  0.000  0.350-   5 2.14   4 2.14   3 2.14  11 2.14  20 2.14
  38  0.250  0.750  0.350-   6 2.14   4 2.14   3 2.14  12 2.14  19 2.14
  39  0.000  0.750  0.651-   9 2.14  10 2.14  17 2.14  26 2.14   7 2.16
  40  0.250  0.000  0.651-   9 2.14  10 2.14  18 2.14  25 2.14   8 2.16
  41  0.000  0.000  0.550-   9 2.13   8 2.14   7 2.14  15 2.14  24 2.14   5 2.14
  42  0.250  0.750  0.550-  10 2.13   8 2.14   7 2.14  16 2.14  23 2.14   6 2.14
  43  0.000  0.250  0.450-  11 2.14   5 2.14  13 2.14  14 2.14  30 2.14  15 2.15
  44  0.250  0.500  0.450-  12 2.14   6 2.14  13 2.14  14 2.14  29 2.14  16 2.15
  45  0.000  0.500  0.350-  13 2.14  11 2.14  12 2.14   3 2.14  28 2.14
  46  0.250  0.250  0.350-  14 2.14  11 2.14  12 2.14   4 2.14  27 2.14
  47  0.000  0.250  0.651-   9 2.14  17 2.14  18 2.14  34 2.14  15 2.16
  48  0.250  0.500  0.651-  10 2.14  17 2.14  18 2.14  33 2.14  16 2.16
  49  0.000  0.500  0.550-  17 2.13  15 2.14  16 2.14   7 2.14  32 2.14  13 2.14
  50  0.250  0.250  0.550-  18 2.13  15 2.14  16 2.14   8 2.14  31 2.14  14 2.14
  51  0.500  0.750  0.450-  19 2.14   6 2.14  21 2.14  22 2.14  29 2.14  23 2.15
  52  0.750  0.000  0.450-  20 2.14   5 2.14  21 2.14  22 2.14  30 2.14  24 2.15
  53  0.500  0.000  0.350-  21 2.14  19 2.14  20 2.14   4 2.14  27 2.14
  54  0.750  0.750  0.350-  22 2.14  19 2.14  20 2.14   3 2.14  28 2.14
  55  0.500  0.750  0.651-  10 2.14  25 2.14  26 2.14  33 2.14  23 2.16
  56  0.750  0.000  0.651-   9 2.14  25 2.14  26 2.14  34 2.14  24 2.16
  57  0.500  0.000  0.550-  25 2.13  23 2.14  24 2.14   8 2.14  31 2.14  21 2.14
  58  0.750  0.750  0.550-  26 2.13  23 2.14  24 2.14   7 2.14  32 2.14  22 2.14
  59  0.500  0.250  0.450-  27 2.14  21 2.14  14 2.14  29 2.14  30 2.14  31 2.15
  60  0.750  0.500  0.450-  28 2.14  22 2.14  13 2.14  29 2.14  30 2.14  32 2.15
  61  0.500  0.500  0.350-  29 2.14  19 2.14  27 2.14  28 2.14  12 2.14
  62  0.750  0.250  0.350-  30 2.14  20 2.14  27 2.14  28 2.14  11 2.14
  63  0.500  0.250  0.651-  18 2.14  25 2.14  33 2.14  34 2.14  31 2.16
  64  0.750  0.500  0.651-  17 2.14  26 2.14  33 2.14  34 2.14  32 2.16
  65  0.500  0.500  0.550-  33 2.13  23 2.14  31 2.14  32 2.14  16 2.14  29 2.14
  66  0.750  0.250  0.550-  34 2.13  24 2.14  31 2.14  32 2.14  15 2.14  30 2.14

IMPORTANT INFORMATION: All symmetrisations will be switched off!
NOSYMM: (Re-)initialisation of all symmetry stuff for point group C_1.

                                     Primitive cell

  volume of cell :    1563.6717

  direct lattice vectors                    reciprocal lattice vectors
     8.546113626  0.000000000  0.000000000     0.117012252  0.000000000  0.000000000
     0.000000000  8.546113626  0.000000000     0.000000000  0.117012252  0.000000000
     0.000000000  0.000000000 21.409585219     0.000000000  0.000000000  0.046708051

  length of vectors
     8.546113626  8.546113626 21.409585219     0.117012252  0.117012252  0.046708051

  position of ions in fractional coordinates (direct lattice)
     0.641233788  0.500000000  0.746363907
     0.702582998  0.586569338  0.782265721
     0.000000000  0.750000000  0.350310383
     0.250000000  0.000000000  0.350310383
     0.000000000  0.000000000  0.450103461
     0.250000000  0.750000000  0.450103461
     0.000000000  0.750000000  0.550423065
     0.250000000  0.000000000  0.550423065
     0.000000000  0.000000000  0.649678241
     0.250000000  0.750000000  0.649678241
     0.000000000  0.250000000  0.350310383
     0.250000000  0.500000000  0.350310383
     0.000000000  0.500000000  0.450103461
     0.250000000  0.250000000  0.450103461
     0.000000000  0.250000000  0.550423065
     0.250000000  0.500000000  0.550423065
     0.000000000  0.500000000  0.649678241
     0.250000000  0.250000000  0.649678241
     0.500000000  0.750000000  0.350310383
     0.750000000  0.000000000  0.350310383
     0.500000000  0.000000000  0.450103461
     0.750000000  0.750000000  0.450103461
     0.500000000  0.750000000  0.550423065
     0.750000000  0.000000000  0.550423065
     0.500000000  0.000000000  0.649678241
     0.750000000  0.750000000  0.649678241
     0.500000000  0.250000000  0.350310383
     0.750000000  0.500000000  0.350310383
     0.500000000  0.500000000  0.450103461
     0.750000000  0.250000000  0.450103461
     0.500000000  0.250000000  0.550423065
     0.750000000  0.500000000  0.550423065
     0.500000000  0.500000000  0.649678241
     0.750000000  0.250000000  0.649678241
     0.000000000  0.750000000  0.450103461
     0.250000000  0.000000000  0.450103461
     0.000000000  0.000000000  0.350310383
     0.250000000  0.750000000  0.350310383
     0.000000000  0.750000000  0.651489980
     0.250000000  0.000000000  0.651489980
     0.000000000  0.000000000  0.550159231
     0.250000000  0.750000000  0.550159231
     0.000000000  0.250000000  0.450103461
     0.250000000  0.500000000  0.450103461
     0.000000000  0.500000000  0.350310383
     0.250000000  0.250000000  0.350310383
     0.000000000  0.250000000  0.651489980
     0.250000000  0.500000000  0.651489980
     0.000000000  0.500000000  0.550159231
     0.250000000  0.250000000  0.550159231
     0.500000000  0.750000000  0.450103461
     0.750000000  0.000000000  0.450103461
     0.500000000  0.000000000  0.350310383
     0.750000000  0.750000000  0.350310383
     0.500000000  0.750000000  0.651489980
     0.750000000  0.000000000  0.651489980
     0.500000000  0.000000000  0.550159231
     0.750000000  0.750000000  0.550159231
     0.500000000  0.250000000  0.450103461
     0.750000000  0.500000000  0.450103461
     0.500000000  0.500000000  0.350310383
     0.750000000  0.250000000  0.350310383
     0.500000000  0.250000000  0.651489980
     0.750000000  0.500000000  0.651489980
     0.500000000  0.500000000  0.550159231
     0.750000000  0.250000000  0.550159231

  ion indices of the primitive-cell ions
   primitive index   ion index
                 1           1
[...]
   0.00000000  0.00000000 13.90934166
   2.13652841  6.40958522 13.90934166
   0.00000000  2.13652841  7.50000000
   2.13652841  4.27305681  7.50000000
   0.00000000  4.27305681  9.63652841
   2.13652841  2.13652841  9.63652841
   0.00000000  2.13652841 11.78432951
   2.13652841  4.27305681 11.78432951
   0.00000000  4.27305681 13.90934166
   2.13652841  2.13652841 13.90934166
   4.27305681  6.40958522  7.50000000
   6.40958522  0.00000000  7.50000000
   4.27305681  0.00000000  9.63652841
   6.40958522  6.40958522  9.63652841
   4.27305681  6.40958522 11.78432951
   6.40958522  0.00000000 11.78432951
   4.27305681  0.00000000 13.90934166
   6.40958522  6.40958522 13.90934166
   4.27305681  2.13652841  7.50000000
   6.40958522  4.27305681  7.50000000
   4.27305681  4.27305681  9.63652841
   6.40958522  2.13652841  9.63652841
   4.27305681  2.13652841 11.78432951
   6.40958522  4.27305681 11.78432951
   4.27305681  4.27305681 13.90934166
   6.40958522  2.13652841 13.90934166
   0.00000000  6.40958522  9.63652841
   2.13652841  0.00000000  9.63652841
   0.00000000  0.00000000  7.50000000
   2.13652841  6.40958522  7.50000000
   0.00000000  6.40958522 13.94813025
   2.13652841  0.00000000 13.94813025
   0.00000000  0.00000000 11.77868095
   2.13652841  6.40958522 11.77868095
   0.00000000  2.13652841  9.63652841
   2.13652841  4.27305681  9.63652841
   0.00000000  4.27305681  7.50000000
   2.13652841  2.13652841  7.50000000
   0.00000000  2.13652841 13.94813025
   2.13652841  4.27305681 13.94813025
   0.00000000  4.27305681 11.77868095
   2.13652841  2.13652841 11.77868095
   4.27305681  6.40958522  9.63652841
   6.40958522  0.00000000  9.63652841
   4.27305681  0.00000000  7.50000000
   6.40958522  6.40958522  7.50000000
   4.27305681  6.40958522 13.94813025
   6.40958522  0.00000000 13.94813025
   4.27305681  0.00000000 11.77868095
   6.40958522  6.40958522 11.77868095
   4.27305681  2.13652841  9.63652841
   6.40958522  4.27305681  9.63652841
   4.27305681  4.27305681  7.50000000
   6.40958522  2.13652841  7.50000000
   4.27305681  2.13652841 13.94813025
   6.40958522  4.27305681 13.94813025
   4.27305681  4.27305681 11.77868095
   6.40958522  2.13652841 11.77868095

--------------------------------------- Iteration      FINAL  ---------------------------------------

--------------------OUTCAR has been truncated-------------------------

[...]

--------------------OUTCAR has been truncated-------------------------

  FORCE on cell =-STRESS in cart. coord.  units (eV):
  Direction    XX          YY          ZZ          XY          YZ          ZX
  Alpha Z   884.72509   884.72509   884.72509
  Ewald  153734.78295153829.83898************    92.75654   152.26382    98.68477
  Hartree164147.38481164187.32652************    34.86964    62.50451    44.53898
  E(xc)   -2570.58001 -2569.87467 -2572.57895     0.45377     0.90030     0.67191
  Local  ************************327170.05027  -113.31442  -199.67842  -141.72561
  n-local -2846.70991 -2850.82175 -2865.79307     0.00246    -3.02848    -4.43305
  augment  1085.60390  1085.79608  1076.49267    -0.70951    -0.42031     0.49055
  Kinetic  7535.55570  7533.84108  7561.23975   -13.95837   -12.59156     1.72388
  Fock        0.00000     0.00000     0.00000     0.00000     0.00000     0.00000
  Total     -30.34817   -30.17547    -2.45510     0.10010    -0.05013    -0.04857
  in kB     -31.09550   -30.91855    -2.51555     0.10257    -0.05137    -0.04977

 VOLUME and BASIS-vectors are now :
  energy-cutoff  :      600.00
  volume of cell :     1563.67
      direct lattice vectors                 reciprocal lattice vectors
     8.546113626  0.000000000  0.000000000     0.117012252  0.000000000  0.000000000
     0.000000000  8.546113626  0.000000000     0.000000000  0.117012252  0.000000000
     0.000000000  0.000000000 21.409585219     0.000000000  0.000000000  0.046708051

  length of vectors
     8.546113626  8.546113626 21.409585219     0.117012252  0.117012252  0.046708051

 FORCES acting on ions:
    Electron-Ion                     Ewald-Force                    Non-Local-Force
   0.975E+02 0.175E+03 -.118E+04   -.114E+03 -.204E+03 0.115E+04   0.169E+02 0.288E+02 0.237E+02
   -.963E+02 -.165E+03 -.155E+04   0.119E+03 0.204E+03 0.158E+04   -.223E+02 -.382E+02 -.367E+02
   -.264E+00 -.155E+00 0.202E+04   0.270E+00 0.159E+00 -.202E+04   -.430E-02 -.285E-02 -.640E+01
   0.143E+00 -.331E-01 0.202E+04   -.141E+00 0.336E-01 -.202E+04   -.182E-02 -.379E-03 -.641E+01
   -.837E+00 -.142E+00 0.701E+03   0.859E+00 0.152E+00 -.701E+03   -.156E-01 -.761E-02 0.414E+00
   0.594E+00 -.423E+00 0.702E+03   -.573E+00 0.424E+00 -.702E+03   -.139E-01 -.845E-03 0.420E+00
   -.451E+01 -.349E+01 -.612E+03   0.456E+01 0.348E+01 0.612E+03   -.451E-01 0.236E-03 -.292E+00
   0.278E+01 -.373E+00 -.616E+03   -.275E+01 0.379E+00 0.616E+03   -.235E-01 -.756E-02 -.248E+00
   -.106E+02 -.291E+01 -.194E+04   0.107E+02 0.293E+01 0.194E+04   -.132E+00 -.225E-01 0.561E+01
   0.141E+02 -.139E+02 -.193E+04   -.140E+02 0.141E+02 0.193E+04   -.736E-01 -.181E+00 0.563E+01
   -.259E+00 0.155E+00 0.202E+04   0.265E+00 -.159E+00 -.202E+04   -.375E-02 0.262E-02 -.641E+01
   0.167E+00 0.334E-01 0.202E+04   -.163E+00 -.338E-01 -.202E+04   -.311E-02 0.264E-03 -.640E+01
   -.174E+01 0.160E+00 0.702E+03   0.179E+01 -.166E+00 -.702E+03   -.280E-01 0.431E-02 0.515E+00
   0.560E+00 0.429E+00 0.702E+03   -.557E+00 -.427E+00 -.702E+03   -.146E-02 -.721E-03 0.389E+00
   -.390E+01 0.346E+01 -.614E+03   0.392E+01 -.346E+01 0.615E+03   -.120E-01 0.178E-02 -.301E+00
   0.477E+01 0.388E+00 -.611E+03   -.455E+01 -.396E+00 0.611E+03   -.212E+00 0.960E-02 -.302E+00
   -.239E+02 0.348E+01 -.192E+04   0.246E+02 -.351E+01 0.191E+04   -.688E+00 0.259E-01 0.562E+01
   0.142E+02 0.137E+02 -.194E+04   -.140E+02 -.139E+02 0.193E+04   -.158E+00 0.181E+00 0.564E+01
   0.265E+00 -.179E+00 0.202E+04   -.271E+00 0.181E+00 -.202E+04   0.399E-02 -.136E-02 -.642E+01
   -.143E+00 -.376E-01 0.202E+04   0.141E+00 0.388E-01 -.202E+04   0.160E-02 -.925E-03 -.639E+01
   0.852E+00 -.182E+00 0.703E+03   -.870E+00 0.175E+00 -.703E+03   0.129E-01 0.535E-02 0.308E+00
   -.593E+00 -.132E+01 0.703E+03   0.579E+00 0.135E+01 -.704E+03   0.964E-02 -.186E-01 0.483E+00
   0.475E+01 -.497E+01 -.606E+03   -.479E+01 0.489E+01 0.606E+03   0.428E-01 0.870E-01 -.591E+00
   -.284E+01 -.818E+00 -.609E+03   0.282E+01 0.889E+00 0.609E+03   0.252E-01 -.704E-01 -.243E+00
   0.113E+02 -.281E+01 -.193E+04   -.115E+02 0.292E+01 0.193E+04   0.129E+00 -.110E+00 0.562E+01
   -.192E+02 -.336E+02 -.189E+04   0.193E+02 0.346E+02 0.188E+04   -.920E-02 -.950E+00 0.582E+01
   0.259E+00 0.179E+00 0.202E+04   -.265E+00 -.181E+00 -.202E+04   0.376E-02 0.145E-02 -.642E+01
   -.167E+00 0.392E-01 0.202E+04   0.163E+00 -.399E-01 -.202E+04   0.319E-02 0.527E-03 -.637E+01
   0.175E+01 0.187E+00 0.703E+03   -.179E+01 -.182E+00 -.704E+03   0.282E-01 -.376E-02 0.500E+00
   -.568E+00 0.131E+01 0.703E+03   0.564E+00 -.133E+01 -.703E+03   0.197E-02 0.131E-01 0.478E+00
   0.412E+01 0.493E+01 -.606E+03   -.413E+01 -.484E+01 0.607E+03   0.108E-01 -.849E-01 -.819E+00
   -.494E+01 0.853E+00 -.598E+03   0.475E+01 -.915E+00 0.598E+03   0.194E+00 0.607E-01 0.656E+00
   0.462E+02 0.392E+01 -.186E+04   -.472E+02 -.388E+01 0.186E+04   0.912E+00 -.487E-01 0.476E+01
   -.189E+02 0.326E+02 -.190E+04   0.188E+02 -.335E+02 0.190E+04   0.271E-01 0.879E+00 0.574E+01
   -.778E+00 -.417E+00 0.526E+03   0.788E+00 0.431E+00 -.526E+03   -.155E-01 -.212E-01 -.857E-01
   0.507E+00 -.642E-01 0.525E+03   -.494E+00 0.666E-01 -.525E+03   -.203E-01 -.378E-02 -.737E-01
   -.162E+00 -.269E-01 0.152E+04   0.167E+00 0.282E-01 -.152E+04   -.695E-02 -.181E-02 0.357E+01
   0.113E+00 -.905E-01 0.152E+04   -.109E+00 0.929E-01 -.152E+04   -.542E-02 -.336E-02 0.357E+01
   -.159E+02 -.123E+02 -.146E+04   0.159E+02 0.123E+02 0.147E+04   -.189E-01 0.501E-01 -.495E+01
   0.550E+01 -.138E+01 -.148E+04   -.543E+01 0.139E+01 0.148E+04   -.641E-01 -.776E-02 -.493E+01
   -.261E+01 -.544E+00 -.457E+03   0.262E+01 0.543E+00 0.457E+03   -.906E-02 -.813E-04 0.235E+00
   0.243E+01 -.255E+01 -.454E+03   -.240E+01 0.257E+01 0.454E+03   -.322E-01 -.200E-01 0.287E+00
   -.759E+00 0.422E+00 0.526E+03   0.781E+00 -.443E+00 -.525E+03   -.309E-01 0.294E-01 -.109E+00
   0.732E+00 0.689E-01 0.526E+03   -.742E+00 -.744E-01 -.526E+03   0.103E-01 0.789E-02 -.779E-01
   -.240E+00 0.269E-01 0.152E+04   0.247E+00 -.284E-01 -.152E+04   -.105E-01 0.205E-02 0.358E+01
   0.112E+00 0.903E-01 0.152E+04   -.109E+00 -.928E-01 -.152E+04   -.363E-02 0.350E-02 0.357E+01
   -.125E+02 0.119E+02 -.147E+04   0.125E+02 -.119E+02 0.147E+04   0.172E-01 -.294E-01 -.493E+01
   0.158E+02 0.154E+01 -.146E+04   -.157E+02 -.155E+01 0.147E+04   -.113E+00 0.691E-02 -.486E+01
   -.400E+01 0.582E+00 -.453E+03   0.403E+01 -.580E+00 0.453E+03   -.283E-01 -.145E-02 0.332E+00
   0.255E+01 0.253E+01 -.454E+03   -.250E+01 -.255E+01 0.454E+03   -.460E-01 0.193E-01 0.290E+00
   0.796E+00 -.593E+00 0.526E+03   -.814E+00 0.634E+00 -.526E+03   0.259E-01 -.568E-01 -.148E+00
   -.506E+00 -.638E-01 0.527E+03   0.487E+00 0.541E-01 -.527E+03   0.276E-01 0.116E-01 -.244E-01
   0.162E+00 -.286E-01 0.152E+04   -.168E+00 0.286E-01 -.152E+04   0.721E-02 -.623E-05 0.357E+01
   -.114E+00 -.168E+00 0.152E+04   0.110E+00 0.173E+00 -.152E+04   0.579E-02 -.652E-02 0.358E+01
   0.200E+02 -.265E+02 -.144E+04   -.200E+02 0.263E+02 0.144E+04   -.101E-01 0.222E+00 -.499E+01
   -.611E+01 -.450E+01 -.147E+04   0.604E+01 0.458E+01 0.147E+04   0.690E-01 -.824E-01 -.495E+01
   0.265E+01 -.458E+00 -.451E+03   -.266E+01 0.475E+00 0.451E+03   0.826E-02 -.174E-01 0.238E+00
   -.258E+01 -.396E+01 -.447E+03   0.254E+01 0.399E+01 0.447E+03   0.358E-01 -.366E-01 0.412E+00
   0.766E+00 0.590E+00 0.526E+03   -.786E+00 -.629E+00 -.526E+03   0.290E-01 0.526E-01 -.144E+00
   -.731E+00 0.956E-01 0.529E+03   0.743E+00 -.970E-01 -.529E+03   -.124E-01 0.286E-02 0.575E-01
   0.240E+00 0.292E-01 0.152E+04   -.247E+00 -.290E-01 -.152E+04   0.102E-01 -.250E-03 0.358E+01
   -.112E+00 0.167E+00 0.152E+04   0.109E+00 -.172E+00 -.152E+04   0.352E-02 0.702E-02 0.358E+01
   0.162E+02 0.255E+02 -.144E+04   -.161E+02 -.253E+02 0.145E+04   -.680E-01 -.242E+00 -.504E+01
   -.322E+02 0.525E+01 -.139E+04   0.322E+02 -.517E+01 0.139E+04   -.432E-01 -.805E-01 -.415E+01
   0.437E+01 0.539E+00 -.452E+03   -.442E+01 -.560E+00 0.452E+03   0.552E-01 0.209E-01 -.307E+00
   -.267E+01 0.398E+01 -.451E+03   0.261E+01 -.402E+01 0.451E+03   0.554E-01 0.369E-01 0.208E+00
   0.561E+01 0.976E+01 0.276E+02   -.924E-13 0.167E-12 0.233E-11   -.561E+01 -.976E+01 -.276E+02

 POSITION                                       TOTAL-FORCE (eV/Angst)
      5.37971      4.13682     16.20402        -0.006029      0.001382     -0.004166
      5.83978      4.93025     16.95521        -0.000914     -0.003938     -0.000440
      0.00000      6.40959      7.50000         0.001529      0.001088      0.323013
      2.13653      0.00000      7.50000         0.000674      0.000111      0.325746
      0.00000      0.00000      9.63653         0.006040      0.002913      0.023186
      2.13653      6.40959      9.63653         0.006117     -0.000079      0.025879
      0.00189      6.41008     11.78439        -0.001352     -0.002813     -0.006369
      2.13767      0.00056     11.78142        -0.000159     -0.001295     -0.006393
      0.00455      0.00190     13.90836         0.002321     -0.000674     -0.003014
      2.14027      6.41462     13.90650        -0.001520      0.002819      0.004523
      0.00000      2.13653      7.50000         0.001407     -0.001076      0.324616
      2.13653      4.27306      7.50000         0.000836     -0.000130      0.323475
      0.00000      4.27306      9.63653         0.013149     -0.001417      0.025043
      2.13653      2.13653      9.63653         0.001459      0.000813      0.028231
      0.00017      2.13709     11.78525         0.000235      0.002874     -0.005078
      2.14272      4.27299     11.78609         0.001694      0.001499     -0.006077
      0.02133      4.27357     13.90807        -0.001352      0.000604      0.004173
      2.14031      2.13231     13.90449        -0.001039     -0.002400      0.003830
      4.27306      6.40959      7.50000        -0.001628      0.000750      0.326528
      6.40959      0.00000      7.50000        -0.000761      0.000217      0.321792
      4.27306      0.00000      9.63653        -0.004879     -0.001857      0.033624
      6.40959      6.40959      9.63653        -0.004038      0.010045      0.015499
      4.27234      6.40646     11.78799         0.001829     -0.000501     -0.001670
      6.40921      0.00283     11.78028         0.000415      0.000034     -0.008425
      4.27075      0.00196     13.90259        -0.000640     -0.000766      0.004481
      6.41148      6.43344     13.89804         0.001752     -0.000894      0.004391
      4.27306      2.13653      7.50000        -0.001594     -0.000838      0.326100
      6.40959      4.27306      7.50000        -0.001058     -0.000191      0.316794
      4.27306      4.27306      9.63653        -0.014217      0.000711      0.027844
      6.40959      2.13653      9.63653        -0.002009     -0.006895      0.015487
      4.27285      2.13957     11.78835         0.000358      0.000443     -0.000492
      6.40386      4.27210     11.77327        -0.001225     -0.000478      0.002301
      4.25872      4.27146     13.95621         0.000491      0.000443      0.005285
      6.40820      2.12196     13.91190         0.001908     -0.000784      0.004333
      0.00000      6.40959      9.63653        -0.005258     -0.006806      0.049215
      2.13653      0.00000      9.63653        -0.006532     -0.001409      0.039360
      0.00000      0.00000      7.50000        -0.002008     -0.000514     -0.397397
      2.13653      6.40959      7.50000        -0.001553     -0.000944     -0.398594
     -0.00035      6.41004     13.94628        -0.000073      0.000337      0.002077
      2.13521      0.00000     13.94289        -0.000460     -0.000673     -0.002693
     -0.00050      0.00040     11.77671         0.001352     -0.000700      0.003467
      2.13536      6.40857     11.77692        -0.000549      0.000550      0.005083
      0.00000      2.13653      9.63653        -0.009020      0.008935      0.046101
      2.13653      4.27306      9.63653        -0.000451      0.002425      0.061179
      0.00000      4.27306      7.50000        -0.003048      0.000557     -0.394456
      2.13653      2.13653      7.50000        -0.001056      0.000955     -0.399033
      0.00021      2.13845     13.94724        -0.000305     -0.001163     -0.000276
      2.13611      4.27387     13.94811         0.000038     -0.000022     -0.000124
     -0.00397      4.27378     11.78148         0.001615      0.000127      0.006885
      2.13402      2.13808     11.77556        -0.000492     -0.000894      0.004998
      4.27306      6.40959      9.63653         0.007907     -0.015571      0.047471
      6.40959      0.00000      9.63653         0.008211      0.001899      0.049834
      4.27306      0.00000      7.50000         0.001976     -0.000012     -0.399264
      6.40959      6.40959      7.50000         0.001558     -0.001863     -0.394686
      4.27717      6.41666     13.93765        -0.000076     -0.001436     -0.005101
      6.41315      0.00205     13.94121        -0.000001     -0.000910     -0.002033
      4.27437     -0.00112     11.77242        -0.001385     -0.000416      0.003737
      6.41188      6.40644     11.77839         0.000540      0.001270      0.005127
      4.27306      2.13653      9.63653         0.008469      0.014403      0.050586
      6.40959      4.27306      9.63653        -0.000604      0.001473      0.039619
      4.27306      4.27306      7.50000         0.002810     -0.000097     -0.396973
      6.40959      2.13653      7.50000         0.000913      0.001980     -0.395296
      4.27279      2.12808     13.92727         0.000379      0.000785     -0.006500
      6.42544      4.27730     13.95842         0.000056     -0.000140     -0.004001
      4.27704      4.27400     11.78490        -0.001278     -0.000139      0.003435
      6.41198      2.14106     11.77931         0.000526     -0.001706      0.004204
    total drift:                                0.003822      0.001225      0.027842

  FREE ENERGIE OF THE ION-ELECTRON SYSTEM (eV)
  free  energy   TOTEN  =      -235.92110177 eV

  energy  without entropy=     -235.92110177  energy(sigma->0) =     -235.92110177

 d Force = 0.1226539E-04[-0.120E-04, 0.365E-04]  d Energy = 0.9793803E-05 0.247E-05
 d Force =-0.9561584E+01[-0.956E+01,-0.956E+01]  d Ewald  =-0.9561587E+01 0.225E-05

 reached required accuracy - stopping structural energy minimisation