 vasp.6.3.0 20Jan22 (build Aug 21 2024 11:13:42) complex
 executed on        HPECrayEX_GCC date 2024.11.26  23:40:15

 INCAR:
   SYSTEM = TiO2
   ISMEAR = 0
   SIGMA = 0.05
   EDIFF = 1E-4
   ALGO = ALL
   ISTART = 0
   IBRION = -1
   NSW = 0
   ISYM = 0
   ISIF = 2
   EDIFFG = -0.01
   DIPOL = 0.5 0.5 0.5
   IDIPOL = 3
   LDIPOL = .TRUE.
   METAGGA = R2SCAN
   LUSE_VDW = .TRUE.
   BPARAM = 11.95
   CPARAM = 0.0093
   LASPH = .TRUE.
   ENCUT = 600
   PREC = Accurate
   LASPH = .TRUE.
   LREAL = .FALSE.
   ISPIN = 1
   NELM = 200
   NELMIN = 8
   NCORE = 16
   KPAR = 1
   LWAVE = .FALSE.
   LCHARG = .FALSE.

 POTCAR:    PAW_PBE N 08Apr2002
 POTCAR:    PAW_PBE H 15Jun2001
 POTCAR:    PAW_PBE Ti_pv 07Sep2000
 POTCAR:    PAW_PBE O 08Apr2002
|               ----> ADVICE to this user running VASP <----                  |
|     You have switched on vdW-DFT.                                           |
|     This routine was written and supplied by Jiri Klimes. We recommend      |
|     that you carefully read and cite the following publications:            |
|       J. Klimes, D.R. Bowler, A. Michelides                                 |
|          J. Phys.: Cond Matt. 22 022201 (2010)                              |
|       J. Klimes, D.R. Bowler, A. Michelides                                 |
|          Phys. Rev. B. 83, 195131 (2011)                                    |
|     and references therein.                                                 |

   TITEL  = PAW_PBE N 08Apr2002
   POMASS =   14.001; ZVAL   =    5.000    mass and valenz
   ENMAX  =  400.000; ENMIN  =  300.000 eV

   TITEL  = PAW_PBE H 15Jun2001
   POMASS =    1.000; ZVAL   =    1.000    mass and valenz
   ENMAX  =  250.000; ENMIN  =  200.000 eV

   TITEL  = PAW_PBE Ti_pv 07Sep2000
   POMASS =   47.880; ZVAL   =   10.000    mass and valenz
   ENMAX  =  222.335; ENMIN  =  166.751 eV

   TITEL  = PAW_PBE O 08Apr2002
   POMASS =   16.000; ZVAL   =    6.000    mass and valenz
   ENMAX  =  400.000; ENMIN  =  300.000 eV

  PAW_PBE N 08Apr2002                   :
  PAW_PBE H 15Jun2001                   :
  PAW_PBE Ti_pv 07Sep2000               :
  PAW_PBE O 08Apr2002                   :

 POSCAR:  N  H Ti  O
  positions in direct lattice

 METAGGA = R2SCA    LMAXTAU =  6    LMIXTAU =  F

 ion  position               nearest neighbor table
   1  0.610  0.500  0.779-   2 1.02   3 1.02   4 1.02  52 2.30
   2  0.547  0.500  0.807-   1 1.02
   3  0.669  0.428  0.781-   1 1.02
   4  0.669  0.572  0.781-   1 1.02
   5  0.817  0.833  0.295-  55 1.94  89 1.94  57 1.94  56 2.00  54 2.00  22 3.07   6 3.07   8 3.07

   6  0.600  0.667  0.326-  58 1.94 120 1.94  53 1.94  56 1.94  59 2.00  57 2.00  37 3.07   5 3.07
                             7 3.07  11 3.10
   7  0.317  0.667  0.295-  59 1.94 125 1.94  61 1.94  60 2.00  53 2.00  40 3.07   8 3.07   6 3.07

   8  0.100  0.833  0.326-  62 1.94  92 1.94  54 1.94  60 1.94  55 2.00  61 2.00  23 3.07   7 3.07
                             5 3.07   9 3.10
   9  0.951  0.833  0.422-  63 1.93  97 1.94  65 1.94  55 1.98  64 1.99  62 2.01  12 3.02  26 3.07
                            10 3.07   8 3.10
  10  0.732  0.666  0.451-  58 1.90 128 1.94  64 1.94  66 1.96  67 2.00  65 2.01  11 3.03   9 3.07
                            41 3.07  15 3.12
  11  0.450  0.666  0.422-  67 1.93 133 1.93  69 1.94  59 1.97  68 1.99  58 2.01  10 3.03  12 3.07
                            44 3.07   6 3.10
  12  0.231  0.833  0.451-  62 1.90  68 1.94 100 1.94  70 1.97  63 1.98  69 2.01   9 3.02  27 3.07
                            11 3.07  13 3.12
  13  0.089  0.833  0.550- 105 1.93  71 1.93  73 1.94  72 1.98  63 2.00  70 2.01  16 2.98  14 3.06
                            30 3.07  12 3.12
  14  0.868  0.666  0.575-  66 1.87 136 1.93  72 1.95  75 1.96  74 2.00  73 2.02  15 3.00  13 3.06
                            45 3.08
  15  0.588  0.666  0.549- 141 1.93  77 1.94  75 1.94  67 1.98  76 1.99  66 2.02  14 3.00  16 3.07
                            48 3.08  10 3.12
  16  0.367  0.833  0.576-  70 1.87 108 1.94  76 1.94  71 1.96  78 2.00  77 2.02  13 2.98  15 3.07
                            31 3.07
  17  0.233  0.833  0.680-  79 1.87  81 1.93 113 1.94  80 2.01  71 2.09  78 2.11  20 2.87  34 3.09
                            18 3.10
  18  0.002  0.666  0.700-  74 1.78  82 1.84 144 1.97  80 1.99  81 2.07  19 2.88  17 3.10  49 3.12

[...]

  21  0.817  0.167  0.295-  87 1.94  89 1.94 121 1.94  88 2.00  86 2.00  22 3.07  38 3.07  24 3.07

[...]

  37  0.817  0.500  0.295- 119 1.94  57 1.94 121 1.94 120 2.00 118 2.00  38 3.07   6 3.07  40 3.07

  38  0.600  0.333  0.326- 122 1.94 120 1.94 117 1.94  88 1.94 123 2.00 121 2.00  37 3.07  21 3.07
                            39 3.07  43 3.10
  39  0.317  0.333  0.295- 123 1.94 125 1.94  93 1.94 124 2.00 117 2.00  40 3.07  24 3.07  38 3.07

  40  0.100  0.500  0.326- 126 1.94 124 1.94  60 1.94 118 1.94 119 2.00 125 2.00   7 3.07  39 3.07
                            37 3.07  41 3.09
  41  0.952  0.500  0.422- 127 1.93  65 1.94 129 1.94 119 1.98 126 1.99 128 2.00  44 3.02  10 3.07
                            42 3.07  40 3.09
  42  0.732  0.334  0.451- 122 1.90 128 1.94  96 1.94 130 1.96 131 2.00 129 2.01  43 3.03  25 3.07
                            41 3.07  47 3.12
  43  0.450  0.334  0.422- 131 1.93 133 1.93 101 1.94 123 1.97 132 1.99 122 2.01  42 3.03  28 3.07
                            44 3.07  38 3.10
  44  0.232  0.500  0.453- 126 1.93 132 1.94  68 1.94 134 1.97 127 1.97 133 2.02  41 3.02  43 3.07
                            11 3.07  45 3.09
  45  0.092  0.500  0.550- 135 1.92 137 1.94  73 1.94 134 1.98 127 2.01 136 2.01  48 2.98  14 3.08
                            46 3.08  44 3.09
  46  0.868  0.334  0.575- 130 1.87 136 1.93 104 1.95 139 1.96 138 2.00 137 2.02  47 3.00  29 3.06
                            45 3.08
  47  0.588  0.334  0.549- 141 1.93 109 1.94 139 1.94 131 1.98 140 1.99 130 2.02  46 3.00  32 3.07
                            48 3.08  42 3.12
  48  0.369  0.500  0.580- 134 1.93  76 1.94 140 1.94 135 1.95 142 1.97 141 2.04  45 2.98  15 3.08
                            47 3.08  49 3.15
  49  0.236  0.500  0.681- 143 1.86 145 1.94  81 1.94 144 2.04 142 2.05 135 2.10  52 2.90  18 3.12
                            50 3.12  48 3.15
  50  0.002  0.334  0.700- 138 1.78 146 1.84 144 1.97 112 1.99 145 2.07  51 2.88  33 3.10  49 3.12

  51  0.731  0.333  0.678- 146 1.89 148 1.93 116 1.94 147 2.00 139 2.04 138 2.11  50 2.88  36 3.10
                            52 3.10
  52  0.508  0.500  0.706- 143 1.84 142 1.88  83 1.99 147 1.99 148 2.08   1 2.30  49 2.90  19 3.10
                            51 3.10
  53  0.496  0.667  0.269-   6 1.94   7 2.00
  54  0.996  0.833  0.269-   8 1.94   5 2.00
  55  0.920  0.833  0.352-   5 1.94   9 1.98   8 2.00
  56  0.637  0.833  0.321-  22 1.94   6 1.94   5 2.00
  57  0.779  0.667  0.300-  37 1.94   5 1.94   6 2.00
  58  0.629  0.667  0.395-  10 1.90   6 1.94  11 2.01
  59  0.420  0.667  0.352-   7 1.94  11 1.97   6 2.00
  60  0.137  0.667  0.321-  40 1.94   8 1.94   7 2.00
  61  0.279  0.833  0.300-  23 1.94   7 1.94   8 2.00
  62  0.129  0.833  0.395-  12 1.90   8 1.94   9 2.01
  63  0.056  0.834  0.479-   9 1.93  12 1.98  13 2.00
  64  0.771  0.833  0.447-  26 1.94  10 1.94   9 1.99
  65  0.914  0.667  0.427-   9 1.94  41 1.94  10 2.01
  66  0.766  0.666  0.520-  14 1.87  10 1.96  15 2.02
  67  0.555  0.666  0.479-  11 1.93  15 1.98  10 2.00
  68  0.271  0.667  0.447-  44 1.94  12 1.94  11 1.99
  69  0.413  0.833  0.427-  27 1.94  11 1.94  12 2.01
  70  0.267  0.833  0.521-  16 1.87  12 1.97  13 2.01
  71  0.197  0.833  0.607-  13 1.93  16 1.96  17 2.09
  72  0.908  0.833  0.573-  30 1.94  14 1.95  13 1.98
  73  0.053  0.667  0.553-  13 1.94  45 1.94  14 2.02
  74  0.914  0.667  0.645-  18 1.78  14 2.00  19 2.11
  75  0.698  0.668  0.606-  15 1.94  14 1.96  19 2.04
  76  0.409  0.667  0.574-  48 1.94  16 1.94  15 1.99
  77  0.552  0.833  0.553-  15 1.94  31 1.94  16 2.02
  78  0.413  0.836  0.646-  20 1.78  16 2.00  17 2.11
  79  0.349  0.833  0.731-  20 1.84  17 1.87
  80  0.055  0.833  0.708-  34 1.98  18 1.99  17 2.01
  81  0.195  0.666  0.681-  17 1.93  49 1.94  18 2.07
  82  0.845  0.664  0.731-  18 1.84  19 1.89
  83  0.555  0.669  0.707-  20 1.96  52 1.99  19 2.00
  84  0.696  0.834  0.679-  35 1.93  19 1.94  20 2.07
  85  0.496  0.000  0.269-  22 1.94  23 2.00
  86  0.996  0.167  0.269-  24 1.94  21 2.00
  87  0.920  0.167  0.352-  21 1.94  25 1.98  24 2.00
  88  0.637  0.167  0.321-  22 1.94  38 1.94  21 2.00
  89  0.779  0.000  0.300-   5 1.94  21 1.94  22 2.00
  90  0.629  0.000  0.395-  26 1.90  22 1.94  27 2.01
  91  0.420  0.000  0.352-  23 1.94  27 1.98  22 2.00
  92  0.137  0.000  0.321-   8 1.94  24 1.94  23 2.00
  93  0.279  0.167  0.300-  23 1.94  39 1.94  24 2.00
  94  0.129  0.167  0.395-  28 1.90  24 1.94  25 2.01
  95  0.056  0.166  0.479-  25 1.93  28 1.98  29 2.00
  96  0.771  0.167  0.447-  26 1.94  42 1.94  25 1.99
  97  0.914  0.000  0.427-  25 1.94   9 1.94  26 2.01
  98  0.767  1.000  0.520-  30 1.87  26 1.97  31 2.02
  99  0.556  1.000  0.479-  27 1.93  26 1.99  31 1.99
 100  0.271  0.000  0.447-  12 1.94  28 1.94  27 1.99
 101  0.413  0.167  0.427-  27 1.94  43 1.94  28 2.01
 102  0.267  0.167  0.521-  32 1.87  28 1.97  29 2.01
 103  0.197  0.167  0.607-  29 1.93  32 1.96  33 2.09
 104  0.908  0.167  0.573-  30 1.94  46 1.95  29 1.98
 105  0.054  1.000  0.554-  29 1.93  13 1.93  30 2.03
 106  0.914  0.000  0.646-  34 1.78  30 2.01  35 2.10
 107  0.697  1.000  0.606-  31 1.93  30 1.95  35 2.10
 108  0.408  0.000  0.573-  16 1.94  32 1.94  31 1.99
 109  0.552  0.167  0.553-  47 1.94  31 1.94  32 2.02
 110  0.413  0.164  0.646-  36 1.78  32 2.00  33 2.11
 111  0.349  0.167  0.731-  36 1.84  33 1.87
 112  0.055  0.167  0.708-  34 1.98  50 1.99  33 2.01
[...]
 134  0.268  0.500  0.522-  48 1.93  44 1.97  45 1.98
 135  0.196  0.500  0.607-  45 1.92  48 1.95  49 2.10
 136  0.908  0.500  0.573-  14 1.93  46 1.93  45 2.01
 137  0.053  0.333  0.553-  29 1.94  45 1.94  46 2.02
 138  0.914  0.333  0.645-  50 1.78  46 2.00  51 2.11
 139  0.698  0.332  0.606-  47 1.94  46 1.96  51 2.04
 140  0.409  0.333  0.574-  48 1.94  32 1.94  47 1.99
 141  0.553  0.500  0.554-  15 1.93  47 1.93  48 2.04
 142  0.413  0.500  0.648-  52 1.88  48 1.97  49 2.05
 143  0.347  0.500  0.734-  52 1.84  49 1.86
 144  0.054  0.500  0.708-  50 1.97  18 1.97  49 2.04
 145  0.195  0.334  0.681-  33 1.93  49 1.94  50 2.07
 146  0.845  0.336  0.731-  50 1.84  51 1.89
 147  0.555  0.331  0.707-  36 1.96  52 1.99  51 2.00
 148  0.693  0.500  0.678-  19 1.93  51 1.93  52 2.08

IMPORTANT INFORMATION: All symmetrisations will be switched off!
NOSYMM: (Re-)initialisation of all symmetry stuff for point group C_1.

                                     Primitive cell

  volume of cell :    3293.6692

  direct lattice vectors                    reciprocal lattice vectors
    10.375787277  0.000000000  0.000000000     0.096378229 -0.000000000  0.000000000
     0.000000000 11.367280081  0.000000000     0.000000000  0.087971792  0.000000000
     0.000000000  0.000000000 27.925590326     0.000000000  0.000000000  0.035809449

  length of vectors
[...]
   5.14762901  7.57818672  7.50000000
  10.33552265  9.47273340  7.50000000
   9.54961578  9.47273340  9.84339674
   6.60973790  9.47273340  8.96154727
   8.08750690  7.57818672  8.38184947
   6.53135327  7.57818672 11.02739786
   4.36172215  7.57818672  9.84339674
   1.42184426  7.57818672  8.96154727
[...]
   2.77710438  5.68363998 14.57041602
   2.03774007  5.68363993 16.95831148
   9.42509039  5.68364001 15.99588593
   0.55386712  3.79065083 15.44966038
   9.48826057  3.78519852 18.01647602
   7.24198783  3.77663991 16.91541092
   4.24140350  3.79005612 16.03132425
   5.73666957  5.68364014 15.47342260
   4.28489775  5.68364044 18.10490338
   3.59686589  5.68364010 20.48713932
   0.56003638  5.68363997 19.78519264
   2.02659109  3.79292676 19.02129606
   8.77064343  3.81756474 20.40167654
   5.76274056  3.75938384 19.74297073
   7.19385146  5.68364028 18.93785868

--------------------------------------- Iteration      FINAL  ---------------------------------------

--------------------OUTCAR has been truncated-------------------------

[...]

--------------------OUTCAR has been truncated-------------------------

  FORCE on cell =-STRESS in cart. coord.  units (eV):
  Direction    XX          YY          ZZ          XY          YZ          ZX
  Alpha Z  2418.51080  2418.51080  2418.51080
  Ewald  481490.39829474786.32801************    -0.00033    -0.00003 -1854.65629
  Hartree502696.93940498631.02378************    -0.00016     0.00001 -1237.29783
  E(xc)   -5503.41983 -5502.81094 -5500.87461     0.00000     0.00001    -0.90746
  Local  ************************993049.31919     0.00034    -0.00014  3089.58905
  n-local -3143.44129 -3113.12455 -3158.34999    -0.00004    -0.00003     4.09516
  augment  3307.22119  3305.08790  3299.89215     0.00008    -0.00001    -1.06974
  Kinetic 17143.12979 17219.66713 17281.33351     0.00012     0.00027    -5.46901
  Fock        0.00000     0.00000     0.00000     0.00000     0.00000     0.00000
  Total     -90.27141   -46.02305   -40.55975     0.00002     0.00009    -5.71613
  in kB     -43.91176   -22.38752   -19.72994     0.00001     0.00004    -2.78056

 VOLUME and BASIS-vectors are now :
  energy-cutoff  :      600.00
  volume of cell :     3293.67
      direct lattice vectors                 reciprocal lattice vectors
    10.375787277  0.000000000  0.000000000     0.096378229 -0.000000000  0.000000000
     0.000000000 11.367280081  0.000000000     0.000000000  0.087971792  0.000000000
     0.000000000  0.000000000 27.925590326     0.000000000  0.000000000  0.035809449

  length of vectors
    10.375787277 11.367280081 27.925590326     0.096378229  0.087971792  0.035809449

 FORCES acting on ions:
    Electron-Ion                     Ewald-Force                    Non-Local-Force
   -.162E+02 0.258E-04 -.174E+04   0.662E+01 -.191E-04 0.172E+04   0.968E+01 0.721E-05 0.183E+02
   0.432E+02 -.154E-05 -.368E+03   -.479E+02 0.169E-05 0.373E+03   0.488E+01 -.721E-06 -.561E+01
   -.423E+02 0.551E+02 -.351E+03   0.466E+02 -.609E+02 0.351E+03   -.441E+01 0.597E+01 -.377E+00
   -.423E+02 -.551E+02 -.351E+03   0.466E+02 0.609E+02 0.351E+03   -.441E+01 -.597E+01 -.377E+00
   0.475E+01 0.227E-02 0.334E+04   0.386E+00 -.354E-02 -.333E+04   -.111E+01 0.215E-03 -.355E+01
   0.491E+01 -.144E+00 0.274E+04   -.659E+01 0.144E+00 -.275E+04   -.787E-01 -.790E-03 -.776E-01
   0.479E+01 0.138E+00 0.334E+04   0.318E+00 -.145E+00 -.333E+04   -.110E+01 0.171E-02 -.355E+01
   0.368E+01 0.113E+00 0.274E+04   -.540E+01 -.122E+00 -.275E+04   -.718E-01 0.188E-02 -.816E-01
   -.787E+00 0.314E+00 0.125E+04   0.634E+00 -.311E+00 -.125E+04   0.153E+00 -.264E-02 -.706E-02
   0.838E+00 -.172E+01 0.793E+03   -.796E+00 0.170E+01 -.793E+03   -.208E-01 0.232E-01 -.111E+00
   0.945E+00 -.450E+00 0.125E+04   -.110E+01 0.445E+00 -.125E+04   0.151E+00 0.111E-01 -.218E-01
   -.421E+01 0.213E+00 0.787E+03   0.424E+01 -.215E+00 -.787E+03   0.601E-02 0.200E-02 -.122E+00
   -.601E+01 -.223E+01 -.773E+03   0.573E+01 0.222E+01 0.773E+03   0.295E+00 0.839E-02 0.106E+00
   -.978E+01 -.476E+01 -.116E+04   0.989E+01 0.477E+01 0.116E+04   -.370E-01 0.287E-02 -.193E+00
   0.320E+00 -.171E+01 -.750E+03   -.568E+00 0.170E+01 0.750E+03   0.267E+00 0.592E-02 0.803E-01
   -.218E+00 -.676E+00 -.118E+04   0.325E+00 0.701E+00 0.118E+04   -.412E-01 -.183E-01 -.251E+00
   0.267E+02 -.106E+02 -.276E+04   -.276E+02 0.106E+02 0.276E+04   0.946E+00 0.790E-02 -.183E+00
   -.844E+02 -.202E+02 -.314E+04   0.844E+02 0.200E+02 0.314E+04   0.146E+00 0.133E+00 0.857E+00
   -.115E+02 -.377E+02 -.268E+04   0.106E+02 0.377E+02 0.268E+04   0.901E+00 -.161E-01 -.364E-01
   -.594E+02 -.330E+02 -.313E+04   0.593E+02 0.329E+02 0.313E+04   0.185E+00 0.518E-01 0.860E+00
   0.475E+01 -.218E-02 0.334E+04   0.386E+00 0.353E-02 -.333E+04   -.111E+01 -.213E-03 -.355E+01
   0.492E+01 -.174E-04 0.274E+04   -.663E+01 -.336E-05 -.275E+04   -.734E-01 0.172E-04 -.820E-01
   0.467E+01 -.913E-04 0.334E+04   0.457E+00 -.466E-05 -.333E+04   -.111E+01 0.261E-04 -.355E+01
   0.368E+01 -.113E+00 0.274E+04   -.540E+01 0.122E+00 -.275E+04   -.718E-01 -.191E-02 -.816E-01
   -.787E+00 -.314E+00 0.125E+04   0.634E+00 0.311E+00 -.125E+04   0.153E+00 0.266E-02 -.706E-02
   -.129E+01 -.126E-04 0.791E+03   0.131E+01 0.700E-05 -.790E+03   0.145E-01 -.120E-04 -.122E+00
   0.940E+00 -.246E-04 0.125E+04   -.109E+01 0.133E-04 -.125E+04   0.147E+00 0.263E-04 -.212E-01
   -.421E+01 -.213E+00 0.787E+03   0.424E+01 0.215E+00 -.787E+03   0.601E-02 -.202E-02 -.122E+00
   -.601E+01 0.223E+01 -.773E+03   0.573E+01 -.222E+01 0.773E+03   0.295E+00 -.838E-02 0.106E+00
   -.946E+01 -.245E-04 -.118E+04   0.954E+01 0.171E-04 0.118E+04   -.607E-02 -.159E-05 -.203E+00
   -.451E+01 -.101E-03 -.765E+03   0.422E+01 0.846E-04 0.764E+03   0.307E+00 0.204E-05 0.149E+00
   -.218E+00 0.676E+00 -.118E+04   0.325E+00 -.701E+00 0.118E+04   -.412E-01 0.183E-01 -.251E+00
   0.267E+02 0.106E+02 -.276E+04   -.276E+02 -.106E+02 0.276E+04   0.946E+00 -.790E-02 -.183E+00
   -.739E+02 -.829E-04 -.315E+04   0.739E+02 0.874E-04 0.315E+04   0.111E+00 0.114E-04 0.870E+00
   0.106E+02 -.738E-04 -.275E+04   -.114E+02 0.975E-04 0.275E+04   0.882E+00 0.493E-05 -.134E+00
   -.594E+02 0.330E+02 -.313E+04   0.593E+02 -.329E+02 0.313E+04   0.185E+00 -.518E-01 0.860E+00
   0.475E+01 -.622E-05 0.334E+04   0.411E+00 0.292E-05 -.333E+04   -.111E+01 -.456E-05 -.354E+01
   0.491E+01 0.144E+00 0.274E+04   -.659E+01 -.144E+00 -.275E+04   -.787E-01 0.788E-03 -.775E-01
   0.479E+01 -.138E+00 0.334E+04   0.318E+00 0.145E+00 -.333E+04   -.110E+01 -.172E-02 -.355E+01
   0.282E+01 -.383E-04 0.274E+04   -.449E+01 0.968E-05 -.274E+04   -.861E-01 -.142E-04 -.833E-01
   0.156E+01 0.309E-04 0.125E+04   -.169E+01 -.392E-04 -.125E+04   0.119E+00 -.496E-05 0.315E-01
   0.838E+00 0.172E+01 0.793E+03   -.796E+00 -.170E+01 -.793E+03   -.208E-01 -.232E-01 -.111E+00
   0.945E+00 0.450E+00 0.125E+04   -.110E+01 -.445E+00 -.125E+04   0.151E+00 -.111E-01 -.218E-01
   -.778E+01 -.183E-04 0.769E+03   0.780E+01 0.449E-04 -.769E+03   0.190E-02 0.109E-04 -.444E-01
   -.195E+01 0.616E-05 -.775E+03   0.174E+01 -.368E-05 0.775E+03   0.191E+00 0.192E-04 0.126E+00
   -.978E+01 0.476E+01 -.116E+04   0.989E+01 -.477E+01 0.116E+04   -.370E-01 -.288E-02 -.193E+00
   0.320E+00 0.171E+01 -.750E+03   -.568E+00 -.170E+01 0.750E+03   0.267E+00 -.592E-02 0.803E-01
   -.817E+00 0.123E-04 -.122E+04   0.906E+00 -.150E-04 0.122E+04   -.437E-01 0.837E-06 -.180E+00
   0.461E+02 0.246E-04 -.276E+04   -.467E+02 -.167E-04 0.276E+04   0.622E+00 0.928E-05 -.572E-01
   -.844E+02 0.202E+02 -.314E+04   0.844E+02 -.200E+02 0.314E+04   0.146E+00 -.133E+00 0.857E+00
   -.115E+02 0.377E+02 -.268E+04   0.106E+02 -.377E+02 0.268E+04   0.901E+00 0.161E-01 -.364E-01
   0.116E+02 0.637E-04 -.309E+04   -.112E+02 -.637E-04 0.309E+04   -.373E+00 0.147E-05 -.267E+00
   -.311E+02 -.235E-01 0.225E+04   0.360E+02 0.229E-01 -.227E+04   -.688E+01 0.910E-03 0.178E+02
   -.314E+02 -.124E-01 0.225E+04   0.363E+02 0.985E-02 -.227E+04   -.687E+01 0.331E-02 0.178E+02
   0.795E+02 0.138E+00 0.137E+04   -.839E+02 -.137E+00 -.137E+04   0.340E+01 -.346E-02 -.419E+01
   0.727E+02 0.101E-01 0.167E+04   -.794E+02 -.977E-02 -.167E+04   0.715E+01 -.211E-03 -.252E+01
   -.844E+02 -.354E-01 0.192E+04   0.912E+02 0.325E-01 -.192E+04   -.657E+01 0.578E-02 -.587E+00
   -.676E+02 -.868E+00 0.105E+04   0.728E+02 0.925E+00 -.105E+04   -.537E+01 -.545E-01 0.416E+01
   0.802E+02 0.193E-01 0.137E+04   -.846E+02 0.350E-02 -.137E+04   0.339E+01 -.244E-01 -.407E+01
   0.719E+02 0.126E+00 0.167E+04   -.786E+02 -.138E+00 -.167E+04   0.717E+01 0.256E-01 -.254E+01
[...]
   0.867E+02 -.989E-05 -.106E+04   -.933E+02 -.355E-04 0.107E+04   0.673E+01 0.140E-04 -.750E+01
   0.686E+02 0.804E-04 -.702E+03   -.742E+02 -.766E-04 0.704E+03   0.563E+01 0.761E-05 -.277E+01
   -.798E+02 0.534E+00 -.459E+03   0.857E+02 -.527E+00 0.456E+03   -.604E+01 -.248E-02 0.255E+01
   -.644E+02 0.941E+01 -.127E+04   0.662E+02 -.972E+01 0.126E+04   -.193E+01 0.312E+00 0.966E+01
   0.799E+02 0.881E+01 -.103E+04   -.861E+02 -.911E+01 0.104E+04   0.617E+01 0.303E+00 -.572E+01
   0.783E+02 0.439E+00 -.716E+03   -.843E+02 -.442E+00 0.719E+03   0.614E+01 0.130E-02 -.298E+01
   -.711E+02 0.581E-04 -.464E+03   0.767E+02 -.722E-04 0.461E+03   -.569E+01 0.120E-04 0.214E+01
   -.599E+02 -.452E-04 -.130E+04   0.653E+02 0.605E-04 0.129E+04   -.545E+01 -.117E-04 0.590E+01
   0.106E+03 0.227E-04 -.224E+04   -.112E+03 -.176E-04 0.226E+04   0.588E+01 -.313E-04 -.210E+02
   0.453E+02 0.180E-04 -.199E+04   -.486E+02 -.177E-04 0.200E+04   0.333E+01 0.679E-05 -.764E+01
   -.487E+02 0.656E+01 -.164E+04   0.533E+02 -.639E+01 0.164E+04   -.466E+01 -.179E+00 0.285E+01
   0.128E+02 0.291E+02 -.224E+04   -.182E+02 -.290E+02 0.226E+04   0.548E+01 -.101E+00 -.203E+02
   0.754E+02 0.451E+02 -.193E+04   -.801E+02 -.446E+02 0.193E+04   0.474E+01 -.438E+00 -.655E+01
   -.675E+02 0.852E-04 -.155E+04   0.715E+02 -.967E-04 0.155E+04   -.406E+01 0.229E-04 0.436E+01
   -.173E+02 -.799E-05 0.598E+02   -.455E-12 -.554E-12 0.182E-10   0.173E+02 -.605E-04 -.597E+02

 POSITION                                       TOTAL-FORCE (eV/Angst)
      6.33003      5.68364     21.74495         0.054236      0.000014      0.004861
      5.67738      5.68364     22.52981         0.145616     -0.000000     -0.168345
      6.93707      4.86276     21.82114        -0.134843      0.183469     -0.010251
      6.93707      6.50452     21.82114        -0.134849     -0.183477     -0.010250
      8.47263      9.47273      8.23077         4.008417     -0.001042      1.930746
      6.22461      7.57819      9.11262        -1.747161     -0.000346     -2.006261
      3.28474      7.57819      8.23077         3.981566     -0.005398      1.918510
      1.03672      9.47273      9.11262        -1.773089     -0.007457     -2.011299
      9.86522      9.47302     11.79680         0.001861      0.001148     -0.032118
      7.59580      7.57333     12.59938         0.015223      0.004386      0.025950
      4.67286      7.57504     11.79370         0.002286      0.005032     -0.028206
      2.40031      9.47210     12.60734         0.022182      0.000410      0.025731
      0.92798      9.47413     15.35948         0.006923     -0.002212     -0.025748
      9.01014      7.57142     16.07014         0.047715      0.013066      0.053147
      6.10478      7.57526     15.34087         0.017642      0.001836     -0.018896
      3.81124      9.47274     16.09319         0.044691      0.007263      0.043814
      2.41577      9.46546     18.99567         0.079161      0.009181      0.030132
      0.02566      7.56682     19.54672        -0.009172     -0.006106      0.048203
      7.58948      7.57768     18.92663         0.069001     -0.010620      0.036383
      5.23314      9.48924     19.54119        -0.002414     -0.008452      0.038029
      8.47263      1.89455      8.23077         4.008519      0.001133      1.930683
      6.22461      0.00000      9.11262        -1.763100     -0.000003     -2.011471
      3.28474      0.00000      8.23077         4.000737     -0.000070      1.926164
      1.03672      1.89455      9.11262        -1.773174      0.007424     -2.011286
      9.86522      1.89426     11.79680         0.001829     -0.001091     -0.032105
      7.59203     11.36728     12.60062         0.021993     -0.000017      0.038523
      4.67487      0.00000     11.79655        -0.001164      0.000016     -0.028785
      2.40031      1.89518     12.60734         0.022146     -0.000488      0.025800
      0.92798      1.89315     15.35948         0.006991      0.002212     -0.025747
      8.99801     11.36728     16.08327         0.047304     -0.000009      0.040344
      6.11066      0.00000     15.34938         0.015158     -0.000014     -0.028045
      3.81124      1.89454     16.09319         0.044639     -0.007267      0.043830
      2.41577      1.90182     18.99567         0.079182     -0.009147      0.030072
      0.04758     11.36728     19.54927        -0.017616      0.000016      0.039398
      7.62059     11.36728     18.98199         0.076617      0.000030      0.026662
      5.23314      1.87804     19.54119        -0.002487      0.008483      0.038281
      8.47263      5.68364      8.23077         4.024030     -0.000007      1.930470
      6.22461      3.78909      9.11262        -1.747204      0.000371     -2.006404
      3.28474      3.78909      8.23077         3.981630      0.005399      1.918522
      1.03672      5.68364      9.11262        -1.746390     -0.000042     -1.935195
      9.88082      5.68364     11.79252        -0.005021     -0.000013     -0.038165
      7.59580      3.79395     12.59938         0.015286     -0.004399      0.025979
      4.67286      3.79224     11.79370         0.002296     -0.005016     -0.028164
      2.40305      5.68364     12.63797         0.014703      0.000038      0.011036
      0.95908      5.68364     15.36696        -0.005955      0.000022     -0.032788
      9.01014      3.79586     16.07014         0.047755     -0.013076      0.053192
      6.10478      3.79202     15.34087         0.017685     -0.001783     -0.018869
      3.82886      5.68364     16.18439         0.029266     -0.000001      0.001453
      2.45275      5.68364     19.01664         0.082970      0.000018      0.018634
      0.02566      3.80046     19.54672        -0.009270      0.006033      0.048095
      7.58948      3.78960     18.92663         0.069064      0.010617      0.036397
      5.26577      5.68364     19.71127         0.015563      0.000002      0.060343
      5.14763      7.57819      7.50000        -1.930483      0.000383      1.291084
     10.33552      9.47273      7.50000        -1.927592      0.000717      1.287651
      9.54962      9.47273      9.84340        -0.937612     -0.002352     -0.164321
      6.60974      9.47273      8.96155         0.467326      0.000108     -0.087391
      8.08751      7.57819      8.38185         0.202515      0.002916     -1.078816
      6.53135      7.57819     11.02740        -0.148632      0.002928      0.433663
      4.36172      7.57819      9.84340        -0.943011     -0.001566     -0.153944
      1.42184      7.57819      8.96155         0.477447      0.014101     -0.096143
[...]
      2.77710      5.68364     14.57042        -0.082185     -0.000001      0.043225
      2.03774      5.68364     16.95831         0.073338     -0.000031     -0.028688
      9.42509      5.68364     15.99589         0.062944      0.000012     -0.030314
      0.55387      3.79065     15.44966        -0.076599      0.003781      0.026269
      9.48826      3.78520     18.01648        -0.108079      0.002906     -0.010216
      7.24199      3.77664     16.91541         0.054546      0.002861     -0.038780
      4.24140      3.79006     16.03132         0.058336     -0.001036     -0.029536
      5.73667      5.68364     15.47342        -0.077713     -0.000002      0.028663
      4.28490      5.68364     18.10490        -0.103911      0.000004      0.032993
      3.59687      5.68364     20.48714         0.067020     -0.000026     -0.267248
      0.56004      5.68364     19.78519         0.045218      0.000007     -0.126008
      2.02659      3.79293     19.02130        -0.082310     -0.007703      0.031335
      8.77064      3.81756     20.40168         0.041412      0.005666     -0.277221
      5.76274      3.75938     19.74297         0.053768     -0.002341     -0.098863
      7.19385      5.68364     18.93786        -0.069846      0.000012      0.086090
    total drift:                                0.014218     -0.000069      0.054996

  FREE ENERGIE OF THE ION-ELECTRON SYSTEM (eV)
  free  energy   TOTEN  =     -1645.67777324 eV

  energy  without entropy=    -1645.67777324  energy(sigma->0) =    -1645.67777324