 vasp.6.3.0 20Jan22 (build Mar 11 2022 13:48:16) complex

 executed on             LinuxIFC date 2024.02.13  04:19:51

 INCAR:
   SYSTEM = Oxide-Surface
   ISMEAR = 0
   SIGMA = 0.05
   EDIFF = 1E-5
   ALGO = ALL
   ISTART = 0
   IBRION = -1
   NSW = 0
   ISYM = 2
   DIPOL = 0.5 0.5 0.5
   IDIPOL = 3
   LDIPOL = .TRUE.
   GGA = PE
   IVDW = 263
   ENCUT = 600
   PREC = Accurate
   LASPH = .TRUE.
   LREAL = .FALSE.
   ISPIN = 1
   NELM = 200
   NELMIN = 8
   NCORE = 19
   KPAR = 1
   LWAVE = .FALSE.
   LCHARG = .FALSE.

 POTCAR:    PAW_PBE H 15Jun2001
 POTCAR:    PAW_PBE O 08Apr2002
 POTCAR:    PAW_PBE Mg_pv 13Apr2007
 POTCAR:    PAW_PBE O 08Apr2002
 POTCAR:    PAW_PBE H 15Jun2001
   VRHFIN =H: ultrasoft test

   TITEL  = PAW_PBE H 15Jun2001
   POMASS =    1.000; ZVAL   =    1.000    mass and valenz
   ENMAX  =  250.000; ENMIN  =  200.000 eV

   TITEL  = PAW_PBE O 08Apr2002
   POMASS =   16.000; ZVAL   =    6.000    mass and valenz
   ENMAX  =  400.000; ENMIN  =  300.000 eV

   TITEL  = PAW_PBE Mg_pv 13Apr2007
   POMASS =   24.305; ZVAL   =    8.000    mass and valenz
   ENMAX  =  403.929; ENMIN  =  302.947 eV

   TITEL  = PAW_PBE O 08Apr2002
   POMASS =   16.000; ZVAL   =    6.000    mass and valenz
   ENMAX  =  400.000; ENMIN  =  300.000 eV

  PAW_PBE H 15Jun2001                   :
  PAW_PBE O 08Apr2002                   :
  PAW_PBE Mg_pv 13Apr2007               :
  PAW_PBE O 08Apr2002                   :

 POSCAR:  H  O Mg  O
  positions in direct lattice
 exchange correlation table for  LEXCH =        8
   RHO(1)=    0.500       N(1)  =     2000
   RHO(2)=  100.500       N(2)  =     4000

 ion  position               nearest neighbor table
   1  0.617  0.554  0.767-   3 0.97
   2  0.510  0.673  0.728-   3 1.01
   3  0.508  0.572  0.754-   1 0.97   2 1.01  34 2.25
   4  0.000  0.750  0.352-  36 2.11  38 2.11  39 2.11  46 2.11  55 2.11
   5  0.250  0.000  0.352-  37 2.11  38 2.11  39 2.11  47 2.11  54 2.11
   6  0.000  0.000  0.451-  38 2.11  37 2.11  36 2.11  44 2.11  53 2.11  42 2.11
   7  0.250  0.750  0.451-  39 2.11  37 2.11  36 2.11  45 2.11  52 2.11  43 2.12
   8  0.000  0.750  0.550-  50 2.11  42 2.11  43 2.11  36 2.12  59 2.12  40 2.15
   9  0.250  0.000  0.550-  51 2.11  43 2.11  58 2.11  42 2.11  37 2.12  41 2.15
  10  0.000  0.000  0.649-  48 2.10  41 2.10  57 2.11  42 2.11  40 2.11
  11  0.248  0.750  0.648-  40 2.09  43 2.10  49 2.11  41 2.11  56 2.13
  12  0.000  0.250  0.352-  44 2.11  38 2.11  46 2.11  47 2.11  63 2.11
  13  0.250  0.500  0.352-  45 2.11  39 2.11  46 2.11  47 2.11  62 2.11
  14  0.000  0.500  0.451-  46 2.11  44 2.11  45 2.11  36 2.11  61 2.11  50 2.11
  15  0.250  0.250  0.451-  47 2.11  44 2.11  45 2.11  37 2.11  60 2.11  51 2.12
  16  0.000  0.250  0.550-  51 2.11  50 2.11  67 2.11  42 2.11  44 2.12  48 2.15
  17  0.251  0.500  0.550-  66 2.11  51 2.11  43 2.11  49 2.12  50 2.12  45 2.13
  18  0.000  0.500  0.648-  49 2.09  65 2.10  50 2.11  48 2.11  40 2.12
  19  0.249  0.250  0.649-  48 2.10  41 2.11  51 2.11  49 2.11  64 2.12
  20  0.500  0.750  0.352-  52 2.11  39 2.11  54 2.11  55 2.11  62 2.11
  21  0.750  0.000  0.352-  53 2.11  38 2.11  54 2.11  55 2.11  63 2.11
  22  0.500  0.000  0.451-  54 2.11  52 2.11  53 2.11  37 2.11  60 2.11  58 2.12
  23  0.750  0.750  0.451-  55 2.11  52 2.11  53 2.11  36 2.11  61 2.11  59 2.12
  24  0.500  0.749  0.550-  66 2.10  43 2.10  59 2.11  58 2.11  52 2.13  56 2.20
  25  0.750  0.000  0.550-  67 2.11  58 2.11  42 2.11  59 2.11  53 2.12  57 2.15
  26  0.500  0.002  0.649-  64 2.07  56 2.09  58 2.11  41 2.11  57 2.12
  27  0.752  0.751  0.648-  59 2.08  40 2.09  57 2.10  65 2.11  56 2.13
  28  0.500  0.250  0.352-  60 2.11  54 2.11  47 2.11  62 2.11  63 2.11
  29  0.750  0.500  0.352-  61 2.11  55 2.11  46 2.11  62 2.11  63 2.11
  30  0.500  0.500  0.451-  62 2.11  52 2.11  60 2.11  61 2.11  45 2.11  66 2.14
  31  0.750  0.250  0.451-  63 2.11  53 2.11  60 2.11  61 2.11  44 2.11  67 2.12
  32  0.500  0.251  0.550-  51 2.11  66 2.11  67 2.11  58 2.12  60 2.13  64 2.14
  33  0.749  0.500  0.550-  66 2.10  67 2.11  59 2.11  50 2.12  61 2.13  65 2.15
  34  0.498  0.494  0.653-  64 2.08  49 2.11  65 2.14  66 2.19  56 2.20   3 2.25
  35  0.751  0.250  0.648-  48 2.10  67 2.10  57 2.11  64 2.12  65 2.12
  36  0.000  0.750  0.451-   4 2.11   6 2.11   7 2.11  14 2.11  23 2.11   8 2.12
  37  0.250  0.000  0.451-   5 2.11   6 2.11   7 2.11  15 2.11  22 2.11   9 2.12
  38  0.000  0.000  0.352-   6 2.11   5 2.11   4 2.11  12 2.11  21 2.11
  39  0.250  0.750  0.352-   7 2.11   5 2.11   4 2.11  13 2.11  20 2.11
  40  1.000  0.750  0.651-  27 2.09  11 2.09  10 2.11  18 2.12   8 2.15
  41  0.249  1.000  0.651-  10 2.10  19 2.11  11 2.11  26 2.11   9 2.15
  42  1.000  1.000  0.550-  10 2.11   8 2.11  25 2.11   9 2.11  16 2.11   6 2.11
  43  0.251  0.750  0.550-  11 2.10  24 2.10   9 2.11   8 2.11  17 2.11   7 2.12
  44  0.000  0.250  0.451-  12 2.11   6 2.11  14 2.11  15 2.11  31 2.11  16 2.12
  45  0.250  0.500  0.451-  13 2.11   7 2.11  14 2.11  15 2.11  30 2.11  17 2.13
  46  0.000  0.500  0.352-  14 2.11  12 2.11  13 2.11   4 2.11  29 2.11
  47  0.250  0.250  0.352-  15 2.11  12 2.11  13 2.11   5 2.11  28 2.11
  48  1.000  0.250  0.651-  35 2.10  10 2.10  19 2.10  18 2.11  16 2.15
  49  0.248  0.500  0.650-  18 2.09  11 2.11  34 2.11  19 2.11  17 2.12
  50  1.000  0.500  0.550-   8 2.11  18 2.11  16 2.11  14 2.11  33 2.12  17 2.12
  51  0.250  0.250  0.550-   9 2.11  32 2.11  16 2.11  17 2.11  19 2.11  15 2.12
  52  0.500  0.750  0.451-  20 2.11   7 2.11  22 2.11  23 2.11  30 2.11  24 2.13
  53  0.750  0.000  0.451-  21 2.11   6 2.11  22 2.11  23 2.11  31 2.11  25 2.12
  54  0.500  0.000  0.352-  22 2.11  20 2.11  21 2.11   5 2.11  28 2.11
  55  0.750  0.750  0.352-  23 2.11  20 2.11  21 2.11   4 2.11  29 2.11
  56  0.500  0.754  0.653-  26 2.09  11 2.13  27 2.13  24 2.20  34 2.20
  57  0.750  1.000  0.651-  27 2.10  10 2.11  35 2.11  26 2.12  25 2.15
  58  0.500  0.999  0.550-  26 2.11  25 2.11   9 2.11  24 2.11  22 2.12  32 2.12
  59  0.749  0.750  0.550-  27 2.08  24 2.11  25 2.11  33 2.11   8 2.12  23 2.12
  60  0.500  0.250  0.451-  28 2.11  22 2.11  15 2.11  30 2.11  31 2.11  32 2.13
  61  0.750  0.500  0.451-  29 2.11  23 2.11  14 2.11  30 2.11  31 2.11  33 2.13
  62  0.500  0.500  0.352-  30 2.11  20 2.11  28 2.11  29 2.11  13 2.11
  63  0.750  0.250  0.352-  31 2.11  21 2.11  28 2.11  29 2.11  12 2.11
  64  0.500  0.248  0.651-  26 2.07  34 2.08  35 2.12  19 2.12  32 2.14
  65  0.752  0.500  0.651-  18 2.10  27 2.11  35 2.12  34 2.14  33 2.15
  66  0.500  0.500  0.551-  24 2.10  33 2.10  17 2.11  32 2.11  30 2.14  34 2.19
  67  0.750  0.250  0.550-  35 2.10  25 2.11  33 2.11  32 2.11  16 2.11  31 2.12

  LATTYP: Found a simple tetragonal cell.
 ALAT       =     8.4409846542
 C/A-ratio  =     2.5270438657

  Lattice vectors:

 A1 = (   8.4409846542,   0.0000000000,   0.0000000000)
 A2 = (   0.0000000000,   8.4409846542,   0.0000000000)
 A3 = (   0.0000000000,   0.0000000000,  21.3307384906)

Analysis of symmetry for initial positions (statically):
 Subroutine PRICEL returns:
 Original cell was already a primitive cell.

 Routine SETGRP: Setting up the symmetry group for a
 simple tetragonal supercell.

 Subroutine GETGRP returns: Found  1 space group operations
 (whereof  1 operations were pure point group operations)
 out of a pool of 16 trial point group operations.

The static configuration has the point symmetry C_1 .

Analysis of symmetry for dynamics (positions and initial velocities):
 Subroutine PRICEL returns:
 Original cell was already a primitive cell.

[...]

The dynamic configuration has the point symmetry C_1 .

Analysis of constrained symmetry for selective dynamics:
 Subroutine PRICEL returns:
 Original cell was already a primitive cell.

 Routine SETGRP: Setting up the symmetry group for a
 simple tetragonal supercell.

 Subroutine GETGRP returns: Found  1 space group operations
 (whereof  1 operations were pure point group operations)
 out of a pool of 16 trial point group operations.

The constrained configuration has the point symmetry C_1 .

 Subroutine INISYM returns: Found  1 space group operations
 (whereof  1 operations are pure point group operations),
 and found     1 'primitive' translations

                                     Primitive cell

  volume of cell :    1519.8199

  direct lattice vectors                    reciprocal lattice vectors
     8.440984654  0.000000000  0.000000000     0.118469591  0.000000000  0.000000000
     0.000000000  8.440984654  0.000000000     0.000000000  0.118469591  0.000000000
     0.000000000  0.000000000 21.330738491     0.000000000  0.000000000  0.046880702

  length of vectors
     8.440984654  8.440984654 21.330738491     0.118469591  0.118469591  0.046880702

  position of ions in fractional coordinates (direct lattice)
     0.616747350  0.554373542  0.766913467
     0.509929304  0.672789327  0.728458732
     0.507505033  0.572133215  0.754100542
     0.000000000  0.750000000  0.351605267
     0.250000000  0.000000000  0.351605267
     0.000000000  0.000000000  0.450535089
     0.250000000  0.750000000  0.450535089
     0.000207284  0.749768794  0.549791295
     0.250042949  0.000125680  0.550039895
     0.000073806  0.000410042  0.648595353
     0.247683155  0.749917871  0.648435248
     0.000000000  0.250000000  0.351605267
     0.250000000  0.500000000  0.351605267
     0.000000000  0.500000000  0.450535089
     0.250000000  0.250000000  0.450535089
     0.000031262  0.250140480  0.549909578
     0.250686002  0.499742672  0.550400910
     0.000425668  0.499513881  0.648371969
     0.248982972  0.249855834  0.648744198
     0.500000000  0.750000000  0.351605267
     0.750000000  0.000000000  0.351605267
     0.500000000  0.000000000  0.450535089
     0.750000000  0.750000000  0.450535089
     0.499726028  0.748980267  0.550355635
     0.749777797  0.000284338  0.549933824
     0.499677098  0.001992687  0.648655524
     0.752464721  0.750671887  0.647526815
     0.500000000  0.250000000  0.351605267
     0.750000000  0.500000000  0.351605267
     0.500000000  0.500000000  0.450535089
     0.750000000  0.250000000  0.450535089
     0.499781674  0.250547524  0.550270665
     0.749015091  0.499678732  0.550464135
     0.498120585  0.493518517  0.653381840
     0.750669226  0.249556903  0.648459532
     0.000000000  0.750000000  0.450535089
     0.250000000  0.000000000  0.450535089
     0.000000000  0.000000000  0.351605267
     0.250000000  0.750000000  0.351605267
     0.999772439  0.750337934  0.650565869
     0.249261806  0.999887658  0.650737238
     0.999830501  0.999774756  0.549663713
     0.250559146  0.750233236  0.549968787
     0.000000000  0.250000000  0.450535089
     0.250000000  0.500000000  0.450535089
     0.000000000  0.500000000  0.351605267
     0.250000000  0.250000000  0.351605267
     0.999743677  0.249577840  0.650728320
     0.248180911  0.500092169  0.649707399
     0.999581945  0.500107963  0.549555474
     0.249909182  0.249616938  0.549731899
     0.500000000  0.750000000  0.450535089
     0.750000000  0.000000000  0.450535089
     0.500000000  0.000000000  0.351605267
     0.750000000  0.750000000  0.351605267
[...]
   O          20.873          3.286          5.662          2.292          1.921          1.054
   O          22.317          3.320          5.843          2.775          3.411          1.085
   O          22.320          3.320          5.844          2.771          3.397          1.085
   O          22.311          3.320          5.842          2.789          3.463          1.085
   O          21.983          3.312          5.799          2.747          3.308          1.077
   O          20.844          3.285          5.659          2.320          1.993          1.054
   O          20.869          3.285          5.662          2.298          1.938          1.054
   O          20.914          3.287          5.667          2.278          1.887          1.055
   O          20.879          3.286          5.663          2.302          1.947          1.055
   O          22.317          3.320          5.843          2.775          3.412          1.085
   O          22.320          3.320          5.844          2.770          3.395          1.085
   O          21.098          3.291          5.691          2.868          3.766          1.059
   O          22.322          3.320          5.843          2.789          3.463          1.085
   O          20.873          3.286          5.663          2.331          2.022          1.055
   O          20.878          3.286          5.663          2.327          2.012          1.055
   O          20.884          3.286          5.664          2.292          1.921          1.055
   O          20.886          3.286          5.664          2.294          1.927          1.055
   O          22.309          3.320          5.842          2.775          3.413          1.085
   O          22.319          3.320          5.844          2.770          3.392          1.085
   O          22.086          3.314          5.812          2.752          3.327          1.080
   O          21.916          3.310          5.792          2.759          3.353          1.076
   O          20.883          3.286          5.665          2.410          2.235          1.055
   O          20.862          3.285          5.661          2.305          1.955          1.054

  vdW correction parametrized for the method pbe

  IVDW = 263
  VDW_RADIUS =    50.000 A
  VDW_SR =     0.830
  VDW_D =     6.000
  SCSRAD =   120.000 A
  LVDWSCS = T
  LSCSGRAD = T
  LSCALER0 = T
  ITIM =  1
  Edisp (eV):  -17.85111

  FORCE on cell =-STRESS in cart. coord.  units (eV):
  Direction    XX          YY          ZZ          XY          YZ          ZX
  Alpha Z   899.29934   899.29934   899.29934
  Ewald  160252.11361160264.72282************   -13.83408   -25.87346    31.07552
  Hartree170490.78222170506.97302************    -2.98360    -0.57088     6.78237
  E(xc)   -2493.16622 -2493.17657 -2498.16927    -0.05999    -0.26261     0.09538
  Local  ************************340610.48907    13.10439    16.11427   -29.85854
  n-local -2842.88744 -2842.63607 -2863.11031    -0.22644     0.26132     0.37689
  augment  1054.21038  1054.59436  1046.06703     0.23788     0.65812    -0.54727
  Kinetic  7449.12263  7454.45891  7501.48698     3.79065     9.72232    -7.87214
  Fock        0.00000     0.00000     0.00000     0.00000     0.00000     0.00000
  vdW       -23.43690   -23.43922   -16.34000    -0.00287    -0.02294     0.01035
  Total     -41.32854   -41.19110   -12.07560     0.02593     0.02614     0.06256
  in kB     -43.56810   -43.42321   -12.72997     0.02734     0.02756     0.06595

 VOLUME and BASIS-vectors are now :
  energy-cutoff  :      600.00
  volume of cell :     1519.82
      direct lattice vectors                 reciprocal lattice vectors
     8.440984654  0.000000000  0.000000000     0.118469591  0.000000000  0.000000000
     0.000000000  8.440984654  0.000000000     0.000000000  0.118469591  0.000000000
     0.000000000  0.000000000 21.330738491     0.000000000  0.000000000  0.046880702

  length of vectors
     8.440984654  8.440984654 21.330738491     0.118469591  0.118469591  0.046880702

 FORCES acting on ions:
    Electron-Ion                     Ewald-Force                    Non-Local-Force
   -.819E+02 0.154E+02 -.292E+03   0.897E+02 -.169E+02 0.295E+03   -.778E+01 0.146E+01 -.243E+01
   0.679E+00 -.672E+02 -.264E+03   -.800E+00 0.731E+02 0.260E+03   0.103E+00 -.597E+01 0.377E+01
   0.486E+02 0.273E+02 -.170E+04   -.858E+02 -.473E+02 0.171E+04   0.372E+02 0.201E+02 -.111E+02
   -.169E-01 -.207E-01 0.208E+04   0.185E-01 0.173E-01 -.208E+04   -.111E-02 0.236E-02 -.701E+01
   -.321E-01 -.300E-01 0.208E+04   0.336E-01 0.322E-01 -.208E+04   -.102E-02 -.153E-02 -.705E+01
   -.148E+00 -.258E+00 0.715E+03   0.164E+00 0.294E+00 -.715E+03   -.115E-01 -.259E-01 0.448E+00
   -.344E-01 -.890E-03 0.715E+03   0.114E+00 -.985E-02 -.715E+03   -.588E-01 0.600E-02 0.594E+00
   -.398E+00 -.284E+01 -.640E+03   0.479E+00 0.278E+01 0.640E+03   -.782E-01 0.515E-01 -.136E+00
   0.256E+01 -.107E+01 -.645E+03   -.252E+01 0.114E+01 0.646E+03   -.391E-01 -.706E-01 -.249E+00
   -.927E+00 -.433E+01 -.202E+04   0.994E+00 0.448E+01 0.201E+04   -.671E-01 -.152E+00 0.599E+01
   0.250E+02 -.211E+02 -.198E+04   -.260E+02 0.212E+02 0.198E+04   0.947E+00 -.288E-01 0.614E+01
   -.958E-02 0.199E-01 0.208E+04   0.103E-01 -.168E-01 -.208E+04   -.489E-03 -.219E-02 -.705E+01
   -.636E-01 0.306E-01 0.208E+04   0.698E-01 -.331E-01 -.208E+04   -.476E-02 0.176E-02 -.705E+01
   -.914E-01 0.249E+00 0.716E+03   0.611E-01 -.289E+00 -.716E+03   0.222E-01 0.285E-01 0.354E+00
   -.154E+00 -.316E-01 0.715E+03   0.149E+00 0.379E-01 -.716E+03   0.448E-02 -.278E-02 0.455E+00
   -.654E-01 0.285E+01 -.646E+03   0.108E+00 -.279E+01 0.646E+03   -.416E-01 -.575E-01 -.136E+00
   0.355E+01 0.111E+01 -.636E+03   -.334E+01 -.117E+01 0.637E+03   -.210E+00 0.597E-01 -.968E+00
   -.120E+01 0.513E+01 -.200E+04   0.138E+01 -.527E+01 0.200E+04   -.175E+00 0.143E+00 0.602E+01
   0.165E+02 0.180E+02 -.201E+04   -.168E+02 -.181E+02 0.200E+04   0.303E+00 0.520E-01 0.608E+01
   0.177E-01 0.940E-02 0.208E+04   -.193E-01 -.180E-01 -.208E+04   0.121E-02 0.644E-02 -.705E+01
   0.311E-01 -.375E-01 0.208E+04   -.329E-01 0.405E-01 -.208E+04   0.135E-02 -.213E-02 -.703E+01
   0.141E+00 -.306E+00 0.715E+03   -.164E+00 0.261E+00 -.715E+03   0.162E-01 0.329E-01 0.500E+00
   0.247E-02 0.486E-01 0.715E+03   -.838E-01 -.102E+00 -.716E+03   0.600E-01 0.377E-01 0.611E+00
   0.412E+00 -.295E+01 -.645E+03   -.483E+00 0.273E+01 0.644E+03   0.709E-01 0.221E+00 0.903E+00
   -.256E+01 -.142E+01 -.643E+03   0.253E+01 0.153E+01 0.643E+03   0.368E-01 -.105E+00 -.193E+00
   0.117E+01 -.112E+02 -.200E+04   -.124E+01 0.116E+02 0.199E+04   0.631E-01 -.453E+00 0.589E+01
   -.259E+02 -.221E+02 -.197E+04   0.270E+02 0.223E+02 0.196E+04   -.103E+01 -.250E+00 0.619E+01
   0.929E-02 -.130E-01 0.208E+04   -.104E-01 0.206E-01 -.208E+04   0.797E-03 -.572E-02 -.704E+01
   0.620E-01 0.389E-01 0.208E+04   -.690E-01 -.419E-01 -.208E+04   0.534E-02 0.217E-02 -.706E+01
   0.753E-01 0.336E+00 0.713E+03   -.578E-01 -.308E+00 -.714E+03   -.139E-01 -.228E-01 0.708E+00
   0.132E+00 -.855E-01 0.715E+03   -.134E+00 0.139E+00 -.716E+03   0.108E-03 -.373E-01 0.510E+00
   0.685E-01 0.364E+01 -.638E+03   -.106E+00 -.346E+01 0.639E+03   0.374E-01 -.175E+00 -.493E+00
   -.339E+01 0.148E+01 -.641E+03   0.317E+01 -.158E+01 0.641E+03   0.218E+00 0.905E-01 -.359E+00
   0.479E+01 0.302E+02 -.191E+04   -.518E+01 -.320E+02 0.191E+04   0.386E+00 0.180E+01 0.259E+01
   -.168E+02 0.182E+02 -.200E+04   0.171E+02 -.184E+02 0.199E+04   -.280E+00 0.199E+00 0.608E+01
   -.222E-01 -.220E+00 0.537E+03   0.200E-01 0.206E+00 -.537E+03   0.159E-02 0.208E-01 0.199E-01
   -.216E-01 -.187E-01 0.536E+03   0.252E-01 0.378E-01 -.536E+03   -.422E-02 -.283E-01 -.107E+00
   -.148E-01 -.271E-01 0.156E+04   0.181E-01 0.337E-01 -.157E+04   -.460E-02 -.919E-02 0.349E+01
   -.328E-01 -.430E-02 0.156E+04   0.411E-01 0.111E-02 -.157E+04   -.116E-01 0.444E-02 0.349E+01
   -.224E+01 -.716E+01 -.153E+04   0.230E+01 0.706E+01 0.153E+04   -.539E-01 0.105E+00 -.508E+01
   0.841E+01 -.583E+01 -.153E+04   -.820E+01 0.578E+01 0.153E+04   -.205E+00 0.532E-01 -.506E+01
   -.374E+00 -.124E+01 -.480E+03   0.384E+00 0.127E+01 0.480E+03   -.105E-01 -.274E-01 0.179E+00
   0.200E+01 -.245E+01 -.475E+03   -.209E+01 0.240E+01 0.474E+03   0.899E-01 0.560E-01 0.433E+00
   0.110E-01 0.211E+00 0.536E+03   -.184E-02 -.192E+00 -.536E+03   -.134E-01 -.274E-01 -.848E-01
   -.181E+00 0.198E-01 0.535E+03   0.131E+00 -.329E-01 -.535E+03   0.681E-01 0.204E-01 -.161E+00
   -.727E-02 0.276E-01 0.156E+04   0.614E-02 -.341E-01 -.157E+04   0.158E-02 0.894E-02 0.348E+01
   -.359E-01 0.370E-02 0.156E+04   0.361E-01 -.350E-03 -.157E+04   -.324E-03 -.466E-02 0.348E+01
   -.934E+00 0.659E+01 -.153E+04   0.934E+00 -.649E+01 0.154E+04   0.200E-02 -.940E-01 -.504E+01
   0.294E+02 0.816E+01 -.149E+04   -.291E+02 -.810E+01 0.150E+04   -.382E+00 -.684E-01 -.518E+01
   0.282E-01 0.125E+01 -.474E+03   0.729E-02 -.128E+01 0.473E+03   -.358E-01 0.311E-01 0.242E+00
   0.234E+01 0.240E+01 -.476E+03   -.234E+01 -.234E+01 0.476E+03   -.487E-02 -.591E-01 0.195E+00
   0.301E-01 -.749E-01 0.536E+03   -.260E-01 0.124E+00 -.536E+03   -.432E-02 -.645E-01 -.142E+00
   0.902E-03 -.563E-01 0.536E+03   0.474E-02 0.647E-01 -.536E+03   -.807E-02 -.142E-01 -.515E-01
   0.156E-01 -.292E-01 0.156E+04   -.186E-01 0.280E-01 -.157E+04   0.416E-02 0.162E-02 0.349E+01
   0.321E-01 0.271E-02 0.156E+04   -.404E-01 -.106E-01 -.157E+04   0.116E-01 0.110E-01 0.349E+01
   0.381E+01 -.371E+02 -.147E+04   -.391E+01 0.369E+02 0.147E+04   0.102E+00 0.237E+00 -.204E+01
   -.853E+01 -.718E+01 -.153E+04   0.832E+01 0.719E+01 0.153E+04   0.219E+00 -.500E-02 -.508E+01
   0.411E+00 -.618E+00 -.476E+03   -.429E+00 0.664E+00 0.476E+03   0.207E-01 -.488E-01 0.315E+00
   -.200E+01 -.206E+01 -.471E+03   0.209E+01 0.204E+01 0.471E+03   -.873E-01 0.187E-01 0.747E+00
   -.243E-01 0.176E-02 0.535E+03   0.240E-01 -.287E-01 -.535E+03   0.177E-02 0.363E-01 -.957E-01
   0.153E+00 0.721E-01 0.535E+03   -.872E-01 -.802E-01 -.535E+03   -.896E-01 0.137E-01 -.195E+00
   0.841E-02 0.318E-01 0.156E+04   -.673E-02 -.299E-01 -.157E+04   -.240E-02 -.264E-02 0.348E+01
   0.360E-01 -.388E-02 0.156E+04   -.360E-01 0.117E-01 -.157E+04   -.346E-04 -.109E-01 0.349E+01
   0.113E+01 0.263E+02 -.151E+04   -.114E+01 -.263E+02 0.151E+04   0.107E-01 0.309E-01 -.495E+01
   -.310E+02 0.106E+02 -.149E+04   0.304E+02 -.106E+02 0.150E+04   0.631E+00 -.534E-01 -.482E+01
   -.135E+00 0.148E+00 -.484E+03   0.869E-01 -.219E+00 0.484E+03   0.493E-01 0.718E-01 -.760E+00
   -.235E+01 0.201E+01 -.476E+03   0.234E+01 -.199E+01 0.476E+03   0.775E-02 -.216E-01 0.332E+00
   -.299E+02 -.171E+02 0.271E+02   0.504E-12 -.394E-12 0.557E-11   0.299E+02 0.171E+02 -.271E+02

 POSITION                                       TOTAL-FORCE (eV/Angst)
      5.20595      4.67946     16.35883         0.021356     -0.025989      0.023874
      4.30431      5.67900     15.53856        -0.024346      0.015566     -0.059702
      4.28384      4.82937     16.08552        -0.006527      0.006145     -0.057698
      0.00000      6.33074      7.50000         0.000533     -0.001981      0.509898
      2.11025      0.00000      7.50000         0.001846     -0.000411      0.517825
      0.00000      0.00000      9.61025         0.004384      0.011218      0.103354
      2.11025      6.33074      9.61025         0.019439     -0.003075      0.103809
      0.00175      6.32879     11.72745         0.002505     -0.003174     -0.042088
      2.11061      0.00106     11.73276         0.004911      0.001519     -0.041604
      0.00062      0.00346     13.83502         0.001398     -0.000318     -0.173794
      2.09069      6.33005     13.83160        -0.010844      0.006861     -0.152209
      0.00000      2.11025      7.50000         0.000277      0.001852      0.517277
      2.11025      4.22049      7.50000         0.003536      0.000316      0.518484
      0.00000      4.22049      9.61025        -0.007788     -0.012212      0.126972
      2.11025      2.11025      9.61025        -0.002706      0.001490      0.110175
      0.00026      2.11143     11.72998         0.002163      0.002911     -0.041172
      2.11604      4.21832     11.74046         0.003036     -0.001523     -0.042689
      0.00359      4.21639     13.83025         0.002989      0.002315     -0.172410
      2.10166      2.10903     13.83819         0.001064     -0.004752     -0.159156
      4.22049      6.33074      7.50000        -0.000497     -0.003548      0.518575
      6.33074      0.00000      7.50000        -0.001778     -0.000148      0.514216
      4.22049      0.00000      9.61025        -0.006766     -0.011162      0.128881
      6.33074      6.33074      9.61025        -0.019715     -0.013849      0.101614
      4.21818      6.32213     11.73949        -0.002102      0.006065     -0.042563
      6.32886      0.00240     11.73049        -0.002920      0.002002     -0.041840
      4.21777      0.01682     13.83630         0.000457      0.007571     -0.168071
      6.35154      6.33641     13.81223         0.014675      0.009283     -0.155532
      4.22049      2.11025      7.50000        -0.000294      0.003569      0.513543
      6.33074      4.22049      7.50000        -0.003481      0.000112      0.521202
      4.22049      4.22049      9.61025         0.003568      0.005390      0.138580
      6.33074      2.11025      9.61025         0.000553      0.013802      0.106100
      4.21865      2.11487     11.73768        -0.001801      0.004296     -0.035508
      6.32242      4.21778     11.74181         0.000126     -0.001751     -0.046721
      4.20463      4.16578     13.93712        -0.004903     -0.011434     -0.105127
      6.33639      2.10651     13.83212         0.001149     -0.006675     -0.159516
      0.00000      6.33074      9.61025        -0.000803      0.006765      0.061353
      2.11025      0.00000      9.61025        -0.000993     -0.009187      0.049318
      0.00000      0.00000      7.50000        -0.001299     -0.002603     -0.473379
      2.11025      6.33074      7.50000        -0.003064      0.001139     -0.472942
      8.43906      6.33359     13.87705         0.002333     -0.000978     -0.021159
      2.10402      8.44004     13.88071        -0.001353      0.002761     -0.022552
      8.43955      8.43908     11.72473        -0.000446      0.000047      0.011475
      2.11497      6.33271     11.73124        -0.000650      0.000613      0.010796
      0.00000      2.11025      9.61025        -0.004347     -0.008408      0.042697
      2.11025      4.22049      9.61025         0.017650      0.006683      0.071827
      0.00000      4.22049      7.50000         0.000447      0.002632     -0.475623
      2.11025      2.11025      7.50000         0.000054     -0.001263     -0.474966
      8.43882      2.10668     13.88052         0.001702      0.005672     -0.025763
      2.09489      4.22127     13.85874        -0.014087     -0.004763     -0.023561
      8.43746      4.22140     11.72242        -0.000302      0.002975      0.010063
      2.10948      2.10701     11.72619         0.000392      0.000585      0.009795
      4.22049      6.33074      9.61025        -0.000021     -0.014556      0.068281
      6.33074      0.00000      9.61025        -0.001858     -0.005840      0.055362
      4.22049      0.00000      7.50000         0.001247      0.000320     -0.473900
      6.33074      6.33074      7.50000         0.003134      0.003002     -0.472103
      4.22154      6.36778     13.93502         0.000846      0.007362      0.006329
      6.33491      8.43985     13.88004         0.004117      0.002737     -0.021121
      4.22045      8.43503     11.72954         0.002431     -0.000976      0.009110
      6.32507      6.33100     11.72992         0.001897      0.000978      0.011876
      4.22049      2.11025      9.61025         0.001636      0.009017      0.077366
      6.33074      4.22049      9.61025        -0.022617      0.005000      0.066764
      4.22049      4.22049      7.50000        -0.000645     -0.000655     -0.477623
      6.33074      2.11025      7.50000        -0.000111     -0.003044     -0.474424
      4.22062      2.09110     13.87599         0.000263     -0.003134     -0.019777
      6.34494      4.22297     13.88752         0.018403     -0.005029     -0.021294
      4.22176      4.22431     11.74807         0.001804      0.001146      0.000983
      6.32990      2.10929     11.72767         0.000745      0.000723      0.009811
    total drift:                               -0.002592      0.000531     -0.004302

  FREE ENERGIE OF THE ION-ELECTRON SYSTEM (eV)
  free  energy   TOTEN  =      -404.70407702 eV

  energy  without entropy=     -404.70407702  energy(sigma->0) =     -404.70407702