 vasp.6.3.0 20Jan22 (build Apr  1 2022 16:44:48) complex
 executed on        HPECrayEX_GCC date 2022.10.09  22:01:59

 INCAR:
   SYSTEM = MgO-rocksalt
   ISMEAR = 0
   SIGMA = 0.05
   EDIFF = 1E-8
   ALGO = ALL
   ISTART = 0
   IBRION = 2
   NSW = 1000
   ISYM = 0
   ISIF = 2
   EDIFFG = -0.01
   DIPOL = 0.5 0.5 0.5
   IDIPOL = 3
   LDIPOL = .TRUE.
   LHFCALC = .TRUE.
   GGA = PE
   IVDW = 13
   VDW_S8 = 1.2007
   VDW_A1 = 0.4009
   VDW_A2 = 5.0293
   ENCUT = 600
   PREC = Accurate
   LASPH = .TRUE.
   LREAL = .FALSE.
   ISPIN = 1
   NELM = 200
   NELMIN = 8
   NCORE = 8
   KPAR = 1
   LWAVE = .FALSE.
   LCHARG = .FALSE.

 POTCAR:    PAW_PBE H 15Jun2001
 POTCAR:    PAW_PBE O 08Apr2002
 POTCAR:    PAW_PBE Mg_pv 13Apr2007
 POTCAR:    PAW_PBE O 08Apr2002
 POTCAR:    PAW_PBE H 15Jun2001
   VRHFIN =H: ultrasoft test

   TITEL  = PAW_PBE H 15Jun2001
   POMASS =    1.000; ZVAL   =    1.000    mass and valenz
   ENMAX  =  250.000; ENMIN  =  200.000 eV

   TITEL  = PAW_PBE O 08Apr2002
   POMASS =   16.000; ZVAL   =    6.000    mass and valenz
   ENMAX  =  400.000; ENMIN  =  300.000 eV

   TITEL  = PAW_PBE Mg_pv 13Apr2007
   POMASS =   24.305; ZVAL   =    8.000    mass and valenz
   ENMAX  =  403.929; ENMIN  =  302.947 eV

   TITEL  = PAW_PBE O 08Apr2002
   POMASS =   16.000; ZVAL   =    6.000    mass and valenz
   ENMAX  =  400.000; ENMIN  =  300.000 eV

  PAW_PBE H 15Jun2001                   :
  PAW_PBE O 08Apr2002                   :
  PAW_PBE Mg_pv 13Apr2007               :
  PAW_PBE O 08Apr2002                   :

 POSCAR:  H  O Mg  O
  positions in direct lattice
  velocities in cartesian coordinates
|           W    W    AA    RRRRR   N    N  II  N    N   GGGG   !!!           |
|           W    W   A  A   R    R  NN   N  II  NN   N  G    G  !!!           |
|           W    W  A    A  R    R  N N  N  II  N N  N  G       !!!           |
|           W WW W  AAAAAA  RRRRR   N  N N  II  N  N N  G  GGG   !            |
|           WW  WW  A    A  R   R   N   NN  II  N   NN  G    G                |
|           W    W  A    A  R    R  N    N  II  N    N   GGGG   !!!           |
|     Specifying the vdW parameters                                           |
|     VDW_S8 = 1.201                                                          |
|     VDW_A1 = 0.401                                                          |
|     VDW_A2 = 5.029                                                          |
|     in the INCAR file will overwrite the defaults for pbe0. Please make     |
|     sure that is what you intended.                                         |

 ion  position               nearest neighbor table
   1  0.612  0.552  0.767-   3 0.96
   2  0.509  0.672  0.727-   3 1.00
   3  0.506  0.570  0.751-   1 0.96   2 1.00  19 2.21
   4  0.250  0.000  0.353-  38 2.09  39 2.09  46 2.09  55 2.09  36 2.09
   5  0.500  0.250  0.353-  38 2.09  39 2.09  47 2.09  54 2.09  37 2.09
   6  0.250  0.250  0.451-  36 2.09  37 2.09  44 2.09  53 2.09  38 2.09  42 2.09
   7  0.500  0.000  0.451-  36 2.09  37 2.09  45 2.09  52 2.09  39 2.09  43 2.10
   8  0.250  0.000  0.550-  42 2.08  50 2.09  43 2.09  59 2.09  36 2.10  40 2.12
   9  0.500  0.251  0.550-  51 2.09  42 2.09  58 2.09  43 2.10  37 2.10  41 2.11
  10  0.249  0.250  0.647-  57 2.08  42 2.08  40 2.09  48 2.09  41 2.10
  11  0.500  0.002  0.647-  41 2.05  49 2.07  43 2.08  40 2.09  56 2.10
  12  0.250  0.500  0.353-  38 2.09  46 2.09  47 2.09  63 2.09  44 2.09
  13  0.500  0.750  0.353-  39 2.09  46 2.09  47 2.09  62 2.09  45 2.09
  14  0.250  0.750  0.451-  36 2.09  44 2.09  45 2.09  61 2.09  46 2.09  50 2.10
  15  0.500  0.500  0.451-  37 2.09  44 2.09  45 2.09  60 2.09  47 2.09  51 2.11
  16  0.251  0.500  0.550-  51 2.08  42 2.09  50 2.09  48 2.09  67 2.10  44 2.11
  17  0.500  0.749  0.550-  51 2.08  50 2.08  66 2.08  43 2.09  45 2.11  49 2.17
  18  0.248  0.750  0.647-  65 2.07  50 2.07  48 2.09  40 2.09  49 2.11
  19  0.498  0.494  0.652-  41 2.05  48 2.09  64 2.12  51 2.16  49 2.18   3 2.21
  20  0.750  0.000  0.353-  39 2.09  54 2.09  55 2.09  62 2.09  52 2.09
  21  0.000  0.250  0.353-  38 2.09  54 2.09  55 2.09  63 2.09  53 2.09
  22  0.750  0.250  0.451-  37 2.09  52 2.09  53 2.09  60 2.09  54 2.09  58 2.09
  23  0.000  0.000  0.451-  36 2.09  52 2.09  53 2.09  61 2.09  55 2.09  59 2.09
  24  0.750  0.000  0.550-  58 2.08  43 2.09  59 2.09  66 2.09  52 2.10  56 2.12
  25  0.000  0.250  0.550-  42 2.09  67 2.09  58 2.09  59 2.09  53 2.10  57 2.12
  26  0.751  0.250  0.647-  58 2.08  57 2.08  56 2.08  41 2.09  64 2.09
  27  0.000  0.001  0.647-  57 2.08  40 2.08  59 2.08  56 2.08  65 2.09
  28  0.750  0.500  0.353-  47 2.09  54 2.09  62 2.09  63 2.09  60 2.09
  29  0.000  0.750  0.353-  46 2.09  55 2.09  62 2.09  63 2.09  61 2.09
  30  0.750  0.750  0.451-  45 2.09  52 2.09  60 2.09  61 2.09  62 2.09  66 2.10
  31  0.000  0.500  0.451-  44 2.09  53 2.09  60 2.09  61 2.09  63 2.09  67 2.09
  32  0.749  0.500  0.550-  51 2.08  58 2.09  66 2.09  67 2.09  60 2.11  64 2.12
  33  0.000  0.750  0.549-  67 2.08  59 2.09  50 2.09  61 2.09  66 2.09  65 2.12
  34  0.753  0.751  0.646-  66 2.06  65 2.06  56 2.08  64 2.09  49 2.11
  35  0.001  0.500  0.647-  48 2.07  64 2.08  67 2.08  57 2.09  65 2.10
  36  0.250  0.000  0.451-   6 2.09   7 2.09  14 2.09  23 2.09   4 2.09   8 2.10
  37  0.500  0.250  0.451-   6 2.09   7 2.09  15 2.09  22 2.09   5 2.09   9 2.10
  38  0.250  0.250  0.353-   4 2.09   5 2.09  12 2.09  21 2.09   6 2.09
  39  0.500  0.000  0.353-   4 2.09   5 2.09  13 2.09  20 2.09   7 2.09
  40  0.249  1.000  0.649-  27 2.08  10 2.09  18 2.09  11 2.09   8 2.12
  41  0.500  0.248  0.649-  11 2.05  19 2.05  26 2.09  10 2.10   9 2.11
  42  0.250  0.250  0.549-   8 2.08  10 2.08   9 2.09  25 2.09  16 2.09   6 2.09
  43  0.500  0.999  0.549-  11 2.08  24 2.09   8 2.09  17 2.09   7 2.10   9 2.10
  44  0.250  0.500  0.451-   6 2.09  14 2.09  15 2.09  31 2.09  12 2.09  16 2.11
  45  0.500  0.750  0.451-   7 2.09  14 2.09  15 2.09  30 2.09  13 2.09  17 2.11
  46  0.250  0.750  0.353-   4 2.09  12 2.09  13 2.09  29 2.09  14 2.09
  47  0.500  0.500  0.353-   5 2.09  12 2.09  13 2.09  28 2.09  15 2.09
  48  0.248  0.500  0.648-  35 2.07  18 2.09  10 2.09  16 2.09  19 2.09
  49  0.500  0.755  0.652-  11 2.07  34 2.11  18 2.11  17 2.17  19 2.18
  50  0.251  0.750  0.550-  18 2.07  17 2.08   8 2.09  33 2.09  16 2.09  14 2.10
  51  0.500  0.500  0.550-  17 2.08  32 2.08  16 2.08   9 2.09  15 2.11  19 2.16
  52  0.750  0.000  0.451-   7 2.09  22 2.09  23 2.09  30 2.09  20 2.09  24 2.10
  53  0.000  0.250  0.451-   6 2.09  22 2.09  23 2.09  31 2.09  21 2.09  25 2.10
  54  0.750  0.250  0.353-   5 2.09  20 2.09  21 2.09  28 2.09  22 2.09
  55  0.000  0.000  0.353-   4 2.09  20 2.09  21 2.09  29 2.09  23 2.09
  56  0.751  1.000  0.649-  34 2.08  27 2.08  26 2.08  11 2.10  24 2.12
  57  1.000  0.250  0.649-  26 2.08  27 2.08  10 2.08  35 2.09  25 2.12
  58  0.750  0.250  0.549-  26 2.08  24 2.08  32 2.09   9 2.09  25 2.09  22 2.09
  59  1.000  1.000  0.549-  27 2.08  33 2.09  24 2.09   8 2.09  23 2.09  25 2.09
  60  0.750  0.500  0.451-  15 2.09  22 2.09  30 2.09  31 2.09  28 2.09  32 2.11
  61  0.000  0.750  0.451-  14 2.09  23 2.09  30 2.09  31 2.09  29 2.09  33 2.09
  62  0.750  0.750  0.353-  13 2.09  20 2.09  28 2.09  29 2.09  30 2.09
  63  0.000  0.500  0.353-  12 2.09  21 2.09  28 2.09  29 2.09  31 2.09
  64  0.752  0.500  0.650-  35 2.08  34 2.09  26 2.09  32 2.12  19 2.12
  65  0.000  0.750  0.649-  34 2.06  18 2.07  27 2.09  35 2.10  33 2.12
  66  0.749  0.750  0.549-  34 2.06  17 2.08  24 2.09  32 2.09  33 2.09  30 2.10
  67  1.000  0.500  0.549-  35 2.08  33 2.08  25 2.09  31 2.09  32 2.09  16 2.10

IMPORTANT INFORMATION: All symmetrisations will be switched off!
NOSYMM: (Re-)initialisation of all symmetry stuff for point group C_1.

                                     Primitive cell

  volume of cell :    1482.1129

  direct lattice vectors                    reciprocal lattice vectors
     8.349111827  0.000000000  0.000000000     0.119773219  0.000000000  0.000000000
     0.000000000  8.349111827  0.000000000     0.000000000  0.119773219  0.000000000
     0.000000000  0.000000000 21.261833870     0.000000000  0.000000000  0.047032632

  length of vectors
     8.349111827  8.349111827 21.261833870     0.119773219  0.119773219  0.047032632

  position of ions in fractional coordinates (direct lattice)
     0.612482251  0.552146129  0.766973190
     0.509395671  0.671633007  0.726839316
     0.505818265  0.570320863  0.751483004
     0.250000000  0.000000000  0.352744737
     0.500000000  0.250000000  0.352744737
     0.250000000  0.250000000  0.450914912
     0.500000000  0.000000000  0.450914912
     0.250231184  0.000176428  0.549661900
     0.499933351  0.250674499  0.549895965
     0.249248616  0.249954480  0.647336856
     0.499923971  0.002068198  0.647264656
     0.250000000  0.500000000  0.352744737
     0.500000000  0.750000000  0.352744737
     0.250000000  0.750000000  0.450914912
     0.500000000  0.500000000  0.450914912
     0.250899768  0.499832801  0.550010816
     0.499887259  0.749058465  0.550038828
     0.247795117  0.750051630  0.647033321
     0.498477017  0.493595768  0.652132739
     0.750000000  0.000000000  0.352744737
     0.000000000  0.250000000  0.352744737
     0.750000000  0.250000000  0.450914912
     0.000000000  0.000000000  0.450914912
     0.749912485  0.000321207  0.549559237
     0.000194214  0.250196228  0.549501538
     0.750934758  0.249597053  0.647014904
     0.000321075  0.000518565  0.647151998
     0.750000000  0.500000000  0.352744737
     0.000000000  0.750000000  0.352744737
     0.750000000  0.750000000  0.450914912
     0.000000000  0.500000000  0.450914912
     0.749136268  0.499763498  0.550081325
     0.000361163  0.749825145  0.549402661
     0.752838817  0.750793377  0.646138068
     0.000656024  0.499566396  0.646917011
     0.250000000  0.000000000  0.450914912
     0.500000000  0.250000000  0.450914912
     0.250000000  0.250000000  0.352744737
     0.500000000  0.000000000  0.352744737
     0.249472132  0.999994422  0.649420206
     0.500282227  0.247749635  0.649246819
     0.250093878  0.249684348  0.549313453
     0.500156309  0.999365031  0.549471855
     0.250000000  0.500000000  0.450914912
     0.500000000  0.750000000  0.450914912
     0.250000000  0.750000000  0.352744737
     0.500000000  0.500000000  0.352744737
     0.248177883  0.500128746  0.648382025
     0.500445237  0.754508789  0.652112676
     0.250692818  0.750316169  0.549542835
     0.500298050  0.500494245  0.550373280
     0.750000000  0.000000000  0.450914912
     0.000000000  0.250000000  0.450914912
     0.750000000  0.250000000  0.352744737
     0.000000000  0.000000000  0.352744737
     0.750785222  0.999969844  0.649392161
     0.999995943  0.249636482  0.649346877
     0.750029017  0.249923501  0.549357931
     0.999982185  0.999831131  0.549225538
     0.750000000  0.500000000  0.450914912
     0.000000000  0.750000000  0.450914912
     0.750000000  0.750000000  0.352744737
     0.000000000  0.500000000  0.352744737
     0.752167793  0.500297405  0.649672728
     0.000016228  0.750484961  0.649228492
[...]
   6.26183387  4.17455591  7.50000000
   0.00000000  6.26183387  7.50000000
   6.26183387  6.26183387  9.58727796
   0.00000000  4.17455591  9.58727796
   6.25462248  4.17258133 11.69573775
   0.00301539  6.26037399 11.68130810
   6.28553547  6.26845786 13.73808026
   0.00547721  4.17093571 13.75464201
   2.08727796  0.00000000  9.58727796
   4.17455591  2.08727796  9.58727796
   2.08727796  2.08727796  7.50000000
   4.17455591  0.00000000  7.50000000
   2.08287073  8.34906526 13.80786454
   4.17691226  2.06848941 13.80417800
   2.08806176  2.08464255 11.67941137
   4.17586095  8.34381040 11.68277930
   2.08727796  4.17455591  9.58727796
   4.17455591  6.26183387  9.58727796
   2.08727796  6.26183387  7.50000000
   4.17455591  4.17455591  7.50000000
   2.07206490  4.17563083 13.78579089
   4.17827324  6.29947826 13.86511138
   2.09306237  6.26447360 11.68428846
   4.17704437  4.17868242 11.70194525
   6.26183387  0.00000000  9.58727796
   0.00000000  2.08727796  9.58727796
   6.26183387  2.08727796  7.50000000
   0.00000000  0.00000000  7.50000000
   6.26838977  8.34886005 13.80726823
   8.34907796  2.08424291 13.80630542
   6.26207613  2.08663926 11.68035707
   8.34896309  8.34770192 11.67754215
   6.26183387  4.17455591  9.58727796
   0.00000000  6.26183387  9.58727796
   6.26183387  6.26183387  7.50000000
   0.00000000  4.17455591  7.50000000
   6.27993302  4.17703898 13.81323361
   0.00013549  6.26588286 13.80378834
   6.25765821  6.26292878 11.68268820
   8.34701566  4.17605973 11.67508584

--------------------------------------- Iteration      FINAL  ---------------------------------------

--------------------OUTCAR has been truncated-------------------------

[...]

--------------------OUTCAR has been truncated-------------------------

  FORCE on cell =-STRESS in cart. coord.  units (eV):
  Direction    XX          YY          ZZ          XY          YZ          ZX
  Alpha Z   922.17875   922.17875   922.17875
  Ewald  165258.36685165277.57498************   -13.30573   -26.07715    35.81491
  Hartree175540.71175175558.75437************    -2.80558    -0.10440     7.62944
  E(xc)   -1885.75127 -1885.74782 -1888.69899    -0.03092    -0.15437     0.06767
  Local  ************************350955.09675    12.51003    15.41506   -34.00207
  n-local  -740.44967  -740.10754  -764.01321    -0.14367     0.50665     0.13385
  augment   833.11832   833.41158   823.20047     0.22858     0.67989    -0.63427
  Kinetic  7486.41809  7490.29695  7532.94144     3.58467     9.71678    -9.12632
  Fock    -2519.07884 -2519.07358 -2515.18800     0.00949     0.05419     0.01750
  vdW        -9.21864    -9.21821    -6.36837     0.00079    -0.00768    -0.00136
  Total     -29.09477   -28.94011    -2.47978     0.04765     0.02897    -0.10064
  in kB     -31.45171   -31.28452    -2.68067     0.05152     0.03131    -0.10880

 VOLUME and BASIS-vectors are now :
  energy-cutoff  :      600.00
  volume of cell :     1482.11
      direct lattice vectors                 reciprocal lattice vectors
     8.349111827  0.000000000  0.000000000     0.119773219  0.000000000  0.000000000
     0.000000000  8.349111827  0.000000000     0.000000000  0.119773219  0.000000000
     0.000000000  0.000000000 21.261833870     0.000000000  0.000000000  0.047032632

  length of vectors
     8.349111827  8.349111827 21.261833870     0.119773219  0.119773219  0.047032632

 FORCES acting on ions:
    Electron-Ion                     Ewald-Force                    Non-Local-Force
   -.816E+02 0.161E+02 -.304E+03   0.896E+02 -.176E+02 0.307E+03   -.765E+01 0.151E+01 -.297E+01
   -.242E+00 -.696E+02 -.273E+03   0.212E+00 0.761E+02 0.269E+03   0.270E-01 -.621E+01 0.382E+01
   0.486E+02 0.278E+02 -.175E+04   -.870E+02 -.491E+02 0.176E+04   0.330E+02 0.183E+02 -.745E+01
   -.621E-01 -.151E-01 0.214E+04   0.649E-01 0.183E-01 -.213E+04   -.174E-02 -.195E-02 -.683E+01
   0.942E-02 -.145E-01 0.214E+04   -.104E-01 0.225E-01 -.213E+04   0.612E-03 -.520E-02 -.682E+01
   -.226E+00 -.717E-02 0.736E+03   0.230E+00 0.189E-01 -.736E+03   -.138E-02 -.551E-02 0.382E+00
   0.176E+00 -.201E+00 0.735E+03   -.194E+00 0.155E+00 -.735E+03   0.112E-01 0.294E-01 0.442E+00
   0.248E+01 -.895E+00 -.663E+03   -.244E+01 0.976E+00 0.663E+03   -.393E-01 -.732E-01 -.217E+00
   -.205E-01 0.378E+01 -.656E+03   -.269E-01 -.357E+01 0.657E+03   0.424E-01 -.186E+00 -.436E+00
   0.171E+02 0.188E+02 -.206E+04   -.174E+02 -.189E+02 0.206E+04   0.297E+00 0.305E-01 0.587E+01
   0.100E+01 -.107E+02 -.205E+04   -.107E+01 0.112E+02 0.205E+04   0.610E-01 -.433E+00 0.569E+01
   -.100E+00 0.162E-01 0.214E+04   0.107E+00 -.193E-01 -.213E+04   -.427E-02 0.192E-02 -.684E+01
   0.184E-01 0.119E-01 0.214E+04   -.198E-01 -.206E-01 -.213E+04   0.883E-03 0.563E-02 -.684E+01
   -.222E+00 -.129E-01 0.735E+03   0.320E+00 0.235E-02 -.736E+03   -.621E-01 0.511E-02 0.522E+00
   0.679E-01 0.220E+00 0.733E+03   -.439E-01 -.187E+00 -.734E+03   -.158E-01 -.227E-01 0.643E+00
   0.336E+01 0.908E+00 -.653E+03   -.312E+01 -.979E+00 0.654E+03   -.212E+00 0.640E-01 -.935E+00
   0.297E+00 -.296E+01 -.664E+03   -.378E+00 0.272E+01 0.663E+03   0.722E-01 0.222E+00 0.858E+00
   0.250E+02 -.218E+02 -.204E+04   -.260E+02 0.218E+02 0.203E+04   0.924E+00 -.266E-01 0.593E+01
   0.377E+01 0.304E+02 -.196E+04   -.417E+01 -.324E+02 0.196E+04   0.349E+00 0.172E+01 0.249E+01
   0.620E-01 -.232E-01 0.214E+04   -.645E-01 0.270E-01 -.213E+04   0.154E-02 -.239E-02 -.682E+01
   -.873E-02 0.247E-01 0.214E+04   0.100E-01 -.200E-01 -.213E+04   -.819E-03 -.288E-02 -.683E+01
   0.233E+00 -.969E-01 0.736E+03   -.231E+00 0.158E+00 -.736E+03   -.198E-02 -.370E-01 0.430E+00
   -.154E+00 -.253E+00 0.736E+03   0.178E+00 0.297E+00 -.736E+03   -.145E-01 -.277E-01 0.379E+00
   -.249E+01 -.120E+01 -.661E+03   0.245E+01 0.132E+01 0.661E+03   0.397E-01 -.105E+00 -.142E+00
   0.104E-01 0.302E+01 -.663E+03   0.390E-01 -.295E+01 0.663E+03   -.447E-01 -.600E-01 -.119E+00
   -.172E+02 0.186E+02 -.206E+04   0.176E+02 -.188E+02 0.205E+04   -.278E+00 0.172E+00 0.587E+01
   -.831E+00 -.434E+01 -.207E+04   0.896E+00 0.451E+01 0.207E+04   -.575E-01 -.149E+00 0.579E+01
   0.996E-01 0.250E-01 0.214E+04   -.106E+00 -.285E-01 -.213E+04   0.430E-02 0.222E-02 -.685E+01
   -.166E-01 -.252E-01 0.214E+04   0.186E-01 0.207E-01 -.213E+04   -.129E-02 0.280E-02 -.680E+01
   0.217E+00 0.732E-01 0.736E+03   -.304E+00 -.129E+00 -.736E+03   0.554E-01 0.341E-01 0.528E+00
   -.630E-01 0.269E+00 0.737E+03   0.374E-01 -.311E+00 -.737E+03   0.166E-01 0.263E-01 0.280E+00
   -.317E+01 0.123E+01 -.658E+03   0.293E+01 -.134E+01 0.658E+03   0.220E+00 0.927E-01 -.373E+00
   -.293E+00 -.308E+01 -.657E+03   0.377E+00 0.302E+01 0.657E+03   -.763E-01 0.625E-01 -.759E-01
   -.256E+02 -.221E+02 -.202E+04   0.268E+02 0.223E+02 0.201E+04   -.982E+00 -.231E+00 0.599E+01
   -.749E+00 0.504E+01 -.206E+04   0.934E+00 -.520E+01 0.205E+04   -.163E+00 0.148E+00 0.581E+01
   -.907E-01 0.453E-01 0.551E+03   0.853E-01 -.282E-01 -.551E+03   0.678E-02 -.224E-01 -.109E+00
   -.185E-01 0.155E-01 0.551E+03   0.111E-01 -.488E-01 -.551E+03   0.955E-02 0.377E-01 -.103E+00
   -.566E-01 0.569E-02 0.161E+04   0.568E-01 -.187E-02 -.161E+04   -.288E-03 -.456E-02 0.300E+01
   0.171E-01 -.141E-01 0.161E+04   -.205E-01 0.130E-01 -.161E+04   0.399E-02 0.137E-02 0.301E+01
   0.850E+01 -.579E+01 -.157E+04   -.828E+01 0.574E+01 0.158E+04   -.192E+00 0.398E-01 -.456E+01
   0.882E+00 0.271E+02 -.155E+04   -.890E+00 -.271E+02 0.155E+04   0.704E-02 0.233E-01 -.446E+01
   0.232E+01 0.251E+01 -.489E+03   -.232E+01 -.244E+01 0.488E+03   -.175E-02 -.628E-01 0.232E+00
   0.392E+00 -.426E+00 -.489E+03   -.408E+00 0.477E+00 0.488E+03   0.138E-01 -.446E-01 0.354E+00
   -.284E+00 -.314E-01 0.551E+03   0.219E+00 0.127E-01 -.550E+03   0.755E-01 0.240E-01 -.160E+00
   0.407E-01 -.599E-01 0.551E+03   -.427E-01 0.109E+00 -.550E+03   0.324E-02 -.550E-01 -.148E+00
   -.640E-01 -.653E-02 0.161E+04   0.728E-01 0.265E-02 -.161E+04   -.106E-01 0.463E-02 0.301E+01
   0.656E-02 0.160E-01 0.161E+04   -.515E-02 -.144E-01 -.161E+04   -.171E-02 -.192E-02 0.300E+01
   0.299E+02 0.803E+01 -.153E+04   -.295E+02 -.795E+01 0.154E+04   -.363E+00 -.663E-01 -.467E+01
   0.325E+01 -.383E+02 -.151E+04   -.336E+01 0.381E+02 0.152E+04   0.888E-01 0.217E+00 -.194E+01
   0.173E+01 -.256E+01 -.487E+03   -.181E+01 0.250E+01 0.487E+03   0.704E-01 0.537E-01 0.452E+00
   -.239E+00 -.179E+00 -.497E+03   0.196E+00 0.118E+00 0.498E+03   0.370E-01 0.530E-01 -.651E+00
   0.974E-01 0.426E-02 0.552E+03   -.988E-01 0.952E-03 -.551E+03   0.913E-03 -.886E-02 -.581E-01
   0.322E-01 0.253E+00 0.551E+03   -.322E-01 -.235E+00 -.551E+03   -.127E-02 -.226E-01 -.894E-01
   0.561E-01 -.522E-02 0.161E+04   -.566E-01 0.136E-01 -.161E+04   0.558E-03 -.100E-01 0.300E+01
   -.170E-01 -.222E-01 0.161E+04   0.201E-01 0.294E-01 -.161E+04   -.379E-02 -.859E-02 0.301E+01
   -.859E+01 -.696E+01 -.157E+04   0.837E+01 0.696E+01 0.158E+04   0.195E+00 -.571E-02 -.458E+01
   -.822E+00 0.686E+01 -.158E+04   0.833E+00 -.674E+01 0.158E+04   -.904E-02 -.105E+00 -.454E+01
   -.234E+01 0.205E+01 -.488E+03   0.234E+01 -.201E+01 0.488E+03   -.324E-02 -.340E-01 0.367E+00
   -.371E+00 -.121E+01 -.492E+03   0.385E+00 0.124E+01 0.492E+03   -.124E-01 -.284E-01 0.234E+00
   0.286E+00 0.234E-01 0.551E+03   -.220E+00 -.356E-01 -.550E+03   -.773E-01 0.165E-01 -.190E+00
   -.420E-02 -.258E+00 0.552E+03   -.858E-02 0.237E+00 -.552E+03   0.133E-01 0.257E-01 0.108E-01
   0.627E-01 0.388E-02 0.161E+04   -.719E-01 -.125E-01 -.161E+04   0.111E-01 0.103E-01 0.301E+01
   -.607E-02 0.226E-01 0.161E+04   0.477E-02 -.299E-01 -.161E+04   0.159E-02 0.867E-02 0.300E+01
   -.312E+02 0.101E+02 -.153E+04   0.306E+02 -.101E+02 0.154E+04   0.552E+00 -.547E-01 -.436E+01
   -.196E+01 -.737E+01 -.157E+04   0.203E+01 0.725E+01 0.158E+04   -.580E-01 0.104E+00 -.458E+01
   -.174E+01 -.209E+01 -.484E+03   0.183E+01 0.206E+01 0.483E+03   -.768E-01 0.239E-01 0.738E+00
   0.932E-01 0.127E+01 -.486E+03   -.543E-01 -.130E+01 0.485E+03   -.336E-01 0.283E-01 0.276E+00
   -.308E+02 -.179E+02 0.283E+02   0.260E-12 0.234E-12 -.529E-11   0.258E+02 0.150E+02 -.241E+02

 POSITION                                       TOTAL-FORCE (eV/Angst)
      5.11150      4.61064     16.30865        -0.005692      0.003266      0.002672
      4.25140      5.60752     15.45247        -0.001503     -0.003210      0.000247
      4.22103      4.76221     15.97789        -0.005532      0.003471     -0.004562
      2.08728      0.00000      7.50000         0.000733      0.000906      0.427907
      4.17456      2.08728      7.50000        -0.000286      0.001954      0.426018
      2.08728      2.08728      9.58728         0.002235      0.005045      0.060980
      4.17456      0.00000      9.58728        -0.005087     -0.011823      0.078026
      2.08917      0.00190     11.68654         0.000273     -0.001264     -0.002017
      4.17383      2.09283     11.69172         0.000233      0.000540     -0.002887
      2.08110      2.08694     13.76394        -0.000761      0.000149     -0.004783
      4.17405      0.01726     13.76169        -0.000628      0.000693     -0.001923
      2.08728      4.17456      7.50000         0.001428     -0.000892      0.429078
      4.17456      6.26183      7.50000        -0.000357     -0.002104      0.429568
      2.08728      6.26183      9.58728         0.026468     -0.004321      0.057275
      4.17456      4.17456      9.58728         0.005766      0.007047      0.099661
      2.09466      4.17283     11.69424         0.000497      0.000722     -0.004507
      4.17344      6.25378     11.69426         0.000448      0.000494     -0.001725
      2.06897      6.26223     13.75685        -0.001014     -0.000320     -0.003048
      4.16174      4.12092     13.86464        -0.000183     -0.000771     -0.001078
      6.26183      0.00000      7.50000        -0.000682      0.001036      0.424183
      0.00000      2.08728      7.50000         0.000354      0.001319      0.429304
      6.26183      2.08728      9.58728        -0.000168      0.018159      0.056597
      0.00000      0.00000      9.58728         0.006758      0.012457      0.048260
      6.26110      0.00318     11.68385         0.000138     -0.001577      0.000168
      0.00182      2.08934     11.68347        -0.000829     -0.001029     -0.003160
      6.26950      2.08407     13.75666        -0.000081     -0.000178     -0.002852
      0.00257      0.00419     13.75908         0.000206      0.001013     -0.001071
      6.26183      4.17456      7.50000        -0.001461     -0.000973      0.431890
      0.00000      6.26183      7.50000         0.000491     -0.001293      0.420587
      6.26183      6.26183      9.58728        -0.022099     -0.015795      0.053433
      0.00000      4.17456      9.58728        -0.006441     -0.011813      0.073303
      6.25460      4.17227     11.69553        -0.000405      0.000829     -0.003458
      0.00324      6.26015     11.68015        -0.001010      0.001033      0.002270
      6.28537      6.26839     13.73719         0.000253     -0.000164     -0.000007
      0.00527      4.17145     13.75484         0.000568     -0.002118     -0.004240
      2.08728      0.00000      9.58728         0.002508     -0.009409      0.059082
      4.17456      2.08728      9.58728         0.003907      0.011480      0.091466
      2.08728      2.08728      7.50000        -0.000127     -0.001569     -0.565794
      4.17456      0.00000      7.50000         0.001369      0.000508     -0.563599
      2.08294      0.00008     13.80716        -0.000994     -0.001502      0.002271
      4.17669      2.06832     13.80381         0.000849      0.000005      0.001300
      2.08797      2.08458     11.67878        -0.000087     -0.000065      0.004509
      4.17592      8.34381     11.68302         0.000077     -0.000822     -0.000313
      2.08728      4.17456      9.58728         0.024482      0.009695      0.084033
      4.17456      6.26183      9.58728         0.001821     -0.016265      0.085392
      2.08728      6.26183      7.50000        -0.003714      0.001590     -0.563377
      4.17456      4.17456      7.50000        -0.000615     -0.000731     -0.567541
      2.07210      4.17543     13.78445        -0.000851      0.001676      0.004281
      4.17816      6.29901     13.86475         0.000108      0.001676      0.000557
      2.09318      6.26447     11.68429        -0.001015      0.000692      0.000874
      4.17698      4.17872     11.70148         0.000200     -0.000088      0.002100
      6.26183      0.00000      9.58728        -0.000216     -0.005252      0.062994
      0.00000      2.08728      9.58728        -0.001486     -0.008670      0.049425
      6.26183      2.08728      7.50000         0.000234     -0.003470     -0.565192
      0.00000      0.00000      7.50000        -0.001292     -0.002933     -0.562653
      6.26838      8.34902     13.80709        -0.000029     -0.001652     -0.000266
      8.34903      2.08462     13.80591        -0.000229     -0.001340      0.001913
      6.26214      2.08670     11.68003        -0.000173     -0.000563      0.003101
      8.34893      8.34772     11.67752        -0.000176     -0.000535      0.001664
      6.26183      4.17456      9.58728        -0.025121      0.007310      0.078282
      0.00000      6.26183      9.58728         0.002925      0.009650      0.068597
      6.26183      6.26183      7.50000         0.003921      0.003563     -0.562622
      0.00000      4.17456      7.50000         0.000570      0.002951     -0.565540
      6.27948      4.17692     13.81245         0.000862      0.001480      0.001612
      0.00008      6.26562     13.80400        -0.000383      0.001456     -0.001113
      6.25763      6.26288     11.68263         0.000124      0.000994      0.001307
      8.34692      4.17634     11.67474        -0.000075     -0.000344      0.003142
    total drift:                                0.000057      0.000399      0.003926

  FREE ENERGIE OF THE ION-ELECTRON SYSTEM (eV)
  free  energy   TOTEN  =      -491.22466038 eV

  energy  without entropy=     -491.22466038  energy(sigma->0) =     -491.22466038

 d Force = 0.6434250E-05[ 0.378E-05, 0.909E-05]  d Energy = 0.6506731E-05-0.725E-07
 d Force =-0.1989998E+01[-0.199E+01,-0.199E+01]  d Ewald  =-0.1989998E+01-0.362E-10

 Conjugate gradient step on ions:
 trial-energy change:   -0.000007  1 .order   -0.000006   -0.000009   -0.000004
  (g-gl).g = 0.334E-04      g.g   = 0.325E-04  gl.gl    = 0.251E-04
 g(Force)  = 0.325E-04   g(Stress)= 0.000E+00 ortho     = 0.549E-06
 gamma     =   1.33118
 trial     =   0.27364
 opt step  =   0.44515  (harmonic =   0.46797) maximal distance =0.00028317
 next E    =  -491.224662   (d E  =  -0.00001)

 reached required accuracy - stopping structural energy minimisation