 vasp.6.3.0 20Jan22 (build Apr  1 2022 16:44:48) complex
 executed on        HPECrayEX_GCC date 2022.11.13  00:37:38

 INCAR:
   SYSTEM = MgO-rocksalt
   ISMEAR = 0
   SIGMA = 0.05
   EDIFF = 1E-6
   ALGO = ALL
   ISTART = 0
   IBRION = -1
   NSW = 0
   ISYM = 0
   DIPOL = 0.5 0.5 0.5
   IDIPOL = 3
   LDIPOL = .TRUE.
   GGA = PE
   IVDW = 1
   VDW_C6 = 1.75 0.70 0.14 0.63 0.70
   VDW_R0 = 1.452 1.342 1.001 1.243 1.342
   ENCUT = 600
   PREC = Accurate
   LASPH = .TRUE.
   LREAL = .FALSE.
   ISPIN = 1
   NELM = 200
   NELMIN = 8
   NCORE = 8
   KPAR = 1
   LWAVE = .FALSE.
   LCHARG = .FALSE.

 POTCAR:    PAW_PBE C 08Apr2002
 POTCAR:    PAW_PBE O 08Apr2002
 POTCAR:    PAW_PBE H 15Jun2001
 POTCAR:    PAW_PBE Mg_pv 13Apr2007
 POTCAR:    PAW_PBE O 08Apr2002
 POTCAR:    PAW_PBE C 08Apr2002
   VRHFIN =C: s2p2

   TITEL  = PAW_PBE C 08Apr2002
   POMASS =   12.011; ZVAL   =    4.000    mass and valenz
   ENMAX  =  400.000; ENMIN  =  300.000 eV

[...]

   TITEL  = PAW_PBE H 15Jun2001
   POMASS =    1.000; ZVAL   =    1.000    mass and valenz
   ENMAX  =  250.000; ENMIN  =  200.000 eV

   TITEL  = PAW_PBE Mg_pv 13Apr2007
   POMASS =   24.305; ZVAL   =    8.000    mass and valenz
   ENMAX  =  403.929; ENMIN  =  302.947 eV

   TITEL  = PAW_PBE O 08Apr2002
   POMASS =   16.000; ZVAL   =    6.000    mass and valenz
   ENMAX  =  400.000; ENMIN  =  300.000 eV

  PAW_PBE C 08Apr2002                   :
  PAW_PBE O 08Apr2002                   :
  PAW_PBE H 15Jun2001                   :
  PAW_PBE Mg_pv 13Apr2007               :
  PAW_PBE O 08Apr2002                   :

 POSCAR:  C  O  H Mg  O
  positions in direct lattice
 exchange correlation table for  LEXCH =        8
   RHO(1)=    0.500       N(1)  =     2000
   RHO(2)=  100.500       N(2)  =     4000

 ion  position               nearest neighbor table
   1  0.431  0.619  0.795-   3 1.09   6 1.09   5 1.10   2 1.41
   2  0.422  0.493  0.751-   4 1.00   1 1.41  22 2.21
   3  0.541  0.603  0.822-   1 1.09
   4  0.323  0.501  0.725-   2 1.00
   5  0.436  0.736  0.772-   1 1.10
   6  0.330  0.616  0.828-   1 1.09
   7  0.250  0.000  0.353-  41 2.09  42 2.09  49 2.09  58 2.09  39 2.09
   8  0.500  0.250  0.353-  41 2.09  42 2.09  50 2.09  57 2.09  40 2.09
   9  0.250  0.250  0.451-  39 2.09  40 2.09  47 2.09  56 2.09  41 2.09  45 2.10
  10  0.500  0.000  0.451-  46 2.09  40 2.09  39 2.09  48 2.09  55 2.09  42 2.09
  11  0.250  0.000  0.549-  46 2.08  62 2.09  45 2.09  39 2.09  53 2.09  43 2.12
  12  0.500  0.251  0.550-  54 2.08  44 2.09  61 2.09  45 2.09  46 2.10  40 2.11
  13  0.250  0.247  0.647-  43 2.07  45 2.07  44 2.09  60 2.09  51 2.12
  14  0.500  0.000  0.647-  44 2.07  52 2.08  46 2.08  59 2.09  43 2.09
  15  0.250  0.500  0.353-  41 2.09  49 2.09  50 2.09  66 2.09  47 2.09
  16  0.500  0.750  0.353-  42 2.09  49 2.09  50 2.09  65 2.09  48 2.09
  17  0.250  0.750  0.451-  39 2.09  47 2.09  48 2.09  64 2.09  49 2.09  53 2.10
  18  0.500  0.500  0.451-  40 2.09  47 2.09  48 2.09  63 2.09  50 2.09  54 2.11
  19  0.251  0.500  0.550-  54 2.07  45 2.08  53 2.08  70 2.09  47 2.11  51 2.17
  20  0.500  0.749  0.550-  54 2.08  69 2.09  53 2.09  46 2.09  52 2.11  48 2.11
  21  0.249  0.753  0.646-  53 2.06  43 2.06  68 2.08  52 2.09  51 2.11
  22  0.507  0.499  0.652-  67 2.05  44 2.10  52 2.11  54 2.17  51 2.18   2 2.21
  23  0.750  0.000  0.353-  42 2.09  57 2.09  58 2.09  65 2.09  55 2.09
  24  0.000  0.250  0.353-  41 2.09  57 2.09  58 2.09  66 2.09  56 2.09
  25  0.750  0.250  0.451-  40 2.09  55 2.09  56 2.09  63 2.09  57 2.09  61 2.09
  26  0.000  0.000  0.451-  39 2.09  55 2.09  56 2.09  64 2.09  58 2.09  62 2.09
  27  0.750  0.000  0.549-  46 2.09  61 2.09  69 2.09  62 2.09  55 2.09  59 2.12
  28  1.000  0.250  0.550-  61 2.08  45 2.09  70 2.09  62 2.09  56 2.10  60 2.12
  29  0.750  0.249  0.647-  59 2.08  61 2.08  44 2.09  60 2.09  67 2.10
  30  0.999  0.000  0.647-  62 2.08  59 2.08  60 2.08  68 2.08  43 2.09
  31  0.750  0.500  0.353-  50 2.09  57 2.09  65 2.09  66 2.09  63 2.09
  32  0.000  0.750  0.353-  49 2.09  58 2.09  65 2.09  66 2.09  64 2.09
  33  0.750  0.750  0.451-  48 2.09  55 2.09  63 2.09  64 2.09  65 2.09  69 2.09
  34  0.000  0.500  0.451-  47 2.09  56 2.09  63 2.09  64 2.09  66 2.09  70 2.10
  35  0.749  0.500  0.550-  54 2.08  61 2.09  69 2.09  70 2.10  63 2.10  67 2.12
  36  1.000  0.750  0.550-  69 2.08  70 2.09  53 2.09  62 2.09  64 2.10  68 2.12
  37  0.750  0.751  0.647-  69 2.08  59 2.08  68 2.09  52 2.09  67 2.09
  38  0.998  0.500  0.647-  67 2.05  51 2.07  70 2.08  60 2.09  68 2.09
  39  0.250  0.000  0.451-   9 2.09  10 2.09  17 2.09  26 2.09   7 2.09  11 2.09
  40  0.500  0.250  0.451-   9 2.09  10 2.09  18 2.09  25 2.09   8 2.09  12 2.11
  41  0.250  0.250  0.353-   7 2.09   8 2.09  15 2.09  24 2.09   9 2.09
  42  0.500  0.000  0.353-   7 2.09   8 2.09  16 2.09  23 2.09  10 2.09
  43  0.250  1.000  0.649-  21 2.06  13 2.07  30 2.09  14 2.09  11 2.12
  44  0.500  0.248  0.648-  14 2.07  13 2.09  12 2.09  29 2.09  22 2.10
  45  0.250  0.251  0.550-  13 2.07  19 2.08  28 2.09  11 2.09  12 2.09   9 2.10
  46  0.500  1.000  0.549-  14 2.08  11 2.08  10 2.09  27 2.09  20 2.09  12 2.10
  47  0.250  0.500  0.451-   9 2.09  17 2.09  18 2.09  34 2.09  15 2.09  19 2.11
  48  0.500  0.750  0.451-  10 2.09  17 2.09  18 2.09  33 2.09  16 2.09  20 2.11
  49  0.250  0.750  0.353-   7 2.09  15 2.09  16 2.09  32 2.09  17 2.09
  50  0.500  0.500  0.353-   8 2.09  15 2.09  16 2.09  31 2.09  18 2.09
  51  0.245  0.500  0.652-  38 2.07  21 2.11  13 2.12  19 2.17  22 2.18
  52  0.500  0.752  0.649-  14 2.08  21 2.09  37 2.09  20 2.11  22 2.11
  53  0.250  0.749  0.549-  21 2.06  19 2.08  36 2.09  20 2.09  11 2.09  17 2.10
  54  0.499  0.500  0.550-  19 2.07  20 2.08  12 2.08  35 2.08  18 2.11  22 2.17
  55  0.750  0.000  0.451-  10 2.09  25 2.09  26 2.09  33 2.09  23 2.09  27 2.09
  56  0.000  0.250  0.451-   9 2.09  25 2.09  26 2.09  34 2.09  24 2.09  28 2.10
  57  0.750  0.250  0.353-   8 2.09  23 2.09  24 2.09  31 2.09  25 2.09
  58  0.000  0.000  0.353-   7 2.09  23 2.09  24 2.09  32 2.09  26 2.09
  59  0.750  1.000  0.649-  37 2.08  30 2.08  29 2.08  14 2.09  27 2.12
  60  0.000  0.249  0.649-  30 2.08  29 2.09  13 2.09  38 2.09  28 2.12
  61  0.750  0.250  0.549-  28 2.08  29 2.08  35 2.09  27 2.09  12 2.09  25 2.09
  62  0.000  1.000  0.549-  30 2.08  11 2.09  36 2.09  28 2.09  27 2.09  26 2.09
  63  0.750  0.500  0.451-  18 2.09  25 2.09  33 2.09  34 2.09  31 2.09  35 2.10
  64  0.000  0.750  0.451-  17 2.09  26 2.09  33 2.09  34 2.09  32 2.09  36 2.10
  65  0.750  0.750  0.353-  16 2.09  23 2.09  31 2.09  32 2.09  33 2.09
  66  0.000  0.500  0.353-  15 2.09  24 2.09  31 2.09  32 2.09  34 2.09
  67  0.752  0.500  0.649-  38 2.05  22 2.05  37 2.09  29 2.10  35 2.12
  68  1.000  0.751  0.649-  30 2.08  21 2.08  37 2.09  38 2.09  36 2.12
  69  0.750  0.750  0.549-  37 2.08  36 2.08  20 2.09  35 2.09  27 2.09  33 2.09
  70  0.001  0.500  0.549-  38 2.08  36 2.09  28 2.09  19 2.09  34 2.10  35 2.10

IMPORTANT INFORMATION: All symmetrisations will be switched off!
NOSYMM: (Re-)initialisation of all symmetry stuff for point group C_1.

                                     Primitive cell

  volume of cell :    1482.1129

  direct lattice vectors                    reciprocal lattice vectors
     8.349111827  0.000000000  0.000000000     0.119773219  0.000000000  0.000000000
     0.000000000  8.349111827  0.000000000     0.000000000  0.119773219  0.000000000
     0.000000000  0.000000000 21.261833870     0.000000000  0.000000000  0.047032632

  length of vectors
     8.349111827  8.349111827 21.261833870     0.119773219  0.119773219  0.047032632

  position of ions in fractional coordinates (direct lattice)
     0.431292163  0.618754330  0.795133326
     0.422096156  0.492838203  0.750849130
     0.541107486  0.602866581  0.822153320
     0.322738588  0.500819286  0.724961872
     0.436247762  0.735894408  0.771986430
     0.329867477  0.615819502  0.827693236
     0.250000000  0.000000000  0.352744737
     0.500000000  0.250000000  0.352744737
     0.250000000  0.250000000  0.450914912
     0.500000000  0.000000000  0.450914912
     0.250227883  0.000187923  0.549322304
     0.500190670  0.250922993  0.549981269
     0.250170031  0.247307299  0.646969261
     0.500456821  0.000351607  0.646757370
     0.250000000  0.500000000  0.352744737
     0.500000000  0.750000000  0.352744737
     0.250000000  0.750000000  0.450914912
     0.500000000  0.500000000  0.450914912
     0.251008758  0.499803780  0.549970062
     0.500240848  0.748907207  0.550026247
     0.249454202  0.752708188  0.646202182
     0.506551502  0.498977220  0.652478451
     0.750000000  0.000000000  0.352744737
     0.000000000  0.250000000  0.352744737
     0.750000000  0.250000000  0.450914912
     0.000000000  0.000000000  0.450914912
     0.749762177  0.000067976  0.549447066
     0.999808952  0.250125476  0.549627130
     0.749837147  0.249030027  0.647240497
     0.999481469  0.000089173  0.647102148
     0.750000000  0.500000000  0.352744737
     0.000000000  0.750000000  0.352744737
     0.750000000  0.750000000  0.450914912
     0.000000000  0.500000000  0.450914912
     0.749139578  0.499867307  0.549871136
     0.999663208  0.749818477  0.549526307
     0.750171706  0.750844408  0.647018700
     0.997607772  0.499810301  0.647115235
     0.250000000  0.000000000  0.450914912
     0.500000000  0.250000000  0.450914912
     0.250000000  0.250000000  0.352744737
     0.500000000  0.000000000  0.352744737
     0.249619794  0.999762896  0.649259659
     0.499933278  0.248026973  0.648109944
     0.249591690  0.250592519  0.549539662
     0.499808641  0.999689109  0.549026183
     0.250000000  0.500000000  0.450914912
     0.500000000  0.750000000  0.450914912
     0.250000000  0.750000000  0.352744737
     0.500000000  0.500000000  0.352744737
     0.244978237  0.500317530  0.652008358
     0.499748173  0.751648347  0.649056826
     0.249703572  0.749376129  0.549452493
     0.499479801  0.500123746  0.550327091
     0.750000000  0.000000000  0.450914912
     0.000000000  0.250000000  0.450914912
     0.750000000  0.250000000  0.352744737
     0.000000000  0.000000000  0.352744737
     0.750277162  0.999813170  0.649344883
     0.000001646  0.249310822  0.649465781
     0.750424724  0.250030465  0.549292391
     0.000170891  0.999905781  0.549248207
     0.750000000  0.500000000  0.450914912
     0.000000000  0.750000000  0.450914912
     0.750000000  0.750000000  0.352744737
     0.000000000  0.500000000  0.352744737
     0.752159835  0.500113464  0.649459675
     0.999990277  0.750612363  0.649454314
     0.750232090  0.749901570  0.549332483
     0.000535025  0.500038769  0.549497338

  ion indices of the primitive-cell ions
   primitive index   ion index
                 1           1
                 2           2
                 3           3
                 4           4
                 5           5
                 6           6
                 7           7
                 8           8
                 9           9
                10          10
                11          11
                12          12
                13          13
[...]
   4.17455591  0.00000000  7.50000000
   2.08410357  8.34713221 13.80445100
   4.17399885  2.07080493 13.78000596
   2.08386893  2.09222497 11.68422101
   4.17295824  8.34651616 11.67330349
   2.08727796  4.17455591  9.58727796
   4.17455591  6.26183387  9.58727796
   2.08727796  6.26183387  7.50000000
   4.17455591  4.17455591  7.50000000
   2.04535070  4.17720701 13.86289339
   4.17245339  6.27559610 13.80013840
   2.08480304  6.25662510 11.68236762
   4.17021271  4.17558909 11.70096318
   6.26183387  0.00000000  9.58727796
   0.00000000  2.08727796  9.58727796
   6.26183387  2.08727796  7.50000000
   0.00000000  0.00000000  7.50000000
   6.26414792  8.34755196 13.80626303
   0.00001374  2.08152393 13.80883353
   6.26537994  2.08753231 11.67896356
   0.00142679  8.34832518 11.67802414
   6.26183387  4.17455591  9.58727796
   0.00000000  6.26183387  9.58727796
   6.26183387  6.26183387  7.50000000
   0.00000000  4.17455591  7.50000000
   6.27986657  4.17550324 13.80870372
   8.34903065  6.26694656 13.80858972
   6.26377161  6.26101207 11.67981600
   0.00446698  4.17487960 11.68332111

--------------------------------------- Iteration      FINAL  ---------------------------------------

--------------------OUTCAR has been truncated-------------------------

[...]

--------------------OUTCAR has been truncated-------------------------

  DFT-D2 method for vdW energy calculation

  Parameters of vdW forcefield:
         C6(Jnm^6/mol)     R0(A)
   C        1.750          1.452
   O        0.700          1.342
   H        0.140          1.001
   Mg       0.630          1.243
   O        0.700          1.342

  vdW correction parametrized for the method pbe

  IVDW =   1
  VDW_RADIUS =    50.000 A
  VDW_S6 =     0.750
  VDW_SR =     1.000
  VDW_D =    20.000
  LVDW_EWALD = F

  Number of pair interactions contributing to vdW energy:  885486
  Edisp (eV):   -3.97586

  FORCE on cell =-STRESS in cart. coord.  units (eV):
  Direction    XX          YY          ZZ          XY          YZ          ZX
  Alpha Z   942.23310   942.23310   942.23310
  Ewald  163044.95126163100.32013************    13.05928   138.58062    35.81706
  Hartree173382.17158173438.54342************     8.62177    79.27736     7.02111
  E(xc)   -2518.99164 -2519.09353 -2523.79434     0.00030     0.19122     0.26805
  Local  ************************346205.10733   -21.96144  -208.13948   -32.87162
  n-local -2851.66194 -2850.04159 -2870.75837     0.31905     1.88547    -0.21243
  augment  1054.08527  1054.28371  1044.71903     0.01285    -0.84625    -0.62779
  Kinetic  7559.11210  7563.58373  7594.07499    -0.08913   -10.67212    -9.13049
  Fock        0.00000     0.00000     0.00000     0.00000     0.00000     0.00000
  vdW        -5.58908    -5.68984    -4.78812    -0.01191    -0.02447    -0.01537
  Total      -1.85653    -2.25340    16.81844    -0.04923     0.25236     0.24851
  in kB      -2.00692    -2.43594    18.18089    -0.05322     0.27281     0.26864

 VOLUME and BASIS-vectors are now :
  energy-cutoff  :      600.00
  volume of cell :     1482.11
      direct lattice vectors                 reciprocal lattice vectors
     8.349111827  0.000000000  0.000000000     0.119773219  0.000000000  0.000000000
     0.000000000  8.349111827  0.000000000     0.000000000  0.119773219  0.000000000
     0.000000000  0.000000000 21.261833870     0.000000000  0.000000000  0.047032632

  length of vectors
     8.349111827  8.349111827 21.261833870     0.119773219  0.119773219  0.047032632

 FORCES acting on ions:
    Electron-Ion                     Ewald-Force                    Non-Local-Force
   -.854E+01 -.935E+02 -.105E+04   0.900E+01 0.983E+02 0.105E+04   -.479E+00 -.459E+01 -.380E+01
   -.236E+02 0.136E+03 -.165E+04   0.481E+02 -.168E+03 0.164E+04   -.240E+02 0.314E+02 0.227E+01
   -.523E+02 -.135E+01 -.251E+03   0.574E+02 0.640E+00 0.254E+03   -.486E+01 0.689E+00 -.307E+01
   0.717E+02 0.422E+01 -.261E+03   -.783E+02 -.392E+01 0.256E+03   0.611E+01 -.250E+00 0.410E+01
   -.318E+01 -.623E+02 -.246E+03   0.349E+01 0.676E+02 0.243E+03   -.289E+00 -.506E+01 0.257E+01
   0.458E+02 -.717E+01 -.250E+03   -.504E+02 0.707E+01 0.254E+03   0.437E+01 0.114E+00 -.363E+01
   0.136E+00 -.976E-01 0.215E+04   -.132E+00 0.988E-01 -.214E+04   -.252E-02 -.913E-03 -.707E+01
   -.703E-01 -.338E-01 0.215E+04   0.729E-01 0.408E-01 -.214E+04   -.182E-02 -.539E-02 -.711E+01
   0.400E+00 0.402E-01 0.754E+03   -.389E+00 0.458E-01 -.754E+03   -.584E-02 -.630E-01 0.580E+00
   -.457E+00 -.418E+00 0.755E+03   0.494E+00 0.394E+00 -.756E+03   -.266E-01 0.178E-01 0.283E+00
   0.487E+01 -.185E+01 -.627E+03   -.480E+01 0.191E+01 0.627E+03   -.747E-01 -.573E-01 -.885E-01
   -.189E+01 0.466E+01 -.622E+03   0.196E+01 -.441E+01 0.623E+03   -.659E-01 -.261E+00 -.113E+01
   0.287E+02 0.321E+02 -.200E+04   -.287E+02 -.332E+02 0.199E+04   -.271E-01 0.114E+01 0.624E+01
   -.858E+01 -.910E+01 -.202E+04   0.875E+01 0.929E+01 0.201E+04   -.174E+00 -.191E+00 0.611E+01
   0.108E+00 0.982E-01 0.215E+04   -.987E-01 -.993E-01 -.214E+04   -.680E-02 0.888E-03 -.710E+01
   -.823E-01 0.328E-01 0.215E+04   0.854E-01 -.404E-01 -.214E+04   -.222E-02 0.582E-02 -.712E+01
   0.387E+00 -.565E-01 0.754E+03   -.344E+00 -.287E-01 -.755E+03   -.295E-01 0.627E-01 0.575E+00
   -.467E+00 0.399E+00 0.753E+03   0.436E+00 -.384E+00 -.753E+03   0.240E-01 -.118E-01 0.682E+00
   0.499E+01 0.194E+01 -.630E+03   -.472E+01 -.199E+01 0.630E+03   -.272E+00 0.563E-01 0.976E+00
   -.245E+01 -.464E+01 -.622E+03   0.255E+01 0.438E+01 0.623E+03   -.928E-01 0.266E+00 -.679E+00
   0.344E+02 -.331E+02 -.197E+04   -.346E+02 0.342E+02 0.196E+04   0.174E+00 -.113E+01 0.627E+01
   -.402E+02 0.124E+02 -.191E+04   0.422E+02 -.126E+02 0.190E+04   -.202E+01 0.156E+00 0.267E+01
   -.135E+00 -.862E-01 0.215E+04   0.131E+00 0.867E-01 -.214E+04   0.256E-02 -.338E-03 -.710E+01
   0.697E-01 -.576E-02 0.215E+04   -.723E-01 0.758E-02 -.214E+04   0.179E-02 -.128E-02 -.710E+01
   -.387E+00 -.273E-01 0.754E+03   0.377E+00 0.335E-01 -.754E+03   0.535E-02 -.354E-02 0.434E+00
   0.441E+00 -.422E+00 0.753E+03   -.479E+00 0.436E+00 -.753E+03   0.271E-01 -.976E-02 0.439E+00
   -.479E+01 -.132E+01 -.634E+03   0.471E+01 0.135E+01 0.634E+03   0.722E-01 -.302E-01 -.123E+00
   0.187E+01 0.347E+01 -.635E+03   -.195E+01 -.343E+01 0.636E+03   0.740E-01 -.393E-01 -.221E+00
   -.248E+02 0.209E+02 -.203E+04   0.248E+02 -.212E+02 0.202E+04   0.481E-01 0.345E+00 0.615E+01
   0.736E+01 -.457E+01 -.204E+04   -.753E+01 0.461E+01 0.203E+04   0.170E+00 -.441E-01 0.605E+01
   -.107E+00 0.862E-01 0.215E+04   0.978E-01 -.868E-01 -.214E+04   0.660E-02 0.443E-03 -.709E+01
   0.810E-01 0.528E-02 0.215E+04   -.844E-01 -.723E-02 -.214E+04   0.243E-02 0.139E-02 -.709E+01
   -.374E+00 0.177E-01 0.754E+03   0.326E+00 -.260E-01 -.755E+03   0.323E-01 0.498E-02 0.471E+00
   0.455E+00 0.421E+00 0.753E+03   -.420E+00 -.438E+00 -.753E+03   -.264E-01 0.113E-01 0.502E+00
   -.591E+01 0.136E+01 -.627E+03   0.568E+01 -.139E+01 0.627E+03   0.238E+00 0.292E-01 -.387E+00
   0.240E+01 -.347E+01 -.632E+03   -.250E+01 0.344E+01 0.632E+03   0.103E+00 0.391E-01 -.158E+00
   -.292E+02 -.215E+02 -.201E+04   0.294E+02 0.219E+02 0.201E+04   -.109E+00 -.329E+00 0.615E+01
   0.163E+02 0.488E+01 -.201E+04   -.168E+02 -.492E+01 0.201E+04   0.502E+00 0.480E-01 0.594E+01
   0.602E+00 -.281E+00 0.566E+03   -.578E+00 0.275E+00 -.566E+03   -.349E-01 0.699E-02 0.386E-01
   -.136E+00 -.651E-01 0.565E+03   0.153E+00 0.416E-02 -.564E+03   -.256E-01 0.829E-01 -.161E+00
   0.879E-01 -.145E-01 0.161E+04   -.838E-01 0.229E-01 -.162E+04   -.577E-02 -.118E-01 0.347E+01
   -.610E-01 -.685E-01 0.161E+04   0.675E-01 0.675E-01 -.162E+04   -.901E-02 0.148E-02 0.346E+01
   0.125E+02 -.712E+01 -.154E+04   -.124E+02 0.716E+01 0.155E+04   -.107E+00 -.325E-01 -.517E+01
   -.115E+02 0.352E+02 -.150E+04   0.115E+02 -.347E+02 0.151E+04   0.817E-01 -.465E+00 -.530E+01
   0.372E+01 0.269E+01 -.465E+03   -.364E+01 -.278E+01 0.464E+03   -.791E-01 0.918E-01 0.496E+00
   -.191E+01 -.123E+01 -.462E+03   0.195E+01 0.125E+01 0.462E+03   -.309E-01 -.283E-01 0.278E+00
   0.456E+00 0.289E+00 0.565E+03   -.497E+00 -.284E+00 -.565E+03   0.528E-01 -.593E-02 -.131E+00
   -.211E+00 0.549E-01 0.565E+03   0.223E+00 0.171E-01 -.565E+03   -.189E-01 -.979E-01 -.188E+00
   0.854E-01 0.141E-01 0.161E+04   -.777E-01 -.225E-01 -.162E+04   -.108E-01 0.119E-01 0.347E+01
   -.600E-01 0.692E-01 0.161E+04   0.590E-01 -.677E-01 -.162E+04   0.153E-02 -.210E-02 0.345E+01
   0.479E+02 0.824E+01 -.147E+04   -.478E+02 -.827E+01 0.147E+04   -.960E-01 0.210E-01 -.170E+01
   -.154E+02 -.372E+02 -.148E+04   0.153E+02 0.367E+02 0.149E+04   0.815E-01 0.500E+00 -.501E+01
   0.377E+01 -.273E+01 -.459E+03   -.371E+01 0.282E+01 0.458E+03   -.615E-01 -.903E-01 0.741E+00
   -.708E+00 0.126E+01 -.473E+03   0.757E+00 -.130E+01 0.473E+03   -.511E-01 0.346E-01 -.876E+00
   -.593E+00 -.217E+00 0.565E+03   0.570E+00 0.221E+00 -.565E+03   0.338E-01 -.576E-02 -.639E-01
   0.128E+00 0.555E-01 0.564E+03   -.145E+00 -.555E-01 -.564E+03   0.264E-01 0.765E-03 -.949E-01
   -.875E-01 -.135E-01 0.161E+04   0.833E-01 0.144E-01 -.162E+04   0.583E-02 -.123E-02 0.346E+01
   0.605E-01 -.715E-01 0.161E+04   -.670E-01 0.737E-01 -.162E+04   0.898E-02 -.318E-02 0.347E+01
   -.116E+02 -.460E+01 -.155E+04   0.115E+02 0.461E+01 0.156E+04   0.973E-01 -.113E-01 -.511E+01
   0.851E+01 0.114E+02 -.155E+04   -.846E+01 -.111E+02 0.155E+04   -.503E-01 -.209E+00 -.512E+01
   -.369E+01 0.302E+01 -.467E+03   0.360E+01 -.303E+01 0.467E+03   0.860E-01 0.986E-02 0.258E+00
   0.183E+01 -.116E+01 -.472E+03   -.186E+01 0.117E+01 0.472E+03   0.263E-01 -.907E-02 0.246E+00
   -.434E+00 0.213E+00 0.564E+03   0.470E+00 -.214E+00 -.564E+03   -.460E-01 0.235E-02 -.905E-01
   0.190E+00 -.637E-01 0.565E+03   -.197E+00 0.668E-01 -.565E+03   0.116E-01 -.480E-02 -.530E-01
   -.845E-01 0.135E-01 0.161E+04   0.769E-01 -.143E-01 -.162E+04   0.106E-01 0.117E-02 0.346E+01
   0.592E-01 0.718E-01 0.161E+04   -.583E-01 -.740E-01 -.162E+04   -.136E-02 0.302E-02 0.347E+01
   -.341E+02 0.498E+01 -.152E+04   0.342E+02 -.500E+01 0.153E+04   -.410E-01 0.152E-01 -.497E+01
   0.109E+02 -.116E+02 -.154E+04   -.108E+02 0.114E+02 0.155E+04   -.138E-01 0.216E+00 -.515E+01
   -.373E+01 -.305E+01 -.465E+03   0.366E+01 0.306E+01 0.465E+03   0.672E-01 -.115E-01 0.357E+00
   0.139E+01 0.118E+01 -.467E+03   -.144E+01 -.119E+01 0.466E+03   0.476E-01 0.112E-01 0.426E+00
   0.206E+02 -.223E+02 0.192E+02   -.926E-13 0.462E-13 -.176E-11   -.206E+02 0.223E+02 -.192E+02

 POSITION                                       TOTAL-FORCE (eV/Angst)
      3.60091      5.16605     16.90599        -0.004467      0.185132      0.171676
      3.52413      4.11476     15.96443         0.455206     -0.503644      0.048745
      4.51777      5.03340     17.48049         0.242547     -0.030995      0.156660
      2.69458      4.18140     15.41402        -0.488689      0.065058     -0.243603
      3.64228      6.14406     16.41385         0.009490      0.280972     -0.137498
      2.75410      5.14155     17.59828        -0.224992      0.002876      0.196111
      2.08728      0.00000      7.50000         0.001143      0.000304      0.183271
      4.17456      2.08728      7.50000         0.000793      0.001582      0.191652
      2.08728      2.08728      9.58728         0.004961      0.022407      0.035850
      4.17456      0.00000      9.58728         0.010557     -0.006156      0.048835
      2.08918      0.00157     11.67960        -0.000367     -0.000525      0.031558
      4.17615      2.09498     11.69361         0.000269     -0.006362      0.013727
      2.08870      2.06480     13.75575         0.001402      0.014035      0.187068
      4.17837      0.00294     13.75125        -0.002869     -0.004311      0.184842
      2.08728      4.17456      7.50000         0.002249     -0.000230      0.191514
      4.17456      6.26183      7.50000         0.000892     -0.001698      0.193976
      2.08728      6.26183      9.58728         0.012999     -0.021886      0.032354
      4.17456      4.17456      9.58728        -0.006666      0.003151      0.079850
      2.09570      4.17292     11.69337        -0.001598      0.001020      0.034853
      4.17657      6.25271     11.69457        -0.000131      0.007156      0.020374
      2.08272      6.28444     13.73944         0.010048     -0.014979      0.196378
      4.22926      4.16602     13.87289         0.021002      0.011950      0.089001
      6.26183      0.00000      7.50000        -0.001119      0.000158      0.191009
      0.00000      2.08728      7.50000        -0.000760      0.000558      0.189902
      6.26183      2.08728      9.58728        -0.004972      0.002455      0.038030
      0.00000      0.00000      9.58728        -0.010610      0.003895      0.024548
      6.25985      0.00057     11.68225        -0.001098     -0.000380      0.031868
      8.34752      2.08833     11.68608        -0.000635     -0.001599      0.027808
      6.26047      2.07918     13.76152         0.001976      0.001768      0.180741
      8.34478      0.00074     13.75858         0.000878     -0.000026      0.184437
      6.26183      4.17456      7.50000        -0.002183     -0.000125      0.188498
      0.00000      6.26183      7.50000        -0.000905     -0.000542      0.187331
      6.26183      6.26183      9.58728        -0.014833     -0.002998      0.034959
      0.00000      4.17456      9.58728         0.008389     -0.004688      0.056292
      6.25465      4.17345     11.69127         0.003572      0.000312      0.026436
      8.34630      6.26032     11.68394        -0.000302      0.001803      0.028411
      6.26327      6.26888     13.75680        -0.000978     -0.000984      0.181883
      8.32914      4.17297     13.75886        -0.000623      0.000169      0.179963
      2.08728      0.00000      9.58728        -0.011274      0.001148      0.065756
      4.17456      2.08728      9.58728        -0.008870      0.022174      0.082800
      2.08728      2.08728      7.50000        -0.001621     -0.003412     -0.669046
      4.17456      0.00000      7.50000        -0.002522      0.000453     -0.671061
      2.08410      8.34713     13.80445         0.000324      0.003982      0.152411
      4.17400      2.07080     13.78001        -0.007045      0.019795      0.161421
      2.08387      2.09222     11.68422         0.000210      0.001262     -0.007340
      4.17296      8.34652     11.67330         0.000237      0.000952     -0.009697
      2.08728      4.17456      9.58728         0.012098     -0.000934      0.087343
      4.17456      6.26183      9.58728        -0.007066     -0.026093      0.077968
      2.08728      6.26183      7.50000        -0.003070      0.003478     -0.668597
      4.17456      4.17456      7.50000         0.000493     -0.000612     -0.673611
      2.04535      4.17721     13.86289        -0.004744     -0.005656      0.072648
      4.17245      6.27560     13.80014        -0.006708     -0.019129      0.160506
      2.08480      6.25663     11.68237        -0.000482     -0.000729     -0.013174
      4.17021      4.17559     11.70096        -0.002539     -0.000791      0.019739
      6.26183      0.00000      9.58728         0.010953     -0.002162      0.047987
      0.00000      2.08728      9.58728         0.009283      0.000763      0.059351
      6.26183      2.08728      7.50000         0.001666     -0.000366     -0.671158
      0.00000      0.00000      7.50000         0.002551     -0.000895     -0.668404
      6.26415      8.34755     13.80626         0.000461      0.002417      0.155537
      0.00001      2.08152     13.80883         0.001366      0.006030      0.156728
      6.26538      2.08753     11.67896        -0.000728      0.000252     -0.005348
      0.00143      8.34833     11.67802        -0.000200      0.000272     -0.004416
      6.26183      4.17456      9.58728        -0.010774      0.001346      0.091579
      0.00000      6.26183      9.58728         0.005467     -0.001722      0.060519
      6.26183      6.26183      7.50000         0.003025      0.000380     -0.670920
      0.00000      4.17456      7.50000        -0.000407      0.000872     -0.669163
      6.27987      4.17550     13.80870        -0.000563     -0.001973      0.150533
      8.34903      6.26695     13.80859        -0.000397     -0.005830      0.155563
      6.26377      6.26101     11.67982        -0.000139      0.000015     -0.007897
      0.00447      4.17488     11.68332         0.001438      0.000081     -0.007866
    total drift:                               -0.001258     -0.001167      0.004531

  FREE ENERGIE OF THE ION-ELECTRON SYSTEM (eV)
  free  energy   TOTEN  =      -406.68700382 eV

  energy  without entropy=     -406.68700382  energy(sigma->0) =     -406.68700382