 vasp.6.3.0 20Jan22 (build Apr  1 2022 16:44:48) complex
 executed on        HPECrayEX_GCC date 2023.02.18  04:43:59

 INCAR:
   SYSTEM = MgO-rocksalt
   ISMEAR = 0
   SIGMA = 0.05
   EDIFF = 1E-7
   ALGO = ALL
   ISTART = 0
   IBRION = 2
   NSW = 1000
   ISYM = 0
   ISIF = 2
   EDIFFG = -0.01
   DIPOL = 0.5 0.5 0.5
   IDIPOL = 3
   LDIPOL = .TRUE.
   GGA = PE
   IVDW = 1
   VDW_C6 = 1.75 0.14 0.63 0.70
   VDW_R0 = 1.452 1.001 1.243 1.342
   ENCUT = 520
   PREC = Accurate
   LASPH = .TRUE.
   LREAL = Auto
   ISPIN = 1
   NELM = 200
   NELMIN = 8
   NCORE = 8
   KPAR = 1
   LWAVE = .FALSE.
   LCHARG = .FALSE.

 POTCAR:    PAW_PBE C 08Apr2002
 POTCAR:    PAW_PBE H 15Jun2001
 POTCAR:    PAW_PBE Mg 13Apr2007
 POTCAR:    PAW_PBE O 08Apr2002
 POTCAR:    PAW_PBE C 08Apr2002
   VRHFIN =C: s2p2

   TITEL  = PAW_PBE C 08Apr2002
   POMASS =   12.011; ZVAL   =    4.000    mass and valenz
   ENMAX  =  400.000; ENMIN  =  300.000 eV

   TITEL  = PAW_PBE H 15Jun2001
   POMASS =    1.000; ZVAL   =    1.000    mass and valenz
   ENMAX  =  250.000; ENMIN  =  200.000 eV

[...]

   TITEL  = PAW_PBE O 08Apr2002
   POMASS =   16.000; ZVAL   =    6.000    mass and valenz
   ENMAX  =  400.000; ENMIN  =  300.000 eV

 Optimization of the real space projectors (new method)

 maximal supplied QI-value         = 25.13
 optimisation between [QCUT,QGAM] = [ 11.56, 23.12] = [ 37.43,149.72] Ry
 Optimized for a Real-space Cutoff    1.04 Angstroem

   l    n(q)    QCUT    max X(q) W(low)/X(q) W(high)/X(q)  e(spline)
   0      7    11.561   115.676    0.20E-03    0.60E-03    0.21E-06
   0      7    11.561    87.132    0.20E-03    0.59E-03    0.21E-06
   1      7    11.561     4.429    0.23E-03    0.35E-03    0.15E-06
   1      7    11.561     2.733    0.18E-03    0.25E-03    0.12E-06
 Optimization of the real space projectors (new method)

[...]

   l    n(q)    QCUT    max X(q) W(low)/X(q) W(high)/X(q)  e(spline)
   0      9    11.527    28.265    0.62E-04    0.53E-04    0.73E-07
   0      9    11.527    10.429    0.52E-04    0.40E-04    0.58E-07
   1      8    11.527    13.073    0.98E-04    0.18E-03    0.86E-07
   1      8    11.527     9.625    0.79E-04    0.15E-03    0.74E-07
   2      8    11.527     4.652    0.22E-03    0.72E-04    0.47E-07
 Optimization of the real space projectors (new method)

 maximal supplied QI-value         = 24.76
 optimisation between [QCUT,QGAM] = [ 11.64, 23.27] = [ 37.91,151.63] Ry
 Optimized for a Real-space Cutoff    1.14 Angstroem

   l    n(q)    QCUT    max X(q) W(low)/X(q) W(high)/X(q)  e(spline)
   0      8    11.635    20.381    0.10E-03    0.33E-03    0.24E-06
   0      8    11.635    15.268    0.11E-03    0.35E-03    0.26E-06
   1      7    11.635     5.964    0.24E-03    0.31E-03    0.30E-06
   1      7    11.635     5.382    0.22E-03    0.25E-03    0.26E-06
  PAW_PBE C 08Apr2002                   :
  PAW_PBE H 15Jun2001                   :
  PAW_PBE Mg 13Apr2007                  :
  PAW_PBE O 08Apr2002                   :

 POSCAR:  C  H Mg  O
  positions in direct lattice
 exchange correlation table for  LEXCH =        8
   RHO(1)=    0.500       N(1)  =     2000
   RHO(2)=  100.500       N(2)  =     4000

 ion  position               nearest neighbor table
   1  0.480  0.471  0.789-   7 1.09   2 1.40   6 1.40
   2  0.562  0.461  0.788-   8 1.09   1 1.40   3 1.40
   3  0.594  0.385  0.789-   9 1.09   4 1.40   2 1.40
   4  0.545  0.319  0.793-  10 1.09   3 1.40   5 1.40
   5  0.463  0.329  0.794-  11 1.09   6 1.40   4 1.40
   6  0.430  0.405  0.792-  12 1.09   5 1.40   1 1.40
   7  0.455  0.530  0.788-   1 1.09
   8  0.601  0.512  0.785-   2 1.09
   9  0.658  0.377  0.788-   3 1.09
  10  0.570  0.260  0.793-   4 1.09
  11  0.424  0.277  0.796-   5 1.09
  12  0.366  0.413  0.793-   6 1.09
  13  0.125  0.000  0.351- 141 2.12 143 2.12 144 2.12 160 2.12 183 2.12  16 2.99  32 2.99  55 2.99
                            15 2.99  54 2.99  30 2.99  70 2.99  14 2.99
  14  0.250  0.125  0.351- 142 2.12 143 2.12 144 2.12 152 2.12 159 2.12  16 2.99  24 2.99  31 2.99
                            15 2.99  29 2.99  21 2.99  37 2.99  13 2.99
  15  0.125  0.125  0.450- 143 2.12 142 2.12 141 2.12 149 2.12 158 2.12 147 2.12  21 2.99  30 2.99
                            13 2.99  14 2.99  32 2.99  40 2.99  24 2.99  16 2.99  34 3.00  25 3.00
  16  0.250  0.000  0.450- 144 2.12 142 2.12 141 2.12 157 2.12 182 2.12 148 2.12  29 2.99  54 2.99
                            13 2.99  14 2.99  55 2.99  71 2.99  31 2.99  15 2.99  58 3.00  33 3.00
  17  0.125  0.000  0.550- 147 2.12 148 2.12 164 2.12 187 2.12 141 2.13 145 2.15  36 2.98  59 2.98
                            19 2.98  20 2.98  34 2.99  74 2.99  18 2.99  58 2.99  16 3.00  15 3.00
  18  0.250  0.125  0.550- 147 2.12 148 2.12 156 2.12 163 2.12 142 2.13 146 2.15  28 2.98  35 2.98
                            19 2.98  20 2.98  25 2.99  41 2.99  17 2.99  33 2.99  16 3.00  15 3.00
  19  0.125  0.125  0.649- 147 2.11 146 2.12 145 2.12 153 2.12 162 2.12  18 2.98  25 2.98  34 2.98
                            17 2.98  20 2.99  36 2.99  44 2.99  28 2.99
  20  0.250  0.000  0.649- 148 2.11 146 2.12 145 2.12 161 2.12 186 2.12  18 2.98  33 2.98  58 2.98
                            17 2.98  19 2.99  59 2.99  75 2.99  35 2.99
  21  0.125  0.250  0.351- 149 2.12 143 2.12 151 2.12 152 2.12 168 2.12  23 2.99  24 2.99  40 2.99
                            15 2.99  30 2.99  38 2.99  14 2.99  22 2.99
  22  0.250  0.375  0.351- 150 2.12 151 2.12 152 2.12 167 2.12 176 2.12  24 2.99  39 2.99  48 2.99
                            23 2.99  45 2.99  37 2.99  61 2.99  21 2.99
  23  0.125  0.375  0.450- 151 2.12 150 2.12 149 2.12 166 2.12 173 2.12 155 2.12  38 2.99  45 2.99
                            21 2.99  22 2.99  48 2.99  64 2.99  40 2.99  24 2.99  49 3.00  42 3.00
  24  0.250  0.250  0.450- 152 2.12 149 2.12 150 2.12 142 2.12 165 2.12 156 2.12  22 2.99  37 2.99
                            14 2.99  21 2.99  15 2.99  39 2.99  23 2.99  31 2.99  26 3.00  41 3.00
  25  0.125  0.250  0.550- 147 2.12 155 2.12 156 2.12 172 2.12 149 2.13 153 2.15  28 2.98  44 2.98
                            19 2.98  27 2.98  42 2.99  18 2.99  26 2.99  34 2.99  23 3.00  24 3.00
  26  0.250  0.375  0.550- 155 2.12 156 2.12 171 2.12 180 2.12 150 2.13 154 2.15  43 2.98  52 2.98
                            27 2.98  28 2.98  41 2.99  65 2.99  25 2.99  49 2.99  24 3.00  23 3.00
  27  0.125  0.375  0.649- 155 2.11 154 2.12 153 2.12 170 2.12 177 2.12  26 2.98  42 2.98  49 2.98
                            25 2.98  28 2.99  52 2.99  68 2.99  44 2.99
  28  0.250  0.250  0.649- 156 2.11 153 2.12 154 2.12 146 2.12 169 2.12  25 2.98  26 2.98  41 2.98
                            18 2.98  35 2.99  19 2.99  43 2.99  27 2.99
  29  0.375  0.000  0.351- 157 2.12 144 2.12 159 2.12 199 2.12 224 2.12  31 2.99  71 2.99  96 2.99
                            16 2.99  94 2.99  54 2.99 134 2.99  14 2.99
  30  0.000  0.125  0.351- 158 2.12 143 2.12 160 2.12 168 2.12 223 2.12  32 2.99  40 2.99  95 2.99
                            15 2.99  93 2.99  13 2.99 101 2.99  21 2.99
  31  0.375  0.125  0.450- 159 2.12 157 2.12 142 2.12 165 2.12 222 2.12 163 2.12  37 2.99  94 2.99
                            14 2.99  29 2.99  96 2.99 104 2.99  24 2.99  16 2.99  98 3.00  41 3.00
  32  0.000  0.000  0.450- 160 2.12 158 2.12 141 2.12 198 2.12 221 2.12 164 2.12  70 2.99  93 2.99
                            13 2.99  30 2.99  95 2.99 135 2.99  15 2.99  55 2.99  97 3.00  74 3.00
  33  0.375  0.000  0.550- 148 2.12 163 2.12 203 2.12 228 2.12 157 2.13 161 2.15  75 2.98 100 2.98
                            20 2.98  35 2.98  58 2.99 138 2.99  18 2.99  98 2.99  71 3.00  16 3.00
  34  0.000  0.125  0.550- 147 2.12 164 2.12 172 2.12 227 2.12 158 2.13 162 2.15  44 2.98  99 2.98
                            19 2.98  36 2.98  17 2.99 105 2.99  25 2.99  97 2.99  40 3.00  32 3.00
  35  0.375  0.125  0.649- 163 2.11 161 2.12 146 2.12 169 2.12 226 2.12  33 2.98  41 2.98  98 2.98
                            18 2.98  20 2.99 100 2.99 108 2.99  28 2.99
  36  0.000  0.000  0.649- 164 2.11 162 2.12 145 2.12 202 2.12 225 2.12  34 2.98  74 2.98  97 2.98
                            17 2.98  59 2.99  99 2.99 139 2.99  19 2.99
  37  0.375  0.250  0.351- 165 2.12 159 2.12 152 2.12 167 2.12 232 2.12  31 2.99  39 2.99 104 2.99
                            24 2.99  94 2.99 102 2.99  22 2.99  14 2.99
  38  0.000  0.375  0.351- 166 2.12 151 2.12 168 2.12 192 2.12 231 2.12  40 2.99  64 2.99 103 2.99
                            23 2.99 101 2.99  45 2.99 125 2.99  21 2.99
  39  0.375  0.375  0.450- 167 2.12 165 2.12 150 2.12 189 2.12 230 2.12 171 2.12  61 2.99 102 2.99
                            22 2.99  37 2.99 104 2.99 128 2.99  24 2.99  48 2.99 106 3.00  65 3.00
  40  0.000  0.250  0.450- 168 2.12 158 2.12 166 2.12 149 2.12 229 2.12 172 2.12  38 2.99 101 2.99
                            21 2.99  30 2.99  15 2.99 103 2.99  23 2.99  95 2.99  42 3.00 105 3.00
  41  0.375  0.250  0.550- 156 2.12 163 2.12 171 2.12 236 2.12 165 2.13 169 2.15  43 2.98 108 2.98
                            28 2.98  35 2.98 106 2.99  26 2.99  18 2.99  98 2.99  39 3.00  31 3.00
  42  0.000  0.375  0.550- 155 2.12 172 2.12 196 2.12 235 2.12 166 2.13 170 2.15  68 2.98 107 2.98
                            27 2.98  44 2.98  49 2.99 129 2.99  25 2.99 105 2.99  64 3.00  23 3.00
  43  0.375  0.375  0.649- 171 2.11 169 2.12 154 2.12 193 2.12 234 2.12  41 2.98  65 2.98 106 2.98
                            26 2.98  52 2.99 108 2.99 132 2.99  28 2.99
  44  0.000  0.250  0.649- 172 2.11 162 2.12 170 2.12 153 2.12 233 2.12  34 2.98  42 2.98 105 2.98
                            25 2.98  99 2.99  19 2.99 107 2.99  27 2.99
  45  0.125  0.500  0.351- 173 2.12 151 2.12 175 2.12 176 2.12 192 2.12  47 2.99  48 2.99  64 2.99
                            23 2.99  38 2.99  62 2.99  46 2.99  22 2.99
  46  0.250  0.625  0.351- 174 2.12 175 2.12 176 2.12 184 2.12 191 2.12  48 2.99  56 2.99  63 2.99
                            47 2.99  61 2.99  53 2.99  69 2.99  45 2.99
  47  0.125  0.625  0.450- 175 2.12 174 2.12 173 2.12 181 2.12 190 2.12 179 2.12  53 2.99  62 2.99
                            45 2.99  46 2.99  64 2.99  72 2.99  56 2.99  48 2.99  66 3.00  57 3.00
  48  0.250  0.500  0.450- 176 2.12 173 2.12 174 2.12 150 2.12 189 2.12 180 2.12  46 2.99  61 2.99
                            22 2.99  45 2.99  23 2.99  63 2.99  39 2.99  47 2.99  49 3.00  65 3.00
  49  0.125  0.500  0.550- 155 2.12 179 2.12 180 2.12 196 2.12 173 2.13 177 2.15  52 2.98  68 2.98
                            27 2.98  51 2.98  66 2.99  50 2.99  26 2.99  42 2.99  23 3.00  47 3.00
  50  0.250  0.625  0.550- 179 2.12 180 2.12 188 2.12 195 2.12 174 2.13 178 2.15  60 2.98  67 2.98
                            51 2.98  52 2.98  57 2.99  73 2.99  49 2.99  65 2.99  48 3.00  47 3.00
  51  0.125  0.625  0.649- 179 2.11 178 2.12 177 2.12 185 2.12 194 2.12  50 2.98  57 2.98  66 2.98
                            49 2.98  52 2.99  68 2.99  76 2.99  60 2.99
  52  0.250  0.500  0.649- 180 2.11 177 2.12 178 2.12 154 2.12 193 2.12  49 2.98  50 2.98  65 2.98
                            26 2.98  51 2.99  27 2.99  67 2.99  43 2.99
[...]
   8.46714263 12.70071395 11.73873783

--------------------------------------- Iteration      FINAL  ---------------------------------------

--------------------OUTCAR has been truncated-------------------------

[...]

--------------------OUTCAR has been truncated-------------------------

  Number of pair interactions contributing to vdW energy: 3111369
  Edisp (eV):  -14.79114

  FORCE on cell =-STRESS in cart. coord.  units (eV):
  Direction    XX          YY          ZZ          XY          YZ          ZX
  Alpha Z  1029.88587  1029.88587  1029.88587
  Ewald  202352.00472202349.23042************    -1.82436   -68.80312   -46.55632
  Hartree217308.05630217306.39350************    -0.86419   -40.82054   -27.57777
  E(xc)   -4727.58137 -4727.59348 -4731.23405    -0.00504    -0.15902    -0.11042
  Local  ************************422088.33452     2.50743   106.98881    72.37481
  n-local -2403.21938 -2403.22594 -2478.47329     0.01067     0.25954     0.16017
  augment   864.98918   864.98998   874.03851     0.00003    -0.00480    -0.00061
  Kinetic 18367.01052 18367.22742 18618.02816     0.15718     2.32711     1.59839
  Fock        0.00000     0.00000     0.00000     0.00000     0.00000     0.00000
  vdW       -21.05300   -21.05248   -18.17577    -0.00041    -0.00844    -0.00473
  Total    -120.15241  -120.15579    -1.72786    -0.01869    -0.22045    -0.11648
  in kB     -31.44157   -31.44245    -0.45215    -0.00489    -0.05769    -0.03048

 VOLUME and BASIS-vectors are now :
  energy-cutoff  :      520.00
  volume of cell :     6122.64
      direct lattice vectors                 reciprocal lattice vectors
    16.934285261  0.000000000  0.000000000     0.059051798  0.000000000  0.000000000
     0.000000000 16.934285261  0.000000000     0.000000000  0.059051798  0.000000000
     0.000000000  0.000000000 21.350356973     0.000000000  0.000000000  0.046837624

  length of vectors
    16.934285261 16.934285261 21.350356973     0.059051798  0.059051798  0.046837624

 FORCES acting on ions:
    Electron-Ion                     Ewald-Force                    Non-Local-Force
   0.693E+02 -.162E+03 -.525E+03   -.698E+02 0.163E+03 0.525E+03   0.508E+00 -.943E+00 -.127E+00
   -.105E+03 -.140E+03 -.526E+03   0.106E+03 0.141E+03 0.526E+03   -.787E+00 -.963E+00 -.959E-01
   -.175E+03 0.211E+02 -.525E+03   0.176E+03 -.212E+02 0.525E+03   -.941E+00 0.137E+00 -.720E-01
   -.690E+02 0.162E+03 -.526E+03   0.694E+02 -.163E+03 0.526E+03   -.427E+00 0.945E+00 -.104E+00
   0.106E+03 0.141E+03 -.527E+03   -.106E+03 -.142E+03 0.527E+03   0.659E+00 0.855E+00 -.155E+00
   0.175E+03 -.214E+02 -.526E+03   -.176E+03 0.215E+02 0.526E+03   0.912E+00 -.136E+00 -.513E-01
   0.311E+02 -.727E+02 -.131E+03   -.334E+02 0.780E+02 0.131E+03   0.228E+01 -.530E+01 0.181E+00
   -.475E+02 -.633E+02 -.131E+03   0.510E+02 0.679E+02 0.131E+03   -.350E+01 -.461E+01 0.414E+00
   -.783E+02 0.950E+01 -.131E+03   0.840E+02 -.102E+02 0.131E+03   -.571E+01 0.689E+00 0.130E+00
   -.311E+02 0.727E+02 -.132E+03   0.334E+02 -.780E+02 0.132E+03   -.231E+01 0.529E+01 -.150E+00
   0.474E+02 0.632E+02 -.132E+03   -.509E+02 -.678E+02 0.132E+03   0.348E+01 0.461E+01 -.299E+00
   0.785E+02 -.955E+01 -.132E+03   -.842E+02 0.103E+02 0.132E+03   0.571E+01 -.720E+00 -.157E+00
   0.733E+00 0.694E+00 0.301E+03   -.732E+00 -.693E+00 -.299E+03   -.100E-02 -.303E-03 -.229E+01
   0.138E+01 0.139E+01 0.301E+03   -.138E+01 -.139E+01 -.299E+03   -.928E-03 -.690E-03 -.228E+01
   0.140E+01 0.168E+01 0.101E+03   -.140E+01 -.168E+01 -.101E+03   -.882E-03 -.775E-03 0.122E+00
   0.167E+01 0.133E+01 0.101E+03   -.167E+01 -.133E+01 -.101E+03   -.376E-03 -.314E-03 0.118E+00
   0.172E+01 0.165E+01 -.939E+02   -.172E+01 -.165E+01 0.940E+02   -.104E-02 -.708E-03 -.861E-01
   0.432E+01 0.436E+01 -.906E+02   -.432E+01 -.436E+01 0.907E+02   -.951E-02 -.742E-02 -.733E-01
   0.428E+01 0.448E+01 -.290E+03   -.427E+01 -.447E+01 0.288E+03   -.543E-02 -.268E-02 0.234E+01
   0.440E+01 0.414E+01 -.290E+03   -.440E+01 -.413E+01 0.288E+03   -.251E-02 -.606E-02 0.234E+01
   0.107E+01 0.916E+00 0.301E+03   -.107E+01 -.914E+00 -.299E+03   -.573E-03 -.454E-03 -.228E+01
   0.184E+01 0.178E+00 0.302E+03   -.184E+01 -.177E+00 -.300E+03   -.112E-02 -.378E-03 -.229E+01
   0.205E+01 0.235E+00 0.103E+03   -.204E+01 -.235E+00 -.103E+03   -.287E-02 0.329E-03 0.125E+00
   0.298E+01 0.193E+01 0.104E+03   -.297E+01 -.192E+01 -.104E+03   -.144E-02 -.125E-02 0.126E+00
   0.360E+01 0.241E+01 -.913E+02   -.360E+01 -.241E+01 0.914E+02   -.850E-02 -.327E-02 -.782E-01
   0.804E+01 0.695E+00 -.858E+02   -.799E+01 -.694E+00 0.859E+02   -.724E-01 -.121E-02 -.422E-01
   0.821E+01 0.657E+00 -.287E+03   -.821E+01 -.657E+00 0.285E+03   -.750E-02 -.161E-04 0.234E+01
   0.140E+02 0.819E+01 -.281E+03   -.139E+02 -.818E+01 0.280E+03   -.293E-01 -.149E-01 0.234E+01
   0.870E+00 0.102E+01 0.301E+03   -.868E+00 -.102E+01 -.299E+03   0.251E-03 -.775E-03 -.229E+01
   -.961E-01 0.105E+01 0.301E+03   0.959E-01 -.105E+01 -.299E+03   0.433E-04 -.107E-02 -.229E+01
   0.182E+01 0.299E+01 0.104E+03   -.181E+01 -.298E+01 -.104E+03   -.709E-03 -.178E-02 0.122E+00
   -.120E+00 0.902E+00 0.100E+03   0.120E+00 -.902E+00 -.100E+03   0.498E-04 -.507E-04 0.131E+00
   0.227E+01 0.345E+01 -.914E+02   -.227E+01 -.344E+01 0.914E+02   -.348E-02 -.961E-02 -.820E-01
   -.275E+00 0.235E+01 -.934E+02   0.275E+00 -.235E+01 0.935E+02   0.478E-03 0.144E-02 -.858E-01
   0.759E+01 0.140E+02 -.282E+03   -.758E+01 -.139E+02 0.280E+03   -.135E-01 -.303E-01 0.234E+01
   -.274E+00 0.205E+01 -.292E+03   0.274E+00 -.205E+01 0.290E+03   -.791E-04 -.374E-03 0.235E+01
   0.132E+01 0.138E+01 0.302E+03   -.131E+01 -.138E+01 -.300E+03   -.118E-02 -.987E-03 -.229E+01
   -.124E+00 0.132E+00 0.301E+03   0.124E+00 -.132E+00 -.299E+03   0.111E-03 0.617E-03 -.228E+01
   0.275E+01 0.415E+00 0.107E+03   -.276E+01 -.413E+00 -.108E+03   0.261E-02 0.418E-03 0.897E-01
   -.195E+00 0.122E+01 0.102E+03   0.195E+00 -.122E+01 -.102E+03   0.197E-03 -.190E-03 0.119E+00
   0.597E+01 0.629E+01 -.820E+02   -.595E+01 -.626E+01 0.821E+02   -.303E-01 -.364E-01 -.666E-01
   -.440E+00 0.328E+00 -.918E+02   0.440E+00 -.329E+00 0.919E+02   0.164E-03 0.141E-02 -.864E-01
   0.224E+02 0.337E+01 -.255E+03   -.223E+02 -.337E+01 0.253E+03   -.138E+00 -.980E-02 0.233E+01
   -.660E+00 0.300E+01 -.290E+03   0.660E+00 -.300E+01 0.288E+03   -.530E-04 -.861E-03 0.234E+01
   0.112E+01 -.717E+00 0.301E+03   -.111E+01 0.715E+00 -.299E+03   -.153E-02 0.345E-03 -.229E+01
   0.147E+01 -.141E+01 0.302E+03   -.147E+01 0.140E+01 -.299E+03   -.109E-02 0.120E-02 -.228E+01
   0.153E+01 -.171E+01 0.102E+03   -.153E+01 0.170E+01 -.102E+03   -.102E-02 -.732E-04 0.118E+00
   0.314E+01 -.151E+01 0.104E+03   -.313E+01 0.150E+01 -.104E+03   -.738E-03 0.907E-03 0.111E+00
   0.393E+01 -.190E+01 -.909E+02   -.392E+01 0.190E+01 0.910E+02   -.153E-01 0.391E-02 -.771E-01
   0.496E+01 -.460E+01 -.896E+02   -.495E+01 0.459E+01 0.897E+02   -.625E-02 0.106E-01 -.676E-01
   0.500E+01 -.465E+01 -.290E+03   -.500E+01 0.465E+01 0.288E+03   -.844E-02 0.177E-02 0.234E+01
   0.160E+02 -.685E+01 -.280E+03   -.160E+02 0.685E+01 0.278E+03   -.543E-01 0.118E-01 0.234E+01
   0.769E+00 -.893E+00 0.301E+03   -.767E+00 0.892E+00 -.299E+03   -.105E-03 0.381E-03 -.229E+01
   0.105E+01 -.164E+00 0.301E+03   -.105E+01 0.164E+00 -.299E+03   -.418E-03 -.176E-03 -.228E+01
   0.966E+00 -.205E+00 0.100E+03   -.966E+00 0.206E+00 -.101E+03   -.490E-03 0.603E-03 0.121E+00
   0.181E+01 -.174E+01 0.102E+03   -.181E+01 0.174E+01 -.102E+03   -.409E-03 0.781E-03 0.122E+00
   0.191E+01 -.217E+01 -.937E+02   -.191E+01 0.217E+01 0.937E+02   -.207E-03 0.222E-02 -.821E-01
   0.239E+01 -.465E+00 -.934E+02   -.239E+01 0.465E+00 0.935E+02   0.254E-03 -.996E-04 -.816E-01
   0.218E+01 -.467E+00 -.292E+03   -.218E+01 0.467E+00 0.290E+03   0.126E-03 0.284E-03 0.234E+01
   0.516E+01 -.555E+01 -.290E+03   -.516E+01 0.554E+01 0.288E+03   -.162E-02 0.111E-01 0.234E+01
[...]
   -.329E+01 -.353E+01 0.870E+03   0.328E+01 0.353E+01 -.874E+03   0.856E-02 0.341E-02 0.341E+01
   0.393E+00 -.355E+01 0.876E+03   -.392E+00 0.355E+01 -.879E+03   -.829E-03 0.407E-02 0.340E+01
   -.272E+02 -.111E+02 -.840E+03   0.271E+02 0.111E+02 0.846E+03   0.147E-01 0.200E-02 -.517E+01
   0.334E+01 -.641E+02 -.799E+03   -.334E+01 0.639E+02 0.804E+03   -.270E-02 0.176E+00 -.513E+01
   -.101E+02 -.939E+01 -.272E+03   0.101E+02 0.938E+01 0.272E+03   0.756E-02 0.112E-01 0.352E+00
   0.218E+01 -.188E+02 -.225E+03   -.217E+01 0.186E+02 0.225E+03   -.111E-01 0.134E+00 0.188E-01
   -.400E+01 -.415E+01 0.303E+03   0.400E+01 0.415E+01 -.303E+03   0.550E-02 0.705E-02 -.261E-01
   0.367E+00 -.115E+01 0.306E+03   -.366E+00 0.115E+01 -.306E+03   -.867E-03 0.420E-02 -.252E-01
   -.238E+01 -.424E+00 0.869E+03   0.238E+01 0.424E+00 -.873E+03   0.519E-02 0.317E-02 0.341E+01
   0.270E+00 -.424E+01 0.872E+03   -.270E+00 0.423E+01 -.876E+03   -.430E-03 0.141E-01 0.341E+01
   -.106E+02 -.108E+02 -.852E+03   0.106E+02 0.108E+02 0.858E+03   0.761E-02 0.681E-02 -.518E+01
   0.843E+00 -.405E+01 -.847E+03   -.843E+00 0.406E+01 0.852E+03   0.231E-03 -.229E-02 -.517E+01
   -.524E+01 -.101E+01 -.279E+03   0.524E+01 0.101E+01 0.279E+03   0.123E-02 0.108E-02 0.348E+00
   0.831E+00 -.157E+02 -.266E+03   -.828E+00 0.157E+02 0.265E+03   -.347E-02 0.491E-01 0.374E+00
   -.906E-03 -.360E-01 0.451E+02   0.117E-11 -.714E-12 0.819E-11   -.115E-01 0.427E-01 -.451E+02

 POSITION                                       TOTAL-FORCE (eV/Angst)
      8.09980      7.94105     16.95970        -0.005388     -0.002879      0.002142
      9.48755      7.77295     16.92354         0.007144     -0.006717     -0.000286
     10.03738      6.48576     16.96663         0.001143     -0.004839      0.001241
      9.19952      5.36918     17.04973        -0.003097     -0.003304      0.000955
      7.81004      5.53722     17.08844         0.001163     -0.006809      0.001819
      7.26151      6.82217     17.04053         0.000860     -0.007079      0.000977
      7.66985      8.94325     16.92507        -0.004778      0.003966      0.000073
     10.14282      8.64108     16.85259        -0.002480     -0.000716     -0.000195
     11.12154      6.35485     16.93858        -0.006394     -0.000853     -0.000790
      9.63176      4.36776     17.07984        -0.003105      0.001315     -0.000081
      7.15513      4.66663     17.14735         0.000907      0.002318      0.001551
      6.17860      6.95624     17.06779        -0.008754     -0.000431      0.001486
      2.11679      0.00000      7.50000        -0.000059      0.000673      0.449377
      4.23357      2.11679      7.50000         0.002292      0.002627      0.450064
      2.11679      2.11679      9.61679         0.001103      0.001208     -0.006828
      4.23357      0.00000      9.61679         0.001365      0.001563     -0.007652
      2.11685      0.00035     11.73846        -0.000116     -0.000337      0.000534
      4.23406      2.11728     11.73810         0.000010      0.000093      0.001549
      2.11739      2.11736     13.82880         0.000173      0.000007     -0.000088
      4.23410      0.00060     13.82852        -0.000191      0.000014     -0.000442
      2.11679      4.23357      7.50000         0.002473      0.001307      0.450027
      4.23357      6.35036      7.50000         0.003315     -0.000035      0.453731
      2.11679      6.35036      9.61679         0.008021      0.000304     -0.005577
      4.23357      4.23357      9.61679         0.007712      0.006234     -0.003967
      2.11722      4.23389     11.73829         0.000207      0.000593      0.000300
      4.23624      6.35074     11.73838        -0.000982      0.000280      0.000860
      2.11762      6.35064     13.82856         0.000328     -0.000393     -0.000519
      4.23523      4.23502     13.82683         0.000480     -0.000547      0.000960
      6.35036      0.00000      7.50000         0.002127      0.001871      0.449511
      0.00000      2.11679      7.50000        -0.000056      0.000154      0.449345
      6.35036      2.11679      9.61679         0.005685      0.007737     -0.004835
      0.00000      0.00000      9.61679         0.000270      0.000694     -0.003117
      6.35079      0.00056     11.73824         0.000553      0.000034     -0.000286
      0.00017      2.11681     11.73849         0.000204      0.000494     -0.000147
      6.35165      2.11844     13.82635        -0.000323      0.000526      0.000775
      0.00023      0.00044     13.82900        -0.000024     -0.001043     -0.001267
      6.35036      4.23357      7.50000         0.001818      0.002335      0.453554
      0.00000      6.35036      7.50000        -0.000234      0.000983      0.448606
      6.35036      6.35036      9.61679        -0.003230      0.001616     -0.000756
      0.00000      4.23357      9.61679         0.000434      0.000316     -0.008067
      6.35238      4.23604     11.73848        -0.000338     -0.000651      0.001153
      0.00011      6.35043     11.73857         0.000207     -0.000011     -0.000523
      6.36051      6.35235     13.83395        -0.000174     -0.000606      0.002464
      0.00018      4.23390     13.82862        -0.000113     -0.000675     -0.000838
      2.11679      8.46714      7.50000         0.001378     -0.001135      0.449596
      4.23357     10.58393      7.50000         0.002731     -0.002018      0.450057
      2.11679     10.58393      9.61679         0.000739     -0.001031     -0.008920
      4.23357      8.46714      9.61679         0.008662     -0.005510     -0.005161
      2.11685      8.46707     11.73760         0.000262     -0.000443      0.000335
      4.23362     10.58383     11.73721         0.000436     -0.000068      0.001524
      2.11695     10.58418     13.82805         0.000146      0.000114     -0.000312
      4.23454      8.46713     13.82390         0.000158      0.000437      0.000562
      2.11679     12.70071      7.50000         0.001274     -0.000937      0.449861
      4.23357     14.81750      7.50000         0.001086     -0.000635      0.449858
      2.11679     14.81750      9.61679         0.000330      0.000828     -0.006772
      4.23357     12.70071      9.61679         0.001483     -0.000550     -0.007521
      2.11682     12.70098     11.73814        -0.000528      0.000423      0.000613
      4.23374     14.81785     11.73828        -0.000389     -0.000276      0.000077
      2.11711     14.81788     13.82883        -0.000909     -0.000149     -0.001383
      4.23363     12.70078     13.82816         0.000028      0.000256      0.000157
[...]
      8.46714     10.58393      9.61679        -0.001040      0.015371      0.015234
     14.81750     10.58393      7.50000         0.004107     -0.000794     -0.469778
      8.46714      8.46714      7.50000        -0.000181      0.001075     -0.475499
     14.81759      8.46757     13.87928         0.000114     -0.000066      0.000445
      8.46734     10.58394     13.88685        -0.000507      0.000845     -0.000743
     14.81816     10.58445     11.73011        -0.000698     -0.000121      0.000479
      8.46696      8.47245     11.72976        -0.000040     -0.001422      0.000476
     14.81750     12.70071      9.61679         0.002809      0.001956      0.029638
      8.46714     14.81750      9.61679        -0.000198     -0.000690      0.030781
     14.81750     14.81750      7.50000         0.003175      0.002552     -0.469810
      8.46714     12.70071      7.50000        -0.000068      0.003906     -0.473007
     14.81825     12.70144     13.87950         0.000302     -0.000468      0.000119
      8.46723     14.81743     13.87999         0.000324     -0.000022      0.000639
     14.81792     14.81798     11.73051        -0.000226     -0.000032     -0.000908
      8.46711     12.70040     11.73085        -0.000288     -0.000833      0.001800
    total drift:                               -0.012388      0.006716     -0.026615

  FREE ENERGIE OF THE ION-ELECTRON SYSTEM (eV)
  free  energy   TOTEN  =     -1583.55665785 eV

  energy  without entropy=    -1583.55665785  energy(sigma->0) =    -1583.55665785

 d Force = 0.1282882E-04[ 0.937E-05, 0.163E-04]  d Energy = 0.1260253E-04 0.226E-06
 d Force = 0.3318627E+00[ 0.332E+00, 0.332E+00]  d Ewald  = 0.3318627E+00 0.849E-09

 Conjugate gradient step on ions:
 trial-energy change:   -0.000013  1 .order   -0.000013   -0.000016   -0.000009
  (g-gl).g = 0.471E-04      g.g   = 0.548E-04  gl.gl    = 0.744E-04
 g(Force)  = 0.548E-04   g(Stress)= 0.000E+00 ortho     = 0.261E-05
 gamma     =   0.63374
 trial     =   0.28838
 opt step  =   0.67922  (harmonic =   0.67922) maximal distance =0.00033251
 next E    = -1583.556664   (d E  =  -0.00002)

 reached required accuracy - stopping structural energy minimisation