 vasp.6.3.0 20Jan22 (build Aug 21 2024 11:13:42) complex
 executed on        HPECrayEX_GCC date 2024.11.26  21:44:37

 INCAR:
   SYSTEM = TiO2
   ISMEAR = 0
   SIGMA = 0.05
   EDIFF = 1E-4
   ALGO = ALL
   ISTART = 0
   IBRION = -1
   NSW = 0
   ISYM = 0
   ISIF = 2
   EDIFFG = -0.01
   DIPOL = 0.5 0.5 0.5
   IDIPOL = 3
   LDIPOL = .TRUE.
   GGA = PE
   IVDW = 21
   ENCUT = 600
   PREC = Accurate
   LASPH = .TRUE.
   LREAL = .FALSE.
   ISPIN = 1
   NELM = 200
   NELMIN = 8
   NCORE = 16
   KPAR = 1
   LWAVE = .FALSE.
   LCHARG = .FALSE.

 POTCAR:    PAW_PBE Ti_pv 07Sep2000
 POTCAR:    PAW_PBE O 08Apr2002
 POTCAR:    PAW_PBE Ti_pv 07Sep2000
   VRHFIN =Ti: d3 s1

   TITEL  = PAW_PBE Ti_pv 07Sep2000
   POMASS =   47.880; ZVAL   =   10.000    mass and valenz
   ENMAX  =  222.335; ENMIN  =  166.751 eV

   TITEL  = PAW_PBE O 08Apr2002
   POMASS =   16.000; ZVAL   =    6.000    mass and valenz
   ENMAX  =  400.000; ENMIN  =  300.000 eV

  PAW_PBE Ti_pv 07Sep2000               :
  PAW_PBE O 08Apr2002                   :

 POSCAR: Ti  O
  positions in direct lattice
 exchange correlation table for  LEXCH =        8
   RHO(1)=    0.500       N(1)  =     2000
   RHO(2)=  100.500       N(2)  =     4000

 ion  position               nearest neighbor table
   1  0.808  0.833  0.295-  85 1.94  53 1.94  51 1.94  50 1.99  52 1.99  18 3.05   4 3.05   2 3.05

   2  0.592  0.667  0.327-  49 1.94 116 1.94  52 1.94  54 1.94  53 1.99  55 1.99  33 3.05   3 3.05
                             1 3.05   7 3.08
   3  0.308  0.667  0.295- 121 1.94  57 1.94  55 1.94  49 1.99  56 1.99  36 3.05   2 3.05   4 3.05

   4  0.092  0.833  0.327-  50 1.94  88 1.94  56 1.94  58 1.94  57 1.99  51 1.99  19 3.05   1 3.05
                             3 3.05   5 3.08
   5  0.945  0.833  0.423-  59 1.92  93 1.93  61 1.94  51 1.98  60 1.98  58 2.00   8 3.00   6 3.04
                            22 3.05   4 3.08
   6  0.727  0.666  0.451-  54 1.89 124 1.93  60 1.94  62 1.96  63 1.99  61 2.00   7 3.01   5 3.04
                            37 3.05  11 3.10
   7  0.444  0.666  0.422-  63 1.93 129 1.93  65 1.93  55 1.97  64 1.99  54 2.00   6 3.01   8 3.05
                            40 3.05   2 3.08
   8  0.226  0.833  0.452-  58 1.90  96 1.94  64 1.94  66 1.97  59 1.97  65 2.01   5 3.00  23 3.05
                             7 3.05   9 3.11
   9  0.086  0.834  0.550-  67 1.92 101 1.93  69 1.94  68 1.97  66 2.01  59 2.01  12 2.95  10 3.04
                            26 3.05   8 3.11
  10  0.865  0.666  0.575-  62 1.86 132 1.93  68 1.94  71 1.95  69 2.01  70 2.01  11 2.98   9 3.04
                            41 3.05  15 3.17
  11  0.584  0.667  0.549- 137 1.93  71 1.93  73 1.93  63 1.97  72 1.98  62 2.02  10 2.98  12 3.05
                            44 3.06   6 3.10
  12  0.364  0.833  0.577-  66 1.86 104 1.94  72 1.94  67 1.95  74 2.00  73 2.02   9 2.95  27 3.05
                            11 3.05
  13  0.231  0.833  0.681-  75 1.86  77 1.93 109 1.94  76 2.00  67 2.10  74 2.10  16 2.85  30 3.07
                            14 3.09
  14  1.000  0.666  0.700-  70 1.78  78 1.84 140 1.97  76 1.98  77 2.07  15 2.86  13 3.09  45 3.10

[...]

  17  0.808  0.167  0.295-  85 1.94 117 1.94  83 1.94  82 1.99  84 1.99  18 3.05  20 3.05  34 3.05

[...]

  36  0.092  0.500  0.327- 114 1.94  56 1.94 120 1.94 122 1.94 121 1.99 115 1.99   3 3.05  35 3.05
                            33 3.05  37 3.07
  37  0.946  0.500  0.422- 123 1.93  61 1.94 125 1.94 115 1.97 122 1.98 124 2.00  40 2.99   6 3.05
                            38 3.05  36 3.07
  38  0.727  0.334  0.451- 118 1.89 124 1.93  92 1.94 126 1.96 127 1.99 125 2.00  39 3.01  21 3.04
                            37 3.05  43 3.10
  39  0.444  0.334  0.422- 127 1.93 129 1.93  97 1.93 119 1.97 128 1.99 118 2.00  38 3.01  24 3.05
                            40 3.05  34 3.08
  40  0.226  0.500  0.453- 122 1.92  64 1.94 128 1.94 123 1.96 130 1.97 129 2.01  37 2.99   7 3.05
                            39 3.05  41 3.07
  41  0.089  0.500  0.550- 131 1.92  69 1.93 133 1.93 130 1.98 132 2.00 123 2.01  44 2.96  10 3.05
                            42 3.05  40 3.07
  42  0.865  0.334  0.575- 126 1.86 132 1.93 100 1.94 135 1.95 133 2.01 134 2.01  43 2.98  25 3.04
                            41 3.05  47 3.17
  43  0.584  0.333  0.549- 137 1.93 135 1.93 105 1.93 127 1.97 136 1.98 126 2.02  42 2.98  28 3.05
                            44 3.06  38 3.10
  44  0.366  0.500  0.580- 130 1.91  72 1.94 136 1.94 131 1.94 138 1.99 137 2.03  41 2.96  11 3.06
                            43 3.06  45 3.14
  45  0.234  0.500  0.681- 139 1.86 141 1.93  77 1.93 140 2.03 138 2.05 131 2.09  48 2.87  46 3.10
                            14 3.10  44 3.14
  46  1.000  0.334  0.700- 134 1.78 142 1.84 140 1.97 108 1.98 141 2.07  47 2.86  29 3.09  45 3.10

  47  0.729  0.334  0.677- 142 1.90 144 1.92 112 1.94 143 1.99 135 2.03 134 2.10  46 2.86  32 3.08
                            48 3.08  42 3.17
  48  0.505  0.500  0.706- 139 1.82 138 1.86  79 1.98 143 1.98 144 2.12  45 2.87  15 3.08  47 3.08

  49  0.488  0.667  0.269-   2 1.94   3 1.99
  50  0.988  0.833  0.269-   4 1.94   1 1.99
  51  0.911  0.833  0.353-   1 1.94   5 1.98   4 1.99
  52  0.627  0.833  0.321-  18 1.94   2 1.94   1 1.99
  53  0.772  0.667  0.300-  33 1.94   1 1.94   2 1.99
  54  0.624  0.667  0.395-   6 1.89   2 1.94   7 2.00
  55  0.411  0.667  0.353-   3 1.94   7 1.97   2 1.99
  56  0.127  0.667  0.321-  36 1.94   4 1.94   3 1.99
  57  0.272  0.833  0.300-  19 1.94   3 1.94   4 1.99
  58  0.124  0.833  0.395-   8 1.90   4 1.94   5 2.00
  59  0.049  0.834  0.480-   5 1.92   8 1.97   9 2.01
  60  0.764  0.833  0.447-  22 1.94   6 1.94   5 1.98
  61  0.909  0.667  0.427-   5 1.94  37 1.94   6 2.00
  62  0.764  0.666  0.520-  10 1.86   6 1.96  11 2.02
  63  0.549  0.666  0.480-   7 1.93  11 1.97   6 1.99
  64  0.264  0.667  0.448-  40 1.94   8 1.94   7 1.99
  65  0.409  0.833  0.427-   7 1.93  23 1.93   8 2.01
  66  0.264  0.833  0.521-  12 1.86   8 1.97   9 2.01
  67  0.193  0.833  0.607-   9 1.92  12 1.95  13 2.10
  68  0.904  0.834  0.573-  26 1.94  10 1.94   9 1.97
  69  0.051  0.666  0.553-  41 1.93   9 1.94  10 2.01
  70  0.914  0.668  0.645-  14 1.78  10 2.01  15 2.10
  71  0.694  0.669  0.605-  11 1.93  10 1.95  15 2.03
  72  0.405  0.666  0.575-  44 1.94  12 1.94  11 1.98
  73  0.549  0.833  0.553-  27 1.93  11 1.93  12 2.02
  74  0.412  0.835  0.646-  16 1.78  12 2.00  13 2.10
  75  0.346  0.833  0.732-  16 1.84  13 1.86
  76  0.051  0.833  0.709-  30 1.98  14 1.98  13 2.00
  77  0.194  0.666  0.681-  13 1.93  45 1.93  14 2.07
  78  0.841  0.661  0.731-  14 1.84  15 1.90
  79  0.554  0.668  0.708-  16 1.97  48 1.98  15 1.99
  80  0.695  0.834  0.679-  31 1.93  15 1.94  16 2.06
  81  0.488  0.000  0.269-  18 1.94  19 1.99
  82  0.988  0.167  0.269-  20 1.94  17 1.99
  83  0.911  0.167  0.353-  17 1.94  21 1.98  20 1.99
  84  0.627  0.167  0.321-  18 1.94  34 1.94  17 1.99
  85  0.772  0.000  0.300-   1 1.94  17 1.94  18 1.99
  86  0.624  0.000  0.395-  22 1.89  18 1.94  23 2.00
  87  0.411  0.000  0.353-  19 1.94  23 1.98  18 1.99
  88  0.127  0.000  0.321-   4 1.94  20 1.94  19 1.99
  89  0.272  0.167  0.300-  19 1.94  35 1.94  20 1.99
  90  0.124  0.167  0.395-  24 1.90  20 1.94  21 2.00
  91  0.049  0.166  0.480-  21 1.92  24 1.97  25 2.01
  92  0.764  0.167  0.447-  22 1.94  38 1.94  21 1.98
  93  0.909  0.000  0.427-  21 1.93   5 1.93  22 2.00
  94  0.764  1.000  0.520-  26 1.86  22 1.97  27 2.01
  95  0.549  1.000  0.480-  23 1.92  22 1.98  27 2.00
  96  0.264  1.000  0.448-  24 1.94   8 1.94  23 1.99
  97  0.409  0.167  0.427-  39 1.93  23 1.93  24 2.01
  98  0.264  0.167  0.521-  28 1.86  24 1.97  25 2.01
  99  0.193  0.167  0.607-  25 1.92  28 1.95  29 2.10
 100  0.904  0.166  0.573-  26 1.94  42 1.94  25 1.97
 101  0.051  1.000  0.553-  25 1.93   9 1.93  26 2.03
 102  0.913  1.000  0.646-  30 1.78  26 2.01  31 2.09
 103  0.693  1.000  0.606-  27 1.92  26 1.94  31 2.10
 104  0.404  1.000  0.574-  28 1.94  12 1.94  27 1.98
 105  0.549  0.167  0.553-  27 1.93  43 1.93  28 2.02
 106  0.412  0.165  0.646-  32 1.78  28 2.00  29 2.10
 107  0.346  0.167  0.732-  32 1.84  29 1.86
 108  0.051  0.167  0.709-  30 1.98  46 1.98  29 2.00
[...]
 130  0.265  0.500  0.522-  44 1.91  40 1.97  41 1.98
 131  0.193  0.500  0.608-  41 1.92  44 1.94  45 2.09
 132  0.904  0.500  0.573-  42 1.93  10 1.93  41 2.00
 133  0.051  0.334  0.553-  41 1.93  25 1.94  42 2.01
 134  0.914  0.332  0.645-  46 1.78  42 2.01  47 2.10
 135  0.694  0.331  0.605-  43 1.93  42 1.95  47 2.03
 136  0.405  0.334  0.575-  44 1.94  28 1.94  43 1.98
 137  0.551  0.500  0.554-  11 1.93  43 1.93  44 2.03
 138  0.413  0.500  0.649-  48 1.86  44 1.99  45 2.05
 139  0.344  0.500  0.734-  48 1.82  45 1.86
 140  0.051  0.500  0.708-  46 1.97  14 1.97  45 2.03
 141  0.194  0.334  0.681-  29 1.93  45 1.93  46 2.07
 142  0.841  0.339  0.731-  46 1.84  47 1.90
 143  0.554  0.332  0.708-  32 1.97  48 1.98  47 1.99
 144  0.693  0.500  0.675-  47 1.92  15 1.92  48 2.12

IMPORTANT INFORMATION: All symmetrisations will be switched off!
NOSYMM: (Re-)initialisation of all symmetry stuff for point group C_1.

                                     Primitive cell

  volume of cell :    3260.5577

  direct lattice vectors                    reciprocal lattice vectors
    10.272661001  0.000000000  0.000000000     0.097345761 -0.000000000  0.000000000
     0.000000000 11.368814841  0.000000000     0.000000000  0.087959916  0.000000000
     0.000000000  0.000000000 27.918606646     0.000000000  0.000000000  0.035818406

  length of vectors
    10.272661001 11.368814841 27.918606646     0.097345761  0.087959916  0.035818406

  position of ions in fractional coordinates (direct lattice)
     0.807711828  0.833333333  0.294983814
     0.591733995  0.666666667  0.326524766
     0.307711828  0.666666667  0.294983814
     0.091733995  0.833333333  0.326524766
     0.944867475  0.833483152  0.422627596
     0.726738982  0.666274889  0.451092195
     0.444106433  0.666458569  0.422447728
     0.225578485  0.833310734  0.451609689
     0.086132124  0.833638734  0.550283865
     0.865384502  0.666258421  0.575202327
     0.584333971  0.666567706  0.549142644
     0.364016928  0.833403998  0.576575841
     0.230910651  0.832560955  0.680558882
     0.999901693  0.665685997  0.700218232
     0.728595823  0.665650969  0.676785737
     0.503166612  0.834263774  0.700316706
     0.807711828  0.166666667  0.294983814
     0.591733995  0.000000000  0.326524766
     0.307711828  0.000000000  0.294983814
     0.091733995  0.166666667  0.326524766
     0.944867478  0.166516851  0.422627591
     0.725973012  0.000000005  0.451276697
     0.444350544  0.999999987  0.422608466
     0.225578497  0.166689253  0.451609686
     0.086132127  0.166361208  0.550283855
     0.863845564  0.999999970  0.575880181
     0.585047016  0.999999947  0.549772272
     0.364016918  0.166595906  0.576575842
     0.230910624  0.167438902  0.680558885
     0.002689968  0.999999908  0.700212731
     0.731946955  0.999999927  0.679620553
     0.503166611  0.165736140  0.700316723
     0.807711828  0.500000000  0.294983814
     0.591733995  0.333333333  0.326524766
[...]
   O          49.703          3.874          9.639          1.78496547
   O          51.771          3.900          9.837          1.82171696
   O          51.278          3.894          9.790          1.81301732
   O          48.668          3.860          9.538          1.76626988
   O          36.190          3.674          8.225          1.52310393
   O          50.268          3.881          9.693          1.79506424
   O          52.963          3.915          9.950          1.84256305
   O          36.696          3.683          8.282          1.53371156
   O          51.064          3.892          9.770          1.80923416
   O          52.279          3.907          9.885          1.83062517

  vdW correction parametrized for the method pbe

  IVDW =  21
  VDW_RADIUS =    50.000 A
  VDW_IDAMPF =  0
  VDW_S6 =     1.000
  VDW_SR =     0.950
  VDW_D =    20.000
  LVDW_ONECELL = F F F
  LVDW_SAMETYPE T T
  LVDW_EWALD = F

  Number of pair interactions contributing to vdW energy: 1667044
  Edisp (eV):  -18.07339

  FORCE on cell =-STRESS in cart. coord.  units (eV):
  Direction    XX          YY          ZZ          XY          YZ          ZX
  Alpha Z  2415.35607  2415.35607  2415.35607
  Ewald  489120.37197482679.66798************     0.00120    -0.00076 -1905.21553
  Hartree510098.10561506172.84438************     0.00066    -0.00037 -1285.15337
  E(xc)   -5148.28368 -5152.24087 -5159.12229     0.00000     0.00000    -1.47484
  Local  ************************************    -0.00207     0.00109  3200.50114
  n-local -3259.96073 -3227.48607 -3271.56496    -0.00006    -0.00003     1.38570
  augment  3132.02621  3128.25413  3119.18296     0.00013    -0.00006    -1.44550
  Kinetic 17022.00895 17079.85239 17129.25724     0.00020     0.00004   -16.94717
  Fock        0.00000     0.00000     0.00000     0.00000     0.00000     0.00000
  vdW       -18.73614   -25.88109   -21.06789     0.00000    -0.00000    -0.93300
  Total     -26.28711    -2.73531    -3.54301     0.00006    -0.00009    -9.28256
  in kB     -12.91700    -1.34408    -1.74097     0.00003    -0.00004    -4.56128

 VOLUME and BASIS-vectors are now :
  energy-cutoff  :      600.00
  volume of cell :     3260.56
      direct lattice vectors                 reciprocal lattice vectors
    10.272661001  0.000000000  0.000000000     0.097345761 -0.000000000  0.000000000
     0.000000000 11.368814841  0.000000000     0.000000000  0.087959916  0.000000000
     0.000000000  0.000000000 27.918606646     0.000000000  0.000000000  0.035818406

  length of vectors
    10.272661001 11.368814841 27.918606646     0.097345761  0.087959916  0.035818406

 FORCES acting on ions:
    Electron-Ion                     Ewald-Force                    Non-Local-Force
   0.657E+01 -.647E-02 0.337E+04   -.166E+01 0.120E-01 -.337E+04   -.110E+01 -.108E-02 -.332E+01
   0.487E+01 -.139E+00 0.277E+04   -.644E+01 0.144E+00 -.277E+04   -.859E-01 -.150E-02 -.415E-01
   0.650E+01 0.172E+00 0.337E+04   -.163E+01 -.172E+00 -.337E+04   -.109E+01 0.337E-03 -.332E+01
   0.332E+01 0.153E+00 0.277E+04   -.493E+01 -.156E+00 -.277E+04   -.757E-01 0.821E-03 -.474E-01
   0.101E+00 0.432E+00 0.125E+04   -.279E+00 -.430E+00 -.125E+04   0.176E+00 -.216E-02 0.296E-01
   0.179E+01 -.153E+01 0.782E+03   -.171E+01 0.151E+01 -.781E+03   -.494E-01 0.223E-01 -.165E+00
   0.147E+01 0.135E+00 0.125E+04   -.162E+01 -.133E+00 -.125E+04   0.160E+00 0.586E-02 0.405E-02
   -.609E+01 0.866E+00 0.772E+03   0.615E+01 -.867E+00 -.772E+03   -.288E-01 0.255E-02 -.159E+00
   -.508E+01 0.366E+00 -.813E+03   0.475E+01 -.369E+00 0.812E+03   0.318E+00 0.211E-02 0.129E+00
   -.864E+01 0.407E+00 -.121E+04   0.886E+01 -.349E+00 0.121E+04   -.111E+00 -.407E-01 -.281E+00
   0.148E+01 0.186E+01 -.787E+03   -.166E+01 -.183E+01 0.787E+03   0.245E+00 -.272E-02 0.832E-01
   -.415E+01 0.251E+01 -.123E+04   0.433E+01 -.246E+01 0.124E+04   -.120E+00 -.197E-01 -.295E+00
   0.224E+02 -.143E+01 -.282E+04   -.235E+02 0.147E+01 0.282E+04   0.981E+00 0.537E-02 -.160E+00
   -.661E+02 -.849E+01 -.322E+04   0.660E+02 0.830E+01 0.322E+04   0.273E-01 0.168E+00 0.692E+00
   0.102E+02 -.742E+01 -.277E+04   -.105E+02 0.755E+01 0.278E+04   0.768E+00 -.277E-01 -.747E-01
   -.719E+02 -.252E+01 -.321E+04   0.722E+02 0.273E+01 0.321E+04   -.185E-01 -.477E-01 0.726E+00
   0.657E+01 0.653E-02 0.337E+04   -.166E+01 -.120E-01 -.337E+04   -.110E+01 0.112E-02 -.332E+01
   0.482E+01 0.110E-04 0.277E+04   -.642E+01 0.965E-05 -.277E+04   -.773E-01 -.791E-05 -.501E-01
   0.637E+01 -.316E-04 0.337E+04   -.147E+01 0.312E-05 -.337E+04   -.109E+01 0.252E-05 -.332E+01
   0.332E+01 -.153E+00 0.277E+04   -.493E+01 0.156E+00 -.277E+04   -.757E-01 -.830E-03 -.474E-01
   0.101E+00 -.432E+00 0.125E+04   -.279E+00 0.430E+00 -.125E+04   0.176E+00 0.216E-02 0.296E-01
   -.183E+01 -.225E-04 0.778E+03   0.188E+01 0.106E-04 -.777E+03   -.138E-01 0.320E-05 -.169E+00
   0.185E+01 0.456E-05 0.125E+04   -.201E+01 0.235E-04 -.125E+04   0.165E+00 0.540E-05 0.117E-01
   -.609E+01 -.866E+00 0.772E+03   0.615E+01 0.867E+00 -.772E+03   -.288E-01 -.254E-02 -.159E+00
   -.508E+01 -.366E+00 -.813E+03   0.475E+01 0.369E+00 0.812E+03   0.318E+00 -.209E-02 0.129E+00
   -.919E+01 -.419E-04 -.122E+04   0.937E+01 0.422E-04 0.123E+04   -.808E-01 -.126E-04 -.280E+00
   -.200E+01 0.193E-04 -.803E+03   0.174E+01 0.213E-05 0.803E+03   0.297E+00 0.681E-05 0.159E+00
   -.415E+01 -.251E+01 -.123E+04   0.433E+01 0.246E+01 0.124E+04   -.120E+00 0.197E-01 -.295E+00
   0.224E+02 0.143E+01 -.282E+04   -.235E+02 -.147E+01 0.282E+04   0.981E+00 -.539E-02 -.160E+00
   -.695E+02 -.504E-04 -.321E+04   0.698E+02 0.113E-03 0.321E+04   -.504E-01 0.160E-04 0.705E+00
   0.148E+02 -.323E-03 -.281E+04   -.157E+02 0.338E-03 0.281E+04   0.872E+00 -.131E-04 -.105E+00
   -.719E+02 0.252E+01 -.321E+04   0.722E+02 -.273E+01 0.321E+04   -.185E-01 0.477E-01 0.726E+00
   0.656E+01 0.119E-05 0.337E+04   -.165E+01 -.116E-04 -.337E+04   -.109E+01 -.119E-05 -.332E+01
   0.487E+01 0.139E+00 0.277E+04   -.644E+01 -.144E+00 -.277E+04   -.859E-01 0.149E-02 -.416E-01
   0.650E+01 -.172E+00 0.337E+04   -.163E+01 0.172E+00 -.337E+04   -.109E+01 -.312E-03 -.332E+01
   0.237E+01 -.416E-04 0.277E+04   -.394E+01 -.570E-05 -.277E+04   -.952E-01 0.233E-04 -.385E-01
   0.862E+00 0.472E-04 0.124E+04   -.106E+01 -.753E-04 -.124E+04   0.169E+00 0.395E-05 0.685E-01
   0.179E+01 0.153E+01 0.782E+03   -.171E+01 -.151E+01 -.781E+03   -.494E-01 -.223E-01 -.165E+00
   0.147E+01 -.135E+00 0.125E+04   -.162E+01 0.133E+00 -.125E+04   0.160E+00 -.584E-02 0.404E-02
   -.908E+01 -.174E-04 0.754E+03   0.916E+01 0.639E-05 -.754E+03   -.454E-01 -.749E-05 -.432E-01
   -.217E+01 0.867E-05 -.819E+03   0.181E+01 -.336E-04 0.818E+03   0.267E+00 -.656E-05 0.160E+00
   -.864E+01 -.407E+00 -.121E+04   0.886E+01 0.349E+00 0.121E+04   -.111E+00 0.407E-01 -.281E+00
   0.148E+01 -.186E+01 -.787E+03   -.166E+01 0.183E+01 0.787E+03   0.245E+00 0.273E-02 0.832E-01
   -.805E+01 0.377E-04 -.128E+04   0.817E+01 -.456E-04 0.128E+04   -.114E+00 0.817E-05 0.953E-02
   0.262E+02 -.509E-04 -.283E+04   -.276E+02 0.378E-05 0.283E+04   0.918E+00 -.276E-05 -.550E-01
   -.661E+02 0.849E+01 -.322E+04   0.660E+02 -.830E+01 0.322E+04   0.274E-01 -.168E+00 0.692E+00
   0.102E+02 0.742E+01 -.277E+04   -.105E+02 -.755E+01 0.278E+04   0.768E+00 0.278E-01 -.747E-01
   -.852E+02 0.155E-03 -.331E+04   0.843E+02 -.205E-03 0.331E+04   0.544E+00 0.803E-05 0.223E+01
   -.322E+02 0.708E-02 0.228E+04   0.370E+02 -.535E-02 -.230E+04   -.656E+01 -.210E-02 0.171E+02
   -.325E+02 0.119E-01 0.228E+04   0.373E+02 -.117E-01 -.230E+04   -.655E+01 -.215E-03 0.171E+02
   0.815E+02 0.160E+00 0.138E+04   -.864E+02 -.168E+00 -.137E+04   0.387E+01 0.622E-02 -.449E+01
   0.749E+02 -.187E-01 0.168E+04   -.819E+02 0.227E-01 -.168E+04   0.739E+01 -.849E-02 -.270E+01
   -.862E+02 -.583E-01 0.194E+04   0.934E+02 0.593E-01 -.194E+04   -.699E+01 -.462E-02 -.114E+00
   -.688E+02 -.813E+00 0.105E+04   0.744E+02 0.860E+00 -.105E+04   -.570E+01 -.418E-01 0.425E+01
   0.822E+02 0.105E+00 0.138E+04   -.870E+02 -.858E-01 -.137E+04   0.384E+01 -.212E-01 -.430E+01
   0.739E+02 0.117E+00 0.168E+04   -.809E+02 -.120E+00 -.168E+04   0.741E+01 0.106E-01 -.271E+01
   -.864E+02 0.548E-01 0.194E+04   0.936E+02 -.519E-01 -.194E+04   -.696E+01 -.980E-02 -.119E+00
   -.736E+02 0.355E+00 0.105E+04   0.795E+02 -.363E+00 -.106E+04   -.589E+01 0.520E-02 0.437E+01
   0.783E+02 -.349E+00 0.143E+03   -.848E+02 0.384E+00 -.138E+03   0.651E+01 -.373E-01 -.512E+01
   0.805E+02 0.380E+00 0.472E+03   -.872E+02 -.444E+00 -.469E+03   0.668E+01 0.602E-01 -.305E+01
[...]
   0.856E+02 0.434E-04 -.110E+04   -.927E+02 -.168E-04 0.111E+04   0.720E+01 -.236E-04 -.717E+01
   0.723E+02 -.493E-05 -.743E+03   -.783E+02 0.377E-05 0.746E+03   0.606E+01 -.118E-04 -.330E+01
   -.817E+02 -.220E+00 -.479E+03   0.881E+02 0.111E+00 0.476E+03   -.643E+01 0.130E+00 0.277E+01
   -.601E+02 0.673E+01 -.131E+04   0.626E+02 -.736E+01 0.130E+04   -.259E+01 0.638E+00 0.957E+01
   0.821E+02 0.888E+01 -.107E+04   -.884E+02 -.968E+01 0.108E+04   0.623E+01 0.815E+00 -.569E+01
   0.780E+02 -.111E+01 -.756E+03   -.845E+02 0.960E+00 0.760E+03   0.643E+01 0.200E+00 -.328E+01
   -.738E+02 0.837E-04 -.489E+03   0.800E+02 -.109E-03 0.487E+03   -.625E+01 0.490E-05 0.229E+01
   -.699E+02 0.992E-04 -.135E+04   0.746E+02 -.140E-03 0.134E+04   -.441E+01 0.323E-04 0.843E+01
   0.602E+02 0.409E-04 -.230E+04   -.669E+02 -.747E-04 0.232E+04   0.710E+01 0.137E-04 -.202E+02
   0.558E+02 -.298E-03 -.203E+04   -.598E+02 0.351E-03 0.203E+04   0.419E+01 -.229E-04 -.763E+01
   -.538E+02 0.750E+00 -.168E+04   0.585E+02 -.679E+00 0.167E+04   -.454E+01 0.101E-01 0.305E+01
   0.522E+02 -.494E+01 -.229E+04   -.584E+02 0.598E+01 0.231E+04   0.638E+01 -.117E+01 -.208E+02
   0.571E+02 0.128E+01 -.202E+04   -.617E+02 -.160E+01 0.203E+04   0.453E+01 0.835E+00 -.632E+01
   -.428E+02 -.238E-03 -.161E+04   0.466E+02 0.239E-03 0.160E+04   -.414E+01 0.273E-04 0.589E+01
   -.154E+02 -.233E-03 0.646E+02   0.000E+00 0.325E-11 -.546E-11   0.154E+02 0.124E-03 -.647E+02

 POSITION                                       TOTAL-FORCE (eV/Angst)
      8.29735      9.47401      8.23554         3.856300      0.004490      1.666324
      6.07868      7.57921      9.11612        -1.653026      0.003875     -1.926950
      3.16102      7.57921      8.23554         3.822203      0.000558      1.641258
      0.94235      9.47401      9.11612        -1.696808     -0.002080     -1.931072
      9.70630      9.47572     11.79917        -0.013295      0.002823     -0.035154
      7.46554      7.57476     12.59387         0.011141      0.001946      0.032350
      4.56215      7.57684     11.79415        -0.001219      0.005244     -0.034009
      2.31729      9.47376     12.60831         0.010930      0.002007      0.020567
      0.88481      9.47748     15.36316        -0.036402      0.007413     -0.022796
      8.88980      7.57457     16.05885         0.048242      0.008832      0.156582
      6.00266      7.57808     15.33130         0.042775      0.024615     -0.022680
      3.73942      9.47482     16.09719         0.023179      0.031679      0.073661
      2.37207      9.46523     19.00026        -0.124587      0.032587      0.027291
     10.27165      7.56806     19.54912        -0.254941     -0.033535      0.283835
      7.48462      7.56766     18.89491         0.427995      0.088087      0.466829
      5.16886      9.48459     19.55187         0.088091      0.154491      0.091478
      8.29735      1.89480      8.23554         3.856342     -0.004375      1.666195
      6.07868      0.00000      9.11612        -1.678920      0.000014     -1.924245
      3.16102      0.00000      8.23554         3.847763     -0.000025      1.658906
      0.94235      1.89480      9.11612        -1.696685      0.002147     -1.931133
      9.70630      1.89310     11.79917        -0.013261     -0.002798     -0.035129
      7.45767      0.00000     12.59902         0.012767     -0.000008      0.035221
      4.56466     11.36881     11.79864        -0.002433      0.000034     -0.033746
      2.31729      1.89506     12.60831         0.010923     -0.001981      0.020564
      0.88481      1.89133     15.36316        -0.036366     -0.007371     -0.022747
      8.87399     11.36881     16.07777         0.042260     -0.000012      0.115481
      6.00999     11.36881     15.34888         0.008145      0.000029     -0.016707
      3.73942      1.89400     16.09719         0.023181     -0.031655      0.073727
      2.37207      1.90358     19.00026        -0.124560     -0.032638      0.027454
      0.02763     11.36881     19.54896         0.047748      0.000079      0.119180
      7.51904     11.36881     18.97406         0.022201      0.000001      0.046296
      5.16886      1.88422     19.55187         0.088312     -0.154610      0.091829
      8.29735      5.68441      8.23554         3.859310     -0.000011      1.655356
      6.07868      3.78960      9.11612        -1.653051     -0.003829     -1.926970
      3.16102      3.78960      8.23554         3.822197     -0.000527      1.641283
      0.94235      5.68441      9.11612        -1.662101     -0.000024     -1.879927
      9.72078      5.68441     11.79322        -0.031035     -0.000024     -0.040161
      7.46554      3.79406     12.59387         0.011176     -0.001892      0.032341
      4.56216      3.79197     11.79415        -0.001237     -0.005209     -0.034046
      2.32057      5.68441     12.63661         0.018538     -0.000018     -0.026331
      0.91331      5.68441     15.36816        -0.103558     -0.000031     -0.050049
      8.88980      3.79425     16.05885         0.048273     -0.008826      0.156670
      6.00267      3.79073     15.33130         0.042755     -0.024610     -0.022691
      3.75979      5.68441     16.17957        -0.030134      0.000001     -0.220754
      2.40558      5.68441     19.01172        -0.508963     -0.000049     -0.076398
     10.27165      3.80075     19.54912        -0.255017      0.033382      0.283809
      7.48462      3.80115     18.89492         0.428100     -0.088002      0.466820
      5.18613      5.68441     19.71892        -0.513401     -0.000041     -1.659819
      5.01424      7.57921      7.50000        -1.784393     -0.000386      0.964176
     10.15057      9.47401      7.50000        -1.776718      0.000010      0.957877
      9.36179      9.47401      9.85165        -0.976752     -0.002175     -0.191390
      6.44412      9.47401      8.97107         0.400545     -0.004450     -0.079635
      7.93191      7.57921      8.38058         0.245782     -0.003563     -1.080124
      6.41224      7.57921     11.02232        -0.113095      0.005625      0.408112
      4.22546      7.57921      9.85165        -0.985513     -0.002440     -0.176836
      1.30779      7.57921      8.97107         0.412730      0.006898     -0.086476
      2.79558      9.47401      8.38058         0.257415     -0.006833     -1.082924
      1.27591      9.47401     11.02232        -0.021797     -0.002723      0.476029
      0.50718      9.47694     13.39257         0.028428     -0.001775      0.011887
      7.84707      9.47358     12.49097         0.024922     -0.003691     -0.003181
[...]
      2.72662      5.68441     14.56803         0.034742     -0.000011      0.060182
      1.98399      5.68441     16.96075         0.119857      0.000004      0.108177
      9.28901      5.68441     16.00908         0.050110     -0.000012     -0.021035
      0.52742      3.79188     15.43832        -0.011254      0.022024     -0.005155
      9.38425      3.77494     18.00907        -0.111591      0.007599     -0.183515
      7.12834      3.75854     16.89957        -0.020548      0.021111     -0.034464
      4.15661      3.79171     16.04368         0.008650      0.050874      0.021191
      5.65795      5.68441     15.46290        -0.071434     -0.000020      0.024581
      4.24553      5.68441     18.11393         0.280115     -0.000008      0.626098
      3.53874      5.68441     20.49245         0.402769     -0.000019      0.276291
      0.52859      5.68441     19.77605         0.193183      0.000031     -0.033007
      1.99783      3.79460     19.00644         0.080352      0.081892      0.003714
      8.63840      3.85571     20.39736         0.189997     -0.122905     -0.418166
      5.69103      3.77166     19.75743        -0.105610      0.512944      0.335723
      7.11464      5.68441     18.84986        -0.380353      0.000028      0.409213
    total drift:                                0.003443     -0.000109     -0.052037

  FREE ENERGIE OF THE ION-ELECTRON SYSTEM (eV)
  free  energy   TOTEN  =     -1293.44699883 eV

  energy  without entropy=    -1293.44699883  energy(sigma->0) =    -1293.44699883