 vasp.6.3.0 20Jan22 (build Apr  1 2022 16:44:48) complex
 executed on        HPECrayEX_GCC date 2023.04.06  22:14:31

 INCAR:
   SYSTEM = MgO-rocksalt
   ISMEAR = 0
   SIGMA = 0.05
   EDIFF = 1E-7
   ALGO = ALL
   ISTART = 0
   IBRION = 2
   NSW = 1000
   ISYM = 0
   ISIF = 2
   EDIFFG = -0.01
   DIPOL = 0.5 0.5 0.5
   IDIPOL = 3
   LDIPOL = .TRUE.
   GGA = RE
   IVDW = 13
   VDW_S8 = 1.7468
   VDW_A1 = 0.5363
   VDW_A2 = 3.0726
   ENCUT = 600
   PREC = Accurate
   LASPH = .TRUE.
   LREAL = .FALSE.
   ISPIN = 1
   NELM = 200
   NELMIN = 8
   NCORE = 8
   KPAR = 1
   LWAVE = .FALSE.
   LCHARG = .FALSE.

 POTCAR:    PAW_PBE Ti_pv 07Sep2000
 POTCAR:    PAW_PBE O 08Apr2002
 POTCAR:    PAW_PBE Ti_pv 07Sep2000
   VRHFIN =Ti: d3 s1

   TITEL  = PAW_PBE Ti_pv 07Sep2000
   POMASS =   47.880; ZVAL   =   10.000    mass and valenz
   ENMAX  =  222.335; ENMIN  =  166.751 eV

   TITEL  = PAW_PBE O 08Apr2002
   POMASS =   16.000; ZVAL   =    6.000    mass and valenz
   ENMAX  =  400.000; ENMIN  =  300.000 eV

  PAW_PBE Ti_pv 07Sep2000               :
  PAW_PBE O 08Apr2002                   :

 POSCAR: Ti  O
  positions in direct lattice
|           W    W    AA    RRRRR   N    N  II  N    N   GGGG   !!!           |
|           W    W   A  A   R    R  NN   N  II  NN   N  G    G  !!!           |
|           W    W  A    A  R    R  N N  N  II  N N  N  G       !!!           |
|           W WW W  AAAAAA  RRRRR   N  N N  II  N  N N  G  GGG   !            |
|           WW  WW  A    A  R   R   N   NN  II  N   NN  G    G                |
|           W    W  A    A  R    R  N    N  II  N    N   GGGG   !!!           |
|     Specifying the vdW parameters                                           |
|     VDW_S8 = 1.747                                                          |
|     VDW_A1 = 0.536                                                          |
|     VDW_A2 = 3.073                                                          |
|     in the INCAR file will overwrite the defaults for revpbe. Please        |
|     make sure that is what you intended.                                    |

 ion  position               nearest neighbor table
   1  0.750  0.625  0.287-  82 1.95 142 1.95 141 1.95  81 1.95  84 1.98 163 1.98  11 2.96  31 2.96

   2  0.000  0.750  0.287-  83 1.95  84 1.95 103 1.95 104 1.95  85 1.98  32 2.96  12 2.96
   3  0.000  0.625  0.394-  85 1.95 145 1.95  86 1.95 146 1.95  87 1.98  88 1.98  13 2.96  33 2.96

[...]

  80  0.500  0.500  0.713- 179 1.95 180 1.95 239 1.95 240 1.95 234 1.98  70 2.96  50 2.96
  81  0.750  0.750  0.245-   1 1.95  11 1.95
  82  0.750  0.750  0.329-   1 1.95  11 1.95   4 1.98
  83  0.098  0.625  0.287-   2 1.95  32 1.95  41 1.98
  84  0.902  0.625  0.287-   2 1.95  32 1.95   1 1.98
  85  0.000  0.750  0.352-   3 1.95  13 1.95   2 1.98
  86  0.000  0.750  0.435-   3 1.95  13 1.95   6 1.98
  87  0.848  0.625  0.394-   4 1.95  34 1.95   3 1.98
  88  0.152  0.625  0.394-  44 1.95  74 1.95   3 1.98
  89  0.750  0.750  0.458-   5 1.95  15 1.95   4 1.98
  90  0.750  0.750  0.542-   5 1.95  15 1.95   8 1.98
  91  0.098  0.625  0.500-   6 1.95  36 1.95  45 1.98
  92  0.902  0.625  0.500-   6 1.95  36 1.95   5 1.98
  93  0.000  0.750  0.565-   7 1.95  17 1.95   6 1.98
  94  0.000  0.750  0.648-   7 1.95  17 1.95  10 1.98
  95  0.848  0.625  0.606-   8 1.95  38 1.95   7 1.98
  96  0.152  0.625  0.606-  48 1.95  78 1.95   7 1.98
  97  0.750  0.750  0.671-   9 1.95  19 1.95   8 1.98
  98  0.750  0.750  0.755-   9 1.95  19 1.95
  99  0.098  0.625  0.713-  10 1.95  40 1.95  49 1.98
 100  0.902  0.625  0.713-  10 1.95  40 1.95   9 1.98
 101  0.750  0.000  0.245-  11 1.95  21 1.95
 102  0.750  0.000  0.329-  11 1.95  21 1.95  14 1.98
 103  0.098  0.875  0.287-   2 1.95  12 1.95  51 1.98
 104  0.902  0.875  0.287-   2 1.95  12 1.95  11 1.98
 105  0.000  0.000  0.352-  13 1.95  23 1.95  12 1.98
 106  0.000  0.000  0.435-  13 1.95  23 1.95  16 1.98
 107  0.848  0.875  0.394-   4 1.95  14 1.95  13 1.98
 108  0.152  0.875  0.394-  44 1.95  54 1.95  13 1.98
 109  0.750  0.000  0.458-  15 1.95  25 1.95  14 1.98
 110  0.750  0.000  0.542-  15 1.95  25 1.95  18 1.98
 111  0.098  0.875  0.500-   6 1.95  16 1.95  55 1.98
 112  0.902  0.875  0.500-   6 1.95  16 1.95  15 1.98
 113  0.000  0.000  0.565-  17 1.95  27 1.95  16 1.98
 114  0.000  0.000  0.648-  17 1.95  27 1.95  20 1.98
 115  0.848  0.875  0.606-   8 1.95  18 1.95  17 1.98
 116  0.152  0.875  0.606-  48 1.95  58 1.95  17 1.98
 117  0.750  0.000  0.671-  19 1.95  29 1.95  18 1.98
 118  0.750  0.000  0.755-  19 1.95  29 1.95
 119  0.098  0.875  0.713-  10 1.95  20 1.95  59 1.98
 120  0.902  0.875  0.713-  10 1.95  20 1.95  19 1.98
 121  0.750  0.250  0.245-  21 1.95  31 1.95
 122  0.750  0.250  0.329-  21 1.95  31 1.95  24 1.98
 123  0.098  0.125  0.287-  12 1.95  22 1.95  61 1.98
 124  0.902  0.125  0.287-  12 1.95  22 1.95  21 1.98
 125  0.000  0.250  0.352-  23 1.95  33 1.95  22 1.98
 126  0.000  0.250  0.435-  23 1.95  33 1.95  26 1.98
 127  0.848  0.125  0.394-  14 1.95  24 1.95  23 1.98
 128  0.152  0.125  0.394-  54 1.95  64 1.95  23 1.98
 129  0.750  0.250  0.458-  25 1.95  35 1.95  24 1.98
 130  0.750  0.250  0.542-  25 1.95  35 1.95  28 1.98
 131  0.098  0.125  0.500-  16 1.95  26 1.95  65 1.98
 132  0.902  0.125  0.500-  16 1.95  26 1.95  25 1.98
 133  0.000  0.250  0.565-  27 1.95  37 1.95  26 1.98
 134  0.000  0.250  0.648-  27 1.95  37 1.95  30 1.98
 135  0.848  0.125  0.606-  18 1.95  28 1.95  27 1.98
 136  0.152  0.125  0.606-  58 1.95  68 1.95  27 1.98
 137  0.750  0.250  0.671-  29 1.95  39 1.95  28 1.98
 138  0.750  0.250  0.755-  29 1.95  39 1.95
 139  0.098  0.125  0.713-  20 1.95  30 1.95  69 1.98
[...]
 226  0.500  0.500  0.435-  43 1.95  73 1.95  76 1.98
 227  0.348  0.375  0.394-  64 1.95  74 1.95  73 1.98
 228  0.652  0.375  0.394-  24 1.95  34 1.95  73 1.98
 229  0.250  0.500  0.458-  45 1.95  75 1.95  74 1.98
 230  0.250  0.500  0.542-  45 1.95  75 1.95  78 1.98
 231  0.598  0.375  0.500-  66 1.95  76 1.95  35 1.98
 232  0.402  0.375  0.500-  66 1.95  76 1.95  75 1.98
 233  0.500  0.500  0.565-  47 1.95  77 1.95  76 1.98
 234  0.500  0.500  0.648-  47 1.95  77 1.95  80 1.98
 235  0.348  0.375  0.606-  68 1.95  78 1.95  77 1.98
 236  0.652  0.375  0.606-  28 1.95  38 1.95  77 1.98
 237  0.250  0.500  0.671-  49 1.95  79 1.95  78 1.98
 238  0.250  0.500  0.755-  49 1.95  79 1.95
 239  0.598  0.375  0.713-  70 1.95  80 1.95  39 1.98
 240  0.402  0.375  0.713-  70 1.95  80 1.95  79 1.98

IMPORTANT INFORMATION: All symmetrisations will be switched off!
NOSYMM: (Re-)initialisation of all symmetry stuff for point group C_1.

                                     Primitive cell

  volume of cell :    4700.2961

  direct lattice vectors                    reciprocal lattice vectors
    13.003980404  0.000000000  0.000000000     0.076899531  0.000000000  0.000000000
     0.000000000 11.830378115  0.000000000     0.000000000  0.084528152  0.000000000
     0.000000000  0.000000000 30.552748813     0.000000000  0.000000000  0.032730279

  length of vectors
    13.003980404 11.830378115 30.552748813     0.076899531  0.084528152  0.032730279

  position of ions in fractional coordinates (direct lattice)
     0.750000000  0.625000000  0.287188045
     0.000000000  0.750000000  0.287188045
     0.000000000  0.625000000  0.393594023
     0.750000000  0.750000000  0.393594023
     0.750000000  0.625000000  0.500000000
     0.000000000  0.750000000  0.500000000
     0.000000000  0.625000000  0.606405977
     0.750000000  0.750000000  0.606405977
     0.750000000  0.625000000  0.712811955
     0.000000000  0.750000000  0.712811955
     0.750000000  0.875000000  0.287188045
     0.000000000  0.000000000  0.287188045
     0.000000000  0.875000000  0.393594023
     0.750000000  0.000000000  0.393594023
     0.750000000  0.875000000  0.500000000
     0.000000000  0.000000000  0.500000000
     0.000000000  0.875000000  0.606405977
     0.750000000  0.000000000  0.606405977
     0.750000000  0.875000000  0.712811955
     0.000000000  0.000000000  0.712811955
     0.750000000  0.125000000  0.287188045
     0.000000000  0.250000000  0.287188045
     0.000000000  0.125000000  0.393594023
     0.750000000  0.250000000  0.393594023
     0.750000000  0.125000000  0.500000000
     0.000000000  0.250000000  0.500000000
     0.000000000  0.125000000  0.606405977
     0.750000000  0.250000000  0.606405977
     0.750000000  0.125000000  0.712811955
     0.000000000  0.250000000  0.712811955
     0.750000000  0.375000000  0.287188045
     0.000000000  0.500000000  0.287188045
     0.000000000  0.375000000  0.393594023
     0.750000000  0.500000000  0.393594023
     0.750000000  0.375000000  0.500000000
     0.000000000  0.500000000  0.500000000
     0.000000000  0.375000000  0.606405977
     0.750000000  0.500000000  0.606405977
     0.750000000  0.375000000  0.712811955
     0.000000000  0.500000000  0.712811955
     0.250000000  0.625000000  0.287188045
     0.500000000  0.750000000  0.287188045
     0.500000000  0.625000000  0.393594023
     0.250000000  0.750000000  0.393594023
     0.250000000  0.625000000  0.500000000
     0.500000000  0.750000000  0.500000000
     0.500000000  0.625000000  0.606405977
     0.250000000  0.750000000  0.606405977
     0.250000000  0.625000000  0.712811955
     0.500000000  0.750000000  0.712811955
     0.250000000  0.875000000  0.287188045
     0.500000000  0.000000000  0.287188045
     0.500000000  0.875000000  0.393594023
     0.250000000  0.000000000  0.393594023
     0.250000000  0.875000000  0.500000000
     0.500000000  0.000000000  0.500000000
     0.500000000  0.875000000  0.606405977
     0.250000000  0.000000000  0.606405977
     0.250000000  0.875000000  0.712811955
     0.500000000  0.000000000  0.712811955
[...]
     0.500000000  0.500000000  0.435304973
     0.347999548  0.375000000  0.393594023
     0.652000452  0.375000000  0.393594023
     0.250000000  0.500000000  0.458289049
     0.250000000  0.500000000  0.541710951
     0.597999548  0.375000000  0.500000000
     0.402000452  0.375000000  0.500000000
     0.500000000  0.500000000  0.564695027
     0.500000000  0.500000000  0.648116928
     0.347999548  0.375000000  0.606405977
     0.652000452  0.375000000  0.606405977
     0.250000000  0.500000000  0.671101004
     0.250000000  0.500000000  0.754522906
     0.597999548  0.375000000  0.712811955
     0.402000452  0.375000000  0.712811955

  ion indices of the primitive-cell ions
   primitive index   ion index
                 1           1
                 2           2
                 3           3
                 4           4
                 5           5
                 6           6
                 7           7
                 8           8
                 9           9
                10          10
                11          11
                12          12
                13          13
                14          14
                15          15
                16          16
                17          17
                18          18
                19          19
                20          20
                21          21
                22          22
[...]
   3.25099510  5.91518906 20.50398040
   3.25099510  5.91518906 23.05274881
   7.77637441  4.43639179 21.77836461
   5.22760600  4.43639179 21.77836461

--------------------------------------- Iteration      FINAL  ---------------------------------------

--------------------OUTCAR has been truncated-------------------------

[...]

--------------------OUTCAR has been truncated-------------------------

  FORCE on cell =-STRESS in cart. coord.  units (eV):
  Direction    XX          YY          ZZ          XY          YZ          ZX
  Alpha Z  4654.20310  4654.20310  4654.20310
  Ewald  981180.44121998950.62795************    -0.00002     0.00004     0.00001
  Hartree************************************    -0.00001     0.00001    -0.00001
  E(xc)   -8618.03641 -8590.78438 -8632.60995    -0.00000     0.00000    -0.00000
  Local  ************************************     0.00003    -0.00005     0.00001
  n-local -5339.07310 -5262.62950 -5385.27196    -0.00000     0.00000     0.00000
  augment  5215.42236  5201.43712  5217.68869    -0.00000     0.00000    -0.00000
  Kinetic 28642.39659 28169.14356 28691.60163     0.00000     0.00000    -0.00001
  Fock        0.00000     0.00000     0.00000     0.00000     0.00000     0.00000
  vdW      -130.33469  -129.89208  -116.94170     0.00000    -0.00000    -0.00000
  Total      13.95937   -29.72790   -31.63437    -0.00000     0.00000    -0.00001
  in kB       4.75829   -10.13327   -10.78312    -0.00000     0.00000    -0.00000

 VOLUME and BASIS-vectors are now :
  energy-cutoff  :      600.00
  volume of cell :     4700.30
      direct lattice vectors                 reciprocal lattice vectors
    13.003980404  0.000000000  0.000000000     0.076899531  0.000000000  0.000000000
     0.000000000 11.830378115  0.000000000     0.000000000  0.084528152  0.000000000
     0.000000000  0.000000000 30.552748813     0.000000000  0.000000000  0.032730279

  length of vectors
    13.003980404 11.830378115 30.552748813     0.076899531  0.084528152  0.032730279

 FORCES acting on ions:
    Electron-Ion                     Ewald-Force                    Non-Local-Force
   -.745E-06 -.606E-06 0.380E+04   0.749E-06 0.523E-06 -.380E+04   -.161E-07 0.270E-07 0.454E+00
   -.429E-06 -.268E-06 0.398E+04   0.466E-06 0.119E-06 -.397E+04   -.166E-07 0.312E-07 -.403E+01
   -.226E-05 -.360E-05 0.193E+04   0.230E-05 0.325E-05 -.193E+04   0.955E-07 0.195E-06 -.467E-01
   -.369E-05 -.662E-06 0.192E+04   0.369E-05 0.401E-06 -.192E+04   0.263E-08 0.254E-07 0.204E+00
   -.183E-04 0.191E-05 -.217E+02   0.183E-04 -.472E-05 0.226E+02   0.329E-07 0.302E-06 -.141E+00
   -.196E-04 -.106E-04 -.945E+01   0.200E-04 0.106E-04 0.835E+01   0.688E-07 0.216E-07 0.357E+00
   -.115E-03 0.845E-04 -.190E+04   0.117E-03 -.882E-04 0.190E+04   -.444E-06 0.687E-06 0.510E-02
   -.844E-04 0.588E-04 -.197E+04   0.848E-04 -.589E-04 0.197E+04   0.495E-07 0.228E-06 -.833E-01
   -.312E-04 0.385E-04 -.379E+04   0.308E-04 -.396E-04 0.379E+04   0.472E-07 0.109E-05 -.230E+00
   0.879E-04 0.257E-04 -.381E+04   -.882E-04 -.264E-04 0.380E+04   -.872E-06 0.540E-06 0.104E+01
   -.777E-06 0.449E-06 0.380E+04   0.771E-06 -.412E-06 -.380E+04   -.300E-08 -.248E-07 0.454E+00
   -.396E-06 0.871E-06 0.398E+04   0.435E-06 -.740E-06 -.397E+04   0.621E-08 -.756E-07 -.403E+01
   -.252E-05 0.225E-05 0.193E+04   0.250E-05 -.219E-05 -.193E+04   0.440E-07 -.392E-07 -.467E-01
   -.385E-05 0.388E-05 0.192E+04   0.392E-05 -.352E-05 -.192E+04   0.263E-08 -.587E-07 0.204E+00
   -.190E-04 -.147E-05 -.217E+02   0.193E-04 0.355E-05 0.226E+02   0.158E-07 -.317E-07 -.141E+00
   -.115E-04 0.367E-04 -.945E+01   0.117E-04 -.362E-04 0.835E+01   0.148E-06 -.404E-06 0.357E+00
   -.327E-04 0.486E-04 -.190E+04   0.345E-04 -.472E-04 0.190E+04   -.470E-06 0.314E-07 0.510E-02
   -.133E-04 0.412E-04 -.197E+04   0.155E-04 -.428E-04 0.197E+04   -.721E-06 0.224E-06 -.833E-01
   -.511E-04 0.146E-03 -.379E+04   0.506E-04 -.150E-03 0.379E+04   0.509E-06 0.137E-05 -.230E+00
   0.261E-05 0.240E-04 -.381E+04   -.727E-06 -.263E-04 0.380E+04   0.166E-05 0.650E-06 0.104E+01
   -.761E-06 0.690E-06 0.380E+04   0.766E-06 -.543E-06 -.380E+04   0.107E-07 -.566E-07 0.454E+00
   -.407E-06 0.169E-06 0.398E+04   0.370E-06 -.115E-06 -.397E+04   -.187E-08 -.386E-09 -.403E+01
   -.164E-05 0.433E-05 0.193E+04   0.172E-05 -.382E-05 -.193E+04   0.323E-07 -.199E-06 -.467E-01
   -.367E-05 0.562E-06 0.192E+04   0.373E-05 -.254E-06 -.192E+04   -.477E-07 -.152E-06 0.204E+00
   -.249E-04 0.221E-04 -.217E+02   0.251E-04 -.240E-04 0.226E+02   -.522E-07 -.181E-06 -.141E+00
   -.613E-06 0.735E-05 -.945E+01   0.534E-06 -.728E-05 0.835E+01   0.138E-06 -.157E-06 0.357E+00
   0.401E-04 0.120E-04 -.190E+04   -.390E-04 -.168E-04 0.190E+04   -.515E-06 0.239E-06 0.510E-02
   0.683E-04 0.594E-04 -.197E+04   -.661E-04 -.601E-04 0.197E+04   -.948E-06 0.351E-07 -.833E-01
   -.134E-04 -.366E-05 -.379E+04   0.124E-04 0.182E-05 0.379E+04   0.185E-06 0.534E-06 -.230E+00
   -.753E-04 -.828E-04 -.381E+04   0.774E-04 0.845E-04 0.380E+04   -.219E-05 -.641E-06 0.104E+01
   -.739E-06 -.551E-06 0.380E+04   0.743E-06 0.432E-06 -.380E+04   -.169E-07 0.735E-08 0.454E+00
   -.385E-06 -.809E-06 0.398E+04   0.400E-06 0.736E-06 -.397E+04   0.145E-07 0.378E-08 -.403E+01
   -.152E-05 -.296E-05 0.193E+04   0.148E-05 0.277E-05 -.193E+04   0.603E-07 0.716E-07 -.467E-01
   -.348E-05 -.374E-05 0.192E+04   0.355E-05 0.337E-05 -.192E+04   -.445E-07 0.140E-06 0.204E+00
   -.200E-04 -.229E-04 -.217E+02   0.203E-04 0.254E-04 0.226E+02   -.794E-07 -.883E-07 -.141E+00
   -.125E-04 -.287E-04 -.945E+01   0.123E-04 0.281E-04 0.835E+01   0.194E-06 0.315E-06 0.357E+00
   0.117E-03 -.153E-03 -.190E+04   -.114E-03 0.161E-03 0.190E+04   0.424E-06 -.601E-06 0.510E-02
   -.174E-04 -.149E-03 -.197E+04   0.181E-04 0.151E-03 0.197E+04   -.631E-06 -.569E-06 -.833E-01
   -.355E-04 -.984E-04 -.379E+04   0.350E-04 0.103E-03 0.379E+04   0.743E-06 -.174E-05 -.230E+00
   0.220E-04 -.429E-04 -.381E+04   -.224E-04 0.447E-04 0.380E+04   -.108E-05 -.226E-06 0.104E+01
   0.736E-06 -.649E-06 0.380E+04   -.746E-06 0.623E-06 -.380E+04   -.237E-08 0.632E-08 0.454E+00
   0.424E-06 -.206E-06 0.398E+04   -.468E-06 0.861E-07 -.397E+04   0.906E-08 0.492E-07 -.403E+01
   0.225E-05 -.344E-05 0.193E+04   -.230E-05 0.297E-05 -.193E+04   -.106E-06 0.201E-06 -.467E-01
   0.371E-05 -.105E-05 0.192E+04   -.367E-05 0.779E-06 -.192E+04   0.700E-08 0.121E-06 0.204E+00
   0.129E-04 -.114E-04 -.217E+02   -.130E-04 0.106E-04 0.226E+02   0.478E-07 0.270E-06 -.141E+00
   0.759E-05 -.831E-05 -.945E+01   -.801E-05 0.814E-05 0.835E+01   0.168E-06 0.147E-06 0.357E+00
   0.111E-04 0.168E-04 -.190E+04   -.136E-04 -.172E-04 0.190E+04   0.296E-06 0.127E-06 0.510E-02
   -.328E-04 -.406E-05 -.197E+04   0.334E-04 0.369E-05 0.197E+04   -.792E-07 0.247E-07 -.833E-01
   0.117E-04 0.272E-04 -.379E+04   -.112E-04 -.250E-04 0.379E+04   -.451E-06 -.106E-05 -.230E+00
   -.369E-04 0.721E-04 -.381E+04   0.366E-04 -.727E-04 0.380E+04   0.508E-06 0.332E-06 0.104E+01
   0.773E-06 0.482E-06 0.380E+04   -.766E-06 -.455E-06 -.380E+04   -.211E-07 0.758E-08 0.454E+00
   0.426E-06 0.860E-06 0.398E+04   -.444E-06 -.727E-06 -.397E+04   0.233E-07 -.631E-07 -.403E+01
   0.249E-05 0.249E-05 0.193E+04   -.257E-05 -.240E-05 -.193E+04   0.111E-07 -.133E-07 -.467E-01
   0.372E-05 0.490E-05 0.192E+04   -.369E-05 -.451E-05 -.192E+04   0.198E-08 -.882E-07 0.204E+00
   0.143E-04 0.518E-05 -.217E+02   -.143E-04 -.354E-05 0.226E+02   -.545E-07 -.147E-06 -.141E+00
   0.990E-05 0.362E-04 -.945E+01   -.108E-04 -.354E-04 0.835E+01   0.251E-06 -.561E-06 0.357E+00
   -.124E-04 0.639E-04 -.190E+04   0.109E-04 -.635E-04 0.190E+04   0.269E-06 0.118E-07 0.510E-02
   0.818E-04 0.780E-04 -.197E+04   -.832E-04 -.794E-04 0.197E+04   -.530E-07 0.483E-06 -.833E-01
   -.257E-04 0.284E-04 -.379E+04   0.261E-04 -.291E-04 0.379E+04   0.159E-06 -.425E-06 -.230E+00
   0.846E-05 0.217E-04 -.381E+04   -.107E-04 -.234E-04 0.380E+04   0.171E-05 0.287E-06 0.104E+01
[...]
   -.533E+02 -.181E-05 0.115E+04   0.573E+02 0.175E-05 -.115E+04   -.355E+01 0.104E-07 0.157E+00
   0.533E+02 -.166E-05 0.115E+04   -.573E+02 0.160E-05 -.115E+04   0.355E+01 0.584E-07 0.157E+00
   0.502E-05 -.748E-05 0.497E+03   -.496E-05 0.746E-05 -.501E+03   -.960E-07 -.326E-06 0.415E+01
   0.106E-05 -.158E-04 -.539E+03   -.142E-05 0.160E-04 0.547E+03   0.687E-06 -.956E-06 -.724E+01
   -.555E+02 -.117E-04 -.654E+01   0.602E+02 0.119E-04 0.627E+01   -.522E+01 -.495E-06 0.370E+00
   0.555E+02 -.140E-04 -.654E+01   -.602E+02 0.140E-04 0.627E+01   0.522E+01 -.179E-06 0.370E+00
   0.240E-04 -.324E-04 -.643E+03   -.247E-04 0.330E-04 0.637E+03   0.650E-06 -.716E-06 0.639E+01
   -.192E-05 -.173E-04 -.162E+04   0.146E-05 0.153E-04 0.162E+04   0.624E-06 0.187E-05 0.298E+01
   -.269E+02 -.148E-03 -.115E+04   0.299E+02 0.161E-03 0.115E+04   -.295E+01 -.114E-04 0.906E+00
   0.269E+02 -.308E-05 -.115E+04   -.299E+02 -.261E-05 0.115E+04   0.295E+01 0.592E-05 0.906E+00
   0.368E-04 0.322E-04 -.183E+04   -.378E-04 -.345E-04 0.184E+04   0.946E-06 0.204E-05 -.230E+01
   0.151E-04 0.288E-04 -.274E+04   -.157E-04 -.310E-04 0.276E+04   0.289E-06 0.314E-06 -.209E+02
   -.208E+02 -.413E-04 -.237E+04   0.267E+02 0.420E-04 0.237E+04   -.591E+01 -.189E-06 -.389E+01
   0.208E+02 -.377E-04 -.237E+04   -.267E+02 0.412E-04 0.237E+04   0.591E+01 -.370E-05 -.389E+01
   0.544E-04 0.249E-05 0.972E+02   -.227E-11 0.129E-11 -.109E-10   -.532E-04 -.257E-05 -.972E+02

 POSITION                                       TOTAL-FORCE (eV/Angst)
      9.75299      7.39399      8.77438        -0.000000     -0.000000     -3.375903
      0.00000      8.87278      8.77438         0.000000     -0.000000      2.809392
      0.00000      7.39399     12.02538         0.000000     -0.000000      0.542753
      9.75299      8.87278     12.02538        -0.000000     -0.000000     -0.703709
      9.75299      7.39399     15.27637        -0.000000     -0.000003      0.714333
      0.00000      8.87278     15.27637         0.000000      0.000000     -0.763881
     -0.00000      7.39399     18.45785         0.000001     -0.000003      0.004240
      9.75298      8.87278     18.66094         0.000000      0.000000     -0.001614
      9.75299      7.39399     22.01291        -0.000000      0.000000     -0.000205
      0.00000      8.87278     21.63554        -0.000001     -0.000000      0.000663
      9.75299     10.35158      8.77438        -0.000000      0.000000     -3.375903
      0.00000      0.00000      8.77438         0.000000      0.000000      2.809392
      0.00000     10.35158     12.02538         0.000000      0.000000      0.542753
      9.75299      0.00000     12.02538         0.000000      0.000000     -0.703709
      9.75299     10.35158     15.27637         0.000000      0.000002      0.714333
      0.00000      0.00000     15.27637         0.000000      0.000000     -0.763881
     -0.00000     10.35158     18.45785         0.000001      0.000002      0.004235
      9.75299      0.00000     18.66094         0.000002     -0.000001     -0.001621
      9.75299     10.35158     22.01291         0.000000     -0.000002     -0.000204
      0.00000      0.00000     21.63554         0.000004     -0.000002      0.000666
      9.75299      1.47880      8.77438         0.000000      0.000000     -3.375903
      0.00000      2.95759      8.77438        -0.000000      0.000000      2.809392
      0.00000      1.47880     12.02538         0.000000      0.000000      0.542753
      9.75299      2.95759     12.02538         0.000000      0.000000     -0.703709
      9.75299      1.47880     15.27637         0.000000     -0.000002      0.714333
      0.00000      2.95759     15.27637         0.000000     -0.000000     -0.763884
      0.00000      1.47880     18.45785         0.000001     -0.000005      0.004238
      9.75299      2.95759     18.66094         0.000002     -0.000000     -0.001615
      9.75299      1.47880     22.01291        -0.000001     -0.000001     -0.000205
     -0.00000      2.95759     21.63554        -0.000000      0.000001      0.000664
      9.75299      4.43639      8.77438        -0.000000     -0.000000     -3.375903
      0.00000      5.91519      8.77438         0.000000     -0.000000      2.809392
      0.00000      4.43639     12.02538         0.000000     -0.000000      0.542753
      9.75299      5.91519     12.02538         0.000000     -0.000000     -0.703709
      9.75299      4.43639     15.27637         0.000000      0.000002      0.714333
      0.00000      5.91519     15.27637         0.000000     -0.000000     -0.763882
      0.00000      4.43639     18.45785         0.000004      0.000007      0.004242
      9.75299      5.91519     18.66094         0.000000      0.000001     -0.001619
      9.75299      4.43639     22.01291         0.000000      0.000003     -0.000206
      0.00000      5.91519     21.63554        -0.000001      0.000001      0.000665
      3.25100      7.39399      8.77438        -0.000000     -0.000000     -3.375903
      6.50199      8.87278      8.77438        -0.000000     -0.000000      2.809392
      6.50199      7.39399     12.02538        -0.000000     -0.000000      0.542753
      3.25100      8.87278     12.02538         0.000000     -0.000000     -0.703709
      3.25100      7.39399     15.27637        -0.000000     -0.000001      0.714335
      6.50199      8.87278     15.27637        -0.000000     -0.000000     -0.763882
      6.50199      7.39399     18.45785        -0.000002     -0.000000      0.004241
      3.25099      8.87278     18.66094         0.000000     -0.000000     -0.001617
      3.25100      7.39399     22.01291         0.000000      0.000001     -0.000205
      6.50199      8.87278     21.63554         0.000000     -0.000000      0.000663
      3.25100     10.35158      8.77438        -0.000000      0.000000     -3.375903
      6.50199      0.00000      8.77438         0.000000      0.000000      2.809392
      6.50199     10.35158     12.02538        -0.000000      0.000000      0.542753
      3.25100      0.00000     12.02538         0.000000      0.000000     -0.703709
      3.25100     10.35158     15.27637        -0.000000      0.000001      0.714336
      6.50199      0.00000     15.27637        -0.000001      0.000000     -0.763882
      6.50199     10.35158     18.45785        -0.000002      0.000000      0.004238
      3.25100      0.00000     18.66094        -0.000001     -0.000001     -0.001620
      3.25100     10.35158     22.01291         0.000001     -0.000001     -0.000205
      6.50199      0.00000     21.63554        -0.000001     -0.000001      0.000664
[...]
      6.50199      5.91519     13.29976         0.000000     -0.000000     -0.109726
      4.52538      4.43639     12.02538         0.439824     -0.000000      0.048646
      8.47860      4.43639     12.02538        -0.439824     -0.000000      0.048646
      3.25100      5.91519     14.00199        -0.000000     -0.000000     -0.118871
      3.25100      5.91519     16.55076         0.000000     -0.000001      0.020233
      7.77637      4.43639     15.27637        -0.499072     -0.000000      0.098885
      5.22761      4.43639     15.27637         0.499073     -0.000000      0.098885
      6.50199      5.91519     17.27293        -0.000000     -0.000000     -0.000306
      6.50199      5.91519     19.82857         0.000000     -0.000000      0.004760
      4.55397      4.43639     18.54977        -0.001641      0.000001     -0.000801
      8.45001      4.43639     18.54977         0.001642      0.000000     -0.000801
      3.25100      5.91519     20.52077        -0.000000     -0.000000      0.004492
      3.25100      5.91519     23.09582        -0.000000     -0.000002     -0.001914
      7.72533      4.43639     21.95912         0.001003      0.000001     -0.001200
      5.27865      4.43639     21.95912        -0.001002     -0.000000     -0.001200
    total drift:                                0.000001     -0.000000     -0.005437

  FREE ENERGIE OF THE ION-ELECTRON SYSTEM (eV)
  free  energy   TOTEN  =     -2125.87129100 eV

  energy  without entropy=    -2125.87129100  energy(sigma->0) =    -2125.87129100

 d Force = 0.3607907E-04[ 0.797E-05, 0.642E-04]  d Energy = 0.4546905E-04-0.939E-05
 d Force = 0.1274720E+02[ 0.127E+02, 0.127E+02]  d Ewald  = 0.1274721E+02-0.112E-04

 Conjugate gradient step on ions:
 trial-energy change:   -0.000045  1 .order   -0.000036   -0.000064   -0.000008
  (g-gl).g = 0.102E-03      g.g   = 0.116E-03  gl.gl    = 0.940E-03
 g(Force)  = 0.116E-03   g(Stress)= 0.000E+00 ortho     = 0.209E-04
 gamma     =   0.10840
 trial     =   0.54316
 opt step  =   0.58034  (harmonic =   0.62016) maximal distance =0.00039238
 next E    = -2125.871291   (d E  =  -0.00005)

 reached required accuracy - stopping structural energy minimisation