 vasp.6.3.0 20Jan22 (build Apr  1 2022 16:44:48) complex
 executed on        HPECrayEX_GCC date 2022.11.03  12:18:51

 INCAR:
   SYSTEM = MgO-rocksalt
   ISMEAR = 0
   SIGMA = 0.05
   EDIFF = 1E-7
   ALGO = ALL
   ISTART = 0
   IBRION = 2
   NSW = 1000
   ISYM = 0
   ISIF = 2
   EDIFFG = -0.01
   DIPOL = 0.5 0.5 0.5
   IDIPOL = 3
   LDIPOL = .TRUE.
   GGA = RE
   IVDW = 13
   VDW_S8 = 1.7468
   VDW_A1 = 0.5363
   VDW_A2 = 3.0726
   ENCUT = 600
   PREC = Accurate
   LASPH = .TRUE.
   LREAL = .FALSE.
   ISPIN = 1
   NELM = 200
   NELMIN = 8
   NCORE = 8
   KPAR = 1
   LWAVE = .FALSE.
   LCHARG = .FALSE.

 POTCAR:    PAW_PBE C 08Apr2002
 POTCAR:    PAW_PBE H 15Jun2001
 POTCAR:    PAW_PBE Mg_pv 13Apr2007
 POTCAR:    PAW_PBE O 08Apr2002
 POTCAR:    PAW_PBE C 08Apr2002
   VRHFIN =C: s2p2

   TITEL  = PAW_PBE C 08Apr2002
   POMASS =   12.011; ZVAL   =    4.000    mass and valenz
   ENMAX  =  400.000; ENMIN  =  300.000 eV

   TITEL  = PAW_PBE H 15Jun2001
   POMASS =    1.000; ZVAL   =    1.000    mass and valenz
   ENMAX  =  250.000; ENMIN  =  200.000 eV

   TITEL  = PAW_PBE Mg_pv 13Apr2007
   POMASS =   24.305; ZVAL   =    8.000    mass and valenz
   ENMAX  =  403.929; ENMIN  =  302.947 eV

   TITEL  = PAW_PBE O 08Apr2002
   POMASS =   16.000; ZVAL   =    6.000    mass and valenz
   ENMAX  =  400.000; ENMIN  =  300.000 eV

  PAW_PBE C 08Apr2002                   :
  PAW_PBE H 15Jun2001                   :
  PAW_PBE Mg_pv 13Apr2007               :
  PAW_PBE O 08Apr2002                   :

 POSCAR:  C  H Mg  O
  positions in direct lattice
|           W    W    AA    RRRRR   N    N  II  N    N   GGGG   !!!           |
|           W    W   A  A   R    R  NN   N  II  NN   N  G    G  !!!           |
|           W    W  A    A  R    R  N N  N  II  N N  N  G       !!!           |
|           W WW W  AAAAAA  RRRRR   N  N N  II  N  N N  G  GGG   !            |
|           WW  WW  A    A  R   R   N   NN  II  N   NN  G    G                |
|           W    W  A    A  R    R  N    N  II  N    N   GGGG   !!!           |
|     Specifying the vdW parameters                                           |
|     VDW_S8 = 1.747                                                          |
|     VDW_A1 = 0.536                                                          |
|     VDW_A2 = 3.073                                                          |
|     in the INCAR file will overwrite the defaults for revpbe. Please        |
|     make sure that is what you intended.                                    |

 ion  position               nearest neighbor table
   1  0.500  0.500  0.796-   6 1.10   5 1.10   7 1.10   8 1.10
   2  0.000  0.500  0.796-  10 1.10   9 1.10  11 1.10  12 1.10
   3  0.500  1.000  0.796-  14 1.10  13 1.10  15 1.10  16 1.10
   4  0.000  1.000  0.796-  18 1.10  17 1.10  19 1.10  20 1.10
   5  0.500  0.606  0.825-   1 1.10
   6  0.500  0.394  0.825-   1 1.10
   7  0.607  0.500  0.766-   1 1.10
   8  0.393  0.500  0.766-   1 1.10
   9  0.894  0.500  0.825-   2 1.10
  10  0.106  0.500  0.825-   2 1.10
  11  1.000  0.607  0.766-   2 1.10
  12  1.000  0.393  0.766-   2 1.10
  13  0.394  1.000  0.825-   3 1.10
  14  0.606  1.000  0.825-   3 1.10
  15  0.500  0.107  0.766-   3 1.10
  16  0.500  0.893  0.766-   3 1.10
  17  1.000  0.106  0.825-   4 1.10
  18  1.000  0.894  0.825-   4 1.10
  19  0.107  0.000  0.766-   4 1.10
  20  0.893  0.000  0.766-   4 1.10
  21  0.000  0.750  0.352-  53 2.11  55 2.11  56 2.11  63 2.11  72 2.11
  22  0.250  0.000  0.352-  54 2.11  55 2.11  56 2.11  64 2.11  71 2.11
  23  0.000  0.000  0.451-  55 2.11  54 2.11  53 2.11  61 2.11  70 2.11  59 2.12
  24  0.250  0.750  0.451-  56 2.11  54 2.11  53 2.11  62 2.11  69 2.11  60 2.12
  25  0.000  0.750  0.550-  76 2.11  60 2.11  59 2.11  67 2.11  53 2.12  57 2.15
  26  0.250  1.000  0.550-  68 2.11  60 2.11  59 2.11  75 2.11  54 2.12  58 2.15
  27  0.000  1.000  0.649-  59 2.11  74 2.11  58 2.11  57 2.11  65 2.11
  28  0.250  0.750  0.649-  60 2.11  73 2.11  58 2.11  66 2.11  57 2.11
  29  0.000  0.250  0.352-  61 2.11  55 2.11  63 2.11  64 2.11  80 2.11
  30  0.250  0.500  0.352-  62 2.11  56 2.11  63 2.11  64 2.11  79 2.11
  31  0.000  0.500  0.451-  63 2.11  61 2.11  62 2.11  53 2.11  78 2.11  67 2.12
  32  0.250  0.250  0.451-  64 2.11  61 2.11  62 2.11  54 2.11  77 2.11  68 2.12
  33  0.000  0.250  0.550-  68 2.11  84 2.11  59 2.11  67 2.11  61 2.12  65 2.15
  34  0.250  0.500  0.550-  83 2.11  60 2.11  68 2.11  67 2.11  62 2.12  66 2.15
  35  0.000  0.500  0.649-  67 2.11  82 2.11  66 2.11  57 2.11  65 2.11
  36  0.250  0.250  0.649-  68 2.11  81 2.11  58 2.11  66 2.11  65 2.11
  37  0.500  0.750  0.352-  69 2.11  56 2.11  71 2.11  72 2.11  79 2.11
  38  0.750  0.000  0.352-  70 2.11  55 2.11  71 2.11  72 2.11  80 2.11
  39  0.500  0.000  0.451-  71 2.11  69 2.11  70 2.11  54 2.11  77 2.11  75 2.12
  40  0.750  0.750  0.451-  72 2.11  69 2.11  70 2.11  53 2.11  78 2.11  76 2.12
  41  0.500  0.750  0.550-  83 2.11  60 2.11  76 2.11  75 2.11  69 2.13  73 2.15
  42  0.750  0.000  0.550-  84 2.11  76 2.11  59 2.11  75 2.11  70 2.12  74 2.15
  43  0.500  1.000  0.649-  81 2.11  73 2.11  75 2.11  58 2.11  74 2.11
  44  0.750  0.750  0.649-  76 2.11  73 2.11  74 2.11  82 2.11  57 2.11
  45  0.500  0.250  0.352-  77 2.11  71 2.11  64 2.11  79 2.11  80 2.11
  46  0.750  0.500  0.352-  78 2.11  72 2.11  63 2.11  79 2.11  80 2.11
  47  0.500  0.500  0.451-  79 2.11  69 2.11  77 2.11  78 2.11  62 2.11  83 2.12
  48  0.750  0.250  0.451-  80 2.11  70 2.11  77 2.11  78 2.11  61 2.11  84 2.12
  49  0.500  0.250  0.550-  83 2.11  68 2.11  84 2.11  75 2.11  77 2.13  81 2.15
  50  0.750  0.500  0.550-  83 2.11  76 2.11  84 2.11  67 2.11  78 2.12  82 2.15
  51  0.500  0.500  0.649-  81 2.11  73 2.11  66 2.11  82 2.11  83 2.12
  52  0.750  0.250  0.649-  84 2.11  81 2.11  74 2.11  82 2.11  65 2.11
  53  0.000  0.750  0.451-  21 2.11  23 2.11  24 2.11  31 2.11  40 2.11  25 2.12
  54  0.250  0.000  0.451-  22 2.11  23 2.11  24 2.11  32 2.11  39 2.11  26 2.12
  55  0.000  0.000  0.352-  23 2.11  22 2.11  21 2.11  29 2.11  38 2.11
  56  0.250  0.750  0.352-  24 2.11  22 2.11  21 2.11  30 2.11  37 2.11
  57  0.000  0.750  0.651-  27 2.11  35 2.11  44 2.11  28 2.11  25 2.15
  58  0.250  0.000  0.651-  36 2.11  28 2.11  27 2.11  43 2.11  26 2.15
  59  0.000  1.000  0.550-  25 2.11  33 2.11  27 2.11  26 2.11  42 2.11  23 2.12
  60  0.250  0.750  0.550-  28 2.11  25 2.11  26 2.11  34 2.11  41 2.11  24 2.12
[...]
  70  0.750  0.000  0.451-  38 2.11  23 2.11  39 2.11  40 2.11  48 2.11  42 2.12
  71  0.500  0.000  0.352-  39 2.11  37 2.11  38 2.11  22 2.11  45 2.11
  72  0.750  0.750  0.352-  40 2.11  37 2.11  38 2.11  21 2.11  46 2.11
  73  0.500  0.750  0.651-  43 2.11  28 2.11  44 2.11  51 2.11  41 2.15
  74  0.750  0.000  0.651-  52 2.11  44 2.11  27 2.11  43 2.11  42 2.15
  75  0.500  1.000  0.550-  43 2.11  42 2.11  26 2.11  41 2.11  49 2.11  39 2.12
  76  0.750  0.750  0.550-  44 2.11  25 2.11  42 2.11  50 2.11  41 2.11  40 2.12
  77  0.500  0.250  0.451-  45 2.11  39 2.11  32 2.11  47 2.11  48 2.11  49 2.13
  78  0.750  0.500  0.451-  46 2.11  40 2.11  31 2.11  47 2.11  48 2.11  50 2.12
  79  0.500  0.500  0.352-  47 2.11  37 2.11  45 2.11  46 2.11  30 2.11
  80  0.750  0.250  0.352-  48 2.11  38 2.11  45 2.11  46 2.11  29 2.11
  81  0.500  0.250  0.651-  43 2.11  36 2.11  52 2.11  51 2.11  49 2.15
  82  0.750  0.500  0.651-  35 2.11  44 2.11  52 2.11  51 2.11  50 2.15
  83  0.500  0.500  0.550-  50 2.11  34 2.11  49 2.11  41 2.11  51 2.12  47 2.12
  84  0.750  0.250  0.550-  52 2.11  33 2.11  42 2.11  50 2.11  49 2.11  48 2.12

IMPORTANT INFORMATION: All symmetrisations will be switched off!
NOSYMM: (Re-)initialisation of all symmetry stuff for point group C_1.

                                     Primitive cell

  volume of cell :    1519.8199

  direct lattice vectors                    reciprocal lattice vectors
     8.440984654  0.000000000  0.000000000     0.118469591  0.000000000  0.000000000
     0.000000000  8.440984654  0.000000000     0.000000000  0.118469591  0.000000000
     0.000000000  0.000000000 21.330738491     0.000000000  0.000000000  0.046880702

  length of vectors
     8.440984654  8.440984654 21.330738491     0.118469591  0.118469591  0.046880702

  position of ions in fractional coordinates (direct lattice)
     0.500000022  0.499997701  0.795765481
     0.000000723  0.499998429  0.795765481
     0.500000723  0.999998429  0.795765481
     0.000000022  0.999997701  0.795765481
     0.499999966  0.606400245  0.825294148
     0.499999960  0.393601765  0.825293628
     0.607088423  0.500000081  0.766452828
     0.392911520  0.500000085  0.766452812
     0.893598178  0.499998373  0.825294148
     0.106396658  0.499998367  0.825293628
     0.999998343  0.607086830  0.766452828
     0.999998338  0.392909928  0.766452812
     0.393598178  0.999998373  0.825294148
     0.606396658  0.999998367  0.825293628
     0.499998343  0.107086830  0.766452828
     0.499998338  0.892909928  0.766452812
     0.999999966  0.106400245  0.825294148
     0.999999960  0.893601765  0.825293628
     0.107088423  0.000000081  0.766452828
     0.892911520  0.000000085  0.766452812
     0.000000000  0.750000000  0.351605267
     0.250000000  0.000000000  0.351605267
     0.000000000  0.000000000  0.450535089
     0.250000000  0.750000000  0.450535089
     0.000000003  0.750032167  0.550141647
     0.249992769  0.999999998  0.550135640
     0.000000010  0.999999991  0.648847037
     0.250116514  0.750097339  0.648710816
     0.000000000  0.250000000  0.351605267
     0.250000000  0.500000000  0.351605267
     0.000000000  0.500000000  0.450535089
     0.250000000  0.250000000  0.450535089
     0.000000007  0.249967822  0.550141651
     0.250108445  0.500000001  0.550153757
     0.000000011  0.499999994  0.648675549
     0.250116504  0.249902631  0.648710813
     0.500000000  0.750000000  0.351605267
     0.750000000  0.000000000  0.351605267
     0.500000000  0.000000000  0.450535089
     0.750000000  0.750000000  0.450535089
     0.499999994  0.749901112  0.550182719
     0.750007254  0.000000005  0.550135636
     0.500000006  0.999999998  0.648747779
     0.749883526  0.750097344  0.648710829
     0.500000000  0.250000000  0.351605267
     0.750000000  0.500000000  0.351605267
     0.500000000  0.500000000  0.450535089
     0.750000000  0.250000000  0.450535089
     0.500000001  0.250098874  0.550182703
     0.749891587  0.499999991  0.550153763
     0.500000014  0.499999988  0.649279172
     0.749883523  0.249902625  0.648710829
     0.000000000  0.750000000  0.450535089
     0.250000000  0.000000000  0.450535089
     0.000000000  0.000000000  0.351605267
     0.250000000  0.750000000  0.351605267
     0.000000011  0.750041776  0.650981394
     0.249939864  0.000000003  0.651016895
     0.000000015  0.999999981  0.549923091
     0.249924098  0.750012792  0.549866046
[...]
     0.750000000  0.000000000  0.450535089
     0.500000000  0.000000000  0.351605267
     0.750000000  0.750000000  0.351605267
     0.500000003  0.750141602  0.650762171
     0.750060174  0.000000004  0.651016901
     0.500000013  0.999999987  0.549819177
[...]
[...]
   6.33073849  0.00000000  9.61024616
   4.22049233  0.00000000  7.50000000
   6.33073849  6.33073849  7.50000000
   4.22049236  6.33193375 13.88123768
   6.33124642  0.00000003 13.88667128
   4.22049244  8.44098455 11.72804908
   6.33137928  6.33084645 11.72904886
   4.22049233  2.11024616  9.61024616
   6.33073849  4.22049233  9.61024616
   4.22049233  4.22049233  7.50000000
   6.33073849  2.11024616  7.50000000
   4.22049236  2.10905082 13.88123754
   6.33285378  4.22049222 13.88635524
   4.22049247  4.22049226 11.73183669
   6.33137917  2.11013802 11.72904886

--------------------------------------- Iteration      FINAL  ---------------------------------------

--------------------OUTCAR has been truncated-------------------------

[...]

--------------------OUTCAR has been truncated-------------------------

  FORCE on cell =-STRESS in cart. coord.  units (eV):
  Direction    XX          YY          ZZ          XY          YZ          ZX
  Alpha Z   976.03246   976.03246   976.03246
  Ewald  151768.94090151768.73641************     0.00000     0.00473    -0.00474
  Hartree162391.55496162391.40906************     0.00000     0.00018    -0.00021
  E(xc)   -2575.89436 -2575.89502 -2583.07380     0.00000     0.00000     0.00000
  Local  ************************323858.51128    -0.00000    -0.00323     0.00328
  n-local -2857.01751 -2857.01876 -2878.07226    -0.00000    -0.00015     0.00013
  augment  1047.14212  1047.14200  1037.69892     0.00000    -0.00002     0.00002
  Kinetic  7716.99955  7717.01522  7756.88877    -0.00000    -0.00017     0.00022
  Fock        0.00000     0.00000     0.00000     0.00000     0.00000     0.00000
  vdW       -22.97251   -22.97231   -18.90120     0.00000     0.00000    -0.00000
  Total     -26.70123   -26.69319    -1.94994    -0.00000     0.00135    -0.00130
  in kB     -28.14814   -28.13967    -2.05560    -0.00000     0.00142    -0.00137

 VOLUME and BASIS-vectors are now :
  energy-cutoff  :      600.00
  volume of cell :     1519.82
      direct lattice vectors                 reciprocal lattice vectors
     8.440984654  0.000000000  0.000000000     0.118469591  0.000000000  0.000000000
     0.000000000  8.440984654  0.000000000     0.000000000  0.118469591  0.000000000
     0.000000000  0.000000000 21.330738491     0.000000000  0.000000000  0.046880702

  length of vectors
     8.440984654  8.440984654 21.330738491     0.118469591  0.118469591  0.046880702

 FORCES acting on ions:
    Electron-Ion                     Ewald-Force                    Non-Local-Force
   0.338E-03 0.122E-02 -.932E+03   -.329E-03 -.178E-02 0.932E+03   0.195E-04 -.811E-03 0.447E-01
   -.122E-02 -.344E-03 -.931E+03   0.179E-02 0.332E-03 0.932E+03   0.826E-03 0.228E-04 0.408E-01
   -.120E-02 -.347E-03 -.931E+03   0.176E-02 0.335E-03 0.931E+03   0.819E-03 0.239E-04 0.436E-01
   0.330E-03 0.122E-02 -.931E+03   -.321E-03 -.178E-02 0.932E+03   0.205E-04 -.821E-03 0.394E-01
   0.346E-04 -.375E+02 -.237E+03   -.338E-04 0.420E+02 0.240E+03   -.224E-05 -.452E+01 -.315E+01
   0.382E-04 0.375E+02 -.237E+03   -.378E-04 -.420E+02 0.240E+03   -.184E-05 0.452E+01 -.315E+01
   -.377E+02 0.781E-03 -.229E+03   0.422E+02 -.833E-03 0.226E+03   -.458E+01 0.112E-03 0.308E+01
   0.377E+02 0.782E-03 -.229E+03   -.422E+02 -.833E-03 0.226E+03   0.458E+01 0.112E-03 0.308E+01
   0.375E+02 -.569E-04 -.237E+03   -.420E+02 0.576E-04 0.240E+03   0.452E+01 -.139E-05 -.315E+01
   -.375E+02 -.555E-04 -.237E+03   0.420E+02 0.560E-04 0.240E+03   -.452E+01 -.127E-05 -.315E+01
   -.783E-03 -.376E+02 -.229E+03   0.835E-03 0.422E+02 0.226E+03   -.113E-03 -.458E+01 0.308E+01
   -.784E-03 0.376E+02 -.229E+03   0.836E-03 -.422E+02 0.226E+03   -.113E-03 0.458E+01 0.308E+01
   0.375E+02 -.589E-04 -.237E+03   -.420E+02 0.597E-04 0.240E+03   0.452E+01 -.157E-05 -.315E+01
   -.375E+02 -.568E-04 -.237E+03   0.420E+02 0.573E-04 0.240E+03   -.452E+01 -.140E-05 -.315E+01
   -.773E-03 -.376E+02 -.229E+03   0.825E-03 0.422E+02 0.226E+03   -.112E-03 -.458E+01 0.308E+01
   -.772E-03 0.376E+02 -.229E+03   0.823E-03 -.422E+02 0.226E+03   -.111E-03 0.458E+01 0.308E+01
   0.298E-04 -.375E+02 -.237E+03   -.287E-04 0.420E+02 0.240E+03   -.261E-05 -.452E+01 -.315E+01
   0.349E-04 0.375E+02 -.237E+03   -.341E-04 -.420E+02 0.240E+03   -.207E-05 0.452E+01 -.315E+01
   -.376E+02 0.789E-03 -.229E+03   0.422E+02 -.840E-03 0.226E+03   -.458E+01 0.113E-03 0.308E+01
   0.377E+02 0.785E-03 -.229E+03   -.422E+02 -.836E-03 0.226E+03   0.458E+01 0.112E-03 0.308E+01
   0.230E-05 0.121E-01 0.210E+04   -.240E-05 -.123E-01 -.210E+04   0.549E-07 0.117E-03 -.716E+01
   -.847E-03 0.325E-05 0.210E+04   0.674E-03 -.341E-05 -.210E+04   0.121E-03 0.107E-06 -.716E+01
   -.159E-05 0.140E-04 0.784E+03   0.247E-05 -.146E-04 -.784E+03   -.589E-06 0.394E-06 0.515E+00
   -.455E-03 0.466E-01 0.784E+03   -.402E-03 -.491E-01 -.784E+03   0.636E-03 0.172E-02 0.540E+00
   -.294E-05 0.783E-01 -.525E+03   0.199E-05 -.789E-01 0.525E+03   0.749E-06 0.464E-04 -.246E+00
   -.124E-02 0.205E-04 -.525E+03   -.621E-03 -.212E-04 0.525E+03   0.923E-03 0.800E-06 -.241E+00
   0.185E-03 0.284E-03 -.181E+04   -.172E-03 -.271E-03 0.180E+04   -.110E-04 -.704E-05 0.607E+01
   -.983E-01 0.913E-02 -.183E+04   0.103E+00 -.619E-02 0.182E+04   0.132E-02 -.398E-02 0.631E+01
   0.170E-05 -.121E-01 0.210E+04   -.180E-05 0.123E-01 -.210E+04   0.427E-07 -.116E-03 -.716E+01
   0.330E-02 -.348E-05 0.210E+04   -.318E-02 0.353E-05 -.210E+04   -.938E-04 -.450E-07 -.716E+01
   0.142E-04 -.164E-04 0.784E+03   -.151E-04 0.155E-04 -.784E+03   0.734E-06 0.549E-06 0.517E+00
   -.443E-03 -.466E-01 0.784E+03   -.416E-03 0.491E-01 -.784E+03   0.637E-03 -.172E-02 0.540E+00
   -.527E-04 -.783E-01 -.525E+03   0.504E-04 0.789E-01 0.525E+03   0.381E-05 -.461E-04 -.246E+00
   0.191E+00 -.394E-04 -.525E+03   -.188E+00 0.409E-04 0.525E+03   -.768E-02 0.112E-06 -.243E+00
   -.377E-03 -.290E-03 -.181E+04   0.368E-03 0.284E-03 0.180E+04   0.210E-05 0.334E-05 0.607E+01
   -.988E-01 -.910E-02 -.183E+04   0.104E+00 0.616E-02 0.182E+04   0.133E-02 0.398E-02 0.631E+01
   -.240E-05 0.802E-02 0.210E+04   0.254E-05 -.846E-02 -.210E+04   -.228E-07 0.331E-03 -.716E+01
   0.847E-03 0.379E-05 0.210E+04   -.674E-03 -.392E-05 -.210E+04   -.121E-03 0.926E-07 -.716E+01
   0.398E-05 0.207E-04 0.784E+03   -.355E-05 -.223E-04 -.784E+03   -.300E-06 0.103E-05 0.512E+00
   0.463E-03 0.466E-01 0.784E+03   0.395E-03 -.491E-01 -.784E+03   -.637E-03 0.172E-02 0.540E+00
   -.170E-04 -.102E+00 -.525E+03   0.136E-04 0.988E-01 0.525E+03   0.253E-05 0.703E-02 -.252E+00
   0.123E-02 0.337E-04 -.525E+03   0.627E-03 -.340E-04 0.525E+03   -.922E-03 0.938E-07 -.241E+00
   -.342E-03 -.243E-03 -.181E+04   0.333E-03 0.240E-03 0.180E+04   0.328E-05 0.168E-06 0.606E+01
   0.984E-01 0.868E-02 -.183E+04   -.103E+00 -.575E-02 0.182E+04   -.131E-02 -.398E-02 0.631E+01
   -.194E-05 -.802E-02 0.210E+04   0.216E-05 0.846E-02 -.210E+04   -.106E-06 -.331E-03 -.716E+01
   -.330E-02 -.384E-05 0.210E+04   0.318E-02 0.392E-05 -.210E+04   0.937E-04 -.493E-07 -.716E+01
   -.237E-04 -.230E-04 0.784E+03   0.266E-04 0.239E-04 -.784E+03   -.225E-05 -.873E-06 0.527E+00
   0.454E-03 -.466E-01 0.784E+03   0.405E-03 0.491E-01 -.784E+03   -.638E-03 -.172E-02 0.540E+00
   0.925E-05 0.102E+00 -.525E+03   -.704E-05 -.989E-01 0.525E+03   -.173E-05 -.703E-02 -.252E+00
   -.190E+00 -.328E-04 -.525E+03   0.188E+00 0.326E-04 0.525E+03   0.768E-02 -.596E-07 -.243E+00
   0.215E-03 0.229E-03 -.181E+04   -.202E-03 -.220E-03 0.180E+04   -.119E-04 -.271E-05 0.606E+01
   0.989E-01 -.866E-02 -.183E+04   -.104E+00 0.573E-02 0.182E+04   -.132E-02 0.398E-02 0.631E+01
   0.102E-04 0.418E-01 0.587E+03   -.116E-04 -.422E-01 -.587E+03   0.177E-05 0.492E-03 -.103E+00
   -.401E-02 0.816E-05 0.587E+03   0.411E-02 -.777E-05 -.587E+03   -.152E-03 -.707E-06 -.102E+00
   0.536E-06 0.240E-05 0.158E+04   -.533E-06 -.241E-05 -.158E+04   -.371E-07 -.926E-08 0.341E+01
   0.526E-03 0.778E-02 0.158E+04   -.640E-03 -.809E-02 -.158E+04   0.159E-03 0.441E-03 0.341E+01
   -.280E-04 -.368E+00 -.139E+04   0.231E-04 0.391E+00 0.139E+04   0.554E-05 -.245E-01 -.494E+01
   -.457E+00 -.354E-04 -.139E+04   0.489E+00 0.405E-04 0.139E+04   -.362E-01 -.513E-05 -.495E+01
   0.617E-05 0.558E-04 -.389E+03   -.299E-05 -.547E-04 0.388E+03   -.333E-05 -.215E-05 0.188E+00
   -.125E-01 0.236E-01 -.388E+03   0.117E-01 -.211E-01 0.388E+03   0.201E-02 -.316E-02 0.333E+00
[...]
   -.676E-06 0.311E-05 0.158E+04   0.629E-06 -.330E-05 -.158E+04   0.129E-06 0.208E-06 0.341E+01
   -.526E-03 0.778E-02 0.158E+04   0.639E-03 -.809E-02 -.158E+04   -.159E-03 0.441E-03 0.341E+01
   -.476E-04 0.311E+00 -.139E+04   0.443E-04 -.337E+00 0.139E+04   0.544E-05 0.291E-01 -.496E+01
   0.457E+00 0.347E-04 -.139E+04   -.489E+00 -.314E-04 0.139E+04   0.361E-01 -.493E-05 -.495E+01
   -.409E-05 0.320E-05 -.388E+03   0.275E-05 -.446E-05 0.388E+03   0.116E-05 0.742E-06 0.205E+00
   0.125E-01 0.236E-01 -.388E+03   -.117E-01 -.211E-01 0.388E+03   -.202E-02 -.316E-02 0.333E+00
   -.544E-05 -.126E-01 0.587E+03   0.484E-05 0.977E-02 -.587E+03   0.998E-06 0.377E-02 -.102E+00
   -.280E-01 -.131E-04 0.587E+03   0.316E-01 0.136E-04 -.587E+03   -.462E-02 -.684E-06 -.108E+00
   -.280E-05 -.325E-05 0.158E+04   0.300E-05 0.334E-05 -.158E+04   -.266E-06 -.161E-06 0.341E+01
   -.527E-03 -.778E-02 0.158E+04   0.640E-03 0.810E-02 -.158E+04   -.159E-03 -.441E-03 0.341E+01
   -.559E-05 -.311E+00 -.139E+04   0.354E-05 0.337E+00 0.139E+04   0.129E-05 -.291E-01 -.496E+01
   -.593E+00 -.494E-04 -.139E+04   0.615E+00 0.524E-04 0.139E+04   -.149E-01 -.296E-05 -.497E+01
   -.138E-04 -.815E-05 -.389E+03   0.188E-04 0.121E-04 0.389E+03   -.569E-05 -.446E-05 0.180E+00
   0.126E-01 -.236E-01 -.388E+03   -.117E-01 0.211E-01 0.388E+03   -.202E-02 0.316E-02 0.333E+00
   -.211E-02 0.204E-02 0.171E+02   -.398E-12 0.284E-13 0.614E-11   0.222E-02 -.214E-02 -.171E+02

 POSITION                                       TOTAL-FORCE (eV/Angst)
      4.22049      4.22051     16.97506         0.000028     -0.001353     -0.002769
     -0.00003      4.22048     16.97521         0.001377      0.000011     -0.002292
      4.22046      8.44097     16.97524         0.001364      0.000012     -0.003716
     -0.00000      0.00002     16.97520         0.000029     -0.001370     -0.003491
      4.22049      5.11894     17.60393        -0.000003     -0.003468     -0.000162
      4.22049      3.32203     17.60393        -0.000003      0.004653     -0.000903
      5.12363      4.22049     16.34911        -0.006096      0.000061      0.004011
      3.31735      4.22049     16.34911         0.006070      0.000062      0.003999
      7.54253      4.22048     17.60422         0.004736      0.000000     -0.002997
      0.89844      4.22048     17.60423        -0.005942      0.000000     -0.003750
      8.44097      5.12327     16.34883        -0.000062     -0.002777      0.006629
      8.44097      3.31769     16.34883        -0.000062      0.002772      0.006620
      3.32197      8.44097     17.60417         0.005579      0.000000     -0.002338
      5.11900      8.44097     17.60418        -0.006772      0.000000     -0.003084
      4.22048      0.90279     16.34883        -0.000061     -0.003655      0.006621
      4.22048      7.53817     16.34883        -0.000061      0.003650      0.006612
     -0.00000      0.89849     17.60413        -0.000003     -0.005120     -0.002276
      8.44098      7.54248     17.60414        -0.000003      0.006318     -0.003024
      0.90289     -0.00000     16.34891        -0.003830      0.000062      0.006355
      7.53809     -0.00000     16.34891         0.003803      0.000062      0.006343
      0.00000      6.33074      7.50000        -0.000001     -0.000033      0.337825
      2.11025      0.00000      7.50000        -0.000039      0.000001      0.337723
      0.00000      0.00000      9.61025        -0.000001      0.000001      0.082068
      2.11025      6.33074      9.61025        -0.000219     -0.000718      0.077183
      0.00000      6.33074     11.73527        -0.000002     -0.000552     -0.000561
      2.11026      8.44098     11.73525        -0.000945      0.000001      0.000813
      0.00000     -0.00000     13.84460         0.000001      0.000008     -0.002418
      2.10982      6.33091     13.83414         0.006008     -0.000991     -0.004544
      0.00000      2.11025      7.50000        -0.000001      0.000036      0.337825
      2.11025      4.22049      7.50000         0.000013      0.000001      0.337913
      0.00000      4.22049      9.61025        -0.000001      0.000001      0.084114
      2.11025      2.11025      9.61025        -0.000220      0.000720      0.077183
     -0.00000      2.11024     11.73527         0.000000      0.000555     -0.000560
      2.11079      4.22049     11.73597        -0.005054      0.000003     -0.002820
      0.00000      4.22049     13.84410        -0.000009     -0.000002      0.003520
      2.10982      2.11008     13.83413         0.006001      0.000990     -0.004539
      4.22049      6.33074      7.50000        -0.000001     -0.000114      0.337691
      6.33074      0.00000      7.50000         0.000037      0.000001      0.337723
      4.22049      0.00000      9.61025        -0.000001      0.000001      0.082357
      6.33074      6.33074      9.61025         0.000217     -0.000719      0.077184
      4.22049      6.33034     11.73544        -0.000002      0.003604      0.001726
      6.33072     -0.00000     11.73525         0.000942      0.000001      0.000811
      4.22049     -0.00000     13.84322        -0.000007     -0.000002      0.009014
      6.33116      6.33091     13.83414        -0.006007     -0.000998     -0.004539
      4.22049      2.11025      7.50000        -0.000001      0.000116      0.337691
      6.33074      4.22049      7.50000        -0.000015      0.000001      0.337914
      4.22049      4.22049      9.61025        -0.000001      0.000001      0.081515
      6.33074      2.11025      9.61025         0.000217      0.000721      0.077183
      4.22049      2.11064     11.73544        -0.000001     -0.003603      0.001725
      6.33020      4.22049     11.73597         0.005048      0.000001     -0.002821
      4.22049      4.22049     13.84527         0.000000      0.000008      0.001675
      6.33116      2.11008     13.83414        -0.006003      0.000998     -0.004538
      0.00000      6.33074      9.61025        -0.000001      0.000094      0.081229
      2.11025      0.00000      9.61025        -0.000053      0.000001      0.081390
      0.00000      0.00000      7.50000        -0.000001      0.000001     -0.499944
      2.11025      6.33074      7.50000         0.000044      0.000130     -0.499596
      0.00000      6.33119     13.88394        -0.000001     -0.001021      0.004595
      2.11076     -0.00000     13.88446        -0.003560      0.000001      0.000187
      0.00000     -0.00000     11.72970        -0.000001      0.000000      0.003348
      2.11017      6.33071     11.72957         0.001172     -0.000635     -0.004741
[...]
      6.33074      0.00000      9.61025         0.000051      0.000001      0.081390
      4.22049      0.00000      7.50000        -0.000001      0.000001     -0.499847
      6.33074      6.33074      7.50000        -0.000046      0.000130     -0.499596
      4.22049      6.33028     13.88440         0.000001      0.002548     -0.000307
      6.33022     -0.00000     13.88446         0.003555     -0.000000      0.000191
      4.22049     -0.00000     11.72948        -0.000001      0.000001      0.003347
      6.33082      6.33071     11.72957        -0.001176     -0.000635     -0.004742
      4.22049      2.11025      9.61025        -0.000001      0.000932      0.082285
      6.33074      4.22049      9.61025        -0.001037      0.000001      0.083129
      4.22049      4.22049      7.50000        -0.000001      0.000001     -0.500036
      6.33074      2.11025      7.50000        -0.000047     -0.000127     -0.499596
      4.22049      2.11070     13.88440        -0.000002     -0.002543     -0.000303
      6.33060      4.22049     13.88540         0.007527      0.000001     -0.003313
      4.22049      4.22049     11.73026        -0.000002      0.000001     -0.001133
      6.33081      2.11027     11.72957        -0.001176      0.000638     -0.004743
    total drift:                                0.000111     -0.000102      0.004948

  FREE ENERGIE OF THE ION-ELECTRON SYSTEM (eV)
  free  energy   TOTEN  =      -468.70440370 eV

  energy  without entropy=     -468.70440370  energy(sigma->0) =     -468.70440370

 d Force = 0.4526119E-04[-0.900E-06, 0.914E-04]  d Energy = 0.4509475E-04 0.166E-06
 d Force =-0.2239970E+00[-0.223E+00,-0.225E+00]  d Ewald  =-0.2239968E+00-0.274E-06

 reached required accuracy - stopping structural energy minimisation