 vasp.6.3.0 20Jan22 (build Dec 25 2023 18:06:01) complex
 executed on        HPECrayEX_GCC date 2024.01.24  03:03:18

 INCAR:
   SYSTEM = MgO-rocksalt
   ISMEAR = 0
   SIGMA = 0.05
   EDIFF = 1E-8
   ALGO = ALL
   ISTART = 0
   IBRION = 5
   POTIM = 0.01
   NFREE = 2
   ISYM = 0
   DIPOL = 0.5 0.5 0.5
   IDIPOL = 3
   LDIPOL = .TRUE.
   GGA = RE
   AGGAC = 0.0
   LUSE_VDW = .TRUE.
   LASPH = .TRUE.
   ENCUT = 600
   PREC = Accurate
   LASPH = .TRUE.
   LREAL = .FALSE.
   ISPIN = 1
   NELM = 200
   NELMIN = 8
   NCORE = 8
   KPAR = 1
   LWAVE = .FALSE.
   LCHARG = .FALSE.

 POTCAR:    PAW_PBE C 08Apr2002
 POTCAR:    PAW_PBE O 08Apr2002
 POTCAR:    PAW_PBE Ti_pv 07Sep2000
 POTCAR:    PAW_PBE O 08Apr2002
|               ----> ADVICE to this user running VASP <----                  |
|     You have switched on vdW-DFT.                                           |
|     This routine was written and supplied by Jiri Klimes. We recommend      |
|     that you carefully read and cite the following publications:            |
|       J. Klimes, D.R. Bowler, A. Michelides                                 |
|          J. Phys.: Cond Matt. 22 022201 (2010)                              |
|       J. Klimes, D.R. Bowler, A. Michelides                                 |
|          Phys. Rev. B. 83, 195131 (2011)                                    |
|     and references therein.                                                 |

   TITEL  = PAW_PBE C 08Apr2002
   POMASS =   12.011; ZVAL   =    4.000    mass and valenz
   ENMAX  =  400.000; ENMIN  =  300.000 eV

[...]

   TITEL  = PAW_PBE Ti_pv 07Sep2000
   POMASS =   47.880; ZVAL   =   10.000    mass and valenz
   ENMAX  =  222.335; ENMIN  =  166.751 eV

   TITEL  = PAW_PBE O 08Apr2002
   POMASS =   16.000; ZVAL   =    6.000    mass and valenz
   ENMAX  =  400.000; ENMIN  =  300.000 eV

  PAW_PBE C 08Apr2002                   :
  PAW_PBE O 08Apr2002                   :
  PAW_PBE Ti_pv 07Sep2000               :
  PAW_PBE O 08Apr2002                   :

 POSCAR:  C  O Ti  O
  positions in direct lattice
 exchange correlation table for  LEXCH =       40
   RHO(1)=    0.500       N(1)  =     2000
   RHO(2)=  100.500       N(2)  =     4000

 ion  position               nearest neighbor table
   1  0.427  0.500  0.824-   2 1.17   3 1.19
   2  0.370  0.500  0.853-   1 1.17
   3  0.488  0.500  0.796-   1 1.19
   4  0.750  0.625  0.285-  85 1.98 145 1.98 144 1.98  84 1.98  87 2.02 166 2.02  14 3.00  34 3.00

   5  0.000  0.750  0.285-  86 1.98  87 1.98 106 1.98 107 1.98  88 2.02  35 3.00  15 3.00
   6  0.000  0.625  0.393-  88 1.98 148 1.98  89 1.98 149 1.98  90 2.02  91 2.02  16 3.00  36 3.00

[...]

  83  0.499  0.500  0.711- 237 1.86 183 1.97 243 1.97 242 1.98 182 1.98  53 3.00  73 3.00
  84  0.750  0.750  0.243-   4 1.98  14 1.98
  85  0.750  0.750  0.327-   4 1.98  14 1.98   7 2.02
  86  0.098  0.625  0.285-   5 1.98  35 1.98  44 2.02
  87  0.902  0.625  0.285-   5 1.98  35 1.98   4 2.02
  88  0.000  0.750  0.351-   6 1.98  16 1.98   5 2.02
  89  0.000  0.750  0.434-   6 1.98  16 1.98   9 2.02
  90  0.848  0.625  0.393-   7 1.98  37 1.98   6 2.02
  91  0.152  0.625  0.393-  47 1.98  77 1.98   6 2.02
  92  0.750  0.750  0.458-   8 1.98  18 1.98   7 2.02
  93  0.750  0.750  0.542-   8 1.98  18 1.98  11 2.17
  94  0.098  0.625  0.500-   9 1.98  39 1.98  48 2.02
  95  0.902  0.625  0.500-   9 1.98  39 1.98   8 2.02
  96  0.000  0.750  0.566-  10 1.92  20 1.92   9 2.05
  97  0.000  0.750  0.651-  13 1.83  10 2.05  20 2.05
  98  0.849  0.625  0.608-  11 1.93  41 1.93  10 2.12
  99  0.150  0.625  0.608-  10 1.87  51 2.07  81 2.07
 100  0.750  0.750  0.673-  11 1.88  22 2.13  12 2.13
 101  0.749  0.750  0.757-  12 1.85  22 1.85
 102  0.093  0.625  0.721-  43 1.98  13 1.98  52 2.06
 103  0.906  0.625  0.721-  43 1.97  13 1.97  12 2.08
 104  0.750  0.000  0.243-  14 1.98  24 1.98
 105  0.750  0.000  0.327-  14 1.98  24 1.98  17 2.02
 106  0.098  0.875  0.285-   5 1.98  15 1.98  54 2.02
 107  0.902  0.875  0.285-   5 1.98  15 1.98  14 2.02
 108  0.000  0.000  0.351-  16 1.98  26 1.98  15 2.02
 109  0.000  0.000  0.434-  16 1.98  26 1.98  19 2.02
 110  0.848  0.875  0.393-   7 1.98  17 1.98  16 2.02
 111  0.152  0.875  0.393-  47 1.98  57 1.98  16 2.02
 112  0.750  0.000  0.458-  18 1.98  28 1.98  17 2.02
 113  0.750  0.000  0.542-  18 1.98  28 1.98  21 2.17
 114  0.098  0.875  0.500-   9 1.98  19 1.98  58 2.02
 115  0.902  0.875  0.500-   9 1.98  19 1.98  18 2.02
 116  0.000  0.000  0.566-  30 1.92  20 1.92  19 2.05
 117  0.000  1.000  0.651-  23 1.83  20 2.05  30 2.05
 118  0.849  0.875  0.608-  11 1.93  21 1.93  20 2.13
 119  0.150  0.875  0.608-  20 1.87  51 2.07  61 2.07
 120  0.750  0.000  0.673-  21 1.88  32 2.13  22 2.13
 121  0.750  0.000  0.758-  32 1.85  22 1.85
 122  0.093  0.875  0.721-  13 1.97  23 1.97  62 2.07
 123  0.906  0.875  0.721-  13 1.97  23 1.97  22 2.08
 124  0.750  0.250  0.243-  24 1.98  34 1.98
 125  0.750  0.250  0.327-  24 1.98  34 1.98  27 2.02
 126  0.098  0.125  0.285-  15 1.98  25 1.98  64 2.02
 127  0.902  0.125  0.285-  15 1.98  25 1.98  24 2.02
 128  0.000  0.250  0.351-  26 1.98  36 1.98  25 2.02
 129  0.000  0.250  0.434-  26 1.98  36 1.98  29 2.02
 130  0.848  0.125  0.393-  17 1.98  27 1.98  26 2.02
 131  0.152  0.125  0.393-  57 1.98  67 1.98  26 2.02
 132  0.750  0.250  0.458-  28 1.98  38 1.98  27 2.02
 133  0.750  0.250  0.542-  28 1.98  38 1.98  31 2.17
 134  0.098  0.125  0.500-  19 1.98  29 1.98  68 2.02
 135  0.902  0.125  0.500-  19 1.98  29 1.98  28 2.02
 136  0.000  0.250  0.566-  40 1.92  30 1.92  29 2.05
 137  0.000  0.250  0.651-  33 1.83  40 2.05  30 2.05
 138  0.849  0.125  0.608-  31 1.93  21 1.93  30 2.13
 139  0.150  0.125  0.608-  30 1.87  71 2.07  61 2.07
 140  0.750  0.250  0.673-  31 1.88  32 2.13  42 2.13
 141  0.749  0.250  0.757-  42 1.85  32 1.85
 142  0.093  0.125  0.721-  33 1.97  23 1.97  72 2.07
[...]
 229  0.500  0.500  0.434-  46 1.98  76 1.98  79 2.02
 230  0.348  0.375  0.393-  67 1.98  77 1.98  76 2.02
 231  0.652  0.375  0.393-  27 1.98  37 1.98  76 2.02
 232  0.250  0.500  0.458-  48 1.98  78 1.98  77 2.02
 233  0.250  0.500  0.542-  48 1.98  78 1.98  81 2.16
 234  0.598  0.375  0.500-  69 1.98  79 1.98  38 2.02
 235  0.402  0.375  0.500-  69 1.98  79 1.98  78 2.02
 236  0.500  0.500  0.567-  80 1.92  50 1.92  79 2.05
 237  0.500  0.500  0.651-  83 1.86  50 2.05  80 2.05
 238  0.349  0.375  0.609-  71 1.93  81 1.93  80 2.13
 239  0.650  0.375  0.608-  80 1.87  41 2.06  31 2.07
 240  0.249  0.500  0.673-  81 1.89  82 2.13  52 2.13
 241  0.252  0.500  0.757-  82 1.86  52 1.86
 242  0.594  0.374  0.720-  73 1.97  83 1.98  42 2.06
 243  0.405  0.374  0.719-  73 1.96  83 1.97  82 2.08

IMPORTANT INFORMATION: All symmetrisations will be switched off!
NOSYMM: (Re-)initialisation of all symmetry stuff for point group C_1.

                                     Primitive cell

  volume of cell :    4895.9617

  direct lattice vectors                    reciprocal lattice vectors
    13.251680751  0.000000000  0.000000000     0.075462126  0.000000000  0.000000000
     0.000000000 11.981436613  0.000000000     0.000000000  0.083462445  0.000000000
     0.000000000  0.000000000 30.836008487     0.000000000  0.000000000  0.032429619

  length of vectors
    13.251680751 11.981436613 30.836008487     0.075462126  0.083462445  0.032429619

  position of ions in fractional coordinates (direct lattice)
     0.427483472  0.499999909  0.824362858
     0.369573468  0.499999693  0.853061714
     0.488301939  0.500000065  0.796178279
     0.750000000  0.625000000  0.285126523
     0.000000000  0.750000000  0.285126523
     0.000000000  0.625000000  0.392563261
     0.750000000  0.750000000  0.392563261
     0.750000000  0.625000000  0.500000000
     0.000000000  0.750000000  0.500000000
     0.009075638  0.625052193  0.605160000
     0.757185322  0.750084926  0.612090071
     0.749042545  0.625072216  0.722276537
     0.999301496  0.750227145  0.709981919
     0.750000000  0.875000000  0.285126523
     0.000000000  0.000000000  0.285126523
     0.000000000  0.875000000  0.392563261
     0.750000000  0.000000000  0.392563261
     0.750000000  0.875000000  0.500000000
     0.000000000  0.000000000  0.500000000
     0.009354858  0.875050438  0.605224046
     0.757165481  0.000000661  0.612103838
     0.749033861  0.875058827  0.722324437
     0.999711295  0.999999888  0.710013828
     0.750000000  0.125000000  0.285126523
     0.000000000  0.250000000  0.285126523
     0.000000000  0.125000000  0.392563261
     0.750000000  0.250000000  0.392563261
     0.750000000  0.125000000  0.500000000
     0.000000000  0.250000000  0.500000000
     0.009352100  0.124949501  0.605223013
     0.757185064  0.249917414  0.612090093
     0.749033740  0.124941346  0.722324392
     0.999300824  0.249774189  0.709982136
     0.750000000  0.375000000  0.285126523
     0.000000000  0.500000000  0.285126523
     0.000000000  0.375000000  0.392563261
     0.750000000  0.500000000  0.392563261
     0.750000000  0.375000000  0.500000000
     0.000000000  0.500000000  0.500000000
     0.009086671  0.374947591  0.605162148
     0.757180197  0.499996325  0.612105642
     0.749038646  0.374928270  0.722277662
     0.998906507  0.499999583  0.709948796
     0.250000000  0.625000000  0.285126523
     0.500000000  0.750000000  0.285126523
     0.500000000  0.625000000  0.392563261
     0.250000000  0.750000000  0.392563261
     0.250000000  0.625000000  0.500000000
     0.500000000  0.750000000  0.500000000
     0.509390696  0.624426701  0.605612781
     0.257065487  0.749990359  0.611950487
     0.248476367  0.625231643  0.721857747
     0.499432608  0.749940199  0.709571712
     0.250000000  0.875000000  0.285126523
     0.500000000  0.000000000  0.285126523
     0.500000000  0.875000000  0.392563261
     0.250000000  0.000000000  0.392563261
     0.250000000  0.875000000  0.500000000
     0.500000000  0.000000000  0.500000000
     0.509430517  0.874748797  0.604886106
[...]
     0.500000000  0.500000000  0.434467643
     0.347509432  0.375000000  0.392563261
     0.652490568  0.375000000  0.392563261
     0.250000000  0.500000000  0.458095618
     0.250000000  0.500000000  0.541904382
     0.597509432  0.375000000  0.500000000
     0.402490568  0.375000000  0.500000000
     0.500058984  0.500000793  0.566525061
     0.500343369  0.500003419  0.651088706
     0.348767189  0.375042218  0.608557285
     0.650254512  0.375084285  0.608151827
     0.248669331  0.499998475  0.672958522
     0.251941738  0.499999701  0.757254458
     0.593522209  0.374084589  0.720084803
     0.405275735  0.373728868  0.719493197

  ion indices of the primitive-cell ions
   primitive index   ion index
                 1           1
                 2           2
                 3           3
                 4           4
                 5           5
                 6           6
                 7           7
                 8           8
                 9           9
                10          10
                11          11
                12          12
                13          13
                14          14
                15          15
[...]

 Eigenvectors and eigenvalues of the dynamical matrix

   1 f  =   69.491749 THz   436.629537 2PiTHz 2317.995244 cm-1   287.394653 meV
             X         Y         Z           dx          dy          dz
      5.664874  5.990717 25.420060    -0.563701   -0.000010    0.641223
      4.897470  5.990715 26.305018     0.255379   -0.000012   -0.295327
      6.470821  5.990719 24.550960     0.230901    0.000004   -0.255583
      9.938761  7.488398  8.792164            0           0           0
      0.000000  8.986077  8.792164            0           0           0
      0.000000  7.488398 12.105084            0           0           0
      9.938761  8.986077 12.105084            0           0           0
      9.938761  7.488398 15.418004            0           0           0
      0.000000  8.986077 15.418004            0           0           0
      0.120267  7.489023 18.660719            0           0           0
     10.033978  8.987095 18.874415            0           0           0
      9.926073  7.489263 22.272125            0           0           0
     13.242424  8.988799 21.893008            0           0           0
      9.938761 10.483757  8.792164            0           0           0
      0.000000  0.000000  8.792164            0           0           0
      0.000000 10.483757 12.105084            0           0           0
      9.938761  0.000000 12.105084            0           0           0
      9.938761 10.483757 15.418004            0           0           0
      0.000000  0.000000 15.418004            0           0           0
      0.123968 10.484361 18.662694            0           0           0
     10.033715  0.000008 18.874839            0           0           0
      9.925958 10.484462 22.273602            0           0           0
     13.247855 11.981435 21.893992            0           0           0
      9.938761  1.497680  8.792164            0           0           0
      0.000000  2.995359  8.792164            0           0           0
      0.000000  1.497680 12.105084            0           0           0
      9.938761  2.995359 12.105084            0           0           0
      9.938761  1.497680 15.418004            0           0           0
      0.000000  2.995359 15.418004            0           0           0
      0.123931  1.497075 18.662662            0           0           0
     10.033975  2.994370 18.874415            0           0           0
      9.925956  1.496977 22.273601            0           0           0
     13.242415  2.992654 21.893015            0           0           0
      9.938761  4.493039  8.792164            0           0           0
      0.000000  5.990718  8.792164            0           0           0
      0.000000  4.493039 12.105084            0           0           0
      9.938761  5.990718 12.105084            0           0           0
      9.938761  4.493039 15.418004            0           0           0
      0.000000  5.990718 15.418004            0           0           0
      0.120414  4.492411 18.660785            0           0           0
     10.033910  5.990674 18.874895            0           0           0
      9.926021  4.492179 22.272160            0           0           0
     13.237190  5.990713 21.891987            0           0           0
      3.312920  7.488398  8.792164            0           0           0
      6.625840  8.986077  8.792164            0           0           0
      6.625840  7.488398 12.105084            0           0           0
      3.312920  8.986077 12.105084            0           0           0
      3.312920  7.488398 15.418004            0           0           0
      6.625840  8.986077 15.418004            0           0           0
      6.750283  7.481529 18.674681            0           0           0
      3.406550  8.985962 18.870110            0           0           0
      3.292729  7.491173 22.259212            0           0           0
      6.618321  8.985361 21.880359            0           0           0
      3.312920 10.483757  8.792164            0           0           0
      6.625840  0.000000  8.792164            0           0           0
      6.625840 10.483757 12.105084            0           0           0
      3.312920  0.000000 12.105084            0           0           0
      3.312920 10.483757 15.418004            0           0           0
      6.625840  0.000000 15.418004            0           0           0
      6.750811 10.480747 18.652273            0           0           0
[...]
      6.625840  5.990718 13.397248            0           0           0
      4.605084  4.493039 12.105084            0           0           0
      8.646597  4.493039 12.105084            0           0           0
      3.312920  5.990718 14.125840            0           0           0
      3.312920  5.990718 16.710168            0           0           0
      7.918004  4.493039 15.418004            0           0           0
      5.333677  4.493039 15.418004            0           0           0
      6.626622  5.990728 17.469372            0           0           0
      6.630391  5.990759 20.076977            0           0           0
      4.621751  4.493545 18.765478            0           0           0
      8.616965  4.494049 18.752975            0           0           0
      3.295287  5.990700 20.751355            0           0           0
      3.338651  5.990715 23.350705            0           0           0
      7.865167  4.482071 22.204541            0           0           0
      5.370585  4.477809 22.186298            0           0           0

[...]

   8 f  =    1.344410 THz     8.447179 2PiTHz   44.844701 cm-1     5.560032 meV
             X         Y         Z           dx          dy          dz
      5.664874  5.990717 25.420060    -0.460734    0.001204   -0.084584
      4.897470  5.990715 26.305018    -0.767231   -0.003512   -0.301210
      6.470821  5.990719 24.550960    -0.294965    0.006400    0.118911
      9.938761  7.488398  8.792164            0           0           0
      0.000000  8.986077  8.792164            0           0           0
      0.000000  7.488398 12.105084            0           0           0
      9.938761  8.986077 12.105084            0           0           0
      9.938761  7.488398 15.418004            0           0           0
      0.000000  8.986077 15.418004            0           0           0
      0.120267  7.489023 18.660719            0           0           0
     10.033978  8.987095 18.874415            0           0           0
      9.926073  7.489263 22.272125            0           0           0
     13.242424  8.988799 21.893008            0           0           0
      9.938761 10.483757  8.792164            0           0           0
      0.000000  0.000000  8.792164            0           0           0
      0.000000 10.483757 12.105084            0           0           0
      9.938761  0.000000 12.105084            0           0           0
      9.938761 10.483757 15.418004            0           0           0
      0.000000  0.000000 15.418004            0           0           0
      0.123968 10.484361 18.662694            0           0           0
     10.033715  0.000008 18.874839            0           0           0
      9.925958 10.484462 22.273602            0           0           0
     13.247855 11.981435 21.893992            0           0           0
      9.938761  1.497680  8.792164            0           0           0
      0.000000  2.995359  8.792164            0           0           0
      0.000000  1.497680 12.105084            0           0           0
      9.938761  2.995359 12.105084            0           0           0
      9.938761  1.497680 15.418004            0           0           0
      0.000000  2.995359 15.418004            0           0           0
      0.123931  1.497075 18.662662            0           0           0
     10.033975  2.994370 18.874415            0           0           0
      9.925956  1.496977 22.273601            0           0           0
     13.242415  2.992654 21.893015            0           0           0
      9.938761  4.493039  8.792164            0           0           0
      0.000000  5.990718  8.792164            0           0           0
      0.000000  4.493039 12.105084            0           0           0
      9.938761  5.990718 12.105084            0           0           0
      9.938761  4.493039 15.418004            0           0           0
      0.000000  5.990718 15.418004            0           0           0
      0.120414  4.492411 18.660785            0           0           0
     10.033910  5.990674 18.874895            0           0           0
      9.926021  4.492179 22.272160            0           0           0
     13.237190  5.990713 21.891987            0           0           0
      3.312920  7.488398  8.792164            0           0           0
      6.625840  8.986077  8.792164            0           0           0
      6.625840  7.488398 12.105084            0           0           0
      3.312920  8.986077 12.105084            0           0           0
      3.312920  7.488398 15.418004            0           0           0
      6.625840  8.986077 15.418004            0           0           0
      6.750283  7.481529 18.674681            0           0           0
      3.406550  8.985962 18.870110            0           0           0
      3.292729  7.491173 22.259212            0           0           0
      6.618321  8.985361 21.880359            0           0           0
      3.312920 10.483757  8.792164            0           0           0
      6.625840  0.000000  8.792164            0           0           0
      6.625840 10.483757 12.105084            0           0           0
      3.312920  0.000000 12.105084            0           0           0
      3.312920 10.483757 15.418004            0           0           0
      6.625840  0.000000 15.418004            0           0           0
      6.750811 10.480747 18.652273            0           0           0
[...]
      6.625840  5.990718 13.397248            0           0           0
      4.605084  4.493039 12.105084            0           0           0
      8.646597  4.493039 12.105084            0           0           0
      3.312920  5.990718 14.125840            0           0           0
      3.312920  5.990718 16.710168            0           0           0
      7.918004  4.493039 15.418004            0           0           0
      5.333677  4.493039 15.418004            0           0           0
      6.626622  5.990728 17.469372            0           0           0
      6.630391  5.990759 20.076977            0           0           0
      4.621751  4.493545 18.765478            0           0           0
      8.616965  4.494049 18.752975            0           0           0
      3.295287  5.990700 20.751355            0           0           0
      3.338651  5.990715 23.350705            0           0           0
      7.865167  4.482071 22.204541            0           0           0
      5.370585  4.477809 22.186298            0           0           0

   9 f/i=    0.598013 THz     3.757426 2PiTHz   19.947563 cm-1     2.473182 meV
             X         Y         Z           dx          dy          dz
      5.664874  5.990717 25.420060     0.001880   -0.381794    0.001080
      4.897470  5.990715 26.305018     0.001694   -0.923187    0.000848
      6.470821  5.990719 24.550960     0.002521    0.044062    0.001613
      9.938761  7.488398  8.792164            0           0           0
      0.000000  8.986077  8.792164            0           0           0
      0.000000  7.488398 12.105084            0           0           0
      9.938761  8.986077 12.105084            0           0           0
      9.938761  7.488398 15.418004            0           0           0
      0.000000  8.986077 15.418004            0           0           0
      0.120267  7.489023 18.660719            0           0           0
     10.033978  8.987095 18.874415            0           0           0
      9.926073  7.489263 22.272125            0           0           0
     13.242424  8.988799 21.893008            0           0           0
      9.938761 10.483757  8.792164            0           0           0
      0.000000  0.000000  8.792164            0           0           0
      0.000000 10.483757 12.105084            0           0           0
      9.938761  0.000000 12.105084            0           0           0
      9.938761 10.483757 15.418004            0           0           0
      0.000000  0.000000 15.418004            0           0           0
      0.123968 10.484361 18.662694            0           0           0
     10.033715  0.000008 18.874839            0           0           0
      9.925958 10.484462 22.273602            0           0           0
     13.247855 11.981435 21.893992            0           0           0
      9.938761  1.497680  8.792164            0           0           0
      0.000000  2.995359  8.792164            0           0           0
      0.000000  1.497680 12.105084            0           0           0
      9.938761  2.995359 12.105084            0           0           0
      9.938761  1.497680 15.418004            0           0           0
      0.000000  2.995359 15.418004            0           0           0
      0.123931  1.497075 18.662662            0           0           0
     10.033975  2.994370 18.874415            0           0           0
      9.925956  1.496977 22.273601            0           0           0
     13.242415  2.992654 21.893015            0           0           0
      9.938761  4.493039  8.792164            0           0           0
      0.000000  5.990718  8.792164            0           0           0
      0.000000  4.493039 12.105084            0           0           0
      9.938761  5.990718 12.105084            0           0           0
      9.938761  4.493039 15.418004            0           0           0
      0.000000  5.990718 15.418004            0           0           0
      0.120414  4.492411 18.660785            0           0           0
     10.033910  5.990674 18.874895            0           0           0
      9.926021  4.492179 22.272160            0           0           0
     13.237190  5.990713 21.891987            0           0           0
      3.312920  7.488398  8.792164            0           0           0
      6.625840  8.986077  8.792164            0           0           0
      6.625840  7.488398 12.105084            0           0           0
      3.312920  8.986077 12.105084            0           0           0
      3.312920  7.488398 15.418004            0           0           0
      6.625840  8.986077 15.418004            0           0           0
      6.750283  7.481529 18.674681            0           0           0
      3.406550  8.985962 18.870110            0           0           0
      3.292729  7.491173 22.259212            0           0           0
      6.618321  8.985361 21.880359            0           0           0
      3.312920 10.483757  8.792164            0           0           0
      6.625840  0.000000  8.792164            0           0           0
      6.625840 10.483757 12.105084            0           0           0
      3.312920  0.000000 12.105084            0           0           0
      3.312920 10.483757 15.418004            0           0           0
      6.625840  0.000000 15.418004            0           0           0
      6.750811 10.480747 18.652273            0           0           0
[...]
      6.625840  5.990718 13.397248            0           0           0
      4.605084  4.493039 12.105084            0           0           0
      8.646597  4.493039 12.105084            0           0           0
      3.312920  5.990718 14.125840            0           0           0
      3.312920  5.990718 16.710168            0           0           0
      7.918004  4.493039 15.418004            0           0           0
      5.333677  4.493039 15.418004            0           0           0
      6.626622  5.990728 17.469372            0           0           0
      6.630391  5.990759 20.076977            0           0           0
      4.621751  4.493545 18.765478            0           0           0
      8.616965  4.494049 18.752975            0           0           0
      3.295287  5.990700 20.751355            0           0           0
      3.338651  5.990715 23.350705            0           0           0
      7.865167  4.482071 22.204541            0           0           0
      5.370585  4.477809 22.186298            0           0           0

 Finite differences POTIM=   1.0000000000000000E-002