 vasp.6.4.2 20Jul23 (build Nov 17 2023 15:39:20) complex
 executed on              LinuxNV date 2024.02.27  20:18:27
 OpenACC runtime initialized ...    4 GPUs detected

 INCAR:
   SYSTEM = Oxide-Surface
   ISMEAR = 0
   SIGMA = 0.05
   EDIFF = 1E-4
   ALGO = Normal
   ISTART = 2
   IBRION = -1
   NSW = 0
   ISYM = 0
   DIPOL = 0.5 0.5 0.5
   IDIPOL = 3
   LDIPOL = .TRUE.
   LHFCALC = .TRUE.
   GGA = PE
   IVDW = 21
   VDW_SR = 0.96
   ENCUT = 450
   PREC = Normal
   LASPH = .TRUE.
   LREAL = Auto
   ISPIN = 1
   NELM = 200
   NELMIN = 8
   NCORE = 1
   KPAR = 1
   LWAVE = .FALSE.
   LCHARG = .FALSE.

 POTCAR:    PAW_PBE C 08Apr2002
 POTCAR:    PAW_PBE H 15Jun2001
 POTCAR:    PAW_PBE Mg_pv 13Apr2007
 POTCAR:    PAW_PBE O 08Apr2002
 POTCAR:    PAW_PBE C 08Apr2002
   VRHFIN =C: s2p2

   TITEL  = PAW_PBE C 08Apr2002
   POMASS =   12.011; ZVAL   =    4.000    mass and valenz
   ENMAX  =  400.000; ENMIN  =  300.000 eV

   TITEL  = PAW_PBE H 15Jun2001
   POMASS =    1.000; ZVAL   =    1.000    mass and valenz
   ENMAX  =  250.000; ENMIN  =  200.000 eV

   TITEL  = PAW_PBE Mg_pv 13Apr2007
   POMASS =   24.305; ZVAL   =    8.000    mass and valenz
   ENMAX  =  403.929; ENMIN  =  302.947 eV

   TITEL  = PAW_PBE O 08Apr2002
   POMASS =   16.000; ZVAL   =    6.000    mass and valenz
   ENMAX  =  400.000; ENMIN  =  300.000 eV

 Optimization of the real space projectors (new method)

 maximal supplied QI-value         = 25.13
 optimisation between [QCUT,QGAM] = [ 10.81, 21.61] = [ 32.71,130.83] Ry
 Optimized for a Real-space Cutoff    1.23 Angstroem

   l    n(q)    QCUT    max X(q) W(low)/X(q) W(high)/X(q)  e(spline)
   0      8    10.807   115.676    0.36E-03    0.72E-03    0.24E-06
   0      8    10.807    87.132    0.35E-03    0.71E-03    0.24E-06
   1      7    10.807     4.429    0.19E-03    0.39E-03    0.11E-06
   1      7    10.807     2.733    0.14E-03    0.28E-03    0.13E-06
 Optimization of the real space projectors (new method)

[...]

   l    n(q)    QCUT    max X(q) W(low)/X(q) W(high)/X(q)  e(spline)
   1      7    10.771     2.974    0.18E-03    0.56E-05    0.13E-06
   1      7    10.771     4.279    0.39E-03    0.94E-04    0.28E-06
   0      8    10.771    16.381    0.27E-03    0.38E-03    0.44E-07
   0      8    10.771     5.611    0.18E-03    0.26E-03    0.32E-07
   2      7    10.771     4.652    0.12E-03    0.23E-03    0.45E-07
 Optimization of the real space projectors (new method)

 maximal supplied QI-value         = 24.76
 optimisation between [QCUT,QGAM] = [ 10.64, 21.54] = [ 31.73,129.89] Ry
 Optimized for a Real-space Cutoff    1.23 Angstroem

   l    n(q)    QCUT    max X(q) W(low)/X(q) W(high)/X(q)  e(spline)
   0      8    10.645    20.381    0.38E-03    0.60E-03    0.15E-06
   0      8    10.645    15.268    0.40E-03    0.65E-03    0.17E-06
   1      7    10.645     5.964    0.30E-03    0.63E-03    0.18E-06
   1      7    10.645     5.382    0.24E-03    0.53E-03    0.16E-06
  PAW_PBE C 08Apr2002                   :
  PAW_PBE H 15Jun2001                   :
  PAW_PBE Mg_pv 13Apr2007               :
  PAW_PBE O 08Apr2002                   :

 POSCAR:  C  H Mg  O
  positions in direct lattice
 exchange correlation table for  LEXCH =        8
   RHO(1)=    0.500       N(1)  =     2000
   RHO(2)=  100.500       N(2)  =     4000

 ion  position               nearest neighbor table
   1  0.504  0.498  0.793-   5 1.10   3 1.10   4 1.10   2 1.53
   2  0.675  0.499  0.817-   6 1.10   8 1.10   7 1.10   1 1.53
   3  0.482  0.392  0.764-   1 1.10
   4  0.479  0.604  0.765-   1 1.10
   5  0.418  0.495  0.832-   1 1.10
   6  0.759  0.502  0.778-   2 1.10
   7  0.701  0.394  0.846-   2 1.10
   8  0.698  0.604  0.847-   2 1.10
   9  0.000  0.750  0.352-  41 2.11  43 2.11  44 2.11  51 2.11  60 2.11
  10  0.250  0.000  0.352-  42 2.11  43 2.11  44 2.11  52 2.11  59 2.11
  11  0.000  0.000  0.451-  43 2.11  42 2.11  41 2.11  49 2.11  58 2.11  47 2.12
  12  0.250  0.750  0.451-  44 2.11  42 2.11  41 2.11  50 2.11  57 2.11  48 2.12
  13  1.000  0.750  0.550-  64 2.11  48 2.11  55 2.11  47 2.11  41 2.12  45 2.15
  14  0.250  1.000  0.550-  48 2.11  56 2.11  63 2.11  47 2.11  42 2.12  46 2.15
  15  1.000  1.000  0.649-  46 2.11  62 2.11  47 2.11  45 2.11  53 2.11
  16  0.250  0.750  0.649-  48 2.11  54 2.11  45 2.11  46 2.11  61 2.11
  17  0.000  0.250  0.352-  49 2.11  43 2.11  51 2.11  52 2.11  68 2.11
  18  0.250  0.500  0.352-  50 2.11  44 2.11  51 2.11  52 2.11  67 2.11
  19  0.000  0.500  0.451-  51 2.11  49 2.11  50 2.11  41 2.11  66 2.11  55 2.12
  20  0.250  0.250  0.451-  52 2.11  49 2.11  50 2.11  42 2.11  65 2.11  56 2.12
  21  1.000  0.250  0.550-  72 2.11  56 2.11  55 2.11  47 2.11  49 2.12  53 2.15
  22  0.250  0.500  0.550-  71 2.11  56 2.11  48 2.11  55 2.11  50 2.13  54 2.15
  23  0.000  0.500  0.649-  54 2.11  55 2.11  70 2.11  45 2.11  53 2.11
  24  0.250  0.250  0.649-  56 2.11  53 2.11  54 2.11  46 2.11  69 2.11
  25  0.500  0.750  0.352-  57 2.11  44 2.11  59 2.11  60 2.11  67 2.11
  26  0.750  0.000  0.352-  58 2.11  43 2.11  59 2.11  60 2.11  68 2.11
  27  0.500  0.000  0.451-  59 2.11  57 2.11  58 2.11  42 2.11  65 2.11  63 2.12
  28  0.750  0.750  0.451-  60 2.11  57 2.11  58 2.11  41 2.11  66 2.11  64 2.12
  29  0.500  0.750  0.550-  71 2.11  64 2.11  48 2.11  63 2.11  57 2.13  61 2.15
  30  0.750  1.000  0.550-  64 2.11  72 2.11  47 2.11  63 2.11  58 2.13  62 2.15
  31  0.500  1.000  0.649-  69 2.11  61 2.11  63 2.11  46 2.11  62 2.11
  32  0.750  0.750  0.649-  64 2.11  45 2.11  62 2.11  70 2.11  61 2.11
  33  0.500  0.250  0.352-  65 2.11  59 2.11  52 2.11  67 2.11  68 2.11
  34  0.750  0.500  0.352-  66 2.11  60 2.11  51 2.11  67 2.11  68 2.11
  35  0.500  0.500  0.451-  67 2.11  57 2.11  65 2.11  66 2.11  50 2.11  71 2.12
  36  0.750  0.250  0.451-  68 2.11  58 2.11  65 2.11  66 2.11  49 2.11  72 2.12
  37  0.500  0.250  0.550-  71 2.11  72 2.11  56 2.11  63 2.11  65 2.13  69 2.15
  38  0.750  0.500  0.550-  71 2.11  72 2.11  64 2.11  55 2.11  66 2.13  70 2.15
  39  0.500  0.500  0.649-  54 2.11  61 2.11  69 2.11  70 2.11  71 2.12
  40  0.750  0.250  0.649-  72 2.11  53 2.11  62 2.11  70 2.11  69 2.11
  41  0.000  0.750  0.451-   9 2.11  11 2.11  12 2.11  19 2.11  28 2.11  13 2.12
  42  0.250  0.000  0.451-  10 2.11  11 2.11  12 2.11  20 2.11  27 2.11  14 2.12
  43  0.000  0.000  0.352-  11 2.11  10 2.11   9 2.11  17 2.11  26 2.11
  44  0.250  0.750  0.352-  12 2.11  10 2.11   9 2.11  18 2.11  25 2.11
  45  1.000  0.750  0.651-  32 2.11  16 2.11  23 2.11  15 2.11  13 2.15
  46  0.250  1.000  0.651-  15 2.11  31 2.11  24 2.11  16 2.11  14 2.15
  47  1.000  1.000  0.550-  30 2.11  13 2.11  21 2.11  14 2.11  15 2.11  11 2.12
  48  0.250  0.750  0.550-  16 2.11  14 2.11  13 2.11  29 2.11  22 2.11  12 2.12
  49  0.000  0.250  0.451-  17 2.11  11 2.11  19 2.11  20 2.11  36 2.11  21 2.12
  50  0.250  0.500  0.451-  18 2.11  12 2.11  19 2.11  20 2.11  35 2.11  22 2.13
  51  0.000  0.500  0.352-  19 2.11  17 2.11  18 2.11   9 2.11  34 2.11
  52  0.250  0.250  0.352-  20 2.11  17 2.11  18 2.11  10 2.11  33 2.11
  53  1.000  0.250  0.651-  40 2.11  24 2.11  23 2.11  15 2.11  21 2.15
  54  0.250  0.500  0.651-  23 2.11  16 2.11  24 2.11  39 2.11  22 2.15
  55  1.000  0.500  0.550-  23 2.11  21 2.11  13 2.11  38 2.11  22 2.11  19 2.12
  56  0.250  0.250  0.550-  24 2.11  14 2.11  21 2.11  37 2.11  22 2.11  20 2.12
  57  0.500  0.750  0.451-  25 2.11  12 2.11  27 2.11  28 2.11  35 2.11  29 2.13
  58  0.750  0.000  0.451-  26 2.11  11 2.11  27 2.11  28 2.11  36 2.11  30 2.13
  59  0.500  0.000  0.352-  27 2.11  25 2.11  26 2.11  10 2.11  33 2.11
  60  0.750  0.750  0.352-  28 2.11  25 2.11  26 2.11   9 2.11  34 2.11
  61  0.500  0.750  0.651-  31 2.11  32 2.11  16 2.11  39 2.11  29 2.15
  62  0.750  1.000  0.651-  40 2.11  15 2.11  32 2.11  31 2.11  30 2.15
  63  0.500  1.000  0.550-  31 2.11  30 2.11  14 2.11  29 2.11  37 2.11  27 2.12
  64  0.750  0.750  0.550-  32 2.11  30 2.11  13 2.11  29 2.11  38 2.11  28 2.12
  65  0.500  0.250  0.451-  33 2.11  27 2.11  20 2.11  35 2.11  36 2.11  37 2.13
  66  0.750  0.500  0.451-  34 2.11  28 2.11  19 2.11  35 2.11  36 2.11  38 2.13
  67  0.500  0.500  0.352-  35 2.11  25 2.11  33 2.11  34 2.11  18 2.11
  68  0.750  0.250  0.352-  36 2.11  26 2.11  33 2.11  34 2.11  17 2.11
  69  0.500  0.250  0.651-  31 2.11  40 2.11  24 2.11  39 2.11  37 2.15
  70  0.750  0.500  0.651-  23 2.11  32 2.11  40 2.11  39 2.11  38 2.15
  71  0.500  0.500  0.550-  38 2.11  29 2.11  37 2.11  22 2.11  39 2.12  35 2.12
  72  0.750  0.250  0.550-  40 2.11  30 2.11  21 2.11  37 2.11  38 2.11  36 2.12

IMPORTANT INFORMATION: All symmetrisations will be switched off!
NOSYMM: (Re-)initialisation of all symmetry stuff for point group C_1.

                                     Primitive cell

  volume of cell :    1519.8199

  direct lattice vectors                    reciprocal lattice vectors
     8.440984654  0.000000000  0.000000000     0.118469591  0.000000000  0.000000000
     0.000000000  8.440984654  0.000000000     0.000000000  0.118469591  0.000000000
     0.000000000  0.000000000 21.330738491     0.000000000  0.000000000  0.046880702

  length of vectors
     8.440984654  8.440984654 21.330738491     0.118469591  0.118469591  0.046880702

  position of ions in fractional coordinates (direct lattice)
     0.504434876  0.497571925  0.793182562
     0.675419507  0.499339829  0.817254959
     0.481938651  0.392229692  0.763981212
     0.478802048  0.604112785  0.765085782
     0.417852208  0.495000411  0.831710663
     0.759152897  0.502002316  0.777764631
     0.701471206  0.393571335  0.845561462
     0.698192892  0.603729020  0.846776833
     0.000000000  0.750000000  0.351605267
     0.250000000  0.000000000  0.351605267
     0.000000000  0.000000000  0.450535089
     0.250000000  0.750000000  0.450535089
     0.999969335  0.749932564  0.550143009
     0.249979009  0.999932854  0.550153760
     0.999984729  0.999879620  0.648880782
     0.249865610  0.749814499  0.648764798
     0.000000000  0.250000000  0.351605267
     0.250000000  0.500000000  0.351605267
     0.000000000  0.500000000  0.450535089
     0.250000000  0.250000000  0.450535089
     0.999969716  0.249949331  0.550140365
     0.250119639  0.499932684  0.550205747
     0.000137590  0.499892464  0.648694835
     0.249861482  0.249941717  0.648759231
     0.500000000  0.750000000  0.351605267
     0.750000000  0.000000000  0.351605267
     0.500000000  0.000000000  0.450535089
     0.750000000  0.750000000  0.450535089
     0.499983604  0.749784240  0.550199518
     0.749978902  0.999929979  0.550160720
     0.499953859  0.999865553  0.648719052
     0.750035499  0.749892856  0.648802828
     0.500000000  0.250000000  0.351605267
     0.750000000  0.500000000  0.351605267
     0.500000000  0.500000000  0.450535089
     0.750000000  0.250000000  0.450535089
     0.499985367  0.250051482  0.550198962
     0.749853021  0.499929383  0.550227143
     0.499835929  0.499867681  0.649468757
     0.750050535  0.249858113  0.648796072
     0.000000000  0.750000000  0.450535089
     0.250000000  0.000000000  0.450535089
     0.000000000  0.000000000  0.351605267
[...]
  VDW_IDAMPF =  0
  VDW_S6 =     1.000
  VDW_SR =     0.960
  VDW_D =    20.000
  LVDW_ONECELL = F F F
  LVDW_SAMETYPE T T T T
  LVDW_EWALD = F

  Number of pair interactions contributing to vdW energy:  911551
  Edisp (eV):   -4.07751

 VOLUME and BASIS-vectors are now :
  energy-cutoff  :      450.00
  volume of cell :     1519.82
      direct lattice vectors                 reciprocal lattice vectors
     8.440984654  0.000000000  0.000000000     0.118469591  0.000000000  0.000000000
     0.000000000  8.440984654  0.000000000     0.000000000  0.118469591  0.000000000
     0.000000000  0.000000000 21.330738491     0.000000000  0.000000000  0.046880702

  length of vectors
     8.440984654  8.440984654 21.330738491     0.118469591  0.118469591  0.046880702

 FORCES acting on ions
    electron-ion (+dipol)            ewald-force                    non-local-force                 convergence-correction
   0.690E+02 0.735E+00 -.916E+03   -.689E+02 -.748E+00 0.916E+03   -.712E-01 0.163E-01 -.242E+00   -.679E-04 0.383E-05 0.137E+00
   -.692E+02 -.734E+00 -.862E+03   0.695E+02 0.746E+00 0.862E+03   -.371E+00 -.121E-01 0.147E+00   0.218E-02 0.197E-04 0.130E+00
   0.181E+02 0.465E+02 -.231E+03   -.190E+02 -.508E+02 0.228E+03   0.944E+00 0.432E+01 0.291E+01   -.259E-04 0.240E-04 0.361E-01
   0.195E+02 -.468E+02 -.231E+03   -.205E+02 0.512E+02 0.229E+03   0.107E+01 -.436E+01 0.280E+01   -.279E-04 -.176E-04 0.360E-01
   0.457E+02 0.122E+01 -.234E+03   -.492E+02 -.133E+01 0.238E+03   0.355E+01 0.105E+00 -.393E+01   -.331E-03 -.891E-05 0.307E-01
   -.449E+02 -.127E+01 -.211E+03   0.484E+02 0.138E+01 0.207E+03   -.342E+01 -.107E+00 0.411E+01   0.105E-03 0.358E-05 0.359E-01
   -.196E+02 0.465E+02 -.213E+03   0.207E+02 -.507E+02 0.216E+03   -.110E+01 0.428E+01 -.291E+01   0.408E-03 -.849E-04 0.291E-01
   -.181E+02 -.460E+02 -.213E+03   0.191E+02 0.503E+02 0.216E+03   -.963E+00 -.423E+01 -.304E+01   0.413E-03 0.979E-04 0.289E-01
   -.911E-01 -.233E+00 0.208E+04   0.910E-01 0.233E+00 -.207E+04   0.889E-04 0.234E-03 -.674E+01   -.389E-05 -.597E-06 -.241E+00
   0.159E+00 0.374E-02 0.208E+04   -.159E+00 -.390E-02 -.207E+04   0.157E-04 0.110E-03 -.674E+01   0.250E-05 -.277E-06 -.241E+00
   -.291E+00 0.107E-01 0.723E+03   0.290E+00 -.132E-01 -.723E+03   0.592E-03 0.145E-02 0.513E+00   -.324E-05 0.471E-06 -.111E+00
   0.641E+00 -.873E+00 0.724E+03   -.639E+00 0.869E+00 -.724E+03   -.128E-02 0.153E-02 0.504E+00   0.481E-04 -.281E-04 -.111E+00
   -.161E+01 -.411E+01 -.624E+03   0.161E+01 0.411E+01 0.624E+03   0.183E-02 0.357E-02 -.142E+00   -.936E-05 -.103E-03 0.579E-01
   0.282E+01 0.594E-01 -.627E+03   -.282E+01 -.598E-01 0.627E+03   -.184E-02 0.661E-03 -.145E+00   0.163E-03 0.251E-05 0.580E-01
   -.460E+01 0.102E+00 -.198E+04   0.460E+01 -.100E+00 0.198E+04   -.152E-02 -.678E-03 0.572E+01   0.199E-03 -.893E-05 0.206E+00
   0.170E+02 -.197E+02 -.196E+04   -.171E+02 0.197E+02 0.196E+04   0.453E-01 0.180E-01 0.575E+01   0.524E-03 -.200E-03 0.205E+00
   -.912E-01 0.233E+00 0.208E+04   0.911E-01 -.233E+00 -.207E+04   0.867E-04 -.566E-04 -.674E+01   -.429E-05 0.242E-06 -.241E+00
   0.166E+00 -.412E-02 0.208E+04   -.165E+00 0.400E-02 -.207E+04   -.617E-03 0.877E-04 -.674E+01   0.652E-05 0.127E-05 -.241E+00
   -.355E+00 -.253E-01 0.725E+03   0.352E+00 0.228E-01 -.725E+03   0.211E-02 0.142E-02 0.480E+00   -.750E-05 0.242E-05 -.111E+00
   0.636E+00 0.860E+00 0.724E+03   -.634E+00 -.862E+00 -.724E+03   -.893E-03 0.167E-02 0.503E+00   0.514E-04 0.274E-04 -.111E+00
   -.162E+01 0.413E+01 -.624E+03   0.162E+01 -.413E+01 0.624E+03   0.239E-02 -.388E-02 -.143E+00   -.890E-05 0.100E-03 0.579E-01
   0.437E+01 -.567E-01 -.617E+03   -.434E+01 0.572E-01 0.618E+03   -.313E-01 -.492E-03 -.291E+00   0.235E-03 -.326E-05 0.582E-01
   -.113E+02 -.900E-01 -.196E+04   0.114E+02 0.912E-01 0.195E+04   -.773E-01 -.134E-02 0.574E+01   -.226E-03 0.103E-04 0.205E+00
   0.172E+02 0.197E+02 -.196E+04   -.173E+02 -.197E+02 0.196E+04   0.518E-01 -.185E-01 0.576E+01   0.562E-03 0.203E-03 0.205E+00
   0.909E-01 -.241E+00 0.208E+04   -.909E-01 0.239E+00 -.207E+04   -.280E-04 0.904E-03 -.674E+01   0.776E-05 -.545E-05 -.241E+00
   -.159E+00 0.384E-02 0.208E+04   0.159E+00 -.400E-02 -.207E+04   0.622E-04 0.112E-03 -.674E+01   -.469E-05 0.137E-06 -.241E+00
   0.285E+00 0.783E-02 0.724E+03   -.285E+00 -.118E-01 -.724E+03   0.447E-03 0.233E-02 0.488E+00   0.723E-05 0.350E-05 -.111E+00
   -.645E+00 -.938E+00 0.725E+03   0.641E+00 0.932E+00 -.725E+03   0.254E-02 0.335E-02 0.511E+00   -.552E-04 -.364E-04 -.111E+00
   0.163E+01 -.566E+01 -.617E+03   -.163E+01 0.563E+01 0.617E+03   -.182E-02 0.298E-01 -.189E+00   0.189E-04 -.164E-03 0.584E-01
   -.281E+01 0.639E-01 -.625E+03   0.281E+01 -.642E-01 0.625E+03   0.196E-03 0.694E-03 -.143E+00   -.169E-03 0.293E-05 0.579E-01
   0.465E+01 0.331E+00 -.197E+04   -.465E+01 -.328E+00 0.196E+04   0.143E-02 -.203E-02 0.572E+01   -.191E-03 0.261E-04 0.205E+00
   -.172E+02 -.269E+02 -.195E+04   0.172E+02 0.269E+02 0.194E+04   -.389E-01 -.315E-01 0.575E+01   -.504E-03 -.608E-03 0.205E+00
   0.910E-01 0.240E+00 0.208E+04   -.910E-01 -.239E+00 -.207E+04   -.291E-04 -.668E-03 -.674E+01   0.749E-05 0.527E-05 -.241E+00
   -.166E+00 -.426E-02 0.208E+04   0.165E+00 0.413E-02 -.207E+04   0.676E-03 0.851E-04 -.675E+01   -.104E-04 0.105E-05 -.241E+00
   0.352E+00 -.178E-01 0.726E+03   -.350E+00 0.149E-01 -.726E+03   -.155E-02 0.160E-02 0.532E+00   0.154E-04 0.144E-05 -.110E+00
   -.639E+00 0.926E+00 0.725E+03   0.635E+00 -.925E+00 -.725E+03   0.209E-02 -.199E-04 0.510E+00   -.565E-04 0.343E-04 -.111E+00
   0.164E+01 0.564E+01 -.617E+03   -.163E+01 -.561E+01 0.617E+03   -.192E-02 -.297E-01 -.194E+00   0.186E-04 0.162E-03 0.584E-01
   -.441E+01 -.630E-01 -.614E+03   0.437E+01 0.641E-01 0.614E+03   0.337E-01 -.428E-03 -.240E+00   -.250E-03 -.139E-05 0.585E-01
   0.120E+02 -.506E+00 -.190E+04   -.121E+02 0.521E+00 0.189E+04   0.605E-01 -.881E-02 0.548E+01   0.124E-03 -.519E-04 0.208E+00
   -.174E+02 0.269E+02 -.195E+04   0.175E+02 -.269E+02 0.194E+04   -.454E-01 0.304E-01 0.575E+01   -.545E-03 0.610E-03 0.205E+00
   -.239E+00 -.688E+00 0.542E+03   0.241E+00 0.686E+00 -.542E+03   -.250E-02 0.354E-02 -.642E-01   -.570E-05 -.143E-04 -.805E-01
   0.473E+00 0.724E-02 0.542E+03   -.467E+00 -.371E-02 -.542E+03   -.693E-02 -.402E-02 -.692E-01   0.227E-04 0.130E-05 -.805E-01
   -.649E-01 0.322E-02 0.156E+04   0.650E-01 -.314E-02 -.157E+04   -.652E-04 -.110E-03 0.310E+01   -.969E-05 -.171E-05 -.181E+00
   0.122E+00 -.173E+00 0.156E+04   -.121E+00 0.173E+00 -.157E+04   -.657E-03 0.445E-03 0.310E+01   -.210E-05 -.805E-05 -.181E+00
   -.594E+01 -.117E+02 -.150E+04   0.594E+01 0.117E+02 0.150E+04   0.417E-03 0.968E-02 -.451E+01   0.408E-04 -.362E-05 0.157E+00
   0.731E+01 0.147E+00 -.151E+04   -.729E+01 -.150E+00 0.151E+04   -.173E-01 0.416E-02 -.451E+01   0.846E-04 0.458E-05 0.157E+00
   -.965E+00 0.292E-01 -.466E+03   0.966E+00 -.272E-01 0.466E+03   0.529E-03 -.120E-02 0.239E+00   0.142E-04 0.708E-06 0.426E-01
   0.264E+01 -.335E+01 -.461E+03   -.263E+01 0.333E+01 0.461E+03   -.493E-02 0.161E-01 0.262E+00   0.157E-03 -.946E-04 0.427E-01
   -.240E+00 0.681E+00 0.542E+03   0.242E+00 -.672E+00 -.542E+03   -.246E-02 -.105E-01 -.643E-01   -.712E-05 0.116E-04 -.805E-01
   0.518E+00 -.180E-01 0.543E+03   -.528E+00 0.213E-01 -.543E+03   0.114E-01 -.378E-02 -.767E-01   0.433E-04 0.137E-05 -.804E-01
   -.718E-01 -.309E-02 0.156E+04   0.715E-01 0.317E-02 -.157E+04   0.339E-03 -.991E-04 0.310E+01   -.534E-06 0.562E-06 -.181E+00
   0.121E+00 0.174E+00 0.156E+04   -.121E+00 -.173E+00 -.157E+04   -.576E-03 -.679E-03 0.310E+01   -.458E-06 0.627E-05 -.181E+00
   -.595E+01 0.117E+02 -.150E+04   0.595E+01 -.117E+02 0.150E+04   -.254E-03 -.483E-02 -.451E+01   0.463E-04 0.940E-06 0.157E+00
   0.211E+02 -.168E+00 -.148E+04   -.210E+02 0.166E+00 0.148E+04   -.916E-01 0.303E-02 -.458E+01   0.918E-03 -.778E-05 0.156E+00
   -.144E+01 -.446E-01 -.459E+03   0.144E+01 0.447E-01 0.459E+03   -.769E-02 -.166E-02 0.264E+00   -.508E-04 0.366E-05 0.426E-01
   0.264E+01 0.335E+01 -.461E+03   -.263E+01 -.333E+01 0.461E+03   -.506E-02 -.161E-01 0.260E+00   0.166E-03 0.967E-04 0.427E-01
   0.235E+00 -.736E+00 0.543E+03   -.234E+00 0.750E+00 -.543E+03   -.422E-03 -.154E-01 -.740E-01   0.165E-04 -.337E-04 -.804E-01
   -.475E+00 0.753E-02 0.542E+03   0.471E+00 -.386E-02 -.542E+03   0.432E-02 -.417E-02 -.689E-01   -.314E-04 0.219E-05 -.805E-01
   0.650E-01 0.295E-02 0.156E+04   -.650E-01 -.290E-02 -.157E+04   -.121E-04 -.806E-04 0.310E+01   0.444E-05 0.249E-05 -.181E+00
   -.122E+00 -.180E+00 0.156E+04   0.121E+00 0.180E+00 -.157E+04   0.569E-03 0.799E-03 0.310E+01   -.136E-05 -.405E-05 -.181E+00
   0.604E+01 -.259E+02 -.147E+04   -.603E+01 0.259E+02 0.148E+04   -.761E-02 0.816E-01 -.447E+01   -.913E-04 -.869E-03 0.157E+00
   -.737E+01 0.162E+00 -.150E+04   0.735E+01 -.165E+00 0.151E+04   0.159E-01 0.482E-02 -.452E+01   -.921E-04 0.190E-05 0.156E+00
   0.957E+00 0.621E-01 -.461E+03   -.960E+00 -.644E-01 0.461E+03   0.118E-02 0.113E-02 0.275E+00   -.616E-05 0.935E-05 0.427E-01
   -.264E+01 -.385E+01 -.459E+03   0.264E+01 0.383E+01 0.459E+03   0.509E-02 0.103E-01 0.262E+00   -.170E-03 -.161E-03 0.428E-01
   0.236E+00 0.720E+00 0.543E+03   -.236E+00 -.725E+00 -.543E+03   -.289E-03 0.568E-02 -.731E-01   0.154E-04 0.268E-04 -.804E-01
   -.520E+00 -.192E-01 0.544E+03   0.531E+00 0.228E-01 -.543E+03   -.127E-01 -.401E-02 -.810E-01   -.444E-04 0.751E-06 -.804E-01
   0.717E-01 -.254E-02 0.156E+04   -.715E-01 0.272E-02 -.157E+04   -.304E-03 -.211E-03 0.310E+01   0.386E-05 0.753E-06 -.181E+00
   -.121E+00 0.181E+00 0.156E+04   0.121E+00 -.180E+00 -.157E+04   0.493E-03 -.104E-02 0.310E+01   -.132E-05 0.216E-05 -.181E+00
   0.607E+01 0.261E+02 -.147E+04   -.606E+01 -.260E+02 0.148E+04   -.696E-02 -.717E-01 -.447E+01   -.909E-04 0.892E-03 0.157E+00
   -.216E+02 -.180E+00 -.145E+04   0.216E+02 0.176E+00 0.146E+04   0.773E-01 0.516E-02 -.450E+01   -.796E-03 -.293E-05 0.157E+00
   0.146E+01 -.340E-01 -.455E+03   -.147E+01 0.307E-01 0.454E+03   0.531E-02 0.210E-03 0.105E+00   0.652E-04 -.612E-05 0.432E-01
   -.265E+01 0.385E+01 -.459E+03   0.264E+01 -.384E+01 0.458E+03   0.510E-02 -.740E-02 0.262E+00   -.181E-03 0.158E-03 0.428E-01
   0.436E+00 -.747E-02 0.194E+02   -.160E-12 -.131E-12 -.330E-11   -.401E+00 0.149E-01 -.158E+02   0.261E-02 0.367E-04 -.731E+00

 POSITION                                       TOTAL-FORCE (eV/Angst)
      4.25793      4.20000     16.91917         0.088196      0.004735      0.029886
      5.70121      4.21492     17.43265        -0.090569     -0.001280     -0.013729
      4.06804      3.31080     16.29628         0.046958      0.169382      0.142859
      4.04156      5.09931     16.31984         0.052203     -0.175194      0.138312
      3.52708      4.17829     17.74100         0.180783      0.005620     -0.194182
      6.40800      4.23739     16.59029        -0.154992     -0.004553      0.192019
      5.92111      3.32213     18.03645        -0.054076      0.206158     -0.145859
      5.89344      5.09607     18.06238        -0.045608     -0.203599     -0.153991
      0.00000      6.33074      7.50000        -0.000131     -0.000173      0.501115
      2.11025      0.00000      7.50000        -0.000077     -0.000099      0.501262
      0.00000      0.00000      9.61025        -0.000402     -0.000889      0.024429
      2.11025      6.33074      9.61025         0.000679     -0.001455      0.025756
      8.44073      6.33017     11.73496        -0.000686     -0.001311      0.046600
      2.11007      8.44042     11.73519         0.000385     -0.000075      0.045908
      8.44086      8.43997     13.84111        -0.001304      0.001494     -0.127242
      2.10911      6.32917     13.83863        -0.007188      0.002682     -0.135179
      0.00000      2.11025      7.50000        -0.000130     -0.000007      0.501145
      2.11025      4.22049      7.50000         0.000115     -0.000088      0.502219
      0.00000      4.22049      9.61025        -0.001047     -0.000853      0.028120
      2.11025      2.11025      9.61025         0.000566     -0.000494      0.025587
      8.44073      2.10982     11.73490         0.000023     -0.000053      0.047339
      2.11126      4.21992     11.73629         0.000338     -0.000419      0.049233
      0.00116      4.21958     13.83714         0.008766     -0.000612     -0.135412
      2.10908      2.10975     13.83851        -0.008869     -0.000934     -0.135265
      4.22049      6.33074      7.50000        -0.000085     -0.000342      0.502136
      6.33074      0.00000      7.50000        -0.000112     -0.000101      0.501194
      4.22049      0.00000      9.61025        -0.000378     -0.001363      0.028158
      6.33074      6.33074      9.61025        -0.001544     -0.002311      0.024874
      4.22035      6.32892     11.73616        -0.000068     -0.000060      0.047304
      6.33056      8.44039     11.73533        -0.000323      0.000012      0.046569
      4.22010      8.43985     13.83766         0.001047     -0.000355     -0.125433
      6.33104      6.32983     13.83944         0.003730      0.010522     -0.139266
      4.22049      2.11025      7.50000        -0.000081      0.000131      0.502092
      6.33074      4.22049      7.50000        -0.000348     -0.000098      0.503972
      4.22049      4.22049      9.61025         0.000579     -0.001068      0.030131
      6.33074      2.11025      9.61025        -0.001372      0.000253      0.024664
      4.22037      2.11068     11.73615        -0.000109      0.000489      0.047120
      6.32950      4.21990     11.73675        -0.000854      0.000157      0.047858
      4.21911      4.21938     13.85365        -0.006400      0.003950     -0.109680
      6.33117      2.10905     13.83930         0.005485     -0.008190     -0.139764
      0.00000      6.33074      9.61025        -0.000908      0.001383      0.088426
      2.11025      0.00000      9.61025        -0.002432     -0.001295      0.087704
      0.00000      0.00000      7.50000        -0.000125     -0.000115     -0.421629
      2.11025      6.33074      7.50000        -0.000283      0.000040     -0.421559
      8.44044      6.32952     13.88698        -0.001792      0.000826     -0.116057
      2.10973      8.43998     13.88705         0.001873      0.001952     -0.117149
      8.44068      8.44046     11.73025         0.001284      0.000313      0.009488
      2.10989      6.33082     11.72973         0.001302     -0.000266      0.011289
      0.00000      2.11025      9.61025        -0.000894     -0.003632      0.088110
      2.11025      4.22049      9.61025         0.003539     -0.001195      0.090639
      0.00000      4.22049      7.50000         0.000016     -0.000108     -0.421527
      2.11025      2.11025      7.50000        -0.000251     -0.000271     -0.421531
      8.44046      2.10952     13.88682        -0.001893      0.002310     -0.115593
      2.10781      4.21948     13.88157        -0.015104      0.001077     -0.134489
      8.44068      4.21998     11.72868        -0.003077     -0.001492      0.011746
      2.10982      2.10904     11.72965         0.001452     -0.000436      0.009661
      4.22049      6.33074      9.61025        -0.000168     -0.004774      0.090843
      6.33074      0.00000      9.61025         0.001457     -0.001335      0.088557
      4.22049      0.00000      7.50000        -0.000102     -0.000102     -0.421703
      6.33074      6.33074      7.50000         0.000078      0.000167     -0.421156
      4.22034      6.33233     13.88613        -0.004386      0.018618     -0.127537
      6.33073      8.43995     13.88762        -0.001721      0.002187     -0.118203
      4.22040      8.44028     11.72907        -0.000794     -0.000635      0.013655
      6.33072      6.33073     11.73011        -0.001086     -0.002759      0.013545
      4.22049      2.11025      9.61025        -0.000127      0.001756      0.091094
      6.33074      4.22049      9.61025        -0.004120     -0.001254      0.090120
      4.22049      4.22049      7.50000        -0.000181     -0.000145     -0.422404
      6.33074      2.11025      7.50000         0.000048     -0.000405     -0.421151
      4.22040      2.10623     13.88554        -0.004354     -0.013208     -0.125342
      6.33242      4.21947     13.88436         0.019659      0.001850     -0.139201
      4.22056      4.21990     11.73288         0.001536     -0.002569      0.015290
      6.33080      2.10908     11.73003        -0.001546      0.003906      0.013207
    total drift:                                0.006501      0.004639      0.080489

  FREE ENERGIE OF THE ION-ELECTRON SYSTEM (eV)
  free  energy   TOTEN  =      -516.63760983 eV

  energy  without entropy=     -516.63760983  energy(sigma->0) =     -516.63760983