 vasp.6.4.2 20Jul23 (build Nov 17 2023 15:39:20) complex
 executed on              LinuxNV date 2024.02.27  22:58:13
 OpenACC runtime initialized ...    4 GPUs detected

 INCAR:
   SYSTEM = Oxide-Surface
   ISMEAR = 0
   SIGMA = 0.05
   EDIFF = 1E-4
   ALGO = Normal
   ISTART = 2
   IBRION = -1
   NSW = 0
   ISYM = 0
   DIPOL = 0.5 0.5 0.5
   IDIPOL = 3
   LDIPOL = .TRUE.
   LHFCALC = .TRUE.
   GGA = PE
   IVDW = 21
   VDW_SR = 0.96
   ENCUT = 450
   PREC = Normal
   LASPH = .TRUE.
   LREAL = Auto
   ISPIN = 1
   NELM = 200
   NELMIN = 8
   NCORE = 1
   KPAR = 1
   LWAVE = .FALSE.
   LCHARG = .FALSE.

 POTCAR:    PAW_PBE C 08Apr2002
 POTCAR:    PAW_PBE O 08Apr2002
 POTCAR:    PAW_PBE Mg_pv 13Apr2007
 POTCAR:    PAW_PBE O 08Apr2002
 POTCAR:    PAW_PBE C 08Apr2002
   VRHFIN =C: s2p2

   TITEL  = PAW_PBE C 08Apr2002
   POMASS =   12.011; ZVAL   =    4.000    mass and valenz
   ENMAX  =  400.000; ENMIN  =  300.000 eV

[...]

   TITEL  = PAW_PBE Mg_pv 13Apr2007
   POMASS =   24.305; ZVAL   =    8.000    mass and valenz
   ENMAX  =  403.929; ENMIN  =  302.947 eV

   TITEL  = PAW_PBE O 08Apr2002
   POMASS =   16.000; ZVAL   =    6.000    mass and valenz
   ENMAX  =  400.000; ENMIN  =  300.000 eV

 Optimization of the real space projectors (new method)

 maximal supplied QI-value         = 25.13
 optimisation between [QCUT,QGAM] = [ 10.81, 21.61] = [ 32.71,130.83] Ry
 Optimized for a Real-space Cutoff    1.23 Angstroem

   l    n(q)    QCUT    max X(q) W(low)/X(q) W(high)/X(q)  e(spline)
   0      8    10.807   115.676    0.36E-03    0.72E-03    0.24E-06
   0      8    10.807    87.132    0.35E-03    0.71E-03    0.24E-06
   1      7    10.807     4.429    0.19E-03    0.39E-03    0.11E-06
   1      7    10.807     2.733    0.14E-03    0.28E-03    0.13E-06
 Optimization of the real space projectors (new method)

[...]

   l    n(q)    QCUT    max X(q) W(low)/X(q) W(high)/X(q)  e(spline)
   1      7    10.771     2.974    0.18E-03    0.56E-05    0.13E-06
   1      7    10.771     4.279    0.39E-03    0.94E-04    0.28E-06
   0      8    10.771    16.381    0.27E-03    0.38E-03    0.44E-07
   0      8    10.771     5.611    0.18E-03    0.26E-03    0.32E-07
   2      7    10.771     4.652    0.12E-03    0.23E-03    0.45E-07
 Optimization of the real space projectors (new method)

 maximal supplied QI-value         = 24.76
 optimisation between [QCUT,QGAM] = [ 10.64, 21.54] = [ 31.73,129.89] Ry
 Optimized for a Real-space Cutoff    1.23 Angstroem

   l    n(q)    QCUT    max X(q) W(low)/X(q) W(high)/X(q)  e(spline)
   0      8    10.645    20.381    0.38E-03    0.60E-03    0.15E-06
   0      8    10.645    15.268    0.40E-03    0.65E-03    0.17E-06
   1      7    10.645     5.964    0.30E-03    0.63E-03    0.18E-06
   1      7    10.645     5.382    0.24E-03    0.53E-03    0.16E-06
  PAW_PBE C 08Apr2002                   :
  PAW_PBE O 08Apr2002                   :
  PAW_PBE Mg_pv 13Apr2007               :
  PAW_PBE O 08Apr2002                   :

 POSCAR:  C  O Mg  O
  positions in direct lattice
 exchange correlation table for  LEXCH =        8
   RHO(1)=    0.500       N(1)  =     2000
   RHO(2)=  100.500       N(2)  =     4000

 ion  position               nearest neighbor table
   1  0.625  0.625  0.771-   3 1.18   2 1.18
   2  0.526  0.526  0.773-   1 1.18
   3  0.724  0.724  0.773-   1 1.18
   4  0.000  0.750  0.352-  36 2.11  38 2.11  39 2.11  46 2.11  55 2.11
   5  0.250  0.000  0.352-  37 2.11  38 2.11  39 2.11  47 2.11  54 2.11
   6  0.000  0.000  0.451-  38 2.11  37 2.11  36 2.11  44 2.11  53 2.11  42 2.12
   7  0.250  0.750  0.451-  39 2.11  37 2.11  36 2.11  45 2.11  52 2.11  43 2.12
   8  0.000  0.750  0.550-  50 2.11  42 2.11  59 2.11  43 2.11  36 2.12  40 2.14
   9  0.250  1.000  0.550-  51 2.11  42 2.11  58 2.11  43 2.11  37 2.12  41 2.15
  10  0.000  0.000  0.649-  48 2.11  41 2.11  40 2.11  57 2.11  42 2.11
  11  0.250  0.750  0.649-  40 2.10  43 2.11  49 2.11  41 2.11  56 2.12
  12  0.000  0.250  0.352-  44 2.11  38 2.11  46 2.11  47 2.11  63 2.11
  13  0.250  0.500  0.352-  45 2.11  39 2.11  46 2.11  47 2.11  62 2.11
  14  0.000  0.500  0.451-  46 2.11  44 2.11  45 2.11  36 2.11  61 2.11  50 2.12
  15  0.250  0.250  0.451-  47 2.11  44 2.11  45 2.11  37 2.11  60 2.11  51 2.12
  16  1.000  0.250  0.550-  51 2.11  42 2.11  67 2.11  50 2.11  44 2.12  48 2.15
  17  0.250  0.500  0.550-  43 2.11  51 2.11  66 2.11  50 2.11  45 2.12  49 2.14
  18  0.000  0.500  0.649-  49 2.10  50 2.11  40 2.11  48 2.11  65 2.12
  19  0.250  0.250  0.649-  41 2.11  48 2.11  64 2.11  49 2.11  51 2.11
  20  0.500  0.750  0.352-  52 2.11  39 2.11  54 2.11  55 2.11  62 2.11
  21  0.750  0.000  0.352-  53 2.11  38 2.11  54 2.11  55 2.11  63 2.11
  22  0.500  0.000  0.451-  54 2.11  52 2.11  53 2.11  37 2.11  60 2.11  58 2.12
  23  0.750  0.750  0.451-  55 2.11  52 2.11  53 2.11  36 2.11  61 2.11  59 2.12
  24  0.500  0.750  0.550-  66 2.11  59 2.11  43 2.11  58 2.11  52 2.13  56 2.16
  25  0.750  0.000  0.550-  58 2.11  42 2.11  59 2.11  67 2.11  53 2.12  57 2.14
  26  0.500  0.000  0.649-  64 2.10  58 2.11  57 2.11  41 2.11  56 2.12
  27  0.752  0.752  0.649-  57 2.10  40 2.10  59 2.11  56 2.12  65 2.12
  28  0.500  0.250  0.352-  60 2.11  54 2.11  47 2.11  62 2.11  63 2.11
  29  0.750  0.500  0.352-  61 2.11  55 2.11  46 2.11  62 2.11  63 2.11
  30  0.500  0.500  0.451-  62 2.11  52 2.11  60 2.11  61 2.11  45 2.11  66 2.12
  31  0.750  0.250  0.451-  63 2.11  53 2.11  60 2.11  61 2.11  44 2.11  67 2.12
  32  0.500  0.250  0.550-  67 2.11  51 2.11  66 2.11  58 2.11  60 2.12  64 2.14
  33  0.750  0.500  0.550-  66 2.11  59 2.11  67 2.11  50 2.11  61 2.13  65 2.16
  34  0.498  0.498  0.649-  64 2.10  49 2.10  66 2.11  56 2.12  65 2.12
  35  0.750  0.250  0.649-  57 2.10  67 2.11  64 2.11  48 2.11  65 2.12
  36  0.000  0.750  0.451-   4 2.11   6 2.11   7 2.11  14 2.11  23 2.11   8 2.12
  37  0.250  0.000  0.451-   5 2.11   6 2.11   7 2.11  15 2.11  22 2.11   9 2.12
  38  0.000  0.000  0.352-   6 2.11   5 2.11   4 2.11  12 2.11  21 2.11
  39  0.250  0.750  0.352-   7 2.11   5 2.11   4 2.11  13 2.11  20 2.11
  40  0.001  0.750  0.651-  27 2.10  11 2.10  18 2.11  10 2.11   8 2.14
  41  0.250  1.000  0.651-  10 2.11  19 2.11  11 2.11  26 2.11   9 2.15
  42  0.000  0.000  0.550-  16 2.11   9 2.11   8 2.11  25 2.11  10 2.11   6 2.12
  43  0.250  0.750  0.550-  24 2.11  11 2.11   9 2.11  17 2.11   8 2.11   7 2.12
  44  0.000  0.250  0.451-  12 2.11   6 2.11  14 2.11  15 2.11  31 2.11  16 2.12
  45  0.250  0.500  0.451-  13 2.11   7 2.11  14 2.11  15 2.11  30 2.11  17 2.12
  46  0.000  0.500  0.352-  14 2.11  12 2.11  13 2.11   4 2.11  29 2.11
  47  0.250  0.250  0.352-  15 2.11  12 2.11  13 2.11   5 2.11  28 2.11
  48  1.000  0.250  0.651-  10 2.11  19 2.11  35 2.11  18 2.11  16 2.15
  49  0.249  0.500  0.651-  34 2.10  18 2.10  11 2.11  19 2.11  17 2.14
  50  1.000  0.500  0.550-  33 2.11  18 2.11  16 2.11   8 2.11  17 2.11  14 2.12
  51  0.250  0.250  0.550-   9 2.11  16 2.11  17 2.11  32 2.11  19 2.11  15 2.12
  52  0.500  0.750  0.451-  20 2.11   7 2.11  22 2.11  23 2.11  30 2.11  24 2.13
  53  0.750  0.000  0.451-  21 2.11   6 2.11  22 2.11  23 2.11  31 2.11  25 2.12
  54  0.500  0.000  0.352-  22 2.11  20 2.11  21 2.11   5 2.11  28 2.11
  55  0.750  0.750  0.352-  23 2.11  20 2.11  21 2.11   4 2.11  29 2.11
  56  0.500  0.750  0.652-  11 2.12  26 2.12  34 2.12  27 2.12  24 2.16
  57  0.750  0.001  0.651-  27 2.10  35 2.10  26 2.11  10 2.11  25 2.14
  58  0.500  1.000  0.550-  24 2.11  26 2.11   9 2.11  25 2.11  32 2.11  22 2.12
  59  0.750  0.750  0.550-  33 2.11  24 2.11   8 2.11  25 2.11  27 2.11  23 2.12
  60  0.500  0.250  0.451-  28 2.11  22 2.11  15 2.11  30 2.11  31 2.11  32 2.12
  61  0.750  0.500  0.451-  29 2.11  23 2.11  14 2.11  30 2.11  31 2.11  33 2.13
  62  0.500  0.500  0.352-  30 2.11  20 2.11  28 2.11  29 2.11  13 2.11
  63  0.750  0.250  0.352-  31 2.11  21 2.11  28 2.11  29 2.11  12 2.11
  64  0.500  0.249  0.651-  34 2.10  26 2.10  35 2.11  19 2.11  32 2.14
  65  0.750  0.500  0.652-  35 2.12  18 2.12  34 2.12  27 2.12  33 2.16
  66  0.500  0.500  0.550-  33 2.11  24 2.11  17 2.11  32 2.11  34 2.11  30 2.12
  67  0.750  0.250  0.550-  33 2.11  35 2.11  16 2.11  32 2.11  25 2.11  31 2.12

IMPORTANT INFORMATION: All symmetrisations will be switched off!
NOSYMM: (Re-)initialisation of all symmetry stuff for point group C_1.

                                     Primitive cell

  volume of cell :    1519.8199

  direct lattice vectors                    reciprocal lattice vectors
     8.440984654  0.000000000  0.000000000     0.118469591  0.000000000  0.000000000
     0.000000000  8.440984654  0.000000000     0.000000000  0.118469591  0.000000000
     0.000000000  0.000000000 21.330738491     0.000000000  0.000000000  0.046880702

  length of vectors
     8.440984654  8.440984654 21.330738491     0.118469591  0.118469591  0.046880702

  position of ions in fractional coordinates (direct lattice)
     0.625002899  0.625002901  0.771290819
     0.526143413  0.526143399  0.772694230
     0.723854540  0.723854548  0.772693667
     0.000000000  0.750000000  0.351605267
     0.250000000  0.000000000  0.351605267
     0.000000000  0.000000000  0.450535089
     0.250000000  0.750000000  0.450535089
     0.000170472  0.750065529  0.550134920
     0.250061573  0.999938530  0.550145492
     0.000200186  0.000200186  0.648841524
     0.249828182  0.749789003  0.648754906
     0.000000000  0.250000000  0.351605267
     0.250000000  0.500000000  0.351605267
     0.000000000  0.500000000  0.450535089
     0.250000000  0.250000000  0.450535089
     0.999938525  0.250061567  0.550145489
     0.249829706  0.499934572  0.550134937
     0.000171958  0.500211139  0.648754903
     0.249799949  0.249799949  0.648841577
     0.500000000  0.750000000  0.351605267
     0.750000000  0.000000000  0.351605267
     0.500000000  0.000000000  0.450535089
     0.750000000  0.750000000  0.450535089
     0.500270350  0.749729670  0.550330173
     0.750065521  0.000170473  0.550134923
     0.500211148  0.000171955  0.648754900
     0.751918702  0.751918715  0.649114650
     0.500000000  0.250000000  0.351605267
     0.750000000  0.500000000  0.351605267
     0.500000000  0.500000000  0.450535089
     0.750000000  0.250000000  0.450535089
     0.499934575  0.249829699  0.550134936
     0.749729660  0.500270350  0.550330171
     0.498081444  0.498081442  0.649114742
     0.749788996  0.249828183  0.648754905
     0.000000000  0.750000000  0.450535089
     0.250000000  0.000000000  0.450535089
     0.000000000  0.000000000  0.351605267
     0.250000000  0.750000000  0.351605267
     0.000660961  0.750176837  0.650529582
     0.250168661  0.999831464  0.651058193
     0.000114890  0.000114892  0.549832723
     0.250404141  0.749981448  0.549877119
     0.000000000  0.250000000  0.450535089
     0.250000000  0.500000000  0.450535089
     0.000000000  0.500000000  0.351605267
     0.250000000  0.250000000  0.351605267
     0.999831464  0.250168659  0.651058194
     0.249339233  0.499823327  0.650529652
     0.999595943  0.500018646  0.549877121
     0.249885200  0.249885199  0.549832736
     0.500000000  0.750000000  0.450535089
[...]
   O         195.580          4.868         19.120          3.54077494
   O         209.525          4.924         19.790          3.66483650
   O         194.058          4.861         19.046          3.52696924
   O         241.836          5.043         21.261          3.93728545
   O         240.979          5.040         21.224          3.93029926
   O         238.872          5.033         21.131          3.91307885
   O         238.680          5.032         21.122          3.91150992
   O         195.580          4.868         19.120          3.54077553
   O         195.573          4.868         19.120          3.54071603
   O         194.043          4.861         19.045          3.52683648
   O         209.525          4.924         19.790          3.66483800
   O         240.978          5.040         21.224          3.93029740
   O         241.848          5.043         21.262          3.93738210

  vdW correction parametrized for the method `X?[      

  IVDW =  21
  VDW_RADIUS =    50.000 A
  VDW_IDAMPF =  0
  VDW_S6 =     1.000
  VDW_SR =     0.960
  VDW_D =    20.000
  LVDW_ONECELL = F F F
  LVDW_SAMETYPE T T T T
  LVDW_EWALD = F

  Number of pair interactions contributing to vdW energy:  791440
  Edisp (eV):   -3.99067

 VOLUME and BASIS-vectors are now :
  energy-cutoff  :      450.00
  volume of cell :     1519.82
      direct lattice vectors                 reciprocal lattice vectors
     8.440984654  0.000000000  0.000000000     0.118469591  0.000000000  0.000000000
     0.000000000  8.440984654  0.000000000     0.000000000  0.118469591  0.000000000
     0.000000000  0.000000000 21.330738491     0.000000000  0.000000000  0.046880702

  length of vectors
     8.440984654  8.440984654 21.330738491     0.118469591  0.118469591  0.046880702

 FORCES acting on ions
    electron-ion (+dipol)            ewald-force                    non-local-force                 convergence-correction
   0.221E-01 0.221E-01 -.103E+04   -.281E-01 -.281E-01 0.103E+04   0.351E-03 0.350E-03 0.307E+00   0.149E-05 0.114E-05 0.144E+00
   0.187E+03 0.187E+03 -.156E+04   -.232E+03 -.232E+03 0.156E+04   0.397E+02 0.397E+02 -.265E+01   -.179E-02 -.179E-02 0.219E+00
   -.187E+03 -.187E+03 -.156E+04   0.232E+03 0.232E+03 0.156E+04   -.397E+02 -.397E+02 -.265E+01   0.179E-02 0.179E-02 0.219E+00
   -.218E+00 -.194E+00 0.209E+04   0.218E+00 0.194E+00 -.209E+04   0.812E-04 0.119E-03 -.674E+01   -.278E-04 -.277E-04 -.239E+00
   0.193E+00 -.193E+00 0.209E+04   -.193E+00 0.193E+00 -.209E+04   -.343E-03 0.342E-03 -.675E+01   0.273E-04 -.268E-04 -.239E+00
   -.924E+00 -.924E+00 0.739E+03   0.945E+00 0.945E+00 -.740E+03   -.136E-01 -.136E-01 0.473E+00   -.853E-04 -.861E-04 -.106E+00
   0.933E+00 -.951E+00 0.741E+03   -.884E+00 0.967E+00 -.741E+03   -.299E-01 -.102E-01 0.493E+00   0.885E-04 -.854E-04 -.105E+00
   -.653E+01 -.387E+01 -.598E+03   0.653E+01 0.388E+01 0.599E+03   0.568E-02 -.365E-02 -.341E+00   -.303E-03 -.268E-03 0.641E-01
   0.375E+01 -.375E+01 -.610E+03   -.376E+01 0.376E+01 0.611E+03   0.439E-02 -.441E-02 -.126E+00   0.275E-03 -.275E-03 0.640E-01
   -.194E+02 -.194E+02 -.197E+04   0.194E+02 0.194E+02 0.196E+04   -.339E-02 -.338E-02 0.574E+01   -.173E-03 -.173E-03 0.210E+00
   0.253E+02 -.210E+02 -.195E+04   -.256E+02 0.210E+02 0.194E+04   0.253E+00 0.367E-02 0.574E+01   0.119E-02 -.190E-03 0.210E+00
   -.193E+00 0.193E+00 0.209E+04   0.193E+00 -.193E+00 -.209E+04   0.343E-03 -.342E-03 -.675E+01   -.267E-04 0.276E-04 -.239E+00
   0.218E+00 0.194E+00 0.209E+04   -.218E+00 -.194E+00 -.209E+04   -.810E-04 -.118E-03 -.674E+01   0.287E-04 0.270E-04 -.239E+00
   -.933E+00 0.951E+00 0.741E+03   0.884E+00 -.967E+00 -.741E+03   0.299E-01 0.102E-01 0.493E+00   -.879E-04 0.851E-04 -.105E+00
   0.924E+00 0.924E+00 0.739E+03   -.945E+00 -.945E+00 -.740E+03   0.136E-01 0.136E-01 0.473E+00   0.857E-04 0.863E-04 -.106E+00
   -.375E+01 0.375E+01 -.610E+03   0.376E+01 -.376E+01 0.611E+03   -.441E-02 0.439E-02 -.126E+00   -.275E-03 0.275E-03 0.640E-01
   0.653E+01 0.387E+01 -.598E+03   -.653E+01 -.388E+01 0.599E+03   -.569E-02 0.367E-02 -.341E+00   0.303E-03 0.267E-03 0.641E-01
   -.253E+02 0.210E+02 -.195E+04   0.256E+02 -.210E+02 0.194E+04   -.253E+00 -.360E-02 0.574E+01   -.120E-02 0.191E-03 0.210E+00
   0.194E+02 0.194E+02 -.197E+04   -.194E+02 -.194E+02 0.196E+04   0.332E-02 0.332E-02 0.574E+01   0.172E-03 0.172E-03 0.210E+00
   0.222E+00 -.222E+00 0.209E+04   -.221E+00 0.221E+00 -.209E+04   -.869E-03 0.871E-03 -.675E+01   0.265E-04 -.274E-04 -.239E+00
   -.194E+00 -.218E+00 0.209E+04   0.194E+00 0.218E+00 -.209E+04   0.118E-03 0.796E-04 -.674E+01   -.278E-04 -.279E-04 -.239E+00
   0.951E+00 -.933E+00 0.741E+03   -.967E+00 0.884E+00 -.741E+03   0.102E-01 0.299E-01 0.493E+00   0.844E-04 -.886E-04 -.105E+00
   -.951E+00 -.951E+00 0.743E+03   0.927E+00 0.927E+00 -.743E+03   0.166E-01 0.166E-01 0.548E+00   -.913E-04 -.918E-04 -.105E+00
   0.670E+01 -.670E+01 -.593E+03   -.669E+01 0.669E+01 0.593E+03   -.129E-01 0.129E-01 0.793E-01   0.291E-03 -.292E-03 0.656E-01
   -.387E+01 -.653E+01 -.598E+03   0.388E+01 0.653E+01 0.599E+03   -.365E-02 0.568E-02 -.341E+00   -.266E-03 -.303E-03 0.641E-01
   0.210E+02 -.253E+02 -.195E+04   -.210E+02 0.256E+02 0.194E+04   -.360E-02 -.253E+00 0.574E+01   0.191E-03 -.119E-02 0.210E+00
   -.348E+02 -.348E+02 -.185E+04   0.353E+02 0.353E+02 0.184E+04   -.426E+00 -.426E+00 0.540E+01   -.144E-02 -.144E-02 0.213E+00
   0.194E+00 0.218E+00 0.209E+04   -.194E+00 -.218E+00 -.209E+04   -.118E-03 -.813E-04 -.674E+01   0.268E-04 0.282E-04 -.239E+00
   -.222E+00 0.222E+00 0.209E+04   0.221E+00 -.221E+00 -.209E+04   0.871E-03 -.871E-03 -.675E+01   -.273E-04 0.272E-04 -.239E+00
   0.951E+00 0.951E+00 0.743E+03   -.927E+00 -.927E+00 -.743E+03   -.166E-01 -.166E-01 0.548E+00   0.907E-04 0.917E-04 -.105E+00
   -.951E+00 0.933E+00 0.741E+03   0.967E+00 -.884E+00 -.741E+03   -.102E-01 -.299E-01 0.493E+00   -.847E-04 0.886E-04 -.105E+00
   0.387E+01 0.653E+01 -.598E+03   -.388E+01 -.653E+01 0.599E+03   0.367E-02 -.569E-02 -.341E+00   0.267E-03 0.304E-03 0.641E-01
   -.670E+01 0.670E+01 -.593E+03   0.669E+01 -.669E+01 0.593E+03   0.129E-01 -.129E-01 0.793E-01   -.291E-03 0.291E-03 0.656E-01
   0.348E+02 0.348E+02 -.185E+04   -.353E+02 -.353E+02 0.184E+04   0.426E+00 0.426E+00 0.540E+01   0.144E-02 0.144E-02 0.213E+00
   -.210E+02 0.253E+02 -.195E+04   0.210E+02 -.256E+02 0.194E+04   0.367E-02 0.253E+00 0.574E+01   -.189E-03 0.119E-02 0.210E+00
   -.752E+00 -.602E+00 0.555E+03   0.744E+00 0.599E+00 -.555E+03   0.771E-02 0.263E-02 -.514E-01   -.718E-04 -.679E-04 -.769E-01
   0.601E+00 -.601E+00 0.554E+03   -.606E+00 0.606E+00 -.554E+03   0.546E-02 -.545E-02 -.843E-01   0.714E-04 -.710E-04 -.770E-01
   -.156E+00 -.156E+00 0.157E+04   0.158E+00 0.158E+00 -.158E+04   -.229E-02 -.228E-02 0.310E+01   -.264E-04 -.271E-04 -.179E+00
   0.152E+00 -.157E+00 0.157E+04   -.149E+00 0.159E+00 -.158E+04   -.364E-02 -.252E-02 0.310E+01   0.194E-04 -.218E-04 -.179E+00
   -.290E+02 -.111E+02 -.147E+04   0.291E+02 0.111E+02 0.148E+04   -.458E-01 0.124E-01 -.461E+01   -.684E-03 -.302E-03 0.160E+00
   0.988E+01 -.988E+01 -.150E+04   -.985E+01 0.985E+01 0.150E+04   -.315E-01 0.314E-01 -.452E+01   0.286E-03 -.287E-03 0.160E+00
   -.372E+01 -.372E+01 -.451E+03   0.371E+01 0.371E+01 0.451E+03   0.132E-01 0.132E-01 0.208E+00   -.147E-03 -.148E-03 0.468E-01
   0.364E+01 -.384E+01 -.446E+03   -.366E+01 0.383E+01 0.445E+03   0.211E-01 0.845E-02 0.271E+00   0.344E-03 -.138E-03 0.471E-01
   -.601E+00 0.601E+00 0.554E+03   0.606E+00 -.606E+00 -.554E+03   -.546E-02 0.546E-02 -.843E-01   -.709E-04 0.715E-04 -.770E-01
   0.752E+00 0.602E+00 0.555E+03   -.744E+00 -.599E+00 -.555E+03   -.770E-02 -.262E-02 -.514E-01   0.721E-04 0.675E-04 -.769E-01
   -.152E+00 0.157E+00 0.157E+04   0.149E+00 -.159E+00 -.158E+04   0.365E-02 0.252E-02 0.310E+01   -.189E-04 0.218E-04 -.179E+00
   0.156E+00 0.156E+00 0.157E+04   -.158E+00 -.158E+00 -.158E+04   0.229E-02 0.229E-02 0.310E+01   0.271E-04 0.269E-04 -.179E+00
   -.988E+01 0.988E+01 -.150E+04   0.985E+01 -.985E+01 0.150E+04   0.314E-01 -.315E-01 -.452E+01   -.287E-03 0.286E-03 0.160E+00
   0.290E+02 0.111E+02 -.147E+04   -.291E+02 -.111E+02 0.148E+04   0.457E-01 -.124E-01 -.461E+01   0.683E-03 0.303E-03 0.160E+00
   -.364E+01 0.384E+01 -.446E+03   0.366E+01 -.383E+01 0.445E+03   -.211E-01 -.844E-02 0.271E+00   -.345E-03 0.138E-03 0.471E-01
   0.372E+01 0.372E+01 -.451E+03   -.371E+01 -.371E+01 0.451E+03   -.133E-01 -.133E-01 0.208E+00   0.148E-03 0.147E-03 0.468E-01
   0.814E+00 -.814E+00 0.556E+03   -.836E+00 0.836E+00 -.556E+03   0.260E-01 -.260E-01 -.114E+00   0.768E-04 -.779E-04 -.767E-01
   -.602E+00 -.752E+00 0.555E+03   0.599E+00 0.744E+00 -.555E+03   0.263E-02 0.771E-02 -.514E-01   -.676E-04 -.712E-04 -.769E-01
   0.157E+00 -.152E+00 0.157E+04   -.159E+00 0.149E+00 -.158E+04   0.251E-02 0.365E-02 0.310E+01   0.225E-04 -.186E-04 -.179E+00
   -.156E+00 -.156E+00 0.157E+04   0.152E+00 0.152E+00 -.158E+04   0.489E-02 0.489E-02 0.309E+01   -.210E-04 -.209E-04 -.179E+00
   0.361E+02 -.361E+02 -.143E+04   -.360E+02 0.360E+02 0.143E+04   -.596E-01 0.599E-01 -.411E+01   0.937E-03 -.936E-03 0.161E+00
   -.111E+02 -.290E+02 -.147E+04   0.111E+02 0.291E+02 0.148E+04   0.124E-01 -.458E-01 -.461E+01   -.302E-03 -.684E-03 0.160E+00
   0.384E+01 -.364E+01 -.446E+03   -.384E+01 0.366E+01 0.445E+03   -.844E-02 -.211E-01 0.271E+00   0.138E-03 -.345E-03 0.471E-01
   -.386E+01 -.386E+01 -.436E+03   0.389E+01 0.389E+01 0.436E+03   -.338E-01 -.338E-01 0.242E+00   -.334E-03 -.335E-03 0.477E-01
   0.602E+00 0.752E+00 0.555E+03   -.599E+00 -.744E+00 -.555E+03   -.262E-02 -.770E-02 -.514E-01   0.677E-04 0.720E-04 -.769E-01
   -.814E+00 0.814E+00 0.556E+03   0.836E+00 -.836E+00 -.556E+03   -.260E-01 0.260E-01 -.114E+00   -.777E-04 0.783E-04 -.767E-01
   0.156E+00 0.156E+00 0.157E+04   -.152E+00 -.152E+00 -.158E+04   -.489E-02 -.489E-02 0.309E+01   0.203E-04 0.210E-04 -.179E+00
   -.157E+00 0.152E+00 0.157E+04   0.159E+00 -.149E+00 -.158E+04   -.251E-02 -.365E-02 0.310E+01   -.227E-04 0.187E-04 -.179E+00
   0.111E+02 0.290E+02 -.147E+04   -.111E+02 -.291E+02 0.148E+04   -.124E-01 0.457E-01 -.461E+01   0.302E-03 0.684E-03 0.160E+00
   -.361E+02 0.361E+02 -.143E+04   0.360E+02 -.360E+02 0.143E+04   0.598E-01 -.596E-01 -.411E+01   -.937E-03 0.937E-03 0.161E+00
   0.386E+01 0.386E+01 -.436E+03   -.389E+01 -.389E+01 0.436E+03   0.338E-01 0.338E-01 0.242E+00   0.335E-03 0.334E-03 0.477E-01
   -.384E+01 0.364E+01 -.446E+03   0.383E+01 -.366E+01 0.445E+03   0.845E-02 0.211E-01 0.271E+00   -.138E-03 0.344E-03 0.471E-01
   0.404E-02 0.403E-02 0.248E+02   0.295E-12 -.149E-12 -.301E-11   -.355E-02 -.354E-02 -.207E+02   0.463E-05 0.467E-05 -.359E+00

 POSITION                                       TOTAL-FORCE (eV/Angst)
      5.27564      5.27564     16.45220        -0.005629     -0.005630      0.166759
      4.44117      4.44117     16.48214         1.199361      1.199363     -0.100402
      6.11005      6.11005     16.48213        -1.193759     -1.193759     -0.100182
      0.00000      6.33074      7.50000        -0.000007     -0.000083      0.500078
      2.11025      0.00000      7.50000         0.000101     -0.000101      0.503209
      0.00000      0.00000      9.61025         0.005554      0.005554      0.025284
      2.11025      6.33074      9.61025         0.014154      0.003700      0.027238
      0.00144      6.33129     11.73478         0.000205      0.001672      0.047529
      2.11077      8.44047     11.73501        -0.000171      0.000178      0.043704
      0.00169      0.00169     13.84027         0.000253      0.000253     -0.127194
      2.10880      6.32896     13.83842        -0.017052      0.004063     -0.132283
      0.00000      2.11025      7.50000        -0.000101      0.000101      0.503210
      2.11025      4.22049      7.50000         0.000008      0.000083      0.500079
      0.00000      4.22049      9.61025        -0.014151     -0.003698      0.027242
      2.11025      2.11025      9.61025        -0.005552     -0.005552      0.025294
      8.44047      2.11077     11.73501         0.000178     -0.000170      0.043704
      2.10881      4.21994     11.73478        -0.000209     -0.001681      0.047561
      0.00145      4.22227     13.83842         0.017083     -0.004096     -0.132333
      2.10856      2.10856     13.84027        -0.000226     -0.000226     -0.127155
      4.22049      6.33074      7.50000         0.000353     -0.000353      0.505479
      6.33074      0.00000      7.50000        -0.000083     -0.000007      0.500080
      4.22049      0.00000      9.61025        -0.003698     -0.014151      0.027241
      6.33074      6.33074      9.61025        -0.005085     -0.005085      0.028528
      4.22277      6.32846     11.73895        -0.001183      0.001186      0.037600
      6.33129      0.00144     11.73478         0.001672      0.000205      0.047529
      4.22227      0.00145     13.83842        -0.004097      0.017084     -0.132332
      6.34693      6.34693     13.84609         0.017276      0.017274     -0.097427
      4.22049      2.11025      7.50000         0.000083      0.000007      0.500080
      6.33074      4.22049      7.50000        -0.000353      0.000353      0.505480
      4.22049      4.22049      9.61025         0.005087      0.005087      0.028532
      6.33074      2.11025      9.61025         0.003700      0.014154      0.027238
      4.21994      2.10881     11.73478        -0.001681     -0.000208      0.047561
      6.32846      4.22277     11.73895         0.001188     -0.001184      0.037600
      4.20430      4.20430     13.84610        -0.017303     -0.017303     -0.097206
      6.32896      2.10880     13.83842         0.004063     -0.017051     -0.132281
      0.00000      6.33074      9.61025         0.001781      0.000681      0.092127
      2.11025      0.00000      9.61025         0.001795     -0.001794      0.080643
      0.00000      0.00000      7.50000        -0.000843     -0.000841     -0.422469
      2.11025      6.33074      7.50000        -0.001230     -0.000945     -0.422546
      0.00558      6.33223     13.87628         0.005834     -0.002091     -0.136292
      2.11167      8.43956     13.88755        -0.002530      0.002521     -0.127400
      0.00097      0.00097     11.72834         0.001271      0.001271      0.008257
      2.11366      6.33058     11.72929         0.006594      0.000665      0.015280
      0.00000      2.11025      9.61025        -0.001795      0.001796      0.080641
      2.11025      4.22049      9.61025        -0.001777     -0.000677      0.092128
      0.00000      4.22049      7.50000         0.001231      0.000946     -0.422547
      2.11025      2.11025      7.50000         0.000842      0.000842     -0.422468
      8.43956      2.11167     13.88755         0.002522     -0.002531     -0.127400
      2.10467      4.21900     13.87628        -0.005884      0.002088     -0.136347
      8.43757      4.22065     11.72929        -0.006596     -0.000665      0.015279
      2.10928      2.10928     11.72834        -0.001275     -0.001275      0.008253
      4.22049      6.33074      9.61025         0.008123     -0.008121      0.088502
      6.33074      0.00000      9.61025         0.000679      0.001780      0.092128
      4.22049      0.00000      7.50000         0.000945      0.001230     -0.422547
      6.33074      6.33074      7.50000         0.001736      0.001733     -0.422697
      4.22320      6.32804     13.90361        -0.006023      0.006099     -0.112713
      6.33223      0.00558     13.87628        -0.002090      0.005835     -0.136290
      4.22065      8.43757     11.72929        -0.000664     -0.006598      0.015280
      6.33049      6.33049     11.73277        -0.002514     -0.002512      0.023294
      4.22049      2.11025      9.61025        -0.000677     -0.001777      0.092126
      6.33074      4.22049      9.61025        -0.008122      0.008120      0.088504
      4.22049      4.22049      7.50000        -0.001734     -0.001733     -0.422698
      6.33074      2.11025      7.50000        -0.000943     -0.001231     -0.422548
      4.21900      2.10467     13.87628         0.002088     -0.005885     -0.136346
      6.32804      4.22320     13.90361         0.006099     -0.006020     -0.112713
      4.22074      4.22074     11.73277         0.002512      0.002512      0.023255
      6.33058      2.11366     11.72929         0.000666      0.006594      0.015280
    total drift:                               -0.000015     -0.000016      0.089409

  FREE ENERGIE OF THE ION-ELECTRON SYSTEM (eV)
  free  energy   TOTEN  =      -497.99920056 eV

  energy  without entropy=     -497.99920056  energy(sigma->0) =     -497.99920056