 vasp.6.3.0 20Jan22 (build Mar 11 2022 13:48:16) complex

 executed on             LinuxIFC date 2023.12.30  09:03:07

 INCAR:
   SYSTEM = TiO2
   ISMEAR = 0
   SIGMA = 0.05
   EDIFF = 1E-7
   ALGO = ALL
   ISTART = 0
   IBRION = 2
   NSW = 1000
   ISYM = 0
   ISIF = 2
   EDIFFG = -0.01
   DIPOL = 0.5 0.5 0.5
   IDIPOL = 3
   LDIPOL = .TRUE.
   GGA = MK
   LUSE_VDW = .TRUE.
   PARAM1 = 0.1234
   PARAM2 = 0.711357
   ZAB_VDW = -1.8867
   AGGAC = 0.0
   ENCUT = 600
   PREC = Accurate
   LASPH = .TRUE.
   LREAL = .FALSE.
   ISPIN = 1
   NELM = 200
   NELMIN = 8
   NCORE = 19
   KPAR = 1
   LWAVE = .FALSE.
   LCHARG = .FALSE.

 POTCAR:    PAW_PBE C 08Apr2002
 POTCAR:    PAW_PBE O 08Apr2002
 POTCAR:    PAW_PBE Ti_pv 07Sep2000
 POTCAR:    PAW_PBE O 08Apr2002
|               ----> ADVICE to this user running VASP <----                  |
|     You have switched on vdW-DFT.                                           |
|     This routine was written and supplied by Jiri Klimes. We recommend      |
|     that you carefully read and cite the following publications:            |
|       J. Klimes, D.R. Bowler, A. Michelides                                 |
|          J. Phys.: Cond Matt. 22 022201 (2010)                              |
|       J. Klimes, D.R. Bowler, A. Michelides                                 |
|          Phys. Rev. B. 83, 195131 (2011)                                    |
|     and references therein.                                                 |

   TITEL  = PAW_PBE C 08Apr2002
   POMASS =   12.011; ZVAL   =    4.000    mass and valenz
   ENMAX  =  400.000; ENMIN  =  300.000 eV

[...]

   TITEL  = PAW_PBE Ti_pv 07Sep2000
   POMASS =   47.880; ZVAL   =   10.000    mass and valenz
   ENMAX  =  222.335; ENMIN  =  166.751 eV

   TITEL  = PAW_PBE O 08Apr2002
   POMASS =   16.000; ZVAL   =    6.000    mass and valenz
   ENMAX  =  400.000; ENMIN  =  300.000 eV

  PAW_PBE C 08Apr2002                   :
  PAW_PBE O 08Apr2002                   :
  PAW_PBE Ti_pv 07Sep2000               :
  PAW_PBE O 08Apr2002                   :

 POSCAR:  C  O Ti  O
  positions in direct lattice
 exchange correlation table for  LEXCH =       43
   RHO(1)=    0.500       N(1)  =     2000
   RHO(2)=  100.500       N(2)  =     4000

 ion  position               nearest neighbor table
   1  0.500  0.611  0.802-   2 1.18   3 1.18
   2  0.500  0.709  0.808-   1 1.18
   3  0.500  0.513  0.796-   1 1.18
   4  0.750  0.625  0.287-  84 1.96  85 1.96 144 1.96 145 1.96 166 1.99  87 1.99  14 2.96  34 2.96

   5  0.000  0.750  0.287-  87 1.96 107 1.96 106 1.96  86 1.96  88 1.99  35 2.96  15 2.96
   6  0.000  0.625  0.393-  88 1.96  89 1.96 148 1.96 149 1.96  90 1.99  91 1.99  16 2.96  36 2.96

[...]

  83  0.500  0.500  0.709- 237 1.82 242 1.95 183 1.95 243 1.95 182 1.95  73 2.96  53 2.96
  84  0.750  0.750  0.245-   4 1.96  14 1.96
  85  0.750  0.750  0.328-   4 1.96  14 1.96   7 1.99
  86  0.098  0.625  0.287-   5 1.96  35 1.96  44 1.99
  87  0.902  0.625  0.287-   5 1.96  35 1.96   4 1.99
  88  0.000  0.750  0.352-   6 1.96  16 1.96   5 1.99
  89  0.000  0.750  0.435-   6 1.96  16 1.96   9 1.99
  90  0.848  0.625  0.393-   7 1.96  37 1.96   6 1.99
  91  0.152  0.625  0.393-  47 1.96  77 1.96   6 1.99
  92  0.750  0.750  0.458-   8 1.96  18 1.96   7 1.99
  93  0.750  0.750  0.542-   8 1.96  18 1.96  11 2.11
  94  0.098  0.625  0.500-   9 1.96  39 1.96  48 1.99
  95  0.902  0.625  0.500-   9 1.96  39 1.96   8 1.99
  96  1.000  0.750  0.565-  20 1.90  10 1.90   9 2.00
  97  0.000  0.750  0.649-  13 1.82  10 2.02  20 2.02
  98  0.850  0.625  0.607-  10 1.96  11 1.98  41 1.98
  99  0.150  0.625  0.607-  10 1.96  81 1.98  51 1.98
 100  0.750  0.750  0.672-  11 1.87  12 2.10  22 2.10
 101  0.750  0.750  0.756-  22 1.83  12 1.83
 102  0.094  0.625  0.719-  13 1.95  43 1.95  52 2.04
 103  0.906  0.625  0.719-  43 1.95  13 1.95  12 2.04
 104  0.750  0.000  0.245-  14 1.96  24 1.96
 105  0.750  0.000  0.328-  14 1.96  24 1.96  17 1.99
 106  0.098  0.875  0.287-   5 1.96  15 1.96  54 1.99
 107  0.902  0.875  0.287-   5 1.96  15 1.96  14 1.99
 108  0.000  0.000  0.352-  16 1.96  26 1.96  15 1.99
 109  0.000  0.000  0.435-  16 1.96  26 1.96  19 1.99
 110  0.848  0.875  0.393-   7 1.96  17 1.96  16 1.99
 111  0.152  0.875  0.393-  47 1.96  57 1.96  16 1.99
 112  0.750  0.000  0.458-  18 1.96  28 1.96  17 1.99
 113  0.750  0.000  0.542-  18 1.96  28 1.96  21 2.11
 114  0.098  0.875  0.500-   9 1.96  19 1.96  58 1.99
 115  0.902  0.875  0.500-   9 1.96  19 1.96  18 1.99
 116  1.000  1.000  0.565-  20 1.90  30 1.90  19 2.00
 117  0.000  1.000  0.649-  23 1.82  30 2.02  20 2.02
 118  0.850  0.875  0.607-  20 1.96  11 1.98  21 1.98
 119  0.150  0.875  0.607-  20 1.96  51 1.98  61 1.98
 120  0.750  1.000  0.672-  21 1.87  22 2.10  32 2.10
 121  0.750  0.000  0.756-  22 1.83  32 1.83
 122  0.094  0.875  0.719-  13 1.95  23 1.95  62 2.04
 123  0.906  0.875  0.719-  23 1.95  13 1.95  22 2.04
 124  0.750  0.250  0.245-  24 1.96  34 1.96
 125  0.750  0.250  0.328-  24 1.96  34 1.96  27 1.99
 126  0.098  0.125  0.287-  15 1.96  25 1.96  64 1.99
 127  0.902  0.125  0.287-  15 1.96  25 1.96  24 1.99
 128  0.000  0.250  0.352-  26 1.96  36 1.96  25 1.99
 129  0.000  0.250  0.435-  26 1.96  36 1.96  29 1.99
 130  0.848  0.125  0.393-  17 1.96  27 1.96  26 1.99
 131  0.152  0.125  0.393-  57 1.96  67 1.96  26 1.99
 132  0.750  0.250  0.458-  28 1.96  38 1.96  27 1.99
 133  0.750  0.250  0.542-  28 1.96  38 1.96  31 2.11
 134  0.098  0.125  0.500-  19 1.96  29 1.96  68 1.99
 135  0.902  0.125  0.500-  19 1.96  29 1.96  28 1.99
 136  1.000  0.250  0.565-  40 1.90  30 1.90  29 2.00
 137  0.000  0.250  0.649-  33 1.82  40 2.02  30 2.02
 138  0.850  0.125  0.607-  30 1.96  31 1.98  21 1.98
 139  0.150  0.125  0.607-  30 1.96  61 1.98  71 1.98
 140  0.750  0.250  0.672-  31 1.87  32 2.10  42 2.10
 141  0.750  0.250  0.756-  32 1.83  42 1.83
 142  0.094  0.125  0.719-  33 1.95  23 1.95  72 2.04
[...]
 229  0.500  0.500  0.435-  46 1.96  76 1.96  79 1.99
 230  0.348  0.375  0.393-  67 1.96  77 1.96  76 1.99
 231  0.652  0.375  0.393-  27 1.96  37 1.96  76 1.99
 232  0.250  0.500  0.458-  48 1.96  78 1.96  77 1.99
 233  0.250  0.500  0.542-  48 1.96  78 1.96  81 2.11
 234  0.598  0.375  0.500-  69 1.96  79 1.96  38 1.99
 235  0.402  0.375  0.500-  69 1.96  79 1.96  78 1.99
 236  0.500  0.500  0.565-  50 1.90  80 1.90  79 2.00
 237  0.500  0.500  0.649-  83 1.82  80 2.02  50 2.02
 238  0.350  0.375  0.607-  80 1.96  71 1.98  81 1.98
 239  0.650  0.375  0.607-  80 1.96  41 1.98  31 1.98
 240  0.250  0.500  0.672-  81 1.87  52 2.10  82 2.10
 241  0.250  0.500  0.756-  82 1.83  52 1.83
 242  0.594  0.375  0.719-  73 1.95  83 1.95  42 2.04
 243  0.406  0.375  0.719-  73 1.95  83 1.95  82 2.04

IMPORTANT INFORMATION: All symmetrisations will be switched off!
NOSYMM: (Re-)initialisation of all symmetry stuff for point group C_1.

                                     Primitive cell

  volume of cell :    4737.1524

  direct lattice vectors                    reciprocal lattice vectors
    13.061127704  0.000000000  0.000000000     0.076563067  0.000000000  0.000000000
     0.000000000 11.845298948  0.000000000     0.000000000  0.084421677  0.000000000
     0.000000000  0.000000000 30.618975621     0.000000000  0.000000000  0.032659486

  length of vectors
    13.061127704 11.845298948 30.618975621     0.076563067  0.084421677  0.032659486

  position of ions in fractional coordinates (direct lattice)
     0.499999643  0.611022243  0.802272333
     0.499999533  0.709290784  0.807669661
     0.499999769  0.512598027  0.795907217
     0.750000000  0.625000000  0.286715143
     0.000000000  0.750000000  0.286715143
     0.000000000  0.625000000  0.393357571
     0.750000000  0.750000000  0.393357571
     0.750000000  0.625000000  0.500000000
     0.000000000  0.750000000  0.500000000
     0.999999998  0.624999988  0.604441381
     0.750000002  0.749999999  0.610718801
     0.749999962  0.625000031  0.720384367
     0.000000029  0.749999995  0.708502390
     0.750000000  0.875000000  0.286715143
     0.000000000  0.000000000  0.286715143
     0.000000000  0.875000000  0.393357571
     0.750000000  0.000000000  0.393357571
     0.750000000  0.875000000  0.500000000
     0.000000000  0.000000000  0.500000000
     0.999999998  0.874999991  0.604441363
     0.749999995  0.999999992  0.610718798
     0.750000019  0.874999996  0.720384369
     0.999999985  0.999999999  0.708502379
     0.750000000  0.125000000  0.286715143
     0.000000000  0.250000000  0.286715143
     0.000000000  0.125000000  0.393357571
     0.750000000  0.250000000  0.393357571
     0.750000000  0.125000000  0.500000000
     0.000000000  0.250000000  0.500000000
     0.000000008  0.124999993  0.604441368
     0.750000052  0.249999995  0.610718801
     0.750000049  0.125000037  0.720384373
     0.000000032  0.250000004  0.708502384
     0.750000000  0.375000000  0.286715143
     0.000000000  0.500000000  0.286715143
     0.000000000  0.375000000  0.393357571
     0.750000000  0.500000000  0.393357571
     0.750000000  0.375000000  0.500000000
     0.000000000  0.500000000  0.500000000
     0.000000030  0.374999984  0.604441371
     0.750000011  0.499999990  0.610718793
     0.749999944  0.375000011  0.720384381
     0.999999903  0.499999999  0.708502379
     0.250000000  0.625000000  0.286715143
     0.500000000  0.750000000  0.286715143
     0.500000000  0.625000000  0.393357571
     0.250000000  0.750000000  0.393357571
     0.250000000  0.625000000  0.500000000
     0.500000000  0.750000000  0.500000000
     0.500000012  0.625000019  0.604441369
     0.249999999  0.750000028  0.610718786
     0.249999973  0.624999998  0.720384338
     0.499999975  0.750000011  0.708502383
     0.250000000  0.875000000  0.286715143
     0.500000000  0.000000000  0.286715143
     0.500000000  0.875000000  0.393357571
     0.250000000  0.000000000  0.393357571
     0.250000000  0.875000000  0.500000000
     0.500000000  0.000000000  0.500000000
     0.499999979  0.875000004  0.604441376
[...]
     0.500000000  0.500000000  0.435126570
     0.347918341  0.375000000  0.393357571
     0.652081659  0.375000000  0.393357571
     0.250000000  0.500000000  0.458231001
     0.250000000  0.500000000  0.541768999
     0.597918341  0.375000000  0.500000000
     0.402081659  0.375000000  0.500000000
     0.499999990  0.500000007  0.565448291
     0.499999992  0.500000003  0.649157684
     0.350099239  0.375000018  0.607216315
     0.649900746  0.374999991  0.607216319
     0.249999979  0.500000006  0.671768676
     0.249999988  0.499999988  0.755656862
     0.593928030  0.374999995  0.718953079
     0.406071892  0.374999996  0.718953062

  ion indices of the primitive-cell ions
   primitive index   ion index
                 1           1
                 2           2
                 3           3
                 4           4
                 5           5
                 6           6
                 7           7
                 8           8
                 9           9
                10          10
                11          11
                12          12
                13          13
[...]
   6.53056385  0.00000000 15.30948781
   6.53056358 10.36463663 18.50737576
[...]
   6.53056385  5.92264947 13.32312984
   4.54420588  4.44198711 12.04420588
   8.51692182  4.44198711 12.04420588
   3.26528193  5.92264947 14.03056385
   3.26528193  5.92264947 16.58841177
   7.80948781  4.44198711 15.30948781
   5.25163989  4.44198711 15.30948781
   6.53056372  5.92264956 17.31344742
   6.53056375  5.92264951 19.87654330
   4.57269087  4.44198732 18.59234153
   8.48843664  4.44198700 18.59234166
   3.26528165  5.92264954 20.56886872
   3.26528177  5.92264934 23.13743904
   7.75736984  4.44198705 22.01360679
   5.30375683  4.44198706 22.01360628

--------------------------------------- Iteration      FINAL  ---------------------------------------

--------------------OUTCAR has been truncated-------------------------

[...]

--------------------OUTCAR has been truncated-------------------------

  FORCE on cell =-STRESS in cart. coord.  units (eV):
  Direction    XX          YY          ZZ          XY          YZ          ZX
  Alpha Z  4685.03840  4685.03840  4685.03840
  Ewald  964454.86221982811.55732************     0.00152   189.31920    -0.02962
  Hartree************************************     0.00067    88.38794    -0.01899
  E(xc)   -8676.51169 -8669.10136 -8673.11821     0.00000     0.46561    -0.00001
  Local  ************************************    -0.00206  -260.35116     0.04840
  n-local -5519.98649 -5450.97050 -5563.15077    -0.00001    -1.44415    -0.00068
  augment  5264.58191  5238.32005  5268.55180    -0.00000    -0.67993     0.00005
  Kinetic 28912.53481 28388.37834 28949.97938    -0.00011   -15.81527     0.00186
  Fock        0.00000     0.00000     0.00000     0.00000     0.00000     0.00000
  Total       2.90571   -39.73853   -34.75297     0.00001    -0.11776     0.00102
  in kB       0.98276   -13.44018   -11.75399     0.00000    -0.03983     0.00034

 VOLUME and BASIS-vectors are now :
  energy-cutoff  :      600.00
  volume of cell :     4737.15
      direct lattice vectors                 reciprocal lattice vectors
    13.061127704  0.000000000  0.000000000     0.076563067  0.000000000  0.000000000
     0.000000000 11.845298948  0.000000000     0.000000000  0.084421677  0.000000000
     0.000000000  0.000000000 30.618975621     0.000000000  0.000000000  0.032659486

  length of vectors
    13.061127704 11.845298948 30.618975621     0.076563067  0.084421677  0.032659486

 FORCES acting on ions:
    Electron-Ion                     Ewald-Force                    Non-Local-Force
   0.278E-03 0.591E+01 -.159E+04   -.277E-03 -.591E+01 0.159E+04   -.381E-05 -.258E-01 0.343E-01
   0.193E-03 -.269E+03 -.235E+04   -.681E-04 0.332E+03 0.237E+04   -.125E-03 -.631E+02 -.164E+02
   0.112E-02 0.264E+03 -.242E+04   -.123E-02 -.325E+03 0.241E+04   0.981E-04 0.609E+02 0.120E+02
   -.241E+00 -.571E-03 0.377E+04   0.241E+00 0.639E-03 -.377E+04   0.175E-03 0.181E-05 0.356E+00
   -.305E-05 -.633E-01 0.394E+04   0.310E-05 0.634E-01 -.394E+04   0.929E-07 -.180E-04 -.369E+01
   0.459E-04 -.768E-02 0.193E+04   -.502E-04 0.763E-02 -.193E+04   0.128E-05 0.388E-04 -.423E-01
   -.464E+00 -.119E+00 0.192E+04   0.462E+00 0.120E+00 -.192E+04   0.433E-03 0.244E-05 0.200E+00
   -.200E+01 0.219E-01 0.190E+02   0.199E+01 -.238E-01 -.182E+02   0.194E-02 0.199E-03 -.120E+00
   0.150E-02 -.702E+00 0.277E+02   -.167E-02 0.706E+00 -.288E+02   0.792E-04 -.135E-02 0.328E+00
   0.657E-01 -.525E+00 -.184E+04   -.659E-01 0.524E+00 0.184E+04   -.253E-05 -.658E-03 0.501E-01
   -.123E+02 -.572E+01 -.189E+04   0.123E+02 0.572E+01 0.189E+04   -.293E-02 -.291E-02 -.633E-01
   -.843E+02 -.631E+01 -.367E+04   0.843E+02 0.631E+01 0.367E+04   0.126E-01 0.312E-02 -.837E-01
   -.685E-03 -.755E+01 -.374E+04   0.626E-03 0.755E+01 0.374E+04   0.420E-04 -.488E-03 0.922E+00
   -.238E+00 -.920E-01 0.377E+04   0.238E+00 0.924E-01 -.377E+04   0.218E-03 -.282E-04 0.356E+00
   -.295E-05 -.593E-01 0.394E+04   0.301E-05 0.594E-01 -.394E+04   0.103E-06 -.975E-05 -.369E+01
   0.468E-04 -.183E+00 0.193E+04   -.511E-04 0.183E+00 -.193E+04   0.133E-05 0.226E-04 -.424E-01
   -.469E+00 -.140E+00 0.192E+04   0.467E+00 0.140E+00 -.192E+04   0.508E-03 0.240E-04 0.200E+00
   -.221E+01 -.106E+01 0.178E+02   0.220E+01 0.107E+01 -.170E+02   0.137E-02 -.964E-03 -.121E+00
   0.154E-02 -.549E+00 0.265E+02   -.172E-02 0.551E+00 -.275E+02   0.792E-04 -.758E-03 0.328E+00
   0.661E-01 -.353E+01 -.184E+04   -.662E-01 0.353E+01 0.184E+04   -.335E-05 -.103E-02 0.499E-01
   -.850E+01 -.364E+01 -.190E+04   0.850E+01 0.364E+01 0.190E+04   0.170E-02 -.186E-03 -.592E-01
   -.433E+02 -.303E+02 -.371E+04   0.432E+02 0.303E+02 0.371E+04   0.221E-01 0.154E-02 -.113E+00
   -.494E-03 -.563E+01 -.375E+04   0.436E-03 0.563E+01 0.375E+04   0.416E-04 -.317E-03 0.932E+00
   -.231E+00 0.542E-03 0.377E+04   0.231E+00 -.630E-03 -.377E+04   0.220E-03 0.340E-06 0.356E+00
   -.286E-05 0.632E-01 0.394E+04   0.292E-05 -.634E-01 -.394E+04   0.579E-07 0.168E-04 -.369E+01
   0.480E-04 0.772E-02 0.193E+04   -.523E-04 -.772E-02 -.193E+04   0.150E-05 -.237E-05 -.425E-01
   -.435E+00 0.119E+00 0.192E+04   0.433E+00 -.120E+00 -.192E+04   0.434E-03 -.677E-05 0.200E+00
   -.200E+01 -.200E-01 0.167E+02   0.200E+01 0.191E-01 -.160E+02   0.156E-02 0.455E-04 -.122E+00
   0.152E-02 0.736E+00 0.267E+02   -.170E-02 -.739E+00 -.277E+02   0.788E-04 0.382E-03 0.328E+00
   0.651E-01 0.373E+00 -.184E+04   -.652E-01 -.373E+00 0.184E+04   -.117E-05 0.169E-02 0.516E-01
   -.912E+01 0.542E+01 -.189E+04   0.912E+01 -.542E+01 0.189E+04   -.216E-02 0.227E-02 -.611E-01
   -.241E+02 0.488E+01 -.372E+04   0.241E+02 -.488E+01 0.372E+04   0.128E-01 -.166E-02 -.110E+00
   -.437E-03 0.650E+01 -.375E+04   0.376E-03 -.650E+01 0.375E+04   0.422E-04 0.111E-02 0.921E+00
   -.234E+00 0.920E-01 0.377E+04   0.234E+00 -.925E-01 -.377E+04   0.177E-03 0.254E-04 0.356E+00
   -.295E-05 0.593E-01 0.394E+04   0.299E-05 -.594E-01 -.394E+04   0.304E-07 0.830E-05 -.369E+01
   0.473E-04 0.182E+00 0.193E+04   -.517E-04 -.183E+00 -.193E+04   0.127E-05 0.508E-05 -.424E-01
   -.430E+00 0.140E+00 0.192E+04   0.429E+00 -.140E+00 -.192E+04   0.298E-03 -.383E-04 0.200E+00
   -.180E+01 0.105E+01 0.179E+02   0.179E+01 -.106E+01 -.171E+02   0.175E-02 0.916E-03 -.121E+00
   0.147E-02 0.587E+00 0.279E+02   -.165E-02 -.590E+00 -.290E+02   0.789E-04 -.666E-04 0.328E+00
   0.653E-01 0.347E+01 -.184E+04   -.654E-01 -.347E+01 0.184E+04   -.318E-05 0.138E-02 0.508E-01
   -.131E+02 0.406E+01 -.188E+04   0.131E+02 -.406E+01 0.188E+04   -.324E-02 0.607E-03 -.688E-01
   -.569E+02 0.330E+02 -.370E+04   0.569E+02 -.330E+02 0.370E+04   0.114E-01 0.506E-02 -.104E+00
   -.714E-03 0.618E+01 -.374E+04   0.655E-03 -.619E+01 0.374E+04   0.427E-04 0.406E-02 0.912E+00
   0.241E+00 -.572E-03 0.377E+04   -.241E+00 0.640E-03 -.377E+04   -.175E-03 0.182E-05 0.356E+00
   0.105E-04 -.676E-01 0.394E+04   -.102E-04 0.679E-01 -.394E+04   -.154E-07 -.521E-04 -.369E+01
   0.112E-03 0.493E-01 0.193E+04   -.115E-03 -.449E-01 -.193E+04   0.148E-05 -.929E-03 -.426E-01
   0.464E+00 -.119E+00 0.192E+04   -.462E+00 0.120E+00 -.192E+04   -.430E-03 0.232E-05 0.200E+00
   0.200E+01 0.219E-01 0.190E+02   -.199E+01 -.238E-01 -.182E+02   -.192E-02 0.199E-03 -.120E+00
   0.198E-02 -.494E+00 0.323E+02   -.215E-02 0.473E+00 -.333E+02   0.770E-04 0.127E-01 0.309E+00
   0.643E-01 -.211E+01 -.181E+04   -.644E-01 0.215E+01 0.181E+04   -.201E-04 -.348E-01 0.467E-01
   0.124E+02 -.572E+01 -.189E+04   -.124E+02 0.572E+01 0.189E+04   0.254E-02 -.291E-02 -.633E-01
   0.843E+02 -.631E+01 -.367E+04   -.843E+02 0.631E+01 0.367E+04   -.126E-01 0.312E-02 -.837E-01
   0.966E-03 -.724E+02 -.360E+04   -.102E-02 0.724E+02 0.360E+04   0.394E-04 -.606E-02 0.100E+01
   0.238E+00 -.920E-01 0.377E+04   -.238E+00 0.924E-01 -.377E+04   -.218E-03 -.282E-04 0.356E+00
   0.105E-04 -.704E-01 0.394E+04   -.101E-04 0.704E-01 -.394E+04   -.325E-07 -.112E-04 -.369E+01
   0.113E-03 -.171E+00 0.193E+04   -.117E-03 0.173E+00 -.193E+04   0.115E-05 -.661E-03 -.429E-01
   0.469E+00 -.140E+00 0.192E+04   -.467E+00 0.140E+00 -.192E+04   -.505E-03 0.240E-04 0.200E+00
   0.220E+01 -.106E+01 0.178E+02   -.220E+01 0.107E+01 -.170E+02   -.135E-02 -.964E-03 -.121E+00
   0.177E-02 -.892E+00 0.318E+02   -.195E-02 0.895E+00 -.328E+02   0.833E-04 -.668E-03 0.314E+00
   0.635E-01 -.109E+02 -.181E+04   -.636E-01 0.109E+02 0.181E+04   -.391E-04 -.633E-02 0.353E-02
[...]
   -.542E+02 0.107E+00 0.116E+04   0.583E+02 -.108E+00 -.116E+04   -.363E+01 0.119E-02 0.159E+00
   0.542E+02 0.107E+00 0.116E+04   -.583E+02 -.108E+00 -.116E+04   0.363E+01 0.119E-02 0.159E+00
   0.617E+00 0.229E+00 0.513E+03   -.613E+00 -.231E+00 -.517E+03   -.558E-02 0.439E-02 0.424E+01
   0.213E+01 0.907E+00 -.505E+03   -.212E+01 -.911E+00 0.512E+03   -.817E-02 0.594E-02 -.706E+01
   -.569E+02 0.523E+00 0.175E+02   0.616E+02 -.527E+00 -.178E+02   -.520E+01 0.144E-01 0.313E+00
   0.569E+02 0.523E+00 0.175E+02   -.616E+02 -.527E+00 -.178E+02   0.520E+01 0.144E-01 0.313E+00
   0.408E-01 0.151E+01 -.601E+03   -.452E-01 -.151E+01 0.595E+03   0.429E-02 -.479E-02 0.652E+01
   0.270E-01 0.649E+01 -.155E+04   -.299E-01 -.636E+01 0.155E+04   0.289E-02 -.131E+00 0.165E+01
   -.240E+02 0.515E+01 -.111E+04   0.271E+02 -.519E+01 0.110E+04   -.311E+01 0.401E-01 0.870E+00
   0.238E+02 0.515E+01 -.111E+04   -.269E+02 -.519E+01 0.110E+04   0.309E+01 0.401E-01 0.869E+00
   0.236E+02 0.671E+01 -.177E+04   -.237E+02 -.677E+01 0.177E+04   0.102E+00 0.558E-01 -.199E+01
   0.693E+02 0.193E+02 -.268E+04   -.691E+02 -.193E+02 0.270E+04   -.239E+00 -.503E-02 -.205E+02
   -.580E+02 0.507E+02 -.226E+04   0.642E+02 -.509E+02 0.226E+04   -.619E+01 0.136E+00 -.331E+01
   0.580E+02 0.507E+02 -.226E+04   -.642E+02 -.509E+02 0.226E+04   0.619E+01 0.136E+00 -.331E+01
   0.926E-01 0.173E+01 0.937E+02   0.239E-11 -.187E-11 0.109E-10   -.926E-01 -.173E+01 -.937E+02

 POSITION                                       TOTAL-FORCE (eV/Angst)
      6.53056      7.15043     24.56935        -0.000003     -0.009821     -0.000512
      6.53056      8.28719     24.84632        -0.000000     -0.006934      0.003752
      6.53056      6.00929     24.26324        -0.000004      0.007014      0.002803
      9.79585      7.40331      8.77892        -0.000434      0.000055     -3.480100
      0.00000      8.88397      8.77892        -0.000000      0.000105      2.774745
      0.00000      7.40331     12.04421        -0.000003     -0.000031      0.519186
      9.79585      8.88397     12.04421        -0.001502      0.000579     -0.710196
      9.79585      7.40331     15.30949        -0.007820     -0.001679      0.651996
      0.00000      8.88397     15.30949        -0.000095      0.002348     -0.709661
      0.00024      7.40396     18.50777         0.000167     -0.001246      0.001547
      9.79641      8.88493     18.69710        -0.000645     -0.000560     -0.000782
      9.79784      7.40718     22.04862         0.000026     -0.001957     -0.000152
     -0.00002      8.88636     21.69700        -0.000018      0.002142      0.001827
      9.79585     10.36464      8.77892        -0.000509      0.000384     -3.480075
      0.00000      0.00000      8.77892        -0.000000      0.000058      2.774660
      0.00000     10.36464     12.04421        -0.000003      0.000247      0.519357
      9.79585      0.00000     12.04421        -0.001765      0.000312     -0.708585
      9.79585     10.36464     15.30949        -0.005738      0.013053      0.659263
      0.00000      0.00000     15.30949        -0.000095      0.002033     -0.708170
      0.00024     10.36522     18.50853         0.000168      0.000042      0.000436
      9.79576      0.00065     18.70001        -0.000444      0.000750      0.002708
      9.79405     10.36694     22.05900         0.000453      0.004630      0.000934
     -0.00002      0.00083     21.69723        -0.000018      0.002526      0.005473
      9.79585      1.48066      8.77892        -0.000505     -0.000102     -3.479976
      0.00000      2.96132      8.77892        -0.000000     -0.000149      2.774718
      0.00000      1.48066     12.04421        -0.000003     -0.000016      0.519497
      9.79585      2.96132     12.04421        -0.001514     -0.000615     -0.708410
      9.79585      1.48066     15.30949        -0.005729     -0.000961      0.667533
      0.00000      2.96132     15.30949        -0.000094     -0.002170     -0.708248
      0.00024      1.48080     18.50866         0.000161      0.001582      0.000634
      9.79657      2.96147     18.69983        -0.000449      0.000032      0.002330
      9.79491      1.48246     22.05839        -0.000260      0.001973      0.000124
     -0.00002      2.96130     21.69731        -0.000020     -0.000666      0.003678
      9.79585      4.44199      8.77892        -0.000436     -0.000399     -3.480001
      0.00000      5.92265      8.77892        -0.000000     -0.000080      2.774795
      0.00000      4.44199     12.04421        -0.000003     -0.000277      0.519333
      9.79585      5.92265     12.04421        -0.001272     -0.000362     -0.709816
      9.79585      4.44199     15.30949        -0.008165     -0.010551      0.660114
      0.00000      5.92265     15.30949        -0.000094     -0.002162     -0.709769
      0.00024      4.44223     18.50794         0.000164      0.000333      0.001937
      9.79695      5.92302     18.69787        -0.000161     -0.000677      0.000789
      9.79890      4.44417     22.05645        -0.000067     -0.005214      0.001069
     13.06111      5.92446     21.69676        -0.000018     -0.003830     -0.000571
      3.26528      7.40331      8.77892         0.000433      0.000055     -3.480100
      6.53056      8.88397      8.77892         0.000000      0.000276      2.776220
      6.53056      7.40331     12.04421        -0.000002      0.003420      0.523104
      3.26528      8.88397     12.04421         0.001508      0.000579     -0.710197
      3.26528      7.40331     15.30949         0.007962     -0.001679      0.651993
      6.53056      8.88397     15.30949        -0.000093     -0.008402     -0.676454
      6.53081      7.39688     18.52018         0.000165     -0.001201      0.002220
      3.26510      8.88493     18.69710         0.000902     -0.000560     -0.000783
      3.26324      7.40718     22.04862        -0.000047     -0.001962     -0.000149
      6.53054      8.89217     21.68620        -0.000021      0.000690     -0.000562
      3.26528     10.36464      8.77892         0.000508      0.000384     -3.480076
      6.53056      0.00000      8.77892         0.000000      0.000075      2.776315
      6.53056     10.36464     12.04421        -0.000002      0.001709      0.525278
      3.26528      0.00000     12.04421         0.001771      0.000312     -0.708587
      3.26528     10.36464     15.30949         0.005887      0.013053      0.659260
      6.53056      0.00000     15.30949        -0.000096      0.002351     -0.727423
      6.53081     10.36193     18.49948         0.000168      0.001640      0.001576
[...]
      6.53056      5.92265     13.32313        -0.000001      0.000145     -0.120711
      4.54421      4.44199     12.04421         0.420339      0.000492      0.049966
      8.51692      4.44199     12.04421        -0.420343      0.000492      0.049966
      3.26528      5.92265     14.03056        -0.001591      0.002479     -0.097081
      3.26528      5.92265     16.58841         0.000308      0.002114      0.007828
      7.80949      4.44199     15.30949        -0.456318      0.010380      0.085984
      5.25164      4.44199     15.30949         0.456287      0.010380      0.085910
      6.53053      5.92225     17.31863        -0.000016      0.000166      0.000535
      6.53054      5.92360     19.89267        -0.000012      0.000933     -0.001799
      4.57082      4.44262     18.59709        -0.000831      0.000332     -0.000432
      8.49023      4.44262     18.59707         0.000776      0.000329     -0.000447
      3.25517      5.92412     20.56889         0.001293      0.000716     -0.000055
      3.28385      5.92725     23.13630         0.000785      0.002744      0.000613
      7.76280      4.43033     21.98757         0.000109      0.001251     -0.000001
      5.29829      4.43033     21.98757        -0.000132      0.001252      0.000002
    total drift:                                0.000050      0.004077     -0.022804

  FREE ENERGIE OF THE ION-ELECTRON SYSTEM (eV)
  free  energy   TOTEN  =     -1759.45597528 eV

  energy  without entropy=    -1759.45597528  energy(sigma->0) =    -1759.45597528

 d Force = 0.1184894E-04[ 0.127E-05, 0.224E-04]  d Energy = 0.1155891E-04 0.290E-06
 d Force = 0.2007936E+01[ 0.201E+01, 0.201E+01]  d Ewald  = 0.2007935E+01 0.191E-06

 reached required accuracy - stopping structural energy minimisation