 vasp.6.3.0 20Jan22 (build Apr  1 2022 16:44:48) complex
 executed on        HPECrayEX_GCC date 2022.11.13  00:13:19

 INCAR:
   SYSTEM = MgO-rocksalt
   ISMEAR = 0
   SIGMA = 0.05
   EDIFF = 1E-7
   ALGO = ALL
   ISTART = 0
   IBRION = 2
   NSW = 1000
   ISYM = 0
   ISIF = 2
   EDIFFG = -0.02
   DIPOL = 0.5 0.5 0.5
   IDIPOL = 3
   LDIPOL = .TRUE.
   LHFCALC = .TRUE.
   GGA = PE
   IVDW = 13
   VDW_S8 = 1.2007
   VDW_A1 = 0.4009
   VDW_A2 = 5.0293
   ENCUT = 600
   PREC = Accurate
   LASPH = .TRUE.
   LREAL = .FALSE.
   ISPIN = 2
   MAGMOM = 1.0 0.0 0.0 0.0 0.0 0.0 0.0 0.0 0.0 0.0 0.0 0.0 0.0 0.0 0.0 0.0 0.0 0.0 0.0 0.0 0.0 0.0 0.0 0.0 0.0 0.0 0.0 0.0 0.0 0.0 0.0 0.0 0.0 0.0 0.0 0.0 0.0 0.0 0.0 0.0 0.0 0.0 0.0 0.0 0.0 0.0 0.0 0.0 0.0 0.0 0.0 0.0 0.0 0.0 0.0 0.0 0.0 0.0 0.0 0.0 0.0 0.0 0.0 0.0 0.0 0.0
   NELM = 200
   NELMIN = 8
   NCORE = 8
   KPAR = 1
   LWAVE = .FALSE.
   LCHARG = .FALSE.

 POTCAR:    PAW_PBE N 08Apr2002
 POTCAR:    PAW_PBE O 08Apr2002
 POTCAR:    PAW_PBE Mg_pv 13Apr2007
 POTCAR:    PAW_PBE O 08Apr2002
 POTCAR:    PAW_PBE N 08Apr2002
   VRHFIN =N: s2p3

   TITEL  = PAW_PBE N 08Apr2002
   POMASS =   14.001; ZVAL   =    5.000    mass and valenz
   ENMAX  =  400.000; ENMIN  =  300.000 eV

[...]

   TITEL  = PAW_PBE Mg_pv 13Apr2007
   POMASS =   24.305; ZVAL   =    8.000    mass and valenz
   ENMAX  =  403.929; ENMIN  =  302.947 eV

   TITEL  = PAW_PBE O 08Apr2002
   POMASS =   16.000; ZVAL   =    6.000    mass and valenz
   ENMAX  =  400.000; ENMIN  =  300.000 eV

  PAW_PBE N 08Apr2002                   :
  PAW_PBE O 08Apr2002                   :
  PAW_PBE Mg_pv 13Apr2007               :
  PAW_PBE O 08Apr2002                   :

 POSCAR:  N  O Mg  O
  positions in direct lattice
  velocities in cartesian coordinates
|           W    W    AA    RRRRR   N    N  II  N    N   GGGG   !!!           |
|           W    W   A  A   R    R  NN   N  II  NN   N  G    G  !!!           |
|           W    W  A    A  R    R  N N  N  II  N N  N  G       !!!           |
|           W WW W  AAAAAA  RRRRR   N  N N  II  N  N N  G  GGG   !            |
|           WW  WW  A    A  R   R   N   NN  II  N   NN  G    G                |
|           W    W  A    A  R    R  N    N  II  N    N   GGGG   !!!           |
|     Specifying the vdW parameters                                           |
|     VDW_S8 = 1.201                                                          |
|     VDW_A1 = 0.401                                                          |
|     VDW_A2 = 5.029                                                          |
|     in the INCAR file will overwrite the defaults for pbe0. Please make     |
|     sure that is what you intended.                                         |

 ion  position               nearest neighbor table
   1  0.625  0.493  0.756-   2 1.16
   2  0.687  0.585  0.789-   1 1.16
   3  0.250  0.000  0.353-  37 2.09  38 2.09  45 2.09  54 2.09  35 2.09
   4  0.500  0.250  0.353-  37 2.09  38 2.09  46 2.09  53 2.09  36 2.09
   5  0.250  0.250  0.451-  35 2.09  36 2.09  43 2.09  52 2.09  37 2.09  41 2.10
   6  0.500  0.000  0.451-  35 2.09  36 2.09  44 2.09  51 2.09  38 2.09  42 2.09
   7  0.250  0.000  0.550-  42 2.09  41 2.09  49 2.09  58 2.09  35 2.10  39 2.13
   8  0.500  0.250  0.550-  50 2.09  41 2.09  57 2.09  42 2.09  36 2.11  40 2.11
   9  0.250  0.250  0.648-  41 2.08  40 2.09  39 2.09  56 2.09  47 2.09
  10  0.500  0.000  0.647-  40 2.08  48 2.08  42 2.09  39 2.09  55 2.09
  11  0.250  0.500  0.353-  37 2.09  45 2.09  46 2.09  62 2.09  43 2.09
  12  0.500  0.750  0.353-  38 2.09  45 2.09  46 2.09  61 2.09  44 2.09
  13  0.250  0.750  0.451-  35 2.09  43 2.09  44 2.09  60 2.09  45 2.09  49 2.10
  14  0.500  0.500  0.451-  36 2.09  43 2.09  44 2.09  59 2.09  46 2.09  50 2.11
  15  0.251  0.500  0.550-  50 2.09  41 2.09  49 2.09  66 2.09  43 2.11  47 2.13
  16  0.500  0.750  0.550-  50 2.08  49 2.09  42 2.09  65 2.09  44 2.11  48 2.12
  17  0.250  0.750  0.648-  49 2.08  39 2.08  48 2.09  47 2.09  64 2.09
  18  0.499  0.500  0.649-  47 2.08  40 2.09  48 2.09  63 2.11  50 2.11
  19  0.750  0.000  0.353-  38 2.09  53 2.09  54 2.09  61 2.09  51 2.09
  20  0.000  0.250  0.353-  37 2.09  53 2.09  54 2.09  62 2.09  52 2.09
  21  0.750  0.250  0.451-  36 2.09  51 2.09  52 2.09  59 2.09  53 2.09  57 2.10
  22  0.000  0.000  0.451-  35 2.09  51 2.09  52 2.09  60 2.09  54 2.09  58 2.10
  23  0.750  0.000  0.550-  42 2.09  58 2.09  57 2.09  65 2.09  51 2.10  55 2.12
  24  0.000  0.250  0.550-  41 2.08  57 2.09  66 2.09  58 2.09  52 2.10  56 2.13
  25  0.750  0.249  0.648-  55 2.08  57 2.08  40 2.09  56 2.09  63 2.10
  26  0.000  0.000  0.648-  58 2.08  39 2.08  55 2.09  56 2.09  64 2.09
  27  0.750  0.500  0.353-  46 2.09  53 2.09  61 2.09  62 2.09  59 2.09
  28  0.000  0.750  0.353-  45 2.09  54 2.09  61 2.09  62 2.09  60 2.09
  29  0.750  0.750  0.451-  44 2.09  51 2.09  59 2.09  60 2.09  61 2.09  65 2.10
  30  0.000  0.500  0.451-  43 2.09  52 2.09  59 2.09  60 2.09  62 2.09  66 2.10
  31  0.750  0.500  0.550-  50 2.08  57 2.08  65 2.09  66 2.09  59 2.10  63 2.14
  32  0.000  0.750  0.550-  49 2.08  58 2.09  66 2.09  65 2.09  60 2.10  64 2.13
  33  0.750  0.752  0.647-  55 2.07  65 2.08  48 2.09  64 2.09  63 2.10
  34  0.002  0.500  0.648-  47 2.07  66 2.08  56 2.09  64 2.09  63 2.09
  35  0.250  0.000  0.451-   5 2.09   6 2.09  13 2.09  22 2.09   3 2.09   7 2.10
  36  0.500  0.250  0.451-   5 2.09   6 2.09  14 2.09  21 2.09   4 2.09   8 2.11
  37  0.250  0.250  0.353-   3 2.09   4 2.09  11 2.09  20 2.09   5 2.09
  38  0.500  0.000  0.353-   3 2.09   4 2.09  12 2.09  19 2.09   6 2.09
  39  0.250  0.000  0.650-  26 2.08  17 2.08   9 2.09  10 2.09   7 2.13
  40  0.500  0.249  0.649-  10 2.08   9 2.09  25 2.09  18 2.09   8 2.11
  41  0.250  0.250  0.550-  24 2.08   9 2.08  15 2.09   7 2.09   8 2.09   5 2.10
  42  0.500  1.000  0.549-  10 2.09  23 2.09   7 2.09  16 2.09   8 2.09   6 2.09
  43  0.250  0.500  0.451-   5 2.09  13 2.09  14 2.09  30 2.09  11 2.09  15 2.11
  44  0.500  0.750  0.451-   6 2.09  13 2.09  14 2.09  29 2.09  12 2.09  16 2.11
  45  0.250  0.750  0.353-   3 2.09  11 2.09  12 2.09  28 2.09  13 2.09
  46  0.500  0.500  0.353-   4 2.09  11 2.09  12 2.09  27 2.09  14 2.09
  47  0.250  0.500  0.650-  34 2.07  18 2.08  17 2.09   9 2.09  15 2.13
  48  0.500  0.751  0.650-  10 2.08  33 2.09  17 2.09  18 2.09  16 2.12
  49  0.250  0.750  0.550-  17 2.08  32 2.08  15 2.09  16 2.09   7 2.09  13 2.10
  50  0.500  0.500  0.550-  31 2.08  16 2.08   8 2.09  15 2.09  14 2.11  18 2.11
  51  0.750  0.000  0.451-   6 2.09  21 2.09  22 2.09  29 2.09  19 2.09  23 2.10
  52  0.000  0.250  0.451-   5 2.09  21 2.09  22 2.09  30 2.09  20 2.09  24 2.10
  53  0.750  0.250  0.353-   4 2.09  19 2.09  20 2.09  27 2.09  21 2.09
  54  0.000  0.000  0.353-   3 2.09  19 2.09  20 2.09  28 2.09  22 2.09
  55  0.750  0.000  0.650-  33 2.07  25 2.08  26 2.09  10 2.09  23 2.12
  56  0.000  0.250  0.650-  34 2.09  26 2.09  25 2.09   9 2.09  24 2.13
  57  0.750  0.250  0.550-  31 2.08  25 2.08  24 2.09  23 2.09   8 2.09  21 2.10
  58  0.000  0.000  0.550-  26 2.08  32 2.09  24 2.09   7 2.09  23 2.09  22 2.10
  59  0.750  0.500  0.451-  14 2.09  21 2.09  29 2.09  30 2.09  27 2.09  31 2.10
  60  0.000  0.750  0.451-  13 2.09  22 2.09  29 2.09  30 2.09  28 2.09  32 2.10
  61  0.750  0.750  0.353-  12 2.09  19 2.09  27 2.09  28 2.09  29 2.09
  62  0.000  0.500  0.353-  11 2.09  20 2.09  27 2.09  28 2.09  30 2.09
  63  0.752  0.500  0.650-  34 2.09  25 2.10  33 2.10  18 2.11  31 2.14
  64  0.000  0.750  0.650-  33 2.09  34 2.09  26 2.09  17 2.09  32 2.13
  65  0.750  0.750  0.550-  33 2.08  31 2.09  32 2.09  16 2.09  23 2.09  29 2.10
  66  1.000  0.500  0.550-  34 2.08  32 2.09  24 2.09  31 2.09  15 2.09  30 2.10

IMPORTANT INFORMATION: All symmetrisations will be switched off!
NOSYMM: (Re-)initialisation of all symmetry stuff for point group C_1.

                                     Primitive cell

  volume of cell :    1482.1129

  direct lattice vectors                    reciprocal lattice vectors
     8.349111827  0.000000000  0.000000000     0.119773219  0.000000000  0.000000000
     0.000000000  8.349111827  0.000000000     0.000000000  0.119773219  0.000000000
     0.000000000  0.000000000 21.261833870     0.000000000  0.000000000  0.047032632

  length of vectors
     8.349111827  8.349111827 21.261833870     0.119773219  0.119773219  0.047032632

  position of ions in fractional coordinates (direct lattice)
     0.625093391  0.493046357  0.755822630
     0.686723484  0.584606255  0.788922599
     0.250000000  0.000000000  0.352744737
     0.500000000  0.250000000  0.352744737
     0.250000000  0.250000000  0.450914912
     0.500000000  0.000000000  0.450914912
     0.250283150  0.000152331  0.549810749
     0.500015414  0.250306377  0.550007740
     0.250391206  0.249845029  0.647622033
     0.500027322  0.000211694  0.647480929
     0.250000000  0.500000000  0.352744737
     0.500000000  0.750000000  0.352744737
     0.250000000  0.750000000  0.450914912
     0.500000000  0.500000000  0.450914912
     0.250592566  0.500093538  0.549946264
     0.499974352  0.749833473  0.549968507
     0.250373990  0.750444339  0.647619467
     0.498920924  0.499946833  0.649278670
     0.750000000  0.000000000  0.352744737
     0.000000000  0.250000000  0.352744737
     0.750000000  0.250000000  0.450914912
     0.000000000  0.000000000  0.450914912
     0.750066872  0.000257665  0.549696505
     0.000213222  0.250103895  0.549862232
     0.749955069  0.248939014  0.647713207
     0.000469486  0.000183343  0.647525796
     0.750000000  0.500000000  0.352744737
     0.000000000  0.750000000  0.352744737
     0.750000000  0.750000000  0.450914912
     0.000000000  0.500000000  0.450914912
     0.749604678  0.499954512  0.549663435
     0.000315704  0.750105513  0.549807569
     0.750259235  0.751928676  0.647174694
     0.001608777  0.500119021  0.647564969
     0.250000000  0.000000000  0.450914912
     0.500000000  0.250000000  0.450914912
     0.250000000  0.250000000  0.352744737
     0.500000000  0.000000000  0.352744737
     0.250026656  0.000076141  0.649874440
     0.500164456  0.249380034  0.649262115
     0.249889689  0.250175026  0.549567786
     0.500188439  0.999997558  0.549392614
     0.250000000  0.500000000  0.450914912
     0.500000000  0.750000000  0.450914912
     0.250000000  0.750000000  0.352744737
     0.500000000  0.500000000  0.352744737
     0.249852428  0.500194859  0.649984626
     0.500495194  0.750746478  0.649510913
     0.249974132  0.750054791  0.549589083
     0.500440622  0.500124762  0.549938583
     0.750000000  0.000000000  0.450914912
     0.000000000  0.250000000  0.450914912
     0.750000000  0.250000000  0.352744737
     0.000000000  0.000000000  0.352744737
     0.750468014  0.000164007  0.649633433
     0.000118796  0.250179145  0.649870045
     0.750323358  0.250435170  0.549654635
     0.000175338  0.000085432  0.549534486
     0.750000000  0.500000000  0.450914912
     0.000000000  0.750000000  0.450914912
     0.750000000  0.750000000  0.352744737
     0.000000000  0.500000000  0.352744737
     0.751586694  0.500391636  0.650251728
[...]
   0.00000000  0.00000000  9.58727796
   6.26239219  0.00215127 11.68755577
   0.00178021  2.08814539 11.69107943
   6.26145873  2.07841966 13.77157060
   0.00391979  0.00153076 13.76758591
   6.26183387  4.17455591  7.50000000
   0.00000000  6.26183387  7.50000000
   6.26183387  6.26183387  9.58727796
   0.00000000  4.17455591  9.58727796
   6.25853328  4.17417613 11.68685265
   0.00263585  6.26271481 11.68991719
   6.26399825  6.27793660 13.76012083
   0.01343186  4.17554963 13.76841880
   2.08727796  0.00000000  9.58727796
   4.17455591  2.08727796  9.58727796
   2.08727796  2.08727796  7.50000000
   4.17455591  0.00000000  7.50000000
   2.08750051  0.00063571 13.81752238
   4.17592897  2.08210179 13.80450324
   2.08635696  2.08873927 11.68481898
   4.17612921  8.34909143 11.68109449
   2.08727796  4.17455591  9.58727796
   4.17455591  6.26183387  9.58727796
   2.08727796  6.26183387  7.50000000
   4.17455591  4.17455591  7.50000000
   2.08604586  4.17618281 13.81986513
   4.17869034  6.26806630 13.80979312
   2.08706198  6.26229132 11.68527177
   4.17823472  4.17559756 11.69270279
   6.26183387  0.00000000  9.58727796
   0.00000000  2.08727796  9.58727796
   6.26183387  2.08727796  7.50000000
   0.00000000  0.00000000  7.50000000
   6.26574137  0.00136931 13.81239813
   0.00099184  2.08877366 13.81742894
   6.26453363  2.09091124 11.68666553
   0.00146392  0.00071328 11.68411095
   6.26183387  4.17455591  9.58727796
   0.00000000  6.26183387  9.58727796
   6.26183387  6.26183387  7.50000000
   0.00000000  4.17455591  7.50000000
   6.27508136  4.17782572 13.82554422
   0.00059683  6.26292481 13.81631170
   6.26449471  6.25982448 11.68502073
   8.34741837  4.17556687 11.68655364

--------------------------------------- Iteration      FINAL  ---------------------------------------

--------------------OUTCAR has been truncated-------------------------

[...]

--------------------OUTCAR has been truncated-------------------------

  FORCE on cell =-STRESS in cart. coord.  units (eV):
  Direction    XX          YY          ZZ          XY          YZ          ZX
  Alpha Z   933.41042   933.41042   933.41042
  Ewald  163386.91598163464.81145************   107.60687   148.09551   107.47635
  Hartree173798.46042173831.32416************    39.21340    58.39799    46.31287
  E(xc)   -1896.26295 -1896.12881 -1899.11765     0.19524     0.26013     0.15611
  Local  ************************347135.85294  -130.55631  -190.12160  -151.12874
  n-local  -740.09012  -743.94024  -765.42112    -0.61122    -2.52851    -4.14449
  augment   833.57722   834.06008   822.10418    -0.77439    -0.48535     0.57361
  Kinetic  7564.74456  7567.31198  7593.47835   -14.66084   -12.87454     1.77555
  Fock    -2522.11186 -2523.14118 -2518.30683    -0.34585    -0.86739    -1.18708
  vdW        -9.21022    -9.20127    -6.43348     0.00033    -0.00124    -0.02581
  Total     -30.30661   -30.16081    -3.06773     0.06723    -0.12501    -0.19162
  in kB     -32.76172   -32.60411    -3.31624     0.07268    -0.13514    -0.20714

 VOLUME and BASIS-vectors are now :
  energy-cutoff  :      600.00
  volume of cell :     1482.11
      direct lattice vectors                 reciprocal lattice vectors
     8.349111827  0.000000000  0.000000000     0.119773219  0.000000000  0.000000000
     0.000000000  8.349111827  0.000000000     0.000000000  0.119773219  0.000000000
     0.000000000  0.000000000 21.261833870     0.000000000  0.000000000  0.047032632

  length of vectors
     8.349111827  8.349111827 21.261833870     0.119773219  0.119773219  0.047032632

 FORCES acting on ions:
    Electron-Ion                     Ewald-Force                    Non-Local-Force
   0.118E+03 0.180E+03 -.125E+04   -.138E+03 -.210E+03 0.123E+04   0.183E+02 0.270E+02 0.223E+02
   -.114E+03 -.169E+03 -.164E+04   0.142E+03 0.210E+03 0.167E+04   -.236E+02 -.350E+02 -.325E+02
   0.124E+00 -.632E-01 0.214E+04   -.121E+00 0.640E-01 -.213E+04   -.149E-02 -.514E-03 -.683E+01
   0.251E+00 0.168E+00 0.214E+04   -.255E+00 -.169E+00 -.213E+04   0.214E-02 0.279E-03 -.684E+01
   0.492E+00 0.574E+00 0.741E+03   -.482E+00 -.571E+00 -.741E+03   -.529E-02 -.117E-02 0.462E+00
   0.962E+00 -.313E+00 0.742E+03   -.978E+00 0.314E+00 -.743E+03   0.102E-01 -.248E-03 0.394E+00
   0.273E+01 -.778E+00 -.654E+03   -.271E+01 0.782E+00 0.654E+03   -.232E-01 -.602E-02 -.173E+00
   0.439E+01 0.541E+01 -.643E+03   -.441E+01 -.533E+01 0.644E+03   0.187E-01 -.637E-01 -.568E+00
   0.138E+02 0.145E+02 -.205E+04   -.137E+02 -.146E+02 0.204E+04   -.890E-01 0.113E+00 0.581E+01
   0.120E+02 -.493E+01 -.204E+04   -.120E+02 0.500E+01 0.204E+04   0.771E-01 -.577E-01 0.579E+01
   0.127E+00 0.642E-01 0.214E+04   -.123E+00 -.646E-01 -.213E+04   -.239E-02 0.196E-03 -.683E+01
   0.262E+00 -.169E+00 0.214E+04   -.266E+00 0.169E+00 -.213E+04   0.231E-02 -.412E-03 -.684E+01
   0.517E+00 -.563E+00 0.741E+03   -.496E+00 0.569E+00 -.742E+03   -.120E-01 -.387E-02 0.477E+00
   0.149E+01 0.331E+00 0.743E+03   -.150E+01 -.329E+00 -.743E+03   0.912E-02 -.199E-02 0.551E+00
   0.426E+01 0.819E+00 -.647E+03   -.411E+01 -.831E+00 0.648E+03   -.128E+00 0.943E-02 -.220E+00
   0.524E+01 -.546E+01 -.641E+03   -.529E+01 0.539E+01 0.642E+03   0.397E-01 0.649E-01 -.428E+00
   0.146E+02 -.148E+02 -.204E+04   -.145E+02 0.149E+02 0.204E+04   -.305E-01 -.112E+00 0.580E+01
   0.476E+02 0.713E+01 -.197E+04   -.483E+02 -.710E+01 0.196E+04   0.582E+00 -.284E-01 0.501E+01
   -.123E+00 -.739E-01 0.214E+04   0.121E+00 0.751E-01 -.213E+04   0.986E-03 -.808E-03 -.682E+01
   -.250E+00 0.165E+00 0.214E+04   0.254E+00 -.167E+00 -.213E+04   -.240E-02 0.111E-02 -.683E+01
   -.483E+00 0.108E+01 0.743E+03   0.481E+00 -.108E+01 -.743E+03   0.786E-03 -.284E-02 0.507E+00
   -.932E+00 -.288E+00 0.741E+03   0.962E+00 0.300E+00 -.741E+03   -.181E-01 -.690E-02 0.462E+00
   -.281E+01 -.149E+01 -.645E+03   0.278E+01 0.154E+01 0.646E+03   0.291E-01 -.491E-01 -.187E+00
   -.415E+01 0.407E+01 -.651E+03   0.417E+01 -.407E+01 0.651E+03   -.171E-01 -.719E-02 -.209E+00
   -.184E+02 0.348E+02 -.201E+04   0.183E+02 -.355E+02 0.201E+04   0.292E-01 0.554E+00 0.585E+01
   -.111E+02 -.404E+01 -.205E+04   0.112E+02 0.405E+01 0.205E+04   -.749E-01 -.123E-01 0.577E+01
   -.127E+00 0.751E-01 0.214E+04   0.124E+00 -.758E-01 -.213E+04   0.206E-02 0.457E-03 -.682E+01
   -.261E+00 -.165E+00 0.214E+04   0.265E+00 0.167E+00 -.213E+04   -.274E-02 -.140E-02 -.683E+01
   -.502E+00 -.107E+01 0.743E+03   0.494E+00 0.108E+01 -.744E+03   0.474E-02 -.313E-02 0.497E+00
   -.144E+01 0.311E+00 0.742E+03   0.147E+01 -.314E+00 -.742E+03   -.150E-01 0.229E-02 0.511E+00
   -.460E+01 0.153E+01 -.635E+03   0.446E+01 -.158E+01 0.634E+03   0.122E+00 0.430E-01 0.289E+00
   -.498E+01 -.410E+01 -.648E+03   0.502E+01 0.409E+01 0.648E+03   -.398E-01 0.859E-02 -.195E+00
   -.203E+02 -.376E+02 -.199E+04   0.203E+02 0.383E+02 0.198E+04   -.198E-01 -.643E+00 0.593E+01
   -.271E+02 0.488E+01 -.203E+04   0.276E+02 -.489E+01 0.202E+04   -.395E+00 0.133E-01 0.579E+01
   0.470E+00 -.160E+00 0.555E+03   -.467E+00 0.157E+00 -.555E+03   -.452E-02 0.305E-02 -.120E+00
   0.780E+00 0.568E+00 0.556E+03   -.797E+00 -.602E+00 -.556E+03   0.200E-01 0.400E-01 -.155E+00
   0.906E-01 0.105E+00 0.161E+04   -.886E-01 -.107E+00 -.161E+04   -.238E-02 0.201E-02 0.300E+01
   0.173E+00 -.531E-01 0.161E+04   -.177E+00 0.534E-01 -.161E+04   0.514E-02 -.307E-03 0.300E+01
   0.576E+01 -.211E+01 -.156E+04   -.570E+01 0.213E+01 0.157E+04   -.489E-01 -.123E-01 -.453E+01
   0.164E+02 0.268E+02 -.153E+04   -.164E+02 -.266E+02 0.154E+04   -.342E-01 -.162E+00 -.458E+01
   0.243E+01 0.276E+01 -.482E+03   -.239E+01 -.277E+01 0.481E+03   -.363E-01 0.587E-02 0.289E+00
   0.276E+01 -.881E+00 -.479E+03   -.276E+01 0.894E+00 0.478E+03   -.629E-02 -.115E-01 0.266E+00
   0.522E+00 0.183E+00 0.555E+03   -.542E+00 -.191E+00 -.555E+03   0.210E-01 0.949E-02 -.119E+00
   0.851E+00 -.561E+00 0.556E+03   -.865E+00 0.590E+00 -.556E+03   0.166E-01 -.346E-01 -.151E+00
   0.919E-01 -.106E+00 0.161E+04   -.892E-01 0.107E+00 -.161E+04   -.325E-02 -.162E-02 0.300E+01
   0.216E+00 0.533E-01 0.161E+04   -.220E+00 -.537E-01 -.161E+04   0.494E-02 0.410E-03 0.300E+01
   0.166E+02 0.232E+01 -.155E+04   -.165E+02 -.232E+01 0.155E+04   -.747E-01 0.132E-02 -.447E+01
   0.217E+02 -.284E+02 -.152E+04   -.217E+02 0.282E+02 0.153E+04   0.808E-02 0.162E+00 -.454E+01
   0.243E+01 -.283E+01 -.481E+03   -.240E+01 0.285E+01 0.481E+03   -.265E-01 -.209E-01 0.293E+00
   0.457E+01 0.948E+00 -.476E+03   -.460E+01 -.959E+00 0.477E+03   0.272E-01 0.988E-02 -.904E-01
   -.446E+00 -.215E+00 0.556E+03   0.426E+00 0.204E+00 -.556E+03   0.241E-01 0.117E-01 -.752E-01
   -.754E+00 0.537E+00 0.555E+03   0.761E+00 -.552E+00 -.555E+03   -.941E-02 0.174E-01 -.127E+00
   -.912E-01 0.148E+00 0.161E+04   0.890E-01 -.150E+00 -.161E+04   0.265E-02 0.197E-02 0.301E+01
   -.173E+00 -.518E-01 0.161E+04   0.177E+00 0.528E-01 -.161E+04   -.454E-02 -.120E-02 0.300E+01
   -.647E+01 -.599E+01 -.155E+04   0.643E+01 0.605E+01 0.156E+04   0.393E-01 -.541E-01 -.453E+01
   -.128E+02 0.126E+02 -.156E+04   0.128E+02 -.125E+02 0.156E+04   0.954E-02 -.172E-01 -.451E+01
   -.260E+01 0.433E+01 -.477E+03   0.256E+01 -.435E+01 0.476E+03   0.327E-01 0.242E-01 0.272E+00
   -.274E+01 -.871E+00 -.483E+03   0.275E+01 0.873E+00 0.483E+03   -.126E-01 -.256E-02 0.286E+00
   -.521E+00 0.242E+00 0.558E+03   0.529E+00 -.244E+00 -.558E+03   -.779E-02 0.254E-02 -.638E-01
   -.818E+00 -.524E+00 0.556E+03   0.817E+00 0.529E+00 -.556E+03   0.515E-03 -.636E-02 -.110E+00
   -.928E-01 -.149E+00 0.161E+04   0.897E-01 0.150E+00 -.161E+04   0.375E-02 -.153E-02 0.301E+01
   -.216E+00 0.517E-01 0.161E+04   0.220E+00 -.530E-01 -.161E+04   -.456E-02 0.150E-02 0.301E+01
   -.320E+02 0.836E+01 -.147E+04   0.320E+02 -.831E+01 0.148E+04   0.219E-01 -.414E-01 -.393E+01
   -.171E+02 -.132E+02 -.155E+04   0.172E+02 0.132E+02 0.155E+04   -.187E-01 0.334E-01 -.454E+01
   -.262E+01 -.432E+01 -.472E+03   0.259E+01 0.434E+01 0.472E+03   0.250E-01 -.177E-01 0.414E+00
   -.419E+01 0.896E+00 -.478E+03   0.420E+01 -.893E+00 0.478E+03   -.853E-02 -.291E-02 0.348E+00
   0.738E+01 0.113E+02 0.334E+02   -.210E-12 -.114E-12 0.227E-11   -.535E+01 -.827E+01 -.273E+02

 POSITION                                       TOTAL-FORCE (eV/Angst)
      5.21890      4.11612     16.07110        -0.007415     -0.015278      0.006635
      5.73226      4.88051     16.77360        -0.016615      0.001079      0.003148
      2.08728      0.00000      7.50000         0.000644      0.000190      0.428843
      4.17456      2.08728      7.50000        -0.000981     -0.000308      0.428829
      2.08728      2.08728      9.58728         0.003516      0.001176      0.078547
      4.17456      0.00000      9.58728        -0.003934      0.000476      0.080133
      2.08936      0.00111     11.69017        -0.002311     -0.002166     -0.010109
      4.17503      2.09003     11.69459        -0.001363     -0.000001     -0.007871
      2.09043      2.08576     13.76943         0.001522     -0.002406     -0.017431
      4.17469      0.00176     13.76671        -0.001047      0.000545     -0.012762
      2.08728      4.17456      7.50000         0.000889     -0.000132      0.427027
      4.17456      6.26183      7.50000        -0.001024      0.000305      0.428834
      2.08728      6.26183      9.58728         0.006418      0.001838      0.075640
      4.17456      4.17456      9.58728        -0.005482      0.000544      0.085747
      2.09196      4.17520     11.69324         0.002967     -0.001830     -0.008628
      4.17471      6.26012     11.69382        -0.001044     -0.001325     -0.007410
      2.09036      6.26555     13.76975         0.002176     -0.000494     -0.013191
      4.16575      4.17418     13.80533        -0.001608     -0.000358     -0.006884
      6.26183      0.00000      7.50000        -0.000519      0.000262      0.425271
      0.00000      2.08728      7.50000         0.001035     -0.000546      0.427445
      6.26183      2.08728      9.58728        -0.001187      0.000463      0.070636
      0.00000      0.00000      9.58728         0.008575      0.003311      0.071752
      6.26238      0.00228     11.68799        -0.002126      0.001062     -0.007564
      0.00126      2.08853     11.69162        -0.000625     -0.002831     -0.008384
      6.26176      2.07877     13.77119        -0.000700     -0.000310     -0.014344
      0.00389      0.00160     13.76839        -0.000999      0.001063     -0.005018
      6.26183      4.17456      7.50000        -0.000821     -0.000189      0.423728
      0.00000      6.26183      7.50000         0.001133      0.000578      0.426283
      6.26183      6.26183      9.58728        -0.002380      0.003019      0.068563
      0.00000      4.17456      9.58728         0.008397     -0.000790      0.076751
      6.25902      4.17423     11.68747        -0.001339      0.000563     -0.008904
      0.00225      6.26222     11.69048         0.000589      0.001398     -0.008193
      6.26439      6.27783     13.75977         0.000686      0.003771     -0.014132
      0.01332      4.17557     13.76800         0.004794     -0.000474     -0.011793
      2.08728      0.00000      9.58728        -0.002497      0.000615      0.076070
      4.17456      2.08728      9.58728         0.006814      0.013217      0.087538
      2.08728      2.08728      7.50000        -0.000810      0.000649     -0.565887
      4.17456      0.00000      7.50000         0.001753     -0.000115     -0.565948
      2.08769      0.00065     13.81567        -0.002707     -0.001124     -0.012244
      4.17562      2.08191     13.80325         0.000388      0.001354     -0.006415
      2.08656      2.08867     11.68420        -0.002200     -0.000630      0.001484
      4.17597      8.34905     11.68105        -0.000691     -0.000872      0.005368
      2.08728      4.17456      9.58728         0.005186      0.003059      0.093799
      4.17456      6.26183      9.58728         0.005803     -0.011729      0.084392
      2.08728      6.26183      7.50000        -0.001105     -0.000534     -0.565458
      4.17456      4.17456      7.50000         0.001677      0.000123     -0.564845
      2.08655      4.17601     13.81862         0.001750     -0.001355     -0.006222
      4.17851      6.26824     13.80870         0.001504     -0.001621     -0.003457
      2.08732      6.26209     11.68463        -0.001505     -0.002828      0.002771
      4.17746      4.17561     11.69171         0.000947     -0.000123      0.000370
      6.26183      0.00000      9.58728         0.008281      0.003007      0.081122
      0.00000      2.08728      9.58728        -0.003720      0.005907      0.081041
      6.26183      2.08728      7.50000         0.000891      0.000643     -0.563478
      0.00000      0.00000      7.50000        -0.001545     -0.000418     -0.564523
      6.26535      0.00158     13.81132        -0.000668      0.002083     -0.003976
      0.00098      2.08874     13.81654        -0.001984      0.001560     -0.003857
      6.26422      2.09020     11.68581        -0.000195      0.000637      0.001543
      0.00116      0.00069     11.68356        -0.004083     -0.000617      0.005649
      6.26183      4.17456      9.58728        -0.001240      0.001132      0.081536
      0.00000      6.26183      9.58728        -0.000666     -0.002629      0.081088
      6.26183      6.26183      7.50000         0.001275     -0.000509     -0.562913
      0.00000      4.17456      7.50000        -0.001561      0.000503     -0.563000
      6.27514      4.17781     13.82465         0.001846      0.000163     -0.008337
      0.00056      6.26294     13.81539        -0.001667     -0.001648     -0.003620
      6.26417      6.26064     11.68425         0.000066      0.000646      0.002951
      8.34825      4.17549     11.68618         0.000843     -0.000749      0.006264
    total drift:                                0.000938      0.001230      0.001275

  FREE ENERGIE OF THE ION-ELECTRON SYSTEM (eV)
  free  energy   TOTEN  =      -489.94581847 eV

  energy  without entropy=     -489.94581847  energy(sigma->0) =     -489.94581847

 d Force = 0.2413229E-03[ 0.564E-04, 0.426E-03]  d Energy = 0.2442587E-03-0.294E-05
 d Force =-0.1161426E+02[-0.116E+02,-0.116E+02]  d Ewald  =-0.1161426E+02-0.174E-06

 Conjugate gradient step on ions:
 trial-energy change:   -0.000244  1 .order   -0.000241   -0.000426   -0.000056
  (g-gl).g = 0.498E-03      g.g   = 0.514E-03  gl.gl    = 0.242E-02
 g(Force)  = 0.514E-03   g(Stress)= 0.000E+00 ortho     = 0.160E-04
 gamma     =   0.20605
 trial     =   0.82344
 opt step  =   0.94240  (harmonic =   0.94888) maximal distance =0.00084510
 next E    =  -489.945823   (d E  =  -0.00025)

 reached required accuracy - stopping structural energy minimisation