 vasp.6.3.0 20Jan22 (build Apr  1 2022 16:44:48) complex
 executed on        HPECrayEX_GCC date 2022.11.03  12:19:55

 INCAR:
   SYSTEM = MgO-rocksalt
   ISMEAR = 0
   SIGMA = 0.05
   EDIFF = 1E-7
   ALGO = ALL
   ISTART = 0
   IBRION = 2
   NSW = 1000
   ISYM = 0
   ISIF = 2
   EDIFFG = -0.01
   DIPOL = 0.5 0.5 0.5
   IDIPOL = 3
   LDIPOL = .TRUE.
   GGA = RE
   AGGAC = 0.0
   LUSE_VDW = .TRUE.
   LASPH = .TRUE.
   ENCUT = 600
   PREC = Accurate
   LASPH = .TRUE.
   LREAL = .FALSE.
   ISPIN = 1
   NELM = 200
   NELMIN = 8
   NCORE = 8
   KPAR = 1
   LWAVE = .FALSE.
   LCHARG = .FALSE.

 POTCAR:    PAW_PBE C 08Apr2002
 POTCAR:    PAW_PBE H 15Jun2001
 POTCAR:    PAW_PBE Mg_pv 13Apr2007
 POTCAR:    PAW_PBE O 08Apr2002
|               ----> ADVICE to this user running VASP <----                  |
|     You have switched on vdW-DFT.                                           |
|     This routine was written and supplied by Jiri Klimes. We recommend      |
|     that you carefully read and cite the following publications:            |
|       J. Klimes, D.R. Bowler, A. Michelides                                 |
|          J. Phys.: Cond Matt. 22 022201 (2010)                              |
|       J. Klimes, D.R. Bowler, A. Michelides                                 |
|          Phys. Rev. B. 83, 195131 (2011)                                    |
|     and references therein.                                                 |

   TITEL  = PAW_PBE C 08Apr2002
   POMASS =   12.011; ZVAL   =    4.000    mass and valenz
   ENMAX  =  400.000; ENMIN  =  300.000 eV

   TITEL  = PAW_PBE H 15Jun2001
   POMASS =    1.000; ZVAL   =    1.000    mass and valenz
   ENMAX  =  250.000; ENMIN  =  200.000 eV

   TITEL  = PAW_PBE Mg_pv 13Apr2007
   POMASS =   24.305; ZVAL   =    8.000    mass and valenz
   ENMAX  =  403.929; ENMIN  =  302.947 eV

   TITEL  = PAW_PBE O 08Apr2002
   POMASS =   16.000; ZVAL   =    6.000    mass and valenz
   ENMAX  =  400.000; ENMIN  =  300.000 eV

  PAW_PBE C 08Apr2002                   :
  PAW_PBE H 15Jun2001                   :
  PAW_PBE Mg_pv 13Apr2007               :
  PAW_PBE O 08Apr2002                   :

 POSCAR:  C  H Mg  O
  positions in direct lattice
 exchange correlation table for  LEXCH =       40
   RHO(1)=    0.500       N(1)  =     2000
   RHO(2)=  100.500       N(2)  =     4000

 ion  position               nearest neighbor table
   1  0.446  0.498  0.809-  11 1.10  10 1.10   9 1.10   2 1.54
   2  0.279  0.453  0.829-  13 1.10  12 1.10  14 1.10   1 1.54
   3  0.446  0.998  0.809-  17 1.10  16 1.10  15 1.10   4 1.54
   4  0.279  0.953  0.829-  19 1.10  18 1.10  20 1.10   3 1.54
   5  0.789  0.748  0.809-  23 1.10  22 1.10  21 1.10   6 1.54
   6  0.956  0.705  0.829-  25 1.10  24 1.10  26 1.10   5 1.54
   7  0.789  0.248  0.809-  29 1.10  28 1.10  27 1.10   8 1.54
   8  0.956  0.205  0.829-  31 1.10  30 1.10  32 1.10   7 1.54
   9  0.444  0.604  0.779-   1 1.10
  10  0.501  0.404  0.782-   1 1.10
  11  0.521  0.524  0.849-   1 1.10
  12  0.204  0.430  0.789-   2 1.10
  13  0.225  0.546  0.857-   2 1.10
  14  0.281  0.346  0.858-   2 1.10
  15  0.444  0.104  0.779-   3 1.10
  16  0.501  0.904  0.782-   3 1.10
  17  0.521  0.024  0.849-   3 1.10
  18  0.204  0.930  0.789-   4 1.10
  19  0.225  0.046  0.857-   4 1.10
  20  0.281  0.846  0.858-   4 1.10
  21  0.738  0.656  0.779-   5 1.10
  22  0.789  0.858  0.782-   5 1.10
  23  0.712  0.764  0.849-   5 1.10
  24  0.033  0.686  0.789-   6 1.10
  25  0.957  0.597  0.857-   6 1.10
  26  0.008  0.798  0.858-   6 1.10
  27  0.738  0.156  0.779-   7 1.10
  28  0.789  0.358  0.782-   7 1.10
  29  0.712  0.264  0.849-   7 1.10
  30  0.033  0.186  0.789-   8 1.10
  31  0.957  0.097  0.857-   8 1.10
  32  0.008  0.298  0.858-   8 1.10
  33  0.000  0.750  0.350-  65 2.14  67 2.14  68 2.14  75 2.14  84 2.14
  34  0.250  0.000  0.350-  66 2.14  67 2.14  68 2.14  76 2.14  83 2.14
  35  0.000  0.000  0.450-  67 2.14  66 2.14  65 2.14  73 2.14  82 2.14  71 2.14
  36  0.250  0.750  0.450-  68 2.14  66 2.14  65 2.14  74 2.14  81 2.14  72 2.14
  37  1.000  0.750  0.550-  71 2.14  88 2.14  72 2.14  79 2.14  65 2.15  69 2.16
  38  0.250  1.000  0.550-  72 2.14  80 2.14  71 2.14  87 2.14  66 2.15  70 2.16
  39  0.000  1.000  0.650-  71 2.13  69 2.14  70 2.14  77 2.14  86 2.14
  40  0.250  0.750  0.649-  72 2.13  69 2.14  78 2.14  70 2.14  85 2.14
  41  0.000  0.250  0.350-  73 2.14  67 2.14  75 2.14  76 2.14  92 2.14
  42  0.250  0.500  0.350-  74 2.14  68 2.14  75 2.14  76 2.14  91 2.14
  43  0.000  0.500  0.450-  75 2.14  73 2.14  74 2.14  65 2.14  90 2.14  79 2.14
  44  0.250  0.250  0.450-  76 2.14  73 2.14  74 2.14  66 2.14  89 2.14  80 2.14
  45  1.000  0.250  0.550-  96 2.14  80 2.14  71 2.14  79 2.14  73 2.15  77 2.16
  46  0.250  0.500  0.550-  95 2.14  79 2.14  72 2.14  80 2.14  74 2.15  78 2.16
  47  0.000  0.500  0.649-  79 2.13  78 2.13  94 2.14  69 2.14  77 2.14
  48  0.250  0.250  0.649-  80 2.13  77 2.14  78 2.14  70 2.14  93 2.14
  49  0.500  0.750  0.350-  81 2.14  68 2.14  83 2.14  84 2.14  91 2.14
  50  0.750  0.000  0.350-  82 2.14  67 2.14  83 2.14  84 2.14  92 2.14
  51  0.500  0.000  0.450-  83 2.14  81 2.14  82 2.14  66 2.14  89 2.14  87 2.14
  52  0.750  0.750  0.450-  84 2.14  81 2.14  82 2.14  65 2.14  90 2.14  88 2.14
  53  0.500  0.750  0.550-  95 2.14  72 2.14  88 2.14  87 2.14  81 2.15  85 2.16
  54  0.750  1.000  0.550-  88 2.14  96 2.14  87 2.14  71 2.14  82 2.15  86 2.16
  55  0.500  0.000  0.649-  87 2.13  93 2.14  85 2.14  70 2.14  86 2.14
  56  0.750  0.750  0.649-  88 2.13  86 2.14  69 2.14  85 2.14  94 2.14
  57  0.500  0.250  0.350-  89 2.14  83 2.14  76 2.14  91 2.14  92 2.14
  58  0.750  0.500  0.350-  90 2.14  84 2.14  75 2.14  91 2.14  92 2.14
  59  0.500  0.500  0.450-  91 2.14  81 2.14  89 2.14  90 2.14  74 2.14  95 2.14
  60  0.750  0.250  0.450-  92 2.14  82 2.14  89 2.14  90 2.14  73 2.14  96 2.14
[...]
  82  0.750  0.000  0.450-  50 2.14  35 2.14  51 2.14  52 2.14  60 2.14  54 2.15
  83  0.500  0.000  0.350-  51 2.14  49 2.14  50 2.14  34 2.14  57 2.14
  84  0.750  0.750  0.350-  52 2.14  49 2.14  50 2.14  33 2.14  58 2.14
  85  0.500  0.750  0.651-  55 2.14  63 2.14  56 2.14  40 2.14  53 2.16
  86  0.750  1.000  0.651-  56 2.14  64 2.14  39 2.14  55 2.14  54 2.16
  87  0.500  1.000  0.550-  55 2.13  54 2.14  38 2.14  61 2.14  53 2.14  51 2.14
  88  0.750  0.750  0.550-  56 2.13  54 2.14  37 2.14  53 2.14  62 2.14  52 2.14
  89  0.500  0.250  0.450-  57 2.14  51 2.14  44 2.14  59 2.14  60 2.14  61 2.15
  90  0.750  0.500  0.450-  58 2.14  52 2.14  43 2.14  59 2.14  60 2.14  62 2.15
  91  0.500  0.500  0.350-  59 2.14  49 2.14  57 2.14  58 2.14  42 2.14
  92  0.750  0.250  0.350-  60 2.14  50 2.14  57 2.14  58 2.14  41 2.14
  93  0.500  0.250  0.651-  55 2.14  63 2.14  64 2.14  48 2.14  61 2.16
  94  0.750  0.500  0.651-  47 2.14  56 2.14  64 2.14  63 2.14  62 2.16
  95  0.500  0.500  0.550-  63 2.13  61 2.14  53 2.14  62 2.14  46 2.14  59 2.14
  96  0.750  0.250  0.550-  64 2.13  54 2.14  45 2.14  61 2.14  62 2.14  60 2.14

IMPORTANT INFORMATION: All symmetrisations will be switched off!
NOSYMM: (Re-)initialisation of all symmetry stuff for point group C_1.

                                     Primitive cell

  volume of cell :    1563.6717

  direct lattice vectors                    reciprocal lattice vectors
     8.546113626  0.000000000  0.000000000     0.117012252  0.000000000  0.000000000
     0.000000000  8.546113626  0.000000000     0.000000000  0.117012252  0.000000000
     0.000000000  0.000000000 21.409585219     0.000000000  0.000000000  0.046708051

  length of vectors
     8.546113626  8.546113626 21.409585219     0.117012252  0.117012252  0.046708051

  position of ions in fractional coordinates (direct lattice)
     0.445873305  0.498428899  0.808513357
     0.279409221  0.452721914  0.829296181
     0.445873305  0.998428899  0.808513357
     0.279409221  0.952721914  0.829296181
     0.789483106  0.748428899  0.808513357
     0.956498725  0.704780268  0.829296181
     0.789483106  0.248428899  0.808513357
     0.956498725  0.204780268  0.829296181
     0.444163686  0.603718808  0.779066105
     0.501256051  0.403552280  0.781866183
     0.521263772  0.523543096  0.848794058
     0.203843873  0.430254268  0.788796362
     0.225337028  0.546271035  0.857026016
     0.281126686  0.346451975  0.858117273
     0.444163686  0.103718808  0.779066105
     0.501256051  0.903552280  0.781866183
     0.521263772  0.023543096  0.848794058
     0.203843873  0.930254268  0.788796362
     0.225337028  0.046271035  0.857026016
     0.281126686  0.846451975  0.858117273
     0.738318726  0.656390354  0.779066105
     0.788958551  0.858285835  0.781866183
     0.711635948  0.764374601  0.848794058
     0.033174059  0.686455146  0.788796362
     0.956552057  0.596728257  0.857026016
     0.008146326  0.797671468  0.858117273
     0.738318726  0.156390354  0.779066105
     0.788958551  0.358285835  0.781866183
     0.711635948  0.264374601  0.848794058
     0.033174059  0.186455146  0.788796362
     0.956552057  0.096728257  0.857026016
     0.008146326  0.297671468  0.858117273
     0.000000000  0.750000000  0.350310383
     0.250000000  0.000000000  0.350310383
     0.000000000  0.000000000  0.450103461
     0.250000000  0.750000000  0.450103461
     0.999987036  0.750052346  0.550348201
     0.249976425  0.999998619  0.550358544
     0.000067508  0.999956011  0.649633237
     0.249908042  0.749983498  0.649496341
     0.000000000  0.250000000  0.350310383
     0.250000000  0.500000000  0.350310383
     0.000000000  0.500000000  0.450103461
     0.250000000  0.250000000  0.450103461
     0.999984168  0.249960129  0.550348399
     0.249996751  0.500003680  0.550417442
     0.000142237  0.500023721  0.649457229
     0.249841038  0.249984312  0.649488902
     0.500000000  0.750000000  0.350310383
     0.750000000  0.000000000  0.350310383
     0.500000000  0.000000000  0.450103461
     0.750000000  0.750000000  0.450103461
     0.499980204  0.749930308  0.550418266
     0.749981736  0.999995356  0.550362142
     0.499954964  0.000000282  0.649478483
     0.750094972  0.750127387  0.649491240
     0.500000000  0.250000000  0.350310383
     0.750000000  0.500000000  0.350310383
     0.500000000  0.500000000  0.450103461
     0.750000000  0.250000000  0.450103461
[...]
     0.750000000  0.000000000  0.450103461
     0.500000000  0.000000000  0.350310383
     0.750000000  0.750000000  0.350310383
     0.500006552  0.750076549  0.651428281
     0.750012937  0.999977968  0.651472901
     0.499985018  0.999997950  0.550095492
     0.750013019  0.750077373  0.550119365
     0.500000000  0.250000000  0.450103461
     0.750000000  0.500000000  0.450103461
     0.500000000  0.500000000  0.350310383
     0.750000000  0.250000000  0.350310383
     0.500008141  0.249880889  0.651422638
     0.750201729  0.499988733  0.651390134
     0.500002201  0.499993907  0.550191356
     0.750030220  0.249919224  0.550119622

  ion indices of the primitive-cell ions
   primitive index   ion index
                 1           1
                 2           2
                 3           3
[...]
   4.27305681  4.27305681  7.50000000
   6.40958522  2.13652841  7.50000000
   4.27312639  2.13551047 13.94668848
   6.41130921  4.27296052 13.94599259
   4.27307562  4.27300474 11.77936873
   6.40984349  2.13583809 11.77783292

--------------------------------------- Iteration      FINAL  ---------------------------------------

--------------------OUTCAR has been truncated-------------------------

[...]

--------------------OUTCAR has been truncated-------------------------

  FORCE on cell =-STRESS in cart. coord.  units (eV):
  Direction    XX          YY          ZZ          XY          YZ          ZX
  Alpha Z  1028.85264  1028.85264  1028.85264
  Ewald  135066.20545134974.47517************     0.22866   -61.73569     0.50328
  Hartree146051.04247145996.98903************     0.19111   -41.13593     0.42496
  E(xc)   -2720.16074 -2719.66989 -2722.00524    -0.00344     0.22435    -0.00243
  Local  ************************290271.88664    -0.44100   107.62164    -1.00936
  n-local -2917.15449 -2919.18783 -2937.99715     0.00761    -0.86733     0.00603
  augment  1078.85059  1078.71774  1070.20963     0.00020    -0.05191     0.00077
  Kinetic  8056.87026  8047.67784  8082.67848    -0.01205    -4.43534     0.13054
  Fock        0.00000     0.00000     0.00000     0.00000     0.00000     0.00000
  Total     -28.91780   -29.41865    -2.89905    -0.02890    -0.38020     0.05381
  in kB     -29.62990   -30.14309    -2.97044    -0.02961    -0.38956     0.05514

 VOLUME and BASIS-vectors are now :
  energy-cutoff  :      600.00
  volume of cell :     1563.67
      direct lattice vectors                 reciprocal lattice vectors
     8.546113626  0.000000000  0.000000000     0.117012252  0.000000000  0.000000000
     0.000000000  8.546113626  0.000000000     0.000000000  0.117012252  0.000000000
     0.000000000  0.000000000 21.409585219     0.000000000  0.000000000  0.046708051

  length of vectors
     8.546113626  8.546113626 21.409585219     0.117012252  0.117012252  0.046708051

 FORCES acting on ions:
    Electron-Ion                     Ewald-Force                    Non-Local-Force
   -.356E+02 -.220E+02 -.786E+03   0.354E+02 0.220E+02 0.786E+03   0.174E+00 -.735E-01 -.108E+00
   0.373E+02 0.218E+02 -.760E+03   -.373E+02 -.218E+02 0.760E+03   0.168E-01 -.458E-01 0.844E-01
   -.356E+02 -.220E+02 -.786E+03   0.354E+02 0.220E+02 0.786E+03   0.174E+00 -.735E-01 -.108E+00
   0.373E+02 0.218E+02 -.760E+03   -.373E+02 -.218E+02 0.760E+03   0.166E-01 -.462E-01 0.847E-01
   0.354E+02 -.219E+02 -.787E+03   -.352E+02 0.220E+02 0.787E+03   -.168E+00 -.680E-01 -.122E+00
   -.371E+02 0.218E+02 -.761E+03   0.371E+02 -.218E+02 0.761E+03   -.199E-01 -.441E-01 0.869E-01
   0.354E+02 -.219E+02 -.787E+03   -.352E+02 0.220E+02 0.787E+03   -.167E+00 -.685E-01 -.122E+00
   -.371E+02 0.218E+02 -.761E+03   0.371E+02 -.218E+02 0.761E+03   -.194E-01 -.444E-01 0.868E-01
   0.113E+02 -.380E+02 -.188E+03   -.129E+02 0.425E+02 0.185E+03   0.156E+01 -.456E+01 0.298E+01
   -.243E+02 0.263E+02 -.187E+03   0.271E+02 -.298E+02 0.184E+03   -.280E+01 0.349E+01 0.340E+01
   -.328E+02 -.155E+02 -.217E+03   0.364E+02 0.173E+02 0.221E+03   -.368E+01 -.175E+01 -.392E+01
   0.331E+02 0.153E+02 -.170E+03   -.367E+02 -.170E+02 0.166E+03   0.367E+01 0.170E+01 0.394E+01
   0.247E+02 -.259E+02 -.199E+03   -.275E+02 0.293E+02 0.203E+03   0.282E+01 -.341E+01 -.353E+01
   -.109E+02 0.381E+02 -.199E+03   0.125E+02 -.426E+02 0.202E+03   -.157E+01 0.456E+01 -.296E+01
   0.113E+02 -.380E+02 -.188E+03   -.129E+02 0.425E+02 0.185E+03   0.156E+01 -.456E+01 0.299E+01
   -.243E+02 0.263E+02 -.187E+03   0.271E+02 -.298E+02 0.184E+03   -.280E+01 0.349E+01 0.340E+01
   -.328E+02 -.155E+02 -.217E+03   0.364E+02 0.173E+02 0.221E+03   -.368E+01 -.175E+01 -.392E+01
   0.331E+02 0.153E+02 -.170E+03   -.367E+02 -.170E+02 0.166E+03   0.367E+01 0.170E+01 0.394E+01
   0.247E+02 -.259E+02 -.199E+03   -.275E+02 0.293E+02 0.203E+03   0.282E+01 -.341E+01 -.353E+01
   -.109E+02 0.380E+02 -.199E+03   0.125E+02 -.426E+02 0.202E+03   -.157E+01 0.456E+01 -.296E+01
   0.243E+02 0.264E+02 -.188E+03   -.271E+02 -.300E+02 0.184E+03   0.280E+01 0.351E+01 0.339E+01
   -.116E+02 -.378E+02 -.188E+03   0.132E+02 0.423E+02 0.185E+03   -.159E+01 -.454E+01 0.300E+01
   0.328E+02 -.158E+02 -.217E+03   -.366E+02 0.176E+02 0.221E+03   0.371E+01 -.179E+01 -.388E+01
   -.333E+02 0.155E+02 -.170E+03   0.370E+02 -.172E+02 0.166E+03   -.370E+01 0.173E+01 0.391E+01
   0.112E+02 0.379E+02 -.199E+03   -.128E+02 -.425E+02 0.202E+03   0.160E+01 0.454E+01 -.297E+01
   -.245E+02 -.260E+02 -.199E+03   0.273E+02 0.294E+02 0.203E+03   -.280E+01 -.342E+01 -.354E+01
   0.243E+02 0.265E+02 -.188E+03   -.271E+02 -.300E+02 0.184E+03   0.280E+01 0.351E+01 0.339E+01
   -.116E+02 -.378E+02 -.188E+03   0.132E+02 0.423E+02 0.185E+03   -.159E+01 -.454E+01 0.300E+01
   0.328E+02 -.158E+02 -.217E+03   -.366E+02 0.176E+02 0.221E+03   0.370E+01 -.179E+01 -.388E+01
   -.333E+02 0.155E+02 -.170E+03   0.370E+02 -.172E+02 0.166E+03   -.370E+01 0.173E+01 0.391E+01
   0.112E+02 0.379E+02 -.199E+03   -.128E+02 -.425E+02 0.202E+03   0.160E+01 0.454E+01 -.297E+01
   -.245E+02 -.260E+02 -.199E+03   0.273E+02 0.294E+02 0.203E+03   -.280E+01 -.342E+01 -.354E+01
   0.323E-01 -.188E-02 0.203E+04   -.338E-01 0.218E-02 -.203E+04   0.106E-02 -.249E-03 -.640E+01
   -.272E-01 0.291E-03 0.203E+04   0.286E-01 0.158E-04 -.203E+04   -.982E-03 -.264E-03 -.640E+01
   0.299E-01 0.157E-01 0.802E+03   -.442E-01 -.100E-01 -.802E+03   0.985E-02 -.379E-02 0.452E+00
   -.700E-02 0.124E-01 0.802E+03   0.197E-01 -.675E-02 -.802E+03   -.860E-02 -.375E-02 0.452E+00
   -.882E+00 -.111E+00 -.421E+03   0.849E+00 0.113E+00 0.421E+03   0.271E-01 0.154E-02 -.237E+00
   0.938E+00 -.169E-01 -.421E+03   -.917E+00 0.176E-01 0.421E+03   -.185E-01 -.252E-03 -.249E+00
   -.655E+01 0.339E+00 -.164E+04   0.662E+01 -.325E+00 0.164E+04   -.680E-01 -.157E-01 0.560E+01
   0.662E+01 0.274E+00 -.164E+04   -.669E+01 -.258E+00 0.164E+04   0.682E-01 -.142E-01 0.559E+01
   0.323E-01 0.257E-02 0.203E+04   -.337E-01 -.226E-02 -.203E+04   0.106E-02 -.275E-03 -.640E+01
   -.278E-01 0.511E-03 0.203E+04   0.291E-01 -.202E-03 -.203E+04   -.971E-03 -.266E-03 -.640E+01
   0.257E-01 0.143E-01 0.802E+03   -.390E-01 -.909E-02 -.802E+03   0.910E-02 -.342E-02 0.455E+00
   -.428E-02 0.160E-01 0.802E+03   0.170E-01 -.108E-01 -.802E+03   -.868E-02 -.348E-02 0.452E+00
   -.882E+00 0.789E-01 -.421E+03   0.850E+00 -.780E-01 0.421E+03   0.269E-01 -.333E-02 -.237E+00
   0.955E+00 -.124E-01 -.421E+03   -.922E+00 0.130E-01 0.421E+03   -.293E-01 -.327E-03 -.246E+00
   -.640E+01 0.256E+00 -.164E+04   0.648E+01 -.250E+00 0.164E+04   -.750E-01 -.596E-02 0.559E+01
   0.669E+01 0.348E+00 -.164E+04   -.675E+01 -.344E+00 0.164E+04   0.582E-01 -.561E-02 0.560E+01
   -.319E-01 -.957E-03 0.203E+04   0.336E-01 0.146E-02 -.203E+04   -.125E-02 -.407E-03 -.640E+01
   0.270E-01 0.663E-03 0.203E+04   -.285E-01 -.220E-03 -.203E+04   0.113E-02 -.362E-03 -.640E+01
   -.354E-01 0.155E-01 0.802E+03   0.466E-01 -.860E-02 -.802E+03   -.792E-02 -.458E-02 0.473E+00
   0.823E-02 0.343E-02 0.802E+03   -.172E-01 0.522E-02 -.802E+03   0.640E-02 -.569E-02 0.472E+00
   0.758E+00 0.332E-01 -.420E+03   -.730E+00 -.284E-01 0.420E+03   -.265E-01 -.441E-02 -.325E+00
   -.778E+00 0.768E-02 -.419E+03   0.757E+00 -.654E-02 0.420E+03   0.184E-01 -.123E-02 -.332E+00
   0.220E+01 -.219E+00 -.163E+04   -.221E+01 0.210E+00 0.162E+04   0.773E-02 0.105E-01 0.563E+01
   -.237E+01 -.221E+00 -.163E+04   0.238E+01 0.208E+00 0.162E+04   -.119E-01 0.125E-01 0.563E+01
   -.319E-01 0.206E-02 0.203E+04   0.336E-01 -.176E-02 -.203E+04   -.125E-02 -.253E-03 -.640E+01
   0.274E-01 0.809E-03 0.203E+04   -.289E-01 -.369E-03 -.203E+04   0.112E-02 -.358E-03 -.640E+01
   -.281E-01 0.176E-01 0.802E+03   0.382E-01 -.102E-01 -.802E+03   -.714E-02 -.489E-02 0.471E+00
   0.558E-02 0.256E-01 0.802E+03   -.146E-01 -.186E-01 -.802E+03   0.648E-02 -.457E-02 0.472E+00
[...]
   -.245E-01 -.384E-03 0.153E+04   0.265E-01 0.918E-04 -.153E+04   -.275E-02 0.423E-03 0.358E+01
   0.207E-01 -.210E-02 0.153E+04   -.225E-01 0.190E-02 -.153E+04   0.248E-02 0.287E-03 0.358E+01
   0.326E+01 0.851E-01 -.124E+04   -.322E+01 -.855E-01 0.125E+04   -.485E-01 -.185E-02 -.496E+01
   -.319E+01 0.467E-01 -.124E+04   0.314E+01 -.430E-01 0.125E+04   0.508E-01 -.441E-02 -.495E+01
   0.547E+00 -.495E-02 -.309E+03   -.538E+00 0.410E-02 0.309E+03   -.126E-01 0.163E-02 0.276E+00
   -.593E+00 -.216E-01 -.310E+03   0.587E+00 0.253E-01 0.309E+03   0.691E-02 -.415E-02 0.269E+00
   0.380E-02 0.163E-01 0.601E+03   -.736E-02 -.249E-01 -.601E+03   0.480E-02 0.116E-01 -.923E-01
   -.231E-01 0.167E-01 0.601E+03   0.261E-01 -.266E-01 -.601E+03   -.396E-02 0.132E-01 -.922E-01
   -.238E-01 -.304E-03 0.153E+04   0.257E-01 0.328E-04 -.153E+04   -.263E-02 0.392E-03 0.358E+01
   0.206E-01 0.113E-02 0.153E+04   -.224E-01 -.157E-02 -.153E+04   0.246E-02 0.622E-03 0.358E+01
   0.326E+01 -.902E-02 -.124E+04   -.322E+01 0.134E-01 0.125E+04   -.486E-01 -.194E-02 -.496E+01
   -.328E+01 0.433E-01 -.124E+04   0.324E+01 -.396E-01 0.125E+04   0.430E-01 -.429E-02 -.496E+01
   0.533E+00 0.153E-01 -.310E+03   -.522E+00 -.182E-01 0.309E+03   -.148E-01 0.349E-02 0.274E+00
   -.610E+00 -.103E-02 -.310E+03   0.606E+00 -.711E-04 0.309E+03   0.556E-02 0.174E-02 0.269E+00
   0.739E-02 0.367E+00 0.146E+02   -.853E-13 0.000E+00 -.136E-11   -.558E-02 -.369E+00 -.146E+02

 POSITION                                       TOTAL-FORCE (eV/Angst)
      3.77205      4.35011     17.37534         0.000763     -0.005110     -0.001710
      2.56359      3.64118     18.00677        -0.000063     -0.000429      0.002843
      3.77206      0.07706     17.37535         0.000359     -0.004826     -0.001494
      2.56360      7.91424     18.00679         0.000415     -0.000799      0.002792
      6.82611      6.48550     17.36131        -0.000877     -0.001806      0.000541
      8.02794      5.77756     18.00607        -0.001191     -0.000464      0.003849
      6.82609      2.21244     17.36131        -0.000724     -0.001820      0.000831
      8.02793      1.50451     18.00607        -0.000873     -0.000678      0.003721
      3.46342      5.23024     16.79782        -0.002634      0.000744     -0.002055
      4.31309      3.67274     16.70070         0.002747     -0.000935      0.003072
      4.48151      4.68659     18.14177         0.003838      0.002412      0.001692
      1.85556      3.30980     17.23616        -0.000945     -0.000816      0.002740
      2.02348      4.30796     18.69066         0.004117     -0.002240     -0.001008
      2.87516      2.75821     18.57908         0.001433     -0.004301      0.003083
      3.46347      0.95717     16.79776        -0.002829      0.000632     -0.001622
      4.31306      7.94582     16.70067         0.003103     -0.001449      0.003035
      4.48151      0.41353     18.14178         0.003988      0.002461      0.001653
      1.85561      7.58289     17.23613        -0.001231     -0.001042      0.002773
      2.02346      0.03488     18.69067         0.003989     -0.001860     -0.000929
      2.87512      7.03126     18.57915         0.001453     -0.003811      0.002512
      6.28731      5.80479     16.68832        -0.004426     -0.002047      0.000894
      7.14154      7.36082     16.77971         0.001443      0.000469      0.000546
      6.11233      6.82988     18.12010        -0.001475      0.000582      0.000336
      0.19512      5.44187     17.24248         0.004256     -0.003346      0.002387
      7.70999      4.89770     18.57981         0.000052     -0.003771      0.002152
      0.01765      6.44658     18.69120        -0.003859     -0.002244     -0.001355
      6.28730      1.53172     16.68833        -0.004442     -0.001873      0.000899
      7.14158      3.08774     16.77972         0.001176      0.000642      0.000336
      6.11233      2.55683     18.12011        -0.001368      0.000547      0.000085
      0.19512      1.16882     17.24248         0.004046     -0.003340      0.002496
      7.70997      0.62467     18.57981         0.000046     -0.004043      0.002263
      0.01766      2.17351     18.69119        -0.003935     -0.002063     -0.001290
      0.00000      6.40959      7.50000        -0.000387      0.000110      0.320923
      2.13653      0.00000      7.50000         0.000307      0.000098      0.320871
      0.00000      0.00000      9.63653        -0.004387      0.001881      0.021860
      2.13653      6.40959      9.63653         0.003993      0.001880      0.021008
     -0.00036      6.41055     11.78423        -0.005343      0.003974     -0.006602
      2.13688      0.00122     11.78400         0.002461      0.000494     -0.004416
      0.00066      0.00280     13.90224         0.004011     -0.001178     -0.005835
      2.13509      6.41211     13.90194        -0.000467      0.001846     -0.003923
      0.00000      2.13653      7.50000        -0.000387      0.000091      0.320937
      2.13653      4.27306      7.50000         0.000295      0.000099      0.320845
      0.00000      4.27306      9.63653        -0.004102      0.001773      0.020664
      2.13653      2.13653      9.63653         0.003987      0.001809      0.021052
     -0.00036      2.13802     11.78424        -0.005319     -0.002388     -0.006739
      2.13717      4.27429     11.78409         0.002888      0.000329     -0.007048
      0.00106      4.27549     13.90187        -0.000150      0.000866     -0.001911
      2.13544      2.13905     13.90195        -0.002164     -0.001582     -0.003973
      4.27306      6.40959      7.50000         0.000382      0.000100      0.322301
      6.40959      0.00000      7.50000        -0.000381      0.000085      0.322404
      4.27306      0.00000      9.63653         0.003223      0.002380      0.027855
      6.40959      6.40959      9.63653        -0.002564      0.002957      0.028149
      4.27408      6.41120     11.78692         0.001307      0.000401     -0.007608
      6.40892      0.00164     11.78699        -0.002556     -0.000061     -0.007462
      4.27142      0.00313     13.91097         0.000878      0.001037     -0.003275
      6.41081      6.41287     13.91178        -0.002187      0.000005     -0.003474
      4.27306      2.13653      7.50000         0.000381      0.000050      0.322290
      6.40959      4.27306      7.50000        -0.000369      0.000085      0.322277
      4.27306      4.27306      9.63653         0.002895      0.002471      0.027567
      6.40959      2.13653      9.63653        -0.002566      0.002430      0.028171
[...]
      6.40959      0.00000      9.63653        -0.001153      0.003380      0.059452
      4.27306      0.00000      7.50000        -0.000805      0.000150     -0.396274
      6.40959      6.40959      7.50000         0.000689      0.000112     -0.396296
      4.27141      6.41311     13.95028        -0.001431     -0.002228     -0.001163
      6.41084      0.00337     13.94999         0.000140     -0.000708      0.000305
      4.27285      0.00148     11.77996        -0.002985      0.000795      0.000353
      6.41000      6.41118     11.78002         0.001341     -0.000475      0.001720
      4.27306      2.13653      9.63653         0.001216      0.002970      0.059636
      6.40959      4.27306      9.63653        -0.000976      0.003362      0.059540
      4.27306      4.27306      7.50000        -0.000770      0.000141     -0.396233
      6.40959      2.13653      7.50000         0.000684      0.000207     -0.396296
      4.27140      2.13944     13.95027        -0.001391      0.002448     -0.001082
      6.41029      4.27641     13.95024         0.002606     -0.000566     -0.001675
      4.27282      4.27461     11.77983        -0.003503      0.000629      0.002867
      6.40993      2.13816     11.78003         0.001651      0.000657      0.001594
    total drift:                                0.001806     -0.001868      0.028038

  FREE ENERGIE OF THE ION-ELECTRON SYSTEM (eV)
  free  energy   TOTEN  =      -378.05616745 eV

  energy  without entropy=     -378.05616745  energy(sigma->0) =     -378.05616745

 d Force = 0.6863804E-04[ 0.274E-04, 0.110E-03]  d Energy = 0.7244189E-04-0.380E-05
 d Force = 0.7142999E+01[ 0.714E+01, 0.714E+01]  d Ewald  = 0.7142998E+01 0.494E-06

 Conjugate gradient step on ions:
 trial-energy change:   -0.000072  1 .order   -0.000069   -0.000110   -0.000027
  (g-gl).g = 0.180E-03      g.g   = 0.176E-03  gl.gl    = 0.193E-03
 g(Force)  = 0.176E-03   g(Stress)= 0.000E+00 ortho     =-0.295E-05
 gamma     =   0.93333
 trial     =   0.63458
 opt step  =   0.79113  (harmonic =   0.84510) maximal distance =0.00150565
 next E    =  -378.056171   (d E  =  -0.00008)

 reached required accuracy - stopping structural energy minimisation