 vasp.6.3.0 20Jan22 (build Apr  1 2022 16:44:48) complex
 executed on        HPECrayEX_GCC date 2022.11.13  13:56:22

 INCAR:
   SYSTEM = MgO-rocksalt
   ISMEAR = 0
   SIGMA = 0.05
   EDIFF = 1E-6
   ALGO = ALL
   ISTART = 0
   IBRION = -1
   NSW = 0
   ISYM = 0
   DIPOL = 0.5 0.5 0.5
   IDIPOL = 3
   LDIPOL = .TRUE.
   LHFCALC = .TRUE.
   GGA = B5
   AEXX = 0.2
   AGGAX = 0.72
   AGGAC = 0.81
   ALDAC = 0.19
   IVDW = 1
   VDW_S6 = 1.05
   VDW_C6 = 0.63 0.70
   VDW_R0 = 1.243 1.342
   ENCUT = 600
   PREC = Accurate
   LASPH = .TRUE.
   LREAL = .FALSE.
   ISPIN = 1
   NELM = 200
   NELMIN = 8
   NCORE = 8
   KPAR = 1
   LWAVE = .FALSE.
   LCHARG = .FALSE.

 POTCAR:    PAW_PBE Mg_pv 13Apr2007
 POTCAR:    PAW_PBE O 08Apr2002
 POTCAR:    PAW_PBE Mg_pv 13Apr2007
   VRHFIN =Mg: p6s2

   TITEL  = PAW_PBE Mg_pv 13Apr2007
   POMASS =   24.305; ZVAL   =    8.000    mass and valenz
   ENMAX  =  403.929; ENMIN  =  302.947 eV

   TITEL  = PAW_PBE O 08Apr2002
   POMASS =   16.000; ZVAL   =    6.000    mass and valenz
   ENMAX  =  400.000; ENMIN  =  300.000 eV

  PAW_PBE Mg_pv 13Apr2007               :
  PAW_PBE O 08Apr2002                   :

 POSCAR: Mg  O
  positions in direct lattice
 exchange correlation table for  LEXCH =       12
   RHO(1)=    0.500       N(1)  =     2000
   RHO(2)=  100.500       N(2)  =     4000

 ion  position               nearest neighbor table
   1  0.250  0.000  0.352-  33 2.11  35 2.11  36 2.11  43 2.11  52 2.11
   2  0.500  0.250  0.352-  34 2.11  35 2.11  36 2.11  44 2.11  51 2.11
   3  0.250  0.250  0.451-  35 2.11  34 2.11  33 2.11  41 2.11  50 2.11  39 2.12
   4  0.500  0.000  0.451-  36 2.11  34 2.11  33 2.11  42 2.11  49 2.11  40 2.12
   5  0.250  0.000  0.550-  56 2.11  40 2.11  47 2.11  39 2.11  33 2.12  37 2.13
   6  0.500  0.250  0.550-  40 2.11  39 2.11  55 2.11  48 2.11  34 2.12  38 2.16
   7  0.248  0.250  0.649-  54 2.09  37 2.11  39 2.11  45 2.11  38 2.13
   8  0.500  0.998  0.649-  46 2.09  40 2.11  53 2.11  37 2.11  38 2.13
   9  0.250  0.500  0.352-  41 2.11  35 2.11  43 2.11  44 2.11  60 2.11
  10  0.500  0.750  0.352-  42 2.11  36 2.11  43 2.11  44 2.11  59 2.11
  11  0.250  0.750  0.451-  43 2.11  41 2.11  42 2.11  33 2.11  58 2.11  47 2.11
  12  0.500  0.500  0.451-  44 2.11  41 2.11  42 2.11  34 2.11  57 2.11  48 2.12
  13  0.250  0.500  0.550-  64 2.11  39 2.11  47 2.11  48 2.11  41 2.12  45 2.13
  14  0.500  0.750  0.550-  47 2.11  63 2.11  40 2.11  48 2.11  42 2.12  46 2.13
  15  0.250  0.750  0.649-  62 2.11  47 2.11  37 2.11  45 2.11  46 2.11
  16  0.500  0.503  0.648-  46 2.08  48 2.10  45 2.11  61 2.11  38 2.14
  17  0.750  0.000  0.352-  49 2.11  36 2.11  51 2.11  52 2.11  59 2.11
  18  0.000  0.250  0.352-  50 2.11  35 2.11  51 2.11  52 2.11  60 2.11
  19  0.750  0.250  0.451-  51 2.11  49 2.11  50 2.11  34 2.11  57 2.11  55 2.12
  20  0.000  0.000  0.451-  52 2.11  49 2.11  50 2.11  33 2.11  58 2.11  56 2.11
  21  0.750  0.000  0.550-  56 2.11  40 2.11  63 2.11  55 2.11  49 2.12  53 2.13
  22  0.000  0.250  0.550-  64 2.11  56 2.11  39 2.11  55 2.11  50 2.12  54 2.13
  23  0.752  0.250  0.649-  54 2.09  53 2.11  55 2.11  61 2.11  38 2.13
  24  1.000  1.000  0.649-  62 2.11  56 2.11  53 2.11  37 2.11  54 2.11
  25  0.750  0.500  0.352-  57 2.11  51 2.11  44 2.11  59 2.11  60 2.11
  26  0.000  0.750  0.352-  58 2.11  52 2.11  43 2.11  59 2.11  60 2.11
  27  0.750  0.750  0.451-  59 2.11  49 2.11  57 2.11  58 2.11  42 2.11  63 2.11
  28  0.000  0.500  0.451-  60 2.11  50 2.11  57 2.11  58 2.11  41 2.11  64 2.12
  29  0.750  0.500  0.550-  64 2.11  55 2.11  63 2.11  48 2.11  57 2.12  61 2.13
  30  0.000  0.750  0.550-  56 2.11  47 2.11  63 2.11  64 2.11  58 2.12  62 2.14
  31  0.750  0.750  0.649-  62 2.11  63 2.11  53 2.11  61 2.11  46 2.11
  32  0.000  0.501  0.649-  62 2.11  64 2.11  45 2.11  61 2.11  54 2.11
  33  0.250  0.000  0.451-   1 2.11   3 2.11   4 2.11  11 2.11  20 2.11   5 2.12
  34  0.500  0.250  0.451-   2 2.11   3 2.11   4 2.11  12 2.11  19 2.11   6 2.12
  35  0.250  0.250  0.352-   3 2.11   2 2.11   1 2.11   9 2.11  18 2.11
  36  0.500  0.000  0.352-   4 2.11   2 2.11   1 2.11  10 2.11  17 2.11
  37  0.250  0.000  0.650-   7 2.11   8 2.11  15 2.11  24 2.11   5 2.13
  38  0.500  0.250  0.651-   7 2.13  23 2.13   8 2.13  16 2.14   6 2.16
  39  0.250  0.250  0.550-   6 2.11   7 2.11  13 2.11   5 2.11  22 2.11   3 2.12
  40  0.500  0.001  0.550-   8 2.11   6 2.11   5 2.11  21 2.11  14 2.11   4 2.12
  41  0.250  0.500  0.451-   9 2.11   3 2.11  11 2.11  12 2.11  28 2.11  13 2.12
  42  0.500  0.750  0.451-  10 2.11   4 2.11  11 2.11  12 2.11  27 2.11  14 2.12
  43  0.250  0.750  0.352-  11 2.11   9 2.11  10 2.11   1 2.11  26 2.11
  44  0.500  0.500  0.352-  12 2.11   9 2.11  10 2.11   2 2.11  25 2.11
  45  0.250  0.500  0.650-  16 2.11   7 2.11  32 2.11  15 2.11  13 2.13
  46  0.500  0.750  0.650-  16 2.08   8 2.09  31 2.11  15 2.11  14 2.13
  47  0.250  0.750  0.550-  15 2.11  13 2.11  14 2.11  30 2.11   5 2.11  11 2.11
  48  0.500  0.500  0.550-  16 2.10   6 2.11  29 2.11  13 2.11  14 2.11  12 2.12
  49  0.750  0.000  0.451-  17 2.11   4 2.11  19 2.11  20 2.11  27 2.11  21 2.12
  50  0.000  0.250  0.451-  18 2.11   3 2.11  19 2.11  20 2.11  28 2.11  22 2.12
  51  0.750  0.250  0.352-  19 2.11  17 2.11  18 2.11   2 2.11  25 2.11
  52  0.000  0.000  0.352-  20 2.11  17 2.11  18 2.11   1 2.11  26 2.11
  53  0.750  0.000  0.650-  23 2.11   8 2.11  31 2.11  24 2.11  21 2.13
  54  1.000  0.250  0.650-  23 2.09   7 2.09  32 2.11  24 2.11  22 2.13
  55  0.750  0.250  0.550-   6 2.11  23 2.11  29 2.11  21 2.11  22 2.11  19 2.12
  56  0.000  0.000  0.550-   5 2.11  21 2.11  22 2.11  24 2.11  30 2.11  20 2.11
  57  0.750  0.500  0.451-  25 2.11  19 2.11  12 2.11  27 2.11  28 2.11  29 2.12
  58  0.000  0.750  0.451-  26 2.11  20 2.11  11 2.11  27 2.11  28 2.11  30 2.12
  59  0.750  0.750  0.352-  27 2.11  17 2.11  25 2.11  26 2.11  10 2.11
  60  0.000  0.500  0.352-  28 2.11  18 2.11  25 2.11  26 2.11   9 2.11
  61  0.750  0.500  0.650-  16 2.11  23 2.11  32 2.11  31 2.11  29 2.13
  62  1.000  0.750  0.650-  31 2.11  15 2.11  32 2.11  24 2.11  30 2.14
  63  0.750  0.750  0.550-  31 2.11  29 2.11  14 2.11  30 2.11  21 2.11  27 2.11
  64  1.000  0.500  0.550-  29 2.11  13 2.11  32 2.11  22 2.11  30 2.11  28 2.12

IMPORTANT INFORMATION: All symmetrisations will be switched off!
NOSYMM: (Re-)initialisation of all symmetry stuff for point group C_1.

                                     Primitive cell

  volume of cell :    1519.6535

  direct lattice vectors                    reciprocal lattice vectors
     8.440582262  0.000000000  0.000000000     0.118475239  0.000000000  0.000000000
     0.000000000  8.440582262  0.000000000     0.000000000  0.118475239  0.000000000
     0.000000000  0.000000000 21.330436697     0.000000000  0.000000000  0.046881366

  length of vectors
     8.440582262  8.440582262 21.330436697     0.118475239  0.118475239  0.046881366

  position of ions in fractional coordinates (direct lattice)
     0.250000000  0.000000000  0.351610242
     0.500000000  0.250000000  0.351610242
     0.250000000  0.250000000  0.450536747
     0.500000000  0.000000000  0.450536747
     0.249947257  0.000140630  0.550034656
     0.499999962  0.250114921  0.549873617
     0.247651587  0.249886623  0.648653702
     0.500000010  0.997796352  0.648513959
     0.250000000  0.500000000  0.351610242
     0.500000000  0.750000000  0.351610242
     0.250000000  0.750000000  0.450536747
     0.500000000  0.500000000  0.450536747
     0.249818180  0.500105696  0.550057229
     0.499999954  0.750344835  0.549815484
     0.249550492  0.750422058  0.648546005
     0.500000003  0.503365070  0.647999862
     0.750000000  0.000000000  0.351610242
     0.000000000  0.250000000  0.351610242
     0.750000000  0.250000000  0.450536747
     0.000000000  0.000000000  0.450536747
     0.750052717  0.000140607  0.550034637
     0.000000043  0.250149466  0.549909637
     0.752348417  0.249886561  0.648653600
     0.999999966  0.999884218  0.648582637
     0.750000000  0.500000000  0.351610242
     0.000000000  0.750000000  0.351610242
     0.750000000  0.750000000  0.450536747
     0.000000000  0.500000000  0.450536747
     0.750181805  0.500105729  0.550057181
     0.000000004  0.750147592  0.549979124
     0.750449460  0.750422116  0.648545999
     0.000000041  0.500549134  0.648586276
     0.250000000  0.000000000  0.450536747
     0.500000000  0.250000000  0.450536747
     0.250000000  0.250000000  0.351610242
     0.500000000  0.000000000  0.351610242
     0.250216116  0.000284277  0.649751112
     0.499999995  0.250475063  0.651274809
     0.250424837  0.250246866  0.549841910
     0.499999947  0.000573106  0.549787672
     0.250000000  0.500000000  0.450536747
     0.500000000  0.750000000  0.450536747
     0.250000000  0.750000000  0.351610242
     0.500000000  0.500000000  0.351610242
     0.250194782  0.500035773  0.650078286
     0.499999992  0.750297672  0.649771502
     0.250039447  0.750036329  0.549674223
     0.500000007  0.499790244  0.549780438
     0.750000000  0.000000000  0.450536747
     0.000000000  0.250000000  0.450536747
     0.750000000  0.250000000  0.351610242
     0.000000000  0.000000000  0.351610242
     0.749783882  0.000284228  0.649751073
     0.999999991  0.250260896  0.649879826
     0.749575172  0.250246927  0.549841906
     0.000000042  0.000172639  0.549660549
     0.750000000  0.500000000  0.450536747
     0.000000000  0.750000000  0.450536747
     0.750000000  0.750000000  0.351610242
     0.000000000  0.500000000  0.351610242
     0.749805250  0.500035835  0.650078209
     0.999999956  0.750189015  0.650098344
     0.749960496  0.750036271  0.549674251
     0.999999976  0.500087726  0.549717201

  ion indices of the primitive-cell ions
   primitive index   ion index
                 1           1
                 2           2
                 3           3
                 4           4
                 5           5
                 6           6
                 7           7
                 8           8
                 9           9
                10          10
                11          11
                12          12
                13          13
                14          14
                15          15
                16          16
                17          17
                18          18
                19          19
                20          20
                21          21
                22          22
                23          23
                24          24
                25          25
                26          26
                27          27
                28          28
                29          29
                30          30
                31          31
                32          32
                33          33
                34          34
                35          35
                36          36
                37          37
                38          38
                39          39
                40          40
                41          41
                42          42
                43          43
                44          44
[...]
   0.50000000  0.75000000  0.45053675
   0.25000000  0.75000000  0.35161024
   0.50000000  0.50000000  0.35161024
   0.25019478  0.50003577  0.65007829
   0.49999999  0.75029767  0.64977150
   0.25003945  0.75003633  0.54967422
   0.50000001  0.49979024  0.54978044
   0.75000000  0.00000000  0.45053675
   0.00000000  0.25000000  0.45053675
   0.75000000  0.25000000  0.35161024
   0.00000000  0.00000000  0.35161024
   0.74978388  0.00028423  0.64975107
   0.99999999  0.25026090  0.64987983
   0.74957517  0.25024693  0.54984191
   0.00000004  0.00017264  0.54966055
   0.75000000  0.50000000  0.45053675
   0.00000000  0.75000000  0.45053675
   0.75000000  0.75000000  0.35161024
   0.00000000  0.50000000  0.35161024
   0.74980525  0.50003584  0.65007821
   0.99999996  0.75018901  0.65009834
   0.74996050  0.75003627  0.54967425
   0.99999998  0.50008773  0.54971720

 position of ions in cartesian coordinates  (Angst):
   2.11014557  0.00000000  7.50000000
   4.22029113  2.11014557  7.50000000
   2.11014557  2.11014557  9.61014557
   4.22029113  0.00000000  9.61014557
   2.10970038  0.00118700 11.73247942
   4.22029081  2.11111557 11.72904438
   2.09032359  2.10918860 13.83606673
   4.22029121  8.42198219 13.83308595
   2.11014557  4.22029113  7.50000000
   4.22029113  6.33043670  7.50000000
   2.11014557  6.33043670  9.61014557
   4.22029113  4.22029113  9.61014557
   2.10861090  4.22118327 11.73296089
   4.22029075  6.33334731 11.72780437
   2.10635146  6.33399911 13.83376950
   4.22029116  4.24869428 13.82212004
   6.33043670  0.00000000  7.50000000
   0.00000000  2.11014557  7.50000000
   6.33043670  2.11014557  9.61014557
   0.00000000  0.00000000  9.61014557
   6.33088166  0.00118680 11.73247901
   0.00000036  2.11140715 11.72981269
   6.35025871  2.10918808 13.83606455
   8.44058198  8.43960499 13.83455088
   6.33043670  4.22029113  7.50000000
   0.00000000  6.33043670  7.50000000
   6.33043670  6.33043670  9.61014557
   0.00000000  4.22029113  9.61014557
   6.33197124  4.22118354 11.73295988
   0.00000004  6.33168245 11.73129488
   6.33423040  6.33399960 13.83376937
   0.00000035  4.22492615 13.83462849
   2.11014557  0.00000000  9.61014557
   4.22029113  2.11014557  9.61014557
   2.11014557  2.11014557  7.50000000
   4.22029113  0.00000000  7.50000000
   2.11196971  0.00239947 13.85947497
   4.22029109  2.11415537 13.89197609
   2.11373144  2.11222926 11.72836805
   4.22029069  0.00483734 11.72721113
   2.11014557  4.22029113  9.61014557
   4.22029113  6.33043670  9.61014557
   2.11014557  6.33043670  7.50000000
   4.22029113  4.22029113  7.50000000
   2.11178964  4.22059308 13.86645372
   4.22029107  6.33294922 13.85990988
   2.11047852  6.33074333 11.72479122
   4.22029119  4.21852066 11.72705683
   6.33043670  0.00000000  9.61014557
   0.00000000  2.11014557  9.61014557
   6.33043670  2.11014557  7.50000000
   0.00000000  0.00000000  7.50000000
   6.32861253  0.00239905 13.85947414
   8.44058219  2.11234768 13.86222049
   6.32685090  2.11222978 11.72836797
   0.00000036  0.00145718 11.72449954
   6.33043670  4.22029113  9.61014557
   0.00000000  6.33043670  9.61014557
   6.33043670  6.33043670  7.50000000
   0.00000000  4.22029113  7.50000000
   6.32879289  4.22059360 13.86645208
   8.44058189  6.33203209 13.86688157
   6.33010326  6.33074284 11.72479182
   8.44058206  4.22103159 11.72570797

--------------------------------------- Iteration      FINAL  ---------------------------------------

--------------------OUTCAR has been truncated-------------------------

[...]

--------------------OUTCAR has been truncated-------------------------

  DFT-D2 method for vdW energy calculation

  Parameters of vdW forcefield:
         C6(Jnm^6/mol)     R0(A)
   Mg       0.630          1.243
   O        0.700          1.342

  vdW correction parametrized for the method  <ü      

  IVDW =   1
  VDW_RADIUS =    50.000 A
  VDW_S6 =     1.050
  VDW_SR =     1.000
  VDW_D =    20.000
  LVDW_EWALD = F

  Number of pair interactions contributing to vdW energy:  723330
  Edisp (eV):   -5.08008

 VOLUME and BASIS-vectors are now :
  energy-cutoff  :      600.00
  volume of cell :     1519.65
      direct lattice vectors                 reciprocal lattice vectors
     8.440582262  0.000000000  0.000000000     0.118475239  0.000000000  0.000000000
     0.000000000  8.440582262  0.000000000     0.000000000  0.118475239  0.000000000
     0.000000000  0.000000000 21.330436697     0.000000000  0.000000000  0.046881366

  length of vectors
     8.440582262  8.440582262 21.330436697     0.118475239  0.118475239  0.046881366

 FORCES acting on ions:
    Electron-Ion                     Ewald-Force                    Non-Local-Force
   -.317E-01 -.755E-01 0.207E+04   0.323E-01 0.772E-01 -.206E+04   -.364E-03 -.114E-02 -.640E+01
   0.194E-05 -.130E-01 0.207E+04   -.222E-05 0.139E-01 -.206E+04   -.176E-05 -.593E-03 -.640E+01
   -.133E+00 -.777E-03 0.684E+03   0.164E+00 0.137E-01 -.685E+03   -.208E-01 -.836E-02 0.417E+00
   -.282E-04 -.344E+00 0.685E+03   0.258E-04 0.391E+00 -.685E+03   0.689E-06 -.301E-01 0.408E+00
   -.797E+00 -.117E+01 -.689E+03   0.873E+00 0.126E+01 0.689E+03   -.437E-01 -.556E-01 -.338E+00
   -.754E-04 -.117E+00 -.696E+03   0.660E-04 0.998E-01 0.696E+03   0.750E-05 0.173E-01 -.200E+00
   -.925E+01 -.860E+00 -.206E+04   0.968E+01 0.918E+00 0.205E+04   -.544E-01 -.107E-01 0.560E+01
   0.140E-04 -.980E+01 -.206E+04   -.205E-04 0.101E+02 0.205E+04   0.376E-05 0.229E-01 0.563E+01
   -.359E-01 0.749E-01 0.207E+04   0.361E-01 -.761E-01 -.206E+04   -.128E-03 0.760E-03 -.640E+01
   0.142E-05 0.162E-01 0.207E+04   -.143E-05 -.161E-01 -.206E+04   0.110E-05 -.810E-04 -.638E+01
   0.271E-03 0.541E-01 0.685E+03   -.185E-01 -.571E-01 -.686E+03   0.118E-01 0.219E-02 0.403E+00
   0.568E-04 0.336E+00 0.684E+03   -.584E-04 -.363E+00 -.685E+03   0.962E-07 0.184E-01 0.409E+00
   -.928E+00 0.107E+01 -.690E+03   0.969E+00 -.117E+01 0.691E+03   -.110E-01 0.666E-01 -.288E+00
   0.804E-05 0.173E+00 -.685E+03   -.252E-05 -.141E+00 0.686E+03   -.218E-05 -.330E-01 -.134E+00
   -.176E+00 0.726E+00 -.206E+04   -.278E-02 -.751E+00 0.205E+04   0.157E+00 -.481E-02 0.571E+01
   -.110E-03 0.108E+02 -.205E+04   0.125E-03 -.111E+02 0.205E+04   -.478E-05 -.668E-01 0.552E+01
   0.317E-01 -.755E-01 0.207E+04   -.323E-01 0.772E-01 -.206E+04   0.365E-03 -.113E-02 -.640E+01
   -.281E-05 -.945E-02 0.207E+04   0.211E-05 0.105E-01 -.206E+04   0.170E-05 -.700E-03 -.638E+01
   0.133E+00 -.690E-03 0.684E+03   -.164E+00 0.136E-01 -.685E+03   0.208E-01 -.836E-02 0.417E+00
   0.347E-04 -.194E+00 0.685E+03   -.323E-04 0.189E+00 -.686E+03   0.149E-05 0.351E-02 0.401E+00
   0.797E+00 -.117E+01 -.689E+03   -.872E+00 0.126E+01 0.689E+03   0.437E-01 -.556E-01 -.338E+00
   0.527E-04 -.220E-02 -.687E+03   -.497E-04 0.880E-02 0.687E+03   -.426E-05 -.618E-02 -.152E+00
   0.925E+01 -.860E+00 -.206E+04   -.968E+01 0.918E+00 0.205E+04   0.544E-01 -.107E-01 0.560E+01
   -.745E-04 -.226E+00 -.206E+04   0.754E-04 0.554E-01 0.205E+04   0.397E-05 0.141E+00 0.575E+01
   0.359E-01 0.749E-01 0.207E+04   -.361E-01 -.761E-01 -.206E+04   0.124E-03 0.760E-03 -.640E+01
   -.228E-05 0.114E-01 0.207E+04   0.127E-05 -.118E-01 -.206E+04   0.236E-05 0.279E-03 -.639E+01
   -.279E-03 0.540E-01 0.685E+03   0.185E-01 -.570E-01 -.686E+03   -.118E-01 0.219E-02 0.403E+00
   -.584E-04 0.197E+00 0.685E+03   0.586E-04 -.180E+00 -.685E+03   0.327E-05 -.106E-01 0.422E+00
   0.928E+00 0.107E+01 -.690E+03   -.969E+00 -.117E+01 0.691E+03   0.110E-01 0.666E-01 -.288E+00
   0.503E-04 0.113E+00 -.689E+03   -.487E-04 -.117E+00 0.689E+03   -.231E-05 0.151E-02 -.134E+00
   0.176E+00 0.726E+00 -.206E+04   0.277E-02 -.751E+00 0.205E+04   -.157E+00 -.481E-02 0.571E+01
   0.130E-03 0.164E+00 -.206E+04   -.152E-03 -.152E-01 0.205E+04   0.126E-04 -.127E+00 0.569E+01
   -.146E+00 -.275E+00 0.513E+03   0.149E+00 0.272E+00 -.513E+03   -.419E-02 0.400E-02 -.105E+00
   -.369E-05 -.380E-01 0.513E+03   0.591E-05 0.311E-01 -.513E+03   -.162E-06 0.849E-02 -.109E+00
   -.287E-01 -.824E-02 0.155E+04   0.322E-01 0.893E-02 -.156E+04   -.435E-02 -.846E-03 0.312E+01
   -.121E-05 -.619E-01 0.155E+04   0.141E-05 0.660E-01 -.156E+04   0.529E-06 -.516E-02 0.313E+01
   -.129E+01 -.151E+01 -.156E+04   0.153E+01 0.173E+01 0.156E+04   -.290E+00 -.270E+00 -.411E+01
   -.104E-03 -.703E+00 -.157E+04   0.111E-03 0.857E+00 0.157E+04   -.208E-05 -.170E+00 -.455E+01
   -.166E+01 -.456E-01 -.514E+03   0.181E+01 0.505E-01 0.514E+03   -.201E+00 -.136E-01 0.140E+00
   -.897E-04 -.212E+01 -.514E+03   0.877E-04 0.229E+01 0.513E+03   0.546E-05 -.212E+00 0.161E+00
   -.184E+00 0.278E+00 0.513E+03   0.195E+00 -.287E+00 -.513E+03   -.117E-01 0.106E-01 -.116E+00
   -.797E-05 0.105E+00 0.514E+03   0.939E-05 -.122E+00 -.514E+03   0.102E-05 0.195E-01 -.385E-01
   -.144E-01 0.889E-02 0.155E+04   0.126E-01 -.987E-02 -.156E+04   0.227E-02 0.124E-02 0.313E+01
   0.245E-05 0.596E-01 0.155E+04   -.547E-05 -.645E-01 -.156E+04   0.129E-05 0.601E-02 0.313E+01
   -.148E+01 0.170E+01 -.156E+04   0.174E+01 -.198E+01 0.156E+04   -.311E+00 0.330E+00 -.429E+01
   0.538E-04 -.317E+00 -.156E+04   -.560E-04 0.344E+00 0.156E+04   -.409E-05 -.748E-02 -.413E+01
   0.104E+00 0.124E+00 -.512E+03   -.863E-01 -.129E+00 0.511E+03   -.232E-01 0.101E-01 0.270E+00
   0.824E-04 0.205E+01 -.512E+03   -.738E-04 -.220E+01 0.512E+03   -.123E-04 0.204E+00 0.292E+00
   0.146E+00 -.275E+00 0.513E+03   -.149E+00 0.272E+00 -.513E+03   0.419E-02 0.400E-02 -.105E+00
   0.614E-05 -.146E-01 0.513E+03   -.727E-05 0.604E-02 -.513E+03   0.326E-06 0.103E-01 -.555E-01
   0.287E-01 -.823E-02 0.155E+04   -.322E-01 0.892E-02 -.156E+04   0.435E-02 -.846E-03 0.312E+01
   -.774E-06 -.470E-01 0.155E+04   -.161E-05 0.460E-01 -.156E+04   -.785E-06 0.126E-02 0.313E+01
   0.129E+01 -.151E+01 -.156E+04   -.153E+01 0.173E+01 0.156E+04   0.290E+00 -.270E+00 -.411E+01
   0.616E-04 -.153E+00 -.156E+04   -.671E-04 0.219E+00 0.156E+04   0.397E-05 -.805E-01 -.406E+01
   0.166E+01 -.454E-01 -.514E+03   -.181E+01 0.503E-01 0.514E+03   0.201E+00 -.136E-01 0.140E+00
   0.121E-03 -.199E+00 -.512E+03   -.123E-03 0.212E+00 0.511E+03   -.385E-05 -.160E-01 0.276E+00
   0.184E+00 0.278E+00 0.513E+03   -.195E+00 -.287E+00 -.513E+03   0.117E-01 0.106E-01 -.116E+00
   0.600E-05 0.550E-01 0.513E+03   -.804E-05 -.611E-01 -.513E+03   -.262E-05 0.692E-02 -.815E-01
   0.144E-01 0.888E-02 0.155E+04   -.126E-01 -.987E-02 -.156E+04   -.227E-02 0.124E-02 0.313E+01
   -.492E-05 0.457E-01 0.155E+04   0.542E-05 -.451E-01 -.156E+04   -.155E-05 -.759E-03 0.313E+01
   0.148E+01 0.170E+01 -.156E+04   -.174E+01 -.198E+01 0.156E+04   0.311E+00 0.330E+00 -.429E+01
   -.487E-04 0.139E+00 -.156E+04   0.415E-04 -.182E+00 0.156E+04   0.139E-04 0.535E-01 -.417E+01
   -.105E+00 0.124E+00 -.512E+03   0.863E-01 -.129E+00 0.511E+03   0.232E-01 0.101E-01 0.270E+00
   -.726E-04 0.865E-01 -.512E+03   0.600E-04 -.883E-01 0.512E+03   0.164E-04 0.647E-02 0.266E+00
   -.327E-05 0.140E+00 0.138E+02   0.216E-13 0.129E-12 -.728E-11   0.502E-05 -.125E+00 -.121E+02

 POSITION                                       TOTAL-FORCE (eV/Angst)
      2.11015      0.00000      7.50000         0.000172      0.000390      0.467750
      4.22029      2.11015      7.50000        -0.000002      0.000172      0.470007
      2.11015      2.11015      9.61015         0.007949      0.003416      0.045398
      4.22029      0.00000      9.61015        -0.000001      0.013053      0.040547
      2.10970      0.00119     11.73248         0.025367      0.025437     -0.023810
      4.22029      2.11112     11.72904        -0.000002      0.001544      0.183426
      2.09032      2.10919     13.83607         0.338994      0.042717     -0.157891
      4.22029      8.42198     13.83309        -0.000002      0.331440     -0.157375
      2.11015      4.22029      7.50000         0.000099     -0.000414      0.468566
      4.22029      6.33044      7.50000         0.000001     -0.000092      0.464283
      2.11015      6.33044      9.61015        -0.004967     -0.000630      0.030211
      4.22029      4.22029      9.61015        -0.000001     -0.006449      0.044423
      2.10861      4.22118     11.73296         0.027262     -0.025041     -0.009945
      4.22029      6.33335     11.72780         0.000003     -0.003721     -0.043763
      2.10635      6.33400     13.83377        -0.006538     -0.027934     -0.199349
      4.22029      4.24869     13.82212         0.000009     -0.382738     -0.050120
      6.33044      0.00000      7.50000        -0.000169      0.000392      0.467758
      0.00000      2.11015      7.50000         0.000001      0.000202      0.464958
      6.33044      2.11015      9.61015        -0.007947      0.003415      0.045395
      0.00000      0.00000      9.61015         0.000003     -0.000997      0.029303
      6.33088      0.00119     11.73248        -0.025367      0.025436     -0.023811
      0.00000      2.11141     11.72981        -0.000003     -0.000210     -0.042095
      6.35026      2.10919     13.83606        -0.338997      0.042728     -0.157867
      8.44058      8.43960     13.83455         0.000005     -0.014873     -0.218414
      6.33044      4.22029      7.50000        -0.000104     -0.000412      0.468571
      0.00000      6.33044      7.50000         0.000002     -0.000194      0.467282
      6.33044      6.33044      9.61015         0.004963     -0.000632      0.030214
      0.00000      4.22029      9.61015         0.000003      0.004835      0.029379
      6.33197      4.22118     11.73296        -0.027258     -0.025038     -0.009936
      0.00000      6.33168     11.73129        -0.000001     -0.002525     -0.037772
      6.33423      6.33400     13.83377         0.006535     -0.027950     -0.199376
      0.00000      4.22493     13.83463        -0.000008      0.008969     -0.190843
      2.11015      0.00000      9.61015        -0.000874      0.001413      0.047477
      4.22029      2.11015      9.61015         0.000002      0.002720      0.029446
      2.11015      2.11015      7.50000        -0.001451     -0.000332     -0.435639
      4.22029      0.00000      7.50000         0.000001     -0.001764     -0.435206
      2.11197      0.00240     13.85947        -0.095169     -0.083415      0.097365
      4.22029      2.11416     13.89198         0.000005     -0.039643     -0.133685
      2.11373      2.11223     11.72837        -0.080917     -0.010960     -0.019610
      4.22029      0.00484     11.72721         0.000004     -0.077843     -0.017607
      2.11015      4.22029      9.61015        -0.002821      0.002880      0.045947
      4.22029      6.33044      9.61015         0.000003      0.005130      0.048274
      2.11015      6.33044      7.50000         0.000759      0.000371     -0.434758
      4.22029      4.22029      7.50000        -0.000001      0.001967     -0.435439
      2.11179      4.22059     13.86645        -0.097261      0.098132      0.032096
      4.22029      6.33295     13.85991        -0.000007      0.018989      0.080064
      2.11048      6.33074     11.72479        -0.007981      0.006711      0.037333
      4.22029      4.21852     11.72706        -0.000006      0.080306     -0.026939
      6.33044      0.00000      9.61015         0.000874      0.001407      0.047476
      0.00000      2.11015      9.61015        -0.000001      0.003087      0.052416
      6.33044      2.11015      7.50000         0.001453     -0.000335     -0.435632
      0.00000      0.00000      7.50000        -0.000003      0.000363     -0.434828
      6.32861      0.00240     13.85947         0.095166     -0.083403      0.097374
      8.44058      2.11235     13.86222        -0.000001     -0.026347      0.092261
      6.32685      2.11223     11.72837         0.080919     -0.010970     -0.019610
      0.00000      0.00146     11.72450        -0.000007     -0.005210      0.044418
      6.33044      4.22029      9.61015         0.002824      0.002887      0.045949
      0.00000      6.33044      9.61015        -0.000005      0.001725      0.049320
      6.33044      6.33044      7.50000        -0.000758      0.000372     -0.434764
      0.00000      4.22029      7.50000        -0.000001     -0.000295     -0.435212
      6.32879      4.22059     13.86645         0.097255      0.098116      0.032103
      8.44058      6.33203     13.86688         0.000009      0.017442      0.054699
      6.33010      6.33074     11.72479         0.007985      0.006722      0.037318
      8.44058      4.22103     11.72571         0.000006      0.005486      0.032491
    total drift:                                0.000002      0.003684      0.004259

  FREE ENERGIE OF THE ION-ELECTRON SYSTEM (eV)
  free  energy   TOTEN  =      -438.42988838 eV

  energy  without entropy=     -438.42988838  energy(sigma->0) =     -438.42988838