 vasp.6.4.2 20Jul23 (build Feb 22 2024 13:53:45) complex
 executed on              LinuxNV date 2024.08.27  14:05:29
 OpenACC runtime initialized ...    4 GPUs detected

 INCAR:
   SYSTEM = Oxide-Surface
   ISMEAR = 0
   SIGMA = 0.05
   EDIFF = 1E-5
   ALGO = Normal
   IBRION = -1
   NSW = 0
   ISYM = 0
   DIPOL = 0.5 0.5 0.5
   IDIPOL = 3
   LDIPOL = .TRUE.
   ISTART = 1
   METAGGA = SCAN
   LUSE_VDW = .TRUE.
   BPARAM = 15.7
   CPARAM = 0.0093
   ENCUT = 1000
   PREC = Normal
   PRECFOCK = Normal
   LASPH = .TRUE.
   LREAL = Auto
   ISPIN = 1
   NELM = 200
   NELMIN = 8
   NCORE = 1
   KPAR = 1
   LWAVE = .FALSE.
   LCHARG = .FALSE.

 POTCAR:    PAW_PBE C_h 06Feb2004
 POTCAR:    PAW_PBE H_h 06Feb2004
 POTCAR:    PAW_PBE Mg_sv 12Apr2007
 POTCAR:    PAW_PBE O_h 06Feb2004
|               ----> ADVICE to this user running VASP <----                  |
|     You have switched on vdW-DFT.                                           |
|     This routine was written and supplied by Jiri Klimes. We recommend      |
|     that you carefully read and cite the following publications:            |
|       J. Klimes, D.R. Bowler, A. Michelides                                 |
|          J. Phys.: Cond Matt. 22 022201 (2010)                              |
|       J. Klimes, D.R. Bowler, A. Michelides                                 |
|          Phys. Rev. B. 83, 195131 (2011)                                    |
|     and references therein.                                                 |

   TITEL  = PAW_PBE C_h 06Feb2004
   POMASS =   12.011; ZVAL   =    4.000    mass and valenz
   ENMAX  =  700.000; ENMIN  =  500.000 eV

[...]

   TITEL  = PAW_PBE Mg_sv 12Apr2007
   POMASS =   24.305; ZVAL   =   10.000    mass and valenz
   ENMAX  =  495.223; ENMIN  =  371.417 eV

   TITEL  = PAW_PBE O_h 06Feb2004
   POMASS =   16.000; ZVAL   =    6.000    mass and valenz
   ENMAX  =  700.000; ENMIN  =  500.000 eV

 Optimization of the real space projectors (new method)

 maximal supplied QI-value         = 34.20
 optimisation between [QCUT,QGAM] = [ 16.08, 32.15] = [ 72.37,289.48] Ry
 Optimized for a Real-space Cutoff    0.71 Angstroem

   l    n(q)    QCUT    max X(q) W(low)/X(q) W(high)/X(q)  e(spline)
   0      7    16.076   134.812    0.49E-03    0.92E-03    0.59E-07
   0      7    16.076    80.524    0.48E-03    0.91E-03    0.58E-07
   1      6    16.076    79.026    0.37E-03    0.58E-03    0.12E-06
   1      6    16.076    45.188    0.36E-03    0.56E-03    0.12E-06
 Optimization of the real space projectors (new method)

[...]

   l    n(q)    QCUT    max X(q) W(low)/X(q) W(high)/X(q)  e(spline)
   0      9    16.140     8.730    0.14E-04    0.12E-04    0.27E-07
   0      9    16.140     8.910    0.19E-04    0.17E-04    0.41E-07
   1      9    16.140     2.513    0.16E-04    0.28E-04    0.54E-07
   1      9    16.140     3.341    0.27E-04    0.13E-03    0.17E-06
   2      9    16.140     3.683    0.18E-03    0.21E-03    0.81E-07
 Optimization of the real space projectors (new method)

 maximal supplied QI-value         = 34.20
 optimisation between [QCUT,QGAM] = [ 16.08, 32.15] = [ 72.37,289.48] Ry
 Optimized for a Real-space Cutoff    0.71 Angstroem

   l    n(q)    QCUT    max X(q) W(low)/X(q) W(high)/X(q)  e(spline)
   0      7    16.076   280.207    0.42E-03    0.69E-03    0.60E-07
   0      7    16.076   228.978    0.42E-03    0.69E-03    0.61E-07
   1      6    16.076    86.127    0.11E-03    0.66E-03    0.10E-06
   1      6    16.076    65.368    0.11E-03    0.65E-03    0.10E-06
  PAW_PBE C_h 06Feb2004                 :
  PAW_PBE H_h 06Feb2004                 :
  PAW_PBE Mg_sv 12Apr2007               :
  PAW_PBE O_h 06Feb2004                 :

 POSCAR:  C  H Mg  O
  positions in direct lattice

 METAGGA = SCAN                                        LMAXTAU =  6    LMIXTAU =  F

 ion  position               nearest neighbor table
   1  0.504  0.498  0.743-   5 1.10   3 1.10   4 1.10   2 1.53
   2  0.675  0.499  0.774-   6 1.10   8 1.10   7 1.10   1 1.53
   3  0.482  0.392  0.707-   1 1.10
   4  0.479  0.604  0.708-   1 1.10
   5  0.418  0.495  0.792-   1 1.10
   6  0.759  0.502  0.724-   2 1.10
   7  0.701  0.394  0.809-   2 1.10
   8  0.698  0.604  0.811-   2 1.10
   9  0.000  0.750  0.189-
  10  0.250  0.000  0.189-
  11  0.000  0.000  0.313-
  12  0.250  0.750  0.313-
  13  1.000  0.750  0.438-
  14  0.250  1.000  0.438-
  15  1.000  1.000  0.562-
  16  0.250  0.750  0.562-
  17  0.000  0.250  0.189-
  18  0.250  0.500  0.189-
  19  0.000  0.500  0.313-
  20  0.250  0.250  0.313-
  21  1.000  0.250  0.438-
  22  0.250  0.500  0.439-
  23  0.000  0.500  0.562-
  24  0.250  0.250  0.562-
  25  0.500  0.750  0.189-
  26  0.750  0.000  0.189-
  27  0.500  0.000  0.313-
  28  0.750  0.750  0.313-
  29  0.500  0.750  0.439-
  30  0.750  1.000  0.438-
  31  0.500  1.000  0.562-
  32  0.750  0.750  0.562-
  33  0.500  0.250  0.189-
  34  0.750  0.500  0.189-
  35  0.500  0.500  0.313-
  36  0.750  0.250  0.313-
  37  0.500  0.250  0.439-
  38  0.750  0.500  0.439-
  39  0.500  0.500  0.563-
  40  0.750  0.250  0.562-
  41  0.000  0.750  0.313-
  42  0.250  0.000  0.313-
  43  0.000  0.000  0.189-
  44  0.250  0.750  0.189-
  45  1.000  0.750  0.565-
  46  0.250  1.000  0.565-
  47  1.000  1.000  0.438-
  48  0.250  0.750  0.438-
  49  0.000  0.250  0.313-
  50  0.250  0.500  0.313-
  51  0.000  0.500  0.189-
  52  0.250  0.250  0.189-
  53  1.000  0.250  0.565-
  54  0.250  0.500  0.565-
  55  1.000  0.500  0.438-
  56  0.250  0.250  0.438-
  57  0.500  0.750  0.313-
  58  0.750  0.000  0.313-
  59  0.500  0.000  0.189-
  60  0.750  0.750  0.189-
  61  0.500  0.750  0.565-
  62  0.750  1.000  0.565-
  63  0.500  1.000  0.438-
  64  0.750  0.750  0.438-
  65  0.500  0.250  0.313-
  66  0.750  0.500  0.313-
  67  0.500  0.500  0.189-
  68  0.750  0.250  0.189-
  69  0.500  0.250  0.565-
  70  0.750  0.500  0.565-
  71  0.500  0.500  0.438-
  72  0.750  0.250  0.438-

IMPORTANT INFORMATION: All symmetrisations will be switched off!
NOSYMM: (Re-)initialisation of all symmetry stuff for point group C_1.

                                     Primitive cell

  volume of cell :    1211.2538

  direct lattice vectors                    reciprocal lattice vectors
     8.440984654  0.000000000  0.000000000     0.118469591  0.000000000  0.000000000
     0.000000000  8.440984654  0.000000000     0.000000000  0.118469591  0.000000000
     0.000000000  0.000000000 17.000000000     0.000000000  0.000000000  0.058823529

  length of vectors
     8.440984654  8.440984654 17.000000000     0.118469591  0.118469591  0.058823529

  position of ions in fractional coordinates (direct lattice)
     0.504442512  0.497603211  0.743410718
     0.675427142  0.499371115  0.773615542
     0.481946286  0.392260978  0.706770344
     0.478809683  0.604144071  0.708156302
     0.417859844  0.495031697  0.791753827
     0.759160533  0.502033602  0.724065079
     0.701478841  0.393602621  0.809133108
     0.698200527  0.603760305  0.810658094
     0.000007636  0.750031286  0.189341906
     0.250007636  0.000031286  0.189341906
     0.000007636  0.000031286  0.313474033
     0.250007636  0.750031286  0.313474033
     0.999976970  0.749963850  0.438457003
     0.249986644  0.999964140  0.438470494
     0.999992364  0.999910906  0.562348157
     0.249873245  0.749845785  0.562202626
     0.000007636  0.250031286  0.189341906
     0.250007636  0.500031286  0.189341906
     0.000007636  0.500031286  0.313474033
     0.250007636  0.250031286  0.313474033
     0.999977352  0.249980617  0.438453686
     0.250127274  0.499963970  0.438535724
     0.000145226  0.499923750  0.562114841
     0.249869118  0.249973003  0.562195641
     0.500007636  0.750031286  0.189341906
     0.750007636  0.000031286  0.189341906
     0.500007636  0.000031286  0.313474033
     0.750007636  0.750031286  0.313474033
     0.499991240  0.749815526  0.438527908
     0.749986537  0.999961265  0.438479227
     0.499961494  0.999896839  0.562145227
     0.750043134  0.749924142  0.562250345
     0.500007636  0.250031286  0.189341906
     0.750007636  0.500031286  0.189341906
     0.500007636  0.500031286  0.313474033
     0.750007636  0.250031286  0.313474033
     0.499993003  0.250082768  0.438527210
     0.749860656  0.499960669  0.438562571
     0.499843564  0.499898967  0.563085918
     0.750058171  0.249889399  0.562241868
     0.000007636  0.750031286  0.313474033
     0.250007636  0.000031286  0.313474033
     0.000007636  0.000031286  0.189341906
     0.250007636  0.750031286  0.189341906
     0.999943344  0.749886766  0.565046454
     0.249946089  0.999912111  0.565050657
     0.999971036  0.999968714  0.438179888
     0.249965036  0.750040437  0.438149594
     0.000007636  0.250031286  0.313474033
     0.250007636  0.500031286  0.313474033
     0.000007636  0.500031286  0.189341906
     0.250007636  0.250031286  0.189341906
     0.999945875  0.249945679  0.565037155
     0.249719068  0.499911441  0.564728513
     0.999971089  0.499970067  0.438088058
     0.249956936  0.249888775  0.438144915
     0.500007636  0.750031286  0.313474033
     0.750007636  0.000031286  0.313474033
     0.500007636  0.000031286  0.189341906
     0.750007636  0.750031286  0.189341906
     0.499989702  0.750219279  0.564996442
     0.750006699  0.999909280  0.565084458
     0.499996442  0.999947314  0.438110544
     0.750005020  0.750030779  0.438172055
     0.500007636  0.250031286  0.313474033
     0.750007636  0.500031286  0.313474033
     0.500007636  0.500031286  0.189341906
     0.750007636  0.250031286  0.189341906
     0.499997048  0.249555778  0.564962164
     0.750207288  0.499910047  0.564892284
     0.500015401  0.499961148  0.438334676
     0.750015257  0.249893599  0.438167343

  ion indices of the primitive-cell ions
   primitive index   ion index
                 1           1
                 2           2
                 3           3
                 4           4
                 5           5
                 6           6
                 7           7
                 8           8
                 9           9
                10          10
                11          11
                12          12
                13          13
                14          14
                15          15
                16          16
                17          17
                18          18
                19          19
                20          20
                21          21
                22          22
                23          23
                24          24
                25          25
                26          26
                27          27
                28          28
                29          29
                30          30
                31          31
                32          32
                33          33
                34          34
                35          35
                36          36
                37          37
                38          38
                39          39
                40          40
                41          41
                42          42
                43          43
[...]
  Fock        0.00000     0.00000     0.00000     0.00000     0.00000     0.00000
  Total     -46.28921   -46.17227   -13.19032     0.01205     0.05420     0.03620
  in kB     -61.22872   -61.07404   -17.44740     0.01595     0.07169     0.04789

 VOLUME and BASIS-vectors are now :
  energy-cutoff  :     1000.00
  volume of cell :     1211.25
      direct lattice vectors                 reciprocal lattice vectors
     8.440984654  0.000000000  0.000000000     0.118469591  0.000000000  0.000000000
     0.000000000  8.440984654  0.000000000     0.000000000  0.118469591  0.000000000
     0.000000000  0.000000000 17.000000000     0.000000000  0.000000000  0.058823529

  length of vectors
     8.440984654  8.440984654 17.000000000     0.118469591  0.118469591  0.058823529

 FORCES acting on ions
    electron-ion (+dipol)            ewald-force                    non-local-force                 convergence-correction
   0.683E+02 0.743E+00 -.664E+03   -.689E+02 -.760E+00 0.664E+03   0.577E+00 0.594E-01 -.600E-01   -.182E-03 0.935E-05 0.311E-02
   -.684E+02 -.725E+00 -.561E+03   0.696E+02 0.746E+00 0.561E+03   -.121E+01 -.113E-01 0.583E-01   0.576E-04 0.568E-05 0.359E-02
   0.181E+02 0.468E+02 -.183E+03   -.191E+02 -.512E+02 0.180E+03   0.100E+01 0.456E+01 0.308E+01   0.551E-06 0.854E-04 0.773E-03
   0.195E+02 -.471E+02 -.182E+03   -.206E+02 0.515E+02 0.180E+03   0.114E+01 -.461E+01 0.296E+01   0.193E-05 -.825E-04 0.781E-03
   0.457E+02 0.122E+01 -.151E+03   -.492E+02 -.133E+01 0.155E+03   0.376E+01 0.111E+00 -.416E+01   -.125E-03 -.125E-05 0.108E-02
   -.449E+02 -.127E+01 -.155E+03   0.484E+02 0.137E+01 0.151E+03   -.362E+01 -.113E+00 0.434E+01   0.642E-04 0.304E-05 0.776E-03
   -.196E+02 0.464E+02 -.124E+03   0.207E+02 -.507E+02 0.127E+03   -.117E+01 0.453E+01 -.309E+01   0.123E-03 -.213E-03 0.120E-02
   -.182E+02 -.460E+02 -.123E+03   0.191E+02 0.502E+02 0.126E+03   -.102E+01 -.448E+01 -.322E+01   0.119E-03 0.217E-03 0.120E-02
   -.926E+00 -.163E+01 0.243E+04   0.926E+00 0.163E+01 -.242E+04   -.282E-02 -.110E-01 -.953E+01   0.135E-03 0.180E-03 -.753E-02
   0.992E+00 0.185E-01 0.243E+04   -.993E+00 -.172E-01 -.242E+04   -.179E-02 -.114E-01 -.953E+01   -.114E-03 -.217E-04 -.761E-02
   -.512E+00 0.204E-01 0.829E+03   0.511E+00 -.232E-01 -.830E+03   0.121E-02 0.365E-02 0.469E+00   0.670E-04 0.844E-05 -.869E-02
   0.970E+00 -.136E+01 0.830E+03   -.967E+00 0.136E+01 -.831E+03   -.196E-02 0.418E-02 0.444E+00   0.377E-04 0.298E-04 -.853E-02
   -.202E+01 -.523E+01 -.761E+03   0.202E+01 0.522E+01 0.761E+03   0.193E-02 0.438E-02 -.423E+00   -.358E-04 -.127E-03 -.886E-02
   0.356E+01 0.758E-01 -.764E+03   -.355E+01 -.764E-01 0.764E+03   -.786E-02 -.289E-02 -.436E+00   0.129E-03 0.256E-05 -.895E-02
   -.576E+01 0.125E+00 -.236E+04   0.576E+01 -.121E+00 0.235E+04   -.208E-02 -.172E-01 0.801E+01   -.405E-04 -.328E-04 -.421E-02
   0.212E+02 -.247E+02 -.234E+04   -.213E+02 0.247E+02 0.233E+04   0.393E-01 0.871E-02 0.805E+01   0.390E-03 -.418E-03 -.404E-02
   -.926E+00 0.163E+01 0.243E+04   0.926E+00 -.163E+01 -.242E+04   -.274E-02 -.120E-01 -.953E+01   0.123E-03 -.191E-03 -.751E-02
   0.128E+01 -.161E-01 0.243E+04   -.128E+01 0.176E-01 -.242E+04   -.298E-02 -.117E-01 -.953E+01   -.134E-03 0.817E-05 -.740E-02
   -.613E+00 -.318E-01 0.831E+03   0.609E+00 0.290E-01 -.831E+03   0.373E-02 0.360E-02 0.416E+00   0.319E-04 0.623E-05 -.840E-02
   0.963E+00 0.136E+01 0.830E+03   -.960E+00 -.136E+01 -.831E+03   -.138E-02 0.368E-02 0.442E+00   0.399E-04 -.157E-04 -.851E-02
   -.203E+01 0.526E+01 -.761E+03   0.203E+01 -.525E+01 0.761E+03   0.194E-02 -.101E-01 -.423E+00   -.312E-04 0.126E-03 -.886E-02
   0.535E+01 -.727E-01 -.752E+03   -.531E+01 0.728E-01 0.753E+03   -.419E-01 -.176E-02 -.673E+00   0.582E-04 0.193E-04 -.858E-02
   -.141E+02 -.110E+00 -.233E+04   0.142E+02 0.114E+00 0.232E+04   -.836E-01 -.140E-01 0.801E+01   -.278E-03 0.539E-05 -.414E-02
   0.215E+02 0.248E+02 -.234E+04   -.216E+02 -.247E+02 0.233E+04   0.472E-01 -.347E-01 0.805E+01   0.388E-03 0.388E-03 -.404E-02
   0.933E+00 -.192E+01 0.243E+04   -.932E+00 0.192E+01 -.242E+04   -.273E-02 -.104E-01 -.953E+01   -.121E-03 0.200E-03 -.725E-02
   -.995E+00 0.186E-01 0.243E+04   0.996E+00 -.171E-01 -.242E+04   -.380E-02 -.115E-01 -.953E+01   0.966E-04 -.385E-05 -.750E-02
   0.507E+00 0.193E-01 0.830E+03   -.508E+00 -.238E-01 -.831E+03   0.900E-03 0.479E-02 0.425E+00   -.552E-04 0.179E-05 -.849E-02
   -.971E+00 -.146E+01 0.831E+03   0.966E+00 0.146E+01 -.831E+03   0.478E-02 0.770E-02 0.454E+00   -.496E-04 -.319E-04 -.842E-02
   0.204E+01 -.703E+01 -.752E+03   -.204E+01 0.699E+01 0.753E+03   -.448E-02 0.367E-01 -.536E+00   0.549E-04 -.531E-04 -.846E-02
   -.354E+01 0.815E-01 -.761E+03   0.354E+01 -.819E-01 0.762E+03   0.317E-02 -.301E-02 -.437E+00   -.153E-03 -.182E-04 -.885E-02
   0.583E+01 0.407E+00 -.234E+04   -.583E+01 -.402E+00 0.233E+04   -.197E-02 -.157E-01 0.801E+01   0.131E-04 0.949E-05 -.431E-02
   -.215E+02 -.336E+02 -.232E+04   0.215E+02 0.336E+02 0.231E+04   -.409E-01 -.463E-01 0.802E+01   -.314E-03 -.569E-03 -.401E-02
   0.933E+00 0.192E+01 0.243E+04   -.932E+00 -.192E+01 -.242E+04   -.291E-02 -.125E-01 -.953E+01   -.109E-03 -.212E-03 -.727E-02
   -.129E+01 -.161E-01 0.242E+04   0.129E+01 0.175E-01 -.241E+04   -.320E-02 -.114E-01 -.953E+01   0.108E-03 0.566E-05 -.711E-02
   0.610E+00 -.192E-01 0.832E+03   -.607E+00 0.158E-01 -.832E+03   -.232E-02 0.388E-02 0.492E+00   0.730E-05 -.792E-06 -.816E-02
   -.964E+00 0.146E+01 0.831E+03   0.959E+00 -.146E+01 -.831E+03   0.416E-02 0.428E-03 0.452E+00   -.559E-04 0.272E-04 -.840E-02
   0.205E+01 0.699E+01 -.752E+03   -.205E+01 -.696E+01 0.753E+03   -.488E-02 -.358E-01 -.541E+00   0.665E-04 0.344E-04 -.847E-02
   -.540E+01 -.826E-01 -.748E+03   0.535E+01 0.831E-01 0.748E+03   0.505E-01 -.113E-02 -.609E+00   -.115E-03 -.129E-05 -.833E-02
   0.150E+02 -.636E+00 -.225E+04   -.150E+02 0.652E+00 0.224E+04   0.817E-01 -.871E-02 0.765E+01   0.157E-03 0.972E-05 -.316E-02
   -.218E+02 0.336E+02 -.232E+04   0.219E+02 -.337E+02 0.231E+04   -.486E-01 0.221E-01 0.802E+01   -.349E-03 0.587E-03 -.399E-02
   -.337E+00 -.859E+00 0.497E+03   0.340E+00 0.854E+00 -.497E+03   -.383E-02 0.460E-02 -.398E-01   0.281E-04 0.325E-04 -.472E-02
   0.567E+00 0.673E-02 0.497E+03   -.558E+00 -.156E-02 -.497E+03   -.114E-01 -.743E-02 -.465E-01   -.189E-04 -.118E-04 -.471E-02
   -.476E+00 0.107E-01 0.147E+04   0.477E+00 -.984E-02 -.147E+04   -.869E-03 -.209E-02 0.245E+01   0.619E-04 -.147E-04 -.432E-02
   0.680E+00 -.983E+00 0.147E+04   -.680E+00 0.983E+00 -.147E+04   -.339E-03 -.145E-02 0.244E+01   -.706E-04 0.835E-04 -.421E-02
   -.592E+01 -.117E+02 -.144E+04   0.591E+01 0.117E+02 0.144E+04   0.268E-02 0.152E-01 -.461E+01   -.854E-04 -.199E-03 -.262E-02
   0.728E+01 0.148E+00 -.144E+04   -.725E+01 -.152E+00 0.145E+04   -.257E-01 0.571E-02 -.461E+01   0.181E-03 0.136E-04 -.262E-02
   -.985E+00 0.266E-01 -.454E+03   0.984E+00 -.251E-01 0.454E+03   0.203E-02 -.151E-02 0.304E+00   0.811E-05 -.926E-06 -.489E-02
   0.262E+01 -.337E+01 -.449E+03   -.261E+01 0.335E+01 0.449E+03   -.774E-02 0.180E-01 0.303E+00   0.921E-04 -.623E-04 -.481E-02
   -.338E+00 0.847E+00 0.497E+03   0.341E+00 -.834E+00 -.497E+03   -.373E-02 -.176E-01 -.403E-01   0.226E-04 -.470E-04 -.471E-02
   0.638E+00 -.224E-01 0.498E+03   -.650E+00 0.272E-01 -.497E+03   0.161E-01 -.695E-02 -.514E-01   0.556E-06 0.559E-06 -.462E-02
   -.636E+00 -.903E-02 0.147E+04   0.636E+00 0.990E-02 -.147E+04   0.571E-03 -.209E-02 0.245E+01   0.670E-04 0.814E-05 -.415E-02
   0.681E+00 0.985E+00 0.147E+04   -.681E+00 -.983E+00 -.147E+04   -.249E-03 -.277E-02 0.244E+01   -.522E-04 -.892E-04 -.424E-02
   -.593E+01 0.117E+02 -.144E+04   0.593E+01 -.117E+02 0.144E+04   0.260E-02 -.102E-01 -.461E+01   -.617E-04 0.218E-03 -.257E-02
   0.211E+02 -.163E+00 -.142E+04   -.209E+02 0.160E+00 0.142E+04   -.127E+00 0.102E-02 -.470E+01   0.336E-03 0.400E-04 -.240E-02
   -.143E+01 -.480E-01 -.447E+03   0.144E+01 0.473E-01 0.447E+03   -.866E-02 0.226E-02 0.316E+00   -.322E-04 0.290E-05 -.473E-02
   0.262E+01 0.337E+01 -.449E+03   -.261E+01 -.335E+01 0.449E+03   -.620E-02 -.123E-01 0.303E+00   0.911E-04 0.530E-04 -.479E-02
   0.331E+00 -.933E+00 0.498E+03   -.330E+00 0.951E+00 -.497E+03   -.106E-02 -.238E-01 -.494E-01   -.185E-04 0.178E-04 -.462E-02
   -.570E+00 0.690E-02 0.497E+03   0.565E+00 -.153E-02 -.497E+03   0.692E-02 -.767E-02 -.455E-01   0.139E-04 -.507E-05 -.471E-02
   0.479E+00 0.119E-01 0.147E+04   -.479E+00 -.110E-01 -.147E+04   -.173E-03 -.210E-02 0.244E+01   -.578E-04 -.520E-05 -.419E-02
   -.683E+00 -.114E+01 0.147E+04   0.684E+00 0.114E+01 -.147E+04   -.743E-03 -.957E-05 0.244E+01   0.631E-04 0.878E-04 -.408E-02
   0.603E+01 -.259E+02 -.141E+04   -.603E+01 0.258E+02 0.142E+04   -.259E-02 0.140E+00 -.467E+01   0.377E-04 -.289E-03 -.235E-02
   -.734E+01 0.163E+00 -.144E+04   0.731E+01 -.167E+00 0.144E+04   0.250E-01 0.775E-02 -.462E+01   -.169E-03 0.125E-04 -.268E-02
   0.976E+00 0.644E-01 -.449E+03   -.978E+00 -.683E-01 0.449E+03   0.234E-02 0.720E-02 0.326E+00   0.195E-04 -.530E-06 -.471E-02
   -.263E+01 -.384E+01 -.447E+03   0.262E+01 0.383E+01 0.447E+03   0.916E-02 0.103E-01 0.302E+00   -.120E-03 -.110E-03 -.475E-02
   0.332E+00 0.909E+00 0.498E+03   -.332E+00 -.915E+00 -.497E+03   -.919E-03 0.697E-02 -.483E-01   -.178E-04 -.193E-04 -.463E-02
   -.641E+00 -.240E-01 0.498E+03   0.655E+00 0.290E-01 -.498E+03   -.188E-01 -.725E-02 -.573E-01   -.232E-04 0.384E-05 -.459E-02
   0.643E+00 -.983E-02 0.147E+04   -.641E+00 0.108E-01 -.147E+04   -.171E-02 -.221E-02 0.244E+01   -.666E-04 -.571E-05 -.395E-02
   -.684E+00 0.115E+01 0.147E+04   0.685E+00 -.114E+01 -.147E+04   -.791E-03 -.427E-02 0.244E+01   0.403E-04 -.103E-03 -.408E-02
   0.606E+01 0.261E+02 -.141E+04   -.606E+01 -.260E+02 0.142E+04   -.259E-02 -.133E+00 -.467E+01   0.434E-04 0.316E-03 -.232E-02
   -.216E+02 -.174E+00 -.139E+04   0.215E+02 0.170E+00 0.140E+04   0.755E-01 0.638E-02 -.471E+01   -.306E-03 0.138E-04 -.202E-02
   0.146E+01 -.270E-01 -.443E+03   -.146E+01 0.229E-01 0.443E+03   0.478E-02 0.560E-02 0.123E+00   0.734E-04 0.344E-05 -.466E-02
   -.263E+01 0.385E+01 -.447E+03   0.262E+01 -.384E+01 0.447E+03   0.794E-02 -.266E-02 0.302E+00   -.129E-03 0.122E-03 -.476E-02
   0.651E+00 0.237E-01 0.266E+02   -.423E-12 -.249E-13 0.853E-12   -.647E+00 -.136E+00 -.288E+02   -.433E-04 0.410E-04 -.344E+00

 POSITION                                       TOTAL-FORCE (eV/Angst)
      4.25799      4.20026     12.63798         0.063562      0.033925      0.076972
      5.70127      4.21518     13.15146        -0.048763      0.015904      0.060311
      4.06810      3.31107     12.01510         0.060222      0.186829      0.174844
      4.04163      5.09957     12.03866         0.066550     -0.191737      0.170520
      3.52715      4.17855     13.45982         0.207710      0.007991     -0.182054
      6.40806      4.23766     12.30911        -0.176704     -0.003265      0.232885
      5.92117      3.32239     13.75526        -0.071596      0.242552     -0.138753
      5.89350      5.09633     13.78119        -0.060721     -0.236134     -0.146690
      0.00006      6.33100      3.21881        -0.002670     -0.008834      0.534275
      2.11031      0.00026      3.21881        -0.002684     -0.008477      0.534878
      0.00006      0.00026      5.32906        -0.000087      0.002414     -0.090315
      2.11031      6.33100      5.32906         0.001264      0.001828     -0.094486
      8.44079      6.33043      7.45377        -0.002759     -0.003441     -0.086109
      2.11013      8.44068      7.45400         0.000509     -0.001894     -0.090139
      8.44092      8.44023      9.55992        -0.002697     -0.011641     -0.082544
      2.10918      6.32944      9.55744        -0.019319     -0.016032     -0.085761
      0.00006      2.11051      3.21881        -0.002693     -0.008117      0.534308
      2.11031      4.22076      3.21881        -0.003201     -0.008636      0.535320
      0.00006      4.22076      5.32906        -0.000686      0.002373     -0.083456
      2.11031      2.11051      5.32906         0.001222      0.002990     -0.094356
      8.44079      2.11008      7.45371        -0.002656      0.000296     -0.084447
      2.11132      4.22019      7.45511         0.002734     -0.000083     -0.108645
      0.00123      4.21985      9.55595         0.028776     -0.009012     -0.092502
      2.10914      2.11002      9.55733        -0.021560     -0.001376     -0.083995
      4.22056      6.33100      3.21881        -0.002335     -0.008976      0.534964
      6.33080      0.00026      3.21881        -0.002373     -0.008474      0.535216
      4.22056      0.00026      5.32906         0.000016      0.001843     -0.084549
      6.33080      6.33100      5.32906        -0.001005      0.001676     -0.093533
      4.22042      6.32918      7.45497         0.000125     -0.000508     -0.111469
      6.33062      8.44066      7.45415        -0.002577     -0.001860     -0.092410
      4.22017      8.44011      9.55647        -0.001030     -0.009449     -0.082998
      6.33110      6.33010      9.55826         0.005945      0.002280     -0.086901
      4.22056      2.11051      3.21881        -0.002382     -0.008033      0.535085
      6.33080      4.22076      3.21881        -0.002470     -0.008491      0.534509
      4.22056      4.22076      5.32906         0.000822      0.002096     -0.082579
      6.33080      2.11051      5.32906        -0.000839      0.003074     -0.093388
      4.22043      2.11094      7.45496        -0.000074      0.003806     -0.106460
      6.32956      4.22016      7.45556        -0.000722      0.000914     -0.117338
      4.21917      4.21964      9.57246        -0.004465      0.009062     -0.057188
      6.33123      2.10931      9.55811         0.008277     -0.017176     -0.085859
      0.00006      6.33100      5.32906        -0.001146      0.001891      0.123920
      2.11031      0.00026      5.32906        -0.002910     -0.000970      0.123162
      0.00006      0.00026      3.21881        -0.000410      0.000507     -0.313977
      2.11031      6.33100      3.21881        -0.000301      0.000609     -0.315482
      8.44051      6.32978      9.60579         0.000517      0.005111     -0.183070
      2.10979      8.44024      9.60586        -0.000918      0.004381     -0.182958
      8.44074      8.44072      7.44906         0.001248      0.001676      0.085892
      2.10995      6.33108      7.44854         0.001022      0.000841      0.065840
      0.00006      2.11051      5.32906        -0.001122     -0.003405      0.123579
      2.11031      4.22076      5.32906         0.003365     -0.000835      0.126406
      0.00006      4.22076      3.21881        -0.000089      0.000518     -0.313914
      2.11031      2.11051      3.21881        -0.000285      0.000322     -0.315312
      8.44053      2.10979      9.60563         0.001017      0.000738     -0.180695
      2.10787      4.21974      9.60038        -0.000798     -0.000001     -0.166343
      8.44074      4.22024      7.44750        -0.001049      0.003224      0.078347
      2.10988      2.10931      7.44846         0.002157      0.005870      0.065926
      4.22056      6.33100      5.32906        -0.000495     -0.004555      0.126478
      6.33080      0.00026      5.32906         0.001380     -0.001020      0.123859
      4.22056      0.00026      3.21881        -0.000251      0.000496     -0.314033
      6.33080      6.33100      3.21881        -0.000389      0.000896     -0.315403
      4.22041      6.33259      9.60494        -0.002500      0.007669     -0.175373
      6.33080      8.44022      9.60644         0.002231      0.005258     -0.189228
      4.22046      8.44054      7.44788         0.000086      0.005147      0.079952
      6.33078      6.33100      7.44892         0.000214     -0.000911      0.064654
      4.22056      2.11051      5.32906        -0.000470      0.002228      0.126839
      6.33080      4.22076      5.32906        -0.004495     -0.000902      0.126135
      4.22056      4.22076      3.21881        -0.000560      0.000477     -0.312551
      6.33080      2.11051      3.21881        -0.000383      0.000014     -0.314593
      4.22047      2.10650      9.60436        -0.002629     -0.001307     -0.171464
      6.33249      4.21973      9.60317         0.000001      0.004363     -0.162585
      4.22062      4.22016      7.45169         0.000194      0.003335      0.066479
      6.33087      2.10935      7.44884        -0.000895      0.008130      0.064351
    total drift:                                0.004625     -0.112742     -2.502334

  FREE ENERGIE OF THE ION-ELECTRON SYSTEM (eV)
  free  energy   TOTEN  =      -573.77683265 eV

  energy  without entropy=     -573.77683265  energy(sigma->0) =     -573.77683265