 vasp.6.3.0 20Jan22 (build Aug 21 2024 11:13:42) complex
 executed on        HPECrayEX_GCC date 2024.11.27  21:13:11

 INCAR:
   SYSTEM = TiO2
   ISMEAR = 0
   SIGMA = 0.05
   EDIFF = 1E-4
   ALGO = Normal
   IBRION = -1
   NSW = 0
   ISYM = 0
   ISIF = 2
   EDIFFG = -0.01
   DIPOL = 0.5 0.5 0.5
   IDIPOL = 3
   LDIPOL = .TRUE.
   LHFCALC = .TRUE.
   HFSCREEN = 0.2
   GGA = PE
   IVDW = 13
   VDW_S8 = 1.19528249
   VDW_A1 = 0.38663183
   VDW_A2 = 5.19133469
   ENCUT = 520
   PREC = Normal
   PRECFOCK = Fast
   LASPH = .TRUE.
   LREAL = .FALSE.
   ISPIN = 1
   NKREDX = 2
   NKREDY = 2
   NELM = 200
   NELMIN = 8
   NCORE = 16
   KPAR = 1
   LWAVE = .FALSE.
   LCHARG = .FALSE.

 POTCAR:    PAW_PBE C 08Apr2002
 POTCAR:    PAW_PBE O 08Apr2002
 POTCAR:    PAW_PBE Ti 08Apr2002
 POTCAR:    PAW_PBE O 08Apr2002
 POTCAR:    PAW_PBE C 08Apr2002
   VRHFIN =C: s2p2

   TITEL  = PAW_PBE C 08Apr2002
   POMASS =   12.011; ZVAL   =    4.000    mass and valenz
   ENMAX  =  400.000; ENMIN  =  300.000 eV

[...]

   TITEL  = PAW_PBE O 08Apr2002
   POMASS =   16.000; ZVAL   =    6.000    mass and valenz
   ENMAX  =  400.000; ENMIN  =  300.000 eV

  PAW_PBE C 08Apr2002                   :
  PAW_PBE O 08Apr2002                   :
  PAW_PBE Ti 08Apr2002                  :
  PAW_PBE O 08Apr2002                   :

 POSCAR:  C  O Ti  O
  positions in direct lattice
 WARNING: Using user supplied parameters
     VDW_S8 = 1.195
     VDW_A1 = 0.387
     VDW_A2 = 5.191
     because the xc functional is not supported. Required parameters not
     defined in the INCAR file will be replaced with PBE defaults ones.

 ion  position               nearest neighbor table
   1  0.421  0.500  0.819-   2 1.17   3 1.19
   2  0.361  0.500  0.847-   1 1.17
   3  0.485  0.500  0.791-   1 1.19  83 2.50
   4  0.750  0.625  0.287-  84 1.95 144 1.95  85 1.95 145 1.95 166 1.98  87 1.98  14 2.96  34 2.96

   5  0.000  0.750  0.287-  87 1.95 107 1.95 106 1.95  86 1.95  88 1.98  35 2.96  15 2.96
   6  0.000  0.625  0.394-  88 1.95 148 1.95  89 1.95 149 1.95  90 1.98  91 1.98  16 2.96  36 2.96

[...]

  84  0.750  0.750  0.245-   4 1.95  14 1.95
  85  0.750  0.750  0.329-   4 1.95  14 1.95   7 1.98
  86  0.098  0.625  0.287-   5 1.95  35 1.95  44 1.98
  87  0.902  0.625  0.287-   5 1.95  35 1.95   4 1.98
  88  0.000  0.750  0.352-   6 1.95  16 1.95   5 1.98
  89  0.000  0.750  0.435-   6 1.95  16 1.95   9 1.98
  90  0.848  0.625  0.394-   7 1.95  37 1.95   6 1.98
  91  0.152  0.625  0.394-  47 1.95  77 1.95   6 1.98
  92  0.750  0.750  0.458-   8 1.95  18 1.95   7 1.98
  93  0.750  0.750  0.542-   8 1.95  18 1.95  11 2.11
  94  0.098  0.625  0.500-   9 1.95  39 1.95  48 1.98
  95  0.902  0.625  0.500-   9 1.95  39 1.95   8 1.98
  96  1.000  0.750  0.565-  20 1.89  10 1.90   9 2.00
  97  0.000  0.750  0.649-  13 1.81  10 2.02  20 2.02
  98  0.850  0.625  0.607-  10 1.95  11 1.97  41 1.97
  99  0.150  0.625  0.607-  10 1.95  51 1.97  81 1.98
 100  0.750  0.750  0.672-  11 1.86  22 2.10  12 2.10
 101  0.750  0.750  0.756-  12 1.83  22 1.83
 102  0.094  0.625  0.719-  43 1.95  13 1.95  52 2.02
 103  0.906  0.625  0.719-  43 1.94  13 1.95  12 2.03
 104  0.750  0.000  0.245-  14 1.95  24 1.95
 105  0.750  0.000  0.329-  14 1.95  24 1.95  17 1.98
 106  0.098  0.875  0.287-   5 1.95  15 1.95  54 1.98
 107  0.902  0.875  0.287-   5 1.95  15 1.95  14 1.98
 108  0.000  0.000  0.352-  16 1.95  26 1.95  15 1.98
 109  0.000  0.000  0.435-  16 1.95  26 1.95  19 1.98
 110  0.848  0.875  0.394-   7 1.95  17 1.95  16 1.98
 111  0.152  0.875  0.394-  47 1.95  57 1.95  16 1.98
 112  0.750  0.000  0.458-  18 1.95  28 1.95  17 1.98
 113  0.750  0.000  0.542-  18 1.95  28 1.95  21 2.11
 114  0.098  0.875  0.500-   9 1.95  19 1.95  58 1.98
 115  0.902  0.875  0.500-   9 1.95  19 1.95  18 1.98
 116  1.000  1.000  0.565-  30 1.89  20 1.89  19 2.00
 117  0.000  0.000  0.649-  23 1.81  20 2.02  30 2.02
 118  0.850  0.875  0.607-  20 1.95  11 1.97  21 1.98
 119  0.150  0.875  0.607-  20 1.95  61 1.97  51 1.97
 120  0.750  0.000  0.672-  21 1.86  32 2.10  22 2.10
 121  0.750  0.000  0.756-  22 1.83  32 1.83
 122  0.094  0.875  0.719-  13 1.95  23 1.95  62 2.03
 123  0.906  0.875  0.719-  13 1.94  23 1.95  22 2.03
 124  0.750  0.250  0.245-  24 1.95  34 1.95
 125  0.750  0.250  0.329-  24 1.95  34 1.95  27 1.98
 126  0.098  0.125  0.287-  15 1.95  25 1.95  64 1.98
 127  0.902  0.125  0.287-  15 1.95  25 1.95  24 1.98
 128  0.000  0.250  0.352-  26 1.95  36 1.95  25 1.98
 129  0.000  0.250  0.435-  26 1.95  36 1.95  29 1.98
 130  0.848  0.125  0.394-  17 1.95  27 1.95  26 1.98
 131  0.152  0.125  0.394-  57 1.95  67 1.95  26 1.98
 132  0.750  0.250  0.458-  28 1.95  38 1.95  27 1.98
 133  0.750  0.250  0.542-  28 1.95  38 1.95  31 2.11
 134  0.098  0.125  0.500-  19 1.95  29 1.95  68 1.98
 135  0.902  0.125  0.500-  19 1.95  29 1.95  28 1.98
 136  1.000  0.250  0.565-  30 1.89  40 1.90  29 2.00
 137  0.000  0.250  0.649-  33 1.81  40 2.02  30 2.02
 138  0.850  0.125  0.607-  30 1.95  31 1.97  21 1.98
 139  0.150  0.125  0.607-  30 1.95  61 1.97  71 1.97
 140  0.750  0.250  0.672-  31 1.86  32 2.10  42 2.10
 141  0.750  0.250  0.756-  42 1.83  32 1.83
 142  0.094  0.125  0.719-  33 1.95  23 1.95  72 2.03
 143  0.906  0.125  0.719-  33 1.94  23 1.95  32 2.03
[...]
 229  0.500  0.500  0.435-  46 1.95  76 1.95  79 1.98
 230  0.348  0.375  0.394-  67 1.95  77 1.95  76 1.98
 231  0.652  0.375  0.394-  27 1.95  37 1.95  76 1.98
 232  0.250  0.500  0.458-  48 1.95  78 1.95  77 1.98
 233  0.250  0.500  0.542-  48 1.95  78 1.95  81 2.10
 234  0.598  0.375  0.500-  69 1.95  79 1.95  38 1.98
 235  0.402  0.375  0.500-  69 1.95  79 1.95  78 1.98
 236  0.500  0.500  0.566-  50 1.90  80 1.90  79 2.00
 237  0.500  0.500  0.650-  83 1.83  80 2.01  50 2.01
 238  0.350  0.375  0.607-  80 1.95  81 1.97  71 1.97
 239  0.650  0.375  0.607-  80 1.95  31 1.97  41 1.97
 240  0.248  0.500  0.671-  81 1.86  82 2.10  52 2.10
 241  0.254  0.500  0.756-  52 1.84  82 1.84
 242  0.594  0.374  0.718-  73 1.94  83 1.95  42 2.02
 243  0.405  0.373  0.717-  73 1.94  83 1.95  82 2.03

IMPORTANT INFORMATION: All symmetrisations will be switched off!
NOSYMM: (Re-)initialisation of all symmetry stuff for point group C_1.

                                     Primitive cell

  volume of cell :    4700.2642

  direct lattice vectors                    reciprocal lattice vectors
    13.003962940  0.000000000  0.000000000     0.076899635  0.000000000  0.000000000
     0.000000000 11.830322230  0.000000000     0.000000000  0.084528551  0.000000000
     0.000000000  0.000000000 30.552726600     0.000000000  0.000000000  0.032730303

  length of vectors
    13.003962940 11.830322230 30.552726600     0.076899635  0.084528551  0.032730303

  position of ions in fractional coordinates (direct lattice)
     0.420918212  0.499999963  0.818661600
     0.360513893  0.499999953  0.847066219
     0.485417007  0.499999972  0.791252308
     0.750000000  0.625000000  0.287188176
     0.000000000  0.750000000  0.287188176
     0.000000000  0.625000000  0.393594088
     0.750000000  0.750000000  0.393594088
     0.750000000  0.625000000  0.500000000
     0.000000000  0.750000000  0.500000000
     0.000158736  0.625022546  0.604137552
     0.750085262  0.749951904  0.610735831
     0.749623141  0.625033905  0.720399109
     0.999959256  0.750128560  0.708212843
     0.750000000  0.875000000  0.287188176
     0.000000000  0.000000000  0.287188176
     0.000000000  0.875000000  0.393594088
     0.750000000  0.000000000  0.393594088
     0.750000000  0.875000000  0.500000000
     0.000000000  0.000000000  0.500000000
     0.999931933  0.875025422  0.604164072
     0.749944738  0.999999982  0.610743381
     0.749858183  0.875055622  0.720442435
     0.000254916  0.000000001  0.708219558
     0.750000000  0.125000000  0.287188176
     0.000000000  0.250000000  0.287188176
     0.000000000  0.125000000  0.393594088
     0.750000000  0.250000000  0.393594088
     0.750000000  0.125000000  0.500000000
     0.000000000  0.250000000  0.500000000
     0.999931795  0.124974576  0.604164070
     0.750085154  0.250048133  0.610735831
     0.749858186  0.124944380  0.720442432
     0.999959259  0.249871440  0.708212839
     0.750000000  0.375000000  0.287188176
     0.000000000  0.500000000  0.287188176
     0.000000000  0.375000000  0.393594088
     0.750000000  0.500000000  0.393594088
     0.750000000  0.375000000  0.500000000
     0.000000000  0.500000000  0.500000000
     0.000158721  0.374977455  0.604137550
     0.750202520  0.499999982  0.610771513
     0.749623144  0.374966095  0.720399111
     0.999420794  0.499999999  0.708189277
     0.250000000  0.625000000  0.287188176
     0.500000000  0.750000000  0.287188176
     0.500000000  0.625000000  0.393594088
     0.250000000  0.750000000  0.393594088
     0.250000000  0.625000000  0.500000000
     0.500000000  0.750000000  0.500000000
     0.500127910  0.624330077  0.604642879
     0.249991632  0.750130962  0.610598535
     0.249370368  0.625309678  0.719931707
     0.500217558  0.750051818  0.707731424
     0.250000000  0.875000000  0.287188176
     0.500000000  0.000000000  0.287188176
     0.500000000  0.875000000  0.393594088
     0.250000000  0.000000000  0.393594088
     0.250000000  0.875000000  0.500000000
     0.500000000  0.000000000  0.500000000
     0.500148282  0.874682232  0.603774176
[...]
     0.500000000  0.500000000  0.435304992
     0.347999497  0.375000000  0.393594088
     0.652000503  0.375000000  0.393594088
     0.250000000  0.500000000  0.458289097
     0.250000000  0.500000000  0.541710903
     0.597999497  0.375000000  0.500000000
     0.402000503  0.375000000  0.500000000
     0.499955390  0.499999992  0.565534800
     0.500179389  0.500000009  0.649616931
     0.350048136  0.375004271  0.607323725
     0.649962859  0.375047703  0.607233655
     0.248340384  0.499999999  0.671453187
     0.253509881  0.499999994  0.755638928
     0.594069252  0.374230155  0.718133655
     0.405026660  0.373344564  0.717149942

  ion indices of the primitive-cell ions
   primitive index   ion index
                 1           1
                 2           2
                 3           3
                 4           4
                 5           5
                 6           6
                 7           7
                 8           8
                 9           9
                10          10
                11          11
                12          12
                13          13
                14          14
                15          15
                16          16
                17          17
                18          18
                19          19
                20          20
                21          21
                22          22
                23          23
                24          24
                25          25
                26          26
                27          27
                28          28
                29          29
                30          30
                31          31
                32          32
                33          33
                34          34
                35          35
[...]
     0.000000000  0.000000000 30.552726600     0.000000000  0.000000000  0.032730303

  length of vectors
    13.003962940 11.830322230 30.552726600     0.076899635  0.084528551  0.032730303

 FORCES acting on ions
    electron-ion (+dipol)            ewald-force                    non-local-force                 convergence-correction
   -.181E+02 0.377E-05 -.106E+04   0.172E+02 -.207E-05 0.106E+04   0.720E+00 0.299E-06 0.129E+00   -.195E-02 -.211E-05 -.764E-01
   0.166E+03 0.336E-04 -.160E+04   -.211E+03 -.395E-04 0.165E+04   0.402E+02 0.762E-05 -.435E+02   -.906E-03 -.224E-05 -.967E-01
   -.201E+03 -.199E-04 -.161E+04   0.246E+03 0.185E-04 0.157E+04   -.401E+02 0.148E-05 0.353E+02   -.233E-02 0.172E-05 -.128E+00
   -.910E-01 -.337E-01 0.109E+04   0.904E-01 0.338E-01 -.110E+04   -.619E-04 0.373E-04 -.120E+01   0.269E-05 0.213E-05 0.628E-01
   0.560E-01 -.480E-01 0.117E+04   -.564E-01 0.481E-01 -.116E+04   -.977E-04 0.231E-04 -.178E+01   -.152E-04 0.812E-05 0.628E-01
   0.757E-01 -.486E-01 0.566E+03   -.778E-01 0.488E-01 -.566E+03   -.711E-03 0.128E-03 0.170E+00   -.102E-04 0.591E-05 0.212E-01
   -.144E+00 -.595E-01 0.563E+03   0.142E+00 0.599E-01 -.564E+03   -.400E-03 0.194E-03 -.162E+00   0.156E-04 0.109E-04 0.204E-01
   -.623E+00 -.211E+00 0.832E+01   0.615E+00 0.209E+00 -.775E+01   -.226E-02 -.950E-03 0.205E+00   0.540E-04 0.162E-04 -.234E-01
   0.312E+00 -.333E+00 0.827E+01   -.318E+00 0.336E+00 -.901E+01   -.119E-02 0.214E-03 -.744E-01   -.179E-04 0.166E-04 -.253E-01
   0.180E+01 -.103E+01 -.535E+03   -.180E+01 0.103E+01 0.536E+03   0.175E-02 -.230E-02 -.294E-01   -.239E-04 0.377E-04 -.572E-01
   -.327E+01 -.235E+01 -.549E+03   0.327E+01 0.235E+01 0.548E+03   -.269E-02 -.176E-02 0.652E-01   0.124E-03 0.959E-04 -.597E-01
   -.196E+02 -.790E+01 -.106E+04   0.196E+02 0.790E+01 0.106E+04   0.171E-01 -.653E-02 -.715E-01   0.329E-03 0.158E-03 -.812E-01
   0.378E+01 -.417E+01 -.109E+04   -.379E+01 0.416E+01 0.109E+04   0.854E-02 -.395E-02 0.718E+00   0.180E-04 0.761E-04 -.794E-01
   -.875E-01 -.336E-01 0.109E+04   0.868E-01 0.338E-01 -.110E+04   -.689E-04 0.343E-04 -.120E+01   0.259E-05 -.417E-05 0.628E-01
   0.532E-01 0.401E-05 0.117E+04   -.535E-01 -.305E-07 -.116E+04   -.943E-04 -.120E-05 -.178E+01   -.159E-04 -.314E-05 0.628E-01
   0.675E-01 -.487E-01 0.566E+03   -.693E-01 0.489E-01 -.566E+03   -.640E-03 0.923E-04 0.170E+00   -.820E-05 0.367E-05 0.212E-01
   -.148E+00 -.596E-07 0.563E+03   0.146E+00 0.278E-07 -.563E+03   -.458E-03 -.281E-06 -.163E+00   0.155E-04 -.296E-05 0.204E-01
   -.656E+00 -.210E+00 0.790E+01   0.650E+00 0.211E+00 -.733E+01   -.140E-02 0.502E-03 0.205E+00   0.516E-04 0.204E-04 -.234E-01
   0.254E+00 0.218E-05 0.794E+01   -.257E+00 -.110E-05 -.867E+01   -.987E-03 0.761E-06 -.748E-01   -.257E-04 -.130E-05 -.253E-01
   0.910E+00 -.995E+00 -.537E+03   -.900E+00 0.996E+00 0.537E+03   -.332E-02 -.237E-02 -.296E-01   -.368E-04 0.464E-04 -.572E-01
   -.261E+01 -.399E-04 -.551E+03   0.261E+01 0.417E-04 0.551E+03   0.487E-02 -.197E-05 0.692E-01   0.887E-04 -.184E-05 -.596E-01
   -.810E+01 -.563E+01 -.107E+04   0.809E+01 0.562E+01 0.107E+04   0.179E-01 -.146E-02 -.727E-01   0.125E-03 0.850E-04 -.812E-01
   0.251E+01 0.394E-05 -.109E+04   -.252E+01 -.321E-05 0.109E+04   0.375E-02 0.184E-06 0.727E+00   0.177E-04 -.549E-06 -.795E-01
   -.874E-01 0.336E-01 0.109E+04   0.868E-01 -.338E-01 -.110E+04   -.689E-04 -.344E-04 -.120E+01   0.935E-06 0.432E-05 0.628E-01
   0.560E-01 0.480E-01 0.117E+04   -.564E-01 -.481E-01 -.116E+04   -.970E-04 -.222E-04 -.178E+01   -.174E-04 -.804E-05 0.628E-01
   0.675E-01 0.487E-01 0.566E+03   -.693E-01 -.489E-01 -.566E+03   -.637E-03 -.941E-04 0.170E+00   -.670E-05 -.320E-05 0.212E-01
   -.144E+00 0.595E-01 0.563E+03   0.142E+00 -.599E-01 -.564E+03   -.400E-03 -.196E-03 -.162E+00   0.145E-04 -.783E-05 0.204E-01
   -.656E+00 0.210E+00 0.790E+01   0.650E+00 -.211E+00 -.733E+01   -.140E-02 -.496E-03 0.205E+00   0.524E-04 -.192E-04 -.234E-01
   0.312E+00 0.333E+00 0.827E+01   -.318E+00 -.336E+00 -.901E+01   -.119E-02 -.214E-03 -.744E-01   -.199E-04 -.138E-04 -.253E-01
   0.909E+00 0.995E+00 -.537E+03   -.900E+00 -.996E+00 0.537E+03   -.332E-02 0.237E-02 -.296E-01   -.349E-04 -.442E-04 -.572E-01
   -.327E+01 0.235E+01 -.549E+03   0.327E+01 -.235E+01 0.548E+03   -.269E-02 0.176E-02 0.653E-01   0.120E-03 -.929E-04 -.597E-01
   -.810E+01 0.563E+01 -.107E+04   0.809E+01 -.562E+01 0.107E+04   0.179E-01 0.145E-02 -.727E-01   0.123E-03 -.915E-04 -.812E-01
   0.378E+01 0.417E+01 -.109E+04   -.379E+01 -.416E+01 0.109E+04   0.854E-02 0.395E-02 0.718E+00   0.187E-04 -.719E-04 -.794E-01
   -.910E-01 0.337E-01 0.109E+04   0.904E-01 -.338E-01 -.110E+04   -.571E-04 -.384E-04 -.120E+01   0.379E-05 -.398E-05 0.628E-01
   0.589E-01 -.270E-05 0.117E+04   -.593E-01 0.304E-07 -.116E+04   -.980E-04 0.804E-06 -.178E+01   -.227E-04 0.230E-05 0.628E-01
   0.757E-01 0.486E-01 0.566E+03   -.778E-01 -.488E-01 -.566E+03   -.710E-03 -.125E-03 0.170E+00   -.995E-05 -.608E-05 0.212E-01
   -.139E+00 -.840E-06 0.563E+03   0.138E+00 -.500E-07 -.564E+03   -.354E-03 0.109E-05 -.162E+00   0.173E-04 -.897E-07 0.204E-01
   -.623E+00 0.211E+00 0.832E+01   0.615E+00 -.209E+00 -.775E+01   -.226E-02 0.949E-03 0.205E+00   0.542E-04 -.181E-04 -.234E-01
   0.360E+00 0.947E-07 0.861E+01   -.369E+00 0.106E-05 -.935E+01   -.125E-02 -.475E-06 -.749E-01   -.202E-04 -.185E-05 -.254E-01
   0.180E+01 0.103E+01 -.535E+03   -.180E+01 -.103E+01 0.536E+03   0.175E-02 0.230E-02 -.294E-01   -.259E-04 -.396E-04 -.572E-01
   -.424E+01 -.438E-04 -.547E+03   0.423E+01 0.469E-04 0.546E+03   0.361E-02 0.137E-05 0.594E-01   0.149E-03 -.786E-06 -.597E-01
   -.196E+02 0.790E+01 -.106E+04   0.196E+02 -.790E+01 0.106E+04   0.171E-01 0.653E-02 -.715E-01   0.330E-03 -.156E-03 -.812E-01
   0.566E+01 -.395E-06 -.109E+04   -.563E+01 0.394E-05 0.109E+04   -.166E-01 -.219E-05 0.707E+00   0.150E-04 -.306E-05 -.794E-01
   0.911E-01 -.381E-01 0.109E+04   -.906E-01 0.383E-01 -.110E+04   0.611E-04 0.959E-04 -.120E+01   -.789E-05 0.171E-04 0.628E-01
   -.561E-01 -.535E-01 0.117E+04   0.565E-01 0.538E-01 -.116E+04   0.958E-04 0.102E-03 -.178E+01   0.199E-04 0.103E-04 0.628E-01
   -.738E-01 -.367E-01 0.567E+03   0.759E-01 0.413E-01 -.566E+03   0.705E-03 0.136E-02 0.171E+00   0.110E-04 -.712E-06 0.212E-01
   0.142E+00 -.722E-01 0.563E+03   -.140E+00 0.730E-01 -.564E+03   0.405E-03 0.504E-03 -.164E+00   -.223E-04 0.331E-05 0.204E-01
   0.563E+00 -.290E+00 0.904E+01   -.554E+00 0.294E+00 -.849E+01   0.280E-02 0.244E-02 0.196E+00   -.547E-04 0.253E-04 -.235E-01
   -.291E+00 -.451E+00 0.962E+01   0.295E+00 0.429E+00 -.103E+02   0.190E-02 0.759E-02 -.750E-01   0.211E-04 0.304E-04 -.254E-01
   -.135E+01 -.237E+01 -.529E+03   0.135E+01 0.243E+01 0.529E+03   0.223E-03 -.374E-01 -.206E-01   0.224E-04 0.942E-04 -.574E-01
   0.306E+01 -.299E+01 -.546E+03   -.307E+01 0.299E+01 0.546E+03   0.748E-02 -.306E-02 0.573E-01   -.114E-03 0.802E-04 -.596E-01
   0.280E+02 -.147E+02 -.105E+04   -.280E+02 0.146E+02 0.104E+04   -.367E-01 0.216E-01 -.306E-01   -.346E-03 0.194E-03 -.808E-01
   -.686E+01 -.249E+02 -.107E+04   0.684E+01 0.250E+02 0.107E+04   0.289E-01 -.899E-02 0.786E+00   -.474E-05 0.415E-03 -.793E-01
   0.875E-01 -.380E-01 0.109E+04   -.869E-01 0.383E-01 -.110E+04   0.702E-04 0.102E-03 -.120E+01   -.745E-05 -.184E-05 0.628E-01
   -.532E-01 0.641E-06 0.117E+04   0.535E-01 0.520E-08 -.116E+04   0.965E-04 -.138E-05 -.178E+01   0.187E-04 -.112E-05 0.628E-01
   -.658E-01 -.397E-01 0.567E+03   0.676E-01 0.418E-01 -.566E+03   0.652E-03 0.448E-03 0.172E+00   0.169E-04 0.742E-05 0.212E-01
   0.146E+00 -.184E-05 0.563E+03   -.144E+00 -.112E-06 -.564E+03   0.497E-03 -.531E-06 -.164E+00   -.242E-04 -.144E-05 0.204E-01
   0.611E+00 -.297E+00 0.838E+01   -.605E+00 0.311E+00 -.782E+01   0.148E-02 0.766E-02 0.201E+00   -.518E-04 0.188E-04 -.234E-01
   -.228E+00 -.223E-05 0.966E+01   0.230E+00 0.190E-05 -.104E+02   0.131E-02 -.307E-06 -.101E+00   0.250E-04 -.791E-06 -.254E-01
   -.683E+00 -.325E+01 -.530E+03   0.679E+00 0.327E+01 0.530E+03   -.148E-03 -.335E-02 -.850E-01   0.298E-04 0.949E-04 -.572E-01
[...]
   -.247E+02 0.706E-01 0.847E+03   0.289E+02 -.716E-01 -.847E+03   -.338E+01 0.154E-02 0.188E+00   0.203E-03 0.112E-04 0.322E-01
   0.246E+02 0.598E-01 0.847E+03   -.288E+02 -.606E-01 -.847E+03   0.337E+01 0.991E-03 0.183E+00   -.196E-03 0.113E-05 0.322E-01
   0.473E+00 0.433E-05 0.363E+03   -.467E+00 0.760E-06 -.368E+03   -.690E-02 -.142E-05 0.402E+01   -.387E-04 -.387E-05 -.889E-02
   0.148E+01 -.477E-05 -.340E+03   -.147E+01 -.254E-05 0.348E+03   -.418E-02 0.108E-05 -.687E+01   -.122E-03 0.137E-05 -.580E-01
   -.248E+02 0.163E+00 0.155E+02   0.299E+02 -.167E+00 -.158E+02   -.504E+01 0.160E-01 0.347E+00   0.206E-03 -.389E-04 -.359E-01
   0.240E+02 0.232E+00 0.161E+02   -.290E+02 -.238E+00 -.163E+02   0.501E+01 0.182E-01 0.353E+00   -.159E-03 -.452E-04 -.359E-01
   -.119E+01 0.768E-05 -.456E+03   0.116E+01 -.204E-04 0.449E+03   0.308E-01 0.159E-04 0.643E+01   0.957E-05 -.140E-05 -.695E-01
   -.658E+01 -.246E-04 -.113E+04   0.675E+01 0.404E-04 0.113E+04   -.149E+00 -.725E-05 0.175E+01   0.401E-04 -.745E-05 -.991E-01
   -.727E+01 0.387E+01 -.803E+03   0.104E+02 -.395E+01 0.802E+03   -.282E+01 0.677E-01 0.812E+00   -.884E-03 -.949E-04 -.869E-01
   0.410E+01 0.280E+01 -.806E+03   -.713E+01 -.283E+01 0.805E+03   0.272E+01 0.211E-01 0.931E+00   0.911E-03 -.127E-03 -.868E-01
   0.219E+02 -.235E-04 -.127E+04   -.221E+02 0.211E-04 0.127E+04   0.245E+00 0.222E-06 -.232E+01   -.420E-03 0.346E-05 -.106E+00
   0.909E+02 -.112E-04 -.182E+04   -.908E+02 -.100E-04 0.184E+04   -.165E+00 0.135E-04 -.191E+02   -.893E-03 0.665E-05 -.130E+00
   -.357E+02 0.348E+02 -.162E+04   0.420E+02 -.345E+02 0.162E+04   -.567E+01 -.246E+00 -.334E+01   0.133E-02 -.709E-03 -.122E+00
   0.113E+02 0.477E+02 -.158E+04   -.177E+02 -.477E+02 0.158E+04   0.580E+01 0.235E-01 -.265E+01   -.141E-02 -.898E-03 -.122E+00
   -.137E+01 -.355E-04 0.105E+03   0.320E-12 0.213E-12 -.682E-11   0.121E+01 -.375E-04 -.915E+02   -.527E-02 0.222E-04 -.520E+01

 POSITION                                       TOTAL-FORCE (eV/Angst)
      5.47360      5.91516     25.01234        -0.133382      0.000000      0.248090
      4.68811      5.91516     25.88018         1.208952      0.000001     -1.322766
      6.31234      5.91516     24.17492        -1.080430      0.000003      0.992146
      9.75297      7.39395      8.77438        -0.000587      0.000103     -3.887421
      0.00000      8.87274      8.77438        -0.000454      0.000108      3.270061
      0.00000      7.39395     12.02537        -0.002910      0.000323      0.560506
      9.75297      8.87274     12.02537        -0.002036      0.000692     -0.827168
      9.75297      7.39395     15.27636        -0.010744     -0.003030      0.781503
      0.00000      8.87274     15.27636        -0.007620      0.003643     -0.878056
      0.00206      7.39422     18.45805        -0.000976     -0.000055      0.104243
      9.75408      8.87217     18.65964        -0.000494      0.000231     -0.037036
      9.74807      7.39435     22.01016         0.007464     -0.004782     -0.187574
     13.00343      8.87426     21.63783         0.000289     -0.002678      0.119323
      9.75297     10.35153      8.77438        -0.000666      0.000184     -3.887385
      0.00000      0.00000      8.77438        -0.000413     -0.000000      3.270089
      0.00000     10.35153     12.02537        -0.002505      0.000317      0.560907
      9.75297      0.00000     12.02537        -0.002491     -0.000003     -0.827406
      9.75297     10.35153     15.27636        -0.007117      0.001340      0.780213
      0.00000      0.00000     15.27636        -0.004733      0.000001     -0.877220
     13.00308     10.35183     18.45886         0.001533     -0.000120      0.104072
      9.75225     11.83032     18.65988         0.001491     -0.000003     -0.041042
      9.75113     10.35219     22.01148        -0.000944     -0.008640     -0.189641
      0.00331      0.00000     21.63804        -0.001581      0.000001      0.116594
      9.75297      1.47879      8.77438        -0.000666     -0.000182     -3.887384
      0.00000      2.95758      8.77438        -0.000453     -0.000107      3.270062
      0.00000      1.47879     12.02537        -0.002501     -0.000322      0.560906
      9.75297      2.95758     12.02537        -0.002037     -0.000690     -0.827169
      9.75297      1.47879     15.27636        -0.007119     -0.001329      0.780225
      0.00000      2.95758     15.27636        -0.007620     -0.003641     -0.878055
     13.00308      1.47849     18.45886         0.001534      0.000121      0.104074
      9.75408      2.95815     18.65964        -0.000492     -0.000234     -0.037025
      9.75113      1.47813     22.01148        -0.000948      0.008629     -0.189632
     13.00343      2.95606     21.63783         0.000285      0.002681      0.119326
      9.75297      4.43637      8.77438        -0.000583     -0.000104     -3.887424
      0.00000      5.91516      8.77438        -0.000443      0.000001      3.270087
      0.00000      4.43637     12.02537        -0.002909     -0.000316      0.560502
      9.75297      5.91516     12.02537        -0.001615      0.000000     -0.826829
      9.75297      4.43637     15.27636        -0.010746      0.003029      0.781503
      0.00000      5.91516     15.27636        -0.010209     -0.000001     -0.879149
      0.00206      4.43610     18.45805        -0.000974      0.000056      0.104246
      9.75561      5.91516     18.66074        -0.002031      0.000003     -0.033582
      9.74807      4.43597     22.01016         0.007468      0.004787     -0.187562
     12.99643      5.91516     21.63711         0.004250     -0.000002      0.121262
      3.25099      7.39395      8.77438         0.000633      0.000335     -3.889061
      6.50198      8.87274      8.77438         0.000524      0.000400      3.272011
      6.50198      7.39395     12.02537         0.002966      0.006258      0.565071
      3.25099      8.87274     12.02537         0.002205      0.001345     -0.836043
      3.25099      7.39395     15.27636         0.011588      0.007412      0.746607
      6.50198      8.87274     15.27636         0.006358     -0.014770     -0.836617
      6.50364      7.38603     18.47349         0.002956      0.004104      0.092489
      3.25088      8.87429     18.65545        -0.000584      0.001670     -0.037902
      3.24280      7.39761     21.99588        -0.005622      0.020145     -0.200176
      6.50481      8.87335     21.62312         0.000173      0.019683      0.121168
      3.25099     10.35153      8.77438         0.000779      0.000357     -3.888649
      6.50198      0.00000      8.77438         0.000529     -0.000002      3.272478
      6.50198     10.35153     12.02537         0.002565      0.002790      0.569208
      3.25099      0.00000     12.02537         0.002628     -0.000004     -0.834074
      3.25099     10.35153     15.27636         0.007869      0.022911      0.766089
      6.50198      0.00000     15.27636         0.003985     -0.000001     -0.910860
      6.50391     10.34777     18.44695         0.000552      0.004409      0.112521
[...]
      6.50198      5.91516     13.29975        -0.000937      0.000002     -0.236999
      4.52537      4.43637     12.02537         0.330508      0.000783      0.057681
      8.47859      4.43637     12.02537        -0.333599      0.000397      0.056546
      3.25099      5.91516     14.00198        -0.002079     -0.000000      0.052812
      3.25099      5.91516     16.55075         0.002093     -0.000004     -0.148608
      7.77636      4.43637     15.27636        -0.702942      0.014737      0.108581
      5.22760      4.43637     15.27636         0.687042      0.015349      0.109628
      6.50140      5.91516     17.27863        -0.000063      0.000005      0.101657
      6.50431      5.91516     19.84757        -0.003173      0.000000     -0.231340
      4.55201      4.43642     18.55540        -0.095861      0.000114      0.022241
      8.45209      4.43694     18.55264         0.094606     -0.000305      0.024520
      3.22941      5.91516     20.51473         0.003444      0.000002      0.165243
      3.29663      5.91516     23.08683        -0.007315      0.000001     -0.243797
      7.72525      4.42726     21.94094        -0.180873      0.009226     -0.040219
      5.26695      4.41679     21.91089         0.171247      0.009875     -0.028841
    total drift:                               -0.011806     -0.000056      0.100569

  FREE ENERGIE OF THE ION-ELECTRON SYSTEM (eV)
  free  energy   TOTEN  =     -2646.29814328 eV

  energy  without entropy=    -2646.29814328  energy(sigma->0) =    -2646.29814328