 vasp.6.3.0 20Jan22 (build Dec 25 2023 18:06:01) complex
 executed on        HPECrayEX_GCC date 2024.02.08  00:39:42

 INCAR:
   SYSTEM = TiO2
   ISMEAR = 0
   SIGMA = 0.05
   EDIFF = 1E-4
   ALGO = ALL
   ICHARG = 1
   IBRION = -1
   NSW = 0
   ISYM = 0
   ISIF = 2
   EDIFFG = -0.01
   DIPOL = 0.5 0.5 0.5
   IDIPOL = 3
   LDIPOL = .TRUE.
   LHFCALC = .TRUE.
   HFSCREEN = 0.2
   GGA = PE
   IVDW = 13
   VDW_S8 = 1.19528249
   VDW_A1 = 0.38663183
   VDW_A2 = 5.19133469
   ENCUT = 520
   PREC = Normal
   PRECFOCK = Fast
   LASPH = .TRUE.
   LREAL = .FALSE.
   ISPIN = 1
   NELM = 200
   NELMIN = 8
   NCORE = 4
   KPAR = 1
   NKREDX = 2
   NKREDY = 2
   LWAVE = .FALSE.
   LCHARG = .FALSE.

 POTCAR:    PAW_PBE C 08Apr2002
 POTCAR:    PAW_PBE O 08Apr2002
 POTCAR:    PAW_PBE Ti 08Apr2002
 POTCAR:    PAW_PBE O 08Apr2002
 POTCAR:    PAW_PBE C 08Apr2002
   VRHFIN =C: s2p2

   TITEL  = PAW_PBE C 08Apr2002
   POMASS =   12.011; ZVAL   =    4.000    mass and valenz
   ENMAX  =  400.000; ENMIN  =  300.000 eV

[...]

   TITEL  = PAW_PBE O 08Apr2002
   POMASS =   16.000; ZVAL   =    6.000    mass and valenz
   ENMAX  =  400.000; ENMIN  =  300.000 eV

  PAW_PBE C 08Apr2002                   :
  PAW_PBE O 08Apr2002                   :
  PAW_PBE Ti 08Apr2002                  :
  PAW_PBE O 08Apr2002                   :

 POSCAR:  C  O Ti  O
  positions in direct lattice
|           W    W    AA    RRRRR   N    N  II  N    N   GGGG   !!!           |
|           W    W   A  A   R    R  NN   N  II  NN   N  G    G  !!!           |
|           W    W  A    A  R    R  N N  N  II  N N  N  G       !!!           |
|           W WW W  AAAAAA  RRRRR   N  N N  II  N  N N  G  GGG   !            |
|           WW  WW  A    A  R   R   N   NN  II  N   NN  G    G                |
|           W    W  A    A  R    R  N    N  II  N    N   GGGG   !!!           |
|     Specifying the vdW parameters                                           |
|     VDW_S8 = 1.195                                                          |
|     VDW_A1 = 0.387                                                          |
|     VDW_A2 = 5.191                                                          |
|     in the INCAR file will overwrite the defaults for hse06. Please         |
|     make sure that is what you intended.                                    |

 ion  position               nearest neighbor table
   1  0.422  0.500  0.817-   2 1.17   3 1.18
   2  0.364  0.500  0.846-   1 1.17
   3  0.485  0.500  0.789-   1 1.18  83 2.42
   4  0.750  0.625  0.287-  84 1.96  85 1.96 144 1.96 145 1.96 166 1.99  87 1.99  14 2.96  34 2.96

   5  0.000  0.750  0.287-  87 1.96 107 1.96 106 1.96  86 1.96  88 1.99  35 2.96  15 2.96
   6  0.000  0.625  0.393-  88 1.96  89 1.96 148 1.96 149 1.96  90 1.99  91 1.99  16 2.96  36 2.96

[...]

  84  0.750  0.750  0.245-   4 1.96  14 1.96
  85  0.750  0.750  0.328-   4 1.96  14 1.96   7 1.99
  86  0.098  0.625  0.287-   5 1.96  35 1.96  44 1.99
  87  0.902  0.625  0.287-   5 1.96  35 1.96   4 1.99
  88  0.000  0.750  0.352-   6 1.96  16 1.96   5 1.99
  89  0.000  0.750  0.435-   6 1.96  16 1.96   9 1.99
  90  0.848  0.625  0.393-   7 1.96  37 1.96   6 1.99
  91  0.152  0.625  0.393-  47 1.96  77 1.96   6 1.99
  92  0.750  0.750  0.458-   8 1.96  18 1.96   7 1.99
  93  0.750  0.750  0.542-   8 1.96  18 1.96  11 2.11
  94  0.098  0.625  0.500-   9 1.96  39 1.96  48 1.99
  95  0.902  0.625  0.500-   9 1.96  39 1.96   8 1.99
  96  1.000  0.750  0.565-  20 1.90  10 1.90   9 2.01
  97  0.000  0.750  0.649-  13 1.82  10 2.02  20 2.02
  98  0.850  0.625  0.607-  10 1.96  11 1.98  41 1.98
  99  0.150  0.625  0.607-  10 1.96  51 1.98  81 1.98
 100  0.750  0.750  0.672-  11 1.87  22 2.10  12 2.10
 101  0.750  0.750  0.756-  12 1.83  22 1.83
 102  0.094  0.625  0.719-  43 1.95  13 1.95  52 2.03
 103  0.906  0.625  0.719-  43 1.95  13 1.95  12 2.04
 104  0.750  0.000  0.245-  14 1.96  24 1.96
 105  0.750  0.000  0.328-  14 1.96  24 1.96  17 1.99
 106  0.098  0.875  0.287-   5 1.96  15 1.96  54 1.99
 107  0.902  0.875  0.287-   5 1.96  15 1.96  14 1.99
 108  0.000  0.000  0.352-  16 1.96  26 1.96  15 1.99
 109  0.000  0.000  0.435-  16 1.96  26 1.96  19 1.99
 110  0.848  0.875  0.393-   7 1.96  17 1.96  16 1.99
 111  0.152  0.875  0.393-  47 1.96  57 1.96  16 1.99
 112  0.750  0.000  0.458-  18 1.96  28 1.96  17 1.99
 113  0.750  0.000  0.542-  18 1.96  28 1.96  21 2.11
 114  0.098  0.875  0.500-   9 1.96  19 1.96  58 1.99
 115  0.902  0.875  0.500-   9 1.96  19 1.96  18 1.99
 116  1.000  1.000  0.566-  30 1.90  20 1.90  19 2.01
 117  0.000  0.000  0.649-  23 1.82  30 2.02  20 2.02
 118  0.850  0.875  0.607-  20 1.96  21 1.98  11 1.98
 119  0.150  0.875  0.607-  20 1.96  61 1.98  51 1.98
 120  0.750  0.000  0.672-  21 1.87  32 2.10  22 2.10
 121  0.750  1.000  0.756-  32 1.83  22 1.83
 122  0.094  0.875  0.719-  13 1.95  23 1.95  62 2.04
 123  0.906  0.875  0.719-  13 1.95  23 1.95  22 2.04
 124  0.750  0.250  0.245-  24 1.96  34 1.96
 125  0.750  0.250  0.328-  24 1.96  34 1.96  27 1.99
 126  0.098  0.125  0.287-  15 1.96  25 1.96  64 1.99
 127  0.902  0.125  0.287-  15 1.96  25 1.96  24 1.99
 128  0.000  0.250  0.352-  26 1.96  36 1.96  25 1.99
 129  0.000  0.250  0.435-  26 1.96  36 1.96  29 1.99
 130  0.848  0.125  0.393-  17 1.96  27 1.96  26 1.99
 131  0.152  0.125  0.393-  57 1.96  67 1.96  26 1.99
 132  0.750  0.250  0.458-  28 1.96  38 1.96  27 1.99
 133  0.750  0.250  0.542-  28 1.96  38 1.96  31 2.11
 134  0.098  0.125  0.500-  19 1.96  29 1.96  68 1.99
 135  0.902  0.125  0.500-  19 1.96  29 1.96  28 1.99
 136  1.000  0.250  0.565-  30 1.90  40 1.90  29 2.01
 137  0.000  0.250  0.649-  33 1.82  40 2.02  30 2.02
 138  0.850  0.125  0.607-  30 1.96  21 1.98  31 1.98
 139  0.150  0.125  0.607-  30 1.96  61 1.98  71 1.98
 140  0.750  0.250  0.672-  31 1.87  32 2.10  42 2.10
 141  0.750  0.250  0.756-  42 1.83  32 1.83
 142  0.094  0.125  0.719-  33 1.95  23 1.95  72 2.04
 143  0.906  0.125  0.719-  33 1.95  23 1.95  32 2.04
[...]
 229  0.500  0.500  0.435-  46 1.96  76 1.96  79 1.99
 230  0.348  0.375  0.393-  67 1.96  77 1.96  76 1.99
 231  0.652  0.375  0.393-  27 1.96  37 1.96  76 1.99
 232  0.250  0.500  0.458-  48 1.96  78 1.96  77 1.99
 233  0.250  0.500  0.542-  48 1.96  78 1.96  81 2.11
 234  0.598  0.375  0.500-  69 1.96  79 1.96  38 1.99
 235  0.402  0.375  0.500-  69 1.96  79 1.96  78 1.99
 236  0.500  0.500  0.566-  50 1.90  80 1.90  79 2.01
 237  0.500  0.500  0.650-  83 1.85  50 2.01  80 2.01
 238  0.350  0.375  0.607-  80 1.96  81 1.98  71 1.98
 239  0.650  0.375  0.607-  80 1.96  31 1.98  41 1.98
 240  0.248  0.500  0.672-  81 1.87  82 2.09  52 2.09
 241  0.254  0.500  0.755-  82 1.84  52 1.84
 242  0.594  0.374  0.719-  73 1.94  83 1.95  42 2.04
 243  0.405  0.373  0.717-  73 1.94  83 1.95  82 2.04

IMPORTANT INFORMATION: All symmetrisations will be switched off!
NOSYMM: (Re-)initialisation of all symmetry stuff for point group C_1.

                                     Primitive cell

  volume of cell :    4737.1524

  direct lattice vectors                    reciprocal lattice vectors
    13.061127704  0.000000000  0.000000000     0.076563067  0.000000000  0.000000000
     0.000000000 11.845298948  0.000000000     0.000000000  0.084421677  0.000000000
     0.000000000  0.000000000 30.618975621     0.000000000  0.000000000  0.032659486

  length of vectors
    13.061127704 11.845298948 30.618975621     0.076563067  0.084421677  0.032659486

  position of ions in fractional coordinates (direct lattice)
     0.422175870  0.499999986  0.816949664
     0.363563192  0.500000061  0.845643463
     0.485403240  0.499999906  0.789255362
     0.750000000  0.625000000  0.286715143
     0.000000000  0.750000000  0.286715143
     0.000000000  0.625000000  0.393357571
     0.750000000  0.750000000  0.393357571
     0.750000000  0.625000000  0.500000000
     0.000000000  0.750000000  0.500000000
     0.000027548  0.625025336  0.604450387
     0.750022723  0.749965086  0.610702906
     0.749758820  0.625056871  0.720352708
     0.999968190  0.750179161  0.708641345
     0.750000000  0.875000000  0.286715143
     0.000000000  0.000000000  0.286715143
     0.000000000  0.875000000  0.393357571
     0.750000000  0.000000000  0.393357571
     0.750000000  0.875000000  0.500000000
     0.000000000  0.000000000  0.500000000
     0.999908607  0.875024860  0.604494416
     0.749942208  0.000000008  0.610710158
     0.749834210  0.875062410  0.720386643
     0.000234136  0.000000001  0.708641751
     0.750000000  0.125000000  0.286715143
     0.000000000  0.250000000  0.286715143
     0.000000000  0.125000000  0.393357571
     0.750000000  0.250000000  0.393357571
     0.750000000  0.125000000  0.500000000
     0.000000000  0.250000000  0.500000000
     0.999908664  0.124975140  0.604494413
     0.750022854  0.250034951  0.610702906
     0.749834221  0.124937582  0.720386640
     0.999968205  0.249820844  0.708641342
     0.750000000  0.375000000  0.286715143
     0.000000000  0.500000000  0.286715143
     0.000000000  0.375000000  0.393357571
     0.750000000  0.500000000  0.393357571
     0.750000000  0.375000000  0.500000000
     0.000000000  0.500000000  0.500000000
     0.000027669  0.374974670  0.604450385
     0.750116614  0.500000014  0.610759278
     0.749758832  0.374943128  0.720352706
     0.999430546  0.500000004  0.708617869
     0.250000000  0.625000000  0.286715143
     0.500000000  0.750000000  0.286715143
     0.500000000  0.625000000  0.393357571
     0.250000000  0.750000000  0.393357571
     0.250000000  0.625000000  0.500000000
     0.500000000  0.750000000  0.500000000
     0.500029807  0.624070893  0.605140566
     0.249943485  0.750124170  0.610547268
     0.249226001  0.625400004  0.719830523
     0.500245892  0.750163476  0.708131423
     0.250000000  0.875000000  0.286715143
     0.500000000  0.000000000  0.286715143
     0.500000000  0.875000000  0.393357571
     0.250000000  0.000000000  0.393357571
     0.250000000  0.875000000  0.500000000
     0.500000000  0.000000000  0.500000000
     0.500119505  0.874577051  0.604027267
[...]
     0.500000000  0.500000000  0.435126570
     0.347918341  0.375000000  0.393357571
     0.652081659  0.375000000  0.393357571
     0.250000000  0.500000000  0.458231001
     0.250000000  0.500000000  0.541768999
     0.597918341  0.375000000  0.500000000
     0.402081659  0.375000000  0.500000000
     0.499955897  0.499999990  0.565718168
     0.500160283  0.500000016  0.650042993
     0.349878947  0.375020416  0.607468681
     0.650117793  0.375067729  0.607387511
     0.248065470  0.500000005  0.671612318
     0.253940985  0.499999998  0.755422617
     0.593954752  0.374082287  0.718515363
     0.405061125  0.373010829  0.717372717

  ion indices of the primitive-cell ions
   primitive index   ion index
                 1           1
                 2           2
                 3           3
                 4           4
                 5           5
                 6           6
                 7           7
                 8           8
                 9           9
                10          10
                11          11
                12          12
[...]
   6.53056385  0.00000000  8.77892396
   6.53056385 10.36463658 12.04420588
   3.26528193  0.00000000 12.04420588
   3.26528193 10.36463658 15.30948781
   6.53056385  0.00000000 15.30948781
   6.53212472 10.35962662 18.49469618
[...]
   6.53056385  5.92264947 13.32312984
   4.54420588  4.44198711 12.04420588
   8.51692182  4.44198711 12.04420588
   3.26528193  5.92264947 14.03056385
   3.26528193  5.92264947 16.58841177
   7.80948781  4.44198711 15.30948781
   5.25163989  4.44198711 15.30948781
   6.52998782  5.92264935 17.32171081
   6.53265733  5.92264967 19.90365057
   4.56981361  4.44222894 18.60006872
   8.49127152  4.44278937 18.59758338
   3.24001478  5.92264954 20.56408120
   3.31675563  5.92264944 23.13026668
   7.75771887  4.43111652 22.00020439
   5.29055508  4.41842479 21.96521773

--------------------------------------- Iteration      FINAL  ---------------------------------------

--------------------OUTCAR has been truncated-------------------------

[...]

--------------------OUTCAR has been truncated-------------------------

  FORCE on cell =-STRESS in cart. coord.  units (eV):
  Direction    XX          YY          ZZ          XY          YZ          ZX
  Alpha Z  2960.37818  2960.37818  2960.37818
  Ewald  502398.63900507157.71042************    -0.00044     0.00037  -299.82902
  Hartree523887.00909524998.08880************    -0.00020     0.00018  -103.48244
  E(xc)   -4684.36254 -4733.15088 -4685.12192    -0.00000    -0.00001    -0.57102
  Local  ************************************     0.00051    -0.00057   366.92808
  n-local -2946.89078 -2845.54603 -3002.07750    -0.00001    -0.00004     2.42982
  augment  1349.32931  1331.08229  1353.78262     0.00003     0.00004     1.38020
  Kinetic 23620.57865 23118.28344 23669.68099     0.00011    -0.00001    32.89782
  Fock    -2146.46557 -2169.90822 -2149.29399    -0.00002    -0.00004     1.74105
  vdW       -48.78943   -48.66945   -42.69553     0.00000     0.00000    -0.00661
  Total     -92.86746  -158.61998  -122.45388    -0.00002    -0.00007     1.48787
  in kB     -31.40919   -53.64770   -41.41577    -0.00001    -0.00002     0.50322

 VOLUME and BASIS-vectors are now :
  energy-cutoff  :      520.00
  volume of cell :     4737.15
      direct lattice vectors                 reciprocal lattice vectors
    13.061127704  0.000000000  0.000000000     0.076563067  0.000000000  0.000000000
     0.000000000 11.845298948  0.000000000     0.000000000  0.084421677  0.000000000
     0.000000000  0.000000000 30.618975621     0.000000000  0.000000000  0.032659486

  length of vectors
    13.061127704 11.845298948 30.618975621     0.076563067  0.084421677  0.032659486

 FORCES acting on ions:
    Electron-Ion                     Ewald-Force                    Non-Local-Force
   -.182E+02 0.205E-04 -.107E+04   0.173E+02 -.576E-05 0.107E+04   0.814E+00 -.158E-04 0.110E+00
   0.163E+03 -.152E-03 -.161E+04   -.208E+03 0.256E-03 0.166E+04   0.397E+02 -.989E-04 -.446E+02
   -.198E+03 0.205E-03 -.161E+04   0.243E+03 -.291E-03 0.157E+04   -.396E+02 0.106E-03 0.351E+02
   -.887E-01 -.323E-01 0.109E+04   0.882E-01 0.324E-01 -.109E+04   -.681E-04 0.151E-04 -.118E+01
   0.554E-01 -.463E-01 0.116E+04   -.558E-01 0.463E-01 -.116E+04   -.122E-03 0.471E-04 -.174E+01
   0.769E-01 -.478E-01 0.562E+03   -.793E-01 0.478E-01 -.562E+03   -.762E-03 0.718E-04 0.170E+00
   -.133E+00 -.548E-01 0.559E+03   0.131E+00 0.552E-01 -.560E+03   -.432E-03 0.197E-03 -.156E+00
   -.552E+00 -.197E+00 0.888E+01   0.542E+00 0.193E+00 -.837E+01   -.264E-02 -.171E-02 0.198E+00
   0.310E+00 -.334E+00 0.894E+01   -.317E+00 0.337E+00 -.960E+01   -.129E-02 -.324E-03 -.671E-01
   0.167E+01 -.102E+01 -.532E+03   -.167E+01 0.102E+01 0.532E+03   0.324E-03 -.286E-02 -.430E-01
   -.329E+01 -.231E+01 -.544E+03   0.329E+01 0.232E+01 0.544E+03   -.325E-02 -.167E-02 0.750E-01
   -.199E+02 -.791E+01 -.106E+04   0.199E+02 0.791E+01 0.106E+04   0.118E-01 -.610E-02 -.800E-01
   0.378E+01 -.406E+01 -.108E+04   -.377E+01 0.402E+01 0.109E+04   0.876E-02 -.182E-02 0.676E+00
   -.858E-01 -.323E-01 0.109E+04   0.850E-01 0.323E-01 -.109E+04   -.604E-04 0.291E-04 -.118E+01
   0.526E-01 -.127E-04 0.116E+04   -.530E-01 -.359E-07 -.116E+04   -.118E-03 -.107E-04 -.174E+01
   0.687E-01 -.481E-01 0.562E+03   -.707E-01 0.481E-01 -.562E+03   -.693E-03 0.436E-04 0.170E+00
   -.141E+00 0.163E-05 0.559E+03   0.139E+00 -.172E-06 -.559E+03   -.512E-03 -.558E-05 -.156E+00
   -.628E+00 -.195E+00 0.848E+01   0.622E+00 0.195E+00 -.797E+01   -.156E-02 0.481E-03 0.197E+00
   0.254E+00 0.192E-05 0.857E+01   -.258E+00 -.102E-05 -.923E+01   -.118E-02 -.357E-05 -.666E-01
   0.910E+00 -.980E+00 -.533E+03   -.896E+00 0.981E+00 0.534E+03   -.374E-02 -.273E-02 -.432E-01
   -.254E+01 0.107E-05 -.547E+03   0.255E+01 -.136E-05 0.546E+03   0.390E-02 -.462E-05 0.806E-01
   -.812E+01 -.565E+01 -.106E+04   0.812E+01 0.564E+01 0.106E+04   0.186E-01 -.688E-03 -.830E-01
   0.250E+01 -.915E-05 -.109E+04   -.251E+01 -.136E-05 0.109E+04   0.299E-02 0.842E-05 0.690E+00
   -.858E-01 0.323E-01 0.109E+04   0.850E-01 -.323E-01 -.109E+04   -.695E-04 -.366E-04 -.118E+01
   0.554E-01 0.463E-01 0.116E+04   -.558E-01 -.463E-01 -.116E+04   -.100E-03 -.252E-04 -.174E+01
   0.687E-01 0.481E-01 0.562E+03   -.707E-01 -.481E-01 -.562E+03   -.693E-03 -.448E-04 0.170E+00
   -.133E+00 0.548E-01 0.559E+03   0.131E+00 -.552E-01 -.560E+03   -.441E-03 -.189E-03 -.156E+00
   -.628E+00 0.195E+00 0.848E+01   0.622E+00 -.195E+00 -.797E+01   -.156E-02 -.459E-03 0.197E+00
   0.310E+00 0.334E+00 0.894E+01   -.317E+00 -.337E+00 -.960E+01   -.129E-02 0.320E-03 -.671E-01
   0.910E+00 0.980E+00 -.533E+03   -.896E+00 -.981E+00 0.534E+03   -.374E-02 0.273E-02 -.432E-01
   -.329E+01 0.231E+01 -.544E+03   0.329E+01 -.232E+01 0.544E+03   -.324E-02 0.167E-02 0.750E-01
   -.812E+01 0.565E+01 -.106E+04   0.812E+01 -.564E+01 0.106E+04   0.186E-01 0.682E-03 -.831E-01
   0.378E+01 0.406E+01 -.108E+04   -.377E+01 -.402E+01 0.109E+04   0.876E-02 0.182E-02 0.676E+00
   -.887E-01 0.323E-01 0.109E+04   0.882E-01 -.324E-01 -.109E+04   -.750E-04 -.377E-04 -.118E+01
   0.582E-01 -.354E-05 0.116E+04   -.586E-01 0.357E-07 -.116E+04   -.116E-03 -.933E-05 -.174E+01
   0.769E-01 0.478E-01 0.562E+03   -.793E-01 -.478E-01 -.562E+03   -.762E-03 -.720E-04 0.170E+00
   -.125E+00 0.719E-06 0.559E+03   0.124E+00 0.144E-06 -.560E+03   -.397E-03 0.762E-05 -.155E+00
   -.552E+00 0.197E+00 0.888E+01   0.542E+00 -.193E+00 -.837E+01   -.265E-02 0.171E-02 0.198E+00
   0.360E+00 -.364E-05 0.931E+01   -.369E+00 0.296E-06 -.997E+01   -.142E-02 -.263E-05 -.684E-01
   0.167E+01 0.102E+01 -.532E+03   -.167E+01 -.102E+01 0.532E+03   0.321E-03 0.286E-02 -.430E-01
   -.427E+01 0.106E-04 -.542E+03   0.427E+01 -.225E-05 0.541E+03   0.306E-02 0.362E-05 0.679E-01
   -.199E+02 0.791E+01 -.106E+04   0.199E+02 -.791E+01 0.106E+04   0.118E-01 0.610E-02 -.800E-01
   0.565E+01 -.693E-05 -.108E+04   -.561E+01 0.299E-05 0.108E+04   -.182E-01 0.105E-05 0.660E+00
   0.889E-01 -.366E-01 0.109E+04   -.883E-01 0.368E-01 -.109E+04   0.671E-04 0.100E-03 -.118E+01
   -.555E-01 -.510E-01 0.116E+04   0.559E-01 0.513E-01 -.116E+04   0.103E-03 0.107E-03 -.174E+01
   -.757E-01 -.304E-01 0.563E+03   0.781E-01 0.356E-01 -.562E+03   0.758E-03 0.152E-02 0.171E+00
   0.132E+00 -.678E-01 0.559E+03   -.130E+00 0.685E-01 -.560E+03   0.443E-03 0.491E-03 -.157E+00
   0.503E+00 -.276E+00 0.961E+01   -.493E+00 0.279E+00 -.913E+01   0.317E-02 0.159E-02 0.188E+00
   -.310E+00 -.446E+00 0.101E+02   0.316E+00 0.418E+00 -.108E+02   0.218E-02 0.910E-02 -.621E-01
   -.151E+01 -.242E+01 -.526E+03   0.151E+01 0.252E+01 0.526E+03   -.235E-02 -.483E-01 -.244E-01
   0.305E+01 -.302E+01 -.541E+03   -.306E+01 0.302E+01 0.541E+03   0.710E-02 -.363E-02 0.667E-01
   0.287E+02 -.145E+02 -.104E+04   -.287E+02 0.145E+02 0.104E+04   -.363E-01 0.152E-01 -.287E-01
   -.717E+01 -.257E+02 -.106E+04   0.715E+01 0.258E+02 0.106E+04   0.336E-01 -.177E-01 0.746E+00
   0.858E-01 -.365E-01 0.109E+04   -.851E-01 0.367E-01 -.109E+04   0.865E-04 0.816E-04 -.118E+01
   -.527E-01 0.254E-05 0.116E+04   0.531E-01 -.196E-07 -.116E+04   0.124E-03 -.118E-04 -.174E+01
   -.676E-01 -.329E-01 0.563E+03   0.696E-01 0.355E-01 -.562E+03   0.703E-03 0.523E-03 0.173E+00
   0.140E+00 -.124E-05 0.559E+03   -.138E+00 -.225E-06 -.560E+03   0.545E-03 0.508E-05 -.157E+00
   0.595E+00 -.285E+00 0.898E+01   -.588E+00 0.299E+00 -.849E+01   0.152E-02 0.778E-02 0.192E+00
   -.239E+00 0.684E-06 0.103E+02   0.242E+00 0.123E-05 -.110E+02   0.134E-02 0.338E-06 -.959E-01
   -.755E+00 -.339E+01 -.526E+03   0.748E+00 0.345E+01 0.526E+03   -.827E-03 -.718E-02 -.108E+00
[...]
   -.251E+02 0.636E-01 0.841E+03   0.294E+02 -.647E-01 -.841E+03   -.350E+01 0.162E-02 0.187E+00
   0.249E+02 0.528E-01 0.841E+03   -.292E+02 -.536E-01 -.841E+03   0.350E+01 0.106E-02 0.182E+00
   0.419E+00 -.155E-04 0.361E+03   -.412E+00 0.128E-05 -.366E+03   -.799E-02 0.466E-05 0.414E+01
   0.128E+01 0.262E-04 -.337E+03   -.126E+01 0.429E-05 0.344E+03   -.153E-01 -.137E-04 -.689E+01
   -.249E+02 0.980E-01 0.162E+02   0.301E+02 -.103E+00 -.164E+02   -.511E+01 0.192E-01 0.307E+00
   0.241E+02 0.162E+00 0.168E+02   -.293E+02 -.169E+00 -.170E+02   0.508E+01 0.215E-01 0.314E+00
   -.130E+01 -.280E-04 -.452E+03   0.129E+01 -.421E-05 0.445E+03   0.128E-01 0.200E-04 0.655E+01
   -.690E+01 -.621E-04 -.112E+04   0.707E+01 0.290E-04 0.112E+04   -.149E+00 0.154E-04 0.109E+01
   -.832E+01 0.380E+01 -.796E+03   0.116E+02 -.387E+01 0.795E+03   -.291E+01 0.650E-01 0.789E+00
   0.534E+01 0.278E+01 -.799E+03   -.858E+01 -.284E+01 0.798E+03   0.290E+01 0.513E-01 0.917E+00
   0.224E+02 -.557E-04 -.125E+04   -.227E+02 0.426E-04 0.126E+04   0.259E+00 0.632E-05 -.219E+01
   0.926E+02 0.475E-04 -.181E+04   -.924E+02 -.144E-04 0.183E+04   -.247E+00 0.432E-04 -.189E+02
   -.380E+02 0.365E+02 -.160E+04   0.445E+02 -.362E+02 0.161E+04   -.586E+01 -.222E+00 -.328E+01
   0.131E+02 0.498E+02 -.157E+04   -.197E+02 -.498E+02 0.157E+04   0.598E+01 0.251E-01 -.249E+01
   -.183E+01 -.503E-05 0.103E+03   -.151E-11 -.753E-12 0.134E-10   0.163E+01 0.647E-04 -.940E+02

 POSITION                                       TOTAL-FORCE (eV/Angst)
      5.51409      5.92265     25.01416        -0.021839     -0.000003      0.142731
      4.74855      5.92265     25.89274         0.899572     -0.000010     -1.039452
      6.33991      5.92265     24.16619        -0.876829      0.000034      0.880320
      9.79585      7.40331      8.77892        -0.000616      0.000125     -3.823441
      0.00000      8.88397      8.77892        -0.000547      0.000106      3.356477
      0.00000      7.40331     12.04421        -0.003238      0.000116      0.563745
      9.79585      8.88397     12.04421        -0.002182      0.000683     -0.819655
      9.79585      7.40331     15.30949        -0.012810     -0.005255      0.748546
      0.00000      8.88397     15.30949        -0.008400      0.003229     -0.826577
      0.00036      7.40361     18.50765        -0.000044      0.000775      0.019542
      9.79614      8.88356     18.69910        -0.000933     -0.000442      0.087296
      9.79270      7.40399     22.05646        -0.000956     -0.001599     -0.230136
     13.06071      8.88610     21.69787        -0.000798      0.000911     -0.060712
      9.79585     10.36464      8.77892        -0.000708      0.000142     -3.823378
      0.00000      0.00000      8.77892        -0.000496     -0.000025      3.356491
      0.00000     10.36464     12.04421        -0.002841      0.000054      0.563860
      9.79585      0.00000     12.04421        -0.002801     -0.000004     -0.820157
      9.79585     10.36464     15.30949        -0.008161      0.001346      0.745691
      0.00000      0.00000     15.30949        -0.005768     -0.000003     -0.824220
     13.05993     10.36493     18.50900        -0.001189      0.001267      0.017866
      9.79509      0.00000     18.69932        -0.000186     -0.000005      0.085247
      9.79368     10.36538     22.05750        -0.002307     -0.001682     -0.234675
      0.00306      0.00000     21.69788        -0.001333     -0.000001     -0.060847
      9.79585      1.48066      8.77892        -0.000724     -0.000141     -3.823437
      0.00000      2.96132      8.77892        -0.000533     -0.000067      3.356469
      0.00000      1.48066     12.04421        -0.002848     -0.000059      0.563859
      9.79585      2.96132     12.04421        -0.002186     -0.000676     -0.819639
      9.79585      1.48066     15.30949        -0.008166     -0.001336      0.745682
      0.00000      2.96132     15.30949        -0.008403     -0.003231     -0.826580
     13.05993      1.48037     18.50900        -0.001189     -0.001265      0.017860
      9.79614      2.96174     18.69910        -0.000918      0.000435      0.087301
      9.79368      1.47992     22.05750        -0.002285      0.001693     -0.234700
     13.06071      2.95920     21.69787        -0.000802     -0.000902     -0.060713
      9.79585      4.44199      8.77892        -0.000605     -0.000162     -3.823436
      0.00000      5.92265      8.77892        -0.000508     -0.000014      3.356545
      0.00000      4.44199     12.04421        -0.003236     -0.000115      0.563752
      9.79585      5.92265     12.04421        -0.001691      0.000009     -0.819088
      9.79585      4.44199     15.30949        -0.012807      0.005269      0.748578
      0.00000      5.92265     15.30949        -0.010706     -0.000007     -0.828650
      0.00036      4.44169     18.50765        -0.000045     -0.000783      0.019542
      9.79737      5.92265     18.70082        -0.002458      0.000013      0.088773
      9.79270      4.44131     22.05646        -0.000973      0.001587     -0.230126
     13.05369      5.92265     21.69715         0.003563     -0.000003     -0.061087
      3.26528      7.40331      8.77892         0.000684      0.000357     -3.825162
      6.53056      8.88397      8.77892         0.000632      0.000415      3.358593
      6.53056      7.40331     12.04421         0.003298      0.007171      0.568365
      3.26528      8.88397     12.04421         0.002362      0.001281     -0.829648
      3.26528      7.40331     15.30949         0.013379      0.004826      0.710535
      6.53056      8.88397     15.30949         0.007313     -0.020649     -0.763841
      6.53095      7.39231     18.52878         0.000389      0.009167      0.012272
      3.26454      8.88545     18.69433        -0.000163      0.001033      0.084920
      3.25517      7.40805     22.04047         0.006243     -0.006523     -0.222069
      6.53378      8.88591     21.68226        -0.005773      0.002796     -0.055490
      3.26528     10.36464      8.77892         0.000854      0.000324     -3.824844
      6.53056      0.00000      8.77892         0.000608     -0.000009      3.359095
      6.53056     10.36464     12.04421         0.002921      0.003393      0.573124
      3.26528      0.00000     12.04421         0.002922      0.000004     -0.827846
      3.26528     10.36464     15.30949         0.008907      0.023309      0.728703
      6.53056      0.00000     15.30949         0.004938      0.000002     -0.857410
      6.53212     10.35963     18.49470         0.002013      0.000470      0.026496
[...]
      6.53056      5.92265     13.32313        -0.001020      0.000009     -0.282611
      4.54421      4.44199     12.04421         0.291409      0.000801      0.057508
      8.51692      4.44199     12.04421        -0.294876      0.000391      0.056267
      3.26528      5.92265     14.03056        -0.002405     -0.000008      0.087534
      3.26528      5.92265     16.58841         0.001604      0.000015     -0.252489
      7.80949      4.44199     15.30949        -0.705037      0.017595      0.098604
      5.25164      4.44199     15.30949         0.687470      0.018356      0.099740
      6.52999      5.92265     17.32171         0.000269     -0.000011      0.181843
      6.53266      5.92265     19.90365        -0.002579     -0.000017     -0.151850
      4.56981      4.44223     18.60007        -0.092576      0.001797      0.021491
      8.49127      4.44279     18.59758         0.090746      0.001672      0.024018
      3.24001      5.92265     20.56408         0.005479     -0.000006      0.020330
      3.31676      5.92265     23.13027        -0.017348      0.000086     -0.262585
      7.75772      4.43112     22.00020        -0.215174      0.014123     -0.067458
      5.29056      4.41842     21.96522         0.210876      0.015784     -0.053917
    total drift:                               -0.012824      0.000070     -0.181244

  FREE ENERGIE OF THE ION-ELECTRON SYSTEM (eV)
  free  energy   TOTEN  =     -2645.51887600 eV

  energy  without entropy=    -2645.51887600  energy(sigma->0) =    -2645.51887600