 vasp.6.3.0 20Jan22 (build Apr  1 2022 16:44:48) complex
 executed on        HPECrayEX_GCC date 2023.04.05  16:10:57

 INCAR:
   SYSTEM = MgO-rocksalt
   ISMEAR = 0
   SIGMA = 0.05
   EDIFF = 1E-7
   ALGO = ALL
   ISTART = 0
   IBRION = 2
   NSW = 1000
   ISYM = 2
   ISIF = 3
   EDIFFG = -0.005
   GGA = RE
   IVDW = 13
   VDW_S8 = 1.7468
   VDW_A1 = 0.5363
   VDW_A2 = 3.0726
   ENCUT = 600
   PREC = Accurate
   LASPH = .TRUE.
   LREAL = .FALSE.
   ISPIN = 1
   NELM = 200
   NELMIN = 8
   NCORE = 8
   KPAR = 1
   LWAVE = .FALSE.
   LCHARG = .FALSE.

 POTCAR:    PAW_PBE Ti_pv 07Sep2000
 POTCAR:    PAW_PBE O 08Apr2002
 POTCAR:    PAW_PBE Ti_pv 07Sep2000
   VRHFIN =Ti: d3 s1

   TITEL  = PAW_PBE Ti_pv 07Sep2000
   POMASS =   47.880; ZVAL   =   10.000    mass and valenz
   ENMAX  =  222.335; ENMIN  =  166.751 eV

   TITEL  = PAW_PBE O 08Apr2002
   POMASS =   16.000; ZVAL   =    6.000    mass and valenz
   ENMAX  =  400.000; ENMIN  =  300.000 eV

  PAW_PBE Ti_pv 07Sep2000               :
  PAW_PBE O 08Apr2002                   :

 POSCAR: Ti2 O4
  positions in direct lattice
  velocities in cartesian coordinates
|           W    W    AA    RRRRR   N    N  II  N    N   GGGG   !!!           |
|           W    W   A  A   R    R  NN   N  II  NN   N  G    G  !!!           |
|           W    W  A    A  R    R  N N  N  II  N N  N  G       !!!           |
|           W WW W  AAAAAA  RRRRR   N  N N  II  N  N N  G  GGG   !            |
|           WW  WW  A    A  R   R   N   NN  II  N   NN  G    G                |
|           W    W  A    A  R    R  N    N  II  N    N   GGGG   !!!           |
|     Specifying the vdW parameters                                           |
|     VDW_S8 = 1.747                                                          |
|     VDW_A1 = 0.536                                                          |
|     VDW_A2 = 3.073                                                          |
|     in the INCAR file will overwrite the defaults for revpbe. Please        |
|     make sure that is what you intended.                                    |

 ion  position               nearest neighbor table
   1  0.500  0.500  0.000-   6 1.95   3 1.95   3 1.95   6 1.95   5 1.98   4 1.98
   2  0.000  0.000  0.500-   4 1.95   5 1.95   4 1.95   5 1.95   3 1.98   6 1.98
   3  0.696  0.696  0.500-   1 1.95   1 1.95   2 1.98
   4  0.196  0.804  0.000-   2 1.95   2 1.95   1 1.98
   5  0.804  0.196  0.000-   2 1.95   2 1.95   1 1.98
   6  0.304  0.304  0.500-   1 1.95   1 1.95   2 1.98

  LATTYP: Found a simple tetragonal cell.
 ALAT       =     4.5976013629
 C/A-ratio  =     0.6432907717

  Lattice vectors:

 A1 = (   4.5976013629,   0.0000000000,   0.0000000000)
 A2 = (   0.0000000000,   4.5976013629,   0.0000000000)
 A3 = (   0.0000000000,   0.0000000000,   2.9575945287)

Analysis of symmetry for initial positions (statically):
 Subroutine PRICEL returns:
 Original cell was already a primitive cell.

 Routine SETGRP: Setting up the symmetry group for a
 simple tetragonal supercell.

 Subroutine GETGRP returns: Found 16 space group operations
 (whereof  8 operations were pure point group operations)
 out of a pool of 16 trial point group operations.

The static configuration has the point symmetry D_2h.
 The point group associated with its full space group is D_4h.

Analysis of symmetry for dynamics (positions and initial velocities):
 Subroutine PRICEL returns:
 Original cell was already a primitive cell.

 Routine SETGRP: Setting up the symmetry group for a
 simple tetragonal supercell.

 Subroutine GETGRP returns: Found 16 space group operations
 (whereof  8 operations were pure point group operations)
 out of a pool of 16 trial point group operations.

The dynamic configuration has the point symmetry D_2h.
 The point group associated with its full space group is D_4h.

 Subroutine INISYM returns: Found 16 space group operations
 (whereof  8 operations are pure point group operations),
 and found     1 'primitive' translations

                                     Primitive cell

  volume of cell :      62.5175

  direct lattice vectors                    reciprocal lattice vectors
     4.597601363  0.000000000  0.000000000     0.217504721 -0.000000000  0.000000000
     0.000000000  4.597601363  0.000000000     0.000000000  0.217504721  0.000000000
     0.000000000  0.000000000  2.957594529    -0.000000000 -0.000000000  0.338112608

  length of vectors
     4.597601363  4.597601363  2.957594529     0.217504721  0.217504721  0.338112608

  position of ions in fractional coordinates (direct lattice)
     0.500000000  0.500000000  1.000000000
     0.000000000  0.000000000  0.500000000
     0.695999096  0.695999096  0.500000000
     0.195999096  0.804000904  1.000000000
     0.804000904  0.195999096  1.000000000
     0.304000904  0.304000904  0.500000000

  ion indices of the primitive-cell ions
   primitive index   ion index
                 1           1
                 2           2
                 3           3
                 4           4
                 5           5
                 6           6

 KPOINTS: pymatgen v2020.8.13 with grid density =

Automatic generation of k-mesh.
 Grid dimensions read from file:
 generate k-points for:    5    5    8

 Generating k-lattice:

  Cartesian coordinates                     Fractional coordinates (reciprocal lattice)
     0.043500944 -0.000000000  0.000000000     0.200000000  0.000000000  0.000000000
     0.000000000  0.043500944  0.000000000     0.000000000  0.200000000  0.000000000
    -0.000000000 -0.000000000  0.042264076    -0.000000000 -0.000000000  0.125000000

  Length of vectors
     0.043500944  0.043500944  0.042264076

  Shift w.r.t. Gamma in fractional coordinates (k-lattice)
     0.000000000  0.000000000  0.000000000

 Subroutine IBZKPT returns following result:

 Found     30 irreducible k-points:

 Following reciprocal coordinates:
            Coordinates               Weight
  0.000000  0.000000  0.000000      1.000000
  0.200000  0.000000  0.000000      4.000000
  0.400000  0.000000  0.000000      4.000000
  0.200000  0.200000  0.000000      4.000000
  0.400000  0.200000  0.000000      8.000000
  0.400000  0.400000  0.000000      4.000000
  0.000000  0.000000  0.125000      2.000000
  0.200000  0.000000  0.125000      8.000000
  0.400000  0.000000  0.125000      8.000000
  0.200000  0.200000  0.125000      8.000000
  0.400000  0.200000  0.125000     16.000000
  0.400000  0.400000  0.125000      8.000000
  0.000000  0.000000  0.250000      2.000000
  0.200000  0.000000  0.250000      8.000000
  0.400000  0.000000  0.250000      8.000000
  0.200000  0.200000  0.250000      8.000000
  0.400000  0.200000  0.250000     16.000000
  0.400000  0.400000  0.250000      8.000000
  0.000000  0.000000  0.375000      2.000000
  0.200000  0.000000  0.375000      8.000000
  0.400000  0.000000  0.375000      8.000000
  0.200000  0.200000  0.375000      8.000000
  0.400000  0.200000  0.375000     16.000000
  0.400000  0.400000  0.375000      8.000000
  0.000000  0.000000  0.500000      1.000000
  0.200000  0.000000  0.500000      4.000000
  0.400000  0.000000  0.500000      4.000000
  0.200000  0.200000  0.500000      4.000000
  0.400000  0.200000  0.500000      8.000000
  0.400000  0.400000  0.500000      4.000000

 Following cartesian coordinates:
            Coordinates               Weight
  0.000000  0.000000  0.000000      1.000000
  0.043501  0.000000  0.000000      4.000000
  0.087002  0.000000  0.000000      4.000000
  0.043501  0.043501  0.000000      4.000000
  0.087002  0.043501  0.000000      8.000000
  0.087002  0.087002  0.000000      4.000000
  0.000000  0.000000  0.042264      2.000000
  0.043501  0.000000  0.042264      8.000000
  0.087002  0.000000  0.042264      8.000000
  0.043501  0.043501  0.042264      8.000000
  0.087002  0.043501  0.042264     16.000000
  0.087002  0.087002  0.042264      8.000000
  0.000000  0.000000  0.084528      2.000000
  0.043501  0.000000  0.084528      8.000000
  0.087002  0.000000  0.084528      8.000000
  0.043501  0.043501  0.084528      8.000000
  0.087002  0.043501  0.084528     16.000000
  0.087002  0.087002  0.084528      8.000000
  0.000000  0.000000  0.126792      2.000000
  0.043501  0.000000  0.126792      8.000000
  0.087002  0.000000  0.126792      8.000000
  0.043501  0.043501  0.126792      8.000000
  0.087002  0.043501  0.126792     16.000000
  0.087002  0.087002  0.126792      8.000000
  0.000000  0.000000  0.169056      1.000000
  0.043501  0.000000  0.169056      4.000000
  0.087002  0.000000  0.169056      4.000000
  0.043501  0.043501  0.169056      4.000000
  0.087002  0.043501  0.169056      8.000000
  0.087002  0.087002  0.169056      4.000000

 SYSTEM =  MgO-rocksalt
 POSCAR =  Ti2 O4

  energy-cutoff  :      600.00
  volume of cell :       62.52
      direct lattice vectors                 reciprocal lattice vectors
     4.597601363  0.000000000  0.000000000     0.217504721 -0.000000000  0.000000000
     0.000000000  4.597601363  0.000000000     0.000000000  0.217504721  0.000000000
     0.000000000  0.000000000  2.957594529    -0.000000000 -0.000000000  0.338112608

[...]

 k-points in units of 2pi/SCALE and weight: pymatgen v2020.8.13 with grid density =
   0.00000000  0.00000000  0.00000000       0.005
   0.04350094  0.00000000  0.00000000       0.020
   0.08700189  0.00000000  0.00000000       0.020
   0.04350094  0.04350094  0.00000000       0.020
   0.08700189  0.04350094  0.00000000       0.040
   0.08700189  0.08700189  0.00000000       0.020
   0.00000000  0.00000000  0.04226408       0.010
   0.04350094  0.00000000  0.04226408       0.040
   0.08700189  0.00000000  0.04226408       0.040
   0.04350094  0.04350094  0.04226408       0.040
   0.08700189  0.04350094  0.04226408       0.080
   0.08700189  0.08700189  0.04226408       0.040
   0.00000000  0.00000000  0.08452815       0.010
   0.04350094  0.00000000  0.08452815       0.040
   0.08700189  0.00000000  0.08452815       0.040
   0.04350094  0.04350094  0.08452815       0.040
   0.08700189  0.04350094  0.08452815       0.080
   0.08700189  0.08700189  0.08452815       0.040
   0.00000000  0.00000000  0.12679223       0.010
   0.04350094  0.00000000  0.12679223       0.040
   0.08700189  0.00000000  0.12679223       0.040
   0.04350094  0.04350094  0.12679223       0.040
   0.08700189  0.04350094  0.12679223       0.080
   0.08700189  0.08700189  0.12679223       0.040
   0.00000000  0.00000000  0.16905630       0.005
   0.04350094  0.00000000  0.16905630       0.020
   0.08700189  0.00000000  0.16905630       0.020
   0.04350094  0.04350094  0.16905630       0.020
   0.08700189  0.04350094  0.16905630       0.040
   0.08700189  0.08700189  0.16905630       0.020

 k-points in reciprocal lattice and weights: pymatgen v2020.8.13 with grid density =
   0.00000000  0.00000000  0.00000000       0.005
   0.20000000  0.00000000  0.00000000       0.020
   0.40000000  0.00000000  0.00000000       0.020
   0.20000000  0.20000000  0.00000000       0.020
   0.40000000  0.20000000  0.00000000       0.040
   0.40000000  0.40000000  0.00000000       0.020
   0.00000000  0.00000000  0.12500000       0.010
   0.20000000  0.00000000  0.12500000       0.040
   0.40000000  0.00000000  0.12500000       0.040
   0.20000000  0.20000000  0.12500000       0.040
   0.40000000  0.20000000  0.12500000       0.080
   0.40000000  0.40000000  0.12500000       0.040
   0.00000000  0.00000000  0.25000000       0.010
   0.20000000  0.00000000  0.25000000       0.040
   0.40000000  0.00000000  0.25000000       0.040
   0.20000000  0.20000000  0.25000000       0.040
   0.40000000  0.20000000  0.25000000       0.080
   0.40000000  0.40000000  0.25000000       0.040
   0.00000000  0.00000000  0.37500000       0.010
   0.20000000  0.00000000  0.37500000       0.040
   0.40000000  0.00000000  0.37500000       0.040
   0.20000000  0.20000000  0.37500000       0.040
   0.40000000  0.20000000  0.37500000       0.080
   0.40000000  0.40000000  0.37500000       0.040
   0.00000000  0.00000000  0.50000000       0.005
   0.20000000  0.00000000  0.50000000       0.020
   0.40000000  0.00000000  0.50000000       0.020
   0.20000000  0.20000000  0.50000000       0.020
   0.40000000  0.20000000  0.50000000       0.040
   0.40000000  0.40000000  0.50000000       0.020

 position of ions in fractional coordinates (direct lattice)
   0.50000000  0.50000000  0.00000000
   0.00000000  0.00000000  0.50000000
   0.69599910  0.69599910  0.50000000
   0.19599910  0.80400090  0.00000000
   0.80400090  0.19599910  0.00000000
   0.30400090  0.30400090  0.50000000

 position of ions in cartesian coordinates  (Angst):
   2.29880068  2.29880068  0.00000000
   0.00000000  0.00000000  1.47879726
   3.19992639  3.19992639  1.47879726
   0.90112571  3.69647565  0.00000000
   3.69647565  0.90112571  0.00000000
   1.39767497  1.39767497  1.47879726

--------------------------------------- Iteration      FINAL  ---------------------------------------

--------------------OUTCAR has been truncated-------------------------

[...]

--------------------OUTCAR has been truncated-------------------------

  FORCE on cell =-STRESS in cart. coord.  units (eV):
  Direction    XX          YY          ZZ          XY          YZ          ZX
  Alpha Z   218.70027   218.70027   218.70027
  Ewald   -1119.20733 -1119.20733  -696.86795    -0.00000     0.00000     0.00000
  Hartree   216.39210   216.39210   437.41008    -0.00000    -0.00000    -0.00000
  E(xc)    -215.71971  -215.71971  -215.06332     0.00000     0.00000    -0.00000
  Local     188.28478   188.28478  -444.46985     0.00000    -0.00000    -0.00000
  n-local  -132.74222  -133.79808  -131.27462     0.06330     0.13036    -0.01034
  augment   130.93162   130.93162   129.97887    -0.00000    -0.00000     0.00000
  Kinetic   717.98775   717.07758   705.21938    -1.15664    -0.72199    -1.46962
  Fock        0.00000     0.00000     0.00000     0.00000     0.00000     0.00000
  vdW        -3.64326    -3.64326    -3.62493    -0.00000    -0.00000    -0.00000
  Total       0.00099     0.00099     0.00793     0.00000     0.00000     0.00000
  in kB       0.02535     0.02535     0.20333     0.00000     0.00000     0.00000

 VOLUME and BASIS-vectors are now :
  energy-cutoff  :      600.00
  volume of cell :       62.52
      direct lattice vectors                 reciprocal lattice vectors
     4.597601363  0.000000000  0.000000000     0.217504721 -0.000000000  0.000000000
     0.000000000  4.597601363  0.000000000     0.000000000  0.217504721  0.000000000
     0.000000000  0.000000000  2.957594529    -0.000000000 -0.000000000  0.338112608

  length of vectors
     4.597601363  4.597601363  2.957594529     0.217504721  0.217504721  0.338112608

 FORCES acting on ions:
    Electron-Ion                     Ewald-Force                    Non-Local-Force
   -.790E-12 -.108E-11 -.180E-11   0.284E-13 0.284E-13 -.495E-14   0.000E+00 0.000E+00 -.106E-23
   0.178E-13 0.983E-14 0.975E-13   0.426E-13 0.711E-13 -.994E-14   0.000E+00 0.000E+00 -.259E-23
   -.364E+02 -.364E+02 0.328E-06   0.394E+02 0.394E+02 -.337E-13   -.305E+01 -.305E+01 -.391E-15
   -.364E+02 0.364E+02 -.911E-13   0.394E+02 -.394E+02 0.948E-14   -.305E+01 0.305E+01 0.365E-17
   0.364E+02 -.364E+02 -.126E-11   -.394E+02 0.394E+02 0.553E-14   0.305E+01 -.305E+01 0.207E-17
   0.364E+02 0.364E+02 -.328E-06   -.394E+02 -.394E+02 0.425E-13   0.305E+01 0.305E+01 0.390E-15
   -.364E-11 -.132E-11 -.337E-11   0.711E-14 -.711E-14 0.891E-14   0.444E-15 -.444E-15 0.476E-17

 POSITION                                       TOTAL-FORCE (eV/Angst)
      2.29880      2.29880      0.00000         0.000000      0.000000     -0.000000
      0.00000      0.00000      1.47880         0.000000      0.000000     -0.000000
      3.19993      3.19993      1.47880         0.000390      0.000390      0.000000
      0.90113      3.69648      0.00000         0.000390     -0.000390      0.000000
      3.69648      0.90113      0.00000        -0.000390      0.000390      0.000000
      1.39767      1.39767      1.47880        -0.000390     -0.000390     -0.000000
    total drift:                               -0.000000     -0.000000     -0.000000

  FREE ENERGIE OF THE ION-ELECTRON SYSTEM (eV)
  free  energy   TOTEN  =       -53.77314198 eV

  energy  without entropy=      -53.77314198  energy(sigma->0) =      -53.77314198

 reached required accuracy - stopping structural energy minimisation