 vasp.6.3.0 20Jan22 (build Aug 21 2024 11:13:42) complex
 executed on        HPECrayEX_GCC date 2024.11.26  23:53:13

 INCAR:
   SYSTEM = TiO2
   ISMEAR = 0
   SIGMA = 0.05
   EDIFF = 1E-4
   ALGO = ALL
   ISTART = 0
   IBRION = -1
   NSW = 0
   ISYM = 0
   ISIF = 2
   EDIFFG = -0.01
   DIPOL = 0.5 0.5 0.5
   IDIPOL = 3
   LDIPOL = .TRUE.
   GGA = RE
   IVDW = 13
   VDW_S8 = 1.7468
   VDW_A1 = 0.5363
   VDW_A2 = 3.0726
   ENCUT = 600
   PREC = Accurate
   LASPH = .TRUE.
   LREAL = .FALSE.
   ISPIN = 1
   NELM = 200
   NELMIN = 8
   NCORE = 16
   KPAR = 1
   LWAVE = .FALSE.
   LCHARG = .FALSE.

 POTCAR:    PAW_PBE Ti_pv 07Sep2000
 POTCAR:    PAW_PBE O 08Apr2002
 POTCAR:    PAW_PBE Ti_pv 07Sep2000
   VRHFIN =Ti: d3 s1

   TITEL  = PAW_PBE Ti_pv 07Sep2000
   POMASS =   47.880; ZVAL   =   10.000    mass and valenz
   ENMAX  =  222.335; ENMIN  =  166.751 eV

   TITEL  = PAW_PBE O 08Apr2002
   POMASS =   16.000; ZVAL   =    6.000    mass and valenz
   ENMAX  =  400.000; ENMIN  =  300.000 eV

  PAW_PBE Ti_pv 07Sep2000               :
  PAW_PBE O 08Apr2002                   :

 POSCAR: Ti  O
  positions in direct lattice
|           W    W    AA    RRRRR   N    N  II  N    N   GGGG   !!!           |
|           W    W   A  A   R    R  NN   N  II  NN   N  G    G  !!!           |
|           W    W  A    A  R    R  N N  N  II  N N  N  G       !!!           |
|           W WW W  AAAAAA  RRRRR   N  N N  II  N  N N  G  GGG   !            |
|           WW  WW  A    A  R   R   N   NN  II  N   NN  G    G                |
|           W    W  A    A  R    R  N    N  II  N    N   GGGG   !!!           |
|     Specifying the vdW parameters                                           |
|     VDW_S8 = 1.747                                                          |
|     VDW_A1 = 0.536                                                          |
|     VDW_A2 = 3.073                                                          |
|     in the INCAR file will overwrite the defaults for revpbe. Please        |
|     make sure that is what you intended.                                    |

 ion  position               nearest neighbor table
   1  0.809  0.833  0.295-  85 1.94  51 1.94  53 1.94  52 2.00  50 2.00  18 3.06   2 3.06   4 3.06

   2  0.593  0.667  0.326-  49 1.94 116 1.94  54 1.94  52 1.94  53 2.00  55 2.00  33 3.06   1 3.06
                             3 3.06   7 3.09
   3  0.309  0.667  0.295- 121 1.94  55 1.94  57 1.94  56 2.00  49 2.00  36 3.06   4 3.06   2 3.06

   4  0.093  0.833  0.326-  88 1.94  50 1.94  58 1.94  56 1.94  57 2.00  51 2.00  19 3.06   3 3.06
                             1 3.06   5 3.09
   5  0.946  0.833  0.422-  59 1.93  93 1.94  61 1.94  51 1.98  60 1.99  58 2.00   8 3.01  22 3.06
                             6 3.06   4 3.09
   6  0.728  0.666  0.451-  54 1.90 124 1.94  60 1.95  62 1.96  63 1.99  61 2.00   7 3.02   5 3.06
                            37 3.06  11 3.11
   7  0.445  0.666  0.422-  63 1.93 129 1.94  65 1.94  55 1.98  64 1.99  54 2.00   6 3.02   8 3.06
                            40 3.06   2 3.09
   8  0.227  0.833  0.451-  58 1.90  96 1.94  64 1.94  66 1.97  59 1.98  65 2.00   5 3.01  23 3.06
                             7 3.06   9 3.11
   9  0.087  0.833  0.550-  67 1.93 101 1.93  69 1.94  68 1.98  59 2.01  66 2.01  12 2.96  10 3.05
                            26 3.06   8 3.11
  10  0.866  0.666  0.575-  62 1.87 132 1.94  68 1.95  71 1.96  70 2.01  69 2.01  11 2.98   9 3.05
                            41 3.06
  11  0.586  0.666  0.549- 137 1.93  73 1.94  71 1.94  72 1.98  63 1.98  62 2.01  10 2.98  12 3.06
                            44 3.07   6 3.11
  12  0.365  0.833  0.576-  66 1.87 104 1.94  72 1.95  67 1.96  74 2.00  73 2.02   9 2.96  11 3.06
                            27 3.06
  13  0.232  0.833  0.680-  75 1.87  77 1.93 109 1.94  76 2.00  74 2.09  67 2.09  16 2.86  30 3.08
                            14 3.09
  14  0.002  0.666  0.700-  70 1.78  78 1.84 140 1.97  76 1.99  77 2.06  15 2.87  13 3.09  45 3.11

[...]

  17  0.809  0.167  0.295-  85 1.94  83 1.94 117 1.94  84 2.00  82 2.00  18 3.06  34 3.06  20 3.06

[...]

  36  0.093  0.500  0.326-  56 1.94 120 1.94 114 1.94 122 1.94 121 2.00 115 2.00   3 3.06  35 3.06
                            33 3.06  37 3.08
  37  0.947  0.500  0.422- 123 1.93 125 1.94  61 1.94 115 1.98 122 1.99 124 2.00  40 3.01   6 3.06
                            38 3.06  36 3.08
  38  0.728  0.334  0.451- 118 1.90 124 1.94  92 1.95 126 1.96 127 1.99 125 2.00  39 3.02  21 3.06
                            37 3.06  43 3.11
  39  0.445  0.334  0.422- 127 1.93 129 1.94  97 1.94 119 1.98 128 1.99 118 2.00  38 3.02  24 3.06
                            40 3.06  34 3.09
  40  0.227  0.500  0.452- 122 1.93 128 1.94  64 1.94 123 1.97 130 1.97 129 2.01  37 3.01  39 3.06
                             7 3.06  41 3.08
  41  0.090  0.500  0.550- 131 1.92 133 1.94  69 1.94 130 1.98 132 2.00 123 2.01  44 2.97  10 3.06
                            42 3.06  40 3.08
  42  0.866  0.334  0.575- 126 1.87 132 1.94 100 1.95 135 1.96 134 2.01 133 2.01  43 2.98  25 3.05
                            41 3.06
  43  0.586  0.334  0.549- 137 1.93 105 1.94 135 1.94 136 1.98 127 1.98 126 2.01  42 2.98  28 3.06
                            44 3.07  38 3.11
  44  0.367  0.500  0.579- 130 1.93 136 1.95  72 1.95 131 1.95 138 1.97 137 2.03  41 2.97  43 3.07
                            11 3.07  45 3.14
  45  0.236  0.500  0.681- 139 1.86 141 1.94  77 1.94 140 2.03 138 2.04 131 2.10  48 2.89  14 3.11
                            46 3.11  44 3.14
  46  0.002  0.334  0.700- 134 1.78 142 1.84 140 1.97 108 1.99 141 2.06  47 2.87  29 3.09  45 3.11

  47  0.731  0.333  0.678- 142 1.89 144 1.94 112 1.94 143 1.99 135 2.04 134 2.09  46 2.87  32 3.08
                            48 3.08
  48  0.508  0.500  0.706- 139 1.84 138 1.89 143 1.99  79 1.99 144 2.06  45 2.89  47 3.08  15 3.08

  49  0.489  0.667  0.268-   2 1.94   3 2.00
  50  0.989  0.833  0.268-   4 1.94   1 2.00
  51  0.913  0.833  0.353-   1 1.94   5 1.98   4 2.00
  52  0.630  0.833  0.321-  18 1.94   2 1.94   1 2.00
  53  0.773  0.667  0.300-  33 1.94   1 1.94   2 2.00
  54  0.625  0.667  0.395-   6 1.90   2 1.94   7 2.00
  55  0.413  0.667  0.353-   3 1.94   7 1.98   2 2.00
  56  0.130  0.667  0.321-  36 1.94   4 1.94   3 2.00
  57  0.273  0.833  0.300-  19 1.94   3 1.94   4 2.00
  58  0.125  0.833  0.395-   8 1.90   4 1.94   5 2.00
  59  0.051  0.834  0.480-   5 1.93   8 1.98   9 2.01
  60  0.766  0.833  0.447-  22 1.94   6 1.95   5 1.99
  61  0.910  0.667  0.427-   5 1.94  37 1.94   6 2.00
  62  0.764  0.666  0.520-  10 1.87   6 1.96  11 2.01
  63  0.550  0.666  0.480-   7 1.93  11 1.98   6 1.99
  64  0.265  0.667  0.448-  40 1.94   8 1.94   7 1.99
  65  0.409  0.833  0.427-  23 1.94   7 1.94   8 2.00
  66  0.264  0.833  0.521-  12 1.87   8 1.97   9 2.01
  67  0.194  0.833  0.607-   9 1.93  12 1.96  13 2.09
  68  0.905  0.833  0.573-  26 1.94  10 1.95   9 1.98
  69  0.051  0.667  0.553-   9 1.94  41 1.94  10 2.01
  70  0.913  0.667  0.645-  14 1.78  10 2.01  15 2.09
  71  0.695  0.668  0.606-  11 1.94  10 1.96  15 2.04
  72  0.406  0.667  0.574-  44 1.95  12 1.95  11 1.98
  73  0.550  0.833  0.553-  27 1.94  11 1.94  12 2.02
  74  0.412  0.836  0.646-  16 1.78  12 2.00  13 2.09
  75  0.349  0.833  0.731-  16 1.83  13 1.87
  76  0.053  0.833  0.708-  30 1.98  14 1.99  13 2.00
  77  0.195  0.666  0.681-  13 1.93  45 1.94  14 2.06
  78  0.845  0.664  0.730-  14 1.84  15 1.89
  79  0.554  0.669  0.707-  16 1.96  48 1.99  15 1.99
  80  0.696  0.834  0.679-  31 1.93  15 1.94  16 2.06
  81  0.489  0.000  0.268-  18 1.94  19 2.00
  82  0.989  0.167  0.268-  20 1.94  17 2.00
  83  0.913  0.167  0.353-  17 1.94  21 1.98  20 2.00
  84  0.630  0.167  0.321-  18 1.94  34 1.94  17 2.00
  85  0.773  0.000  0.300-   1 1.94  17 1.94  18 2.00
  86  0.625  0.000  0.395-  22 1.90  18 1.94  23 2.00
  87  0.413  0.000  0.353-  19 1.94  23 1.98  18 2.00
  88  0.130  0.000  0.321-   4 1.94  20 1.94  19 2.00
  89  0.273  0.167  0.300-  19 1.94  35 1.94  20 2.00
  90  0.125  0.167  0.395-  24 1.90  20 1.94  21 2.00
  91  0.051  0.166  0.480-  21 1.93  24 1.98  25 2.01
  92  0.766  0.167  0.447-  22 1.94  38 1.95  21 1.99
  93  0.910  1.000  0.426-   5 1.94  21 1.94  22 2.00
  94  0.764  1.000  0.520-  26 1.87  22 1.97  27 2.01
  95  0.551  1.000  0.479-  23 1.93  22 1.99  27 2.00
  96  0.266  1.000  0.448-   8 1.94  24 1.94  23 1.99
  97  0.409  0.167  0.427-  23 1.94  39 1.94  24 2.00
  98  0.264  0.167  0.521-  28 1.87  24 1.97  25 2.01
  99  0.194  0.167  0.607-  25 1.93  28 1.96  29 2.09
 100  0.905  0.167  0.573-  26 1.94  42 1.95  25 1.98
 101  0.051  1.000  0.553-   9 1.93  25 1.93  26 2.02
 102  0.913  0.000  0.645-  30 1.79  26 2.01  31 2.08
 103  0.695  1.000  0.606-  27 1.93  26 1.95  31 2.10
 104  0.405  1.000  0.573-  28 1.94  12 1.94  27 1.98
 105  0.550  0.167  0.553-  27 1.94  43 1.94  28 2.02
 106  0.412  0.164  0.646-  32 1.78  28 2.00  29 2.09
 107  0.349  0.167  0.731-  32 1.83  29 1.87
 108  0.053  0.167  0.708-  30 1.98  46 1.99  29 2.00
[...]
 130  0.265  0.500  0.522-  44 1.93  40 1.97  41 1.98
 131  0.194  0.500  0.607-  41 1.92  44 1.95  45 2.10
 132  0.905  0.500  0.573-  10 1.94  42 1.94  41 2.00
 133  0.051  0.333  0.553-  25 1.94  41 1.94  42 2.01
 134  0.913  0.333  0.645-  46 1.78  42 2.01  47 2.09
 135  0.695  0.332  0.606-  43 1.94  42 1.96  47 2.04
 136  0.406  0.333  0.574-  44 1.95  28 1.95  43 1.98
 137  0.551  0.500  0.554-  43 1.93  11 1.93  44 2.03
 138  0.412  0.500  0.648-  48 1.89  44 1.97  45 2.04
 139  0.346  0.500  0.734-  48 1.84  45 1.86
 140  0.053  0.500  0.708-  14 1.97  46 1.97  45 2.03
 141  0.195  0.334  0.681-  29 1.93  45 1.94  46 2.06
 142  0.845  0.336  0.730-  46 1.84  47 1.89
 143  0.554  0.331  0.707-  32 1.96  48 1.99  47 1.99
 144  0.694  0.500  0.678-  15 1.94  47 1.94  48 2.06

IMPORTANT INFORMATION: All symmetrisations will be switched off!
NOSYMM: (Re-)initialisation of all symmetry stuff for point group C_1.

                                     Primitive cell

  volume of cell :    3283.9948

  direct lattice vectors                    reciprocal lattice vectors
    10.314592520  0.000000000  0.000000000     0.096950025 -0.000000000  0.000000000
     0.000000000 11.393151181  0.000000000     0.000000000  0.087772029  0.000000000
     0.000000000  0.000000000 27.945155206     0.000000000  0.000000000  0.035784378

  length of vectors
    10.314592520 11.393151181 27.945155206     0.096950025  0.087772029  0.035784378

  position of ions in fractional coordinates (direct lattice)
     0.809420363  0.833333333  0.294677697
     0.593311104  0.666666667  0.326265743
     0.309420363  0.666666667  0.294677697
     0.093311104  0.833333333  0.326265743
     0.945969313  0.833361550  0.422400910
     0.727707331  0.666259602  0.451105723
     0.445486054  0.666401460  0.422282028
     0.226961737  0.833289844  0.451403730
     0.086732596  0.833447015  0.550053573
     0.866139356  0.666099415  0.575355046
     0.585578637  0.666382816  0.549347666
     0.365084748  0.833338716  0.576202219
     0.232326895  0.832708021  0.680186692
     0.002358488  0.665683404  0.699733985
[...]
   4.26420845  7.59543412  9.85236081
   1.33599113  7.59543412  8.96962795
   2.81801985  9.49429265  8.38273287
   1.28807928  9.49429265 11.03093146
   0.52398033  9.49809605 13.40085651
   7.89645940  9.49353400 12.49690414
[...]
   2.73496373  5.69657546 14.57626864
   1.99616409  5.69657537 16.97197873
   9.33773176  5.69657539 16.01159684
   0.52899962  3.79901057 15.45474077
   9.42183484  3.79258575 18.02386900
   7.16962517  3.78564814 16.92841112
   4.18355424  3.79870782 16.04588994
   5.68058619  5.69657539 15.47798118
   4.25139321  5.69657579 18.11114408
   3.57131237  5.69657692 20.49890220
   0.54618947  5.69657582 19.78137287
   2.01628627  3.80085601 19.03415371
   8.71216773  3.82971468 20.41336757
   5.71829602  3.76941795 19.74753542
   7.15328923  5.69657602 18.95113814

--------------------------------------- Iteration      FINAL  ---------------------------------------

--------------------OUTCAR has been truncated-------------------------

[...]

--------------------OUTCAR has been truncated-------------------------

  FORCE on cell =-STRESS in cart. coord.  units (eV):
  Direction    XX          YY          ZZ          XY          YZ          ZX
  Alpha Z  2398.11824  2398.11824  2398.11824
  Ewald  486488.51579479791.22255************    -0.00008     0.00011 -1943.03099
  Hartree507438.95893503375.01974************     0.00006     0.00012 -1305.60413
  E(xc)   -5157.65200 -5163.81118 -5174.50866     0.00000    -0.00000    -2.00343
  Local  ************************************    -0.00008    -0.00042  3258.51234
  n-local -3222.75305 -3194.73347 -3237.48901    -0.00004     0.00001     0.62482
  augment  3132.12980  3126.20324  3116.30818     0.00002     0.00009    -1.61369
  Kinetic 17026.33819 17085.75862 17136.74185     0.00007     0.00011   -18.34643
  Fock        0.00000     0.00000     0.00000     0.00000     0.00000     0.00000
  vdW       -67.93410   -70.75406   -60.30143    -0.00000     0.00000    -0.68411
  Total     -52.14326   -28.33346   -24.00992    -0.00006     0.00002   -12.14562
  in kB     -25.43937   -13.82317   -11.71383    -0.00003     0.00001    -5.92554

 VOLUME and BASIS-vectors are now :
  energy-cutoff  :      600.00
  volume of cell :     3283.99
      direct lattice vectors                 reciprocal lattice vectors
    10.314592520  0.000000000  0.000000000     0.096950025 -0.000000000  0.000000000
     0.000000000 11.393151181  0.000000000     0.000000000  0.087772029  0.000000000
     0.000000000  0.000000000 27.945155206     0.000000000  0.000000000  0.035784378

  length of vectors
    10.314592520 11.393151181 27.945155206     0.096950025  0.087772029  0.035784378

 FORCES acting on ions:
    Electron-Ion                     Ewald-Force                    Non-Local-Force
   0.587E+01 0.923E-01 0.335E+04   -.983E+00 -.913E-01 -.334E+04   -.111E+01 -.260E-03 -.350E+01
   0.468E+01 -.102E-01 0.275E+04   -.625E+01 0.127E-01 -.275E+04   -.740E-01 -.118E-02 -.169E-01
   0.576E+01 0.234E+00 0.335E+04   -.903E+00 -.238E+00 -.334E+04   -.110E+01 0.124E-02 -.350E+01
   0.346E+01 0.213E+00 0.275E+04   -.507E+01 -.220E+00 -.275E+04   -.661E-01 0.134E-02 -.216E-01
   -.192E+00 0.636E+00 0.124E+04   0.309E-01 -.629E+00 -.124E+04   0.164E+00 -.237E-02 0.157E-01
   0.125E+01 -.904E+00 0.775E+03   -.120E+01 0.894E+00 -.775E+03   -.407E-01 0.188E-01 -.146E+00
   0.886E+00 0.119E+00 0.124E+04   -.103E+01 -.115E+00 -.124E+04   0.157E+00 0.749E-02 -.862E-03
   -.455E+01 0.788E+00 0.770E+03   0.457E+01 -.781E+00 -.770E+03   -.187E-01 0.571E-03 -.151E+00
   -.546E+01 -.648E-01 -.805E+03   0.517E+01 0.769E-01 0.805E+03   0.296E+00 0.675E-02 0.133E+00
   -.451E+01 -.123E-01 -.120E+04   0.467E+01 0.438E-01 0.120E+04   -.977E-01 -.941E-02 -.288E+00
   0.638E-01 0.182E+01 -.789E+03   -.242E+00 -.177E+01 0.789E+03   0.244E+00 -.342E-02 0.107E+00
   -.251E+01 0.318E+01 -.122E+04   0.261E+01 -.310E+01 0.122E+04   -.950E-01 -.285E-01 -.318E+00
   0.210E+02 0.169E+00 -.280E+04   -.220E+02 -.896E-01 0.280E+04   0.960E+00 -.114E-01 -.178E+00
   -.664E+02 -.474E+01 -.319E+04   0.663E+02 0.462E+01 0.319E+04   0.318E-01 0.128E+00 0.775E+00
   0.125E+02 -.103E+01 -.277E+04   -.129E+02 0.121E+01 0.277E+04   0.819E+00 -.494E-01 -.538E-01
   -.708E+02 -.244E+01 -.318E+04   0.710E+02 0.268E+01 0.318E+04   0.385E-01 -.314E-01 0.768E+00
   0.587E+01 -.924E-01 0.335E+04   -.983E+00 0.913E-01 -.334E+04   -.111E+01 0.258E-03 -.350E+01
   0.469E+01 -.236E-05 0.275E+04   -.629E+01 0.647E-05 -.275E+04   -.678E-01 0.125E-04 -.231E-01
   0.566E+01 -.426E-04 0.335E+04   -.776E+00 0.222E-05 -.334E+04   -.111E+01 -.552E-05 -.350E+01
   0.346E+01 -.213E+00 0.275E+04   -.507E+01 0.220E+00 -.275E+04   -.662E-01 -.129E-02 -.216E-01
   -.192E+00 -.636E+00 0.124E+04   0.309E-01 0.629E+00 -.124E+04   0.164E+00 0.238E-02 0.157E-01
   -.886E+00 -.286E-04 0.774E+03   0.908E+00 0.118E-04 -.774E+03   -.894E-02 -.508E-05 -.156E+00
   0.938E+00 -.456E-04 0.124E+04   -.108E+01 0.206E-04 -.124E+04   0.154E+00 -.269E-05 0.776E-03
   -.455E+01 -.787E+00 0.770E+03   0.457E+01 0.781E+00 -.770E+03   -.187E-01 -.570E-03 -.151E+00
   -.546E+01 0.649E-01 -.805E+03   0.517E+01 -.770E-01 0.805E+03   0.296E+00 -.676E-02 0.133E+00
   -.602E+01 0.149E-03 -.121E+04   0.614E+01 -.107E-03 0.121E+04   -.710E-01 -.286E-05 -.289E+00
   -.403E+01 0.648E-04 -.798E+03   0.378E+01 -.643E-04 0.797E+03   0.292E+00 -.281E-05 0.172E+00
   -.251E+01 -.318E+01 -.122E+04   0.261E+01 0.310E+01 0.122E+04   -.950E-01 0.285E-01 -.318E+00
   0.210E+02 -.170E+00 -.280E+04   -.220E+02 0.898E-01 0.280E+04   0.960E+00 0.114E-01 -.178E+00
   -.690E+02 -.264E-04 -.319E+04   0.692E+02 -.149E-04 0.319E+04   -.181E-01 0.264E-05 0.796E+00
   0.165E+02 0.364E-04 -.280E+04   -.173E+02 -.875E-04 0.280E+04   0.870E+00 0.953E-05 -.121E+00
   -.708E+02 0.244E+01 -.318E+04   0.710E+02 -.268E+01 0.318E+04   0.385E-01 0.314E-01 0.768E+00
   0.587E+01 -.449E-04 0.335E+04   -.974E+00 -.484E-05 -.334E+04   -.111E+01 -.610E-05 -.350E+01
   0.468E+01 0.101E-01 0.275E+04   -.625E+01 -.127E-01 -.275E+04   -.740E-01 0.116E-02 -.169E-01
   0.576E+01 -.234E+00 0.335E+04   -.903E+00 0.238E+00 -.334E+04   -.110E+01 -.123E-02 -.350E+01
   0.259E+01 -.575E-05 0.275E+04   -.415E+01 -.649E-06 -.275E+04   -.821E-01 0.534E-05 -.198E-01
   0.203E+01 0.134E-04 0.124E+04   -.220E+01 -.997E-05 -.124E+04   0.149E+00 0.812E-06 0.528E-01
   0.125E+01 0.904E+00 0.775E+03   -.120E+01 -.894E+00 -.775E+03   -.408E-01 -.188E-01 -.146E+00
   0.886E+00 -.119E+00 0.124E+04   -.103E+01 0.115E+00 -.124E+04   0.157E+00 -.749E-02 -.866E-03
   -.809E+01 0.268E-04 0.751E+03   0.813E+01 0.149E-04 -.751E+03   -.291E-01 0.142E-05 -.420E-01
   -.150E+01 -.133E-04 -.810E+03   0.115E+01 0.234E-04 0.810E+03   0.252E+00 -.355E-05 0.169E+00
   -.451E+01 0.121E-01 -.120E+04   0.467E+01 -.437E-01 0.120E+04   -.977E-01 0.942E-02 -.288E+00
   0.637E-01 -.182E+01 -.789E+03   -.242E+00 0.177E+01 0.789E+03   0.244E+00 0.341E-02 0.107E+00
   -.591E+01 -.347E-04 -.127E+04   0.594E+01 0.385E-04 0.127E+04   -.102E+00 -.525E-05 -.139E-01
   0.267E+02 0.232E-03 -.281E+04   -.281E+02 -.246E-03 0.281E+04   0.851E+00 -.161E-05 -.579E-01
   -.664E+02 0.474E+01 -.319E+04   0.663E+02 -.462E+01 0.319E+04   0.318E-01 -.128E+00 0.775E+00
   0.125E+02 0.103E+01 -.277E+04   -.129E+02 -.121E+01 0.277E+04   0.819E+00 0.494E-01 -.538E-01
   -.714E+02 0.252E-03 -.328E+04   0.702E+02 -.193E-03 0.328E+04   0.498E+00 -.222E-04 0.237E+01
   -.326E+02 0.369E-01 0.226E+04   0.374E+02 -.368E-01 -.228E+04   -.657E+01 0.627E-05 0.170E+02
   -.328E+02 0.410E-01 0.226E+04   0.377E+02 -.425E-01 -.228E+04   -.656E+01 0.199E-02 0.170E+02
   0.815E+02 0.216E+00 0.137E+04   -.863E+02 -.214E+00 -.137E+04   0.378E+01 -.390E-02 -.435E+01
   0.747E+02 0.746E-01 0.167E+04   -.817E+02 -.729E-01 -.167E+04   0.726E+01 -.351E-02 -.265E+01
   -.861E+02 0.206E-01 0.193E+04   0.933E+02 -.218E-01 -.193E+04   -.681E+01 0.187E-02 -.213E+00
   -.697E+02 -.638E+00 0.104E+04   0.753E+02 0.693E+00 -.105E+04   -.564E+01 -.524E-01 0.418E+01
   0.821E+02 0.143E+00 0.137E+04   -.869E+02 -.120E+00 -.137E+04   0.376E+01 -.247E-01 -.421E+01
   0.739E+02 0.183E+00 0.167E+04   -.808E+02 -.191E+00 -.167E+04   0.727E+01 0.187E-01 -.267E+01
   -.864E+02 0.971E-01 0.193E+04   0.935E+02 -.963E-01 -.193E+04   -.679E+01 -.386E-02 -.216E+00
   -.729E+02 0.313E+00 0.104E+04   0.787E+02 -.309E+00 -.105E+04   -.573E+01 -.793E-02 0.425E+01
   0.783E+02 -.643E+00 0.146E+03   -.847E+02 0.728E+00 -.141E+03   0.634E+01 -.889E-01 -.487E+01
   0.805E+02 0.761E+00 0.470E+03   -.871E+02 -.830E+00 -.467E+03   0.656E+01 0.643E-01 -.299E+01
[...]
   0.849E+02 -.262E-04 -.110E+04   -.919E+02 0.197E-04 0.110E+04   0.710E+01 0.263E-04 -.728E+01
   0.739E+02 0.497E-04 -.731E+03   -.799E+02 -.620E-04 0.734E+03   0.594E+01 0.212E-04 -.297E+01
   -.815E+02 -.102E+01 -.476E+03   0.878E+02 0.101E+01 0.473E+03   -.627E+01 0.439E-01 0.270E+01
   -.582E+02 0.284E+01 -.130E+04   0.605E+02 -.319E+01 0.129E+04   -.226E+01 0.360E+00 0.933E+01
   0.831E+02 0.279E+01 -.107E+04   -.894E+02 -.314E+01 0.107E+04   0.617E+01 0.371E+00 -.582E+01
   0.780E+02 -.226E+01 -.745E+03   -.845E+02 0.219E+01 0.748E+03   0.638E+01 0.149E+00 -.302E+01
   -.742E+02 -.637E-04 -.486E+03   0.802E+02 0.101E-03 0.483E+03   -.603E+01 -.574E-05 0.241E+01
   -.760E+02 -.649E-04 -.134E+04   0.809E+02 0.966E-04 0.134E+04   -.423E+01 -.341E-04 0.764E+01
   0.527E+02 -.720E-04 -.229E+04   -.587E+02 0.100E-03 0.231E+04   0.657E+01 -.297E-04 -.200E+02
   0.572E+02 0.189E-03 -.201E+04   -.612E+02 -.213E-03 0.202E+04   0.406E+01 0.553E-05 -.743E+01
   -.572E+02 -.739E+00 -.167E+04   0.622E+02 0.855E+00 0.167E+04   -.476E+01 -.330E-02 0.271E+01
   0.498E+02 -.208E+01 -.228E+04   -.556E+02 0.256E+01 0.230E+04   0.588E+01 -.526E+00 -.208E+02
   0.617E+02 -.205E+01 -.200E+04   -.668E+02 0.199E+01 0.200E+04   0.494E+01 0.688E+00 -.574E+01
   -.536E+02 0.219E-03 -.163E+04   0.585E+02 -.231E-03 0.163E+04   -.509E+01 -.161E-04 0.476E+01
   -.146E+02 -.380E-03 0.678E+02   -.909E-12 0.132E-11 -.546E-11   0.146E+02 0.458E-04 -.678E+02

 POSITION                                       TOTAL-FORCE (eV/Angst)
      8.34884      9.49429      8.23481         3.816120      0.000736      1.773572
      6.11976      7.59543      9.11755        -1.642339      0.001368     -1.822441
      3.19154      7.59543      8.23481         3.788393     -0.003070      1.757756
      0.96247      9.49429      9.11755        -1.673368     -0.004803     -1.826851
      9.75729      9.49461     11.80406         0.000335      0.006268      0.049277
      7.50600      7.59080     12.60622        -0.009612      0.002841     -0.016192
      4.59501      7.59241     11.80074         0.004378      0.007135      0.036702
      2.34102      9.49380     12.61455        -0.026593      0.007427     -0.016146
      0.89461      9.49559     15.37133        -0.013177      0.021270      0.056739
      8.93387      7.58897     16.07839        -0.016392      0.013334      0.011909
      6.04001      7.59220     15.35161         0.048254      0.040567      0.010513
      3.76570      9.49435     16.10206        -0.067188      0.056353     -0.032102
      2.39636      9.48717     19.00792        -0.046705      0.060454      0.048838
      0.02433      7.58423     19.55417        -0.279446      0.004487      0.100551
      7.53916      7.59493     18.93717         0.389852      0.129459      0.252025
      5.20156      9.50926     19.55011        -0.119016      0.205556      0.008894
      8.34884      1.89886      8.23481         3.816221     -0.000820      1.773601
      6.11976      0.00000      9.11755        -1.660143      0.000019     -1.822761
      3.19154      0.00000      8.23481         3.809082     -0.000044      1.768185
      0.96247      1.89886      9.11755        -1.673456      0.004937     -1.826786
      9.75729      1.89854     11.80406         0.000329     -0.006231      0.049234
      7.50229     11.39315     12.60773        -0.015322     -0.000020     -0.000829
      4.59716     11.39315     11.80388         0.007224     -0.000025      0.047614
      2.34102      1.89935     12.61455        -0.026603     -0.007422     -0.016163
      0.89461      1.89756     15.37133        -0.013239     -0.021322      0.056689
      8.92236     11.39315     16.09102        -0.043659      0.000041      0.004372
      6.04632     11.39315     15.36074         0.029102      0.000000      0.056644
      3.76570      1.89880     16.10206        -0.067158     -0.056355     -0.032115
      2.39636      1.90598     19.00792        -0.046594     -0.060509      0.048841
      0.04544      0.00000     19.55582        -0.095332     -0.000036     -0.010930
      7.56866      0.00000     18.99198         0.078689     -0.000039      0.053655
      5.20156      1.88389     19.55011        -0.118865     -0.205567      0.009044
      8.34884      5.69658      8.23481         3.827286     -0.000054      1.769088
      6.11976      3.79772      9.11755        -1.642390     -0.001426     -1.822332
      3.19154      3.79772      8.23481         3.788450      0.003098      1.757355
      0.96247      5.69658      9.11755        -1.645259      0.000002     -1.760390
      9.77237      5.69658     11.79937        -0.005827      0.000007      0.024015
      7.50600      3.80235     12.60622        -0.009601     -0.002854     -0.016164
      4.59501      3.80074     11.80074         0.004342     -0.007137      0.036716
      2.34355      5.69658     12.64511        -0.023819      0.000046     -0.060137
      0.92493      5.69658     15.37763        -0.079086      0.000009     -0.006035
      8.93387      3.80418     16.07839        -0.016397     -0.013337      0.011940
      6.04001      3.80095     15.35161         0.048290     -0.040575      0.010516
      3.78263      5.69658     16.19291        -0.124075      0.000000     -0.405793
      2.43467      5.69658     19.02831        -0.455305     -0.000013     -0.055904
      0.02433      3.80892     19.55418        -0.279404     -0.004483      0.100002
      7.53915      3.79822     18.93717         0.389739     -0.129422      0.251926
      5.23680      5.69658     19.71844        -0.968642      0.000039     -1.758166
      5.04710      7.59543      7.50000        -1.730332      0.000136      1.010022
     10.20440      9.49429      7.50000        -1.726137      0.000434      1.005588
      9.42150      9.49429      9.85236        -1.008418     -0.002623     -0.163667
      6.49329      9.49429      8.96963         0.318953     -0.001802     -0.037904
      7.97532      7.59543      8.38273         0.299559      0.000712     -1.063462
      6.44538      7.59543     11.03093        -0.037885      0.002698      0.403540
      4.26421      7.59543      9.85236        -1.013594     -0.001977     -0.146695
      1.33599      7.59543      8.96963         0.328982      0.011353     -0.045371
      2.81802      9.49429      8.38273         0.309054     -0.003011     -1.065359
      1.28808      9.49429     11.03093         0.023297     -0.003729      0.433196
      0.52398      9.49810     13.40086        -0.028948     -0.004610     -0.036158
      7.89646      9.49353     12.49690        -0.026535     -0.004659      0.000912
[...]
      2.73496      5.69658     14.57627         0.100562      0.000016      0.105685
      1.99616      5.69658     16.97198         0.113061      0.000022      0.021477
      9.33773      5.69658     16.01160        -0.018309      0.000011     -0.015671
      0.52900      3.79901     15.45474         0.051183      0.032342     -0.012292
      9.42183      3.79259     18.02387         0.037321      0.011627     -0.063359
      7.16963      3.78565     16.92841        -0.070515      0.020301     -0.088644
      4.18355      3.79871     16.04589        -0.044226      0.077279      0.027457
      5.68059      5.69658     15.47798        -0.006471      0.000034      0.015645
      4.25139      5.69658     18.11114         0.600739     -0.000000      0.888787
      3.57131      5.69658     20.49890         0.574634      0.000001      0.172076
      0.54619      5.69658     19.78137         0.095153     -0.000017     -0.057873
      2.01629      3.80086     19.03415         0.172545      0.111335     -0.063380
      8.71217      3.82971     20.41337         0.054599     -0.054097     -0.290632
      5.71830      3.76942     19.74754        -0.134660      0.626263      0.324928
      7.15329      5.69658     18.95114        -0.216416     -0.000026      0.245121
    total drift:                               -0.004497     -0.000334     -0.054944

  FREE ENERGIE OF THE ION-ELECTRON SYSTEM (eV)
  free  energy   TOTEN  =     -1273.92087950 eV

  energy  without entropy=    -1273.92087950  energy(sigma->0) =    -1273.92087950