 vasp.6.3.0 20Jan22 (build Apr  1 2022 16:44:48) complex
 executed on        HPECrayEX_GCC date 2023.01.23  21:56:37

 INCAR:
   SYSTEM = MgO-rocksalt
   ISMEAR = 0
   SIGMA = 0.05
   EDIFF = 1E-8
   ALGO = ALL
   ISTART = 0
   IBRION = 5
   POTIM = 0.01
   NFREE = 2
   ISYM = 0
   DIPOL = 0.5 0.5 0.5
   IDIPOL = 3
   LDIPOL = .TRUE.
   GGA = MK
   LUSE_VDW = .TRUE.
   PARAM1 = 0.1234
   PARAM2 = 0.711357
   ZAB_VDW = -1.8867
   AGGAC = 0.0
   ENCUT = 600
   PREC = Accurate
   LASPH = .TRUE.
   LREAL = .FALSE.
   ISPIN = 1
   NELM = 200
   NELMIN = 8
   NCORE = 8
   KPAR = 1
   LWAVE = .FALSE.
   LCHARG = .FALSE.

 POTCAR:    PAW_PBE C 08Apr2002
 POTCAR:    PAW_PBE O 08Apr2002
 POTCAR:    PAW_PBE Mg_pv 13Apr2007
 POTCAR:    PAW_PBE O 08Apr2002
|               ----> ADVICE to this user running VASP <----                  |
|     You have switched on vdW-DFT.                                           |
|     This routine was written and supplied by Jiri Klimes. We recommend      |
|     that you carefully read and cite the following publications:            |
|       J. Klimes, D.R. Bowler, A. Michelides                                 |
|          J. Phys.: Cond Matt. 22 022201 (2010)                              |
|       J. Klimes, D.R. Bowler, A. Michelides                                 |
|          Phys. Rev. B. 83, 195131 (2011)                                    |
|     and references therein.                                                 |

   TITEL  = PAW_PBE C 08Apr2002
   POMASS =   12.011; ZVAL   =    4.000    mass and valenz
   ENMAX  =  400.000; ENMIN  =  300.000 eV

[...]

   TITEL  = PAW_PBE Mg_pv 13Apr2007
   POMASS =   24.305; ZVAL   =    8.000    mass and valenz
   ENMAX  =  403.929; ENMIN  =  302.947 eV

   TITEL  = PAW_PBE O 08Apr2002
   POMASS =   16.000; ZVAL   =    6.000    mass and valenz
   ENMAX  =  400.000; ENMIN  =  300.000 eV

  PAW_PBE C 08Apr2002                   :
  PAW_PBE O 08Apr2002                   :
  PAW_PBE Mg_pv 13Apr2007               :
  PAW_PBE O 08Apr2002                   :

 POSCAR:  C  O Mg  O
  positions in direct lattice
 exchange correlation table for  LEXCH =       43
   RHO(1)=    0.500       N(1)  =     2000
   RHO(2)=  100.500       N(2)  =     4000

 ion  position               nearest neighbor table
   1  0.500  0.500  0.763-   2 1.14
   2  0.500  0.500  0.817-   1 1.14
   3  0.250  0.000  0.352-  35 2.11  37 2.11  38 2.11  45 2.11  54 2.11
   4  0.500  0.250  0.352-  36 2.11  37 2.11  38 2.11  46 2.11  53 2.11
   5  0.250  0.250  0.451-  37 2.11  36 2.11  35 2.11  43 2.11  52 2.11  41 2.11
   6  0.500  0.000  0.451-  38 2.11  36 2.11  35 2.11  44 2.11  51 2.11  42 2.11
   7  0.250  0.000  0.550-  42 2.11  41 2.11  49 2.11  58 2.11  35 2.12  39 2.14
   8  0.500  0.250  0.550-  50 2.11  41 2.11  57 2.11  42 2.11  36 2.12  40 2.14
   9  0.250  0.250  0.648-  41 2.10  39 2.11  56 2.11  47 2.11  40 2.11
  10  0.500  0.000  0.648-  40 2.10  48 2.10  42 2.10  39 2.11  55 2.11
  11  0.250  0.500  0.352-  43 2.11  37 2.11  45 2.11  46 2.11  62 2.11
  12  0.500  0.750  0.352-  44 2.11  38 2.11  45 2.11  46 2.11  61 2.11
  13  0.250  0.750  0.451-  45 2.11  43 2.11  44 2.11  35 2.11  60 2.11  49 2.11
  14  0.500  0.500  0.451-  46 2.11  43 2.11  44 2.11  36 2.11  59 2.11  50 2.12
  15  0.250  0.500  0.550-  50 2.11  49 2.11  41 2.11  66 2.11  43 2.12  47 2.14
  16  0.500  0.750  0.550-  50 2.11  49 2.11  65 2.11  42 2.11  44 2.12  48 2.14
  17  0.250  0.750  0.648-  49 2.10  39 2.11  64 2.11  47 2.11  48 2.11
  18  0.500  0.500  0.651-  40 2.12  47 2.12  48 2.12  63 2.12  50 2.14
  19  0.750  0.000  0.352-  51 2.11  38 2.11  53 2.11  54 2.11  61 2.11
  20  0.000  0.250  0.352-  52 2.11  37 2.11  53 2.11  54 2.11  62 2.11
  21  0.750  0.250  0.451-  53 2.11  51 2.11  52 2.11  36 2.11  59 2.11  57 2.11
  22  0.000  0.000  0.451-  54 2.11  51 2.11  52 2.11  35 2.11  60 2.11  58 2.11
  23  0.750  0.000  0.550-  42 2.11  57 2.11  65 2.11  58 2.11  51 2.12  55 2.14
  24  0.000  0.250  0.550-  66 2.11  57 2.11  41 2.11  58 2.11  52 2.12  56 2.14
  25  0.750  0.250  0.648-  57 2.10  56 2.11  55 2.11  40 2.11  63 2.11
  26  0.000  0.000  0.648-  58 2.10  55 2.11  56 2.11  39 2.11  64 2.11
  27  0.750  0.500  0.352-  59 2.11  53 2.11  46 2.11  61 2.11  62 2.11
  28  0.000  0.750  0.352-  60 2.11  54 2.11  45 2.11  61 2.11  62 2.11
  29  0.750  0.750  0.451-  61 2.11  51 2.11  59 2.11  60 2.11  44 2.11  65 2.11
  30  0.000  0.500  0.451-  62 2.11  52 2.11  59 2.11  60 2.11  43 2.11  66 2.11
  31  0.750  0.500  0.550-  50 2.11  57 2.11  65 2.11  66 2.11  59 2.12  63 2.14
  32  0.000  0.750  0.550-  66 2.11  65 2.11  49 2.11  58 2.11  60 2.12  64 2.14
  33  0.750  0.750  0.648-  65 2.10  64 2.11  55 2.11  48 2.11  63 2.11
  34  0.000  0.500  0.648-  47 2.10  63 2.10  66 2.10  64 2.11  56 2.11
  35  0.250  0.000  0.451-   3 2.11   5 2.11   6 2.11  13 2.11  22 2.11   7 2.12
  36  0.500  0.250  0.451-   4 2.11   5 2.11   6 2.11  14 2.11  21 2.11   8 2.12
  37  0.250  0.250  0.352-   5 2.11   4 2.11   3 2.11  11 2.11  20 2.11
  38  0.500  0.000  0.352-   6 2.11   4 2.11   3 2.11  12 2.11  19 2.11
  39  0.250  0.000  0.650-   9 2.11  17 2.11  26 2.11  10 2.11   7 2.14
  40  0.500  0.249  0.650-  10 2.10   9 2.11  25 2.11  18 2.12   8 2.14
  41  0.250  0.250  0.550-   9 2.10   7 2.11  24 2.11  15 2.11   8 2.11   5 2.11
  42  0.500  0.000  0.550-  10 2.10   7 2.11  23 2.11   6 2.11  16 2.11   8 2.11
  43  0.250  0.500  0.451-  11 2.11   5 2.11  13 2.11  14 2.11  30 2.11  15 2.12
  44  0.500  0.750  0.451-  12 2.11   6 2.11  13 2.11  14 2.11  29 2.11  16 2.12
  45  0.250  0.750  0.352-  13 2.11  11 2.11  12 2.11   3 2.11  28 2.11
  46  0.500  0.500  0.352-  14 2.11  11 2.11  12 2.11   4 2.11  27 2.11
  47  0.249  0.500  0.650-  34 2.10  17 2.11   9 2.11  18 2.12  15 2.14
  48  0.500  0.751  0.650-  10 2.10  17 2.11  33 2.11  18 2.12  16 2.14
  49  0.250  0.750  0.550-  17 2.10   7 2.11  32 2.11  15 2.11  16 2.11  13 2.11
  50  0.500  0.500  0.550-   8 2.11  15 2.11  16 2.11  31 2.11  14 2.12  18 2.14
  51  0.750  0.000  0.451-  19 2.11   6 2.11  21 2.11  22 2.11  29 2.11  23 2.12
  52  0.000  0.250  0.451-  20 2.11   5 2.11  21 2.11  22 2.11  30 2.11  24 2.12
  53  0.750  0.250  0.352-  21 2.11  19 2.11  20 2.11   4 2.11  27 2.11
  54  0.000  0.000  0.352-  22 2.11  19 2.11  20 2.11   3 2.11  28 2.11
  55  0.750  0.000  0.650-  25 2.11  33 2.11  26 2.11  10 2.11  23 2.14
  56  0.000  0.250  0.650-   9 2.11  25 2.11  26 2.11  34 2.11  24 2.14
  57  0.750  0.250  0.550-  25 2.10  24 2.11  23 2.11   8 2.11  31 2.11  21 2.11
  58  0.000  0.000  0.550-  26 2.10  23 2.11  24 2.11   7 2.11  32 2.11  22 2.11
  59  0.750  0.500  0.451-  27 2.11  21 2.11  14 2.11  29 2.11  30 2.11  31 2.12
  60  0.000  0.750  0.451-  28 2.11  22 2.11  13 2.11  29 2.11  30 2.11  32 2.12
  61  0.750  0.750  0.352-  29 2.11  19 2.11  27 2.11  28 2.11  12 2.11
  62  0.000  0.500  0.352-  30 2.11  20 2.11  27 2.11  28 2.11  11 2.11
  63  0.751  0.500  0.650-  34 2.10  33 2.11  25 2.11  18 2.12  31 2.14
  64  0.000  0.750  0.650-  17 2.11  33 2.11  26 2.11  34 2.11  32 2.14
  65  0.750  0.750  0.550-  33 2.10  32 2.11  23 2.11  16 2.11  31 2.11  29 2.11
  66  0.000  0.500  0.550-  34 2.10  32 2.11  24 2.11  30 2.11  15 2.11  31 2.11

IMPORTANT INFORMATION: All symmetrisations will be switched off!
NOSYMM: (Re-)initialisation of all symmetry stuff for point group C_1.

                                     Primitive cell

  volume of cell :    1519.6535

  direct lattice vectors                    reciprocal lattice vectors
     8.440582262  0.000000000  0.000000000     0.118475239  0.000000000  0.000000000
     0.000000000  8.440582262  0.000000000     0.000000000  0.118475239  0.000000000
     0.000000000  0.000000000 21.330436697     0.000000000  0.000000000  0.046881366

  length of vectors
     8.440582262  8.440582262 21.330436697     0.118475239  0.118475239  0.046881366

  position of ions in fractional coordinates (direct lattice)
     0.500000000  0.500000000  0.763496057
     0.500000000  0.500000000  0.817025071
     0.250000000  0.000000000  0.351610242
     0.500000000  0.250000000  0.351610242
     0.250000000  0.250000000  0.450536747
     0.500000000  0.000000000  0.450536747
     0.250096034  0.000000000  0.549803915
     0.500000000  0.250478300  0.550037642
     0.249708419  0.249708419  0.647948439
     0.500000000  0.000000000  0.648058606
     0.250000000  0.500000000  0.351610242
     0.500000000  0.750000000  0.351610242
     0.250000000  0.750000000  0.450536747
     0.500000000  0.500000000  0.450536747
     0.250478300  0.500000000  0.550037642
     0.500000000  0.749521700  0.550037642
     0.249708419  0.750291581  0.647948439
     0.500000000  0.500000000  0.650645311
     0.750000000  0.000000000  0.351610242
     0.000000000  0.250000000  0.351610242
     0.750000000  0.250000000  0.450536747
     0.000000000  0.000000000  0.450536747
     0.749903966  0.000000000  0.549803915
     0.000000000  0.250096034  0.549803915
     0.750291581  0.249708419  0.647948439
     0.000000000  0.000000000  0.648120387
     0.750000000  0.500000000  0.351610242
     0.000000000  0.750000000  0.351610242
     0.750000000  0.750000000  0.450536747
     0.000000000  0.500000000  0.450536747
     0.749521700  0.500000000  0.550037642
     0.000000000  0.749903966  0.549803915
     0.750291581  0.750291581  0.647948439
     0.000000000  0.500000000  0.648058606
     0.250000000  0.000000000  0.450536747
     0.500000000  0.250000000  0.450536747
     0.250000000  0.250000000  0.351610242
     0.500000000  0.000000000  0.351610242
     0.249730657  0.000000000  0.650054926
     0.500000000  0.248706670  0.650130102
     0.249982468  0.249982468  0.549624565
     0.500000000  0.000000000  0.549547783
     0.250000000  0.500000000  0.450536747
     0.500000000  0.750000000  0.450536747
     0.250000000  0.750000000  0.351610242
     0.500000000  0.500000000  0.351610242
     0.248706670  0.500000000  0.650130102
     0.500000000  0.751293330  0.650130102
     0.249982468  0.750017532  0.549624565
     0.500000000  0.500000000  0.550094974
     0.750000000  0.000000000  0.450536747
     0.000000000  0.250000000  0.450536747
     0.750000000  0.250000000  0.351610242
     0.000000000  0.000000000  0.351610242
     0.750269343  0.000000000  0.650054926
     0.000000000  0.249730657  0.650054926
     0.750017532  0.249982468  0.549624565
     0.000000000  0.000000000  0.549558333
     0.750000000  0.500000000  0.450536747
     0.000000000  0.750000000  0.450536747
     0.750000000  0.750000000  0.351610242
     0.000000000  0.500000000  0.351610242
     0.751293330  0.500000000  0.650130102
     0.000000000  0.750269343  0.650054926
     0.750017532  0.750017532  0.549624565
     0.000000000  0.500000000  0.549547783

  ion indices of the primitive-cell ions
   primitive index   ion index
                 1           1
                 2           2
                 3           3
                 4           4
                 5           5
                 6           6
                 7           7
                 8           8
                 9           9
[...]
      2.107872  0.000000 13.865955            0           0           0
      4.220291  2.099229 13.867559            0           0           0
      2.109998  2.109998 11.723732            0           0           0
      4.220291  0.000000 11.722094            0           0           0
      2.110146  4.220291  9.610146            0           0           0
      4.220291  6.330437  9.610146            0           0           0
      2.110146  6.330437  7.500000            0           0           0
      4.220291  4.220291  7.500000            0           0           0
      2.099229  4.220291 13.867559            0           0           0
      4.220291  6.341353 13.867559            0           0           0
      2.109998  6.330585 11.723732            0           0           0
      4.220291  4.220291 11.733766            0           0           0
      6.330437  0.000000  9.610146            0           0           0
      0.000000  2.110146  9.610146            0           0           0
      6.330437  2.110146  7.500000            0           0           0
      0.000000  0.000000  7.500000            0           0           0
      6.332710  0.000000 13.865955            0           0           0
      0.000000  2.107872 13.865955            0           0           0
      6.330585  2.109998 11.723732            0           0           0
      0.000000  0.000000 11.722319            0           0           0
      6.330437  4.220291  9.610146            0           0           0
      0.000000  6.330437  9.610146            0           0           0
      6.330437  6.330437  7.500000            0           0           0
      0.000000  4.220291  7.500000            0           0           0
      6.341353  4.220291 13.867559            0           0           0
      0.000000  6.332710 13.865955            0           0           0
      6.330585  6.330585 11.723732            0           0           0
      0.000000  4.220291 11.722094            0           0           0

[...]

   4 f  =    3.750984 THz    23.568127 2PiTHz  125.119356 cm-1    15.512816 meV
             X         Y         Z           dx          dy          dz
      4.220291  4.220291 16.285704    -0.000882   -0.000560    0.653386
      4.220291  4.220291 17.427502    -0.002561   -0.002657    0.757015
      2.110146  0.000000  7.500000            0           0           0
      4.220291  2.110146  7.500000            0           0           0
      2.110146  2.110146  9.610146            0           0           0
      4.220291  0.000000  9.610146            0           0           0
      2.110956  0.000000 11.727558            0           0           0
      4.220291  2.114183 11.732543            0           0           0
      2.107684  2.107684 13.821023            0           0           0
      4.220291  0.000000 13.823373            0           0           0
      2.110146  4.220291  7.500000            0           0           0
      4.220291  6.330437  7.500000            0           0           0
      2.110146  6.330437  9.610146            0           0           0
      4.220291  4.220291  9.610146            0           0           0
      2.114183  4.220291 11.732543            0           0           0
      4.220291  6.326400 11.732543            0           0           0
      2.107684  6.332898 13.821023            0           0           0
      4.220291  4.220291 13.878549            0           0           0
      6.330437  0.000000  7.500000            0           0           0
      0.000000  2.110146  7.500000            0           0           0
      6.330437  2.110146  9.610146            0           0           0
      0.000000  0.000000  9.610146            0           0           0
      6.329626  0.000000 11.727558            0           0           0
      0.000000  2.110956 11.727558            0           0           0
      6.332898  2.107684 13.821023            0           0           0
      0.000000  0.000000 13.824691            0           0           0
      6.330437  4.220291  7.500000            0           0           0
      0.000000  6.330437  7.500000            0           0           0
      6.330437  6.330437  9.610146            0           0           0
      0.000000  4.220291  9.610146            0           0           0
      6.326400  4.220291 11.732543            0           0           0
      0.000000  6.329626 11.727558            0           0           0
      6.332898  6.332898 13.821023            0           0           0
      0.000000  4.220291 13.823373            0           0           0
      2.110146  0.000000  9.610146            0           0           0
      4.220291  2.110146  9.610146            0           0           0
      2.110146  2.110146  7.500000            0           0           0
      4.220291  0.000000  7.500000            0           0           0
      2.107872  0.000000 13.865955            0           0           0
      4.220291  2.099229 13.867559            0           0           0
      2.109998  2.109998 11.723732            0           0           0
      4.220291  0.000000 11.722094            0           0           0
      2.110146  4.220291  9.610146            0           0           0
      4.220291  6.330437  9.610146            0           0           0
      2.110146  6.330437  7.500000            0           0           0
      4.220291  4.220291  7.500000            0           0           0
      2.099229  4.220291 13.867559            0           0           0
      4.220291  6.341353 13.867559            0           0           0
      2.109998  6.330585 11.723732            0           0           0
      4.220291  4.220291 11.733766            0           0           0
      6.330437  0.000000  9.610146            0           0           0
      0.000000  2.110146  9.610146            0           0           0
      6.330437  2.110146  7.500000            0           0           0
      0.000000  0.000000  7.500000            0           0           0
      6.332710  0.000000 13.865955            0           0           0
      0.000000  2.107872 13.865955            0           0           0
      6.330585  2.109998 11.723732            0           0           0
      0.000000  0.000000 11.722319            0           0           0
      6.330437  4.220291  9.610146            0           0           0
      0.000000  6.330437  9.610146            0           0           0
      6.330437  6.330437  7.500000            0           0           0
      0.000000  4.220291  7.500000            0           0           0
      6.341353  4.220291 13.867559            0           0           0
      0.000000  6.332710 13.865955            0           0           0
      6.330585  6.330585 11.723732            0           0           0
      0.000000  4.220291 11.722094            0           0           0

   5 f/i=    0.599276 THz     3.765362 2PiTHz   19.989693 cm-1     2.478405 meV
             X         Y         Z           dx          dy          dz
      4.220291  4.220291 16.285704     0.262389   -0.257445    0.000042
      4.220291  4.220291 17.427502     0.662829   -0.652328    0.000032
      2.110146  0.000000  7.500000            0           0           0
      4.220291  2.110146  7.500000            0           0           0
      2.110146  2.110146  9.610146            0           0           0
      4.220291  0.000000  9.610146            0           0           0
      2.110956  0.000000 11.727558            0           0           0
      4.220291  2.114183 11.732543            0           0           0
      2.107684  2.107684 13.821023            0           0           0
      4.220291  0.000000 13.823373            0           0           0
      2.110146  4.220291  7.500000            0           0           0
      4.220291  6.330437  7.500000            0           0           0
      2.110146  6.330437  9.610146            0           0           0
      4.220291  4.220291  9.610146            0           0           0
      2.114183  4.220291 11.732543            0           0           0
      4.220291  6.326400 11.732543            0           0           0
      2.107684  6.332898 13.821023            0           0           0
      4.220291  4.220291 13.878549            0           0           0
      6.330437  0.000000  7.500000            0           0           0
      0.000000  2.110146  7.500000            0           0           0
      6.330437  2.110146  9.610146            0           0           0
      0.000000  0.000000  9.610146            0           0           0
      6.329626  0.000000 11.727558            0           0           0
      0.000000  2.110956 11.727558            0           0           0
      6.332898  2.107684 13.821023            0           0           0
      0.000000  0.000000 13.824691            0           0           0
      6.330437  4.220291  7.500000            0           0           0
      0.000000  6.330437  7.500000            0           0           0
      6.330437  6.330437  9.610146            0           0           0
      0.000000  4.220291  9.610146            0           0           0
      6.326400  4.220291 11.732543            0           0           0
      0.000000  6.329626 11.727558            0           0           0
      6.332898  6.332898 13.821023            0           0           0
      0.000000  4.220291 13.823373            0           0           0
      2.110146  0.000000  9.610146            0           0           0
      4.220291  2.110146  9.610146            0           0           0
      2.110146  2.110146  7.500000            0           0           0
      4.220291  0.000000  7.500000            0           0           0
      2.107872  0.000000 13.865955            0           0           0
      4.220291  2.099229 13.867559            0           0           0
      2.109998  2.109998 11.723732            0           0           0
      4.220291  0.000000 11.722094            0           0           0
      2.110146  4.220291  9.610146            0           0           0
      4.220291  6.330437  9.610146            0           0           0
      2.110146  6.330437  7.500000            0           0           0
      4.220291  4.220291  7.500000            0           0           0
      2.099229  4.220291 13.867559            0           0           0
      4.220291  6.341353 13.867559            0           0           0
      2.109998  6.330585 11.723732            0           0           0
      4.220291  4.220291 11.733766            0           0           0
      6.330437  0.000000  9.610146            0           0           0
      0.000000  2.110146  9.610146            0           0           0
      6.330437  2.110146  7.500000            0           0           0
      0.000000  0.000000  7.500000            0           0           0
      6.332710  0.000000 13.865955            0           0           0
      0.000000  2.107872 13.865955            0           0           0
      6.330585  2.109998 11.723732            0           0           0
      0.000000  0.000000 11.722319            0           0           0
      6.330437  4.220291  9.610146            0           0           0
      0.000000  6.330437  9.610146            0           0           0
      6.330437  6.330437  7.500000            0           0           0
      0.000000  4.220291  7.500000            0           0           0
      6.341353  4.220291 13.867559            0           0           0
      0.000000  6.332710 13.865955            0           0           0
      6.330585  6.330585 11.723732            0           0           0
      0.000000  4.220291 11.722094            0           0           0

   6 f/i=    0.651888 THz     4.095931 2PiTHz   21.744633 cm-1     2.695990 meV
             X         Y         Z           dx          dy          dz
      4.220291  4.220291 16.285704     0.258371    0.262809    0.002484
      4.220291  4.220291 17.427502     0.651956    0.662658    0.002883
      2.110146  0.000000  7.500000            0           0           0
      4.220291  2.110146  7.500000            0           0           0
      2.110146  2.110146  9.610146            0           0           0
      4.220291  0.000000  9.610146            0           0           0
      2.110956  0.000000 11.727558            0           0           0
      4.220291  2.114183 11.732543            0           0           0
      2.107684  2.107684 13.821023            0           0           0
      4.220291  0.000000 13.823373            0           0           0
      2.110146  4.220291  7.500000            0           0           0
      4.220291  6.330437  7.500000            0           0           0
      2.110146  6.330437  9.610146            0           0           0
      4.220291  4.220291  9.610146            0           0           0
      2.114183  4.220291 11.732543            0           0           0
      4.220291  6.326400 11.732543            0           0           0
      2.107684  6.332898 13.821023            0           0           0
      4.220291  4.220291 13.878549            0           0           0
      6.330437  0.000000  7.500000            0           0           0
      0.000000  2.110146  7.500000            0           0           0
      6.330437  2.110146  9.610146            0           0           0
      0.000000  0.000000  9.610146            0           0           0
      6.329626  0.000000 11.727558            0           0           0
      0.000000  2.110956 11.727558            0           0           0
      6.332898  2.107684 13.821023            0           0           0
      0.000000  0.000000 13.824691            0           0           0
      6.330437  4.220291  7.500000            0           0           0
      0.000000  6.330437  7.500000            0           0           0
      6.330437  6.330437  9.610146            0           0           0
      0.000000  4.220291  9.610146            0           0           0
      6.326400  4.220291 11.732543            0           0           0
      0.000000  6.329626 11.727558            0           0           0
      6.332898  6.332898 13.821023            0           0           0
      0.000000  4.220291 13.823373            0           0           0
      2.110146  0.000000  9.610146            0           0           0
      4.220291  2.110146  9.610146            0           0           0
      2.110146  2.110146  7.500000            0           0           0
      4.220291  0.000000  7.500000            0           0           0
      2.107872  0.000000 13.865955            0           0           0
      4.220291  2.099229 13.867559            0           0           0
      2.109998  2.109998 11.723732            0           0           0
      4.220291  0.000000 11.722094            0           0           0
      2.110146  4.220291  9.610146            0           0           0
      4.220291  6.330437  9.610146            0           0           0
      2.110146  6.330437  7.500000            0           0           0
      4.220291  4.220291  7.500000            0           0           0
      2.099229  4.220291 13.867559            0           0           0
      4.220291  6.341353 13.867559            0           0           0
      2.109998  6.330585 11.723732            0           0           0
      4.220291  4.220291 11.733766            0           0           0
      6.330437  0.000000  9.610146            0           0           0
      0.000000  2.110146  9.610146            0           0           0
      6.330437  2.110146  7.500000            0           0           0
      0.000000  0.000000  7.500000            0           0           0
      6.332710  0.000000 13.865955            0           0           0
      0.000000  2.107872 13.865955            0           0           0
      6.330585  2.109998 11.723732            0           0           0
      0.000000  0.000000 11.722319            0           0           0
      6.330437  4.220291  9.610146            0           0           0
      0.000000  6.330437  9.610146            0           0           0
      6.330437  6.330437  7.500000            0           0           0
      0.000000  4.220291  7.500000            0           0           0
      6.341353  4.220291 13.867559            0           0           0
      0.000000  6.332710 13.865955            0           0           0
      6.330585  6.330585 11.723732            0           0           0
      0.000000  4.220291 11.722094            0           0           0

 Finite differences POTIM=   1.0000000000000000E-002