 vasp.6.4.2 20Jul23 (build Nov 17 2023 15:39:20) complex
 executed on              LinuxNV date 2024.02.25  05:07:13
 OpenACC runtime initialized ...    4 GPUs detected

 INCAR:
   SYSTEM = Oxide-Surface
   ISMEAR = 0
   SIGMA = 0.05
   EDIFF = 1E-4
   ALGO = Normal
   ISTART = 2
   IBRION = -1
   NSW = 0
   ISYM = 0
   DIPOL = 0.5 0.5 0.5
   IDIPOL = 3
   LDIPOL = .TRUE.
   LHFCALC = .TRUE.
   GGA = PE
   IVDW = 21
   VDW_SR = 0.96
   ENCUT = 450
   PREC = Normal
   LASPH = .TRUE.
   LREAL = Auto
   ISPIN = 1
   NELM = 200
   NELMIN = 8
   NCORE = 1
   KPAR = 1
   LWAVE = .FALSE.
   LCHARG = .FALSE.

 POTCAR:    PAW_PBE C 08Apr2002
 POTCAR:    PAW_PBE O 08Apr2002
 POTCAR:    PAW_PBE Ti_pv 07Sep2000
 POTCAR:    PAW_PBE O 08Apr2002
 POTCAR:    PAW_PBE C 08Apr2002
   VRHFIN =C: s2p2

   TITEL  = PAW_PBE C 08Apr2002
   POMASS =   12.011; ZVAL   =    4.000    mass and valenz
   ENMAX  =  400.000; ENMIN  =  300.000 eV

[...]

   TITEL  = PAW_PBE Ti_pv 07Sep2000
   POMASS =   47.880; ZVAL   =   10.000    mass and valenz
   ENMAX  =  222.335; ENMIN  =  166.751 eV

   TITEL  = PAW_PBE O 08Apr2002
   POMASS =   16.000; ZVAL   =    6.000    mass and valenz
   ENMAX  =  400.000; ENMIN  =  300.000 eV

 Optimization of the real space projectors (new method)

 maximal supplied QI-value         = 25.13
 optimisation between [QCUT,QGAM] = [ 10.81, 21.61] = [ 32.71,130.83] Ry
 Optimized for a Real-space Cutoff    1.23 Angstroem

   l    n(q)    QCUT    max X(q) W(low)/X(q) W(high)/X(q)  e(spline)
   0      8    10.807   115.676    0.36E-03    0.72E-03    0.24E-06
   0      8    10.807    87.132    0.35E-03    0.71E-03    0.24E-06
   1      7    10.807     4.429    0.19E-03    0.39E-03    0.11E-06
   1      7    10.807     2.733    0.14E-03    0.28E-03    0.13E-06
 Optimization of the real space projectors (new method)

[...]

   l    n(q)    QCUT    max X(q) W(low)/X(q) W(high)/X(q)  e(spline)
   1      9    10.734     4.216    0.90E-04    0.17E-04    0.73E-07
   1      9    10.734     5.422    0.20E-03    0.95E-04    0.21E-06
   2      9    10.734    72.084    0.40E-03    0.60E-03    0.19E-06
   2      9    10.734    65.965    0.40E-03    0.59E-03    0.19E-06
   0      9    10.734    41.531    0.93E-04    0.36E-04    0.17E-06
   0      9    10.734    16.290    0.71E-04    0.26E-04    0.13E-06
 Optimization of the real space projectors (new method)

 maximal supplied QI-value         = 24.76
 optimisation between [QCUT,QGAM] = [ 10.64, 21.54] = [ 31.73,129.89] Ry
 Optimized for a Real-space Cutoff    1.23 Angstroem

   l    n(q)    QCUT    max X(q) W(low)/X(q) W(high)/X(q)  e(spline)
   0      8    10.645    20.381    0.38E-03    0.60E-03    0.15E-06
   0      8    10.645    15.268    0.40E-03    0.65E-03    0.17E-06
   1      7    10.645     5.964    0.30E-03    0.63E-03    0.18E-06
   1      7    10.645     5.382    0.24E-03    0.53E-03    0.16E-06
  PAW_PBE C 08Apr2002                   :
  PAW_PBE O 08Apr2002                   :
  PAW_PBE Ti_pv 07Sep2000               :
  PAW_PBE O 08Apr2002                   :

 POSCAR:  C  O Ti  O
  positions in direct lattice
 exchange correlation table for  LEXCH =        8
   RHO(1)=    0.500       N(1)  =     2000
   RHO(2)=  100.500       N(2)  =     4000

 ion  position               nearest neighbor table
   1  0.500  0.610  0.803-   2 1.18   3 1.18
   2  0.500  0.709  0.808-   1 1.18
   3  0.500  0.512  0.796-   1 1.18
   4  0.750  0.625  0.287-  85 1.95 145 1.95 144 1.95  84 1.95  87 1.98 166 1.98  14 2.96  34 2.96

   5  0.000  0.750  0.287-  86 1.95  87 1.95 106 1.95 107 1.95  88 1.98  35 2.96  15 2.96
   6  0.000  0.625  0.394-  88 1.95 148 1.95  89 1.95 149 1.95  90 1.98  91 1.98  16 2.96  36 2.96

[...]

  83  0.500  0.499  0.709- 237 1.82 243 1.94 242 1.94 183 1.96 182 1.96  73 2.95  53 2.98
  84  0.750  0.750  0.245-   4 1.95  14 1.95
  85  0.750  0.750  0.329-   4 1.95  14 1.95   7 1.98
  86  0.098  0.625  0.287-   5 1.95  35 1.95  44 1.98
  87  0.902  0.625  0.287-   5 1.95  35 1.95   4 1.98
  88  0.000  0.750  0.352-   6 1.95  16 1.95   5 1.98
  89  0.000  0.750  0.435-   6 1.95  16 1.95   9 1.98
  90  0.848  0.625  0.394-   7 1.95  37 1.95   6 1.98
  91  0.152  0.625  0.394-  47 1.95  77 1.95   6 1.98
  92  0.750  0.750  0.458-   8 1.95  18 1.95   7 1.98
  93  0.750  0.750  0.542-   8 1.95  18 1.95  11 2.11
  94  0.098  0.625  0.500-   9 1.95  39 1.95  48 1.98
  95  0.902  0.625  0.500-   9 1.95  39 1.95   8 1.98
  96  1.000  0.750  0.565-  20 1.89  10 1.89   9 2.00
  97  0.000  0.750  0.649-  13 1.81  10 2.02  20 2.02
  98  0.850  0.625  0.607-  10 1.95  11 1.97  41 1.97
  99  0.150  0.625  0.607-  10 1.95  51 1.97  81 1.97
 100  0.750  0.750  0.672-  11 1.86  12 2.10  22 2.10
 101  0.749  0.750  0.756-  12 1.83  22 1.83
 102  0.094  0.625  0.719-  43 1.95  13 1.95  52 2.03
 103  0.906  0.625  0.719-  43 1.95  13 1.95  12 2.03
 104  0.750  0.000  0.245-  14 1.95  24 1.95
 105  0.750  0.000  0.329-  14 1.95  24 1.95  17 1.98
 106  0.098  0.875  0.287-   5 1.95  15 1.95  54 1.98
 107  0.902  0.875  0.287-   5 1.95  15 1.95  14 1.98
 108  0.000  0.000  0.352-  16 1.95  26 1.95  15 1.98
 109  0.000  0.000  0.435-  16 1.95  26 1.95  19 1.98
 110  0.848  0.875  0.394-   7 1.95  17 1.95  16 1.98
 111  0.152  0.875  0.394-  47 1.95  57 1.95  16 1.98
 112  0.750  0.000  0.458-  18 1.95  28 1.95  17 1.98
 113  0.750  0.000  0.542-  18 1.95  28 1.95  21 2.11
 114  0.098  0.875  0.500-   9 1.95  19 1.95  58 1.98
 115  0.902  0.875  0.500-   9 1.95  19 1.95  18 1.98
 116  1.000  0.000  0.565-  30 1.89  20 1.89  19 2.00
 117  1.000  1.000  0.649-  23 1.81  20 2.02  30 2.02
 118  0.850  0.875  0.607-  20 1.95  11 1.97  21 1.97
 119  0.150  0.875  0.607-  20 1.95  51 1.97  61 1.97
 120  0.750  0.000  0.672-  21 1.86  32 2.10  22 2.10
 121  0.750  1.000  0.756-  22 1.83  32 1.83
 122  0.094  0.875  0.719-  13 1.95  23 1.95  62 2.03
 123  0.906  0.875  0.719-  13 1.95  23 1.95  22 2.03
 124  0.750  0.250  0.245-  24 1.95  34 1.95
 125  0.750  0.250  0.329-  24 1.95  34 1.95  27 1.98
 126  0.098  0.125  0.287-  15 1.95  25 1.95  64 1.98
 127  0.902  0.125  0.287-  15 1.95  25 1.95  24 1.98
 128  0.000  0.250  0.352-  26 1.95  36 1.95  25 1.98
 129  0.000  0.250  0.435-  26 1.95  36 1.95  29 1.98
 130  0.848  0.125  0.394-  17 1.95  27 1.95  26 1.98
 131  0.152  0.125  0.394-  57 1.95  67 1.95  26 1.98
 132  0.750  0.250  0.458-  28 1.95  38 1.95  27 1.98
 133  0.750  0.250  0.542-  28 1.95  38 1.95  31 2.11
 134  0.098  0.125  0.500-  19 1.95  29 1.95  68 1.98
 135  0.902  0.125  0.500-  19 1.95  29 1.95  28 1.98
 136  1.000  0.250  0.565-  40 1.89  30 1.89  29 2.00
 137  1.000  0.250  0.649-  33 1.81  40 2.02  30 2.02
 138  0.850  0.125  0.607-  30 1.95  21 1.97  31 1.97
 139  0.150  0.125  0.607-  30 1.95  61 1.97  71 1.97
 140  0.750  0.250  0.672-  31 1.86  32 2.10  42 2.10
 141  0.750  0.250  0.756-  42 1.83  32 1.83
 142  0.094  0.125  0.719-  33 1.95  23 1.95  72 2.03
[...]
 229  0.500  0.500  0.435-  46 1.95  76 1.95  79 1.98
 230  0.348  0.375  0.394-  67 1.95  77 1.95  76 1.98
 231  0.652  0.375  0.394-  27 1.95  37 1.95  76 1.98
 232  0.250  0.500  0.458-  48 1.95  78 1.95  77 1.98
 233  0.250  0.500  0.542-  48 1.95  78 1.95  81 2.11
 234  0.598  0.375  0.500-  69 1.95  79 1.95  38 1.98
 235  0.402  0.375  0.500-  69 1.95  79 1.95  78 1.98
 236  0.500  0.500  0.565-  80 1.89  50 1.90  79 2.00
 237  0.500  0.500  0.649-  83 1.82  50 2.01  80 2.01
 238  0.350  0.375  0.607-  80 1.95  81 1.97  71 1.97
 239  0.650  0.375  0.607-  80 1.95  41 1.97  31 1.97
 240  0.249  0.500  0.672-  81 1.86  52 2.10  82 2.10
 241  0.251  0.500  0.756-  82 1.83  52 1.84
 242  0.594  0.374  0.718-  83 1.94  73 1.94  42 2.03
 243  0.406  0.374  0.718-  83 1.94  73 1.94  82 2.03

IMPORTANT INFORMATION: All symmetrisations will be switched off!
NOSYMM: (Re-)initialisation of all symmetry stuff for point group C_1.

                                     Primitive cell

  volume of cell :    4700.2961

  direct lattice vectors                    reciprocal lattice vectors
    13.003980404  0.000000000  0.000000000     0.076899531  0.000000000  0.000000000
     0.000000000 11.830378115  0.000000000     0.000000000  0.084528152  0.000000000
     0.000000000  0.000000000 30.552748813     0.000000000  0.000000000  0.032730279

  length of vectors
    13.003980404 11.830378115 30.552748813     0.076899531  0.084528152  0.032730279

  position of ions in fractional coordinates (direct lattice)
     0.499999660  0.610168759  0.802732442
     0.499999549  0.708561239  0.808141469
     0.499999786  0.511620407  0.796353529
     0.750000000  0.625000000  0.287188045
     0.000000000  0.750000000  0.287188045
     0.000000000  0.625000000  0.393594023
     0.750000000  0.750000000  0.393594023
     0.750000000  0.625000000  0.500000000
     0.000000000  0.750000000  0.500000000
     0.999999939  0.625012602  0.604131190
     0.750021775  0.750035515  0.610696778
     0.750003064  0.625099460  0.720187232
     0.000000016  0.750048202  0.708165271
     0.750000000  0.875000000  0.287188045
     0.000000000  0.000000000  0.287188045
     0.000000000  0.875000000  0.393594023
     0.750000000  0.000000000  0.393594023
     0.750000000  0.875000000  0.500000000
     0.000000000  0.000000000  0.500000000
     0.999999991  0.875008991  0.604144304
     0.749983712  0.000012875  0.610796716
     0.749876203  0.874991967  0.720525488
     0.999999989  0.999985733  0.708180187
     0.750000000  0.125000000  0.287188045
     0.000000000  0.250000000  0.287188045
     0.000000000  0.125000000  0.393594023
     0.750000000  0.250000000  0.393594023
     0.750000000  0.125000000  0.500000000
     0.000000000  0.250000000  0.500000000
     0.000000067  0.124986485  0.604150370
     0.750020773  0.249966864  0.610793409
     0.749936140  0.125009463  0.720500285
     0.000000014  0.249968494  0.708178592
     0.750000000  0.375000000  0.287188045
     0.000000000  0.500000000  0.287188045
     0.000000000  0.375000000  0.393594023
     0.750000000  0.500000000  0.393594023
     0.750000000  0.375000000  0.500000000
     0.000000000  0.500000000  0.500000000
     0.000000084  0.374994155  0.604134382
     0.750042567  0.499977077  0.610710241
     0.750059276  0.375070994  0.720471486
     0.999999993  0.500046918  0.708154109
     0.250000000  0.625000000  0.287188045
     0.500000000  0.750000000  0.287188045
     0.500000000  0.625000000  0.393594023
     0.250000000  0.750000000  0.393594023
     0.250000000  0.625000000  0.500000000
     0.500000000  0.750000000  0.500000000
     0.499999957  0.624723114  0.604426797
     0.249978087  0.750035507  0.610696776
     0.249996934  0.625099468  0.720187222
     0.500000013  0.750558309  0.708051210
     0.250000000  0.875000000  0.287188045
     0.500000000  0.000000000  0.287188045
     0.500000000  0.875000000  0.393594023
     0.250000000  0.000000000  0.393594023
     0.250000000  0.875000000  0.500000000
     0.500000000  0.000000000  0.500000000
     0.499999960  0.874829590  0.604010476
[...]
     0.500000000  0.500000000  0.435304973
     0.347999548  0.375000000  0.393594023
     0.652000452  0.375000000  0.393594023
[...]
     0.000000000  0.000000000 30.552748813     0.000000000  0.000000000  0.032730279

  length of vectors
    13.003980404 11.830378115 30.552748813     0.076899531  0.084528152  0.032730279

 FORCES acting on ions
    electron-ion (+dipol)            ewald-force                    non-local-force                 convergence-correction
   -.849E-04 0.366E+01 -.160E+04   0.842E-04 -.355E+01 0.160E+04   0.295E-05 0.190E-01 -.103E-01   -.187E-05 0.153E-03 -.159E+00
   0.107E-03 -.271E+03 -.237E+04   -.191E-03 0.335E+03 0.238E+04   0.955E-04 -.566E+02 -.931E+01   -.150E-04 -.542E-03 -.238E+00
   -.508E-03 0.268E+03 -.242E+04   0.579E-03 -.331E+03 0.241E+04   -.624E-04 0.555E+02 0.618E+01   0.327E-05 0.685E-03 -.246E+00
   -.240E+00 -.206E-02 0.379E+04   0.240E+00 0.219E-02 -.380E+04   0.106E-03 -.220E-04 0.576E+00   0.110E-03 -.321E-04 0.415E+00
   0.604E-04 -.658E-01 0.398E+04   -.494E-06 0.659E-01 -.397E+04   -.660E-05 -.234E-04 -.417E+01   -.553E-04 0.574E-04 0.389E+00
   0.579E-04 -.871E-02 0.194E+04   -.125E-05 0.874E-02 -.194E+04   0.528E-05 -.671E-05 -.107E+00   -.695E-04 0.636E-05 0.254E+00
   -.463E+00 -.144E+00 0.194E+04   0.461E+00 0.145E+00 -.194E+04   0.306E-03 -.552E-04 0.229E+00   0.416E-04 -.534E-04 0.248E+00
   -.211E+01 -.202E-01 0.169E+02   0.210E+01 0.193E-01 -.160E+02   0.170E-02 0.113E-03 -.159E+00   0.809E-03 0.342E-04 0.480E-01
   0.106E-04 -.723E+00 0.261E+02   0.141E-05 0.727E+00 -.274E+02   -.131E-05 -.913E-03 0.388E+00   -.105E-04 -.481E-05 0.573E-01
   -.137E-03 -.400E+00 -.185E+04   0.862E-04 0.401E+00 0.185E+04   0.397E-05 0.120E-03 0.179E+00   0.475E-04 -.606E-04 -.164E+00
   -.128E+02 -.561E+01 -.190E+04   0.128E+02 0.562E+01 0.190E+04   -.122E-02 -.135E-02 -.271E+00   0.202E-02 0.361E-03 -.172E+00
   -.854E+02 -.463E+01 -.370E+04   0.854E+02 0.464E+01 0.370E+04   0.113E-01 0.783E-02 -.454E+00   0.506E-02 -.509E-03 -.387E+00
   -.341E-04 -.754E+01 -.376E+04   -.159E-03 0.755E+01 0.376E+04   0.310E-05 -.748E-02 0.125E+01   0.197E-03 -.121E-03 -.355E+00
   -.235E+00 -.960E-01 0.379E+04   0.235E+00 0.965E-01 -.380E+04   0.139E-03 -.494E-04 0.576E+00   0.126E-03 0.919E-04 0.415E+00
   0.658E-04 -.613E-01 0.398E+04   -.397E-06 0.614E-01 -.397E+04   -.453E-05 -.109E-04 -.417E+01   -.666E-04 -.153E-04 0.389E+00
   -.963E-04 -.196E+00 0.194E+04   -.733E-06 0.196E+00 -.194E+04   -.162E-05 -.452E-04 -.107E+00   0.102E-03 -.224E-05 0.253E+00
   -.455E+00 -.146E+00 0.194E+04   0.454E+00 0.147E+00 -.194E+04   0.386E-03 -.333E-04 0.228E+00   0.479E-04 0.596E-04 0.248E+00
   -.212E+01 -.116E+01 0.157E+02   0.212E+01 0.117E+01 -.148E+02   0.120E-02 -.188E-02 -.161E+00   0.645E-03 0.120E-03 0.480E-01
   -.157E-04 -.613E+00 0.249E+02   0.273E-05 0.616E+00 -.261E+02   0.270E-05 -.588E-03 0.388E+00   0.858E-05 0.117E-03 0.574E-01
   0.446E-04 -.363E+01 -.185E+04   -.544E-04 0.364E+01 0.185E+04   -.169E-05 -.106E-02 0.181E+00   0.132E-04 0.618E-04 -.163E+00
   -.876E+01 -.403E+01 -.191E+04   0.876E+01 0.403E+01 0.191E+04   0.943E-03 -.303E-03 -.260E+00   0.158E-02 0.241E-03 -.172E+00
   -.459E+02 -.316E+02 -.373E+04   0.459E+02 0.316E+02 0.374E+04   0.147E-01 -.266E-02 -.462E+00   0.393E-02 0.609E-03 -.389E+00
   -.739E-04 -.581E+01 -.377E+04   -.410E-04 0.581E+01 0.377E+04   -.285E-06 -.302E-02 0.126E+01   0.120E-03 -.692E-04 -.356E+00
   -.229E+00 0.217E-02 0.379E+04   0.228E+00 -.218E-02 -.380E+04   0.135E-03 -.115E-04 0.576E+00   0.116E-03 -.501E-04 0.415E+00
   0.420E-04 0.657E-01 0.398E+04   -.393E-06 -.659E-01 -.397E+04   0.217E-05 0.197E-04 -.417E+01   -.495E-04 0.242E-04 0.389E+00
   -.186E-03 0.867E-02 0.194E+04   -.239E-06 -.869E-02 -.194E+04   -.562E-05 -.835E-05 -.107E+00   0.209E-03 -.363E-04 0.253E+00
   -.439E+00 0.144E+00 0.194E+04   0.438E+00 -.145E+00 -.194E+04   0.333E-03 0.686E-04 0.228E+00   0.152E-03 0.146E-04 0.248E+00
   -.194E+01 0.220E-01 0.145E+02   0.194E+01 -.227E-01 -.136E+02   0.133E-02 0.414E-04 -.163E+00   0.617E-03 -.100E-03 0.480E-01
   0.194E-04 0.721E+00 0.250E+02   -.214E-05 -.725E+00 -.263E+02   0.352E-05 0.904E-03 0.389E+00   -.249E-04 -.151E-03 0.573E-01
   0.669E-04 0.308E+00 -.185E+04   -.217E-03 -.309E+00 0.185E+04   -.134E-05 0.874E-03 0.185E+00   0.166E-03 -.190E-03 -.163E+00
   -.924E+01 0.525E+01 -.191E+04   0.924E+01 -.525E+01 0.191E+04   0.564E-03 0.450E-03 -.262E+00   0.167E-02 -.322E-03 -.172E+00
   -.244E+02 0.320E+01 -.375E+04   0.244E+02 -.320E+01 0.375E+04   0.910E-02 -.936E-03 -.465E+00   0.305E-02 -.549E-03 -.390E+00
   -.235E-04 0.662E+01 -.377E+04   -.964E-04 -.663E+01 0.377E+04   0.248E-05 0.616E-02 0.126E+01   0.120E-03 0.707E-04 -.355E+00
   -.234E+00 0.959E-01 0.379E+04   0.233E+00 -.965E-01 -.380E+04   0.105E-03 0.825E-04 0.576E+00   0.156E-03 -.138E-04 0.415E+00
   0.268E-04 0.614E-01 0.398E+04   -.490E-06 -.614E-01 -.397E+04   0.670E-06 0.151E-04 -.417E+01   -.290E-04 -.659E-04 0.389E+00
   0.587E-04 0.196E+00 0.194E+04   -.833E-06 -.196E+00 -.194E+04   -.137E-05 0.586E-04 -.107E+00   -.611E-04 0.373E-04 0.253E+00
   -.447E+00 0.146E+00 0.194E+04   0.446E+00 -.147E+00 -.194E+04   0.233E-03 0.171E-04 0.229E+00   0.165E-03 -.211E-04 0.248E+00
   -.193E+01 0.116E+01 0.158E+02   0.192E+01 -.117E+01 -.149E+02   0.153E-02 0.175E-02 -.161E+00   0.667E-03 -.508E-04 0.480E-01
   0.312E-04 0.619E+00 0.263E+02   -.440E-05 -.623E+00 -.276E+02   0.922E-06 0.473E-03 0.388E+00   -.304E-04 0.414E-04 0.574E-01
   0.368E-03 0.368E+01 -.185E+04   -.319E-03 -.368E+01 0.185E+04   0.255E-05 0.722E-03 0.180E+00   -.493E-04 0.192E-03 -.163E+00
   -.133E+02 0.438E+01 -.190E+04   0.133E+02 -.438E+01 0.190E+04   -.158E-03 0.302E-03 -.272E+00   0.219E-02 -.276E-03 -.172E+00
   -.552E+02 0.332E+02 -.373E+04   0.551E+02 -.332E+02 0.373E+04   0.205E-01 0.106E-01 -.461E+00   0.492E-02 0.441E-03 -.389E+00
   -.488E-04 0.657E+01 -.376E+04   -.936E-04 -.657E+01 0.376E+04   0.166E-05 0.205E-02 0.124E+01   0.144E-03 0.120E-03 -.355E+00
   0.240E+00 -.207E-02 0.379E+04   -.240E+00 0.219E-02 -.380E+04   -.107E-03 -.113E-04 0.576E+00   -.413E-04 -.273E-04 0.415E+00
   0.259E-04 -.730E-01 0.398E+04   0.493E-06 0.734E-01 -.397E+04   -.582E-07 -.381E-04 -.417E+01   -.279E-04 0.442E-05 0.389E+00
   0.269E-04 0.189E-01 0.194E+04   0.127E-05 -.164E-01 -.194E+04   -.421E-05 -.509E-03 -.107E+00   -.219E-04 0.110E-03 0.253E+00
   0.463E+00 -.144E+00 0.194E+04   -.461E+00 0.145E+00 -.194E+04   -.305E-03 -.523E-04 0.229E+00   -.504E-04 0.303E-04 0.248E+00
   0.211E+01 -.201E-01 0.169E+02   -.210E+01 0.193E-01 -.160E+02   -.170E-02 0.108E-03 -.159E+00   -.635E-03 -.433E-04 0.479E-01
   0.104E-03 -.760E+00 0.305E+02   0.185E-04 0.746E+00 -.317E+02   0.194E-05 0.737E-02 0.378E+00   -.135E-03 0.140E-03 0.561E-01
   -.611E-04 -.143E+01 -.182E+04   0.973E-04 0.144E+01 0.182E+04   -.515E-05 -.956E-02 0.216E+00   -.354E-04 0.473E-03 -.167E+00
   0.128E+02 -.561E+01 -.190E+04   -.128E+02 0.562E+01 0.190E+04   0.121E-02 -.135E-02 -.271E+00   -.206E-02 0.269E-03 -.172E+00
   0.854E+02 -.463E+01 -.370E+04   -.854E+02 0.464E+01 0.370E+04   -.113E-01 0.784E-02 -.455E+00   -.510E-02 -.238E-03 -.388E+00
   -.740E-04 -.685E+02 -.362E+04   0.201E-03 0.686E+02 0.362E+04   -.629E-05 -.676E-01 0.131E+01   -.119E-03 0.175E-02 -.358E+00
   0.235E+00 -.960E-01 0.379E+04   -.235E+00 0.965E-01 -.380E+04   -.126E-03 -.566E-04 0.576E+00   -.729E-04 0.119E-03 0.415E+00
   0.215E-04 -.717E-01 0.398E+04   0.386E-06 0.719E-01 -.397E+04   -.751E-06 -.199E-04 -.417E+01   -.219E-04 0.231E-04 0.389E+00
   -.138E-04 -.205E+00 0.194E+04   0.661E-06 0.207E+00 -.194E+04   -.482E-05 -.545E-03 -.107E+00   0.186E-04 -.498E-04 0.254E+00
   0.456E+00 -.146E+00 0.194E+04   -.454E+00 0.147E+00 -.194E+04   -.380E-03 -.367E-04 0.228E+00   -.341E-03 0.675E-04 0.248E+00
   0.212E+01 -.116E+01 0.157E+02   -.212E+01 0.117E+01 -.148E+02   -.119E-02 -.187E-02 -.161E+00   -.600E-03 0.173E-03 0.480E-01
   0.296E-04 -.923E+00 0.294E+02   -.141E-05 0.926E+00 -.307E+02   -.271E-05 0.259E-03 0.375E+00   -.257E-04 0.115E-03 0.568E-01
   -.113E-03 -.105E+02 -.183E+04   0.804E-04 0.105E+02 0.183E+04   0.403E-05 -.113E-02 0.137E+00   0.255E-04 0.113E-02 -.166E+00
[...]
   -.529E+02 0.124E+00 0.116E+04   0.571E+02 -.125E+00 -.116E+04   -.336E+01 0.124E-02 0.163E+00   -.734E-03 0.949E-05 0.152E+00
   0.529E+02 0.124E+00 0.116E+04   -.571E+02 -.125E+00 -.116E+04   0.336E+01 0.124E-02 0.163E+00   0.735E-03 -.323E-04 0.152E+00
   0.656E+00 0.240E+00 0.515E+03   -.653E+00 -.242E+00 -.519E+03   -.350E-02 0.466E-02 0.394E+01   -.242E-03 0.437E-05 0.861E-01
   0.232E+01 0.937E+00 -.510E+03   -.231E+01 -.939E+00 0.518E+03   -.424E-02 0.311E-02 -.686E+01   -.645E-03 -.556E-04 -.228E-01
   -.557E+02 0.654E+00 0.167E+02   0.608E+02 -.659E+00 -.170E+02   -.501E+01 0.111E-01 0.337E+00   -.733E-03 -.904E-04 0.324E-01
   0.557E+02 0.654E+00 0.167E+02   -.608E+02 -.659E+00 -.170E+02   0.501E+01 0.111E-01 0.337E+00   0.737E-03 -.568E-04 0.324E-01
   0.578E-04 0.139E+01 -.608E+03   -.404E-04 -.135E+01 0.601E+03   0.536E-05 -.404E-01 0.617E+01   -.228E-04 -.878E-04 -.526E-01
   -.147E-04 0.760E+01 -.156E+04   0.787E-04 -.749E+01 0.156E+04   -.772E-06 -.984E-01 0.213E+01   -.619E-04 -.365E-03 -.155E+00
   -.215E+02 0.526E+01 -.111E+04   0.246E+02 -.529E+01 0.111E+04   -.276E+01 0.284E-01 0.846E+00   -.657E-03 -.420E-03 -.102E+00
   0.215E+02 0.526E+01 -.111E+04   -.246E+02 -.529E+01 0.111E+04   0.276E+01 0.284E-01 0.846E+00   0.633E-03 -.428E-03 -.102E+00
   0.232E+02 0.758E+01 -.179E+04   -.232E+02 -.768E+01 0.179E+04   0.721E-01 0.849E-01 -.218E+01   -.231E-02 -.189E-03 -.173E+00
   0.691E+02 0.208E+02 -.270E+04   -.689E+02 -.208E+02 0.272E+04   -.200E+00 0.326E-02 -.197E+02   -.347E-02 0.414E-03 -.258E+00
   -.526E+02 0.484E+02 -.228E+04   0.591E+02 -.484E+02 0.229E+04   -.587E+01 0.700E-01 -.347E+01   0.621E-02 -.109E-02 -.226E+00
   0.526E+02 0.484E+02 -.228E+04   -.591E+02 -.484E+02 0.229E+04   0.587E+01 0.700E-01 -.347E+01   -.623E-02 -.113E-02 -.226E+00
   0.388E-03 0.877E+00 0.101E+03   0.139E-11 -.187E-11 -.296E-10   -.774E-04 -.715E+00 -.944E+02   -.302E-03 0.356E-03 0.512E+01

 POSITION                                       TOTAL-FORCE (eV/Angst)
      6.50199      7.21853     24.52568         0.000001      0.133008     -0.014965
      6.50198      8.38255     24.69094         0.000011     -1.704384     -0.207315
      6.50199      6.05266     24.33079         0.000001      1.562988      0.219368
      9.75299      7.39399      8.77438        -0.000269      0.000024     -3.940344
      0.00000      8.87278      8.77438        -0.000003      0.000123      3.371530
      0.00000      7.39399     12.02538        -0.000007     -0.000011      0.578504
      9.75299      8.87278     12.02538        -0.001051      0.000633     -0.793020
      9.75299      7.39399     15.27637        -0.006151     -0.000695      0.770384
      0.00000      8.87278     15.27637        -0.000000      0.003075     -0.839799
     13.00398      7.39414     18.45787         0.000004     -0.000036      0.008642
      9.75327      8.87320     18.65847         0.000639      0.001193      0.144865
      9.75303      7.39516     22.00370         0.013955      0.006523      0.263294
      0.00000      8.87335     21.63640         0.000007      0.005012     -0.185524
      9.75299     10.35158      8.77438        -0.000327      0.000462     -3.940280
      0.00000      0.00000      8.77438        -0.000007      0.000060      3.371415
      0.00000     10.35158     12.02538         0.000003      0.000407      0.578796
      9.75299      0.00000     12.02538        -0.001288      0.000450     -0.790832
      9.75299     10.35158     15.27637        -0.004323      0.015940      0.780102
      0.00000      0.00000     15.27637        -0.000001      0.002709     -0.838056
     13.00398     10.35169     18.45827         0.000003      0.001089      0.009624
      9.75277      0.00015     18.66152        -0.000814      0.000621      0.147537
      9.75138     10.35149     22.01403         0.000595      0.013404      0.270988
     13.00398     11.83021     21.63685         0.000006      0.000242     -0.185725
      9.75299      1.47880      8.77438        -0.000335     -0.000127     -3.940172
      0.00000      2.95759      8.77438        -0.000006     -0.000224      3.371452
      0.00000      1.47880     12.02538         0.000019     -0.000120      0.579013
      9.75299      2.95759     12.02538        -0.001126     -0.000747     -0.790728
      9.75299      1.47880     15.27637        -0.004434     -0.000836      0.790053
      0.00000      2.95759     15.27637        -0.000004     -0.003289     -0.838321
      0.00000      1.47864     18.45845         0.000014     -0.000036      0.009590
      9.75326      2.95720     18.66142         0.000251     -0.000914      0.148390
      9.75215      1.47891     22.01326        -0.000607     -0.000820      0.272945
      0.00000      2.95722     21.63680         0.000002     -0.003329     -0.186200
      9.75299      4.43639      8.77438        -0.000273     -0.000557     -3.940243
      0.00000      5.91519      8.77438        -0.000002     -0.000164      3.371548
      0.00000      4.43639     12.02538        -0.000005     -0.000480      0.578725
      9.75299      5.91519     12.02538        -0.000888     -0.000545     -0.792833
      9.75299      4.43639     15.27637        -0.005978     -0.014633      0.780089
      0.00000      5.91519     15.27637        -0.000003     -0.002681     -0.840020
      0.00000      4.43632     18.45797         0.000000     -0.000928      0.009084
      9.75354      5.91492     18.65888         0.000882     -0.000815      0.146612
      9.75376      4.43723     22.01238        -0.002551     -0.015406      0.268237
     13.00398      5.91574     21.63605         0.000004     -0.002612     -0.185603
      3.25100      7.39399      8.77438         0.000260      0.000027     -3.940335
      6.50199      8.87278      8.77438        -0.000002      0.000277      3.372463
      6.50199      7.39399     12.02538         0.000002      0.002083      0.580833
      3.25100      8.87278     12.02538         0.001051      0.000644     -0.793022
      3.25100      7.39399     15.27637         0.006161     -0.000701      0.770379
      6.50199      8.87278     15.27637        -0.000011     -0.005665     -0.811617
      6.50199      7.39071     18.46690        -0.000004      0.000702      0.008860
      3.25071      8.87320     18.65847        -0.000643      0.001188      0.144908
      3.25096      7.39516     22.00370        -0.013958      0.006530      0.263338
      6.50199      8.87939     21.63291         0.000002      0.011279     -0.182906
      3.25100     10.35158      8.77438         0.000312      0.000465     -3.940276
      6.50199      0.00000      8.77438        -0.000001      0.000104      3.372546
      6.50199     10.35158     12.02538         0.000001      0.001948      0.582680
      3.25100      0.00000     12.02538         0.001258      0.000454     -0.790836
      3.25100     10.35158     15.27637         0.004326      0.015946      0.780099
      6.50199      0.00000     15.27637        -0.000001      0.002661     -0.841240
      6.50199     10.34956     18.45418        -0.000001     -0.002009      0.008836
[...]
      6.50199      5.91519     13.29976        -0.000000      0.000363     -0.294701
      4.52538      4.43639     12.02538         0.298951      0.000597      0.071287
      8.47860      4.43639     12.02538        -0.298949      0.000596      0.071308
      3.25100      5.91519     14.00199        -0.001133      0.002881      0.046375
      3.25100      5.91519     16.55076         0.000603      0.002139     -0.228687
      7.77637      4.43639     15.27637        -0.738140      0.008086      0.106868
      5.22761      4.43639     15.27637         0.738140      0.008089      0.106890
      6.50199      5.91531     17.27591         0.000001     -0.000986      0.197840
      6.50199      5.91455     19.83683         0.000001     -0.002321     -0.016986
      4.55288      4.43640     18.55266        -0.109482      0.001432      0.023368
      8.45110      4.43640     18.55266         0.109483      0.001433      0.023369
      3.24421      5.91558     20.51999        -0.000165      0.003773     -0.074741
      3.26640      5.91880     23.09439        -0.029849     -0.000521     -0.667215
      7.72931      4.42765     21.93715        -0.322704     -0.009962     -0.103078
      5.27467      4.42765     21.93715         0.322704     -0.009961     -0.103126
    total drift:                               -0.000033      0.012170     -0.433055

  FREE ENERGIE OF THE ION-ELECTRON SYSTEM (eV)
  free  energy   TOTEN  =     -2851.71609579 eV

  energy  without entropy=    -2851.71609579  energy(sigma->0) =    -2851.71609579