 vasp.6.3.0 20Jan22 (build Apr  1 2022 16:44:48) complex
 executed on        HPECrayEX_GCC date 2023.03.11  22:35:22

 INCAR:
   SYSTEM = MgO-rocksalt
   ISMEAR = 0
   SIGMA = 0.05
   EDIFF = 1E-6
   ALGO = ALL
   ISTART = 0
   IBRION = -1
   NSW = 0
   ISYM = 0
   DIPOL = 0.5 0.5 0.5
   IDIPOL = 3
   LDIPOL = .TRUE.
   LHFCALC = .TRUE.
   GGA = B5
   AEXX = 0.2
   AGGAX = 0.72
   AGGAC = 0.81
   ALDAC = 0.19
   IVDW = 1
   VDW_S6 = 1.05
   VDW_C6 = 1.23 0.70 0.63 0.70
   VDW_R0 = 1.397 1.342 1.243 1.342
   ENCUT = 600
   PREC = Accurate
   LASPH = .TRUE.
   LREAL = .FALSE.
   ISPIN = 1
   NELM = 200
   NELMIN = 8
   NCORE = 8
   KPAR = 1
   LWAVE = .FALSE.
   LCHARG = .FALSE.

 POTCAR:    PAW_PBE N 08Apr2002
 POTCAR:    PAW_PBE O 08Apr2002
 POTCAR:    PAW_PBE Mg_pv 13Apr2007
 POTCAR:    PAW_PBE O 08Apr2002
 POTCAR:    PAW_PBE N 08Apr2002
   VRHFIN =N: s2p3

   TITEL  = PAW_PBE N 08Apr2002
   POMASS =   14.001; ZVAL   =    5.000    mass and valenz
   ENMAX  =  400.000; ENMIN  =  300.000 eV

[...]

   TITEL  = PAW_PBE Mg_pv 13Apr2007
   POMASS =   24.305; ZVAL   =    8.000    mass and valenz
   ENMAX  =  403.929; ENMIN  =  302.947 eV

   TITEL  = PAW_PBE O 08Apr2002
   POMASS =   16.000; ZVAL   =    6.000    mass and valenz
   ENMAX  =  400.000; ENMIN  =  300.000 eV

  PAW_PBE N 08Apr2002                   :
  PAW_PBE O 08Apr2002                   :
  PAW_PBE Mg_pv 13Apr2007               :
  PAW_PBE O 08Apr2002                   :

 POSCAR:  N  O Mg  O
  positions in direct lattice
 exchange correlation table for  LEXCH =       12
   RHO(1)=    0.500       N(1)  =     2000
   RHO(2)=  100.500       N(2)  =     4000

 ion  position               nearest neighbor table
   1  0.531  0.549  0.790-   2 1.12
   2  0.627  0.639  0.780-   1 1.12   3 1.19
   3  0.728  0.735  0.769-   2 1.19
   4  0.250  0.000  0.353-  38 2.09  39 2.09  46 2.09  55 2.09  36 2.09
   5  0.500  0.250  0.353-  38 2.09  39 2.09  47 2.09  54 2.09  37 2.09
   6  0.250  0.250  0.451-  36 2.09  37 2.09  44 2.09  53 2.09  38 2.09  42 2.09
   7  0.500  0.000  0.451-  36 2.09  37 2.09  45 2.09  52 2.09  39 2.09  43 2.09
   8  0.250  1.000  0.550-  59 2.09  43 2.09  50 2.09  42 2.09  36 2.10  40 2.13
   9  0.500  0.250  0.550-  43 2.09  58 2.09  42 2.09  51 2.09  37 2.10  41 2.12
  10  0.250  0.250  0.647-  42 2.08  57 2.09  40 2.09  48 2.09  41 2.09
  11  0.500  0.000  0.647-  43 2.08  41 2.09  56 2.09  40 2.09  49 2.09
  12  0.250  0.500  0.353-  38 2.09  46 2.09  47 2.09  63 2.09  44 2.09
  13  0.500  0.750  0.353-  39 2.09  46 2.09  47 2.09  62 2.09  45 2.09
  14  0.250  0.750  0.451-  36 2.09  44 2.09  45 2.09  61 2.09  46 2.09  50 2.09
  15  0.500  0.500  0.451-  37 2.09  44 2.09  45 2.09  60 2.09  47 2.09  51 2.09
  16  0.250  0.500  0.550-  67 2.09  50 2.09  42 2.09  51 2.09  44 2.10  48 2.12
  17  0.500  0.750  0.550-  66 2.08  43 2.09  51 2.09  50 2.09  45 2.10  49 2.13
  18  0.250  0.750  0.647-  65 2.08  50 2.08  49 2.09  48 2.09  40 2.09
  19  0.499  0.499  0.647-  51 2.07  48 2.08  41 2.08  64 2.09  49 2.09
  20  0.750  0.000  0.353-  39 2.09  54 2.09  55 2.09  62 2.09  52 2.09
  21  0.000  0.250  0.353-  38 2.09  54 2.09  55 2.09  63 2.09  53 2.09
  22  0.750  0.250  0.451-  37 2.09  52 2.09  53 2.09  60 2.09  54 2.09  58 2.09
  23  0.000  0.000  0.451-  36 2.09  52 2.09  53 2.09  61 2.09  55 2.09  59 2.09
  24  0.750  1.000  0.550-  66 2.09  59 2.09  43 2.09  58 2.09  52 2.10  56 2.11
  25  1.000  0.250  0.550-  59 2.09  67 2.09  58 2.09  42 2.09  53 2.10  57 2.13
  26  0.750  0.250  0.647-  56 2.08  58 2.08  64 2.09  41 2.09  57 2.09
  27  0.000  0.000  0.647-  59 2.08  56 2.09  65 2.09  57 2.09  40 2.09
  28  0.750  0.500  0.353-  47 2.09  54 2.09  62 2.09  63 2.09  60 2.09
  29  0.000  0.750  0.353-  46 2.09  55 2.09  62 2.09  63 2.09  61 2.09
  30  0.750  0.750  0.451-  45 2.09  52 2.09  60 2.09  61 2.09  62 2.09  66 2.10
  31  0.000  0.500  0.451-  44 2.09  53 2.09  60 2.09  61 2.09  63 2.09  67 2.10
  32  0.750  0.500  0.550-  66 2.08  67 2.09  51 2.09  58 2.09  60 2.10  64 2.13
  33  1.000  0.750  0.550-  66 2.09  59 2.09  67 2.09  50 2.09  61 2.10  65 2.12
  34  0.751  0.751  0.649-  65 2.08  56 2.08  64 2.10  49 2.10  66 2.10
  35  1.000  0.500  0.647-  67 2.08  48 2.09  65 2.09  57 2.09  64 2.09
  36  0.250  0.000  0.451-   6 2.09   7 2.09  14 2.09  23 2.09   4 2.09   8 2.10
  37  0.500  0.250  0.451-   6 2.09   7 2.09  15 2.09  22 2.09   5 2.09   9 2.10
  38  0.250  0.250  0.353-   4 2.09   5 2.09  12 2.09  21 2.09   6 2.09
  39  0.500  0.000  0.353-   4 2.09   5 2.09  13 2.09  20 2.09   7 2.09
  40  0.250  1.000  0.650-  10 2.09  11 2.09  27 2.09  18 2.09   8 2.13
  41  0.500  0.250  0.649-  19 2.08  11 2.09  10 2.09  26 2.09   9 2.12
  42  0.250  0.250  0.549-  10 2.08   8 2.09  25 2.09   9 2.09  16 2.09   6 2.09
  43  0.500  1.000  0.549-  11 2.08  17 2.09   9 2.09   8 2.09  24 2.09   7 2.09
  44  0.250  0.500  0.451-   6 2.09  14 2.09  15 2.09  31 2.09  12 2.09  16 2.10
  45  0.500  0.750  0.451-   7 2.09  14 2.09  15 2.09  30 2.09  13 2.09  17 2.10
  46  0.250  0.750  0.353-   4 2.09  12 2.09  13 2.09  29 2.09  14 2.09
  47  0.500  0.500  0.353-   5 2.09  12 2.09  13 2.09  28 2.09  15 2.09
  48  0.250  0.500  0.649-  19 2.08  35 2.09  10 2.09  18 2.09  16 2.12
  49  0.499  0.750  0.650-  18 2.09  11 2.09  19 2.09  34 2.10  17 2.13
  50  0.250  0.750  0.549-  18 2.08   8 2.09  16 2.09  17 2.09  33 2.09  14 2.09
  51  0.500  0.500  0.549-  19 2.07  32 2.09  17 2.09   9 2.09  16 2.09  15 2.09
  52  0.750  0.000  0.451-   7 2.09  22 2.09  23 2.09  30 2.09  20 2.09  24 2.10
  53  0.000  0.250  0.451-   6 2.09  22 2.09  23 2.09  31 2.09  21 2.09  25 2.10
  54  0.750  0.250  0.353-   5 2.09  20 2.09  21 2.09  28 2.09  22 2.09
  55  0.000  0.000  0.353-   4 2.09  20 2.09  21 2.09  29 2.09  23 2.09
  56  0.750  0.001  0.649-  26 2.08  34 2.08  11 2.09  27 2.09  24 2.11
  57  1.000  0.250  0.650-  10 2.09  35 2.09  27 2.09  26 2.09  25 2.13
  58  0.750  0.250  0.549-  26 2.08  25 2.09   9 2.09  32 2.09  24 2.09  22 2.09
  59  0.000  0.000  0.549-  27 2.08   8 2.09  25 2.09  24 2.09  33 2.09  23 2.09
  60  0.750  0.500  0.451-  15 2.09  22 2.09  30 2.09  31 2.09  28 2.09  32 2.10
  61  0.000  0.750  0.451-  14 2.09  23 2.09  30 2.09  31 2.09  29 2.09  33 2.10
  62  0.750  0.750  0.353-  13 2.09  20 2.09  28 2.09  29 2.09  30 2.09
  63  0.000  0.500  0.353-  12 2.09  21 2.09  28 2.09  29 2.09  31 2.09
  64  0.749  0.500  0.650-  26 2.09  35 2.09  19 2.09  34 2.10  32 2.13
  65  0.001  0.750  0.649-  18 2.08  34 2.08  35 2.09  27 2.09  33 2.12
  66  0.750  0.750  0.550-  32 2.08  17 2.08  33 2.09  24 2.09  30 2.10  34 2.10
  67  1.000  0.500  0.549-  35 2.08  32 2.09  25 2.09  16 2.09  33 2.09  31 2.10

IMPORTANT INFORMATION: All symmetrisations will be switched off!
NOSYMM: (Re-)initialisation of all symmetry stuff for point group C_1.

                                     Primitive cell

  volume of cell :    1482.1129

  direct lattice vectors                    reciprocal lattice vectors
     8.349111827  0.000000000  0.000000000     0.119773219  0.000000000  0.000000000
     0.000000000  8.349111827  0.000000000     0.000000000  0.119773219  0.000000000
     0.000000000  0.000000000 21.261833870     0.000000000  0.000000000  0.047032632

  length of vectors
     8.349111827  8.349111827 21.261833870     0.119773219  0.119773219  0.047032632

  position of ions in fractional coordinates (direct lattice)
     0.530736836  0.548539923  0.790159693
     0.626763539  0.639135330  0.779870949
     0.728160733  0.734777300  0.768697628
     0.250000000  0.000000000  0.352744737
     0.500000000  0.250000000  0.352744737
     0.250000000  0.250000000  0.450914912
     0.500000000  0.000000000  0.450914912
     0.249956618  0.999917683  0.549719934
     0.499906087  0.249737929  0.549648628
     0.249750995  0.249869825  0.647449302
     0.500057524  0.000084119  0.647268726
     0.250000000  0.500000000  0.352744737
     0.500000000  0.750000000  0.352744737
     0.250000000  0.750000000  0.450914912
     0.500000000  0.500000000  0.450914912
     0.249657779  0.499960743  0.549654158
     0.500293006  0.749966248  0.549891251
     0.249667345  0.749875063  0.647264433
     0.498717503  0.498823802  0.646785371
     0.750000000  0.000000000  0.352744737
     0.000000000  0.250000000  0.352744737
     0.750000000  0.250000000  0.450914912
     0.000000000  0.000000000  0.450914912
     0.750044377  0.999834442  0.549822684
     0.999857657  0.250025246  0.549726751
     0.749792815  0.249808845  0.647282851
     0.000014752  0.000120968  0.647347047
     0.750000000  0.500000000  0.352744737
     0.000000000  0.750000000  0.352744737
     0.750000000  0.750000000  0.450914912
     0.000000000  0.500000000  0.450914912
     0.749895413  0.500359104  0.549896405
     0.999762014  0.750081117  0.549825689
     0.751041761  0.751134064  0.648702733
     0.999929029  0.500144026  0.647329554
     0.250000000  0.000000000  0.450914912
     0.500000000  0.250000000  0.450914912
     0.250000000  0.250000000  0.352744737
     0.500000000  0.000000000  0.352744737
     0.250063111  0.999977639  0.649696453
     0.499695620  0.249769248  0.649388340
     0.249873835  0.249922002  0.549425717
     0.499908622  0.999790121  0.549444574
     0.250000000  0.500000000  0.450914912
     0.500000000  0.750000000  0.450914912
     0.250000000  0.750000000  0.352744737
     0.500000000  0.500000000  0.352744737
     0.249663079  0.499801460  0.649352356
     0.499474078  0.749541395  0.650096874
     0.250156310  0.749962764  0.549410349
     0.499899378  0.499957645  0.549403274
     0.750000000  0.000000000  0.450914912
     0.000000000  0.250000000  0.450914912
     0.750000000  0.250000000  0.352744737
     0.000000000  0.000000000  0.352744737
     0.749977627  0.000738255  0.649268103
     0.999881210  0.250156175  0.649692711
     0.749898152  0.250243389  0.549415897
     0.000086346  0.000130487  0.549416183
     0.750000000  0.500000000  0.450914912
     0.000000000  0.750000000  0.450914912
     0.750000000  0.750000000  0.352744737
     0.000000000  0.500000000  0.352744737
     0.749311190  0.499644086  0.650154291
     0.000593472  0.750073265  0.649312854
     0.749863384  0.749916238  0.549745486
     0.999698067  0.499968468  0.549461933

  ion indices of the primitive-cell ions
   primitive index   ion index
                 1           1
                 2           2
                 3           3
                 4           4
                 5           5
                 6           6
                 7           7
                 8           8
                 9           9
                10          10
                11          11
                12          12
                13          13
                14          14
                15          15
                16          16
                17          17
                18          18
                19          19
                20          20
                21          21
                22          22
                23          23
                24          24
                25          25
                26          26
[...]
   0.74931119  0.49964409  0.65015429
   0.00059347  0.75007327  0.64931285
   0.74986338  0.74991624  0.54974549
   0.99969807  0.49996847  0.54946193

 position of ions in cartesian coordinates  (Angst):
   4.43118119  4.57982116 16.80024412
   5.23291888  5.33621234 16.58148656
   6.07949539  6.13473784 16.34392127
   2.08727796  0.00000000  7.50000000
   4.17455591  2.08727796  7.50000000
   2.08727796  2.08727796  9.58727796
   4.17455591  0.00000000  9.58727796
   2.08691576  8.34842455 11.68805391
   4.17377182  2.08508990 11.68653782
   2.08519898  2.08619111 13.76595951
   4.17503619  0.00070232 13.76212012
   2.08727796  4.17455591  7.50000000
   4.17455591  6.26183387  7.50000000
   2.08727796  6.26183387  9.58727796
   4.17455591  4.17455591  9.58727796
   2.08442071  4.17422815 11.68665539
   4.17700226  6.26155207 11.69169642
   2.08450058  6.26079075 13.76202885
   4.16384821  4.16473570 13.75184311
   6.26183387  0.00000000  7.50000000
   0.00000000  2.08727796  7.50000000
   6.26183387  2.08727796  9.58727796
   0.00000000  0.00000000  9.58727796
   6.26220438  8.34772956 11.69023856
   8.34792339  2.08748873 11.68819886
   6.26010406  2.08568198 13.76242044
   0.00012317  0.00100997 13.76378536
   6.26183387  4.17455591  7.50000000
   0.00000000  6.26183387  7.50000000
   6.26183387  6.26183387  9.58727796
   0.00000000  4.17455591  9.58727796
   6.26096066  4.17755411 11.69180602
   8.34712485  6.26251112 11.69030246
   6.27053165  6.27130230 13.79260973
   8.34851928  4.17575840 13.76341345
   2.08727796  0.00000000  9.58727796
   4.17455591  2.08727796  9.58727796
   2.08727796  2.08727796  7.50000000
   4.17455591  0.00000000  7.50000000
   2.08780487  8.34892514 13.81373805
   4.17201461  2.08535138 13.80718701
   2.08622459  2.08662675 11.68179831
   4.17379299  8.34735952 11.68219926
   2.08727796  4.17455591  9.58727796
   4.17455591  6.26183387  9.58727796
   2.08727796  6.26183387  7.50000000
   4.17455591  4.17455591  7.50000000
   2.08446497  4.17289828 13.80642191
   4.17016493  6.25800492 13.82225174
   2.08858300  6.26152298 11.68147156
   4.17371581  4.17420229 11.68132113
   6.26183387  0.00000000  9.58727796
   0.00000000  2.08727796  9.58727796
   6.26183387  2.08727796  7.50000000
   0.00000000  0.00000000  7.50000000
   6.26164707  0.00616378 13.80463054
   8.34812004  2.08858188 13.81365849
   6.26098353  2.08931004 11.68158952
   0.00072091  0.00108945 11.68159560
   6.26183387  4.17455591  9.58727796
   0.00000000  6.26183387  9.58727796
   6.26183387  6.26183387  7.50000000
   0.00000000  4.17455591  7.50000000
   6.25608292  4.17158434 13.82347253
   0.00495497  6.26244557 13.80558204
   6.26069325  6.26113454 11.68859719
   8.34659095  4.17429265 11.68256833

--------------------------------------- Iteration      FINAL  ---------------------------------------

--------------------OUTCAR has been truncated-------------------------

[...]

--------------------OUTCAR has been truncated-------------------------

  DFT-D2 method for vdW energy calculation

  Parameters of vdW forcefield:
         C6(Jnm^6/mol)     R0(A)
   N        1.230          1.397
   O        0.700          1.342
   Mg       0.630          1.243
   O        0.700          1.342

  vdW correction parametrized for the method        Ì

  IVDW =   1
  VDW_RADIUS =    50.000 A
  VDW_S6 =     1.050
  VDW_SR =     1.000
  VDW_D =    20.000
  LVDW_EWALD = F

  Number of pair interactions contributing to vdW energy:  812400
  Edisp (eV):   -5.48229

 VOLUME and BASIS-vectors are now :
  energy-cutoff  :      600.00
  volume of cell :     1482.11
      direct lattice vectors                 reciprocal lattice vectors
     8.349111827  0.000000000  0.000000000     0.119773219  0.000000000  0.000000000
     0.000000000  8.349111827  0.000000000     0.000000000  0.119773219  0.000000000
     0.000000000  0.000000000 21.261833870     0.000000000  0.000000000  0.047032632

  length of vectors
     8.349111827  8.349111827 21.261833870     0.119773219  0.119773219  0.047032632

 FORCES acting on ions:
    Electron-Ion                     Ewald-Force                    Non-Local-Force
   0.215E+03 0.203E+03 -.129E+04   -.254E+03 -.239E+03 0.130E+04   0.353E+02 0.332E+02 -.965E+01
   0.158E+02 0.149E+02 -.129E+04   -.149E+02 -.140E+02 0.129E+04   -.108E+01 -.104E+01 0.452E+00
   -.218E+03 -.206E+03 -.155E+04   0.267E+03 0.252E+03 0.154E+04   -.427E+02 -.404E+02 0.103E+02
   0.195E+00 -.196E+00 0.215E+04   -.195E+00 0.195E+00 -.214E+04   0.153E-03 0.889E-03 -.644E+01
   0.176E+00 0.198E+00 0.215E+04   -.175E+00 -.199E+00 -.214E+04   -.586E-03 0.643E-03 -.643E+01
   0.885E+00 0.796E+00 0.758E+03   -.907E+00 -.816E+00 -.758E+03   0.141E-01 0.129E-01 0.427E+00
   0.796E+00 -.919E+00 0.760E+03   -.800E+00 0.877E+00 -.760E+03   0.318E-02 0.261E-01 0.441E+00
   0.324E+01 -.432E+01 -.628E+03   -.326E+01 0.431E+01 0.628E+03   0.158E-01 0.711E-02 -.112E+00
   0.400E+01 0.486E+01 -.620E+03   -.398E+01 -.491E+01 0.620E+03   -.106E-01 0.396E-01 -.191E+00
   0.139E+02 0.136E+02 -.202E+04   -.139E+02 -.136E+02 0.202E+04   0.122E-01 0.631E-02 0.538E+01
   0.227E+02 -.298E+02 -.200E+04   -.228E+02 0.300E+02 0.199E+04   0.375E-03 -.155E+00 0.542E+01
   0.221E+00 0.196E+00 0.215E+04   -.222E+00 -.195E+00 -.214E+04   0.830E-03 -.679E-03 -.643E+01
   0.194E+00 -.200E+00 0.215E+04   -.191E+00 0.200E+00 -.214E+04   -.172E-02 -.644E-04 -.645E+01
   0.933E+00 -.811E+00 0.760E+03   -.910E+00 0.825E+00 -.760E+03   -.144E-01 -.959E-02 0.408E+00
   0.826E+00 0.928E+00 0.762E+03   -.803E+00 -.903E+00 -.762E+03   -.154E-01 -.164E-01 0.442E+00
   0.529E+01 0.440E+01 -.619E+03   -.534E+01 -.438E+01 0.620E+03   0.408E-01 -.991E-02 -.212E+00
   0.665E+01 -.506E+01 -.611E+03   -.657E+01 0.510E+01 0.611E+03   -.713E-01 -.342E-01 -.633E-01
   0.220E+02 -.150E+02 -.200E+04   -.221E+02 0.150E+02 0.199E+04   0.128E+00 -.232E-02 0.539E+01
   0.329E+02 0.368E+02 -.193E+04   -.331E+02 -.371E+02 0.192E+04   0.239E+00 0.261E+00 0.548E+01
   -.195E+00 -.212E+00 0.215E+04   0.195E+00 0.210E+00 -.214E+04   -.196E-03 0.140E-02 -.644E+01
   -.176E+00 0.171E+00 0.215E+04   0.175E+00 -.171E+00 -.214E+04   0.981E-03 0.156E-04 -.644E+01
   -.910E+00 0.828E+00 0.759E+03   0.922E+00 -.800E+00 -.760E+03   -.778E-02 -.177E-01 0.410E+00
   -.796E+00 -.868E+00 0.758E+03   0.801E+00 0.874E+00 -.759E+03   -.382E-02 -.442E-02 0.421E+00
   -.334E+01 -.691E+01 -.617E+03   0.335E+01 0.684E+01 0.617E+03   -.118E-01 0.651E-01 -.375E+00
   -.393E+01 0.286E+01 -.629E+03   0.392E+01 -.287E+01 0.629E+03   0.816E-02 0.105E-01 -.119E+00
   -.151E+02 0.189E+02 -.200E+04   0.151E+02 -.191E+02 0.200E+04   -.822E-02 0.135E+00 0.538E+01
   -.211E+02 -.216E+02 -.202E+04   0.211E+02 0.216E+02 0.201E+04   0.326E-02 -.183E-02 0.540E+01
   -.224E+00 0.214E+00 0.215E+04   0.224E+00 -.211E+00 -.214E+04   0.155E-04 -.182E-02 -.645E+01
   -.192E+00 -.171E+00 0.215E+04   0.190E+00 0.172E+00 -.214E+04   0.152E-02 -.214E-03 -.644E+01
   -.959E+00 -.840E+00 0.761E+03   0.942E+00 0.825E+00 -.761E+03   0.115E-01 0.110E-01 0.504E+00
   -.830E+00 0.878E+00 0.759E+03   0.784E+00 -.879E+00 -.760E+03   0.292E-01 0.114E-02 0.446E+00
   -.549E+01 0.705E+01 -.612E+03   0.553E+01 -.697E+01 0.612E+03   -.350E-01 -.704E-01 -.479E-01
   -.651E+01 -.294E+01 -.617E+03   0.644E+01 0.295E+01 0.618E+03   0.662E-01 -.755E-02 -.357E+00
   -.315E+02 -.274E+02 -.190E+04   0.318E+02 0.277E+02 0.189E+04   -.298E+00 -.278E+00 0.497E+01
   -.266E+02 0.230E+02 -.200E+04   0.268E+02 -.230E+02 0.199E+04   -.161E+00 0.322E-02 0.541E+01
   0.575E+00 -.647E+00 0.568E+03   -.577E+00 0.644E+00 -.568E+03   0.343E-02 0.369E-02 -.989E-01
   0.569E+00 0.652E+00 0.569E+03   -.557E+00 -.639E+00 -.569E+03   -.146E-01 -.143E-01 -.640E-01
   0.156E+00 0.139E+00 0.161E+04   -.158E+00 -.141E+00 -.162E+04   0.227E-02 0.240E-02 0.311E+01
   0.137E+00 -.153E+00 0.161E+04   -.137E+00 0.149E+00 -.162E+04   0.674E-05 0.424E-02 0.310E+01
   0.883E+01 -.114E+02 -.154E+04   -.882E+01 0.114E+02 0.155E+04   -.145E-01 0.418E-01 -.465E+01
   0.111E+02 0.196E+02 -.152E+04   -.111E+02 -.197E+02 0.153E+04   -.271E-01 0.722E-01 -.471E+01
   0.294E+01 0.277E+01 -.465E+03   -.294E+01 -.277E+01 0.465E+03   0.163E-02 0.377E-03 0.247E+00
   0.375E+01 -.422E+01 -.459E+03   -.373E+01 0.422E+01 0.458E+03   -.196E-01 0.516E-02 0.332E+00
   0.725E+00 0.640E+00 0.569E+03   -.708E+00 -.631E+00 -.569E+03   -.200E-01 -.116E-01 -.640E-01
   0.719E+00 -.695E+00 0.570E+03   -.738E+00 0.702E+00 -.570E+03   0.239E-01 -.830E-02 -.129E+00
   0.158E+00 -.139E+00 0.161E+04   -.156E+00 0.141E+00 -.162E+04   -.184E-02 -.262E-02 0.310E+01
   0.139E+00 0.155E+00 0.161E+04   -.135E+00 -.151E+00 -.162E+04   -.529E-02 -.499E-02 0.310E+01
   0.211E+02 0.126E+02 -.152E+04   -.211E+02 -.125E+02 0.153E+04   0.766E-01 -.276E-01 -.472E+01
   0.372E+02 -.254E+02 -.147E+04   -.371E+02 0.254E+02 0.147E+04   -.125E+00 -.728E-02 -.437E+01
   0.331E+01 -.282E+01 -.459E+03   -.332E+01 0.282E+01 0.458E+03   0.618E-02 0.750E-02 0.316E+00
   0.397E+01 0.439E+01 -.449E+03   -.398E+01 -.440E+01 0.448E+03   0.104E-01 0.480E-02 0.479E+00
   -.577E+00 -.759E+00 0.569E+03   0.578E+00 0.769E+00 -.569E+03   -.179E-02 -.122E-01 -.978E-01
   -.586E+00 0.502E+00 0.568E+03   0.586E+00 -.508E+00 -.568E+03   -.711E-04 0.756E-02 -.987E-01
   -.156E+00 0.139E+00 0.161E+04   0.158E+00 -.137E+00 -.162E+04   -.267E-02 -.195E-02 0.310E+01
   -.137E+00 -.152E+00 0.161E+04   0.137E+00 0.152E+00 -.162E+04   0.548E-04 0.276E-03 0.310E+01
   -.101E+02 -.320E+02 -.151E+04   0.101E+02 0.320E+02 0.151E+04   -.117E-02 0.417E-01 -.470E+01
   -.102E+02 0.776E+01 -.154E+04   0.102E+02 -.775E+01 0.155E+04   0.415E-01 -.129E-01 -.465E+01
   -.299E+01 0.288E+01 -.459E+03   0.298E+01 -.289E+01 0.459E+03   0.657E-02 0.108E-01 0.314E+00
   -.370E+01 -.387E+01 -.463E+03   0.369E+01 0.386E+01 0.463E+03   0.928E-02 0.853E-02 0.294E+00
   -.781E+00 0.790E+00 0.570E+03   0.791E+00 -.813E+00 -.570E+03   -.124E-01 0.279E-01 -.131E+00
   -.698E+00 -.496E+00 0.569E+03   0.712E+00 0.495E+00 -.569E+03   -.170E-01 0.159E-03 -.992E-01
   -.159E+00 -.140E+00 0.161E+04   0.157E+00 0.138E+00 -.162E+04   0.212E-02 0.250E-02 0.310E+01
   -.137E+00 0.152E+00 0.161E+04   0.133E+00 -.152E+00 -.162E+04   0.425E-02 -.518E-04 0.310E+01
   -.262E+02 0.381E+02 -.147E+04   0.262E+02 -.379E+02 0.148E+04   -.185E-01 -.128E+00 -.441E+01
   -.305E+02 -.883E+01 -.151E+04   0.305E+02 0.883E+01 0.152E+04   0.360E-01 -.189E-02 -.470E+01
   -.347E+01 -.304E+01 -.452E+03   0.349E+01 0.306E+01 0.452E+03   -.147E-01 -.199E-01 0.184E-01
   -.380E+01 0.392E+01 -.459E+03   0.380E+01 -.390E+01 0.459E+03   0.127E-02 -.177E-01 0.321E+00
   0.113E+02 0.107E+02 0.179E+02   0.249E-12 0.332E-12 -.455E-12   -.868E+01 -.825E+01 -.161E+02

 POSITION                                       TOTAL-FORCE (eV/Angst)
      4.43118      4.57982     16.80024        -0.095851     -0.099060      0.026980
      5.23292      5.33621     16.58149        -0.299220     -0.287477      0.111520
      6.07950      6.13474     16.34392         0.413347      0.388950     -0.099324
      2.08728      0.00000      7.50000        -0.000029     -0.000383      0.309750
      4.17456      2.08728      7.50000         0.000350     -0.000117      0.307212
      2.08728      2.08728      9.58728        -0.006100     -0.005434      0.045516
      4.17456      0.00000      9.58728        -0.000354     -0.011978      0.047785
      2.08692      8.34842     11.68805        -0.001635     -0.000103      0.012269
      4.17377      2.08509     11.68654         0.002491     -0.001131      0.010385
      2.08520      2.08619     13.76596        -0.000808     -0.000714      0.105680
      4.17504      0.00070     13.76212        -0.004099      0.003886      0.105213
      2.08728      4.17456      7.50000        -0.000146      0.000351      0.307131
      4.17456      6.26183      7.50000         0.000610     -0.000027      0.311262
      2.08728      6.26183      9.58728         0.006122      0.003595      0.055484
      4.17456      4.17456      9.58728         0.005345      0.006103      0.046087
      2.08442      4.17423     11.68666        -0.001245      0.002494      0.010735
      4.17700      6.26155     11.69170        -0.001108      0.001856      0.015663
      2.08450      6.26079     13.76203        -0.002772      0.003069      0.103701
      4.16385      4.16474     13.75184        -0.003042     -0.002173      0.115229
      6.26183      0.00000      7.50000         0.000073     -0.000557      0.308616
      0.00000      2.08728      7.50000        -0.000386     -0.000014      0.309750
      6.26183      2.08728      9.58728         0.002828      0.007583      0.055489
      0.00000      0.00000      9.58728         0.000994      0.001401      0.049687
      6.26220      8.34773     11.69024        -0.001395      0.000163      0.012752
      8.34792      2.08749     11.68820        -0.000090     -0.001455      0.012368
      6.26010      2.08568     13.76242         0.003317     -0.002925      0.104310
      0.00012      0.00101     13.76379         0.000829      0.001158      0.113783
      6.26183      4.17456      7.50000        -0.000018      0.000632      0.311405
      0.00000      6.26183      7.50000        -0.000558      0.000063      0.308786
      6.26183      6.26183      9.58728        -0.003826     -0.003352      0.062186
      0.00000      4.17456      9.58728        -0.013390      0.000501      0.048429
      6.26096      4.17755     11.69181         0.002016     -0.001036      0.015376
      8.34712      6.26251     11.69030         0.000199     -0.001133      0.012516
      6.27053      6.27130     13.79261         0.005466      0.005163      0.094080
      8.34852      4.17576     13.76341         0.003990     -0.004090      0.106427
      2.08728      0.00000      9.58728         0.001440      0.001311      0.064271
      4.17456      2.08728      9.58728        -0.004515     -0.003818      0.069073
      2.08728      2.08728      7.50000         0.000761      0.000782     -0.591080
      4.17456      0.00000      7.50000        -0.000005      0.001446     -0.592055
      2.08780      8.34893     13.81374        -0.002922      0.002179      0.019781
      4.17201      2.08535     13.80719         0.000122      0.000001      0.022659
      2.08622      2.08663     11.68180         0.001523      0.001572      0.008866
      4.17379      8.34736     11.68220        -0.001025      0.001941      0.010757
      2.08728      4.17456      9.58728        -0.005565     -0.003663      0.069792
      4.17456      6.26183      9.58728         0.007552     -0.002889      0.073239
      2.08728      6.26183      7.50000        -0.000597     -0.000853     -0.591985
      4.17456      4.17456      7.50000        -0.001796     -0.001714     -0.591789
      2.08446      4.17290     13.80642         0.000286      0.000070      0.022787
      4.17016      6.25800     13.82225         0.009106     -0.006457      0.040169
      2.08858      6.26152     11.68147        -0.001808      0.000637      0.009301
      4.17372      4.17420     11.68132        -0.000250     -0.000569      0.012587
      6.26183      0.00000      9.58728        -0.000900     -0.004029      0.077845
      0.00000      2.08728      9.58728         0.000201      0.002674      0.065207
      6.26183      2.08728      7.50000        -0.000883     -0.000675     -0.591981
      0.00000      0.00000      7.50000         0.000059      0.000144     -0.592173
      6.26165      0.00616     13.80463        -0.000477     -0.003308      0.023325
      8.34812      2.08858     13.81366         0.002186     -0.002660      0.019845
      6.26098      2.08931     11.68159         0.000750     -0.001546      0.009556
      0.00072      0.00109     11.68160        -0.001805     -0.001611      0.010990
      6.26183      4.17456      9.58728        -0.004044      0.008741      0.073018
      0.00000      6.26183      9.58728        -0.005468     -0.000352      0.077655
      6.26183      6.26183      7.50000         0.000716      0.000859     -0.593174
      0.00000      4.17456      7.50000         0.001458     -0.000056     -0.592044
      6.25608      4.17158     13.82347        -0.005472      0.008899      0.038102
      0.00495      6.26245     13.80558        -0.002881     -0.000289      0.022679
      6.26069      6.26113     11.68860         0.000568      0.000273      0.009602
      8.34659      4.17429     11.68257         0.001781     -0.000848      0.010934
    total drift:                               -0.001160     -0.000002      0.012464

  FREE ENERGIE OF THE ION-ELECTRON SYSTEM (eV)
  free  energy   TOTEN  =      -465.52580676 eV

  energy  without entropy=     -465.52580676  energy(sigma->0) =     -465.52580676