 vasp.6.4.2 20Jul23 (build Feb 22 2024 13:53:45) complex
 executed on              LinuxNV date 2024.08.27  18:59:17
 OpenACC runtime initialized ...    4 GPUs detected

 INCAR:
   SYSTEM = Oxide-Surface
   ISMEAR = 0
   SIGMA = 0.05
   EDIFF = 1E-5
   ALGO = Normal
   IBRION = -1
   NSW = 0
   ISYM = 0
   DIPOL = 0.5 0.5 0.5
   IDIPOL = 3
   LDIPOL = .TRUE.
   ISTART = 0
   LHFCALC = .FALSE.
   GGA = PE
   HFRCUT = -1
   ENCUT = 1000
   PREC = Normal
   PRECFOCK = Normal
   LASPH = .TRUE.
   LREAL = Auto
   ISPIN = 1
   NELM = 200
   NELMIN = 8
   NCORE = 1
   KPAR = 1
   LWAVE = .FALSE.
   LCHARG = .FALSE.

 POTCAR:    PAW_PBE Mg_sv 12Apr2007
 POTCAR:    PAW_PBE O_h 06Feb2004
 POTCAR:    PAW_PBE Mg_sv 12Apr2007
   VRHFIN =Mg: p6s2

   TITEL  = PAW_PBE Mg_sv 12Apr2007
   POMASS =   24.305; ZVAL   =   10.000    mass and valenz
   ENMAX  =  495.223; ENMIN  =  371.417 eV

   TITEL  = PAW_PBE O_h 06Feb2004
   POMASS =   16.000; ZVAL   =    6.000    mass and valenz
   ENMAX  =  700.000; ENMIN  =  500.000 eV

 Optimization of the real space projectors (new method)

 maximal supplied QI-value         = 22.11
 optimisation between [QCUT,QGAM] = [ 16.14, 32.28] = [ 72.95,291.79] Ry
 Optimized for a Real-space Cutoff    0.98 Angstroem

   l    n(q)    QCUT    max X(q) W(low)/X(q) W(high)/X(q)  e(spline)
   0      9    16.140     8.730    0.14E-04    0.12E-04    0.27E-07
   0      9    16.140     8.910    0.19E-04    0.17E-04    0.41E-07
   1      9    16.140     2.513    0.16E-04    0.28E-04    0.54E-07
   1      9    16.140     3.341    0.27E-04    0.13E-03    0.17E-06
   2      9    16.140     3.683    0.18E-03    0.21E-03    0.81E-07
 Optimization of the real space projectors (new method)

 maximal supplied QI-value         = 34.20
 optimisation between [QCUT,QGAM] = [ 16.08, 32.15] = [ 72.37,289.48] Ry
 Optimized for a Real-space Cutoff    0.71 Angstroem

   l    n(q)    QCUT    max X(q) W(low)/X(q) W(high)/X(q)  e(spline)
   0      7    16.076   280.207    0.42E-03    0.69E-03    0.60E-07
   0      7    16.076   228.978    0.42E-03    0.69E-03    0.61E-07
   1      6    16.076    86.127    0.11E-03    0.66E-03    0.10E-06
   1      6    16.076    65.368    0.11E-03    0.65E-03    0.10E-06
  PAW_PBE Mg_sv 12Apr2007               :
  PAW_PBE O_h 06Feb2004                 :

 POSCAR: Mg  O
  positions in direct lattice
 exchange correlation table for  LEXCH =        8
   RHO(1)=    0.500       N(1)  =     2000
   RHO(2)=  100.500       N(2)  =     4000

 ion  position               nearest neighbor table
   1  0.000  0.750  0.252-
   2  0.250  0.000  0.252-
   3  0.000  0.000  0.376-
   4  0.250  0.750  0.376-
   5  1.000  0.750  0.499-
   6  0.252  0.001  0.502-
   7  0.000  0.003  0.624-
   8  0.237  0.750  0.623-  37 2.00
   9  0.000  0.250  0.252-
  10  0.250  0.500  0.252-
  11  0.000  0.500  0.376-
  12  0.250  0.250  0.376-
  13  0.000  0.250  0.500-
  14  0.252  0.500  0.502-
  15  0.000  0.498  0.624-
  16  0.248  0.250  0.625-
  17  0.500  0.750  0.252-
  18  0.750  0.000  0.252-
  19  0.500  0.000  0.376-
  20  0.750  0.750  0.376-
  21  0.500  0.750  0.498-
  22  0.748  0.001  0.502-
  23  0.500  0.011  0.636-  61 2.02
  24  0.763  0.750  0.623-  37 2.00
  25  0.500  0.250  0.252-
  26  0.750  0.500  0.252-
  27  0.500  0.500  0.376-
  28  0.750  0.250  0.376-
  29  0.500  0.250  0.502-
  30  0.748  0.500  0.502-
  31  0.500  0.489  0.636-  61 2.02
  32  0.752  0.250  0.625-
  33  0.000  0.750  0.376-
  34  0.250  0.000  0.376-
  35  0.000  0.000  0.252-
  36  0.250  0.750  0.252-
  37  0.000  0.750  0.626-   8 2.00  24 2.00
  38  0.248  0.999  0.626-
  39  0.000  1.000  0.500-
  40  0.252  0.750  0.501-
  41  0.000  0.250  0.376-
  42  0.250  0.500  0.376-
  43  0.000  0.500  0.252-
  44  0.250  0.250  0.252-
  45  0.000  0.250  0.626-
  46  0.248  0.502  0.626-
  47  0.000  0.501  0.500-
  48  0.251  0.250  0.501-
  49  0.500  0.750  0.376-
  50  0.750  0.000  0.376-
  51  0.500  0.000  0.252-
  52  0.750  0.750  0.252-
  53  0.500  0.750  0.633-
  54  0.752  0.999  0.626-
  55  0.500  0.998  0.502-
  56  0.748  0.750  0.501-
  57  0.500  0.250  0.376-
  58  0.750  0.500  0.376-
  59  0.500  0.500  0.252-
  60  0.750  0.250  0.252-
  61  0.500  0.250  0.628-  23 2.02  31 2.02
  62  0.752  0.502  0.626-
  63  0.500  0.503  0.502-
  64  0.749  0.250  0.501-

IMPORTANT INFORMATION: All symmetrisations will be switched off!
NOSYMM: (Re-)initialisation of all symmetry stuff for point group C_1.

                                     Primitive cell

  volume of cell :    1211.2538

  direct lattice vectors                    reciprocal lattice vectors
     8.440984654  0.000000000  0.000000000     0.118469591  0.000000000  0.000000000
     0.000000000  8.440984654  0.000000000     0.000000000  0.118469591  0.000000000
     0.000000000  0.000000000 17.000000000     0.000000000  0.000000000  0.058823529

  length of vectors
     8.440984654  8.440984654 17.000000000     0.118469591  0.118469591  0.058823529

  position of ions in fractional coordinates (direct lattice)
     0.000000012  0.750271483  0.251856836
     0.250000012  0.000271483  0.251856836
     0.000000012  0.000271483  0.375988963
     0.250000012  0.750271483  0.375988963
     0.999999988  0.750271429  0.499368462
     0.252039891  0.001028111  0.501782346
     0.000000034  0.002582678  0.624444171
     0.237174200  0.750271417  0.622958809
     0.000000012  0.250271483  0.251856836
     0.250000012  0.500271483  0.251856836
     0.000000012  0.500271483  0.375988963
     0.250000012  0.250271483  0.375988963
     0.000000025  0.250271481  0.500321386
     0.252039913  0.499514860  0.501782439
     0.000000033  0.497960304  0.624444240
     0.247666331  0.250271551  0.624926941
     0.500000012  0.750271483  0.251856836
     0.750000012  0.000271483  0.251856836
     0.500000012  0.000271483  0.375988963
     0.750000012  0.750271483  0.375988963
     0.500000031  0.750271498  0.497974947
     0.747960134  0.001028090  0.501782397
     0.500000002  0.011479476  0.636458488
     0.762825859  0.750271422  0.622958927
     0.500000012  0.250271483  0.251856836
     0.750000012  0.500271483  0.251856836
     0.500000012  0.500271483  0.375988963
     0.750000012  0.250271483  0.375988963
     0.500000005  0.250271518  0.502223723
     0.747960113  0.499514886  0.501782491
     0.500000001  0.489064058  0.636458884
     0.752333702  0.250271549  0.624926893
     0.000000012  0.750271483  0.375988963
     0.250000012  0.000271483  0.375988963
     0.000000012  0.000271483  0.251856836
     0.250000012  0.750271483  0.251856836
     0.000000034  0.750271519  0.625525054
     0.248158668  0.998774097  0.625931889
     0.000000015  0.999728517  0.499971061
     0.252314560  0.750271518  0.501128046
     0.000000012  0.250271483  0.375988963
     0.250000012  0.500271483  0.375988963
     0.000000012  0.500271483  0.251856836
     0.250000012  0.250271483  0.251856836
     0.000000017  0.250271467  0.626441503
     0.248158646  0.501768877  0.625931815
     0.000000014  0.500814411  0.499971054
     0.250533599  0.250271460  0.500674415
     0.500000012  0.750271483  0.375988963
     0.750000012  0.000271483  0.375988963
     0.500000012  0.000271483  0.251856836
     0.750000012  0.750271483  0.251856836
     0.499999972  0.750272301  0.632609027
     0.751841373  0.998774078  0.625931895
     0.500000008  0.997971315  0.502167211
     0.747685467  0.750271518  0.501128092
     0.500000012  0.250271483  0.375988963
     0.750000012  0.500271483  0.375988963
     0.500000012  0.500271483  0.251856836
     0.750000012  0.250271483  0.251856836
     0.500000019  0.250271401  0.628355073
     0.751841390  0.501768901  0.625931830
     0.500000009  0.502571702  0.502167205
     0.749466433  0.250271458  0.500674433

  ion indices of the primitive-cell ions
   primitive index   ion index
                 1           1
                 2           2
                 3           3
                 4           4
                 5           5
                 6           6
                 7           7
                 8           8
                 9           9
                10          10
                11          11
                12          12
                13          13
                14          14
                15          15
                16          16
                17          17
                18          18
                19          19
                20          20
                21          21
                22          22
                23          23
                24          24
                25          25
                26          26
                27          27
                28          28
                29          29
                30          30
                31          31
                32          32
                33          33
                34          34
                35          35
                36          36
                37          37
                38          38
                39          39
                40          40
                41          41
                42          42
                43          43
                44          44
                45          45
                46          46
                47          47
                48          48
                49          49
                50          50
                51          51
                52          52
                53          53
                54          54
                55          55
                56          56
                57          57
                58          58
                59          59
                60          60
                61          61
                62          62
                63          63
                64          64

 KPOINTS: pymatgen v2020.8.13 with grid density =

Automatic generation of k-mesh.
 Grid dimensions read from file:
 generate k-points for:    2    2    1

 Generating k-lattice:

  Cartesian coordinates                     Fractional coordinates (reciprocal lattice)
     0.059234796  0.000000000  0.000000000     0.500000000  0.000000000  0.000000000
     0.000000000  0.059234796  0.000000000     0.000000000  0.500000000  0.000000000
     0.000000000  0.000000000  0.058823529     0.000000000  0.000000000  1.000000000

  Length of vectors
     0.059234796  0.059234796  0.058823529

  Shift w.r.t. Gamma in fractional coordinates (k-lattice)
     0.000000000  0.000000000  0.000000000

 Subroutine IBZKPT returns following result:

 Found      4 irreducible k-points:

 Following reciprocal coordinates:
            Coordinates               Weight
  0.000000  0.000000  0.000000      1.000000
  0.500000  0.000000  0.000000      1.000000
  0.000000  0.500000  0.000000      1.000000
  0.500000  0.500000  0.000000      1.000000

 Following cartesian coordinates:
            Coordinates               Weight
  0.000000  0.000000  0.000000      1.000000
  0.059235  0.000000  0.000000      1.000000
  0.000000  0.059235  0.000000      1.000000
  0.059235  0.059235  0.000000      1.000000

 SYSTEM =  Oxide-Surface
[...]
   6.33073860  4.22278391  6.39181237
   4.22049243  4.22278391  4.28156621
   6.33073860  2.11253775  4.28156621
   4.22049249  2.11253705 10.68203623
   6.34628164  4.23542359 10.64084111
   4.22049240  4.24220002  8.53684248
   6.32623466  2.11253754  8.51146535

--------------------------------------- Iteration      FINAL  ---------------------------------------

--------------------OUTCAR has been truncated-------------------------

[...]

--------------------OUTCAR has been truncated-------------------------

  FORCE on cell =-STRESS in cart. coord.  units (eV):
  Direction    XX          YY          ZZ          XY          YZ          ZX
  Alpha Z  1191.54525  1191.54525  1191.54525
  Ewald  111577.52009111600.82496************    -0.00000     0.00054    -0.00004
  Hartree128203.59018128221.08895************    -0.00000     0.00016    -0.00012
  E(xc)   -3223.40331 -3223.38427 -3229.65767     0.00000     0.00001    -0.00000
  Local  ************************249560.55755     0.00001    -0.00050     0.00018
  n-local -5620.86357 -5620.73724 -5620.36810    -0.00001     0.00108     0.00000
  augment   724.16813   724.17942   714.46130    -0.00001     0.00131     0.00001
  Kinetic 12493.71315 12492.95253 12506.64201    -0.00001    -0.00143     0.00001
  Fock        0.00000     0.00000     0.00000     0.00000     0.00000     0.00000
  Total     -15.75450   -16.16802     6.79952    -0.00002     0.00116     0.00005
  in kB     -20.83915   -21.38614     8.99402    -0.00003     0.00154     0.00006

 VOLUME and BASIS-vectors are now :
  energy-cutoff  :     1000.00
  volume of cell :     1211.25
      direct lattice vectors                 reciprocal lattice vectors
     8.440984654  0.000000000  0.000000000     0.118469591  0.000000000  0.000000000
     0.000000000  8.440984654  0.000000000     0.000000000  0.118469591  0.000000000
     0.000000000  0.000000000 17.000000000     0.000000000  0.000000000  0.058823529

  length of vectors
     8.440984654  8.440984654 17.000000000     0.118469591  0.118469591  0.058823529

 FORCES acting on ions
    electron-ion (+dipol)            ewald-force                    non-local-force                 convergence-correction
   -.559E-04 0.840E-04 0.245E+04   -.210E-04 -.315E-04 -.244E+04   -.399E-04 -.321E-02 -.907E+01   0.129E-03 0.279E-03 -.765E-02
   -.899E+00 -.365E+00 0.245E+04   0.914E+00 0.385E+00 -.244E+04   -.120E-01 -.169E-01 -.920E+01   0.163E-03 -.167E-03 -.760E-02
   0.161E-03 -.984E+00 0.811E+03   -.102E-03 0.102E+01 -.812E+03   -.853E-05 -.267E-01 0.479E+00   -.630E-04 -.839E-03 0.284E-01
   -.178E+01 0.139E-03 0.806E+03   0.177E+01 -.193E-03 -.807E+03   0.341E-02 -.108E-02 0.733E+00   0.389E-03 -.312E-03 0.306E-01
   0.158E-03 0.215E-03 -.786E+03   -.623E-04 -.108E-04 0.785E+03   0.686E-04 -.149E-02 0.700E+00   -.153E-03 -.634E-05 0.107E-01
   -.158E+02 0.513E+01 -.823E+03   0.172E+02 -.556E+01 0.824E+03   -.121E+01 0.255E+00 -.890E+00   0.569E-03 -.369E-03 0.224E-01
   -.760E-04 0.177E+01 -.243E+04   0.628E-05 -.964E+00 0.242E+04   -.475E-04 -.851E+00 0.835E+01   0.984E-04 0.701E-03 0.285E-01
   -.737E+02 -.651E-04 -.241E+04   0.743E+02 0.656E-04 0.240E+04   0.922E+00 -.515E-03 0.802E+01   -.116E-02 -.243E-03 0.260E-01
   -.711E-04 -.271E-04 0.245E+04   -.218E-04 0.324E-04 -.244E+04   -.765E-04 -.332E-02 -.909E+01   0.170E-03 0.427E-03 -.741E-02
   -.899E+00 0.366E+00 0.245E+04   0.914E+00 -.385E+00 -.244E+04   -.120E-01 0.133E-01 -.920E+01   0.101E-03 0.134E-03 -.713E-02
   -.111E-04 0.985E+00 0.811E+03   -.104E-03 -.102E+01 -.812E+03   -.113E-03 0.221E-01 0.479E+00   0.241E-03 0.515E-03 0.282E-01
   -.540E+01 -.737E-03 0.807E+03   0.561E+01 0.196E-03 -.808E+03   -.166E+00 -.135E-02 0.892E+00   0.564E-03 0.450E-03 0.295E-01
   0.787E-04 0.199E-03 -.802E+03   -.621E-04 0.901E-04 0.801E+03   0.108E-03 -.257E-02 0.403E+00   -.138E-03 -.436E-04 0.126E-01
   -.158E+02 -.513E+01 -.823E+03   0.172E+02 0.556E+01 0.824E+03   -.122E+01 -.258E+00 -.888E+00   0.937E-03 0.241E-03 0.222E-01
   -.401E-04 -.177E+01 -.243E+04   -.375E-05 0.964E+00 0.242E+04   -.307E-04 0.850E+00 0.835E+01   0.684E-04 -.429E-03 0.286E-01
   -.546E+01 -.459E-03 -.242E+04   0.360E+01 0.196E-04 0.241E+04   0.169E+01 0.977E-03 0.878E+01   -.712E-03 0.204E-03 0.293E-01
   0.622E-04 0.231E-03 0.245E+04   0.213E-04 -.388E-04 -.244E+04   0.594E-04 -.297E-02 -.908E+01   -.152E-03 -.105E-03 -.618E-02
   0.899E+00 -.365E+00 0.245E+04   -.914E+00 0.385E+00 -.244E+04   0.120E-01 -.170E-01 -.920E+01   -.135E-03 -.104E-03 -.774E-02
   -.139E-03 -.459E+01 0.799E+03   0.105E-03 0.485E+01 -.799E+03   -.554E-04 -.193E+00 0.663E+00   0.950E-04 -.500E-03 0.291E-01
   0.178E+01 -.543E-04 0.806E+03   -.177E+01 -.195E-03 -.807E+03   -.343E-02 -.123E-02 0.733E+00   -.274E-03 0.424E-04 0.307E-01
   0.465E-04 0.787E-03 -.848E+03   0.815E-04 -.632E-03 0.849E+03   0.164E-03 -.216E-02 0.179E+00   -.307E-03 0.572E-04 0.182E-01
   0.158E+02 0.513E+01 -.823E+03   -.172E+02 -.556E+01 0.824E+03   0.121E+01 0.255E+00 -.890E+00   -.825E-04 -.311E-03 0.225E-01
   -.913E-04 0.654E+02 -.248E+04   0.357E-04 -.674E+02 0.247E+04   -.104E-03 0.332E+00 0.951E+01   0.164E-03 0.219E-02 0.275E-01
   0.737E+02 -.112E-03 -.241E+04   -.743E+02 0.584E-04 0.240E+04   -.922E+00 -.532E-03 0.802E+01   0.133E-02 -.169E-03 0.258E-01
   0.129E-04 0.812E-04 0.244E+04   0.219E-04 0.386E-04 -.244E+04   -.375E-04 -.309E-02 -.921E+01   -.425E-04 0.118E-03 -.732E-02
   0.899E+00 0.366E+00 0.245E+04   -.914E+00 -.385E+00 -.244E+04   0.121E-01 0.133E-01 -.920E+01   -.292E-03 0.202E-04 -.762E-02
   0.867E-04 0.459E+01 0.799E+03   0.109E-03 -.485E+01 -.799E+03   0.219E-03 0.188E+00 0.663E+00   -.397E-03 -.192E-03 0.288E-01
   0.540E+01 -.529E-03 0.807E+03   -.561E+01 0.201E-03 -.808E+03   0.166E+00 -.107E-02 0.892E+00   -.588E-03 -.562E-04 0.298E-01
   -.282E-04 -.749E-03 -.829E+03   0.681E-04 0.714E-03 0.828E+03   -.725E-04 -.136E-02 0.766E+00   0.521E-04 0.391E-03 0.112E-01
   0.158E+02 -.513E+01 -.823E+03   -.172E+02 0.556E+01 0.824E+03   0.122E+01 -.258E+00 -.888E+00   -.365E-03 0.786E-05 0.221E-01
   0.328E-04 -.654E+02 -.248E+04   0.338E-04 0.674E+02 0.247E+04   0.821E-07 -.329E+00 0.951E+01   -.678E-04 -.244E-02 0.271E-01
   0.546E+01 -.399E-03 -.242E+04   -.360E+01 0.396E-04 0.241E+04   -.169E+01 0.112E-02 0.878E+01   0.370E-03 -.255E-04 0.290E-01
   -.691E-04 -.125E-03 0.489E+03   -.432E-04 -.482E-04 -.490E+03   -.606E-04 0.166E-02 0.226E+00   0.162E-03 0.146E-03 0.381E-01
   -.227E+01 -.399E+00 0.481E+03   0.223E+01 0.384E+00 -.481E+03   0.481E-01 0.194E-01 -.263E+00   0.517E-03 -.715E-03 0.365E-01
   0.116E-05 -.128E+00 0.148E+04   -.132E-04 0.139E+00 -.149E+04   -.140E-05 -.140E-01 0.265E+01   0.120E-04 0.873E-04 0.601E-02
   -.395E+00 0.204E-03 0.148E+04   0.401E+00 -.224E-04 -.149E+04   -.865E-02 0.197E-02 0.267E+01   0.304E-03 -.124E-03 0.715E-02
   -.159E-04 -.204E-04 -.148E+04   0.502E-04 0.914E-04 0.148E+04   -.471E-04 -.352E-02 -.375E+01   0.135E-04 -.180E-04 0.362E-01
   -.179E+02 0.844E+01 -.147E+04   0.190E+02 -.100E+02 0.147E+04   -.123E+01 0.207E+01 -.249E+01   -.895E-03 -.183E-03 0.332E-01
   0.414E-03 -.885E+00 -.476E+03   -.449E-04 0.707E+00 0.476E+03   0.890E-04 0.253E+00 0.725E+00   -.427E-03 -.551E-03 0.293E-01
   -.133E+02 0.502E-03 -.489E+03   0.143E+02 -.151E-03 0.489E+03   -.141E+01 0.169E-02 -.761E-01   0.453E-03 -.303E-03 0.276E-01
   0.119E-03 -.169E-03 0.487E+03   -.559E-04 0.687E-04 -.487E+03   0.481E-04 0.165E-02 0.172E+00   -.103E-03 0.857E-04 0.365E-01
   -.227E+01 0.399E+00 0.481E+03   0.223E+01 -.384E+00 -.481E+03   0.481E-01 -.157E-01 -.264E+00   0.743E-03 0.678E-03 0.364E-01
   -.357E-03 0.127E+00 0.148E+04   -.134E-04 -.139E+00 -.149E+04   -.885E-04 0.162E-01 0.265E+01   0.428E-03 -.418E-03 0.604E-02
   -.648E+00 -.320E-04 0.148E+04   0.678E+00 0.225E-04 -.148E+04   -.375E-01 0.182E-02 0.262E+01   -.265E-03 0.182E-03 0.629E-02
   0.247E-03 -.621E-04 -.148E+04   -.237E-04 -.438E-04 0.148E+04   -.154E-04 -.195E-02 -.365E+01   -.208E-03 -.157E-03 0.354E-01
   -.179E+02 -.844E+01 -.147E+04   0.190E+02 0.100E+02 0.147E+04   -.123E+01 -.207E+01 -.249E+01   -.553E-04 0.161E-03 0.331E-01
   0.352E-04 0.885E+00 -.476E+03   -.474E-04 -.707E+00 0.476E+03   -.762E-05 -.252E+00 0.725E+00   0.168E-04 0.680E-03 0.289E-01
   -.583E+01 -.289E-03 -.481E+03   0.578E+01 0.162E-03 0.480E+03   0.298E-01 0.101E-02 0.104E+01   0.123E-03 0.357E-03 0.286E-01
   0.189E-03 -.192E-04 0.489E+03   0.475E-04 -.106E-03 -.489E+03   0.988E-04 0.168E-02 0.141E+00   -.313E-03 0.899E-04 0.366E-01
   0.227E+01 -.400E+00 0.481E+03   -.223E+01 0.384E+00 -.481E+03   -.481E-01 0.193E-01 -.264E+00   -.362E-03 -.206E-03 0.369E-01
   0.694E-04 -.381E+00 0.148E+04   0.133E-04 0.415E+00 -.148E+04   0.819E-05 -.429E-01 0.262E+01   -.874E-04 -.264E-03 0.732E-02
   0.395E+00 0.136E-03 0.148E+04   -.401E+00 -.226E-04 -.149E+04   0.865E-02 0.187E-02 0.267E+01   -.300E-03 0.174E-04 0.688E-02
   -.595E-04 0.158E-02 -.147E+04   0.740E-04 -.132E-02 0.148E+04   0.489E-04 -.170E-02 -.193E+01   -.530E-04 -.228E-03 0.219E-01
   0.179E+02 0.844E+01 -.147E+04   -.190E+02 -.100E+02 0.147E+04   0.123E+01 0.207E+01 -.249E+01   0.653E-03 0.276E-03 0.329E-01
   -.119E-03 0.485E+01 -.527E+03   0.465E-04 -.592E+01 0.529E+03   -.457E-04 0.151E+01 -.218E+01   0.111E-03 -.110E-02 0.279E-01
   0.133E+02 0.235E-04 -.489E+03   -.143E+02 -.151E-03 0.489E+03   0.141E+01 0.155E-02 -.762E-01   -.189E-03 0.273E-03 0.278E-01
   -.378E-03 -.322E-03 0.477E+03   0.556E-04 0.954E-04 -.477E+03   -.488E-04 0.161E-02 -.210E+00   0.356E-03 0.237E-03 0.374E-01
   0.227E+01 0.400E+00 0.481E+03   -.223E+01 -.384E+00 -.481E+03   -.481E-01 -.156E-01 -.264E+00   -.605E-03 0.125E-03 0.367E-01
   0.193E-03 0.381E+00 0.148E+04   0.135E-04 -.415E+00 -.148E+04   0.620E-04 0.450E-01 0.262E+01   -.248E-03 0.142E-03 0.730E-02
   0.648E+00 0.117E-03 0.148E+04   -.678E+00 0.228E-04 -.148E+04   0.376E-01 0.190E-02 0.262E+01   0.259E-03 -.317E-04 0.616E-02
   -.219E-03 -.172E-02 -.146E+04   0.226E-04 0.148E-02 0.146E+04   -.448E-04 -.411E-02 -.929E+00   0.229E-03 0.359E-03 0.358E-01
   0.179E+02 -.844E+01 -.147E+04   -.190E+02 0.100E+02 0.147E+04   0.123E+01 -.207E+01 -.249E+01   0.280E-03 -.289E-03 0.332E-01
   0.204E-03 -.485E+01 -.527E+03   0.524E-04 0.592E+01 0.529E+03   0.775E-04 -.151E+01 -.218E+01   -.308E-03 0.683E-03 0.282E-01
   0.583E+01 0.125E-03 -.481E+03   -.578E+01 0.179E-03 0.480E+03   -.298E-01 0.109E-02 0.104E+01   0.533E-04 -.125E-03 0.285E-01
   -.430E-03 0.141E-02 -.679E+00   0.433E-12 -.124E-12 0.142E-11   -.392E-03 -.285E-01 -.678E+00   0.802E-03 -.675E-03 0.138E+01

 POSITION                                       TOTAL-FORCE (eV/Angst)
      0.00000      6.33303      4.28157         0.000012     -0.002447      0.292447
      2.11025      0.00229      4.28157         0.003193      0.003004      0.310148
      0.00000      0.00229      6.39181        -0.000012      0.007470      0.025080
      2.11025      6.33303      6.39181        -0.008644     -0.001016      0.056814
      8.44098      6.33303      8.48926         0.000012     -0.000858     -0.079285
      2.12746      0.00868      8.53030         0.130289     -0.167963     -0.065117
      0.00000      0.02180     10.61555        -0.000018     -0.046679     -0.187395
      2.00198      6.33303     10.59030         1.512913     -0.000325      0.112669
      0.00000      2.11254      4.28157         0.000001     -0.002453      0.295762
      2.11025      4.22278      4.28157         0.003195     -0.005356      0.310151
      0.00000      4.22278      6.39181         0.000014     -0.010830      0.025038
      2.11025      2.11254      6.39181         0.049191     -0.001005      0.012057
      0.00000      2.11254      8.50546        -0.000014     -0.001892     -0.090251
      2.12747      4.21640      8.53030         0.128958      0.166056     -0.063749
      0.00000      4.20328     10.61555        -0.000006      0.046461     -0.189290
      2.09055      2.11254     10.62376        -0.168649      0.001176     -0.300329
      4.22049      6.33303      4.28157        -0.000009     -0.002445      0.292091
      6.33074      0.00229      4.28157        -0.003206      0.002985      0.310147
      4.22049      0.00229      6.39181         0.000006      0.064990      0.125208
      6.33074      6.33303      6.39181         0.008644     -0.001007      0.056811
      4.22049      6.33303      8.46557        -0.000015     -0.001509      1.195509
      6.31352      0.00868      8.53030        -0.130269     -0.167938     -0.065113
      4.22049      0.09690     10.81979         0.000005     -1.614936     -1.120182
      6.43900      6.33303     10.59030        -1.512917     -0.000322      0.112678
      4.22049      2.11254      4.28157        -0.000045     -0.002423      0.316487
      6.33074      4.22278      4.28157        -0.003199     -0.005372      0.310131
      4.22049      4.22278      6.39181         0.000017     -0.068400      0.125180
      6.33074      2.11254      6.39181        -0.049184     -0.001021      0.012074
      4.22049      2.11254      8.53780         0.000020     -0.000574     -0.248002
      6.31352      4.21640      8.53030        -0.128974      0.166039     -0.063723
      4.22049      4.12818     10.81980        -0.000001      1.618742     -1.121576
      6.35044      2.11254     10.62376         0.168665      0.001169     -0.300352
      0.00000      6.33303      6.39181        -0.000011      0.002066      0.024093
      2.11025      0.00229      6.39181         0.006197      0.004270      0.066953
      0.00000      0.00229      4.28157        -0.000001     -0.002154     -0.547280
      2.11025      6.33303      4.28157        -0.001900      0.002457     -0.544639
      0.00000      6.33303     10.63393         0.000001     -0.003036      0.267713
      2.09470      8.43064     10.64084        -0.075152      0.480706      0.541656
      0.00000      8.43869      8.49951         0.000031      0.074862      0.163844
      2.12978      6.33303      8.51918        -0.397895      0.002166     -0.204700
      0.00000      2.11254      6.39181         0.000008      0.002069      0.075821
      2.11025      4.22278      6.39181         0.006174      0.000333      0.066961
      0.00000      4.22278      4.28157        -0.000031      0.004768     -0.547286
      2.11025      2.11254      4.28157        -0.008572      0.002424     -0.554968
      0.00000      2.11254     10.64951         0.000000     -0.001777      0.270485
      2.09470      4.23542     10.64084        -0.073012     -0.481745      0.541591
      0.00000      4.22737      8.49951        -0.000003     -0.073810      0.164002
      2.11475      2.11254      8.51147        -0.017778      0.001675      0.183786
      4.22049      6.33303      6.39181         0.000023      0.002077     -0.104721
      6.33074      0.00229      6.39181        -0.006194      0.004239      0.066926
      4.22049      0.00229      4.28157         0.000004     -0.008804     -0.553710
      6.33074      6.33303      4.28157         0.001897      0.002437     -0.544636
      4.22049      6.33304     10.75435         0.000011     -0.001230      0.180025
      6.34628      8.43064     10.64084         0.075173      0.480675      0.541640
      4.22049      8.42386      8.53684        -0.000007      0.439349     -0.096796
      6.31120      6.33303      8.51918         0.397878      0.002128     -0.204709
      4.22049      2.11254      6.39181        -0.000015      0.002057      0.107196
      6.33074      4.22278      6.39181        -0.006183      0.000365      0.066939
      4.22049      4.22278      4.28157         0.000021      0.011401     -0.553720
      6.33074      2.11254      4.28157         0.008575      0.002440     -0.554958
      4.22049      2.11254     10.68204        -0.000013     -0.003560      0.652871
      6.34628      4.23542     10.64084         0.073004     -0.481711      0.541567
      4.22049      4.24220      8.53684         0.000026     -0.440164     -0.097847
      6.32623      2.11254      8.51147         0.017770      0.001706      0.183781
    total drift:                               -0.000020     -0.027726      0.020037

  FREE ENERGIE OF THE ION-ELECTRON SYSTEM (eV)
  free  energy   TOTEN  =      -371.99340954 eV

  energy  without entropy=     -371.99340954  energy(sigma->0) =     -371.99340954

     |            E. Caldeweyher, S. Ehlert & S. Grimme          |
     |          Mulliken Center for Theoretical Chemistry        |
     |                    University of Bonn                     |

Rational (Becke-Johnson) damping: hse06-D4-ATM
  s6         1.0000
  s8         1.1953
  s9         1.0000
  a1         0.3866
  a2         5.1913
 alp        16.0000

Dispersion energy:      -2.6801056684999E-01 Eh