 vasp.6.3.0 20Jan22 (build Apr  1 2022 16:44:48) complex
 executed on        HPECrayEX_GCC date 2023.04.10  23:03:48

 INCAR:
   SYSTEM = TiO2
   ISMEAR = 0
   SIGMA = 0.05
   EDIFF = 1E-7
   ALGO = ALL
   ISTART = 0
   IBRION = 2
   NSW = 1000
   ISYM = 0
   ISIF = 2
   EDIFFG = -0.01
   DIPOL = 0.5 0.5 0.5
   IDIPOL = 3
   LDIPOL = .TRUE.
   GGA = RE
   IVDW = 13
   VDW_S8 = 1.7468
   VDW_A1 = 0.5363
   VDW_A2 = 3.0726
   ENCUT = 600
   PREC = Accurate
   LASPH = .TRUE.
   LREAL = .FALSE.
   ISPIN = 1
   NELM = 200
   NELMIN = 8
   NCORE = 8
   KPAR = 1
   LWAVE = .FALSE.
   LCHARG = .FALSE.

 POTCAR:    PAW_PBE C 08Apr2002
 POTCAR:    PAW_PBE H 15Jun2001
 POTCAR:    PAW_PBE Ti_pv 07Sep2000
 POTCAR:    PAW_PBE O 08Apr2002
 POTCAR:    PAW_PBE C 08Apr2002
   VRHFIN =C: s2p2

   TITEL  = PAW_PBE C 08Apr2002
   POMASS =   12.011; ZVAL   =    4.000    mass and valenz
   ENMAX  =  400.000; ENMIN  =  300.000 eV

   TITEL  = PAW_PBE H 15Jun2001
   POMASS =    1.000; ZVAL   =    1.000    mass and valenz
   ENMAX  =  250.000; ENMIN  =  200.000 eV

   TITEL  = PAW_PBE Ti_pv 07Sep2000
   POMASS =   47.880; ZVAL   =   10.000    mass and valenz
   ENMAX  =  222.335; ENMIN  =  166.751 eV

   TITEL  = PAW_PBE O 08Apr2002
   POMASS =   16.000; ZVAL   =    6.000    mass and valenz
   ENMAX  =  400.000; ENMIN  =  300.000 eV

  PAW_PBE C 08Apr2002                   :
  PAW_PBE H 15Jun2001                   :
  PAW_PBE Ti_pv 07Sep2000               :
  PAW_PBE O 08Apr2002                   :

 POSCAR:  C  H Ti  O
  positions in direct lattice
|           W    W    AA    RRRRR   N    N  II  N    N   GGGG   !!!           |
|           W    W   A  A   R    R  NN   N  II  NN   N  G    G  !!!           |
|           W    W  A    A  R    R  N N  N  II  N N  N  G       !!!           |
|           W WW W  AAAAAA  RRRRR   N  N N  II  N  N N  G  GGG   !            |
|           WW  WW  A    A  R   R   N   NN  II  N   NN  G    G                |
|           W    W  A    A  R    R  N    N  II  N    N   GGGG   !!!           |
|     Specifying the vdW parameters                                           |
|     VDW_S8 = 1.747                                                          |
|     VDW_A1 = 0.536                                                          |
|     VDW_A2 = 3.073                                                          |
|     in the INCAR file will overwrite the defaults for revpbe. Please        |
|     make sure that is what you intended.                                    |

 ion  position               nearest neighbor table
   1  0.500  0.500  0.812-   3 1.10   2 1.10   5 1.10   4 1.10
   2  0.496  0.576  0.833-   1 1.10
   3  0.504  0.424  0.833-   1 1.10
   4  0.571  0.504  0.793-   1 1.10
   5  0.430  0.496  0.793-   1 1.10
   6  0.750  0.625  0.287-  87 1.95 147 1.95 146 1.95  86 1.95  89 1.98 168 1.98  16 2.96  36 2.96

   7  0.000  0.750  0.287-  88 1.95  89 1.95 108 1.95 109 1.95  90 1.98  37 2.96  17 2.96
   8  0.000  0.625  0.394-  90 1.95 150 1.95  91 1.95 151 1.95  92 1.98  93 1.98  18 2.96  38 2.96

[...]

  85  0.500  0.500  0.708- 239 1.81 184 1.95 244 1.95 185 1.95 245 1.95  75 2.96  55 2.96
  86  0.750  0.750  0.245-   6 1.95  16 1.95
  87  0.750  0.750  0.329-   6 1.95  16 1.95   9 1.98
  88  0.098  0.625  0.287-   7 1.95  37 1.95  46 1.98
  89  0.902  0.625  0.287-   7 1.95  37 1.95   6 1.98
  90  0.000  0.750  0.352-   8 1.95  18 1.95   7 1.98
  91  0.000  0.750  0.435-   8 1.95  18 1.95  11 1.98
  92  0.848  0.625  0.394-   9 1.95  39 1.95   8 1.98
  93  0.152  0.625  0.394-  49 1.95  79 1.95   8 1.98
  94  0.750  0.750  0.458-  10 1.95  20 1.95   9 1.98
  95  0.750  0.750  0.542-  10 1.95  20 1.95  13 2.11
  96  0.098  0.625  0.500-  11 1.95  41 1.95  50 1.98
  97  0.902  0.625  0.500-  11 1.95  41 1.95  10 1.98
  98  1.000  0.750  0.565-  12 1.89  22 1.89  11 2.00
  99  0.000  0.750  0.649-  15 1.81  22 2.02  12 2.02
 100  0.850  0.625  0.607-  12 1.95  43 1.97  13 1.97
 101  0.150  0.625  0.607-  12 1.95  53 1.97  83 1.97
 102  0.750  0.750  0.672-  13 1.86  24 2.10  14 2.10
 103  0.750  0.750  0.756-  14 1.83  24 1.83
 104  0.094  0.625  0.719-  15 1.95  45 1.95  54 2.03
 105  0.906  0.625  0.719-  15 1.95  45 1.95  14 2.03
 106  0.750  0.000  0.245-  16 1.95  26 1.95
 107  0.750  0.000  0.329-  16 1.95  26 1.95  19 1.98
 108  0.098  0.875  0.287-   7 1.95  17 1.95  56 1.98
 109  0.902  0.875  0.287-   7 1.95  17 1.95  16 1.98
 110  0.000  0.000  0.352-  18 1.95  28 1.95  17 1.98
 111  0.000  0.000  0.435-  18 1.95  28 1.95  21 1.98
 112  0.848  0.875  0.394-   9 1.95  19 1.95  18 1.98
 113  0.152  0.875  0.394-  49 1.95  59 1.95  18 1.98
 114  0.750  0.000  0.458-  20 1.95  30 1.95  19 1.98
 115  0.750  0.000  0.542-  20 1.95  30 1.95  23 2.11
 116  0.098  0.875  0.500-  11 1.95  21 1.95  60 1.98
 117  0.902  0.875  0.500-  11 1.95  21 1.95  20 1.98
 118  1.000  0.000  0.565-  32 1.89  22 1.89  21 2.00
 119  0.000  1.000  0.649-  25 1.81  22 2.02  32 2.02
 120  0.850  0.875  0.607-  22 1.95  23 1.97  13 1.97
 121  0.150  0.875  0.607-  22 1.95  53 1.97  63 1.97
 122  0.750  0.000  0.672-  23 1.86  34 2.10  24 2.10
 123  0.750  1.000  0.756-  24 1.83  34 1.83
 124  0.094  0.875  0.719-  25 1.95  15 1.95  64 2.03
 125  0.906  0.875  0.719-  25 1.95  15 1.95  24 2.03
 126  0.750  0.250  0.245-  26 1.95  36 1.95
 127  0.750  0.250  0.329-  26 1.95  36 1.95  29 1.98
 128  0.098  0.125  0.287-  17 1.95  27 1.95  66 1.98
 129  0.902  0.125  0.287-  17 1.95  27 1.95  26 1.98
 130  0.000  0.250  0.352-  28 1.95  38 1.95  27 1.98
 131  0.000  0.250  0.435-  28 1.95  38 1.95  31 1.98
 132  0.848  0.125  0.394-  19 1.95  29 1.95  28 1.98
 133  0.152  0.125  0.394-  59 1.95  69 1.95  28 1.98
 134  0.750  0.250  0.458-  30 1.95  40 1.95  29 1.98
 135  0.750  0.250  0.542-  30 1.95  40 1.95  33 2.11
 136  0.098  0.125  0.500-  21 1.95  31 1.95  70 1.98
 137  0.902  0.125  0.500-  21 1.95  31 1.95  30 1.98
 138  1.000  0.250  0.565-  42 1.89  32 1.89  31 2.00
 139  1.000  0.250  0.649-  35 1.81  32 2.02  42 2.02
 140  0.850  0.125  0.607-  32 1.95  33 1.97  23 1.97
 141  0.150  0.125  0.607-  32 1.95  63 1.97  73 1.97
 142  0.750  0.250  0.672-  33 1.86  34 2.10  44 2.10
 143  0.750  0.250  0.756-  44 1.83  34 1.83
 144  0.094  0.125  0.719-  25 1.95  35 1.95  74 2.03
[...]
 231  0.500  0.500  0.435-  48 1.95  78 1.95  81 1.98
 232  0.348  0.375  0.394-  69 1.95  79 1.95  78 1.98
 233  0.652  0.375  0.394-  29 1.95  39 1.95  78 1.98
 234  0.250  0.500  0.458-  50 1.95  80 1.95  79 1.98
 235  0.250  0.500  0.542-  50 1.95  80 1.95  83 2.11
 236  0.598  0.375  0.500-  71 1.95  81 1.95  40 1.98
 237  0.402  0.375  0.500-  71 1.95  81 1.95  80 1.98
 238  0.500  0.500  0.565-  82 1.89  52 1.89  81 2.00
 239  0.500  0.500  0.649-  85 1.81  52 2.02  82 2.02
 240  0.350  0.375  0.607-  82 1.95  73 1.97  83 1.97
 241  0.650  0.375  0.607-  82 1.95  43 1.97  33 1.97
 242  0.250  0.500  0.672-  83 1.86  54 2.10  84 2.10
 243  0.250  0.500  0.756-  54 1.83  84 1.83
 244  0.594  0.375  0.719-  75 1.95  85 1.95  44 2.03
 245  0.406  0.375  0.719-  75 1.95  85 1.95  84 2.03

IMPORTANT INFORMATION: All symmetrisations will be switched off!
NOSYMM: (Re-)initialisation of all symmetry stuff for point group C_1.

                                     Primitive cell

  volume of cell :    4700.2961

  direct lattice vectors                    reciprocal lattice vectors
    13.003980404  0.000000000  0.000000000     0.076899531  0.000000000  0.000000000
     0.000000000 11.830378115  0.000000000     0.000000000  0.084528152  0.000000000
     0.000000000  0.000000000 30.552748813     0.000000000  0.000000000  0.032730279

  length of vectors
    13.003980404 11.830378115 30.552748813     0.076899531  0.084528152  0.032730279

  position of ions in fractional coordinates (direct lattice)
     0.500065889  0.499995884  0.812499318
     0.495959939  0.575714045  0.833131531
     0.504186380  0.424294279  0.833134113
     0.570550079  0.504425007  0.792779832
     0.429575349  0.495566906  0.792787647
     0.750000000  0.625000000  0.287188045
     0.000000000  0.750000000  0.287188045
     0.000000000  0.625000000  0.393594023
     0.750000000  0.750000000  0.393594023
     0.750000000  0.625000000  0.500000000
     0.000000000  0.750000000  0.500000000
     0.999999955  0.625000002  0.604130556
     0.749999964  0.750000003  0.610777676
     0.750000006  0.625000015  0.720488722
     0.000000007  0.749999999  0.708137356
     0.750000000  0.875000000  0.287188045
     0.000000000  0.000000000  0.287188045
     0.000000000  0.875000000  0.393594023
     0.750000000  0.000000000  0.393594023
     0.750000000  0.875000000  0.500000000
     0.000000000  0.000000000  0.500000000
     0.999999988  0.875000010  0.604130566
     0.750000007  0.000000005  0.610777698
     0.750000008  0.875000003  0.720488715
     0.000000013  0.000000002  0.708137369
     0.750000000  0.125000000  0.287188045
     0.000000000  0.250000000  0.287188045
     0.000000000  0.125000000  0.393594023
     0.750000000  0.250000000  0.393594023
     0.750000000  0.125000000  0.500000000
     0.000000000  0.250000000  0.500000000
     0.000000025  0.125000008  0.604130562
     0.750000035  0.250000018  0.610777675
     0.750000000  0.125000012  0.720488716
     0.999999975  0.249999992  0.708137360
     0.750000000  0.375000000  0.287188045
     0.000000000  0.500000000  0.287188045
     0.000000000  0.375000000  0.393594023
     0.750000000  0.500000000  0.393594023
     0.750000000  0.375000000  0.500000000
     0.000000000  0.500000000  0.500000000
     0.000000044  0.374999984  0.604130557
     0.749999994  0.499999982  0.610777696
     0.749999991  0.374999994  0.720488723
     0.000000003  0.499999993  0.708137373
     0.250000000  0.625000000  0.287188045
     0.500000000  0.750000000  0.287188045
     0.500000000  0.625000000  0.393594023
     0.250000000  0.750000000  0.393594023
     0.250000000  0.625000000  0.500000000
     0.500000000  0.750000000  0.500000000
     0.499999991  0.624999998  0.604130558
     0.249999964  0.749999998  0.610777689
     0.250000005  0.625000004  0.720488721
     0.500000001  0.750000008  0.708137359
     0.250000000  0.875000000  0.287188045
     0.500000000  0.000000000  0.287188045
     0.500000000  0.875000000  0.393594023
     0.250000000  0.000000000  0.393594023
     0.250000000  0.875000000  0.500000000
[...]
     0.500000000  0.500000000  0.435304973
     0.347999548  0.375000000  0.393594023
     0.652000452  0.375000000  0.393594023
     0.250000000  0.500000000  0.458289049
     0.250000000  0.500000000  0.541710951
     0.597999548  0.375000000  0.500000000
     0.402000452  0.375000000  0.500000000
     0.499999995  0.499999996  0.565347940
     0.500000004  0.499999996  0.648994558
     0.350197920  0.374999994  0.607139181
     0.649802075  0.374999993  0.607139172
     0.249999993  0.499999995  0.671650649
     0.249999997  0.500000011  0.755932774
     0.594073977  0.374999992  0.718728066
     0.405926019  0.375000002  0.718728071

  ion indices of the primitive-cell ions
   primitive index   ion index
                 1           1
                 2           2
[...]
   3.25099501  5.91518900 20.52077357
   3.25099506  5.91518919 23.09582416
   7.72532635  4.43639170 21.95911805
   5.27865399  4.43639182 21.95911821

--------------------------------------- Iteration      FINAL  ---------------------------------------

--------------------OUTCAR has been truncated-------------------------

[...]

--------------------OUTCAR has been truncated-------------------------

  FORCE on cell =-STRESS in cart. coord.  units (eV):
  Direction    XX          YY          ZZ          XY          YZ          ZX
  Alpha Z  4686.74880  4686.74880  4686.74880
  Ewald  975347.37252992940.88627************    -0.34174     0.00452    -0.05463
  Hartree************************************    -0.22260     0.00041    -0.04661
  E(xc)   -8645.61620 -8618.45796 -8659.95608    -0.00178    -0.00000    -0.00006
  Local  ************************************     0.58461    -0.00329     0.10076
  n-local -5354.34312 -5278.03619 -5400.56691    -0.00251    -0.00013     0.00041
  augment  5215.63827  5201.60545  5217.99126    -0.00225    -0.00002    -0.00000
  Kinetic 28743.94921 28271.50590 28793.58133    -0.00275    -0.00018    -0.00175
  Fock        0.00000     0.00000     0.00000     0.00000     0.00000     0.00000
  vdW      -130.98382  -130.42422  -117.83323     0.00118     0.00000     0.00006
  Total      13.87022   -29.95684   -31.94499     0.01216     0.00132    -0.00184
  in kB       4.72790   -10.21131   -10.88900     0.00414     0.00045    -0.00063

 VOLUME and BASIS-vectors are now :
  energy-cutoff  :      600.00
  volume of cell :     4700.30
      direct lattice vectors                 reciprocal lattice vectors
    13.003980404  0.000000000  0.000000000     0.076899531  0.000000000  0.000000000
     0.000000000 11.830378115  0.000000000     0.000000000  0.084528152  0.000000000
     0.000000000  0.000000000 30.552748813     0.000000000  0.000000000  0.032730279

  length of vectors
    13.003980404 11.830378115 30.552748813     0.076899531  0.084528152  0.032730279

 FORCES acting on ions:
    Electron-Ion                     Ewald-Force                    Non-Local-Force
   0.236E-01 0.125E-02 -.152E+04   -.224E-01 -.224E-02 0.152E+04   -.267E-02 -.172E-02 -.576E+00
   0.226E+01 -.434E+02 -.373E+03   -.252E+01 0.479E+02 0.376E+03   0.262E+00 -.452E+01 -.320E+01
   -.226E+01 0.434E+02 -.373E+03   0.252E+01 -.479E+02 0.376E+03   -.262E+00 0.452E+01 -.320E+01
   -.355E+02 -.243E+01 -.388E+03   0.403E+02 0.269E+01 0.386E+03   -.474E+01 -.257E+00 0.283E+01
   0.355E+02 0.244E+01 -.388E+03   -.403E+02 -.270E+01 0.386E+03   0.474E+01 0.258E+00 0.283E+01
   -.114E+00 -.366E-01 0.379E+04   0.114E+00 0.367E-01 -.380E+04   -.104E-05 -.891E-05 0.454E+00
   -.149E-03 -.495E-01 0.398E+04   0.153E-03 0.496E-01 -.397E+04   -.107E-05 -.741E-05 -.403E+01
   -.868E-03 -.565E-01 0.193E+04   0.896E-03 0.566E-01 -.193E+04   -.696E-05 0.135E-04 -.467E-01
   -.145E+00 -.652E-01 0.193E+04   0.145E+00 0.657E-01 -.193E+04   0.706E-04 -.700E-05 0.204E+00
   -.530E+00 -.266E+00 -.353E+01   0.526E+00 0.267E+00 0.438E+01   0.495E-03 -.688E-04 -.140E+00
   -.118E-01 -.423E+00 0.750E+01   0.121E-01 0.426E+00 -.860E+01   -.699E-04 -.897E-03 0.356E+00
   -.324E-01 -.131E+01 -.187E+04   0.325E-01 0.131E+01 0.187E+04   -.559E-04 -.109E-02 0.125E-01
   -.433E+01 -.338E+01 -.194E+04   0.433E+01 0.338E+01 0.194E+04   -.280E-02 -.240E-02 -.861E-01
   -.342E+02 -.140E+02 -.375E+04   0.342E+02 0.140E+02 0.375E+04   -.331E-03 0.243E-02 -.207E+00
   -.542E-01 -.477E+01 -.379E+04   0.536E-01 0.477E+01 0.379E+04   0.699E-03 -.196E-02 0.104E+01
   -.111E+00 -.366E-01 0.379E+04   0.111E+00 0.368E-01 -.380E+04   0.300E-04 -.146E-04 0.454E+00
   -.678E-04 -.745E-06 0.398E+04   0.689E-04 0.794E-06 -.397E+04   -.201E-06 -.944E-08 -.403E+01
   -.877E-03 -.569E-01 0.193E+04   0.904E-03 0.570E-01 -.193E+04   -.585E-05 0.768E-05 -.467E-01
   -.163E+00 -.103E-02 0.193E+04   0.162E+00 0.106E-02 -.193E+04   0.131E-03 0.480E-05 0.204E+00
   -.733E+00 -.304E+00 -.417E+01   0.732E+00 0.312E+00 0.503E+01   0.332E-03 -.490E-03 -.141E+00
   -.604E-03 0.203E-04 0.705E+01   0.615E-03 -.181E-04 -.814E+01   -.323E-05 -.714E-06 0.356E+00
   -.508E-01 -.124E+01 -.187E+04   0.510E-01 0.124E+01 0.187E+04   -.761E-04 -.154E-02 0.114E-01
   -.328E+01 -.164E-02 -.194E+04   0.328E+01 0.172E-02 0.194E+04   0.213E-03 -.138E-03 -.821E-01
   -.126E+02 -.996E+01 -.377E+04   0.126E+02 0.996E+01 0.377E+04   0.123E-01 -.395E-03 -.221E+00
   -.351E-02 -.317E-03 -.379E+04   0.352E-02 0.344E-03 0.379E+04   -.910E-05 -.333E-05 0.104E+01
   -.111E+00 0.365E-01 0.379E+04   0.111E+00 -.366E-01 -.380E+04   0.298E-04 0.113E-04 0.454E+00
   0.552E-05 0.495E-01 0.398E+04   -.774E-05 -.496E-01 -.397E+04   0.645E-06 0.740E-05 -.403E+01
   0.518E-03 0.569E-01 0.193E+04   -.536E-03 -.570E-01 -.193E+04   0.458E-05 -.774E-05 -.467E-01
   -.145E+00 0.653E-01 0.193E+04   0.145E+00 -.658E-01 -.193E+04   0.692E-04 0.906E-05 0.204E+00
   -.739E+00 0.289E+00 -.419E+01   0.737E+00 -.295E+00 0.505E+01   0.382E-03 0.373E-03 -.141E+00
   0.100E-01 0.423E+00 0.750E+01   -.103E-01 -.426E+00 -.860E+01   0.630E-04 0.897E-03 0.356E+00
   0.470E-01 0.124E+01 -.187E+04   -.471E-01 -.124E+01 0.187E+04   0.710E-04 0.154E-02 0.115E-01
   -.436E+01 0.338E+01 -.194E+04   0.436E+01 -.338E+01 0.194E+04   -.268E-02 0.169E-02 -.860E-01
   -.126E+02 0.989E+01 -.377E+04   0.126E+02 -.989E+01 0.377E+04   0.129E-01 0.589E-03 -.221E+00
   0.409E-01 0.477E+01 -.379E+04   -.403E-01 -.477E+01 0.379E+04   -.673E-03 0.196E-02 0.104E+01
   -.114E+00 0.366E-01 0.379E+04   0.114E+00 -.368E-01 -.380E+04   -.117E-05 0.124E-04 0.454E+00
   -.752E-04 0.778E-06 0.398E+04   0.763E-04 -.814E-06 -.397E+04   -.227E-06 0.914E-08 -.403E+01
   0.444E-03 0.565E-01 0.193E+04   -.461E-03 -.566E-01 -.193E+04   0.535E-05 -.134E-04 -.467E-01
   -.127E+00 0.962E-03 0.193E+04   0.127E+00 -.984E-03 -.193E+04   -.408E-04 -.714E-05 0.205E+00
   -.533E+00 0.282E+00 -.354E+01   0.530E+00 -.284E+00 0.439E+01   0.535E-03 0.192E-03 -.140E+00
   -.112E-02 0.359E-05 0.795E+01   0.114E-02 -.551E-05 -.905E+01   -.470E-05 0.399E-06 0.356E+00
   0.245E-01 0.131E+01 -.187E+04   -.246E-01 -.131E+01 0.187E+04   0.487E-04 0.109E-02 0.125E-01
   -.562E+01 0.303E-02 -.193E+04   0.562E+01 -.367E-02 0.193E+04   -.294E-02 0.785E-03 -.890E-01
   -.339E+02 0.142E+02 -.375E+04   0.340E+02 -.142E+02 0.375E+04   -.979E-03 -.215E-02 -.209E+00
   -.914E-02 0.214E-03 -.378E+04   0.916E-02 -.233E-03 0.378E+04   -.128E-04 0.185E-05 0.103E+01
   0.114E+00 -.366E-01 0.379E+04   -.114E+00 0.368E-01 -.380E+04   0.116E-05 -.124E-04 0.454E+00
   0.144E-03 -.538E-01 0.398E+04   -.149E-03 0.540E-01 -.397E+04   0.116E-05 -.255E-04 -.403E+01
   0.771E-03 -.247E-01 0.194E+04   -.797E-03 0.283E-01 -.193E+04   0.693E-05 -.747E-03 -.468E-01
   0.145E+00 -.652E-01 0.193E+04   -.145E+00 0.657E-01 -.193E+04   -.692E-04 -.922E-05 0.204E+00
   0.533E+00 -.282E+00 -.355E+01   -.530E+00 0.284E+00 0.440E+01   -.536E-03 -.191E-03 -.140E+00
   0.826E-02 -.214E+00 0.865E+01   -.849E-02 0.200E+00 -.972E+01   0.350E-04 0.913E-02 0.349E+00
   0.104E-01 -.313E+01 -.186E+04   -.104E-01 0.315E+01 0.186E+04   0.435E-05 -.221E-01 0.226E-01
   0.436E+01 -.338E+01 -.194E+04   -.437E+01 0.338E+01 0.194E+04   0.268E-02 -.167E-02 -.860E-01
   0.339E+02 -.142E+02 -.375E+04   -.339E+02 0.142E+02 0.375E+04   0.977E-03 0.215E-02 -.209E+00
   0.208E+00 -.341E+02 -.375E+04   -.206E+00 0.342E+02 0.375E+04   -.252E-02 -.186E-01 0.109E+01
   0.111E+00 -.365E-01 0.379E+04   -.111E+00 0.366E-01 -.380E+04   -.298E-04 -.112E-04 0.454E+00
   0.677E-04 -.183E-05 0.398E+04   -.688E-04 0.176E-05 -.397E+04   0.203E-06 0.228E-08 -.403E+01
   0.767E-03 -.269E-01 0.194E+04   -.792E-03 0.288E-01 -.193E+04   0.616E-05 -.525E-03 -.468E-01
   0.163E+00 0.102E-02 0.193E+04   -.162E+00 -.104E-02 -.193E+04   -.131E-03 -.477E-05 0.204E+00
   0.739E+00 -.288E+00 -.419E+01   -.737E+00 0.295E+00 0.505E+01   -.382E-03 -.371E-03 -.141E+00
[...]
   -.532E+02 0.214E-01 0.116E+04   0.572E+02 -.218E-01 -.116E+04   -.355E+01 0.694E-03 0.157E+00
   0.532E+02 0.221E-01 0.116E+04   -.572E+02 -.225E-01 -.116E+04   0.355E+01 0.749E-03 0.157E+00
   0.164E+00 -.200E-02 0.505E+03   -.163E+00 0.223E-02 -.510E+03   -.186E-02 -.522E-03 0.415E+01
   0.625E+00 -.646E-02 -.525E+03   -.620E+00 0.664E-02 0.533E+03   -.272E-02 -.450E-03 -.721E+01
   -.555E+02 0.274E-01 0.444E+01   0.602E+02 -.292E-01 -.470E+01   -.521E+01 0.908E-02 0.351E+00
   0.555E+02 0.227E-01 0.444E+01   -.602E+02 -.243E-01 -.470E+01   0.521E+01 0.879E-02 0.352E+00
   0.124E-02 0.427E-03 -.626E+03   -.124E-02 -.469E-03 0.619E+03   -.136E-06 0.337E-04 0.654E+01
   0.810E-02 -.384E-03 -.159E+04   -.848E-02 0.418E-03 0.159E+04   0.379E-03 -.257E-04 0.243E+01
   -.248E+02 0.181E+01 -.113E+04   0.277E+02 -.184E+01 0.113E+04   -.298E+01 0.230E-01 0.877E+00
   0.247E+02 0.184E+01 -.113E+04   -.277E+02 -.187E+01 0.113E+04   0.298E+01 0.255E-01 0.883E+00
   0.114E+02 -.132E+00 -.181E+04   -.114E+02 0.139E+00 0.181E+04   0.699E-01 -.650E-02 -.228E+01
   0.395E+02 -.123E-01 -.271E+04   -.395E+02 0.919E-02 0.273E+04   0.200E-01 0.310E-02 -.207E+02
   -.393E+02 0.217E+02 -.231E+04   0.453E+02 -.217E+02 0.231E+04   -.593E+01 -.255E-01 -.353E+01
   0.393E+02 0.216E+02 -.231E+04   -.453E+02 -.216E+02 0.231E+04   0.593E+01 -.331E-01 -.344E+01
   0.326E-02 0.245E-02 0.963E+02   -.909E-12 -.352E-12 0.182E-11   -.324E-02 -.237E-02 -.964E+02

 POSITION                                       TOTAL-FORCE (eV/Angst)
      6.50283      5.91521     24.82571        -0.001481     -0.002688     -0.004585
      6.45148      6.81152     25.45500         0.001795      0.002511      0.002001
      6.55428      5.01888     25.45512        -0.001911     -0.000063      0.000453
      7.41975      5.96590     24.22376         0.001034     -0.001602      0.000687
      5.58571      5.86437     24.22396         0.000346      0.001908      0.001537
      9.75299      7.39399      8.77438         0.000006      0.000104     -3.375906
      0.00000      8.87278      8.77438         0.000003      0.000058      2.809883
      0.00000      7.39399     12.02538         0.000020      0.000122      0.542816
      9.75299      8.87278     12.02538        -0.000231      0.000487     -0.704579
      9.75299      7.39399     15.27637        -0.002519      0.000721      0.706835
      0.00000      8.87278     15.27637         0.000195      0.001872     -0.758684
     -0.00002      7.39418     18.45793         0.000024     -0.000296     -0.000969
      9.75326      8.87324     18.65924         0.001238     -0.002668     -0.001552
      9.75451      7.39556     22.00676         0.000515      0.001451     -0.002782
      0.00033      8.87376     21.63633         0.000105     -0.000408     -0.000935
      9.75299     10.35158      8.77438        -0.000048      0.000141     -3.375839
      0.00000      0.00000      8.77438         0.000001     -0.000000      2.809879
      0.00000     10.35158     12.02538         0.000021      0.000119      0.542972
      9.75299      0.00000     12.02538        -0.000461      0.000028     -0.703979
      9.75299     10.35158     15.27637        -0.001091      0.007572      0.712052
      0.00000      0.00000     15.27637         0.000007      0.000001     -0.758187
     -0.00005     10.35182     18.45843        -0.000095     -0.000487     -0.000937
      9.75247      0.00004     18.66104         0.003049      0.000047     -0.001043
      9.75128     10.35197     22.01297        -0.000274      0.000714     -0.002094
     -0.00000     -0.00000     21.63658        -0.000005      0.000023     -0.001004
      9.75299      1.47880      8.77438        -0.000048     -0.000116     -3.375824
      0.00000      2.95759      8.77438        -0.000002     -0.000058      2.809883
      0.00000      1.47880     12.02538        -0.000014     -0.000119      0.542973
      9.75299      2.95759     12.02538        -0.000229     -0.000487     -0.704378
      9.75299      1.47880     15.27637        -0.001088     -0.006088      0.713043
      0.00000      2.95759     15.27637        -0.000173     -0.001872     -0.758678
      0.00006      1.47856     18.45843         0.000094      0.000502     -0.000933
      9.75326      2.95717     18.65960         0.001297      0.002674     -0.001514
      9.75103      1.47862     22.01311        -0.000544     -0.000486     -0.002061
     13.00367      2.95662     21.63633        -0.000101      0.000401     -0.000926
      9.75299      4.43639      8.77438         0.000006     -0.000131     -3.375892
      0.00000      5.91519      8.77438         0.000001     -0.000000      2.809899
      0.00000      4.43639     12.02538        -0.000012     -0.000123      0.542817
      9.75299      5.91519     12.02538        -0.000030     -0.000029     -0.704927
      9.75299      4.43639     15.27637        -0.002520     -0.002206      0.707877
      0.00000      5.91519     15.27637         0.000014     -0.000002     -0.759364
      0.00002      4.43620     18.45793        -0.000023      0.000277     -0.000967
      9.75358      5.91515     18.65932         0.000013      0.000020     -0.001869
      9.75379      4.43532     22.00786         0.000282     -0.001327     -0.002696
      0.00001      5.91519     21.63579         0.000006     -0.000017     -0.000263
      3.25100      7.39399      8.77438        -0.000006      0.000130     -3.375890
      6.50199      8.87278      8.77438        -0.000004      0.000191      2.810229
      6.50199      7.39399     12.02538        -0.000019      0.002938      0.542688
      3.25100      8.87278     12.02538         0.000229      0.000485     -0.704365
      3.25100      7.39399     15.27637         0.002521      0.002189      0.707928
      6.50199      8.87278     15.27637        -0.000194     -0.005263     -0.734257
      6.50198      7.39030     18.46721        -0.000023      0.001310     -0.000208
      3.25072      8.87320     18.65961        -0.001285     -0.002667     -0.001529
      3.25022      7.39505     22.00788        -0.000236      0.001309     -0.002708
      6.50208      8.87248     21.63237        -0.000019      0.001061      0.000235
      3.25100     10.35158      8.77438         0.000047      0.000115     -3.375822
      6.50199      0.00000      8.77438        -0.000001     -0.000000      2.810457
      6.50199     10.35158     12.02538        -0.000018      0.001400      0.544823
      3.25100      0.00000     12.02538         0.000460     -0.000029     -0.703969
      3.25100     10.35158     15.27637         0.001088      0.006061      0.713065
[...]
      6.50199      5.91519     13.29976         0.000001     -0.000001     -0.101952
      4.52538      4.43639     12.02538         0.439577      0.000260      0.048791
      8.47860      4.43639     12.02538        -0.439587      0.000293      0.048784
      3.25100      5.91519     14.00199        -0.000593     -0.000299     -0.116391
      3.25100      5.91519     16.55076         0.001378     -0.000276      0.021906
      7.77637      4.43639     15.27637        -0.496455      0.007299      0.097200
      5.22761      4.43639     15.27637         0.496175      0.007229      0.097255
      6.50199      5.91519     17.27737         0.000001     -0.000008     -0.003249
      6.50199      5.91519     19.84135         0.000003      0.000007      0.001078
      4.55308      4.43637     18.55283        -0.000855      0.000081     -0.002206
      8.45091      4.43645     18.55268         0.000856      0.000081     -0.002349
      3.24438      5.91546     20.51904        -0.000721      0.000097      0.003307
      3.26188      5.91464     23.09198        -0.001235     -0.000050      0.003171
      7.72812      4.42967     21.94583         0.000552      0.000213     -0.001812
      5.27493      4.42915     21.94273        -0.000612      0.000321     -0.002068
    total drift:                                0.000028      0.000074     -0.040723

  FREE ENERGIE OF THE ION-ELECTRON SYSTEM (eV)
  free  energy   TOTEN  =     -2150.32046231 eV

  energy  without entropy=    -2150.32046231  energy(sigma->0) =    -2150.32046231

 d Force = 0.1644688E-04[ 0.261E-05, 0.303E-04]  d Energy = 0.1928950E-04-0.284E-05
 d Force =-0.7778049E+01[-0.778E+01,-0.778E+01]  d Ewald  =-0.7778048E+01-0.127E-05

 Conjugate gradient step on ions:
 trial-energy change:   -0.000019  1 .order   -0.000016   -0.000030   -0.000003
  (g-gl).g = 0.373E-04      g.g   = 0.357E-04  gl.gl    = 0.539E-04
 g(Force)  = 0.357E-04   g(Stress)= 0.000E+00 ortho     =-0.106E-05
 gamma     =   0.69311
 trial     =   0.86699
 opt step  =   0.91641  (harmonic =   0.94859) maximal distance =0.00053896
 next E    = -2150.320462   (d E  =  -0.00002)

 reached required accuracy - stopping structural energy minimisation