 vasp.6.3.0 20Jan22 (build Dec 25 2023 18:06:01) complex
 executed on        HPECrayEX_GCC date 2024.11.20  21:22:16

 INCAR:
   SYSTEM = TiO2
   ISMEAR = 0
   SIGMA = 0.05
   EDIFF = 1E-7
   ALGO = Normal
   ISTART = 0
   IBRION = 2
   NSW = 1000
   ISYM = 0
   ISIF = 2
   EDIFFG = -0.01
   DIPOL = 0.5 0.5 0.5
   IDIPOL = 3
   LDIPOL = .TRUE.
   GGA = RE
   IVDW = 13
   VDW_S8 = 1.7468
   VDW_A1 = 0.5363
   VDW_A2 = 3.0726
   ENCUT = 600
   PREC = Accurate
   LASPH = .TRUE.
   LREAL = .FALSE.
   ISPIN = 1
   NELM = 200
   NELMIN = 8
   NCORE = 8
   KPAR = 1
   LWAVE = .FALSE.
   LCHARG = .FALSE.

 POTCAR:    PAW_PBE C 08Apr2002
 POTCAR:    PAW_PBE H 15Jun2001
 POTCAR:    PAW_PBE Ti_pv 07Sep2000
 POTCAR:    PAW_PBE O 08Apr2002
 POTCAR:    PAW_PBE C 08Apr2002
   VRHFIN =C: s2p2

   TITEL  = PAW_PBE C 08Apr2002
   POMASS =   12.011; ZVAL   =    4.000    mass and valenz
   ENMAX  =  400.000; ENMIN  =  300.000 eV

   TITEL  = PAW_PBE H 15Jun2001
   POMASS =    1.000; ZVAL   =    1.000    mass and valenz
   ENMAX  =  250.000; ENMIN  =  200.000 eV

   TITEL  = PAW_PBE Ti_pv 07Sep2000
   POMASS =   47.880; ZVAL   =   10.000    mass and valenz
   ENMAX  =  222.335; ENMIN  =  166.751 eV

   TITEL  = PAW_PBE O 08Apr2002
   POMASS =   16.000; ZVAL   =    6.000    mass and valenz
   ENMAX  =  400.000; ENMIN  =  300.000 eV

  PAW_PBE C 08Apr2002                   :
  PAW_PBE H 15Jun2001                   :
  PAW_PBE Ti_pv 07Sep2000               :
  PAW_PBE O 08Apr2002                   :

 POSCAR:  C  H Ti  O
  positions in direct lattice
|           W    W    AA    RRRRR   N    N  II  N    N   GGGG   !!!           |
|           W    W   A  A   R    R  NN   N  II  NN   N  G    G  !!!           |
|           W    W  A    A  R    R  N N  N  II  N N  N  G       !!!           |
|           W WW W  AAAAAA  RRRRR   N  N N  II  N  N N  G  GGG   !            |
|           WW  WW  A    A  R   R   N   NN  II  N   NN  G    G                |
|           W    W  A    A  R    R  N    N  II  N    N   GGGG   !!!           |
|     Specifying the vdW parameters                                           |
|     VDW_S8 = 1.747                                                          |
|     VDW_A1 = 0.536                                                          |
|     VDW_A2 = 3.073                                                          |
|     in the INCAR file will overwrite the defaults for revpbe. Please        |
|     make sure that is what you intended.                                    |

 ion  position               nearest neighbor table
   1  0.500  0.500  0.812-   2 1.10   3 1.10   4 1.10   5 1.10
   2  0.496  0.576  0.832-   1 1.10
   3  0.504  0.424  0.832-   1 1.10
   4  0.571  0.504  0.792-   1 1.10
   5  0.430  0.496  0.792-   1 1.10
   6  0.750  0.625  0.287-  86 1.95 146 1.95  87 1.95 147 1.95 168 1.98  89 1.98  16 2.96  36 2.96

   7  0.000  0.750  0.287-  89 1.95 109 1.95 108 1.95  88 1.95  90 1.98  37 2.96  17 2.96
   8  0.000  0.625  0.394-  90 1.95 150 1.95  91 1.95 151 1.95  92 1.98  93 1.98  18 2.96  38 2.96

[...]

  85  0.500  0.500  0.708- 239 1.81 244 1.95 245 1.95 184 1.95 185 1.95  75 2.96  55 2.96
  86  0.750  0.750  0.245-   6 1.95  16 1.95
  87  0.750  0.750  0.329-   6 1.95  16 1.95   9 1.98
  88  0.098  0.625  0.287-   7 1.95  37 1.95  46 1.98
  89  0.902  0.625  0.287-   7 1.95  37 1.95   6 1.98
  90  0.000  0.750  0.352-   8 1.95  18 1.95   7 1.98
  91  0.000  0.750  0.435-   8 1.95  18 1.95  11 1.98
  92  0.848  0.625  0.394-   9 1.95  39 1.95   8 1.98
  93  0.152  0.625  0.394-  49 1.95  79 1.95   8 1.98
  94  0.750  0.750  0.458-  10 1.95  20 1.95   9 1.98
  95  0.750  0.750  0.542-  10 1.95  20 1.95  13 2.11
  96  0.098  0.625  0.500-  11 1.95  41 1.95  50 1.98
  97  0.902  0.625  0.500-  11 1.95  41 1.95  10 1.98
  98  1.000  0.750  0.565-  12 1.89  22 1.89  11 2.00
  99  1.000  0.750  0.649-  15 1.81  22 2.02  12 2.02
 100  0.850  0.625  0.607-  12 1.95  13 1.97  43 1.97
 101  0.150  0.625  0.607-  12 1.95  83 1.97  53 1.97
 102  0.750  0.750  0.672-  13 1.86  14 2.10  24 2.10
 103  0.750  0.750  0.756-  24 1.83  14 1.83
 104  0.094  0.625  0.719-  45 1.95  15 1.95  54 2.03
 105  0.906  0.625  0.719-  15 1.95  45 1.95  14 2.03
 106  0.750  0.000  0.245-  16 1.95  26 1.95
 107  0.750  0.000  0.329-  16 1.95  26 1.95  19 1.98
 108  0.098  0.875  0.287-   7 1.95  17 1.95  56 1.98
 109  0.902  0.875  0.287-   7 1.95  17 1.95  16 1.98
 110  0.000  0.000  0.352-  18 1.95  28 1.95  17 1.98
 111  0.000  0.000  0.435-  18 1.95  28 1.95  21 1.98
 112  0.848  0.875  0.394-   9 1.95  19 1.95  18 1.98
 113  0.152  0.875  0.394-  49 1.95  59 1.95  18 1.98
 114  0.750  0.000  0.458-  20 1.95  30 1.95  19 1.98
 115  0.750  0.000  0.542-  20 1.95  30 1.95  23 2.11
 116  0.098  0.875  0.500-  11 1.95  21 1.95  60 1.98
 117  0.902  0.875  0.500-  11 1.95  21 1.95  20 1.98
 118  1.000  0.000  0.565-  22 1.89  32 1.89  21 2.00
 119  0.000  0.000  0.649-  25 1.81  32 2.02  22 2.02
 120  0.850  0.875  0.607-  22 1.95  13 1.97  23 1.97
 121  0.150  0.875  0.607-  22 1.95  63 1.97  53 1.97
 122  0.750  0.000  0.672-  23 1.86  34 2.10  24 2.10
 123  0.750  0.000  0.756-  24 1.83  34 1.83
 124  0.094  0.875  0.719-  25 1.95  15 1.95  64 2.03
 125  0.906  0.875  0.719-  15 1.95  25 1.95  24 2.03
 126  0.750  0.250  0.245-  26 1.95  36 1.95
 127  0.750  0.250  0.329-  26 1.95  36 1.95  29 1.98
 128  0.098  0.125  0.287-  17 1.95  27 1.95  66 1.98
 129  0.902  0.125  0.287-  17 1.95  27 1.95  26 1.98
 130  0.000  0.250  0.352-  28 1.95  38 1.95  27 1.98
 131  0.000  0.250  0.435-  28 1.95  38 1.95  31 1.98
 132  0.848  0.125  0.394-  19 1.95  29 1.95  28 1.98
 133  0.152  0.125  0.394-  59 1.95  69 1.95  28 1.98
 134  0.750  0.250  0.458-  30 1.95  40 1.95  29 1.98
 135  0.750  0.250  0.542-  30 1.95  40 1.95  33 2.11
 136  0.098  0.125  0.500-  21 1.95  31 1.95  70 1.98
 137  0.902  0.125  0.500-  21 1.95  31 1.95  30 1.98
 138  1.000  0.250  0.565-  32 1.89  42 1.89  31 2.00
 139  0.000  0.250  0.649-  35 1.81  42 2.02  32 2.02
 140  0.850  0.125  0.607-  32 1.95  23 1.97  33 1.97
 141  0.150  0.125  0.607-  32 1.95  73 1.97  63 1.97
 142  0.750  0.250  0.672-  33 1.86  34 2.10  44 2.10
 143  0.750  0.250  0.756-  44 1.83  34 1.83
 144  0.094  0.125  0.719-  25 1.95  35 1.95  74 2.03
[...]
 231  0.500  0.500  0.435-  48 1.95  78 1.95  81 1.98
 232  0.348  0.375  0.394-  69 1.95  79 1.95  78 1.98
 233  0.652  0.375  0.394-  29 1.95  39 1.95  78 1.98
 234  0.250  0.500  0.458-  50 1.95  80 1.95  79 1.98
 235  0.250  0.500  0.542-  50 1.95  80 1.95  83 2.11
 236  0.598  0.375  0.500-  71 1.95  81 1.95  40 1.98
 237  0.402  0.375  0.500-  71 1.95  81 1.95  80 1.98
 238  0.500  0.500  0.565-  82 1.89  52 1.89  81 2.00
 239  0.500  0.500  0.649-  85 1.81  82 2.02  52 2.02
 240  0.350  0.375  0.607-  82 1.95  73 1.97  83 1.97
 241  0.650  0.375  0.607-  82 1.95  33 1.97  43 1.97
 242  0.250  0.500  0.672-  83 1.86  84 2.10  54 2.10
 243  0.250  0.500  0.756-  54 1.83  84 1.83
 244  0.594  0.375  0.719-  85 1.95  75 1.95  44 2.03
 245  0.406  0.375  0.719-  85 1.95  75 1.95  84 2.03

IMPORTANT INFORMATION: All symmetrisations will be switched off!
NOSYMM: (Re-)initialisation of all symmetry stuff for point group C_1.

                                     Primitive cell

  volume of cell :    4700.2642

  direct lattice vectors                    reciprocal lattice vectors
    13.003962940  0.000000000  0.000000000     0.076899635  0.000000000  0.000000000
     0.000000000 11.830322230  0.000000000     0.000000000  0.084528551  0.000000000
     0.000000000  0.000000000 30.552726600     0.000000000  0.000000000  0.032730303

  length of vectors
    13.003962940 11.830322230 30.552726600     0.076899635  0.084528551  0.032730303

  position of ions in fractional coordinates (direct lattice)
     0.500062829  0.500001951  0.811709300
     0.496114096  0.575765491  0.832306296
     0.504019136  0.424236014  0.832310134
     0.570573515  0.504286181  0.792007401
     0.429536201  0.495704137  0.792014024
     0.750000000  0.625000000  0.287188176
     0.000000000  0.750000000  0.287188176
     0.000000000  0.625000000  0.393594088
     0.750000000  0.750000000  0.393594088
     0.750000000  0.625000000  0.500000000
     0.000000000  0.750000000  0.500000000
     0.999999977  0.624999989  0.604107514
     0.750000007  0.750000012  0.610767618
     0.749999988  0.625000012  0.720461010
     0.999999986  0.749999988  0.708092187
     0.750000000  0.875000000  0.287188176
     0.000000000  0.000000000  0.287188176
     0.000000000  0.875000000  0.393594088
     0.750000000  0.000000000  0.393594088
     0.750000000  0.875000000  0.500000000
     0.000000000  0.000000000  0.500000000
     0.000000039  0.875000004  0.604107516
     0.750000003  0.999999990  0.610767611
     0.749999998  0.875000011  0.720461030
     0.000000003  0.000000016  0.708092185
     0.750000000  0.125000000  0.287188176
     0.000000000  0.250000000  0.287188176
     0.000000000  0.125000000  0.393594088
     0.750000000  0.250000000  0.393594088
     0.750000000  0.125000000  0.500000000
     0.000000000  0.250000000  0.500000000
     0.999999978  0.125000012  0.604107520
     0.749999992  0.250000022  0.610767621
     0.749999978  0.124999987  0.720460998
     0.000000011  0.250000009  0.708092188
     0.750000000  0.375000000  0.287188176
     0.000000000  0.500000000  0.287188176
     0.000000000  0.375000000  0.393594088
     0.750000000  0.500000000  0.393594088
     0.750000000  0.375000000  0.500000000
     0.000000000  0.500000000  0.500000000
     0.000000017  0.375000006  0.604107523
     0.750000001  0.499999983  0.610767625
     0.750000034  0.374999983  0.720461028
     0.000000022  0.499999995  0.708092186
     0.250000000  0.625000000  0.287188176
     0.500000000  0.750000000  0.287188176
     0.500000000  0.625000000  0.393594088
     0.250000000  0.750000000  0.393594088
     0.250000000  0.625000000  0.500000000
     0.500000000  0.750000000  0.500000000
     0.500000025  0.624999995  0.604107520
     0.250000008  0.749999983  0.610767631
     0.249999995  0.625000004  0.720461042
     0.499999999  0.749999996  0.708092179
     0.250000000  0.875000000  0.287188176
     0.500000000  0.000000000  0.287188176
     0.500000000  0.875000000  0.393594088
     0.250000000  0.000000000  0.393594088
     0.250000000  0.875000000  0.500000000
[...]
     0.500000000  0.500000000  0.435304992
     0.347999497  0.375000000  0.393594088
     0.652000503  0.375000000  0.393594088
     0.250000000  0.500000000  0.458289097
     0.250000000  0.500000000  0.541710903
     0.597999497  0.375000000  0.500000000
     0.402000503  0.375000000  0.500000000
     0.499999993  0.499999999  0.565341161
     0.499999997  0.499999994  0.648962158
     0.350200449  0.374999991  0.607128763
     0.649799558  0.375000002  0.607128743
     0.249999986  0.499999994  0.671634993
     0.249999989  0.499999984  0.755903992
     0.594079552  0.375000009  0.718679827
     0.405920447  0.374999997  0.718679832

  ion indices of the primitive-cell ions
   primitive index   ion index
                 1           1
                 2           2
[...]
   -.218E+01 0.434E+02 -.374E+03   0.243E+01 -.480E+02 0.377E+03   -.253E+00 0.452E+01 -.320E+01   -.103E-04 0.188E-04 0.153E-04
   -.355E+02 -.235E+01 -.389E+03   0.402E+02 0.260E+01 0.387E+03   -.475E+01 -.248E+00 0.282E+01   0.183E-04 -.209E-04 0.281E-04
   0.355E+02 0.235E+01 -.389E+03   -.402E+02 -.259E+01 0.387E+03   0.475E+01 0.248E+00 0.282E+01   -.172E-04 -.244E-04 0.398E-04
   -.113E+00 -.361E-01 0.379E+04   0.113E+00 0.362E-01 -.380E+04   0.977E-05 -.944E-05 0.454E+00   0.315E-05 -.380E-05 0.109E-04
   -.138E-03 -.490E-01 0.398E+04   0.142E-03 0.491E-01 -.397E+04   -.101E-05 -.753E-05 -.403E+01   0.261E-06 -.876E-05 -.120E-05
   -.829E-03 -.564E-01 0.194E+04   0.854E-03 0.565E-01 -.193E+04   -.665E-05 0.145E-04 -.467E-01   0.319E-07 0.124E-05 0.341E-05
   -.148E+00 -.643E-01 0.193E+04   0.148E+00 0.648E-01 -.193E+04   0.930E-04 -.605E-05 0.205E+00   -.115E-04 -.177E-05 0.259E-04
   -.539E+00 -.265E+00 -.336E+01   0.535E+00 0.266E+00 0.421E+01   0.553E-03 -.746E-04 -.139E+00   -.599E-04 0.304E-05 -.613E-04
   -.117E-01 -.424E+00 0.766E+01   0.120E-01 0.427E+00 -.877E+01   -.676E-04 -.953E-03 0.356E+00   -.396E-05 0.288E-04 -.846E-04
   -.318E-01 -.131E+01 -.187E+04   0.319E-01 0.131E+01 0.187E+04   -.562E-04 -.112E-02 0.129E-01   -.411E-05 0.473E-04 -.279E-03
   -.437E+01 -.339E+01 -.194E+04   0.437E+01 0.339E+01 0.194E+04   -.303E-02 -.244E-02 -.855E-01   -.215E-03 0.917E-04 -.156E-04
   -.345E+02 -.141E+02 -.375E+04   0.345E+02 0.141E+02 0.375E+04   -.357E-03 0.274E-02 -.205E+00   -.101E-03 0.221E-05 0.156E-03
   -.545E-01 -.472E+01 -.379E+04   0.540E-01 0.472E+01 0.379E+04   0.696E-03 -.185E-02 0.104E+01   -.844E-05 0.346E-03 0.107E-03
   -.111E+00 -.361E-01 0.379E+04   0.111E+00 0.363E-01 -.380E+04   0.410E-04 -.151E-04 0.454E+00   0.314E-05 -.545E-05 0.140E-04
   -.579E-04 0.236E-05 0.398E+04   0.585E-04 -.142E-05 -.397E+04   -.152E-06 0.673E-07 -.403E+01   0.158E-06 -.108E-05 0.328E-05
   -.842E-03 -.568E-01 0.194E+04   0.868E-03 0.570E-01 -.193E+04   -.550E-05 0.878E-05 -.467E-01   0.383E-07 0.193E-05 0.148E-04
   -.167E+00 -.101E-02 0.193E+04   0.166E+00 0.103E-02 -.193E+04   0.153E-03 0.468E-05 0.204E+00   -.112E-04 -.992E-06 0.374E-04
   -.754E+00 -.303E+00 -.400E+01   0.752E+00 0.312E+00 0.485E+01   0.384E-03 -.508E-03 -.141E+00   -.523E-04 0.473E-04 -.102E-05
   -.489E-03 0.182E-04 0.721E+01   0.498E-03 -.169E-04 -.832E+01   -.265E-05 0.112E-06 0.356E+00   0.152E-07 -.150E-05 -.760E-04
   -.525E-01 -.124E+01 -.187E+04   0.525E-01 0.124E+01 0.187E+04   -.765E-04 -.162E-02 0.117E-01   -.622E-05 0.983E-04 -.201E-03
   -.332E+01 -.700E-03 -.194E+04   0.332E+01 0.905E-03 0.194E+04   0.893E-04 -.140E-03 -.813E-01   -.239E-03 -.112E-04 0.111E-04
   -.127E+02 -.999E+01 -.377E+04   0.127E+02 0.999E+01 0.377E+04   0.129E-01 0.748E-04 -.220E+00   -.813E-04 0.614E-04 0.137E-04
   -.323E-02 0.953E-04 -.379E+04   0.323E-02 -.932E-04 0.379E+04   -.941E-05 -.695E-06 0.104E+01   0.247E-05 0.308E-05 0.184E-03
   -.111E+00 0.360E-01 0.379E+04   0.111E+00 -.362E-01 -.380E+04   0.409E-04 0.118E-04 0.454E+00   0.297E-05 0.405E-05 0.138E-04
   0.153E-04 0.490E-01 0.398E+04   -.177E-04 -.491E-01 -.397E+04   0.681E-06 0.752E-05 -.403E+01   0.646E-07 0.890E-05 -.199E-05
   0.543E-03 0.568E-01 0.194E+04   -.561E-03 -.570E-01 -.193E+04   0.456E-05 -.872E-05 -.467E-01   -.204E-06 -.396E-05 0.146E-04
   -.149E+00 0.644E-01 0.193E+04   0.148E+00 -.649E-01 -.193E+04   0.917E-04 0.819E-05 0.204E+00   -.116E-04 0.180E-05 0.265E-04
   -.759E+00 0.288E+00 -.402E+01   0.757E+00 -.295E+00 0.488E+01   0.437E-03 0.395E-03 -.141E+00   -.557E-04 -.532E-04 -.700E-05
   0.102E-01 0.424E+00 0.766E+01   -.104E-01 -.427E+00 -.877E+01   0.621E-04 0.953E-03 0.356E+00   0.392E-05 -.287E-04 -.840E-04
   0.489E-01 0.124E+01 -.187E+04   -.489E-01 -.124E+01 0.187E+04   0.730E-04 0.162E-02 0.117E-01   0.844E-05 -.988E-04 -.200E-03
   -.441E+01 0.339E+01 -.194E+04   0.441E+01 -.339E+01 0.194E+04   -.291E-02 0.171E-02 -.855E-01   -.231E-03 -.102E-03 -.231E-04
   -.127E+02 0.992E+01 -.377E+04   0.127E+02 -.992E+01 0.377E+04   0.135E-01 0.149E-03 -.221E+00   -.517E-04 -.835E-04 0.661E-05
   0.427E-01 0.472E+01 -.379E+04   -.421E-01 -.472E+01 0.379E+04   -.677E-03 0.185E-02 0.104E+01   0.160E-04 -.345E-03 0.115E-03
   -.113E+00 0.362E-01 0.379E+04   0.113E+00 -.363E-01 -.380E+04   0.967E-05 0.128E-04 0.454E+00   0.320E-05 0.523E-05 0.107E-04
   -.645E-04 -.222E-05 0.398E+04   0.652E-04 0.142E-05 -.397E+04   -.182E-06 -.566E-07 -.403E+01   0.163E-06 0.931E-06 -.704E-05
   0.468E-03 0.564E-01 0.194E+04   -.486E-03 -.565E-01 -.193E+04   0.542E-05 -.145E-04 -.467E-01   -.176E-06 0.780E-06 0.315E-05
   -.130E+00 0.933E-03 0.193E+04   0.130E+00 -.955E-03 -.193E+04   -.199E-04 -.716E-05 0.205E+00   -.161E-04 0.977E-06 0.276E-04
   -.542E+00 0.280E+00 -.337E+01   0.539E+00 -.283E+00 0.422E+01   0.597E-03 0.195E-03 -.139E+00   -.634E-04 0.249E-05 -.670E-04
   -.962E-03 -.193E-04 0.812E+01   0.976E-03 0.179E-04 -.923E+01   -.380E-05 -.702E-07 0.356E+00   -.433E-07 0.145E-05 -.662E-04
   0.248E-01 0.131E+01 -.187E+04   -.249E-01 -.131E+01 0.187E+04   0.508E-04 0.112E-02 0.129E-01   0.735E-05 -.468E-04 -.277E-03
   -.566E+01 0.172E-02 -.193E+04   0.566E+01 -.248E-02 0.193E+04   -.340E-02 0.809E-03 -.886E-01   -.156E-03 -.106E-05 0.551E-04
   -.343E+02 0.142E+02 -.375E+04   0.343E+02 -.142E+02 0.375E+04   -.120E-02 -.251E-02 -.208E+00   -.645E-04 -.431E-04 0.131E-03
   -.830E-02 -.102E-03 -.378E+04   0.831E-02 0.103E-03 0.378E+04   -.978E-05 0.300E-07 0.103E+01   0.594E-05 -.397E-05 0.824E-04
   0.113E+00 -.362E-01 0.379E+04   -.113E+00 0.363E-01 -.380E+04   -.967E-05 -.128E-04 0.454E+00   -.319E-05 -.363E-05 0.109E-04
   0.132E-03 -.530E-01 0.398E+04   -.137E-03 0.532E-01 -.397E+04   0.110E-05 -.258E-04 -.403E+01   -.277E-06 -.849E-05 0.708E-05
   0.728E-03 -.233E-01 0.194E+04   -.752E-03 0.270E-01 -.193E+04   0.682E-05 -.763E-03 -.468E-01   -.167E-06 -.164E-04 0.188E-04
   0.149E+00 -.644E-01 0.193E+04   -.148E+00 0.649E-01 -.193E+04   -.917E-04 -.834E-05 0.204E+00   0.116E-04 -.177E-05 0.267E-04
   0.542E+00 -.280E+00 -.337E+01   -.539E+00 0.282E+00 0.422E+01   -.598E-03 -.194E-03 -.139E+00   0.636E-04 -.935E-06 -.669E-04
   0.798E-02 -.203E+00 0.887E+01   -.820E-02 0.188E+00 -.995E+01   0.311E-04 0.938E-02 0.348E+00   0.234E-06 0.249E-04 0.539E-04
   0.931E-02 -.319E+01 -.186E+04   -.934E-02 0.321E+01 0.186E+04   0.376E-05 -.225E-01 0.225E-01   -.867E-05 -.718E-04 0.175E-03
   0.441E+01 -.339E+01 -.194E+04   -.441E+01 0.339E+01 0.194E+04   0.290E-02 -.169E-02 -.855E-01   0.231E-03 0.101E-03 -.205E-04
   0.343E+02 -.142E+02 -.375E+04   -.343E+02 0.142E+02 0.375E+04   0.122E-02 0.252E-02 -.208E+00   0.614E-04 0.246E-04 0.116E-03
   0.209E+00 -.346E+02 -.375E+04   -.207E+00 0.346E+02 0.375E+04   -.261E-02 -.193E-01 0.109E+01   -.133E-04 -.125E-03 0.116E-03
   0.111E+00 -.360E-01 0.379E+04   -.111E+00 0.362E-01 -.380E+04   -.409E-04 -.117E-04 0.454E+00   -.303E-05 -.566E-05 0.139E-04
   0.578E-04 0.247E-05 0.398E+04   -.584E-04 -.161E-05 -.397E+04   0.156E-06 0.631E-07 -.403E+01   -.162E-06 -.982E-06 0.139E-04
   0.727E-03 -.255E-01 0.194E+04   -.750E-03 0.274E-01 -.193E+04   0.579E-05 -.533E-03 -.469E-01   -.184E-06 0.597E-05 0.184E-04
   0.167E+00 0.102E-02 0.193E+04   -.166E+00 -.104E-02 -.193E+04   -.154E-03 -.458E-05 0.204E+00   0.112E-04 -.167E-05 0.374E-04
   0.759E+00 -.288E+00 -.402E+01   -.758E+00 0.294E+00 0.488E+01   -.437E-03 -.393E-03 -.141E+00   0.557E-04 0.515E-04 -.697E-05
[...]
   -.532E+02 0.208E-01 0.116E+04   0.572E+02 -.212E-01 -.116E+04   -.356E+01 0.711E-03 0.157E+00   0.265E-06 0.511E-05 0.161E-04
   0.532E+02 0.214E-01 0.116E+04   -.572E+02 -.219E-01 -.116E+04   0.356E+01 0.765E-03 0.157E+00   -.684E-07 0.488E-05 0.163E-04
   0.168E+00 -.197E-02 0.505E+03   -.167E+00 0.220E-02 -.510E+03   -.206E-02 -.516E-03 0.415E+01   0.208E-04 0.195E-05 -.244E-04
   0.626E+00 -.608E-02 -.525E+03   -.622E+00 0.626E-02 0.532E+03   -.281E-02 -.443E-03 -.720E+01   0.449E-04 0.196E-09 -.380E-04
   -.555E+02 0.219E-01 0.455E+01   0.602E+02 -.237E-01 -.480E+01   -.521E+01 0.931E-02 0.351E+00   -.937E-05 -.423E-05 -.588E-05
   0.555E+02 0.173E-01 0.455E+01   -.602E+02 -.189E-01 -.480E+01   0.520E+01 0.902E-02 0.351E+00   0.981E-05 -.445E-05 -.578E-05
   0.108E-02 -.684E-04 -.626E+03   -.108E-02 0.705E-04 0.619E+03   -.380E-06 0.568E-06 0.654E+01   -.802E-06 0.395E-06 0.172E-03
   0.716E-02 -.162E-03 -.159E+04   -.747E-02 0.141E-03 0.159E+04   0.302E-03 0.317E-04 0.241E+01   -.529E-05 -.224E-05 -.514E-03
   -.247E+02 0.183E+01 -.113E+04   0.277E+02 -.185E+01 0.113E+04   -.298E+01 0.233E-01 0.873E+00   0.160E-04 0.129E-04 0.879E-04
   0.247E+02 0.186E+01 -.113E+04   -.277E+02 -.189E+01 0.113E+04   0.298E+01 0.258E-01 0.878E+00   -.189E-04 0.239E-04 0.576E-04
   0.116E+02 -.133E+00 -.181E+04   -.116E+02 0.139E+00 0.181E+04   0.757E-01 -.650E-02 -.228E+01   -.404E-03 0.195E-04 -.232E-04
   0.397E+02 -.903E-02 -.271E+04   -.397E+02 0.593E-02 0.273E+04   0.175E-01 0.315E-02 -.207E+02   0.121E-03 -.437E-04 -.868E-04
   -.396E+02 0.220E+02 -.231E+04   0.456E+02 -.220E+02 0.231E+04   -.593E+01 -.269E-01 -.350E+01   -.157E-03 -.945E-04 -.241E-03
   0.396E+02 0.218E+02 -.231E+04   -.456E+02 -.218E+02 0.231E+04   0.594E+01 -.345E-01 -.341E+01   0.110E-03 -.122E-03 -.330E-03
   -.605E-03 -.523E-02 0.962E+02   0.414E-11 0.203E-11 -.405E-10   0.688E-03 0.551E-02 -.963E+02   -.838E-04 -.251E-03 0.437E-03

 POSITION                                       TOTAL-FORCE (eV/Angst)
      6.50269      5.91506     24.80385         0.003079      0.006880     -0.002406
      6.45328      6.81191     25.43270         0.001769     -0.001798      0.001724
      6.55230      5.01854     25.43273        -0.001829     -0.004321      0.005583
      7.42037      5.96401     24.20272        -0.001304     -0.002132      0.004473
      5.58498      5.86622     24.20294        -0.002007      0.001446      0.002605
      9.75297      7.39395      8.77438        -0.000024      0.000108     -3.375953
      0.00000      8.87274      8.77438         0.000003      0.000059      2.809849
      0.00000      7.39395     12.02537         0.000019      0.000129      0.542967
      9.75297      8.87274     12.02537        -0.000310      0.000498     -0.704900
      9.75297      7.39395     15.27636        -0.002785      0.000827      0.705183
      0.00000      8.87274     15.27636         0.000189      0.001971     -0.759101
     -0.00002      7.39416     18.45771         0.000015     -0.000396     -0.000593
      9.75327      8.87324     18.65880         0.001486     -0.003505     -0.000985
      9.75462      7.39562     22.00601         0.000644      0.000571     -0.002497
      0.00033      8.87381     21.63607         0.000118     -0.001907     -0.000704
      9.75297     10.35153      8.77438        -0.000078      0.000145     -3.375882
      0.00000      0.00000      8.77438         0.000001     -0.000000      2.809845
      0.00000     10.35153     12.02537         0.000020      0.000123      0.543133
      9.75297      0.00000     12.02537        -0.000538      0.000028     -0.704275
      9.75297     10.35153     15.27636        -0.001262      0.007894      0.710675
      0.00000      0.00000     15.27636         0.000006     -0.000000     -0.758631
     -0.00006     10.35179     18.45824        -0.000110     -0.000643     -0.000719
      9.75244      0.00004     18.66069         0.003577      0.000071     -0.001117
      9.75120     10.35198     22.01255        -0.000520     -0.000567     -0.001765
     -0.00000     -0.00000     21.63636        -0.000003      0.000004     -0.001362
      9.75297      1.47879      8.77438        -0.000078     -0.000121     -3.375867
      0.00000      2.95758      8.77438        -0.000002     -0.000059      2.809849
      0.00000      1.47879     12.02537        -0.000014     -0.000123      0.543133
      9.75297      2.95758     12.02537        -0.000308     -0.000498     -0.704703
      9.75297      1.47879     15.27636        -0.001260     -0.006431      0.711649
      0.00000      2.95758     15.27636        -0.000173     -0.001971     -0.759101
      0.00006      1.47854     18.45824         0.000107      0.000645     -0.000718
      9.75326      2.95711     18.65915         0.001524      0.003491     -0.000930
      9.75095      1.47856     22.01268        -0.000803      0.000798     -0.001718
     -0.00032      2.95651     21.63607        -0.000112      0.001906     -0.000703
      9.75297      4.43637      8.77438        -0.000024     -0.000134     -3.375939
      0.00000      5.91516      8.77438         0.000001     -0.000000      2.809864
      0.00000      4.43637     12.02537        -0.000013     -0.000129      0.542967
      9.75297      5.91516     12.02537        -0.000111     -0.000028     -0.705272
      9.75297      4.43637     15.27636        -0.002788     -0.002291      0.706214
      0.00000      5.91516     15.27636         0.000011     -0.000000     -0.759774
      0.00001      4.43616     18.45771        -0.000021      0.000393     -0.000592
      9.75361      5.91512     18.65886         0.000043      0.000023     -0.001102
      9.75389      4.43521     22.00711         0.000353     -0.000400     -0.002409
      0.00001      5.91516     21.63548         0.000008     -0.000003      0.000563
      3.25099      7.39395      8.77438         0.000024      0.000133     -3.375937
      6.50198      8.87274      8.77438        -0.000004      0.000193      2.810258
      6.50198      7.39395     12.02537        -0.000017      0.002997      0.543046
      3.25099      8.87274     12.02537         0.000308      0.000497     -0.704693
      3.25099      7.39395     15.27636         0.002788      0.002278      0.706254
      6.50198      8.87274     15.27636        -0.000189     -0.005469     -0.734428
      6.50197      7.39015     18.46716        -0.000025      0.000595      0.000153
      3.25070      8.87321     18.65916        -0.001528     -0.003490     -0.000944
      3.25009      7.39511     22.00713        -0.000390      0.000370     -0.002394
      6.50207      8.87251     21.63163         0.000026      0.000458      0.001379
      3.25099     10.35153      8.77438         0.000078      0.000120     -3.375866
      6.50198      0.00000      8.77438        -0.000001     -0.000000      2.810487
      6.50198     10.35153     12.02537        -0.000017      0.001402      0.545201
      3.25099      0.00000     12.02537         0.000538     -0.000028     -0.704268
      3.25099     10.35153     15.27636         0.001259      0.006406      0.711664
[...]
      6.50198      5.91516     13.29975         0.000001     -0.000000     -0.102516
      4.52537      4.43637     12.02537         0.439451      0.000269      0.048827
      8.47859      4.43637     12.02537        -0.439461      0.000302      0.048820
      3.25099      5.91516     14.00198        -0.000640     -0.000295     -0.115784
      3.25099      5.91516     16.55075         0.001467     -0.000275      0.020703
      7.77636      4.43637     15.27636        -0.495378      0.007490      0.096796
      5.22760      4.43637     15.27636         0.495096      0.007420      0.096850
      6.50198      5.91516     17.27718         0.000001      0.000003     -0.003001
      6.50198      5.91516     19.84110        -0.000001      0.000008      0.001458
      4.55308      4.43632     18.55268        -0.001249     -0.000023     -0.002349
      8.45089      4.43640     18.55251         0.001242     -0.000027     -0.002497
      3.24391      5.91545     20.51851        -0.000665      0.000085      0.003478
      3.26250      5.91460     23.09128        -0.001308     -0.000021      0.003079
      7.72827      4.42930     21.94423         0.000215      0.000169     -0.001691
      5.27472      4.42876     21.94098        -0.000201      0.000310     -0.001853
    total drift:                               -0.000001      0.000027     -0.042435

  FREE ENERGIE OF THE ION-ELECTRON SYSTEM (eV)
  free  energy   TOTEN  =     -2150.32037595 eV

  energy  without entropy=    -2150.32037595  energy(sigma->0) =    -2150.32037595

 d Force = 0.2044253E-04[ 0.561E-06, 0.403E-04]  d Energy = 0.1931042E-04 0.113E-05
 d Force =-0.9855259E+00[-0.985E+00,-0.986E+00]  d Ewald  =-0.9855273E+00 0.140E-05

 Conjugate gradient step on ions:
 trial-energy change:   -0.000019  1 .order   -0.000020   -0.000040   -0.000001
  (g-gl).g = 0.464E-04      g.g   = 0.458E-04  gl.gl    = 0.634E-04
 g(Force)  = 0.458E-04   g(Stress)= 0.000E+00 ortho     = 0.296E-06
 gamma     =   0.73207
 trial     =   0.87699
 opt step  =   0.89196  (harmonic =   0.88936) maximal distance =0.00060460
 next E    = -2150.320376   (d E  =  -0.00002)

 reached required accuracy - stopping structural energy minimisation