 vasp.6.3.0 20Jan22 (build Dec 25 2023 18:06:01) complex
 executed on        HPECrayEX_GCC date 2024.01.24  06:23:39

 INCAR:
   SYSTEM = MgO-rocksalt
   ISMEAR = 0
   SIGMA = 0.05
   EDIFF = 1E-8
   ALGO = ALL
   ISTART = 0
   IBRION = 5
   POTIM = 0.01
   NFREE = 2
   ISYM = 0
   DIPOL = 0.5 0.5 0.5
   IDIPOL = 3
   LDIPOL = .TRUE.
   GGA = RE
   AGGAC = 0.0
   LUSE_VDW = .TRUE.
   LASPH = .TRUE.
   ENCUT = 600
   PREC = Accurate
   LASPH = .TRUE.
   LREAL = .FALSE.
   ISPIN = 1
   NELM = 200
   NELMIN = 8
   NCORE = 8
   KPAR = 1
   LWAVE = .FALSE.
   LCHARG = .FALSE.

 POTCAR:    PAW_PBE H 15Jun2001
 POTCAR:    PAW_PBE O 08Apr2002
 POTCAR:    PAW_PBE Ti_pv 07Sep2000
 POTCAR:    PAW_PBE O 08Apr2002
|               ----> ADVICE to this user running VASP <----                  |
|     You have switched on vdW-DFT.                                           |
|     This routine was written and supplied by Jiri Klimes. We recommend      |
|     that you carefully read and cite the following publications:            |
|       J. Klimes, D.R. Bowler, A. Michelides                                 |
|          J. Phys.: Cond Matt. 22 022201 (2010)                              |
|       J. Klimes, D.R. Bowler, A. Michelides                                 |
|          Phys. Rev. B. 83, 195131 (2011)                                    |
|     and references therein.                                                 |

   TITEL  = PAW_PBE H 15Jun2001
   POMASS =    1.000; ZVAL   =    1.000    mass and valenz
   ENMAX  =  250.000; ENMIN  =  200.000 eV

   TITEL  = PAW_PBE O 08Apr2002
   POMASS =   16.000; ZVAL   =    6.000    mass and valenz
   ENMAX  =  400.000; ENMIN  =  300.000 eV

   TITEL  = PAW_PBE Ti_pv 07Sep2000
   POMASS =   47.880; ZVAL   =   10.000    mass and valenz
   ENMAX  =  222.335; ENMIN  =  166.751 eV

   TITEL  = PAW_PBE O 08Apr2002
   POMASS =   16.000; ZVAL   =    6.000    mass and valenz
   ENMAX  =  400.000; ENMIN  =  300.000 eV

  PAW_PBE H 15Jun2001                   :
  PAW_PBE O 08Apr2002                   :
  PAW_PBE Ti_pv 07Sep2000               :
  PAW_PBE O 08Apr2002                   :

 POSCAR:  H  O Ti  O
  positions in direct lattice
 exchange correlation table for  LEXCH =       40
   RHO(1)=    0.500       N(1)  =     2000
   RHO(2)=  100.500       N(2)  =     4000

 ion  position               nearest neighbor table
   1  0.482  0.540  0.806-   3 0.97
   2  0.592  0.501  0.794-   3 0.98
   3  0.520  0.491  0.787-   1 0.97   2 0.98  83 2.30
   4  0.750  0.625  0.285-  85 1.98 145 1.98 144 1.98  84 1.98  87 2.02 166 2.02  14 3.00  34 3.00

   5  0.000  0.750  0.285-  86 1.98  87 1.98 106 1.98 107 1.98  88 2.02  35 3.00  15 3.00
   6  0.000  0.625  0.393-  88 1.98 148 1.98  89 1.98 149 1.98  90 2.02  91 2.02  16 3.00  36 3.00

[...]

  84  0.750  0.750  0.243-   4 1.98  14 1.98
  85  0.750  0.750  0.327-   4 1.98  14 1.98   7 2.02
  86  0.098  0.625  0.285-   5 1.98  35 1.98  44 2.02
  87  0.902  0.625  0.285-   5 1.98  35 1.98   4 2.02
  88  0.000  0.750  0.351-   6 1.98  16 1.98   5 2.02
  89  0.000  0.750  0.434-   6 1.98  16 1.98   9 2.02
  90  0.848  0.625  0.393-   7 1.98  37 1.98   6 2.02
  91  0.152  0.625  0.393-  47 1.98  77 1.98   6 2.02
  92  0.750  0.750  0.458-   8 1.98  18 1.98   7 2.02
  93  0.750  0.750  0.542-   8 1.98  18 1.98  11 2.16
  94  0.098  0.625  0.500-   9 1.98  39 1.98  48 2.02
  95  0.902  0.625  0.500-   9 1.98  39 1.98   8 2.02
  96  0.000  0.750  0.566-  10 1.92  20 1.92   9 2.05
  97  0.000  0.750  0.651-  13 1.83  10 2.05  20 2.06
  98  0.850  0.625  0.608-  11 1.93  41 1.93  10 2.12
  99  0.150  0.625  0.608-  10 1.87  51 2.07  81 2.07
 100  0.752  0.751  0.673-  11 1.89  12 2.12  22 2.13
 101  0.749  0.749  0.757-  12 1.85  22 1.85
 102  0.094  0.625  0.721-  43 1.97  13 1.98  52 2.06
 103  0.907  0.625  0.721-  43 1.97  13 1.98  12 2.07
 104  0.750  0.000  0.243-  14 1.98  24 1.98
 105  0.750  0.000  0.327-  14 1.98  24 1.98  17 2.02
 106  0.098  0.875  0.285-   5 1.98  15 1.98  54 2.02
 107  0.902  0.875  0.285-   5 1.98  15 1.98  14 2.02
 108  0.000  0.000  0.351-  16 1.98  26 1.98  15 2.02
 109  0.000  0.000  0.434-  16 1.98  26 1.98  19 2.02
 110  0.848  0.875  0.393-   7 1.98  17 1.98  16 2.02
 111  0.152  0.875  0.393-  47 1.98  57 1.98  16 2.02
 112  0.750  0.000  0.458-  18 1.98  28 1.98  17 2.02
 113  0.750  0.000  0.542-  18 1.98  28 1.98  21 2.16
 114  0.098  0.875  0.500-   9 1.98  19 1.98  58 2.02
 115  0.902  0.875  0.500-   9 1.98  19 1.98  18 2.02
 116  0.001  1.000  0.566-  20 1.92  30 1.92  19 2.05
 117  0.000  0.000  0.651-  23 1.83  30 2.05  20 2.05
 118  0.849  0.875  0.608-  11 1.93  21 1.93  20 2.12
 119  0.150  0.875  0.608-  20 1.87  61 2.07  51 2.07
 120  0.751  0.000  0.673-  21 1.89  32 2.12  22 2.13
 121  0.750  1.000  0.758-  32 1.85  22 1.85
 122  0.094  0.875  0.721-  13 1.97  23 1.98  62 2.08
 123  0.907  0.875  0.721-  13 1.97  23 1.97  22 2.08
 124  0.750  0.250  0.243-  24 1.98  34 1.98
 125  0.750  0.250  0.327-  24 1.98  34 1.98  27 2.02
 126  0.098  0.125  0.285-  15 1.98  25 1.98  64 2.02
 127  0.902  0.125  0.285-  15 1.98  25 1.98  24 2.02
 128  0.000  0.250  0.351-  26 1.98  36 1.98  25 2.02
 129  0.000  0.250  0.434-  26 1.98  36 1.98  29 2.02
 130  0.848  0.125  0.393-  17 1.98  27 1.98  26 2.02
 131  0.152  0.125  0.393-  57 1.98  67 1.98  26 2.02
 132  0.750  0.250  0.458-  28 1.98  38 1.98  27 2.02
 133  0.750  0.250  0.542-  28 1.98  38 1.98  31 2.16
 134  0.098  0.125  0.500-  19 1.98  29 1.98  68 2.02
 135  0.902  0.125  0.500-  19 1.98  29 1.98  28 2.02
 136  0.001  0.250  0.566-  40 1.92  30 1.92  29 2.05
 137  0.000  0.250  0.651-  33 1.83  40 2.05  30 2.05
 138  0.849  0.125  0.608-  31 1.93  21 1.93  30 2.13
 139  0.150  0.125  0.608-  30 1.87  61 2.07  71 2.07
 140  0.752  0.250  0.673-  31 1.89  42 2.11  32 2.13
 141  0.750  0.250  0.757-  42 1.85  32 1.86
 142  0.094  0.125  0.721-  33 1.97  23 1.98  72 2.08
 143  0.907  0.125  0.721-  33 1.97  23 1.97  32 2.08
[...]
 229  0.500  0.500  0.434-  46 1.98  76 1.98  79 2.02
 230  0.348  0.375  0.393-  67 1.98  77 1.98  76 2.02
 231  0.652  0.375  0.393-  27 1.98  37 1.98  76 2.02
 232  0.250  0.500  0.458-  48 1.98  78 1.98  77 2.02
 233  0.250  0.500  0.542-  48 1.98  78 1.98  81 2.17
 234  0.598  0.375  0.500-  69 1.98  79 1.98  38 2.02
 235  0.402  0.375  0.500-  69 1.98  79 1.98  78 2.02
 236  0.501  0.500  0.567-  50 1.92  80 1.92  79 2.05
 237  0.500  0.500  0.651-  83 1.91  50 2.03  80 2.03
 238  0.349  0.375  0.609-  71 1.93  81 1.93  80 2.13
 239  0.651  0.375  0.608-  80 1.87  41 2.06  31 2.06
 240  0.250  0.500  0.673-  81 1.89  52 2.13  82 2.13
 241  0.252  0.500  0.757-  82 1.85  52 1.86
 242  0.596  0.372  0.718-  73 1.95  83 1.99  42 2.06
 243  0.406  0.374  0.719-  83 1.96  73 1.97  82 2.08

IMPORTANT INFORMATION: All symmetrisations will be switched off!
NOSYMM: (Re-)initialisation of all symmetry stuff for point group C_1.

                                     Primitive cell

  volume of cell :    4895.9617

  direct lattice vectors                    reciprocal lattice vectors
    13.251680751  0.000000000  0.000000000     0.075462126  0.000000000  0.000000000
     0.000000000 11.981436613  0.000000000     0.000000000  0.083462445  0.000000000
     0.000000000  0.000000000 30.836008487     0.000000000  0.000000000  0.032429619

  length of vectors
    13.251680751 11.981436613 30.836008487     0.075462126  0.083462445  0.032429619

  position of ions in fractional coordinates (direct lattice)
     0.481764245  0.540390638  0.805656768
     0.592153435  0.500872016  0.793788013
     0.520438073  0.490537000  0.787069101
     0.750000000  0.625000000  0.285126523
     0.000000000  0.750000000  0.285126523
     0.000000000  0.625000000  0.392563261
     0.750000000  0.750000000  0.392563261
     0.750000000  0.625000000  0.500000000
     0.000000000  0.750000000  0.500000000
     0.009390686  0.625085650  0.605221482
     0.757534768  0.750151113  0.611785260
     0.750664453  0.625325054  0.721600750
     0.000164746  0.750433103  0.710089723
     0.750000000  0.875000000  0.285126523
     0.000000000  0.000000000  0.285126523
     0.000000000  0.875000000  0.392563261
     0.750000000  0.000000000  0.392563261
     0.750000000  0.875000000  0.500000000
     0.000000000  0.000000000  0.500000000
     0.009507384  0.875063628  0.605236994
     0.757181219  0.000027815  0.611976310
     0.749572170  0.874872815  0.722205654
     0.000103617  0.999974971  0.710053756
     0.750000000  0.125000000  0.285126523
     0.000000000  0.250000000  0.285126523
     0.000000000  0.125000000  0.392563261
     0.750000000  0.250000000  0.392563261
     0.750000000  0.125000000  0.500000000
     0.000000000  0.250000000  0.500000000
     0.009649065  0.124949852  0.605248387
     0.757576875  0.249844127  0.611799880
     0.749426914  0.124455624  0.722205195
     0.000170914  0.249535007  0.710075573
     0.750000000  0.375000000  0.285126523
     0.000000000  0.500000000  0.285126523
     0.000000000  0.375000000  0.392563261
     0.750000000  0.500000000  0.392563261
     0.750000000  0.375000000  0.500000000
     0.000000000  0.500000000  0.500000000
     0.009342040  0.374983966  0.605189128
     0.757775484  0.500065434  0.611907013
     0.751037748  0.374084906  0.721678213
     0.000328891  0.500081748  0.710047777
     0.250000000  0.625000000  0.285126523
     0.500000000  0.750000000  0.285126523
     0.500000000  0.625000000  0.392563261
     0.250000000  0.750000000  0.392563261
     0.250000000  0.625000000  0.500000000
     0.500000000  0.750000000  0.500000000
     0.509679334  0.623123671  0.606235807
     0.257483643  0.749876779  0.611924220
     0.249806197  0.625370408  0.722110896
     0.500989487  0.750040563  0.709081532
     0.250000000  0.875000000  0.285126523
     0.500000000  0.000000000  0.285126523
     0.500000000  0.875000000  0.392563261
     0.250000000  0.000000000  0.392563261
     0.250000000  0.875000000  0.500000000
     0.500000000  0.000000000  0.500000000
     0.509546747  0.874169846  0.604418789
[...]
     0.500000000  0.500000000  0.434467643
     0.347509432  0.375000000  0.392563261
     0.652490568  0.375000000  0.392563261
     0.250000000  0.500000000  0.458095618
     0.250000000  0.500000000  0.541904382
     0.597509432  0.375000000  0.500000000
     0.402490568  0.375000000  0.500000000
     0.500684287  0.499853410  0.566601931
     0.500309054  0.500293425  0.651218227
     0.348938778  0.375064314  0.608543519
     0.650929002  0.375114212  0.608497596
     0.249838819  0.500325542  0.673176387
     0.252291984  0.500042066  0.757446024
     0.595589949  0.372170905  0.717816289
     0.406208668  0.373610388  0.719236252

  ion indices of the primitive-cell ions
   primitive index   ion index
                 1           1
                 2           2
                 3           3
                 4           4
                 5           5
                 6           6
                 7           7
                 8           8
                 9           9
                10          10
                11          11
                12          12
[...]
     10.03917      2.99349     18.86547        -0.002395      0.005448     -0.000341
      9.93117      1.49116     22.26993         0.001149      0.001128     -0.004483
      0.00226      2.98979     21.89590        -0.000029      0.003208     -0.003503
      9.93876      4.49304      8.79216        -0.001808     -0.000224     -3.341816
      0.00000      5.99072      8.79216         0.000466     -0.000059      2.735668
      0.00000      4.49304     12.10508         0.001745     -0.000130      0.488260
      9.93876      5.99072     12.10508        -0.004841      0.000114     -0.689508
      9.93876      4.49304     15.41800        -0.016432      0.010092      0.653628
      0.00000      5.99072     15.41800        -0.016109      0.000246     -0.701200
      0.12380      4.49285     18.66162         0.003689      0.000501      0.000564
     10.04180      5.99150     18.86877         0.000871     -0.004063     -0.003989
      9.95251      4.48207     22.25368        -0.002737      0.000976     -0.006376
      0.00436      5.99170     21.89504        -0.000551     -0.002990     -0.006417
      3.31292      7.48840      8.79216         0.001845     -0.000014     -3.340985
      6.62584      8.98608      8.79216        -0.000398      0.000358      2.740671
      6.62584      7.48840     12.10508        -0.002107      0.007782      0.504599
      3.31292      8.98608     12.10508         0.006009      0.000421     -0.683887
      3.31292      7.48840     15.41800         0.040415     -0.015420      0.674448
      6.62584      8.98608     15.41800        -0.026786     -0.031289     -0.598694
      6.75411      7.46592     18.69389        -0.000308     -0.004331     -0.000220
      3.41209      8.98460     18.86930         0.002162     -0.001152     -0.002758
      3.31035      7.49284     22.26702        -0.001055     -0.003849     -0.009497
      6.63895      8.98656     21.86524         0.004649     -0.009120     -0.006340
      3.31292     10.48376      8.79216         0.001936      0.000249     -3.341159
      6.62584      0.00000      8.79216        -0.000371      0.000048      2.740754
      6.62584     10.48376     12.10508        -0.002257      0.001266      0.507632
      3.31292      0.00000     12.10508         0.006384     -0.000013     -0.684411
      3.31292     10.48376     15.41800         0.036772      0.005310      0.666696
      6.62584      0.00000     15.41800        -0.031305     -0.001676     -0.731198
      6.75235     10.47381     18.63786        -0.005095     -0.002648     -0.002926
[...]
      6.62584      5.99072     13.39725         0.001971     -0.000449     -0.102423
      4.60508      4.49304     12.10508         0.415084      0.000271      0.049821
      8.64660      4.49304     12.10508        -0.413324      0.000334      0.050630
      3.31292      5.99072     14.12584        -0.009713      0.000878     -0.121612
      3.31292      5.99072     16.71017         0.001691     -0.000919     -0.040438
      7.91800      4.49304     15.41800        -0.437443      0.016859      0.084475
      5.33368      4.49304     15.41800         0.454130      0.016995      0.095599
      6.63491      5.98896     17.47174         0.000396     -0.000326      0.001620
      6.62994      5.99423     20.08097        -0.005102      0.000068     -0.007523
      4.62403      4.49381     18.76505        -0.001025     -0.003778     -0.001823
      8.62590      4.49441     18.76364        -0.001696     -0.001489      0.001489
      3.31078      5.99462     20.75807        -0.001520     -0.000035      0.001342
      3.34329      5.99122     23.35661         0.001884      0.001021      0.004130
      7.89257      4.45914     22.13459         0.003353     -0.005373     -0.007243
      5.38295      4.47639     22.17838        -0.003542     -0.004796     -0.001217
    total drift:                                0.003196     -0.000531      0.018894

  FREE ENERGIE OF THE ION-ELECTRON SYSTEM (eV)
  free  energy   TOTEN  =     -1579.00845165 eV

  energy  without entropy=    -1579.00845165  energy(sigma->0) =    -1579.00845165

 d Force = 0.7022522E-04[-0.532E-02, 0.546E-02]  d Energy = 0.9422889E-04-0.240E-04
 d Force =-0.4836428E+02[-0.484E+02,-0.483E+02]  d Ewald  =-0.4836400E+02-0.281E-03

 Finite differences progress:
  Degree of freedom:   9/  9
  Displacement:        2/  2
  Total:              18/ 18

 SECOND DERIVATIVES (NOT SYMMETRIZED)
               1X          1Y          1Z          2X          2Y          2Z          3X          3Y          3Z
  1X   -17.419338   14.868279   13.582433    1.790416   -2.807394   -2.688165   15.817102  -12.175670  -10.621181
  1Y    14.871840  -17.954403  -17.088708    0.802513   -0.102028   -0.255653  -15.772884   17.941788   17.275489
  1Z    13.585417  -17.083858  -17.658476    0.853739   -0.547029   -0.413113  -14.050654   17.123198   17.890010
  2X     1.791643    0.804978    0.857997  -42.543150   -4.018851   -8.389017   41.013415    3.100472    6.815231
  2Y    -2.807890   -0.103212   -0.545890   -4.009086   -2.962590   -2.760740    6.855528    2.851122    3.503240
  2Z    -2.688178   -0.254204   -0.412206   -8.377411   -2.762874   -5.311117   10.092796    2.936990    5.504419
  3X    15.809797  -15.766437  -14.048506   41.000344    6.860633   10.118406  -59.055869    9.240924    4.088205
  3Y   -12.175642   17.945643   17.120949    3.094719    2.851156    2.936018    9.242985  -22.020829  -20.294281
  3Z   -10.617898   17.272572   17.886081    6.792922    3.502689    5.499078    4.110124  -20.274160  -26.932277

 Eigenvectors and eigenvalues of the dynamical matrix

   1 f  =  112.140320 THz   704.598408 2PiTHz 3740.598424 cm-1   463.774888 meV
             X         Y         Z           dx          dy          dz
      6.384186  6.474656 24.843239    -0.491931    0.551327    0.533419
      7.847028  6.001166 24.477254    -0.303115   -0.054415   -0.084750
      6.896679  5.877338 24.270069     0.199040   -0.123323   -0.112513
      9.938761  7.488398  8.792164            0           0           0
      0.000000  8.986077  8.792164            0           0           0
      0.000000  7.488398 12.105084            0           0           0
      9.938761  8.986077 12.105084            0           0           0
      9.938761  7.488398 15.418004            0           0           0
      0.000000  8.986077 15.418004            0           0           0
      0.124442  7.489424 18.662615            0           0           0
     10.038609  8.987888 18.865015            0           0           0
      9.947566  7.492292 22.251287            0           0           0
      0.002183  8.991267 21.896333            0           0           0
      9.938761 10.483757  8.792164            0           0           0
      0.000000  0.000000  8.792164            0           0           0
      0.000000 10.483757 12.105084            0           0           0
      9.938761  0.000000 12.105084            0           0           0
      9.938761 10.483757 15.418004            0           0           0
      0.000000  0.000000 15.418004            0           0           0
      0.125989 10.484519 18.663093            0           0           0
     10.033924  0.000333 18.870907            0           0           0
      9.933091 10.482233 22.269940            0           0           0
      0.001373 11.981137 21.895224            0           0           0
      9.938761  1.497680  8.792164            0           0           0
      0.000000  2.995359  8.792164            0           0           0
      0.000000  1.497680 12.105084            0           0           0
      9.938761  2.995359 12.105084            0           0           0
      9.938761  1.497680 15.418004            0           0           0
      0.000000  2.995359 15.418004            0           0           0
      0.127866  1.497079 18.663444            0           0           0
     10.039167  2.993492 18.865466            0           0           0
      9.931166  1.491157 22.269926            0           0           0
      0.002265  2.989788 21.895896            0           0           0
      9.938761  4.493039  8.792164            0           0           0
      0.000000  5.990718  8.792164            0           0           0
      0.000000  4.493039 12.105084            0           0           0
      9.938761  5.990718 12.105084            0           0           0
      9.938761  4.493039 15.418004            0           0           0
      0.000000  5.990718 15.418004            0           0           0
      0.123798  4.492847 18.661617            0           0           0
     10.041799  5.991502 18.868770            0           0           0
      9.952512  4.482075 22.253676            0           0           0
      0.004358  5.991698 21.895039            0           0           0
      3.312920  7.488398  8.792164            0           0           0
      6.625840  8.986077  8.792164            0           0           0
      6.625840  7.488398 12.105084            0           0           0
      3.312920  8.986077 12.105084            0           0           0
      3.312920  7.488398 15.418004            0           0           0
      6.625840  8.986077 15.418004            0           0           0
      6.754108  7.465917 18.693893            0           0           0
      3.412091  8.984601 18.869300            0           0           0
      3.310352  7.492836 22.267018            0           0           0
      6.638953  8.986563 21.865244            0           0           0
      3.312920 10.483757  8.792164            0           0           0
      6.625840  0.000000  8.792164            0           0           0
      6.625840 10.483757 12.105084            0           0           0
      3.312920  0.000000 12.105084            0           0           0
      3.312920 10.483757 15.418004            0           0           0
      6.625840  0.000000 15.418004            0           0           0
      6.752351 10.473811 18.637863            0           0           0
[...]
      6.625840  5.990718 13.397248            0           0           0
      4.605084  4.493039 12.105084            0           0           0
      8.646597  4.493039 12.105084            0           0           0
      3.312920  5.990718 14.125840            0           0           0
      3.312920  5.990718 16.710168            0           0           0
      7.918004  4.493039 15.418004            0           0           0
      5.333677  4.493039 15.418004            0           0           0
      6.634908  5.988962 17.471742            0           0           0
      6.629936  5.994234 20.080971            0           0           0
      4.624025  4.493809 18.765053            0           0           0
      8.625903  4.494407 18.763637            0           0           0
      3.310784  5.994619 20.758073            0           0           0
      3.343293  5.991222 23.356612            0           0           0
      7.892568  4.459142 22.134589            0           0           0
      5.382948  4.476389 22.178375            0           0           0

[...]

   9 f  =    2.813228 THz    17.676031 2PiTHz   93.839175 cm-1    11.634570 meV
             X         Y         Z           dx          dy          dz
      6.384186  6.474656 24.843239     0.405967    0.107774    0.040102
      7.847028  6.001166 24.477254     0.268313   -0.117307   -0.202981
      6.896679  5.877338 24.270069     0.830699   -0.037030   -0.059835
      9.938761  7.488398  8.792164            0           0           0
      0.000000  8.986077  8.792164            0           0           0
      0.000000  7.488398 12.105084            0           0           0
      9.938761  8.986077 12.105084            0           0           0
      9.938761  7.488398 15.418004            0           0           0
      0.000000  8.986077 15.418004            0           0           0
      0.124442  7.489424 18.662615            0           0           0
     10.038609  8.987888 18.865015            0           0           0
      9.947566  7.492292 22.251287            0           0           0
      0.002183  8.991267 21.896333            0           0           0
      9.938761 10.483757  8.792164            0           0           0
      0.000000  0.000000  8.792164            0           0           0
      0.000000 10.483757 12.105084            0           0           0
      9.938761  0.000000 12.105084            0           0           0
      9.938761 10.483757 15.418004            0           0           0
      0.000000  0.000000 15.418004            0           0           0
      0.125989 10.484519 18.663093            0           0           0
     10.033924  0.000333 18.870907            0           0           0
      9.933091 10.482233 22.269940            0           0           0
      0.001373 11.981137 21.895224            0           0           0
      9.938761  1.497680  8.792164            0           0           0
      0.000000  2.995359  8.792164            0           0           0
      0.000000  1.497680 12.105084            0           0           0
      9.938761  2.995359 12.105084            0           0           0
      9.938761  1.497680 15.418004            0           0           0
      0.000000  2.995359 15.418004            0           0           0
      0.127866  1.497079 18.663444            0           0           0
     10.039167  2.993492 18.865466            0           0           0
      9.931166  1.491157 22.269926            0           0           0
      0.002265  2.989788 21.895896            0           0           0
      9.938761  4.493039  8.792164            0           0           0
      0.000000  5.990718  8.792164            0           0           0
      0.000000  4.493039 12.105084            0           0           0
      9.938761  5.990718 12.105084            0           0           0
      9.938761  4.493039 15.418004            0           0           0
      0.000000  5.990718 15.418004            0           0           0
      0.123798  4.492847 18.661617            0           0           0
     10.041799  5.991502 18.868770            0           0           0
      9.952512  4.482075 22.253676            0           0           0
      0.004358  5.991698 21.895039            0           0           0
      3.312920  7.488398  8.792164            0           0           0
      6.625840  8.986077  8.792164            0           0           0
      6.625840  7.488398 12.105084            0           0           0
      3.312920  8.986077 12.105084            0           0           0
      3.312920  7.488398 15.418004            0           0           0
      6.625840  8.986077 15.418004            0           0           0
      6.754108  7.465917 18.693893            0           0           0
      3.412091  8.984601 18.869300            0           0           0
      3.310352  7.492836 22.267018            0           0           0
      6.638953  8.986563 21.865244            0           0           0
      3.312920 10.483757  8.792164            0           0           0
      6.625840  0.000000  8.792164            0           0           0
      6.625840 10.483757 12.105084            0           0           0
      3.312920  0.000000 12.105084            0           0           0
      3.312920 10.483757 15.418004            0           0           0
      6.625840  0.000000 15.418004            0           0           0
      6.752351 10.473811 18.637863            0           0           0
[...]
      6.625840  5.990718 13.397248            0           0           0
      4.605084  4.493039 12.105084            0           0           0
      8.646597  4.493039 12.105084            0           0           0
      3.312920  5.990718 14.125840            0           0           0
      3.312920  5.990718 16.710168            0           0           0
      7.918004  4.493039 15.418004            0           0           0
      5.333677  4.493039 15.418004            0           0           0
      6.634908  5.988962 17.471742            0           0           0
      6.629936  5.994234 20.080971            0           0           0
      4.624025  4.493809 18.765053            0           0           0
      8.625903  4.494407 18.763637            0           0           0
      3.310784  5.994619 20.758073            0           0           0
      3.343293  5.991222 23.356612            0           0           0
      7.892568  4.459142 22.134589            0           0           0
      5.382948  4.476389 22.178375            0           0           0

 Finite differences POTIM=   1.0000000000000000E-002