 vasp.6.4.2 20Jul23 (build Nov 17 2023 15:39:20) complex
 executed on              LinuxNV date 2024.02.25  15:00:24
 OpenACC runtime initialized ...    4 GPUs detected

 INCAR:
   SYSTEM = Oxide-Surface
   ISMEAR = 0
   SIGMA = 0.05
   EDIFF = 1E-4
   ALGO = Normal
   ISTART = 2
   IBRION = -1
   NSW = 0
   ISYM = 0
   DIPOL = 0.5 0.5 0.5
   IDIPOL = 3
   LDIPOL = .TRUE.
   LHFCALC = .TRUE.
   HFSCREEN = 0.2
   GGA = PE
   ENCUT = 450
   PREC = Normal
   LASPH = .TRUE.
   LREAL = Auto
   ISPIN = 1
   NELM = 200
   NELMIN = 8
   NCORE = 1
   KPAR = 1
   LWAVE = .FALSE.
   LCHARG = .FALSE.

 POTCAR:    PAW_PBE H 15Jun2001
 POTCAR:    PAW_PBE O 08Apr2002
 POTCAR:    PAW_PBE Ti_pv 07Sep2000
 POTCAR:    PAW_PBE O 08Apr2002
 POTCAR:    PAW_PBE H 15Jun2001
   VRHFIN =H: ultrasoft test

   TITEL  = PAW_PBE H 15Jun2001
   POMASS =    1.000; ZVAL   =    1.000    mass and valenz
   ENMAX  =  250.000; ENMIN  =  200.000 eV

   TITEL  = PAW_PBE O 08Apr2002
   POMASS =   16.000; ZVAL   =    6.000    mass and valenz
   ENMAX  =  400.000; ENMIN  =  300.000 eV

   TITEL  = PAW_PBE Ti_pv 07Sep2000
   POMASS =   47.880; ZVAL   =   10.000    mass and valenz
   ENMAX  =  222.335; ENMIN  =  166.751 eV

   TITEL  = PAW_PBE O 08Apr2002
   POMASS =   16.000; ZVAL   =    6.000    mass and valenz
   ENMAX  =  400.000; ENMIN  =  300.000 eV

 Optimization of the real space projectors (new method)

 maximal supplied QI-value         = 34.20
 optimisation between [QCUT,QGAM] = [ 10.60, 21.55] = [ 31.48,130.03] Ry
 Optimized for a Real-space Cutoff    1.23 Angstroem

   l    n(q)    QCUT    max X(q) W(low)/X(q) W(high)/X(q)  e(spline)
   0      8    10.603    19.460    0.37E-03    0.59E-03    0.23E-06
   0      8    10.603    12.209    0.35E-03    0.56E-03    0.22E-06
   1      7    10.603     4.655    0.70E-04    0.28E-03    0.29E-06
 Optimization of the real space projectors (new method)

[...]

   l    n(q)    QCUT    max X(q) W(low)/X(q) W(high)/X(q)  e(spline)
   1      9    10.734     4.216    0.90E-04    0.17E-04    0.73E-07
   1      9    10.734     5.422    0.20E-03    0.95E-04    0.21E-06
   2      9    10.734    72.084    0.40E-03    0.60E-03    0.19E-06
   2      9    10.734    65.965    0.40E-03    0.59E-03    0.19E-06
   0      9    10.734    41.531    0.93E-04    0.36E-04    0.17E-06
   0      9    10.734    16.290    0.71E-04    0.26E-04    0.13E-06
 Optimization of the real space projectors (new method)

 maximal supplied QI-value         = 24.76
 optimisation between [QCUT,QGAM] = [ 10.64, 21.54] = [ 31.73,129.89] Ry
 Optimized for a Real-space Cutoff    1.23 Angstroem

   l    n(q)    QCUT    max X(q) W(low)/X(q) W(high)/X(q)  e(spline)
   0      8    10.645    20.381    0.38E-03    0.60E-03    0.15E-06
   0      8    10.645    15.268    0.40E-03    0.65E-03    0.17E-06
   1      7    10.645     5.964    0.30E-03    0.63E-03    0.18E-06
   1      7    10.645     5.382    0.24E-03    0.53E-03    0.16E-06
  PAW_PBE H 15Jun2001                   :
  PAW_PBE O 08Apr2002                   :
  PAW_PBE Ti_pv 07Sep2000               :
  PAW_PBE O 08Apr2002                   :

 POSCAR:  H  O Ti  O
  positions in direct lattice
 exchange correlation table for  LEXCH =        8
   RHO(1)=    0.500       N(1)  =     2000
   RHO(2)=  100.500       N(2)  =     4000

 ion  position               nearest neighbor table
   1  0.694  0.433  0.772-   3 0.98
   2  0.689  0.569  0.774-   3 0.98
   3  0.632  0.499  0.774-   2 0.98   1 0.98  51 2.30
   4  0.808  0.833  0.295-  88 1.94  54 1.94  56 1.94  53 1.99  55 1.99  21 3.05   7 3.05   5 3.05

   5  0.592  0.667  0.327-  52 1.94 119 1.94  55 1.94  57 1.94  56 1.99  58 1.99  36 3.05   6 3.05
                             4 3.05  10 3.08
   6  0.308  0.667  0.295- 124 1.94  58 1.94  60 1.94  52 1.99  59 1.99  39 3.05   5 3.05   7 3.05

   7  0.092  0.833  0.327-  53 1.94  91 1.94  59 1.94  61 1.94  60 1.99  54 1.99  22 3.05   4 3.05
                             6 3.05   8 3.08
   8  0.945  0.834  0.423-  62 1.92  96 1.93  64 1.94  54 1.98  63 1.98  61 2.00  11 2.99   9 3.04
                            25 3.05   7 3.08
   9  0.727  0.666  0.451-  57 1.89 127 1.93  63 1.94  65 1.96  66 1.99  64 2.00  10 3.01   8 3.04
                            40 3.05  14 3.10
  10  0.444  0.667  0.422-  66 1.93 132 1.93  68 1.93  58 1.97  67 1.99  57 2.00   9 3.01  11 3.05
                            43 3.05   5 3.08
  11  0.226  0.833  0.452-  61 1.90  99 1.94  67 1.94  62 1.97  69 1.97  68 2.01   8 2.99  26 3.05
                            10 3.05  12 3.11
  12  0.086  0.834  0.550-  70 1.92 104 1.93  72 1.94  71 1.97  69 2.01  62 2.01  15 2.95  13 3.04
                            29 3.05  11 3.11
  13  0.865  0.666  0.575-  65 1.86 135 1.93  71 1.94  74 1.95  72 2.01  73 2.01  14 2.98  12 3.04
                            44 3.05  18 3.17
  14  0.584  0.667  0.549- 140 1.93  74 1.93  76 1.93  66 1.97  75 1.98  65 2.02  13 2.98  15 3.05
                            47 3.06   9 3.10
  15  0.364  0.834  0.577-  69 1.86 107 1.94  75 1.94  70 1.95  77 2.00  76 2.02  12 2.95  30 3.05
                            14 3.05
  16  0.231  0.833  0.681-  78 1.86  80 1.93 112 1.94  79 2.00  77 2.10  70 2.10  19 2.85  33 3.07
                            17 3.09
  17  0.000  0.666  0.700-  73 1.78  81 1.84 143 1.97  79 1.98  80 2.07  18 2.86  16 3.09  48 3.10

[...]

  20  0.808  0.167  0.295-  88 1.94  86 1.94 120 1.94  85 1.99  87 1.99  21 3.05  23 3.05  37 3.05

[...]

  36  0.808  0.500  0.295-  56 1.94 120 1.94 118 1.94 119 1.99 117 1.99  37 3.05   5 3.05  39 3.05

  37  0.592  0.333  0.327- 116 1.94 119 1.94  87 1.94 121 1.94 120 1.99 122 1.99  36 3.05  38 3.05
                            20 3.05  42 3.08
  38  0.308  0.333  0.295- 124 1.94 122 1.94  92 1.94 123 1.99 116 1.99  39 3.05  37 3.05  23 3.05

  39  0.092  0.500  0.327- 117 1.94  59 1.94 123 1.94 125 1.94 124 1.99 118 1.99   6 3.05  38 3.05
                            36 3.05  40 3.07
  40  0.946  0.500  0.422- 126 1.93  64 1.93 128 1.94 118 1.97 125 1.98 127 2.00  43 2.99  41 3.05
                             9 3.05  39 3.07
  41  0.727  0.334  0.451- 121 1.89 127 1.93  95 1.94 129 1.96 130 1.99 128 2.00  42 3.01  24 3.04
                            40 3.05  46 3.10
  42  0.444  0.334  0.422- 130 1.93 132 1.93 100 1.93 122 1.97 131 1.99 121 2.01  41 3.01  27 3.05
                            43 3.05  37 3.08
  43  0.226  0.500  0.453- 125 1.92 131 1.94  67 1.94 126 1.96 133 1.97 132 2.01  40 2.99  42 3.05
                            10 3.05  44 3.07
  44  0.089  0.500  0.551- 134 1.92  72 1.93 136 1.93 133 1.98 135 2.00 126 2.01  47 2.96  45 3.05
                            13 3.05  43 3.07
  45  0.865  0.334  0.575- 129 1.86 135 1.93 103 1.94 138 1.95 136 2.01 137 2.01  46 2.98  28 3.04
                            44 3.05  50 3.16
  46  0.584  0.334  0.549- 140 1.93 138 1.93 108 1.93 130 1.97 139 1.98 129 2.02  45 2.98  31 3.05
                            47 3.06  41 3.10
  47  0.366  0.500  0.580- 133 1.92  75 1.94 139 1.94 134 1.94 141 2.00 140 2.03  44 2.96  46 3.06
                            14 3.06  48 3.14
  48  0.234  0.500  0.681- 142 1.86 144 1.93  80 1.93 143 2.03 141 2.05 134 2.10  51 2.87  17 3.10
                            49 3.10  47 3.14
  49  1.000  0.335  0.700- 137 1.78 145 1.84 143 1.97 111 1.98 144 2.07  50 2.86  32 3.09  48 3.10

  50  0.729  0.335  0.677- 145 1.90 147 1.92 115 1.94 146 1.99 138 2.03 137 2.10  49 2.86  35 3.08
                            51 3.08  45 3.16
  51  0.505  0.500  0.706- 142 1.82 141 1.86 146 1.98  82 1.98 147 2.11   3 2.30  48 2.87  50 3.08
                            18 3.08
  52  0.488  0.667  0.269-   5 1.94   6 1.99
  53  0.988  0.833  0.269-   7 1.94   4 1.99
  54  0.911  0.833  0.353-   4 1.94   8 1.98   7 1.99
  55  0.627  0.833  0.321-  21 1.94   5 1.94   4 1.99
  56  0.772  0.667  0.300-  36 1.94   4 1.94   5 1.99
  57  0.624  0.667  0.395-   9 1.89   5 1.94  10 2.00
  58  0.411  0.667  0.353-   6 1.94  10 1.97   5 1.99
  59  0.127  0.667  0.321-  39 1.94   7 1.94   6 1.99
  60  0.272  0.833  0.300-  22 1.94   6 1.94   7 1.99
  61  0.124  0.833  0.395-  11 1.90   7 1.94   8 2.00
  62  0.049  0.834  0.480-   8 1.92  11 1.97  12 2.01
  63  0.764  0.833  0.447-  25 1.94   9 1.94   8 1.98
  64  0.910  0.667  0.427-  40 1.93   8 1.94   9 2.00
  65  0.764  0.666  0.520-  13 1.86   9 1.96  14 2.02
  66  0.549  0.666  0.480-  10 1.93  14 1.97   9 1.99
  67  0.264  0.667  0.448-  43 1.94  11 1.94  10 1.99
  68  0.409  0.833  0.427-  10 1.93  26 1.93  11 2.01
  69  0.264  0.833  0.521-  15 1.86  11 1.97  12 2.01
  70  0.193  0.833  0.607-  12 1.92  15 1.95  16 2.10
  71  0.904  0.834  0.573-  29 1.94  13 1.94  12 1.97
  72  0.052  0.667  0.553-  44 1.93  12 1.94  13 2.01
  73  0.914  0.668  0.645-  17 1.78  13 2.01  18 2.10
  74  0.694  0.669  0.605-  14 1.93  13 1.95  18 2.03
  75  0.405  0.667  0.575-  47 1.94  15 1.94  14 1.98
  76  0.549  0.834  0.553-  30 1.93  14 1.93  15 2.02
  77  0.412  0.835  0.646-  19 1.78  15 2.00  16 2.10
  78  0.347  0.833  0.732-  19 1.84  16 1.86
  79  0.052  0.833  0.709-  33 1.98  17 1.98  16 2.00
  80  0.195  0.666  0.681-  16 1.93  48 1.93  17 2.07
  81  0.841  0.661  0.731-  17 1.84  18 1.89
  82  0.554  0.668  0.708-  19 1.97  51 1.98  18 1.99
  83  0.695  0.834  0.679-  34 1.93  18 1.94  19 2.06
  84  0.488  0.000  0.269-  21 1.94  22 1.99
  85  0.988  0.167  0.269-  23 1.94  20 1.99
  86  0.911  0.167  0.353-  20 1.94  24 1.98  23 1.99
  87  0.627  0.167  0.321-  21 1.94  37 1.94  20 1.99
  88  0.772  0.000  0.300-   4 1.94  20 1.94  21 1.99
  89  0.624  0.000  0.395-  25 1.89  21 1.94  26 2.00
  90  0.411  0.000  0.353-  22 1.94  26 1.98  21 1.99
  91  0.127  0.000  0.321-   7 1.94  23 1.94  22 1.99
  92  0.272  0.167  0.300-  22 1.94  38 1.94  23 1.99
  93  0.124  0.167  0.395-  27 1.90  23 1.94  24 2.00
  94  0.049  0.167  0.480-  24 1.92  27 1.97  28 2.01
  95  0.764  0.167  0.447-  25 1.94  41 1.94  24 1.98
  96  0.909  0.000  0.427-   8 1.93  24 1.93  25 2.00
  97  0.764  0.000  0.520-  29 1.86  25 1.97  30 2.01
  98  0.549  0.000  0.480-  26 1.92  25 1.98  30 2.00
  99  0.264  0.000  0.448-  27 1.94  11 1.94  26 1.99
 100  0.409  0.167  0.427-  42 1.93  26 1.93  27 2.01
 101  0.264  0.167  0.521-  31 1.86  27 1.97  28 2.01
 102  0.193  0.167  0.607-  28 1.92  31 1.95  32 2.10
 103  0.904  0.167  0.573-  29 1.94  45 1.94  28 1.97
 104  0.051  0.000  0.553-  12 1.93  28 1.93  29 2.03
 105  0.913  0.000  0.646-  33 1.78  29 2.01  34 2.09
 106  0.693  0.000  0.606-  30 1.92  29 1.94  34 2.09
 107  0.404  0.000  0.574-  15 1.94  31 1.94  30 1.98
 108  0.549  0.167  0.553-  30 1.93  46 1.93  31 2.02
 109  0.412  0.165  0.646-  35 1.78  31 2.00  32 2.10
 110  0.347  0.167  0.732-  35 1.84  32 1.86
 111  0.052  0.168  0.709-  33 1.98  49 1.98  32 2.00
[...]
 133  0.266  0.500  0.522-  47 1.92  43 1.97  44 1.98
 134  0.193  0.500  0.608-  44 1.92  47 1.94  48 2.10
 135  0.904  0.500  0.573-  45 1.93  13 1.93  44 2.00
 136  0.051  0.334  0.553-  44 1.93  28 1.94  45 2.01
 137  0.914  0.332  0.645-  49 1.78  45 2.01  50 2.10
 138  0.694  0.331  0.605-  46 1.93  45 1.95  50 2.03
 139  0.405  0.334  0.575-  47 1.94  31 1.94  46 1.98
[...]
   -.494E+02 -.676E+02 -.360E+03   0.540E+02 0.741E+02 0.360E+03   -.468E+01 -.654E+01 0.841E-01   0.994E-03 0.365E-03 -.155E-01
   0.141E+02 0.229E+01 -.218E+04   -.555E+02 -.403E+01 0.219E+04   0.366E+02 0.154E+01 -.932E+01   0.538E-02 0.237E-03 -.935E-01
   0.706E+01 -.116E+00 0.337E+04   -.160E+01 0.120E+00 -.337E+04   -.131E+01 -.928E-03 -.372E+01   0.419E-02 -.250E-04 0.116E+00
   0.472E+01 -.247E+00 0.277E+04   -.655E+01 0.252E+00 -.277E+04   0.176E-01 -.116E-02 0.324E-01   -.163E-02 0.612E-05 0.109E+00
   0.707E+01 0.911E-01 0.337E+04   -.164E+01 -.926E-01 -.337E+04   -.130E+01 0.556E-03 -.372E+01   0.421E-02 0.953E-04 0.116E+00
   0.298E+01 0.514E-01 0.277E+04   -.487E+01 -.573E-01 -.277E+04   0.284E-01 0.150E-02 0.294E-01   -.158E-02 0.130E-03 0.109E+00
   -.226E+00 -.216E+00 0.126E+04   0.347E-01 0.219E+00 -.126E+04   0.158E+00 -.211E-01 -.400E-02   -.528E-03 0.203E-03 0.770E-01
   0.160E+01 -.226E+01 0.804E+03   -.157E+01 0.223E+01 -.804E+03   -.419E-02 0.273E-01 -.947E-01   0.108E-02 0.373E-03 0.574E-01
   0.199E+01 -.424E+00 0.127E+04   -.216E+01 0.408E+00 -.127E+04   0.160E+00 0.143E-01 -.421E-01   -.595E-03 0.343E-03 0.767E-01
   -.644E+01 0.244E+00 0.792E+03   0.644E+01 -.247E+00 -.792E+03   0.452E-01 0.250E-02 -.787E-01   0.974E-03 0.305E-03 0.573E-01
   -.598E+01 -.236E+01 -.782E+03   0.566E+01 0.236E+01 0.782E+03   0.276E+00 0.398E-02 0.606E-01   -.441E-03 0.513E-03 -.179E-01
   -.141E+02 -.506E+01 -.117E+04   0.142E+02 0.510E+01 0.117E+04   0.122E-01 -.268E-01 -.130E+00   0.113E-02 0.651E-03 -.391E-01
   0.297E+01 -.236E+01 -.747E+03   -.324E+01 0.236E+01 0.747E+03   0.241E+00 0.673E-03 0.119E-01   -.196E-03 0.815E-03 -.179E-01
   -.121E+01 -.208E+01 -.120E+04   0.129E+01 0.210E+01 0.120E+04   0.119E-01 -.144E-01 -.149E+00   0.907E-05 0.825E-03 -.408E-01
   0.287E+02 -.128E+02 -.279E+04   -.295E+02 0.128E+02 0.279E+04   0.863E+00 0.310E-01 -.342E+00   0.187E-02 0.112E-02 -.106E+00
   -.923E+02 -.284E+02 -.318E+04   0.920E+02 0.282E+02 0.318E+04   0.404E+00 0.206E+00 0.109E+01   -.575E-02 0.740E-03 -.116E+00
   -.110E+02 -.548E+02 -.268E+04   0.102E+02 0.548E+02 0.269E+04   0.769E+00 -.258E-03 -.158E+00   0.517E-02 0.177E-02 -.104E+00
   -.589E+02 -.349E+02 -.318E+04   0.584E+02 0.349E+02 0.318E+04   0.467E+00 0.456E-02 0.110E+01   -.388E-02 0.277E-02 -.117E+00
   0.706E+01 0.126E+00 0.337E+04   -.160E+01 -.130E+00 -.337E+04   -.131E+01 0.103E-02 -.372E+01   0.410E-02 0.615E-04 0.116E+00
   0.463E+01 0.210E-01 0.277E+04   -.650E+01 -.217E-01 -.277E+04   0.263E-01 0.217E-03 0.259E-01   -.170E-02 0.246E-04 0.109E+00
   0.693E+01 0.107E-01 0.337E+04   -.147E+01 -.110E-01 -.337E+04   -.131E+01 0.107E-03 -.372E+01   0.412E-02 -.586E-04 0.116E+00
   0.299E+01 -.154E-01 0.277E+04   -.488E+01 0.195E-01 -.277E+04   0.284E-01 -.746E-03 0.291E-01   -.157E-02 -.151E-03 0.109E+00
   -.344E+00 0.943E-01 0.126E+04   0.158E+00 -.105E+00 -.126E+04   0.160E+00 0.173E-01 -.994E-02   -.531E-03 -.213E-03 0.771E-01
   -.203E+01 0.808E-02 0.799E+03   0.202E+01 -.112E-01 -.799E+03   0.702E-01 -.120E-02 -.896E-01   0.115E-02 -.484E-05 0.576E-01
   0.205E+01 -.343E-01 0.126E+04   -.222E+01 0.315E-01 -.126E+04   0.154E+00 -.460E-02 -.348E-01   -.723E-03 -.262E-04 0.768E-01
   -.636E+01 -.926E-01 0.792E+03   0.636E+01 0.962E-01 -.792E+03   0.482E-01 -.517E-02 -.775E-01   0.953E-03 -.313E-03 0.573E-01
   -.618E+01 0.228E+01 -.782E+03   0.587E+01 -.229E+01 0.782E+03   0.285E+00 0.555E-02 0.613E-01   -.478E-03 -.507E-03 -.179E-01
   -.117E+02 0.349E-01 -.119E+04   0.117E+02 -.351E-01 0.119E+04   0.585E-01 0.267E-02 -.146E+00   0.622E-03 -.228E-04 -.392E-01
   -.915E+00 0.995E-02 -.770E+03   0.602E+00 -.116E-01 0.770E+03   0.263E+00 0.548E-02 0.102E+00   -.592E-04 -.163E-04 -.175E-01
   -.111E+01 0.204E+01 -.120E+04   0.119E+01 -.206E+01 0.120E+04   0.144E-01 0.226E-01 -.150E+00   0.515E-04 -.836E-03 -.408E-01
   0.290E+02 0.124E+02 -.279E+04   -.299E+02 -.124E+02 0.279E+04   0.864E+00 -.162E-01 -.342E+00   0.182E-02 -.117E-02 -.106E+00
   -.767E+02 -.162E+00 -.319E+04   0.763E+02 0.160E+00 0.319E+04   0.393E+00 0.766E-02 0.106E+01   -.575E-02 -.118E-03 -.117E+00
   0.107E+02 0.684E-01 -.278E+04   -.115E+02 -.645E-01 0.278E+04   0.793E+00 0.611E-02 -.277E+00   0.345E-02 -.104E-03 -.104E+00
   -.591E+02 0.353E+02 -.318E+04   0.587E+02 -.353E+02 0.318E+04   0.471E+00 -.131E-01 0.110E+01   -.384E-02 -.291E-02 -.117E+00
   0.706E+01 -.357E-02 0.337E+04   -.159E+01 0.424E-02 -.337E+04   -.131E+01 -.845E-04 -.372E+01   0.404E-02 -.448E-04 0.116E+00
   0.471E+01 0.257E+00 0.277E+04   -.654E+01 -.262E+00 -.277E+04   0.171E-01 0.140E-02 0.326E-01   -.165E-02 -.316E-04 0.109E+00
   0.707E+01 -.993E-01 0.337E+04   -.165E+01 0.102E+00 -.337E+04   -.130E+01 -.654E-03 -.372E+01   0.427E-02 -.447E-04 0.116E+00
   0.198E+01 0.115E-01 0.277E+04   -.381E+01 -.120E-01 -.277E+04   0.113E-01 0.272E-03 0.320E-01   -.170E-02 0.144E-04 0.109E+00
   0.582E+00 -.624E-01 0.126E+04   -.748E+00 0.615E-01 -.126E+04   0.118E+00 0.207E-02 0.563E-01   -.627E-03 0.654E-05 0.773E-01
   0.183E+01 0.224E+01 0.805E+03   -.180E+01 -.221E+01 -.805E+03   -.122E-01 -.324E-01 -.879E-01   0.109E-02 -.364E-03 0.573E-01
   0.187E+01 0.323E+00 0.127E+04   -.204E+01 -.311E+00 -.127E+04   0.159E+00 -.136E-01 -.464E-01   -.609E-03 -.313E-03 0.767E-01
   -.922E+01 0.746E-01 0.775E+03   0.924E+01 -.724E-01 -.776E+03   0.434E-01 -.463E-02 -.169E-02   0.757E-03 0.893E-05 0.563E-01
   -.305E+01 -.362E-01 -.785E+03   0.283E+01 0.350E-01 0.785E+03   0.158E+00 0.165E-02 0.817E-01   -.994E-03 -.583E-05 -.185E-01
   -.139E+02 0.490E+01 -.116E+04   0.140E+02 -.494E+01 0.117E+04   0.106E-01 0.381E-01 -.127E+00   0.116E-02 -.629E-03 -.390E-01
   0.292E+01 0.237E+01 -.747E+03   -.320E+01 -.237E+01 0.747E+03   0.244E+00 -.591E-02 0.149E-01   -.207E-03 -.806E-03 -.179E-01
   -.187E+01 0.182E+00 -.124E+04   0.194E+01 -.178E+00 0.124E+04   0.910E-03 -.461E-02 -.377E-01   -.843E-04 0.945E-05 -.442E-01
   0.442E+02 0.312E-01 -.279E+04   -.448E+02 -.293E-01 0.279E+04   0.599E+00 -.655E-02 -.183E+00   0.118E-02 0.597E-04 -.106E+00
   -.922E+02 0.287E+02 -.318E+04   0.918E+02 -.285E+02 0.318E+04   0.399E+00 -.197E+00 0.110E+01   -.563E-02 -.618E-03 -.116E+00
   -.116E+02 0.552E+02 -.268E+04   0.109E+02 -.552E+02 0.268E+04   0.768E+00 0.717E-02 -.151E+00   0.516E-02 -.165E-02 -.104E+00
   0.280E+02 -.579E+00 -.314E+04   -.279E+02 0.568E+00 0.314E+04   0.583E-01 0.967E-02 0.732E+00   -.650E-02 0.160E-03 -.123E+00
   -.316E+02 -.469E-01 0.228E+04   0.369E+02 0.482E-01 -.229E+04   -.642E+01 -.147E-02 0.167E+02   -.324E-02 0.289E-05 0.763E-01
   -.320E+02 -.440E-01 0.228E+04   0.373E+02 0.433E-01 -.229E+04   -.641E+01 0.756E-03 0.167E+02   -.328E-02 0.237E-04 0.763E-01
   0.813E+02 0.614E-01 0.138E+04   -.863E+02 -.853E-01 -.138E+04   0.366E+01 0.216E-01 -.418E+01   -.260E-02 0.626E-04 0.596E-01
   0.744E+02 -.102E+00 0.169E+04   -.819E+02 0.106E+00 -.168E+04   0.712E+01 -.716E-02 -.254E+01   0.237E-02 0.483E-04 0.670E-01
   -.859E+02 -.118E+00 0.194E+04   0.934E+02 0.119E+00 -.194E+04   -.657E+01 -.299E-02 -.247E+00   0.256E-02 -.281E-05 0.697E-01
   -.684E+02 -.865E+00 0.106E+04   0.742E+02 0.897E+00 -.106E+04   -.532E+01 -.231E-01 0.411E+01   0.110E-02 0.112E-03 0.544E-01
   0.821E+02 0.627E-01 0.138E+04   -.871E+02 -.538E-01 -.138E+04   0.362E+01 -.871E-02 -.400E+01   -.252E-02 0.941E-04 0.595E-01
   0.733E+02 0.472E-01 0.169E+04   -.808E+02 -.542E-01 -.168E+04   0.714E+01 0.141E-01 -.255E+01   0.243E-02 0.104E-03 0.669E-01
   -.860E+02 0.993E-02 0.194E+04   0.936E+02 -.653E-02 -.194E+04   -.655E+01 -.806E-02 -.252E+00   0.264E-02 0.743E-04 0.698E-01
[...]
   0.872E+02 -.455E-01 -.108E+04   -.945E+02 0.550E-01 0.109E+04   0.660E+01 -.986E-02 -.717E+01   -.167E-02 0.171E-04 -.391E-01
   0.684E+02 -.173E+00 -.715E+03   -.747E+02 0.189E+00 0.718E+03   0.566E+01 -.118E-01 -.303E+01   -.163E-03 0.363E-05 -.221E-01
   -.826E+02 0.137E+01 -.459E+03   0.893E+02 -.145E+01 0.456E+03   -.610E+01 0.700E-01 0.266E+01   0.194E-03 -.342E-03 -.125E-01
   -.703E+02 0.154E+02 -.128E+04   0.730E+02 -.161E+02 0.127E+04   -.241E+01 0.596E+00 0.932E+01   0.203E-03 -.546E-03 -.536E-01
   0.802E+02 0.158E+02 -.104E+04   -.868E+02 -.166E+02 0.104E+04   0.596E+01 0.695E+00 -.532E+01   -.961E-04 -.821E-03 -.377E-01
   0.805E+02 0.203E+01 -.733E+03   -.872E+02 -.216E+01 0.736E+03   0.604E+01 0.113E+00 -.323E+01   -.507E-03 -.587E-03 -.233E-01
   -.719E+02 -.611E-01 -.463E+03   0.783E+02 0.668E-01 0.460E+03   -.580E+01 -.206E-02 0.215E+01   0.564E-03 0.780E-05 -.136E-01
   -.534E+02 -.458E+00 -.131E+04   0.589E+02 0.498E+00 0.130E+04   -.495E+01 -.374E-01 0.673E+01   -.105E-03 0.444E-04 -.563E-01
   0.109E+03 0.193E-02 -.227E+04   -.116E+03 -.117E-01 0.230E+04   0.595E+01 0.555E-02 -.203E+02   -.239E-02 0.969E-04 -.834E-01
   0.407E+02 -.140E-01 -.200E+04   -.446E+02 0.225E-01 0.201E+04   0.350E+01 -.716E-02 -.710E+01   -.269E-02 0.536E-04 -.736E-01
   -.491E+02 0.817E+01 -.166E+04   0.541E+02 -.806E+01 0.165E+04   -.455E+01 -.105E+00 0.299E+01   0.396E-05 -.624E-03 -.664E-01
   0.337E+01 0.391E+02 -.225E+04   -.873E+01 -.388E+02 0.227E+04   0.488E+01 -.244E+00 -.184E+02   0.521E-03 0.164E-03 -.798E-01
   0.835E+02 0.555E+02 -.196E+04   -.885E+02 -.555E+02 0.196E+04   0.456E+01 -.844E-02 -.656E+01   0.242E-03 -.179E-02 -.754E-01
   -.562E+02 -.306E+00 -.152E+04   0.597E+02 0.301E+00 0.151E+04   -.325E+01 0.492E-02 0.511E+01   0.327E-02 0.155E-04 -.651E-01
   -.438E+02 -.154E+01 0.801E+02   -.129E-11 -.576E-12 0.227E-10   0.393E+02 0.137E+01 -.720E+02   0.970E-02 0.321E-03 0.836E+00

 POSITION                                       TOTAL-FORCE (eV/Angst)
      7.12601      4.92762     21.55423        -0.296423      0.299048      0.039604
      7.07816      6.46372     21.59719        -0.273444     -0.323319      0.018258
      6.49485      5.67657     21.61376         0.459166      0.017066     -0.196821
      8.29921      9.47401      8.23548         4.294969      0.003381      2.055490
      6.08023      7.57921      9.11607        -1.869574      0.003217     -2.171147
      3.16233      7.57921      8.23548         4.258882     -0.000932      2.031200
      0.94335      9.47401      9.11607        -1.912091     -0.004516     -2.173082
      9.70804      9.47696     11.79939        -0.017554     -0.002048     -0.015623
      7.46680      7.57573     12.59376        -0.002784     -0.005727     -0.009902
      4.56313      7.57772     11.79452        -0.013448     -0.003795     -0.010858
      2.31691      9.47426     12.60946         0.000793     -0.000309     -0.009119
      0.88581      9.47973     15.36543        -0.007385      0.004472      0.004557
      8.89061      7.57665     16.05893        -0.014611      0.002812      0.003103
      6.00361      7.58012     15.33207        -0.014430     -0.003918      0.002313
      3.73970      9.47663     16.10029        -0.002292      0.002895      0.002723
      2.37420      9.46848     19.00448         0.133887     -0.008590      0.252747
      0.00061      7.57079     19.54914        -0.269181     -0.016548     -0.086945
      7.48719      7.56984     18.89699         0.089748     -0.015565      0.204666
      5.17131      9.48586     19.55488        -0.313851     -0.007541     -0.082367
      8.29921      1.89480      8.23548         4.294401     -0.003529      2.054804
      6.08023      0.00000      9.11607        -1.895994     -0.000626     -2.167460
      3.16233      0.00000      8.23548         4.285439     -0.000427      2.048449
      0.94335      1.89480      9.11607        -1.911498      0.003082     -2.172954
      9.70775      1.89443     11.79934        -0.013598     -0.003203     -0.016382
      7.45840      0.00121     12.59926        -0.001623     -0.002897     -0.013363
      4.56506      0.00071     11.79888        -0.010661     -0.002767     -0.010481
      2.31702      1.89600     12.60912        -0.000004     -0.001382     -0.006531
      0.88555      1.89426     15.36503        -0.002931     -0.005281      0.004380
      8.87554      0.00249     16.07756        -0.017997      0.000361     -0.007427
      6.01053      0.00188     15.34967        -0.013630      0.000177      0.004670
      3.73944      1.89581     16.10016        -0.003708     -0.003312      0.001357
      2.37400      1.90629     19.00429         0.132266      0.011322      0.251630
      0.02796      0.00320     19.54922        -0.304501      0.000216     -0.062566
      7.52089      0.00202     18.97289         0.120891      0.003265      0.249535
      5.17094      1.88638     19.55435        -0.309724      0.008134     -0.081979
      8.29921      5.68441      8.23548         4.301099      0.000403      2.045657
      6.08023      3.78960      9.11607        -1.867963     -0.003675     -2.171035
      3.16233      3.78960      8.23548         4.257801      0.001313      2.029902
      0.94335      5.68441      9.11607        -1.876558     -0.000256     -2.108015
      9.72335      5.68586     11.79347        -0.017007      0.000442     -0.026086
      7.46718      3.79564     12.59351        -0.006190      0.004440     -0.007161
      4.56290      3.79264     11.79430        -0.011932      0.002789     -0.012064
      2.32113      5.68515     12.63847         0.003474     -0.000304     -0.011253
      0.91611      5.68740     15.37096        -0.000469     -0.000048     -0.009610
      8.89151      3.79737     16.05804        -0.016240     -0.002629      0.002090
      6.00291      3.79240     15.33113        -0.010849      0.003418      0.001544
      3.76101      5.68639     16.18358        -0.003609      0.000734      0.003044
      2.40874      5.68700     19.01769         0.127132     -0.000453      0.228903
     10.27277      3.80414     19.54998        -0.271034      0.022161     -0.091168
      7.48558      3.80345     18.89296         0.083883      0.015780      0.201310
      5.18998      5.68612     19.72347        -0.225285     -0.002423      0.081462
      5.01563      7.57921      7.50000        -2.120746     -0.000464      1.556790
     10.15251      9.47401      7.50000        -2.113978     -0.000002      1.549988
      9.36381      9.47401      9.85155        -0.815615      0.000695     -0.347926
      6.44591      9.47401      8.97095         0.701211     -0.004127     -0.213365
      7.93353      7.57921      8.38059         0.021977     -0.002735     -1.119201
      6.41347      7.57921     11.02238        -0.304207      0.005851      0.575989
      4.22693      7.57921      9.85155        -0.825497     -0.001110     -0.332035
      1.30903      7.57921      8.97095         0.714189      0.009442     -0.221308
      2.79665      9.47401      8.38059         0.033908     -0.006190     -1.122220
[...]
      2.72799      5.68568     14.57069        -0.267818      0.000718      0.176370
      1.98509      5.68729     16.96420         0.269477     -0.001881     -0.227057
      9.29014      5.68673     16.00732         0.233280      0.002663     -0.100427
      0.52907      3.79466     15.44053        -0.265995      0.000262      0.096288
      9.38592      3.77763     18.00929        -0.123899      0.012840      0.343579
      7.13023      3.76182     16.89922         0.235165      0.022340     -0.173258
      4.15795      3.79366     16.04770         0.245698      0.001441     -0.108805
      5.65779      5.68618     15.46271        -0.259341      0.002366      0.095442
      4.24705      5.68812     18.11858        -0.228492     -0.003007      0.273241
      3.54204      5.68646     20.49770         0.243246     -0.002849     -0.673966
      0.52904      5.68717     19.77764         0.157233     -0.000103     -0.148434
      1.99939      3.79770     19.01108        -0.252523     -0.009807      0.174961
      8.63879      3.86148     20.39754         0.238663     -0.034517     -0.617279
      5.69334      3.77385     19.75785         0.182984     -0.042101     -0.143560
      7.11529      5.68720     18.85004        -0.187662     -0.000028      0.209204
    total drift:                                0.062324      0.022385      0.234951

  FREE ENERGIE OF THE ION-ELECTRON SYSTEM (eV)
  free  energy   TOTEN  =     -1592.43390280 eV

  energy  without entropy=    -1592.43390280  energy(sigma->0) =    -1592.43390280

     |            E. Caldeweyher, S. Ehlert & S. Grimme          |
     |          Mulliken Center for Theoretical Chemistry        |
     |                    University of Bonn                     |

Rational (Becke-Johnson) damping: hse06-D4-ATM
  s6         1.0000
  s8         1.1953
  s9         1.0000
  a1         0.3866
  a2         5.1913
 alp        16.0000

Dispersion energy:      -7.7443093691279E-01 Eh