 vasp.6.3.0 20Jan22 (build Apr  1 2022 16:44:48) complex
 executed on        HPECrayEX_GCC date 2022.11.13  10:34:19

 INCAR:
   SYSTEM = MgO-rocksalt
   ISMEAR = 0
   SIGMA = 0.05
   EDIFF = 1E-6
   ALGO = ALL
   ISTART = 0
   IBRION = -1
   NSW = 0
   ISYM = 0
   DIPOL = 0.5 0.5 0.5
   IDIPOL = 3
   LDIPOL = .TRUE.
   LHFCALC = .TRUE.
   GGA = B5
   AEXX = 0.2
   AGGAX = 0.72
   AGGAC = 0.81
   ALDAC = 0.19
   IVDW = 1
   VDW_S6 = 1.05
   VDW_C6 = 0.63 0.70
   VDW_R0 = 1.243 1.342
   ENCUT = 600
   PREC = Accurate
   LASPH = .TRUE.
   LREAL = .FALSE.
   ISPIN = 2
   MAGMOM = 0.0 0.0 0.0 0.0 0.0 0.0 0.0 0.0 0.0 0.0 0.0 0.0 0.0 0.0 0.0 0.0 0.0 0.0 0.0 0.0 0.0 0.0 0.0 0.0 0.0 0.0 0.0 0.0 0.0 0.0 0.0 0.0 0.0 0.0 0.0 0.0 0.0 0.0 0.0 0.0 0.0 0.0 0.0 0.0 0.0 0.0 0.0 0.0 0.0 0.0 0.0 0.0 0.0 0.0 0.0 0.0 0.0 0.0 0.0 0.0 0.0 0.0 0.0 0.0
   NELM = 200
   NELMIN = 8
   NCORE = 8
   KPAR = 1
   LWAVE = .FALSE.
   LCHARG = .FALSE.

 POTCAR:    PAW_PBE Mg_pv 13Apr2007
 POTCAR:    PAW_PBE O 08Apr2002
 POTCAR:    PAW_PBE Mg_pv 13Apr2007
   VRHFIN =Mg: p6s2

   TITEL  = PAW_PBE Mg_pv 13Apr2007
   POMASS =   24.305; ZVAL   =    8.000    mass and valenz
   ENMAX  =  403.929; ENMIN  =  302.947 eV

   TITEL  = PAW_PBE O 08Apr2002
   POMASS =   16.000; ZVAL   =    6.000    mass and valenz
   ENMAX  =  400.000; ENMIN  =  300.000 eV

  PAW_PBE Mg_pv 13Apr2007               :
  PAW_PBE O 08Apr2002                   :

 POSCAR: Mg  O
  positions in direct lattice
 exchange correlation table for  LEXCH =       12
   RHO(1)=    0.500       N(1)  =     2000
   RHO(2)=  100.500       N(2)  =     4000

 ion  position               nearest neighbor table
   1  0.250  0.000  0.351-  33 2.12  35 2.12  36 2.12  43 2.12  52 2.12
   2  0.500  0.250  0.351-  34 2.12  35 2.12  36 2.12  44 2.12  51 2.12
   3  0.250  0.250  0.450-  35 2.12  34 2.12  33 2.12  41 2.12  50 2.12  39 2.12
   4  0.500  0.000  0.450-  36 2.12  34 2.12  33 2.12  42 2.12  49 2.12  40 2.12
   5  0.250  0.000  0.550-  39 2.12  40 2.12  56 2.12  47 2.12  33 2.13  37 2.14
   6  0.500  0.250  0.549-  34 2.11  39 2.11  40 2.11  48 2.11  55 2.11  38 2.15
   7  0.248  0.250  0.649-  54 2.10  45 2.12  37 2.12  39 2.12  38 2.13
   8  0.500  0.998  0.649-  46 2.10  37 2.11  40 2.11  53 2.12  38 2.13
   9  0.250  0.500  0.351-  41 2.12  35 2.12  43 2.12  44 2.12  60 2.12
  10  0.500  0.750  0.351-  42 2.12  36 2.12  43 2.12  44 2.12  59 2.12
  11  0.250  0.750  0.450-  43 2.12  41 2.12  42 2.12  33 2.12  58 2.12  47 2.12
  12  0.500  0.500  0.450-  44 2.12  41 2.12  42 2.12  34 2.12  57 2.12  48 2.12
  13  0.250  0.500  0.550-  39 2.12  48 2.12  64 2.12  47 2.12  41 2.13  45 2.14
  14  0.500  0.750  0.550-  63 2.12  47 2.12  40 2.12  48 2.12  42 2.13  46 2.14
  15  0.250  0.750  0.649-  47 2.11  62 2.11  45 2.12  37 2.12  46 2.12
  16  0.500  0.502  0.649-  46 2.10  45 2.11  48 2.11  61 2.12  38 2.13
  17  0.750  0.000  0.351-  49 2.12  36 2.12  51 2.12  52 2.12  59 2.12
  18  0.000  0.250  0.351-  50 2.12  35 2.12  51 2.12  52 2.12  60 2.12
  19  0.750  0.250  0.450-  51 2.12  49 2.12  50 2.12  34 2.12  57 2.12  55 2.12
  20  0.000  0.000  0.450-  52 2.12  49 2.12  50 2.12  33 2.12  58 2.12  56 2.12
  21  0.750  0.000  0.550-  40 2.12  55 2.12  63 2.12  56 2.12  49 2.13  53 2.14
  22  0.000  0.250  0.550-  64 2.12  56 2.12  39 2.12  55 2.12  50 2.13  54 2.14
  23  0.753  0.250  0.649-  54 2.09  55 2.11  61 2.12  53 2.12  38 2.14
  24  1.000  1.000  0.649-  56 2.11  62 2.11  37 2.12  53 2.12  54 2.12
  25  0.750  0.500  0.351-  57 2.12  51 2.12  44 2.12  59 2.12  60 2.12
  26  0.000  0.750  0.351-  58 2.12  52 2.12  43 2.12  59 2.12  60 2.12
  27  0.750  0.750  0.450-  59 2.12  49 2.12  57 2.12  58 2.12  42 2.12  63 2.12
  28  0.000  0.500  0.450-  60 2.12  50 2.12  57 2.12  58 2.12  41 2.12  64 2.12
  29  0.750  0.500  0.550-  48 2.12  55 2.12  63 2.12  64 2.12  57 2.13  61 2.14
  30  1.000  0.750  0.550-  64 2.12  56 2.12  47 2.12  63 2.12  58 2.13  62 2.14
  31  0.750  0.750  0.649-  63 2.11  62 2.11  61 2.12  53 2.12  46 2.12
  32  1.000  0.500  0.649-  64 2.11  62 2.11  45 2.12  61 2.12  54 2.12
  33  0.250  0.000  0.450-   1 2.12   3 2.12   4 2.12  11 2.12  20 2.12   5 2.13
  34  0.500  0.250  0.450-   6 2.11   2 2.12   4 2.12   3 2.12  12 2.12  19 2.12
  35  0.250  0.250  0.351-   3 2.12   2 2.12   1 2.12   9 2.12  18 2.12
  36  0.500  0.000  0.351-   4 2.12   2 2.12   1 2.12  10 2.12  17 2.12
  37  0.250  0.000  0.650-   8 2.11   7 2.12  24 2.12  15 2.12   5 2.14
  38  0.500  0.250  0.650-   8 2.13  16 2.13   7 2.13  23 2.14   6 2.15
  39  0.250  0.250  0.550-   6 2.11  13 2.12   5 2.12   7 2.12  22 2.12   3 2.12
  40  0.500  0.000  0.550-   6 2.11   8 2.11  21 2.12   5 2.12  14 2.12   4 2.12
  41  0.250  0.500  0.450-   9 2.12   3 2.12  11 2.12  12 2.12  28 2.12  13 2.13
  42  0.500  0.750  0.450-  10 2.12   4 2.12  11 2.12  12 2.12  27 2.12  14 2.13
  43  0.250  0.750  0.351-  11 2.12   9 2.12  10 2.12   1 2.12  26 2.12
  44  0.500  0.500  0.351-  12 2.12   9 2.12  10 2.12   2 2.12  25 2.12
  45  0.250  0.500  0.650-  16 2.11   7 2.12  32 2.12  15 2.12  13 2.14
  46  0.500  0.750  0.651-   8 2.10  16 2.10  15 2.12  31 2.12  14 2.14
  47  0.250  0.750  0.550-  15 2.11  14 2.12  13 2.12   5 2.12  30 2.12  11 2.12
  48  0.500  0.500  0.550-   6 2.11  16 2.11  29 2.12  13 2.12  14 2.12  12 2.12
  49  0.750  0.000  0.450-  17 2.12   4 2.12  19 2.12  20 2.12  27 2.12  21 2.13
  50  0.000  0.250  0.450-  18 2.12   3 2.12  19 2.12  20 2.12  28 2.12  22 2.13
  51  0.750  0.250  0.351-  19 2.12  17 2.12  18 2.12   2 2.12  25 2.12
  52  0.000  0.000  0.351-  20 2.12  17 2.12  18 2.12   1 2.12  26 2.12
  53  0.750  0.000  0.651-  23 2.12   8 2.12  31 2.12  24 2.12  21 2.14
  54  0.000  0.250  0.650-  23 2.09   7 2.10  24 2.12  32 2.12  22 2.14
  55  0.750  0.250  0.550-  23 2.11   6 2.11  29 2.12  21 2.12  22 2.12  19 2.12
  56  1.000  0.000  0.550-  24 2.11  22 2.12   5 2.12  21 2.12  30 2.12  20 2.12
  57  0.750  0.500  0.450-  25 2.12  19 2.12  12 2.12  27 2.12  28 2.12  29 2.13
  58  0.000  0.750  0.450-  26 2.12  20 2.12  11 2.12  27 2.12  28 2.12  30 2.13
  59  0.750  0.750  0.351-  27 2.12  17 2.12  25 2.12  26 2.12  10 2.12
  60  0.000  0.500  0.351-  28 2.12  18 2.12  25 2.12  26 2.12   9 2.12
  61  0.750  0.500  0.651-  23 2.12  16 2.12  31 2.12  32 2.12  29 2.14
  62  1.000  0.750  0.651-  24 2.11  32 2.11  15 2.11  31 2.11  30 2.14
  63  0.750  0.750  0.550-  31 2.11  14 2.12  29 2.12  21 2.12  30 2.12  27 2.12
  64  1.000  0.500  0.550-  32 2.11  22 2.12  13 2.12  29 2.12  30 2.12  28 2.12

IMPORTANT INFORMATION: All symmetrisations will be switched off!
NOSYMM: (Re-)initialisation of all symmetry stuff for point group C_1.

                                     Primitive cell

  volume of cell :    1530.6606

  direct lattice vectors                    reciprocal lattice vectors
     8.467142631  0.000000000  0.000000000     0.118103597  0.000000000  0.000000000
     0.000000000  8.467142631  0.000000000     0.000000000  0.118103597  0.000000000
     0.000000000  0.000000000 21.350356973     0.000000000  0.000000000  0.046837624

  length of vectors
     8.467142631  8.467142631 21.350356973     0.118103597  0.118103597  0.046837624

  position of ions in fractional coordinates (direct lattice)
     0.250000000  0.000000000  0.351282183
     0.500000000  0.250000000  0.351282183
     0.250000000  0.250000000  0.450427394
     0.500000000  0.000000000  0.450427394
     0.249978678  0.000066729  0.550314449
     0.499919881  0.249999988  0.549325743
     0.248374243  0.250000003  0.649079851
     0.499648186  0.998073310  0.648939871
     0.250000000  0.500000000  0.351282183
     0.500000000  0.750000000  0.351282183
     0.250000000  0.750000000  0.450427394
     0.500000000  0.500000000  0.450427394
     0.249978665  0.499933270  0.550314446
     0.499993358  0.750000013  0.550138523
     0.249582962  0.749999996  0.648634103
     0.499648185  0.501926691  0.648939818
     0.750000000  0.000000000  0.351282183
     0.000000000  0.250000000  0.351282183
     0.750000000  0.250000000  0.450427394
     0.000000000  0.000000000  0.450427394
     0.749911756  0.000018658  0.550333295
     0.000182082  0.250000001  0.550107439
     0.753164553  0.250000004  0.648773017
     0.999999476  0.999624766  0.648686580
     0.750000000  0.500000000  0.351282183
     0.000000000  0.750000000  0.351282183
     0.750000000  0.750000000  0.450427394
     0.000000000  0.500000000  0.450427394
     0.749911769  0.499981342  0.550333292
     0.999997883  0.749999999  0.550204171
     0.750299763  0.749999997  0.648659551
     0.999999476  0.500375233  0.648686572
     0.250000000  0.000000000  0.450427394
     0.500000000  0.250000000  0.450427394
     0.250000000  0.250000000  0.351282183
     0.500000000  0.000000000  0.351282183
     0.250062552  0.000163815  0.650494809
     0.500457211  0.250000000  0.650175270
     0.250363032  0.250000002  0.549884784
     0.499950845  0.000353583  0.549888625
     0.250000000  0.500000000  0.450427394
     0.500000000  0.750000000  0.450427394
     0.250000000  0.750000000  0.351282183
     0.500000000  0.500000000  0.351282183
     0.250062549  0.499836183  0.650494808
     0.499932480  0.750000002  0.650601995
     0.250086521  0.749999998  0.549806878
     0.499950845  0.499646417  0.549888629
     0.750000000  0.000000000  0.450427394
     0.000000000  0.250000000  0.450427394
     0.750000000  0.250000000  0.351282183
     0.000000000  0.000000000  0.351282183
     0.749673868  0.000264028  0.650529340
     0.000297281  0.249999997  0.650484341
     0.749680081  0.250000003  0.549878958
     0.999951167  0.000067637  0.549813794
     0.750000000  0.500000000  0.450427394
     0.000000000  0.750000000  0.450427394
     0.750000000  0.750000000  0.351282183
     0.000000000  0.500000000  0.351282183
     0.749673875  0.499735972  0.650529339
     0.999954541  0.750000002  0.650668600
     0.749898319  0.749999998  0.549814199
     0.999951167  0.499932361  0.549813794

  ion indices of the primitive-cell ions
   primitive index   ion index
                 1           1
                 2           2
                 3           3
                 4           4
                 5           5
                 6           6
                 7           7
                 8           8
                 9           9
                10          10
                11          11
                12          12
                13          13
                14          14
                15          15
                16          16
                17          17
                18          18
                19          19
                20          20
                21          21
                22          22
                23          23
                24          24
                25          25
                26          26
                27          27
                28          28
                29          29
                30          30
                31          31
                32          32
                33          33
                34          34
                35          35
[...]
   0.50000000  0.75000000  0.45042739
   0.25000000  0.75000000  0.35128218
   0.50000000  0.50000000  0.35128218
   0.25006255  0.49983618  0.65049481
   0.49993248  0.75000000  0.65060199
   0.25008652  0.75000000  0.54980688
   0.49995085  0.49964642  0.54988863
   0.75000000  0.00000000  0.45042739
   0.00000000  0.25000000  0.45042739
   0.75000000  0.25000000  0.35128218
   0.00000000  0.00000000  0.35128218
   0.74967387  0.00026403  0.65052934
   0.00029728  0.25000000  0.65048434
   0.74968008  0.25000000  0.54987896
   0.99995117  0.00006764  0.54981379
   0.75000000  0.50000000  0.45042739
   0.00000000  0.75000000  0.45042739
   0.75000000  0.75000000  0.35128218
   0.00000000  0.50000000  0.35128218
   0.74967387  0.49973597  0.65052934
   0.99995454  0.75000000  0.65066860
   0.74989832  0.75000000  0.54981420
   0.99995117  0.49993236  0.54981379

 position of ions in cartesian coordinates  (Angst):
   2.11678566  0.00000000  7.50000000
   4.23357132  2.11678566  7.50000000
   2.11678566  2.11678566  9.61678566
   4.23357132  0.00000000  9.61678566
   2.11660512  0.00056500 11.74940992
   4.23289294  2.11678556 11.72830070
   2.10302014  2.11678568 13.85808652
   4.23059246  8.45082907 13.85509791
   2.11678566  4.23357132  7.50000000
   4.23357132  6.35035697  7.50000000
   2.11678566  6.35035697  9.61678566
   4.23357132  4.23357132  9.61678566
   2.11660501  4.23300631 11.74940987
   4.23351508  6.35035708 11.74565384
   2.11325453  6.35035694 13.84856964
   4.23059245  4.24988488 13.85509677
   6.35035697  0.00000000  7.50000000
   0.00000000  2.11678566  7.50000000
   6.35035697  2.11678566  9.61678566
   0.00000000  0.00000000  9.61678566
   6.34960980  0.00015798 11.74981231
   0.00154172  2.11678567 11.74499019
   6.37715169  2.11678569 13.85153551
   8.46713820  8.46396547 13.84969005
   6.35035697  4.23357132  7.50000000
   0.00000000  6.35035697  7.50000000
   6.35035697  6.35035697  9.61678566
   0.00000000  4.23357132  9.61678566
   6.34960991  4.23341333 11.74981224
   8.46712470  6.35035696 11.74705547
   6.35289511  6.35035695 13.84911297
   8.46713820  4.23674847 13.84968988
   2.11678566  0.00000000  9.61678566
   4.23357132  2.11678566  9.61678566
   2.11678566  2.11678566  7.50000000
   4.23357132  0.00000000  7.50000000
   2.11731529  0.00138705 13.88829638
   4.23744258  2.11678566 13.88147411
   2.11985950  2.11678568 11.74023644
   4.23315511  0.00299384 11.74031844
   2.11678566  4.23357132  9.61678566
   4.23357132  6.35035697  9.61678566
   2.11678566  6.35035697  7.50000000
   4.23357132  4.23357132  7.50000000
   2.11731527  4.23218425 13.88829636
   4.23299961  6.35035699 13.89058484
   2.11751825  6.35035695 11.73857310
   4.23315511  4.23057748 11.74031853
   6.35035697  0.00000000  9.61678566
   0.00000000  2.11678566  9.61678566
   6.35035697  2.11678566  7.50000000
   0.00000000  0.00000000  7.50000000
   6.34759557  0.00223556 13.88903362
   0.00251712  2.11678563 13.88807289
   6.34764818  2.11678568 11.74011204
   8.46672915  0.00057270 11.73872077
   6.35035697  4.23357132  9.61678566
   0.00000000  6.35035697  9.61678566
   6.35035697  6.35035697  7.50000000
   0.00000000  4.23357132  7.50000000
   6.34759562  4.23133575 13.88903360
   8.46675772  6.35035699 13.89200689
   6.34949602  6.35035696 11.73872942
   8.46672915  4.23299861 11.73872076

--------------------------------------- Iteration      FINAL  ---------------------------------------

--------------------OUTCAR has been truncated-------------------------

[...]

--------------------OUTCAR has been truncated-------------------------

  DFT-D2 method for vdW energy calculation

  Parameters of vdW forcefield:
         C6(Jnm^6/mol)     R0(A)
   Mg       0.630          1.243
   O        0.700          1.342

  vdW correction parametrized for the method g»ÿ      

  IVDW =   1
  VDW_RADIUS =    50.000 A
  VDW_S6 =     1.050
  VDW_SR =     1.000
  VDW_D =    20.000
  LVDW_EWALD = F

  Number of pair interactions contributing to vdW energy:  719106
  Edisp (eV):   -5.01470

 VOLUME and BASIS-vectors are now :
  energy-cutoff  :      600.00
  volume of cell :     1530.66
      direct lattice vectors                 reciprocal lattice vectors
     8.467142631  0.000000000  0.000000000     0.118103597  0.000000000  0.000000000
     0.000000000  8.467142631  0.000000000     0.000000000  0.118103597  0.000000000
     0.000000000  0.000000000 21.350356973     0.000000000  0.000000000  0.046837624

  length of vectors
     8.467142631  8.467142631 21.350356973     0.118103597  0.118103597  0.046837624

 FORCES acting on ions:
    Electron-Ion                     Ewald-Force                    Non-Local-Force
   0.569E-01 0.789E-01 0.205E+04   -.599E-01 -.822E-01 -.205E+04   0.200E-02 0.217E-02 -.638E+01
   -.182E-01 0.751E-05 0.205E+04   0.187E-01 -.272E-06 -.205E+04   -.294E-03 -.618E-05 -.635E+01
   0.714E+00 0.972E-05 0.680E+03   -.770E+00 -.665E-05 -.680E+03   0.354E-01 -.168E-05 0.404E+00
   -.749E-01 0.815E+00 0.679E+03   0.757E-01 -.879E+00 -.680E+03   -.624E-03 0.396E-01 0.399E+00
   -.464E+00 -.294E+00 -.686E+03   0.611E+00 0.442E+00 0.686E+03   -.970E-01 -.101E+00 -.273E+00
   -.362E+00 0.794E-05 -.681E+03   0.375E+00 -.864E-05 0.682E+03   0.306E-02 0.599E-05 -.403E+00
   -.830E+01 0.128E-04 -.204E+04   0.864E+01 -.781E-05 0.204E+04   -.392E-01 -.589E-05 0.564E+01
   -.863E+00 -.803E+01 -.204E+04   0.912E+00 0.842E+01 0.204E+04   -.577E-02 -.727E-01 0.561E+01
   0.569E-01 -.789E-01 0.205E+04   -.599E-01 0.822E-01 -.205E+04   0.199E-02 -.216E-02 -.638E+01
   -.128E-01 0.244E-05 0.205E+04   0.134E-01 0.252E-06 -.205E+04   -.394E-03 -.750E-05 -.638E+01
   0.555E-01 -.129E-05 0.679E+03   -.462E-01 0.603E-05 -.680E+03   -.612E-02 -.416E-05 0.439E+00
   -.749E-01 -.815E+00 0.679E+03   0.757E-01 0.879E+00 -.680E+03   -.621E-03 -.395E-01 0.399E+00
   -.464E+00 0.294E+00 -.686E+03   0.611E+00 -.442E+00 0.686E+03   -.970E-01 0.101E+00 -.273E+00
   -.185E+00 -.645E-06 -.684E+03   0.184E+00 0.838E-05 0.684E+03   0.581E-03 -.117E-05 -.804E-01
   -.344E+00 -.415E-05 -.204E+04   0.229E+00 0.468E-05 0.203E+04   0.106E+00 -.149E-05 0.557E+01
   -.863E+00 0.803E+01 -.204E+04   0.912E+00 -.842E+01 0.204E+04   -.577E-02 0.727E-01 0.561E+01
   -.578E-01 0.733E-01 0.205E+04   0.606E-01 -.769E-01 -.205E+04   -.179E-02 0.231E-02 -.639E+01
   0.193E-01 0.116E-05 0.205E+04   -.195E-01 -.186E-05 -.205E+04   0.903E-04 0.603E-06 -.638E+01
   -.722E+00 0.133E-04 0.679E+03   0.786E+00 -.737E-05 -.680E+03   -.397E-01 -.800E-05 0.394E+00
   0.735E-01 0.146E+00 0.679E+03   -.807E-01 -.141E+00 -.680E+03   0.425E-02 -.299E-02 0.440E+00
   0.577E+00 -.247E+00 -.686E+03   -.725E+00 0.392E+00 0.686E+03   0.980E-01 -.952E-01 -.293E+00
   0.153E+00 0.302E-04 -.683E+03   -.119E+00 -.332E-04 0.683E+03   -.329E-01 0.130E-05 -.792E-01
   0.103E+02 0.801E-05 -.204E+04   -.107E+02 -.671E-05 0.203E+04   -.397E-01 -.360E-05 0.561E+01
   0.376E+00 0.135E-01 -.204E+04   -.356E+00 -.175E+00 0.203E+04   -.197E-01 0.138E+00 0.558E+01
   -.578E-01 -.733E-01 0.205E+04   0.606E-01 0.769E-01 -.205E+04   -.180E-02 -.229E-02 -.639E+01
   0.132E-01 0.456E-05 0.205E+04   -.138E-01 0.183E-05 -.205E+04   0.398E-03 -.540E-05 -.637E+01
   -.641E-01 -.984E-06 0.679E+03   0.551E-01 0.668E-05 -.680E+03   0.620E-02 -.259E-05 0.439E+00
   0.735E-01 -.146E+00 0.679E+03   -.807E-01 0.141E+00 -.680E+03   0.426E-02 0.299E-02 0.440E+00
   0.577E+00 0.247E+00 -.686E+03   -.725E+00 -.392E+00 0.686E+03   0.980E-01 0.952E-01 -.293E+00
   0.159E+00 -.257E-04 -.684E+03   -.168E+00 0.281E-04 0.684E+03   0.470E-02 -.945E-05 -.110E+00
   0.435E+00 -.752E-06 -.204E+04   -.328E+00 0.364E-05 0.203E+04   -.103E+00 -.149E-06 0.556E+01
   0.376E+00 -.135E-01 -.204E+04   -.356E+00 0.175E+00 0.203E+04   -.197E-01 -.138E+00 0.558E+01
   0.123E+00 0.210E+00 0.509E+03   -.118E+00 -.211E+00 -.509E+03   -.701E-02 0.108E-02 -.135E+00
   -.831E-01 0.343E-05 0.511E+03   0.860E-01 0.388E-05 -.511E+03   -.305E-02 0.758E-07 0.407E-01
   0.784E-01 0.187E-05 0.154E+04   -.849E-01 -.850E-06 -.155E+04   0.806E-02 -.707E-07 0.314E+01
   -.113E-01 0.930E-01 0.154E+04   0.120E-01 -.100E+00 -.155E+04   -.932E-03 0.864E-02 0.313E+01
   -.109E+01 -.117E+01 -.155E+04   0.124E+01 0.134E+01 0.155E+04   -.190E+00 -.216E+00 -.432E+01
   -.111E+01 -.156E-04 -.154E+04   0.134E+01 0.115E-04 0.155E+04   -.241E+00 0.194E-05 -.391E+01
   -.672E+00 0.200E-04 -.510E+03   0.866E+00 -.186E-04 0.510E+03   -.257E+00 0.622E-06 0.868E-01
   -.195E+00 -.457E+00 -.510E+03   0.208E+00 0.656E+00 0.510E+03   -.145E-01 -.265E+00 0.115E+00
   0.123E+00 -.210E+00 0.509E+03   -.118E+00 0.211E+00 -.509E+03   -.701E-02 -.107E-02 -.135E+00
   -.378E-01 0.793E-05 0.509E+03   0.386E-01 -.421E-05 -.509E+03   -.108E-02 -.160E-05 -.898E-01
   0.188E-01 0.153E-05 0.154E+04   -.188E-01 0.830E-06 -.155E+04   -.113E-03 -.843E-06 0.313E+01
   -.113E-01 -.930E-01 0.154E+04   0.120E-01 0.100E+00 -.155E+04   -.932E-03 -.864E-02 0.313E+01
   -.109E+01 0.117E+01 -.155E+04   0.124E+01 -.134E+01 0.155E+04   -.190E+00 0.216E+00 -.433E+01
   -.360E+00 0.330E-04 -.155E+04   0.391E+00 -.150E-04 0.155E+04   -.338E-01 0.333E-05 -.435E+01
   -.259E-01 -.147E-04 -.507E+03   0.601E-01 0.153E-04 0.506E+03   -.475E-01 -.670E-06 0.443E+00
   -.195E+00 0.457E+00 -.510E+03   0.208E+00 -.656E+00 0.510E+03   -.145E-01 0.265E+00 0.115E+00
   -.135E+00 0.175E+00 0.509E+03   0.137E+00 -.173E+00 -.508E+03   -.178E-02 -.286E-02 -.142E+00
   0.967E-01 0.128E-04 0.509E+03   -.107E+00 -.825E-05 -.509E+03   0.123E-01 -.339E-07 -.816E-01
   -.792E-01 0.601E-05 0.154E+04   0.855E-01 -.915E-06 -.155E+04   -.770E-02 0.131E-05 0.313E+01
   0.120E-01 0.332E-01 0.154E+04   -.125E-01 -.337E-01 -.155E+04   0.612E-03 0.651E-03 0.313E+01
   0.172E+01 -.956E+00 -.155E+04   -.200E+01 0.115E+01 0.155E+04   0.343E+00 -.245E+00 -.438E+01
   -.101E+01 0.407E-05 -.155E+04   0.115E+01 -.262E-05 0.155E+04   -.131E+00 -.578E-06 -.429E+01
   0.903E+00 0.161E-04 -.509E+03   -.114E+01 -.187E-04 0.509E+03   0.307E+00 0.632E-06 0.144E+00
   0.152E+00 0.166E+00 -.507E+03   -.169E+00 -.139E+00 0.506E+03   0.188E-01 -.370E-01 0.426E+00
   -.135E+00 -.175E+00 0.509E+03   0.137E+00 0.173E+00 -.508E+03   -.178E-02 0.286E-02 -.142E+00
   0.402E-01 -.326E-05 0.509E+03   -.415E-01 0.772E-05 -.509E+03   0.152E-02 -.209E-05 -.741E-01
   -.192E-01 -.101E-05 0.154E+04   0.191E-01 0.894E-06 -.155E+04   0.168E-03 0.814E-06 0.313E+01
   0.120E-01 -.332E-01 0.154E+04   -.125E-01 0.337E-01 -.155E+04   0.610E-03 -.653E-03 0.313E+01
   0.172E+01 0.956E+00 -.155E+04   -.200E+01 -.115E+01 0.155E+04   0.343E+00 0.245E+00 -.438E+01
   0.254E+00 -.540E-05 -.155E+04   -.269E+00 0.122E-05 0.155E+04   0.170E-01 0.299E-06 -.447E+01
   0.207E-02 -.102E-04 -.507E+03   -.208E-01 0.151E-04 0.507E+03   0.298E-01 -.114E-05 0.433E+00
   0.152E+00 -.166E+00 -.507E+03   -.169E+00 0.139E+00 0.506E+03   0.188E-01 0.370E-01 0.426E+00
   0.213E+00 0.189E-05 0.144E+02   0.592E-12 -.863E-13 -.182E-11   -.197E+00 -.626E-05 -.127E+02

 POSITION                                       TOTAL-FORCE (eV/Angst)
      2.11679      0.00000      7.50000        -0.000800     -0.000897      0.512182
      4.23357      2.11679      7.50000         0.000171      0.000002      0.504624
      2.11679      2.11679      9.61679        -0.016366      0.000002      0.034458
      4.23357      0.00000      9.61679         0.000080     -0.018714      0.038593
      2.11661      0.00057     11.74941         0.037553      0.035004     -0.049464
      4.23289      2.11679     11.72830         0.015178      0.000008      0.285422
      2.10302      2.11679     13.85809         0.269798     -0.000000     -0.240943
      4.23059      8.45083     13.85510         0.039187      0.290399     -0.212201
      2.11679      4.23357      7.50000        -0.000800      0.000905      0.512176
      4.23357      6.35036      7.50000         0.000207     -0.000005      0.511537
      2.11679      6.35036      9.61679         0.002431      0.000000      0.027220
      4.23357      4.23357      9.61679         0.000079      0.018709      0.038592
      2.11661      4.23301     11.74941         0.037552     -0.035005     -0.049461
      4.23352      6.35036     11.74565        -0.000409      0.000006     -0.065466
      2.11325      6.35036     13.84857         0.000263     -0.000001     -0.152819
      4.23059      4.24988     13.85510         0.039180     -0.290414     -0.212198
      6.35036      0.00000      7.50000         0.000775     -0.000943      0.512779
      0.00000      2.11679      7.50000        -0.000059     -0.000000      0.510911
      6.35036      2.11679      9.61679         0.018970     -0.000002      0.040685
      0.00000      0.00000      9.61679        -0.002339      0.000896      0.027176
      6.34961      0.00016     11.74981        -0.038370      0.037996     -0.044982
      0.00154      2.11679     11.74499        -0.001004     -0.000002     -0.072412
      6.37715      2.11679     13.85154        -0.375138     -0.000002     -0.190731
      8.46714      8.46397     13.84969        -0.000754     -0.009891     -0.162502
      6.35036      4.23357      7.50000         0.000771      0.000947      0.512779
      0.00000      6.35036      7.50000        -0.000143      0.000000      0.509589
      6.35036      6.35036      9.61679        -0.002048      0.000003      0.027841
      0.00000      4.23357      9.61679        -0.002338     -0.000900      0.027177
      6.34961      4.23341     11.74981        -0.038360     -0.038001     -0.044982
      8.46712      6.35036     11.74706        -0.003651     -0.000009     -0.068693
      6.35290      6.35036     13.84911        -0.004626      0.000004     -0.151403
      8.46714      4.23675     13.84969        -0.000751      0.009895     -0.162519
      2.11679      0.00000      9.61679        -0.002393     -0.000101      0.051862
      4.23357      2.11679      9.61679        -0.000480      0.000008      0.011098
      2.11679      2.11679      7.50000         0.002689      0.000001     -0.391478
      4.23357      0.00000      7.50000        -0.000300      0.002836     -0.391805
      2.11732      0.00139     13.88830        -0.070467     -0.071898     -0.011426
      4.23744      2.11679     13.88147        -0.047880     -0.000002      0.035443
      2.11986      2.11679     11.74024        -0.098699      0.000002     -0.013483
      4.23316      0.00299     11.74032        -0.003638     -0.104310     -0.019318
      2.11679      4.23357      9.61679        -0.002390      0.000094      0.051865
      4.23357      6.35036      9.61679        -0.000337      0.000002      0.050520
      2.11679      6.35036      7.50000        -0.000053      0.000001     -0.393227
      4.23357      4.23357      7.50000        -0.000301     -0.002845     -0.391809
      2.11732      4.23218     13.88830        -0.070481      0.071893     -0.011434
      4.23300      6.35036     13.89058        -0.007377      0.000023     -0.036320
      2.11752      6.35036     11.73857        -0.019957     -0.000000      0.061346
      4.23316      4.23058     11.74032        -0.003644      0.104305     -0.019323
      6.35036      0.00000      9.61679        -0.000156     -0.001122      0.051396
      0.00000      2.11679      9.61679         0.003249      0.000005      0.050216
      6.35036      2.11679      7.50000        -0.002505      0.000007     -0.391690
      0.00000      0.00000      7.50000         0.000223      0.000173     -0.393294
      6.34760      0.00224     13.88903         0.104590     -0.086700     -0.026009
      0.00252      2.11679     13.88807        -0.001046      0.000001     -0.016268
      6.34765      2.11679     11.74011         0.114395     -0.000002     -0.024717
      8.46673      0.00057     11.73872         0.004246     -0.015786      0.059818
      6.35036      4.23357      9.61679        -0.000157      0.001113      0.051401
      0.00000      6.35036      9.61679         0.000471      0.000002      0.061946
      6.35036      6.35036      7.50000         0.000122      0.000001     -0.393615
      0.00000      4.23357      7.50000         0.000222     -0.000175     -0.393308
      6.34760      4.23134     13.88903         0.104605      0.086699     -0.026016
      8.46676      6.35036     13.89201         0.003584     -0.000004     -0.064451
      6.34950      6.35036     11.73873         0.015380      0.000004      0.059296
      8.46673      4.23300     11.73872         0.004246      0.015787      0.059817
    total drift:                               -0.001443     -0.000005      0.016883

  FREE ENERGIE OF THE ION-ELECTRON SYSTEM (eV)
  free  energy   TOTEN  =      -438.17259140 eV

  energy  without entropy=     -438.17259140  energy(sigma->0) =     -438.17259140