 vasp.6.3.0 20Jan22 (build Apr  1 2022 16:44:48) complex
 executed on        HPECrayEX_GCC date 2023.01.23  22:44:30

 INCAR:
   SYSTEM = MgO-rocksalt
   ISMEAR = 0
   SIGMA = 0.05
   EDIFF = 1E-8
   ALGO = ALL
   ISTART = 0
   IBRION = 5
   POTIM = 0.01
   NFREE = 2
   ISYM = 0
   DIPOL = 0.5 0.5 0.5
   IDIPOL = 3
   LDIPOL = .TRUE.
   GGA = RE
   AGGAC = 0.0
   LUSE_VDW = .TRUE.
   LASPH = .TRUE.
   ENCUT = 600
   PREC = Accurate
   LASPH = .TRUE.
   LREAL = .FALSE.
   ISPIN = 2
   MAGMOM = 1.0 0.0 0.0 0.0 0.0 0.0 0.0 0.0 0.0 0.0 0.0 0.0 0.0 0.0 0.0 0.0 0.0 0.0 0.0 0.0 0.0 0.0 0.0 0.0 0.0 0.0 0.0 0.0 0.0 0.0 0.0 0.0 0.0 0.0 0.0 0.0 0.0 0.0 0.0 0.0 0.0 0.0 0.0 0.0 0.0 0.0 0.0 0.0 0.0 0.0 0.0 0.0 0.0 0.0 0.0 0.0 0.0 0.0 0.0 0.0 0.0 0.0 0.0 0.0 0.0 0.0
   NELM = 200
   NELMIN = 8
   NCORE = 8
   KPAR = 1
   LWAVE = .FALSE.
   LCHARG = .FALSE.

 POTCAR:    PAW_PBE N 08Apr2002
 POTCAR:    PAW_PBE O 08Apr2002
 POTCAR:    PAW_PBE Mg_pv 13Apr2007
 POTCAR:    PAW_PBE O 08Apr2002
|               ----> ADVICE to this user running VASP <----                  |
|     You have switched on vdW-DFT.                                           |
|     This routine was written and supplied by Jiri Klimes. We recommend      |
|     that you carefully read and cite the following publications:            |
|       J. Klimes, D.R. Bowler, A. Michelides                                 |
|          J. Phys.: Cond Matt. 22 022201 (2010)                              |
|       J. Klimes, D.R. Bowler, A. Michelides                                 |
|          Phys. Rev. B. 83, 195131 (2011)                                    |
|     and references therein.                                                 |

   TITEL  = PAW_PBE N 08Apr2002
   POMASS =   14.001; ZVAL   =    5.000    mass and valenz
   ENMAX  =  400.000; ENMIN  =  300.000 eV

[...]

   TITEL  = PAW_PBE Mg_pv 13Apr2007
   POMASS =   24.305; ZVAL   =    8.000    mass and valenz
   ENMAX  =  403.929; ENMIN  =  302.947 eV

   TITEL  = PAW_PBE O 08Apr2002
   POMASS =   16.000; ZVAL   =    6.000    mass and valenz
   ENMAX  =  400.000; ENMIN  =  300.000 eV

  PAW_PBE N 08Apr2002                   :
  PAW_PBE O 08Apr2002                   :
  PAW_PBE Mg_pv 13Apr2007               :
  PAW_PBE O 08Apr2002                   :

 POSCAR:  N  O Mg  O
  positions in direct lattice
 exchange correlation table for  LEXCH =       40
   RHO(1)=    0.500       N(1)  =     2000
   RHO(2)=  100.500       N(2)  =     4000

 ion  position               nearest neighbor table
   1  0.496  0.750  0.770-   2 1.19
   2  0.627  0.750  0.788-   1 1.19
   3  0.000  0.750  0.350-  35 2.14  37 2.14  38 2.14  45 2.14  54 2.14
   4  0.250  0.000  0.350-  36 2.14  37 2.14  38 2.14  46 2.14  53 2.14
   5  0.000  0.000  0.450-  41 2.14  37 2.14  35 2.14  36 2.14  43 2.14  52 2.14
   6  0.250  0.750  0.450-  38 2.14  36 2.14  35 2.14  44 2.14  51 2.14  42 2.14
   7  0.000  0.750  0.550-  42 2.14  49 2.14  41 2.14  35 2.14  58 2.14  39 2.16
   8  0.250  0.000  0.550-  41 2.14  50 2.14  42 2.14  57 2.14  36 2.15  40 2.15
   9  0.000  0.000  0.649-  41 2.13  47 2.13  40 2.14  39 2.14  56 2.14
  10  0.249  0.750  0.650-  39 2.13  42 2.13  40 2.13  48 2.13  55 2.15
  11  0.000  0.250  0.350-  43 2.14  37 2.14  45 2.14  46 2.14  62 2.14
  12  0.250  0.500  0.350-  44 2.14  38 2.14  45 2.14  46 2.14  61 2.14
  13  0.000  0.500  0.450-  49 2.14  45 2.14  44 2.14  35 2.14  43 2.14  60 2.14
  14  0.250  0.250  0.450-  46 2.14  43 2.14  44 2.14  36 2.14  59 2.14  50 2.14
  15  0.000  0.250  0.550-  50 2.14  49 2.14  41 2.14  66 2.14  43 2.14  47 2.16
  16  0.250  0.500  0.550-  49 2.14  50 2.14  42 2.14  65 2.14  44 2.15  48 2.15
  17  0.000  0.500  0.649-  49 2.13  47 2.13  48 2.14  39 2.14  64 2.14
  18  0.250  0.250  0.649-  50 2.13  47 2.13  40 2.14  48 2.14  63 2.14
  19  0.500  0.750  0.350-  51 2.14  38 2.14  53 2.14  54 2.14  61 2.14
  20  0.750  0.000  0.350-  52 2.14  37 2.14  53 2.14  54 2.14  62 2.14
  21  0.500  0.000  0.450-  53 2.14  51 2.14  52 2.14  36 2.14  59 2.14  57 2.14
  22  0.750  0.750  0.450-  54 2.14  51 2.14  52 2.14  35 2.14  60 2.14  58 2.14
  23  0.500  0.750  0.550-  42 2.13  65 2.13  57 2.13  51 2.13  58 2.14  55 2.17
  24  0.750  0.000  0.550-  66 2.14  41 2.14  57 2.14  58 2.14  52 2.14  56 2.16
  25  0.500  0.001  0.650-  63 2.13  57 2.13  40 2.13  56 2.14  55 2.15
  26  0.752  0.750  0.649-  39 2.12  58 2.12  56 2.13  64 2.13  55 2.15
  27  0.500  0.250  0.350-  59 2.14  53 2.14  46 2.14  61 2.14  62 2.14
  28  0.750  0.500  0.350-  60 2.14  54 2.14  45 2.14  61 2.14  62 2.14
  29  0.500  0.500  0.450-  61 2.14  51 2.14  59 2.14  60 2.14  44 2.14  65 2.14
  30  0.750  0.250  0.450-  62 2.14  52 2.14  59 2.14  60 2.14  43 2.14  66 2.14
  31  0.500  0.250  0.550-  66 2.14  50 2.14  65 2.14  57 2.14  59 2.14  63 2.16
  32  0.750  0.500  0.550-  66 2.14  49 2.14  65 2.14  58 2.14  60 2.14  64 2.16
  33  0.500  0.499  0.650-  63 2.13  65 2.13  48 2.13  64 2.14  55 2.15
  34  0.750  0.250  0.649-  66 2.13  47 2.14  63 2.14  56 2.14  64 2.14
  35  0.000  0.750  0.450-   3 2.14   5 2.14   6 2.14  13 2.14  22 2.14   7 2.14
  36  0.250  0.000  0.450-   4 2.14   5 2.14   6 2.14  14 2.14  21 2.14   8 2.15
  37  0.000  0.000  0.350-   5 2.14   4 2.14   3 2.14  11 2.14  20 2.14
  38  0.250  0.750  0.350-   6 2.14   4 2.14   3 2.14  12 2.14  19 2.14
  39  0.000  0.750  0.651-  26 2.12  10 2.13   9 2.14  17 2.14   7 2.16
  40  0.250  1.000  0.651-  25 2.13  10 2.13   9 2.14  18 2.14   8 2.15
  41  0.000  0.000  0.550-   9 2.13   8 2.14   5 2.14  15 2.14  24 2.14   7 2.14
  42  0.250  0.750  0.550-  23 2.13  10 2.13   7 2.14  16 2.14   8 2.14   6 2.14
  43  0.000  0.250  0.450-  11 2.14   5 2.14  13 2.14  14 2.14  30 2.14  15 2.14
  44  0.250  0.500  0.450-  12 2.14   6 2.14  13 2.14  14 2.14  29 2.14  16 2.15
  45  0.000  0.500  0.350-  13 2.14  11 2.14  12 2.14   3 2.14  28 2.14
  46  0.250  0.250  0.350-  14 2.14  11 2.14  12 2.14   4 2.14  27 2.14
  47  0.000  0.250  0.651-   9 2.13  17 2.13  18 2.13  34 2.14  15 2.16
  48  0.250  0.500  0.651-  33 2.13  10 2.13  17 2.14  18 2.14  16 2.15
  49  0.000  0.500  0.550-  17 2.13  16 2.14  13 2.14  15 2.14  32 2.14   7 2.14
  50  0.250  0.250  0.550-  18 2.13  15 2.14  16 2.14   8 2.14  14 2.14  31 2.14
  51  0.500  0.750  0.450-  23 2.13  19 2.14  21 2.14  22 2.14   6 2.14  29 2.14
  52  0.750  0.000  0.450-  20 2.14   5 2.14  21 2.14  22 2.14  30 2.14  24 2.14
  53  0.500  0.000  0.350-  21 2.14  19 2.14  20 2.14   4 2.14  27 2.14
  54  0.750  0.750  0.350-  22 2.14  19 2.14  20 2.14   3 2.14  28 2.14
  55  0.501  0.750  0.651-  33 2.15  25 2.15  10 2.15  26 2.15  23 2.17
  56  0.750  1.000  0.651-  26 2.13  25 2.14   9 2.14  34 2.14  24 2.16
  57  0.500  1.000  0.550-  25 2.13  23 2.13  24 2.14   8 2.14  31 2.14  21 2.14
  58  0.750  0.750  0.550-  26 2.12  23 2.14  22 2.14  32 2.14  24 2.14   7 2.14
  59  0.500  0.250  0.450-  27 2.14  21 2.14  14 2.14  29 2.14  30 2.14  31 2.14
  60  0.750  0.500  0.450-  28 2.14  22 2.14  13 2.14  29 2.14  30 2.14  32 2.14
  61  0.500  0.500  0.350-  29 2.14  19 2.14  27 2.14  28 2.14  12 2.14
  62  0.750  0.250  0.350-  30 2.14  20 2.14  27 2.14  28 2.14  11 2.14
  63  0.500  0.250  0.651-  25 2.13  33 2.13  34 2.14  18 2.14  31 2.16
  64  0.750  0.500  0.651-  26 2.13  33 2.14  17 2.14  34 2.14  32 2.16
  65  0.500  0.500  0.550-  33 2.13  23 2.13  32 2.14  16 2.14  31 2.14  29 2.14
  66  0.750  0.250  0.550-  34 2.13  32 2.14  24 2.14  30 2.14  15 2.14  31 2.14

IMPORTANT INFORMATION: All symmetrisations will be switched off!
NOSYMM: (Re-)initialisation of all symmetry stuff for point group C_1.

                                     Primitive cell

  volume of cell :    1563.6717

  direct lattice vectors                    reciprocal lattice vectors
     8.546113626  0.000000000  0.000000000     0.117012252  0.000000000  0.000000000
     0.000000000  8.546113626  0.000000000     0.000000000  0.117012252  0.000000000
     0.000000000  0.000000000 21.409585219     0.000000000  0.000000000  0.046708051

  length of vectors
     8.546113626  8.546113626 21.409585219     0.117012252  0.117012252  0.046708051

  position of ions in fractional coordinates (direct lattice)
     0.495854260  0.749999789  0.769856014
     0.626908189  0.750000004  0.788196400
     0.000000000  0.750000000  0.350310383
     0.250000000  0.000000000  0.350310383
     0.000000000  0.000000000  0.450103461
     0.250000000  0.750000000  0.450103461
     0.000422533  0.750000001  0.550090899
     0.249894166  0.000037740  0.550321836
     0.000176701  0.000288942  0.649438187
     0.248980712  0.750000010  0.649682397
     0.000000000  0.250000000  0.350310383
     0.250000000  0.500000000  0.350310383
     0.000000000  0.500000000  0.450103461
     0.250000000  0.250000000  0.450103461
     0.000064213  0.250000005  0.550105863
     0.249894192  0.499962261  0.550321837
     0.000176699  0.499711066  0.649438240
     0.249755145  0.249999996  0.649437344
     0.500000000  0.750000000  0.350310383
     0.750000000  0.000000000  0.350310383
     0.500000000  0.000000000  0.450103461
     0.750000000  0.750000000  0.450103461
     0.500017219  0.749999976  0.549815726
     0.750045448  0.000158354  0.550268012
     0.499864033  0.001309613  0.649514492
     0.752336680  0.750000005  0.648962486
     0.500000000  0.250000000  0.350310383
     0.750000000  0.500000000  0.350310383
     0.500000000  0.500000000  0.450103461
     0.750000000  0.250000000  0.450103461
     0.499996866  0.250000028  0.550148935
     0.750045409  0.499841649  0.550268019
     0.499864042  0.498690395  0.649514607
     0.750234220  0.249999999  0.649438737
     0.000000000  0.750000000  0.450103461
     0.250000000  0.000000000  0.450103461
     0.000000000  0.000000000  0.350310383
     0.250000000  0.750000000  0.350310383
     0.000296412  0.750000012  0.650890835
     0.250222337  0.999777699  0.650926188
     0.000008543  0.000068334  0.549857998
     0.250365878  0.749999995  0.549986307
     0.000000000  0.250000000  0.450103461
     0.250000000  0.500000000  0.450103461
     0.000000000  0.500000000  0.350310383
     0.250000000  0.250000000  0.350310383
     0.000029794  0.249999994  0.651068882
     0.250222327  0.500222307  0.650926217
     0.000008545  0.499931669  0.549858003
     0.249958592  0.250000010  0.549909475
     0.500000000  0.750000000  0.450103461
     0.750000000  0.000000000  0.450103461
     0.500000000  0.000000000  0.350310383
     0.750000000  0.750000000  0.350310383
     0.500653025  0.750000005  0.651008359
     0.749845493  0.999647380  0.650940299
     0.500011647  0.999773554  0.550028952
     0.749932465  0.749999997  0.549940817
     0.500000000  0.250000000  0.450103461
     0.750000000  0.500000000  0.450103461
     0.500000000  0.500000000  0.350310383
     0.750000000  0.250000000  0.350310383
     0.500013822  0.249999991  0.651024438
     0.749845492  0.500352629  0.650940330
     0.500011646  0.500226449  0.550028965
     0.750033776  0.250000010  0.549903780

  ion indices of the primitive-cell ions
   primitive index   ion index
                 1           1
                 2           2
[...]
      0.002533  6.409585 13.935303            0           0           0
      2.138429  8.544214 13.936060            0           0           0
      0.000073  0.000584 11.772232            0           0           0
      2.139655  6.409585 11.774979            0           0           0
      0.000000  2.136528  9.636528            0           0           0
      2.136528  4.273057  9.636528            0           0           0
      0.000000  4.273057  7.500000            0           0           0
      2.136528  2.136528  7.500000            0           0           0
      0.000255  2.136528 13.939115            0           0           0
      2.138428  4.274957 13.936060            0           0           0
      0.000073  4.272473 11.772232            0           0           0
      2.136175  2.136528 11.773334            0           0           0
      4.273057  6.409585  9.636528            0           0           0
      6.409585  0.000000  9.636528            0           0           0
      4.273057  0.000000  7.500000            0           0           0
      6.409585  6.409585  7.500000            0           0           0
      4.278638  6.409585 13.937819            0           0           0
      6.408265  8.543100 13.936362            0           0           0
      4.273156  8.544178 11.775892            0           0           0
      6.409008  6.409585 11.774005            0           0           0
      4.273057  2.136528  9.636528            0           0           0
      6.409585  4.273057  9.636528            0           0           0
      4.273057  4.273057  7.500000            0           0           0
      6.409585  2.136528  7.500000            0           0           0
      4.273175  2.136528 13.938163            0           0           0
      6.408265  4.276070 13.936362            0           0           0
      4.273156  4.274992 11.775892            0           0           0
      6.409874  2.136528 11.773212            0           0           0

[...]

   4 f  =    0.642870 THz     4.039274 2PiTHz   21.443847 cm-1     2.658697 meV
             X         Y         Z           dx          dy          dz
      4.237627  6.409583 16.482298    -0.079087   -0.406518   -0.020374
      5.357629  6.409585 16.874958    -0.096236   -0.904805    0.011826
      0.000000  6.409585  7.500000            0           0           0
      2.136528  0.000000  7.500000            0           0           0
      0.000000  0.000000  9.636528            0           0           0
      2.136528  6.409585  9.636528            0           0           0
      0.003611  6.409585 11.777218            0           0           0
      2.135624  0.000323 11.782162            0           0           0
      0.001510  0.002469 13.904202            0           0           0
      2.127817  6.409585 13.909431            0           0           0
      0.000000  2.136528  7.500000            0           0           0
      2.136528  4.273057  7.500000            0           0           0
      0.000000  4.273057  9.636528            0           0           0
      2.136528  2.136528  9.636528            0           0           0
      0.000549  2.136528 11.777538            0           0           0
      2.135624  4.272734 11.782162            0           0           0
      0.001510  4.270588 13.904203            0           0           0
      2.134436  2.136528 13.904184            0           0           0
      4.273057  6.409585  7.500000            0           0           0
      6.409585  0.000000  7.500000            0           0           0
      4.273057  0.000000  9.636528            0           0           0
      6.409585  6.409585  9.636528            0           0           0
      4.273204  6.409585 11.771327            0           0           0
      6.409974  0.001353 11.781010            0           0           0
      4.271895  0.011192 13.905836            0           0           0
      6.429555  6.409585 13.894018            0           0           0
      4.273057  2.136528  7.500000            0           0           0
      6.409585  4.273057  7.500000            0           0           0
      4.273057  4.273057  9.636528            0           0           0
      6.409585  2.136528  9.636528            0           0           0
      4.273030  2.136529 11.778461            0           0           0
      6.409973  4.271704 11.781010            0           0           0
      4.271895  4.261865 13.905838            0           0           0
      6.411587  2.136528 13.904214            0           0           0
      0.000000  6.409585  9.636528            0           0           0
      2.136528  0.000000  9.636528            0           0           0
      0.000000  0.000000  7.500000            0           0           0
      2.136528  6.409585  7.500000            0           0           0
      0.002533  6.409585 13.935303            0           0           0
      2.138429  8.544214 13.936060            0           0           0
      0.000073  0.000584 11.772232            0           0           0
      2.139655  6.409585 11.774979            0           0           0
      0.000000  2.136528  9.636528            0           0           0
      2.136528  4.273057  9.636528            0           0           0
      0.000000  4.273057  7.500000            0           0           0
      2.136528  2.136528  7.500000            0           0           0
      0.000255  2.136528 13.939115            0           0           0
      2.138428  4.274957 13.936060            0           0           0
      0.000073  4.272473 11.772232            0           0           0
      2.136175  2.136528 11.773334            0           0           0
      4.273057  6.409585  9.636528            0           0           0
      6.409585  0.000000  9.636528            0           0           0
      4.273057  0.000000  7.500000            0           0           0
      6.409585  6.409585  7.500000            0           0           0
      4.278638  6.409585 13.937819            0           0           0
      6.408265  8.543100 13.936362            0           0           0
      4.273156  8.544178 11.775892            0           0           0
      6.409008  6.409585 11.774005            0           0           0
      4.273057  2.136528  9.636528            0           0           0
      6.409585  4.273057  9.636528            0           0           0
      4.273057  4.273057  7.500000            0           0           0
      6.409585  2.136528  7.500000            0           0           0
      4.273175  2.136528 13.938163            0           0           0
      6.408265  4.276070 13.936362            0           0           0
      4.273156  4.274992 11.775892            0           0           0
      6.409874  2.136528 11.773212            0           0           0

   5 f/i=    0.636562 THz     3.999639 2PiTHz   21.233432 cm-1     2.632609 meV
             X         Y         Z           dx          dy          dz
      4.237627  6.409583 16.482298     0.592575   -0.067934    0.021059
      5.357629  6.409585 16.874958     0.743331   -0.104514   -0.283428
      0.000000  6.409585  7.500000            0           0           0
      2.136528  0.000000  7.500000            0           0           0
      0.000000  0.000000  9.636528            0           0           0
      2.136528  6.409585  9.636528            0           0           0
      0.003611  6.409585 11.777218            0           0           0
      2.135624  0.000323 11.782162            0           0           0
      0.001510  0.002469 13.904202            0           0           0
      2.127817  6.409585 13.909431            0           0           0
      0.000000  2.136528  7.500000            0           0           0
      2.136528  4.273057  7.500000            0           0           0
      0.000000  4.273057  9.636528            0           0           0
      2.136528  2.136528  9.636528            0           0           0
      0.000549  2.136528 11.777538            0           0           0
      2.135624  4.272734 11.782162            0           0           0
      0.001510  4.270588 13.904203            0           0           0
      2.134436  2.136528 13.904184            0           0           0
      4.273057  6.409585  7.500000            0           0           0
      6.409585  0.000000  7.500000            0           0           0
      4.273057  0.000000  9.636528            0           0           0
      6.409585  6.409585  9.636528            0           0           0
      4.273204  6.409585 11.771327            0           0           0
      6.409974  0.001353 11.781010            0           0           0
      4.271895  0.011192 13.905836            0           0           0
      6.429555  6.409585 13.894018            0           0           0
      4.273057  2.136528  7.500000            0           0           0
      6.409585  4.273057  7.500000            0           0           0
      4.273057  4.273057  9.636528            0           0           0
      6.409585  2.136528  9.636528            0           0           0
      4.273030  2.136529 11.778461            0           0           0
      6.409973  4.271704 11.781010            0           0           0
      4.271895  4.261865 13.905838            0           0           0
      6.411587  2.136528 13.904214            0           0           0
      0.000000  6.409585  9.636528            0           0           0
      2.136528  0.000000  9.636528            0           0           0
      0.000000  0.000000  7.500000            0           0           0
      2.136528  6.409585  7.500000            0           0           0
      0.002533  6.409585 13.935303            0           0           0
      2.138429  8.544214 13.936060            0           0           0
      0.000073  0.000584 11.772232            0           0           0
      2.139655  6.409585 11.774979            0           0           0
      0.000000  2.136528  9.636528            0           0           0
      2.136528  4.273057  9.636528            0           0           0
      0.000000  4.273057  7.500000            0           0           0
      2.136528  2.136528  7.500000            0           0           0
      0.000255  2.136528 13.939115            0           0           0
      2.138428  4.274957 13.936060            0           0           0
      0.000073  4.272473 11.772232            0           0           0
      2.136175  2.136528 11.773334            0           0           0
      4.273057  6.409585  9.636528            0           0           0
      6.409585  0.000000  9.636528            0           0           0
      4.273057  0.000000  7.500000            0           0           0
      6.409585  6.409585  7.500000            0           0           0
      4.278638  6.409585 13.937819            0           0           0
      6.408265  8.543100 13.936362            0           0           0
      4.273156  8.544178 11.775892            0           0           0
      6.409008  6.409585 11.774005            0           0           0
      4.273057  2.136528  9.636528            0           0           0
      6.409585  4.273057  9.636528            0           0           0
      4.273057  4.273057  7.500000            0           0           0
      6.409585  2.136528  7.500000            0           0           0
      4.273175  2.136528 13.938163            0           0           0
      6.408265  4.276070 13.936362            0           0           0
      4.273156  4.274992 11.775892            0           0           0
      6.409874  2.136528 11.773212            0           0           0

   6 f/i=    2.675670 THz    16.811729 2PiTHz   89.250736 cm-1    11.065676 meV
             X         Y         Z           dx          dy          dz
      4.237627  6.409583 16.482298    -0.013836   -0.910629   -0.013829
      5.357629  6.409585 16.874958    -0.016840    0.412343   -0.007906
      0.000000  6.409585  7.500000            0           0           0
      2.136528  0.000000  7.500000            0           0           0
      0.000000  0.000000  9.636528            0           0           0
      2.136528  6.409585  9.636528            0           0           0
      0.003611  6.409585 11.777218            0           0           0
      2.135624  0.000323 11.782162            0           0           0
      0.001510  0.002469 13.904202            0           0           0
      2.127817  6.409585 13.909431            0           0           0
      0.000000  2.136528  7.500000            0           0           0
      2.136528  4.273057  7.500000            0           0           0
      0.000000  4.273057  9.636528            0           0           0
      2.136528  2.136528  9.636528            0           0           0
      0.000549  2.136528 11.777538            0           0           0
      2.135624  4.272734 11.782162            0           0           0
      0.001510  4.270588 13.904203            0           0           0
      2.134436  2.136528 13.904184            0           0           0
      4.273057  6.409585  7.500000            0           0           0
      6.409585  0.000000  7.500000            0           0           0
      4.273057  0.000000  9.636528            0           0           0
      6.409585  6.409585  9.636528            0           0           0
      4.273204  6.409585 11.771327            0           0           0
      6.409974  0.001353 11.781010            0           0           0
      4.271895  0.011192 13.905836            0           0           0
      6.429555  6.409585 13.894018            0           0           0
      4.273057  2.136528  7.500000            0           0           0
      6.409585  4.273057  7.500000            0           0           0
      4.273057  4.273057  9.636528            0           0           0
      6.409585  2.136528  9.636528            0           0           0
      4.273030  2.136529 11.778461            0           0           0
      6.409973  4.271704 11.781010            0           0           0
      4.271895  4.261865 13.905838            0           0           0
      6.411587  2.136528 13.904214            0           0           0
      0.000000  6.409585  9.636528            0           0           0
      2.136528  0.000000  9.636528            0           0           0
      0.000000  0.000000  7.500000            0           0           0
      2.136528  6.409585  7.500000            0           0           0
      0.002533  6.409585 13.935303            0           0           0
      2.138429  8.544214 13.936060            0           0           0
      0.000073  0.000584 11.772232            0           0           0
      2.139655  6.409585 11.774979            0           0           0
      0.000000  2.136528  9.636528            0           0           0
      2.136528  4.273057  9.636528            0           0           0
      0.000000  4.273057  7.500000            0           0           0
      2.136528  2.136528  7.500000            0           0           0
      0.000255  2.136528 13.939115            0           0           0
      2.138428  4.274957 13.936060            0           0           0
      0.000073  4.272473 11.772232            0           0           0
      2.136175  2.136528 11.773334            0           0           0
      4.273057  6.409585  9.636528            0           0           0
      6.409585  0.000000  9.636528            0           0           0
      4.273057  0.000000  7.500000            0           0           0
      6.409585  6.409585  7.500000            0           0           0
      4.278638  6.409585 13.937819            0           0           0
      6.408265  8.543100 13.936362            0           0           0
      4.273156  8.544178 11.775892            0           0           0
      6.409008  6.409585 11.774005            0           0           0
      4.273057  2.136528  9.636528            0           0           0
      6.409585  4.273057  9.636528            0           0           0
      4.273057  4.273057  7.500000            0           0           0
      6.409585  2.136528  7.500000            0           0           0
      4.273175  2.136528 13.938163            0           0           0
      6.408265  4.276070 13.936362            0           0           0
      4.273156  4.274992 11.775892            0           0           0
      6.409874  2.136528 11.773212            0           0           0

 Finite differences POTIM=   1.0000000000000000E-002