 vasp.6.4.1 05Apr23 (build Sep 19 2024 10:44:22) complex

 executed on             LinuxIFC date 2024.10.20  10:59:33

 INCAR:
   SYSTEM = TiO2
   ISMEAR = 0
   SIGMA = 0.05
   EDIFF = 1E-7
   ALGO = ALL
   ISTART = 0
   IBRION = 2
   NSW = 1000
   ISYM = 0
   ISIF = 2
   EDIFFG = -0.01
   DIPOL = 0.5 0.5 0.5
   IDIPOL = 3
   LDIPOL = .TRUE.
   METAGGA = R2SCAN
   LUSE_VDW = .TRUE.
   BPARAM = 11.95
   CPARAM = 0.0093
   LASPH = .TRUE.
   ENCUT = 600
   PREC = Accurate
   LASPH = .TRUE.
   LREAL = .FALSE.
   ISPIN = 1
   NELM = 200
   NELMIN = 8
   NCORE = 8
   KPAR = 1
   LWAVE = .FALSE.
   LCHARG = .FALSE.

 POTCAR:    PAW_PBE H 15Jun2001
 POTCAR:    PAW_PBE O 08Apr2002
 POTCAR:    PAW_PBE Ti_pv 07Sep2000
 POTCAR:    PAW_PBE O 08Apr2002
|           W    W    AA    RRRRR   N    N  II  N    N   GGGG   !!!           |
|           W    W   A  A   R    R  NN   N  II  NN   N  G    G  !!!           |
|           W    W  A    A  R    R  N N  N  II  N N  N  G       !!!           |
|           W WW W  AAAAAA  RRRRR   N  N N  II  N  N N  G  GGG   !            |
|           WW  WW  A    A  R   R   N   NN  II  N   NN  G    G                |
|           W    W  A    A  R    R  N    N  II  N    N   GGGG   !!!           |
|     For optimal performance we recommend to set                             |
|       NCORE = 2 up to number-of-cores-per-socket                            |
|     This setting can greatly improve the performance of VASP for DFT.       |
|     The default, NCORE=1 might be grossly inefficient on modern             |
|     multi-core architectures or massively parallel machines. Do your        |
|     Unfortunately you need to use the default for GW and RPA                |
|     calculations (for HF NCORE is supported but not extensively tested      |
|     yet).                                                                   |

   TITEL  = PAW_PBE H 15Jun2001
   POMASS =    1.000; ZVAL   =    1.000    mass and valenz
   ENMAX  =  250.000; ENMIN  =  200.000 eV

   TITEL  = PAW_PBE O 08Apr2002
   POMASS =   16.000; ZVAL   =    6.000    mass and valenz
   ENMAX  =  400.000; ENMIN  =  300.000 eV

   TITEL  = PAW_PBE Ti_pv 07Sep2000
   POMASS =   47.880; ZVAL   =   10.000    mass and valenz
   ENMAX  =  222.335; ENMIN  =  166.751 eV

   TITEL  = PAW_PBE O 08Apr2002
   POMASS =   16.000; ZVAL   =    6.000    mass and valenz
   ENMAX  =  400.000; ENMIN  =  300.000 eV

  PAW_PBE H 15Jun2001                   :
  PAW_PBE O 08Apr2002                   :
  PAW_PBE Ti_pv 07Sep2000               :
  PAW_PBE O 08Apr2002                   :

 POSCAR:  H  O Ti  O
  positions in direct lattice

 METAGGA = R2SCAN                                      LMAXTAU =  6    LMIXTAU =  F

 ion  position               nearest neighbor table
   1  0.689  0.568  0.767-   3 0.98
   2  0.689  0.432  0.767-   3 0.98
   3  0.630  0.500  0.768-   2 0.98   1 0.98  51 2.30
   4  0.807  0.833  0.295-  88 1.93  56 1.93  54 1.93  53 1.99  55 1.99   7 3.04  21 3.04   5 3.04

   5  0.591  0.667  0.327-  52 1.93 119 1.93  55 1.93  57 1.93  56 1.99  58 1.99   6 3.04  36 3.04
                             4 3.04  10 3.07
   6  0.307  0.667  0.295- 124 1.93  60 1.93  58 1.93  52 1.99  59 1.99   5 3.04  39 3.04   7 3.04

   7  0.091  0.833  0.327-  91 1.93  53 1.93  59 1.93  61 1.93  60 1.99  54 1.99  22 3.04   6 3.04
                             4 3.04   8 3.07
   8  0.944  0.833  0.422-  62 1.93  96 1.93  64 1.93  54 1.97  63 1.98  61 1.99  11 3.00  25 3.05
                             9 3.05   7 3.07
   9  0.726  0.667  0.452-  57 1.90  63 1.94 127 1.94  65 1.96  66 1.97  64 1.99  10 3.00   8 3.05
                            40 3.05  14 3.09
  10  0.444  0.667  0.422-  66 1.93 132 1.93  68 1.93  58 1.97  67 1.98  57 1.99   9 3.00  43 3.05
                            11 3.05   5 3.07
  11  0.226  0.833  0.452-  61 1.90  67 1.94  99 1.94  69 1.96  62 1.97  68 1.99   8 3.00  10 3.05
                            26 3.05  12 3.09
  12  0.085  0.833  0.550-  70 1.93 104 1.93  72 1.93  71 1.98  62 1.99  69 1.99  15 2.96  13 3.04
                            29 3.04  11 3.09
  13  0.864  0.667  0.576-  65 1.87  71 1.94 135 1.94  74 1.95  73 1.99  72 2.01  14 2.96  12 3.04
                            44 3.04
  14  0.585  0.667  0.550-  74 1.93  76 1.93 140 1.93  75 1.98  66 1.99  65 1.99  13 2.96  47 3.04
                            15 3.04   9 3.09
  15  0.364  0.833  0.576-  69 1.87 107 1.94  75 1.94  70 1.95  77 1.99  76 2.01  12 2.96  30 3.04
                            14 3.04
  16  0.232  0.833  0.679-  78 1.86 112 1.93  80 1.93  79 1.99  77 2.08  70 2.08  19 2.84  33 3.07
                            17 3.07
  17  0.004  0.667  0.700-  73 1.79  81 1.82 143 1.97  79 1.97  80 2.04  18 2.84  48 3.07  16 3.07

[...]

  20  0.807  0.167  0.295-  88 1.93 120 1.93  86 1.93  85 1.99  87 1.99  23 3.04  21 3.04  37 3.04

[...]

  36  0.807  0.500  0.295-  56 1.93 120 1.93 118 1.93 117 1.99 119 1.99  39 3.04   5 3.04  37 3.04

  37  0.591  0.333  0.327- 116 1.93 119 1.93  87 1.93 121 1.93 120 1.99 122 1.99  38 3.04  36 3.04
                            20 3.04  42 3.07
  38  0.307  0.333  0.295- 124 1.93  92 1.93 122 1.93 116 1.99 123 1.99  37 3.04  39 3.04  23 3.04

  39  0.091  0.500  0.327-  59 1.93 123 1.93 117 1.93 125 1.93 124 1.99 118 1.99   6 3.04  38 3.04
                            36 3.04  40 3.07
  40  0.944  0.500  0.422- 126 1.93 128 1.93  64 1.93 118 1.97 127 1.98 125 1.99  43 3.00  41 3.05
                             9 3.05  39 3.07
  41  0.726  0.333  0.452- 121 1.90  95 1.94 127 1.94 129 1.96 130 1.97 128 1.99  42 3.00  24 3.05
                            40 3.05  46 3.09
  42  0.444  0.333  0.422- 130 1.93 132 1.93 100 1.93 122 1.97 131 1.98 121 1.99  41 3.00  27 3.05
                            43 3.05  37 3.07
  43  0.226  0.500  0.452- 125 1.90  67 1.94 131 1.94 133 1.96 126 1.97 132 1.99  40 3.00  10 3.05
                            42 3.05  44 3.09
  44  0.085  0.500  0.550- 134 1.93  72 1.93 136 1.93 135 1.98 126 1.99 133 1.99  47 2.96  13 3.04
                            45 3.04  43 3.09
  45  0.864  0.333  0.576- 129 1.87 103 1.94 135 1.94 138 1.95 137 1.99 136 2.01  46 2.96  28 3.04
                            44 3.04
  46  0.585  0.333  0.550- 138 1.93 140 1.93 108 1.93 139 1.98 130 1.99 129 1.99  45 2.96  47 3.04
                            31 3.04  41 3.09
  47  0.364  0.500  0.576- 133 1.87  75 1.94 139 1.94 134 1.95 141 1.99 140 2.01  44 2.96  46 3.04
                            14 3.04
  48  0.232  0.500  0.679- 142 1.86  80 1.93 144 1.93 143 1.99 141 2.08 134 2.08  51 2.84  17 3.07
                            49 3.07
  49  0.004  0.333  0.700- 137 1.79 145 1.82 143 1.97 111 1.97 144 2.04  50 2.84  48 3.07  32 3.07

  50  0.732  0.333  0.679- 145 1.86 115 1.93 147 1.93 146 1.99 137 2.08 138 2.08  49 2.84  35 3.07
                            51 3.07
  51  0.504  0.500  0.700- 141 1.79 142 1.82  82 1.97 146 1.97 147 2.04   3 2.30  48 2.84  50 3.07
                            18 3.07
  52  0.487  0.667  0.269-   5 1.93   6 1.99
  53  0.987  0.833  0.269-   7 1.93   4 1.99
  54  0.911  0.833  0.353-   4 1.93   8 1.97   7 1.99
  55  0.627  0.833  0.321-  21 1.93   5 1.93   4 1.99
  56  0.771  0.667  0.300-  36 1.93   4 1.93   5 1.99
  57  0.623  0.667  0.395-   9 1.90   5 1.93  10 1.99
  58  0.411  0.667  0.353-   6 1.93  10 1.97   5 1.99
  59  0.127  0.667  0.321-  39 1.93   7 1.93   6 1.99
  60  0.271  0.833  0.300-  22 1.93   6 1.93   7 1.99
  61  0.123  0.833  0.395-  11 1.90   7 1.93   8 1.99
  62  0.049  0.833  0.480-   8 1.93  11 1.97  12 1.99
  63  0.764  0.833  0.448-   9 1.94  25 1.94   8 1.98
  64  0.908  0.667  0.427-  40 1.93   8 1.93   9 1.99
  65  0.763  0.667  0.521-  13 1.87   9 1.96  14 1.99
  66  0.549  0.667  0.480-  10 1.93   9 1.97  14 1.99
  67  0.264  0.667  0.448-  43 1.94  11 1.94  10 1.98
  68  0.408  0.833  0.427-  26 1.93  10 1.93  11 1.99
  69  0.263  0.833  0.521-  15 1.87  11 1.96  12 1.99
  70  0.193  0.833  0.606-  12 1.93  15 1.95  16 2.08
  71  0.904  0.833  0.573-  29 1.94  13 1.94  12 1.98
  72  0.049  0.667  0.553-  44 1.93  12 1.93  13 2.01
  73  0.912  0.667  0.645-  17 1.79  13 1.99  18 2.08
  74  0.693  0.667  0.606-  14 1.93  13 1.95  18 2.08
  75  0.404  0.667  0.573-  47 1.94  15 1.94  14 1.98
  76  0.549  0.833  0.553-  30 1.93  14 1.93  15 2.01
  77  0.412  0.833  0.645-  19 1.79  15 1.99  16 2.08
  78  0.347  0.833  0.731-  19 1.82  16 1.86
  79  0.054  0.833  0.708-  33 1.97  17 1.97  16 1.99
  80  0.195  0.667  0.680-  48 1.93  16 1.93  17 2.04
  81  0.847  0.667  0.731-  17 1.82  18 1.86
  82  0.554  0.667  0.708-  51 1.97  19 1.97  18 1.99
  83  0.695  0.833  0.680-  34 1.93  18 1.93  19 2.04
  84  0.487  0.000  0.269-  21 1.93  22 1.99
  85  0.987  0.167  0.269-  23 1.93  20 1.99
  86  0.911  0.167  0.353-  20 1.93  24 1.97  23 1.99
  87  0.627  0.167  0.321-  21 1.93  37 1.93  20 1.99
  88  0.771  0.000  0.300-   4 1.93  20 1.93  21 1.99
  89  0.623  0.000  0.395-  25 1.90  21 1.93  26 1.99
  90  0.411  0.000  0.353-  22 1.93  26 1.97  21 1.99
  91  0.127  0.000  0.321-   7 1.93  23 1.93  22 1.99
  92  0.271  0.167  0.300-  22 1.93  38 1.93  23 1.99
  93  0.123  0.167  0.395-  27 1.90  23 1.93  24 1.99
  94  0.049  0.167  0.480-  24 1.93  27 1.97  28 1.99
  95  0.764  0.167  0.448-  41 1.94  25 1.94  24 1.98
  96  0.908  0.000  0.427-  24 1.93   8 1.93  25 1.99
  97  0.763  1.000  0.521-  29 1.87  25 1.96  30 1.99
  98  0.549  0.000  0.480-  26 1.93  25 1.97  30 1.99
  99  0.264  0.000  0.448-  27 1.94  11 1.94  26 1.98
 100  0.408  0.167  0.427-  26 1.93  42 1.93  27 1.99
 101  0.263  0.167  0.521-  31 1.87  27 1.96  28 1.99
 102  0.193  0.167  0.606-  28 1.93  31 1.95  32 2.08
 103  0.904  0.167  0.573-  45 1.94  29 1.94  28 1.98
 104  0.049  1.000  0.553-  12 1.93  28 1.93  29 2.01
 105  0.912  0.000  0.645-  33 1.79  29 1.99  34 2.08
 106  0.693  0.000  0.606-  30 1.93  29 1.95  34 2.08
 107  0.404  0.000  0.573-  31 1.94  15 1.94  30 1.98
 108  0.549  0.167  0.553-  46 1.93  30 1.93  31 2.01
 109  0.412  0.167  0.645-  35 1.79  31 1.99  32 2.08
 110  0.347  0.167  0.731-  35 1.82  32 1.86
 111  0.054  0.167  0.708-  49 1.97  33 1.97  32 1.99
[...]
 133  0.263  0.500  0.521-  47 1.87  43 1.96  44 1.99
 134  0.193  0.500  0.606-  44 1.93  47 1.95  48 2.08
 135  0.904  0.500  0.573-  45 1.94  13 1.94  44 1.98
 136  0.049  0.333  0.553-  44 1.93  28 1.93  45 2.01
 137  0.912  0.333  0.645-  49 1.79  45 1.99  50 2.08
 138  0.693  0.333  0.606-  46 1.93  45 1.95  50 2.08
 139  0.404  0.333  0.573-  47 1.94  31 1.94  46 1.98
 140  0.549  0.500  0.553-  46 1.93  14 1.93  47 2.01
 141  0.412  0.500  0.645-  51 1.79  47 1.99  48 2.08
 142  0.347  0.500  0.731-  51 1.82  48 1.86
 143  0.054  0.500  0.708-  17 1.97  49 1.97  48 1.99
 144  0.195  0.333  0.680-  48 1.93  32 1.93  49 2.04
 145  0.847  0.333  0.731-  49 1.82  50 1.86
 146  0.554  0.333  0.708-  51 1.97  35 1.97  50 1.99
 147  0.695  0.500  0.680-  50 1.93  18 1.93  51 2.04

IMPORTANT INFORMATION: All symmetrisations will be switched off!
NOSYMM: (Re-)initialisation of all symmetry stuff for point group C_1.

                                     Primitive cell

  volume of cell :    3249.0644

[...]
   3.56058124  5.67785522 20.38921807
   0.55082401  5.67785508 19.74018771
   2.00039109  3.78523683 18.97109465
   8.68833297  3.78523666 20.38921916
   5.67857817  3.78523695 19.74018743
   7.12814555  5.67785483 18.97109532

--------------------------------------- Iteration      FINAL  ---------------------------------------

--------------------OUTCAR has been truncated-------------------------

[...]

--------------------OUTCAR has been truncated-------------------------

  FORCE on cell =-STRESS in cart. coord.  units (eV):
  Direction    XX          YY          ZZ          XY          YZ          ZX
  Alpha Z  2451.44277  2451.44277  2451.44277
  Ewald  490158.03591483422.22296************     0.01257     0.00176 -1968.23520
  Hartree511212.46730507153.17771************     0.00326     0.00034 -1294.06824
  E(xc)   -5515.54757 -5515.54550 -5513.28039     0.00002    -0.00001    -1.36971
  Local  ************************************    -0.01182    -0.00207  3269.08635
  n-local -3141.97536 -3115.50681 -3159.88833    -0.00068     0.00008     2.42925
  augment  3312.51477  3308.83274  3305.69547    -0.00010    -0.00001    -2.25694
  Kinetic 17195.66127 17256.58170 17333.05086    -0.00011    -0.00040   -15.67251
  Fock        0.00000     0.00000     0.00000     0.00000     0.00000     0.00000
  Total     -50.46124   -20.95054   -16.00326     0.00316    -0.00029   -10.08701
  in kB     -24.88343   -10.33112    -7.89152     0.00156    -0.00014    -4.97410

 VOLUME and BASIS-vectors are now :
  energy-cutoff  :      600.00
  volume of cell :     3249.06
      direct lattice vectors                 reciprocal lattice vectors
    10.255507753  0.000000000  0.000000000     0.097508580 -0.000000000  0.000000000
     0.000000000 11.355710084  0.000000000     0.000000000  0.088061424  0.000000000
     0.000000000  0.000000000 27.898885647     0.000000000  0.000000000  0.035843726

  length of vectors
    10.255507753 11.355710084 27.898885647     0.097508580  0.088061424  0.035843726

 FORCES acting on ions:
    Electron-Ion                     Ewald-Force                    Non-Local-Force
   -.519E+02 -.666E+02 -.364E+03   0.570E+02 0.734E+02 0.364E+03   -.512E+01 -.679E+01 0.123E+00
   -.519E+02 0.666E+02 -.364E+03   0.570E+02 -.733E+02 0.364E+03   -.512E+01 0.678E+01 0.123E+00
   0.937E+01 0.949E-02 -.220E+04   -.508E+02 -.174E-01 0.221E+04   0.414E+02 0.246E-02 -.958E+01
   0.652E+01 -.750E-01 0.339E+04   -.130E+01 0.771E-01 -.338E+04   -.114E+01 -.478E-03 -.349E+01
   0.432E+01 -.192E+00 0.279E+04   -.596E+01 0.195E+00 -.279E+04   -.901E-01 -.931E-03 -.746E-01
   0.662E+01 0.144E+00 0.339E+04   -.144E+01 -.148E+00 -.338E+04   -.114E+01 0.117E-02 -.348E+01
   0.286E+01 0.952E-01 0.279E+04   -.454E+01 -.102E+00 -.279E+04   -.817E-01 0.142E-02 -.782E-01
   0.210E+00 -.141E+00 0.127E+04   -.353E+00 0.143E+00 -.127E+04   0.139E+00 -.206E-02 -.525E-02
   0.204E+01 -.210E+01 0.808E+03   -.200E+01 0.207E+01 -.808E+03   -.322E-01 0.270E-01 -.115E+00
   0.236E+01 -.475E-01 0.127E+04   -.249E+01 0.388E-01 -.127E+04   0.129E+00 0.818E-02 -.272E-01
   -.432E+01 0.244E+00 0.797E+03   0.434E+01 -.242E+00 -.797E+03   -.661E-02 0.686E-03 -.110E+00
   -.677E+01 -.244E+01 -.782E+03   0.650E+01 0.244E+01 0.782E+03   0.267E+00 -.774E-03 0.117E+00
   -.107E+02 -.423E+01 -.117E+04   0.108E+02 0.427E+01 0.117E+04   -.412E-01 -.374E-01 -.173E+00
   0.288E+01 -.238E+01 -.748E+03   -.311E+01 0.238E+01 0.748E+03   0.226E+00 0.495E-02 0.767E-01
   0.353E+01 -.260E+01 -.121E+04   -.345E+01 0.261E+01 0.121E+04   -.624E-01 -.926E-02 -.231E+00
   0.296E+02 -.125E+02 -.280E+04   -.306E+02 0.125E+02 0.280E+04   0.937E+00 0.213E-01 -.123E+00
   -.880E+02 -.292E+02 -.320E+04   0.880E+02 0.290E+02 0.320E+04   0.944E-01 0.183E+00 0.944E+00
   -.111E+02 -.558E+02 -.270E+04   0.103E+02 0.558E+02 0.270E+04   0.789E+00 -.258E-01 0.117E-01
   -.556E+02 -.360E+02 -.320E+04   0.555E+02 0.360E+02 0.319E+04   0.139E+00 0.172E-01 0.966E+00
   0.652E+01 0.750E-01 0.339E+04   -.130E+01 -.771E-01 -.338E+04   -.114E+01 0.478E-03 -.349E+01
   0.420E+01 0.950E-05 0.279E+04   -.586E+01 -.988E-05 -.279E+04   -.837E-01 0.908E-07 -.806E-01
   0.648E+01 0.934E-05 0.339E+04   -.127E+01 -.976E-05 -.338E+04   -.114E+01 0.159E-06 -.349E+01
   0.286E+01 -.952E-01 0.279E+04   -.454E+01 0.102E+00 -.279E+04   -.817E-01 -.142E-02 -.782E-01
   0.210E+00 0.141E+00 0.127E+04   -.353E+00 -.143E+00 -.127E+04   0.139E+00 0.206E-02 -.525E-02
   -.758E+00 -.714E-04 0.803E+03   0.758E+00 0.684E-04 -.803E+03   0.384E-02 0.389E-06 -.118E+00
   0.242E+01 -.313E-04 0.127E+04   -.256E+01 0.284E-04 -.127E+04   0.130E+00 -.152E-08 -.235E-01
   -.432E+01 -.244E+00 0.797E+03   0.434E+01 0.242E+00 -.797E+03   -.661E-02 -.687E-03 -.110E+00
   -.677E+01 0.244E+01 -.782E+03   0.650E+01 -.244E+01 0.782E+03   0.267E+00 0.776E-03 0.117E+00
   -.695E+01 -.411E-03 -.120E+04   0.699E+01 0.396E-03 0.120E+04   -.194E-01 0.510E-05 -.202E+00
   -.165E+01 -.246E-03 -.771E+03   0.139E+01 0.240E-03 0.770E+03   0.252E+00 -.850E-06 0.138E+00
   0.353E+01 0.260E+01 -.121E+04   -.345E+01 -.261E+01 0.121E+04   -.624E-01 0.925E-02 -.231E+00
   0.296E+02 0.125E+02 -.280E+04   -.306E+02 -.125E+02 0.280E+04   0.937E+00 -.213E-01 -.123E+00
   -.744E+02 0.337E-03 -.321E+04   0.745E+02 -.372E-03 0.321E+04   0.789E-01 -.543E-05 0.938E+00
   0.117E+02 -.336E-03 -.279E+04   -.126E+02 0.258E-03 0.279E+04   0.872E+00 0.890E-05 -.771E-01
   -.556E+02 0.360E+02 -.320E+04   0.555E+02 -.360E+02 0.319E+04   0.139E+00 -.172E-01 0.966E+00
   0.649E+01 0.482E-06 0.339E+04   -.126E+01 -.477E-07 -.338E+04   -.114E+01 -.492E-06 -.348E+01
   0.432E+01 0.192E+00 0.279E+04   -.596E+01 -.195E+00 -.279E+04   -.901E-01 0.931E-03 -.746E-01
   0.662E+01 -.144E+00 0.339E+04   -.144E+01 0.148E+00 -.338E+04   -.114E+01 -.117E-02 -.348E+01
   0.192E+01 -.659E-05 0.279E+04   -.356E+01 0.673E-05 -.279E+04   -.976E-01 -.216E-06 -.760E-01
   0.338E+00 0.145E-03 0.127E+04   -.465E+00 -.149E-03 -.127E+04   0.121E+00 0.214E-06 0.360E-01
   0.204E+01 0.210E+01 0.808E+03   -.200E+01 -.207E+01 -.808E+03   -.322E-01 -.270E-01 -.115E+00
   0.236E+01 0.477E-01 0.127E+04   -.249E+01 -.390E-01 -.127E+04   0.129E+00 -.818E-02 -.272E-01
   -.669E+01 0.191E-05 0.779E+03   0.672E+01 0.644E-07 -.779E+03   -.262E-01 -.602E-06 -.280E-01
   -.446E+01 0.175E-03 -.785E+03   0.427E+01 -.159E-03 0.785E+03   0.180E+00 -.310E-05 0.131E+00
   -.107E+02 0.423E+01 -.117E+04   0.108E+02 -.427E+01 0.117E+04   -.412E-01 0.374E-01 -.173E+00
   0.288E+01 0.238E+01 -.748E+03   -.311E+01 -.238E+01 0.748E+03   0.226E+00 -.495E-02 0.767E-01
   0.314E+01 0.326E-03 -.125E+04   -.307E+01 -.324E-03 0.125E+04   -.693E-01 0.801E-06 -.128E+00
   0.443E+02 0.608E-04 -.280E+04   -.450E+02 -.207E-04 0.280E+04   0.696E+00 0.382E-06 -.401E-01
   -.880E+02 0.292E+02 -.320E+04   0.880E+02 -.290E+02 0.320E+04   0.943E-01 -.183E+00 0.944E+00
   -.111E+02 0.558E+02 -.270E+04   0.103E+02 -.558E+02 0.270E+04   0.789E+00 0.258E-01 0.117E-01
   0.399E+02 0.345E-02 -.315E+04   -.395E+02 -.330E-02 0.315E+04   -.320E+00 -.659E-04 0.461E+00
   -.332E+02 -.271E-01 0.229E+04   0.383E+02 0.275E-01 -.230E+04   -.702E+01 -.334E-03 0.179E+02
   -.335E+02 -.255E-01 0.229E+04   0.386E+02 0.240E-01 -.230E+04   -.702E+01 0.195E-02 0.178E+02
   0.835E+02 0.589E-01 0.139E+04   -.884E+02 -.629E-01 -.139E+04   0.392E+01 0.183E-02 -.440E+01
   0.759E+02 -.632E-01 0.169E+04   -.830E+02 0.660E-01 -.169E+04   0.757E+01 -.562E-02 -.276E+01
   -.875E+02 -.887E-01 0.195E+04   0.949E+02 0.877E-01 -.195E+04   -.710E+01 0.130E-02 -.330E+00
   -.724E+02 -.889E+00 0.106E+04   0.783E+02 0.931E+00 -.107E+04   -.596E+01 -.375E-01 0.419E+01
   0.842E+02 0.113E+00 0.139E+04   -.891E+02 -.972E-01 -.139E+04   0.388E+01 -.179E-01 -.422E+01
   0.750E+02 0.121E+00 0.169E+04   -.822E+02 -.130E+00 -.169E+04   0.759E+01 0.208E-01 -.278E+01
   -.876E+02 0.348E-01 0.195E+04   0.950E+02 -.327E-01 -.195E+04   -.707E+01 -.603E-02 -.334E+00
[...]
   0.896E+02 0.150E-03 -.108E+04   -.968E+02 -.116E-03 0.109E+04   0.719E+01 -.405E-04 -.715E+01
   0.704E+02 0.222E-03 -.716E+03   -.766E+02 -.205E-03 0.719E+03   0.614E+01 -.349E-04 -.312E+01
   -.853E+02 0.889E+00 -.462E+03   0.919E+02 -.929E+00 0.459E+03   -.661E+01 0.397E-01 0.276E+01
   -.740E+02 0.156E+02 -.129E+04   0.766E+02 -.163E+02 0.128E+04   -.257E+01 0.672E+00 0.952E+01
   0.823E+02 0.167E+02 -.104E+04   -.888E+02 -.174E+02 0.104E+04   0.651E+01 0.775E+00 -.543E+01
   0.833E+02 0.140E+01 -.730E+03   -.899E+02 -.146E+01 0.733E+03   0.660E+01 0.621E-01 -.314E+01
   -.746E+02 0.248E-03 -.466E+03   0.809E+02 -.256E-03 0.464E+03   -.630E+01 0.418E-05 0.218E+01
   -.572E+02 0.481E-03 -.132E+04   0.628E+02 -.489E-03 0.131E+04   -.561E+01 0.207E-05 0.633E+01
   0.112E+03 0.649E-03 -.228E+04   -.118E+03 -.653E-03 0.231E+04   0.644E+01 -.185E-04 -.216E+02
   0.424E+02 0.388E-03 -.201E+04   -.462E+02 -.392E-03 0.202E+04   0.382E+01 -.431E-04 -.731E+01
   -.537E+02 0.811E+01 -.167E+04   0.588E+02 -.800E+01 0.167E+04   -.507E+01 -.118E+00 0.280E+01
   0.305E+01 0.380E+02 -.227E+04   -.828E+01 -.376E+02 0.229E+04   0.523E+01 -.387E+00 -.196E+02
   0.853E+02 0.574E+02 -.197E+04   -.903E+02 -.574E+02 0.197E+04   0.492E+01 -.188E-01 -.689E+01
   -.597E+02 0.172E-02 -.152E+04   0.632E+02 -.177E-02 0.152E+04   -.348E+01 -.698E-04 0.552E+01
   -.384E+02 0.380E-03 0.759E+02   0.341E-12 -.540E-12 -.139E-10   0.384E+02 -.430E-03 -.760E+02

 POSITION                                       TOTAL-FORCE (eV/Angst)
      7.05869      6.44528     21.51717         0.000053      0.005727      0.001153
      7.05874      4.91038     21.51716        -0.003897     -0.000468      0.001288
      6.45801      5.67790     21.53853         0.000058     -0.005425     -0.001752
      8.27879      9.46309      8.23274         4.053385      0.001539      1.747143
      6.06419      7.57047      9.11223        -1.713813      0.001531     -1.991416
      3.15104      7.57047      8.23274         4.018682     -0.003056      1.726044
      0.93644      9.46309      9.11223        -1.753039     -0.005275     -1.991940
      9.69021      9.46414     11.78484        -0.001347      0.000836     -0.001349
      7.45582      7.56632     12.59079         0.001816     -0.001775      0.002123
      4.55442      7.56832     11.78033        -0.000457     -0.001241     -0.002746
      2.31804      9.46274     12.60483         0.002737      0.002855      0.002928
      0.88536      9.46557     15.33951        -0.000499      0.000250     -0.000665
      8.88249      7.56675     16.05066        -0.000246     -0.002199      0.001769
      5.99444      7.56883     15.31026        -0.000941      0.003232     -0.000541
      3.74178      9.46331     16.08886        -0.003553      0.000607      0.000587
      2.37142      9.45552     18.96692        -0.000675     -0.000976     -0.001082
      0.00867      7.55877     19.52216        -0.003545      0.001519      0.001166
      7.47658      7.55965     18.86513        -0.002198      0.000238      0.001913
      5.16775      9.47305     19.52626        -0.000071     -0.002504      0.002067
      8.27879      1.89262      8.23274         4.053384     -0.001539      1.747143
      6.06419      0.00000      9.11223        -1.736141      0.000000     -1.988962
      3.15104      0.00000      8.23274         4.043231      0.000000      1.739884
      0.93644      1.89262      9.11223        -1.753038      0.005275     -1.991940
      9.69021      1.89157     11.78484        -0.001345     -0.000836     -0.001350
      7.44970     -0.00000     12.59589        -0.002905     -0.000002      0.000126
      4.55731     -0.00000     11.78391        -0.002802     -0.000003      0.002347
      2.31804      1.89297     12.60483         0.002731     -0.002858      0.002932
      0.88536      1.89013     15.33951        -0.000487     -0.000257     -0.000675
      8.86914     -0.00000     16.06715        -0.002178     -0.000009      0.002684
      6.00055     -0.00000     15.32574        -0.003646     -0.000006     -0.001406
      3.74178      1.89240     16.08886        -0.003561     -0.000608      0.000580
      2.37142      1.90019     18.96692        -0.000687      0.000945     -0.001105
      0.03296      0.00000     19.52054         0.003631     -0.000040      0.006546
      7.50887      0.00000     18.93569        -0.007541     -0.000068     -0.001380
      5.16775      1.88266     19.52626        -0.000133      0.002422      0.002028
      8.27879      5.67786      8.23274         4.063719      0.000000      1.742172
      6.06419      3.78524      9.11223        -1.713812     -0.001530     -1.991418
      3.15104      3.78524      8.23274         4.018681      0.003057      1.726045
      0.93644      5.67786      9.11223        -1.722931      0.000000     -1.920194
      9.70375      5.67786     11.78023         0.000820     -0.000003      0.001928
      7.45582      3.78939     12.59079         0.001826      0.001782      0.002121
      4.55442      3.78739     11.78033        -0.000461      0.001241     -0.002754
      2.32218      5.67785     12.63414        -0.003652      0.000002      0.000707
      0.91328      5.67785     15.34668        -0.002354      0.000013      0.000919
      8.88249      3.78896     16.05066        -0.000243      0.002217      0.001739
      5.99445      3.78688     15.31026        -0.000957     -0.003222     -0.000552
      3.76345      5.67786     16.17407        -0.004190      0.000003      0.000401
      2.40609      5.67785     18.98145        -0.000217      0.000040     -0.001703
      0.00867      3.79694     19.52216        -0.003382     -0.001484      0.001090
      7.47658      3.79606     18.86513        -0.002268     -0.000171      0.001789
      5.19267      5.67786     19.69976        -0.001603      0.000083      0.001720
      4.99611      7.57047      7.50000        -1.903027      0.000034      1.164089
     10.12387      9.46309      7.50000        -1.897888      0.000446      1.157603
      9.34687      9.46309      9.84497        -1.019887     -0.002133     -0.169084
      6.43372      9.46309      8.96548         0.387103     -0.002760     -0.071690
      7.90927      7.57047      8.37949         0.259493      0.000265     -1.111091
      6.39322      7.57047     11.01797        -0.079220      0.005371      0.373052
      4.21912      7.57047      9.84497        -1.028593     -0.002231     -0.163409
      1.30597      7.57047      8.96548         0.399984      0.011611     -0.080731
      2.78151      9.46309      8.37949         0.271825     -0.004016     -1.113562
[...]
      2.71601      5.67785     14.55631        -0.002418     -0.000000     -0.000208
      1.98391      5.67786     16.94636        -0.003622     -0.000006     -0.002030
      9.27790      5.67786     15.98841        -0.001470     -0.000018     -0.000048
      0.52244      3.78707     15.42841        -0.002160      0.000370     -0.000786
      9.35710      3.76974     17.98527        -0.000743      0.000839     -0.001336
      7.11809      3.75244     16.88274         0.000182     -0.000559      0.001430
      4.15174      3.78693     16.02032        -0.001274      0.000768      0.000214
      5.64377      5.67786     15.45351        -0.002191     -0.000004     -0.003850
      4.23111      5.67785     18.08914        -0.003268     -0.000006      0.005557
      3.54030      5.67785     20.45362         0.000151     -0.000022     -0.000003
      0.52855      5.67786     19.73656         0.001358     -0.000046     -0.001179
      1.98577      3.78984     18.99900        -0.002391      0.000197      0.000656
      8.63009      3.85810     20.36066        -0.004707     -0.000036      0.001343
      5.68594      3.76588     19.73140         0.000505     -0.000212     -0.001427
      7.08892      5.67786     18.82668        -0.001203     -0.000118     -0.000405
    total drift:                                0.002878     -0.000050     -0.094233

  FREE ENERGIE OF THE ION-ELECTRON SYSTEM (eV)
  free  energy   TOTEN  =     -1640.93248677 eV

  energy  without entropy=    -1640.93248677  energy(sigma->0) =    -1640.93248677

 d Force = 0.3420989E-04[ 0.192E-04, 0.492E-04]  d Energy = 0.2877193E-04 0.544E-05
 d Force = 0.1172755E+02[ 0.117E+02, 0.117E+02]  d Ewald  = 0.1172755E+02 0.955E-06

 Conjugate gradient step on ions:
 trial-energy change:   -0.000029  1 .order   -0.000034   -0.000049   -0.000019
  (g-gl).g = 0.133E-03      g.g   = 0.132E-03  gl.gl    = 0.130E-03
 g(Force)  = 0.132E-03   g(Stress)= 0.000E+00 ortho     =-0.141E-05
 gamma     =   1.02341
 trial     =   0.37775
 opt step  =   0.61851  (harmonic =   0.61851) maximal distance =0.00063953
 next E    = -1640.932498   (d E  =  -0.00004)

 reached required accuracy - stopping structural energy minimisation