 vasp.6.3.0 20Jan22 (build Mar 11 2022 13:48:16) complex

 executed on             LinuxIFC date 2023.12.29  10:44:56

 INCAR:
   SYSTEM = TiO2
   ISMEAR = 0
   SIGMA = 0.05
   EDIFF = 1E-7
   ALGO = ALL
   ISTART = 0
   IBRION = 2
   NSW = 1000
   ISYM = 0
   ISIF = 2
   EDIFFG = -0.01
   DIPOL = 0.5 0.5 0.5
   IDIPOL = 3
   LDIPOL = .TRUE.
   METAGGA = R2SCAN
   LUSE_VDW = .TRUE.
   BPARAM = 11.95
   CPARAM = 0.0093
   LASPH = .TRUE.
   ENCUT = 600
   PREC = Accurate
   LASPH = .TRUE.
   LREAL = .FALSE.
   ISPIN = 1
   NELM = 200
   NELMIN = 8
   NCORE = 19
   KPAR = 1
   LWAVE = .FALSE.
   LCHARG = .FALSE.

 POTCAR:    PAW_PBE H 15Jun2001
 POTCAR:    PAW_PBE O 08Apr2002
 POTCAR:    PAW_PBE Ti_pv 07Sep2000
 POTCAR:    PAW_PBE O 08Apr2002
|               ----> ADVICE to this user running VASP <----                  |
|     You have switched on vdW-DFT.                                           |
|     This routine was written and supplied by Jiri Klimes. We recommend      |
|     that you carefully read and cite the following publications:            |
|       J. Klimes, D.R. Bowler, A. Michelides                                 |
|          J. Phys.: Cond Matt. 22 022201 (2010)                              |
|       J. Klimes, D.R. Bowler, A. Michelides                                 |
|          Phys. Rev. B. 83, 195131 (2011)                                    |
|     and references therein.                                                 |

   TITEL  = PAW_PBE H 15Jun2001
   POMASS =    1.000; ZVAL   =    1.000    mass and valenz
   ENMAX  =  250.000; ENMIN  =  200.000 eV

   TITEL  = PAW_PBE O 08Apr2002
   POMASS =   16.000; ZVAL   =    6.000    mass and valenz
   ENMAX  =  400.000; ENMIN  =  300.000 eV

   TITEL  = PAW_PBE Ti_pv 07Sep2000
   POMASS =   47.880; ZVAL   =   10.000    mass and valenz
   ENMAX  =  222.335; ENMIN  =  166.751 eV

   TITEL  = PAW_PBE O 08Apr2002
   POMASS =   16.000; ZVAL   =    6.000    mass and valenz
   ENMAX  =  400.000; ENMIN  =  300.000 eV

  PAW_PBE H 15Jun2001                   :
  PAW_PBE O 08Apr2002                   :
  PAW_PBE Ti_pv 07Sep2000               :
  PAW_PBE O 08Apr2002                   :

 POSCAR:  H  O Ti  O
  positions in direct lattice
  velocities in cartesian coordinates

 METAGGA = R2SCA    LMAXTAU =  6    LMIXTAU =  F

 ion  position               nearest neighbor table
   1  0.514  0.549  0.801-   3 0.97
   2  0.617  0.497  0.781-   3 0.99
   3  0.540  0.492  0.781-   1 0.97   2 0.99  83 2.17
   4  0.750  0.625  0.287-  85 1.95 145 1.95 144 1.95  84 1.95  87 1.97 166 1.97  14 2.96  34 2.96

   5  0.000  0.750  0.287-  86 1.95  87 1.95 106 1.95 107 1.95  88 1.97  35 2.96  15 2.96
   6  0.000  0.625  0.394-  88 1.95  89 1.95 148 1.95 149 1.95  90 1.97  91 1.97  16 2.96  36 2.96

[...]

  84  0.750  0.750  0.246-   4 1.95  14 1.95
  85  0.750  0.750  0.329-   4 1.95  14 1.95   7 1.97
  86  0.098  0.625  0.287-   5 1.95  35 1.95  44 1.97
  87  0.902  0.625  0.287-   5 1.95  35 1.95   4 1.97
  88  0.000  0.750  0.352-   6 1.95  16 1.95   5 1.97
  89  0.000  0.750  0.435-   6 1.95  16 1.95   9 1.97
  90  0.848  0.625  0.394-   7 1.95  37 1.95   6 1.97
  91  0.152  0.625  0.394-  47 1.95  77 1.95   6 1.97
  92  0.750  0.750  0.458-   8 1.95  18 1.95   7 1.97
  93  0.750  0.750  0.542-   8 1.95  18 1.95  11 2.08
  94  0.098  0.625  0.500-   9 1.95  39 1.95  48 1.97
  95  0.902  0.625  0.500-   9 1.95  39 1.95   8 1.97
  96  0.000  0.750  0.565-  20 1.90  10 1.90   9 1.99
  97  0.999  0.750  0.649-  13 1.81  10 2.01  20 2.01
  98  0.850  0.625  0.606-  10 1.94  41 1.97  11 1.97
  99  0.150  0.625  0.607-  10 1.95  51 1.97  81 1.97
 100  0.754  0.751  0.671-  11 1.88  12 2.06  22 2.09
 101  0.749  0.749  0.755-  12 1.83  22 1.84
 102  0.095  0.625  0.718-  43 1.94  13 1.94  52 2.03
 103  0.907  0.624  0.719-  43 1.95  13 1.95  12 2.02
 104  0.750  0.000  0.246-  14 1.95  24 1.95
 105  0.750  0.000  0.329-  14 1.95  24 1.95  17 1.97
 106  0.098  0.875  0.287-   5 1.95  15 1.95  54 1.97
 107  0.902  0.875  0.287-   5 1.95  15 1.95  14 1.97
 108  0.000  0.000  0.352-  16 1.95  26 1.95  15 1.97
 109  0.000  0.000  0.435-  16 1.95  26 1.95  19 1.97
 110  0.848  0.875  0.394-   7 1.95  17 1.95  16 1.97
 111  0.152  0.875  0.394-  47 1.95  57 1.95  16 1.97
 112  0.750  0.000  0.458-  18 1.95  28 1.95  17 1.97
 113  0.750  0.000  0.542-  18 1.95  28 1.95  21 2.09
 114  0.098  0.875  0.500-   9 1.95  19 1.95  58 1.97
 115  0.902  0.875  0.500-   9 1.95  19 1.95  18 1.97
 116  0.000  1.000  0.565-  30 1.90  20 1.90  19 1.99
 117  1.000  0.000  0.649-  23 1.81  20 2.01  30 2.01
 118  0.850  0.875  0.607-  20 1.95  21 1.97  11 1.97
 119  0.150  0.875  0.607-  20 1.95  61 1.97  51 1.97
 120  0.751  1.000  0.671-  21 1.88  32 2.08  22 2.08
 121  0.751  1.000  0.755-  32 1.83  22 1.83
 122  0.095  0.875  0.718-  13 1.94  23 1.94  62 2.04
 123  0.907  0.875  0.719-  13 1.94  23 1.94  22 2.03
 124  0.750  0.250  0.246-  24 1.95  34 1.95
 125  0.750  0.250  0.329-  24 1.95  34 1.95  27 1.97
 126  0.098  0.125  0.287-  15 1.95  25 1.95  64 1.97
 127  0.902  0.125  0.287-  15 1.95  25 1.95  24 1.97
 128  0.000  0.250  0.352-  26 1.95  36 1.95  25 1.97
 129  0.000  0.250  0.435-  26 1.95  36 1.95  29 1.97
 130  0.848  0.125  0.394-  17 1.95  27 1.95  26 1.97
 131  0.152  0.125  0.394-  57 1.95  67 1.95  26 1.97
 132  0.750  0.250  0.458-  28 1.95  38 1.95  27 1.97
 133  0.750  0.250  0.542-  28 1.95  38 1.95  31 2.08
 134  0.098  0.125  0.500-  19 1.95  29 1.95  68 1.97
 135  0.902  0.125  0.500-  19 1.95  29 1.95  28 1.97
 136  0.000  0.250  0.565-  30 1.90  40 1.90  29 1.99
 137  1.000  0.250  0.649-  33 1.81  40 2.01  30 2.01
 138  0.850  0.125  0.607-  30 1.95  21 1.97  31 1.97
 139  0.150  0.125  0.607-  30 1.95  61 1.97  71 1.97
 140  0.753  0.250  0.671-  31 1.88  42 2.06  32 2.09
 141  0.750  0.251  0.755-  42 1.82  32 1.84
 142  0.094  0.125  0.718-  33 1.94  23 1.94  72 2.04
 143  0.907  0.125  0.719-  33 1.94  23 1.94  32 2.03
[...]
 229  0.500  0.500  0.435-  46 1.95  76 1.95  79 1.97
 230  0.348  0.375  0.394-  67 1.95  77 1.95  76 1.97
 231  0.652  0.375  0.394-  27 1.95  37 1.95  76 1.97
 232  0.250  0.500  0.458-  48 1.95  78 1.95  77 1.97
 233  0.250  0.500  0.542-  48 1.95  78 1.95  81 2.09
 234  0.598  0.375  0.500-  69 1.95  79 1.95  38 1.97
 235  0.402  0.375  0.500-  69 1.95  79 1.95  78 1.97
 236  0.501  0.500  0.565-  50 1.90  80 1.90  79 2.00
 237  0.499  0.500  0.649-  83 1.91  50 1.98  80 1.98
 238  0.350  0.375  0.607-  80 1.95  71 1.97  81 1.97
 239  0.651  0.375  0.608-  80 1.96  31 1.97  41 1.97
 240  0.251  0.500  0.671-  81 1.87  52 2.09  82 2.09
 241  0.252  0.500  0.755-  82 1.83  52 1.83
 242  0.597  0.371  0.714-  73 1.92  83 1.96  42 2.02
 243  0.407  0.374  0.718-  73 1.93  83 1.94  82 2.03

IMPORTANT INFORMATION: All symmetrisations will be switched off!
NOSYMM: (Re-)initialisation of all symmetry stuff for point group C_1.

                                     Primitive cell

  volume of cell :    4687.8040

  direct lattice vectors                    reciprocal lattice vectors
    12.981773603  0.000000000  0.000000000     0.077031077  0.000000000  0.000000000
     0.000000000 11.829932295  0.000000000     0.000000000  0.084531338  0.000000000
     0.000000000  0.000000000 30.524823105     0.000000000  0.000000000  0.032760223

  length of vectors
    12.981773603 11.829932295 30.524823105     0.077031077  0.084531338  0.032760223

  position of ions in fractional coordinates (direct lattice)
     0.513595840  0.548629554  0.800827429
     0.616511101  0.496671650  0.780657142
     0.540023538  0.492134456  0.780937476
     0.750000000  0.625000000  0.287357103
     0.000000000  0.750000000  0.287357103
     0.000000000  0.625000000  0.393678552
     0.750000000  0.750000000  0.393678552
     0.750000000  0.625000000  0.500000000
     0.000000000  0.750000000  0.500000000
     0.000211700  0.625057327  0.604115026
     0.750279003  0.750110161  0.609702264
     0.751615237  0.626170440  0.718437362
     0.000654728  0.750203895  0.708173326
     0.750000000  0.875000000  0.287357103
     0.000000000  0.000000000  0.287357103
     0.000000000  0.875000000  0.393678552
     0.750000000  0.000000000  0.393678552
     0.750000000  0.875000000  0.500000000
     0.000000000  0.000000000  0.500000000
     0.000011051  0.875026199  0.604229157
     0.749789769  0.000019713  0.609994467
     0.750502303  0.875268176  0.719525304
     0.000710856  0.999975342  0.708143533
     0.750000000  0.125000000  0.287357103
     0.000000000  0.250000000  0.287357103
     0.000000000  0.125000000  0.393678552
     0.750000000  0.250000000  0.393678552
     0.750000000  0.125000000  0.500000000
     0.000000000  0.250000000  0.500000000
     0.999967139  0.124948831  0.604201001
     0.750080171  0.249882947  0.609696278
     0.750345617  0.124543583  0.719521991
     0.000598786  0.249766106  0.708164569
     0.750000000  0.375000000  0.287357103
     0.000000000  0.500000000  0.287357103
     0.000000000  0.375000000  0.393678552
     0.750000000  0.500000000  0.393678552
     0.750000000  0.375000000  0.500000000
     0.000000000  0.500000000  0.500000000
     0.000117269  0.374964558  0.604123314
     0.750836674  0.500002331  0.609889288
     0.751912218  0.373617296  0.718509257
     0.001555925  0.500065338  0.708084294
     0.250000000  0.625000000  0.287357103
     0.500000000  0.750000000  0.287357103
     0.500000000  0.625000000  0.393678552
     0.250000000  0.750000000  0.393678552
     0.250000000  0.625000000  0.500000000
     0.500000000  0.750000000  0.500000000
     0.500159670  0.622876273  0.605277785
     0.250378258  0.749910103  0.610014681
     0.251362989  0.625174817  0.719603145
     0.501116565  0.750385290  0.706989256
     0.250000000  0.875000000  0.287357103
     0.500000000  0.000000000  0.287357103
     0.500000000  0.875000000  0.393678552
     0.250000000  0.000000000  0.393678552
     0.250000000  0.875000000  0.500000000
     0.500000000  0.000000000  0.500000000
     0.499659620  0.874183586  0.603248878
[...]
     0.500000000  0.500000000  0.435333986
     0.347946921  0.375000000  0.393678552
     0.652053079  0.375000000  0.393678552
     0.250000000  0.500000000  0.458344566
     0.250000000  0.500000000  0.541655434
     0.597946921  0.375000000  0.500000000
     0.402053079  0.375000000  0.500000000
     0.500502999  0.499800468  0.565358617
     0.498951037  0.500394648  0.649361059
     0.349724181  0.374971404  0.606814886
     0.650595140  0.375040517  0.607508947
     0.250702613  0.500381002  0.671355078
     0.251934872  0.499937446  0.754894042
     0.597085752  0.371302987  0.713632499
     0.407398304  0.373948546  0.717858986

  ion indices of the primitive-cell ions
   primitive index   ion index
                 1           1
                 2           2
                 3           3
                 4           4
                 5           5
                 6           6
                 7           7
                 8           8
                 9           9
                10          10
                11          11
                12          12
[...]
   6.49088680  0.00000000  8.77152475
   6.49088680 10.35119076 12.01696815
   3.24544340  0.00000000 12.01696815
   3.24544340 10.35119076 15.26241155
   6.49088680  0.00000000 15.26241155
   6.48646807 10.34153263 18.41406530
[...]
   6.49088680  5.91496615 13.28849290
   4.51696815  4.43622461 12.01696815
   8.46480545  4.43622461 12.01696815
   3.24544340  5.91496615 13.99088680
   3.24544340  5.91496615 16.53393630
   7.76241155  4.43622461 15.26241155
   5.21936205  4.43622461 15.26241155
   6.49741662  5.91260569 17.25747176
   6.47726940  5.91963481 19.82163147
   4.54004014  4.43588632 18.52291706
   8.44587881  4.43670392 18.54410315
   3.25456456  5.91947338 20.49299499
   3.27056148  5.91422614 23.04300708
   7.75123205  4.39248920 21.78350580
   5.28875255  4.42378599 21.91251856

--------------------------------------- Iteration      FINAL  ---------------------------------------

--------------------OUTCAR has been truncated-------------------------

[...]

--------------------OUTCAR has been truncated-------------------------

  FORCE on cell =-STRESS in cart. coord.  units (eV):
  Direction    XX          YY          ZZ          XY          YZ          ZX
  Alpha Z  4698.38956  4698.38956  4698.38956
  Ewald  983628.03435************************   -26.33332    39.20542   -38.28286
  Hartree************************************    -6.93324     6.70655   -19.44240
  E(xc)   -9167.79045 -9177.04759 -9165.39147     0.14147    -0.24135     0.00148
  Local  ************************************    27.23820   -34.02454    52.71322
  n-local -5200.11229 -5105.77253 -5243.35138    -0.32472     0.03813     0.03078
  augment  5523.54609  5491.77901  5528.77781     0.40409    -0.82259     0.17164
  Kinetic 28815.42709 28343.81443 28874.89935     5.79703   -10.87976     4.69309
  Fock        0.00000     0.00000     0.00000     0.00000     0.00000     0.00000
  Total       4.43029   -44.89681   -35.67676    -0.01051    -0.01815    -0.11505
  in kB       1.51417   -15.34464   -12.19345    -0.00359    -0.00620    -0.03932

 VOLUME and BASIS-vectors are now :
  energy-cutoff  :      600.00
  volume of cell :     4687.80
      direct lattice vectors                 reciprocal lattice vectors
    12.981773603  0.000000000  0.000000000     0.077031077  0.000000000  0.000000000
     0.000000000 11.829932295  0.000000000     0.000000000  0.084531338  0.000000000
     0.000000000  0.000000000 30.524823105     0.000000000  0.000000000  0.032760223

  length of vectors
    12.981773603 11.829932295 30.524823105     0.077031077  0.084531338  0.032760223

 FORCES acting on ions:
    Electron-Ion                     Ewald-Force                    Non-Local-Force
   0.349E+02 -.605E+02 -.459E+03   -.382E+02 0.664E+02 0.465E+03   0.329E+01 -.589E+01 -.551E+01
   -.624E+02 -.215E+01 -.439E+03   0.702E+02 0.236E+01 0.439E+03   -.775E+01 -.211E+00 0.121E+00
   0.532E+02 0.386E+02 -.260E+04   -.712E+02 -.705E+02 0.259E+04   0.180E+02 0.319E+02 0.145E+02
   -.980E-01 -.162E-01 0.381E+04   0.946E-01 0.163E-01 -.381E+04   0.909E-03 0.271E-04 0.444E+00
   -.527E-01 -.316E-01 0.399E+04   0.541E-01 0.317E-01 -.399E+04   -.465E-04 -.164E-04 -.402E+01
   -.215E+00 -.575E-01 0.195E+04   0.223E+00 0.570E-01 -.195E+04   -.132E-02 0.164E-03 -.613E-01
   -.249E+00 -.222E-01 0.194E+04   0.239E+00 0.225E-01 -.194E+04   0.246E-02 0.479E-04 0.222E+00
   -.921E-01 -.155E+00 0.421E+01   0.418E-01 0.135E+00 -.349E+01   0.809E-02 0.115E-02 -.117E+00
   -.871E+00 -.681E+00 0.127E+02   0.900E+00 0.687E+00 -.137E+02   -.962E-02 -.374E-02 0.318E+00
   -.643E+01 -.184E+01 -.188E+04   0.643E+01 0.185E+01 0.188E+04   -.538E-02 -.690E-02 0.146E+00
   -.338E+01 -.740E+01 -.193E+04   0.340E+01 0.740E+01 0.193E+04   -.171E-01 -.666E-02 -.169E+00
   -.716E+02 -.154E+02 -.375E+04   0.714E+02 0.152E+02 0.375E+04   0.195E+00 0.133E+00 -.965E-01
   -.588E+01 -.257E+01 -.381E+04   0.593E+01 0.259E+01 0.381E+04   -.506E-01 -.191E-01 0.116E+01
   -.109E+00 -.211E-01 0.381E+04   0.105E+00 0.214E-01 -.382E+04   0.915E-03 -.161E-04 0.444E+00
   -.501E-01 -.243E-02 0.399E+04   0.514E-01 0.250E-02 -.399E+04   -.509E-04 -.798E-05 -.402E+01
   -.182E+00 -.700E-01 0.195E+04   0.190E+00 0.695E-01 -.195E+04   -.128E-02 0.128E-03 -.612E-01
   -.340E+00 -.165E-01 0.194E+04   0.329E+00 0.162E-01 -.194E+04   0.234E-02 0.363E-05 0.222E+00
   -.141E+01 -.516E+00 0.311E+01   0.137E+01 0.546E+00 -.238E+01   0.647E-02 -.148E-02 -.118E+00
   -.578E+00 -.102E-01 0.117E+02   0.605E+00 0.795E-02 -.127E+02   -.852E-02 0.874E-03 0.317E+00
   -.391E+01 -.144E+01 -.189E+04   0.392E+01 0.145E+01 0.189E+04   -.114E-03 -.746E-02 0.158E+00
   -.206E+01 0.218E+00 -.195E+04   0.208E+01 -.218E+00 0.195E+04   -.188E-01 -.320E-03 -.176E+00
   -.154E+02 -.153E+02 -.379E+04   0.154E+02 0.153E+02 0.379E+04   0.594E-01 0.123E-01 -.243E+00
   -.521E+01 0.230E+00 -.381E+04   0.520E+01 -.228E+00 0.381E+04   0.198E-01 -.165E-02 0.119E+01
   -.108E+00 0.161E-01 0.381E+04   0.104E+00 -.164E-01 -.382E+04   0.910E-03 0.377E-04 0.444E+00
   -.528E-01 0.315E-01 0.399E+04   0.542E-01 -.316E-01 -.399E+04   -.505E-04 0.116E-04 -.402E+01
   -.182E+00 0.597E-01 0.195E+04   0.189E+00 -.593E-01 -.195E+04   -.132E-02 -.131E-03 -.612E-01
   -.230E+00 0.218E-01 0.194E+04   0.220E+00 -.221E-01 -.194E+04   0.237E-02 -.459E-04 0.222E+00
   -.134E+01 0.418E+00 0.309E+01   0.131E+01 -.451E+00 -.236E+01   0.727E-02 0.182E-02 -.118E+00
   -.850E+00 0.683E+00 0.127E+02   0.880E+00 -.686E+00 -.138E+02   -.967E-02 0.276E-02 0.319E+00
   -.326E+01 0.141E+01 -.189E+04   0.326E+01 -.142E+01 0.189E+04   0.178E-02 0.889E-02 0.156E+00
   -.402E+01 0.717E+01 -.193E+04   0.404E+01 -.718E+01 0.193E+04   -.177E-01 0.425E-02 -.175E+00
   -.155E+02 0.154E+02 -.379E+04   0.154E+02 -.154E+02 0.379E+04   0.618E-01 -.220E-02 -.248E+00
   -.554E+01 0.248E+01 -.381E+04   0.559E+01 -.249E+01 0.381E+04   -.490E-01 0.186E-01 0.115E+01
   -.965E-01 0.212E-01 0.381E+04   0.931E-01 -.213E-01 -.381E+04   0.897E-03 -.383E-04 0.444E+00
   -.554E-01 0.246E-02 0.399E+04   0.568E-01 -.253E-02 -.399E+04   -.605E-04 0.787E-05 -.402E+01
   -.215E+00 0.678E-01 0.195E+04   0.223E+00 -.672E-01 -.195E+04   -.135E-02 -.158E-03 -.612E-01
   -.142E+00 0.169E-01 0.194E+04   0.132E+00 -.166E-01 -.194E+04   0.220E-02 -.303E-04 0.222E+00
   0.373E-02 0.254E+00 0.412E+01   -.558E-01 -.231E+00 -.340E+01   0.847E-02 -.131E-02 -.117E+00
   -.104E+01 0.108E-01 0.137E+02   0.107E+01 -.112E-01 -.147E+02   -.101E-01 0.366E-04 0.316E+00
   -.623E+01 0.186E+01 -.188E+04   0.624E+01 -.186E+01 0.188E+04   -.403E-02 0.510E-02 0.151E+00
   -.369E+01 -.572E-01 -.192E+04   0.374E+01 0.567E-01 0.192E+04   -.550E-01 0.548E-03 -.170E+00
   -.719E+02 0.143E+02 -.375E+04   0.718E+02 -.141E+02 0.375E+04   0.149E+00 -.150E+00 -.972E-01
   -.819E+01 -.805E-01 -.381E+04   0.816E+01 0.790E-01 0.381E+04   0.354E-01 0.190E-02 0.111E+01
   0.991E-01 -.122E-01 0.381E+04   -.954E-01 0.121E-01 -.381E+04   -.121E-02 0.494E-05 0.444E+00
   0.513E-01 -.145E-01 0.399E+04   -.532E-01 0.149E-01 -.399E+04   0.560E-03 -.259E-04 -.402E+01
   0.195E+00 0.121E+00 0.195E+04   -.202E+00 -.110E+00 -.195E+04   0.880E-03 -.225E-02 -.633E-01
   0.269E+00 0.258E-01 0.194E+04   -.260E+00 -.258E-01 -.194E+04   -.184E-02 -.271E-06 0.217E+00
   0.976E+00 0.689E-01 0.196E+01   -.929E+00 -.811E-01 -.117E+01   -.116E-01 0.816E-03 -.128E+00
   0.100E+01 0.106E+01 0.158E+02   -.101E+01 -.114E+01 -.166E+02   -.451E-02 0.366E-01 0.247E+00
   0.167E+01 -.116E+02 -.188E+04   -.167E+01 0.116E+02 0.188E+04   0.990E-02 -.687E-01 0.935E-01
   0.104E+02 -.474E+01 -.194E+04   -.104E+02 0.473E+01 0.194E+04   -.240E-01 0.128E-01 -.162E+00
   0.357E+02 -.135E+02 -.377E+04   -.357E+02 0.135E+02 0.377E+04   0.793E-01 0.291E-02 -.282E+00
   0.202E+02 -.553E+02 -.376E+04   -.201E+02 0.553E+02 0.376E+04   -.161E+00 -.211E-01 0.128E+01
   0.110E+00 -.171E-01 0.381E+04   -.106E+00 0.173E-01 -.381E+04   -.126E-02 0.582E-05 0.444E+00
   0.488E-01 -.477E-02 0.399E+04   -.507E-01 0.483E-02 -.399E+04   0.561E-03 0.994E-06 -.402E+01
   0.165E+00 0.739E-01 0.195E+04   -.171E+00 -.735E-01 -.195E+04   0.800E-03 -.895E-03 -.642E-01
   0.357E+00 -.174E-01 0.194E+04   -.347E+00 0.173E-01 -.194E+04   -.191E-02 0.344E-04 0.217E+00
   0.208E+01 -.430E-01 0.167E+01   -.205E+01 0.479E-01 -.885E+00   -.587E-02 -.643E-03 -.127E+00
   0.575E+00 -.209E+00 0.189E+02   -.581E+00 0.209E+00 -.199E+02   -.169E-02 -.692E-03 0.274E+00
   -.180E+01 -.103E+02 -.186E+04   0.178E+01 0.103E+02 0.186E+04   0.274E-01 -.164E-02 0.946E-03
[...]
   -.530E+02 -.265E-01 0.116E+04   0.570E+02 0.258E-01 -.116E+04   -.362E+01 0.837E-03 0.174E+00
   0.531E+02 -.126E-01 0.116E+04   -.572E+02 0.120E-01 -.116E+04   0.363E+01 0.994E-03 0.183E+00
   0.199E+00 0.339E-01 0.509E+03   -.182E+00 -.343E-01 -.514E+03   -.231E-01 0.974E-03 0.431E+01
   0.151E+01 0.211E+00 -.522E+03   -.147E+01 -.210E+00 0.529E+03   -.516E-01 -.235E-02 -.714E+01
   -.543E+02 -.305E+00 0.752E+01   0.591E+02 0.301E+00 -.769E+01   -.519E+01 0.237E-01 0.233E+00
   0.551E+02 -.365E+00 0.703E+01   -.599E+02 0.358E+00 -.720E+01   0.525E+01 0.277E-01 0.241E+00
   -.537E+00 0.694E+00 -.624E+03   0.674E+00 -.797E+00 0.617E+03   -.137E+00 0.103E+00 0.687E+01
   0.124E+02 -.176E+01 -.162E+04   -.130E+02 0.182E+01 0.162E+04   0.564E+00 -.625E-01 -.189E+01
   -.245E+02 0.283E+01 -.113E+04   0.277E+02 -.298E+01 0.113E+04   -.319E+01 0.155E+00 0.113E+01
   0.289E+02 0.293E+01 -.114E+04   -.322E+02 -.294E+01 0.114E+04   0.330E+01 0.238E-02 0.535E+00
   0.135E+02 -.714E+00 -.182E+04   -.134E+02 0.710E+00 0.182E+04   -.718E-01 0.484E-02 -.210E+01
   0.373E+02 0.674E+00 -.273E+04   -.373E+02 -.740E+00 0.276E+04   -.593E-01 0.664E-01 -.213E+02
   -.473E+02 0.450E+02 -.223E+04   0.536E+02 -.448E+02 0.223E+04   -.627E+01 -.153E+00 -.429E+00
   0.646E+02 0.328E+02 -.232E+04   -.710E+02 -.328E+02 0.232E+04   0.637E+01 -.802E-01 -.345E+01
   -.124E+02 -.262E+02 0.804E+02   0.568E-12 -.106E-11 -.227E-10   0.125E+02 0.262E+02 -.805E+02

 POSITION                                       TOTAL-FORCE (eV/Angst)
      6.66738      6.49025     24.44512         0.002077      0.006000     -0.002706
      8.00341      5.87559     23.82942         0.000778     -0.006405      0.005866
      7.01046      5.82192     23.83798        -0.007728      0.001153      0.001729
      9.73633      7.39371      8.77152        -0.003034      0.000148     -3.756724
      0.00000      8.87245      8.77152         0.000800      0.000099      2.940484
      0.00000      7.39371     12.01697         0.005619     -0.000294      0.539528
      9.73633      8.87245     12.01697        -0.008202      0.000370     -0.769813
      9.73633      7.39371     15.26241        -0.042341     -0.018735      0.597019
      0.00000      8.87245     15.26241         0.018975      0.002570     -0.735633
      0.00275      7.39439     18.44050         0.000477     -0.001541      0.001727
      9.73995      8.87375     18.61105         0.000830      0.000888     -0.002611
      9.75730      7.40755     21.93017        -0.004780      0.002117      0.002589
      0.00850      8.87486     21.61687         0.000858     -0.002882     -0.000746
      9.73633     10.35119      8.77152        -0.003165      0.000277     -3.756774
      0.00000      0.00000      8.77152         0.000786      0.000072      2.940233
      0.00000     10.35119     12.01697         0.005410     -0.000381      0.539340
      9.73633      0.00000     12.01697        -0.008442     -0.000219     -0.770159
      9.73633     10.35119     15.26241        -0.030648      0.027925      0.605029
      0.00000      0.00000     15.26241         0.018527     -0.001389     -0.730724
      0.00014     10.35150     18.44399         0.000162     -0.001200     -0.002242
      9.73360      0.00023     18.61997        -0.003495      0.000068      0.002411
      9.74285     10.35436     21.96338         0.005571      0.001959     -0.000607
      0.00923     11.82964     21.61596         0.002826      0.000216     -0.004008
      9.73633      1.47874      8.77152        -0.003148     -0.000199     -3.756930
      0.00000      2.95748      8.77152         0.000818     -0.000082      2.940313
      0.00000      1.47874     12.01697         0.005508      0.000304      0.539174
      9.73633      2.95748     12.01697        -0.008042     -0.000316     -0.770350
      9.73633      1.47874     15.26241        -0.029970     -0.030850      0.602945
      0.00000      2.95748     15.26241         0.020227     -0.000849     -0.736646
     12.98135      1.47814     18.44313         0.001344      0.001604     -0.000731
      9.73737      2.95610     18.61087         0.001235     -0.001137     -0.001484
      9.74082      1.47334     21.96328         0.004765     -0.002355      0.000263
      0.00777      2.95472     21.61660         0.002947      0.001377     -0.000591
      9.73633      4.43622      8.77152        -0.003026     -0.000176     -3.756884
      0.00000      5.91497      8.77152         0.000815     -0.000054      2.940470
      0.00000      4.43622     12.01697         0.005725      0.000427      0.539475
      9.73633      5.91497     12.01697        -0.007872      0.000204     -0.770014
      9.73633      4.43622     15.26241        -0.043717      0.021619      0.595764
      0.00000      5.91497     15.26241         0.019708     -0.000316     -0.740166
      0.00152      4.43581     18.44076         0.000985      0.001653      0.001280
      9.74719      5.91499     18.61676        -0.005612     -0.000100      0.000099
      9.76115      4.41987     21.93237        -0.002802     -0.004070      0.001826
      0.02020      5.91574     21.61415         0.000307      0.000529      0.003011
      3.24544      7.39371      8.77152         0.001975     -0.000077     -3.754125
      6.49089      8.87245      8.77152        -0.001819      0.000304      2.946631
      6.49089      7.39371     12.01697        -0.006217      0.008186      0.561808
      3.24544      8.87245     12.01697         0.006700      0.000075     -0.751824
      3.24544      7.39371     15.26241         0.034463     -0.011233      0.655778
      6.49089      8.87245     15.26241        -0.009665     -0.044956     -0.609520
      6.49296      7.36858     18.47600        -0.001125     -0.002541     -0.000221
      3.25035      8.87139     18.62059         0.002129     -0.000698     -0.001213
      3.26314      7.39578     21.96576         0.003557      0.000350      0.001719
      6.50538      8.87701     21.58072         0.000051     -0.004780     -0.004892
      3.24544     10.35119      8.77152         0.002078      0.000212     -3.754325
      6.49089      0.00000      8.77152        -0.001787      0.000067      2.946563
      6.49089     10.35119     12.01697        -0.006053     -0.000557      0.562833
      3.24544      0.00000     12.01697         0.006898     -0.000035     -0.752377
      3.24544     10.35119     15.26241         0.021354      0.004230      0.651286
      6.49089      0.00000     15.26241        -0.008293     -0.001466     -0.802294
      6.48647     10.34153     18.41407         0.000339     -0.001138      0.000284
[...]
      6.49089      5.91497     13.28849         0.001930     -0.000570     -0.143323
      4.51697      4.43622     12.01697         0.443571      0.000200      0.055944
      8.46481      4.43622     12.01697        -0.437752      0.000336      0.058249
      3.24544      5.91497     13.99089        -0.006771      0.000570     -0.082186
      3.24544      5.91497     16.53394        -0.017997     -0.001780      0.039958
      7.76241      4.43622     15.26241        -0.408667      0.019592      0.064185
      5.21936      4.43622     15.26241         0.441980      0.021011      0.072609
      6.49742      5.91261     17.25747        -0.000161      0.000054      0.004384
      6.47727      5.91963     19.82163         0.003652     -0.000073      0.001017
      4.54004      4.43589     18.52292        -0.001282     -0.000012      0.002225
      8.44588      4.43670     18.54410         0.004013     -0.003815     -0.001878
      3.25456      5.91947     20.49299         0.001757      0.000911      0.002445
      3.27056      5.91423     23.04301        -0.001025      0.000566      0.000532
      7.75123      4.39249     21.78351         0.000954      0.001875      0.003240
      5.28875      4.42379     21.91252         0.000281     -0.001956     -0.000153
    total drift:                                0.121474     -0.002988     -0.085178

  FREE ENERGIE OF THE ION-ELECTRON SYSTEM (eV)
  free  energy   TOTEN  =     -2726.65367443 eV

  energy  without entropy=    -2726.65367443  energy(sigma->0) =    -2726.65367443

 reached required accuracy - stopping structural energy minimisation