 vasp.6.3.0 20Jan22 (build Apr  1 2022 16:44:48) complex
 executed on        HPECrayEX_GCC date 2023.02.23  15:13:41

 INCAR:
   SYSTEM = MgO-rocksalt
   ISMEAR = 0
   SIGMA = 0.05
   EDIFF = 1E-6
   ALGO = ALL
   ISTART = 0
   IBRION = -1
   NSW = 0
   ISYM = 0
   DIPOL = 0.5 0.5 0.5
   IDIPOL = 3
   LDIPOL = .TRUE.
   LHFCALC = .TRUE.
   GGA = B5
   AEXX = 0.2
   AGGAX = 0.72
   AGGAC = 0.81
   ALDAC = 0.19
   IVDW = 1
   VDW_S6 = 1.05
   VDW_C6 = 1.23 0.14 0.63 0.70
   VDW_R0 = 1.397 1.001 1.243 1.342
   ENCUT = 600
   PREC = Accurate
   LASPH = .TRUE.
   LREAL = .FALSE.
   ISPIN = 1
   NELM = 200
   NELMIN = 8
   NCORE = 8
   KPAR = 1
   LWAVE = .FALSE.
   LCHARG = .FALSE.

 POTCAR:    PAW_PBE N 08Apr2002
 POTCAR:    PAW_PBE H 15Jun2001
 POTCAR:    PAW_PBE Mg_pv 13Apr2007
 POTCAR:    PAW_PBE O 08Apr2002
 POTCAR:    PAW_PBE N 08Apr2002
   VRHFIN =N: s2p3

   TITEL  = PAW_PBE N 08Apr2002
   POMASS =   14.001; ZVAL   =    5.000    mass and valenz
   ENMAX  =  400.000; ENMIN  =  300.000 eV

   TITEL  = PAW_PBE H 15Jun2001
   POMASS =    1.000; ZVAL   =    1.000    mass and valenz
   ENMAX  =  250.000; ENMIN  =  200.000 eV

   TITEL  = PAW_PBE Mg_pv 13Apr2007
   POMASS =   24.305; ZVAL   =    8.000    mass and valenz
   ENMAX  =  403.929; ENMIN  =  302.947 eV

   TITEL  = PAW_PBE O 08Apr2002
   POMASS =   16.000; ZVAL   =    6.000    mass and valenz
   ENMAX  =  400.000; ENMIN  =  300.000 eV

  PAW_PBE N 08Apr2002                   :
  PAW_PBE H 15Jun2001                   :
  PAW_PBE Mg_pv 13Apr2007               :
  PAW_PBE O 08Apr2002                   :

 POSCAR:  N  H Mg  O
  positions in direct lattice
 exchange correlation table for  LEXCH =       12
   RHO(1)=    0.500       N(1)  =     2000
   RHO(2)=  100.500       N(2)  =     4000

 ion  position               nearest neighbor table
   1  0.500  0.502  0.760-   3 1.01   4 1.01   2 1.01
   2  0.500  0.618  0.774-   1 1.01
   3  0.402  0.448  0.778-   1 1.01
   4  0.598  0.448  0.778-   1 1.01
   5  0.250  0.000  0.352-  39 2.10  40 2.10  47 2.10  56 2.10  37 2.10
   6  0.500  0.250  0.352-  39 2.10  40 2.10  48 2.10  55 2.10  38 2.10
   7  0.250  0.250  0.451-  37 2.10  38 2.10  45 2.10  54 2.10  39 2.10  43 2.10
   8  0.500  0.000  0.451-  37 2.10  38 2.10  46 2.10  53 2.10  40 2.10  44 2.10
   9  0.250  1.000  0.549-  44 2.10  51 2.10  43 2.10  60 2.10  37 2.10  41 2.14
  10  0.500  0.251  0.550-  52 2.09  59 2.10  43 2.10  44 2.12  38 2.12  42 2.12
  11  0.250  0.249  0.647-  43 2.07  41 2.10  58 2.10  42 2.10  49 2.10
  12  0.500  1.000  0.647-  42 2.08  44 2.08  50 2.08  57 2.11  41 2.11
  13  0.250  0.500  0.352-  39 2.10  47 2.10  48 2.10  64 2.10  45 2.10
  14  0.500  0.750  0.352-  40 2.10  47 2.10  48 2.10  63 2.10  46 2.10
  15  0.250  0.750  0.451-  37 2.10  45 2.10  46 2.10  62 2.10  47 2.10  51 2.11
  16  0.500  0.500  0.451-  38 2.10  45 2.10  46 2.10  61 2.10  48 2.10  52 2.12
  17  0.252  0.500  0.550-  52 2.09  51 2.10  43 2.10  68 2.11  45 2.12  49 2.13
  18  0.500  0.748  0.550-  52 2.09  67 2.10  51 2.10  44 2.11  46 2.12  50 2.13
  19  0.250  0.750  0.647-  51 2.07  66 2.10  41 2.10  49 2.10  50 2.11
  20  0.500  0.499  0.655-  42 2.12  65 2.13  49 2.13  50 2.13  52 2.23
  21  0.750  0.000  0.352-  40 2.10  55 2.10  56 2.10  63 2.10  53 2.10
  22  0.000  0.250  0.352-  39 2.10  55 2.10  56 2.10  64 2.10  54 2.10
  23  0.750  0.250  0.451-  38 2.10  53 2.10  54 2.10  61 2.10  55 2.10  59 2.10
  24  0.000  0.000  0.451-  37 2.10  53 2.10  54 2.10  62 2.10  56 2.10  60 2.10
  25  0.750  1.000  0.549-  44 2.10  67 2.10  59 2.10  60 2.10  53 2.10  57 2.14
  26  1.000  0.250  0.549-  68 2.10  59 2.10  43 2.10  54 2.10  60 2.10  58 2.14
  27  0.750  0.249  0.647-  59 2.07  57 2.10  58 2.10  42 2.10  65 2.10
  28  1.000  1.000  0.647-  60 2.08  57 2.10  41 2.10  66 2.10  58 2.10
  29  0.750  0.500  0.352-  48 2.10  55 2.10  63 2.10  64 2.10  61 2.10
  30  0.000  0.750  0.352-  47 2.10  56 2.10  63 2.10  64 2.10  62 2.10
  31  0.750  0.750  0.451-  46 2.10  53 2.10  61 2.10  62 2.10  63 2.10  67 2.11
  32  0.000  0.500  0.451-  45 2.10  54 2.10  61 2.10  62 2.10  64 2.10  68 2.10
  33  0.748  0.500  0.550-  52 2.09  67 2.10  59 2.10  68 2.11  61 2.12  65 2.13
  34  1.000  0.750  0.549-  68 2.10  67 2.10  51 2.10  60 2.10  62 2.11  66 2.14
  35  0.750  0.750  0.647-  67 2.07  66 2.10  57 2.10  65 2.10  50 2.11
  36  0.000  0.500  0.647-  49 2.08  65 2.08  68 2.08  58 2.11  66 2.11
  37  0.250  0.000  0.451-   7 2.10   8 2.10  15 2.10  24 2.10   5 2.10   9 2.10
  38  0.500  0.250  0.451-   7 2.10   8 2.10  16 2.10  23 2.10   6 2.10  10 2.12
  39  0.250  0.250  0.352-   5 2.10   6 2.10  13 2.10  22 2.10   7 2.10
  40  0.500  0.000  0.352-   5 2.10   6 2.10  14 2.10  21 2.10   8 2.10
  41  0.249  1.000  0.650-  28 2.10  11 2.10  19 2.10  12 2.11   9 2.14
  42  0.500  0.247  0.650-  12 2.08  27 2.10  11 2.10  20 2.12  10 2.12
  43  0.250  0.250  0.549-  11 2.07  26 2.10   9 2.10  17 2.10  10 2.10   7 2.10
  44  0.500  1.000  0.549-  12 2.08  25 2.10   9 2.10   8 2.10  18 2.11  10 2.12
  45  0.250  0.500  0.451-   7 2.10  15 2.10  16 2.10  32 2.10  13 2.10  17 2.12
  46  0.500  0.750  0.451-   8 2.10  15 2.10  16 2.10  31 2.10  14 2.10  18 2.12
  47  0.250  0.750  0.352-   5 2.10  13 2.10  14 2.10  30 2.10  15 2.10
  48  0.500  0.500  0.352-   6 2.10  13 2.10  14 2.10  29 2.10  16 2.10
  49  0.247  0.500  0.650-  36 2.08  11 2.10  19 2.10  20 2.13  17 2.13
  50  0.500  0.753  0.650-  12 2.08  35 2.11  19 2.11  18 2.13  20 2.13
  51  0.250  0.750  0.550-  19 2.07   9 2.10  34 2.10  18 2.10  17 2.10  15 2.11
  52  0.500  0.500  0.550-  18 2.09  17 2.09  33 2.09  10 2.09  16 2.12  20 2.23
  53  0.750  0.000  0.451-   8 2.10  23 2.10  24 2.10  31 2.10  21 2.10  25 2.10
  54  0.000  0.250  0.451-   7 2.10  23 2.10  24 2.10  32 2.10  22 2.10  26 2.10
  55  0.750  0.250  0.352-   6 2.10  21 2.10  22 2.10  29 2.10  23 2.10
  56  0.000  0.000  0.352-   5 2.10  21 2.10  22 2.10  30 2.10  24 2.10
  57  0.751  1.000  0.650-  28 2.10  27 2.10  35 2.10  12 2.11  25 2.14
  58  1.000  0.249  0.650-  28 2.10  27 2.10  11 2.10  36 2.11  26 2.14
  59  0.750  0.250  0.549-  27 2.07  26 2.10  25 2.10  33 2.10  10 2.10  23 2.10
  60  1.000  1.000  0.549-  28 2.08  24 2.10  34 2.10  25 2.10   9 2.10  26 2.10
  61  0.750  0.500  0.451-  16 2.10  23 2.10  31 2.10  32 2.10  29 2.10  33 2.12
  62  0.000  0.750  0.451-  15 2.10  24 2.10  31 2.10  32 2.10  30 2.10  34 2.11
  63  0.750  0.750  0.352-  14 2.10  21 2.10  29 2.10  30 2.10  31 2.10
  64  0.000  0.500  0.352-  13 2.10  22 2.10  29 2.10  30 2.10  32 2.10
  65  0.753  0.500  0.650-  36 2.08  27 2.10  35 2.10  20 2.13  33 2.13
  66  1.000  0.750  0.650-  28 2.10  35 2.10  19 2.10  36 2.11  34 2.14
  67  0.750  0.750  0.550-  35 2.07  25 2.10  34 2.10  18 2.10  33 2.10  31 2.11
  68  0.000  0.500  0.549-  36 2.08  34 2.10  26 2.10  32 2.10  17 2.11  33 2.11

IMPORTANT INFORMATION: All symmetrisations will be switched off!
NOSYMM: (Re-)initialisation of all symmetry stuff for point group C_1.

                                     Primitive cell

  volume of cell :    1504.9259

  direct lattice vectors                    reciprocal lattice vectors
     8.404861995  0.000000000  0.000000000     0.118978753  0.000000000  0.000000000
     0.000000000  8.404861995  0.000000000     0.000000000  0.118978753  0.000000000
     0.000000000  0.000000000 21.303646496     0.000000000  0.000000000  0.046940321

  length of vectors
     8.404861995  8.404861995 21.303646496     0.118978753  0.118978753  0.046940321

  position of ions in fractional coordinates (direct lattice)
     0.499999944  0.502149243  0.760267869
     0.500000034  0.617563335  0.773987834
     0.401937517  0.448266460  0.777840632
     0.598062613  0.448266437  0.777840482
     0.250000000  0.000000000  0.352052406
     0.500000000  0.250000000  0.352052406
     0.250000000  0.250000000  0.450684135
     0.500000000  0.000000000  0.450684135
     0.250364420  0.999831999  0.549477433
     0.500000034  0.251489732  0.550225366
     0.249795854  0.249473908  0.646789003
     0.500000021  0.999934361  0.646994470
     0.250000000  0.500000000  0.352052406
     0.500000000  0.750000000  0.352052406
     0.250000000  0.750000000  0.450684135
     0.500000000  0.500000000  0.450684135
     0.251627110  0.499890738  0.550267156
     0.500000053  0.748245390  0.550307182
     0.249705971  0.749950443  0.646935983
     0.499999993  0.499191956  0.654897984
     0.750000000  0.000000000  0.352052406
     0.000000000  0.250000000  0.352052406
     0.750000000  0.250000000  0.450684135
     0.000000000  0.000000000  0.450684135
     0.749635605  0.999831971  0.549477432
     0.999999998  0.250244413  0.549455002
     0.750204235  0.249473828  0.646788977
     0.999999970  0.999788118  0.647217637
     0.750000000  0.500000000  0.352052406
     0.000000000  0.750000000  0.352052406
     0.750000000  0.750000000  0.450684135
     0.000000000  0.500000000  0.450684135
     0.748372933  0.499890754  0.550267216
     0.999999959  0.749510582  0.549497612
     0.750294033  0.749950448  0.646936038
     0.000000055  0.499770140  0.646993439
     0.250000000  0.000000000  0.450684135
     0.500000000  0.250000000  0.450684135
     0.250000000  0.250000000  0.352052406
     0.500000000  0.000000000  0.352052406
     0.249368353  0.999806238  0.649835296
     0.500000064  0.247072160  0.649871263
     0.249895639  0.249796406  0.549470468
     0.500000027  0.999785892  0.549361331
     0.250000000  0.500000000  0.450684135
     0.500000000  0.750000000  0.450684135
     0.250000000  0.750000000  0.352052406
     0.500000000  0.500000000  0.352052406
     0.247294076  0.499680322  0.650074131
     0.500000004  0.752548192  0.650325762
     0.249976780  0.749936083  0.549544708
     0.499999981  0.499943626  0.550214529
     0.750000000  0.000000000  0.450684135
     0.000000000  0.250000000  0.450684135
     0.750000000  0.250000000  0.352052406
     0.000000000  0.000000000  0.352052406
     0.750631649  0.999806174  0.649835320
     0.999999972  0.249166997  0.649835340
     0.750104399  0.249796364  0.549470458
     0.999999991  0.999858736  0.549375762
     0.750000000  0.500000000  0.450684135
     0.000000000  0.750000000  0.450684135
     0.750000000  0.750000000  0.352052406
     0.000000000  0.500000000  0.352052406
     0.752705898  0.499680247  0.650074076
     0.999999921  0.750411536  0.649837586
     0.750023220  0.749936095  0.549544715
     0.000000022  0.499901832  0.549359006

  ion indices of the primitive-cell ions
   primitive index   ion index
                 1           1
                 2           2
                 3           3
                 4           4
                 5           5
                 6           6
                 7           7
                 8           8
                 9           9
                10          10
                11          11
                12          12
                13          13
                14          14
                15          15
                16          16
                17          17
                18          18
                19          19
[...]
   4.20243053  4.22049509 16.19647792
   4.20243129  5.19053460 16.48876320
   3.37822936  3.76761773 16.57084186
   5.02663372  3.76761754 16.57083867
   2.10121550  0.00000000  7.50000000
   4.20243100  2.10121550  7.50000000
   2.10121550  2.10121550  9.60121550
   4.20243100  0.00000000  9.60121550
   2.10427840  8.40344997 11.70587298
   4.20243129  2.11373649 11.72180669
   2.09949968  2.09679377 13.77896429
   4.20243117  8.40431031 13.78334147
   2.10121550  4.20243100  7.50000000
   4.20243100  6.30364650  7.50000000
   2.10121550  6.30364650  9.60121550
   4.20243100  4.20243100  9.60121550
   2.11489114  4.20151266 11.72269697
   4.20243144  6.28889924 11.72354967
   2.09874423  6.30322998 13.78209549
   4.20243094  4.19563950 13.95171513
   6.30364650  0.00000000  7.50000000
   0.00000000  2.10121550  7.50000000
   6.30364650  2.10121550  9.60121550
   0.00000000  0.00000000  9.60121550
   6.30058381  8.40344974 11.70587297
   8.40486198  2.10326976 11.70539512
   6.30536306  2.09679310 13.77896372
   8.40486174  8.40308116 13.78809575
   6.30364650  4.20243100  7.50000000
   0.00000000  6.30364650  7.50000000
   6.30364650  6.30364650  9.60121550
   0.00000000  4.20243100  9.60121550
   6.28997123  4.20151280 11.72269826
   8.40486165  6.29953300 11.70630287
   6.30611781  6.30323001 13.78209667
   0.00000046  4.20049906 13.78331951
   2.10121550  0.00000000  9.60121550
   4.20243100  2.10121550  9.60121550
   2.10121550  2.10121550  7.50000000
   4.20243100  0.00000000  7.50000000
   2.09590659  8.40323345 13.84386143
   4.20243153  2.07660740 13.84462766
   2.10033836  2.09950432 11.70572462
   4.20243122  8.40306245 11.70339960
   2.10121550  4.20243100  9.60121550
   4.20243100  6.30364650  9.60121550
   2.10121550  6.30364650  7.50000000
   4.20243100  4.20243100  7.50000000
   2.07847258  4.19974415 13.84894948
   4.20243103  6.32506370 13.85431013
   2.10102033  6.30310928 11.70730620
   4.20243084  4.20195718 11.72157583
   6.30364650  0.00000000  9.60121550
   0.00000000  2.10121550  9.60121550
   6.30364650  2.10121550  7.50000000
   0.00000000  0.00000000  7.50000000
   6.30895542  8.40323292 13.84386195
   8.40486176  2.09421422 13.84386236
   6.30452395  2.09950397 11.70572440
   8.40486192  8.40367469 11.70370703
   6.30364650  4.20243100  9.60121550
   0.00000000  6.30364650  9.60121550
   6.30364650  6.30364650  7.50000000
   0.00000000  4.20243100  7.50000000
   6.32638920  4.19974351 13.84894832
   8.40486133  6.30710540 13.84391021
   6.30384165  6.30310938 11.70730634
   0.00000018  4.20160591 11.70335007

--------------------------------------- Iteration      FINAL  ---------------------------------------

--------------------OUTCAR has been truncated-------------------------

[...]

--------------------OUTCAR has been truncated-------------------------

  DFT-D2 method for vdW energy calculation

  Parameters of vdW forcefield:
         C6(Jnm^6/mol)     R0(A)
   N        1.230          1.397
   H        0.140          1.001
   Mg       0.630          1.243
   O        0.700          1.342

  vdW correction parametrized for the method Éý      

  IVDW =   1
  VDW_RADIUS =    50.000 A
  VDW_S6 =     1.050
  VDW_SR =     1.000
  VDW_D =    20.000
  LVDW_EWALD = F

  Number of pair interactions contributing to vdW energy:  823420
  Edisp (eV):   -5.32896

 VOLUME and BASIS-vectors are now :
  energy-cutoff  :      600.00
  volume of cell :     1504.93
      direct lattice vectors                 reciprocal lattice vectors
     8.404861995  0.000000000  0.000000000     0.118978753  0.000000000  0.000000000
     0.000000000  8.404861995  0.000000000     0.000000000  0.118978753  0.000000000
     0.000000000  0.000000000 21.303646496     0.000000000  0.000000000  0.046940321

  length of vectors
     8.404861995  8.404861995 21.303646496     0.118978753  0.118978753  0.046940321

 FORCES acting on ions:
    Electron-Ion                     Ewald-Force                    Non-Local-Force
   0.625E-04 0.251E+01 -.135E+04   -.964E-04 -.391E+01 0.132E+04   0.537E-04 0.131E+01 0.230E+02
   -.470E-04 -.690E+02 -.279E+03   0.500E-04 0.764E+02 0.281E+03   -.531E-05 -.709E+01 -.188E+01
   0.589E+02 0.326E+02 -.280E+03   -.652E+02 -.360E+02 0.283E+03   0.605E+01 0.332E+01 -.250E+01
   -.589E+02 0.326E+02 -.280E+03   0.652E+02 -.360E+02 0.283E+03   -.605E+01 0.332E+01 -.250E+01
   -.673E-01 0.318E-01 0.210E+04   0.786E-01 -.326E-01 -.210E+04   -.725E-02 0.566E-03 -.639E+01
   0.547E-06 -.577E-01 0.210E+04   -.988E-07 0.726E-01 -.210E+04   -.308E-05 -.990E-02 -.643E+01
   -.394E+00 -.408E+00 0.723E+03   0.471E+00 0.485E+00 -.723E+03   -.484E-01 -.490E-01 0.430E+00
   0.399E-04 0.116E+00 0.722E+03   -.409E-04 -.135E+00 -.723E+03   0.117E-05 0.117E-01 0.307E+00
   0.279E+01 0.198E+00 -.651E+03   -.269E+01 -.206E+00 0.651E+03   -.953E-01 0.766E-02 0.291E-01
   0.902E-04 0.295E+01 -.651E+03   -.951E-04 -.250E+01 0.651E+03   0.652E-05 -.422E+00 -.424E+00
   0.195E+02 0.195E+02 -.201E+04   -.196E+02 -.196E+02 0.200E+04   0.842E-01 0.101E+00 0.563E+01
   0.173E-03 -.409E-01 -.202E+04   -.184E-03 0.884E-01 0.201E+04   0.632E-05 -.434E-01 0.545E+01
   -.575E-01 -.329E-01 0.210E+04   0.727E-01 0.332E-01 -.210E+04   -.101E-01 -.139E-03 -.643E+01
   0.148E-05 0.573E-01 0.210E+04   -.927E-06 -.728E-01 -.210E+04   -.238E-05 0.103E-01 -.644E+01
   -.398E+00 0.388E+00 0.722E+03   0.488E+00 -.477E+00 -.723E+03   -.573E-01 0.564E-01 0.456E+00
   -.541E-04 -.153E+00 0.721E+03   0.587E-04 0.160E+00 -.721E+03   -.361E-05 -.478E-02 0.460E+00
   0.292E+01 -.221E+00 -.652E+03   -.246E+01 0.228E+00 0.652E+03   -.425E+00 -.660E-02 -.368E+00
   0.163E-03 -.285E+01 -.653E+03   -.161E-03 0.239E+01 0.653E+03   -.474E-05 0.424E+00 -.290E+00
   0.195E+02 -.195E+02 -.201E+04   -.197E+02 0.196E+02 0.200E+04   0.117E+00 -.926E-01 0.561E+01
   0.452E-04 0.224E+00 -.195E+04   -.496E-04 -.395E+00 0.195E+04   -.193E-06 0.154E+00 0.738E+00
   0.673E-01 0.318E-01 0.210E+04   -.786E-01 -.326E-01 -.210E+04   0.725E-02 0.569E-03 -.639E+01
   -.267E-05 -.676E-01 0.210E+04   0.429E-06 0.786E-01 -.210E+04   0.325E-05 -.707E-02 -.639E+01
   0.394E+00 -.408E+00 0.723E+03   -.471E+00 0.485E+00 -.723E+03   0.484E-01 -.490E-01 0.430E+00
   -.411E-04 0.113E+00 0.722E+03   0.441E-04 -.119E+00 -.723E+03   -.453E-05 0.314E-02 0.383E+00
   -.279E+01 0.198E+00 -.651E+03   0.269E+01 -.206E+00 0.651E+03   0.953E-01 0.766E-02 0.291E-01
   -.159E-03 0.279E+01 -.651E+03   0.153E-03 -.269E+01 0.651E+03   0.111E-05 -.958E-01 0.461E-01
   -.195E+02 0.195E+02 -.201E+04   0.196E+02 -.196E+02 0.200E+04   -.842E-01 0.101E+00 0.563E+01
   -.283E-03 -.660E-01 -.204E+04   0.275E-03 0.699E-01 0.203E+04   0.389E-05 -.307E-02 0.549E+01
   0.575E-01 -.329E-01 0.210E+04   -.727E-01 0.332E-01 -.210E+04   0.101E-01 -.138E-03 -.643E+01
   -.243E-06 0.670E-01 0.210E+04   0.115E-05 -.785E-01 -.210E+04   0.342E-05 0.744E-02 -.639E+01
   0.398E+00 0.388E+00 0.722E+03   -.488E+00 -.477E+00 -.723E+03   0.573E-01 0.564E-01 0.456E+00
   0.382E-04 -.137E+00 0.722E+03   -.427E-04 0.132E+00 -.723E+03   0.515E-06 0.309E-02 0.306E+00
   -.292E+01 -.221E+00 -.652E+03   0.246E+01 0.228E+00 0.652E+03   0.425E+00 -.661E-02 -.368E+00
   -.181E-03 -.280E+01 -.652E+03   0.175E-03 0.269E+01 0.652E+03   0.405E-05 0.963E-01 0.150E-01
   -.195E+02 -.195E+02 -.201E+04   0.197E+02 0.196E+02 0.200E+04   -.117E+00 -.926E-01 0.561E+01
   0.672E-04 0.678E-02 -.202E+04   -.637E-04 -.135E-01 0.201E+04   -.583E-05 0.586E-02 0.545E+01
   -.561E-01 0.915E-01 0.542E+03   0.820E-01 -.812E-01 -.542E+03   -.328E-01 -.125E-01 0.565E-02
   0.541E-05 0.991E-01 0.540E+03   -.101E-04 -.135E+00 -.540E+03   -.188E-05 0.381E-01 -.174E+00
   -.529E-01 -.533E-01 0.158E+04   0.657E-01 0.668E-01 -.158E+04   -.158E-01 -.169E-01 0.312E+01
   0.433E-05 0.249E-01 0.158E+04   -.381E-05 -.259E-01 -.158E+04   -.144E-05 0.132E-02 0.312E+01
   0.743E+01 0.381E-01 -.155E+04   -.726E+01 -.636E-01 0.155E+04   -.147E+00 0.227E-01 -.455E+01
   0.850E-04 0.252E+02 -.151E+04   -.729E-04 -.245E+02 0.152E+04   -.938E-05 -.592E+00 -.445E+01
   0.192E+01 0.187E+01 -.479E+03   -.190E+01 -.185E+01 0.479E+03   -.190E-01 -.132E-01 0.569E+00
   0.104E-03 0.209E+00 -.479E+03   -.111E-03 -.197E+00 0.479E+03   0.209E-05 -.107E-01 0.452E+00
   0.107E+00 -.118E+00 0.540E+03   -.150E+00 0.123E+00 -.540E+03   0.465E-01 -.470E-02 -.186E+00
   0.202E-04 -.112E+00 0.540E+03   -.205E-04 0.162E+00 -.540E+03   -.900E-06 -.542E-01 -.196E+00
   -.543E-01 0.539E-01 0.158E+04   0.683E-01 -.671E-01 -.158E+04   -.174E-01 0.164E-01 0.312E+01
   -.561E-05 -.247E-01 0.158E+04   0.426E-05 0.261E-01 -.158E+04   -.150E-06 -.179E-02 0.309E+01
   0.251E+02 -.626E-01 -.151E+04   -.245E+02 0.768E-01 0.152E+04   -.627E+00 -.127E-01 -.441E+01
   0.883E-04 -.251E+02 -.151E+04   -.103E-03 0.243E+02 0.152E+04   0.787E-05 0.670E+00 -.436E+01
   0.180E+01 -.185E+01 -.480E+03   -.180E+01 0.184E+01 0.480E+03   -.575E-02 0.137E-01 0.561E+00
   -.395E-04 -.299E+00 -.496E+03   0.424E-04 0.287E+00 0.497E+03   -.209E-05 0.103E-01 -.119E+01
   0.561E-01 0.915E-01 0.542E+03   -.820E-01 -.812E-01 -.542E+03   0.328E-01 -.125E-01 0.565E-02
   -.110E-04 -.662E-01 0.542E+03   0.112E-04 0.982E-01 -.542E+03   0.417E-05 -.402E-01 0.601E-02
   0.530E-01 -.533E-01 0.158E+04   -.657E-01 0.668E-01 -.158E+04   0.158E-01 -.169E-01 0.312E+01
   -.520E-05 0.236E-01 0.158E+04   0.396E-05 -.234E-01 -.158E+04   -.854E-06 -.232E-03 0.314E+01
   -.743E+01 0.380E-01 -.155E+04   0.726E+01 -.635E-01 0.155E+04   0.147E+00 0.227E-01 -.455E+01
   -.233E-03 0.744E+01 -.155E+04   0.220E-03 -.728E+01 0.155E+04   -.130E-05 -.144E+00 -.455E+01
   -.192E+01 0.187E+01 -.479E+03   0.190E+01 -.185E+01 0.479E+03   0.190E-01 -.132E-01 0.569E+00
   -.142E-03 0.691E-01 -.486E+03   0.148E-03 -.653E-01 0.486E+03   -.315E-05 -.317E-02 0.305E+00
   -.107E+00 -.118E+00 0.540E+03   0.150E+00 0.123E+00 -.540E+03   -.465E-01 -.470E-02 -.186E+00
   -.213E-04 0.448E-01 0.542E+03   0.210E-04 -.645E-01 -.542E+03   0.111E-06 0.257E-01 0.628E-02
   0.543E-01 0.540E-01 0.158E+04   -.683E-01 -.671E-01 -.158E+04   0.174E-01 0.164E-01 0.312E+01
   0.302E-05 -.233E-01 0.158E+04   -.383E-05 0.234E-01 -.158E+04   0.265E-05 -.165E-03 0.312E+01
   -.251E+02 -.627E-01 -.151E+04   0.245E+02 0.769E-01 0.152E+04   0.627E+00 -.127E-01 -.441E+01
   -.261E-03 -.739E+01 -.155E+04   0.262E-03 0.723E+01 0.155E+04   -.795E-05 0.145E+00 -.455E+01
   -.180E+01 -.185E+01 -.480E+03   0.180E+01 0.184E+01 0.480E+03   0.575E-02 0.137E-01 0.561E+00
   -.435E-04 -.690E-01 -.479E+03   0.416E-04 0.641E-01 0.479E+03   0.157E-05 0.410E-02 0.451E+00
   0.375E-04 -.118E+01 0.383E+01   -.853E-13 -.405E-12 -.534E-11   -.378E-04 0.106E+01 -.296E+01

 POSITION                                       TOTAL-FORCE (eV/Angst)
      4.20243      4.22050     16.19648         0.000024      0.014018     -0.008924
      4.20243      5.19053     16.48876        -0.000002      0.005458     -0.017520
      3.37823      3.76762     16.57084        -0.003935      0.006680     -0.001935
      5.02663      3.76762     16.57084         0.003911      0.006693     -0.001943
      2.10122      0.00000      7.50000         0.003089     -0.000095      0.401457
      4.20243      2.10122      7.50000        -0.000003      0.003922      0.411509
      2.10122      2.10122      9.60122         0.021883      0.021705      0.021939
      4.20243      0.00000      9.60122         0.000000     -0.004876      0.051584
      2.10428      8.40345     11.70587        -0.003322      0.000127      0.005818
      4.20243      2.11374     11.72181         0.000003     -0.005047     -0.007337
      2.09950      2.09679     13.77896        -0.005057     -0.004994      0.001653
      4.20243      8.40431     13.78334        -0.000005      0.000055      0.009443
      2.10122      4.20243      7.50000         0.003877      0.000176      0.412278
      4.20243      6.30365      7.50000        -0.000002     -0.003834      0.412940
      2.10122      6.30365      9.60122         0.025256     -0.025361      0.024164
      4.20243      4.20243      9.60122         0.000001      0.001546      0.064516
      2.11489      4.20151     11.72270        -0.005104     -0.000102     -0.007536
      4.20243      6.28890     11.72355        -0.000004      0.005098     -0.007613
      2.09874      6.30323     13.78210        -0.004725      0.004791      0.001732
      4.20243      4.19564     13.95172        -0.000006     -0.001474     -0.012428
      6.30365      0.00000      7.50000        -0.003090     -0.000091      0.401462
      0.00000      2.10122      7.50000         0.000002      0.003141      0.401660
      6.30365      2.10122      9.60122        -0.021880      0.021709      0.021936
      0.00000      0.00000      9.60122        -0.000002     -0.001556      0.010118
      6.30058      8.40345     11.70587         0.003325      0.000127      0.005815
      8.40486      2.10327     11.70540        -0.000005     -0.003249      0.006273
      6.30536      2.09679     13.77896         0.005056     -0.004985      0.001731
      8.40486      8.40308     13.78810        -0.000004      0.000481     -0.003383
      6.30365      4.20243      7.50000        -0.003874      0.000170      0.412282
      0.00000      6.30365      7.50000         0.000005     -0.003044      0.401137
      6.30365      6.30365      9.60122        -0.025253     -0.025362      0.024162
      0.00000      4.20243      9.60122        -0.000003     -0.001397      0.051626
      6.28997      4.20151     11.72270         0.005096     -0.000108     -0.007533
      8.40486      6.29953     11.70630        -0.000002      0.003432      0.005327
      6.30612      6.30323     13.78210         0.004740      0.004794      0.001717
      0.00000      4.20050     13.78332        -0.000001     -0.000162      0.009412
      2.10122      0.00000      9.60122        -0.011887     -0.003810      0.042872
      4.20243      2.10122      9.60122        -0.000007      0.007352      0.062188
      2.10122      2.10122      7.50000        -0.005262     -0.005534     -0.493519
      4.20243      0.00000      7.50000        -0.000001      0.000532     -0.494523
      2.09591      8.40323     13.84386        -0.000825      0.000068      0.001066
      4.20243      2.07661     13.84463         0.000002      0.001032      0.003533
      2.10034      2.09950     11.70572        -0.003111     -0.003135      0.001525
      4.20243      8.40306     11.70340        -0.000005      0.000303     -0.000574
      2.10122      4.20243      9.60122         0.009791     -0.001062      0.062401
      4.20243      6.30365      9.60122        -0.000001     -0.012047      0.062680
      2.10122      6.30365      7.50000        -0.005810      0.005536     -0.493666
      4.20243      4.20243      7.50000        -0.000001     -0.000521     -0.502707
      2.07847      4.19974     13.84895         0.000862     -0.000314      0.004209
      4.20243      6.32506     13.85431        -0.000006     -0.000556      0.005202
      2.10102      6.30311     11.70731        -0.003060      0.003070      0.001857
      4.20243      4.20196     11.72158         0.000001     -0.000144      0.012761
      6.30365      0.00000      9.60122         0.011890     -0.003814      0.042873
      0.00000      2.10122      9.60122         0.000005     -0.013993      0.040291
      6.30365      2.10122      7.50000         0.005268     -0.005536     -0.493527
      0.00000      0.00000      7.50000        -0.000002      0.000015     -0.487620
      6.30896      8.40323     13.84386         0.000844      0.000078      0.001107
      8.40486      2.09421     13.84386        -0.000015     -0.000885      0.001694
      6.30452      2.09950     11.70572         0.003117     -0.003126      0.001530
      8.40486      8.40367     11.70371         0.000003      0.000463     -0.005004
      6.30365      4.20243      9.60122        -0.009790     -0.001061      0.062408
      0.00000      6.30365      9.60122        -0.000000      0.009917      0.045544
      6.30365      6.30365      7.50000         0.005805      0.005540     -0.493653
      0.00000      4.20243      7.50000         0.000002      0.000028     -0.494518
      6.32639      4.19974     13.84895        -0.000850     -0.000307      0.004229
      8.40486      6.30711     13.84391        -0.000006      0.000695      0.000487
      6.30384      6.30311     11.70731         0.003064      0.003067      0.001853
      0.00000      4.20161     11.70335         0.000000     -0.000235     -0.000535
    total drift:                               -0.000005     -0.006458     -0.008630

  FREE ENERGIE OF THE ION-ELECTRON SYSTEM (eV)
  free  energy   TOTEN  =      -462.19641028 eV

  energy  without entropy=     -462.19641028  energy(sigma->0) =     -462.19641028