 vasp.6.3.0 20Jan22 (build Apr  1 2022 16:44:48) gamma-only
 executed on        HPECrayEX_GCC date 2023.03.12  03:52:12

 INCAR:
   SYSTEM = MgO-rocksalt
   ISMEAR = 0
   SIGMA = 0.05
   EDIFF = 1E-6
   ALGO = ALL
   ISTART = 0
   IBRION = -1
   NSW = 0
   ISYM = 0
   DIPOL = 0.5 0.5 0.5
   IDIPOL = 3
   LDIPOL = .TRUE.
   LHFCALC = .TRUE.
   GGA = B5
   AEXX = 0.2
   AGGAX = 0.72
   AGGAC = 0.81
   ALDAC = 0.19
   IVDW = 1
   VDW_S6 = 1.05
   VDW_C6 = 0.63 0.70
   VDW_R0 = 1.243 1.342
   ENCUT = 520
   PREC = Accurate
   LASPH = .TRUE.
   LREAL = Auto
   ISPIN = 1
   NELM = 200
   NELMIN = 8
   NCORE = 8
   KPAR = 1
   LWAVE = .FALSE.
   LCHARG = .FALSE.

 POTCAR:    PAW_PBE Mg_pv 13Apr2007
 POTCAR:    PAW_PBE O 08Apr2002
 POTCAR:    PAW_PBE Mg_pv 13Apr2007
   VRHFIN =Mg: p6s2

   TITEL  = PAW_PBE Mg_pv 13Apr2007
   POMASS =   24.305; ZVAL   =    8.000    mass and valenz
   ENMAX  =  403.929; ENMIN  =  302.947 eV

   TITEL  = PAW_PBE O 08Apr2002
   POMASS =   16.000; ZVAL   =    6.000    mass and valenz
   ENMAX  =  400.000; ENMIN  =  300.000 eV

 Optimization of the real space projectors (new method)

 maximal supplied QI-value         = 18.90
 optimisation between [QCUT,QGAM] = [ 11.53, 23.24] = [ 37.21,151.29] Ry
 Optimized for a Real-space Cutoff    1.28 Angstroem

   l    n(q)    QCUT    max X(q) W(low)/X(q) W(high)/X(q)  e(spline)
   1      8    11.527     2.974    0.44E-04    0.56E-04    0.12E-06
   1      8    11.527     4.279    0.12E-03    0.12E-03    0.26E-06
   0      9    11.527    16.381    0.46E-04    0.64E-04    0.78E-07
   0      9    11.527     5.611    0.26E-04    0.43E-04    0.55E-07
   2      8    11.527     4.652    0.22E-03    0.72E-04    0.47E-07
 Optimization of the real space projectors (new method)

 maximal supplied QI-value         = 24.76
 optimisation between [QCUT,QGAM] = [ 11.64, 23.27] = [ 37.91,151.63] Ry
 Optimized for a Real-space Cutoff    1.14 Angstroem

   l    n(q)    QCUT    max X(q) W(low)/X(q) W(high)/X(q)  e(spline)
   0      8    11.635    20.381    0.10E-03    0.33E-03    0.24E-06
   0      8    11.635    15.268    0.11E-03    0.35E-03    0.26E-06
   1      7    11.635     5.964    0.24E-03    0.31E-03    0.30E-06
   1      7    11.635     5.382    0.22E-03    0.25E-03    0.26E-06
|               ----> ADVICE to this user running VASP <----                  |
|     You enforced a specific xc type in the INCAR file but a different       |
|     type was found in the POTCAR file.                                      |
|     I HOPE YOU KNOW WHAT YOU ARE DOING!                                     |

  PAW_PBE Mg_pv 13Apr2007               :
  PAW_PBE O 08Apr2002                   :

 POSCAR: Mg  O
  positions in direct lattice
 exchange correlation table for  LEXCH =       12
   RHO(1)=    0.500       N(1)  =     2000
   RHO(2)=  100.500       N(2)  =     4000

 ion  position               nearest neighbor table
   1  0.125  0.000  0.352- 131 2.10 132 2.10 148 2.10 171 2.10 129 2.10
   2  0.250  0.125  0.352- 131 2.10 132 2.10 140 2.10 147 2.10 130 2.10
   3  0.125  0.125  0.451- 129 2.10 130 2.10 137 2.10 146 2.10 131 2.10 135 2.10
   4  0.250  0.000  0.451- 129 2.10 130 2.10 145 2.10 170 2.10 132 2.10 136 2.10
   5  0.125  0.000  0.550- 135 2.10 136 2.10 175 2.10 152 2.10 129 2.11 133 2.13
   6  0.250  0.125  0.550- 144 2.10 151 2.10 136 2.10 135 2.10 130 2.11 134 2.14
   7  0.125  0.125  0.647- 135 2.09 134 2.10 141 2.10 150 2.10 133 2.10
   8  0.250  1.000  0.647- 136 2.09 134 2.09 149 2.10 174 2.10 133 2.10
   9  0.125  0.250  0.352- 131 2.10 139 2.10 140 2.10 156 2.10 137 2.10
  10  0.250  0.375  0.352- 139 2.10 140 2.10 155 2.10 164 2.10 138 2.10
  11  0.125  0.375  0.451- 137 2.10 138 2.10 154 2.10 161 2.10 139 2.10 143 2.10
  12  0.250  0.250  0.451- 144 2.10 137 2.10 138 2.10 130 2.10 153 2.10 140 2.10
  13  0.125  0.250  0.550- 144 2.09 160 2.10 143 2.10 135 2.10 137 2.11 141 2.14
  14  0.250  0.375  0.550- 159 2.08 144 2.10 168 2.10 138 2.11 143 2.11 142 2.13
  15  0.125  0.375  0.647- 143 2.08 142 2.08 158 2.10 165 2.10 141 2.10
  16  0.250  0.250  0.646- 144 2.07 157 2.08 141 2.10 134 2.11 142 2.11
  17  0.375  0.000  0.352- 132 2.10 147 2.10 187 2.10 212 2.10 145 2.10
  18  0.000  0.125  0.352- 131 2.10 148 2.10 156 2.10 211 2.10 146 2.10
  19  0.375  0.125  0.451- 151 2.10 145 2.10 130 2.10 153 2.10 210 2.10 147 2.10
  20  0.000  0.000  0.451- 129 2.10 146 2.10 186 2.10 209 2.10 148 2.10 152 2.11
  21  0.375  1.000  0.550- 151 2.09 191 2.10 216 2.10 136 2.10 145 2.11 149 2.14
  22  0.000  0.125  0.550- 135 2.10 215 2.10 160 2.10 152 2.10 146 2.11 150 2.13
  23  0.375  0.125  0.646- 151 2.07 157 2.08 149 2.10 134 2.11 214 2.11
  24  0.000  1.000  0.647- 152 2.09 133 2.10 213 2.10 150 2.10 190 2.10
  25  0.375  0.250  0.352- 140 2.10 147 2.10 155 2.10 220 2.10 153 2.10
  26  0.000  0.375  0.352- 139 2.10 156 2.10 180 2.10 219 2.10 154 2.10
  27  0.375  0.375  0.451- 138 2.10 153 2.10 177 2.10 218 2.10 155 2.10 159 2.11
  28  0.000  0.250  0.451- 137 2.10 146 2.10 154 2.10 217 2.10 156 2.10 160 2.11
  29  0.376  0.251  0.550- 224 2.09 159 2.09 157 2.10 144 2.12 153 2.12 151 2.12
  30  0.000  0.375  0.550- 143 2.10 223 2.10 160 2.10 184 2.10 154 2.11 158 2.13
  31  0.375  0.375  0.650- 222 2.11 142 2.11 157 2.12 181 2.13 159 2.15
  32  0.000  0.250  0.647- 160 2.08 141 2.10 221 2.10 150 2.10 158 2.10
  33  0.125  0.500  0.352- 139 2.10 163 2.10 164 2.10 180 2.10 161 2.10
  34  0.250  0.625  0.352- 163 2.10 164 2.10 172 2.10 179 2.10 162 2.10
  35  0.125  0.625  0.451- 161 2.10 162 2.10 169 2.10 178 2.10 163 2.10 167 2.10
  36  0.250  0.500  0.451- 168 2.10 161 2.10 162 2.10 138 2.10 177 2.10 164 2.10
  37  0.125  0.500  0.550- 168 2.09 184 2.10 143 2.10 167 2.10 161 2.11 165 2.14
  38  0.250  0.625  0.550- 183 2.10 168 2.10 176 2.10 167 2.10 162 2.11 166 2.14
  39  0.125  0.625  0.647- 167 2.09 166 2.10 165 2.10 182 2.10 173 2.10
  40  0.250  0.500  0.646- 168 2.07 181 2.08 165 2.10 166 2.11 142 2.11
  41  0.125  0.750  0.352- 163 2.10 171 2.10 172 2.10 188 2.10 169 2.10
  42  0.250  0.875  0.352- 132 2.10 171 2.10 172 2.10 187 2.10 170 2.10
  43  0.125  0.875  0.451- 129 2.10 169 2.10 170 2.10 186 2.10 171 2.10 175 2.10
  44  0.250  0.750  0.451- 162 2.10 169 2.10 170 2.10 185 2.10 172 2.10 176 2.10
  45  0.125  0.750  0.550- 176 2.10 167 2.10 192 2.10 175 2.10 169 2.11 173 2.13
  46  0.250  0.875  0.550- 176 2.10 136 2.10 191 2.10 175 2.10 170 2.11 174 2.13
  47  0.125  0.875  0.647- 175 2.09 133 2.10 173 2.10 174 2.10 190 2.10
  48  0.250  0.750  0.647- 176 2.09 166 2.10 189 2.10 174 2.10 173 2.10
  49  0.375  0.500  0.352- 155 2.10 164 2.10 179 2.10 244 2.10 177 2.10
  50  0.000  0.625  0.352- 163 2.10 180 2.10 188 2.10 243 2.10 178 2.10
  51  0.375  0.625  0.451- 183 2.10 177 2.10 162 2.10 185 2.10 242 2.10 179 2.10
  52  0.000  0.500  0.451- 154 2.10 161 2.10 178 2.10 241 2.10 180 2.10 184 2.11
  53  0.376  0.499  0.550- 159 2.09 248 2.09 181 2.11 183 2.12 168 2.12 177 2.12
  54  1.000  0.625  0.550- 247 2.10 167 2.10 184 2.10 192 2.10 178 2.11 182 2.13
  55  0.375  0.625  0.646- 183 2.07 181 2.08 189 2.10 166 2.11 246 2.11
  56  0.000  0.500  0.647- 184 2.08 165 2.10 245 2.10 182 2.10 158 2.10
  57  0.375  0.750  0.352- 172 2.10 179 2.10 187 2.10 252 2.10 185 2.10
  58  0.000  0.875  0.352- 148 2.10 171 2.10 188 2.10 251 2.10 186 2.10
  59  0.375  0.875  0.451- 145 2.10 170 2.10 185 2.10 250 2.10 187 2.10 191 2.11
  60  0.000  0.750  0.451- 169 2.10 178 2.10 186 2.10 249 2.10 188 2.10 192 2.10
[...]
 242  0.500  0.625  0.451-  51 2.10  99 2.10 116 2.10 124 2.10 114 2.10 118 2.11
 243  0.875  0.625  0.352-  50 2.10  98 2.10 113 2.10 121 2.10 115 2.10
 244  0.500  0.500  0.352-  49 2.10  90 2.10  97 2.10 114 2.10 116 2.10
 245  0.875  0.500  0.650-  56 2.10 119 2.10 104 2.10  95 2.10 117 2.14
 246  0.500  0.626  0.650- 128 2.08  55 2.11 103 2.11 120 2.12 118 2.13
 247  0.875  0.625  0.549- 119 2.09  54 2.10 125 2.10 102 2.10 117 2.10 115 2.10
 248  0.500  0.500  0.550- 118 2.09 101 2.09  53 2.09  94 2.11 116 2.11 120 2.15
 249  0.875  0.750  0.451-  60 2.10 108 2.10 115 2.10 123 2.10 121 2.10 125 2.11
 250  0.500  0.875  0.451-  59 2.10  84 2.10 107 2.10 124 2.10 122 2.10 126 2.11
 251  0.875  0.875  0.352-  58 2.10  81 2.10 106 2.10 121 2.10 123 2.10
 252  0.500  0.750  0.352-  57 2.10 105 2.10 114 2.10 122 2.10 124 2.10
 253  0.875  0.750  0.650-  64 2.10 127 2.10 119 2.10 112 2.10 125 2.13
 254  0.500  0.875  0.650- 128 2.10  88 2.10 111 2.10  63 2.10 126 2.13
 255  0.875  0.875  0.549- 127 2.09  62 2.10  85 2.10 125 2.10 110 2.10 123 2.10
 256  0.500  0.750  0.549- 128 2.08 126 2.10 109 2.10  61 2.10 124 2.10 118 2.11

IMPORTANT INFORMATION: All symmetrisations will be switched off!
NOSYMM: (Re-)initialisation of all symmetry stuff for point group C_1.

                                     Primitive cell

  volume of cell :    6019.7037

  direct lattice vectors                    reciprocal lattice vectors
    16.809723990  0.000000000  0.000000000     0.059489377  0.000000000  0.000000000
     0.000000000 16.809723990  0.000000000     0.000000000  0.059489377  0.000000000
     0.000000000  0.000000000 21.303646496     0.000000000  0.000000000  0.046940321

  length of vectors
    16.809723990 16.809723990 21.303646496     0.059489377  0.059489377  0.046940321

  position of ions in fractional coordinates (direct lattice)
     0.125000000  0.000000000  0.352052406
     0.250000000  0.125000000  0.352052406
     0.125000000  0.125000000  0.450684135
     0.250000000  0.000000000  0.450684135
     0.125003413  0.000000379  0.549715161
     0.249990511  0.125000175  0.549503587
     0.124989808  0.124927480  0.647393958
     0.249935399  0.999975596  0.647377790
     0.125000000  0.250000000  0.352052406
     0.250000000  0.375000000  0.352052406
     0.125000000  0.375000000  0.450684135
     0.250000000  0.250000000  0.450684135
     0.124965802  0.250018432  0.549560624
     0.250466641  0.374977988  0.549789275
     0.124916763  0.375016122  0.647016403
     0.249901181  0.249752066  0.646394569
     0.375000000  0.000000000  0.352052406
     0.000000000  0.125000000  0.352052406
     0.375000000  0.125000000  0.450684135
     0.000000000  0.000000000  0.450684135
     0.375012616  0.999947774  0.549556657
     0.000005101  0.124983563  0.549712290
     0.374769445  0.124879305  0.646300458
     0.000002714  0.999975048  0.647420446
     0.375000000  0.250000000  0.352052406
     0.000000000  0.375000000  0.352052406
     0.375000000  0.375000000  0.450684135
     0.000000000  0.250000000  0.450684135
     0.375522539  0.250582216  0.550132969
     0.000005011  0.375001337  0.549596662
     0.374562819  0.374825387  0.650478860
     0.000001312  0.249933376  0.647380910
     0.125000000  0.500000000  0.352052406
     0.250000000  0.625000000  0.352052406
     0.125000000  0.625000000  0.450684135
     0.250000000  0.500000000  0.450684135
     0.124959436  0.499981188  0.549560443
     0.250009140  0.625003114  0.549510458
     0.124983606  0.625056218  0.647381255
     0.249916790  0.500207195  0.646338000
     0.125000000  0.750000000  0.352052406
     0.250000000  0.875000000  0.352052406
[...]
   4.20258464 10.50612983 11.70657653
   2.10093992 10.50702251 13.79158140
   4.20103226  8.40834488 13.76935626
   2.10121550 12.60729299  7.50000000
   4.20243100 14.70850849  7.50000000
   2.10121550 14.70850849  9.60121550
   4.20243100 12.60729299  9.60121550
   2.10131369 12.60721133 11.71099634
   4.20220413 14.70840485 11.71093920
   2.10085391 14.70847681 13.79227625
   4.20144950 12.60727247 13.79178775
   6.30364650  8.40486199  7.50000000
   0.00000000 10.50607749  7.50000000
   6.30364650 10.50607749  9.60121550
   0.00000000  8.40486199  9.60121550
   6.31362931  8.39564690 11.72060385
  16.80970485 10.50634000 11.71088155
   6.29993910 10.50730189 13.77137255
   0.00009949  8.40606125 13.79171632
   6.30364650 12.60729299  7.50000000
   0.00000000 14.70850849  7.50000000
   6.30364650 14.70850849  9.60121550
   0.00000000 12.60729299  9.60121550
[...]
   8.40486199 10.50607749  9.60121550
  14.70850849 10.50607749  7.50000000
   8.40486199  8.40486199  7.50000000
  14.71097699  8.40748220 13.84391492
   8.40454815 10.52706749 13.84272495
  14.71008884 10.50729648 11.70614671
   8.40541408  8.41300265 11.71186091
  14.70850849 12.60729299  9.60121550
   8.40486199 14.70850849  9.60121550
  14.70850849 14.70850849  7.50000000
   8.40486199 12.60729299  7.50000000
  14.71024175 12.60890569 13.84214313
   8.40488582 14.70841366 13.84280895
  14.70902817 14.70856217 11.70603695
   8.40491951 12.61091597 11.70408924

--------------------------------------- Iteration      FINAL  ---------------------------------------

--------------------OUTCAR has been truncated-------------------------

[...]

--------------------OUTCAR has been truncated-------------------------

  DFT-D2 method for vdW energy calculation

  Parameters of vdW forcefield:
         C6(Jnm^6/mol)     R0(A)
   Mg       0.630          1.243
   O        0.700          1.342

  vdW correction parametrized for the method Sý      

  IVDW =   1
  VDW_RADIUS =    50.000 A
  VDW_S6 =     1.050
  VDW_SR =     1.000
  VDW_D =    20.000
  LVDW_EWALD = F

  Number of pair interactions contributing to vdW energy: 2891205
  Edisp (eV):  -20.70679

 VOLUME and BASIS-vectors are now :
  energy-cutoff  :      520.00
  volume of cell :     6019.70
      direct lattice vectors                 reciprocal lattice vectors
    16.809723990  0.000000000  0.000000000     0.059489377  0.000000000  0.000000000
     0.000000000 16.809723990  0.000000000     0.000000000  0.059489377  0.000000000
     0.000000000  0.000000000 21.303646496     0.000000000  0.000000000  0.046940321

  length of vectors
    16.809723990 16.809723990 21.303646496     0.059489377  0.059489377  0.046940321

 FORCES acting on ions:
    Electron-Ion                     Ewald-Force                    Non-Local-Force
   -.107E+00 -.101E+00 0.209E+04   0.959E-01 0.899E-01 -.208E+04   0.781E-02 0.751E-02 -.642E+01
   -.517E+00 -.531E+00 0.209E+04   0.504E+00 0.518E+00 -.208E+04   0.928E-02 0.880E-02 -.641E+01
   -.137E+00 -.137E+00 0.694E+03   0.980E-01 0.996E-01 -.694E+03   0.259E-01 0.249E-01 0.364E+00
   -.105E+00 -.128E+00 0.694E+03   0.680E-01 0.888E-01 -.694E+03   0.248E-01 0.255E-01 0.362E+00
   0.759E-01 0.975E-01 -.697E+03   -.979E-01 -.115E+00 0.698E+03   0.756E-02 0.431E-02 -.281E+00
   -.519E+00 -.541E+00 -.695E+03   0.393E+00 0.422E+00 0.695E+03   0.625E-01 0.550E-01 -.117E+00
   0.404E+00 -.793E+00 -.208E+04   -.377E+00 0.779E+00 0.207E+04   -.501E-01 0.307E-03 0.538E+01
   -.618E+00 0.474E+00 -.208E+04   0.616E+00 -.435E+00 0.207E+04   -.996E-02 -.599E-01 0.538E+01
   -.463E+00 -.239E+00 0.209E+04   0.453E+00 0.229E+00 -.208E+04   0.641E-02 0.667E-02 -.641E+01
   -.111E+01 -.494E-01 0.209E+04   0.111E+01 0.496E-01 -.208E+04   0.463E-02 0.113E-03 -.641E+01
   -.146E+01 -.557E-01 0.694E+03   0.146E+01 0.561E-01 -.694E+03   0.782E-02 -.564E-03 0.348E+00
   -.279E+01 -.140E+01 0.694E+03   0.277E+01 0.139E+01 -.694E+03   0.151E-01 0.820E-02 0.324E+00
   0.572E+00 -.530E+00 -.697E+03   -.618E+00 0.482E+00 0.697E+03   -.944E-02 0.226E-01 -.168E+00
   -.250E+01 -.265E+00 -.699E+03   0.266E+01 0.271E+00 0.699E+03   -.249E+00 -.203E-02 -.108E+00
   0.125E+01 0.143E-01 -.207E+04   -.128E+01 -.118E-01 0.207E+04   -.675E-01 -.425E-02 0.531E+01
   0.136E+01 -.262E+01 -.207E+04   -.165E+01 0.228E+01 0.206E+04   0.504E-01 0.241E+00 0.537E+01
   -.207E+00 -.442E+00 0.209E+04   0.197E+00 0.432E+00 -.208E+04   0.632E-02 0.712E-02 -.641E+01
   -.224E-02 -.126E+00 0.209E+04   0.229E-02 0.111E+00 -.208E+04   -.277E-04 0.105E-01 -.642E+01
   -.129E+01 -.281E+01 0.694E+03   0.129E+01 0.280E+01 -.694E+03   0.702E-02 0.126E-01 0.327E+00
   -.473E-02 -.247E-01 0.694E+03   0.466E-02 0.826E-02 -.694E+03   0.442E-04 0.113E-01 0.357E+00
   -.441E+00 0.483E+00 -.696E+03   0.392E+00 -.545E+00 0.697E+03   0.243E-01 0.681E-02 -.171E+00
   0.966E-02 -.200E+00 -.698E+03   -.778E-02 0.162E+00 0.698E+03   -.218E-02 0.218E-01 -.275E+00
   -.303E+01 0.264E+00 -.207E+04   0.265E+01 -.634E+00 0.206E+04   0.269E+00 0.137E+00 0.539E+01
   -.208E-02 -.275E+00 -.208E+04   0.178E-02 0.257E+00 0.207E+04   -.145E-04 0.105E-01 0.540E+01
   -.836E+00 -.884E+00 0.209E+04   0.832E+00 0.881E+00 -.208E+04   0.283E-02 0.179E-02 -.640E+01
   -.562E-02 -.217E-01 0.209E+04   0.558E-02 0.220E-01 -.208E+04   0.144E-04 -.597E-03 -.641E+01
   -.390E+01 -.178E+00 0.689E+03   0.392E+01 0.185E+00 -.690E+03   -.956E-02 -.439E-02 0.513E+00
   -.780E-02 -.316E-01 0.694E+03   0.100E-01 0.186E-02 -.694E+03   -.147E-02 0.197E-01 0.379E+00
   -.354E+01 -.335E+01 -.700E+03   0.374E+01 0.356E+01 0.701E+03   -.253E+00 -.258E+00 -.373E+00
   -.175E-01 -.192E-01 -.697E+03   0.172E-01 0.220E-01 0.697E+03   -.399E-04 -.152E-02 -.228E+00
   -.427E+01 -.149E+01 -.210E+04   0.340E+01 0.137E+01 0.210E+04   0.573E+00 0.124E+00 0.627E+01
   0.209E-01 -.891E+00 -.208E+04   -.214E-01 0.859E+00 0.207E+04   0.206E-03 0.294E-01 0.538E+01
   -.487E+00 0.203E+00 0.209E+04   0.478E+00 -.193E+00 -.208E+04   0.702E-02 -.693E-02 -.641E+01
   -.553E+00 0.547E+00 0.209E+04   0.541E+00 -.533E+00 -.208E+04   0.871E-02 -.942E-02 -.641E+01
   -.212E+00 0.150E+00 0.694E+03   0.174E+00 -.113E+00 -.694E+03   0.248E-01 -.241E-01 0.360E+00
   -.286E+01 0.130E+01 0.694E+03   0.286E+01 -.129E+01 -.694E+03   0.854E-02 -.708E-02 0.333E+00
   0.281E+00 0.427E+00 -.696E+03   -.344E+00 -.383E+00 0.697E+03   0.838E-02 -.194E-01 -.173E+00
   -.611E+00 0.648E+00 -.695E+03   0.499E+00 -.528E+00 0.695E+03   0.510E-01 -.595E-01 -.122E+00
   0.337E+00 0.644E+00 -.208E+04   -.303E+00 -.643E+00 0.207E+04   -.555E-01 0.108E-01 0.537E+01
   0.169E+00 0.298E+01 -.207E+04   -.537E+00 -.262E+01 0.206E+04   0.140E+00 -.258E+00 0.539E+01
   -.125E+00 0.136E+00 0.209E+04   0.115E+00 -.126E+00 -.208E+04   0.695E-02 -.727E-02 -.642E+01
   -.125E+00 0.339E-01 0.209E+04   0.110E+00 -.345E-01 -.208E+04   0.100E-01 0.639E-03 -.642E+01
   -.403E-01 0.419E-01 0.694E+03   0.248E-01 -.423E-01 -.694E+03   0.110E-01 -.495E-04 0.346E+00
   -.155E+00 0.223E+00 0.694E+03   0.119E+00 -.185E+00 -.694E+03   0.236E-01 -.246E-01 0.365E+00
   0.679E-02 -.101E-03 -.697E+03   -.274E-01 0.203E-01 0.698E+03   0.651E-02 -.682E-02 -.282E+00
   -.157E+00 0.121E+00 -.698E+03   0.122E+00 -.121E+00 0.698E+03   0.204E-01 -.369E-04 -.277E+00
   -.303E+00 0.972E-01 -.208E+04   0.285E+00 -.938E-01 0.207E+04   0.964E-02 -.269E-02 0.539E+01
   -.692E+00 -.316E+00 -.208E+04   0.688E+00 0.290E+00 0.207E+04   -.716E-02 0.490E-01 0.538E+01
   -.860E+00 0.812E+00 0.209E+04   0.857E+00 -.808E+00 -.208E+04   0.137E-02 -.272E-02 -.641E+01
   -.667E-02 0.132E+00 0.209E+04   0.641E-02 -.117E+00 -.208E+04   0.166E-03 -.965E-02 -.642E+01
   -.140E+01 0.288E+01 0.694E+03   0.139E+01 -.287E+01 -.694E+03   0.664E-02 -.113E-01 0.327E+00
   -.206E-01 -.754E-02 0.694E+03   0.185E-01 0.380E-01 -.694E+03   0.150E-02 -.202E-01 0.388E+00
   -.336E+01 0.345E+01 -.701E+03   0.357E+01 -.365E+01 0.701E+03   -.258E+00 0.255E+00 -.363E+00
   -.932E-02 0.177E+00 -.698E+03   0.749E-02 -.144E+00 0.698E+03   0.145E-02 -.191E-01 -.274E+00
   -.255E+01 -.115E+01 -.207E+04   0.223E+01 0.144E+01 0.206E+04   0.223E+00 -.545E-01 0.537E+01
   0.187E-01 0.891E+00 -.208E+04   -.213E-01 -.856E+00 0.207E+04   0.109E-02 -.320E-01 0.539E+01
   -.229E+00 0.515E+00 0.209E+04   0.219E+00 -.506E+00 -.208E+04   0.700E-02 -.628E-02 -.641E+01
   -.309E-02 0.162E-01 0.209E+04   0.301E-02 -.164E-01 -.208E+04   0.561E-04 -.212E-03 -.642E+01
   -.226E-02 0.981E-01 0.694E+03   -.275E-01 -.101E+00 -.694E+03   0.194E-01 0.152E-02 0.376E+00
   -.665E-02 0.615E-01 0.694E+03   0.661E-02 -.460E-01 -.694E+03   0.471E-04 -.106E-01 0.347E+00
[...]
   0.195E+00 0.161E+00 0.157E+04   -.187E+00 -.152E+00 -.158E+04   -.916E-02 -.111E-01 0.312E+01
   0.116E-02 0.759E+00 0.157E+04   -.125E-02 -.758E+00 -.157E+04   0.121E-03 -.152E-02 0.312E+01
   0.944E+00 0.918E+00 -.158E+04   -.915E+00 -.946E+00 0.159E+04   -.600E-01 0.928E-02 -.495E+01
   -.441E+00 0.588E+01 -.158E+04   0.431E+00 -.550E+01 0.159E+04   0.191E-01 -.628E+00 -.460E+01
   0.226E+00 0.310E+00 -.517E+03   -.219E+00 -.312E+00 0.517E+03   -.199E-01 -.123E-01 0.180E+00
   -.180E+00 0.590E+01 -.528E+03   0.192E+00 -.597E+01 0.528E+03   -.132E-01 -.398E-01 0.830E-01
   0.322E-01 0.450E-01 0.520E+03   -.225E-01 -.346E-01 -.520E+03   -.109E-01 -.125E-01 -.109E+00
   0.816E-02 0.767E-01 0.520E+03   -.819E-02 -.772E-01 -.520E+03   0.368E-04 0.157E-02 -.719E-01
   0.518E-01 0.168E-01 0.157E+04   -.458E-01 -.170E-01 -.158E+04   -.746E-02 0.135E-03 0.311E+01
   -.141E-03 0.488E+00 0.157E+04   -.383E-04 -.483E+00 -.157E+04   0.249E-03 -.672E-02 0.312E+01
   0.340E+00 0.302E+00 -.158E+04   -.354E+00 -.314E+00 0.159E+04   0.652E-02 0.475E-02 -.479E+01
   -.378E-03 0.664E-01 -.158E+04   0.103E-02 -.690E-01 0.159E+04   -.945E-03 0.237E-02 -.488E+01
   0.924E-01 0.736E-01 -.517E+03   -.866E-01 -.732E-01 0.517E+03   -.952E-02 -.348E-03 0.205E+00
   0.858E-03 0.265E+01 -.516E+03   -.802E-03 -.274E+01 0.516E+03   -.684E-03 0.279E-01 0.325E+00
   -.105E-01 -.248E-01 0.771E+02   0.992E-12 0.549E-12 -.100E-10   0.594E-02 0.111E-01 -.678E+02

 POSITION                                       TOTAL-FORCE (eV/Angst)
      2.10122      0.00000      7.50000        -0.002056     -0.002472      0.410228
      4.20243      2.10122      7.50000        -0.003011     -0.002559      0.406434
      2.10122      2.10122      9.60122        -0.010397     -0.009151      0.029261
      4.20243      0.00000      9.60122        -0.009516     -0.010637      0.030189
      2.10127      0.00001     11.71094        -0.012445     -0.012025      0.041281
      4.20227      2.10122     11.70643        -0.053494     -0.054404      0.027139
      2.10104      2.10000     13.79185        -0.025662     -0.012407      0.091556
      4.20135     16.80931     13.79151        -0.012077     -0.024417      0.096095
      2.10122      4.20243      7.50000        -0.001850     -0.002129      0.407402
      4.20243      6.30365      7.50000        -0.001702     -0.000286      0.406248
      2.10122      6.30365      9.60122         0.003065     -0.000097      0.024569
      4.20243      4.20243      9.60122         0.001822     -0.002030      0.012227
      2.10064      4.20274     11.70765        -0.051427     -0.020988      0.043996
      4.21028      6.30328     11.71252        -0.103457      0.003525     -0.040692
      2.09982      6.30392     13.78381        -0.089878     -0.002107      0.157862
      4.20077      4.19826     13.77056        -0.215134     -0.075360      0.191981
      6.30365      0.00000      7.50000        -0.002542     -0.002337      0.407078
      0.00000      2.10122      7.50000         0.000033     -0.002926      0.409791
      6.30365      2.10122      9.60122        -0.001712      0.003487      0.012933
      0.00000      0.00000      9.60122        -0.000011     -0.003774      0.040601
      6.30386     16.80885     11.70756        -0.020685     -0.049852      0.043250
      0.00009      2.10094     11.71088        -0.000437     -0.012788      0.043505
      6.29977      2.09919     13.76856        -0.078888     -0.203975      0.207671
      0.00005     16.80930     13.79242        -0.000268     -0.006397      0.085700
      6.30365      4.20243      7.50000        -0.001271     -0.000651      0.405880
      0.00000      6.30365      7.50000        -0.000016     -0.000257      0.406842
      6.30365      6.30365      9.60122         0.013335      0.001960      0.012003
      0.00000      4.20243      9.60122         0.000596     -0.007533      0.026763
      6.31243      4.21222     11.71984        -0.067306     -0.074732     -0.139402
      0.00008      6.30367     11.70841        -0.000320      0.000752      0.055300
      6.29630      6.30071     13.85757        -0.219650      0.017956     -0.553012
      0.00002      4.20131     13.79157        -0.000185     -0.001119      0.099780
      2.10122      8.40486      7.50000        -0.001828      0.002262      0.407136
      4.20243     10.50608      7.50000        -0.002802      0.003380      0.406569
      2.10122     10.50608      9.60122        -0.010011      0.009574      0.029190
      4.20243      8.40486      9.60122         0.004841      0.001418      0.015449
      2.10053      8.40455     11.70764        -0.049024      0.021311      0.043550
      4.20258     10.50613     11.70658        -0.052330      0.051500      0.027340
      2.10094     10.50702     13.79158        -0.024041      0.011439      0.093050
      4.20103      8.40834     13.76936        -0.199254      0.075775      0.204197
      2.10122     12.60729      7.50000        -0.002012      0.002441      0.410396
      4.20243     14.70851      7.50000        -0.003282     -0.000455      0.409765
      2.10122     14.70851      9.60122        -0.003389     -0.000219      0.038140
      4.20243     12.60729      9.60122        -0.009001      0.010237      0.030049
      2.10131     12.60721     11.71100        -0.012489      0.011746      0.039229
      4.20220     14.70840     11.71094        -0.012214      0.000600      0.041372
      2.10085     14.70848     13.79228        -0.006719      0.000276      0.083725
      4.20145     12.60727     13.79179        -0.011449      0.025365      0.094044
      6.30365      8.40486      7.50000        -0.001052      0.000994      0.406111
      0.00000     10.50608      7.50000        -0.000062      0.003729      0.409806
      6.30365     10.50608      9.60122        -0.001710     -0.003200      0.013414
      0.00000      8.40486      9.60122        -0.000458      0.007737      0.028265
      6.31363      8.39565     11.72060        -0.069918      0.069536     -0.136971
     16.80970     10.50634     11.71088        -0.000208      0.011741      0.042789
      6.29994     10.50730     13.77137        -0.072080      0.213017      0.192965
      0.00010      8.40606     13.79172        -0.001327      0.000408      0.099172
      6.30365     12.60729      7.50000        -0.002528      0.002157      0.407510
      0.00000     14.70851      7.50000        -0.000006     -0.000398      0.410846
      6.30365     14.70851      9.60122        -0.007728     -0.000938      0.025881
      0.00000     12.60729      9.60122         0.000024      0.003625      0.039160
[...]
      8.40486     10.50608      9.60122        -0.000109     -0.013466      0.053144
     14.70851     10.50608      7.50000        -0.002994     -0.003591     -0.496649
      8.40486      8.40486      7.50000         0.000054     -0.000436     -0.499923
     14.71098      8.40748     13.84391        -0.040169     -0.018614     -0.114087
      8.40455     10.52707     13.84272         0.011848     -0.346162     -0.002551
     14.71009     10.50730     11.70615        -0.016857     -0.016221     -0.056596
      8.40541      8.41300     11.71186        -0.002429     -0.123129      0.156689
     14.70851     12.60729      9.60122        -0.002813     -0.003821      0.029794
      8.40486     14.70851      9.60122         0.000023      0.001240      0.028154
     14.70851     14.70851      7.50000        -0.002461      0.000046     -0.498936
      8.40486     12.60729      7.50000         0.000116     -0.002135     -0.494813
     14.71024     12.60891     13.84214        -0.007199     -0.007192     -0.063044
      8.40489     14.70841     13.84281        -0.000416      0.000229     -0.093016
     14.70903     14.70856     11.70604        -0.005309     -0.000244     -0.049280
      8.40492     12.61092     11.70409        -0.000710     -0.061324     -0.032563
    total drift:                               -0.003111     -0.007398     -0.075088

  FREE ENERGIE OF THE ION-ELECTRON SYSTEM (eV)
  free  energy   TOTEN  =     -1754.77404899 eV

  energy  without entropy=    -1754.77404899  energy(sigma->0) =    -1754.77404899