 vasp.6.3.0 20Jan22 (build Apr  1 2022 16:44:48) complex
 executed on        HPECrayEX_GCC date 2022.11.13  21:26:20

 INCAR:
   SYSTEM = MgO-rocksalt
   ISMEAR = 0
   SIGMA = 0.05
   EDIFF = 1E-6
   ALGO = ALL
   ISTART = 0
   IBRION = -1
   NSW = 0
   ISYM = 0
   DIPOL = 0.5 0.5 0.5
   IDIPOL = 3
   LDIPOL = .TRUE.
   LHFCALC = .TRUE.
   GGA = B5
   AEXX = 0.2
   AGGAX = 0.72
   AGGAC = 0.81
   ALDAC = 0.19
   IVDW = 1
   VDW_S6 = 1.05
   VDW_C6 = 0.63 0.70
   VDW_R0 = 1.243 1.342
   ENCUT = 600
   PREC = Accurate
   LASPH = .TRUE.
   LREAL = .FALSE.
   ISPIN = 2
   MAGMOM = 0.0 0.0 0.0 0.0 0.0 0.0 0.0 0.0 0.0 0.0 0.0 0.0 0.0 0.0 0.0 0.0 0.0 0.0 0.0 0.0 0.0 0.0 0.0 0.0 0.0 0.0 0.0 0.0 0.0 0.0 0.0 0.0 0.0 0.0 0.0 0.0 0.0 0.0 0.0 0.0 0.0 0.0 0.0 0.0 0.0 0.0 0.0 0.0 0.0 0.0 0.0 0.0 0.0 0.0 0.0 0.0 0.0 0.0 0.0 0.0 0.0 0.0 0.0 0.0
   NELM = 200
   NELMIN = 8
   NCORE = 8
   KPAR = 1
   LWAVE = .FALSE.
   LCHARG = .FALSE.

 POTCAR:    PAW_PBE Mg_pv 13Apr2007
 POTCAR:    PAW_PBE O 08Apr2002
 POTCAR:    PAW_PBE Mg_pv 13Apr2007
   VRHFIN =Mg: p6s2

   TITEL  = PAW_PBE Mg_pv 13Apr2007
   POMASS =   24.305; ZVAL   =    8.000    mass and valenz
   ENMAX  =  403.929; ENMIN  =  302.947 eV

   TITEL  = PAW_PBE O 08Apr2002
   POMASS =   16.000; ZVAL   =    6.000    mass and valenz
   ENMAX  =  400.000; ENMIN  =  300.000 eV

  PAW_PBE Mg_pv 13Apr2007               :
  PAW_PBE O 08Apr2002                   :

 POSCAR: Mg  O
  positions in direct lattice
 exchange correlation table for  LEXCH =       12
   RHO(1)=    0.500       N(1)  =     2000
   RHO(2)=  100.500       N(2)  =     4000

 ion  position               nearest neighbor table
   1  0.000  0.750  0.352-  33 2.11  35 2.11  36 2.11  43 2.11  52 2.11
   2  0.250  0.000  0.352-  34 2.11  35 2.11  36 2.11  44 2.11  51 2.11
   3  0.000  0.000  0.451-  35 2.11  34 2.11  33 2.11  41 2.11  50 2.11  39 2.12
   4  0.250  0.750  0.451-  36 2.11  34 2.11  33 2.11  42 2.11  49 2.11  40 2.12
   5  0.000  0.750  0.550-  40 2.11  56 2.11  47 2.11  39 2.11  33 2.13  37 2.15
   6  0.250  0.000  0.550-  55 2.11  48 2.11  40 2.11  39 2.11  34 2.12  38 2.15
   7  0.001  0.000  0.649-  38 2.11  45 2.11  54 2.11  39 2.11  37 2.11
   8  0.251  0.751  0.649-  38 2.11  53 2.11  40 2.11  46 2.12  37 2.12
   9  0.000  0.250  0.352-  41 2.11  35 2.11  43 2.11  44 2.11  60 2.11
  10  0.250  0.500  0.352-  42 2.11  36 2.11  43 2.11  44 2.11  59 2.11
  11  0.000  0.500  0.451-  43 2.11  41 2.11  42 2.11  33 2.11  58 2.11  47 2.12
  12  0.250  0.250  0.451-  44 2.11  41 2.11  42 2.11  34 2.11  57 2.11  48 2.12
  13  1.000  0.250  0.550-  64 2.11  48 2.11  47 2.11  39 2.11  41 2.13  45 2.15
  14  0.251  0.500  0.550-  63 2.11  48 2.11  40 2.11  47 2.12  42 2.13  46 2.15
  15  0.003  0.500  0.649-  46 2.08  45 2.11  47 2.11  37 2.11  62 2.11
  16  0.251  0.249  0.649-  38 2.11  61 2.11  48 2.11  45 2.12  46 2.12
  17  0.500  0.750  0.352-  49 2.11  36 2.11  51 2.11  52 2.11  59 2.11
  18  0.750  0.000  0.352-  50 2.11  35 2.11  51 2.11  52 2.11  60 2.11
  19  0.500  0.000  0.451-  51 2.11  49 2.11  50 2.11  34 2.11  57 2.11  55 2.11
  20  0.750  0.750  0.451-  52 2.11  49 2.11  50 2.11  33 2.11  58 2.11  56 2.12
  21  0.500  0.750  0.550-  63 2.11  40 2.11  55 2.11  56 2.11  49 2.13  53 2.13
  22  0.750  0.000  0.550-  55 2.11  39 2.11  64 2.11  56 2.12  50 2.12  54 2.15
  23  0.500  0.000  0.649-  61 2.10  53 2.11  38 2.11  55 2.11  54 2.12
  24  0.750  0.753  0.649-  54 2.09  56 2.11  53 2.11  37 2.11  62 2.13
  25  0.500  0.250  0.352-  57 2.11  51 2.11  44 2.11  59 2.11  60 2.11
  26  0.750  0.500  0.352-  58 2.11  52 2.11  43 2.11  59 2.11  60 2.11
  27  0.500  0.500  0.451-  59 2.11  49 2.11  57 2.11  58 2.11  42 2.11  63 2.13
  28  0.750  0.250  0.451-  60 2.11  50 2.11  57 2.11  58 2.11  41 2.11  64 2.12
  29  0.500  0.250  0.550-  63 2.11  64 2.11  48 2.11  55 2.11  61 2.12  57 2.13
  30  0.749  0.500  0.550-  63 2.10  64 2.10  56 2.11  58 2.11  47 2.11  62 2.17
  31  0.498  0.500  0.651-  46 2.09  61 2.12  53 2.12  62 2.15  63 2.15
  32  0.750  0.248  0.649-  54 2.09  61 2.11  45 2.11  64 2.12  62 2.13
  33  0.000  0.750  0.451-   1 2.11   3 2.11   4 2.11  11 2.11  20 2.11   5 2.13
  34  0.250  0.000  0.451-   2 2.11   3 2.11   4 2.11  12 2.11  19 2.11   6 2.12
  35  0.000  0.000  0.352-   3 2.11   2 2.11   1 2.11   9 2.11  18 2.11
  36  0.250  0.750  0.352-   4 2.11   2 2.11   1 2.11  10 2.11  17 2.11
  37  1.000  0.750  0.651-  24 2.11  15 2.11   7 2.11   8 2.12   5 2.15
  38  0.250  0.000  0.651-   8 2.11   7 2.11  16 2.11  23 2.11   6 2.15
  39  1.000  0.000  0.550-  22 2.11   5 2.11  13 2.11   6 2.11   7 2.11   3 2.12
  40  0.250  0.750  0.550-   5 2.11  14 2.11  21 2.11   6 2.11   8 2.11   4 2.12
  41  0.000  0.250  0.451-   9 2.11   3 2.11  11 2.11  12 2.11  28 2.11  13 2.13
  42  0.250  0.500  0.451-  10 2.11   4 2.11  11 2.11  12 2.11  27 2.11  14 2.13
  43  0.000  0.500  0.352-  11 2.11   9 2.11  10 2.11   1 2.11  26 2.11
  44  0.250  0.250  0.352-  12 2.11   9 2.11  10 2.11   2 2.11  25 2.11
  45  1.000  0.250  0.651-  15 2.11   7 2.11  32 2.11  16 2.12  13 2.15
  46  0.250  0.500  0.651-  15 2.08  31 2.09   8 2.12  16 2.12  14 2.15
  47  1.000  0.500  0.550-  15 2.11   5 2.11  13 2.11  30 2.11  14 2.12  11 2.12
  48  0.250  0.250  0.550-  13 2.11  14 2.11  16 2.11   6 2.11  29 2.11  12 2.12
  49  0.500  0.750  0.451-  17 2.11   4 2.11  19 2.11  20 2.11  27 2.11  21 2.13
  50  0.750  0.000  0.451-  18 2.11   3 2.11  19 2.11  20 2.11  28 2.11  22 2.12
  51  0.500  0.000  0.352-  19 2.11  17 2.11  18 2.11   2 2.11  25 2.11
  52  0.750  0.750  0.352-  20 2.11  17 2.11  18 2.11   1 2.11  26 2.11
  53  0.501  0.751  0.650-  23 2.11  24 2.11   8 2.11  31 2.12  21 2.13
  54  0.750  0.000  0.651-  24 2.09  32 2.09   7 2.11  23 2.12  22 2.15
  55  0.500  1.000  0.550-  22 2.11   6 2.11  23 2.11  21 2.11  19 2.11  29 2.11
  56  0.750  0.750  0.550-  24 2.11  30 2.11   5 2.11  21 2.11  22 2.12  20 2.12
  57  0.500  0.250  0.451-  25 2.11  19 2.11  12 2.11  27 2.11  28 2.11  29 2.13
  58  0.750  0.500  0.451-  26 2.11  20 2.11  11 2.11  27 2.11  28 2.11  30 2.11
  59  0.500  0.500  0.352-  27 2.11  17 2.11  25 2.11  26 2.11  10 2.11
  60  0.750  0.250  0.352-  28 2.11  18 2.11  25 2.11  26 2.11   9 2.11
  61  0.500  0.249  0.650-  23 2.10  16 2.11  32 2.11  31 2.12  29 2.12
  62  0.753  0.501  0.651-  15 2.11  24 2.13  32 2.13  31 2.15  30 2.17
  63  0.501  0.500  0.550-  30 2.10  21 2.11  14 2.11  29 2.11  27 2.13  31 2.15
  64  0.750  0.251  0.550-  30 2.10  13 2.11  22 2.11  29 2.11  32 2.12  28 2.12

IMPORTANT INFORMATION: All symmetrisations will be switched off!
NOSYMM: (Re-)initialisation of all symmetry stuff for point group C_1.

                                     Primitive cell

  volume of cell :    1519.8199

  direct lattice vectors                    reciprocal lattice vectors
     8.440984654  0.000000000  0.000000000     0.118469591  0.000000000  0.000000000
     0.000000000  8.440984654  0.000000000     0.000000000  0.118469591  0.000000000
     0.000000000  0.000000000 21.330738491     0.000000000  0.000000000  0.046880702

  length of vectors
     8.440984654  8.440984654 21.330738491     0.118469591  0.118469591  0.046880702

  position of ions in fractional coordinates (direct lattice)
     0.000000000  0.750000000  0.351605267
     0.250000000  0.000000000  0.351605267
     0.000000000  0.000000000  0.450535089
     0.250000000  0.750000000  0.450535089
     0.000205502  0.750039177  0.550223578
     0.250179749  0.000061327  0.550011200
     0.000609174  0.000261594  0.648882696
     0.250583656  0.750672365  0.648872008
     0.000000000  0.250000000  0.351605267
     0.250000000  0.500000000  0.351605267
     0.000000000  0.500000000  0.450535089
     0.250000000  0.250000000  0.450535089
     0.999975671  0.250131481  0.550270989
     0.250794195  0.500015649  0.550238609
     0.003197971  0.500134154  0.649002941
     0.250561257  0.249463133  0.648749730
     0.500000000  0.750000000  0.351605267
     0.750000000  0.000000000  0.351605267
     0.500000000  0.000000000  0.450535089
     0.750000000  0.750000000  0.450535089
     0.500022340  0.749608272  0.550368279
     0.749991503  0.000400057  0.549987879
     0.499795883  0.000231456  0.648601913
     0.750189873  0.753176309  0.648650889
     0.500000000  0.250000000  0.351605267
     0.750000000  0.500000000  0.351605267
     0.500000000  0.500000000  0.450535089
     0.750000000  0.250000000  0.450535089
     0.500061819  0.250380597  0.550369134
     0.749293026  0.499879905  0.549512501
     0.497807100  0.499814175  0.651268068
     0.749692140  0.248240293  0.649388625
     0.000000000  0.750000000  0.450535089
     0.250000000  0.000000000  0.450535089
     0.000000000  0.000000000  0.351605267
     0.250000000  0.750000000  0.351605267
     0.999994137  0.750031476  0.651001288
     0.249972382  0.000019970  0.650724243
     0.999974907  0.000059780  0.549854991
     0.249881374  0.749868313  0.549864366
     0.000000000  0.250000000  0.450535089
     0.250000000  0.500000000  0.450535089
     0.000000000  0.500000000  0.351605267
     0.250000000  0.250000000  0.351605267
     0.999999107  0.250360092  0.651063486
     0.249988513  0.500109867  0.651006783
     0.999511618  0.500112360  0.550134767
     0.249684648  0.250211124  0.549787905
     0.500000000  0.750000000  0.450535089
     0.750000000  0.000000000  0.450535089
     0.500000000  0.000000000  0.351605267
     0.750000000  0.750000000  0.351605267
     0.500679971  0.750732886  0.650448838
     0.750424699  0.000337108  0.650682066
     0.500197432  0.999846331  0.549608034
     0.750335455  0.749588939  0.549977020
     0.500000000  0.250000000  0.450535089
     0.750000000  0.500000000  0.450535089
     0.500000000  0.500000000  0.351605267
     0.750000000  0.250000000  0.351605267
     0.500058095  0.249070166  0.649851433
     0.752701172  0.500737872  0.651103123
     0.500538199  0.500125592  0.550280335
     0.750336196  0.250622409  0.550021707

  ion indices of the primitive-cell ions
   primitive index   ion index
                 1           1
                 2           2
                 3           3
                 4           4
                 5           5
                 6           6
                 7           7
                 8           8
                 9           9
                10          10
                11          11
                12          12
                13          13
                14          14
                15          15
                16          16
                17          17
                18          18
                19          19
                20          20
                21          21
                22          22
                23          23
                24          24
                25          25
                26          26
                27          27
                28          28
                29          29
                30          30
                31          31
                32          32
                33          33
                34          34
                35          35
[...]
   0.25000000  0.50000000  0.45053509
   0.00000000  0.50000000  0.35160527
   0.25000000  0.25000000  0.35160527
   0.99999911  0.25036009  0.65106349
   0.24998851  0.50010987  0.65100678
   0.99951162  0.50011236  0.55013477
   0.24968465  0.25021112  0.54978791
   0.50000000  0.75000000  0.45053509
   0.75000000  0.00000000  0.45053509
   0.50000000  0.00000000  0.35160527
   0.75000000  0.75000000  0.35160527
   0.50067997  0.75073289  0.65044884
   0.75042470  0.00033711  0.65068207
   0.50019743  0.99984633  0.54960803
   0.75033545  0.74958894  0.54997702
   0.50000000  0.25000000  0.45053509
   0.75000000  0.50000000  0.45053509
   0.50000000  0.50000000  0.35160527
   0.75000000  0.25000000  0.35160527
   0.50005809  0.24907017  0.64985143
   0.75270117  0.50073787  0.65110312
   0.50053820  0.50012559  0.55028033
   0.75033620  0.25062241  0.55002171

 position of ions in cartesian coordinates  (Angst):
   0.00000000  6.33073849  7.50000000
   2.11024616  0.00000000  7.50000000
   0.00000000  0.00000000  9.61024616
   2.11024616  6.33073849  9.61024616
   0.00173464  6.33106918 11.73667525
   2.11176342  0.00051766 11.73214508
   0.00514203  0.00220811 13.84114710
   2.11517280  6.33641391 13.84091911
   0.00000000  2.11024616  7.50000000
   2.11024616  4.22049233  7.50000000
   0.00000000  4.22049233  9.61024616
   2.11024616  2.11024616  9.61024616
   8.44077930  2.11135599 11.73768656
   2.11694995  4.22062442 11.73699589
   0.02699402  4.22162472 13.84371202
   2.11498373  2.10571447 13.83831084
   4.22049233  6.33073849  7.50000000
   6.33073849  0.00000000  7.50000000
   4.22049233  0.00000000  9.61024616
   6.33073849  6.33073849  9.61024616
   4.22068090  6.32743192 11.73976183
   6.33066677  0.00337687 11.73164763
   4.21876938  0.00195371 13.83515779
   6.33234121  6.35754966 13.83620248
   4.22049233  2.11024616  7.50000000
   6.33073849  4.22049233  7.50000000
   4.22049233  4.22049233  9.61024616
   6.33073849  2.11024616  9.61024616
   4.22101414  2.11345878 11.73978007
   6.32477093  4.21947860 11.72150745
   4.20198210  4.21892378 13.89202884
   6.32813985  2.09539251 13.85193894
   0.00000000  6.33073849  9.61024616
   2.11024616  0.00000000  9.61024616
   0.00000000  0.00000000  7.50000000
   2.11024616  6.33073849  7.50000000
   8.44093516  6.33100418 13.88633822
   2.11001304  0.00016856 13.88042866
   8.44077285  0.00050460 11.72881301
   2.10924484  6.32962692 11.72901301
   0.00000000  2.11024616  9.61024616
   2.11024616  4.22049233  9.61024616
   0.00000000  4.22049233  7.50000000
   2.11024616  2.11024616  7.50000000
   8.44097712  2.11328569 13.88766496
   2.11014920  4.22141971 13.88645544
   8.43686223  4.22144076 11.73478086
   2.10758428  2.11202825 11.72738203
   4.22049233  6.33073849  9.61024616
   6.33073849  0.00000000  9.61024616
   4.22049233  0.00000000  7.50000000
   6.33073849  6.33073849  7.50000000
   4.22623195  6.33692477 13.87455406
   6.33432336  0.00284552 13.87952900
   4.22215884  8.43968754 11.72354525
   6.33357006  6.32726873 11.73141598
   4.22049233  2.11024616  9.61024616
   6.33073849  4.22049233  9.61024616
   4.22049233  4.22049233  7.50000000
   6.33073849  2.11024616  7.50000000
   4.22098271  2.10239745 13.86181098
   6.35353904  4.22672070 13.88851045
   4.22503526  4.22155245 11.73788592
   6.33357632  2.11549991 11.73236921

--------------------------------------- Iteration      FINAL  ---------------------------------------

--------------------OUTCAR has been truncated-------------------------

[...]

--------------------OUTCAR has been truncated-------------------------

  DFT-D2 method for vdW energy calculation

  Parameters of vdW forcefield:
         C6(Jnm^6/mol)     R0(A)
   Mg       0.630          1.243
   O        0.700          1.342

  vdW correction parametrized for the method vúÿ      

  IVDW =   1
  VDW_RADIUS =    50.000 A
  VDW_S6 =     1.050
  VDW_SR =     1.000
  VDW_D =    20.000
  LVDW_EWALD = F

  Number of pair interactions contributing to vdW energy:  723295
  Edisp (eV):   -5.06619

 VOLUME and BASIS-vectors are now :
  energy-cutoff  :      600.00
  volume of cell :     1519.82
      direct lattice vectors                 reciprocal lattice vectors
     8.440984654  0.000000000  0.000000000     0.118469591  0.000000000  0.000000000
     0.000000000  8.440984654  0.000000000     0.000000000  0.118469591  0.000000000
     0.000000000  0.000000000 21.330738491     0.000000000  0.000000000  0.046880702

  length of vectors
     8.440984654  8.440984654 21.330738491     0.118469591  0.118469591  0.046880702

 FORCES acting on ions:
    Electron-Ion                     Ewald-Force                    Non-Local-Force
   -.212E-01 0.107E+00 0.207E+04   0.240E-01 -.106E+00 -.206E+04   -.186E-02 -.891E-03 -.640E+01
   0.376E-02 0.841E-02 0.207E+04   -.442E-02 -.870E-02 -.206E+04   0.437E-03 0.186E-03 -.638E+01
   0.928E-01 0.169E-01 0.683E+03   -.101E+00 -.869E-02 -.684E+03   0.535E-02 -.526E-02 0.453E+00
   -.120E+00 0.672E+00 0.683E+03   0.123E+00 -.701E+00 -.683E+03   -.157E-02 0.187E-01 0.474E+00
   0.591E+00 0.113E+01 -.691E+03   -.734E+00 -.133E+01 0.691E+03   0.840E-01 0.131E+00 -.183E+00
   0.453E+00 0.212E+00 -.687E+03   -.496E+00 -.224E+00 0.687E+03   0.196E-01 0.590E-02 -.161E-01
   0.271E+00 -.637E-01 -.205E+04   -.130E+00 0.535E-01 0.204E+04   -.129E+00 0.314E-02 0.542E+01
   0.103E-01 0.943E+00 -.205E+04   -.213E+00 -.621E+00 0.204E+04   0.114E+00 -.266E+00 0.549E+01
   -.228E-01 -.107E+00 0.207E+04   0.248E-01 0.106E+00 -.206E+04   -.126E-02 0.629E-03 -.640E+01
   -.524E-02 -.813E-02 0.207E+04   0.665E-02 0.858E-02 -.206E+04   -.109E-02 -.304E-03 -.640E+01
   -.630E+00 0.290E-02 0.682E+03   0.677E+00 -.370E-02 -.682E+03   -.292E-01 0.763E-03 0.445E+00
   -.124E+00 -.664E+00 0.683E+03   0.105E+00 0.696E+00 -.684E+03   0.129E-01 -.206E-01 0.450E+00
   0.827E+00 -.111E+01 -.692E+03   -.992E+00 0.131E+01 0.692E+03   0.108E+00 -.129E+00 -.166E+00
   0.739E-01 -.208E+00 -.690E+03   0.341E-01 0.218E+00 0.690E+03   -.129E+00 -.453E-02 0.325E-01
   0.789E+01 -.660E-01 -.205E+04   -.860E+01 0.934E-01 0.204E+04   0.271E+00 -.108E-01 0.539E+01
   0.104E+01 -.101E+01 -.205E+04   -.125E+01 0.697E+00 0.204E+04   0.937E-01 0.262E+00 0.551E+01
   0.218E-01 0.117E+00 0.207E+04   -.241E-01 -.118E+00 -.206E+04   0.149E-02 0.602E-03 -.640E+01
   -.305E-02 0.107E-01 0.207E+04   0.411E-02 -.100E-01 -.206E+04   -.721E-03 -.496E-03 -.639E+01
   -.784E-01 0.686E-02 0.684E+03   0.943E-01 -.216E-01 -.684E+03   -.101E-01 0.956E-02 0.381E+00
   0.142E+00 -.332E-01 0.683E+03   -.134E+00 0.672E-01 -.683E+03   -.494E-02 -.201E-01 0.436E+00
   -.727E+00 0.238E+01 -.691E+03   0.872E+00 -.262E+01 0.692E+03   -.863E-01 0.186E+00 -.297E+00
   -.432E+00 0.190E+00 -.686E+03   0.470E+00 -.138E+00 0.686E+03   -.165E-01 -.556E-01 0.586E-02
   -.400E+00 0.998E+00 -.205E+04   0.264E+00 -.102E+01 0.204E+04   0.125E+00 -.997E-02 0.548E+01
   0.884E+00 0.106E+02 -.205E+04   -.647E+00 -.110E+02 0.204E+04   -.146E+00 -.325E-01 0.545E+01
   0.224E-01 -.118E+00 0.207E+04   -.244E-01 0.118E+00 -.206E+04   0.125E-02 -.500E-03 -.640E+01
   0.602E-02 -.878E-02 0.207E+04   -.717E-02 0.879E-02 -.206E+04   0.899E-03 0.242E-04 -.638E+01
   0.623E+00 -.345E-02 0.681E+03   -.664E+00 0.147E-01 -.682E+03   0.250E-01 -.773E-02 0.525E+00
   0.133E+00 0.306E-01 0.683E+03   -.114E+00 -.501E-01 -.683E+03   -.130E-01 0.117E-01 0.457E+00
   -.953E+00 -.238E+01 -.689E+03   0.113E+01 0.264E+01 0.690E+03   -.115E+00 -.193E+00 -.431E+00
   0.618E+00 -.201E+00 -.690E+03   -.615E+00 0.187E+00 0.691E+03   0.604E-01 0.304E-01 -.257E+00
   -.129E+02 -.333E+00 -.207E+04   0.130E+02 0.497E+00 0.206E+04   0.259E+00 -.980E-01 0.588E+01
   0.258E+00 -.100E+02 -.206E+04   0.899E-01 0.103E+02 0.205E+04   -.200E+00 0.403E-01 0.559E+01
   0.182E-01 0.394E+00 0.511E+03   -.326E-01 -.404E+00 -.511E+03   0.169E-01 0.113E-01 -.142E+00
   0.103E+00 0.500E-01 0.512E+03   -.103E+00 -.502E-01 -.512E+03   -.108E-02 -.692E-04 -.491E-01
   0.727E-02 0.460E-02 0.155E+04   -.781E-02 -.414E-02 -.156E+04   0.721E-03 -.560E-03 0.313E+01
   -.696E-02 0.109E+00 0.155E+04   0.700E-02 -.111E+00 -.156E+04   -.172E-04 0.316E-02 0.312E+01
   0.921E+00 0.108E+01 -.156E+04   -.120E+01 -.138E+01 0.156E+04   0.359E+00 0.373E+00 -.447E+01
   -.239E-03 0.156E+00 -.156E+04   -.799E-01 -.181E+00 0.156E+04   0.114E+00 0.337E-01 -.439E+01
   0.723E-01 -.342E-01 -.512E+03   -.983E-01 0.237E-01 0.511E+03   0.387E-01 0.134E-01 0.292E+00
   -.204E+00 0.744E+00 -.511E+03   0.175E+00 -.747E+00 0.511E+03   0.491E-01 0.142E-01 0.367E+00
   0.498E-03 -.383E+00 0.511E+03   0.246E-02 0.384E+00 -.511E+03   -.362E-02 -.757E-03 -.156E+00
   0.999E-01 -.442E-01 0.511E+03   -.140E+00 0.405E-01 -.511E+03   0.461E-01 0.479E-02 -.109E+00
   -.554E-01 -.468E-02 0.155E+04   0.600E-01 0.399E-02 -.156E+04   -.574E-02 0.859E-03 0.313E+01
   -.548E-02 -.109E+00 0.155E+04   0.398E-02 0.111E+00 -.156E+04   0.190E-02 -.301E-02 0.312E+01
   0.150E+01 -.934E+00 -.156E+04   -.180E+01 0.121E+01 0.156E+04   0.357E+00 -.340E+00 -.441E+01
   -.137E+01 -.107E+00 -.156E+04   0.120E+01 0.127E+00 0.156E+04   0.253E+00 -.274E-01 -.408E+01
   0.723E+00 0.334E-01 -.514E+03   -.100E+01 -.211E-01 0.514E+03   0.375E+00 -.158E-01 0.623E-01
   0.328E-01 -.752E+00 -.510E+03   -.664E-01 0.757E+00 0.510E+03   0.594E-01 -.164E-01 0.406E+00
   -.324E-02 0.455E+00 0.511E+03   0.485E-02 -.425E+00 -.511E+03   -.177E-02 -.360E-01 -.158E+00
   -.885E-01 0.964E-01 0.512E+03   0.790E-01 -.117E+00 -.512E+03   0.125E-01 0.230E-01 -.683E-01
   -.772E-02 0.601E-02 0.155E+04   0.799E-02 -.711E-02 -.156E+04   -.373E-03 0.138E-02 0.313E+01
   0.657E-02 0.454E-01 0.155E+04   -.697E-02 -.430E-01 -.156E+04   0.484E-03 -.304E-02 0.313E+01
   -.161E+01 0.380E+01 -.155E+04   0.188E+01 -.400E+01 0.156E+04   -.328E+00 0.171E+00 -.405E+01
   0.673E-01 -.770E+00 -.156E+04   0.113E-01 0.827E+00 0.156E+04   -.112E+00 -.343E-01 -.430E+01
   -.921E-01 0.181E+00 -.508E+03   0.123E+00 -.194E+00 0.508E+03   -.445E-01 0.235E-01 0.414E+00
   0.330E+00 0.158E+01 -.513E+03   -.296E+00 -.178E+01 0.513E+03   -.540E-01 0.287E+00 0.162E+00
   -.526E-03 -.456E+00 0.511E+03   -.233E-02 0.430E+00 -.511E+03   0.338E-02 0.315E-01 -.140E+00
   -.851E-01 -.605E-01 0.513E+03   0.120E+00 0.643E-01 -.513E+03   -.393E-01 -.373E-02 -.120E-01
   0.548E-01 -.542E-02 0.155E+04   -.597E-01 0.668E-02 -.156E+04   0.598E-02 -.159E-02 0.313E+01
   0.584E-02 -.468E-01 0.155E+04   -.429E-02 0.438E-01 -.156E+04   -.196E-02 0.367E-02 0.313E+01
   -.230E+01 -.412E+01 -.155E+04   0.249E+01 0.425E+01 0.155E+04   -.216E+00 -.665E-01 -.379E+01
   0.477E+01 -.166E+00 -.155E+04   -.454E+01 0.364E+00 0.156E+04   -.451E+00 -.236E+00 -.383E+01
   -.103E+01 -.118E+00 -.522E+03   0.120E+01 0.118E+00 0.523E+03   -.241E+00 -.845E-02 -.346E+00
   0.122E+00 -.153E+01 -.515E+03   -.937E-01 0.171E+01 0.515E+03   -.531E-01 -.254E+00 0.274E-02
   -.473E+00 0.228E+00 0.141E+02   -.150E-12 0.164E-12 -.455E-11   0.436E+00 -.209E+00 -.124E+02

 POSITION                                       TOTAL-FORCE (eV/Angst)
      0.00000      6.33074      7.50000         0.000650      0.000292      0.469320
      2.11025      0.00000      7.50000        -0.000203     -0.000088      0.465024
      0.00000      0.00000      9.61025        -0.001833      0.002308      0.041840
      2.11025      6.33074      9.61025         0.001417     -0.007800      0.039063
      0.00173      6.33107     11.73668        -0.047470     -0.050523      0.026660
      2.11176      0.00052     11.73215        -0.019322     -0.005160     -0.014414
      0.00514      0.00221     13.84115         0.000298     -0.006315     -0.135801
      2.11517      6.33641     13.84092        -0.072288      0.028778     -0.158352
      0.00000      2.11025      7.50000         0.000471     -0.000245      0.470221
      2.11025      4.22049      7.50000         0.000170      0.000102      0.468182
      0.00000      4.22049      9.61025         0.014256      0.000008      0.079712
      2.11025      2.11025      9.61025        -0.004841      0.008814      0.038668
      8.44078      2.11136     11.73769        -0.043099      0.049734      0.021345
      2.11695      4.22062     11.73700        -0.029972      0.004811     -0.042473
      0.02699      4.22162     13.84371        -0.382063      0.014440     -0.131531
      2.11498      2.10571     13.83831        -0.097235     -0.027052     -0.158469
      4.22049      6.33074      7.50000        -0.000611     -0.000109      0.469538
      6.33074      0.00000      7.50000         0.000221      0.000089      0.466815
      4.22049      0.00000      9.61025         0.004379     -0.003976      0.038233
      6.33074      6.33074      9.61025         0.002152      0.010960      0.061135
      4.22068      6.32743     11.73976         0.046364     -0.038107     -0.023130
      6.33067      0.00338     11.73165         0.018168     -0.008040     -0.020750
      4.21877      0.00195     13.83516         0.000088     -0.033973     -0.152644
      6.33234      6.35755     13.83620         0.072221     -0.363802     -0.118501
      4.22049      2.11025      7.50000        -0.000558      0.000035      0.467745
      6.33074      4.22049      7.50000        -0.000193      0.000020      0.463278
      4.22049      4.22049      9.61025        -0.012862      0.002600      0.052819
      6.33074      2.11025      9.61025         0.004586     -0.006246      0.052445
      4.22101      2.11346     11.73978         0.043557      0.040587     -0.049596
      6.32477      4.21948     11.72151         0.063773      0.017322      0.331906
      4.20198      4.21892     13.89203         0.356370      0.052331     -0.517591
      6.32814      2.09539     13.85194         0.119783      0.289147     -0.247836
      0.00000      6.33074      9.61025         0.004696      0.002929      0.055882
      2.11025      0.00000      9.61025        -0.001542     -0.000383      0.065218
      0.00000      0.00000      7.50000         0.000256     -0.000191     -0.434641
      2.11025      6.33074      7.50000        -0.000006      0.001104     -0.434861
      8.44094      6.33100     13.88634         0.130520      0.119342     -0.076181
      2.11001      0.00017     13.88043         0.050406      0.012796     -0.051719
      8.44077      0.00050     11.72881         0.018085      0.004634      0.049278
      2.10924      6.32963     11.72901         0.026664      0.013830      0.067555
      0.00000      2.11025      9.61025        -0.001398      0.000183      0.055499
      2.11025      4.22049      9.61025         0.011909      0.001758      0.069858
      0.00000      4.22049      7.50000        -0.001946      0.000275     -0.433900
      2.11025      2.11025      7.50000         0.000632     -0.001072     -0.434662
      8.44098      2.11329     13.88766         0.112524     -0.111742     -0.064061
      2.11015      4.22142     13.88646         0.115814     -0.011019      0.018784
      8.43686      4.22144     11.73478         0.147750     -0.005738     -0.058579
      2.10758      2.11203     11.72738         0.034354     -0.014703      0.079155
      4.22049      6.33074      9.61025        -0.000304     -0.011578      0.064673
      6.33074      0.00000      9.61025         0.004895      0.006013      0.057297
      4.22049      0.00000      7.50000        -0.000194      0.000459     -0.434234
      6.33074      6.33074      7.50000         0.000122     -0.000992     -0.433468
      4.22623      6.33692     13.87455        -0.109569     -0.009622      0.072190
      6.33432      0.00285     13.87953        -0.049145      0.018769     -0.026238
      4.22216      8.43969     11.72355        -0.020248      0.013705      0.096382
      6.33357      6.32727     11.73142        -0.027850      0.120610     -0.032762
      4.22049      2.11025      9.61025         0.001145      0.010106      0.071231
      6.33074      4.22049      9.61025        -0.009599     -0.000408      0.027428
      4.22049      4.22049      7.50000         0.001957     -0.000558     -0.434062
      6.33074      2.11025      7.50000        -0.000708      0.001200     -0.433595
      4.22098      2.10240     13.86181        -0.051185      0.058949      0.179650
      6.35354      4.22672     13.88851        -0.288108     -0.070880      0.019814
      4.22504      4.22155     11.73789        -0.103868     -0.009717     -0.001424
      6.33358      2.11550     11.73237        -0.032435     -0.109003     -0.018369
    total drift:                                0.002143      0.000793      0.005065

  FREE ENERGIE OF THE ION-ELECTRON SYSTEM (eV)
  free  energy   TOTEN  =      -438.39393789 eV

  energy  without entropy=     -438.39393789  energy(sigma->0) =     -438.39393789