 vasp.6.3.0 20Jan22 (build Mar 11 2022 13:48:16) complex

 executed on             LinuxIFC date 2024.08.23  19:58:17

 INCAR:
   SYSTEM = MgO-rocksalt
   ISMEAR = 0
   SIGMA = 0.05
   EDIFF = 1E-7
   ALGO = ALL
   ISTART = 0
   IBRION = 2
   NSW = 1000
   ISYM = 0
   ISIF = 2
   EDIFFG = -0.01
   DIPOL = 0.5 0.5 0.5
   IDIPOL = 3
   LDIPOL = .TRUE.
   GGA = RE
   AGGAC = 0.0
   LUSE_VDW = .TRUE.
   LASPH = .TRUE.
   ENCUT = 600
   PREC = Accurate
   LASPH = .TRUE.
   LREAL = .FALSE.
   ISPIN = 1
   NELM = 200
   NELMIN = 8
   NCORE = 8
   KPAR = 1
   LWAVE = .FALSE.
   LCHARG = .FALSE.

 POTCAR:    PAW_PBE Ti_pv 07Sep2000
 POTCAR:    PAW_PBE O 08Apr2002
|           W    W    AA    RRRRR   N    N  II  N    N   GGGG   !!!           |
|           W    W   A  A   R    R  NN   N  II  NN   N  G    G  !!!           |
|           W    W  A    A  R    R  N N  N  II  N N  N  G       !!!           |
|           W WW W  AAAAAA  RRRRR   N  N N  II  N  N N  G  GGG   !            |
|           WW  WW  A    A  R   R   N   NN  II  N   NN  G    G                |
|           W    W  A    A  R    R  N    N  II  N    N   GGGG   !!!           |
|     For optimal performance we recommend to set                             |
|       NCORE = 2 up to number-of-cores-per-socket                            |
|     This setting can greatly improve the performance of VASP for DFT.       |
|     The default, NCORE=1 might be grossly inefficient on modern             |
|     multi-core architectures or massively parallel machines. Do your        |
|     Unfortunately you need to use the default for GW and RPA                |
|     calculations (for HF NCORE is supported but not extensively tested      |
|     yet).                                                                   |

   TITEL  = PAW_PBE Ti_pv 07Sep2000
   POMASS =   47.880; ZVAL   =   10.000    mass and valenz
   ENMAX  =  222.335; ENMIN  =  166.751 eV

   TITEL  = PAW_PBE O 08Apr2002
   POMASS =   16.000; ZVAL   =    6.000    mass and valenz
   ENMAX  =  400.000; ENMIN  =  300.000 eV

  PAW_PBE Ti_pv 07Sep2000               :
  PAW_PBE O 08Apr2002                   :

 POSCAR: Ti  O
  positions in direct lattice
 exchange correlation table for  LEXCH =       40
   RHO(1)=    0.500       N(1)  =     2000
   RHO(2)=  100.500       N(2)  =     4000

 ion  position               nearest neighbor table
   1  0.815  0.833  0.293-  85 1.97  53 1.97  51 1.97  50 2.02  52 2.02  18 3.11   4 3.11   2 3.11

   2  0.599  0.667  0.325-  49 1.97 116 1.97  54 1.97  52 1.97  53 2.02  55 2.02  33 3.11   3 3.11
                             7 3.11   1 3.11
   3  0.315  0.667  0.293- 121 1.97  57 1.97  55 1.97  49 2.02  56 2.02  36 3.11   2 3.11   4 3.11

   4  0.099  0.833  0.325-  50 1.97  88 1.97  58 1.97  56 1.97  57 2.02  51 2.02  19 3.11   1 3.11
                             5 3.11   3 3.11
   5  0.949  0.833  0.421-  59 1.97  93 1.97  51 1.97  61 1.97  60 2.02  58 2.02  22 3.11   8 3.11
                             6 3.11   4 3.11
   6  0.732  0.667  0.452-  54 1.97 124 1.97  62 1.97  60 1.97  61 2.02  63 2.02  37 3.11   7 3.11
                             5 3.11  11 3.11
   7  0.449  0.667  0.421-  63 1.97 129 1.97  55 1.97  65 1.97  64 2.02  54 2.02  40 3.11   6 3.11
                             8 3.11   2 3.11
   8  0.232  0.833  0.452-  58 1.97  96 1.97  66 1.97  64 1.97  65 2.02  59 2.02  23 3.11   5 3.11
                             7 3.11   9 3.11
   9  0.083  0.833  0.548-  67 1.97 101 1.97  59 1.97  69 1.97  68 2.02  66 2.02  26 3.11  12 3.11
                            10 3.11   8 3.11
  10  0.866  0.667  0.579-  62 1.97 132 1.97  70 1.97  68 1.97  69 2.02  71 2.02  41 3.11  11 3.11
                             9 3.11  15 3.11
  11  0.583  0.667  0.548-  71 1.97 137 1.97  63 1.97  73 1.97  72 2.02  62 2.02  44 3.11  10 3.11
                            12 3.11   6 3.11
  12  0.366  0.833  0.579-  66 1.97 104 1.97  74 1.97  72 1.97  73 2.02  67 2.02  27 3.11   9 3.11
                            11 3.11  13 3.11
  13  0.217  0.833  0.675-  75 1.97 109 1.97  67 1.97  77 1.97  74 2.02  76 2.02  30 3.11  16 3.11
                            12 3.11  14 3.11
  14  0.000  0.667  0.707- 140 1.97  76 1.97  70 1.97  78 2.02  77 2.02  45 3.11  15 3.11  13 3.11

[...]

  17  0.815  0.167  0.293-  85 1.97 117 1.97  83 1.97  82 2.02  84 2.02  18 3.11  20 3.11  34 3.11

[...]

  36  0.099  0.500  0.325- 114 1.97  56 1.97 120 1.97 122 1.97 121 2.02 115 2.02   3 3.11  35 3.11
                            33 3.11  37 3.11
  37  0.949  0.500  0.421- 123 1.97  61 1.97 125 1.97 115 1.97 124 2.02 122 2.02   6 3.11  38 3.11
                            40 3.11  36 3.11
  38  0.732  0.333  0.452- 118 1.97 124 1.97 126 1.97  92 1.97 125 2.02 127 2.02  37 3.11  39 3.11
                            21 3.11  43 3.11
  39  0.449  0.333  0.421- 127 1.97 129 1.97 119 1.97  97 1.97 128 2.02 118 2.02  40 3.11  38 3.11
                            24 3.11  34 3.11
  40  0.232  0.500  0.452- 122 1.97  64 1.97 128 1.97 130 1.97 129 2.02 123 2.02   7 3.11  39 3.11
                            37 3.11  41 3.11
  41  0.083  0.500  0.548- 131 1.97  69 1.97 133 1.97 123 1.97 132 2.02 130 2.02  10 3.11  42 3.11
                            44 3.11  40 3.11
  42  0.866  0.333  0.579- 126 1.97 132 1.97 134 1.97 100 1.97 133 2.02 135 2.02  41 3.11  43 3.11
                            25 3.11  47 3.11
  43  0.583  0.333  0.548- 135 1.97 137 1.97 127 1.97 105 1.97 136 2.02 126 2.02  44 3.11  42 3.11
                            28 3.11  38 3.11
  44  0.366  0.500  0.579- 130 1.97  72 1.97 136 1.97 138 1.97 137 2.02 131 2.02  11 3.11  43 3.11
                            41 3.11  45 3.11
  45  0.217  0.500  0.675- 139 1.97  77 1.97 141 1.97 131 1.97 140 2.02 138 2.02  14 3.11  46 3.11
                            48 3.11  44 3.11
  46  0.000  0.333  0.707- 140 1.97 108 1.97 134 1.97 142 2.02 141 2.02  45 3.11  47 3.11  29 3.11

  47  0.717  0.333  0.675- 142 1.97 144 1.97 135 1.97 112 1.97 143 2.02 134 2.02  48 3.11  46 3.11
                            42 3.11  32 3.11
  48  0.500  0.500  0.707-  79 1.97 143 1.97 138 1.97 139 2.02 144 2.02  47 3.11  15 3.11  45 3.11

  49  0.494  0.667  0.267-   2 1.97   3 2.02
  50  0.994  0.833  0.267-   4 1.97   1 2.02
  51  0.919  0.833  0.351-   5 1.97   1 1.97   4 2.02
  52  0.636  0.833  0.320-  18 1.97   2 1.97   1 2.02
  53  0.778  0.667  0.299-  33 1.97   1 1.97   2 2.02
  54  0.628  0.667  0.394-   6 1.97   2 1.97   7 2.02
  55  0.419  0.667  0.351-   7 1.97   3 1.97   2 2.02
  56  0.136  0.667  0.320-  36 1.97   4 1.97   3 2.02
  57  0.278  0.833  0.299-  19 1.97   3 1.97   4 2.02
  58  0.128  0.833  0.394-   8 1.97   4 1.97   5 2.02
  59  0.053  0.833  0.479-   5 1.97   9 1.97   8 2.02
  60  0.770  0.833  0.447-  22 1.97   6 1.97   5 2.02
  61  0.912  0.667  0.426-  37 1.97   5 1.97   6 2.02
  62  0.762  0.667  0.521-  10 1.97   6 1.97  11 2.02
  63  0.553  0.667  0.479-   7 1.97  11 1.97   6 2.02
  64  0.270  0.667  0.447-  40 1.97   8 1.97   7 2.02
  65  0.412  0.833  0.426-  23 1.97   7 1.97   8 2.02
  66  0.262  0.833  0.521-  12 1.97   8 1.97   9 2.02
  67  0.187  0.833  0.606-   9 1.97  13 1.97  12 2.02
  68  0.903  0.833  0.574-  26 1.97  10 1.97   9 2.02
  69  0.045  0.667  0.553-  41 1.97   9 1.97  10 2.02
  70  0.896  0.667  0.649-  10 1.97  14 1.97  15 2.02
  71  0.687  0.667  0.606-  11 1.97  15 1.97  10 2.02
  72  0.403  0.667  0.574-  44 1.97  12 1.97  11 2.02
  73  0.545  0.833  0.553-  27 1.97  11 1.97  12 2.02
  74  0.396  0.833  0.649-  12 1.97  16 1.97  13 2.02
  75  0.321  0.833  0.733-  13 1.97  16 2.02
  76  0.037  0.833  0.701-  30 1.97  14 1.97  13 2.02
  77  0.179  0.667  0.680-  45 1.97  13 1.97  14 2.02
  78  0.821  0.667  0.733-  15 1.97  14 2.02
  79  0.537  0.667  0.701-  48 1.97  16 1.97  15 2.02
  80  0.679  0.833  0.680-  31 1.97  15 1.97  16 2.02
  81  0.494  0.000  0.267-  18 1.97  19 2.02
  82  0.994  0.167  0.267-  20 1.97  17 2.02
  83  0.919  0.167  0.351-  21 1.97  17 1.97  20 2.02
  84  0.636  0.167  0.320-  18 1.97  34 1.97  17 2.02
  85  0.778  0.000  0.299-   1 1.97  17 1.97  18 2.02
  86  0.628  0.000  0.394-  22 1.97  18 1.97  23 2.02
  87  0.419  0.000  0.351-  23 1.97  19 1.97  18 2.02
  88  0.136  0.000  0.320-   4 1.97  20 1.97  19 2.02
  89  0.278  0.167  0.299-  19 1.97  35 1.97  20 2.02
  90  0.128  0.167  0.394-  24 1.97  20 1.97  21 2.02
  91  0.053  0.167  0.479-  21 1.97  25 1.97  24 2.02
  92  0.770  0.167  0.447-  22 1.97  38 1.97  21 2.02
  93  0.912  0.000  0.426-   5 1.97  21 1.97  22 2.02
  94  0.762  0.000  0.521-  26 1.97  22 1.97  27 2.02
  95  0.553  0.000  0.479-  23 1.97  27 1.97  22 2.02
  96  0.270  0.000  0.447-   8 1.97  24 1.97  23 2.02
  97  0.412  0.167  0.426-  23 1.97  39 1.97  24 2.02
  98  0.262  0.167  0.521-  28 1.97  24 1.97  25 2.02
  99  0.187  0.167  0.606-  25 1.97  29 1.97  28 2.02
 100  0.903  0.167  0.574-  26 1.97  42 1.97  25 2.02
 101  0.045  0.000  0.553-   9 1.97  25 1.97  26 2.02
 102  0.896  0.000  0.649-  26 1.97  30 1.97  31 2.02
 103  0.687  0.000  0.606-  27 1.97  31 1.97  26 2.02
 104  0.403  0.000  0.574-  12 1.97  28 1.97  27 2.02
 105  0.545  0.167  0.553-  27 1.97  43 1.97  28 2.02
 106  0.396  0.167  0.649-  28 1.97  32 1.97  29 2.02
 107  0.321  0.167  0.733-  29 1.97  32 2.02
 108  0.037  0.167  0.701-  30 1.97  46 1.97  29 2.02
[...]
 130  0.262  0.500  0.521-  44 1.97  40 1.97  41 2.02
 131  0.187  0.500  0.606-  41 1.97  45 1.97  44 2.02
 132  0.903  0.500  0.574-  10 1.97  42 1.97  41 2.02
 133  0.045  0.333  0.553-  41 1.97  25 1.97  42 2.02
 134  0.896  0.333  0.649-  42 1.97  46 1.97  47 2.02
 135  0.687  0.333  0.606-  43 1.97  47 1.97  42 2.02
 136  0.403  0.333  0.574-  44 1.97  28 1.97  43 2.02
 137  0.545  0.500  0.553-  11 1.97  43 1.97  44 2.02
 138  0.396  0.500  0.649-  44 1.97  48 1.97  45 2.02
 139  0.321  0.500  0.733-  45 1.97  48 2.02
 140  0.037  0.500  0.701-  14 1.97  46 1.97  45 2.02
 141  0.179  0.333  0.680-  45 1.97  29 1.97  46 2.02
 142  0.821  0.333  0.733-  47 1.97  46 2.02
 143  0.537  0.333  0.701-  48 1.97  32 1.97  47 2.02
 144  0.679  0.500  0.680-  15 1.97  47 1.97  48 2.02

IMPORTANT INFORMATION: All symmetrisations will be switched off!
NOSYMM: (Re-)initialisation of all symmetry stuff for point group C_1.

                                     Primitive cell

  volume of cell :    3395.7251

  direct lattice vectors                    reciprocal lattice vectors
    10.494931139  0.000000000  0.000000000     0.095284094 -0.000000000  0.000000000
     0.000000000 11.517834055  0.000000000     0.000000000  0.086821879  0.000000000
     0.000000000  0.000000000 28.091964603     0.000000000  0.000000000  0.035597368

  length of vectors
    10.494931139 11.517834055 28.091964603     0.095284094  0.086821879  0.035597368

  position of ions in fractional coordinates (direct lattice)
     0.815066060  0.833333333  0.293308113
     0.598522517  0.666666667  0.325106865
     0.315066060  0.666666667  0.293308113
     0.098522517  0.833333333  0.325106865
     0.948891888  0.833333333  0.420503120
     0.732348345  0.666666667  0.452301872
     0.448891888  0.666666667  0.420503120
     0.232348345  0.833333333  0.452301872
[...]
   3.36585297  5.75891703 20.59196460
   0.39099698  5.75891703 19.69867519
   1.88161260  3.83927802 19.11276234
   8.61331854  3.83927802 20.59196460
   5.63846255  3.83927802 19.69867519
   7.12907817  5.75891703 19.11276234

--------------------------------------- Iteration      FINAL  ---------------------------------------

--------------------OUTCAR has been truncated-------------------------

[...]

--------------------OUTCAR has been truncated-------------------------

  FORCE on cell =-STRESS in cart. coord.  units (eV):
  Direction    XX          YY          ZZ          XY          YZ          ZX
  Alpha Z  2319.21243  2319.21243  2319.21243
  Ewald  467072.33681460141.75256************     0.00076     0.00002 -1759.12850
  Hartree488017.42604483819.53510************     0.00039     0.00000 -1213.95052
  E(xc)   -5263.83505 -5269.30027 -5271.73785     0.00000     0.00000    -0.60865
  Local  ************************963512.69052    -0.00114    -0.00002  2981.65868
  n-local -3274.78689 -3249.02285 -3289.96696     0.00000     0.00000     1.00471
  augment  3181.39368  3178.94701  3170.64294     0.00000    -0.00000     0.82861
  Kinetic 16998.13210 17068.50418 17118.12887    -0.00001    -0.00001   -18.00745
  Fock        0.00000     0.00000     0.00000     0.00000     0.00000     0.00000
  Total     -46.62324   -20.81437   -14.63175     0.00000    -0.00001    -8.20313
  in kB     -21.99786    -9.82067    -6.90358     0.00000    -0.00000    -3.87042

 VOLUME and BASIS-vectors are now :
  energy-cutoff  :      600.00
  volume of cell :     3395.73
      direct lattice vectors                 reciprocal lattice vectors
    10.494931139  0.000000000  0.000000000     0.095284094 -0.000000000  0.000000000
     0.000000000 11.517834055  0.000000000     0.000000000  0.086821879  0.000000000
     0.000000000  0.000000000 28.091964603     0.000000000  0.000000000  0.035597368

  length of vectors
    10.494931139 11.517834055 28.091964603     0.095284094  0.086821879  0.035597368

 FORCES acting on ions:
    Electron-Ion                     Ewald-Force                    Non-Local-Force
   0.402E+01 -.209E-05 0.323E+04   0.609E+00 0.217E-05 -.322E+04   -.987E+00 0.533E-07 -.323E+01
   0.500E+01 -.138E-04 0.265E+04   -.652E+01 0.146E-04 -.265E+04   -.842E-01 -.216E-06 -.829E-01
   0.402E+01 -.484E-05 0.323E+04   0.609E+00 0.503E-05 -.322E+04   -.987E+00 -.699E-07 -.323E+01
   0.500E+01 -.509E-05 0.265E+04   -.652E+01 0.558E-05 -.265E+04   -.842E-01 -.925E-07 -.829E-01
   -.134E+01 -.680E-04 0.119E+04   0.115E+01 0.745E-04 -.119E+04   0.192E+00 -.128E-05 -.357E-01
   -.536E+01 -.493E-05 0.739E+03   0.536E+01 0.596E-05 -.739E+03   0.298E-01 -.390E-06 -.975E-01
   -.134E+01 -.128E-03 0.119E+04   0.115E+01 0.134E-03 -.119E+04   0.192E+00 -.508E-06 -.357E-01
   -.536E+01 -.249E-04 0.739E+03   0.536E+01 0.261E-04 -.739E+03   0.298E-01 -.170E-06 -.975E-01
   -.260E+01 -.770E-04 -.774E+03   0.228E+01 0.928E-04 0.774E+03   0.320E+00 -.185E-05 0.415E-01
   -.917E+01 0.179E-03 -.117E+04   0.926E+01 -.199E-03 0.117E+04   -.347E-01 0.227E-05 -.170E+00
   -.259E+01 0.153E-04 -.774E+03   0.228E+01 -.106E-05 0.774E+03   0.321E+00 -.176E-05 0.415E-01
   -.917E+01 0.160E-03 -.117E+04   0.926E+01 -.184E-03 0.117E+04   -.347E-01 0.392E-05 -.170E+00
   0.186E+02 0.533E-03 -.269E+04   -.196E+02 -.591E-03 0.269E+04   0.965E+00 0.656E-05 -.271E+00
   -.726E+02 -.721E-05 -.307E+04   0.727E+02 0.209E-04 0.307E+04   0.981E-01 -.287E-05 0.739E+00
   0.186E+02 0.297E-03 -.269E+04   -.196E+02 -.346E-03 0.269E+04   0.965E+00 0.733E-05 -.271E+00
   -.726E+02 0.908E-04 -.307E+04   0.727E+02 -.781E-04 0.307E+04   0.982E-01 -.143E-05 0.739E+00
   0.402E+01 0.402E-05 0.323E+04   0.609E+00 -.436E-05 -.322E+04   -.987E+00 0.586E-07 -.323E+01
   0.500E+01 0.883E-05 0.265E+04   -.652E+01 -.953E-05 -.265E+04   -.842E-01 0.125E-06 -.829E-01
   0.402E+01 0.314E-05 0.323E+04   0.609E+00 -.327E-05 -.322E+04   -.987E+00 -.317E-07 -.323E+01
   0.500E+01 0.339E-05 0.265E+04   -.652E+01 -.372E-05 -.265E+04   -.842E-01 0.324E-07 -.829E-01
   -.134E+01 0.391E-04 0.119E+04   0.115E+01 -.393E-04 -.119E+04   0.192E+00 -.214E-06 -.357E-01
   -.536E+01 0.382E-04 0.739E+03   0.536E+01 -.396E-04 -.739E+03   0.298E-01 0.113E-06 -.975E-01
   -.134E+01 0.748E-04 0.119E+04   0.115E+01 -.826E-04 -.119E+04   0.192E+00 0.136E-05 -.357E-01
   -.536E+01 0.780E-05 0.739E+03   0.536E+01 -.107E-04 -.739E+03   0.298E-01 0.677E-06 -.975E-01
   -.259E+01 0.694E-04 -.774E+03   0.228E+01 -.631E-04 0.774E+03   0.321E+00 -.764E-06 0.415E-01
   -.917E+01 -.424E-03 -.117E+04   0.926E+01 0.474E-03 0.117E+04   -.347E-01 -.723E-05 -.170E+00
   -.259E+01 0.170E-04 -.774E+03   0.228E+01 -.419E-04 0.774E+03   0.320E+00 0.315E-05 0.415E-01
   -.917E+01 0.286E-03 -.117E+04   0.926E+01 -.317E-03 0.117E+04   -.347E-01 0.452E-05 -.170E+00
   0.186E+02 0.510E-03 -.269E+04   -.196E+02 -.558E-03 0.269E+04   0.965E+00 0.645E-05 -.271E+00
   -.726E+02 -.146E-03 -.307E+04   0.727E+02 0.119E-03 0.307E+04   0.981E-01 0.413E-05 0.739E+00
   0.186E+02 -.101E-02 -.269E+04   -.196E+02 0.111E-02 0.269E+04   0.965E+00 -.134E-04 -.271E+00
   -.726E+02 0.412E-04 -.307E+04   0.727E+02 -.250E-04 0.307E+04   0.981E-01 -.254E-05 0.739E+00
   0.402E+01 -.163E-05 0.323E+04   0.609E+00 0.203E-05 -.322E+04   -.987E+00 -.983E-07 -.323E+01
   0.500E+01 -.297E-05 0.265E+04   -.652E+01 0.353E-05 -.265E+04   -.842E-01 -.162E-06 -.829E-01
   0.402E+01 -.114E-05 0.323E+04   0.609E+00 0.864E-06 -.322E+04   -.987E+00 0.600E-07 -.323E+01
   0.500E+01 0.345E-05 0.265E+04   -.652E+01 -.394E-05 -.265E+04   -.842E-01 0.869E-07 -.829E-01
   -.134E+01 0.253E-04 0.119E+04   0.115E+01 -.299E-04 -.119E+04   0.192E+00 0.741E-06 -.357E-01
   -.536E+01 0.667E-04 0.739E+03   0.536E+01 -.686E-04 -.739E+03   0.298E-01 -.156E-06 -.975E-01
   -.134E+01 -.718E-04 0.119E+04   0.115E+01 0.758E-04 -.119E+04   0.192E+00 -.462E-06 -.357E-01
   -.536E+01 -.687E-05 0.739E+03   0.536E+01 0.852E-05 -.739E+03   0.298E-01 -.474E-07 -.975E-01
   -.259E+01 -.361E-04 -.774E+03   0.228E+01 0.136E-04 0.774E+03   0.320E+00 0.239E-05 0.415E-01
   -.917E+01 0.298E-03 -.117E+04   0.926E+01 -.329E-03 0.117E+04   -.347E-01 0.460E-05 -.170E+00
   -.260E+01 0.723E-04 -.774E+03   0.228E+01 -.618E-04 0.774E+03   0.320E+00 -.163E-05 0.415E-01
   -.917E+01 -.482E-03 -.117E+04   0.926E+01 0.538E-03 0.117E+04   -.347E-01 -.872E-05 -.170E+00
   0.186E+02 -.101E-02 -.269E+04   -.196E+02 0.112E-02 0.269E+04   0.965E+00 -.139E-04 -.271E+00
   -.726E+02 0.209E-03 -.307E+04   0.727E+02 -.195E-03 0.307E+04   0.982E-01 -.256E-05 0.739E+00
   0.186E+02 0.556E-03 -.269E+04   -.196E+02 -.613E-03 0.269E+04   0.965E+00 0.718E-05 -.271E+00
   -.726E+02 -.150E-03 -.307E+04   0.727E+02 0.120E-03 0.307E+04   0.981E-01 0.394E-05 0.739E+00
   -.317E+02 -.231E-05 0.218E+04   0.363E+02 0.253E-05 -.220E+04   -.633E+01 -.272E-06 0.166E+02
   -.317E+02 -.689E-06 0.218E+04   0.363E+02 0.775E-06 -.220E+04   -.633E+01 -.959E-07 0.166E+02
   0.778E+02 -.686E-05 0.132E+04   -.819E+02 0.753E-05 -.132E+04   0.321E+01 -.546E-06 -.408E+01
   0.721E+02 -.180E-05 0.161E+04   -.785E+02 0.160E-05 -.161E+04   0.669E+01 0.637E-06 -.234E+01
   -.836E+02 -.274E-05 0.186E+04   0.901E+02 0.272E-05 -.186E+04   -.627E+01 -.194E-06 -.343E+00
   -.649E+02 -.240E-04 0.101E+04   0.697E+02 0.252E-04 -.101E+04   -.486E+01 -.138E-05 0.424E+01
   0.778E+02 -.310E-04 0.132E+04   -.819E+02 0.346E-04 -.132E+04   0.321E+01 -.394E-05 -.408E+01
   0.721E+02 -.347E-06 0.161E+04   -.785E+02 0.286E-06 -.161E+04   0.669E+01 0.255E-06 -.234E+01
   -.836E+02 -.284E-05 0.186E+04   0.901E+02 0.290E-05 -.186E+04   -.627E+01 -.258E-06 -.343E+00
   -.649E+02 -.160E-04 0.101E+04   0.697E+02 0.184E-04 -.101E+04   -.486E+01 -.248E-05 0.424E+01
   0.756E+02 -.554E-04 0.138E+03   -.813E+02 0.632E-04 -.133E+03   0.568E+01 -.867E-05 -.498E+01
   0.754E+02 -.128E-03 0.448E+03   -.813E+02 0.140E-03 -.445E+03   0.589E+01 -.101E-04 -.292E+01
[...]
   0.784E+02 -.236E-03 -.105E+04   -.840E+02 0.270E-03 0.106E+04   0.555E+01 -.399E-04 -.754E+01
   0.747E+02 -.808E-03 -.711E+03   -.806E+02 0.842E-03 0.714E+03   0.584E+01 0.198E-04 -.306E+01
   -.749E+02 0.681E-05 -.460E+03   0.804E+02 -.566E-05 0.458E+03   -.552E+01 0.452E-05 0.246E+01
   -.477E+02 0.172E-03 -.125E+04   0.488E+02 -.189E-03 0.124E+04   -.112E+01 0.195E-04 0.988E+01
   0.784E+02 0.156E-03 -.105E+04   -.840E+02 -.177E-03 0.106E+04   0.555E+01 0.241E-04 -.754E+01
   0.747E+02 0.395E-03 -.711E+03   -.806E+02 -.413E-03 0.714E+03   0.584E+01 -.842E-05 -.306E+01
   -.749E+02 -.122E-03 -.460E+03   0.804E+02 0.130E-03 0.458E+03   -.552E+01 -.119E-04 0.246E+01
   -.477E+02 -.310E-03 -.125E+04   0.488E+02 0.341E-03 0.124E+04   -.112E+01 -.365E-04 0.988E+01
   0.427E+02 -.215E-03 -.221E+04   -.474E+02 0.237E-03 0.223E+04   0.474E+01 -.285E-04 -.208E+02
   0.599E+02 -.210E-03 -.194E+04   -.644E+02 0.259E-03 0.195E+04   0.447E+01 -.727E-04 -.747E+01
   -.571E+02 0.683E-03 -.160E+04   0.620E+02 -.728E-03 0.160E+04   -.485E+01 0.809E-05 0.301E+01
   0.427E+02 0.152E-03 -.221E+04   -.474E+02 -.163E-03 0.223E+04   0.474E+01 0.143E-04 -.208E+02
   0.599E+02 0.998E-04 -.194E+04   -.644E+02 -.120E-03 0.195E+04   0.447E+01 0.321E-04 -.747E+01
   -.571E+02 -.976E-03 -.160E+04   0.620E+02 0.103E-02 0.160E+04   -.485E+01 0.149E-04 0.301E+01
   -.219E+02 -.568E-05 0.732E+02   0.483E-12 0.357E-12 0.146E-10   0.220E+02 0.325E-05 -.732E+02

 POSITION                                       TOTAL-FORCE (eV/Angst)
      8.55406      9.59820      8.23960         3.652053      0.000000      1.720483
      6.28145      7.67856      9.13289        -1.613729      0.000001     -1.906697
      3.30660      7.67856      8.23960         3.652054      0.000000      1.720482
      1.03399      9.59820      9.13289        -1.613731      0.000000     -1.906701
      9.95410      9.59820     11.85777         0.003898      0.000005     -0.000073
      7.64952      7.67856     12.66784        -0.003783      0.000001     -0.000282
      4.70663      7.67856     11.85777         0.003906      0.000005     -0.000063
      2.40205      9.59819     12.66784        -0.003767      0.000001     -0.000268
      0.91141      9.59819     15.47591         0.002413      0.000014      0.001971
      9.06951      7.67856     16.20339         0.000356     -0.000017      0.000530
      6.15887      7.67856     15.47591         0.002345      0.000012      0.001947
      3.82204      9.59820     16.20339         0.000362     -0.000020      0.000584
      2.42828      9.59820     19.17398         0.000398     -0.000050      0.002264
      0.01930      7.67856     19.71863         0.002090      0.000011     -0.003867
      7.67575      7.67856     19.17398         0.000344     -0.000041      0.002272
      5.26677      9.59819     19.71863         0.001814      0.000011     -0.003997
      8.55406      1.91964      8.23960         3.652054     -0.000000      1.720483
      6.28145      0.00000      9.13289        -1.613730     -0.000001     -1.906700
      3.30660      0.00000      8.23960         3.652053     -0.000000      1.720483
      1.03399      1.91964      9.13289        -1.613729     -0.000000     -1.906696
      9.95410      1.91964     11.85777         0.003911     -0.000000     -0.000062
      7.64952      0.00000     12.66784        -0.003770     -0.000001     -0.000276
      4.70663     -0.00000     11.85777         0.003898     -0.000007     -0.000070
      2.40205      1.91964     12.66784        -0.003791     -0.000002     -0.000282
      0.91141      1.91964     15.47591         0.002335      0.000005      0.001944
      9.06951     -0.00000     16.20339         0.000367      0.000042      0.000565
      6.15887      0.00000     15.47591         0.002385     -0.000021      0.001962
      3.82204      1.91964     16.20339         0.000346     -0.000026      0.000524
      2.42828      1.91964     19.17398         0.000340     -0.000041      0.002267
      0.01930      0.00000     19.71863         0.001929     -0.000023     -0.003949
      7.67575     -0.00000     19.17398         0.000382      0.000090      0.002269
      5.26677      1.91964     19.71863         0.002119      0.000013     -0.003853
      8.55406      5.75892      8.23960         3.652054      0.000000      1.720483
      6.28145      3.83928      9.13289        -1.613730      0.000000     -1.906703
      3.30660      3.83928      8.23960         3.652052     -0.000000      1.720482
      1.03399      5.75892      9.13289        -1.613730     -0.000000     -1.906699
      9.95410      5.75892     11.85777         0.003903     -0.000004     -0.000069
      7.64952      3.83928     12.66784        -0.003760     -0.000002     -0.000263
      4.70663      3.83928     11.85777         0.003893      0.000003     -0.000074
      2.40205      5.75892     12.66784        -0.003778      0.000002     -0.000275
      0.91141      5.75892     15.47591         0.002379     -0.000020      0.001957
      9.06951      3.83928     16.20339         0.000361     -0.000026      0.000586
      6.15887      3.83928     15.47591         0.002435      0.000009      0.001974
      3.82204      5.75892     16.20339         0.000353      0.000046      0.000553
      2.42828      5.75892     19.17398         0.000373      0.000091      0.002270
      0.01931      3.83928     19.71863         0.001782      0.000011     -0.004007
      7.67575      3.83928     19.17398         0.000402     -0.000049      0.002269
      5.26677      5.75892     19.71863         0.001961     -0.000026     -0.003922
      5.18821      7.67856      7.50000        -1.708964     -0.000000      1.039644
     10.43567      9.59820      7.50000        -1.708963      0.000000      1.039644
      9.64731      9.59820      9.87249        -0.905037      0.000000     -0.140810
      6.67245      9.59820      8.97920         0.348507      0.000000     -0.059986
      8.16307      7.67856      8.39329         0.261807     -0.000000     -1.073974
      6.59270      7.67856     11.07316        -0.054494     -0.000000      0.425202
      4.39984      7.67856      9.87249        -0.905038     -0.000000     -0.140813
      1.42498      7.67856      8.97920         0.348507      0.000000     -0.059986
      2.91560      9.59820      8.39329         0.261807     -0.000000     -1.073974
      1.34524      9.59820     11.07316        -0.054496     -0.000000      0.425201
      0.56645      9.59820     13.46124        -0.002555     -0.000001     -0.001294
      8.07241      9.59820     12.55987         0.003191      0.000001     -0.000722
[...]
      2.77563      5.75892     14.64196         0.001345     -0.000002      0.000158
      2.04679      5.75892     17.05840        -0.001528     -0.000006     -0.005444
      9.51167      5.75892     16.12863         0.001123      0.000054     -0.000530
      0.52508      3.83928     15.55944         0.007310      0.000006      0.000968
      9.56765      3.83928     18.19236         0.000762      0.000003     -0.000095
      7.29425      3.83928     17.05840        -0.001565      0.000003     -0.005477
      4.26421      3.83928     16.12863         0.001111     -0.000026     -0.000523
      5.77255      5.75892     15.55944         0.007289     -0.000004      0.000973
      4.32019      5.75892     18.19236         0.000689     -0.000005     -0.000223
      3.63749      5.75892     20.60527         0.000659     -0.000006      0.001554
      0.55952      5.75892     19.94148         0.000480     -0.000024     -0.001608
      2.03363      3.83928     19.17104         0.000837     -0.000037      0.000513
      8.88496      3.83928     20.60527         0.000725      0.000003      0.001528
      5.80699      3.83928     19.94148         0.000451      0.000012     -0.001610
      7.28110      5.75892     19.17104         0.000826      0.000070      0.000513
    total drift:                                0.008476     -0.000002     -0.002204

  FREE ENERGIE OF THE ION-ELECTRON SYSTEM (eV)
  free  energy   TOTEN  =      -941.01822959 eV

  energy  without entropy=     -941.01822959  energy(sigma->0) =     -941.01822959

 d Force = 0.9896253E-04[ 0.613E-04, 0.137E-03]  d Energy = 0.1003558E-03-0.139E-05
 d Force =-0.6089615E+01[-0.609E+01,-0.609E+01]  d Ewald  =-0.6089615E+01-0.388E-07

 Conjugate gradient step on ions:
 trial-energy change:   -0.000100  1 .order   -0.000099   -0.000137   -0.000061
  (g-gl).g = 0.108E-03      g.g   = 0.244E-03  gl.gl    = 0.403E-03
 g(Force)  = 0.244E-03   g(Stress)= 0.000E+00 ortho     = 0.482E-04
 gamma     =   0.26893
 trial     =   0.53069
 opt step  =   0.89443  (harmonic =   0.96245) maximal distance =0.00059174
 next E    =  -941.018251   (d E  =  -0.00012)

 reached required accuracy - stopping structural energy minimisation