 vasp.6.4.2 20Jul23 (build Feb 22 2024 13:53:45) complex
 executed on              LinuxNV date 2024.08.27  17:47:32
 OpenACC runtime initialized ...    4 GPUs detected

 INCAR:
   SYSTEM = Oxide-Surface
   ISMEAR = 0
   SIGMA = 0.05
   EDIFF = 1E-5
   ALGO = Normal
   IBRION = -1
   NSW = 0
   ISYM = 0
   DIPOL = 0.5 0.5 0.5
   IDIPOL = 3
   LDIPOL = .TRUE.
   ISTART = 1
   LHFCALC = .TRUE.
   GGA = PE
   IVDW = 21
   VDW_SR = 0.96
   HFRCUT = -1
   ENCUT = 520
   PREC = Normal
   PRECFOCK = Normal
   LASPH = .TRUE.
   LREAL = Auto
   ISPIN = 1
   NELM = 200
   NELMIN = 8
   NCORE = 1
   KPAR = 1
   LWAVE = .FALSE.
   LCHARG = .FALSE.

 POTCAR:    PAW_PBE C 08Apr2002
 POTCAR:    PAW_PBE O 08Apr2002
 POTCAR:    PAW_PBE Mg_pv 13Apr2007
 POTCAR:    PAW_PBE O 08Apr2002
 POTCAR:    PAW_PBE C 08Apr2002
   VRHFIN =C: s2p2

   TITEL  = PAW_PBE C 08Apr2002
   POMASS =   12.011; ZVAL   =    4.000    mass and valenz
   ENMAX  =  400.000; ENMIN  =  300.000 eV

[...]

   TITEL  = PAW_PBE Mg_pv 13Apr2007
   POMASS =   24.305; ZVAL   =    8.000    mass and valenz
   ENMAX  =  403.929; ENMIN  =  302.947 eV

   TITEL  = PAW_PBE O 08Apr2002
   POMASS =   16.000; ZVAL   =    6.000    mass and valenz
   ENMAX  =  400.000; ENMIN  =  300.000 eV

 Optimization of the real space projectors (new method)

 maximal supplied QI-value         = 25.13
 optimisation between [QCUT,QGAM] = [ 11.56, 23.12] = [ 37.43,149.72] Ry
 Optimized for a Real-space Cutoff    1.04 Angstroem

   l    n(q)    QCUT    max X(q) W(low)/X(q) W(high)/X(q)  e(spline)
   0      7    11.561   115.676    0.20E-03    0.60E-03    0.21E-06
   0      7    11.561    87.132    0.20E-03    0.59E-03    0.21E-06
   1      7    11.561     4.429    0.23E-03    0.35E-03    0.15E-06
   1      7    11.561     2.733    0.18E-03    0.25E-03    0.12E-06
 Optimization of the real space projectors (new method)

[...]

   l    n(q)    QCUT    max X(q) W(low)/X(q) W(high)/X(q)  e(spline)
   1      8    11.527     2.974    0.16E-03    0.13E-03    0.98E-07
   1      8    11.527     4.279    0.42E-03    0.30E-03    0.22E-06
   0      8    11.527    16.381    0.13E-03    0.20E-03    0.72E-07
   0      8    11.527     5.611    0.88E-04    0.13E-03    0.50E-07
   2      7    11.527     4.652    0.25E-03    0.73E-04    0.51E-07
 Optimization of the real space projectors (new method)

 maximal supplied QI-value         = 24.76
 optimisation between [QCUT,QGAM] = [ 11.64, 23.27] = [ 37.91,151.63] Ry
 Optimized for a Real-space Cutoff    1.04 Angstroem

   l    n(q)    QCUT    max X(q) W(low)/X(q) W(high)/X(q)  e(spline)
   0      7    11.635    20.381    0.14E-03    0.49E-03    0.18E-06
   0      7    11.635    15.268    0.16E-03    0.52E-03    0.19E-06
   1      7    11.635     5.964    0.30E-03    0.44E-03    0.22E-06
   1      7    11.635     5.382    0.27E-03    0.34E-03    0.19E-06
  PAW_PBE C 08Apr2002                   :
  PAW_PBE O 08Apr2002                   :
  PAW_PBE Mg_pv 13Apr2007               :
  PAW_PBE O 08Apr2002                   :

 POSCAR:  C  O Mg  O
  positions in direct lattice
 exchange correlation table for  LEXCH =        8
   RHO(1)=    0.500       N(1)  =     2000
   RHO(2)=  100.500       N(2)  =     4000

 ion  position               nearest neighbor table
   1  0.625  0.625  0.762-   3 1.18   2 1.18
   2  0.526  0.526  0.764-   1 1.18
   3  0.724  0.724  0.764-   1 1.18
   4  0.000  0.750  0.236-  36 2.11  39 2.11  46 2.11  38 2.11  55 2.11
   5  0.250  0.000  0.236-  37 2.11  38 2.11  39 2.11  54 2.11  47 2.11
   6  0.000  0.000  0.360-  38 2.11  37 2.11  36 2.11  44 2.11  53 2.11  42 2.12
   7  0.250  0.750  0.360-  39 2.11  36 2.11  45 2.11  37 2.11  52 2.11  43 2.12
   8  0.000  0.750  0.485-  50 2.11  42 2.11  59 2.11  43 2.11  36 2.12  40 2.14
   9  0.250  1.000  0.485-  51 2.11  42 2.11  58 2.11  43 2.11  37 2.12  41 2.15
  10  0.000  0.000  0.609-  48 2.11  41 2.11  40 2.11  57 2.11  42 2.11
  11  0.250  0.750  0.609-  40 2.10  43 2.11  49 2.11  41 2.11  56 2.12
  12  0.000  0.250  0.236-  44 2.11  47 2.11  46 2.11  38 2.11  63 2.11
  13  0.250  0.500  0.236-  45 2.11  39 2.11  46 2.11  47 2.11  62 2.11
  14  0.000  0.500  0.360-  46 2.11  45 2.11  36 2.11  44 2.11  61 2.11  50 2.12
  15  0.250  0.250  0.360-  47 2.11  44 2.11  45 2.11  60 2.11  37 2.11  51 2.12
  16  1.000  0.250  0.485-  51 2.11  42 2.11  67 2.11  50 2.11  44 2.12  48 2.15
  17  0.250  0.500  0.485-  43 2.11  51 2.11  66 2.11  50 2.11  45 2.12  49 2.14
  18  0.000  0.500  0.609-  49 2.10  50 2.11  40 2.11  48 2.11  65 2.12
  19  0.250  0.250  0.609-  41 2.11  48 2.11  64 2.11  49 2.11  51 2.11
  20  0.500  0.750  0.236-  52 2.11  62 2.11  54 2.11  55 2.11  39 2.11
  21  0.750  0.000  0.236-  53 2.11  54 2.11  55 2.11  38 2.11  63 2.11
  22  0.500  0.000  0.360-  54 2.11  52 2.11  53 2.11  37 2.11  60 2.11  58 2.12
  23  0.750  0.750  0.360-  55 2.11  61 2.11  52 2.11  53 2.11  36 2.11  59 2.12
  24  0.500  0.750  0.485-  66 2.11  59 2.11  43 2.11  58 2.11  52 2.13  56 2.16
  25  0.750  0.000  0.485-  58 2.11  42 2.11  59 2.11  67 2.11  53 2.12  57 2.14
  26  0.500  0.000  0.609-  64 2.10  58 2.11  57 2.11  41 2.11  56 2.12
  27  0.752  0.752  0.609-  57 2.10  40 2.10  59 2.11  56 2.12  65 2.12
  28  0.500  0.250  0.236-  60 2.11  47 2.11  62 2.11  63 2.11  54 2.11
  29  0.750  0.500  0.236-  61 2.11  55 2.11  62 2.11  63 2.11  46 2.11
  30  0.500  0.500  0.360-  62 2.11  52 2.11  60 2.11  61 2.11  45 2.11  66 2.12
  31  0.750  0.250  0.360-  63 2.11  61 2.11  60 2.11  53 2.11  44 2.11  67 2.12
  32  0.500  0.250  0.485-  67 2.11  51 2.11  66 2.11  58 2.11  60 2.12  64 2.14
  33  0.750  0.500  0.485-  66 2.11  59 2.11  67 2.11  50 2.11  61 2.13  65 2.16
  34  0.498  0.498  0.609-  64 2.10  49 2.10  66 2.11  56 2.12  65 2.12
  35  0.750  0.250  0.609-  57 2.10  67 2.11  64 2.11  48 2.11  65 2.12
  36  0.000  0.750  0.360-   4 2.11   7 2.11  14 2.11   6 2.11  23 2.11   8 2.12
  37  0.250  0.000  0.360-   5 2.11   6 2.11   7 2.11  22 2.11  15 2.11   9 2.12
  38  0.000  0.000  0.236-   6 2.11   5 2.11   4 2.11  12 2.11  21 2.11
  39  0.250  0.750  0.236-   7 2.11   4 2.11  13 2.11   5 2.11  20 2.11
  40  0.001  0.750  0.611-  27 2.10  11 2.10  18 2.11  10 2.11   8 2.14
  41  0.250  1.000  0.612-  10 2.11  19 2.11  11 2.11  26 2.11   9 2.15
  42  0.000  0.000  0.485-  16 2.11   9 2.11   8 2.11  25 2.11  10 2.11   6 2.12
  43  0.250  0.750  0.485-  24 2.11  11 2.11   9 2.11  17 2.11   8 2.11   7 2.12
  44  0.000  0.250  0.360-  12 2.11  15 2.11  14 2.11   6 2.11  31 2.11  16 2.12
  45  0.250  0.500  0.360-  13 2.11   7 2.11  14 2.11  15 2.11  30 2.11  17 2.12
  46  0.000  0.500  0.236-  14 2.11  13 2.11   4 2.11  12 2.11  29 2.11
  47  0.250  0.250  0.236-  15 2.11  12 2.11  13 2.11  28 2.11   5 2.11
  48  1.000  0.250  0.612-  10 2.11  19 2.11  35 2.11  18 2.11  16 2.15
  49  0.249  0.500  0.611-  34 2.10  18 2.10  11 2.11  19 2.11  17 2.14
  50  1.000  0.500  0.485-  33 2.11  18 2.11  16 2.11   8 2.11  17 2.11  14 2.12
  51  0.250  0.250  0.485-   9 2.11  16 2.11  17 2.11  32 2.11  19 2.11  15 2.12
  52  0.500  0.750  0.360-  20 2.11  30 2.11  22 2.11  23 2.11   7 2.11  24 2.13
  53  0.750  0.000  0.360-  21 2.11  22 2.11  23 2.11   6 2.11  31 2.11  25 2.12
  54  0.500  0.000  0.236-  22 2.11  20 2.11  21 2.11   5 2.11  28 2.11
  55  0.750  0.750  0.236-  23 2.11  29 2.11  20 2.11  21 2.11   4 2.11
  56  0.500  0.750  0.613-  11 2.12  26 2.12  34 2.12  27 2.12  24 2.16
  57  0.750  0.001  0.611-  27 2.10  35 2.10  26 2.11  10 2.11  25 2.14
  58  0.500  1.000  0.485-  24 2.11  26 2.11   9 2.11  25 2.11  32 2.11  22 2.12
  59  0.750  0.750  0.485-  33 2.11  24 2.11   8 2.11  25 2.11  27 2.11  23 2.12
  60  0.500  0.250  0.360-  28 2.11  15 2.11  30 2.11  31 2.11  22 2.11  32 2.12
  61  0.750  0.500  0.360-  29 2.11  23 2.11  30 2.11  31 2.11  14 2.11  33 2.13
  62  0.500  0.500  0.236-  30 2.11  20 2.11  28 2.11  29 2.11  13 2.11
  63  0.750  0.250  0.236-  31 2.11  29 2.11  28 2.11  21 2.11  12 2.11
  64  0.500  0.249  0.611-  34 2.10  26 2.10  35 2.11  19 2.11  32 2.14
  65  0.750  0.500  0.613-  35 2.12  18 2.12  34 2.12  27 2.12  33 2.16
  66  0.500  0.500  0.485-  33 2.11  24 2.11  17 2.11  32 2.11  34 2.11  30 2.12
  67  0.750  0.250  0.485-  33 2.11  35 2.11  16 2.11  32 2.11  25 2.11  31 2.12

IMPORTANT INFORMATION: All symmetrisations will be switched off!
NOSYMM: (Re-)initialisation of all symmetry stuff for point group C_1.

                                     Primitive cell

  volume of cell :    1211.2538

  direct lattice vectors                    reciprocal lattice vectors
     8.440984654  0.000000000  0.000000000     0.118469591  0.000000000  0.000000000
     0.000000000  8.440984654  0.000000000     0.000000000  0.118469591  0.000000000
     0.000000000  0.000000000 17.000000000     0.000000000  0.000000000  0.058823529

  length of vectors
     8.440984654  8.440984654 17.000000000     0.118469591  0.118469591  0.058823529

  position of ions in fractional coordinates (direct lattice)
     0.625033636  0.625033636  0.762419616
     0.526174150  0.526174133  0.764180546
     0.723885278  0.723885283  0.764179839
     0.000030738  0.750030735  0.235819454
     0.250030738  0.000030735  0.235819454
     0.000030738  0.000030735  0.359951582
     0.250030738  0.750030735  0.359951582
     0.000201210  0.750096264  0.484924403
     0.250092311  0.999969265  0.484937667
     0.000230924  0.000230921  0.608776447
     0.249858919  0.749819737  0.608667763
     0.000030738  0.250030735  0.235819454
     0.250030738  0.500030735  0.235819454
     0.000030738  0.500030735  0.359951582
     0.250030738  0.250030735  0.359951582
     0.999969262  0.250092302  0.484937664
     0.249860443  0.499965307  0.484924424
     0.000202696  0.500241874  0.608667759
     0.249830687  0.249830684  0.608776513
     0.500030738  0.750030735  0.235819454
     0.750030738  0.000030735  0.235819454
     0.500030738  0.000030735  0.359951582
     0.750030738  0.750030735  0.359951582
     0.500301088  0.749760405  0.485169396
     0.750096258  0.000201208  0.484924406
     0.500241885  0.000202690  0.608667756
     0.751949439  0.751949450  0.609119152
     0.500030738  0.250030735  0.235819454
     0.750030738  0.500030735  0.235819454
     0.500030738  0.500030735  0.359951582
     0.750030738  0.250030735  0.359951582
     0.499965312  0.249860434  0.484924423
     0.749760398  0.500301085  0.485169393
     0.498112182  0.498112177  0.609119267
     0.749819734  0.249858918  0.608667762
     0.000030738  0.750030735  0.359951582
     0.250030738  0.000030735  0.359951582
     0.000030738  0.000030735  0.235819454
     0.250030738  0.750030735  0.235819454
     0.000691699  0.750207572  0.610894536
     0.250199398  0.999862199  0.611557811
     0.000145627  0.000145627  0.484545221
     0.250434878  0.750012183  0.484600927
     0.000030738  0.250030735  0.359951582
     0.250030738  0.500030735  0.359951582
     0.000030738  0.500030735  0.235819454
     0.250030738  0.250030735  0.235819454
     0.999862202  0.250199394  0.611557812
     0.249369970  0.499854062  0.610894625
     0.999626681  0.500049381  0.484600930
     0.249915938  0.249915934  0.484545237
[...]
   O         195.936          4.869         19.138          3.54400016
   O         203.965          4.902         19.526          3.61588392
   O         193.476          4.859         19.017          3.52168217
   O         243.616          5.049         21.339          3.95174745
   O         243.075          5.047         21.316          3.94735738
   O         237.284          5.027         21.060          3.90005672
   O         237.183          5.027         21.056          3.89922434
   O         195.951          4.869         19.138          3.54413725
   O         195.948          4.869         19.138          3.54410510
   O         193.482          4.859         19.017          3.52173185
   O         203.965          4.902         19.526          3.61588338
   O         243.052          5.047         21.315          3.94716910
   O         243.495          5.049         21.334          3.95076630

  vdW correction parametrized for the method °Ñ/      

  IVDW =  21
  VDW_RADIUS =    50.000 A
  VDW_IDAMPF =  0
  VDW_S6 =     1.000
  VDW_SR =     0.960
  VDW_D =    20.000
  LVDW_ONECELL = F F F
  LVDW_SAMETYPE T T T T
  LVDW_EWALD = F

  Number of pair interactions contributing to vdW energy:  978192
  Edisp (eV):   -4.03822

 VOLUME and BASIS-vectors are now :
  energy-cutoff  :      520.00
  volume of cell :     1211.25
      direct lattice vectors                 reciprocal lattice vectors
     8.440984654  0.000000000  0.000000000     0.118469591  0.000000000  0.000000000
     0.000000000  8.440984654  0.000000000     0.000000000  0.118469591  0.000000000
     0.000000000  0.000000000 17.000000000     0.000000000  0.000000000  0.058823529

  length of vectors
     8.440984654  8.440984654 17.000000000     0.118469591  0.118469591  0.058823529

 FORCES acting on ions
    electron-ion (+dipol)            ewald-force                    non-local-force                 convergence-correction
   0.221E-01 0.221E-01 -.716E+03   -.281E-01 -.281E-01 0.715E+03   0.113E-02 0.113E-02 0.298E+00   -.506E-07 0.154E-06 0.869E-01
   0.187E+03 0.187E+03 -.109E+04   -.232E+03 -.232E+03 0.109E+04   0.396E+02 0.396E+02 -.264E+01   -.226E-02 -.226E-02 0.134E+00
   -.187E+03 -.187E+03 -.109E+04   0.232E+03 0.232E+03 0.109E+04   -.396E+02 -.396E+02 -.264E+01   0.226E-02 0.226E-02 0.134E+00
   -.746E+00 -.626E+00 0.171E+04   0.748E+00 0.628E+00 -.171E+04   -.135E-02 -.131E-02 -.676E+01   0.212E-04 -.324E-06 -.161E+00
   0.624E+00 -.624E+00 0.171E+04   -.626E+00 0.626E+00 -.171E+04   0.108E-02 -.112E-02 -.677E+01   0.174E-05 -.121E-06 -.161E+00
   -.102E+01 -.102E+01 0.597E+03   0.104E+01 0.104E+01 -.597E+03   -.139E-01 -.139E-01 0.448E+00   -.140E-03 -.142E-03 -.847E-01
   0.104E+01 -.105E+01 0.598E+03   -.987E+00 0.106E+01 -.599E+03   -.299E-01 -.105E-01 0.466E+00   0.158E-03 -.139E-03 -.844E-01
   -.655E+01 -.389E+01 -.502E+03   0.655E+01 0.390E+01 0.502E+03   0.475E-02 -.356E-02 -.372E+00   -.540E-03 -.476E-03 0.220E-01
   0.377E+01 -.377E+01 -.514E+03   -.378E+01 0.378E+01 0.514E+03   0.382E-02 -.403E-02 -.157E+00   0.495E-03 -.492E-03 0.214E-01
   -.194E+02 -.194E+02 -.163E+04   0.194E+02 0.194E+02 0.163E+04   -.416E-02 -.416E-02 0.574E+01   -.623E-03 -.615E-03 0.115E+00
   0.253E+02 -.210E+02 -.161E+04   -.256E+02 0.210E+02 0.161E+04   0.254E+00 0.456E-02 0.574E+01   0.218E-02 -.656E-03 0.114E+00
   -.624E+00 0.624E+00 0.171E+04   0.626E+00 -.626E+00 -.171E+04   -.112E-02 0.108E-02 -.677E+01   0.183E-05 0.191E-06 -.161E+00
   0.746E+00 0.626E+00 0.171E+04   -.748E+00 -.628E+00 -.171E+04   0.132E-02 0.129E-02 -.676E+01   -.229E-04 -.977E-06 -.161E+00
   -.104E+01 0.105E+01 0.598E+03   0.987E+00 -.106E+01 -.599E+03   0.297E-01 0.102E-01 0.466E+00   -.159E-03 0.140E-03 -.844E-01
   0.102E+01 0.102E+01 0.597E+03   -.104E+01 -.104E+01 -.597E+03   0.137E-01 0.137E-01 0.448E+00   0.142E-03 0.141E-03 -.847E-01
   -.377E+01 0.377E+01 -.514E+03   0.378E+01 -.378E+01 0.514E+03   -.404E-02 0.382E-02 -.157E+00   -.498E-03 0.494E-03 0.215E-01
   0.655E+01 0.389E+01 -.502E+03   -.655E+01 -.390E+01 0.502E+03   -.494E-02 0.339E-02 -.372E+00   0.540E-03 0.478E-03 0.220E-01
   -.253E+02 0.210E+02 -.161E+04   0.256E+02 -.210E+02 0.161E+04   -.254E+00 -.470E-02 0.574E+01   -.218E-02 0.654E-03 0.114E+00
   0.194E+02 0.194E+02 -.163E+04   -.194E+02 -.194E+02 0.163E+04   0.429E-02 0.429E-02 0.574E+01   0.618E-03 0.619E-03 0.115E+00
   0.753E+00 -.753E+00 0.171E+04   -.754E+00 0.754E+00 -.170E+04   0.548E-03 -.583E-03 -.678E+01   -.233E-04 0.234E-04 -.161E+00
   -.626E+00 -.746E+00 0.171E+04   0.628E+00 0.748E+00 -.171E+04   -.132E-02 -.136E-02 -.676E+01   0.178E-05 0.208E-04 -.161E+00
   0.105E+01 -.104E+01 0.598E+03   -.106E+01 0.987E+00 -.599E+03   0.102E-01 0.297E-01 0.466E+00   0.140E-03 -.159E-03 -.844E-01
   -.105E+01 -.105E+01 0.600E+03   0.103E+01 0.103E+01 -.600E+03   0.164E-01 0.164E-01 0.520E+00   -.147E-03 -.147E-03 -.841E-01
   0.672E+01 -.672E+01 -.496E+03   -.671E+01 0.671E+01 0.496E+03   -.137E-01 0.134E-01 0.474E-01   0.543E-03 -.542E-03 0.239E-01
   -.389E+01 -.655E+01 -.502E+03   0.390E+01 0.655E+01 0.502E+03   -.356E-02 0.475E-02 -.372E+00   -.475E-03 -.536E-03 0.220E-01
   0.210E+02 -.253E+02 -.161E+04   -.210E+02 0.256E+02 0.161E+04   -.469E-02 -.254E+00 0.574E+01   0.652E-03 -.217E-02 0.114E+00
   -.348E+02 -.348E+02 -.151E+04   0.353E+02 0.353E+02 0.151E+04   -.420E+00 -.420E+00 0.540E+01   -.262E-02 -.262E-02 0.119E+00
   0.626E+00 0.746E+00 0.171E+04   -.628E+00 -.748E+00 -.171E+04   0.128E-02 0.131E-02 -.676E+01   -.179E-05 -.203E-04 -.161E+00
   -.753E+00 0.753E+00 0.171E+04   0.754E+00 -.754E+00 -.170E+04   -.582E-03 0.554E-03 -.678E+01   0.221E-04 -.211E-04 -.161E+00
   0.105E+01 0.105E+01 0.600E+03   -.103E+01 -.103E+01 -.600E+03   -.166E-01 -.166E-01 0.520E+00   0.146E-03 0.148E-03 -.841E-01
   -.105E+01 0.104E+01 0.598E+03   0.106E+01 -.987E+00 -.599E+03   -.105E-01 -.299E-01 0.466E+00   -.139E-03 0.158E-03 -.844E-01
   0.389E+01 0.655E+01 -.502E+03   -.390E+01 -.655E+01 0.502E+03   0.339E-02 -.494E-02 -.372E+00   0.479E-03 0.537E-03 0.220E-01
   -.672E+01 0.672E+01 -.496E+03   0.671E+01 -.671E+01 0.496E+03   0.134E-01 -.137E-01 0.474E-01   -.541E-03 0.540E-03 0.239E-01
   0.348E+02 0.348E+02 -.151E+04   -.353E+02 -.353E+02 0.151E+04   0.420E+00 0.420E+00 0.540E+01   0.262E-02 0.262E-02 0.119E+00
   -.210E+02 0.253E+02 -.161E+04   0.210E+02 -.256E+02 0.161E+04   0.456E-02 0.254E+00 0.574E+01   -.655E-03 0.217E-02 0.114E+00
   -.830E+00 -.673E+00 0.448E+03   0.824E+00 0.671E+00 -.448E+03   0.764E-02 0.261E-02 -.790E-01   -.118E-03 -.112E-03 -.664E-01
   0.672E+00 -.672E+00 0.447E+03   -.677E+00 0.677E+00 -.447E+03   0.632E-02 -.544E-02 -.111E+00   0.114E-03 -.112E-03 -.666E-01
   -.499E+00 -.499E+00 0.129E+04   0.502E+00 0.502E+00 -.129E+04   -.310E-02 -.309E-02 0.306E+01   0.704E-05 0.594E-05 -.123E+00
   0.529E+00 -.500E+00 0.129E+04   -.528E+00 0.504E+00 -.129E+04   -.121E-02 -.331E-02 0.305E+01   -.114E-04 0.139E-04 -.123E+00
   -.290E+02 -.111E+02 -.122E+04   0.291E+02 0.111E+02 0.122E+04   -.457E-01 0.132E-01 -.459E+01   -.151E-02 -.617E-03 0.859E-01
   0.988E+01 -.988E+01 -.125E+04   -.985E+01 0.985E+01 0.125E+04   -.302E-01 0.313E-01 -.450E+01   0.565E-03 -.564E-03 0.859E-01
   -.373E+01 -.373E+01 -.379E+03   0.372E+01 0.372E+01 0.378E+03   0.146E-01 0.146E-01 0.188E+00   -.301E-03 -.296E-03 0.107E-01
   0.366E+01 -.386E+01 -.374E+03   -.368E+01 0.385E+01 0.373E+03   0.206E-01 0.836E-02 0.250E+00   0.568E-03 -.277E-03 0.112E-01
   -.672E+00 0.672E+00 0.447E+03   0.677E+00 -.677E+00 -.447E+03   -.544E-02 0.632E-02 -.111E+00   -.113E-03 0.112E-03 -.666E-01
   0.830E+00 0.673E+00 0.448E+03   -.824E+00 -.671E+00 -.448E+03   -.676E-02 -.172E-02 -.790E-01   0.116E-03 0.112E-03 -.664E-01
   -.529E+00 0.500E+00 0.129E+04   0.528E+00 -.504E+00 -.129E+04   0.204E-02 0.415E-02 0.305E+01   0.136E-04 -.130E-04 -.123E+00
   0.499E+00 0.499E+00 0.129E+04   -.502E+00 -.502E+00 -.129E+04   0.392E-02 0.393E-02 0.306E+01   -.632E-05 -.582E-05 -.123E+00
   -.988E+01 0.988E+01 -.125E+04   0.985E+01 -.985E+01 0.125E+04   0.313E-01 -.303E-01 -.450E+01   -.567E-03 0.564E-03 0.859E-01
   0.290E+02 0.111E+02 -.122E+04   -.291E+02 -.111E+02 0.122E+04   0.475E-01 -.146E-01 -.459E+01   0.151E-02 0.617E-03 0.859E-01
   -.366E+01 0.386E+01 -.374E+03   0.368E+01 -.385E+01 0.373E+03   -.197E-01 -.751E-02 0.250E+00   -.572E-03 0.276E-03 0.112E-01
   0.373E+01 0.373E+01 -.379E+03   -.372E+01 -.372E+01 0.378E+03   -.138E-01 -.138E-01 0.188E+00   0.297E-03 0.297E-03 0.107E-01
   0.893E+00 -.893E+00 0.449E+03   -.916E+00 0.916E+00 -.449E+03   0.269E-01 -.260E-01 -.142E+00   0.111E-03 -.109E-03 -.661E-01
   -.673E+00 -.830E+00 0.448E+03   0.671E+00 0.824E+00 -.448E+03   0.261E-02 0.764E-02 -.790E-01   -.112E-03 -.115E-03 -.664E-01
   0.500E+00 -.529E+00 0.129E+04   -.504E+00 0.528E+00 -.129E+04   0.416E-02 0.204E-02 0.305E+01   -.150E-04 0.116E-04 -.123E+00
   -.534E+00 -.534E+00 0.129E+04   0.532E+00 0.532E+00 -.129E+04   0.323E-02 0.322E-02 0.305E+01   0.170E-04 0.173E-04 -.123E+00
   0.361E+02 -.361E+02 -.117E+04   -.360E+02 0.360E+02 0.117E+04   -.691E-01 0.638E-01 -.409E+01   0.197E-02 -.198E-02 0.880E-01
   -.111E+02 -.290E+02 -.122E+04   0.111E+02 0.291E+02 0.122E+04   0.132E-01 -.457E-01 -.459E+01   -.614E-03 -.151E-02 0.859E-01
   0.386E+01 -.366E+01 -.374E+03   -.385E+01 0.368E+01 0.373E+03   -.750E-02 -.197E-01 0.250E+00   0.277E-03 -.568E-03 0.112E-01
   -.387E+01 -.387E+01 -.364E+03   0.391E+01 0.391E+01 0.363E+03   -.341E-01 -.340E-01 0.223E+00   -.565E-03 -.564E-03 0.120E-01
   0.673E+00 0.830E+00 0.448E+03   -.671E+00 -.824E+00 -.448E+03   -.172E-02 -.676E-02 -.790E-01   0.111E-03 0.117E-03 -.664E-01
   -.893E+00 0.893E+00 0.449E+03   0.916E+00 -.916E+00 -.449E+03   -.260E-01 0.269E-01 -.142E+00   -.109E-03 0.110E-03 -.661E-01
   0.534E+00 0.534E+00 0.129E+04   -.532E+00 -.532E+00 -.129E+04   -.238E-02 -.239E-02 0.305E+01   -.168E-04 -.172E-04 -.123E+00
   -.500E+00 0.529E+00 0.129E+04   0.504E+00 -.528E+00 -.129E+04   -.332E-02 -.121E-02 0.305E+01   0.143E-04 -.121E-04 -.123E+00
   0.111E+02 0.290E+02 -.122E+04   -.111E+02 -.291E+02 0.122E+04   -.146E-01 0.475E-01 -.459E+01   0.619E-03 0.151E-02 0.859E-01
   -.361E+02 0.361E+02 -.117E+04   0.360E+02 -.360E+02 0.117E+04   0.638E-01 -.690E-01 -.409E+01   -.197E-02 0.197E-02 0.880E-01
   0.387E+01 0.387E+01 -.364E+03   -.391E+01 -.391E+01 0.363E+03   0.349E-01 0.349E-01 0.223E+00   0.564E-03 0.566E-03 0.120E-01
   -.386E+01 0.366E+01 -.374E+03   0.385E+01 -.368E+01 0.373E+03   0.836E-02 0.206E-01 0.250E+00   -.274E-03 0.567E-03 0.112E-01
   0.349E-02 0.348E-02 0.273E+02   -.711E-12 -.711E-13 0.148E-11   -.132E-02 -.132E-02 -.219E+02   -.220E-05 0.122E-04 -.124E+01

 POSITION                                       TOTAL-FORCE (eV/Angst)
      5.27590      5.27590     12.96113        -0.004870     -0.004870      0.161242
      4.44143      4.44143     12.99107         1.213311      1.213311     -0.100390
      6.11030      6.11030     12.99106        -1.210267     -1.210266     -0.101445
      0.00026      6.33100      4.00893         0.000678      0.000604      0.536321
      2.11051      0.00026      4.00893        -0.000448      0.000519      0.539035
      0.00026      0.00026      6.11918         0.005545      0.005544      0.033376
      2.11051      6.33100      6.11918         0.013872      0.003694      0.035961
      0.00170      6.33155      8.24371        -0.001300      0.001471      0.039626
      2.11103      8.44073      8.24394        -0.000872      0.000685      0.035358
      0.00195      0.00195     10.34920        -0.000197     -0.000197     -0.149687
      2.10906      6.32922     10.34735        -0.017121      0.004394     -0.153242
      0.00026      2.11051      4.00893         0.000518     -0.000448      0.539035
      2.11051      4.22075      4.00893        -0.000605     -0.000533      0.536320
      0.00026      4.22075      6.11918        -0.014069     -0.003894      0.035969
      2.11051      2.11051      6.11918        -0.005741     -0.005741      0.033390
      8.44073      2.11103      8.24394         0.000684     -0.000870      0.035342
      2.10907      4.22020      8.24372         0.001083     -0.001702      0.039664
      0.00171      4.22253     10.34735         0.016972     -0.004595     -0.153315
      2.10882      2.10882     10.34920        -0.000016     -0.000015     -0.149632
      4.22075      6.33100      4.00893        -0.000287      0.000358      0.543337
      6.33100      0.00026      4.00893         0.000603      0.000677      0.536321
      4.22075      0.00026      6.11918        -0.003895     -0.014068      0.035969
      6.33100      6.33100      6.11918        -0.005028     -0.005028      0.039221
      4.22303      6.32872      8.24788        -0.002363      0.002197      0.027007
      6.33155      0.00170      8.24371         0.001472     -0.001300      0.039626
      4.22253      0.00171     10.34735        -0.004595      0.016972     -0.153315
      6.34719      6.34719     10.35503         0.020466      0.020464     -0.113462
      4.22075      2.11051      4.00893        -0.000534     -0.000606      0.536319
      6.33100      4.22075      4.00893         0.000358     -0.000288      0.543336
      4.22075      4.22075      6.11918         0.004825      0.004823      0.039210
      6.33100      2.11051      6.11918         0.003693      0.013871      0.035963
      4.22020      2.10907      8.24372        -0.001701      0.001083      0.039662
      6.32872      4.22303      8.24788         0.002198     -0.002363      0.026975
      4.20456      4.20456     10.35503        -0.020445     -0.020445     -0.113059
      6.32922      2.10906     10.34735         0.004393     -0.017122     -0.153240
      0.00026      6.33100      6.11918         0.001900      0.000813      0.072650
      2.11051      0.00026      6.11918         0.002298     -0.001658      0.061343
      0.00026      0.00026      4.00893        -0.000978     -0.000976     -0.432690
      2.11051      6.33100      4.00893        -0.000286     -0.001055     -0.434197
      0.00584      6.33249     10.38521         0.005727     -0.001441     -0.124611
      2.11193      8.43982     10.39648        -0.001450      0.002210     -0.111949
      0.00123      0.00123      8.23727         0.002125      0.002126      0.010916
      2.11392      6.33084      8.23822         0.005044      0.000425      0.016986
      0.00026      2.11051      6.11918        -0.001659      0.002299      0.061341
      2.11051      4.22075      6.11918        -0.001265     -0.000174      0.072651
      0.00026      4.22075      4.00893         0.000836      0.001608     -0.434195
      2.11051      2.11051      4.00893         0.001534      0.001535     -0.432696
      8.43982      2.11193     10.39648         0.002213     -0.001452     -0.111951
      2.10493      4.21926     10.38521        -0.004292      0.000158     -0.125630
      8.43783      4.22091      8.23822        -0.004384      0.000159      0.017007
      2.10954      2.10954      8.23727        -0.001544     -0.001544      0.010919
      4.22075      6.33100      6.11918         0.008637     -0.007992      0.069779
      6.33100      0.00026      6.11918         0.000812      0.001898      0.072650
      4.22075      0.00026      4.00893         0.001612      0.000840     -0.434194
      6.33100      6.33100      4.00893         0.001275      0.001279     -0.435598
      4.22345      6.32830     10.41254        -0.013348      0.008911     -0.099621
      6.33249      0.00584     10.38521        -0.001442      0.005726     -0.124605
      4.22091      8.43783      8.23822         0.000160     -0.004386      0.017010
      6.33075      6.33075      8.24170        -0.002985     -0.002983      0.025773
      4.22075      2.11051      6.11918        -0.000175     -0.001265      0.072650
      6.33100      4.22075      6.11918        -0.007991      0.008635      0.069781
      4.22075      4.22075      4.00893        -0.000720     -0.000723     -0.435600
      6.33100      2.11051      4.00893        -0.001054     -0.000281     -0.434197
      4.21926      2.10493     10.38521         0.000157     -0.004294     -0.125632
      6.32830      4.22345     10.41254         0.008910     -0.013345     -0.099621
      4.22100      4.22100      8.24170         0.003586      0.003585      0.025753
      6.33084      2.11392      8.23822         0.000426      0.005042      0.016980
    total drift:                                0.002944      0.002946      0.129664

  FREE ENERGIE OF THE ION-ELECTRON SYSTEM (eV)
  free  energy   TOTEN  =      -497.58088372 eV

  energy  without entropy=     -497.58088372  energy(sigma->0) =     -497.58088372