 vasp.6.4.2 20Jul23 (build Feb 22 2024 13:53:45) complex
 executed on              LinuxNV date 2024.08.27  17:36:34
 OpenACC runtime initialized ...    4 GPUs detected

 INCAR:
   SYSTEM = Oxide-Surface
   ISMEAR = 0
   SIGMA = 0.05
   EDIFF = 1E-5
   ALGO = Normal
   IBRION = -1
   NSW = 0
   ISYM = 0
   DIPOL = 0.5 0.5 0.5
   IDIPOL = 3
   LDIPOL = .TRUE.
   ISTART = 0
   LHFCALC = .FALSE.
   GGA = PE
   IVDW = 21
   VDW_SR = 0.96
   HFRCUT = -1
   ENCUT = 1000
   PREC = Normal
   PRECFOCK = Normal
   LASPH = .TRUE.
   LREAL = Auto
   ISPIN = 1
   NELM = 200
   NELMIN = 8
   NCORE = 1
   KPAR = 1
   LWAVE = .FALSE.
   LCHARG = .FALSE.

 POTCAR:    PAW_PBE C_h 06Feb2004
 POTCAR:    PAW_PBE O_h 06Feb2004
 POTCAR:    PAW_PBE Mg_sv 12Apr2007
 POTCAR:    PAW_PBE O_h 06Feb2004
 POTCAR:    PAW_PBE C_h 06Feb2004
   VRHFIN =C: s2p2

   TITEL  = PAW_PBE C_h 06Feb2004
   POMASS =   12.011; ZVAL   =    4.000    mass and valenz
   ENMAX  =  700.000; ENMIN  =  500.000 eV

[...]

   TITEL  = PAW_PBE Mg_sv 12Apr2007
   POMASS =   24.305; ZVAL   =   10.000    mass and valenz
   ENMAX  =  495.223; ENMIN  =  371.417 eV

   TITEL  = PAW_PBE O_h 06Feb2004
   POMASS =   16.000; ZVAL   =    6.000    mass and valenz
   ENMAX  =  700.000; ENMIN  =  500.000 eV

 Optimization of the real space projectors (new method)

 maximal supplied QI-value         = 34.20
 optimisation between [QCUT,QGAM] = [ 16.08, 32.15] = [ 72.37,289.48] Ry
 Optimized for a Real-space Cutoff    0.71 Angstroem

   l    n(q)    QCUT    max X(q) W(low)/X(q) W(high)/X(q)  e(spline)
   0      7    16.076   134.812    0.49E-03    0.92E-03    0.59E-07
   0      7    16.076    80.524    0.48E-03    0.91E-03    0.58E-07
   1      6    16.076    79.026    0.37E-03    0.58E-03    0.12E-06
   1      6    16.076    45.188    0.36E-03    0.56E-03    0.12E-06
 Optimization of the real space projectors (new method)

[...]

   l    n(q)    QCUT    max X(q) W(low)/X(q) W(high)/X(q)  e(spline)
   0      9    16.140     8.730    0.14E-04    0.12E-04    0.27E-07
   0      9    16.140     8.910    0.19E-04    0.17E-04    0.41E-07
   1      9    16.140     2.513    0.16E-04    0.28E-04    0.54E-07
   1      9    16.140     3.341    0.27E-04    0.13E-03    0.17E-06
   2      9    16.140     3.683    0.18E-03    0.21E-03    0.81E-07
 Optimization of the real space projectors (new method)

 maximal supplied QI-value         = 34.20
 optimisation between [QCUT,QGAM] = [ 16.08, 32.15] = [ 72.37,289.48] Ry
 Optimized for a Real-space Cutoff    0.71 Angstroem

   l    n(q)    QCUT    max X(q) W(low)/X(q) W(high)/X(q)  e(spline)
   0      7    16.076   280.207    0.42E-03    0.69E-03    0.60E-07
   0      7    16.076   228.978    0.42E-03    0.69E-03    0.61E-07
   1      6    16.076    86.127    0.11E-03    0.66E-03    0.10E-06
   1      6    16.076    65.368    0.11E-03    0.65E-03    0.10E-06
  PAW_PBE C_h 06Feb2004                 :
  PAW_PBE O_h 06Feb2004                 :
  PAW_PBE Mg_sv 12Apr2007               :
  PAW_PBE O_h 06Feb2004                 :

 POSCAR:  C  O Mg  O
  positions in direct lattice
 exchange correlation table for  LEXCH =        8
   RHO(1)=    0.500       N(1)  =     2000
   RHO(2)=  100.500       N(2)  =     4000

 ion  position               nearest neighbor table
   1  0.625  0.625  0.762-   3 1.18   2 1.18
   2  0.526  0.526  0.764-   1 1.18
   3  0.724  0.724  0.764-   1 1.18
   4  0.000  0.750  0.236-
   5  0.250  0.000  0.236-
   6  0.000  0.000  0.360-
   7  0.250  0.750  0.360-
   8  0.000  0.750  0.485-
   9  0.250  1.000  0.485-
  10  0.000  0.000  0.609-
  11  0.250  0.750  0.609-
  12  0.000  0.250  0.236-
  13  0.250  0.500  0.236-
  14  0.000  0.500  0.360-
  15  0.250  0.250  0.360-
  16  1.000  0.250  0.485-
  17  0.250  0.500  0.485-
  18  0.000  0.500  0.609-
  19  0.250  0.250  0.609-
  20  0.500  0.750  0.236-
  21  0.750  0.000  0.236-
  22  0.500  0.000  0.360-
  23  0.750  0.750  0.360-
  24  0.500  0.750  0.485-
  25  0.750  0.000  0.485-
  26  0.500  0.000  0.609-
  27  0.752  0.752  0.609-
  28  0.500  0.250  0.236-
  29  0.750  0.500  0.236-
  30  0.500  0.500  0.360-
  31  0.750  0.250  0.360-
  32  0.500  0.250  0.485-
  33  0.750  0.500  0.485-
  34  0.498  0.498  0.609-
  35  0.750  0.250  0.609-
  36  0.000  0.750  0.360-
  37  0.250  0.000  0.360-
  38  0.000  0.000  0.236-
  39  0.250  0.750  0.236-
  40  0.001  0.750  0.611-
  41  0.250  1.000  0.612-
  42  0.000  0.000  0.485-
  43  0.250  0.750  0.485-
  44  0.000  0.250  0.360-
  45  0.250  0.500  0.360-
  46  0.000  0.500  0.236-
  47  0.250  0.250  0.236-
  48  1.000  0.250  0.612-
  49  0.249  0.500  0.611-
  50  1.000  0.500  0.485-
  51  0.250  0.250  0.485-
  52  0.500  0.750  0.360-
  53  0.750  0.000  0.360-
  54  0.500  0.000  0.236-
  55  0.750  0.750  0.236-
  56  0.500  0.750  0.613-
  57  0.750  0.001  0.611-
  58  0.500  1.000  0.485-
  59  0.750  0.750  0.485-
  60  0.500  0.250  0.360-
  61  0.750  0.500  0.360-
  62  0.500  0.500  0.236-
  63  0.750  0.250  0.236-
  64  0.500  0.249  0.611-
  65  0.750  0.500  0.613-
  66  0.500  0.500  0.485-
  67  0.750  0.250  0.485-

IMPORTANT INFORMATION: All symmetrisations will be switched off!
NOSYMM: (Re-)initialisation of all symmetry stuff for point group C_1.

                                     Primitive cell

  volume of cell :    1211.2538

  direct lattice vectors                    reciprocal lattice vectors
     8.440984654  0.000000000  0.000000000     0.118469591  0.000000000  0.000000000
     0.000000000  8.440984654  0.000000000     0.000000000  0.118469591  0.000000000
     0.000000000  0.000000000 17.000000000     0.000000000  0.000000000  0.058823529

  length of vectors
     8.440984654  8.440984654 17.000000000     0.118469591  0.118469591  0.058823529

  position of ions in fractional coordinates (direct lattice)
     0.625033636  0.625033636  0.762419616
     0.526174150  0.526174133  0.764180546
     0.723885278  0.723885283  0.764179839
     0.000030738  0.750030735  0.235819454
     0.250030738  0.000030735  0.235819454
     0.000030738  0.000030735  0.359951582
     0.250030738  0.750030735  0.359951582
     0.000201210  0.750096264  0.484924403
     0.250092311  0.999969265  0.484937667
     0.000230924  0.000230921  0.608776447
     0.249858919  0.749819737  0.608667763
     0.000030738  0.250030735  0.235819454
     0.250030738  0.500030735  0.235819454
     0.000030738  0.500030735  0.359951582
     0.250030738  0.250030735  0.359951582
     0.999969262  0.250092302  0.484937664
     0.249860443  0.499965307  0.484924424
     0.000202696  0.500241874  0.608667759
     0.249830687  0.249830684  0.608776513
     0.500030738  0.750030735  0.235819454
     0.750030738  0.000030735  0.235819454
     0.500030738  0.000030735  0.359951582
     0.750030738  0.750030735  0.359951582
     0.500301088  0.749760405  0.485169396
     0.750096258  0.000201208  0.484924406
     0.500241885  0.000202690  0.608667756
     0.751949439  0.751949450  0.609119152
     0.500030738  0.250030735  0.235819454
     0.750030738  0.500030735  0.235819454
     0.500030738  0.500030735  0.359951582
     0.750030738  0.250030735  0.359951582
     0.499965312  0.249860434  0.484924423
     0.749760398  0.500301085  0.485169393
     0.498112182  0.498112177  0.609119267
     0.749819734  0.249858918  0.608667762
     0.000030738  0.750030735  0.359951582
     0.250030738  0.000030735  0.359951582
     0.000030738  0.000030735  0.235819454
     0.250030738  0.750030735  0.235819454
     0.000691699  0.750207572  0.610894536
     0.250199398  0.999862199  0.611557811
     0.000145627  0.000145627  0.484545221
     0.250434878  0.750012183  0.484600927
     0.000030738  0.250030735  0.359951582
     0.250030738  0.500030735  0.359951582
     0.000030738  0.500030735  0.235819454
     0.250030738  0.250030735  0.235819454
     0.999862202  0.250199394  0.611557812
     0.249369970  0.499854062  0.610894625
     0.999626681  0.500049381  0.484600930
     0.249915938  0.249915934  0.484545237
     0.500030738  0.750030735  0.359951582
     0.750030738  0.000030735  0.359951582
     0.500030738  0.000030735  0.235819454
     0.750030738  0.750030735  0.235819454
     0.500350929  0.749710577  0.612502175
     0.750207565  0.000691696  0.610894534
     0.500049381  0.999626692  0.484600929
     0.750001397  0.750001391  0.484806093
     0.500030738  0.250030735  0.359951582
     0.750030738  0.500030735  0.359951582
     0.500030738  0.500030735  0.235819454
     0.750030738  0.250030735  0.235819454
     0.499854065  0.249369967  0.610894620
     0.749710588  0.500350924  0.612502182
     0.500060181  0.500060179  0.484806128
     0.750012185  0.250434879  0.484600929

  ion indices of the primitive-cell ions
   primitive index   ion index
                 1           1
                 2           2
                 3           3
                 4           4
                 5           5
                 6           6
                 7           7
                 8           8
                 9           9
                10          10
                11          11
                12          12
                13          13
                14          14
                15          15
                16          16
                17          17
                18          18
                19          19
                20          20
                21          21
                22          22
                23          23
                24          24
                25          25
                26          26
                27          27
                28          28
                29          29
                30          30
                31          31
                32          32
                33          33
                34          34
                35          35
                36          36
                37          37
                38          38
                39          39
                40          40
                41          41
                42          42
                43          43
                44          44
                45          45
                46          46
                47          47
                48          48
                49          49
                50          50
                51          51
                52          52
                53          53
                54          54
                55          55
                56          56
                57          57
                58          58
                59          59
                60          60
                61          61
                62          62
                63          63
                64          64
                65          65
                66          66
                67          67

 KPOINTS: pymatgen v2020.8.13 with grid density =

Automatic generation of k-mesh.
 Grid dimensions read from file:
 generate k-points for:    2    2    1

 Generating k-lattice:

  Cartesian coordinates                     Fractional coordinates (reciprocal lattice)
[...]
  VDW_IDAMPF =  0
  VDW_S6 =     1.000
  VDW_SR =     0.960
  VDW_D =    20.000
  LVDW_ONECELL = F F F
  LVDW_SAMETYPE T T T T
  LVDW_EWALD = F

  Number of pair interactions contributing to vdW energy:  978192
  Edisp (eV):   -3.73498

  FORCE on cell =-STRESS in cart. coord.  units (eV):
  Direction    XX          YY          ZZ          XY          YZ          ZX
  Alpha Z  1248.31882  1248.31882  1248.31882
  Ewald  105910.19249105910.19261************   387.37522    -0.00198    -0.00197
  Hartree122927.91475122927.91443************   175.03818    -0.00102    -0.00126
  E(xc)   -3300.69552 -3300.69552 -3307.42628     0.96674    -0.00000    -0.00000
  Local  ************************237614.28519  -527.98043     0.00271     0.00295
  n-local -5641.80146 -5641.80145 -5645.11663     3.35796     0.00083     0.00083
  augment   724.95828   724.95828   715.95789    -0.29489    -0.00025    -0.00024
  Kinetic 12906.68258 12906.68260 12959.50501   -39.11017     0.00019     0.00021
  Fock        0.00000     0.00000     0.00000     0.00000     0.00000     0.00000
  vdW        -5.27017    -5.27017    -3.77565    -0.00794    -0.00000    -0.00000
  Total     -21.65741   -21.65734     4.14045    -0.65534     0.00049     0.00052
  in kB     -28.64718   -28.64710     5.47675    -0.86684     0.00064     0.00069

 VOLUME and BASIS-vectors are now :
  energy-cutoff  :     1000.00
  volume of cell :     1211.25
      direct lattice vectors                 reciprocal lattice vectors
     8.440984654  0.000000000  0.000000000     0.118469591  0.000000000  0.000000000
     0.000000000  8.440984654  0.000000000     0.000000000  0.118469591  0.000000000
     0.000000000  0.000000000 17.000000000     0.000000000  0.000000000  0.058823529

  length of vectors
     8.440984654  8.440984654 17.000000000     0.118469591  0.118469591  0.058823529

 FORCES acting on ions
    electron-ion (+dipol)            ewald-force                    non-local-force                 convergence-correction
   0.253E-01 0.253E-01 -.819E+03   -.282E-01 -.281E-01 0.819E+03   0.561E-02 0.562E-02 -.168E+00   0.321E-04 0.439E-04 -.253E-02
   0.189E+03 0.189E+03 -.124E+04   -.232E+03 -.232E+03 0.125E+04   0.429E+02 0.429E+02 -.268E+01   0.268E-02 0.271E-02 -.355E-02
   -.189E+03 -.189E+03 -.124E+04   0.232E+03 0.232E+03 0.125E+04   -.430E+02 -.430E+02 -.267E+01   -.269E-02 -.273E-02 -.364E-02
   -.919E+00 -.771E+00 0.244E+04   0.921E+00 0.773E+00 -.243E+04   -.160E-02 -.177E-02 -.913E+01   0.669E-04 0.271E-03 0.991E-04
   0.768E+00 -.768E+00 0.244E+04   -.770E+00 0.770E+00 -.243E+04   0.142E-02 -.138E-02 -.915E+01   -.728E-04 0.173E-03 -.190E-03
   -.127E+01 -.127E+01 0.848E+03   0.129E+01 0.129E+01 -.849E+03   -.199E-01 -.199E-01 0.670E+00   -.347E-03 -.604E-04 -.501E-02
   0.114E+01 -.130E+01 0.850E+03   -.109E+01 0.131E+01 -.850E+03   -.442E-01 -.165E-01 0.695E+00   -.144E-03 -.224E-03 -.448E-02
   -.802E+01 -.475E+01 -.729E+03   0.802E+01 0.475E+01 0.729E+03   0.285E-02 -.414E-02 -.546E+00   -.730E-03 -.300E-04 -.976E-02
   0.459E+01 -.459E+01 -.744E+03   -.460E+01 0.460E+01 0.744E+03   0.465E-02 -.396E-02 -.249E+00   0.147E-03 -.203E-03 -.832E-02
   -.245E+02 -.245E+02 -.234E+04   0.245E+02 0.245E+02 0.233E+04   -.121E-01 -.121E-01 0.783E+01   -.111E-02 -.111E-02 -.365E-02
   0.312E+02 -.264E+02 -.231E+04   -.315E+02 0.264E+02 0.231E+04   0.336E+00 -.232E-02 0.781E+01   0.818E-03 -.107E-02 -.215E-02
   -.768E+00 0.768E+00 0.244E+04   0.770E+00 -.770E+00 -.243E+04   -.133E-02 0.140E-02 -.915E+01   0.108E-04 -.121E-03 -.285E-04
   0.919E+00 0.771E+00 0.244E+04   -.921E+00 -.773E+00 -.243E+04   0.165E-02 0.183E-02 -.913E+01   -.130E-03 -.270E-03 0.109E-03
   -.114E+01 0.130E+01 0.850E+03   0.109E+01 -.131E+01 -.850E+03   0.431E-01 0.154E-01 0.694E+00   0.616E-04 0.134E-03 -.451E-02
   0.127E+01 0.127E+01 0.848E+03   -.129E+01 -.129E+01 -.849E+03   0.189E-01 0.188E-01 0.671E+00   0.105E-03 0.269E-03 -.512E-02
   -.459E+01 0.459E+01 -.744E+03   0.460E+01 -.460E+01 0.744E+03   -.401E-02 0.471E-02 -.249E+00   -.226E-03 -.256E-04 -.873E-02
   0.802E+01 0.475E+01 -.729E+03   -.802E+01 -.475E+01 0.729E+03   -.497E-02 0.490E-02 -.545E+00   0.596E-03 0.179E-03 -.986E-02
   -.312E+02 0.264E+02 -.231E+04   0.315E+02 -.264E+02 0.231E+04   -.338E+00 0.568E-03 0.782E+01   -.776E-03 0.107E-02 -.200E-02
   0.245E+02 0.245E+02 -.234E+04   -.245E+02 -.245E+02 0.233E+04   0.108E-01 0.105E-01 0.783E+01   0.887E-03 0.108E-02 -.358E-02
   0.930E+00 -.930E+00 0.244E+04   -.930E+00 0.930E+00 -.243E+04   0.420E-03 -.263E-03 -.916E+01   -.661E-04 0.200E-04 0.342E-03
   -.770E+00 -.919E+00 0.244E+04   0.773E+00 0.921E+00 -.243E+04   -.177E-02 -.165E-02 -.913E+01   0.192E-03 0.256E-03 -.991E-04
   0.130E+01 -.114E+01 0.850E+03   -.131E+01 0.109E+01 -.850E+03   0.154E-01 0.431E-01 0.694E+00   0.294E-03 0.309E-03 -.448E-02
   -.123E+01 -.123E+01 0.852E+03   0.120E+01 0.120E+01 -.852E+03   0.236E-01 0.236E-01 0.770E+00   -.130E-04 -.126E-03 -.441E-02
   0.816E+01 -.816E+01 -.722E+03   -.815E+01 0.815E+01 0.722E+03   -.192E-01 0.166E-01 0.387E-01   0.566E-03 -.270E-03 -.864E-02
   -.475E+01 -.802E+01 -.729E+03   0.475E+01 0.802E+01 0.729E+03   -.413E-02 0.286E-02 -.545E+00   0.979E-04 -.638E-03 -.988E-02
   0.264E+02 -.312E+02 -.231E+04   -.264E+02 0.315E+02 0.231E+04   0.606E-03 -.338E+00 0.782E+01   0.107E-02 -.939E-03 -.191E-02
   -.424E+02 -.424E+02 -.219E+04   0.429E+02 0.429E+02 0.218E+04   -.581E+00 -.581E+00 0.745E+01   -.298E-02 -.308E-02 -.309E-03
   0.770E+00 0.919E+00 0.244E+04   -.773E+00 -.921E+00 -.243E+04   0.183E-02 0.166E-02 -.913E+01   -.125E-03 -.193E-03 -.740E-04
   -.930E+00 0.930E+00 0.244E+04   0.930E+00 -.930E+00 -.243E+04   -.323E-03 0.404E-03 -.916E+01   0.351E-04 -.142E-03 0.102E-03
   0.123E+01 0.123E+01 0.852E+03   -.120E+01 -.120E+01 -.852E+03   -.247E-01 -.247E-01 0.769E+00   0.172E-03 -.574E-04 -.491E-02
   -.130E+01 0.114E+01 0.850E+03   0.131E+01 -.109E+01 -.850E+03   -.165E-01 -.442E-01 0.695E+00   -.225E-03 -.106E-03 -.432E-02
   0.475E+01 0.802E+01 -.729E+03   -.475E+01 -.802E+01 0.729E+03   0.491E-02 -.492E-02 -.545E+00   0.915E-04 0.573E-03 -.100E-01
   -.816E+01 0.816E+01 -.722E+03   0.815E+01 -.815E+01 0.722E+03   0.168E-01 -.192E-01 0.386E-01   -.457E-03 0.514E-03 -.868E-02
   0.424E+02 0.424E+02 -.219E+04   -.429E+02 -.429E+02 0.218E+04   0.584E+00 0.583E+00 0.745E+01   0.295E-02 0.310E-02 -.655E-05
   -.264E+02 0.312E+02 -.231E+04   0.264E+02 -.315E+02 0.231E+04   -.258E-02 0.336E+00 0.781E+01   -.884E-03 0.619E-03 -.220E-02
   -.781E+00 -.638E+00 0.509E+03   0.773E+00 0.635E+00 -.509E+03   0.885E-02 0.269E-02 -.519E-01   -.300E-04 -.109E-03 0.142E-01
   0.642E+00 -.642E+00 0.508E+03   -.648E+00 0.648E+00 -.508E+03   0.740E-02 -.834E-02 -.979E-01   0.209E-03 -.912E-04 0.132E-01
   -.494E+00 -.494E+00 0.148E+04   0.498E+00 0.498E+00 -.148E+04   -.305E-02 -.311E-02 0.263E+01   0.553E-04 0.604E-04 0.629E-02
   0.518E+00 -.496E+00 0.148E+04   -.516E+00 0.499E+00 -.148E+04   -.321E-02 -.565E-02 0.263E+01   -.765E-04 0.253E-03 0.645E-02
   -.292E+02 -.109E+02 -.141E+04   0.293E+02 0.109E+02 0.142E+04   -.385E-01 0.207E-01 -.472E+01   -.253E-02 -.356E-03 0.574E-02
   0.970E+01 -.970E+01 -.144E+04   -.967E+01 0.967E+01 0.144E+04   -.404E-01 0.413E-01 -.462E+01   0.325E-03 -.462E-03 0.441E-02
   -.373E+01 -.373E+01 -.439E+03   0.372E+01 0.372E+01 0.439E+03   0.145E-01 0.145E-01 0.242E+00   -.318E-03 -.106E-03 0.915E-02
   0.348E+01 -.386E+01 -.434E+03   -.349E+01 0.385E+01 0.433E+03   0.143E-01 0.108E-01 0.312E+00   0.319E-03 -.266E-04 0.864E-02
   -.642E+00 0.642E+00 0.508E+03   0.648E+00 -.648E+00 -.508E+03   -.831E-02 0.744E-02 -.979E-01   -.129E-03 0.120E-03 0.135E-01
   0.781E+00 0.638E+00 0.509E+03   -.773E+00 -.635E+00 -.509E+03   -.975E-02 -.356E-02 -.519E-01   -.471E-04 -.859E-05 0.140E-01
   -.518E+00 0.496E+00 0.148E+04   0.516E+00 -.499E+00 -.148E+04   0.435E-02 0.681E-02 0.262E+01   0.229E-04 -.268E-03 0.643E-02
   0.494E+00 0.494E+00 0.148E+04   -.498E+00 -.498E+00 -.148E+04   0.418E-02 0.423E-02 0.264E+01   0.241E-04 -.661E-04 0.643E-02
   -.970E+01 0.970E+01 -.144E+04   0.967E+01 -.967E+01 0.144E+04   0.413E-01 -.404E-01 -.462E+01   -.405E-03 0.382E-03 0.453E-02
   0.292E+02 0.109E+02 -.141E+04   -.293E+02 -.109E+02 0.142E+04   0.409E-01 -.205E-01 -.472E+01   0.231E-02 0.524E-03 0.601E-02
   -.348E+01 0.386E+01 -.434E+03   0.349E+01 -.385E+01 0.433E+03   -.155E-01 -.990E-02 0.301E+00   -.345E-03 0.117E-03 0.884E-02
   0.373E+01 0.373E+01 -.439E+03   -.372E+01 -.372E+01 0.439E+03   -.152E-01 -.152E-01 0.253E+00   0.345E-03 0.354E-04 0.889E-02
   0.880E+00 -.880E+00 0.510E+03   -.909E+00 0.909E+00 -.510E+03   0.356E-01 -.365E-01 -.124E+00   -.143E-04 0.110E-03 0.143E-01
   -.638E+00 -.781E+00 0.509E+03   0.635E+00 0.773E+00 -.509E+03   0.269E-02 0.881E-02 -.519E-01   -.145E-03 0.123E-03 0.141E-01
   0.495E+00 -.518E+00 0.148E+04   -.499E+00 0.516E+00 -.148E+04   0.674E-02 0.425E-02 0.262E+01   -.917E-04 0.266E-03 0.650E-02
   -.525E+00 -.525E+00 0.148E+04   0.521E+00 0.521E+00 -.148E+04   0.425E-02 0.424E-02 0.263E+01   0.983E-04 0.121E-03 0.644E-02
   0.355E+02 -.355E+02 -.136E+04   -.354E+02 0.354E+02 0.137E+04   -.114E+00 0.116E+00 -.431E+01   0.354E-02 -.343E-02 0.754E-02
   -.109E+02 -.292E+02 -.141E+04   0.109E+02 0.293E+02 0.142E+04   0.207E-01 -.384E-01 -.472E+01   -.328E-03 -.243E-02 0.581E-02
   0.386E+01 -.348E+01 -.434E+03   -.385E+01 0.349E+01 0.433E+03   -.985E-02 -.155E-01 0.301E+00   0.558E-04 -.230E-03 0.851E-02
   -.368E+01 -.368E+01 -.424E+03   0.372E+01 0.372E+01 0.424E+03   -.358E-01 -.358E-01 0.276E+00   -.237E-03 -.137E-03 0.108E-01
   0.638E+00 0.781E+00 0.509E+03   -.636E+00 -.773E+00 -.509E+03   -.359E-02 -.973E-02 -.518E-01   0.141E-03 -.118E-03 0.141E-01
   -.880E+00 0.880E+00 0.510E+03   0.909E+00 -.909E+00 -.510E+03   -.365E-01 0.356E-01 -.124E+00   0.374E-04 -.954E-04 0.143E-01
   0.525E+00 0.525E+00 0.148E+04   -.521E+00 -.521E+00 -.148E+04   -.314E-02 -.307E-02 0.262E+01   -.140E-04 -.228E-03 0.643E-02
   -.495E+00 0.518E+00 0.148E+04   0.499E+00 -.516E+00 -.148E+04   -.560E-02 -.319E-02 0.263E+01   -.160E-05 -.935E-04 0.652E-02
   0.109E+02 0.292E+02 -.141E+04   -.109E+02 -.293E+02 0.142E+04   -.205E-01 0.409E-01 -.472E+01   0.377E-03 0.225E-02 0.601E-02
   -.355E+02 0.355E+02 -.136E+04   0.354E+02 -.354E+02 0.137E+04   0.116E+00 -.114E+00 -.431E+01   -.329E-02 0.371E-02 0.759E-02
   0.368E+01 0.368E+01 -.424E+03   -.372E+01 -.372E+01 0.424E+03   0.371E-01 0.371E-01 0.273E+00   0.329E-03 0.201E-03 0.107E-01
   -.386E+01 0.348E+01 -.434E+03   0.385E+01 -.349E+01 0.433E+03   0.108E-01 0.144E-01 0.312E+00   -.128E-03 0.235E-03 0.861E-02
   0.400E-02 0.384E-02 0.278E+02   0.639E-12 -.135E-12 -.273E-11   -.354E-02 -.363E-02 -.279E+02   -.464E-04 0.162E-03 0.149E+00

 POSITION                                       TOTAL-FORCE (eV/Angst)
      5.27590      5.27590     12.96113         0.002815      0.002822      0.083199
      4.44143      4.44143     12.99107         0.592915      0.592915      0.003564
      6.11030      6.11030     12.99106        -0.591782     -0.591787      0.007022
      0.00026      6.33100      4.00893         0.000668      0.000518      0.328907
      2.11051      0.00026      4.00893        -0.000384      0.000551      0.331702
      0.00026      0.00026      6.11918         0.005587      0.005592      0.034120
      2.11051      6.33100      6.11918         0.012183      0.002467      0.041040
      0.00170      6.33155      8.24371        -0.002922      0.000893      0.044263
      2.11103      8.44073      8.24394        -0.000761      0.001531      0.043098
      0.00195      0.00195     10.34920         0.001755      0.001753      0.000302
      2.10906      6.32922     10.34735        -0.011547      0.005399     -0.002817
      0.00026      2.11051      4.00893         0.000530     -0.000391      0.331840
      2.11051      4.22075      4.00893        -0.000527     -0.000417      0.328920
      0.00026      4.22075      6.11918        -0.013264     -0.003548      0.037095
      2.11051      2.11051      6.11918        -0.006670     -0.006679      0.038063
      8.44073      2.11103      8.24394         0.001517     -0.000816      0.043133
      2.10907      4.22020      8.24372         0.000795     -0.000056      0.044563
      0.00171      4.22253     10.34735         0.009967     -0.007372     -0.001183
      2.10882      2.10882     10.34920        -0.003033     -0.002952      0.000883
      4.22075      6.33100      4.00893        -0.000138      0.000232      0.335320
      6.33100      0.00026      4.00893         0.000547      0.000672      0.328919
      4.22075      0.00026      6.11918        -0.003559     -0.013257      0.037112
      6.33100      6.33100      6.11918        -0.006208     -0.006212      0.044298
      4.22303      6.32872      8.24788        -0.005264      0.002786      0.042116
      6.33155      0.00170      8.24371         0.000875     -0.002884      0.044281
      4.22253      0.00171     10.34735        -0.007371      0.009928     -0.001237
      6.34719      6.34719     10.35503         0.003318      0.003257      0.025031
      4.22075      2.11051      4.00893        -0.000412     -0.000488      0.328919
      6.33100      4.22075      4.00893         0.000247     -0.000132      0.335332
      4.22075      4.22075      6.11918         0.005129      0.005122      0.040334
      6.33100      2.11051      6.11918         0.002459      0.012183      0.041036
      4.22020      2.10907      8.24372        -0.000084      0.000774      0.044517
      6.32872      4.22303      8.24788         0.002774     -0.005309      0.042078
      4.20456      4.20456     10.35503        -0.001983     -0.001941      0.024250
      6.32922      2.10906     10.34735         0.005479     -0.011506     -0.002846
      0.00026      6.33100      6.11918         0.000912     -0.000042      0.073867
      2.11051      0.00026      6.11918         0.001434     -0.002347      0.062805
      0.00026      0.00026      4.00893         0.000476      0.000456     -0.519212
      2.11051      6.33100      4.00893        -0.001107     -0.001695     -0.511505
      0.00584      6.33249     10.38521         0.011120      0.000503      0.017202
      2.11193      8.43982     10.39648         0.000187      0.000737      0.020221
      0.00123      0.00123      8.23727         0.000330      0.000319     -0.000823
      2.11392      6.33084      8.23822         0.002087      0.001058      0.007849
      0.00026      2.11051      6.11918        -0.002335      0.001443      0.062807
      2.11051      4.22075      6.11918        -0.001819     -0.000858      0.073871
      0.00026      4.22075      4.00893         0.002213      0.002811     -0.520530
      2.11051      2.11051      4.00893         0.000625      0.000639     -0.510185
      8.43982      2.11193     10.39648         0.000736      0.000192      0.020214
      2.10493      4.21926     10.38521        -0.008856     -0.000304      0.016894
      8.43783      4.22091      8.23822        -0.002642     -0.000172     -0.001812
      2.10954      2.10954      8.23727        -0.001232     -0.001241      0.009259
      4.22075      6.33100      6.11918         0.007377     -0.008283      0.071568
      6.33100      0.00026      6.11918        -0.000046      0.000898      0.073877
      4.22075      0.00026      4.00893         0.002796      0.002194     -0.520521
      6.33100      6.33100      4.00893         0.000642      0.000638     -0.513045
      4.22345      6.32830     10.41254        -0.021112      0.022597     -0.014771
      6.33249      0.00584     10.38521         0.000497      0.011128      0.017209
      4.22091      8.43783      8.23822        -0.000161     -0.002648     -0.001826
      6.33075      6.33075      8.24170        -0.002139     -0.002131      0.009494
      4.22075      2.11051      6.11918        -0.000867     -0.001812      0.073892
      6.33100      4.22075      6.11918        -0.008285      0.007388      0.071554
      4.22075      4.22075      4.00893         0.000466      0.000474     -0.522080
      6.33100      2.11051      4.00893        -0.001694     -0.001106     -0.511506
      4.21926      2.10493     10.38521        -0.000293     -0.008856      0.016918
      6.32830      4.22345     10.41254         0.022601     -0.021119     -0.014773
      4.22100      4.22100      8.24170         0.003398      0.003398      0.008045
      6.33084      2.11392      8.23822         0.001040      0.002089      0.007870
    total drift:                                0.000406      0.000370      0.003267

  FREE ENERGIE OF THE ION-ELECTRON SYSTEM (eV)
  free  energy   TOTEN  =      -399.68260068 eV

  energy  without entropy=     -399.68260068  energy(sigma->0) =     -399.68260068