 vasp.6.3.0 20Jan22 (build Aug 21 2024 11:13:42) complex
 executed on        HPECrayEX_GCC date 2024.11.28  14:45:04

 INCAR:
   SYSTEM = MgO-rocksalt
   ISMEAR = 0
   SIGMA = 0.05
   EDIFF = 1E-8
   ALGO = ALL
   ISTART = 0
   IBRION = 5
   POTIM = 0.01
   NFREE = 2
   ISYM = 0
   DIPOL = 0.5 0.5 0.5
   IDIPOL = 3
   LDIPOL = .TRUE.
   GGA = PE
   IVDW = 21
   ENCUT = 600
   PREC = Accurate
   LASPH = .TRUE.
   LREAL = .FALSE.
   ISPIN = 1
   NELM = 200
   NELMIN = 8
   NCORE = 8
   KPAR = 1
   LWAVE = .FALSE.
   LCHARG = .FALSE.

 POTCAR:    PAW_PBE C 08Apr2002
 POTCAR:    PAW_PBE H 15Jun2001
 POTCAR:    PAW_PBE Ti_pv 07Sep2000
 POTCAR:    PAW_PBE O 08Apr2002
 POTCAR:    PAW_PBE C 08Apr2002
   VRHFIN =C: s2p2

   TITEL  = PAW_PBE C 08Apr2002
   POMASS =   12.011; ZVAL   =    4.000    mass and valenz
   ENMAX  =  400.000; ENMIN  =  300.000 eV

   TITEL  = PAW_PBE H 15Jun2001
   POMASS =    1.000; ZVAL   =    1.000    mass and valenz
   ENMAX  =  250.000; ENMIN  =  200.000 eV

   TITEL  = PAW_PBE Ti_pv 07Sep2000
   POMASS =   47.880; ZVAL   =   10.000    mass and valenz
   ENMAX  =  222.335; ENMIN  =  166.751 eV

   TITEL  = PAW_PBE O 08Apr2002
   POMASS =   16.000; ZVAL   =    6.000    mass and valenz
   ENMAX  =  400.000; ENMIN  =  300.000 eV

  PAW_PBE C 08Apr2002                   :
  PAW_PBE H 15Jun2001                   :
  PAW_PBE Ti_pv 07Sep2000               :
  PAW_PBE O 08Apr2002                   :

 POSCAR:  C  H Ti  O
  positions in direct lattice
 exchange correlation table for  LEXCH =        8
   RHO(1)=    0.500       N(1)  =     2000
   RHO(2)=  100.500       N(2)  =     4000

 ion  position               nearest neighbor table
   1  0.500  0.500  0.818-   2 1.10   3 1.10   5 1.10   4 1.10
   2  0.498  0.575  0.838-   1 1.10
   3  0.502  0.425  0.838-   1 1.10
   4  0.570  0.503  0.798-   1 1.10
   5  0.430  0.497  0.798-   1 1.10
   6  0.750  0.625  0.287-  86 1.96  87 1.96 146 1.96 147 1.96  89 1.98 168 1.98  16 2.97  36 2.97

   7  0.000  0.750  0.287-  88 1.96  89 1.96 108 1.96 109 1.96  90 1.98  37 2.97  17 2.97
   8  0.000  0.625  0.393-  90 1.96  91 1.96 150 1.96 151 1.96  92 1.98  93 1.98  18 2.97  38 2.97

[...]

  85  0.500  0.500  0.709- 239 1.82 244 1.95 185 1.95 184 1.95 245 1.95  75 2.97  55 2.97
  86  0.750  0.750  0.245-   6 1.96  16 1.96
  87  0.750  0.750  0.329-   6 1.96  16 1.96   9 1.98
  88  0.098  0.625  0.287-   7 1.96  37 1.96  46 1.98
  89  0.902  0.625  0.287-   7 1.96  37 1.96   6 1.98
  90  0.000  0.750  0.352-   8 1.96  18 1.96   7 1.98
  91  0.000  0.750  0.435-   8 1.96  18 1.96  11 1.98
  92  0.848  0.625  0.393-   9 1.96  39 1.96   8 1.98
  93  0.152  0.625  0.393-  49 1.96  79 1.96   8 1.98
  94  0.750  0.750  0.458-  10 1.96  20 1.96   9 1.98
  95  0.750  0.750  0.542-  10 1.96  20 1.96  13 2.11
  96  0.098  0.625  0.500-  11 1.96  41 1.96  50 1.98
  97  0.902  0.625  0.500-  11 1.96  41 1.96  10 1.98
  98  0.000  0.750  0.566-  12 1.90  22 1.90  11 2.01
  99  1.000  0.750  0.649-  15 1.81  22 2.02  12 2.02
 100  0.850  0.625  0.607-  12 1.96  13 1.98  43 1.98
 101  0.150  0.625  0.607-  12 1.96  53 1.98  83 1.98
 102  0.750  0.750  0.672-  13 1.87  14 2.10  24 2.10
 103  0.750  0.750  0.756-  14 1.83  24 1.84
 104  0.094  0.625  0.719-  45 1.95  15 1.95  54 2.04
 105  0.906  0.625  0.719-  45 1.95  15 1.95  14 2.04
 106  0.750  0.000  0.245-  16 1.96  26 1.96
 107  0.750  0.000  0.329-  16 1.96  26 1.96  19 1.98
 108  0.098  0.875  0.287-   7 1.96  17 1.96  56 1.98
 109  0.902  0.875  0.287-   7 1.96  17 1.96  16 1.98
 110  0.000  0.000  0.352-  18 1.96  28 1.96  17 1.98
 111  0.000  0.000  0.435-  18 1.96  28 1.96  21 1.98
 112  0.848  0.875  0.393-   9 1.96  19 1.96  18 1.98
 113  0.152  0.875  0.393-  49 1.96  59 1.96  18 1.98
 114  0.750  0.000  0.458-  20 1.96  30 1.96  19 1.98
 115  0.750  0.000  0.542-  20 1.96  30 1.96  23 2.11
 116  0.098  0.875  0.500-  11 1.96  21 1.96  60 1.98
 117  0.902  0.875  0.500-  11 1.96  21 1.96  20 1.98
 118  0.000  1.000  0.566-  22 1.90  32 1.90  21 2.01
 119  0.000  1.000  0.649-  25 1.81  32 2.02  22 2.02
 120  0.850  0.875  0.607-  22 1.96  23 1.98  13 1.98
 121  0.150  0.875  0.607-  22 1.96  53 1.98  63 1.98
 122  0.750  1.000  0.672-  23 1.87  24 2.10  34 2.10
 123  0.750  0.000  0.756-  24 1.84  34 1.84
 124  0.094  0.875  0.719-  15 1.95  25 1.95  64 2.04
 125  0.906  0.875  0.719-  15 1.95  25 1.95  24 2.04
 126  0.750  0.250  0.245-  26 1.96  36 1.96
 127  0.750  0.250  0.329-  26 1.96  36 1.96  29 1.98
 128  0.098  0.125  0.287-  17 1.96  27 1.96  66 1.98
 129  0.902  0.125  0.287-  17 1.96  27 1.96  26 1.98
 130  0.000  0.250  0.352-  28 1.96  38 1.96  27 1.98
 131  0.000  0.250  0.435-  28 1.96  38 1.96  31 1.98
 132  0.848  0.125  0.393-  19 1.96  29 1.96  28 1.98
 133  0.152  0.125  0.393-  59 1.96  69 1.96  28 1.98
 134  0.750  0.250  0.458-  30 1.96  40 1.96  29 1.98
 135  0.750  0.250  0.542-  30 1.96  40 1.96  33 2.11
 136  0.098  0.125  0.500-  21 1.96  31 1.96  70 1.98
 137  0.902  0.125  0.500-  21 1.96  31 1.96  30 1.98
 138  0.000  0.250  0.566-  42 1.90  32 1.90  31 2.01
 139  0.000  0.250  0.649-  35 1.81  32 2.02  42 2.02
 140  0.850  0.125  0.607-  32 1.96  33 1.98  23 1.98
 141  0.150  0.125  0.607-  32 1.96  63 1.98  73 1.98
 142  0.750  0.250  0.672-  33 1.87  44 2.10  34 2.10
 143  0.750  0.250  0.756-  44 1.83  34 1.84
 144  0.094  0.125  0.719-  35 1.95  25 1.95  74 2.04
[...]
 231  0.500  0.500  0.435-  48 1.96  78 1.96  81 1.98
 232  0.348  0.375  0.393-  69 1.96  79 1.96  78 1.98
 233  0.652  0.375  0.393-  29 1.96  39 1.96  78 1.98
 234  0.250  0.500  0.458-  50 1.96  80 1.96  79 1.98
 235  0.250  0.500  0.542-  50 1.96  80 1.96  83 2.11
 236  0.598  0.375  0.500-  71 1.96  81 1.96  40 1.98
 237  0.402  0.375  0.500-  71 1.96  81 1.96  80 1.98
 238  0.500  0.500  0.566-  82 1.90  52 1.90  81 2.01
 239  0.500  0.500  0.650-  85 1.82  52 2.02  82 2.02
 240  0.350  0.375  0.607-  82 1.96  73 1.98  83 1.98
 241  0.650  0.375  0.607-  82 1.96  43 1.98  33 1.98
 242  0.250  0.500  0.672-  83 1.86  54 2.10  84 2.10
 243  0.251  0.500  0.756-  54 1.84  84 1.84
 244  0.594  0.374  0.719-  75 1.95  85 1.95  44 2.04
 245  0.406  0.374  0.719-  75 1.95  85 1.95  84 2.04

IMPORTANT INFORMATION: All symmetrisations will be switched off!
NOSYMM: (Re-)initialisation of all symmetry stuff for point group C_1.

                                     Primitive cell

  volume of cell :    4740.1649

  direct lattice vectors                    reciprocal lattice vectors
    13.042933829  0.000000000  0.000000000     0.076669867  0.000000000  0.000000000
     0.000000000 11.878216733  0.000000000     0.000000000  0.084187721  0.000000000
     0.000000000  0.000000000 30.596159140     0.000000000  0.000000000  0.032683841

  length of vectors
    13.042933829 11.878216733 30.596159140     0.076669867  0.084187721  0.032683841

  position of ions in fractional coordinates (direct lattice)
     0.500020889  0.500008776  0.817612141
     0.497692566  0.575472807  0.838166538
     0.502373631  0.424530150  0.838171102
     0.570198127  0.502546733  0.797763296
     0.429850421  0.497451211  0.797771550
     0.750000000  0.625000000  0.286853412
     0.000000000  0.750000000  0.286853412
     0.000000000  0.625000000  0.393426706
     0.750000000  0.750000000  0.393426706
     0.750000000  0.625000000  0.500000000
     0.000000000  0.750000000  0.500000000
     0.999999329  0.625003873  0.604456938
     0.749975295  0.749984398  0.610703732
     0.750072027  0.625136197  0.720330973
     0.000025387  0.750029527  0.708578646
     0.750000000  0.875000000  0.286853412
     0.000000000  0.000000000  0.286853412
     0.000000000  0.875000000  0.393426706
     0.750000000  0.000000000  0.393426706
     0.750000000  0.875000000  0.500000000
     0.000000000  0.000000000  0.500000000
     0.999892634  0.875006783  0.604447538
     0.749977829  0.000033340  0.610721566
     0.749966646  0.875060393  0.720467102
     0.000002501  0.999999982  0.708586616
     0.750000000  0.125000000  0.286853412
     0.000000000  0.250000000  0.286853412
     0.000000000  0.125000000  0.393426706
     0.750000000  0.250000000  0.393426706
     0.750000000  0.125000000  0.500000000
     0.000000000  0.250000000  0.500000000
     0.000099459  0.124993117  0.604447578
     0.750110519  0.249958286  0.610705908
     0.749937375  0.124983512  0.720469202
     0.999980062  0.249970306  0.708578696
     0.750000000  0.375000000  0.286853412
     0.000000000  0.500000000  0.286853412
     0.000000000  0.375000000  0.393426706
     0.750000000  0.500000000  0.393426706
     0.750000000  0.375000000  0.500000000
     0.000000000  0.500000000  0.500000000
     0.999991149  0.374995889  0.604456966
     0.750030027  0.500031380  0.610724650
     0.750026976  0.374913768  0.720337760
     0.000003106  0.499999897  0.708573271
     0.250000000  0.625000000  0.286853412
     0.500000000  0.750000000  0.286853412
     0.500000000  0.625000000  0.393426706
     0.250000000  0.750000000  0.393426706
     0.250000000  0.625000000  0.500000000
     0.500000000  0.750000000  0.500000000
     0.499893270  0.624790590  0.604643079
     0.249883200  0.750041399  0.610706000
     0.249979531  0.625086000  0.720337950
     0.500020215  0.750082131  0.708367887
     0.250000000  0.875000000  0.286853412
     0.500000000  0.000000000  0.286853412
     0.500000000  0.875000000  0.393426706
     0.250000000  0.000000000  0.393426706
     0.250000000  0.875000000  0.500000000
[...]
     0.500000000  0.500000000  0.435151311
     0.347877722  0.375000000  0.393426706
     0.652122278  0.375000000  0.393426706
     0.250000000  0.500000000  0.458275395
     0.250000000  0.500000000  0.541724605
     0.597877722  0.375000000  0.500000000
     0.402122278  0.375000000  0.500000000
     0.500001987  0.499999899  0.565649732
     0.500001646  0.499999912  0.649553142
     0.350002052  0.375012004  0.607300984
     0.649982976  0.375014696  0.607294619
     0.249597091  0.500011759  0.671667647
     0.250588136  0.499975868  0.755637112
     0.594021671  0.374462717  0.718682609
     0.405957726  0.374453084  0.718661878

  ion indices of the primitive-cell ions
   primitive index   ion index
                 1           1
                 2           2
                 3           3
                 4           4
                 5           5
                 6           6
                 7           7
                 8           8
                 9           9
                10          10
                11          11
                12          12
                13          13
                14          14
                15          15
                16          16
                17          17
                18          18
                19          19
                20          20
                21          21
                22          22
                23          23
                24          24
                25          25
                26          26
                27          27
                28          28
                29          29
                30          30
                31          31
[...]

 Eigenvectors and eigenvalues of the dynamical matrix

   1 f  =   92.889696 THz   583.643173 2PiTHz 3098.466742 cm-1   384.160742 meV
             X         Y         Z           dx          dy          dz
      6.521739  5.939213 25.015791     0.011862   -0.302818   -0.010380
      6.491371  6.835591 25.644677    -0.018915    0.562709    0.407844
      6.552426  5.042661 25.644816    -0.017839    0.525776   -0.383259
      7.437056  5.969359 24.408493    -0.011633   -0.020436    0.007734
      5.606511  5.908833 24.408745     0.007208   -0.019813    0.003677
      9.782200  7.423885  8.776613            0           0           0
      0.000000  8.908663  8.776613            0           0           0
      0.000000  7.423885 12.037346            0           0           0
      9.782200  8.908663 12.037346            0           0           0
      9.782200  7.423885 15.298080            0           0           0
      0.000000  8.908663 15.298080            0           0           0
     13.042925  7.423931 18.494061            0           0           0
      9.781878  8.908477 18.685189            0           0           0
      9.783140  7.425503 22.039361            0           0           0
      0.000331  8.909013 21.679785            0           0           0
      9.782200 10.393440  8.776613            0           0           0
      0.000000  0.000000  8.776613            0           0           0
      0.000000 10.393440 12.037346            0           0           0
      9.782200  0.000000 12.037346            0           0           0
      9.782200 10.393440 15.298080            0           0           0
      0.000000  0.000000 15.298080            0           0           0
     13.041533 10.393520 18.493773            0           0           0
      9.781911  0.000396 18.685734            0           0           0
      9.781765 10.394157 22.043526            0           0           0
      0.000033 11.878217 21.680029            0           0           0
      9.782200  1.484777  8.776613            0           0           0
      0.000000  2.969554  8.776613            0           0           0
      0.000000  1.484777 12.037346            0           0           0
      9.782200  2.969554 12.037346            0           0           0
      9.782200  1.484777 15.298080            0           0           0
      0.000000  2.969554 15.298080            0           0           0
      0.001297  1.484695 18.493774            0           0           0
      9.783642  2.969059 18.685255            0           0           0
      9.781384  1.484581 22.043590            0           0           0
     13.042674  2.969201 21.679787            0           0           0
      9.782200  4.454331  8.776613            0           0           0
      0.000000  5.939108  8.776613            0           0           0
      0.000000  4.454331 12.037346            0           0           0
      9.782200  5.939108 12.037346            0           0           0
      9.782200  4.454331 15.298080            0           0           0
      0.000000  5.939108 15.298080            0           0           0
     13.042818  4.454282 18.494062            0           0           0
      9.782592  5.939481 18.685829            0           0           0
      9.782552  4.453307 22.039569            0           0           0
      0.000041  5.939107 21.679621            0           0           0
      3.260733  7.423885  8.776613            0           0           0
      6.521467  8.908663  8.776613            0           0           0
      6.521467  7.423885 12.037346            0           0           0
      3.260733  8.908663 12.037346            0           0           0
      3.260733  7.423885 15.298080            0           0           0
      6.521467  8.908663 15.298080            0           0           0
      6.520075  7.421398 18.499756            0           0           0
      3.259210  8.909154 18.685258            0           0           0
      3.260466  7.424907 22.039575            0           0           0
      6.521731  8.909638 21.673337            0           0           0
      3.260733 10.393440  8.776613            0           0           0
      6.521467  0.000000  8.776613            0           0           0
      6.521467 10.393440 12.037346            0           0           0
      3.260733  0.000000 12.037346            0           0           0
      3.260733 10.393440 15.298080            0           0           0
[...]
      6.521467  5.939108 13.313959            0           0           0
      4.537346  4.454331 12.037346            0           0           0
      8.505588  4.454331 12.037346            0           0           0
      3.260733  5.939108 14.021467            0           0           0
      3.260733  5.939108 16.574692            0           0           0
      7.798080  4.454331 15.298080            0           0           0
      5.244854  4.454331 15.298080            0           0           0
      6.521493  5.939107 17.306709            0           0           0
      6.521488  5.939107 19.873831            0           0           0
      4.565054  4.454474 18.581078            0           0           0
      8.477685  4.454506 18.580883            0           0           0
      3.255478  5.939248 20.550450            0           0           0
      3.268404  5.938822 23.119593            0           0           0
      7.747785  4.447949 21.988927            0           0           0
      5.294880  4.447835 21.988293            0           0           0

[...]

  14 f  =    1.832537 THz    11.514172 2PiTHz   61.126867 cm-1     7.578762 meV
             X         Y         Z           dx          dy          dz
      6.521739  5.939213 25.015791     0.862679   -0.010241   -0.052374
      6.491371  6.835591 25.644677     0.288123    0.007848   -0.028695
      6.552426  5.042661 25.644816     0.259574    0.006695   -0.001881
      7.437056  5.969359 24.408493     0.221080   -0.028134   -0.055916
      5.606511  5.908833 24.408745     0.219289    0.000074    0.026969
      9.782200  7.423885  8.776613            0           0           0
      0.000000  8.908663  8.776613            0           0           0
      0.000000  7.423885 12.037346            0           0           0
      9.782200  8.908663 12.037346            0           0           0
      9.782200  7.423885 15.298080            0           0           0
      0.000000  8.908663 15.298080            0           0           0
     13.042925  7.423931 18.494061            0           0           0
      9.781878  8.908477 18.685189            0           0           0
      9.783140  7.425503 22.039361            0           0           0
      0.000331  8.909013 21.679785            0           0           0
      9.782200 10.393440  8.776613            0           0           0
      0.000000  0.000000  8.776613            0           0           0
      0.000000 10.393440 12.037346            0           0           0
      9.782200  0.000000 12.037346            0           0           0
      9.782200 10.393440 15.298080            0           0           0
      0.000000  0.000000 15.298080            0           0           0
     13.041533 10.393520 18.493773            0           0           0
      9.781911  0.000396 18.685734            0           0           0
      9.781765 10.394157 22.043526            0           0           0
      0.000033 11.878217 21.680029            0           0           0
      9.782200  1.484777  8.776613            0           0           0
      0.000000  2.969554  8.776613            0           0           0
      0.000000  1.484777 12.037346            0           0           0
      9.782200  2.969554 12.037346            0           0           0
      9.782200  1.484777 15.298080            0           0           0
      0.000000  2.969554 15.298080            0           0           0
      0.001297  1.484695 18.493774            0           0           0
      9.783642  2.969059 18.685255            0           0           0
      9.781384  1.484581 22.043590            0           0           0
     13.042674  2.969201 21.679787            0           0           0
      9.782200  4.454331  8.776613            0           0           0
      0.000000  5.939108  8.776613            0           0           0
      0.000000  4.454331 12.037346            0           0           0
      9.782200  5.939108 12.037346            0           0           0
      9.782200  4.454331 15.298080            0           0           0
      0.000000  5.939108 15.298080            0           0           0
     13.042818  4.454282 18.494062            0           0           0
      9.782592  5.939481 18.685829            0           0           0
      9.782552  4.453307 22.039569            0           0           0
      0.000041  5.939107 21.679621            0           0           0
      3.260733  7.423885  8.776613            0           0           0
      6.521467  8.908663  8.776613            0           0           0
      6.521467  7.423885 12.037346            0           0           0
      3.260733  8.908663 12.037346            0           0           0
      3.260733  7.423885 15.298080            0           0           0
      6.521467  8.908663 15.298080            0           0           0
      6.520075  7.421398 18.499756            0           0           0
      3.259210  8.909154 18.685258            0           0           0
      3.260466  7.424907 22.039575            0           0           0
      6.521731  8.909638 21.673337            0           0           0
      3.260733 10.393440  8.776613            0           0           0
      6.521467  0.000000  8.776613            0           0           0
      6.521467 10.393440 12.037346            0           0           0
      3.260733  0.000000 12.037346            0           0           0
      3.260733 10.393440 15.298080            0           0           0
[...]
      6.521467  5.939108 13.313959            0           0           0
      4.537346  4.454331 12.037346            0           0           0
      8.505588  4.454331 12.037346            0           0           0
      3.260733  5.939108 14.021467            0           0           0
      3.260733  5.939108 16.574692            0           0           0
      7.798080  4.454331 15.298080            0           0           0
      5.244854  4.454331 15.298080            0           0           0
      6.521493  5.939107 17.306709            0           0           0
      6.521488  5.939107 19.873831            0           0           0
      4.565054  4.454474 18.581078            0           0           0
      8.477685  4.454506 18.580883            0           0           0
      3.255478  5.939248 20.550450            0           0           0
      3.268404  5.938822 23.119593            0           0           0
      7.747785  4.447949 21.988927            0           0           0
      5.294880  4.447835 21.988293            0           0           0

  15 f/i=    1.026439 THz     6.449305 2PiTHz   34.238310 cm-1     4.245007 meV
             X         Y         Z           dx          dy          dz
      6.521739  5.939213 25.015791    -0.011068    0.580478   -0.020213
      6.491371  6.835591 25.644677    -0.024224    0.427660   -0.377939
      6.552426  5.042661 25.644816     0.000551    0.427955    0.365538
      7.437056  5.969359 24.408493     0.004933   -0.085126   -0.006203
      5.606511  5.908833 24.408745     0.005494   -0.109852   -0.005112
      9.782200  7.423885  8.776613            0           0           0
      0.000000  8.908663  8.776613            0           0           0
      0.000000  7.423885 12.037346            0           0           0
      9.782200  8.908663 12.037346            0           0           0
      9.782200  7.423885 15.298080            0           0           0
      0.000000  8.908663 15.298080            0           0           0
     13.042925  7.423931 18.494061            0           0           0
      9.781878  8.908477 18.685189            0           0           0
      9.783140  7.425503 22.039361            0           0           0
      0.000331  8.909013 21.679785            0           0           0
      9.782200 10.393440  8.776613            0           0           0
      0.000000  0.000000  8.776613            0           0           0
      0.000000 10.393440 12.037346            0           0           0
      9.782200  0.000000 12.037346            0           0           0
      9.782200 10.393440 15.298080            0           0           0
      0.000000  0.000000 15.298080            0           0           0
     13.041533 10.393520 18.493773            0           0           0
      9.781911  0.000396 18.685734            0           0           0
      9.781765 10.394157 22.043526            0           0           0
      0.000033 11.878217 21.680029            0           0           0
      9.782200  1.484777  8.776613            0           0           0
      0.000000  2.969554  8.776613            0           0           0
      0.000000  1.484777 12.037346            0           0           0
      9.782200  2.969554 12.037346            0           0           0
      9.782200  1.484777 15.298080            0           0           0
      0.000000  2.969554 15.298080            0           0           0
      0.001297  1.484695 18.493774            0           0           0
      9.783642  2.969059 18.685255            0           0           0
      9.781384  1.484581 22.043590            0           0           0
     13.042674  2.969201 21.679787            0           0           0
      9.782200  4.454331  8.776613            0           0           0
      0.000000  5.939108  8.776613            0           0           0
      0.000000  4.454331 12.037346            0           0           0
      9.782200  5.939108 12.037346            0           0           0
      9.782200  4.454331 15.298080            0           0           0
      0.000000  5.939108 15.298080            0           0           0
     13.042818  4.454282 18.494062            0           0           0
      9.782592  5.939481 18.685829            0           0           0
      9.782552  4.453307 22.039569            0           0           0
      0.000041  5.939107 21.679621            0           0           0
      3.260733  7.423885  8.776613            0           0           0
      6.521467  8.908663  8.776613            0           0           0
      6.521467  7.423885 12.037346            0           0           0
      3.260733  8.908663 12.037346            0           0           0
      3.260733  7.423885 15.298080            0           0           0
      6.521467  8.908663 15.298080            0           0           0
      6.520075  7.421398 18.499756            0           0           0
      3.259210  8.909154 18.685258            0           0           0
      3.260466  7.424907 22.039575            0           0           0
      6.521731  8.909638 21.673337            0           0           0
      3.260733 10.393440  8.776613            0           0           0
      6.521467  0.000000  8.776613            0           0           0
      6.521467 10.393440 12.037346            0           0           0
      3.260733  0.000000 12.037346            0           0           0
      3.260733 10.393440 15.298080            0           0           0
[...]
      6.521467  5.939108 13.313959            0           0           0
      4.537346  4.454331 12.037346            0           0           0
      8.505588  4.454331 12.037346            0           0           0
      3.260733  5.939108 14.021467            0           0           0
      3.260733  5.939108 16.574692            0           0           0
      7.798080  4.454331 15.298080            0           0           0
      5.244854  4.454331 15.298080            0           0           0
      6.521493  5.939107 17.306709            0           0           0
      6.521488  5.939107 19.873831            0           0           0
      4.565054  4.454474 18.581078            0           0           0
      8.477685  4.454506 18.580883            0           0           0
      3.255478  5.939248 20.550450            0           0           0
      3.268404  5.938822 23.119593            0           0           0
      7.747785  4.447949 21.988927            0           0           0
      5.294880  4.447835 21.988293            0           0           0

 Finite differences POTIM=   1.0000000000000000E-002