 vasp.6.3.0 20Jan22 (build Apr  1 2022 16:44:48) complex
 executed on        HPECrayEX_GCC date 2023.02.14  19:30:25

 INCAR:
   SYSTEM = MgO-rocksalt
   ISMEAR = 0
   SIGMA = 0.05
   EDIFF = 1E-7
   ALGO = ALL
   ISTART = 0
   IBRION = 2
   NSW = 1000
   ISYM = 0
   ISIF = 2
   EDIFFG = -0.01
   DIPOL = 0.5 0.5 0.5
   IDIPOL = 3
   LDIPOL = .TRUE.
   GGA = RE
   AGGAC = 0.0
   LUSE_VDW = .TRUE.
   LASPH = .TRUE.
   ENCUT = 600
   PREC = Accurate
   LASPH = .TRUE.
   LREAL = .FALSE.
   ISPIN = 1
   NELM = 200
   NELMIN = 8
   NCORE = 8
   KPAR = 1
   LWAVE = .FALSE.
   LCHARG = .FALSE.

 POTCAR:    PAW_PBE N 08Apr2002
 POTCAR:    PAW_PBE H 15Jun2001
 POTCAR:    PAW_PBE Mg_pv 13Apr2007
 POTCAR:    PAW_PBE O 08Apr2002
|               ----> ADVICE to this user running VASP <----                  |
|     You have switched on vdW-DFT.                                           |
|     This routine was written and supplied by Jiri Klimes. We recommend      |
|     that you carefully read and cite the following publications:            |
|       J. Klimes, D.R. Bowler, A. Michelides                                 |
|          J. Phys.: Cond Matt. 22 022201 (2010)                              |
|       J. Klimes, D.R. Bowler, A. Michelides                                 |
|          Phys. Rev. B. 83, 195131 (2011)                                    |
|     and references therein.                                                 |

   TITEL  = PAW_PBE N 08Apr2002
   POMASS =   14.001; ZVAL   =    5.000    mass and valenz
   ENMAX  =  400.000; ENMIN  =  300.000 eV

   TITEL  = PAW_PBE H 15Jun2001
   POMASS =    1.000; ZVAL   =    1.000    mass and valenz
   ENMAX  =  250.000; ENMIN  =  200.000 eV

   TITEL  = PAW_PBE Mg_pv 13Apr2007
   POMASS =   24.305; ZVAL   =    8.000    mass and valenz
   ENMAX  =  403.929; ENMIN  =  302.947 eV

   TITEL  = PAW_PBE O 08Apr2002
   POMASS =   16.000; ZVAL   =    6.000    mass and valenz
   ENMAX  =  400.000; ENMIN  =  300.000 eV

  PAW_PBE N 08Apr2002                   :
  PAW_PBE H 15Jun2001                   :
  PAW_PBE Mg_pv 13Apr2007               :
  PAW_PBE O 08Apr2002                   :

 POSCAR:  N  H Mg  O
  positions in direct lattice
 exchange correlation table for  LEXCH =       40
   RHO(1)=    0.500       N(1)  =     2000
   RHO(2)=  100.500       N(2)  =     4000

 ion  position               nearest neighbor table
   1  0.500  0.500  0.790-   2 1.02   3 1.02   4 1.02
   2  0.500  0.610  0.808-   1 1.02
   3  0.404  0.445  0.808-   1 1.02
   4  0.596  0.445  0.808-   1 1.02
   5  0.000  0.750  0.350-  37 2.14  39 2.14  40 2.14  47 2.14  56 2.14
   6  0.250  0.000  0.350-  38 2.14  39 2.14  40 2.14  48 2.14  55 2.14
   7  0.000  0.000  0.450-  39 2.14  38 2.14  37 2.14  45 2.14  54 2.14  43 2.14
   8  0.250  0.750  0.450-  40 2.14  38 2.14  37 2.14  46 2.14  53 2.14  44 2.14
   9  0.000  0.750  0.550-  43 2.14  44 2.14  51 2.14  60 2.14  37 2.15  41 2.16
  10  0.250  0.000  0.550-  43 2.14  44 2.14  52 2.14  59 2.14  38 2.15  42 2.16
  11  0.000  0.000  0.650-  43 2.13  42 2.14  41 2.14  49 2.14  58 2.14
  12  0.250  0.750  0.650-  44 2.13  42 2.14  41 2.14  50 2.14  57 2.14
  13  0.000  0.250  0.350-  45 2.14  39 2.14  47 2.14  48 2.14  64 2.14
  14  0.250  0.500  0.350-  46 2.14  40 2.14  47 2.14  48 2.14  63 2.14
  15  0.000  0.500  0.450-  47 2.14  45 2.14  46 2.14  37 2.14  62 2.14  51 2.14
  16  0.250  0.250  0.450-  48 2.14  45 2.14  46 2.14  38 2.14  61 2.14  52 2.14
  17  0.000  0.250  0.550-  43 2.14  51 2.14  52 2.14  68 2.14  45 2.15  49 2.16
  18  0.250  0.500  0.550-  44 2.14  51 2.14  52 2.14  67 2.14  46 2.15  50 2.16
  19  0.000  0.500  0.650-  51 2.13  49 2.14  50 2.14  41 2.14  66 2.14
  20  0.250  0.250  0.650-  52 2.13  49 2.14  50 2.14  42 2.14  65 2.14
  21  0.500  0.750  0.350-  53 2.14  40 2.14  55 2.14  56 2.14  63 2.14
  22  0.750  0.000  0.350-  54 2.14  39 2.14  55 2.14  56 2.14  64 2.14
  23  0.500  0.000  0.450-  55 2.14  53 2.14  54 2.14  38 2.14  61 2.14  59 2.14
  24  0.750  0.750  0.450-  56 2.14  53 2.14  54 2.14  37 2.14  62 2.14  60 2.14
  25  0.500  0.750  0.550-  44 2.14  59 2.14  60 2.14  67 2.14  53 2.15  57 2.16
  26  0.750  0.000  0.550-  43 2.14  59 2.14  60 2.14  68 2.14  54 2.15  58 2.16
  27  0.500  0.000  0.650-  59 2.13  57 2.14  58 2.14  42 2.14  65 2.14
  28  0.750  0.750  0.650-  60 2.13  57 2.14  58 2.14  41 2.14  66 2.14
  29  0.500  0.250  0.350-  61 2.14  55 2.14  48 2.14  63 2.14  64 2.14
  30  0.750  0.500  0.350-  62 2.14  56 2.14  47 2.14  63 2.14  64 2.14
  31  0.500  0.500  0.450-  63 2.14  53 2.14  61 2.14  62 2.14  46 2.14  67 2.14
  32  0.750  0.250  0.450-  64 2.14  54 2.14  61 2.14  62 2.14  45 2.14  68 2.14
  33  0.500  0.250  0.550-  52 2.14  59 2.14  67 2.14  68 2.14  61 2.15  65 2.16
  34  0.750  0.500  0.550-  51 2.14  60 2.14  67 2.14  68 2.14  62 2.15  66 2.16
  35  0.500  0.500  0.650-  67 2.13  57 2.14  65 2.14  66 2.14  50 2.14
  36  0.750  0.250  0.650-  68 2.13  58 2.14  65 2.14  66 2.14  49 2.14
  37  0.000  0.750  0.450-   5 2.14   7 2.14   8 2.14  15 2.14  24 2.14   9 2.15
  38  0.250  0.000  0.450-   6 2.14   7 2.14   8 2.14  16 2.14  23 2.14  10 2.15
  39  0.000  0.000  0.350-   7 2.14   6 2.14   5 2.14  13 2.14  22 2.14
  40  0.250  0.750  0.350-   8 2.14   6 2.14   5 2.14  14 2.14  21 2.14
  41  0.000  0.750  0.651-  11 2.14  12 2.14  19 2.14  28 2.14   9 2.16
  42  0.250  0.000  0.651-  11 2.14  12 2.14  20 2.14  27 2.14  10 2.16
  43  0.000  0.000  0.550-  11 2.13  10 2.14   9 2.14  17 2.14  26 2.14   7 2.14
  44  0.250  0.750  0.550-  12 2.13  10 2.14   9 2.14  18 2.14  25 2.14   8 2.14
  45  0.000  0.250  0.450-  13 2.14   7 2.14  15 2.14  16 2.14  32 2.14  17 2.15
  46  0.250  0.500  0.450-  14 2.14   8 2.14  15 2.14  16 2.14  31 2.14  18 2.15
  47  0.000  0.500  0.350-  15 2.14  13 2.14  14 2.14   5 2.14  30 2.14
  48  0.250  0.250  0.350-  16 2.14  13 2.14  14 2.14   6 2.14  29 2.14
  49  0.000  0.250  0.651-  11 2.14  19 2.14  20 2.14  36 2.14  17 2.16
  50  0.250  0.500  0.651-  12 2.14  19 2.14  20 2.14  35 2.14  18 2.16
  51  0.000  0.500  0.550-  19 2.13  17 2.14  18 2.14   9 2.14  34 2.14  15 2.14
  52  0.250  0.250  0.550-  20 2.13  17 2.14  18 2.14  10 2.14  33 2.14  16 2.14
  53  0.500  0.750  0.450-  21 2.14   8 2.14  23 2.14  24 2.14  31 2.14  25 2.15
  54  0.750  0.000  0.450-  22 2.14   7 2.14  23 2.14  24 2.14  32 2.14  26 2.15
  55  0.500  0.000  0.350-  23 2.14  21 2.14  22 2.14   6 2.14  29 2.14
  56  0.750  0.750  0.350-  24 2.14  21 2.14  22 2.14   5 2.14  30 2.14
  57  0.500  0.750  0.651-  12 2.14  27 2.14  28 2.14  35 2.14  25 2.16
  58  0.750  0.000  0.651-  11 2.14  27 2.14  28 2.14  36 2.14  26 2.16
  59  0.500  0.000  0.550-  27 2.13  25 2.14  26 2.14  10 2.14  33 2.14  23 2.14
  60  0.750  0.750  0.550-  28 2.13  25 2.14  26 2.14   9 2.14  34 2.14  24 2.14
  61  0.500  0.250  0.450-  29 2.14  23 2.14  16 2.14  31 2.14  32 2.14  33 2.15
  62  0.750  0.500  0.450-  30 2.14  24 2.14  15 2.14  31 2.14  32 2.14  34 2.15
  63  0.500  0.500  0.350-  31 2.14  21 2.14  29 2.14  30 2.14  14 2.14
  64  0.750  0.250  0.350-  32 2.14  22 2.14  29 2.14  30 2.14  13 2.14
  65  0.500  0.250  0.651-  20 2.14  27 2.14  35 2.14  36 2.14  33 2.16
  66  0.750  0.500  0.651-  19 2.14  28 2.14  35 2.14  36 2.14  34 2.16
  67  0.500  0.500  0.550-  35 2.13  25 2.14  33 2.14  34 2.14  18 2.14  31 2.14
  68  0.750  0.250  0.550-  36 2.13  26 2.14  33 2.14  34 2.14  17 2.14  32 2.14

IMPORTANT INFORMATION: All symmetrisations will be switched off!
NOSYMM: (Re-)initialisation of all symmetry stuff for point group C_1.

                                     Primitive cell

  volume of cell :    1563.6717

  direct lattice vectors                    reciprocal lattice vectors
     8.546113626  0.000000000  0.000000000     0.117012252  0.000000000  0.000000000
     0.000000000  8.546113626  0.000000000     0.000000000  0.117012252  0.000000000
     0.000000000  0.000000000 21.409585219     0.000000000  0.000000000  0.046708051

  length of vectors
     8.546113626  8.546113626 21.409585219     0.117012252  0.117012252  0.046708051

  position of ions in fractional coordinates (direct lattice)
     0.500000000  0.500000000  0.789802394
     0.500000000  0.610355548  0.808036430
     0.404429292  0.444822226  0.808036430
     0.595570708  0.444822226  0.808036430
     0.000000000  0.750000000  0.350310383
     0.250000000  0.000000000  0.350310383
     0.000000000  0.000000000  0.450103461
     0.250000000  0.750000000  0.450103461
     0.000000000  0.750000000  0.550423065
     0.250000000  0.000000000  0.550423065
     0.000000000  0.000000000  0.649678241
     0.250000000  0.750000000  0.649678241
     0.000000000  0.250000000  0.350310383
     0.250000000  0.500000000  0.350310383
     0.000000000  0.500000000  0.450103461
     0.250000000  0.250000000  0.450103461
     0.000000000  0.250000000  0.550423065
     0.250000000  0.500000000  0.550423065
     0.000000000  0.500000000  0.649678241
     0.250000000  0.250000000  0.649678241
     0.500000000  0.750000000  0.350310383
     0.750000000  0.000000000  0.350310383
     0.500000000  0.000000000  0.450103461
     0.750000000  0.750000000  0.450103461
     0.500000000  0.750000000  0.550423065
     0.750000000  0.000000000  0.550423065
     0.500000000  0.000000000  0.649678241
     0.750000000  0.750000000  0.649678241
     0.500000000  0.250000000  0.350310383
     0.750000000  0.500000000  0.350310383
     0.500000000  0.500000000  0.450103461
     0.750000000  0.250000000  0.450103461
     0.500000000  0.250000000  0.550423065
     0.750000000  0.500000000  0.550423065
     0.500000000  0.500000000  0.649678241
     0.750000000  0.250000000  0.649678241
     0.000000000  0.750000000  0.450103461
     0.250000000  0.000000000  0.450103461
     0.000000000  0.000000000  0.350310383
     0.250000000  0.750000000  0.350310383
     0.000000000  0.750000000  0.651489980
     0.250000000  0.000000000  0.651489980
     0.000000000  0.000000000  0.550159231
     0.250000000  0.750000000  0.550159231
     0.000000000  0.250000000  0.450103461
     0.250000000  0.500000000  0.450103461
     0.000000000  0.500000000  0.350310383
     0.250000000  0.250000000  0.350310383
     0.000000000  0.250000000  0.651489980
     0.250000000  0.500000000  0.651489980
     0.000000000  0.500000000  0.550159231
     0.250000000  0.250000000  0.550159231
     0.500000000  0.750000000  0.450103461
     0.750000000  0.000000000  0.450103461
     0.500000000  0.000000000  0.350310383
     0.750000000  0.750000000  0.350310383
     0.500000000  0.750000000  0.651489980
     0.750000000  0.000000000  0.651489980
     0.500000000  0.000000000  0.550159231
     0.750000000  0.750000000  0.550159231
     0.500000000  0.250000000  0.450103461
     0.750000000  0.500000000  0.450103461
     0.500000000  0.500000000  0.350310383
     0.750000000  0.250000000  0.350310383
     0.500000000  0.250000000  0.651489980
     0.750000000  0.500000000  0.651489980
     0.500000000  0.500000000  0.550159231
     0.750000000  0.250000000  0.550159231

  ion indices of the primitive-cell ions
   primitive index   ion index
[...]
   6.40958522  2.13652841  9.63652841
   4.27305681  2.13652841 11.78432951
   6.40958522  4.27305681 11.78432951
   4.27305681  4.27305681 13.90934166
   6.40958522  2.13652841 13.90934166
   0.00000000  6.40958522  9.63652841
   2.13652841  0.00000000  9.63652841
   0.00000000  0.00000000  7.50000000
   2.13652841  6.40958522  7.50000000
   0.00000000  6.40958522 13.94813025
   2.13652841  0.00000000 13.94813025
   0.00000000  0.00000000 11.77868095
   2.13652841  6.40958522 11.77868095
   0.00000000  2.13652841  9.63652841
   2.13652841  4.27305681  9.63652841
   0.00000000  4.27305681  7.50000000
   2.13652841  2.13652841  7.50000000
   0.00000000  2.13652841 13.94813025
   2.13652841  4.27305681 13.94813025
   0.00000000  4.27305681 11.77868095
   2.13652841  2.13652841 11.77868095
   4.27305681  6.40958522  9.63652841
   6.40958522  0.00000000  9.63652841
   4.27305681  0.00000000  7.50000000
   6.40958522  6.40958522  7.50000000
   4.27305681  6.40958522 13.94813025
   6.40958522  0.00000000 13.94813025
   4.27305681  0.00000000 11.77868095
   6.40958522  6.40958522 11.77868095
   4.27305681  2.13652841  9.63652841
   6.40958522  4.27305681  9.63652841
   4.27305681  4.27305681  7.50000000
   6.40958522  2.13652841  7.50000000
   4.27305681  2.13652841 13.94813025
   6.40958522  4.27305681 13.94813025
   4.27305681  4.27305681 11.77868095
   6.40958522  2.13652841 11.77868095

--------------------------------------- Iteration      FINAL  ---------------------------------------

--------------------OUTCAR has been truncated-------------------------

[...]

--------------------OUTCAR has been truncated-------------------------

  FORCE on cell =-STRESS in cart. coord.  units (eV):
  Direction    XX          YY          ZZ          XY          YZ          ZX
  Alpha Z   874.32020   874.32020   874.32020
  Ewald  154586.21958154585.79470************    -0.00054    -3.19413     0.00046
  Hartree164942.98768164942.97590************    -0.00002    -0.64585     0.00005
  E(xc)   -2550.28955 -2550.29338 -2553.30128    -0.00000    -0.03326     0.00000
  Local  ************************329025.28065     0.00034     2.90955    -0.00037
  n-local -2838.08857 -2838.10286 -2857.28637     0.00003    -0.09385    -0.00002
  augment  1079.54590  1079.55094  1071.66754     0.00000     0.01768    -0.00000
  Kinetic  7428.89845  7429.10799  7485.61847     0.00004     1.16825     0.00001
  Fock        0.00000     0.00000     0.00000     0.00000     0.00000     0.00000
  Total     -29.74367   -29.73106    -2.50184    -0.00015     0.12838     0.00013
  in kB     -30.47611   -30.46319    -2.56345    -0.00016     0.13154     0.00013

 VOLUME and BASIS-vectors are now :
  energy-cutoff  :      600.00
  volume of cell :     1563.67
      direct lattice vectors                 reciprocal lattice vectors
     8.546113626  0.000000000  0.000000000     0.117012252  0.000000000  0.000000000
     0.000000000  8.546113626  0.000000000     0.000000000  0.117012252  0.000000000
     0.000000000  0.000000000 21.409585219     0.000000000  0.000000000  0.046708051

  length of vectors
     8.546113626  8.546113626 21.409585219     0.117012252  0.117012252  0.046708051

 FORCES acting on ions:
    Electron-Ion                     Ewald-Force                    Non-Local-Force
   0.341E-03 0.233E+01 -.128E+04   -.659E-03 -.369E+01 0.125E+04   -.929E-04 0.136E+01 0.257E+02
   0.185E-03 -.676E+02 -.266E+03   -.198E-03 0.747E+02 0.268E+03   0.268E-04 -.706E+01 -.207E+01
   0.577E+02 0.319E+02 -.267E+03   -.637E+02 -.352E+02 0.270E+03   0.601E+01 0.331E+01 -.265E+01
   -.577E+02 0.319E+02 -.267E+03   0.637E+02 -.352E+02 0.270E+03   -.601E+01 0.331E+01 -.265E+01
   0.546E-06 0.898E-01 0.202E+04   -.858E-06 -.991E-01 -.201E+04   0.226E-06 0.673E-02 -.638E+01
   -.892E-01 0.183E-01 0.202E+04   0.983E-01 -.188E-01 -.201E+04   -.658E-02 0.396E-03 -.638E+01
   -.392E-05 0.637E-01 0.693E+03   0.211E-05 -.659E-01 -.693E+03   0.123E-05 0.133E-02 0.410E+00
   -.510E+00 0.505E+00 0.693E+03   0.587E+00 -.582E+00 -.693E+03   -.547E-01 0.537E-01 0.500E+00
   -.510E-04 -.232E+01 -.625E+03   0.545E-04 0.222E+01 0.625E+03   -.310E-05 0.991E-01 -.248E-01
   0.233E+01 0.104E+00 -.625E+03   -.223E+01 -.108E+00 0.625E+03   -.986E-01 0.324E-02 -.112E-01
   -.959E-04 -.978E-01 -.196E+04   0.973E-04 0.989E-01 0.195E+04   -.732E-06 -.961E-03 0.556E+01
   0.181E+02 -.179E+02 -.193E+04   -.183E+02 0.181E+02 0.192E+04   0.136E+00 -.115E+00 0.571E+01
   0.151E-05 -.902E-01 0.202E+04   -.181E-05 0.991E-01 -.201E+04   0.219E-06 -.643E-02 -.638E+01
   -.791E-01 -.190E-01 0.202E+04   0.930E-01 0.191E-01 -.201E+04   -.105E-01 -.472E-04 -.643E+01
   0.248E-04 -.795E-01 0.693E+03   -.275E-04 0.757E-01 -.693E+03   0.185E-05 0.266E-02 0.347E+00
   -.504E+00 -.519E+00 0.693E+03   0.573E+00 0.588E+00 -.693E+03   -.482E-01 -.490E-01 0.485E+00
   -.267E-04 0.232E+01 -.625E+03   0.292E-04 -.222E+01 0.625E+03   -.274E-05 -.998E-01 0.423E-02
   0.233E+01 -.110E+00 -.625E+03   -.192E+01 0.114E+00 0.626E+03   -.416E+00 -.336E-02 -.435E+00
   -.261E-03 0.794E-01 -.194E+04   0.250E-03 -.806E-01 0.193E+04   0.106E-04 0.146E-02 0.554E+01
   0.178E+02 0.180E+02 -.193E+04   -.179E+02 -.181E+02 0.192E+04   0.110E+00 0.125E+00 0.572E+01
   -.575E-06 0.798E-01 0.202E+04   0.824E-06 -.939E-01 -.201E+04   -.173E-06 0.106E-01 -.643E+01
   0.892E-01 0.183E-01 0.202E+04   -.983E-01 -.188E-01 -.201E+04   0.658E-02 0.396E-03 -.638E+01
   0.219E-05 0.736E-01 0.693E+03   -.182E-05 -.835E-01 -.693E+03   -.308E-06 0.703E-02 0.347E+00
   0.510E+00 0.505E+00 0.693E+03   -.587E+00 -.582E+00 -.693E+03   0.547E-01 0.537E-01 0.500E+00
   0.735E-04 -.227E+01 -.626E+03   -.754E-04 0.185E+01 0.627E+03   0.172E-05 0.415E+00 -.389E+00
   -.233E+01 0.104E+00 -.625E+03   0.223E+01 -.108E+00 0.625E+03   0.986E-01 0.324E-02 -.112E-01
   0.119E-03 -.354E+00 -.194E+04   -.117E-03 0.375E+00 0.193E+04   -.153E-05 -.206E-01 0.554E+01
   -.181E+02 -.179E+02 -.193E+04   0.183E+02 0.181E+02 0.192E+04   -.136E+00 -.115E+00 0.571E+01
   -.156E-05 -.800E-01 0.202E+04   0.179E-05 0.938E-01 -.201E+04   -.163E-06 -.104E-01 -.642E+01
   0.791E-01 -.190E-01 0.202E+04   -.930E-01 0.191E-01 -.201E+04   0.105E-01 -.472E-04 -.643E+01
   -.223E-04 -.925E-01 0.691E+03   0.255E-04 0.969E-01 -.691E+03   -.215E-05 -.331E-02 0.495E+00
   0.504E+00 -.519E+00 0.693E+03   -.573E+00 0.588E+00 -.693E+03   0.482E-01 -.490E-01 0.485E+00
   0.422E-04 0.235E+01 -.625E+03   -.428E-04 -.194E+01 0.625E+03   0.120E-05 -.415E+00 -.468E+00
   -.233E+01 -.110E+00 -.625E+03   0.192E+01 0.114E+00 0.626E+03   0.416E+00 -.336E-02 -.435E+00
   0.576E-03 0.643E+00 -.188E+04   -.551E-03 -.773E+00 0.188E+04   -.234E-04 0.129E+00 0.115E+01
   -.178E+02 0.180E+02 -.193E+04   0.179E+02 -.181E+02 0.192E+04   -.110E+00 0.125E+00 0.572E+01
   -.223E-05 0.151E+00 0.520E+03   0.194E-05 -.168E+00 -.520E+03   0.378E-06 0.253E-01 0.240E-01
   -.154E+00 0.532E-01 0.520E+03   0.176E+00 -.468E-01 -.520E+03   -.305E-01 -.874E-02 0.227E-01
   -.165E-06 0.134E-01 0.152E+04   -.407E-07 -.132E-01 -.152E+04   0.295E-06 -.310E-03 0.360E+01
   -.692E-01 0.695E-01 0.152E+04   0.821E-01 -.818E-01 -.152E+04   -.179E-01 0.171E-01 0.358E+01
   -.115E-03 -.672E+01 -.149E+04   0.114E-03 0.655E+01 0.149E+04   0.237E-05 0.177E+00 -.492E+01
   0.674E+01 -.635E-01 -.149E+04   -.656E+01 0.434E-01 0.149E+04   -.179E+00 0.205E-01 -.492E+01
   -.266E-04 0.251E-01 -.466E+03   0.247E-04 -.238E-01 0.466E+03   0.206E-05 -.107E-02 0.317E+00
   0.143E+01 -.145E+01 -.461E+03   -.141E+01 0.143E+01 0.460E+03   -.178E-01 0.235E-01 0.578E+00
   0.415E-05 -.163E+00 0.520E+03   -.457E-05 0.188E+00 -.520E+03   0.543E-06 -.356E-01 0.221E-01
   -.304E-02 -.695E-01 0.518E+03   -.363E-01 0.723E-01 -.518E+03   0.478E-01 -.364E-02 -.180E+00
   0.212E-05 -.132E-01 0.152E+04   -.256E-05 0.132E-01 -.152E+04   0.605E-06 -.768E-05 0.357E+01
   -.681E-01 -.691E-01 0.152E+04   0.800E-01 0.816E-01 -.152E+04   -.167E-01 -.175E-01 0.358E+01
   -.111E-03 0.673E+01 -.149E+04   0.111E-03 -.656E+01 0.149E+04   0.169E-05 -.177E+00 -.492E+01
   0.234E+02 0.678E-01 -.145E+04   -.228E+02 -.581E-01 0.146E+04   -.655E+00 -.942E-02 -.473E+01
   -.224E-04 -.296E-01 -.461E+03   0.199E-04 0.278E-01 0.460E+03   0.158E-05 0.193E-02 0.430E+00
   0.150E+01 0.146E+01 -.461E+03   -.147E+01 -.144E+01 0.460E+03   -.274E-01 -.228E-01 0.582E+00
   0.128E-05 0.228E-02 0.518E+03   0.413E-06 0.406E-01 -.518E+03   -.227E-05 -.526E-01 -.187E+00
   0.154E+00 0.532E-01 0.520E+03   -.176E+00 -.468E-01 -.520E+03   0.305E-01 -.874E-02 0.227E-01
   0.285E-06 0.146E-01 0.152E+04   -.225E-07 -.152E-01 -.152E+04   -.376E-06 0.920E-03 0.357E+01
   0.692E-01 0.695E-01 0.152E+04   -.821E-01 -.818E-01 -.152E+04   0.179E-01 0.171E-01 0.358E+01
   0.202E-03 -.233E+02 -.145E+04   -.204E-03 0.226E+02 0.146E+04   0.685E-06 0.699E+00 -.469E+01
   -.674E+01 -.635E-01 -.149E+04   0.656E+01 0.434E-01 0.149E+04   0.179E+00 0.205E-01 -.492E+01
   0.355E-04 0.117E+00 -.461E+03   -.360E-04 -.113E+00 0.460E+03   0.814E-06 -.361E-02 0.431E+00
   -.143E+01 -.145E+01 -.461E+03   0.141E+01 0.143E+01 0.460E+03   0.178E-01 0.235E-01 0.578E+00
   -.543E-05 -.111E-01 0.518E+03   0.729E-05 -.245E-01 -.518E+03   -.249E-05 0.429E-01 -.172E+00
   0.304E-02 -.695E-01 0.518E+03   0.363E-01 0.723E-01 -.518E+03   -.478E-01 -.364E-02 -.180E+00
   -.212E-05 -.145E-01 0.152E+04   0.253E-05 0.153E-01 -.152E+04   -.566E-06 -.122E-02 0.355E+01
   0.681E-01 -.691E-01 0.152E+04   -.800E-01 0.816E-01 -.152E+04   0.167E-01 -.175E-01 0.358E+01
   0.160E-03 0.234E+02 -.145E+04   -.162E-03 -.228E+02 0.146E+04   0.108E-05 -.620E+00 -.477E+01
   -.234E+02 0.679E-01 -.145E+04   0.228E+02 -.582E-01 0.146E+04   0.655E+00 -.942E-02 -.473E+01
   0.473E-04 -.190E+00 -.477E+03   -.465E-04 0.186E+00 0.478E+03   -.117E-06 0.515E-02 -.133E+01
   -.150E+01 0.146E+01 -.461E+03   0.147E+01 -.144E+01 0.460E+03   0.274E-01 -.228E-01 0.582E+00
   0.229E-03 -.112E+01 -.109E+01   -.213E-13 0.497E-13 0.000E+00   -.252E-03 0.112E+01 0.109E+01

 POSITION                                       TOTAL-FORCE (eV/Angst)
      4.27307      4.29880     16.35510        -0.000410     -0.001722     -0.000852
      4.27306      5.26881     16.67556         0.000014      0.007568     -0.002567
      3.44883      3.84548     16.75233         0.000737      0.004821      0.000300
      5.09729      3.84548     16.75233        -0.000369      0.004634      0.000475
      0.00000      6.40959      7.50000         0.000000     -0.002514      0.319055
      2.13653      0.00000      7.50000         0.002495     -0.000102      0.319285
      0.00000      0.00000      9.63653        -0.000000     -0.000811      0.000006
      2.13653      6.40959      9.63653         0.022214     -0.022319      0.014091
     -0.00000      6.40593     11.77671         0.000001      0.000285     -0.000562
      2.13949     -0.00089     11.77647        -0.000223      0.000017     -0.000579
     -0.00000     -0.00117     13.89515         0.000001      0.000177      0.000557
      2.13282      6.41130     13.88861         0.000090     -0.000097     -0.000689
      0.00000      2.13653      7.50000         0.000000      0.002472      0.319486
      2.13653      4.27306      7.50000         0.003468      0.000031      0.328633
      0.00000      4.27306      9.63653        -0.000001     -0.001115      0.041380
      2.13653      2.13653      9.63653         0.019955      0.019820      0.012788
     -0.00000      2.13884     11.77621         0.000000     -0.000151     -0.000550
      2.14989      4.27241     11.79335        -0.000883      0.000200      0.001000
      0.00000      4.27186     13.89212        -0.000000      0.000267      0.001696
      2.13342      2.13156     13.88684         0.000335      0.000364     -0.000605
      4.27306      6.40959      7.50000         0.000000     -0.003504      0.329016
      6.40959      0.00000      7.50000        -0.002495     -0.000102      0.319285
      4.27306      0.00000      9.63653         0.000000     -0.002781      0.041300
      6.40959      6.40959      9.63653        -0.022214     -0.022320      0.014091
      4.27306      6.39557     11.79389         0.000000      0.001021      0.000931
      6.40662     -0.00089     11.77647         0.000224      0.000017     -0.000579
      4.27306      0.00005     13.89203         0.000000      0.000134      0.001664
      6.41329      6.41130     13.88861        -0.000088     -0.000099     -0.000688
      4.27306      2.13653      7.50000         0.000000      0.003412      0.328229
      6.40959      4.27306      7.50000        -0.003468      0.000031      0.328633
      4.27306      4.27306      9.63653         0.000001      0.000997      0.053499
      6.40959      2.13653      9.63653        -0.019955      0.019820      0.012789
      4.27306      2.14919     11.79274         0.000001     -0.000740      0.001062
      6.39622      4.27241     11.79335         0.000884      0.000199      0.001001
      4.27306      4.26794     14.06216         0.000002     -0.000108     -0.006551
      6.41270      2.13156     13.88683        -0.000334      0.000366     -0.000605
      0.00000      6.40959      9.63653         0.000000      0.008024      0.046456
      2.13653      0.00000      9.63653        -0.009319     -0.002332      0.044839
      0.00000      0.00000      7.50000         0.000000     -0.000091     -0.391006
      2.13653      6.40959      7.50000        -0.005065      0.004816     -0.395954
     -0.00000      6.41428     13.94782         0.000002      0.001993     -0.000384
      2.13060     -0.00102     13.94807        -0.001767      0.000278     -0.000338
     -0.00000     -0.00073     11.77327         0.000001      0.000178      0.003761
      2.13586      6.40976     11.77800        -0.001410      0.001542     -0.003302
      0.00000      2.13653      9.63653         0.000000     -0.010588      0.043335
      2.13653      4.27306      9.63653         0.008503     -0.000787      0.062284
      0.00000      4.27306      7.50000         0.000000     -0.000008     -0.396876
      2.13653      2.13653      7.50000        -0.004704     -0.004949     -0.395888
     -0.00000      2.12951     13.94837         0.000002     -0.001568     -0.000283
      2.11320      4.27127     13.95296        -0.001619      0.000275     -0.001343
      0.00000      4.27243     11.77427        -0.000001      0.000151     -0.005995
      2.13539      2.13485     11.77701        -0.001487     -0.001370     -0.002803
      4.27306      6.40959      9.63653        -0.000000     -0.009721      0.062451
      6.40959      0.00000      9.63653         0.009319     -0.002332      0.044839
      4.27306      0.00000      7.50000         0.000000      0.000259     -0.396870
      6.40959      6.40959      7.50000         0.005066      0.004816     -0.395954
      4.27306      6.43266     13.95606        -0.000001      0.002036     -0.001431
      6.41551     -0.00102     13.94807         0.001769      0.000278     -0.000339
      4.27306     -0.00099     11.77426         0.000001      0.000243     -0.006007
      6.41025      6.40976     11.77800         0.001412      0.001541     -0.003302
      4.27306      2.13653      9.63653        -0.000000      0.007286      0.062112
      6.40959      4.27306      9.63653        -0.008502     -0.000787      0.062285
      4.27306      4.27306      7.50000         0.000000     -0.000357     -0.404596
      6.40959      2.13653      7.50000         0.004705     -0.004949     -0.395888
      4.27306      2.11240     13.95033        -0.000000     -0.001243     -0.001199
      6.43291      4.27127     13.95296         0.001620      0.000274     -0.001342
      4.27306      4.27273     11.79332         0.000001      0.000292     -0.003885
      6.41072      2.13485     11.77701         0.001488     -0.001369     -0.002804
    total drift:                               -0.000023     -0.000019      0.001759

  FREE ENERGIE OF THE ION-ELECTRON SYSTEM (eV)
  free  energy   TOTEN  =      -245.41287192 eV

  energy  without entropy=     -245.41287192  energy(sigma->0) =     -245.41287192

 d Force = 0.3131694E-04[ 0.145E-04, 0.481E-04]  d Energy = 0.3173114E-04-0.414E-06
 d Force = 0.3596608E+01[ 0.360E+01, 0.360E+01]  d Ewald  = 0.3596608E+01 0.113E-06

 Conjugate gradient step on ions:
 trial-energy change:   -0.000032  1 .order   -0.000031   -0.000048   -0.000015
  (g-gl).g = 0.784E-04      g.g   = 0.810E-04  gl.gl    = 0.102E-03
 g(Force)  = 0.810E-04   g(Stress)= 0.000E+00 ortho     = 0.835E-06
 gamma     =   0.76997
 trial     =   0.58945
 opt step  =   0.81989  (harmonic =   0.84357) maximal distance =0.00136242
 next E    =  -245.412875   (d E  =  -0.00003)

 reached required accuracy - stopping structural energy minimisation