 vasp.6.4.2 20Jul23 (build Feb 22 2024 13:53:45) complex
 executed on              LinuxNV date 2024.08.29  09:17:19
 OpenACC runtime initialized ...    4 GPUs detected

 INCAR:
   SYSTEM = Oxide-Surface
   ISMEAR = 0
   SIGMA = 0.05
   EDIFF = 1E-5
   ALGO = Normal
   IBRION = -1
   NSW = 0
   ISYM = 0
   DIPOL = 0.5 0.5 0.5
   IDIPOL = 3
   LDIPOL = .TRUE.
   ISTART = 0
   LHFCALC = .FALSE.
   GGA = PE
   IVDW = 21
   VDW_SR = 0.96
   HFRCUT = -1
   ENCUT = 1000
   PREC = Normal
   PRECFOCK = Normal
   LASPH = .TRUE.
   LREAL = Auto
   ISPIN = 1
   NELM = 200
   NELMIN = 8
   NCORE = 1
   KPAR = 1
   LWAVE = .FALSE.
   LCHARG = .FALSE.

 POTCAR:    PAW_PBE Ti_sv 26Sep2005
 POTCAR:    PAW_PBE O_h 06Feb2004
 POTCAR:    PAW_PBE Ti_sv 26Sep2005
   VRHFIN =Ti: 3p4s3d

   TITEL  = PAW_PBE Ti_sv 26Sep2005
   POMASS =   47.880; ZVAL   =   12.000    mass and valenz
   ENMAX  =  274.610; ENMIN  =  205.957 eV

   TITEL  = PAW_PBE O_h 06Feb2004
   POMASS =   16.000; ZVAL   =    6.000    mass and valenz
   ENMAX  =  700.000; ENMIN  =  500.000 eV

 Optimization of the real space projectors (new method)

 maximal supplied QI-value         = 16.25
 optimisation between [QCUT,QGAM] = [ 16.09, 32.34] = [ 72.49,292.89] Ry
 Optimized for a Real-space Cutoff    1.24 Angstroem

   l    n(q)    QCUT    max X(q) W(low)/X(q) W(high)/X(q)  e(spline)
   0     12    16.089    12.277    0.23E-04    0.54E-05    0.15E-06
   0     12    16.089    11.419    0.26E-04    0.82E-06    0.19E-06
   1     12    16.089     4.010    0.40E-04    0.12E-04    0.58E-06
   1     12    16.089     6.182    0.55E-05    0.28E-04    0.27E-06
   2     11    16.089    47.177    0.17E-03    0.26E-03    0.90E-06
   2     11    16.089    42.437    0.17E-03    0.25E-03    0.88E-06
 Optimization of the real space projectors (new method)

 maximal supplied QI-value         = 34.20
 optimisation between [QCUT,QGAM] = [ 16.08, 32.15] = [ 72.37,289.48] Ry
 Optimized for a Real-space Cutoff    0.71 Angstroem

   l    n(q)    QCUT    max X(q) W(low)/X(q) W(high)/X(q)  e(spline)
   0      7    16.076   280.207    0.42E-03    0.69E-03    0.60E-07
   0      7    16.076   228.978    0.42E-03    0.69E-03    0.61E-07
   1      6    16.076    86.127    0.11E-03    0.66E-03    0.10E-06
   1      6    16.076    65.368    0.11E-03    0.65E-03    0.10E-06
  PAW_PBE Ti_sv 26Sep2005               :
  PAW_PBE O_h 06Feb2004                 :

 POSCAR: Ti  O
  positions in direct lattice
 exchange correlation table for  LEXCH =        8
   RHO(1)=    0.500       N(1)  =     2000
   RHO(2)=  100.500       N(2)  =     4000

 ion  position               nearest neighbor table
   1  0.750  0.625  0.207-  82 1.95 142 1.95 141 1.95  81 1.95  84 1.98 163 1.98
   2  0.000  0.750  0.207-  84 1.95 104 1.95 103 1.95  83 1.95  85 1.98
   3  0.000  0.625  0.337-  85 1.95 145 1.95  86 1.95 146 1.95  87 1.98  88 1.98
   4  0.750  0.750  0.337-  87 1.95 107 1.95 168 1.95 188 1.95  82 1.98  89 1.98
   5  0.750  0.625  0.467-  89 1.95  90 1.95 149 1.95 150 1.95  92 1.98 171 1.98
   6  0.000  0.750  0.467-  92 1.95 112 1.95 111 1.95  91 1.95  86 1.98  93 2.00
   7  1.000  0.625  0.594-  93 1.89 153 1.90  95 1.95  96 1.95  94 2.02 154 2.02
   8  0.750  0.750  0.603-  97 1.86 196 1.97 176 1.97 115 1.97  95 1.97  90 2.11
   9  0.750  0.625  0.736-  98 1.83 158 1.84 179 2.03 100 2.03  97 2.10 157 2.10
  10  0.000  0.750  0.722-  94 1.81 119 1.95 120 1.95  99 1.95 100 1.95
  11  0.750  0.875  0.207-  82 1.95 102 1.95 101 1.95  81 1.95 104 1.98 183 1.98
  12  0.000  0.000  0.207- 104 1.95 124 1.95 123 1.95 103 1.95 105 1.98
  13  0.000  0.875  0.337-  85 1.95 105 1.95  86 1.95 106 1.95 107 1.98 108 1.98
  14  0.750  0.000  0.337- 107 1.95 127 1.95 188 1.95 208 1.95 102 1.98 109 1.98
  15  0.750  0.875  0.467-  89 1.95  90 1.95 109 1.95 110 1.95 112 1.98 191 1.98
  16  0.000  0.000  0.467- 112 1.95 132 1.95 131 1.95 111 1.95 106 1.98 113 2.00
  17  1.000  0.875  0.595-  93 1.89 113 1.89 115 1.95 116 1.95 114 2.02  94 2.02
  18  0.750  0.000  0.603- 117 1.86 216 1.97 196 1.97 135 1.97 115 1.97 110 2.11
  19  0.750  0.875  0.737- 118 1.83  98 1.83 199 2.03 120 2.03 117 2.10  97 2.10
  20  1.000  1.000  0.722- 114 1.81 140 1.95 139 1.95 120 1.95 119 1.95
  21  0.750  0.125  0.207- 102 1.95 122 1.95 121 1.95 101 1.95 124 1.98 203 1.98
  22  0.000  0.250  0.207- 124 1.95 144 1.95 143 1.95 123 1.95 125 1.98
  23  0.000  0.125  0.337- 105 1.95 125 1.95 106 1.95 126 1.95 127 1.98 128 1.98
  24  0.750  0.250  0.337- 127 1.95 147 1.95 208 1.95 228 1.95 122 1.98 129 1.98
  25  0.750  0.125  0.467- 109 1.95 110 1.95 129 1.95 130 1.95 132 1.98 211 1.98
  26  0.000  0.250  0.467- 132 1.95 152 1.95 151 1.95 131 1.95 126 1.98 133 2.00
  27  0.000  0.125  0.595- 113 1.89 133 1.89 136 1.95 135 1.95 114 2.02 134 2.02
  28  0.750  0.250  0.603- 137 1.86 216 1.97 236 1.97 135 1.97 155 1.97 130 2.11
  29  0.750  0.125  0.737- 118 1.83 138 1.83 219 2.03 140 2.03 137 2.10 117 2.10
  30  0.000  0.250  0.722- 134 1.81 139 1.95 140 1.95 159 1.95 160 1.95
  31  0.750  0.375  0.207- 122 1.95 142 1.95 141 1.95 121 1.95 144 1.98 223 1.98
  32  0.000  0.500  0.207-  84 1.95 144 1.95 143 1.95  83 1.95 145 1.98
  33  0.000  0.375  0.337- 125 1.95 145 1.95 126 1.95 146 1.95 147 1.98 148 1.98
  34  0.750  0.500  0.337-  87 1.95 147 1.95 168 1.95 228 1.95 142 1.98 149 1.98
  35  0.750  0.375  0.467- 129 1.95 130 1.95 149 1.95 150 1.95 152 1.98 231 1.98
  36  0.000  0.500  0.467-  92 1.95 152 1.95 151 1.95  91 1.95 146 1.98 153 2.00
  37  0.000  0.375  0.594- 133 1.89 153 1.89 156 1.95 155 1.95 134 2.02 154 2.02
  38  0.750  0.500  0.603- 157 1.86 236 1.97 176 1.97 155 1.97  95 1.97 150 2.11
  39  0.750  0.375  0.737- 138 1.83 158 1.83 239 2.03 160 2.03 157 2.10 137 2.10
  40  1.000  0.500  0.722- 154 1.81 160 1.95 159 1.95 100 1.95  99 1.95
  41  0.250  0.625  0.207- 162 1.95 222 1.95 221 1.95 161 1.95  83 1.98 164 1.98
  42  0.500  0.750  0.207- 163 1.95 164 1.95 183 1.95 184 1.95 165 1.98
  43  0.500  0.625  0.337- 165 1.95 225 1.95 166 1.95 226 1.95 168 1.98 167 1.98
  44  0.250  0.750  0.337-  88 1.95 108 1.95 167 1.95 187 1.95 162 1.98 169 1.98
  45  0.250  0.625  0.467- 169 1.95 170 1.95 229 1.95 230 1.95  91 1.98 172 1.98
  46  0.500  0.750  0.467- 171 1.95 172 1.95 191 1.95 192 1.95 166 1.98 173 2.00
  47  0.500  0.625  0.595- 233 1.90 173 1.90 175 1.95 176 1.95 174 2.01 234 2.01
  48  0.250  0.750  0.603- 177 1.86 195 1.97 175 1.97 116 1.97  96 1.97 170 2.11
  49  0.250  0.625  0.736- 178 1.83 238 1.84 180 2.03  99 2.03 177 2.10 237 2.10
  50  0.500  0.751  0.721- 174 1.81 199 1.94 200 1.94 179 1.95 180 1.95
  51  0.250  0.875  0.207- 162 1.95 182 1.95 181 1.95 161 1.95 103 1.98 184 1.98
  52  0.500  0.000  0.207- 183 1.95 184 1.95 203 1.95 204 1.95 185 1.98
  53  0.500  0.875  0.337- 165 1.95 185 1.95 166 1.95 186 1.95 188 1.98 187 1.98
  54  0.250  0.000  0.337- 108 1.95 128 1.95 187 1.95 207 1.95 182 1.98 189 1.98
  55  0.250  0.875  0.467- 169 1.95 170 1.95 189 1.95 190 1.95 111 1.98 192 1.98
  56  0.500  0.000  0.467- 191 1.95 192 1.95 211 1.95 212 1.95 186 1.98 193 1.99
  57  0.500  0.875  0.594- 173 1.89 193 1.90 195 1.95 196 1.95 174 2.01 194 2.02
  58  0.250  0.000  0.603- 197 1.86 215 1.97 195 1.97 136 1.97 116 1.97 190 2.11
  59  0.250  0.875  0.737- 198 1.83 178 1.83 200 2.03 119 2.03 197 2.10 177 2.10
  60  0.500  0.000  0.721- 194 1.81 200 1.94 199 1.94 220 1.95 219 1.95
[...]
 226  0.500  0.500  0.388-  43 1.95  73 1.95  76 1.98
 227  0.348  0.375  0.337-  64 1.95  74 1.95  73 1.98
 228  0.652  0.375  0.337-  24 1.95  34 1.95  73 1.98
 229  0.250  0.500  0.416-  45 1.95  75 1.95  74 1.98
 230  0.250  0.500  0.518-  45 1.95  75 1.95  78 2.11
 231  0.598  0.375  0.467-  66 1.95  76 1.95  35 1.98
 232  0.402  0.375  0.467-  66 1.95  76 1.95  75 1.98
 233  0.500  0.500  0.547-  77 1.89  47 1.90  76 2.00
 234  0.500  0.500  0.650-  80 1.82  47 2.01  77 2.01
 235  0.350  0.375  0.598-  77 1.95  78 1.97  68 1.97
 236  0.650  0.375  0.598-  77 1.95  38 1.97  28 1.97
 237  0.249  0.500  0.677-  78 1.86  49 2.10  79 2.10
 238  0.251  0.500  0.780-  79 1.83  49 1.84
 239  0.594  0.374  0.734-  80 1.94  70 1.94  39 2.03
 240  0.406  0.374  0.734-  80 1.94  70 1.94  79 2.03

IMPORTANT INFORMATION: All symmetrisations will be switched off!
NOSYMM: (Re-)initialisation of all symmetry stuff for point group C_1.

                                     Primitive cell

  volume of cell :    3846.0501

  direct lattice vectors                    reciprocal lattice vectors
    13.003980404  0.000000000  0.000000000     0.076899531  0.000000000  0.000000000
     0.000000000 11.830378115  0.000000000     0.000000000  0.084528152  0.000000000
     0.000000000  0.000000000 25.000000000     0.000000000  0.000000000  0.040000000

  length of vectors
    13.003980404 11.830378115 25.000000000     0.076899531  0.084528152  0.040000000

  position of ions in fractional coordinates (direct lattice)
     0.750000001  0.625007134  0.207156502
     0.000000001  0.750007134  0.207156502
     0.000000001  0.625007134  0.337196306
     0.750000001  0.750007134  0.337196306
     0.750000001  0.625007134  0.467236110
     0.000000001  0.750007134  0.467236110
     0.999999940  0.625019735  0.594495874
     0.750021777  0.750042649  0.602519744
     0.750003066  0.625106593  0.736329117
     0.000000017  0.750055336  0.721636960
     0.750000001  0.875007134  0.207156502
     0.000000001  0.000007134  0.207156502
     0.000000001  0.875007134  0.337196306
     0.750000001  0.000007134  0.337196306
     0.750000001  0.875007134  0.467236110
     0.000000001  0.000007134  0.467236110
     0.999999992  0.875016125  0.594511900
     0.749983713  0.000020009  0.602641880
     0.749876204  0.874999101  0.736742504
     0.999999990  0.999992866  0.721655188
     0.750000001  0.125007134  0.207156502
     0.000000001  0.250007134  0.207156502
     0.000000001  0.125007134  0.337196306
     0.750000001  0.250007134  0.337196306
     0.750000001  0.125007134  0.467236110
     0.000000001  0.250007134  0.467236110
     0.000000068  0.124993619  0.594519314
     0.750020774  0.249973997  0.602637838
     0.749936142  0.125016596  0.736711702
     0.000000016  0.249975627  0.721653239
     0.750000001  0.375007134  0.207156502
     0.000000001  0.500007134  0.207156502
     0.000000001  0.375007134  0.337196306
     0.750000001  0.500007134  0.337196306
     0.750000001  0.375007134  0.467236110
     0.000000001  0.500007134  0.467236110
     0.000000085  0.375001288  0.594499775
     0.750042568  0.499984211  0.602536198
     0.750059278  0.375078128  0.736676508
     0.999999994  0.500054051  0.721623319
     0.250000001  0.625007134  0.207156502
     0.500000001  0.750007134  0.207156502
     0.500000001  0.625007134  0.337196306
     0.250000001  0.750007134  0.337196306
     0.250000001  0.625007134  0.467236110
     0.500000001  0.750007134  0.467236110
     0.499999958  0.624730247  0.594857138
     0.249978089  0.750042641  0.602519742
     0.249996935  0.625106602  0.736329106
     0.500000014  0.750565443  0.721497564
     0.250000001  0.875007134  0.207156502
     0.500000001  0.000007134  0.207156502
     0.500000001  0.875007134  0.337196306
[...]
     0.000000000  0.000000000 25.000000000     0.000000000  0.000000000  0.040000000

  length of vectors
    13.003980404 11.830378115 25.000000000     0.076899531  0.084528152  0.040000000

 FORCES acting on ions
    electron-ion (+dipol)            ewald-force                    non-local-force                 convergence-correction
   0.162E-01 0.102E-01 0.369E+04   -.162E-01 -.101E-01 -.370E+04   -.961E-05 -.112E-02 0.116E+01   0.138E-04 -.222E-04 -.386E-02
   0.804E-05 0.109E-01 0.391E+04   -.104E-07 -.107E-01 -.390E+04   0.364E-06 -.111E-02 -.568E+01   -.780E-05 -.904E-04 -.139E-02
   0.355E-04 0.231E-01 0.188E+04   -.342E-06 -.230E-01 -.188E+04   0.812E-06 0.407E-02 -.185E+00   -.351E-04 0.180E-04 0.674E-03
   0.520E-01 0.481E-01 0.187E+04   -.523E-01 -.473E-01 -.187E+04   0.122E-03 0.366E-02 0.337E+00   0.456E-05 -.689E-04 0.100E-02
   0.496E+00 0.200E+00 -.328E+02   -.499E+00 -.200E+00 0.338E+02   0.875E-03 -.945E-03 -.287E+00   -.576E-05 -.387E-04 0.205E-02
   0.911E-05 -.219E-01 -.143E+02   0.724E-05 0.257E-01 0.130E+02   0.663E-06 -.220E-02 0.583E+00   -.171E-04 -.670E-06 0.235E-02
   -.121E-03 0.912E-01 -.186E+04   0.114E-03 -.892E-01 0.186E+04   0.153E-04 -.271E-02 0.774E+00   0.505E-06 0.828E-05 0.201E-02
   0.283E+00 0.151E+00 -.191E+04   -.268E+00 -.143E+00 0.191E+04   -.690E-02 -.753E-02 -.112E+01   0.310E-04 -.434E-05 0.219E-02
   -.176E+01 0.113E+01 -.365E+04   0.170E+01 -.111E+01 0.365E+04   0.511E-01 -.103E-01 -.164E+01   -.254E-05 0.292E-03 -.385E-03
   0.108E-03 0.786E+00 -.373E+04   -.954E-04 -.779E+00 0.373E+04   -.194E-05 -.189E-01 0.284E+01   -.137E-04 -.315E-04 0.272E-03
   0.115E-01 0.103E-01 0.369E+04   -.115E-01 -.100E-01 -.370E+04   0.373E-04 -.119E-02 0.116E+01   -.223E-04 0.233E-04 -.376E-02
   -.259E-04 -.624E-03 0.391E+04   0.338E-07 0.537E-03 -.390E+04   -.284E-05 -.109E-02 -.568E+01   0.301E-04 0.681E-04 -.143E-02
   0.256E-04 -.479E-02 0.188E+04   0.295E-06 0.510E-02 -.188E+04   0.839E-06 0.404E-02 -.186E+00   -.257E-04 -.227E-04 0.712E-03
   0.838E-02 -.145E-01 0.187E+04   -.910E-02 0.148E-01 -.187E+04   0.244E-03 0.375E-02 0.336E+00   -.113E-04 0.391E-04 0.943E-03
   0.185E-01 0.232E-01 -.327E+02   -.200E-01 -.572E-02 0.337E+02   0.469E-03 -.463E-02 -.291E+00   -.691E-05 0.151E-04 0.210E-02
   -.406E-06 -.103E+00 -.146E+02   0.715E-05 0.105E+00 0.132E+02   0.461E-06 -.172E-02 0.584E+00   -.777E-05 -.674E-06 0.235E-02
   0.615E-04 -.132E+00 -.186E+04   -.495E-04 0.130E+00 0.186E+04   0.202E-05 -.212E-02 0.776E+00   -.125E-04 0.759E-05 0.202E-02
   -.295E+00 0.549E-01 -.191E+04   0.301E+00 -.584E-01 0.191E+04   0.415E-02 0.437E-02 -.113E+01   0.412E-04 -.342E-05 0.204E-02
   -.140E+01 0.743E+00 -.366E+04   0.142E+01 -.772E+00 0.366E+04   0.896E-02 -.598E-02 -.166E+01   0.525E-05 -.187E-03 -.251E-03
   -.592E-04 0.424E+00 -.373E+04   0.368E-05 -.436E+00 0.373E+04   -.505E-06 0.738E-03 0.285E+01   0.581E-04 0.309E-04 0.255E-03
   0.108E-01 -.102E-01 0.369E+04   -.108E-01 0.101E-01 -.370E+04   0.420E-04 -.108E-02 0.116E+01   -.183E-04 -.373E-04 -.378E-02
   -.423E-04 -.108E-01 0.391E+04   0.490E-07 0.107E-01 -.390E+04   -.319E-05 -.108E-02 -.568E+01   0.458E-04 -.455E-04 -.136E-02
   -.550E-05 -.231E-01 0.188E+04   0.863E-06 0.230E-01 -.188E+04   0.479E-06 0.411E-02 -.186E+00   0.571E-05 0.337E-04 0.675E-03
   0.388E-01 -.474E-01 0.187E+04   -.393E-01 0.467E-01 -.187E+04   0.145E-03 0.396E-02 0.336E+00   0.909E-05 -.559E-04 0.982E-03
   -.557E-01 -.193E+00 -.329E+02   0.542E-01 0.191E+00 0.339E+02   0.519E-03 -.540E-03 -.294E+00   -.101E-04 -.243E-04 0.214E-02
   0.357E-06 0.239E-01 -.146E+02   -.106E-06 -.278E-01 0.133E+02   0.134E-06 0.291E-03 0.585E+00   -.956E-06 0.286E-05 0.236E-02
   0.255E-03 -.179E+00 -.186E+04   -.235E-03 0.176E+00 0.186E+04   -.184E-04 0.378E-02 0.781E+00   -.103E-04 -.946E-05 0.203E-02
   -.673E-01 -.277E+00 -.191E+04   0.843E-01 0.269E+00 0.191E+04   -.525E-02 -.152E-02 -.113E+01   0.269E-04 -.472E-05 0.219E-02
   -.498E+00 -.124E+00 -.366E+04   0.525E+00 0.113E+00 0.366E+04   0.491E-02 0.271E-03 -.165E+01   -.148E-04 0.165E-03 -.280E-03
   0.266E-04 -.146E+01 -.373E+04   -.634E-04 0.145E+01 0.373E+04   -.348E-05 0.205E-01 0.284E+01   0.382E-04 -.284E-04 0.251E-03
   0.155E-01 -.104E-01 0.369E+04   -.155E-01 0.999E-02 -.370E+04   -.846E-05 -.103E-02 0.116E+01   -.573E-06 0.315E-04 -.388E-02
   0.226E-04 0.483E-03 0.391E+04   0.383E-08 -.526E-03 -.390E+04   -.262E-07 -.109E-02 -.568E+01   -.202E-04 0.688E-04 -.142E-02
   -.293E-04 0.482E-02 0.188E+04   0.119E-06 -.505E-02 -.188E+04   -.904E-06 0.413E-02 -.186E+00   0.342E-04 -.293E-04 0.657E-03
   0.821E-01 0.138E-01 0.187E+04   -.822E-01 -.143E-01 -.187E+04   -.380E-05 0.385E-02 0.337E+00   0.181E-04 0.851E-04 0.107E-02
   0.406E+00 -.301E-01 -.330E+02   -.409E+00 0.144E-01 0.340E+02   0.609E-03 0.244E-02 -.290E+00   -.206E-05 0.467E-04 0.210E-02
   0.561E-05 0.106E+00 -.143E+02   -.147E-05 -.109E+00 0.130E+02   0.175E-06 -.304E-03 0.583E+00   -.459E-05 -.115E-05 0.236E-02
   0.358E-03 0.163E+00 -.186E+04   -.352E-03 -.161E+00 0.186E+04   -.241E-04 0.570E-03 0.776E+00   0.684E-05 -.484E-05 0.201E-02
   0.592E+00 0.399E-01 -.191E+04   -.570E+00 -.374E-01 0.191E+04   -.135E-01 0.177E-02 -.112E+01   0.191E-04 0.125E-04 0.209E-02
   -.211E+01 -.146E+01 -.366E+04   0.223E+01 0.149E+01 0.366E+04   -.211E-01 0.635E-02 -.165E+01   0.401E-05 -.275E-03 -.424E-03
   -.313E-05 0.743E-01 -.373E+04   -.220E-04 -.618E-01 0.373E+04   0.287E-06 -.624E-02 0.283E+01   0.251E-04 0.284E-04 0.263E-03
   -.163E-01 0.101E-01 0.369E+04   0.162E-01 -.101E-01 -.370E+04   0.892E-05 -.112E-02 0.116E+01   0.639E-04 0.736E-04 -.372E-02
   0.419E-04 0.183E-01 0.391E+04   0.139E-08 -.180E-01 -.390E+04   0.227E-05 -.115E-02 -.568E+01   -.434E-04 -.781E-04 -.142E-02
   0.807E-05 0.735E-01 0.188E+04   0.323E-06 -.703E-01 -.188E+04   0.313E-06 0.316E-02 -.186E+00   -.112E-04 -.300E-04 0.769E-03
   -.520E-01 0.481E-01 0.187E+04   0.523E-01 -.473E-01 -.187E+04   -.124E-03 0.366E-02 0.337E+00   0.495E-04 -.589E-04 0.730E-03
   -.496E+00 0.200E+00 -.328E+02   0.499E+00 -.200E+00 0.338E+02   -.877E-03 -.944E-03 -.287E+00   0.210E-04 -.609E-04 0.212E-02
   -.192E-04 0.703E+00 -.150E+02   0.172E-04 -.714E+00 0.137E+02   -.333E-06 0.696E-02 0.574E+00   0.184E-05 -.301E-05 0.229E-02
   -.897E-04 0.183E+00 -.186E+04   0.779E-04 -.138E+00 0.186E+04   0.879E-05 0.480E-02 0.739E+00   0.809E-05 0.884E-05 0.201E-02
   -.283E+00 0.151E+00 -.191E+04   0.268E+00 -.143E+00 0.191E+04   0.693E-02 -.753E-02 -.112E+01   -.308E-04 -.397E-05 0.218E-02
   0.176E+01 0.113E+01 -.365E+04   -.170E+01 -.111E+01 0.365E+04   -.511E-01 -.103E-01 -.164E+01   -.155E-04 0.622E-04 -.319E-03
   0.542E-04 0.348E+01 -.374E+04   -.890E-04 -.372E+01 0.373E+04   -.518E-05 0.565E-01 0.291E+01   0.385E-04 -.573E-04 0.293E-03
   -.115E-01 0.105E-01 0.369E+04   0.115E-01 -.100E-01 -.370E+04   -.379E-04 -.120E-02 0.116E+01   0.221E-04 -.144E-03 -.367E-02
   0.238E-04 0.418E-03 0.391E+04   -.557E-07 -.531E-03 -.390E+04   0.704E-06 -.109E-02 -.568E+01   -.266E-04 0.836E-04 -.133E-02
   0.125E-04 0.662E-01 0.188E+04   -.454E-06 -.637E-01 -.188E+04   0.332E-06 0.325E-02 -.186E+00   -.147E-04 0.696E-04 0.728E-03
   -.840E-02 -.145E-01 0.187E+04   0.910E-02 0.148E-01 -.187E+04   -.245E-03 0.375E-02 0.336E+00   0.322E-04 0.538E-04 0.922E-03
   -.185E-01 0.232E-01 -.327E+02   0.200E-01 -.570E-02 0.337E+02   -.470E-03 -.463E-02 -.291E+00   0.200E-04 0.342E-04 0.216E-02
   0.588E-05 -.221E-01 -.134E+02   -.951E-05 0.237E-01 0.121E+02   0.153E-06 -.798E-03 0.567E+00   0.286E-05 -.869E-05 0.231E-02
   -.724E-04 -.113E+01 -.185E+04   0.639E-04 0.111E+01 0.185E+04   0.961E-05 0.137E-01 0.724E+00   0.406E-05 -.309E-05 0.200E-02
   0.296E+00 0.552E-01 -.191E+04   -.301E+00 -.587E-01 0.191E+04   -.416E-02 0.436E-02 -.113E+01   -.278E-04 0.446E-05 0.219E-02
   0.140E+01 0.743E+00 -.366E+04   -.142E+01 -.772E+00 0.366E+04   -.896E-02 -.598E-02 -.166E+01   -.274E-04 -.591E-04 -.324E-03
   0.313E-04 -.101E+01 -.373E+04   -.141E-04 0.102E+01 0.373E+04   0.168E-05 0.885E-02 0.283E+01   -.176E-04 0.420E-04 0.276E-03
[...]
   -.633E+02 -.229E-01 0.936E+03   0.668E+02 0.221E-01 -.936E+03   -.303E+01 0.119E-02 0.183E+00   -.481E-03 0.514E-05 0.400E-03
   0.633E+02 -.229E-01 0.936E+03   -.668E+02 0.221E-01 -.936E+03   0.303E+01 0.119E-02 0.183E+00   0.462E-03 0.880E-05 0.448E-03
   -.129E+00 0.201E-01 0.420E+03   0.130E+00 -.230E-01 -.424E+03   -.177E-02 0.509E-02 0.374E+01   0.997E-05 0.327E-05 0.775E-03
   -.504E+00 0.918E-01 -.473E+03   0.504E+00 -.918E-01 0.479E+03   0.218E-02 0.984E-03 -.638E+01   -.240E-05 0.706E-05 0.991E-03
   -.660E+02 -.236E+00 -.906E+01   0.704E+02 0.230E+00 0.875E+01   -.493E+01 0.128E-01 0.410E+00   0.182E-03 0.105E-04 0.103E-02
   0.660E+02 -.236E+00 -.906E+01   -.704E+02 0.230E+00 0.875E+01   0.493E+01 0.128E-01 0.410E+00   -.174E-03 0.153E-04 0.103E-02
   0.544E-04 -.496E+00 -.499E+03   -.571E-04 0.536E+00 0.493E+03   0.422E-05 -.438E-01 0.566E+01   -.132E-05 0.444E-05 0.101E-02
   -.337E-04 -.172E+01 -.132E+04   0.431E-04 0.186E+01 0.132E+04   -.417E-05 -.164E+00 0.208E+01   -.558E-05 0.282E-06 0.853E-03
   -.331E+02 0.421E-01 -.936E+03   0.360E+02 -.674E-01 0.936E+03   -.291E+01 0.244E-01 0.859E+00   -.161E-03 -.136E-05 0.102E-02
   0.331E+02 0.424E-01 -.936E+03   -.360E+02 -.677E-01 0.936E+03   0.291E+01 0.245E-01 0.859E+00   0.159E-03 -.166E-05 0.100E-02
   0.131E+01 0.909E+00 -.149E+04   -.141E+01 -.959E+00 0.149E+04   0.104E+00 0.392E-01 -.120E+01   -.612E-05 -.267E-04 0.585E-03
   -.357E+01 -.717E+00 -.224E+04   0.377E+01 0.839E+00 0.226E+04   -.224E+00 -.185E+00 -.194E+02   -.131E-04 -.505E-05 -.416E-03
   -.333E+02 0.285E-01 -.192E+04   0.389E+02 -.153E+00 0.193E+04   -.573E+01 0.181E+00 -.265E+01   0.682E-04 -.271E-04 -.109E-04
   0.333E+02 0.285E-01 -.192E+04   -.389E+02 -.153E+00 0.193E+04   0.573E+01 0.181E+00 -.265E+01   -.794E-04 0.437E-05 -.231E-04
   0.150E-03 -.291E+00 0.903E+02   -.205E-11 -.788E-12 0.703E-10   -.197E-03 0.286E+00 -.910E+02   0.117E-04 -.114E-04 0.893E-01

 POSITION                                       TOTAL-FORCE (eV/Angst)
      9.75299      7.39407      5.17891         0.000014     -0.000962     -3.496026
      0.00000      8.87287      5.17891         0.000001     -0.000999      2.795402
      0.00000      7.39407      8.42991         0.000001      0.004192      0.504172
      9.75299      8.87287      8.42991        -0.000258      0.004444     -0.719831
      9.75299      7.39407     11.68090        -0.001981     -0.000779      0.692022
      0.00000      8.87287     11.68090         0.000000      0.001644     -0.747253
     13.00398      7.39422     14.86240         0.000009     -0.000816      0.100876
      9.75327      8.87329     15.06299         0.007873      0.000278     -0.011866
      9.75303      7.39525     18.40823        -0.011332      0.004491      0.171457
      0.00000      8.87344     18.04092        -0.000003     -0.012715      0.070685
      9.75299     10.35167      5.17891        -0.000051     -0.000811     -3.495899
      0.00000      0.00008      5.17891         0.000002     -0.001090      2.795498
      0.00000     10.35167      8.42991         0.000001      0.004342      0.504345
      9.75299      0.00008      8.42991        -0.000485      0.004143     -0.718007
      9.75299     10.35167     11.68090        -0.001027      0.012832      0.700821
      0.00000      0.00008     11.68090        -0.000000      0.000965     -0.746562
     13.00398     10.35177     14.86280         0.000002     -0.003861      0.100282
      9.75277      0.00024     15.06605         0.009468      0.000828     -0.025615
      9.75138     10.35157     18.41856         0.038079     -0.034495      0.090658
     13.00398     11.83029     18.04138         0.000002     -0.010685      0.057760
      9.75299      1.47888      5.17891        -0.000046     -0.001218     -3.495682
      0.00000      2.95768      5.17891         0.000001     -0.001147      2.795500
      0.00000      1.47888      8.42991         0.000002      0.004007      0.504419
      9.75299      2.95768      8.42991        -0.000300      0.003209     -0.718055
      9.75299      1.47888     11.68090        -0.000935     -0.002599      0.708932
      0.00000      2.95768     11.68090        -0.000000     -0.003568     -0.746894
      0.00000      1.47872     14.86298        -0.000009      0.000148      0.096494
      9.75326      2.95729     15.06595         0.011592     -0.009124     -0.030212
      9.75215      1.47899     18.41779         0.033081     -0.010889      0.085794
      0.00000      2.95731     18.04133        -0.000002      0.009324      0.057806
      9.75299      4.43648      5.17891         0.000020     -0.001343     -3.495846
      0.00000      5.91527      5.17891         0.000003     -0.001050      2.795510
      0.00000      4.43648      8.42991         0.000004      0.003891      0.504236
      9.75299      5.91527      8.42991        -0.000082      0.003513     -0.719801
      9.75299      4.43648     11.68090        -0.001768     -0.013131      0.700017
      0.00000      5.91527     11.68090        -0.000000     -0.002772     -0.747693
      0.00000      4.43641     14.86249        -0.000011      0.002633      0.098064
      9.75354      5.91500     15.06340         0.008363      0.004547     -0.017013
      9.75376      4.43732     18.41691         0.097843      0.036312      0.096286
     13.00398      5.91583     18.04058         0.000000      0.006005      0.074379
      3.25100      7.39407      5.17891        -0.000019     -0.000965     -3.496022
      6.50199      8.87287      5.17891         0.000001     -0.000864      2.795862
      6.50199      7.39407      8.42991        -0.000002      0.006450      0.504232
      3.25100      8.87287      8.42991         0.000260      0.004445     -0.719836
      3.25100      7.39407     11.68090         0.001980     -0.000779      0.692019
      6.50199      8.87287     11.68090        -0.000000     -0.003928     -0.731246
      6.50199      7.39080     14.87143         0.000005      0.053882      0.044989
      3.25071      8.87329     15.06299        -0.007858      0.000278     -0.011864
      3.25096      7.39525     18.40823         0.011333      0.004478      0.171467
      6.50199      8.87947     18.03744        -0.000001     -0.191946     -0.026683
      3.25100     10.35167      5.17891         0.000051     -0.000812     -3.495887
      6.50199      0.00008      5.17891        -0.000002     -0.001100      2.796149
      6.50199     10.35167      8.42991        -0.000002      0.005848      0.506165
      3.25100      0.00008      8.42991         0.000486      0.004142     -0.718008
      3.25100     10.35167     11.68090         0.001027      0.012832      0.700822
      6.50199      0.00008     11.68090        -0.000000      0.000769     -0.758690
      6.50199     10.34965     14.85871         0.000005     -0.010115      0.061035
      3.25121      0.00024     15.06605        -0.009472      0.000826     -0.025614
      3.25261     10.35157     18.41856        -0.038081     -0.034496      0.090650
      6.50199      0.00033     18.03617         0.000001      0.015181     -0.024398
[...]
      6.50199      5.91527      9.70429         0.000000      0.002153     -0.122022
      4.52538      4.43648      8.42991         0.417438      0.000418      0.059683
      8.47860      4.43648      8.42991        -0.417434      0.000419      0.059684
      3.25100      5.91527     10.40652        -0.000480      0.002220     -0.096993
      3.25100      5.91527     12.95529         0.002016      0.000993      0.028141
      7.77637      4.43648     11.68090        -0.505188      0.007180      0.090656
      5.22761      4.43648     11.68090         0.505187      0.007180      0.090656
      6.50199      5.91539     13.68044         0.000000     -0.003555      0.013779
      6.50199      5.91464     16.24136        -0.000000     -0.018409      0.089743
      4.55288      4.43649     14.95719        -0.012276     -0.000980     -0.008590
      8.45110      4.43649     14.95719         0.012277     -0.000980     -0.008590
      3.24421      5.91567     16.92452         0.006332     -0.010489      0.010716
      3.26640      5.91889     19.49892        -0.019108     -0.063601     -0.107770
      7.72931      4.42773     18.34168        -0.118805      0.057179      0.162858
      5.27467      4.42773     18.34168         0.118804      0.057179      0.162860
    total drift:                               -0.000036     -0.004241     -0.602302

  FREE ENERGIE OF THE ION-ELECTRON SYSTEM (eV)
  free  energy   TOTEN  =     -2163.89042637 eV

  energy  without entropy=    -2163.89042637  energy(sigma->0) =    -2163.89042637