 vasp.6.3.0 20Jan22 (build Apr  1 2022 16:44:48) complex
 executed on        HPECrayEX_GCC date 2023.02.21  02:05:41

 INCAR:
   SYSTEM = MgO-rocksalt
   ISMEAR = 0
   SIGMA = 0.05
   EDIFF = 1E-6
   ALGO = ALL
   ISTART = 0
   IBRION = -1
   NSW = 0
   ISYM = 0
   DIPOL = 0.5 0.5 0.5
   IDIPOL = 3
   LDIPOL = .TRUE.
   GGA = RE
   IVDW = 13
   VDW_S8 = 1.7468
   VDW_A1 = 0.5363
   VDW_A2 = 3.0726
   ENCUT = 600
   PREC = Accurate
   LASPH = .TRUE.
   LREAL = .FALSE.
   ISPIN = 1
   NELM = 200
   NELMIN = 8
   NCORE = 8
   KPAR = 1
   LWAVE = .FALSE.
   LCHARG = .FALSE.

 POTCAR:    PAW_PBE N 08Apr2002
 POTCAR:    PAW_PBE H 15Jun2001
 POTCAR:    PAW_PBE Mg_pv 13Apr2007
 POTCAR:    PAW_PBE O 08Apr2002
 POTCAR:    PAW_PBE N 08Apr2002
   VRHFIN =N: s2p3

   TITEL  = PAW_PBE N 08Apr2002
   POMASS =   14.001; ZVAL   =    5.000    mass and valenz
   ENMAX  =  400.000; ENMIN  =  300.000 eV

   TITEL  = PAW_PBE H 15Jun2001
   POMASS =    1.000; ZVAL   =    1.000    mass and valenz
   ENMAX  =  250.000; ENMIN  =  200.000 eV

   TITEL  = PAW_PBE Mg_pv 13Apr2007
   POMASS =   24.305; ZVAL   =    8.000    mass and valenz
   ENMAX  =  403.929; ENMIN  =  302.947 eV

   TITEL  = PAW_PBE O 08Apr2002
   POMASS =   16.000; ZVAL   =    6.000    mass and valenz
   ENMAX  =  400.000; ENMIN  =  300.000 eV

  PAW_PBE N 08Apr2002                   :
  PAW_PBE H 15Jun2001                   :
  PAW_PBE Mg_pv 13Apr2007               :
  PAW_PBE O 08Apr2002                   :

 POSCAR:  N  H Mg  O
  positions in direct lattice
|           W    W    AA    RRRRR   N    N  II  N    N   GGGG   !!!           |
|           W    W   A  A   R    R  NN   N  II  NN   N  G    G  !!!           |
|           W    W  A    A  R    R  N N  N  II  N N  N  G       !!!           |
|           W WW W  AAAAAA  RRRRR   N  N N  II  N  N N  G  GGG   !            |
|           WW  WW  A    A  R   R   N   NN  II  N   NN  G    G                |
|           W    W  A    A  R    R  N    N  II  N    N   GGGG   !!!           |
|     Specifying the vdW parameters                                           |
|     VDW_S8 = 1.747                                                          |
|     VDW_A1 = 0.536                                                          |
|     VDW_A2 = 3.073                                                          |
|     in the INCAR file will overwrite the defaults for revpbe. Please        |
|     make sure that is what you intended.                                    |

 ion  position               nearest neighbor table
   1  0.500  0.516  0.760-   4 1.02   3 1.02   2 1.02
   2  0.500  0.635  0.768-   1 1.02
   3  0.402  0.469  0.782-   1 1.02
   4  0.598  0.469  0.782-   1 1.02
   5  0.000  0.750  0.352-  37 2.11  39 2.11  40 2.11  47 2.11  56 2.11
   6  0.250  0.000  0.352-  38 2.11  39 2.11  40 2.11  48 2.11  55 2.11
   7  0.000  0.000  0.451-  39 2.11  38 2.11  37 2.11  45 2.11  54 2.11  43 2.12
   8  0.250  0.750  0.451-  40 2.11  38 2.11  37 2.11  46 2.11  53 2.11  44 2.12
   9  0.000  0.750  0.550-  51 2.11  44 2.11  60 2.11  43 2.11  37 2.12  41 2.16
  10  0.250  1.000  0.550-  59 2.11  52 2.11  44 2.11  43 2.11  38 2.12  42 2.16
  11  0.000  1.000  0.648-  43 2.10  42 2.11  58 2.11  49 2.11  41 2.11
  12  0.250  0.750  0.648-  44 2.09  41 2.11  42 2.11  50 2.11  57 2.11
  13  0.000  0.250  0.352-  45 2.11  39 2.11  47 2.11  48 2.11  64 2.11
  14  0.250  0.500  0.352-  46 2.11  40 2.11  47 2.11  48 2.11  63 2.11
  15  0.000  0.500  0.451-  47 2.11  45 2.11  46 2.11  37 2.11  62 2.11  51 2.11
  16  0.250  0.250  0.451-  48 2.11  45 2.11  46 2.11  38 2.11  61 2.11  52 2.12
  17  1.000  0.250  0.550-  51 2.11  68 2.11  52 2.11  43 2.11  45 2.12  49 2.16
  18  0.251  0.500  0.551-  67 2.10  52 2.11  44 2.11  51 2.12  46 2.13  50 2.15
  19  0.000  0.500  0.648-  66 2.09  50 2.09  51 2.10  49 2.12  41 2.12
  20  0.250  0.250  0.648-  52 2.10  42 2.11  49 2.11  65 2.11  50 2.11
  21  0.500  0.750  0.352-  53 2.11  40 2.11  55 2.11  56 2.11  63 2.11
  22  0.750  0.000  0.352-  54 2.11  39 2.11  55 2.11  56 2.11  64 2.11
  23  0.500  0.000  0.451-  55 2.11  53 2.11  54 2.11  38 2.11  61 2.11  59 2.11
  24  0.750  0.750  0.451-  56 2.11  53 2.11  54 2.11  37 2.11  62 2.11  60 2.12
  25  0.500  0.749  0.551-  67 2.10  60 2.11  44 2.11  59 2.12  53 2.13  57 2.15
  26  0.750  1.000  0.550-  59 2.11  68 2.11  60 2.11  43 2.11  54 2.12  58 2.16
  27  0.500  0.000  0.648-  65 2.09  57 2.09  59 2.10  42 2.12  58 2.12
  28  0.750  0.750  0.648-  60 2.09  41 2.11  58 2.11  66 2.11  57 2.11
  29  0.500  0.250  0.352-  61 2.11  55 2.11  48 2.11  63 2.11  64 2.11
  30  0.750  0.500  0.352-  62 2.11  56 2.11  47 2.11  63 2.11  64 2.11
  31  0.500  0.500  0.451-  63 2.11  53 2.11  61 2.11  62 2.11  46 2.11  67 2.14
  32  0.750  0.250  0.451-  64 2.11  54 2.11  61 2.11  62 2.11  45 2.11  68 2.12
  33  0.500  0.251  0.551-  67 2.10  52 2.11  68 2.11  59 2.12  61 2.13  65 2.14
  34  0.749  0.500  0.551-  67 2.10  68 2.11  60 2.11  51 2.12  62 2.13  66 2.15
  35  0.500  0.499  0.655-  65 2.12  66 2.13  50 2.13  57 2.15  67 2.22
  36  0.750  0.250  0.648-  68 2.10  58 2.11  49 2.11  65 2.11  66 2.11
  37  0.000  0.750  0.451-   5 2.11   7 2.11   8 2.11  15 2.11  24 2.11   9 2.12
  38  0.250  0.000  0.451-   6 2.11   7 2.11   8 2.11  16 2.11  23 2.11  10 2.12
  39  0.000  0.000  0.352-   7 2.11   6 2.11   5 2.11  13 2.11  22 2.11
  40  0.250  0.750  0.352-   8 2.11   6 2.11   5 2.11  14 2.11  21 2.11
  41  1.000  0.750  0.651-  11 2.11  28 2.11  12 2.11  19 2.12   9 2.16
  42  0.249  1.000  0.651-  11 2.11  20 2.11  12 2.11  27 2.12  10 2.16
  43  1.000  1.000  0.550-  11 2.10   9 2.11  26 2.11  10 2.11  17 2.11   7 2.12
  44  0.250  0.750  0.550-  12 2.09  10 2.11   9 2.11  25 2.11  18 2.11   8 2.12
  45  0.000  0.250  0.451-  13 2.11   7 2.11  15 2.11  16 2.11  32 2.11  17 2.12
  46  0.250  0.500  0.451-  14 2.11   8 2.11  15 2.11  16 2.11  31 2.11  18 2.13
  47  0.000  0.500  0.352-  15 2.11  13 2.11  14 2.11   5 2.11  30 2.11
  48  0.250  0.250  0.352-  16 2.11  13 2.11  14 2.11   6 2.11  29 2.11
  49  0.000  0.249  0.651-  11 2.11  36 2.11  20 2.11  19 2.12  17 2.16
  50  0.247  0.500  0.651-  19 2.09  12 2.11  20 2.11  35 2.13  18 2.15
  51  0.000  0.500  0.550-  19 2.10   9 2.11  17 2.11  15 2.11  34 2.12  18 2.12
  52  0.250  0.250  0.550-  20 2.10  10 2.11  17 2.11  18 2.11  33 2.11  16 2.12
  53  0.500  0.750  0.451-  21 2.11   8 2.11  23 2.11  24 2.11  31 2.11  25 2.13
  54  0.750  0.000  0.451-  22 2.11   7 2.11  23 2.11  24 2.11  32 2.11  26 2.12
  55  0.500  0.000  0.352-  23 2.11  21 2.11  22 2.11   6 2.11  29 2.11
  56  0.750  0.750  0.352-  24 2.11  21 2.11  22 2.11   5 2.11  30 2.11
  57  0.500  0.753  0.651-  27 2.09  12 2.11  28 2.11  35 2.15  25 2.15
  58  0.751  1.000  0.651-  11 2.11  36 2.11  28 2.11  27 2.12  26 2.16
  59  0.500  1.000  0.550-  27 2.10  26 2.11  10 2.11  23 2.11  25 2.12  33 2.12
  60  0.750  0.750  0.550-  28 2.09  26 2.11   9 2.11  25 2.11  34 2.11  24 2.12
  61  0.500  0.250  0.451-  29 2.11  23 2.11  16 2.11  31 2.11  32 2.11  33 2.13
  62  0.750  0.500  0.451-  30 2.11  24 2.11  15 2.11  31 2.11  32 2.11  34 2.13
  63  0.500  0.500  0.352-  31 2.11  21 2.11  29 2.11  30 2.11  14 2.11
  64  0.750  0.250  0.352-  32 2.11  22 2.11  29 2.11  30 2.11  13 2.11
  65  0.500  0.247  0.651-  27 2.09  20 2.11  36 2.11  35 2.12  33 2.14
  66  0.753  0.500  0.651-  19 2.09  28 2.11  36 2.11  35 2.13  34 2.15
  67  0.500  0.500  0.551-  25 2.10  18 2.10  34 2.10  33 2.10  31 2.14  35 2.22
  68  0.750  0.250  0.550-  36 2.10  26 2.11  17 2.11  34 2.11  33 2.11  32 2.12

IMPORTANT INFORMATION: All symmetrisations will be switched off!
NOSYMM: (Re-)initialisation of all symmetry stuff for point group C_1.

                                     Primitive cell

  volume of cell :    1519.8199

  direct lattice vectors                    reciprocal lattice vectors
     8.440984654  0.000000000  0.000000000     0.118469591  0.000000000  0.000000000
     0.000000000  8.440984654  0.000000000     0.000000000  0.118469591  0.000000000
     0.000000000  0.000000000 21.330738491     0.000000000  0.000000000  0.046880702

  length of vectors
     8.440984654  8.440984654 21.330738491     0.118469591  0.118469591  0.046880702

  position of ions in fractional coordinates (direct lattice)
     0.500000238  0.515515988  0.760397415
     0.499999981  0.635067396  0.767938398
     0.402069061  0.469393035  0.781666100
     0.597931073  0.469393296  0.781666268
     0.000000000  0.750000000  0.351605267
     0.250000000  0.000000000  0.351605267
     0.000000000  0.000000000  0.450535089
     0.250000000  0.750000000  0.450535089
     0.000000002  0.749683926  0.549893410
     0.250263522  0.999989873  0.549908943
     0.000000001  0.999953889  0.648375512
     0.249680169  0.750035883  0.648043586
     0.000000000  0.250000000  0.351605267
     0.250000000  0.500000000  0.351605267
     0.000000000  0.500000000  0.450535089
     0.250000000  0.250000000  0.450535089
     0.999999995  0.250229246  0.549913058
     0.251264402  0.499907421  0.550551274
     0.000000017  0.499888939  0.648188279
     0.249874845  0.249731960  0.648151920
     0.500000000  0.750000000  0.351605267
     0.750000000  0.000000000  0.351605267
     0.500000000  0.000000000  0.450535089
     0.750000000  0.750000000  0.450535089
     0.499999996  0.748689127  0.550582001
     0.749736477  0.999989873  0.549908956
     0.499999995  0.000230885  0.648178485
     0.750319838  0.750035869  0.648043580
     0.500000000  0.250000000  0.351605267
     0.750000000  0.500000000  0.351605267
     0.500000000  0.500000000  0.450535089
     0.750000000  0.250000000  0.450535089
     0.499999999  0.251188744  0.550506166
     0.748735610  0.499907415  0.550551309
     0.500000034  0.498638580  0.654927800
     0.750125161  0.249731957  0.648151929
     0.000000000  0.750000000  0.450535089
     0.250000000  0.000000000  0.450535089
     0.000000000  0.000000000  0.351605267
     0.250000000  0.750000000  0.351605267
     0.999999998  0.750486788  0.651100364
     0.249403677  0.999906086  0.651133405
     0.999999997  0.999932321  0.549747566
     0.249933154  0.750096792  0.549885275
     0.000000000  0.250000000  0.450535089
     0.250000000  0.500000000  0.450535089
     0.000000000  0.500000000  0.351605267
     0.250000000  0.250000000  0.351605267
     0.000000002  0.249363374  0.651160803
     0.247373170  0.499927644  0.651129740
     0.000000005  0.499978499  0.549670801
     0.249818529  0.249801412  0.549853953
     0.500000000  0.750000000  0.450535089
     0.750000000  0.000000000  0.450535089
     0.500000000  0.000000000  0.351605267
     0.750000000  0.750000000  0.351605267
     0.499999996  0.752917707  0.651485348
     0.750596322  0.999906078  0.651133423
     0.500000000  0.999871141  0.549675125
     0.750066839  0.750096789  0.549885280
     0.500000000  0.250000000  0.450535089
     0.750000000  0.500000000  0.450535089
     0.500000000  0.500000000  0.351605267
     0.750000000  0.250000000  0.351605267
     0.500000002  0.247330485  0.650918475
     0.752626876  0.499927627  0.651129742
     0.500000005  0.500041645  0.550741581
[...]
   2.11024616  2.11024616  9.61024616
   8.44098461  2.11218123 11.73005164
   2.12091896  4.21971087 11.74366526
   0.00000015  4.21955487 13.82633468
   2.10918973  2.10798364 13.82555910
   4.22049233  6.33073849  7.50000000
   6.33073849  0.00000000  7.50000000
   4.22049233  0.00000000  9.61024616
   6.33073849  6.33073849  9.61024616
   4.22049230  6.31967343 11.74432068
   6.32851410  8.44089918 11.72996414
   4.22049228  0.00194889 13.82612576
   6.33343824  6.33104126 13.82324815
   4.22049233  2.11024616  7.50000000
   6.33073849  4.22049233  7.50000000
   4.22049233  4.22049233  9.61024616
   6.33073849  2.11024616  9.61024616
   4.22049232  2.12028034 11.74270306
   6.32006580  4.21971082 11.74366600
   4.22049261  4.20900061 13.97009364
   6.33179497  2.10798362 13.82555929
   0.00000000  6.33073849  9.61024616
   2.11024616  0.00000000  9.61024616
   0.00000000  0.00000000  7.50000000
   2.11024616  6.33073849  7.50000000
   8.44098464  6.33484746 13.88845160
   2.10521261  8.44019193 13.88915639
   8.44098463  8.44041337 11.72652157
   2.10968191  6.33155551 11.72945899
   0.00000000  2.11024616  9.61024616
   2.11024616  4.22049233  9.61024616
   0.00000000  4.22049233  7.50000000
   2.11024616  2.11024616  7.50000000
   0.00000002  2.10487242 13.88974081
   2.08807314  4.21988157 13.88907820
   0.00000005  4.22031084 11.72488410
   2.10871437  2.10856989 11.72879088
   4.22049233  6.33073849  9.61024616
   6.33073849  0.00000000  9.61024616
   4.22049233  0.00000000  7.50000000
   6.33073849  6.33073849  7.50000000
   4.22049229  6.35536681 13.89666358
   6.33577203  8.44019186 13.88915676
   4.22049233  8.43989696 11.72497634
   6.33130268  6.33155548 11.72945910
   4.22049233  2.11024616  9.61024616
   6.33073849  4.22049233  9.61024616
   4.22049233  4.22049233  7.50000000
   6.33073849  2.11024616  7.50000000
   4.22049234  2.08771283 13.88457177
   6.35291191  4.21988143 13.88907825
   4.22049237  4.22084386 11.74772465
   6.33227030  2.10856979 11.72879100

--------------------------------------- Iteration      FINAL  ---------------------------------------

--------------------OUTCAR has been truncated-------------------------

[...]

--------------------OUTCAR has been truncated-------------------------

  FORCE on cell =-STRESS in cart. coord.  units (eV):
  Direction    XX          YY          ZZ          XY          YZ          ZX
  Alpha Z   899.54725   899.54725   899.54725
  Ewald  159550.27078159547.74557************    -0.00005    -9.90923     0.00026
  Hartree169876.79133169876.95711************    -0.00000    -0.84255     0.00004
  E(xc)   -2496.66932 -2496.68264 -2504.75960    -0.00000    -0.07568     0.00000
  Local  ************************339300.67403     0.00003     6.93093    -0.00023
  n-local -2817.18169 -2817.29042 -2838.74446     0.00000    -0.27981     0.00000
  augment  1047.69500  1047.73265  1038.83148     0.00000     0.09698     0.00000
  Kinetic  7431.88231  7433.21556  7489.91119     0.00000     4.12973    -0.00006
  Fock        0.00000     0.00000     0.00000     0.00000     0.00000     0.00000
  vdW       -21.81882   -21.80893   -16.90999     0.00000     0.01133    -0.00000
  Total     -25.53322   -25.49954    -1.87443    -0.00002     0.06170     0.00001
  in kB     -26.91684   -26.88134    -1.97601    -0.00002     0.06505     0.00001

 VOLUME and BASIS-vectors are now :
  energy-cutoff  :      600.00
  volume of cell :     1519.82
      direct lattice vectors                 reciprocal lattice vectors
     8.440984654  0.000000000  0.000000000     0.118469591  0.000000000  0.000000000
     0.000000000  8.440984654  0.000000000     0.000000000  0.118469591  0.000000000
     0.000000000  0.000000000 21.330738491     0.000000000  0.000000000  0.046880702

  length of vectors
     8.440984654  8.440984654 21.330738491     0.118469591  0.118469591  0.046880702

 FORCES acting on ions:
    Electron-Ion                     Ewald-Force                    Non-Local-Force
   -.707E-04 0.806E+01 -.133E+04   0.922E-04 -.130E+02 0.131E+04   -.807E-04 0.493E+01 0.246E+02
   0.140E-03 -.699E+02 -.273E+03   -.154E-03 0.771E+02 0.274E+03   0.157E-04 -.720E+01 -.877E+00
   0.579E+02 0.279E+02 -.279E+03   -.638E+02 -.307E+02 0.282E+03   0.595E+01 0.283E+01 -.302E+01
   -.579E+02 0.279E+02 -.279E+03   0.638E+02 -.307E+02 0.282E+03   -.595E+01 0.283E+01 -.302E+01
   -.105E-05 0.440E-01 0.208E+04   -.611E-05 -.498E-01 -.207E+04   -.249E-05 0.413E-02 -.714E+01
   -.413E-01 -.204E-04 0.208E+04   0.470E-01 -.817E-04 -.207E+04   -.405E-02 0.872E-04 -.714E+01
   0.155E-04 -.413E-01 0.712E+03   -.191E-04 0.468E-01 -.713E+03   0.132E-05 -.404E-02 0.519E+00
   -.356E+00 0.356E+00 0.713E+03   0.422E+00 -.412E+00 -.713E+03   -.461E-01 0.388E-01 0.579E+00
   0.995E-05 -.276E+01 -.645E+03   -.995E-05 0.267E+01 0.645E+03   0.232E-05 0.835E-01 0.180E-01
   0.279E+01 -.236E+00 -.646E+03   -.271E+01 0.251E+00 0.646E+03   -.806E-01 -.150E-01 0.232E-01
   -.241E-04 -.950E+00 -.201E+04   0.243E-04 0.961E+00 0.200E+04   0.866E-06 -.116E-01 0.604E+01
   0.208E+02 -.199E+02 -.198E+04   -.210E+02 0.200E+02 0.198E+04   0.150E+00 -.790E-01 0.620E+01
   0.306E-05 -.442E-01 0.208E+04   -.576E-05 0.499E-01 -.207E+04   0.619E-06 -.397E-02 -.715E+01
   -.734E-01 -.305E-03 0.208E+04   0.853E-01 0.166E-03 -.207E+04   -.889E-02 0.108E-03 -.718E+01
   0.338E-04 0.327E-01 0.713E+03   -.399E-04 -.415E-01 -.713E+03   0.645E-05 0.625E-02 0.416E+00
   -.323E+00 -.365E+00 0.713E+03   0.367E+00 0.417E+00 -.713E+03   -.299E-01 -.361E-01 0.558E+00
   -.133E-04 0.275E+01 -.646E+03   0.122E-04 -.267E+01 0.646E+03   0.445E-05 -.838E-01 0.357E-01
   0.270E+01 0.233E+00 -.643E+03   -.237E+01 -.246E+00 0.644E+03   -.335E+00 0.135E-01 -.410E+00
   -.955E-04 0.107E+01 -.200E+04   0.939E-04 -.108E+01 0.199E+04   0.327E-05 0.120E-01 0.603E+01
   0.188E+02 0.193E+02 -.199E+04   -.188E+02 -.194E+02 0.198E+04   0.683E-01 0.869E-01 0.620E+01
   -.129E-05 0.761E-01 0.208E+04   0.612E-05 -.881E-01 -.207E+04   -.221E-05 0.897E-02 -.718E+01
   0.413E-01 -.201E-04 0.208E+04   -.470E-01 -.820E-04 -.207E+04   0.405E-02 0.815E-04 -.714E+01
   -.176E-04 0.741E-02 0.713E+03   0.209E-04 -.220E-01 -.713E+03   -.233E-05 0.105E-01 0.419E+00
   0.356E+00 0.356E+00 0.713E+03   -.422E+00 -.412E+00 -.713E+03   0.461E-01 0.388E-01 0.579E+00
   0.291E-05 -.248E+01 -.644E+03   0.470E-06 0.215E+01 0.645E+03   -.379E-05 0.331E+00 -.256E+00
   -.279E+01 -.236E+00 -.646E+03   0.271E+01 0.251E+00 0.646E+03   0.806E-01 -.150E-01 0.232E-01
   0.931E-05 -.264E+01 -.200E+04   -.806E-05 0.268E+01 0.199E+04   0.382E-06 -.335E-01 0.602E+01
   -.208E+02 -.199E+02 -.198E+04   0.210E+02 0.200E+02 0.198E+04   -.150E+00 -.789E-01 0.620E+01
   -.289E-06 -.765E-01 0.208E+04   0.592E-05 0.883E-01 -.207E+04   0.372E-05 -.879E-02 -.717E+01
   0.734E-01 -.304E-03 0.208E+04   -.853E-01 0.166E-03 -.207E+04   0.889E-02 0.103E-03 -.718E+01
   -.344E-04 -.138E-01 0.711E+03   0.418E-04 0.246E-01 -.711E+03   -.422E-05 -.806E-02 0.653E+00
   0.323E+00 -.365E+00 0.713E+03   -.367E+00 0.417E+00 -.713E+03   0.299E-01 -.361E-01 0.558E+00
   -.731E-05 0.267E+01 -.643E+03   0.892E-05 -.235E+01 0.643E+03   -.272E-05 -.326E+00 -.475E+00
   -.270E+01 0.233E+00 -.643E+03   0.237E+01 -.246E+00 0.644E+03   0.335E+00 0.135E-01 -.410E+00
   0.145E-03 0.593E+01 -.192E+04   -.136E-03 -.624E+01 0.192E+04   -.101E-04 0.305E+00 0.103E+01
   -.188E+02 0.193E+02 -.199E+04   0.188E+02 -.194E+02 0.198E+04   -.683E-01 0.869E-01 0.620E+01
   0.134E-04 -.384E-01 0.535E+03   -.183E-04 0.181E-01 -.534E+03   0.313E-06 0.295E-01 -.200E-01
   0.426E-01 0.543E-02 0.534E+03   -.203E-01 -.149E-02 -.534E+03   -.321E-01 -.573E-02 -.321E-01
   0.680E-05 -.243E-02 0.156E+04   -.374E-05 0.350E-02 -.157E+04   -.216E-05 -.150E-02 0.342E+01
   -.494E-01 0.495E-01 0.156E+04   0.596E-01 -.585E-01 -.157E+04   -.143E-01 0.126E-01 0.341E+01
   -.409E-04 -.750E+01 -.153E+04   0.386E-04 0.736E+01 0.153E+04   0.870E-07 0.148E+00 -.495E+01
   0.757E+01 -.130E+01 -.153E+04   -.742E+01 0.129E+01 0.154E+04   -.160E+00 0.166E-01 -.495E+01
   0.124E-05 -.244E+00 -.481E+03   -.116E-05 0.249E+00 0.481E+03   0.129E-06 -.479E-02 0.320E+00
   0.186E+01 -.186E+01 -.475E+03   -.185E+01 0.184E+01 0.474E+03   -.103E-01 0.235E-01 0.556E+00
   0.826E-05 0.311E-01 0.534E+03   -.140E-04 -.656E-02 -.534E+03   -.232E-06 -.351E-01 -.392E-01
   -.106E+00 -.136E-01 0.533E+03   0.586E-01 0.150E-01 -.533E+03   0.607E-01 -.125E-02 -.186E+00
   0.506E-05 0.256E-02 0.156E+04   -.566E-05 -.352E-02 -.157E+04   0.115E-05 0.133E-02 0.341E+01
   -.448E-01 -.493E-01 0.156E+04   0.529E-01 0.585E-01 -.157E+04   -.112E-01 -.128E-01 0.341E+01
   -.432E-04 0.741E+01 -.153E+04   0.380E-04 -.726E+01 0.154E+04   0.350E-05 -.148E+00 -.494E+01
   0.255E+02 0.180E+01 -.149E+04   -.248E+02 -.179E+01 0.150E+04   -.717E+00 -.109E-01 -.485E+01
   -.714E-05 0.247E+00 -.475E+03   0.521E-05 -.251E+00 0.474E+03   0.150E-05 0.458E-02 0.404E+00
   0.194E+01 0.186E+01 -.476E+03   -.191E+01 -.184E+01 0.475E+03   -.300E-01 -.244E-01 0.495E+00
   -.103E-04 0.113E+00 0.533E+03   0.180E-04 -.639E-01 -.533E+03   -.148E-05 -.632E-01 -.195E+00
   -.426E-01 0.543E-02 0.534E+03   0.203E-01 -.150E-02 -.534E+03   0.321E-01 -.573E-02 -.321E-01
   -.552E-05 0.225E-02 0.156E+04   0.379E-05 -.332E-02 -.157E+04   0.565E-06 0.151E-02 0.341E+01
   0.494E-01 0.495E-01 0.156E+04   -.596E-01 -.585E-01 -.157E+04   0.143E-01 0.126E-01 0.341E+01
   0.275E-04 -.259E+02 -.149E+04   -.254E-04 0.250E+02 0.150E+04   -.308E-05 0.860E+00 -.469E+01
   -.757E+01 -.130E+01 -.153E+04   0.742E+01 0.129E+01 0.154E+04   0.160E+00 0.166E-01 -.495E+01
   -.719E-05 -.103E+00 -.474E+03   0.107E-04 0.109E+00 0.474E+03   -.558E-06 -.610E-02 0.409E+00
   -.186E+01 -.186E+01 -.475E+03   0.185E+01 0.184E+01 0.474E+03   0.103E-01 0.235E-01 0.556E+00
   -.142E-04 -.124E+00 0.533E+03   0.174E-04 0.798E-01 -.533E+03   -.329E-06 0.566E-01 -.171E+00
   0.106E+00 -.136E-01 0.533E+03   -.586E-01 0.150E-01 -.533E+03   -.607E-01 -.125E-02 -.186E+00
   -.690E-05 -.202E-02 0.156E+04   0.574E-05 0.323E-02 -.157E+04   -.804E-06 -.170E-02 0.339E+01
   0.448E-01 -.493E-01 0.156E+04   -.529E-01 0.585E-01 -.157E+04   0.112E-01 -.128E-01 0.341E+01
   0.425E-04 0.249E+02 -.150E+04   -.407E-04 -.243E+02 0.150E+04   0.393E-06 -.608E+00 -.491E+01
   -.255E+02 0.180E+01 -.149E+04   0.248E+02 -.179E+01 0.150E+04   0.717E+00 -.109E-01 -.485E+01
   0.205E-05 -.517E-01 -.489E+03   -.150E-05 0.439E-01 0.490E+03   -.730E-06 0.822E-02 -.114E+01
   -.194E+01 0.186E+01 -.476E+03   0.191E+01 -.184E+01 0.475E+03   0.300E-01 -.244E-01 0.495E+00
   0.931E-04 -.393E+01 0.347E+01   0.185E-12 -.163E-12 0.182E-11   -.942E-04 0.393E+01 -.346E+01

 POSITION                                       TOTAL-FORCE (eV/Angst)
      4.22049      4.35146     16.21984        -0.000059      0.000691     -0.004490
      4.22049      5.36059     16.38069         0.000003      0.004637      0.002105
      3.39386      3.96214     16.67352        -0.004942     -0.000035      0.004004
      5.04713      3.96214     16.67352         0.004995     -0.000057      0.004030
      0.00000      6.33074      7.50000        -0.000010     -0.001625      0.334893
      2.11025      0.00000      7.50000         0.001631      0.000017      0.335764
      0.00000      0.00000      9.61025        -0.000002      0.001449      0.057069
      2.11025      6.33074      9.61025         0.018958     -0.016673      0.070238
      0.00000      6.32807     11.72963         0.000002     -0.001175     -0.002314
      2.11247      8.44090     11.72996         0.001065      0.000371     -0.002561
      0.00000      8.44060     13.83033         0.000001      0.000145      0.008282
      2.10755      6.33104     13.82325         0.003579     -0.003339      0.000568
      0.00000      2.11025      7.50000        -0.000002      0.001637      0.336430
      2.11025      4.22049      7.50000         0.002891     -0.000004      0.342096
      0.00000      4.22049      9.61025         0.000000     -0.002485      0.092151
      2.11025      2.11025      9.61025         0.013246      0.015347      0.070258
      8.44098      2.11218     11.73005         0.000003      0.000941     -0.003016
      2.12092      4.21971     11.74367        -0.001437      0.000036     -0.000045
      0.00000      4.21955     13.82633         0.000002      0.000267      0.001614
      2.10919      2.10798     13.82556         0.003824      0.003699      0.000127
      4.22049      6.33074      7.50000         0.000003     -0.002883      0.342633
      6.33074      0.00000      7.50000        -0.001630      0.000011      0.335750
      4.22049      0.00000      9.61025         0.000001     -0.003998      0.091878
      6.33074      6.33074      9.61025        -0.018958     -0.016676      0.070230
      4.22049      6.31967     11.74432        -0.000000      0.001519      0.000061
      6.32851      8.44090     11.72996        -0.001069      0.000369     -0.002560
      4.22049      0.00195     13.82613         0.000002      0.000697      0.001699
      6.33344      6.33104     13.82325        -0.003580     -0.003325      0.000559
      4.22049      2.11025      7.50000         0.000009      0.002899      0.341334
      6.33074      4.22049      7.50000        -0.002893     -0.000009      0.342085
      4.22049      4.22049      9.61025         0.000003      0.002719      0.114547
      6.33074      2.11025      9.61025        -0.013246      0.015345      0.070251
      4.22049      2.12028     11.74270        -0.000001     -0.001459     -0.000070
      6.32007      4.21971     11.74367         0.001437      0.000034     -0.000043
      4.22049      4.20900     13.97009        -0.000001      0.000789      0.004467
      6.33179      2.10798     13.82556        -0.003819      0.003700      0.000132
      0.00000      6.33074      9.61025        -0.000005      0.009457      0.076564
      2.11025      0.00000      9.61025        -0.010010     -0.001759      0.074385
      0.00000      0.00000      7.50000         0.000001     -0.000404     -0.497305
      2.11025      6.33074      7.50000        -0.004096      0.003635     -0.500758
      8.44098      6.33485     13.88845        -0.000002      0.001045     -0.001614
      2.10521      8.44019     13.88916        -0.001068      0.000627     -0.001829
      8.44098      8.44041     11.72652         0.000000     -0.000135      0.004481
      2.10968      6.33156     11.72946        -0.000315      0.000356     -0.000988
      0.00000      2.11025      9.61025        -0.000006     -0.010784      0.072611
      2.11025      4.22049      9.61025         0.013232      0.000048      0.096612
      0.00000      4.22049      7.50000         0.000001      0.000396     -0.501359
      2.11025      2.11025      7.50000        -0.003209     -0.003657     -0.500866
      0.00000      2.10487     13.88974        -0.000002     -0.000539     -0.001749
      2.08807      4.21988     13.88908        -0.002966      0.000165     -0.006080
      0.00000      4.22031     11.72488        -0.000000      0.000262      0.002731
      2.10871      2.10857     11.72879        -0.000358     -0.000225     -0.000831
      4.22049      6.33074      9.61025         0.000006     -0.013806      0.096553
      6.33074      0.00000      9.61025         0.010010     -0.001760      0.074388
      4.22049      0.00000      7.50000        -0.000001      0.000464     -0.501299
      6.33074      6.33074      7.50000         0.004099      0.003633     -0.500756
      4.22049      6.35537     13.89666        -0.000001      0.002986     -0.006430
      6.33577      8.44019     13.88916         0.001067      0.000624     -0.001834
      4.22049      8.43990     11.72498         0.000003      0.000091      0.002577
      6.33130      6.33156     11.72946         0.000317      0.000355     -0.000987
      4.22049      2.11025      9.61025         0.000003      0.012331      0.096752
      6.33074      4.22049      9.61025        -0.013233      0.000048      0.096616
      4.22049      4.22049      7.50000        -0.000002     -0.000477     -0.507613
      6.33074      2.11025      7.50000         0.003206     -0.003660     -0.500864
      4.22049      2.08771     13.88457         0.000002     -0.003259     -0.006144
      6.35291      4.21988     13.88908         0.002963      0.000165     -0.006080
      4.22049      4.22084     11.74772        -0.000000      0.000430     -0.008209
      6.33227      2.10857     11.72879         0.000357     -0.000227     -0.000830
    total drift:                               -0.000001     -0.001723      0.016686

  FREE ENERGIE OF THE ION-ELECTRON SYSTEM (eV)
  free  energy   TOTEN  =      -391.42183637 eV

  energy  without entropy=     -391.42183637  energy(sigma->0) =     -391.42183637