 vasp.6.3.0 20Jan22 (build Aug 21 2024 11:13:42) complex
 executed on        HPECrayEX_GCC date 2024.11.26  18:32:41

 INCAR:
   SYSTEM = TiO2
   ISMEAR = 0
   SIGMA = 0.05
   EDIFF = 1E-4
   ALGO = ALL
   ISTART = 0
   IBRION = -1
   NSW = 0
   ISYM = 0
   ISIF = 2
   EDIFFG = -0.01
   DIPOL = 0.5 0.5 0.5
   IDIPOL = 3
   LDIPOL = .TRUE.
   GGA = RE
   IVDW = 13
   VDW_S8 = 1.7468
   VDW_A1 = 0.5363
   VDW_A2 = 3.0726
   ENCUT = 600
   PREC = Accurate
   LASPH = .TRUE.
   LREAL = .FALSE.
   ISPIN = 1
   NELM = 200
   NELMIN = 8
   NCORE = 16
   KPAR = 1
   LWAVE = .FALSE.
   LCHARG = .FALSE.

 POTCAR:    PAW_PBE C 08Apr2002
 POTCAR:    PAW_PBE O 08Apr2002
 POTCAR:    PAW_PBE Ti_pv 07Sep2000
 POTCAR:    PAW_PBE O 08Apr2002
 POTCAR:    PAW_PBE C 08Apr2002
   VRHFIN =C: s2p2

   TITEL  = PAW_PBE C 08Apr2002
   POMASS =   12.011; ZVAL   =    4.000    mass and valenz
   ENMAX  =  400.000; ENMIN  =  300.000 eV

[...]

   TITEL  = PAW_PBE Ti_pv 07Sep2000
   POMASS =   47.880; ZVAL   =   10.000    mass and valenz
   ENMAX  =  222.335; ENMIN  =  166.751 eV

   TITEL  = PAW_PBE O 08Apr2002
   POMASS =   16.000; ZVAL   =    6.000    mass and valenz
   ENMAX  =  400.000; ENMIN  =  300.000 eV

  PAW_PBE C 08Apr2002                   :
  PAW_PBE O 08Apr2002                   :
  PAW_PBE Ti_pv 07Sep2000               :
  PAW_PBE O 08Apr2002                   :

 POSCAR:  C  O Ti  O
  positions in direct lattice
|           W    W    AA    RRRRR   N    N  II  N    N   GGGG   !!!           |
|           W    W   A  A   R    R  NN   N  II  NN   N  G    G  !!!           |
|           W    W  A    A  R    R  N N  N  II  N N  N  G       !!!           |
|           W WW W  AAAAAA  RRRRR   N  N N  II  N  N N  G  GGG   !            |
|           WW  WW  A    A  R   R   N   NN  II  N   NN  G    G                |
|           W    W  A    A  R    R  N    N  II  N    N   GGGG   !!!           |
|     Specifying the vdW parameters                                           |
|     VDW_S8 = 1.747                                                          |
|     VDW_A1 = 0.536                                                          |
|     VDW_A2 = 3.073                                                          |
|     in the INCAR file will overwrite the defaults for revpbe. Please        |
|     make sure that is what you intended.                                    |

 ion  position               nearest neighbor table
   1  0.500  0.600  0.803-   2 1.17   3 1.18
   2  0.500  0.695  0.813-   1 1.17
   3  0.500  0.505  0.792-   1 1.18  83 2.51
   4  0.750  0.625  0.287-  84 1.96  85 1.96 144 1.96 145 1.96  87 1.99 166 1.99  14 2.96  34 2.96

   5  0.000  0.750  0.287-  86 1.96  87 1.96 106 1.96 107 1.96  88 1.99  35 2.96  15 2.96
   6  0.000  0.625  0.393-  88 1.96  89 1.96 148 1.96 149 1.96  90 1.99  91 1.99  16 2.96  36 2.96

[...]

  84  0.750  0.750  0.245-   4 1.96  14 1.96
  85  0.750  0.750  0.328-   4 1.96  14 1.96   7 1.99
  86  0.098  0.625  0.287-   5 1.96  35 1.96  44 1.99
  87  0.902  0.625  0.287-   5 1.96  35 1.96   4 1.99
  88  0.000  0.750  0.352-   6 1.96  16 1.96   5 1.99
  89  0.000  0.750  0.435-   6 1.96  16 1.96   9 1.99
  90  0.848  0.625  0.393-   7 1.96  37 1.96   6 1.99
  91  0.152  0.625  0.393-  47 1.96  77 1.96   6 1.99
  92  0.750  0.750  0.458-   8 1.96  18 1.96   7 1.99
  93  0.750  0.750  0.542-   8 1.96  18 1.96  11 2.11
  94  0.098  0.625  0.500-   9 1.96  39 1.96  48 1.99
  95  0.902  0.625  0.500-   9 1.96  39 1.96   8 1.99
  96  0.000  0.750  0.565-  10 1.90  20 1.90   9 2.01
  97  0.000  0.750  0.649-  13 1.82  20 2.02  10 2.02
  98  0.850  0.625  0.607-  10 1.96  11 1.98  41 1.98
  99  0.150  0.625  0.607-  10 1.96  51 1.98  81 1.98
 100  0.750  0.750  0.672-  11 1.87  12 2.09  22 2.10
 101  0.750  0.750  0.756-  12 1.83  22 1.83
 102  0.094  0.625  0.719-  43 1.95  13 1.95  52 2.04
 103  0.906  0.625  0.719-  43 1.95  13 1.95  12 2.04
 104  0.750  0.000  0.245-  14 1.96  24 1.96
 105  0.750  0.000  0.328-  14 1.96  24 1.96  17 1.99
 106  0.098  0.875  0.287-   5 1.96  15 1.96  54 1.99
 107  0.902  0.875  0.287-   5 1.96  15 1.96  14 1.99
 108  0.000  0.000  0.352-  16 1.96  26 1.96  15 1.99
 109  0.000  0.000  0.435-  16 1.96  26 1.96  19 1.99
 110  0.848  0.875  0.393-   7 1.96  17 1.96  16 1.99
 111  0.152  0.875  0.393-  47 1.96  57 1.96  16 1.99
 112  0.750  0.000  0.458-  18 1.96  28 1.96  17 1.99
 113  0.750  0.000  0.542-  18 1.96  28 1.96  21 2.11
 114  0.098  0.875  0.500-   9 1.96  19 1.96  58 1.99
 115  0.902  0.875  0.500-   9 1.96  19 1.96  18 1.99
 116  0.000  0.000  0.566-  30 1.90  20 1.90  19 2.01
 117  0.000  0.000  0.649-  23 1.82  30 2.02  20 2.02
 118  0.850  0.875  0.607-  20 1.96  11 1.98  21 1.98
 119  0.150  0.875  0.607-  20 1.96  51 1.98  61 1.98
 120  0.750  0.000  0.672-  21 1.87  22 2.10  32 2.10
 121  0.750  0.000  0.756-  22 1.83  32 1.83
 122  0.094  0.875  0.719-  13 1.95  23 1.95  62 2.04
 123  0.906  0.875  0.719-  13 1.95  23 1.95  22 2.04
 124  0.750  0.250  0.245-  24 1.96  34 1.96
 125  0.750  0.250  0.328-  24 1.96  34 1.96  27 1.99
 126  0.098  0.125  0.287-  15 1.96  25 1.96  64 1.99
 127  0.902  0.125  0.287-  15 1.96  25 1.96  24 1.99
 128  0.000  0.250  0.352-  26 1.96  36 1.96  25 1.99
 129  0.000  0.250  0.435-  26 1.96  36 1.96  29 1.99
 130  0.848  0.125  0.393-  17 1.96  27 1.96  26 1.99
 131  0.152  0.125  0.393-  57 1.96  67 1.96  26 1.99
 132  0.750  0.250  0.458-  28 1.96  38 1.96  27 1.99
 133  0.750  0.250  0.542-  28 1.96  38 1.96  31 2.11
 134  0.098  0.125  0.500-  19 1.96  29 1.96  68 1.99
 135  0.902  0.125  0.500-  19 1.96  29 1.96  28 1.99
 136  0.000  0.250  0.566-  40 1.90  30 1.90  29 2.01
 137  0.000  0.250  0.649-  33 1.82  40 2.02  30 2.02
 138  0.850  0.125  0.607-  30 1.96  31 1.98  21 1.98
 139  0.150  0.125  0.607-  30 1.96  71 1.98  61 1.98
 140  0.751  0.250  0.672-  31 1.87  32 2.10  42 2.10
 141  0.750  0.250  0.756-  42 1.83  32 1.83
 142  0.094  0.125  0.719-  33 1.95  23 1.95  72 2.04
 143  0.906  0.125  0.719-  33 1.95  23 1.95  32 2.04
[...]
 229  0.500  0.500  0.435-  46 1.96  76 1.96  79 1.99
 230  0.348  0.375  0.393-  67 1.96  77 1.96  76 1.99
 231  0.652  0.375  0.393-  27 1.96  37 1.96  76 1.99
 232  0.250  0.500  0.458-  48 1.96  78 1.96  77 1.99
 233  0.250  0.500  0.542-  48 1.96  78 1.96  81 2.11
 234  0.598  0.375  0.500-  69 1.96  79 1.96  38 1.99
 235  0.402  0.375  0.500-  69 1.96  79 1.96  78 1.99
 236  0.500  0.500  0.566-  80 1.90  50 1.90  79 2.01
 237  0.500  0.500  0.650-  83 1.84  50 2.01  80 2.02
 238  0.350  0.375  0.607-  80 1.96  81 1.98  71 1.98
 239  0.650  0.375  0.607-  80 1.96  41 1.98  31 1.98
 240  0.249  0.500  0.672-  81 1.87  52 2.10  82 2.10
 241  0.251  0.500  0.756-  82 1.83  52 1.84
 242  0.594  0.374  0.718-  83 1.94  73 1.94  42 2.04
 243  0.406  0.374  0.718-  83 1.94  73 1.94  82 2.04

IMPORTANT INFORMATION: All symmetrisations will be switched off!
NOSYMM: (Re-)initialisation of all symmetry stuff for point group C_1.

                                     Primitive cell

  volume of cell :    4737.1735

  direct lattice vectors                    reciprocal lattice vectors
    13.061198858  0.000000000  0.000000000     0.076562650  0.000000000  0.000000000
     0.000000000 11.845266045  0.000000000     0.000000000  0.084421911  0.000000000
     0.000000000  0.000000000 30.619030317     0.000000000  0.000000000  0.032659427

  length of vectors
    13.061198858 11.845266045 30.619030317     0.076562650  0.084421911  0.032659427

  position of ions in fractional coordinates (direct lattice)
     0.500000115  0.600173219  0.803049674
     0.500000158  0.695155140  0.813458682
     0.500000070  0.504745996  0.791773091
     0.750000000  0.625000000  0.286714362
     0.000000000  0.750000000  0.286714362
     0.000000000  0.625000000  0.393357181
     0.750000000  0.750000000  0.393357181
     0.750000000  0.625000000  0.500000000
     0.000000000  0.750000000  0.500000000
     0.999997730  0.625102972  0.604468159
     0.750015518  0.750119532  0.610643162
     0.750108957  0.625440450  0.720121382
     0.000000209  0.750277880  0.708629007
     0.750000000  0.875000000  0.286714362
     0.000000000  0.000000000  0.286714362
     0.000000000  0.875000000  0.393357181
     0.750000000  0.000000000  0.393357181
     0.750000000  0.875000000  0.500000000
     0.000000000  0.000000000  0.500000000
     0.999997440  0.875086590  0.604494786
     0.749976650  0.000080314  0.610743708
     0.749836633  0.875296726  0.720451037
     0.000000207  0.000134966  0.708642658
     0.750000000  0.125000000  0.286714362
     0.000000000  0.250000000  0.286714362
     0.000000000  0.125000000  0.393357181
     0.750000000  0.250000000  0.393357181
     0.750000000  0.125000000  0.500000000
     0.000000000  0.250000000  0.500000000
     0.999995905  0.125051855  0.604486335
     0.750035004  0.250036805  0.610726506
     0.749933453  0.125247892  0.720420831
     0.000000236  0.250067911  0.708633681
     0.750000000  0.375000000  0.286714362
     0.000000000  0.500000000  0.286714362
     0.000000000  0.375000000  0.393357181
     0.750000000  0.500000000  0.393357181
     0.750000000  0.375000000  0.500000000
     0.000000000  0.500000000  0.500000000
     0.999996240  0.375071083  0.604473967
     0.750045879  0.500064619  0.610675810
     0.750232335  0.375280991  0.720349871
     0.000000198  0.500243396  0.708611342
     0.250000000  0.625000000  0.286714362
     0.500000000  0.750000000  0.286714362
     0.500000000  0.625000000  0.393357181
     0.250000000  0.750000000  0.393357181
     0.250000000  0.625000000  0.500000000
     0.500000000  0.750000000  0.500000000
     0.499997755  0.624439602  0.604881231
     0.249981621  0.750119523  0.610643167
     0.249891515  0.625440404  0.720121377
     0.500000182  0.750706584  0.708221189
     0.250000000  0.875000000  0.286714362
     0.500000000  0.000000000  0.286714362
     0.500000000  0.875000000  0.393357181
     0.250000000  0.000000000  0.393357181
     0.250000000  0.875000000  0.500000000
     0.500000000  0.000000000  0.500000000
     0.499997387  0.874799944  0.604158311
[...]
     0.500000000  0.500000000  0.435125836
     0.347917178  0.375000000  0.393357181
     0.652082822  0.375000000  0.393357181
     0.250000000  0.500000000  0.458231344
     0.250000000  0.500000000  0.541768656
     0.597917178  0.375000000  0.500000000
     0.402082822  0.375000000  0.500000000
     0.500000378  0.499990303  0.565621002
     0.500000292  0.500195881  0.649701480
     0.349949746  0.375058632  0.607370072
     0.650051167  0.375058746  0.607370203
     0.249415510  0.500215657  0.671781451
     0.251466405  0.500443531  0.755629632
     0.594375237  0.374044394  0.718034137
     0.405625163  0.374044406  0.718034116

  ion indices of the primitive-cell ions
   primitive index   ion index
                 1           1
                 2           2
                 3           3
                 4           4
                 5           5
                 6           6
                 7           7
                 8           8
                 9           9
                10          10
[...]
   6.53059943  0.00000000  8.77891573
   6.53059943 10.36460779 12.04421544
   3.26529971  0.00000000 12.04421544
   3.26529971 10.36460779 15.30951516
   6.53059943  0.00000000 15.30951516
   6.53056530 10.36223807 18.49874165
[...]
   6.53059943  5.92263302 13.32313117
   4.54421544  4.44197477 12.04421544
   8.51698341  4.44197477 12.04421544
   3.26529971  5.92263302 14.03059943
   3.26529971  5.92263302 16.58843089
   7.80951516  4.44197477 15.30951516
   5.25168370  4.44197477 15.30951516
   6.53060437  5.92251815 17.31876661
   6.53060325  5.92495329 19.89322931
   4.57076322  4.44266928 18.59708265
   8.49044756  4.44267063 18.59708665
   3.25766557  5.92518753 20.56929660
   3.28445273  5.92788676 23.13664660
   7.76325317  4.43065536 21.98550902
   5.29795092  4.43065550 21.98550836

--------------------------------------- Iteration      FINAL  ---------------------------------------

--------------------OUTCAR has been truncated-------------------------

[...]

--------------------OUTCAR has been truncated-------------------------

  FORCE on cell =-STRESS in cart. coord.  units (eV):
  Direction    XX          YY          ZZ          XY          YZ          ZX
  Alpha Z  4685.01752  4685.01752  4685.01752
  Ewald  964279.33758982626.82048************     0.00041   213.23815     0.00402
  Hartree************************************     0.00005    99.72826     0.00263
  E(xc)   -8688.44687 -8658.36952 -8701.94765    -0.00000     0.69966     0.00001
  Local  ************************************    -0.00052  -293.28707    -0.00657
  n-local -5393.07543 -5320.92842 -5437.02535    -0.00002    -1.62443     0.00016
  augment  5229.43290  5214.07290  5231.40393    -0.00003    -0.75289    -0.00001
  Kinetic 28960.43958 28431.42695 29001.63734     0.00037   -17.96320    -0.00035
  Fock        0.00000     0.00000     0.00000     0.00000     0.00000     0.00000
  vdW      -129.28594  -128.46217  -116.35969    -0.00000    -0.01423    -0.00001
  Total     -19.48127   -56.26090   -58.07705     0.00027     0.02424    -0.00011
  in kB      -6.58883   -19.02821   -19.64246     0.00009     0.00820    -0.00004

 VOLUME and BASIS-vectors are now :
  energy-cutoff  :      600.00
  volume of cell :     4737.17
      direct lattice vectors                 reciprocal lattice vectors
    13.061198858  0.000000000  0.000000000     0.076562650  0.000000000  0.000000000
     0.000000000 11.845266045  0.000000000     0.000000000  0.084421911  0.000000000
     0.000000000  0.000000000 30.619030317     0.000000000  0.000000000  0.032659427

  length of vectors
    13.061198858 11.845266045 30.619030317     0.076562650  0.084421911  0.032659427

 FORCES acting on ions:
    Electron-Ion                     Ewald-Force                    Non-Local-Force
   -.192E-04 0.630E+01 -.159E+04   0.287E-04 -.636E+01 0.159E+04   0.298E-05 -.488E-01 0.517E-01
   -.160E-03 -.266E+03 -.234E+04   0.189E-03 0.329E+03 0.236E+04   -.451E-04 -.621E+02 -.184E+02
   0.994E-04 0.262E+03 -.242E+04   -.120E-03 -.322E+03 0.240E+04   0.160E-04 0.599E+02 0.139E+02
   -.247E+00 -.136E-02 0.376E+04   0.246E+00 0.149E-02 -.377E+04   0.201E-03 0.275E-05 0.439E+00
   0.375E-05 -.632E-01 0.394E+04   -.473E-06 0.633E-01 -.394E+04   -.170E-04 0.662E-05 -.402E+01
   -.896E-05 -.778E-02 0.193E+04   0.794E-05 0.787E-02 -.193E+04   -.109E-06 0.407E-04 -.469E-01
   -.482E+00 -.112E+00 0.192E+04   0.480E+00 0.113E+00 -.192E+04   0.479E-03 -.181E-04 0.211E+00
   -.210E+01 0.145E-01 0.187E+02   0.209E+01 -.169E-01 -.180E+02   0.244E-02 0.302E-03 -.127E+00
   -.205E-03 -.642E+00 0.274E+02   0.219E-03 0.647E+00 -.285E+02   -.170E-04 -.208E-02 0.346E+00
   -.908E-02 -.613E+00 -.183E+04   0.903E-02 0.612E+00 0.183E+04   0.180E-04 -.987E-04 0.422E-01
   -.123E+02 -.583E+01 -.189E+04   0.123E+02 0.583E+01 0.189E+04   -.566E-02 -.161E-02 -.129E+00
   -.839E+02 -.731E+01 -.367E+04   0.839E+02 0.730E+01 0.367E+04   0.133E-01 0.114E-02 -.167E+00
   0.867E-04 -.767E+01 -.374E+04   -.493E-04 0.768E+01 0.374E+04   0.104E-04 -.207E-02 0.109E+01
   -.244E+00 -.911E-01 0.377E+04   0.243E+00 0.916E-01 -.377E+04   0.227E-03 -.145E-04 0.439E+00
   0.301E-04 -.580E-01 0.394E+04   -.441E-06 0.581E-01 -.394E+04   0.725E-05 -.657E-05 -.402E+01
   -.182E-05 -.172E+00 0.193E+04   0.803E-05 0.173E+00 -.193E+04   -.498E-05 0.177E-04 -.470E-01
   -.488E+00 -.132E+00 0.192E+04   0.486E+00 0.132E+00 -.192E+04   0.567E-03 0.319E-04 0.210E+00
   -.228E+01 -.101E+01 0.176E+02   0.228E+01 0.102E+01 -.168E+02   0.138E-02 -.113E-02 -.128E+00
   -.309E-03 -.486E+00 0.262E+02   0.350E-03 0.489E+00 -.273E+02   -.131E-04 -.110E-02 0.345E+00
   -.970E-02 -.357E+01 -.184E+04   0.965E-02 0.357E+01 0.184E+04   0.184E-04 0.187E-03 0.443E-01
   -.874E+01 -.345E+01 -.190E+04   0.874E+01 0.346E+01 0.190E+04   0.479E-02 -.358E-03 -.123E+00
   -.422E+02 -.297E+02 -.371E+04   0.422E+02 0.297E+02 0.371E+04   0.215E-01 -.454E-03 -.194E+00
   0.106E-03 -.553E+01 -.375E+04   -.767E-04 0.553E+01 0.375E+04   -.102E-04 0.443E-03 0.109E+01
   -.237E+00 0.127E-02 0.377E+04   0.236E+00 -.148E-02 -.377E+04   0.249E-03 0.257E-04 0.439E+00
   -.160E-04 0.631E-01 0.394E+04   -.322E-06 -.633E-01 -.394E+04   -.963E-05 0.257E-04 -.402E+01
   0.644E-04 0.819E-02 0.193E+04   0.117E-04 -.830E-02 -.193E+04   0.530E-05 0.184E-04 -.471E-01
   -.453E+00 0.112E+00 0.192E+04   0.451E+00 -.113E+00 -.192E+04   0.480E-03 0.621E-05 0.210E+00
   -.207E+01 -.911E-02 0.166E+02   0.206E+01 0.646E-02 -.158E+02   0.142E-02 0.165E-03 -.130E+00
   -.408E-03 0.705E+00 0.264E+02   0.457E-03 -.708E+00 -.275E+02   -.107E-04 -.330E-03 0.346E+00
   -.137E-01 0.495E+00 -.184E+04   0.136E-01 -.496E+00 0.184E+04   0.299E-04 0.198E-02 0.462E-01
   -.928E+01 0.551E+01 -.189E+04   0.928E+01 -.551E+01 0.189E+04   -.508E-02 0.318E-02 -.127E+00
   -.241E+02 0.571E+01 -.372E+04   0.241E+02 -.571E+01 0.372E+04   0.118E-01 -.179E-02 -.191E+00
   0.762E-04 0.654E+01 -.375E+04   -.685E-04 -.654E+01 0.375E+04   -.603E-05 0.459E-02 0.108E+01
   -.240E+00 0.913E-01 0.376E+04   0.239E+00 -.916E-01 -.377E+04   0.205E-03 0.178E-04 0.439E+00
   0.172E-04 0.581E-01 0.394E+04   -.355E-06 -.581E-01 -.394E+04   0.352E-04 0.233E-04 -.402E+01
   0.141E-04 0.172E+00 0.193E+04   0.118E-04 -.172E+00 -.193E+04   -.138E-05 0.631E-04 -.470E-01
   -.449E+00 0.132E+00 0.192E+04   0.447E+00 -.133E+00 -.192E+04   0.335E-03 -.625E-04 0.211E+00
   -.189E+01 0.997E+00 0.177E+02   0.187E+01 -.101E+01 -.169E+02   0.207E-02 0.104E-02 -.128E+00
   -.280E-03 0.571E+00 0.276E+02   0.317E-03 -.572E+00 -.286E+02   -.191E-04 -.748E-03 0.346E+00
   -.129E-01 0.345E+01 -.184E+04   0.129E-01 -.346E+01 0.184E+04   0.253E-04 0.149E-02 0.432E-01
   -.134E+02 0.380E+01 -.188E+04   0.134E+02 -.380E+01 0.188E+04   -.460E-02 -.509E-04 -.136E+00
   -.580E+02 0.330E+02 -.370E+04   0.580E+02 -.330E+02 0.370E+04   0.108E-01 0.830E-02 -.181E+00
   -.554E-04 0.600E+01 -.374E+04   0.588E-04 -.601E+01 0.374E+04   -.188E-04 0.445E-02 0.108E+01
   0.247E+00 -.143E-02 0.376E+04   -.246E+00 0.149E-02 -.377E+04   -.217E-03 0.239E-05 0.439E+00
   -.113E-04 -.676E-01 0.394E+04   0.165E-05 0.680E-01 -.394E+04   0.108E-05 -.546E-04 -.402E+01
   -.245E-04 0.502E-01 0.193E+04   0.183E-04 -.451E-01 -.193E+04   -.580E-05 -.109E-02 -.473E-01
   0.482E+00 -.112E+00 0.192E+04   -.480E+00 0.113E+00 -.192E+04   -.488E-03 -.862E-05 0.211E+00
   0.210E+01 0.145E-01 0.187E+02   -.209E+01 -.169E-01 -.180E+02   -.246E-02 0.307E-03 -.127E+00
   -.259E-03 -.420E+00 0.321E+02   0.297E-03 0.399E+00 -.331E+02   -.475E-05 0.127E-01 0.325E+00
   -.873E-02 -.258E+01 -.181E+04   0.870E-02 0.263E+01 0.181E+04   0.226E-04 -.377E-01 0.441E-01
   0.123E+02 -.583E+01 -.189E+04   -.123E+02 0.583E+01 0.189E+04   0.574E-02 -.160E-02 -.129E+00
   0.839E+02 -.731E+01 -.367E+04   -.839E+02 0.730E+01 0.367E+04   -.133E-01 0.112E-02 -.167E+00
   -.307E-03 -.727E+02 -.361E+04   0.305E-03 0.727E+02 0.361E+04   0.215E-05 -.137E-02 0.115E+01
   0.244E+00 -.911E-01 0.377E+04   -.243E+00 0.916E-01 -.377E+04   -.231E-03 -.411E-04 0.439E+00
   -.569E-07 -.693E-01 0.394E+04   0.178E-05 0.693E-01 -.394E+04   -.912E-05 0.216E-05 -.402E+01
   0.111E-05 -.159E+00 0.193E+04   0.200E-04 0.162E+00 -.193E+04   0.268E-05 -.735E-03 -.476E-01
   0.488E+00 -.132E+00 0.192E+04   -.486E+00 0.132E+00 -.192E+04   -.564E-03 0.218E-04 0.210E+00
   0.228E+01 -.101E+01 0.176E+02   -.228E+01 0.102E+01 -.168E+02   -.140E-02 -.114E-02 -.128E+00
   -.413E-03 -.837E+00 0.318E+02   0.422E-03 0.839E+00 -.329E+02   -.193E-04 -.107E-02 0.326E+00
   -.955E-02 -.107E+02 -.181E+04   0.951E-02 0.107E+02 0.181E+04   0.231E-04 -.544E-02 -.859E-02
[...]
   -.542E+02 0.101E+00 0.116E+04   0.583E+02 -.102E+00 -.116E+04   -.368E+01 0.125E-02 0.160E+00
   0.542E+02 0.101E+00 0.116E+04   -.583E+02 -.102E+00 -.116E+04   0.368E+01 0.127E-02 0.160E+00
   0.646E+00 0.217E+00 0.513E+03   -.642E+00 -.219E+00 -.517E+03   -.578E-02 0.437E-02 0.429E+01
   0.226E+01 0.864E+00 -.505E+03   -.225E+01 -.870E+00 0.513E+03   -.926E-02 0.929E-02 -.718E+01
   -.568E+02 0.490E+00 0.175E+02   0.616E+02 -.494E+00 -.177E+02   -.527E+01 0.153E-01 0.322E+00
   0.568E+02 0.490E+00 0.175E+02   -.616E+02 -.494E+00 -.177E+02   0.527E+01 0.153E-01 0.322E+00
   -.668E-02 0.145E+01 -.601E+03   0.738E-02 -.144E+01 0.594E+03   -.689E-03 -.724E-02 0.665E+01
   -.447E-02 0.594E+01 -.155E+04   0.493E-02 -.582E+01 0.155E+04   -.470E-03 -.121E+00 0.162E+01
   -.238E+02 0.509E+01 -.111E+04   0.270E+02 -.513E+01 0.110E+04   -.312E+01 0.488E-01 0.886E+00
   0.238E+02 0.508E+01 -.111E+04   -.270E+02 -.513E+01 0.110E+04   0.312E+01 0.483E-01 0.886E+00
   0.235E+02 0.619E+01 -.177E+04   -.235E+02 -.623E+01 0.177E+04   0.563E-01 0.364E-01 -.205E+01
   0.699E+02 0.186E+02 -.268E+04   -.697E+02 -.186E+02 0.270E+04   -.270E+00 -.200E-01 -.206E+02
   -.588E+02 0.512E+02 -.226E+04   0.651E+02 -.513E+02 0.226E+04   -.630E+01 0.140E+00 -.321E+01
   0.588E+02 0.512E+02 -.226E+04   -.651E+02 -.513E+02 0.226E+04   0.630E+01 0.140E+00 -.321E+01
   -.167E-01 0.176E+01 0.968E+02   0.824E-12 -.399E-11 -.118E-10   0.169E-01 -.175E+01 -.969E+02

 POSITION                                       TOTAL-FORCE (eV/Angst)
      6.53060      7.10921     24.58860         0.000012     -0.100931     -0.032005
      6.53060      8.23430     24.90732        -0.000017      0.344892      0.105113
      6.53060      5.97885     24.24332        -0.000005     -0.252598      0.027991
      9.79590      7.40329      8.77892        -0.000501      0.000115     -3.326850
      0.00000      8.88395      8.77892        -0.000014      0.000139      2.881646
      0.00000      7.40329     12.04422        -0.000002      0.000099      0.537475
      9.79590      8.88395     12.04422        -0.001693      0.000668     -0.707139
      9.79590      7.40329     15.30952        -0.008480     -0.001944      0.657689
      0.00000      8.88395     15.30952        -0.000002      0.003161     -0.728281
     13.06117      7.40451     18.50823        -0.000085     -0.000866     -0.085800
      9.79610      8.88537     18.69730        -0.000008     -0.001007      0.077032
      9.79732      7.40851     22.04942        -0.015562     -0.005460     -0.050376
      0.00000      8.88724     21.69753         0.000048      0.003971     -0.153157
      9.79590     10.36461      8.77892        -0.000619      0.000426     -3.326692
      0.00000      0.00000      8.77892         0.000037      0.000079      2.881727
      0.00000     10.36461     12.04422         0.000001      0.000313      0.537777
      9.79590      0.00000     12.04422        -0.002005      0.000220     -0.705565
      9.79590     10.36461     15.30952        -0.006567      0.014118      0.665210
      0.00000      0.00000     15.30952         0.000028      0.001740     -0.726471
     13.06117     10.36563     18.50904        -0.000097      0.002106     -0.087116
      9.79559      0.00095     18.70038         0.000763      0.002586      0.078892
      9.79377     10.36812     22.05951        -0.002403     -0.001679     -0.058391
      0.00000      0.00160     21.69795         0.000019      0.002190     -0.152749
      9.79590      1.48066      8.77892        -0.000605     -0.000195     -3.326645
      0.00000      2.96132      8.77892        -0.000027     -0.000206      2.881597
      0.00000      1.48066     12.04422         0.000081     -0.000123      0.537898
      9.79590      2.96132     12.04422        -0.001694     -0.000726     -0.705442
      9.79590      1.48066     15.30952        -0.006290     -0.002667      0.673271
      0.00000      2.96132     15.30952         0.000039     -0.002584     -0.726900
     13.06115      1.48127     18.50879        -0.000088      0.000198     -0.085735
      9.79636      2.96175     18.69985         0.001089     -0.001067      0.080945
      9.79503      1.48359     22.05859        -0.000312      0.003528     -0.062812
      0.00000      2.96212     21.69768         0.000002     -0.002302     -0.151958
      9.79590      4.44197      8.77892        -0.000487     -0.000310     -3.326770
      0.00000      5.92263      8.77892         0.000052      0.000019      2.881735
      0.00000      4.44197     12.04422         0.000024     -0.000362      0.537634
      9.79590      5.92263     12.04422        -0.001410     -0.000304     -0.706959
      9.79590      4.44197     15.30952        -0.008628     -0.009776      0.665396
      0.00000      5.92263     15.30952         0.000017     -0.002062     -0.728878
     13.06115      4.44282     18.50841        -0.000089     -0.002521     -0.085787
      9.79650      5.92340     18.69830         0.001226      0.000305      0.078691
      9.79893      4.44530     22.05641        -0.001673      0.007089     -0.052432
      0.00000      5.92552     21.69699        -0.000016     -0.005391     -0.153768
      3.26530      7.40329      8.77892         0.000490      0.000050     -3.326727
      6.53060      8.88395      8.77892        -0.000010      0.000375      2.883142
      6.53060      7.40329     12.04422        -0.000013      0.004020      0.541662
      3.26530      8.88395     12.04422         0.001710      0.000675     -0.707142
      3.26530      7.40329     15.30952         0.008457     -0.001943      0.657686
      6.53060      8.88395     15.30952         0.000033     -0.009050     -0.694002
      6.53057      7.39665     18.52088        -0.000061      0.002689     -0.086231
      3.26506      8.88537     18.69730        -0.000007     -0.001005      0.077027
      3.26388      7.40851     22.04942         0.015662     -0.005466     -0.050324
      6.53060      8.89232     21.68505         0.000000     -0.018694     -0.164364
      3.26530     10.36461      8.77892         0.000611      0.000440     -3.326642
      6.53060      0.00000      8.77892        -0.000008      0.000075      2.883391
      6.53060     10.36461     12.04422         0.000023      0.001980      0.544531
      3.26530      0.00000     12.04422         0.001990      0.000277     -0.705557
      3.26530     10.36461     15.30952         0.006484      0.014125      0.665225
      6.53060      0.00000     15.30952        -0.000010      0.001690     -0.750200
      6.53057     10.36224     18.49874        -0.000079     -0.002285     -0.086880
[...]
      6.53060      5.92263     13.32313        -0.000002      0.000123     -0.135960
      4.54422      4.44197     12.04422         0.407413      0.000519      0.048654
      8.51698      4.44197     12.04422        -0.407423      0.000538      0.048650
      3.26530      5.92263     14.03060        -0.001634      0.002476     -0.079162
      3.26530      5.92263     16.58843        -0.000310      0.002951     -0.048615
      7.80952      4.44197     15.30952        -0.489182      0.011166      0.089558
      5.25168      4.44197     15.30952         0.489168      0.011158      0.089561
      6.53060      5.92252     17.31877         0.000006     -0.001347      0.071124
      6.53060      5.92495     19.89323        -0.000013     -0.002106      0.083608
      4.57076      4.44267     18.59708         0.010938      0.003570      0.006838
      8.49045      4.44267     18.59709        -0.010826      0.003568      0.006854
      3.25767      5.92519     20.56930        -0.005990      0.000544     -0.103796
      3.28445      5.92789     23.13665         0.002836      0.003137      0.028386
      7.76325      4.43066     21.98551        -0.029516      0.009026     -0.018845
      5.29795      4.43066     21.98551         0.029502      0.009027     -0.018831
    total drift:                                0.000201      0.004805     -0.064488

  FREE ENERGIE OF THE ION-ELECTRON SYSTEM (eV)
  free  energy   TOTEN  =     -2148.59399788 eV

  energy  without entropy=    -2148.59399788  energy(sigma->0) =    -2148.59399788