 vasp.6.3.0 20Jan22 (build Apr  1 2022 16:44:48) complex
 executed on        HPECrayEX_GCC date 2022.11.02  12:09:18

 INCAR:
   SYSTEM = MgO-rocksalt
   ISMEAR = 0
   SIGMA = 0.05
   EDIFF = 1E-7
   ALGO = ALL
   ISTART = 0
   IBRION = 2
   NSW = 1000
   ISYM = 0
   ISIF = 2
   EDIFFG = -0.01
   DIPOL = 0.5 0.5 0.5
   IDIPOL = 3
   LDIPOL = .TRUE.
   GGA = RE
   AGGAC = 0.0
   LUSE_VDW = .TRUE.
   LASPH = .TRUE.
   ENCUT = 600
   PREC = Accurate
   LASPH = .TRUE.
   LREAL = .FALSE.
   ISPIN = 1
   NELM = 200
   NELMIN = 8
   NCORE = 8
   KPAR = 1
   LWAVE = .FALSE.
   LCHARG = .FALSE.

 POTCAR:    PAW_PBE C 08Apr2002
 POTCAR:    PAW_PBE O 08Apr2002
 POTCAR:    PAW_PBE H 15Jun2001
 POTCAR:    PAW_PBE Mg_pv 13Apr2007
 POTCAR:    PAW_PBE O 08Apr2002
|               ----> ADVICE to this user running VASP <----                  |
|     You have switched on vdW-DFT.                                           |
|     This routine was written and supplied by Jiri Klimes. We recommend      |
|     that you carefully read and cite the following publications:            |
|       J. Klimes, D.R. Bowler, A. Michelides                                 |
|          J. Phys.: Cond Matt. 22 022201 (2010)                              |
|       J. Klimes, D.R. Bowler, A. Michelides                                 |
|          Phys. Rev. B. 83, 195131 (2011)                                    |
|     and references therein.                                                 |

   TITEL  = PAW_PBE C 08Apr2002
   POMASS =   12.011; ZVAL   =    4.000    mass and valenz
   ENMAX  =  400.000; ENMIN  =  300.000 eV

[...]

   TITEL  = PAW_PBE H 15Jun2001
   POMASS =    1.000; ZVAL   =    1.000    mass and valenz
   ENMAX  =  250.000; ENMIN  =  200.000 eV

   TITEL  = PAW_PBE Mg_pv 13Apr2007
   POMASS =   24.305; ZVAL   =    8.000    mass and valenz
   ENMAX  =  403.929; ENMIN  =  302.947 eV

   TITEL  = PAW_PBE O 08Apr2002
   POMASS =   16.000; ZVAL   =    6.000    mass and valenz
   ENMAX  =  400.000; ENMIN  =  300.000 eV

  PAW_PBE C 08Apr2002                   :
  PAW_PBE O 08Apr2002                   :
  PAW_PBE H 15Jun2001                   :
  PAW_PBE Mg_pv 13Apr2007               :
  PAW_PBE O 08Apr2002                   :

 POSCAR:  C  O  H Mg  O
  positions in direct lattice
 exchange correlation table for  LEXCH =       40
   RHO(1)=    0.500       N(1)  =     2000
   RHO(2)=  100.500       N(2)  =     4000

 ion  position               nearest neighbor table
   1  0.413  0.623  0.792-   3 1.10   6 1.10   5 1.10   2 1.44
   2  0.412  0.494  0.749-   4 1.02   1 1.44
   3  0.515  0.609  0.822-   1 1.10
   4  0.315  0.501  0.721-   2 1.02
   5  0.424  0.736  0.767-   1 1.10
   6  0.307  0.624  0.821-   1 1.10
   7  0.000  0.750  0.350-  39 2.14  41 2.14  42 2.14  49 2.14  58 2.14
   8  0.250  0.000  0.350-  40 2.14  41 2.14  42 2.14  50 2.14  57 2.14
   9  0.000  0.000  0.450-  41 2.14  40 2.14  39 2.14  47 2.14  56 2.14  45 2.14
  10  0.250  0.750  0.450-  42 2.14  40 2.14  39 2.14  48 2.14  55 2.14  46 2.14
  11  0.000  0.750  0.550-  45 2.14  46 2.14  53 2.14  62 2.14  39 2.15  43 2.16
  12  0.250  0.000  0.550-  45 2.14  46 2.14  54 2.14  61 2.14  40 2.15  44 2.16
  13  0.000  0.000  0.650-  45 2.13  44 2.14  43 2.14  51 2.14  60 2.14
  14  0.250  0.750  0.650-  46 2.13  44 2.14  43 2.14  52 2.14  59 2.14
  15  0.000  0.250  0.350-  47 2.14  41 2.14  49 2.14  50 2.14  66 2.14
  16  0.250  0.500  0.350-  48 2.14  42 2.14  49 2.14  50 2.14  65 2.14
  17  0.000  0.500  0.450-  49 2.14  47 2.14  48 2.14  39 2.14  64 2.14  53 2.14
  18  0.250  0.250  0.450-  50 2.14  47 2.14  48 2.14  40 2.14  63 2.14  54 2.14
  19  0.000  0.250  0.550-  45 2.14  53 2.14  54 2.14  70 2.14  47 2.15  51 2.16
  20  0.250  0.500  0.550-  46 2.14  53 2.14  54 2.14  69 2.14  48 2.15  52 2.16
  21  0.000  0.500  0.650-  53 2.13  51 2.14  52 2.14  43 2.14  68 2.14
  22  0.250  0.250  0.650-  54 2.13  51 2.14  52 2.14  44 2.14  67 2.14
  23  0.500  0.750  0.350-  55 2.14  42 2.14  57 2.14  58 2.14  65 2.14
  24  0.750  0.000  0.350-  56 2.14  41 2.14  57 2.14  58 2.14  66 2.14
  25  0.500  0.000  0.450-  57 2.14  55 2.14  56 2.14  40 2.14  63 2.14  61 2.14
  26  0.750  0.750  0.450-  58 2.14  55 2.14  56 2.14  39 2.14  64 2.14  62 2.14
  27  0.500  0.750  0.550-  46 2.14  61 2.14  62 2.14  69 2.14  55 2.15  59 2.16
  28  0.750  0.000  0.550-  45 2.14  61 2.14  62 2.14  70 2.14  56 2.15  60 2.16
  29  0.500  0.000  0.650-  61 2.13  59 2.14  60 2.14  44 2.14  67 2.14
  30  0.750  0.750  0.650-  62 2.13  59 2.14  60 2.14  43 2.14  68 2.14
  31  0.500  0.250  0.350-  63 2.14  57 2.14  50 2.14  65 2.14  66 2.14
  32  0.750  0.500  0.350-  64 2.14  58 2.14  49 2.14  65 2.14  66 2.14
  33  0.500  0.500  0.450-  65 2.14  55 2.14  63 2.14  64 2.14  48 2.14  69 2.14
  34  0.750  0.250  0.450-  66 2.14  56 2.14  63 2.14  64 2.14  47 2.14  70 2.14
  35  0.500  0.250  0.550-  54 2.14  61 2.14  69 2.14  70 2.14  63 2.15  67 2.16
  36  0.750  0.500  0.550-  53 2.14  62 2.14  69 2.14  70 2.14  64 2.15  68 2.16
  37  0.500  0.500  0.650-  69 2.13  59 2.14  67 2.14  68 2.14  52 2.14
  38  0.750  0.250  0.650-  70 2.13  60 2.14  67 2.14  68 2.14  51 2.14
  39  0.000  0.750  0.450-   7 2.14   9 2.14  10 2.14  17 2.14  26 2.14  11 2.15
  40  0.250  0.000  0.450-   8 2.14   9 2.14  10 2.14  18 2.14  25 2.14  12 2.15
  41  0.000  0.000  0.350-   9 2.14   8 2.14   7 2.14  15 2.14  24 2.14
  42  0.250  0.750  0.350-  10 2.14   8 2.14   7 2.14  16 2.14  23 2.14
  43  0.000  0.750  0.651-  13 2.14  14 2.14  21 2.14  30 2.14  11 2.16
  44  0.250  0.000  0.651-  13 2.14  14 2.14  22 2.14  29 2.14  12 2.16
  45  0.000  0.000  0.550-  13 2.13  12 2.14  11 2.14  19 2.14  28 2.14   9 2.14
  46  0.250  0.750  0.550-  14 2.13  12 2.14  11 2.14  20 2.14  27 2.14  10 2.14
  47  0.000  0.250  0.450-  15 2.14   9 2.14  17 2.14  18 2.14  34 2.14  19 2.15
  48  0.250  0.500  0.450-  16 2.14  10 2.14  17 2.14  18 2.14  33 2.14  20 2.15
  49  0.000  0.500  0.350-  17 2.14  15 2.14  16 2.14   7 2.14  32 2.14
  50  0.250  0.250  0.350-  18 2.14  15 2.14  16 2.14   8 2.14  31 2.14
  51  0.000  0.250  0.651-  13 2.14  21 2.14  22 2.14  38 2.14  19 2.16
  52  0.250  0.500  0.651-  14 2.14  21 2.14  22 2.14  37 2.14  20 2.16
  53  0.000  0.500  0.550-  21 2.13  19 2.14  20 2.14  11 2.14  36 2.14  17 2.14
  54  0.250  0.250  0.550-  22 2.13  19 2.14  20 2.14  12 2.14  35 2.14  18 2.14
  55  0.500  0.750  0.450-  23 2.14  10 2.14  25 2.14  26 2.14  33 2.14  27 2.15
  56  0.750  0.000  0.450-  24 2.14   9 2.14  25 2.14  26 2.14  34 2.14  28 2.15
  57  0.500  0.000  0.350-  25 2.14  23 2.14  24 2.14   8 2.14  31 2.14
  58  0.750  0.750  0.350-  26 2.14  23 2.14  24 2.14   7 2.14  32 2.14
  59  0.500  0.750  0.651-  14 2.14  29 2.14  30 2.14  37 2.14  27 2.16
  60  0.750  0.000  0.651-  13 2.14  29 2.14  30 2.14  38 2.14  28 2.16
  61  0.500  0.000  0.550-  29 2.13  27 2.14  28 2.14  12 2.14  35 2.14  25 2.14
  62  0.750  0.750  0.550-  30 2.13  27 2.14  28 2.14  11 2.14  36 2.14  26 2.14
  63  0.500  0.250  0.450-  31 2.14  25 2.14  18 2.14  33 2.14  34 2.14  35 2.15
  64  0.750  0.500  0.450-  32 2.14  26 2.14  17 2.14  33 2.14  34 2.14  36 2.15
  65  0.500  0.500  0.350-  33 2.14  23 2.14  31 2.14  32 2.14  16 2.14
  66  0.750  0.250  0.350-  34 2.14  24 2.14  31 2.14  32 2.14  15 2.14
  67  0.500  0.250  0.651-  22 2.14  29 2.14  37 2.14  38 2.14  35 2.16
  68  0.750  0.500  0.651-  21 2.14  30 2.14  37 2.14  38 2.14  36 2.16
  69  0.500  0.500  0.550-  37 2.13  27 2.14  35 2.14  36 2.14  20 2.14  33 2.14
  70  0.750  0.250  0.550-  38 2.13  28 2.14  35 2.14  36 2.14  19 2.14  34 2.14

IMPORTANT INFORMATION: All symmetrisations will be switched off!
NOSYMM: (Re-)initialisation of all symmetry stuff for point group C_1.

                                     Primitive cell

  volume of cell :    1563.6717

  direct lattice vectors                    reciprocal lattice vectors
     8.546113626  0.000000000  0.000000000     0.117012252  0.000000000  0.000000000
     0.000000000  8.546113626  0.000000000     0.000000000  0.117012252  0.000000000
     0.000000000  0.000000000 21.409585219     0.000000000  0.000000000  0.046708051

  length of vectors
     8.546113626  8.546113626 21.409585219     0.117012252  0.117012252  0.046708051

  position of ions in fractional coordinates (direct lattice)
     0.413244812  0.623085045  0.791734260
     0.411539007  0.493976364  0.748850164
     0.515429860  0.608775308  0.822263570
     0.315463417  0.501208339  0.721002717
     0.424103517  0.735951596  0.767009255
     0.307130332  0.624040173  0.820963500
     0.000000000  0.750000000  0.350310383
     0.250000000  0.000000000  0.350310383
     0.000000000  0.000000000  0.450103461
     0.250000000  0.750000000  0.450103461
     0.000000000  0.750000000  0.550423065
     0.250000000  0.000000000  0.550423065
     0.000000000  0.000000000  0.649678241
     0.250000000  0.750000000  0.649678241
     0.000000000  0.250000000  0.350310383
     0.250000000  0.500000000  0.350310383
     0.000000000  0.500000000  0.450103461
     0.250000000  0.250000000  0.450103461
     0.000000000  0.250000000  0.550423065
     0.250000000  0.500000000  0.550423065
     0.000000000  0.500000000  0.649678241
     0.250000000  0.250000000  0.649678241
     0.500000000  0.750000000  0.350310383
     0.750000000  0.000000000  0.350310383
     0.500000000  0.000000000  0.450103461
     0.750000000  0.750000000  0.450103461
     0.500000000  0.750000000  0.550423065
     0.750000000  0.000000000  0.550423065
     0.500000000  0.000000000  0.649678241
     0.750000000  0.750000000  0.649678241
     0.500000000  0.250000000  0.350310383
     0.750000000  0.500000000  0.350310383
     0.500000000  0.500000000  0.450103461
     0.750000000  0.250000000  0.450103461
     0.500000000  0.250000000  0.550423065
     0.750000000  0.500000000  0.550423065
     0.500000000  0.500000000  0.649678241
     0.750000000  0.250000000  0.649678241
     0.000000000  0.750000000  0.450103461
     0.250000000  0.000000000  0.450103461
     0.000000000  0.000000000  0.350310383
     0.250000000  0.750000000  0.350310383
     0.000000000  0.750000000  0.651489980
     0.250000000  0.000000000  0.651489980
     0.000000000  0.000000000  0.550159231
     0.250000000  0.750000000  0.550159231
     0.000000000  0.250000000  0.450103461
     0.250000000  0.500000000  0.450103461
     0.000000000  0.500000000  0.350310383
     0.250000000  0.250000000  0.350310383
     0.000000000  0.250000000  0.651489980
     0.250000000  0.500000000  0.651489980
     0.000000000  0.500000000  0.550159231
     0.250000000  0.250000000  0.550159231
     0.500000000  0.750000000  0.450103461
     0.750000000  0.000000000  0.450103461
     0.500000000  0.000000000  0.350310383
     0.750000000  0.750000000  0.350310383
     0.500000000  0.750000000  0.651489980
     0.750000000  0.000000000  0.651489980
     0.500000000  0.000000000  0.550159231
     0.750000000  0.750000000  0.550159231
     0.500000000  0.250000000  0.450103461
     0.750000000  0.500000000  0.450103461
     0.500000000  0.500000000  0.350310383
     0.750000000  0.250000000  0.350310383
[...]
   0.00000000  6.40958522 13.94813025
   2.13652841  0.00000000 13.94813025
   0.00000000  0.00000000 11.77868095
   2.13652841  6.40958522 11.77868095
   0.00000000  2.13652841  9.63652841
   2.13652841  4.27305681  9.63652841
   0.00000000  4.27305681  7.50000000
   2.13652841  2.13652841  7.50000000
   0.00000000  2.13652841 13.94813025
   2.13652841  4.27305681 13.94813025
   0.00000000  4.27305681 11.77868095
   2.13652841  2.13652841 11.77868095
   4.27305681  6.40958522  9.63652841
   6.40958522  0.00000000  9.63652841
   4.27305681  0.00000000  7.50000000
   6.40958522  6.40958522  7.50000000
   4.27305681  6.40958522 13.94813025
   6.40958522  0.00000000 13.94813025
   4.27305681  0.00000000 11.77868095
   6.40958522  6.40958522 11.77868095
   4.27305681  2.13652841  9.63652841
   6.40958522  4.27305681  9.63652841
   4.27305681  4.27305681  7.50000000
   6.40958522  2.13652841  7.50000000
   4.27305681  2.13652841 13.94813025
   6.40958522  4.27305681 13.94813025
   4.27305681  4.27305681 11.77868095
   6.40958522  2.13652841 11.77868095

--------------------------------------- Iteration      FINAL  ---------------------------------------

--------------------OUTCAR has been truncated-------------------------

[...]

--------------------OUTCAR has been truncated-------------------------

  FORCE on cell =-STRESS in cart. coord.  units (eV):
  Direction    XX          YY          ZZ          XY          YZ          ZX
  Alpha Z   893.08759   893.08759   893.08759
  Ewald  152854.05486152880.91508************    24.29836   131.77066    44.31174
  Hartree163303.45142163348.14050************    16.37391    77.74556    14.90620
  E(xc)   -2577.47314 -2577.99140 -2580.26907    -0.05511     0.00936     0.31494
  Local  ************************325219.17909   -40.75031  -200.44972   -49.69957
  n-local -2857.01627 -2855.63425 -2873.46612     0.50327     1.95370     0.13770
  augment  1085.06315  1085.64413  1076.91544    -0.01324    -0.79971    -0.64183
  Kinetic  7536.83061  7546.61995  7577.44730    -0.37401   -10.17185    -9.21008
  Fock        0.00000     0.00000     0.00000     0.00000     0.00000     0.00000
  Total     -29.62107   -29.67566    -2.50691    -0.01712     0.05800     0.11909
  in kB     -30.35049   -30.40642    -2.56865    -0.01754     0.05942     0.12202

 VOLUME and BASIS-vectors are now :
  energy-cutoff  :      600.00
  volume of cell :     1563.67
      direct lattice vectors                 reciprocal lattice vectors
     8.546113626  0.000000000  0.000000000     0.117012252  0.000000000  0.000000000
     0.000000000  8.546113626  0.000000000     0.000000000  0.117012252  0.000000000
     0.000000000  0.000000000 21.409585219     0.000000000  0.000000000  0.046708051

  length of vectors
     8.546113626  8.546113626 21.409585219     0.117012252  0.117012252  0.046708051

 FORCES acting on ions:
    Electron-Ion                     Ewald-Force                    Non-Local-Force
   -.176E+02 -.844E+02 -.963E+03   0.185E+02 0.888E+02 0.967E+03   -.927E+00 -.439E+01 -.405E+01
   -.135E+02 0.126E+03 -.152E+04   0.394E+02 -.156E+03 0.152E+04   -.259E+02 0.301E+02 0.558E+01
   -.576E+02 -.655E+00 -.231E+03   0.631E+02 -.954E-01 0.233E+03   -.545E+01 0.755E+00 -.218E+01
   0.805E+02 0.121E+01 -.244E+03   -.874E+02 -.739E+00 0.240E+03   0.691E+01 -.475E+00 0.347E+01
   0.218E+01 -.626E+02 -.226E+03   -.251E+01 0.679E+02 0.223E+03   0.330E+00 -.532E+01 0.232E+01
   0.379E+02 -.188E+01 -.232E+03   -.417E+02 0.128E+01 0.237E+03   0.383E+01 0.597E+00 -.432E+01
   0.497E-01 0.347E-01 0.203E+04   -.524E-01 -.392E-01 -.202E+04   0.211E-02 0.326E-02 -.639E+01
   0.120E+00 -.780E-01 0.203E+04   -.114E+00 0.791E-01 -.202E+04   -.375E-02 -.841E-03 -.637E+01
   0.274E+00 -.330E+00 0.711E+03   -.308E+00 0.344E+00 -.711E+03   0.246E-01 -.978E-02 0.385E+00
   0.270E+00 0.108E+00 0.711E+03   -.221E+00 -.201E+00 -.712E+03   -.343E-01 0.676E-01 0.529E+00
   0.159E+01 -.292E+01 -.597E+03   -.168E+01 0.286E+01 0.597E+03   0.904E-01 0.544E-01 -.122E+00
   0.451E+01 -.137E+01 -.593E+03   -.444E+01 0.142E+01 0.593E+03   -.740E-01 -.504E-01 -.731E-01
   0.499E+01 -.358E+01 -.193E+04   -.513E+01 0.363E+01 0.192E+04   0.142E+00 -.458E-01 0.557E+01
   0.315E+02 -.296E+02 -.187E+04   -.316E+02 0.304E+02 0.186E+04   0.144E+00 -.809E+00 0.582E+01
   0.419E-01 -.351E-01 0.203E+04   -.441E-01 0.396E-01 -.202E+04   0.160E-02 -.324E-02 -.640E+01
   0.116E+00 0.786E-01 0.203E+04   -.106E+00 -.795E-01 -.202E+04   -.741E-02 0.739E-03 -.642E+01
   0.274E+00 0.338E+00 0.710E+03   -.247E+00 -.351E+00 -.710E+03   -.203E-01 0.982E-02 0.451E+00
   0.301E+00 -.118E+00 0.711E+03   -.284E+00 0.213E+00 -.711E+03   -.105E-01 -.688E-01 0.526E+00
   0.128E+01 0.288E+01 -.600E+03   -.135E+01 -.283E+01 0.600E+03   0.676E-01 -.507E-01 -.194E+00
   0.515E+01 0.143E+01 -.597E+03   -.485E+01 -.148E+01 0.597E+03   -.298E+00 0.501E-01 0.692E+00
   0.125E+02 0.383E+01 -.191E+04   -.128E+02 -.388E+01 0.190E+04   0.252E+00 0.503E-01 0.548E+01
   0.276E+02 0.292E+02 -.189E+04   -.276E+02 -.300E+02 0.188E+04   -.284E-01 0.837E+00 0.577E+01
   -.511E-01 0.379E-01 0.203E+04   0.533E-01 -.473E-01 -.202E+04   -.157E-02 0.719E-02 -.643E+01
   -.120E+00 -.702E-01 0.203E+04   0.114E+00 0.707E-01 -.202E+04   0.411E-02 -.413E-03 -.640E+01
   -.300E+00 -.316E+00 0.712E+03   0.326E+00 0.291E+00 -.713E+03   -.194E-01 0.182E-01 0.238E+00
   -.283E+00 0.171E+00 0.711E+03   0.223E+00 -.197E+00 -.712E+03   0.415E-01 0.178E-01 0.441E+00
   -.156E+01 -.431E+01 -.589E+03   0.165E+01 0.401E+01 0.589E+03   -.840E-01 0.294E+00 -.674E+00
   -.445E+01 -.104E+01 -.598E+03   0.438E+01 0.108E+01 0.598E+03   0.699E-01 -.321E-01 -.103E+00
   -.592E+01 -.704E+01 -.191E+04   0.606E+01 0.722E+01 0.190E+04   -.140E+00 -.180E+00 0.563E+01
   -.281E+02 -.206E+02 -.190E+04   0.282E+02 0.209E+02 0.190E+04   -.925E-01 -.314E+00 0.567E+01
   -.428E-01 -.385E-01 0.203E+04   0.446E-01 0.475E-01 -.202E+04   -.125E-02 -.687E-02 -.642E+01
   -.116E+00 0.702E-01 0.203E+04   0.106E+00 -.708E-01 -.202E+04   0.771E-02 0.402E-03 -.641E+01
   -.310E+00 0.292E+00 0.710E+03   0.276E+00 -.276E+00 -.711E+03   0.246E-01 -.128E-01 0.577E+00
   -.312E+00 -.176E+00 0.711E+03   0.288E+00 0.202E+00 -.711E+03   0.147E-01 -.174E-01 0.405E+00
   -.126E+01 0.438E+01 -.588E+03   0.132E+01 -.409E+01 0.589E+03   -.617E-01 -.289E+00 -.111E+01
   -.590E+01 0.108E+01 -.593E+03   0.564E+01 -.111E+01 0.594E+03   0.261E+00 0.307E-01 -.355E+00
   -.312E+02 0.944E+01 -.180E+04   0.328E+02 -.962E+01 0.180E+04   -.163E+01 0.173E+00 0.268E+01
   -.245E+02 0.200E+02 -.191E+04   0.245E+02 -.203E+02 0.191E+04   0.456E-01 0.332E+00 0.567E+01
   0.759E-01 0.786E-01 0.533E+03   -.754E-01 -.802E-01 -.533E+03   0.210E-02 0.158E-02 -.185E-01
   0.491E+00 -.197E+00 0.534E+03   -.460E+00 0.192E+00 -.534E+03   -.434E-01 0.681E-02 0.652E-01
   0.381E-01 -.586E-01 0.152E+04   -.434E-01 0.608E-01 -.153E+04   0.727E-02 -.305E-02 0.359E+01
   0.813E-01 0.277E-01 0.152E+04   -.714E-01 -.387E-01 -.153E+04   -.138E-01 0.154E-01 0.358E+01
   0.758E+01 -.101E+02 -.146E+04   -.755E+01 0.991E+01 0.146E+04   -.209E-01 0.227E+00 -.496E+01
   0.116E+02 -.533E+01 -.146E+04   -.114E+02 0.537E+01 0.146E+04   -.118E+00 -.321E-01 -.497E+01
   0.127E+01 -.910E+00 -.446E+03   -.129E+01 0.922E+00 0.446E+03   0.256E-01 -.118E-01 0.241E+00
   0.343E+01 -.244E+01 -.435E+03   -.337E+01 0.251E+01 0.434E+03   -.624E-01 -.672E-01 0.742E+00
   0.360E-01 -.844E-01 0.533E+03   -.449E-01 0.862E-01 -.532E+03   0.147E-01 -.177E-02 -.596E-01
   0.513E+00 0.206E+00 0.533E+03   -.541E+00 -.203E+00 -.532E+03   0.352E-01 -.304E-02 -.142E+00
   0.371E-01 0.589E-01 0.152E+04   -.356E-01 -.611E-01 -.153E+04   -.204E-02 0.304E-02 0.358E+01
   0.848E-01 -.282E-01 0.152E+04   -.786E-01 0.390E-01 -.153E+04   -.862E-02 -.152E-01 0.358E+01
   0.635E+01 0.995E+01 -.146E+04   -.630E+01 -.973E+01 0.147E+04   -.500E-01 -.226E+00 -.494E+01
   0.431E+02 0.594E+01 -.140E+04   -.426E+02 -.598E+01 0.140E+04   -.497E+00 0.377E-01 -.278E+01
   0.951E+00 0.949E+00 -.442E+03   -.979E+00 -.960E+00 0.441E+03   0.282E-01 0.106E-01 0.422E+00
   0.350E+01 0.240E+01 -.440E+03   -.342E+01 -.247E+01 0.439E+03   -.794E-01 0.654E-01 0.511E+00
   -.104E+00 0.374E-01 0.533E+03   0.118E+00 0.266E-01 -.533E+03   -.206E-01 -.860E-01 -.185E+00
   -.502E+00 -.154E+00 0.533E+03   0.482E+00 0.156E+00 -.533E+03   0.300E-01 -.381E-02 -.217E-01
   -.380E-01 -.548E-01 0.152E+04   0.435E-01 0.536E-01 -.153E+04   -.770E-02 0.170E-02 0.357E+01
   -.803E-01 0.273E-01 0.152E+04   0.708E-01 -.315E-01 -.153E+04   0.132E-01 0.576E-02 0.357E+01
   -.107E+02 -.346E+02 -.140E+04   0.106E+02 0.341E+02 0.141E+04   0.957E-01 0.528E+00 -.482E+01
   -.109E+02 -.401E+01 -.146E+04   0.108E+02 0.402E+01 0.147E+04   0.112E+00 -.148E-01 -.493E+01
   -.131E+01 -.902E+00 -.437E+03   0.133E+01 0.932E+00 0.436E+03   -.224E-01 -.302E-01 0.304E+00
   -.345E+01 -.262E+01 -.440E+03   0.338E+01 0.263E+01 0.439E+03   0.693E-01 -.858E-02 0.401E+00
   -.547E-01 -.389E-01 0.532E+03   0.722E-01 -.154E-01 -.532E+03   -.260E-01 0.727E-01 -.153E+00
   -.509E+00 0.153E+00 0.532E+03   0.545E+00 -.155E+00 -.532E+03   -.453E-01 0.325E-02 -.981E-01
   -.373E-01 0.553E-01 0.152E+04   0.361E-01 -.537E-01 -.153E+04   0.164E-02 -.227E-02 0.356E+01
   -.842E-01 -.274E-01 0.152E+04   0.782E-01 0.315E-01 -.153E+04   0.828E-02 -.573E-02 0.357E+01
   -.881E+01 0.332E+02 -.142E+04   0.872E+01 -.327E+02 0.142E+04   0.977E-01 -.500E+00 -.511E+01
   -.338E+02 0.441E+01 -.143E+04   0.338E+02 -.443E+01 0.144E+04   -.213E-01 0.149E-01 -.477E+01
   -.361E+00 0.889E+00 -.447E+03   0.391E+00 -.922E+00 0.448E+03   -.271E-01 0.317E-01 -.942E+00
   -.350E+01 0.259E+01 -.442E+03   0.341E+01 -.260E+01 0.441E+03   0.854E-01 0.743E-02 0.286E+00
   0.229E+02 -.213E+02 0.138E+02   0.711E-13 0.103E-12 -.199E-11   -.229E+02 0.213E+02 -.138E+02

 POSITION                                       TOTAL-FORCE (eV/Angst)
      3.89338      5.22049     17.20291        -0.001695      0.004456      0.005382
      3.69998      4.19441     16.19510        -0.002299      0.004267     -0.002444
      4.90130      5.07863     17.60455         0.003688      0.004629      0.000498
      2.80534      4.28834     15.77065         0.005337      0.000688      0.003275
      3.81835      6.22691     16.76682         0.001195     -0.008241      0.001205
      3.16254      5.10622     18.01462         0.003268      0.003887      0.000243
      0.00000      6.40959      7.50000        -0.000651     -0.001258      0.320655
      2.13653      0.00000      7.50000         0.001538      0.000208      0.316982
      0.00000      0.00000      9.63653        -0.009612      0.003851      0.006707
      2.13653      6.40959      9.63653         0.014485     -0.024800      0.013746
     -0.00353      6.40794     11.77872        -0.000051     -0.001777     -0.001226
      2.13784      0.00167     11.77466         0.000093     -0.000039     -0.001903
     -0.00502      0.00129     13.90011        -0.000392     -0.000357     -0.001545
      2.13032      6.42944     13.87972         0.001066     -0.002684     -0.000905
      0.00000      2.13653      7.50000        -0.000535      0.001199      0.323130
      2.13653      4.27306      7.50000         0.002428     -0.000259      0.326884
      0.00000      4.27306      9.63653         0.006964     -0.003982      0.039208
      2.13653      2.13653      9.63653         0.006157      0.025827      0.016090
     -0.00243      2.13812     11.78077        -0.000366      0.001999     -0.000232
      2.14524      4.27166     11.79105         0.001303     -0.000156     -0.000990
     -0.01721      4.27160     13.90145         0.002603     -0.000300     -0.000090
      2.13606      2.11689     13.89511        -0.000027      0.001773      0.000080
      4.27306      6.40959      7.50000         0.000623     -0.002206      0.328827
      6.40959      0.00000      7.50000        -0.001561      0.000098      0.323476
      4.27306      0.00000      9.63653         0.007220     -0.006416      0.036327
      6.40959      6.40959      9.63653        -0.018322     -0.008061      0.016794
      4.27431      6.39923     11.79176        -0.000642     -0.000782      0.000970
      6.40658      0.00086     11.77694         0.000432     -0.000094     -0.001515
      4.27527      0.00327     13.89177         0.000872     -0.001066     -0.000264
      6.41053      6.41793     13.89659         0.000390     -0.000263     -0.000329
      4.27306      2.13653      7.50000         0.000548      0.002013      0.326334
      6.40959      4.27306      7.50000        -0.002473     -0.000186      0.323799
      4.27306      4.27306      9.63653        -0.008413      0.003737      0.049377
      6.40959      2.13653      9.63653        -0.008491      0.008130      0.020295
      4.27394      2.14574     11.79050        -0.000794      0.000691      0.000456
      6.40013      4.27201     11.78881         0.000430      0.000402      0.000566
      4.31916      4.26391     14.02521        -0.001452      0.000475     -0.000437
      6.40737      2.12779     13.90228         0.001050      0.000123     -0.000277
      0.00000      6.40959      9.63653         0.002573     -0.000063      0.043013
      2.13653      0.00000      9.63653        -0.013104      0.001091      0.049834
      0.00000      0.00000      7.50000         0.002048     -0.000893     -0.393565
      2.13653      6.40959      7.50000        -0.003896      0.004365     -0.395242
     -0.00206      6.41631     13.94646         0.001764     -0.001669     -0.003447
      2.13132     -0.00177     13.94170         0.000203      0.000873     -0.003380
      0.00046     -0.00062     11.77323         0.001515     -0.000794      0.002247
      2.13286      6.40485     11.77874         0.000334      0.001460     -0.001916
      0.00000      2.13653      9.63653         0.005819     -0.000014      0.040093
      2.13653      4.27306      9.63653         0.006741     -0.000275      0.062374
      0.00000      4.27306      7.50000        -0.000594      0.000830     -0.396064
      2.13653      2.13653      7.50000        -0.002405     -0.004357     -0.395506
     -0.00196      2.12984     13.94589         0.001559      0.001103     -0.001370
      2.09812      4.27581     13.99970        -0.000596      0.000229      0.002320
      0.00285      4.27372     11.77960        -0.000499     -0.000496      0.001541
      2.13184      2.14137     11.78010         0.000370     -0.001689     -0.003067
      4.27306      6.40959      9.63653        -0.007072     -0.022021      0.053805
      6.40959      0.00000      9.63653         0.009737     -0.001688      0.033633
      4.27306      0.00000      7.50000        -0.002159      0.000461     -0.397407
      6.40959      6.40959      7.50000         0.003722      0.001607     -0.396938
      4.27056      6.42558     13.93949         0.001459      0.001386     -0.000526
      6.41191     -0.00116     13.94300        -0.001436     -0.000192     -0.001501
      4.27087     -0.00267     11.76883        -0.000281     -0.000024     -0.001471
      6.41109      6.40885     11.77635         0.000844      0.000131     -0.002450
      4.27306      2.13653      9.63653        -0.008531      0.018397      0.058856
      6.40959      4.27306      9.63653        -0.009676      0.001493      0.067427
      4.27306      4.27306      7.50000         0.000499     -0.000693     -0.401515
      6.40959      2.13653      7.50000         0.002322     -0.001656     -0.397092
      4.27185      2.11779     13.91730         0.001816     -0.001701     -0.002064
      6.42503      4.27428     13.95031         0.000462     -0.000344     -0.003774
      4.26822      4.27431     11.79515         0.002407     -0.000462     -0.002469
      6.41276      2.13704     11.77545         0.000136      0.000080     -0.003528
    total drift:                               -0.000943      0.002066      0.008493

  FREE ENERGIE OF THE ION-ELECTRON SYSTEM (eV)
  free  energy   TOTEN  =      -254.32506961 eV

  energy  without entropy=     -254.32506961  energy(sigma->0) =     -254.32506961

 d Force = 0.3540817E-04[ 0.217E-04, 0.491E-04]  d Energy = 0.3477491E-04 0.633E-06
 d Force = 0.1105677E+01[ 0.111E+01, 0.111E+01]  d Ewald  = 0.1105677E+01-0.373E-06

 Conjugate gradient step on ions:
 trial-energy change:   -0.000035  1 .order   -0.000035   -0.000049   -0.000022
  (g-gl).g = 0.798E-04      g.g   = 0.869E-04  gl.gl    = 0.874E-04
 g(Force)  = 0.869E-04   g(Stress)= 0.000E+00 ortho     = 0.134E-04
 gamma     =   0.91289
 trial     =   0.49481
 opt step  =   1.05211  (harmonic =   0.88759) maximal distance =0.00406817
 next E    =  -254.325081   (d E  =  -0.00005)

 reached required accuracy - stopping structural energy minimisation