 vasp.6.4.1 05Apr23 (build Sep 19 2024 10:44:22) complex

 executed on             LinuxIFC date 2024.10.20  00:40:49

 INCAR:
   SYSTEM = TiO2
   ISMEAR = 0
   SIGMA = 0.05
   EDIFF = 1E-7
   ALGO = ALL
   ISTART = 0
   IBRION = 2
   NSW = 1000
   ISYM = 0
   ISIF = 2
   EDIFFG = -0.01
   DIPOL = 0.5 0.5 0.5
   IDIPOL = 3
   LDIPOL = .TRUE.
   METAGGA = R2SCAN
   LUSE_VDW = .TRUE.
   BPARAM = 11.95
   CPARAM = 0.0093
   LASPH = .TRUE.
   ENCUT = 600
   PREC = Accurate
   LASPH = .TRUE.
   LREAL = .FALSE.
   ISPIN = 1
   NELM = 200
   NELMIN = 8
   NCORE = 8
   KPAR = 1
   LWAVE = .FALSE.
   LCHARG = .FALSE.

 POTCAR:    PAW_PBE C 08Apr2002
 POTCAR:    PAW_PBE H 15Jun2001
 POTCAR:    PAW_PBE Ti_pv 07Sep2000
 POTCAR:    PAW_PBE O 08Apr2002
|           W    W    AA    RRRRR   N    N  II  N    N   GGGG   !!!           |
|           W    W   A  A   R    R  NN   N  II  NN   N  G    G  !!!           |
|           W    W  A    A  R    R  N N  N  II  N N  N  G       !!!           |
|           W WW W  AAAAAA  RRRRR   N  N N  II  N  N N  G  GGG   !            |
|           WW  WW  A    A  R   R   N   NN  II  N   NN  G    G                |
|           W    W  A    A  R    R  N    N  II  N    N   GGGG   !!!           |
|     For optimal performance we recommend to set                             |
|       NCORE = 2 up to number-of-cores-per-socket                            |
|     This setting can greatly improve the performance of VASP for DFT.       |
|     The default, NCORE=1 might be grossly inefficient on modern             |
|     multi-core architectures or massively parallel machines. Do your        |
|     Unfortunately you need to use the default for GW and RPA                |
|     calculations (for HF NCORE is supported but not extensively tested      |
|     yet).                                                                   |

   TITEL  = PAW_PBE C 08Apr2002
   POMASS =   12.011; ZVAL   =    4.000    mass and valenz
   ENMAX  =  400.000; ENMIN  =  300.000 eV

   TITEL  = PAW_PBE H 15Jun2001
   POMASS =    1.000; ZVAL   =    1.000    mass and valenz
   ENMAX  =  250.000; ENMIN  =  200.000 eV

   TITEL  = PAW_PBE Ti_pv 07Sep2000
   POMASS =   47.880; ZVAL   =   10.000    mass and valenz
   ENMAX  =  222.335; ENMIN  =  166.751 eV

   TITEL  = PAW_PBE O 08Apr2002
   POMASS =   16.000; ZVAL   =    6.000    mass and valenz
   ENMAX  =  400.000; ENMIN  =  300.000 eV

  PAW_PBE C 08Apr2002                   :
  PAW_PBE H 15Jun2001                   :
  PAW_PBE Ti_pv 07Sep2000               :
  PAW_PBE O 08Apr2002                   :

 POSCAR:  C  H Ti  O
  positions in direct lattice

 METAGGA = R2SCAN                                      LMAXTAU =  6    LMIXTAU =  F

 ion  position               nearest neighbor table
   1  0.500  0.500  0.812-   2 1.10   3 1.10   4 1.10   5 1.10
   2  0.496  0.576  0.832-   1 1.10
   3  0.504  0.424  0.832-   1 1.10
   4  0.571  0.504  0.792-   1 1.10
   5  0.429  0.496  0.792-   1 1.10
   6  0.750  0.625  0.287-  87 1.95 147 1.95 146 1.95  86 1.95  89 1.97 168 1.97  16 2.96  36 2.96

   7  0.000  0.750  0.287-  88 1.95  89 1.95 108 1.95 109 1.95  90 1.97  37 2.96  17 2.96
   8  0.000  0.625  0.394-  90 1.95  91 1.95 150 1.95 151 1.95  92 1.97  93 1.97  18 2.96  38 2.96

[...]

  85  0.500  0.500  0.708- 239 1.81 184 1.94 185 1.94 244 1.94 245 1.94  55 2.96  75 2.96
  86  0.750  0.750  0.246-   6 1.95  16 1.95
  87  0.750  0.750  0.329-   6 1.95  16 1.95   9 1.97
  88  0.098  0.625  0.287-   7 1.95  37 1.95  46 1.97
  89  0.902  0.625  0.287-   7 1.95  37 1.95   6 1.97
  90  0.000  0.750  0.352-   8 1.95  18 1.95   7 1.97
  91  0.000  0.750  0.435-   8 1.95  18 1.95  11 1.97
  92  0.848  0.625  0.394-   9 1.95  39 1.95   8 1.97
  93  0.152  0.625  0.394-  49 1.95  79 1.95   8 1.97
  94  0.750  0.750  0.458-  10 1.95  20 1.95   9 1.97
  95  0.750  0.750  0.542-  10 1.95  20 1.95  13 2.09
  96  0.098  0.625  0.500-  11 1.95  41 1.95  50 1.97
  97  0.902  0.625  0.500-  11 1.95  41 1.95  10 1.97
  98  1.000  0.750  0.565-  22 1.90  12 1.90  11 1.99
  99  0.000  0.750  0.649-  15 1.81  12 2.01  22 2.01
 100  0.850  0.625  0.607-  12 1.95  13 1.97  43 1.97
 101  0.150  0.625  0.607-  12 1.95  83 1.97  53 1.97
 102  0.750  0.750  0.671-  13 1.87  24 2.09  14 2.09
 103  0.750  0.750  0.755-  24 1.83  14 1.83
 104  0.094  0.625  0.718-  45 1.94  15 1.94  54 2.03
 105  0.906  0.625  0.718-  45 1.94  15 1.94  14 2.03
 106  0.750  0.000  0.246-  16 1.95  26 1.95
 107  0.750  0.000  0.329-  16 1.95  26 1.95  19 1.97
 108  0.098  0.875  0.287-   7 1.95  17 1.95  56 1.97
 109  0.902  0.875  0.287-   7 1.95  17 1.95  16 1.97
 110  0.000  0.000  0.352-  18 1.95  28 1.95  17 1.97
 111  0.000  0.000  0.435-  18 1.95  28 1.95  21 1.97
 112  0.848  0.875  0.394-   9 1.95  19 1.95  18 1.97
 113  0.152  0.875  0.394-  49 1.95  59 1.95  18 1.97
 114  0.750  0.000  0.458-  20 1.95  30 1.95  19 1.97
 115  0.750  0.000  0.542-  20 1.95  30 1.95  23 2.09
 116  0.098  0.875  0.500-  11 1.95  21 1.95  60 1.97
 117  0.902  0.875  0.500-  11 1.95  21 1.95  20 1.97
 118  1.000  0.000  0.565-  22 1.90  32 1.90  21 1.99
 119  0.000  1.000  0.649-  25 1.81  32 2.01  22 2.01
 120  0.850  0.875  0.607-  22 1.95  23 1.97  13 1.97
 121  0.150  0.875  0.607-  22 1.95  63 1.97  53 1.97
 122  0.750  0.000  0.671-  23 1.87  34 2.09  24 2.09
 123  0.750  1.000  0.755-  34 1.83  24 1.83
 124  0.094  0.875  0.718-  15 1.94  25 1.94  64 2.03
 125  0.906  0.875  0.718-  25 1.94  15 1.94  24 2.03
 126  0.750  0.250  0.246-  26 1.95  36 1.95
 127  0.750  0.250  0.329-  26 1.95  36 1.95  29 1.97
 128  0.098  0.125  0.287-  17 1.95  27 1.95  66 1.97
 129  0.902  0.125  0.287-  17 1.95  27 1.95  26 1.97
 130  0.000  0.250  0.352-  28 1.95  38 1.95  27 1.97
 131  0.000  0.250  0.435-  28 1.95  38 1.95  31 1.97
 132  0.848  0.125  0.394-  19 1.95  29 1.95  28 1.97
 133  0.152  0.125  0.394-  59 1.95  69 1.95  28 1.97
 134  0.750  0.250  0.458-  30 1.95  40 1.95  29 1.97
 135  0.750  0.250  0.542-  30 1.95  40 1.95  33 2.09
 136  0.098  0.125  0.500-  21 1.95  31 1.95  70 1.97
 137  0.902  0.125  0.500-  21 1.95  31 1.95  30 1.97
 138  1.000  0.250  0.565-  42 1.90  32 1.90  31 1.99
 139  0.000  0.250  0.649-  35 1.81  32 2.01  42 2.01
 140  0.850  0.125  0.607-  32 1.95  33 1.97  23 1.97
 141  0.150  0.125  0.607-  32 1.95  63 1.97  73 1.97
 142  0.750  0.250  0.671-  33 1.87  44 2.09  34 2.09
 143  0.750  0.250  0.755-  44 1.83  34 1.83
 144  0.094  0.125  0.718-  35 1.94  25 1.94  74 2.03
[...]
 231  0.500  0.500  0.435-  48 1.95  78 1.95  81 1.97
 232  0.348  0.375  0.394-  69 1.95  79 1.95  78 1.97
 233  0.652  0.375  0.394-  29 1.95  39 1.95  78 1.97
 234  0.250  0.500  0.458-  50 1.95  80 1.95  79 1.97
 235  0.250  0.500  0.542-  50 1.95  80 1.95  83 2.09
 236  0.598  0.375  0.500-  71 1.95  81 1.95  40 1.97
 237  0.402  0.375  0.500-  71 1.95  81 1.95  80 1.97
 238  0.500  0.500  0.565-  82 1.90  52 1.90  81 1.99
 239  0.500  0.500  0.649-  85 1.81  52 2.01  82 2.01
 240  0.350  0.375  0.607-  82 1.95  73 1.97  83 1.97
 241  0.650  0.375  0.607-  82 1.95  43 1.97  33 1.97
 242  0.250  0.500  0.671-  83 1.87  84 2.09  54 2.09
 243  0.250  0.500  0.755-  54 1.83  84 1.83
 244  0.594  0.375  0.718-  85 1.94  75 1.94  44 2.03
 245  0.406  0.375  0.718-  75 1.94  85 1.94  84 2.03

IMPORTANT INFORMATION: All symmetrisations will be switched off!
NOSYMM: (Re-)initialisation of all symmetry stuff for point group C_1.

                                     Primitive cell

  volume of cell :    4687.7932

  direct lattice vectors                    reciprocal lattice vectors
    12.981765453  0.000000000  0.000000000     0.077031125  0.000000000  0.000000000
     0.000000000 11.829918508  0.000000000     0.000000000  0.084531436  0.000000000
     0.000000000  0.000000000 30.524807391     0.000000000  0.000000000  0.032760239

  length of vectors
    12.981765453 11.829918508 30.524807391     0.077031125  0.084531436  0.032760239

  position of ions in fractional coordinates (direct lattice)
     0.500063020  0.500001977  0.811679511
     0.496107534  0.575768103  0.832295346
     0.504026092  0.424233455  0.832299188
     0.570694272  0.504286354  0.791959591
     0.429415799  0.495704017  0.791966221
     0.750000000  0.625000000  0.287357127
     0.000000000  0.750000000  0.287357127
     0.000000000  0.625000000  0.393678564
     0.750000000  0.750000000  0.393678564
     0.750000000  0.625000000  0.500000000
     0.000000000  0.750000000  0.500000000
     0.999999975  0.624999996  0.604133439
     0.749999938  0.749999994  0.610202908
     0.750000066  0.624999975  0.719737307
     0.000000051  0.749999998  0.707967630
     0.750000000  0.875000000  0.287357127
     0.000000000  0.000000000  0.287357127
     0.000000000  0.875000000  0.393678564
     0.750000000  0.000000000  0.393678564
     0.750000000  0.875000000  0.500000000
     0.000000000  0.000000000  0.500000000
     0.999999953  0.875000007  0.604133430
     0.749999934  0.999999993  0.610202922
     0.750000020  0.874999952  0.719737329
     0.999999999  0.999999991  0.707967643
     0.750000000  0.125000000  0.287357127
     0.000000000  0.250000000  0.287357127
     0.000000000  0.125000000  0.393678564
     0.750000000  0.250000000  0.393678564
     0.750000000  0.125000000  0.500000000
     0.000000000  0.250000000  0.500000000
     0.999999971  0.124999995  0.604133456
     0.749999939  0.249999987  0.610202920
     0.750000026  0.124999981  0.719737342
     0.000000064  0.250000002  0.707967647
     0.750000000  0.375000000  0.287357127
     0.000000000  0.500000000  0.287357127
     0.000000000  0.375000000  0.393678564
     0.750000000  0.500000000  0.393678564
     0.750000000  0.375000000  0.500000000
     0.000000000  0.500000000  0.500000000
     0.999999958  0.374999994  0.604133442
     0.749999936  0.500000001  0.610202903
     0.750000076  0.374999948  0.719737327
     0.000000077  0.500000004  0.707967634
     0.250000000  0.625000000  0.287357127
     0.500000000  0.750000000  0.287357127
     0.500000000  0.625000000  0.393678564
     0.250000000  0.750000000  0.393678564
     0.250000000  0.625000000  0.500000000
     0.500000000  0.750000000  0.500000000
     0.499999960  0.625000000  0.604133443
     0.249999931  0.750000018  0.610202917
     0.250000052  0.625000010  0.719737319
     0.500000061  0.750000004  0.707967626
     0.250000000  0.875000000  0.287357127
     0.500000000  0.000000000  0.287357127
     0.500000000  0.875000000  0.393678564
     0.250000000  0.000000000  0.393678564
     0.250000000  0.875000000  0.500000000
[...]
     0.500000000  0.500000000  0.435333895
     0.347946691  0.375000000  0.393678564
     0.652053309  0.375000000  0.393678564
     0.250000000  0.500000000  0.458344669
     0.250000000  0.500000000  0.541655331
     0.597946691  0.375000000  0.500000000
     0.402053309  0.375000000  0.500000000
     0.499999903  0.499999995  0.565135701
     0.500000068  0.500000001  0.648583822
     0.350049465  0.374999983  0.606878662
     0.649950581  0.374999992  0.606878611
     0.250000059  0.499999994  0.671309955
     0.249999858  0.500000005  0.754960536
[...]
   4.54426006  4.43621924 18.52485426
   8.43750600  4.43621934 18.52485272
   3.24544213  5.91495918 20.49160707
   3.24543952  5.91495932 23.04502496
   7.70921927  4.43621963 21.92548873
   5.27254931  4.43621956 21.92549300

--------------------------------------- Iteration      FINAL  ---------------------------------------

--------------------OUTCAR has been truncated-------------------------

[...]

--------------------OUTCAR has been truncated-------------------------

  FORCE on cell =-STRESS in cart. coord.  units (eV):
  Direction    XX          YY          ZZ          XY          YZ          ZX
  Alpha Z  4699.24897  4699.24897  4699.24897
  Ewald  980427.37431998074.41056************    -0.35269    -0.00911     0.04969
  Hartree************************************    -0.25032     0.00018     0.01039
  E(xc)   -9157.42478 -9166.92627 -9155.24574    -0.00224     0.00002    -0.00017
  Local  ************************************     0.62745     0.00540    -0.05660
  n-local -5185.71717 -5090.73930 -5230.74953    -0.00154     0.00031     0.00062
  augment  5516.59574  5483.78293  5520.56833    -0.00165     0.00005    -0.00005
  Kinetic 28775.57323 28287.26195 28821.70411    -0.00736     0.00048    -0.00559
  Fock        0.00000     0.00000     0.00000     0.00000     0.00000     0.00000
  Total       5.05394   -45.07895   -36.14324     0.01166    -0.00267    -0.00171
  in kB       1.72732   -15.40693   -12.35291     0.00399    -0.00091    -0.00058

 VOLUME and BASIS-vectors are now :
  energy-cutoff  :      600.00
  volume of cell :     4687.79
      direct lattice vectors                 reciprocal lattice vectors
    12.981765453  0.000000000  0.000000000     0.077031125  0.000000000  0.000000000
     0.000000000 11.829918508  0.000000000     0.000000000  0.084531436  0.000000000
     0.000000000  0.000000000 30.524807391     0.000000000  0.000000000  0.032760239

  length of vectors
    12.981765453 11.829918508 30.524807391     0.077031125  0.084531436  0.032760239

 FORCES acting on ions:
    Electron-Ion                     Ewald-Force                    Non-Local-Force
   0.745E-02 -.329E-02 -.156E+04   -.552E-02 0.586E-02 0.156E+04   0.341E-03 0.335E-02 -.959E+00
   0.158E+01 -.439E+02 -.383E+03   -.177E+01 0.487E+02 0.387E+03   0.192E+00 -.473E+01 -.334E+01
   -.159E+01 0.439E+02 -.383E+03   0.178E+01 -.487E+02 0.387E+03   -.193E+00 0.474E+01 -.335E+01
   -.359E+02 -.172E+01 -.397E+03   0.409E+02 0.191E+01 0.395E+03   -.498E+01 -.187E+00 0.280E+01
   0.359E+02 0.172E+01 -.397E+03   -.409E+02 -.190E+01 0.395E+03   0.498E+01 0.187E+00 0.280E+01
   -.104E+00 -.297E-01 0.381E+04   0.104E+00 0.298E-01 -.381E+04   -.861E-04 -.152E-04 0.444E+00
   -.388E-03 -.423E-01 0.399E+04   0.135E-03 0.424E-01 -.398E+04   0.264E-03 -.124E-04 -.402E+01
   -.814E-03 -.435E-01 0.194E+04   0.889E-03 0.438E-01 -.194E+04   -.832E-04 -.137E-04 -.622E-01
   -.140E+00 -.287E-01 0.193E+04   0.139E+00 0.293E-01 -.194E+04   0.506E-03 -.361E-04 0.217E+00
   -.379E+00 -.148E+00 -.335E+00   0.371E+00 0.146E+00 0.112E+01   0.131E-02 0.112E-03 -.126E+00
   -.105E-01 -.403E+00 0.104E+02   0.106E-01 0.406E+00 -.115E+02   0.133E-03 -.685E-03 0.314E+00
   -.278E-01 -.127E+01 -.188E+04   0.278E-01 0.128E+01 0.188E+04   -.136E-03 -.220E-02 0.134E+00
   -.423E+01 -.349E+01 -.194E+04   0.423E+01 0.349E+01 0.194E+04   -.395E-02 -.402E-02 -.163E+00
   -.362E+02 -.140E+02 -.376E+04   0.362E+02 0.140E+02 0.376E+04   0.106E-01 0.689E-02 -.280E+00
   -.155E-01 -.470E+01 -.380E+04   0.137E-01 0.470E+01 0.380E+04   0.147E-02 -.255E-02 0.118E+01
   -.105E+00 -.298E-01 0.381E+04   0.105E+00 0.300E-01 -.381E+04   -.296E-04 -.151E-04 0.444E+00
   -.300E-03 -.116E-05 0.399E+04   0.430E-04 0.113E-05 -.398E+04   0.260E-03 0.357E-07 -.402E+01
   -.849E-03 -.444E-01 0.194E+04   0.923E-03 0.446E-01 -.194E+04   -.806E-04 -.191E-04 -.622E-01
   -.178E+00 -.110E-02 0.193E+04   0.176E+00 0.113E-02 -.194E+04   0.598E-03 0.476E-05 0.217E+00
   -.824E+00 -.203E+00 -.823E+00   0.821E+00 0.211E+00 0.162E+01   0.652E-03 -.480E-03 -.127E+00
   -.251E-04 -.845E-04 0.997E+01   -.178E-03 0.838E-04 -.110E+02   0.220E-03 0.732E-06 0.313E+00
   -.525E-01 -.124E+01 -.188E+04   0.526E-01 0.124E+01 0.188E+04   -.118E-03 -.258E-02 0.132E+00
   -.337E+01 0.183E-02 -.195E+04   0.337E+01 -.163E-02 0.195E+04   0.197E-02 -.221E-03 -.158E+00
   -.128E+02 -.101E+02 -.378E+04   0.128E+02 0.101E+02 0.378E+04   0.189E-01 0.111E-02 -.294E+00
   -.496E-02 0.198E-03 -.381E+04   0.469E-02 -.210E-03 0.381E+04   0.290E-03 0.530E-06 0.118E+01
   -.105E+00 0.297E-01 0.381E+04   0.105E+00 -.298E-01 -.381E+04   -.292E-04 0.121E-04 0.444E+00
   -.215E-03 0.423E-01 0.399E+04   -.457E-04 -.424E-01 -.398E+04   0.257E-03 0.119E-04 -.402E+01
   0.675E-03 0.444E-01 0.194E+04   -.649E-03 -.446E-01 -.194E+04   -.718E-04 0.186E-04 -.622E-01
   -.140E+00 0.288E-01 0.193E+04   0.139E+00 -.294E-01 -.194E+04   0.501E-03 0.378E-04 0.217E+00
   -.834E+00 0.186E+00 -.845E+00   0.830E+00 -.193E+00 0.164E+01   0.759E-03 0.364E-03 -.128E+00
   0.102E-01 0.403E+00 0.104E+02   -.106E-01 -.406E+00 -.115E+02   0.307E-03 0.687E-03 0.314E+00
   0.401E-01 0.124E+01 -.188E+04   -.403E-01 -.124E+01 0.188E+04   0.242E-03 0.258E-02 0.132E+00
   -.435E+01 0.349E+01 -.194E+04   0.435E+01 -.350E+01 0.194E+04   -.350E-02 0.318E-02 -.163E+00
   -.127E+02 0.101E+02 -.378E+04   0.127E+02 -.101E+02 0.378E+04   0.183E-01 -.778E-03 -.295E+00
   0.380E-02 0.470E+01 -.380E+04   -.263E-02 -.470E+01 0.380E+04   -.837E-03 0.255E-02 0.118E+01
   -.104E+00 0.298E-01 0.381E+04   0.104E+00 -.300E-01 -.381E+04   -.867E-04 0.139E-04 0.444E+00
   -.303E-03 0.113E-05 0.399E+04   0.466E-04 -.114E-05 -.398E+04   0.260E-03 -.772E-07 -.402E+01
   0.607E-03 0.435E-01 0.194E+04   -.581E-03 -.438E-01 -.194E+04   -.684E-04 0.129E-04 -.622E-01
   -.103E+00 0.101E-02 0.193E+04   0.102E+00 -.104E-02 -.194E+04   0.349E-03 -.413E-05 0.217E+00
   -.387E+00 0.164E+00 -.350E+00   0.378E+00 -.164E+00 0.114E+01   0.141E-02 0.957E-05 -.126E+00
   -.274E-03 0.434E-04 0.108E+02   0.737E-04 -.440E-04 -.119E+02   0.219E-03 -.309E-06 0.314E+00
   0.139E-01 0.127E+01 -.188E+04   -.141E-01 -.128E+01 0.188E+04   0.250E-03 0.220E-02 0.134E+00
   -.558E+01 0.766E-02 -.194E+04   0.558E+01 -.852E-02 0.194E+04   -.162E-02 0.862E-03 -.169E+00
   -.360E+02 0.142E+02 -.376E+04   0.359E+02 -.142E+02 0.376E+04   0.834E-02 -.665E-02 -.281E+00
   -.574E-02 -.344E-03 -.380E+04   0.542E-02 0.375E-03 0.380E+04   0.324E-03 -.731E-05 0.117E+01
   0.105E+00 -.298E-01 0.381E+04   -.104E+00 0.300E-01 -.381E+04   -.238E-03 -.142E-04 0.444E+00
   -.133E-03 -.414E-01 0.399E+04   -.130E-03 0.418E-01 -.398E+04   0.260E-03 -.405E-04 -.402E+01
   0.782E-03 0.216E-01 0.194E+04   -.765E-03 -.158E-01 -.194E+04   -.613E-04 -.111E-02 -.624E-01
   0.140E+00 -.287E-01 0.193E+04   -.139E+00 0.293E-01 -.194E+04   -.283E-04 -.380E-04 0.217E+00
   0.387E+00 -.164E+00 -.352E+00   -.379E+00 0.163E+00 0.114E+01   -.174E-02 -.990E-05 -.126E+00
   0.107E-01 0.135E+00 0.116E+02   -.112E-01 -.165E+00 -.126E+02   0.233E-03 0.162E-01 0.299E+00
   0.205E-02 -.284E+01 -.188E+04   -.202E-02 0.287E+01 0.188E+04   -.605E-04 -.331E-01 0.143E+00
   0.435E+01 -.349E+01 -.194E+04   -.435E+01 0.350E+01 0.194E+04   0.389E-02 -.317E-02 -.163E+00
   0.359E+02 -.142E+02 -.376E+04   -.359E+02 0.142E+02 0.376E+04   -.826E-02 0.663E-02 -.282E+00
   0.203E+00 -.366E+02 -.377E+04   -.202E+00 0.366E+02 0.377E+04   -.166E-02 -.128E-01 0.124E+01
   0.105E+00 -.297E-01 0.381E+04   -.105E+00 0.298E-01 -.381E+04   -.295E-03 -.125E-04 0.444E+00
   -.215E-03 -.703E-06 0.399E+04   -.435E-04 0.709E-06 -.398E+04   0.261E-03 -.259E-06 -.402E+01
   0.805E-03 0.181E-01 0.194E+04   -.787E-03 -.153E-01 -.194E+04   -.670E-04 -.746E-03 -.627E-01
   0.178E+00 0.108E-02 0.193E+04   -.176E+00 -.111E-02 -.194E+04   -.125E-03 -.427E-05 0.217E+00
   0.834E+00 -.186E+00 -.846E+00   -.830E+00 0.193E+00 0.164E+01   -.109E-02 -.365E-03 -.128E+00
[...]
   -.531E+02 -.273E-03 0.116E+04   0.571E+02 -.380E-03 -.116E+04   -.361E+01 0.991E-03 0.181E+00
   0.531E+02 0.416E-03 0.116E+04   -.571E+02 -.110E-02 -.116E+04   0.361E+01 0.105E-02 0.181E+00
   0.112E+00 -.205E-02 0.508E+03   -.109E+00 0.231E-02 -.512E+03   -.462E-02 -.571E-03 0.431E+01
   0.407E+00 -.667E-02 -.522E+03   -.398E+00 0.698E-02 0.530E+03   -.883E-02 -.599E-03 -.715E+01
   -.549E+02 -.166E+00 0.575E+01   0.597E+02 0.163E+00 -.598E+01   -.530E+01 0.148E-01 0.319E+00
   0.549E+02 -.171E+00 0.575E+01   -.597E+02 0.168E+00 -.598E+01   0.530E+01 0.146E-01 0.320E+00
   -.231E-02 0.928E-04 -.630E+03   0.262E-02 -.109E-03 0.623E+03   -.299E-03 0.205E-04 0.661E+01
   0.609E-02 -.294E-03 -.161E+04   -.660E-02 0.282E-03 0.160E+04   0.521E-03 0.227E-04 0.185E+01
   -.263E+02 0.185E+01 -.114E+04   0.293E+02 -.190E+01 0.114E+04   -.304E+01 0.435E-01 0.847E+00
   0.263E+02 0.183E+01 -.114E+04   -.294E+02 -.187E+01 0.114E+04   0.304E+01 0.403E-01 0.857E+00
   0.124E+02 -.127E+00 -.181E+04   -.125E+02 0.134E+00 0.181E+04   0.107E+00 -.671E-02 -.227E+01
   0.404E+02 0.260E-01 -.272E+04   -.404E+02 -.314E-01 0.274E+04   -.340E-01 0.550E-02 -.213E+02
   -.422E+02 0.239E+02 -.231E+04   0.484E+02 -.239E+02 0.232E+04   -.630E+01 -.159E-02 -.346E+01
   0.423E+02 0.236E+02 -.231E+04   -.486E+02 -.236E+02 0.231E+04   0.631E+01 -.290E-01 -.337E+01
   -.168E-01 -.457E-02 0.974E+02   -.236E-11 0.102E-11 -.318E-11   0.178E-01 0.461E-02 -.975E+02

 POSITION                                       TOTAL-FORCE (eV/Angst)
      6.49128      5.91488     24.65238         0.002259      0.005886     -0.002933
      6.45559      6.80785     25.27595         0.001708     -0.001652     -0.003198
      6.52707      5.02216     25.27597        -0.001756     -0.003606      0.000130
      7.41205      5.95028     24.06244         0.002629     -0.001869     -0.005926
      5.57053      5.87958     24.06255        -0.005018      0.001369     -0.007235
      9.73632      7.39370      8.77152        -0.000244      0.000096     -3.754905
      0.00000      8.87244      8.77152         0.000003      0.000091      2.942139
      0.00000      7.39370     12.01696        -0.000011      0.000240      0.543698
      9.73632      8.87244     12.01696        -0.000943      0.000560     -0.754042
      9.73632      7.39370     15.26240        -0.006971     -0.001982      0.656941
      0.00000      8.87244     15.26240         0.000194      0.001787     -0.738424
      0.00010      7.39391     18.44149        -0.000059     -0.000076      0.000048
      9.73709      8.87272     18.62270        -0.001156      0.000961     -0.000241
      9.73965      7.39630     21.96143         0.001469     -0.002830      0.000009
      0.00088      8.87379     21.61319        -0.000268      0.000338      0.000451
      9.73632     10.35118      8.77152        -0.000333      0.000158     -3.754903
      0.00000      0.00000      8.77152        -0.000004     -0.000000      2.942237
      0.00000     10.35118     12.01696        -0.000009      0.000228      0.544003
      9.73632      0.00000     12.01696        -0.001262      0.000031     -0.753751
      9.73632     10.35118     15.26240        -0.003139      0.008179      0.660973
      0.00000      0.00000     15.26240         0.000010     -0.000000     -0.738075
      0.00004     10.35142     18.44195        -0.000059     -0.000195     -0.000510
      9.73578      0.00006     18.62460         0.000740      0.000018     -0.000941
      9.73512     10.35216     21.96837        -0.000497     -0.004133     -0.002236
      0.00004     -0.00000     21.61312         0.000013     -0.000011      0.000799
      9.73632      1.47874      8.77152        -0.000332     -0.000132     -3.754883
      0.00000      2.95748      8.77152        -0.000010     -0.000092      2.942139
      0.00000      1.47874     12.01696        -0.000049     -0.000229      0.544003
      9.73632      2.95748     12.01696        -0.000945     -0.000560     -0.753830
      9.73632      1.47874     15.26240        -0.003167     -0.006587      0.662044
      0.00000      2.95748     15.26240        -0.000171     -0.001787     -0.738424
     -0.00005      1.47850     18.44195         0.000067      0.000193     -0.000511
      9.73666      2.95723     18.62307        -0.001024     -0.000962     -0.000280
      9.73408      1.47807     21.96860         0.000021      0.003891     -0.002352
     -0.00078      2.95613     21.61319         0.000282     -0.000347      0.000444
      9.73632      4.43622      8.77152        -0.000243     -0.000127     -3.754909
      0.00000      5.91496      8.77152        -0.000004     -0.000000      2.942164
      0.00000      4.43622     12.01696        -0.000046     -0.000241      0.543698
      9.73632      5.91496     12.01696        -0.000640     -0.000029     -0.754057
      9.73632      4.43622     15.26240        -0.007000      0.000382      0.658086
      0.00000      5.91496     15.26240         0.000011     -0.000001     -0.738892
     -0.00011      4.43601     18.44149         0.000062      0.000079      0.000049
      9.73727      5.91494     18.62354        -0.000905     -0.000012      0.000631
      9.73822      4.43417     21.96255         0.001831      0.002807     -0.000010
      0.00007      5.91496     21.61274        -0.000010      0.000023     -0.000132
      3.24544      7.39370      8.77152         0.000172      0.000126     -3.754909
      6.49088      8.87244      8.77152        -0.000011      0.000277      2.943352
      6.49088      7.39370     12.01696        -0.000047      0.004632      0.545362
      3.24544      8.87244     12.01696         0.000906      0.000559     -0.753819
      3.24544      7.39370     15.26240         0.006891     -0.000395      0.658124
      6.49088      8.87244     15.26240        -0.000248     -0.013556     -0.699065
      6.49096      7.38747     18.45610        -0.000052     -0.001003     -0.002462
      3.24510      8.87269     18.62307         0.001018      0.000971     -0.000290
      3.24368      7.39574     21.96256        -0.001878     -0.002814      0.000003
      6.49155      8.87438     21.60488        -0.000203     -0.001035     -0.001506
      3.24544     10.35118      8.77152         0.000260      0.000131     -3.754885
      6.49088      0.00000      8.77152        -0.000005     -0.000000      2.943361
      6.49088     10.35118     12.01696        -0.000052      0.002051      0.548253
      3.24544      0.00000     12.01696         0.001223     -0.000031     -0.753739
      3.24544     10.35118     15.26240         0.003056      0.006576      0.662069
[...]
      6.49088      5.91496     13.28848        -0.000004     -0.000000     -0.124232
      4.51696      4.43622     12.01696         0.448408      0.000337      0.057071
      8.46480      4.43622     12.01696        -0.448376      0.000375      0.057066
      3.24544      5.91496     13.99088        -0.001348     -0.000310     -0.080963
      3.24544      5.91496     16.53392         0.000664     -0.000284      0.038847
      7.76240      4.43622     15.26240        -0.458853      0.011735      0.086389
      5.21936      4.43622     15.26240         0.458557      0.011707      0.086442
      6.49089      5.91496     17.25754         0.000005      0.000004     -0.003037
      6.49089      5.91496     19.81925         0.000001      0.000011      0.002866
      4.54277      4.43647     18.52835        -0.000040     -0.000916     -0.000762
      8.43897      4.43664     18.52805         0.000094     -0.000988     -0.000695
      3.23482      5.91526     20.48904        -0.000932     -0.000020     -0.000694
      3.26199      5.91436     23.04032        -0.001718      0.000146     -0.000392
      7.71330      4.42495     21.90722         0.000020     -0.000687     -0.001910
      5.26714      4.42458     21.90340         0.000321     -0.000832     -0.001484
    total drift:                                0.000938      0.000046     -0.051592

  FREE ENERGIE OF THE ION-ELECTRON SYSTEM (eV)
  free  energy   TOTEN  =     -2735.41375445 eV

  energy  without entropy=    -2735.41375445  energy(sigma->0) =    -2735.41375445

 d Force = 0.2971836E-04[ 0.120E-04, 0.475E-04]  d Energy = 0.3646297E-04-0.674E-05
 d Force =-0.9316915E+01[-0.932E+01,-0.932E+01]  d Ewald  =-0.9316915E+01-0.209E-06

 Conjugate gradient step on ions:
 trial-energy change:   -0.000036  1 .order   -0.000030   -0.000047   -0.000012
  (g-gl).g = 0.571E-04      g.g   = 0.596E-04  gl.gl    = 0.749E-04
 g(Force)  = 0.596E-04   g(Stress)= 0.000E+00 ortho     = 0.516E-05
 gamma     =   0.76291
 trial     =   0.74701
 opt step  =   0.85607  (harmonic =   0.99846) maximal distance =0.00029444
 next E    = -2735.413755   (d E  =  -0.00004)

 reached required accuracy - stopping structural energy minimisation