 vasp.6.3.0 20Jan22 (build Apr  1 2022 16:44:48) complex
 executed on        HPECrayEX_GCC date 2023.02.21  02:09:43

 INCAR:
   SYSTEM = MgO-rocksalt
   ISMEAR = 0
   SIGMA = 0.05
   EDIFF = 1E-6
   ALGO = ALL
   ISTART = 0
   IBRION = -1
   NSW = 0
   ISYM = 0
   DIPOL = 0.5 0.5 0.5
   IDIPOL = 3
   LDIPOL = .TRUE.
   GGA = RE
   AGGAC = 0.0
   LUSE_VDW = .TRUE.
   LASPH = .TRUE.
   ENCUT = 600
   PREC = Accurate
   LASPH = .TRUE.
   LREAL = .FALSE.
   ISPIN = 1
   NELM = 200
   NELMIN = 8
   NCORE = 8
   KPAR = 1
   LWAVE = .FALSE.
   LCHARG = .FALSE.

 POTCAR:    PAW_PBE N 08Apr2002
 POTCAR:    PAW_PBE H 15Jun2001
 POTCAR:    PAW_PBE Mg_pv 13Apr2007
 POTCAR:    PAW_PBE O 08Apr2002
|               ----> ADVICE to this user running VASP <----                  |
|     You have switched on vdW-DFT.                                           |
|     This routine was written and supplied by Jiri Klimes. We recommend      |
|     that you carefully read and cite the following publications:            |
|       J. Klimes, D.R. Bowler, A. Michelides                                 |
|          J. Phys.: Cond Matt. 22 022201 (2010)                              |
|       J. Klimes, D.R. Bowler, A. Michelides                                 |
|          Phys. Rev. B. 83, 195131 (2011)                                    |
|     and references therein.                                                 |

   TITEL  = PAW_PBE N 08Apr2002
   POMASS =   14.001; ZVAL   =    5.000    mass and valenz
   ENMAX  =  400.000; ENMIN  =  300.000 eV

   TITEL  = PAW_PBE H 15Jun2001
   POMASS =    1.000; ZVAL   =    1.000    mass and valenz
   ENMAX  =  250.000; ENMIN  =  200.000 eV

   TITEL  = PAW_PBE Mg_pv 13Apr2007
   POMASS =   24.305; ZVAL   =    8.000    mass and valenz
   ENMAX  =  403.929; ENMIN  =  302.947 eV

   TITEL  = PAW_PBE O 08Apr2002
   POMASS =   16.000; ZVAL   =    6.000    mass and valenz
   ENMAX  =  400.000; ENMIN  =  300.000 eV

  PAW_PBE N 08Apr2002                   :
  PAW_PBE H 15Jun2001                   :
  PAW_PBE Mg_pv 13Apr2007               :
  PAW_PBE O 08Apr2002                   :

 POSCAR:  N  H Mg  O
  positions in direct lattice
 exchange correlation table for  LEXCH =       40
   RHO(1)=    0.500       N(1)  =     2000
   RHO(2)=  100.500       N(2)  =     4000

 ion  position               nearest neighbor table
   1  0.500  0.516  0.760-   4 1.02   3 1.02   2 1.02
   2  0.500  0.635  0.768-   1 1.02
   3  0.402  0.469  0.782-   1 1.02
   4  0.598  0.469  0.782-   1 1.02
   5  0.000  0.750  0.352-  37 2.11  39 2.11  40 2.11  47 2.11  56 2.11
   6  0.250  0.000  0.352-  38 2.11  39 2.11  40 2.11  48 2.11  55 2.11
   7  0.000  0.000  0.451-  39 2.11  38 2.11  37 2.11  45 2.11  54 2.11  43 2.12
   8  0.250  0.750  0.451-  40 2.11  38 2.11  37 2.11  46 2.11  53 2.11  44 2.12
   9  0.000  0.750  0.550-  51 2.11  44 2.11  60 2.11  43 2.11  37 2.12  41 2.16
  10  0.250  1.000  0.550-  59 2.11  52 2.11  44 2.11  43 2.11  38 2.12  42 2.16
  11  0.000  1.000  0.648-  43 2.10  42 2.11  58 2.11  49 2.11  41 2.11
  12  0.250  0.750  0.648-  44 2.09  41 2.11  42 2.11  50 2.11  57 2.11
  13  0.000  0.250  0.352-  45 2.11  39 2.11  47 2.11  48 2.11  64 2.11
  14  0.250  0.500  0.352-  46 2.11  40 2.11  47 2.11  48 2.11  63 2.11
  15  0.000  0.500  0.451-  47 2.11  45 2.11  46 2.11  37 2.11  62 2.11  51 2.11
  16  0.250  0.250  0.451-  48 2.11  45 2.11  46 2.11  38 2.11  61 2.11  52 2.12
  17  1.000  0.250  0.550-  51 2.11  68 2.11  52 2.11  43 2.11  45 2.12  49 2.16
  18  0.251  0.500  0.551-  67 2.10  52 2.11  44 2.11  51 2.12  46 2.13  50 2.15
  19  0.000  0.500  0.648-  66 2.09  50 2.09  51 2.10  49 2.12  41 2.12
  20  0.250  0.250  0.648-  52 2.10  42 2.11  49 2.11  65 2.11  50 2.11
  21  0.500  0.750  0.352-  53 2.11  40 2.11  55 2.11  56 2.11  63 2.11
  22  0.750  0.000  0.352-  54 2.11  39 2.11  55 2.11  56 2.11  64 2.11
  23  0.500  0.000  0.451-  55 2.11  53 2.11  54 2.11  38 2.11  61 2.11  59 2.11
  24  0.750  0.750  0.451-  56 2.11  53 2.11  54 2.11  37 2.11  62 2.11  60 2.12
  25  0.500  0.749  0.551-  67 2.10  60 2.11  44 2.11  59 2.12  53 2.13  57 2.15
  26  0.750  1.000  0.550-  59 2.11  68 2.11  60 2.11  43 2.11  54 2.12  58 2.16
  27  0.500  0.000  0.648-  65 2.09  57 2.09  59 2.10  42 2.12  58 2.12
  28  0.750  0.750  0.648-  60 2.09  41 2.11  58 2.11  66 2.11  57 2.11
  29  0.500  0.250  0.352-  61 2.11  55 2.11  48 2.11  63 2.11  64 2.11
  30  0.750  0.500  0.352-  62 2.11  56 2.11  47 2.11  63 2.11  64 2.11
  31  0.500  0.500  0.451-  63 2.11  53 2.11  61 2.11  62 2.11  46 2.11  67 2.14
  32  0.750  0.250  0.451-  64 2.11  54 2.11  61 2.11  62 2.11  45 2.11  68 2.12
  33  0.500  0.251  0.551-  67 2.10  52 2.11  68 2.11  59 2.12  61 2.13  65 2.14
  34  0.749  0.500  0.551-  67 2.10  68 2.11  60 2.11  51 2.12  62 2.13  66 2.15
  35  0.500  0.499  0.655-  65 2.12  66 2.13  50 2.13  57 2.15  67 2.22
  36  0.750  0.250  0.648-  68 2.10  58 2.11  49 2.11  65 2.11  66 2.11
  37  0.000  0.750  0.451-   5 2.11   7 2.11   8 2.11  15 2.11  24 2.11   9 2.12
  38  0.250  0.000  0.451-   6 2.11   7 2.11   8 2.11  16 2.11  23 2.11  10 2.12
  39  0.000  0.000  0.352-   7 2.11   6 2.11   5 2.11  13 2.11  22 2.11
  40  0.250  0.750  0.352-   8 2.11   6 2.11   5 2.11  14 2.11  21 2.11
  41  1.000  0.750  0.651-  11 2.11  28 2.11  12 2.11  19 2.12   9 2.16
  42  0.249  1.000  0.651-  11 2.11  20 2.11  12 2.11  27 2.12  10 2.16
  43  1.000  1.000  0.550-  11 2.10   9 2.11  26 2.11  10 2.11  17 2.11   7 2.12
  44  0.250  0.750  0.550-  12 2.09  10 2.11   9 2.11  25 2.11  18 2.11   8 2.12
  45  0.000  0.250  0.451-  13 2.11   7 2.11  15 2.11  16 2.11  32 2.11  17 2.12
  46  0.250  0.500  0.451-  14 2.11   8 2.11  15 2.11  16 2.11  31 2.11  18 2.13
  47  0.000  0.500  0.352-  15 2.11  13 2.11  14 2.11   5 2.11  30 2.11
  48  0.250  0.250  0.352-  16 2.11  13 2.11  14 2.11   6 2.11  29 2.11
  49  0.000  0.249  0.651-  11 2.11  36 2.11  20 2.11  19 2.12  17 2.16
  50  0.247  0.500  0.651-  19 2.09  12 2.11  20 2.11  35 2.13  18 2.15
  51  0.000  0.500  0.550-  19 2.10   9 2.11  17 2.11  15 2.11  34 2.12  18 2.12
  52  0.250  0.250  0.550-  20 2.10  10 2.11  17 2.11  18 2.11  33 2.11  16 2.12
  53  0.500  0.750  0.451-  21 2.11   8 2.11  23 2.11  24 2.11  31 2.11  25 2.13
  54  0.750  0.000  0.451-  22 2.11   7 2.11  23 2.11  24 2.11  32 2.11  26 2.12
  55  0.500  0.000  0.352-  23 2.11  21 2.11  22 2.11   6 2.11  29 2.11
  56  0.750  0.750  0.352-  24 2.11  21 2.11  22 2.11   5 2.11  30 2.11
  57  0.500  0.753  0.651-  27 2.09  12 2.11  28 2.11  35 2.15  25 2.15
  58  0.751  1.000  0.651-  11 2.11  36 2.11  28 2.11  27 2.12  26 2.16
  59  0.500  1.000  0.550-  27 2.10  26 2.11  10 2.11  23 2.11  25 2.12  33 2.12
  60  0.750  0.750  0.550-  28 2.09  26 2.11   9 2.11  25 2.11  34 2.11  24 2.12
  61  0.500  0.250  0.451-  29 2.11  23 2.11  16 2.11  31 2.11  32 2.11  33 2.13
  62  0.750  0.500  0.451-  30 2.11  24 2.11  15 2.11  31 2.11  32 2.11  34 2.13
  63  0.500  0.500  0.352-  31 2.11  21 2.11  29 2.11  30 2.11  14 2.11
  64  0.750  0.250  0.352-  32 2.11  22 2.11  29 2.11  30 2.11  13 2.11
  65  0.500  0.247  0.651-  27 2.09  20 2.11  36 2.11  35 2.12  33 2.14
  66  0.753  0.500  0.651-  19 2.09  28 2.11  36 2.11  35 2.13  34 2.15
  67  0.500  0.500  0.551-  25 2.10  18 2.10  34 2.10  33 2.10  31 2.14  35 2.22
  68  0.750  0.250  0.550-  36 2.10  26 2.11  17 2.11  34 2.11  33 2.11  32 2.12

IMPORTANT INFORMATION: All symmetrisations will be switched off!
NOSYMM: (Re-)initialisation of all symmetry stuff for point group C_1.

                                     Primitive cell

  volume of cell :    1519.8199

  direct lattice vectors                    reciprocal lattice vectors
     8.440984654  0.000000000  0.000000000     0.118469591  0.000000000  0.000000000
     0.000000000  8.440984654  0.000000000     0.000000000  0.118469591  0.000000000
     0.000000000  0.000000000 21.330738491     0.000000000  0.000000000  0.046880702

  length of vectors
     8.440984654  8.440984654 21.330738491     0.118469591  0.118469591  0.046880702

  position of ions in fractional coordinates (direct lattice)
     0.500000238  0.515515988  0.760397415
     0.499999981  0.635067396  0.767938398
     0.402069061  0.469393035  0.781666100
     0.597931073  0.469393296  0.781666268
     0.000000000  0.750000000  0.351605267
     0.250000000  0.000000000  0.351605267
     0.000000000  0.000000000  0.450535089
     0.250000000  0.750000000  0.450535089
     0.000000002  0.749683926  0.549893410
     0.250263522  0.999989873  0.549908943
     0.000000001  0.999953889  0.648375512
     0.249680169  0.750035883  0.648043586
     0.000000000  0.250000000  0.351605267
     0.250000000  0.500000000  0.351605267
     0.000000000  0.500000000  0.450535089
     0.250000000  0.250000000  0.450535089
     0.999999995  0.250229246  0.549913058
     0.251264402  0.499907421  0.550551274
     0.000000017  0.499888939  0.648188279
     0.249874845  0.249731960  0.648151920
     0.500000000  0.750000000  0.351605267
     0.750000000  0.000000000  0.351605267
     0.500000000  0.000000000  0.450535089
     0.750000000  0.750000000  0.450535089
     0.499999996  0.748689127  0.550582001
     0.749736477  0.999989873  0.549908956
     0.499999995  0.000230885  0.648178485
     0.750319838  0.750035869  0.648043580
     0.500000000  0.250000000  0.351605267
     0.750000000  0.500000000  0.351605267
     0.500000000  0.500000000  0.450535089
     0.750000000  0.250000000  0.450535089
     0.499999999  0.251188744  0.550506166
     0.748735610  0.499907415  0.550551309
     0.500000034  0.498638580  0.654927800
     0.750125161  0.249731957  0.648151929
     0.000000000  0.750000000  0.450535089
     0.250000000  0.000000000  0.450535089
     0.000000000  0.000000000  0.351605267
     0.250000000  0.750000000  0.351605267
     0.999999998  0.750486788  0.651100364
     0.249403677  0.999906086  0.651133405
     0.999999997  0.999932321  0.549747566
     0.249933154  0.750096792  0.549885275
     0.000000000  0.250000000  0.450535089
     0.250000000  0.500000000  0.450535089
     0.000000000  0.500000000  0.351605267
     0.250000000  0.250000000  0.351605267
     0.000000002  0.249363374  0.651160803
     0.247373170  0.499927644  0.651129740
     0.000000005  0.499978499  0.549670801
     0.249818529  0.249801412  0.549853953
     0.500000000  0.750000000  0.450535089
     0.750000000  0.000000000  0.450535089
     0.500000000  0.000000000  0.351605267
     0.750000000  0.750000000  0.351605267
     0.499999996  0.752917707  0.651485348
     0.750596322  0.999906078  0.651133423
     0.500000000  0.999871141  0.549675125
     0.750066839  0.750096789  0.549885280
     0.500000000  0.250000000  0.450535089
     0.750000000  0.500000000  0.450535089
     0.500000000  0.500000000  0.351605267
     0.750000000  0.250000000  0.351605267
     0.500000002  0.247330485  0.650918475
     0.752626876  0.499927627  0.651129742
     0.500000005  0.500041645  0.550741581
     0.750181473  0.249801401  0.549853959

  ion indices of the primitive-cell ions
   primitive index   ion index
                 1           1
[...]
   2.11024616  4.22049233  7.50000000
   0.00000000  4.22049233  9.61024616
   2.11024616  2.11024616  9.61024616
   8.44098461  2.11218123 11.73005164
   2.12091896  4.21971087 11.74366526
   0.00000015  4.21955487 13.82633468
   2.10918973  2.10798364 13.82555910
   4.22049233  6.33073849  7.50000000
   6.33073849  0.00000000  7.50000000
   4.22049233  0.00000000  9.61024616
   6.33073849  6.33073849  9.61024616
   4.22049230  6.31967343 11.74432068
   6.32851410  8.44089918 11.72996414
   4.22049228  0.00194889 13.82612576
   6.33343824  6.33104126 13.82324815
   4.22049233  2.11024616  7.50000000
   6.33073849  4.22049233  7.50000000
   4.22049233  4.22049233  9.61024616
   6.33073849  2.11024616  9.61024616
   4.22049232  2.12028034 11.74270306
   6.32006580  4.21971082 11.74366600
   4.22049261  4.20900061 13.97009364
   6.33179497  2.10798362 13.82555929
   0.00000000  6.33073849  9.61024616
   2.11024616  0.00000000  9.61024616
   0.00000000  0.00000000  7.50000000
   2.11024616  6.33073849  7.50000000
   8.44098464  6.33484746 13.88845160
   2.10521261  8.44019193 13.88915639
   8.44098463  8.44041337 11.72652157
   2.10968191  6.33155551 11.72945899
   0.00000000  2.11024616  9.61024616
   2.11024616  4.22049233  9.61024616
   0.00000000  4.22049233  7.50000000
   2.11024616  2.11024616  7.50000000
   0.00000002  2.10487242 13.88974081
   2.08807314  4.21988157 13.88907820
   0.00000005  4.22031084 11.72488410
   2.10871437  2.10856989 11.72879088
   4.22049233  6.33073849  9.61024616
   6.33073849  0.00000000  9.61024616
   4.22049233  0.00000000  7.50000000
   6.33073849  6.33073849  7.50000000
   4.22049229  6.35536681 13.89666358
   6.33577203  8.44019186 13.88915676
   4.22049233  8.43989696 11.72497634
   6.33130268  6.33155548 11.72945910
   4.22049233  2.11024616  9.61024616
   6.33073849  4.22049233  9.61024616
   4.22049233  4.22049233  7.50000000
   6.33073849  2.11024616  7.50000000
   4.22049234  2.08771283 13.88457177
   6.35291191  4.21988143 13.88907825
   4.22049237  4.22084386 11.74772465
   6.33227030  2.10856979 11.72879100

--------------------------------------- Iteration      FINAL  ---------------------------------------

--------------------OUTCAR has been truncated-------------------------

[...]

--------------------OUTCAR has been truncated-------------------------

  FORCE on cell =-STRESS in cart. coord.  units (eV):
  Direction    XX          YY          ZZ          XY          YZ          ZX
  Alpha Z   899.54725   899.54725   899.54725
  Ewald  159550.27078159547.74557************    -0.00005    -9.90923     0.00026
  Hartree169831.17746169831.32316************    -0.00001    -0.88963     0.00004
  E(xc)   -2554.49023 -2554.51264 -2557.70914    -0.00000    -0.11714     0.00000
  Local  ************************339243.19792     0.00004     7.00311    -0.00024
  n-local -2835.77868 -2835.88489 -2856.09539     0.00001    -0.27727     0.00000
  augment  1078.83876  1078.87461  1070.58872    -0.00000     0.09189     0.00000
  Kinetic  7450.31890  7451.65694  7503.14517    -0.00002     4.13549    -0.00006
  Fock        0.00000     0.00000     0.00000     0.00000     0.00000     0.00000
  Total      -8.27531    -8.24991    12.51169    -0.00002     0.03722     0.00002
  in kB      -8.72374    -8.69697    13.18969    -0.00002     0.03924     0.00002

 VOLUME and BASIS-vectors are now :
  energy-cutoff  :      600.00
  volume of cell :     1519.82
      direct lattice vectors                 reciprocal lattice vectors
     8.440984654  0.000000000  0.000000000     0.118469591  0.000000000  0.000000000
     0.000000000  8.440984654  0.000000000     0.000000000  0.118469591  0.000000000
     0.000000000  0.000000000 21.330738491     0.000000000  0.000000000  0.046880702

  length of vectors
     8.440984654  8.440984654 21.330738491     0.118469591  0.118469591  0.046880702

 FORCES acting on ions:
    Electron-Ion                     Ewald-Force                    Non-Local-Force
   -.755E-04 0.802E+01 -.133E+04   0.922E-04 -.130E+02 0.131E+04   -.774E-04 0.498E+01 0.249E+02
   0.140E-03 -.698E+02 -.273E+03   -.154E-03 0.771E+02 0.274E+03   0.162E-04 -.731E+01 -.890E+00
   0.578E+02 0.278E+02 -.279E+03   -.638E+02 -.307E+02 0.282E+03   0.605E+01 0.288E+01 -.307E+01
   -.578E+02 0.278E+02 -.279E+03   0.638E+02 -.307E+02 0.282E+03   -.605E+01 0.288E+01 -.307E+01
   0.212E-05 0.437E-01 0.208E+04   -.611E-05 -.498E-01 -.207E+04   0.491E-06 0.434E-02 -.645E+01
   -.409E-01 -.679E-04 0.208E+04   0.470E-01 -.817E-04 -.207E+04   -.427E-02 0.116E-03 -.645E+01
   0.191E-04 -.416E-01 0.712E+03   -.191E-04 0.468E-01 -.713E+03   0.470E-06 -.385E-02 0.478E+00
   -.355E+00 0.355E+00 0.713E+03   0.422E+00 -.412E+00 -.713E+03   -.471E-01 0.398E-01 0.532E+00
   0.981E-05 -.276E+01 -.645E+03   -.995E-05 0.267E+01 0.645E+03   -.159E-06 0.885E-01 0.684E-01
   0.280E+01 -.238E+00 -.646E+03   -.271E+01 0.251E+00 0.646E+03   -.862E-01 -.138E-01 0.722E-01
   -.120E-04 -.949E+00 -.201E+04   0.243E-04 0.961E+00 0.200E+04   0.203E-05 -.122E-01 0.533E+01
   0.208E+02 -.199E+02 -.198E+04   -.210E+02 0.200E+02 0.198E+04   0.131E+00 -.666E-01 0.551E+01
   0.635E-05 -.439E-01 0.208E+04   -.576E-05 0.499E-01 -.207E+04   0.287E-05 -.419E-02 -.645E+01
   -.738E-01 -.251E-03 0.208E+04   0.853E-01 0.166E-03 -.207E+04   -.855E-02 0.596E-04 -.648E+01
   0.354E-04 0.329E-01 0.713E+03   -.399E-04 -.415E-01 -.713E+03   0.401E-05 0.607E-02 0.368E+00
   -.322E+00 -.364E+00 0.713E+03   0.367E+00 0.417E+00 -.713E+03   -.309E-01 -.371E-01 0.513E+00
   -.868E-05 0.276E+01 -.647E+03   0.122E-04 -.267E+01 0.646E+03   0.198E-06 -.889E-01 0.840E-01
   0.270E+01 0.235E+00 -.643E+03   -.237E+01 -.246E+00 0.644E+03   -.342E+00 0.119E-01 -.381E+00
   -.940E-04 0.107E+01 -.199E+04   0.939E-04 -.108E+01 0.199E+04   -.222E-05 0.124E-01 0.532E+01
   0.188E+02 0.194E+02 -.199E+04   -.188E+02 -.194E+02 0.198E+04   0.592E-01 0.755E-01 0.549E+01
   -.486E-05 0.765E-01 0.208E+04   0.612E-05 -.881E-01 -.207E+04   -.422E-05 0.861E-02 -.649E+01
   0.409E-01 -.604E-04 0.208E+04   -.470E-01 -.820E-04 -.207E+04   0.427E-02 0.110E-03 -.645E+01
   -.196E-04 0.702E-02 0.713E+03   0.209E-04 -.220E-01 -.713E+03   -.227E-05 0.108E-01 0.371E+00
   0.355E+00 0.355E+00 0.713E+03   -.422E+00 -.412E+00 -.713E+03   0.471E-01 0.398E-01 0.532E+00
   -.652E-06 -.249E+01 -.644E+03   0.470E-06 0.215E+01 0.645E+03   -.519E-06 0.338E+00 -.243E+00
   -.280E+01 -.238E+00 -.646E+03   0.271E+01 0.251E+00 0.646E+03   0.862E-01 -.138E-01 0.722E-01
   -.703E-06 -.266E+01 -.199E+04   -.806E-05 0.268E+01 0.199E+04   0.829E-06 -.232E-01 0.532E+01
   -.208E+02 -.199E+02 -.198E+04   0.210E+02 0.200E+02 0.198E+04   -.131E+00 -.666E-01 0.551E+01
   -.952E-06 -.769E-01 0.208E+04   0.592E-05 0.883E-01 -.207E+04   -.894E-06 -.844E-02 -.648E+01
   0.738E-01 -.253E-03 0.208E+04   -.853E-01 0.166E-03 -.207E+04   0.855E-02 0.597E-04 -.648E+01
   -.337E-04 -.134E-01 0.711E+03   0.418E-04 0.246E-01 -.711E+03   -.631E-05 -.824E-02 0.611E+00
   0.322E+00 -.364E+00 0.713E+03   -.367E+00 0.417E+00 -.713E+03   0.309E-01 -.371E-01 0.513E+00
   -.750E-05 0.268E+01 -.643E+03   0.892E-05 -.235E+01 0.643E+03   -.223E-06 -.332E+00 -.437E+00
   -.270E+01 0.235E+00 -.643E+03   0.237E+01 -.246E+00 0.644E+03   0.342E+00 0.119E-01 -.381E+00
   0.149E-03 0.592E+01 -.192E+04   -.136E-03 -.624E+01 0.192E+04   -.107E-04 0.318E+00 0.723E+00
   -.188E+02 0.194E+02 -.199E+04   0.188E+02 -.194E+02 0.198E+04   -.592E-01 0.755E-01 0.549E+01
   0.114E-04 -.393E-01 0.535E+03   -.183E-04 0.181E-01 -.534E+03   0.735E-06 0.308E-01 -.367E-02
   0.436E-01 0.510E-02 0.534E+03   -.203E-01 -.149E-02 -.534E+03   -.336E-01 -.533E-02 -.156E-01
   0.409E-05 -.251E-02 0.156E+04   -.374E-05 0.350E-02 -.157E+04   -.365E-05 -.139E-02 0.357E+01
   -.495E-01 0.496E-01 0.156E+04   0.596E-01 -.585E-01 -.157E+04   -.142E-01 0.125E-01 0.355E+01
   -.418E-04 -.750E+01 -.153E+04   0.386E-04 0.736E+01 0.153E+04   0.526E-05 0.150E+00 -.510E+01
   0.758E+01 -.130E+01 -.153E+04   -.742E+01 0.129E+01 0.154E+04   -.164E+00 0.186E-01 -.510E+01
   -.176E-05 -.245E+00 -.481E+03   -.116E-05 0.249E+00 0.481E+03   -.241E-07 -.430E-02 0.317E+00
   0.186E+01 -.186E+01 -.475E+03   -.185E+01 0.184E+01 0.474E+03   -.171E-01 0.269E-01 0.547E+00
   0.243E-05 0.319E-01 0.534E+03   -.140E-04 -.656E-02 -.534E+03   0.284E-05 -.365E-01 -.221E-01
   -.107E+00 -.133E-01 0.533E+03   0.586E-01 0.150E-01 -.533E+03   0.634E-01 -.173E-02 -.169E+00
   0.382E-05 0.264E-02 0.156E+04   -.566E-05 -.352E-02 -.157E+04   -.357E-06 0.122E-02 0.355E+01
   -.449E-01 -.494E-01 0.156E+04   0.529E-01 0.585E-01 -.157E+04   -.111E-01 -.127E-01 0.355E+01
   -.413E-04 0.741E+01 -.153E+04   0.380E-04 -.726E+01 0.154E+04   0.303E-05 -.150E+00 -.509E+01
   0.255E+02 0.179E+01 -.149E+04   -.248E+02 -.179E+01 0.150E+04   -.691E+00 -.660E-02 -.499E+01
   -.130E-05 0.247E+00 -.475E+03   0.521E-05 -.251E+00 0.474E+03   -.190E-05 0.405E-02 0.396E+00
   0.194E+01 0.187E+01 -.476E+03   -.191E+01 -.184E+01 0.475E+03   -.322E-01 -.274E-01 0.489E+00
   -.568E-05 0.115E+00 0.533E+03   0.180E-04 -.639E-01 -.533E+03   -.175E-05 -.661E-01 -.179E+00
   -.436E-01 0.510E-02 0.534E+03   0.203E-01 -.150E-02 -.534E+03   0.336E-01 -.533E-02 -.156E-01
   -.359E-05 0.219E-02 0.156E+04   0.379E-05 -.332E-02 -.157E+04   0.294E-05 0.159E-02 0.355E+01
   0.495E-01 0.496E-01 0.156E+04   -.596E-01 -.585E-01 -.157E+04   0.142E-01 0.125E-01 0.355E+01
   0.221E-04 -.259E+02 -.149E+04   -.254E-04 0.250E+02 0.150E+04   -.195E-05 0.838E+00 -.487E+01
   -.758E+01 -.130E+01 -.153E+04   0.742E+01 0.129E+01 0.154E+04   0.164E+00 0.186E-01 -.510E+01
   -.714E-05 -.107E+00 -.474E+03   0.107E-04 0.109E+00 0.474E+03   -.769E-06 -.677E-03 0.399E+00
   -.186E+01 -.186E+01 -.475E+03   0.185E+01 0.184E+01 0.474E+03   0.171E-01 0.269E-01 0.547E+00
   -.112E-04 -.125E+00 0.533E+03   0.174E-04 0.798E-01 -.533E+03   -.614E-06 0.595E-01 -.154E+00
   0.107E+00 -.133E-01 0.533E+03   -.586E-01 0.150E-01 -.533E+03   -.634E-01 -.173E-02 -.169E+00
   -.442E-05 -.197E-02 0.156E+04   0.574E-05 0.323E-02 -.157E+04   0.891E-06 -.178E-02 0.353E+01
   0.449E-01 -.494E-01 0.156E+04   -.529E-01 0.585E-01 -.157E+04   0.111E-01 -.127E-01 0.355E+01
   0.383E-04 0.249E+02 -.150E+04   -.407E-04 -.243E+02 0.150E+04   0.214E-05 -.580E+00 -.503E+01
   -.255E+02 0.179E+01 -.149E+04   0.248E+02 -.179E+01 0.150E+04   0.691E+00 -.660E-02 -.499E+01
   -.345E-05 -.485E-01 -.489E+03   -.150E-05 0.439E-01 0.490E+03   0.128E-05 0.360E-02 -.115E+01
   -.194E+01 0.187E+01 -.476E+03   0.191E+01 -.184E+01 0.475E+03   0.322E-01 -.274E-01 0.489E+00
   0.717E-04 -.401E+01 0.299E+01   0.185E-12 -.163E-12 0.182E-11   -.902E-04 0.401E+01 -.294E+01

 POSITION                                       TOTAL-FORCE (eV/Angst)
      4.22049      4.35146     16.21984        -0.000060      0.010766      0.095806
      4.22049      5.36059     16.38069         0.000003     -0.008427      0.044197
      3.39386      3.96214     16.67352        -0.004854     -0.002646      0.029186
      5.04713      3.96214     16.67352         0.004904     -0.002668      0.029211
      0.00000      6.33074      7.50000        -0.000003     -0.001753      0.147534
      2.11025      0.00000      7.50000         0.001781      0.000003      0.148364
      0.00000      0.00000      9.61025         0.000001      0.001337      0.024332
      2.11025      6.33074      9.61025         0.019238     -0.016983      0.038380
      0.00000      6.32807     11.72963        -0.000000     -0.002063      0.031553
      2.11247      8.44090     11.72996         0.002165     -0.000204      0.031625
      0.00000      8.44060     13.83033         0.000015      0.000433      0.204816
      2.10755      6.33104     13.82325        -0.010237      0.011417      0.176087
      0.00000      2.11025      7.50000         0.000004      0.001779      0.148975
      2.11025      4.22049      7.50000         0.002920      0.000016      0.154255
      0.00000      4.22049      9.61025        -0.000000     -0.002375      0.060546
      2.11025      2.11025      9.61025         0.013598      0.015626      0.038172
      8.44098      2.11218     11.73005         0.000004      0.001810      0.031238
      2.12092      4.21971     11.74367        -0.004171      0.000677      0.034629
      0.00000      4.21955     13.82633        -0.000002     -0.000077      0.192750
      2.10919      2.10798     13.82556        -0.009110     -0.009165      0.180602
      4.22049      6.33074      7.50000        -0.000003     -0.002894      0.154818
      6.33074      0.00000      7.50000        -0.001779      0.000003      0.148354
      4.22049      0.00000      9.61025        -0.000001     -0.004066      0.060401
      6.33074      6.33074      9.61025        -0.019241     -0.016986      0.038381
      4.22049      6.31967     11.74432        -0.000000      0.004787      0.036959
      6.32851      8.44090     11.72996        -0.002163     -0.000207      0.031616
      4.22049      0.00195     13.82613        -0.000008     -0.000102      0.191826
      6.33344      6.33104     13.82325         0.010236      0.011402      0.176082
      4.22049      2.11025      7.50000         0.000004      0.002927      0.153648
      6.33074      4.22049      7.50000        -0.002925      0.000015      0.154253
      4.22049      4.22049      9.61025         0.000002      0.002882      0.084006
      6.33074      2.11025      9.61025        -0.013596      0.015625      0.038170
      4.22049      2.12028     11.74270         0.000001     -0.004177      0.033882
      6.32007      4.21971     11.74367         0.004170      0.000678      0.034629
      4.22049      4.20900     13.97009         0.000002     -0.000471      0.156386
      6.33179      2.10798     13.82556         0.009116     -0.009155      0.180596
      0.00000      6.33074      9.61025        -0.000006      0.009660      0.070424
      2.11025      0.00000      9.61025        -0.010294     -0.001688      0.068320
      0.00000      0.00000      7.50000        -0.000003     -0.000368     -0.557467
      2.11025      6.33074      7.50000        -0.004056      0.003593     -0.561051
      8.44098      6.33485     13.88845         0.000002      0.001245      0.044864
      2.10521      8.44019     13.88916        -0.001624      0.001344      0.044221
      8.44098      8.44041     11.72652        -0.000003      0.000056      0.015186
      2.10968      6.33156     11.72946        -0.000824     -0.000096      0.008206
      0.00000      2.11025      9.61025        -0.000008     -0.011031      0.066669
      2.11025      4.22049      9.61025         0.014741     -0.000062      0.091602
      0.00000      4.22049      7.50000        -0.000002      0.000375     -0.561652
      2.11025      2.11025      7.50000        -0.003177     -0.003600     -0.561119
      0.00000      2.10487     13.88974         0.000000     -0.000650      0.043540
      2.08807      4.21988     13.88908        -0.011569      0.000068      0.023122
      0.00000      4.22031     11.72488         0.000002      0.000065      0.011937
      2.10871      2.10857     11.72879         0.000334      0.000326      0.009316
      4.22049      6.33074      9.61025         0.000011     -0.015369      0.091406
      6.33074      0.00000      9.61025         0.010288     -0.001692      0.068325
      4.22049      0.00000      7.50000         0.000003      0.000498     -0.561610
      6.33074      6.33074      7.50000         0.004059      0.003594     -0.561046
      4.22049      6.35537     13.89666        -0.000005      0.013738      0.008059
      6.33577      8.44019     13.88916         0.001625      0.001345      0.044220
      4.22049      8.43990     11.72498         0.000003      0.001592      0.011285
      6.33130      6.33156     11.72946         0.000832     -0.000099      0.008196
      4.22049      2.11025      9.61025         0.000006      0.013893      0.091752
      6.33074      4.22049      9.61025        -0.014741     -0.000058      0.091602
      4.22049      4.22049      7.50000         0.000002     -0.000485     -0.567565
      6.33074      2.11025      7.50000         0.003174     -0.003601     -0.561111
      4.22049      2.08771     13.88457        -0.000000     -0.009836      0.030344
      6.35291      4.21988     13.88908         0.011562      0.000066      0.023128
      4.22049      4.22084     11.74772        -0.000003     -0.000917      0.001319
      6.33227      2.10857     11.72879        -0.000342      0.000326      0.009313
    total drift:                               -0.000019     -0.002441      0.045388

  FREE ENERGIE OF THE ION-ELECTRON SYSTEM (eV)
  free  energy   TOTEN  =      -245.69963693 eV

  energy  without entropy=     -245.69963693  energy(sigma->0) =     -245.69963693