 vasp.6.3.0 20Jan22 (build Mar 11 2022 13:48:16) complex

 executed on             LinuxIFC date 2024.02.14  11:44:38

 INCAR:
   SYSTEM = Oxide-Surface
   ISMEAR = 0
   SIGMA = 0.05
   EDIFF = 1E-5
   ALGO = ALL
   ISTART = 0
   IBRION = -1
   NSW = 0
   ISYM = 2
   DIPOL = 0.5 0.5 0.5
   IDIPOL = 3
   LDIPOL = .TRUE.
   METAGGA = R2SCAN
   LUSE_VDW = .TRUE.
   BPARAM = 11.95
   CPARAM = 0.0093
   LASPH = .TRUE.
   ENCUT = 600
   PREC = Accurate
   LASPH = .TRUE.
   LREAL = .FALSE.
   ISPIN = 1
   NELM = 200
   NELMIN = 8
   NCORE = 19
   KPAR = 1
   LWAVE = .FALSE.
   LCHARG = .FALSE.

 POTCAR:    PAW_PBE Ti_pv 07Sep2000
 POTCAR:    PAW_PBE O 08Apr2002
|               ----> ADVICE to this user running VASP <----                  |
|     You have switched on vdW-DFT.                                           |
|     This routine was written and supplied by Jiri Klimes. We recommend      |
|     that you carefully read and cite the following publications:            |
|       J. Klimes, D.R. Bowler, A. Michelides                                 |
|          J. Phys.: Cond Matt. 22 022201 (2010)                              |
|       J. Klimes, D.R. Bowler, A. Michelides                                 |
|          Phys. Rev. B. 83, 195131 (2011)                                    |
|     and references therein.                                                 |

   TITEL  = PAW_PBE Ti_pv 07Sep2000
   POMASS =   47.880; ZVAL   =   10.000    mass and valenz
   ENMAX  =  222.335; ENMIN  =  166.751 eV

   TITEL  = PAW_PBE O 08Apr2002
   POMASS =   16.000; ZVAL   =    6.000    mass and valenz
   ENMAX  =  400.000; ENMIN  =  300.000 eV

  PAW_PBE Ti_pv 07Sep2000               :
  PAW_PBE O 08Apr2002                   :

 POSCAR: Ti  O
  positions in direct lattice

 METAGGA = R2SCA    LMAXTAU =  6    LMIXTAU =  F

 ion  position               nearest neighbor table
   1  0.750  0.625  0.287-  82 1.95 142 1.95 141 1.95  81 1.95  84 1.98 163 1.98  11 2.96  31 2.96

   2  0.000  0.750  0.287-  83 1.95  84 1.95 103 1.95 104 1.95  85 1.98  32 2.96  12 2.96
   3  0.000  0.625  0.394-  85 1.95 145 1.95  86 1.95 146 1.95  87 1.98  88 1.98  13 2.96  33 2.96

[...]

  80  0.500  0.500  0.709- 234 1.82 239 1.95 180 1.95 179 1.95 240 1.95  70 2.96  50 2.96
  81  0.750  0.750  0.245-   1 1.95  11 1.95
  82  0.750  0.750  0.329-   1 1.95  11 1.95   4 1.98
  83  0.098  0.625  0.287-   2 1.95  32 1.95  41 1.98
  84  0.902  0.625  0.287-   2 1.95  32 1.95   1 1.98
  85  0.000  0.750  0.352-   3 1.95  13 1.95   2 1.98
  86  0.000  0.750  0.435-   3 1.95  13 1.95   6 1.98
  87  0.848  0.625  0.394-   4 1.95  34 1.95   3 1.98
  88  0.152  0.625  0.394-  44 1.95  74 1.95   3 1.98
  89  0.750  0.750  0.458-   5 1.95  15 1.95   4 1.98
  90  0.750  0.750  0.542-   5 1.95  15 1.95   8 2.11
  91  0.098  0.625  0.500-   6 1.95  36 1.95  45 1.98
  92  0.902  0.625  0.500-   6 1.95  36 1.95   5 1.98
  93  0.000  0.750  0.565-  17 1.90   7 1.90   6 2.00
  94  0.000  0.750  0.649-  10 1.81   7 2.02  17 2.02
  95  0.850  0.625  0.607-   7 1.95   8 1.97  38 1.97
  96  0.150  0.625  0.607-   7 1.95  48 1.97  78 1.97
  97  0.750  0.750  0.672-   8 1.86   9 2.10  19 2.10
  98  0.750  0.750  0.756-   9 1.83  19 1.83
  99  0.094  0.625  0.719-  40 1.95  10 1.95  49 2.03
 100  0.906  0.625  0.719-  40 1.95  10 1.95   9 2.03
 101  0.750  0.000  0.245-  11 1.95  21 1.95
 102  0.750  0.000  0.329-  11 1.95  21 1.95  14 1.98
 103  0.098  0.875  0.287-   2 1.95  12 1.95  51 1.98
 104  0.902  0.875  0.287-   2 1.95  12 1.95  11 1.98
 105  0.000  0.000  0.352-  13 1.95  23 1.95  12 1.98
 106  0.000  0.000  0.435-  13 1.95  23 1.95  16 1.98
 107  0.848  0.875  0.394-   4 1.95  14 1.95  13 1.98
 108  0.152  0.875  0.394-  44 1.95  54 1.95  13 1.98
 109  0.750  0.000  0.458-  15 1.95  25 1.95  14 1.98
 110  0.750  0.000  0.542-  15 1.95  25 1.95  18 2.11
 111  0.098  0.875  0.500-   6 1.95  16 1.95  55 1.98
 112  0.902  0.875  0.500-   6 1.95  16 1.95  15 1.98
 113  0.000  0.000  0.565-  27 1.89  17 1.89  16 2.00
 114  1.000  0.000  0.649-  20 1.81  27 2.02  17 2.02
 115  0.850  0.875  0.607-  17 1.95   8 1.97  18 1.97
 116  0.150  0.875  0.607-  17 1.95  48 1.97  58 1.97
 117  0.750  0.000  0.672-  18 1.86  19 2.10  29 2.10
 118  0.750  0.000  0.756-  19 1.83  29 1.83
 119  0.094  0.875  0.719-  10 1.95  20 1.95  59 2.03
 120  0.906  0.875  0.719-  10 1.95  20 1.95  19 2.03
 121  0.750  0.250  0.245-  21 1.95  31 1.95
 122  0.750  0.250  0.329-  21 1.95  31 1.95  24 1.98
 123  0.098  0.125  0.287-  12 1.95  22 1.95  61 1.98
 124  0.902  0.125  0.287-  12 1.95  22 1.95  21 1.98
 125  0.000  0.250  0.352-  23 1.95  33 1.95  22 1.98
 126  0.000  0.250  0.435-  23 1.95  33 1.95  26 1.98
 127  0.848  0.125  0.394-  14 1.95  24 1.95  23 1.98
 128  0.152  0.125  0.394-  54 1.95  64 1.95  23 1.98
 129  0.750  0.250  0.458-  25 1.95  35 1.95  24 1.98
 130  0.750  0.250  0.542-  25 1.95  35 1.95  28 2.11
 131  0.098  0.125  0.500-  16 1.95  26 1.95  65 1.98
 132  0.902  0.125  0.500-  16 1.95  26 1.95  25 1.98
 133  0.000  0.250  0.565-  27 1.90  37 1.90  26 2.00
 134  1.000  0.250  0.649-  30 1.81  37 2.02  27 2.02
 135  0.850  0.125  0.607-  27 1.95  28 1.97  18 1.97
 136  0.150  0.125  0.607-  27 1.95  68 1.97  58 1.97
 137  0.750  0.250  0.672-  28 1.86  39 2.10  29 2.10
 138  0.750  0.250  0.756-  39 1.83  29 1.83
 139  0.094  0.125  0.719-  30 1.95  20 1.95  69 2.03
[...]
 226  0.500  0.500  0.435-  43 1.95  73 1.95  76 1.98
 227  0.348  0.375  0.394-  64 1.95  74 1.95  73 1.98
 228  0.652  0.375  0.394-  24 1.95  34 1.95  73 1.98
 229  0.250  0.500  0.458-  45 1.95  75 1.95  74 1.98
 230  0.250  0.500  0.542-  45 1.95  75 1.95  78 2.11
 231  0.598  0.375  0.500-  66 1.95  76 1.95  35 1.98
 232  0.402  0.375  0.500-  66 1.95  76 1.95  75 1.98
 233  0.500  0.500  0.565-  47 1.90  77 1.90  76 2.00
 234  0.500  0.500  0.649-  80 1.82  77 2.02  47 2.02
 235  0.350  0.375  0.607-  77 1.95  78 1.97  68 1.97
 236  0.650  0.375  0.607-  77 1.95  38 1.97  28 1.97
 237  0.249  0.500  0.672-  78 1.86  79 2.10  49 2.10
 238  0.251  0.500  0.756-  49 1.83  79 1.84
 239  0.594  0.374  0.718-  70 1.94  80 1.95  39 2.03
 240  0.406  0.374  0.718-  70 1.94  80 1.95  79 2.03

  LATTYP: Found a simple orthorhombic cell.
 ALAT       =    11.8303781148
 B/A-ratio  =     1.0992024327
 C/A-ratio  =     2.5825673970

  Lattice vectors:

 A1 = (   0.0000000000, -11.8303781148,   0.0000000000)
 A2 = (  13.0039804036,   0.0000000000,   0.0000000000)
 A3 = (   0.0000000000,   0.0000000000,  30.5527488131)

Analysis of symmetry for initial positions (statically):
 Subroutine PRICEL returns:
 Original cell was already a primitive cell.

 Routine SETGRP: Setting up the symmetry group for a
 simple orthorhombic supercell.

 Subroutine GETGRP returns: Found  2 space group operations
 (whereof  2 operations were pure point group operations)
 out of a pool of  8 trial point group operations.

The static configuration has the point symmetry C_2 .

Analysis of symmetry for dynamics (positions and initial velocities):
 Subroutine PRICEL returns:
 Original cell was already a primitive cell.

[...]

The dynamic configuration has the point symmetry C_2 .

Analysis of constrained symmetry for selective dynamics:
 Subroutine PRICEL returns:
 Original cell was already a primitive cell.

 Routine SETGRP: Setting up the symmetry group for a
 simple orthorhombic supercell.

 Subroutine GETGRP returns: Found  2 space group operations
 (whereof  2 operations were pure point group operations)
 out of a pool of  8 trial point group operations.

The constrained configuration has the point symmetry C_2 .

 Subroutine INISYM returns: Found  2 space group operations
 (whereof  2 operations are pure point group operations),
 and found     1 'primitive' translations

                                     Primitive cell

  volume of cell :    4700.2961

  direct lattice vectors                    reciprocal lattice vectors
    13.003980404  0.000000000  0.000000000     0.076899531  0.000000000  0.000000000
     0.000000000 11.830378115  0.000000000     0.000000000  0.084528152  0.000000000
     0.000000000  0.000000000 30.552748813     0.000000000  0.000000000  0.032730279

  length of vectors
    13.003980404 11.830378115 30.552748813     0.076899531  0.084528152  0.032730279

  position of ions in fractional coordinates (direct lattice)
     0.750000000  0.625000000  0.287188045
     0.000000000  0.750000000  0.287188045
     0.000000000  0.625000000  0.393594023
     0.750000000  0.750000000  0.393594023
     0.750000000  0.625000000  0.500000000
     0.000000000  0.750000000  0.500000000
     0.999998721  0.625016579  0.604133070
     0.750021371  0.750038293  0.610722288
     0.750117203  0.625133247  0.720287438
     0.000025088  0.750082327  0.708163002
     0.750000000  0.875000000  0.287188045
     0.000000000  0.000000000  0.287188045
     0.000000000  0.875000000  0.393594023
     0.750000000  0.000000000  0.393594023
     0.750000000  0.875000000  0.500000000
     0.000000000  0.000000000  0.500000000
     0.999995888  0.875019827  0.604149471
     0.749960154  0.000003634  0.610781080
     0.749868681  0.875032810  0.720490641
     0.999999839  0.999999986  0.708171277
     0.750000000  0.125000000  0.287188045
     0.000000000  0.250000000  0.287188045
     0.000000000  0.125000000  0.393594023
     0.750000000  0.250000000  0.393594023
     0.750000000  0.125000000  0.500000000
     0.000000000  0.250000000  0.500000000
     0.000004291  0.124980166  0.604149473
     0.750020909  0.249964332  0.610733868
     0.749849705  0.124984894  0.720495097
     0.999975957  0.249917704  0.708163011
     0.750000000  0.375000000  0.287188045
     0.000000000  0.500000000  0.287188045
     0.000000000  0.375000000  0.393594023
     0.750000000  0.500000000  0.393594023
     0.750000000  0.375000000  0.500000000
     0.000000000  0.500000000  0.500000000
     0.000001188  0.374983462  0.604133074
     0.750045959  0.499996868  0.610724841
     0.750061545  0.374909743  0.720323388
     0.000000688  0.500000006  0.708145396
     0.250000000  0.625000000  0.287188045
     0.500000000  0.750000000  0.287188045
     0.500000000  0.625000000  0.393594023
     0.250000000  0.750000000  0.393594023
     0.250000000  0.625000000  0.500000000
     0.500000000  0.750000000  0.500000000
     0.499999018  0.624688356  0.604436823
     0.249979186  0.750035519  0.610734113
     0.249940081  0.625089722  0.720324203
     0.500006823  0.749974613  0.708033504
     0.250000000  0.875000000  0.287188045
     0.500000000  0.000000000  0.287188045
     0.500000000  0.875000000  0.393594023
     0.250000000  0.000000000  0.393594023
     0.250000000  0.875000000  0.500000000
     0.500000000  0.000000000  0.500000000
     0.499998059  0.874845894  0.603998505
     0.250039832  0.999996492  0.610781100
     0.250150317  0.875015073  0.720495103
     0.500000020  0.999999937  0.708017978
[...]
     0.500000000  0.500000000  0.435304973
     0.347999548  0.375000000  0.393594023
     0.652000452  0.375000000  0.393594023
     0.250000000  0.500000000  0.458289049
     0.250000000  0.500000000  0.541710951
[...]
   6.50199020 10.35158085 12.02537931
   3.25099510  0.00000000 12.02537931
   3.25099510 10.35158085 15.27637441
   6.50199020  0.00000000 15.27637441
   6.50196496 10.34975772 18.45381460
   3.25151307 11.83033662 18.66104152
   3.25294982 10.35175916 22.01310591
   6.50199047 11.83037737 21.63189545
[...]
   6.50199020  5.91518906 13.29976351
   4.52537931  4.43639179 12.02537931
   8.47860110  4.43639179 12.02537931
   3.25099510  5.91518906 14.00199020
   3.25099510  5.91518906 16.55075861
   7.77637441  4.43639179 15.27637441
   5.22760600  4.43639179 15.27637441
   6.50199046  5.91518881 17.27737408
   6.50198573  5.91518784 19.84135494
   4.55307904  4.43637240 18.55283349
   8.45090995  4.43645282 18.55268145
   3.24438093  5.91545982 20.51904399
   3.26188261  5.91463626 23.09198361
   7.72811721  4.42967298 21.94583423
   5.27492595  4.42915132 21.94273054

--------------------------------------- Iteration      FINAL  ---------------------------------------

--------------------OUTCAR has been truncated-------------------------

[...]

--------------------OUTCAR has been truncated-------------------------

  FORCE on cell =-STRESS in cart. coord.  units (eV):
  Direction    XX          YY          ZZ          XY          YZ          ZX
  Alpha Z  4654.20310  4654.20310  4654.20310
  Ewald  981325.00248999083.48706************    -0.19505    -0.00049     0.00745
  Hartree************************************    -0.07790    -0.00014     0.00252
  E(xc)   -9126.51620 -9135.91079 -9124.38493    -0.00013     0.00000     0.00001
  Local  ************************************     0.27106     0.00056    -0.00868
  n-local -5172.89368 -5080.16574 -5218.49565    -0.00440    -0.00000    -0.00001
  augment  5516.80210  5483.88548  5520.43166    -0.00075     0.00000    -0.00012
  Kinetic 28658.47770 28178.14355 28704.19477     0.00297    -0.00001    -0.00002
  Fock        0.00000     0.00000     0.00000     0.00000     0.00000     0.00000
  Total     -11.67292   -57.80345   -51.79330    -0.00420     0.00000     0.00000
  in kB      -3.97892   -19.70331   -17.65464    -0.00143     0.00000     0.00000

 VOLUME and BASIS-vectors are now :
  energy-cutoff  :      600.00
  volume of cell :     4700.30
      direct lattice vectors                 reciprocal lattice vectors
    13.003980404  0.000000000  0.000000000     0.076899531  0.000000000  0.000000000
     0.000000000 11.830378115  0.000000000     0.000000000  0.084528152  0.000000000
     0.000000000  0.000000000 30.552748813     0.000000000  0.000000000  0.032730279

  length of vectors
    13.003980404 11.830378115 30.552748813     0.076899531  0.084528152  0.032730279

 FORCES acting on ions:
    Electron-Ion                     Ewald-Force                    Non-Local-Force
   0.158E-01 0.651E-02 0.380E+04   -.156E-01 -.643E-02 -.380E+04   -.651E-04 -.395E-05 0.442E+00
   -.747E-04 0.588E-02 0.398E+04   0.109E-03 -.584E-02 -.397E+04   -.508E-05 -.540E-06 -.402E+01
   -.676E-03 0.132E-01 0.193E+04   0.785E-03 -.131E-01 -.193E+04   -.538E-05 0.262E-05 -.630E-01
   0.648E-01 0.477E-01 0.192E+04   -.644E-01 -.471E-01 -.192E+04   -.691E-04 -.218E-04 0.214E+00
   0.491E+00 0.156E+00 -.215E+02   -.491E+00 -.154E+00 0.224E+02   -.165E-03 -.116E-03 -.141E+00
   -.108E-01 0.276E-01 -.925E+01   0.114E-01 -.244E-01 0.811E+01   -.676E-04 -.916E-03 0.355E+00
   -.268E-01 0.271E-01 -.190E+04   0.286E-01 -.266E-01 0.190E+04   -.221E-04 -.925E-03 0.118E+00
   0.337E+00 0.104E+00 -.196E+04   -.322E+00 -.991E-01 0.196E+04   -.481E-02 -.353E-02 -.142E+00
   -.126E+01 0.133E+01 -.379E+04   0.132E+01 -.136E+01 0.379E+04   -.729E-02 0.329E-02 -.352E+00
   -.405E-01 0.784E+00 -.381E+04   0.398E-01 -.788E+00 0.381E+04   0.659E-03 -.214E-02 0.112E+01
   0.115E-01 0.649E-02 0.380E+04   -.114E-01 -.627E-02 -.380E+04   -.229E-04 -.442E-04 0.442E+00
   -.729E-05 -.370E-06 0.398E+04   0.204E-04 0.919E-06 -.397E+04   0.246E-20 0.176E-21 -.402E+01
   -.709E-03 0.127E-01 0.193E+04   0.801E-03 -.125E-01 -.193E+04   -.493E-05 -.132E-05 -.630E-01
   0.338E-01 -.988E-03 0.192E+04   -.338E-01 0.102E-02 -.192E+04   0.137E-04 0.238E-06 0.214E+00
   0.100E+00 0.111E+00 -.213E+02   -.986E-01 -.102E+00 0.222E+02   -.234E-03 -.527E-03 -.142E+00
   -.107E-03 -.529E-05 -.931E+01   0.299E-03 -.179E-04 0.817E+01   -.162E-21 0.230E-22 0.355E+00
   -.477E-01 0.490E-01 -.190E+04   0.480E-01 -.479E-01 0.190E+04   0.206E-04 -.146E-02 0.118E+00
   0.800E-02 0.138E-02 -.197E+04   0.225E-02 -.152E-02 0.197E+04   -.100E-02 -.190E-03 -.137E+00
   -.301E+00 0.112E-04 -.379E+04   0.311E+00 0.130E-02 0.379E+04   0.621E-02 -.821E-03 -.356E+00
   0.408E-03 -.895E-04 -.381E+04   0.309E-03 0.346E-03 0.381E+04   0.373E-21 0.131E-20 0.113E+01
   0.115E-01 -.658E-02 0.380E+04   -.114E-01 0.641E-02 -.380E+04   -.249E-04 0.305E-04 0.442E+00
   0.588E-04 -.588E-02 0.398E+04   -.648E-04 0.584E-02 -.397E+04   0.508E-05 0.540E-06 -.402E+01
   0.637E-03 -.127E-01 0.193E+04   -.594E-03 0.125E-01 -.193E+04   0.493E-05 0.132E-05 -.630E-01
   0.646E-01 -.476E-01 0.192E+04   -.643E-01 0.470E-01 -.192E+04   -.724E-04 0.242E-04 0.214E+00
   0.949E-01 -.126E+00 -.213E+02   -.934E-01 0.119E+00 0.222E+02   -.188E-03 0.414E-03 -.143E+00
   0.104E-01 -.276E-01 -.925E+01   -.103E-01 0.244E-01 0.811E+01   0.676E-04 0.916E-03 0.355E+00
   0.470E-01 -.491E-01 -.190E+04   -.467E-01 0.483E-01 0.190E+04   -.206E-04 0.146E-02 0.118E+00
   0.301E+00 -.982E-01 -.196E+04   -.286E+00 0.942E-01 0.196E+04   -.478E-02 0.284E-02 -.142E+00
   -.312E+00 -.357E-01 -.379E+04   0.321E+00 0.332E-01 0.379E+04   0.680E-02 0.903E-03 -.357E+00
   0.377E-01 -.784E+00 -.381E+04   -.371E-01 0.788E+00 0.381E+04   -.659E-03 0.214E-02 0.112E+01
   0.158E-01 -.643E-02 0.380E+04   -.156E-01 0.630E-02 -.380E+04   -.646E-04 0.210E-04 0.442E+00
   -.861E-05 0.375E-06 0.398E+04   0.238E-04 -.939E-06 -.397E+04   -.141E-20 0.182E-21 -.402E+01
   0.584E-03 -.132E-01 0.193E+04   -.525E-03 0.131E-01 -.193E+04   0.538E-05 -.262E-05 -.630E-01
   0.957E-01 0.917E-03 0.192E+04   -.950E-01 -.947E-03 -.192E+04   -.197E-03 -.559E-05 0.214E+00
   0.487E+00 -.141E+00 -.215E+02   -.487E+00 0.138E+00 0.224E+02   -.125E-03 0.237E-03 -.141E+00
   -.256E-03 0.962E-05 -.920E+01   0.725E-03 -.568E-05 0.806E+01   0.516E-20 -.798E-22 0.355E+00
   0.261E-01 -.270E-01 -.190E+04   -.245E-01 0.262E-01 0.190E+04   0.221E-04 0.925E-03 0.118E+00
   0.657E+00 -.271E-02 -.196E+04   -.638E+00 0.199E-02 0.196E+04   -.610E-02 0.807E-03 -.145E+00
   -.114E+01 -.120E+01 -.379E+04   0.121E+01 0.123E+01 0.379E+04   -.108E-01 -.293E-02 -.353E+00
   -.185E-02 0.479E-04 -.381E+04   0.120E-02 -.236E-03 0.381E+04   -.187E-20 -.151E-21 0.112E+01
   -.158E-01 0.643E-02 0.380E+04   0.156E-01 -.630E-02 -.380E+04   0.646E-04 -.210E-04 0.442E+00
   0.868E-04 0.126E-01 0.398E+04   -.105E-03 -.124E-01 -.397E+04   0.128E-05 -.342E-04 -.402E+01
   0.578E-03 0.659E-01 0.193E+04   -.685E-03 -.619E-01 -.193E+04   0.570E-05 -.759E-03 -.628E-01
   -.646E-01 0.476E-01 0.192E+04   0.643E-01 -.470E-01 -.192E+04   0.724E-04 -.242E-04 0.214E+00
   -.487E+00 0.141E+00 -.215E+02   0.487E+00 -.138E+00 0.224E+02   0.125E-03 -.237E-03 -.141E+00
   0.722E-02 0.526E+00 -.993E+01   -.773E-02 -.541E+00 0.882E+01   0.397E-04 0.928E-02 0.351E+00
   0.362E-02 0.495E+00 -.190E+04   -.387E-02 -.433E+00 0.190E+04   -.704E-04 -.279E-01 0.140E+00
   -.301E+00 0.985E-01 -.196E+04   0.285E+00 -.944E-01 0.196E+04   0.478E-02 -.284E-02 -.142E+00
   0.113E+01 0.120E+01 -.379E+04   -.121E+01 -.123E+01 0.379E+04   0.108E-01 0.293E-02 -.353E+00
   0.135E+00 -.207E+01 -.381E+04   -.131E+00 0.221E+01 0.381E+04   -.307E-02 -.241E-01 0.116E+01
   -.115E-01 0.658E-02 0.380E+04   0.114E-01 -.641E-02 -.380E+04   0.249E-04 -.305E-04 0.442E+00
   0.724E-05 -.537E-06 0.398E+04   -.201E-04 0.192E-05 -.397E+04   -.304E-20 -.798E-22 -.402E+01
   0.598E-03 0.632E-01 0.193E+04   -.687E-03 -.611E-01 -.193E+04   0.452E-05 -.519E-03 -.630E-01
   -.338E-01 0.984E-03 0.192E+04   0.338E-01 -.100E-02 -.192E+04   -.137E-04 -.238E-06 0.214E+00
   -.949E-01 0.126E+00 -.213E+02   0.933E-01 -.119E+00 0.222E+02   0.188E-03 -.414E-03 -.143E+00
   0.923E-04 -.221E-04 -.869E+01   -.255E-03 0.422E-04 0.754E+01   0.624E-20 0.312E-21 0.350E+00
   -.944E-02 -.987E+00 -.189E+04   0.986E-02 0.100E+01 0.189E+04   0.328E-03 -.307E-02 0.863E-01
   -.776E-02 -.134E-02 -.197E+04   -.363E-02 0.961E-03 0.197E+04   0.100E-02 0.190E-03 -.137E+00
   0.312E+00 0.358E-01 -.379E+04   -.321E+00 -.344E-01 0.379E+04   -.680E-02 -.903E-03 -.357E+00
   -.266E-03 -.956E-04 -.380E+04   0.150E-02 0.352E-03 0.380E+04   0.403E-20 0.217E-21 0.110E+01
[...]
   -.533E+02 -.302E-01 0.115E+04   0.574E+02 0.296E-01 -.115E+04   -.365E+01 0.830E-03 0.177E+00
   0.533E+02 -.295E-01 0.115E+04   -.574E+02 0.290E-01 -.115E+04   0.365E+01 0.889E-03 0.177E+00
   -.171E+00 -.189E-02 0.497E+03   0.171E+00 0.213E-02 -.501E+03   -.468E-03 -.547E-03 0.431E+01
   -.604E+00 -.579E-02 -.539E+03   0.603E+00 0.600E-02 0.546E+03   0.364E-02 -.519E-03 -.749E+01
   -.550E+02 -.280E+00 -.691E+01   0.599E+02 0.277E+00 0.664E+01   -.545E+01 0.109E-01 0.374E+00
   0.550E+02 -.284E+00 -.691E+01   -.599E+02 0.281E+00 0.664E+01   0.544E+01 0.106E-01 0.374E+00
   -.156E-03 0.495E-03 -.643E+03   -.470E-03 -.470E-03 0.637E+03   0.418E-20 0.172E-20 0.678E+01
   0.780E-02 0.131E-02 -.163E+04   -.471E-02 0.411E-03 0.162E+04   -.157E-19 0.424E-21 0.271E+01
   -.276E+02 -.108E+00 -.115E+04   0.306E+02 0.782E-01 0.115E+04   -.301E+01 0.315E-01 0.938E+00
   0.276E+02 -.783E-01 -.115E+04   -.306E+02 0.481E-01 0.115E+04   0.301E+01 0.340E-01 0.944E+00
   0.851E+00 -.114E+00 -.183E+04   -.960E+00 0.122E+00 0.184E+04   0.109E+00 -.678E-02 -.249E+01
   -.223E+01 0.101E+00 -.274E+04   0.236E+01 -.116E+00 0.276E+04   -.159E+00 0.166E-01 -.218E+02
   -.212E+02 -.826E+00 -.236E+04   0.275E+02 0.827E+00 0.236E+04   -.643E+01 0.886E-01 -.356E+01
   0.213E+02 -.981E+00 -.236E+04   -.276E+02 0.988E+00 0.236E+04   0.644E+01 0.763E-01 -.349E+01
   -.262E+00 -.578E-02 0.993E+02   -.221E-11 0.742E-13 0.337E-10   0.711E-14 0.208E-15 -.991E+02

 POSITION                                       TOTAL-FORCE (eV/Angst)
      9.75299      7.39399      8.77438         0.000141      0.000077     -3.733302
      0.00000      8.87278      8.77438         0.000015      0.000041      2.968554
      0.00000      7.39399     12.02538         0.000020      0.000161      0.531798
      9.75299      8.87278     12.02538         0.000242      0.000556     -0.733193
      9.75299      7.39399     15.27637        -0.000270      0.001027      0.735786
      0.00000      8.87278     15.27637         0.000212      0.002230     -0.780514
     13.00396      7.39418     18.45793         0.000098     -0.000201      0.133606
      9.75326      8.87324     18.65924         0.011219      0.001352     -0.077446
      9.75451      7.39556     22.00676         0.057590     -0.027702      0.118997
      0.00033      8.87376     21.63633        -0.000019     -0.004540      0.148513
      9.75299     10.35158      8.77438         0.000068      0.000167     -3.733245
      0.00000      0.00000      8.77438        -0.000000     -0.000000      2.968570
      0.00000     10.35158     12.02538         0.000020      0.000141      0.532021
      9.75299      0.00000     12.02538         0.000000      0.000026     -0.732591
      9.75299     10.35158     15.27637         0.001341      0.008255      0.741714
      0.00000      0.00000     15.27637        -0.000000     -0.000000     -0.779811
     13.00393     10.35182     18.45843         0.000041     -0.000470      0.133634
      9.75247      0.00004     18.66104         0.009576     -0.000040     -0.072961
      9.75128     10.35197     22.01297         0.015479      0.000220      0.085910
     13.00398     11.83038     21.63658        -0.000000     -0.000000      0.146684
      9.75299      1.47880      8.77438         0.000056     -0.000141     -3.733267
      0.00000      2.95759      8.77438        -0.000015     -0.000041      2.968554
      0.00000      1.47880     12.02538        -0.000020     -0.000141      0.532021
      9.75299      2.95759     12.02538         0.000241     -0.000555     -0.732985
      9.75299      1.47880     15.27637         0.001343     -0.006727      0.742744
      0.00000      2.95759     15.27637        -0.000212     -0.002230     -0.780514
      0.00006      1.47856     18.45843        -0.000041      0.000470      0.133634
      9.75326      2.95717     18.65960         0.011137     -0.001304     -0.077369
      9.75103      1.47862     22.01311         0.015167     -0.001266      0.085489
     13.00367      2.95662     21.63633         0.000019      0.004540      0.148513
      9.75299      4.43639      8.77438         0.000136     -0.000106     -3.733299
      0.00000      5.91519      8.77438        -0.000000     -0.000000      2.968548
      0.00000      4.43639     12.02538        -0.000020     -0.000161      0.531798
      9.75299      5.91519     12.02538         0.000477     -0.000029     -0.733583
      9.75299      4.43639     15.27637        -0.000271     -0.002556      0.736864
      0.00000      5.91519     15.27637        -0.000000     -0.000000     -0.781351
      0.00002      4.43620     18.45793        -0.000098      0.000201      0.133606
      9.75358      5.91515     18.65932         0.013285      0.000054     -0.077598
      9.75379      4.43532     22.00786         0.061286      0.028077      0.114976
      0.00001      5.91519     21.63579        -0.000000     -0.000000      0.151436
      3.25100      7.39399      8.77438        -0.000136      0.000106     -3.733299
      6.50199      8.87278      8.77438        -0.000003      0.000187      2.968360
      6.50199      7.39399     12.02538        -0.000022      0.003228      0.530023
      3.25100      8.87278     12.02538        -0.000241      0.000555     -0.732985
      3.25100      7.39399     15.27637         0.000271      0.002556      0.736864
      6.50199      8.87278     15.27637        -0.000195     -0.005725     -0.763461
      6.50198      7.39030     18.46721         0.000046      0.033122      0.095208
      3.25072      8.87320     18.65961        -0.011137      0.001304     -0.077369
      3.25022      7.39505     22.00788        -0.061286     -0.028077      0.114976
      6.50208      8.87248     21.63237         0.001695      0.112181      0.112921
      3.25100     10.35158      8.77438        -0.000056      0.000141     -3.733267
      6.50199      0.00000      8.77438        -0.000000     -0.000000      2.968676
      6.50199     10.35158     12.02538        -0.000020      0.001615      0.532436
      3.25100      0.00000     12.02538        -0.000000     -0.000026     -0.732591
      3.25100     10.35158     15.27637        -0.001343      0.006727      0.742744
      6.50199      0.00000     15.27637        -0.000000     -0.000000     -0.794985
      6.50196     10.34976     18.45381         0.000079      0.013827      0.121329
      3.25151     11.83034     18.66104        -0.009576      0.000040     -0.072961
      3.25295     10.35176     22.01311        -0.015167      0.001266      0.085489
      6.50199     11.83038     21.63190        -0.000000     -0.000000      0.149400
[...]
      6.50199      5.91519     13.29976        -0.000000     -0.000000     -0.128628
      4.52538      4.43639     12.02538         0.424784      0.000308      0.055190
      8.47860      4.43639     12.02538        -0.424801      0.000343      0.055182
      3.25100      5.91519     14.00199        -0.000250     -0.000296     -0.082937
      3.25100      5.91519     16.55076         0.002606     -0.000275      0.013763
      7.77637      4.43639     15.27637        -0.533181      0.007956      0.101485
      5.22761      4.43639     15.27637         0.532877      0.007887      0.101550
      6.50199      5.91519     17.27737        -0.000000     -0.000000     -0.034935
      6.50199      5.91519     19.84135        -0.000000     -0.000000     -0.044411
      4.55308      4.43637     18.55283        -0.029383      0.002415      0.002333
      8.45091      4.43645     18.55268         0.029346      0.002314      0.002269
      3.24438      5.91546     20.51904         0.008459      0.000058      0.113752
      3.26188      5.91464     23.09198        -0.004135      0.002690     -0.277557
      7.72812      4.42967     21.94583        -0.136035      0.084019      0.047803
      5.27493      4.42915     21.94273         0.140206      0.087481      0.052913
    total drift:                               -0.261584     -0.005782      0.205410

  FREE ENERGIE OF THE ION-ELECTRON SYSTEM (eV)
  free  energy   TOTEN  =     -2710.32081210 eV

  energy  without entropy=    -2710.32081210  energy(sigma->0) =    -2710.32081210