 vasp.6.3.0 20Jan22 (build Apr  1 2022 16:44:48) complex
 executed on        HPECrayEX_GCC date 2023.02.21  23:04:04

 INCAR:
   SYSTEM = MgO-rocksalt
   ISMEAR = 0
   SIGMA = 0.05
   EDIFF = 1E-8
   ALGO = ALL
   ISTART = 0
   IBRION = 5
   POTIM = 0.01
   NFREE = 2
   ISYM = 0
   DIPOL = 0.5 0.5 0.5
   IDIPOL = 3
   LDIPOL = .TRUE.
   GGA = MK
   LUSE_VDW = .TRUE.
   PARAM1 = 0.1234
   PARAM2 = 0.711357
   ZAB_VDW = -1.8867
   AGGAC = 0.0
   ENCUT = 520
   PREC = Accurate
   LASPH = .TRUE.
   LREAL = Auto
   ISPIN = 1
   NELM = 200
   NELMIN = 8
   NCORE = 8
   KPAR = 1
   LWAVE = .FALSE.
   LCHARG = .FALSE.

 POTCAR:    PAW_PBE H 15Jun2001
 POTCAR:    PAW_PBE O 08Apr2002
 POTCAR:    PAW_PBE Mg_pv 13Apr2007
 POTCAR:    PAW_PBE O 08Apr2002
|               ----> ADVICE to this user running VASP <----                  |
|     You have switched on vdW-DFT.                                           |
|     This routine was written and supplied by Jiri Klimes. We recommend      |
|     that you carefully read and cite the following publications:            |
|       J. Klimes, D.R. Bowler, A. Michelides                                 |
|          J. Phys.: Cond Matt. 22 022201 (2010)                              |
|       J. Klimes, D.R. Bowler, A. Michelides                                 |
|          Phys. Rev. B. 83, 195131 (2011)                                    |
|     and references therein.                                                 |

   TITEL  = PAW_PBE H 15Jun2001
   POMASS =    1.000; ZVAL   =    1.000    mass and valenz
   ENMAX  =  250.000; ENMIN  =  200.000 eV

   TITEL  = PAW_PBE O 08Apr2002
   POMASS =   16.000; ZVAL   =    6.000    mass and valenz
   ENMAX  =  400.000; ENMIN  =  300.000 eV

   TITEL  = PAW_PBE Mg_pv 13Apr2007
   POMASS =   24.305; ZVAL   =    8.000    mass and valenz
   ENMAX  =  403.929; ENMIN  =  302.947 eV

   TITEL  = PAW_PBE O 08Apr2002
   POMASS =   16.000; ZVAL   =    6.000    mass and valenz
   ENMAX  =  400.000; ENMIN  =  300.000 eV

 Optimization of the real space projectors (new method)

 maximal supplied QI-value         = 34.20
 optimisation between [QCUT,QGAM] = [ 11.63, 23.26] = [ 37.87,151.49] Ry
 Optimized for a Real-space Cutoff    1.21 Angstroem

   l    n(q)    QCUT    max X(q) W(low)/X(q) W(high)/X(q)  e(spline)
   0      8    11.629    19.460    0.17E-03    0.34E-03    0.21E-06
   0      8    11.629    12.209    0.16E-03    0.33E-03    0.21E-06
   1      8    11.629     4.655    0.18E-03    0.16E-03    0.26E-06
 Optimization of the real space projectors (new method)

[...]

   l    n(q)    QCUT    max X(q) W(low)/X(q) W(high)/X(q)  e(spline)
   1      8    11.527     2.974    0.44E-04    0.56E-04    0.12E-06
   1      8    11.527     4.279    0.12E-03    0.12E-03    0.26E-06
   0      9    11.527    16.381    0.46E-04    0.64E-04    0.78E-07
   0      9    11.527     5.611    0.26E-04    0.43E-04    0.55E-07
   2      8    11.527     4.652    0.22E-03    0.72E-04    0.47E-07
 Optimization of the real space projectors (new method)

 maximal supplied QI-value         = 24.76
 optimisation between [QCUT,QGAM] = [ 11.64, 23.27] = [ 37.91,151.63] Ry
 Optimized for a Real-space Cutoff    1.14 Angstroem

   l    n(q)    QCUT    max X(q) W(low)/X(q) W(high)/X(q)  e(spline)
   0      8    11.635    20.381    0.10E-03    0.33E-03    0.24E-06
   0      8    11.635    15.268    0.11E-03    0.35E-03    0.26E-06
   1      7    11.635     5.964    0.24E-03    0.31E-03    0.30E-06
   1      7    11.635     5.382    0.22E-03    0.25E-03    0.26E-06
|               ----> ADVICE to this user running VASP <----                  |
|     You enforced a specific xc type in the INCAR file but a different       |
|     type was found in the POTCAR file.                                      |
|     I HOPE YOU KNOW WHAT YOU ARE DOING!                                     |

  PAW_PBE H 15Jun2001                   :
  PAW_PBE O 08Apr2002                   :
  PAW_PBE Mg_pv 13Apr2007               :
  PAW_PBE O 08Apr2002                   :

 POSCAR:  H  O Mg  O
  positions in direct lattice
 exchange correlation table for  LEXCH =       43
   RHO(1)=    0.500       N(1)  =     2000
   RHO(2)=  100.500       N(2)  =     4000

 ion  position               nearest neighbor table
   1  0.417  0.428  0.761-   9 1.00
   2  0.331  0.390  0.771-   9 0.98
   3  0.584  0.324  0.762-  10 0.99
   4  0.670  0.361  0.770-  10 0.98
   5  0.448  0.293  0.762-  11 1.00
   6  0.485  0.207  0.772-  11 0.98
   7  0.553  0.461  0.761-  12 0.99
   8  0.514  0.547  0.767-  12 0.98
   9  0.385  0.379  0.756-   2 0.98   1 1.00  43 2.25
  10  0.616  0.373  0.756-   4 0.98   3 0.99  91 2.24
  11  0.497  0.260  0.756-   6 0.98   5 1.00 108 2.25
  12  0.503  0.492  0.755-   8 0.98   7 0.99 132 2.24
  13  0.125  0.000  0.352- 141 2.11 143 2.11 144 2.11 160 2.11 183 2.11
  14  0.250  0.125  0.352- 142 2.11 143 2.11 144 2.11 152 2.11 159 2.11
  15  0.125  0.125  0.451- 147 2.11 143 2.11 141 2.11 142 2.11 149 2.11 158 2.11
  16  0.250  0.000  0.451- 148 2.11 144 2.11 141 2.11 142 2.11 157 2.11 182 2.11
  17  0.125  1.000  0.550- 164 2.11 187 2.11 147 2.11 148 2.11 141 2.11 145 2.14
  18  0.250  0.125  0.550- 156 2.11 163 2.11 147 2.11 148 2.11 142 2.11 146 2.14
  19  0.125  0.125  0.648- 147 2.10 146 2.10 162 2.11 153 2.11 145 2.11
  20  0.250  1.000  0.648- 148 2.10 146 2.10 186 2.11 161 2.11 145 2.11
  21  0.125  0.250  0.352- 149 2.11 143 2.11 151 2.11 152 2.11 168 2.11
  22  0.250  0.375  0.352- 150 2.11 151 2.11 152 2.11 167 2.11 176 2.11
  23  0.125  0.375  0.451- 151 2.11 150 2.11 149 2.11 166 2.11 173 2.11 155 2.11
  24  0.250  0.250  0.451- 156 2.11 152 2.11 150 2.11 142 2.11 149 2.11 165 2.11
  25  0.125  0.250  0.550- 156 2.10 172 2.11 155 2.11 147 2.11 149 2.11 153 2.14
  26  0.250  0.375  0.550- 171 2.09 156 2.11 180 2.11 155 2.12 150 2.12 154 2.15
  27  0.125  0.375  0.648- 155 2.09 154 2.10 170 2.11 153 2.11 177 2.11
  28  0.250  0.250  0.647- 156 2.09 169 2.09 153 2.11 146 2.11 154 2.12
  29  0.375  0.000  0.352- 157 2.11 144 2.11 159 2.11 199 2.11 224 2.11
  30  0.000  0.125  0.352- 158 2.11 143 2.11 160 2.11 168 2.11 223 2.11
  31  0.375  0.125  0.451- 163 2.11 159 2.11 142 2.11 157 2.11 165 2.11 222 2.11
  32  0.000  0.000  0.451- 160 2.11 158 2.11 141 2.11 198 2.11 221 2.11 164 2.11
  33  0.375  1.000  0.550- 163 2.10 203 2.11 228 2.11 148 2.11 157 2.11 161 2.14
  34  0.000  0.125  0.550- 147 2.11 227 2.11 164 2.11 172 2.11 158 2.11 162 2.14
  35  0.375  0.125  0.647- 163 2.08 169 2.09 161 2.11 146 2.11 226 2.12
  36  0.000  1.000  0.648- 164 2.10 145 2.11 225 2.11 202 2.11 162 2.11
  37  0.375  0.250  0.352- 165 2.11 159 2.11 152 2.11 167 2.11 232 2.11
  38  0.000  0.375  0.352- 166 2.11 151 2.11 168 2.11 192 2.11 231 2.11
  39  0.375  0.375  0.451- 167 2.11 165 2.11 150 2.11 189 2.11 230 2.11 171 2.12
  40  0.000  0.250  0.451- 168 2.11 158 2.11 166 2.11 149 2.11 229 2.11 172 2.11
  41  0.375  0.250  0.550- 171 2.10 236 2.10 169 2.11 163 2.12 156 2.12 165 2.13
  42  0.000  0.375  0.550- 155 2.11 235 2.11 196 2.11 172 2.11 166 2.12 170 2.14
  43  0.375  0.375  0.651- 234 2.11 169 2.13 154 2.13 193 2.14 171 2.15   9 2.25
  44  0.000  0.250  0.648- 172 2.10 153 2.11 233 2.11 162 2.11 170 2.11
  45  0.125  0.500  0.352- 173 2.11 151 2.11 175 2.11 176 2.11 192 2.11
  46  0.250  0.625  0.352- 174 2.11 175 2.11 176 2.11 184 2.11 191 2.11
  47  0.125  0.625  0.451- 179 2.11 175 2.11 173 2.11 174 2.11 181 2.11 190 2.11
  48  0.250  0.500  0.451- 180 2.11 176 2.11 174 2.11 150 2.11 173 2.11 189 2.11
  49  0.125  0.500  0.550- 180 2.10 196 2.11 155 2.11 179 2.11 173 2.11 177 2.14
  50  0.250  0.625  0.550- 195 2.11 180 2.11 188 2.11 174 2.11 179 2.11 178 2.14
  51  0.125  0.625  0.648- 179 2.10 178 2.10 194 2.11 177 2.11 185 2.11
  52  0.250  0.500  0.647- 180 2.08 193 2.09 177 2.11 178 2.11 154 2.12
  53  0.125  0.750  0.352- 181 2.11 175 2.11 183 2.11 184 2.11 200 2.11
  54  0.250  0.875  0.352- 182 2.11 144 2.11 183 2.11 184 2.11 199 2.11
  55  0.125  0.875  0.451- 187 2.11 183 2.11 182 2.11 141 2.11 181 2.11 198 2.11
  56  0.250  0.750  0.451- 188 2.11 184 2.11 182 2.11 174 2.11 181 2.11 197 2.11
  57  0.125  0.750  0.550- 187 2.11 204 2.11 179 2.11 188 2.11 181 2.11 185 2.14
  58  0.250  0.875  0.550- 188 2.11 148 2.11 187 2.11 203 2.11 182 2.11 186 2.14
  59  0.125  0.875  0.648- 187 2.10 145 2.11 185 2.11 202 2.11 186 2.11
  60  0.250  0.750  0.648- 188 2.10 178 2.10 186 2.11 201 2.11 185 2.11
[...]
 254  0.500  0.625  0.451- 126 2.11 111 2.11  63 2.11 128 2.11 136 2.11 130 2.12
 255  0.875  0.625  0.352- 127 2.11 110 2.11 125 2.11  62 2.11 133 2.11
 256  0.500  0.500  0.352- 128 2.11 102 2.11 109 2.11 126 2.11  61 2.11
 257  0.875  0.500  0.650-  68 2.11 131 2.11 116 2.11 107 2.11 129 2.14
 258  0.500  0.626  0.651- 140 2.10 115 2.12  67 2.12 132 2.14 130 2.16
 259  0.875  0.625  0.549- 131 2.10  66 2.11 127 2.11 137 2.11 114 2.11 129 2.11
 260  0.500  0.501  0.550- 130 2.09  65 2.10 113 2.10 128 2.12 106 2.12 132 2.14
 261  0.875  0.750  0.451- 133 2.11 120 2.11 127 2.11  72 2.11 135 2.11 137 2.11
 262  0.500  0.875  0.451- 134 2.11  96 2.11 119 2.11  71 2.11 136 2.11 138 2.12
 263  0.875  0.875  0.352- 135 2.11  93 2.11 118 2.11 133 2.11  70 2.11
 264  0.500  0.750  0.352- 136 2.11 117 2.11 126 2.11 134 2.11  69 2.11
 265  0.875  0.750  0.650-  76 2.11 139 2.11 124 2.11 131 2.11 137 2.14
 266  0.500  0.875  0.650- 140 2.11 100 2.11  75 2.11 123 2.11 138 2.14
 267  0.875  0.875  0.549- 139 2.10  97 2.11  74 2.11 137 2.11 135 2.11 122 2.11
 268  0.500  0.750  0.550- 140 2.09 138 2.11 121 2.11  73 2.11 136 2.11 130 2.12

IMPORTANT INFORMATION: All symmetrisations will be switched off!
NOSYMM: (Re-)initialisation of all symmetry stuff for point group C_1.

                                     Primitive cell

  volume of cell :    6078.6138

  direct lattice vectors                    reciprocal lattice vectors
    16.881164524  0.000000000  0.000000000     0.059237619  0.000000000  0.000000000
     0.000000000 16.881164524  0.000000000     0.000000000  0.059237619  0.000000000
     0.000000000  0.000000000 21.330436697     0.000000000  0.000000000  0.046881366

  length of vectors
    16.881164524 16.881164524 21.330436697     0.059237619  0.059237619  0.046881366

  position of ions in fractional coordinates (direct lattice)
     0.416960390  0.428216355  0.761195448
     0.331224393  0.390120482  0.770579085
     0.583537088  0.324046046  0.761945945
     0.669899462  0.361411432  0.769590900
     0.448316785  0.293302489  0.761858283
     0.485443730  0.207310897  0.771980332
     0.552577793  0.460775475  0.761276117
     0.514149699  0.546993198  0.767157869
     0.384817162  0.379285806  0.755767454
     0.615992964  0.372587761  0.755649232
     0.496628930  0.260299385  0.756059764
     0.503372321  0.492215285  0.755250335
     0.125000000  0.000000000  0.351610242
     0.250000000  0.125000000  0.351610242
     0.125000000  0.125000000  0.450536747
     0.250000000  0.000000000  0.450536747
     0.124943395  0.999932730  0.549682781
     0.249940047  0.124981930  0.549559326
     0.124909329  0.124819445  0.647725645
     0.249826340  0.999885417  0.647710752
[...]
  9X    13.725754   17.133415    2.050261   39.919949   -9.338697  -14.215368   -0.110477   -0.022615    0.025668   -0.027232   -0.006783    0.002185    0.334281    0.817089    0.077551    0.229055   -0.032755   -0.048967   -0.111350    0.120166    0.031571    0.281114   -0.099849   -0.095169  -56.913279   -8.594803   12.173764    0.123245   -0.018877   -0.048088    0.505878   -1.201621   -0.053464    0.731754    1.175465   -0.002095
  9Y    12.881339   28.281367    5.211058   -5.149018    5.549278    3.001700    0.192575    0.188294   -0.015639    0.006567   -0.011830   -0.001259    0.599288    0.053339   -0.324147   -0.102126   -0.083563    0.029577   -0.073313    0.393396   -0.034031    0.179599   -0.150463   -0.084287   -8.634023  -36.351310   -8.026101   -0.027169   -0.188554    0.014180   -1.043323    0.790139    0.172194    0.991452    0.507327    0.019933
  9Z     0.566710    4.026171    2.374690  -12.880750    4.310438    5.526360   -0.048329   -0.010655    0.058222   -0.023641    0.002960    0.015481   -0.005762   -0.041922    0.488146   -0.023425    0.076897    0.029581   -0.064891    0.041673    0.042879   -0.025673   -0.066671    0.010019   12.235467   -8.073067   -9.707558    0.047201   -0.009775   -0.086405   -0.030886    0.020097   -0.339775    0.159407    0.058895   -0.322826
 10X    -0.104251   -0.016492   -0.025426   -0.028207   -0.008174   -0.001806   13.946973   17.208593   -2.496572   40.294003   -9.630972   13.481232   -0.129899    0.123459   -0.035821    0.271356   -0.083963    0.118876    0.329598    0.775194   -0.082390    0.221850   -0.020500    0.035986    0.121735   -0.028940    0.046928  -57.020497   -8.205617  -10.895349    0.767480    1.161030   -0.030160    0.442532   -1.124396    0.072536
 10Y     0.184813    0.180672    0.013080    0.005426   -0.012767    0.001247   12.933829   27.945510   -5.684018   -5.416228    5.606672   -3.021968   -0.078422    0.393273    0.026852    0.166807   -0.135960    0.101953    0.575247    0.005151    0.304920   -0.107755   -0.087926   -0.016751   -0.019636   -0.190055   -0.010584   -8.295497  -35.628838    8.615723    0.996156    0.472703   -0.041971   -0.943915    0.729017   -0.177716
 10Z     0.044129    0.008604    0.057962    0.023984   -0.001984    0.015167   -0.963988   -4.622918    2.518235   12.104831   -4.236938    5.004932    0.069367   -0.050019    0.044089    0.032708    0.069058    0.009973    0.003595    0.017224    0.459294    0.015820   -0.069960    0.029705   -0.047537    0.014919   -0.086928  -10.964393    8.457685   -9.371244   -0.184005   -0.066110   -0.334201    0.037970   -0.015294   -0.317832
 11X     0.404439    0.079417    0.028360   -0.140573   -0.175166    0.100354    0.014020   -0.594363    0.329909   -0.085749    0.104298   -0.024381   27.508855  -13.087680   -5.477220    5.556565    5.310989   -3.325954    0.180507   -0.189485    0.016186   -0.014047   -0.005757    0.001833    0.504985   -1.042533   -0.029075    0.767236    0.997615   -0.183171  -35.449600    8.708954    8.604305   -0.187310    0.019983   -0.013647
 11Y    -0.131181   -0.124592    0.035944    0.089649    0.281283   -0.118082   -0.803272    0.319472    0.077300    0.026823    0.225584   -0.044118  -17.292232   14.148377    2.283927    9.440603   39.222100  -15.129754    0.019374   -0.104898    0.025973    0.007932   -0.029685    0.003589   -1.202339    0.790827    0.019665    1.161663    0.472818   -0.066628    8.682369  -56.358269   12.885050    0.024174    0.122626   -0.049361
 11Z    -0.048023   -0.067181    0.042881    0.069612   -0.033767    0.009544    0.042523   -0.004527    0.493993   -0.075672   -0.020768    0.028485   -4.232504    0.688329    2.553925   -4.702551  -13.693682    6.336341    0.009822   -0.044494    0.057087   -0.001621   -0.022886    0.015697   -0.053589    0.172612   -0.338766   -0.030424   -0.041744   -0.331367    8.577783   12.778496  -10.564678    0.012135    0.045877   -0.087170
 12X     0.076843   -0.573341   -0.287965   -0.085224    0.098854    0.024376    0.381969    0.072383   -0.031468   -0.139169   -0.164980   -0.086866    0.185981   -0.187549   -0.012276   -0.011109   -0.006206   -0.000886   28.909110  -12.705049    5.436615    5.601189    5.270591    2.561642    0.729462    0.989572    0.157936    0.442799   -0.943628    0.038504   -0.186677    0.024943    0.014327  -36.841837    8.303132   -8.051678
 12Y    -0.816002    0.309733   -0.084673    0.026051    0.225235    0.043279   -0.116488   -0.119381   -0.030950    0.088539    0.268176    0.100649    0.023067   -0.113516   -0.024502    0.006860   -0.028209   -0.001206  -17.032850   13.483890   -2.320257    9.573904   41.386980   11.737422    1.174888    0.504734    0.058353   -1.123003    0.728528   -0.015719    0.020236    0.122335    0.046848    8.208321  -57.573113   -9.293978
 12Z    -0.010882    0.003211    0.445221    0.071832    0.017633    0.030781    0.046545    0.068483    0.042558   -0.065546    0.025502    0.012017   -0.009492    0.047783    0.057284    0.003194    0.023584    0.014722    4.512770   -0.934958    2.287668    3.631779   10.498369    3.757368   -0.001517    0.019933   -0.323654    0.073133   -0.178018   -0.317905   -0.012944   -0.049250   -0.086129   -7.928942   -9.381958   -7.881165

 Eigenvectors and eigenvalues of the dynamical matrix

   1 f  =  111.689298 THz   701.764557 2PiTHz 3725.553969 cm-1   461.909614 meV
             X         Y         Z           dx          dy          dz
      7.038777  7.228791 16.236631    -0.001149    0.007545    0.003142
      5.591453  6.585688 16.436788     0.133916   -0.022559   -0.046629
      9.850786  5.470275 16.252640    -0.013325   -0.023571    0.006291
     11.308683  6.101046 16.415710    -0.085396    0.015836   -0.028038
      7.568109  4.951288 16.250770    -0.098615    0.037410    0.026037
      8.194855  3.499649 16.466678     0.162871    0.873017   -0.330767
      9.328157  7.778427 16.238352     0.002066   -0.000605    0.000976
      8.679446  9.233882 16.363812    -0.003816   -0.023088   -0.006326
      6.496162  6.402786 16.120850    -0.034007    0.004588    0.010382
     10.398679  6.289715 16.118328     0.024885    0.002029    0.005503
      8.383675  4.394157 16.127085    -0.015232   -0.227878    0.074740
      8.497511  8.309167 16.109819     0.000652    0.006156    0.001236
      2.110146  0.000000  7.500000            0           0           0
      4.220291  2.110146  7.500000            0           0           0
      2.110146  2.110146  9.610146            0           0           0
      4.220291  0.000000  9.610146            0           0           0
      2.109190 16.880029 11.724974            0           0           0
      4.219279  2.109841 11.722340            0           0           0
      2.108615  2.107098 13.816271            0           0           0
      4.217360 16.879230 13.815953            0           0           0
      2.110146  4.220291  7.500000            0           0           0
      4.220291  6.330437  7.500000            0           0           0
      2.110146  6.330437  9.610146            0           0           0
      4.220291  4.220291  9.610146            0           0           0
      2.109740  4.220433 11.724182            0           0           0
      4.226805  6.329697 11.729901            0           0           0
      2.107434  6.330428 13.816540            0           0           0
      4.217955  4.214307 13.807010            0           0           0
      6.330437  0.000000  7.500000            0           0           0
      0.000000  2.110146  7.500000            0           0           0
      6.330437  2.110146  9.610146            0           0           0
      0.000000  0.000000  9.610146            0           0           0
      6.330839 16.880298 11.723446            0           0           0
      0.000153  2.109072 11.724672            0           0           0
      6.324406  2.107470 13.800898            0           0           0
      0.000210 16.879556 13.818270            0           0           0
      6.330437  4.220291  7.500000            0           0           0
      0.000000  6.330437  7.500000            0           0           0
      6.330437  6.330437  9.610146            0           0           0
      0.000000  4.220291  9.610146            0           0           0
      6.338251  4.226806 11.737380            0           0           0
      0.000023  6.330485 11.725606            0           0           0
      6.335070  6.322366 13.879234            0           0           0
      0.000179  4.217546 13.817425            0           0           0
      2.110146  8.440582  7.500000            0           0           0
      4.220291 10.550728  7.500000            0           0           0
      2.110146 10.550728  9.610146            0           0           0
      4.220291  8.440582  9.610146            0           0           0
      2.108928  8.440522 11.723137            0           0           0
      4.219799 10.552038 11.721706            0           0           0
      2.108267 10.554212 13.815810            0           0           0
      4.217528  8.447336 13.799264            0           0           0
      2.110146 12.660873  7.500000            0           0           0
      4.220291 14.771019  7.500000            0           0           0
      2.110146 14.771019  9.610146            0           0           0
      4.220291 12.660873  9.610146            0           0           0
      2.109091 12.662062 11.725013            0           0           0
      4.219553 14.770859 11.724716            0           0           0
      2.108621 14.770987 13.817872            0           0           0
      4.217338 12.662677 13.816096            0           0           0
[...]
      8.440582 10.550728  9.610146            0           0           0
     14.771019 10.550728  7.500000            0           0           0
      8.440582  8.440582  7.500000            0           0           0
     14.774534  8.444479 13.863587            0           0           0
      8.441801 10.568438 13.886613            0           0           0
     14.773309 10.552593 11.719431            0           0           0
      8.439688  8.449473 11.728271            0           0           0
     14.771019 12.660873  9.610146            0           0           0
      8.440582 14.771019  9.610146            0           0           0
     14.771019 14.771019  7.500000            0           0           0
      8.440582 12.660873  7.500000            0           0           0
     14.773988 12.663962 13.862102            0           0           0
      8.440738 14.770503 13.865882            0           0           0
     14.772081 14.771273 11.719991            0           0           0
      8.440731 12.661921 11.722216            0           0           0

[...]

  36 f  =    2.123013 THz    13.339283 2PiTHz   70.816086 cm-1     8.780072 meV
             X         Y         Z           dx          dy          dz
      7.038777  7.228791 16.236631    -0.005743    0.100014   -0.028240
      5.591453  6.585688 16.436788     0.019722    0.064141    0.011518
      9.850786  5.470275 16.252640     0.019569    0.118259    0.029761
     11.308683  6.101046 16.415710     0.036689    0.091832   -0.024575
      7.568109  4.951288 16.250770     0.045922    0.125165    0.008525
      8.194855  3.499649 16.466678     0.033522    0.142962    0.131309
      9.328157  7.778427 16.238352     0.040656    0.185558   -0.006464
      8.679446  9.233882 16.363812     0.004013    0.188635   -0.185199
      6.496162  6.402786 16.120850     0.080276    0.323750    0.010938
     10.398679  6.289715 16.118328     0.130561    0.417181   -0.021038
      8.383675  4.394157 16.127085     0.120698    0.398173    0.065538
      8.497511  8.309167 16.109819     0.060398    0.554705   -0.067535
      2.110146  0.000000  7.500000            0           0           0
      4.220291  2.110146  7.500000            0           0           0
      2.110146  2.110146  9.610146            0           0           0
      4.220291  0.000000  9.610146            0           0           0
      2.109190 16.880029 11.724974            0           0           0
      4.219279  2.109841 11.722340            0           0           0
      2.108615  2.107098 13.816271            0           0           0
      4.217360 16.879230 13.815953            0           0           0
      2.110146  4.220291  7.500000            0           0           0
      4.220291  6.330437  7.500000            0           0           0
      2.110146  6.330437  9.610146            0           0           0
      4.220291  4.220291  9.610146            0           0           0
      2.109740  4.220433 11.724182            0           0           0
      4.226805  6.329697 11.729901            0           0           0
      2.107434  6.330428 13.816540            0           0           0
      4.217955  4.214307 13.807010            0           0           0
      6.330437  0.000000  7.500000            0           0           0
      0.000000  2.110146  7.500000            0           0           0
      6.330437  2.110146  9.610146            0           0           0
      0.000000  0.000000  9.610146            0           0           0
      6.330839 16.880298 11.723446            0           0           0
      0.000153  2.109072 11.724672            0           0           0
      6.324406  2.107470 13.800898            0           0           0
      0.000210 16.879556 13.818270            0           0           0
      6.330437  4.220291  7.500000            0           0           0
      0.000000  6.330437  7.500000            0           0           0
      6.330437  6.330437  9.610146            0           0           0
      0.000000  4.220291  9.610146            0           0           0
      6.338251  4.226806 11.737380            0           0           0
      0.000023  6.330485 11.725606            0           0           0
      6.335070  6.322366 13.879234            0           0           0
      0.000179  4.217546 13.817425            0           0           0
      2.110146  8.440582  7.500000            0           0           0
      4.220291 10.550728  7.500000            0           0           0
      2.110146 10.550728  9.610146            0           0           0
      4.220291  8.440582  9.610146            0           0           0
      2.108928  8.440522 11.723137            0           0           0
      4.219799 10.552038 11.721706            0           0           0
      2.108267 10.554212 13.815810            0           0           0
      4.217528  8.447336 13.799264            0           0           0
      2.110146 12.660873  7.500000            0           0           0
      4.220291 14.771019  7.500000            0           0           0
      2.110146 14.771019  9.610146            0           0           0
      4.220291 12.660873  9.610146            0           0           0
      2.109091 12.662062 11.725013            0           0           0
      4.219553 14.770859 11.724716            0           0           0
      2.108621 14.770987 13.817872            0           0           0
      4.217338 12.662677 13.816096            0           0           0
[...]
      8.440582 10.550728  9.610146            0           0           0
     14.771019 10.550728  7.500000            0           0           0
      8.440582  8.440582  7.500000            0           0           0
     14.774534  8.444479 13.863587            0           0           0
      8.441801 10.568438 13.886613            0           0           0
     14.773309 10.552593 11.719431            0           0           0
      8.439688  8.449473 11.728271            0           0           0
     14.771019 12.660873  9.610146            0           0           0
      8.440582 14.771019  9.610146            0           0           0
     14.771019 14.771019  7.500000            0           0           0
      8.440582 12.660873  7.500000            0           0           0
     14.773988 12.663962 13.862102            0           0           0
      8.440738 14.770503 13.865882            0           0           0
     14.772081 14.771273 11.719991            0           0           0
      8.440731 12.661921 11.722216            0           0           0

 Finite differences POTIM=   1.0000000000000000E-002