 vasp.6.3.0 20Jan22 (build Mar 11 2022 13:48:16) complex

 executed on             LinuxIFC date 2023.12.26  18:07:14

 INCAR:
   SYSTEM = MgO-rocksalt
   ISMEAR = 0
   SIGMA = 0.05
   EDIFF = 1E-6
   ALGO = ALL
   ISTART = 0
   IBRION = -1
   NSW = 0
   ISYM = 2
   ISIF = 2
   EDIFFG = -0.01
   DIPOL = 0.5 0.5 0.5
   IDIPOL = 3
   LDIPOL = .TRUE.
   GGA = MK
   LUSE_VDW = .TRUE.
   PARAM1 = 0.1234
   PARAM2 = 0.711357
   ZAB_VDW = -1.8867
   AGGAC = 0.0
   ENCUT = 600
   PREC = Accurate
   LASPH = .TRUE.
   LREAL = .FALSE.
   ISPIN = 1
   NELM = 200
   NELMIN = 8
   NCORE = 2
   KPAR = 1
   LWAVE = .FALSE.
   LCHARG = .FALSE.

 POTCAR:    PAW_PBE C 08Apr2002
 POTCAR:    PAW_PBE O 08Apr2002
 POTCAR:    PAW_PBE Mg_pv 13Apr2007
 POTCAR:    PAW_PBE O 08Apr2002
|           W    W    AA    RRRRR   N    N  II  N    N   GGGG   !!!           |
|           W    W   A  A   R    R  NN   N  II  NN   N  G    G  !!!           |
|           W    W  A    A  R    R  N N  N  II  N N  N  G       !!!           |
|           W WW W  AAAAAA  RRRRR   N  N N  II  N  N N  G  GGG   !            |
|           WW  WW  A    A  R   R   N   NN  II  N   NN  G    G                |
|           W    W  A    A  R    R  N    N  II  N    N   GGGG   !!!           |
|     For optimal performance we recommend to set                             |
|       NCORE = 2 up to number-of-cores-per-socket                            |
|     This setting can greatly improve the performance of VASP for DFT.       |
|     The default, NCORE=1 might be grossly inefficient on modern             |
|     multi-core architectures or massively parallel machines. Do your        |
|     Unfortunately you need to use the default for GW and RPA                |
|     calculations (for HF NCORE is supported but not extensively tested      |
|     yet).                                                                   |

   TITEL  = PAW_PBE C 08Apr2002
   POMASS =   12.011; ZVAL   =    4.000    mass and valenz
   ENMAX  =  400.000; ENMIN  =  300.000 eV

[...]

   TITEL  = PAW_PBE Mg_pv 13Apr2007
   POMASS =   24.305; ZVAL   =    8.000    mass and valenz
   ENMAX  =  403.929; ENMIN  =  302.947 eV

   TITEL  = PAW_PBE O 08Apr2002
   POMASS =   16.000; ZVAL   =    6.000    mass and valenz
   ENMAX  =  400.000; ENMIN  =  300.000 eV

  PAW_PBE C 08Apr2002                   :
  PAW_PBE O 08Apr2002                   :
  PAW_PBE Mg_pv 13Apr2007               :
  PAW_PBE O 08Apr2002                   :

 POSCAR:  C  O Mg  O
  positions in direct lattice
  velocities in cartesian coordinates
 exchange correlation table for  LEXCH =       43
   RHO(1)=    0.500       N(1)  =     2000
   RHO(2)=  100.500       N(2)  =     4000

 ion  position               nearest neighbor table
   1  0.500  0.500  0.763-   2 1.14
   2  0.500  0.500  0.817-   1 1.14
   3  0.250  0.000  0.352-  35 2.11  37 2.11  38 2.11  45 2.11  54 2.11
   4  0.500  0.250  0.352-  36 2.11  37 2.11  38 2.11  46 2.11  53 2.11
   5  0.250  0.250  0.451-  37 2.11  36 2.11  35 2.11  43 2.11  52 2.11  41 2.11
   6  0.500  0.000  0.451-  38 2.11  36 2.11  35 2.11  44 2.11  51 2.11  42 2.11
   7  0.250  0.000  0.550-  42 2.11  41 2.11  49 2.11  58 2.11  35 2.12  39 2.14
   8  0.500  0.250  0.550-  50 2.11  41 2.11  57 2.11  42 2.11  36 2.12  40 2.14
   9  0.250  0.250  0.648-  41 2.10  39 2.11  56 2.11  47 2.11  40 2.11
  10  0.500  0.000  0.648-  40 2.10  48 2.10  42 2.10  39 2.11  55 2.11
  11  0.250  0.500  0.352-  43 2.11  37 2.11  45 2.11  46 2.11  62 2.11
  12  0.500  0.750  0.352-  44 2.11  38 2.11  45 2.11  46 2.11  61 2.11
  13  0.250  0.750  0.451-  45 2.11  43 2.11  44 2.11  35 2.11  60 2.11  49 2.11
  14  0.500  0.500  0.451-  46 2.11  43 2.11  44 2.11  36 2.11  59 2.11  50 2.12
  15  0.250  0.500  0.550-  50 2.11  49 2.11  41 2.11  66 2.11  43 2.12  47 2.14
  16  0.500  0.750  0.550-  50 2.11  49 2.11  65 2.11  42 2.11  44 2.12  48 2.14
  17  0.250  0.750  0.648-  49 2.10  39 2.11  64 2.11  47 2.11  48 2.11
  18  0.500  0.500  0.651-  40 2.12  47 2.12  48 2.12  63 2.12  50 2.14
  19  0.750  0.000  0.352-  51 2.11  38 2.11  53 2.11  54 2.11  61 2.11
  20  0.000  0.250  0.352-  52 2.11  37 2.11  53 2.11  54 2.11  62 2.11
  21  0.750  0.250  0.451-  53 2.11  51 2.11  52 2.11  36 2.11  59 2.11  57 2.11
  22  0.000  0.000  0.451-  54 2.11  51 2.11  52 2.11  35 2.11  60 2.11  58 2.11
  23  0.750  0.000  0.550-  42 2.11  57 2.11  65 2.11  58 2.11  51 2.12  55 2.14
  24  0.000  0.250  0.550-  66 2.11  57 2.11  41 2.11  58 2.11  52 2.12  56 2.14
  25  0.750  0.250  0.648-  57 2.10  56 2.11  55 2.11  40 2.11  63 2.11
  26  0.000  0.000  0.648-  58 2.10  55 2.11  56 2.11  39 2.11  64 2.11
  27  0.750  0.500  0.352-  59 2.11  53 2.11  46 2.11  61 2.11  62 2.11
  28  0.000  0.750  0.352-  60 2.11  54 2.11  45 2.11  61 2.11  62 2.11
  29  0.750  0.750  0.451-  61 2.11  51 2.11  59 2.11  60 2.11  44 2.11  65 2.11
  30  0.000  0.500  0.451-  62 2.11  52 2.11  59 2.11  60 2.11  43 2.11  66 2.11
  31  0.750  0.500  0.550-  50 2.11  57 2.11  65 2.11  66 2.11  59 2.12  63 2.14
  32  0.000  0.750  0.550-  66 2.11  65 2.11  49 2.11  58 2.11  60 2.12  64 2.14
  33  0.750  0.750  0.648-  65 2.10  64 2.11  55 2.11  48 2.11  63 2.11
  34  0.000  0.500  0.648-  47 2.10  63 2.10  66 2.10  64 2.11  56 2.11
  35  0.250  0.000  0.451-   3 2.11   5 2.11   6 2.11  13 2.11  22 2.11   7 2.12
  36  0.500  0.250  0.451-   4 2.11   5 2.11   6 2.11  14 2.11  21 2.11   8 2.12
  37  0.250  0.250  0.352-   5 2.11   4 2.11   3 2.11  11 2.11  20 2.11
  38  0.500  0.000  0.352-   6 2.11   4 2.11   3 2.11  12 2.11  19 2.11
  39  0.250  0.000  0.650-   9 2.11  17 2.11  26 2.11  10 2.11   7 2.14
  40  0.500  0.249  0.650-  10 2.10   9 2.11  25 2.11  18 2.12   8 2.14
  41  0.250  0.250  0.550-   9 2.10   7 2.11  24 2.11  15 2.11   8 2.11   5 2.11
  42  0.500  0.000  0.550-  10 2.10   7 2.11  23 2.11   6 2.11  16 2.11   8 2.11
  43  0.250  0.500  0.451-  11 2.11   5 2.11  13 2.11  14 2.11  30 2.11  15 2.12
  44  0.500  0.750  0.451-  12 2.11   6 2.11  13 2.11  14 2.11  29 2.11  16 2.12
  45  0.250  0.750  0.352-  13 2.11  11 2.11  12 2.11   3 2.11  28 2.11
  46  0.500  0.500  0.352-  14 2.11  11 2.11  12 2.11   4 2.11  27 2.11
  47  0.249  0.500  0.650-  34 2.10  17 2.11   9 2.11  18 2.12  15 2.14
  48  0.500  0.751  0.650-  10 2.10  17 2.11  33 2.11  18 2.12  16 2.14
  49  0.250  0.750  0.550-  17 2.10   7 2.11  32 2.11  15 2.11  16 2.11  13 2.11
  50  0.500  0.500  0.550-   8 2.11  15 2.11  16 2.11  31 2.11  14 2.12  18 2.14
  51  0.750  0.000  0.451-  19 2.11   6 2.11  21 2.11  22 2.11  29 2.11  23 2.12
  52  0.000  0.250  0.451-  20 2.11   5 2.11  21 2.11  22 2.11  30 2.11  24 2.12
  53  0.750  0.250  0.352-  21 2.11  19 2.11  20 2.11   4 2.11  27 2.11
  54  0.000  0.000  0.352-  22 2.11  19 2.11  20 2.11   3 2.11  28 2.11
  55  0.750  0.000  0.650-  25 2.11  33 2.11  26 2.11  10 2.11  23 2.14
  56  0.000  0.250  0.650-   9 2.11  25 2.11  26 2.11  34 2.11  24 2.14
  57  0.750  0.250  0.550-  25 2.10  24 2.11  23 2.11   8 2.11  31 2.11  21 2.11
  58  0.000  0.000  0.550-  26 2.10  23 2.11  24 2.11   7 2.11  32 2.11  22 2.11
  59  0.750  0.500  0.451-  27 2.11  21 2.11  14 2.11  29 2.11  30 2.11  31 2.12
  60  0.000  0.750  0.451-  28 2.11  22 2.11  13 2.11  29 2.11  30 2.11  32 2.12
  61  0.750  0.750  0.352-  29 2.11  19 2.11  27 2.11  28 2.11  12 2.11
  62  0.000  0.500  0.352-  30 2.11  20 2.11  27 2.11  28 2.11  11 2.11
  63  0.751  0.500  0.650-  34 2.10  33 2.11  25 2.11  18 2.12  31 2.14
  64  0.000  0.750  0.650-  17 2.11  33 2.11  26 2.11  34 2.11  32 2.14
  65  0.750  0.750  0.550-  33 2.10  32 2.11  23 2.11  16 2.11  31 2.11  29 2.11
  66  0.000  0.500  0.550-  34 2.10  32 2.11  24 2.11  30 2.11  15 2.11  31 2.11

  LATTYP: Found a simple tetragonal cell.
 ALAT       =     8.4405822621
 C/A-ratio  =     2.5271285836

  Lattice vectors:

 A1 = (   8.4405822621,   0.0000000000,   0.0000000000)
 A2 = (   0.0000000000,   8.4405822621,   0.0000000000)
 A3 = (   0.0000000000,   0.0000000000,  21.3304366966)

Analysis of symmetry for initial positions (statically):
 Subroutine PRICEL returns:
 Original cell was already a primitive cell.

 Routine SETGRP: Setting up the symmetry group for a
 simple tetragonal supercell.

 Subroutine GETGRP returns: Found  8 space group operations
 (whereof  8 operations were pure point group operations)
 out of a pool of 16 trial point group operations.

The static configuration has the point symmetry C_4v.

Analysis of symmetry for dynamics (positions and initial velocities):
 Subroutine PRICEL returns:
 Original cell was already a primitive cell.

[...]

The dynamic configuration has the point symmetry C_4v.

Analysis of constrained symmetry for selective dynamics:
 Subroutine PRICEL returns:
 Original cell was already a primitive cell.

 Routine SETGRP: Setting up the symmetry group for a
 simple tetragonal supercell.

 Subroutine GETGRP returns: Found  8 space group operations
 (whereof  8 operations were pure point group operations)
 out of a pool of 16 trial point group operations.

The constrained configuration has the point symmetry C_4v.

 Subroutine INISYM returns: Found  8 space group operations
 (whereof  8 operations are pure point group operations),
 and found     1 'primitive' translations

                                     Primitive cell

  volume of cell :    1519.6535

  direct lattice vectors                    reciprocal lattice vectors
     8.440582262  0.000000000  0.000000000     0.118475239  0.000000000  0.000000000
     0.000000000  8.440582262  0.000000000     0.000000000  0.118475239  0.000000000
     0.000000000  0.000000000 21.330436697     0.000000000  0.000000000  0.046881366

  length of vectors
     8.440582262  8.440582262 21.330436697     0.118475239  0.118475239  0.046881366

  position of ions in fractional coordinates (direct lattice)
     0.500000000  0.500000000  0.763496057
     0.500000000  0.500000000  0.817025071
     0.250000000  0.000000000  0.351610242
     0.500000000  0.250000000  0.351610242
     0.250000000  0.250000000  0.450536747
     0.500000000  0.000000000  0.450536747
     0.250096034  0.000000000  0.549803915
     0.500000000  0.250478300  0.550037642
     0.249708419  0.249708419  0.647948439
     0.500000000  0.000000000  0.648058606
     0.250000000  0.500000000  0.351610242
     0.500000000  0.750000000  0.351610242
     0.250000000  0.750000000  0.450536747
     0.500000000  0.500000000  0.450536747
     0.250478300  0.500000000  0.550037642
     0.500000000  0.749521700  0.550037642
     0.249708419  0.750291581  0.647948439
     0.500000000  0.500000000  0.650645311
     0.750000000  0.000000000  0.351610242
     0.000000000  0.250000000  0.351610242
     0.750000000  0.250000000  0.450536747
     0.000000000  0.000000000  0.450536747
     0.749903966  0.000000000  0.549803915
     0.000000000  0.250096034  0.549803915
     0.750291581  0.249708419  0.647948439
     0.000000000  0.000000000  0.648120387
     0.750000000  0.500000000  0.351610242
     0.000000000  0.750000000  0.351610242
     0.750000000  0.750000000  0.450536747
     0.000000000  0.500000000  0.450536747
     0.749521700  0.500000000  0.550037642
[...]
   2.11014557  0.00000000  7.50000000
   4.22029113  2.11014557  7.50000000
   2.11014557  2.11014557  9.61014557
   4.22029113  0.00000000  9.61014557
   2.11095615  0.00000000 11.72755760
   4.22029113  2.11418270 11.73254310
   2.10768445  2.10768445 13.82102317
   4.22029113  0.00000000 13.82337306
   2.11014557  4.22029113  7.50000000
   4.22029113  6.33043670  7.50000000
   2.11014557  6.33043670  9.61014557
   4.22029113  4.22029113  9.61014557
   2.11418270  4.22029113 11.73254310
   4.22029113  6.32639956 11.73254310
   2.10768445  6.33289781 13.82102317
   4.22029113  4.22029113 13.87854862
   6.33043670  0.00000000  7.50000000
   0.00000000  2.11014557  7.50000000
   6.33043670  2.11014557  9.61014557
   0.00000000  0.00000000  9.61014557
   6.32962612  0.00000000 11.72755760
   0.00000000  2.11095615 11.72755760
   6.33289781  2.10768445 13.82102317
   0.00000000  0.00000000 13.82469089
   6.33043670  4.22029113  7.50000000
   0.00000000  6.33043670  7.50000000
   6.33043670  6.33043670  9.61014557
   0.00000000  4.22029113  9.61014557
   6.32639956  4.22029113 11.73254310
   0.00000000  6.32962612 11.72755760
   6.33289781  6.33289781 13.82102317
   0.00000000  4.22029113 13.82337306
   2.11014557  0.00000000  9.61014557
   4.22029113  2.11014557  9.61014557
   2.11014557  2.11014557  7.50000000
   4.22029113  0.00000000  7.50000000
   2.10787215  0.00000000 13.86595544
   4.22029113  2.09922911 13.86755898
   2.10999758  2.10999758 11.72373199
   4.22029113  0.00000000 11.72209419
   2.11014557  4.22029113  9.61014557
   4.22029113  6.33043670  9.61014557
   2.11014557  6.33043670  7.50000000
   4.22029113  4.22029113  7.50000000
   2.09922911  4.22029113 13.86755898
   4.22029113  6.34135315 13.86755898
   2.10999758  6.33058468 11.72373199
   4.22029113  4.22029113 11.73376603
   6.33043670  0.00000000  9.61014557
   0.00000000  2.11014557  9.61014557
   6.33043670  2.11014557  7.50000000
   0.00000000  0.00000000  7.50000000
   6.33271011  0.00000000 13.86595544
   0.00000000  2.10787215 13.86595544
   6.33058468  2.10999758 11.72373199
   0.00000000  0.00000000 11.72231923
   6.33043670  4.22029113  9.61014557
   0.00000000  6.33043670  9.61014557
   6.33043670  6.33043670  7.50000000
   0.00000000  4.22029113  7.50000000
   6.34135315  4.22029113 13.86755898
   0.00000000  6.33271011 13.86595544
   6.33058468  6.33058468 11.72373199
   0.00000000  4.22029113 11.72209419

--------------------------------------- Iteration      FINAL  ---------------------------------------

--------------------OUTCAR has been truncated-------------------------

[...]

--------------------OUTCAR has been truncated-------------------------

  FORCE on cell =-STRESS in cart. coord.  units (eV):
  Direction    XX          YY          ZZ          XY          YZ          ZX
  Alpha Z   908.06353   908.06353   908.06353
  Ewald  158173.94950158173.94950************     0.00000     0.00000    -0.00000
  Hartree168557.53431168557.53431************    -0.00000    -0.00000    -0.00000
  E(xc)   -2500.25332 -2500.25332 -2499.23146    -0.00000     0.00000     0.00000
  Local  ************************336312.89340     0.00000     0.00000     0.00000
  n-local -2850.92643 -2851.73854 -2880.60542     0.00000    -0.00000     0.00000
  augment  1057.95985  1057.95985  1048.11771     0.00000     0.00000     0.00000
  Kinetic  7496.18224  7498.74129  7516.95645     0.00001     0.00001     0.00001
  Fock        0.00000     0.00000     0.00000     0.00000     0.00000     0.00000
  Total     -29.43825   -29.43825    -2.23959     0.00000     0.00000     0.00000
  in kB     -31.03687   -31.03687    -2.36121     0.00000     0.00000     0.00000

 VOLUME and BASIS-vectors are now :
  energy-cutoff  :      600.00
  volume of cell :     1519.65
      direct lattice vectors                 reciprocal lattice vectors
     8.440582262  0.000000000  0.000000000     0.118475239  0.000000000  0.000000000
     0.000000000  8.440582262  0.000000000     0.000000000  0.118475239  0.000000000
     0.000000000  0.000000000 21.330436697     0.000000000  0.000000000  0.046881366

  length of vectors
     8.440582262  8.440582262 21.330436697     0.118475239  0.118475239  0.046881366

 FORCES acting on ions:
    Electron-Ion                     Ewald-Force                    Non-Local-Force
   0.902E-13 -.330E-12 -.842E+03   -.163E-13 0.437E-15 0.816E+03   -.623E-23 -.196E-23 0.270E+02
   0.372E-12 0.269E-13 -.146E+04   -.133E-14 -.644E-14 0.152E+04   -.126E-22 0.133E-22 -.607E+02
   0.922E-01 0.431E-12 0.208E+04   -.909E-01 0.454E-13 -.207E+04   -.882E-03 0.211E-22 -.679E+01
   0.657E-12 0.858E-01 0.208E+04   0.120E-12 -.820E-01 -.207E+04   -.345E-22 -.293E-02 -.680E+01
   0.310E+00 0.310E+00 0.717E+03   -.294E+00 -.294E+00 -.717E+03   -.112E-01 -.112E-01 0.437E+00
   0.570E-12 0.744E-12 0.717E+03   -.125E-13 0.277E-14 -.717E+03   -.559E-23 -.161E-23 0.375E+00
   0.267E+01 0.370E-12 -.641E+03   -.265E+01 0.135E-10 0.641E+03   -.272E-01 -.533E-22 -.182E+00
   0.568E-12 0.382E+01 -.636E+03   -.743E-13 -.370E+01 0.636E+03   0.228E-22 -.118E+00 -.291E+00
   0.178E+02 0.178E+02 -.199E+04   -.179E+02 -.179E+02 0.198E+04   0.109E+00 0.109E+00 0.602E+01
   0.688E-12 0.357E-12 -.200E+04   -.110E-11 0.164E-10 0.199E+04   -.115E-22 0.531E-23 0.595E+01
   0.858E-01 0.929E-12 0.208E+04   -.820E-01 0.422E-13 -.207E+04   -.293E-02 0.592E-23 -.680E+01
   0.641E-12 -.858E-01 0.208E+04   -.149E-11 0.820E-01 -.207E+04   -.267E-23 0.293E-02 -.680E+01
   0.310E+00 -.310E+00 0.717E+03   -.294E+00 0.294E+00 -.717E+03   -.112E-01 0.112E-01 0.437E+00
   0.594E-12 -.137E-11 0.717E+03   0.152E-11 -.249E-13 -.717E+03   0.616E-23 -.400E-23 0.518E+00
   0.382E+01 0.197E-11 -.636E+03   -.370E+01 -.784E-13 0.636E+03   -.118E+00 0.384E-22 -.291E+00
   0.589E-12 -.382E+01 -.636E+03   -.275E-13 0.370E+01 0.636E+03   0.111E-22 0.118E+00 -.291E+00
   0.178E+02 -.178E+02 -.199E+04   -.179E+02 0.179E+02 0.198E+04   0.109E+00 -.109E+00 0.602E+01
   0.663E-12 -.135E-13 -.192E+04   -.149E-11 -.747E-13 0.192E+04   0.454E-22 0.173E-22 0.386E+01
   -.922E-01 0.458E-12 0.208E+04   0.909E-01 0.295E-13 -.207E+04   0.882E-03 0.278E-22 -.679E+01
   -.540E-13 0.922E-01 0.208E+04   0.152E-11 -.909E-01 -.207E+04   0.200E-22 -.882E-03 -.679E+01
   -.310E+00 0.310E+00 0.717E+03   0.294E+00 -.294E+00 -.717E+03   0.112E-01 -.112E-01 0.437E+00
   -.411E-13 -.402E-12 0.716E+03   -.150E-10 0.289E-14 -.716E+03   -.114E-23 -.229E-22 0.405E+00
   -.267E+01 0.276E-12 -.641E+03   0.265E+01 0.135E-10 0.641E+03   0.272E-01 0.104E-21 -.182E+00
   -.232E-13 0.267E+01 -.641E+03   0.166E-10 -.265E+01 0.641E+03   -.858E-22 -.272E-01 -.182E+00
   -.178E+02 0.178E+02 -.199E+04   0.179E+02 -.179E+02 0.198E+04   -.109E+00 0.109E+00 0.602E+01
   -.301E-13 -.566E-12 -.201E+04   0.274E-11 0.106E-11 0.200E+04   -.362E-22 0.237E-22 0.596E+01
   -.858E-01 -.229E-12 0.208E+04   0.820E-01 -.146E-11 -.207E+04   0.293E-02 0.110E-22 -.680E+01
   -.617E-13 -.922E-01 0.208E+04   0.785E-14 0.909E-01 -.207E+04   0.939E-23 0.882E-03 -.679E+01
   -.310E+00 -.310E+00 0.717E+03   0.294E+00 0.294E+00 -.717E+03   0.112E-01 0.112E-01 0.437E+00
   -.417E-13 0.673E-13 0.717E+03   0.218E-13 0.150E-10 -.717E+03   0.149E-22 0.397E-22 0.375E+00
   -.382E+01 0.526E-11 -.636E+03   0.370E+01 0.162E-15 0.636E+03   0.118E+00 -.401E-22 -.291E+00
   -.166E-13 -.267E+01 -.641E+03   0.153E-10 0.265E+01 0.641E+03   -.566E-22 0.272E-01 -.182E+00
   -.178E+02 -.178E+02 -.199E+04   0.179E+02 0.179E+02 0.198E+04   -.109E+00 -.109E+00 0.602E+01
   0.839E-14 -.687E-12 -.200E+04   0.960E-13 -.193E-15 0.199E+04   -.473E-22 0.762E-23 0.595E+01
   0.303E+00 -.434E-12 0.537E+03   -.296E+00 0.296E-13 -.537E+03   -.929E-02 0.313E-22 -.529E-01
   0.255E-12 0.275E+00 0.537E+03   -.405E-13 -.302E+00 -.537E+03   -.121E-22 0.354E-01 -.101E+00
   0.659E-01 0.659E-01 0.156E+04   -.633E-01 -.633E-01 -.157E+04   -.355E-02 -.355E-02 0.360E+01
   0.307E-12 0.112E-11 0.156E+04   -.275E-13 0.159E-13 -.157E+04   0.796E-23 -.331E-22 0.360E+01
   0.718E+01 -.364E-12 -.152E+04   -.711E+01 -.120E-13 0.153E+04   -.785E-01 0.427E-23 -.495E+01
   0.332E-12 0.237E+02 -.149E+04   0.350E-13 -.233E+02 0.150E+04   -.138E-22 -.350E+00 -.493E+01
   0.238E+01 0.238E+01 -.473E+03   -.237E+01 -.237E+01 0.472E+03   -.133E-01 -.133E-01 0.358E+00
   0.259E-12 0.407E-12 -.473E+03   0.132E-13 0.139E-13 0.473E+03   -.263E-22 -.123E-22 0.289E+00
   0.275E+00 -.421E-12 0.537E+03   -.302E+00 0.843E-11 -.537E+03   0.354E-01 0.157E-22 -.101E+00
   0.248E-12 -.275E+00 0.537E+03   0.707E-12 0.302E+00 -.537E+03   0.376E-22 -.354E-01 -.101E+00
   0.659E-01 -.659E-01 0.156E+04   -.633E-01 0.633E-01 -.157E+04   -.355E-02 0.355E-02 0.360E+01
   0.277E-12 0.754E-12 0.156E+04   -.875E-12 -.837E-12 -.157E+04   0.191E-23 -.659E-23 0.360E+01
   0.237E+02 0.104E-11 -.149E+04   -.233E+02 0.605E-13 0.150E+04   -.350E+00 -.276E-22 -.493E+01
   0.322E-12 -.237E+02 -.149E+04   -.133E-13 0.233E+02 0.150E+04   0.435E-22 0.350E+00 -.493E+01
   0.238E+01 -.238E+01 -.473E+03   -.237E+01 0.237E+01 0.472E+03   -.133E-01 0.133E-01 0.358E+00
   0.217E-12 0.150E-11 -.475E+03   0.131E-12 -.142E-13 0.475E+03   -.215E-23 -.229E-23 -.313E+00
   -.303E+00 -.468E-12 0.537E+03   0.296E+00 -.769E-14 -.537E+03   0.929E-02 0.228E-22 -.529E-01
   -.127E-13 0.303E+00 0.537E+03   -.932E-11 -.296E+00 -.537E+03   0.250E-22 -.929E-02 -.529E-01
   -.659E-01 0.659E-01 0.156E+04   0.633E-01 -.633E-01 -.157E+04   0.355E-02 -.355E-02 0.360E+01
   -.271E-13 0.673E-13 0.156E+04   0.163E-11 -.534E-14 -.157E+04   -.281E-24 -.151E-22 0.361E+01
   -.718E+01 -.404E-12 -.152E+04   0.711E+01 -.361E-13 0.153E+04   0.785E-01 -.821E-23 -.495E+01
   0.146E-13 0.718E+01 -.152E+04   -.897E-11 -.711E+01 0.153E+04   0.465E-22 -.785E-01 -.495E+01
   -.238E+01 0.238E+01 -.473E+03   0.237E+01 -.237E+01 0.472E+03   0.133E-01 -.133E-01 0.358E+00
   -.223E-13 -.109E-12 -.478E+03   0.217E-13 0.159E-10 0.478E+03   0.117E-22 -.320E-22 0.260E+00
   -.275E+00 0.653E-11 0.537E+03   0.302E+00 0.842E-11 -.537E+03   -.354E-01 -.360E-22 -.101E+00
   -.162E-13 -.303E+00 0.537E+03   -.850E-11 0.296E+00 -.537E+03   -.458E-22 0.929E-02 -.529E-01
   -.659E-01 -.659E-01 0.156E+04   0.633E-01 0.633E-01 -.157E+04   0.355E-02 0.355E-02 0.360E+01
   -.207E-13 0.458E-12 0.156E+04   0.847E-12 -.849E-12 -.157E+04   0.272E-22 -.178E-22 0.360E+01
   -.237E+02 0.117E-11 -.149E+04   0.233E+02 0.641E-13 0.150E+04   0.350E+00 -.296E-22 -.493E+01
   0.283E-13 -.718E+01 -.152E+04   -.824E-11 0.711E+01 0.153E+04   -.921E-23 0.785E-01 -.495E+01
   -.238E+01 -.238E+01 -.473E+03   0.237E+01 0.237E+01 0.472E+03   0.133E-01 0.133E-01 0.358E+00
   -.181E-13 -.488E-12 -.473E+03   -.855E-13 0.212E-13 0.473E+03   0.118E-22 -.978E-23 0.289E+00
   0.267E-10 -.413E-11 0.501E+02   -.284E-12 -.108E-13 -.455E-11   -.867E-17 -.520E-16 -.502E+02

 POSITION                                       TOTAL-FORCE (eV/Angst)
      4.22029      4.22029     16.28570        -0.000000     -0.000000      0.006562
      4.22029      4.22029     17.42750        -0.000000     -0.000000     -0.006926
      2.11015      0.00000      7.50000         0.000380     -0.000000      0.317410
      4.22029      2.11015      7.50000        -0.000000      0.000878      0.319143
      2.11015      2.11015      9.61015         0.004994      0.004994      0.022020
      4.22029      0.00000      9.61015        -0.000000     -0.000000      0.031303
      2.11096      0.00000     11.72756         0.000525     -0.000000      0.003214
      4.22029      2.11418     11.73254        -0.000000      0.000214      0.004208
      2.10768      2.10768     13.82102         0.000337      0.000337      0.004680
      4.22029      0.00000     13.82337        -0.000000     -0.000000      0.004108
      2.11015      4.22029      7.50000         0.000878     -0.000000      0.319143
      4.22029      6.33044      7.50000        -0.000000     -0.000878      0.319143
      2.11015      6.33044      9.61015         0.004994     -0.004994      0.022020
      4.22029      4.22029      9.61015        -0.000000     -0.000000      0.041933
      2.11418      4.22029     11.73254         0.000214     -0.000000      0.004208
      4.22029      6.32640     11.73254        -0.000000     -0.000214      0.004208
      2.10768      6.33290     13.82102         0.000337     -0.000337      0.004680
      4.22029      4.22029     13.87855        -0.000000     -0.000000      0.000605
      6.33044      0.00000      7.50000        -0.000380     -0.000000      0.317410
      0.00000      2.11015      7.50000        -0.000000      0.000380      0.317410
      6.33044      2.11015      9.61015        -0.004994      0.004994      0.022020
      0.00000      0.00000      9.61015        -0.000000     -0.000000      0.018175
      6.32963      0.00000     11.72756        -0.000525     -0.000000      0.003214
      0.00000      2.11096     11.72756        -0.000000      0.000525      0.003214
      6.33290      2.10768     13.82102        -0.000337      0.000337      0.004680
      0.00000      0.00000     13.82469        -0.000000     -0.000000      0.005145
      6.33044      4.22029      7.50000        -0.000878     -0.000000      0.319143
      0.00000      6.33044      7.50000        -0.000000     -0.000380      0.317410
      6.33044      6.33044      9.61015        -0.004994     -0.004994      0.022020
      0.00000      4.22029      9.61015        -0.000000     -0.000000      0.031303
      6.32640      4.22029     11.73254        -0.000214     -0.000000      0.004208
      0.00000      6.32963     11.72756        -0.000000     -0.000525      0.003214
      6.33290      6.33290     13.82102        -0.000337     -0.000337      0.004680
      0.00000      4.22029     13.82337        -0.000000     -0.000000      0.004108
      2.11015      0.00000      9.61015        -0.002691     -0.000000      0.043302
      4.22029      2.11015      9.61015        -0.000000      0.008810      0.053910
      2.11015      2.11015      7.50000        -0.001001     -0.001001     -0.402844
      4.22029      0.00000      7.50000        -0.000000     -0.000000     -0.402963
      2.10787      0.00000     13.86596        -0.000061     -0.000000      0.000567
      4.22029      2.09923     13.86756        -0.000000     -0.000944      0.000221
      2.11000      2.11000     11.72373        -0.000053     -0.000053      0.001372
      4.22029      0.00000     11.72209        -0.000000     -0.000000      0.001763
      2.11015      4.22029      9.61015         0.008810     -0.000000      0.053910
      4.22029      6.33044      9.61015        -0.000000     -0.008810      0.053910
      2.11015      6.33044      7.50000        -0.001001      0.001001     -0.402844
      4.22029      4.22029      7.50000        -0.000000     -0.000000     -0.404397
      2.09923      4.22029     13.86756        -0.000944     -0.000000      0.000221
      4.22029      6.34135     13.86756        -0.000000      0.000944      0.000221
      2.11000      6.33058     11.72373        -0.000053      0.000053      0.001372
      4.22029      4.22029     11.73377        -0.000000     -0.000000      0.001010
      6.33044      0.00000      9.61015         0.002691     -0.000000      0.043302
      0.00000      2.11015      9.61015        -0.000000     -0.002691      0.043302
      6.33044      2.11015      7.50000         0.001001     -0.001001     -0.402844
      0.00000      0.00000      7.50000        -0.000000     -0.000000     -0.402201
      6.33271      0.00000     13.86596         0.000061     -0.000000      0.000567
      0.00000      2.10787     13.86596        -0.000000     -0.000061      0.000567
      6.33058      2.11000     11.72373         0.000053     -0.000053      0.001372
      0.00000      0.00000     11.72232        -0.000000     -0.000000      0.002851
      6.33044      4.22029      9.61015        -0.008810     -0.000000      0.053910
      0.00000      6.33044      9.61015        -0.000000      0.002691      0.043302
      6.33044      6.33044      7.50000         0.001001      0.001001     -0.402844
      0.00000      4.22029      7.50000        -0.000000     -0.000000     -0.402963
      6.34135      4.22029     13.86756         0.000944     -0.000000      0.000221
      0.00000      6.33271     13.86596        -0.000000      0.000061      0.000567
      6.33058      6.33058     11.72373         0.000053      0.000053      0.001372
      0.00000      4.22029     11.72209        -0.000000     -0.000000      0.001763
    total drift:                                0.000000     -0.000000     -0.009880

  FREE ENERGIE OF THE ION-ELECTRON SYSTEM (eV)
  free  energy   TOTEN  =      -277.39664110 eV

  energy  without entropy=     -277.39664110  energy(sigma->0) =     -277.39664110