 vasp.6.3.0 20Jan22 (build Apr  1 2022 16:44:48) complex
 executed on        HPECrayEX_GCC date 2022.10.26  06:23:42

 INCAR:
   SYSTEM = MgO-rocksalt
   ISMEAR = 0
   SIGMA = 0.05
   EDIFF = 1E-7
   ALGO = ALL
   ISTART = 0
   IBRION = 2
   NSW = 1000
   ISYM = 0
   ISIF = 2
   EDIFFG = -0.01
   DIPOL = 0.5 0.5 0.5
   IDIPOL = 3
   LDIPOL = .TRUE.
   GGA = RE
   AGGAC = 0.0
   LUSE_VDW = .TRUE.
   LASPH = .TRUE.
   ENCUT = 600
   PREC = Accurate
   LASPH = .TRUE.
   LREAL = .FALSE.
   ISPIN = 1
   NELM = 200
   NELMIN = 8
   NCORE = 8
   KPAR = 1
   LWAVE = .FALSE.
   LCHARG = .FALSE.

 POTCAR:    PAW_PBE C 08Apr2002
 POTCAR:    PAW_PBE O 08Apr2002
 POTCAR:    PAW_PBE Mg_pv 13Apr2007
 POTCAR:    PAW_PBE O 08Apr2002
|               ----> ADVICE to this user running VASP <----                  |
|     You have switched on vdW-DFT.                                           |
|     This routine was written and supplied by Jiri Klimes. We recommend      |
|     that you carefully read and cite the following publications:            |
|       J. Klimes, D.R. Bowler, A. Michelides                                 |
|          J. Phys.: Cond Matt. 22 022201 (2010)                              |
|       J. Klimes, D.R. Bowler, A. Michelides                                 |
|          Phys. Rev. B. 83, 195131 (2011)                                    |
|     and references therein.                                                 |

   TITEL  = PAW_PBE C 08Apr2002
   POMASS =   12.011; ZVAL   =    4.000    mass and valenz
   ENMAX  =  400.000; ENMIN  =  300.000 eV

[...]

   TITEL  = PAW_PBE Mg_pv 13Apr2007
   POMASS =   24.305; ZVAL   =    8.000    mass and valenz
   ENMAX  =  403.929; ENMIN  =  302.947 eV

   TITEL  = PAW_PBE O 08Apr2002
   POMASS =   16.000; ZVAL   =    6.000    mass and valenz
   ENMAX  =  400.000; ENMIN  =  300.000 eV

  PAW_PBE C 08Apr2002                   :
  PAW_PBE O 08Apr2002                   :
  PAW_PBE Mg_pv 13Apr2007               :
  PAW_PBE O 08Apr2002                   :

 POSCAR:  C  O Mg  O
  positions in direct lattice
 exchange correlation table for  LEXCH =       40
   RHO(1)=    0.500       N(1)  =     2000
   RHO(2)=  100.500       N(2)  =     4000

 ion  position               nearest neighbor table
   1  0.500  0.750  0.717-   2 1.18   3 1.18  56 1.41
   2  0.500  0.876  0.740-   1 1.18  26 2.21
   3  0.500  0.624  0.740-   1 1.18  34 2.21
   4  0.000  0.750  0.350-  36 2.14  38 2.14  39 2.14  46 2.14  55 2.14
   5  0.250  0.000  0.350-  37 2.14  38 2.14  39 2.14  47 2.14  54 2.14
   6  0.000  0.000  0.450-  38 2.14  37 2.14  36 2.14  44 2.14  53 2.14  42 2.14
   7  0.250  0.750  0.450-  39 2.14  37 2.14  36 2.14  45 2.14  52 2.14  43 2.14
   8  0.000  0.750  0.550-  42 2.14  43 2.14  50 2.14  59 2.14  36 2.15  40 2.16
   9  0.250  0.000  0.550-  42 2.14  43 2.14  51 2.14  58 2.14  37 2.15  41 2.16
  10  0.000  0.000  0.650-  42 2.13  41 2.14  40 2.14  48 2.14  57 2.14
  11  0.250  0.750  0.650-  43 2.13  41 2.14  40 2.14  49 2.14  56 2.14
  12  0.000  0.250  0.350-  44 2.14  38 2.14  46 2.14  47 2.14  63 2.14
  13  0.250  0.500  0.350-  45 2.14  39 2.14  46 2.14  47 2.14  62 2.14
  14  0.000  0.500  0.450-  46 2.14  44 2.14  45 2.14  36 2.14  61 2.14  50 2.14
  15  0.250  0.250  0.450-  47 2.14  44 2.14  45 2.14  37 2.14  60 2.14  51 2.14
  16  0.000  0.250  0.550-  42 2.14  50 2.14  51 2.14  67 2.14  44 2.15  48 2.16
  17  0.250  0.500  0.550-  43 2.14  50 2.14  51 2.14  66 2.14  45 2.15  49 2.16
  18  0.000  0.500  0.650-  50 2.13  48 2.14  49 2.14  40 2.14  65 2.14
  19  0.250  0.250  0.650-  51 2.13  48 2.14  49 2.14  41 2.14  64 2.14
  20  0.500  0.750  0.350-  52 2.14  39 2.14  54 2.14  55 2.14  62 2.14
  21  0.750  0.000  0.350-  53 2.14  38 2.14  54 2.14  55 2.14  63 2.14
  22  0.500  0.000  0.450-  54 2.14  52 2.14  53 2.14  37 2.14  60 2.14  58 2.14
  23  0.750  0.750  0.450-  55 2.14  52 2.14  53 2.14  36 2.14  61 2.14  59 2.14
  24  0.500  0.750  0.550-  43 2.14  58 2.14  59 2.14  66 2.14  52 2.15  56 2.16
  25  0.750  0.000  0.550-  42 2.14  58 2.14  59 2.14  67 2.14  53 2.15  57 2.16
  26  0.500  0.000  0.650-  58 2.13  56 2.14  57 2.14  41 2.14  64 2.14   2 2.21
  27  0.750  0.750  0.650-  59 2.13  56 2.14  57 2.14  40 2.14  65 2.14
  28  0.500  0.250  0.350-  60 2.14  54 2.14  47 2.14  62 2.14  63 2.14
  29  0.750  0.500  0.350-  61 2.14  55 2.14  46 2.14  62 2.14  63 2.14
  30  0.500  0.500  0.450-  62 2.14  52 2.14  60 2.14  61 2.14  45 2.14  66 2.14
  31  0.750  0.250  0.450-  63 2.14  53 2.14  60 2.14  61 2.14  44 2.14  67 2.14
  32  0.500  0.250  0.550-  51 2.14  58 2.14  66 2.14  67 2.14  60 2.15  64 2.16
  33  0.750  0.500  0.550-  50 2.14  59 2.14  66 2.14  67 2.14  61 2.15  65 2.16
  34  0.500  0.500  0.650-  66 2.13  56 2.14  64 2.14  65 2.14  49 2.14   3 2.21
  35  0.750  0.250  0.650-  67 2.13  57 2.14  64 2.14  65 2.14  48 2.14
  36  0.000  0.750  0.450-   4 2.14   6 2.14   7 2.14  14 2.14  23 2.14   8 2.15
  37  0.250  0.000  0.450-   5 2.14   6 2.14   7 2.14  15 2.14  22 2.14   9 2.15
  38  0.000  0.000  0.350-   6 2.14   5 2.14   4 2.14  12 2.14  21 2.14
  39  0.250  0.750  0.350-   7 2.14   5 2.14   4 2.14  13 2.14  20 2.14
  40  0.000  0.750  0.651-  10 2.14  11 2.14  18 2.14  27 2.14   8 2.16
  41  0.250  0.000  0.651-  10 2.14  11 2.14  19 2.14  26 2.14   9 2.16
  42  0.000  0.000  0.550-  10 2.13   9 2.14   8 2.14  16 2.14  25 2.14   6 2.14
  43  0.250  0.750  0.550-  11 2.13   9 2.14   8 2.14  17 2.14  24 2.14   7 2.14
  44  0.000  0.250  0.450-  12 2.14   6 2.14  14 2.14  15 2.14  31 2.14  16 2.15
  45  0.250  0.500  0.450-  13 2.14   7 2.14  14 2.14  15 2.14  30 2.14  17 2.15
  46  0.000  0.500  0.350-  14 2.14  12 2.14  13 2.14   4 2.14  29 2.14
  47  0.250  0.250  0.350-  15 2.14  12 2.14  13 2.14   5 2.14  28 2.14
  48  0.000  0.250  0.651-  10 2.14  18 2.14  19 2.14  35 2.14  16 2.16
  49  0.250  0.500  0.651-  11 2.14  18 2.14  19 2.14  34 2.14  17 2.16
  50  0.000  0.500  0.550-  18 2.13  16 2.14  17 2.14   8 2.14  33 2.14  14 2.14
  51  0.250  0.250  0.550-  19 2.13  16 2.14  17 2.14   9 2.14  32 2.14  15 2.14
  52  0.500  0.750  0.450-  20 2.14   7 2.14  22 2.14  23 2.14  30 2.14  24 2.15
  53  0.750  0.000  0.450-  21 2.14   6 2.14  22 2.14  23 2.14  31 2.14  25 2.15
  54  0.500  0.000  0.350-  22 2.14  20 2.14  21 2.14   5 2.14  28 2.14
  55  0.750  0.750  0.350-  23 2.14  20 2.14  21 2.14   4 2.14  29 2.14
  56  0.500  0.750  0.651-   1 1.41  11 2.14  26 2.14  27 2.14  34 2.14  24 2.16
  57  0.750  0.000  0.651-  10 2.14  26 2.14  27 2.14  35 2.14  25 2.16
  58  0.500  0.000  0.550-  26 2.13  24 2.14  25 2.14   9 2.14  32 2.14  22 2.14
  59  0.750  0.750  0.550-  27 2.13  24 2.14  25 2.14   8 2.14  33 2.14  23 2.14
  60  0.500  0.250  0.450-  28 2.14  22 2.14  15 2.14  30 2.14  31 2.14  32 2.15
  61  0.750  0.500  0.450-  29 2.14  23 2.14  14 2.14  30 2.14  31 2.14  33 2.15
  62  0.500  0.500  0.350-  30 2.14  20 2.14  28 2.14  29 2.14  13 2.14
  63  0.750  0.250  0.350-  31 2.14  21 2.14  28 2.14  29 2.14  12 2.14
  64  0.500  0.250  0.651-  19 2.14  26 2.14  34 2.14  35 2.14  32 2.16
  65  0.750  0.500  0.651-  18 2.14  27 2.14  34 2.14  35 2.14  33 2.16
  66  0.500  0.500  0.550-  34 2.13  24 2.14  32 2.14  33 2.14  17 2.14  30 2.14
  67  0.750  0.250  0.550-  35 2.13  25 2.14  32 2.14  33 2.14  16 2.14  31 2.14

IMPORTANT INFORMATION: All symmetrisations will be switched off!
NOSYMM: (Re-)initialisation of all symmetry stuff for point group C_1.

                                     Primitive cell

  volume of cell :    1563.6717

  direct lattice vectors                    reciprocal lattice vectors
     8.546113626  0.000000000  0.000000000     0.117012252  0.000000000  0.000000000
     0.000000000  8.546113626  0.000000000     0.000000000  0.117012252  0.000000000
     0.000000000  0.000000000 21.409585219     0.000000000  0.000000000  0.046708051

  length of vectors
     8.546113626  8.546113626 21.409585219     0.117012252  0.117012252  0.046708051

  position of ions in fractional coordinates (direct lattice)
     0.500000000  0.750000000  0.717348332
     0.500000000  0.875670633  0.740051076
     0.500000000  0.624329367  0.740051076
     0.000000000  0.750000000  0.350310383
     0.250000000  0.000000000  0.350310383
     0.000000000  0.000000000  0.450103461
     0.250000000  0.750000000  0.450103461
     0.000000000  0.750000000  0.550423065
     0.250000000  0.000000000  0.550423065
     0.000000000  0.000000000  0.649678241
     0.250000000  0.750000000  0.649678241
     0.000000000  0.250000000  0.350310383
     0.250000000  0.500000000  0.350310383
     0.000000000  0.500000000  0.450103461
     0.250000000  0.250000000  0.450103461
     0.000000000  0.250000000  0.550423065
     0.250000000  0.500000000  0.550423065
     0.000000000  0.500000000  0.649678241
     0.250000000  0.250000000  0.649678241
     0.500000000  0.750000000  0.350310383
     0.750000000  0.000000000  0.350310383
     0.500000000  0.000000000  0.450103461
     0.750000000  0.750000000  0.450103461
     0.500000000  0.750000000  0.550423065
     0.750000000  0.000000000  0.550423065
     0.500000000  0.000000000  0.649678241
     0.750000000  0.750000000  0.649678241
     0.500000000  0.250000000  0.350310383
     0.750000000  0.500000000  0.350310383
     0.500000000  0.500000000  0.450103461
     0.750000000  0.250000000  0.450103461
     0.500000000  0.250000000  0.550423065
     0.750000000  0.500000000  0.550423065
     0.500000000  0.500000000  0.649678241
     0.750000000  0.250000000  0.649678241
     0.000000000  0.750000000  0.450103461
     0.250000000  0.000000000  0.450103461
     0.000000000  0.000000000  0.350310383
     0.250000000  0.750000000  0.350310383
     0.000000000  0.750000000  0.651489980
     0.250000000  0.000000000  0.651489980
     0.000000000  0.000000000  0.550159231
     0.250000000  0.750000000  0.550159231
     0.000000000  0.250000000  0.450103461
     0.250000000  0.500000000  0.450103461
     0.000000000  0.500000000  0.350310383
     0.250000000  0.250000000  0.350310383
     0.000000000  0.250000000  0.651489980
     0.250000000  0.500000000  0.651489980
     0.000000000  0.500000000  0.550159231
     0.250000000  0.250000000  0.550159231
     0.500000000  0.750000000  0.450103461
     0.750000000  0.000000000  0.450103461
     0.500000000  0.000000000  0.350310383
     0.750000000  0.750000000  0.350310383
     0.500000000  0.750000000  0.651489980
     0.750000000  0.000000000  0.651489980
     0.500000000  0.000000000  0.550159231
     0.750000000  0.750000000  0.550159231
     0.500000000  0.250000000  0.450103461
     0.750000000  0.500000000  0.450103461
     0.500000000  0.500000000  0.350310383
     0.750000000  0.250000000  0.350310383
     0.500000000  0.250000000  0.651489980
     0.750000000  0.500000000  0.651489980
     0.500000000  0.500000000  0.550159231
     0.750000000  0.250000000  0.550159231

  ion indices of the primitive-cell ions
   primitive index   ion index
                 1           1
                 2           2
                 3           3
                 4           4
                 5           5
                 6           6
[...]
   4.27305681  0.00000000 13.90934166
   6.40958522  6.40958522 13.90934166
   4.27305681  2.13652841  7.50000000
   6.40958522  4.27305681  7.50000000
   4.27305681  4.27305681  9.63652841
   6.40958522  2.13652841  9.63652841
   4.27305681  2.13652841 11.78432951
   6.40958522  4.27305681 11.78432951
   4.27305681  4.27305681 13.90934166
   6.40958522  2.13652841 13.90934166
   0.00000000  6.40958522  9.63652841
   2.13652841  0.00000000  9.63652841
   0.00000000  0.00000000  7.50000000
   2.13652841  6.40958522  7.50000000
   0.00000000  6.40958522 13.94813025
   2.13652841  0.00000000 13.94813025
   0.00000000  0.00000000 11.77868095
   2.13652841  6.40958522 11.77868095
   0.00000000  2.13652841  9.63652841
   2.13652841  4.27305681  9.63652841
   0.00000000  4.27305681  7.50000000
   2.13652841  2.13652841  7.50000000
   0.00000000  2.13652841 13.94813025
   2.13652841  4.27305681 13.94813025
   0.00000000  4.27305681 11.77868095
   2.13652841  2.13652841 11.77868095
   4.27305681  6.40958522  9.63652841
   6.40958522  0.00000000  9.63652841
   4.27305681  0.00000000  7.50000000
   6.40958522  6.40958522  7.50000000
   4.27305681  6.40958522 13.94813025
   6.40958522  0.00000000 13.94813025
   4.27305681  0.00000000 11.77868095
   6.40958522  6.40958522 11.77868095
   4.27305681  2.13652841  9.63652841
   6.40958522  4.27305681  9.63652841
   4.27305681  4.27305681  7.50000000
   6.40958522  2.13652841  7.50000000
   4.27305681  2.13652841 13.94813025
   6.40958522  4.27305681 13.94813025
   4.27305681  4.27305681 11.77868095
   6.40958522  2.13652841 11.77868095

--------------------------------------- Iteration      FINAL  ---------------------------------------

--------------------OUTCAR has been truncated-------------------------

[...]

--------------------OUTCAR has been truncated-------------------------

  FORCE on cell =-STRESS in cart. coord.  units (eV):
  Direction    XX          YY          ZZ          XY          YZ          ZX
  Alpha Z   900.93433   900.93433   900.93433
  Ewald  154852.60275155738.88478************     0.00009    -0.00214     0.00008
  Hartree165389.03223165906.31192************     0.00004    -0.00041     0.00005
  E(xc)   -2597.62051 -2594.67993 -2597.98094     0.00000    -0.00001     0.00000
  Local  ************************329883.33193    -0.00012     0.00213    -0.00013
  n-local -2865.09946 -2869.20915 -2887.02727    -0.00000     0.00008    -0.00000
  augment  1091.53600  1090.26297  1084.12188    -0.00000     0.00000     0.00000
  Kinetic  7651.26448  7611.30357  7678.63474    -0.00000     0.00008    -0.00000
  Fock        0.00000     0.00000     0.00000     0.00000     0.00000     0.00000
  Total     -26.28544   -28.41623    -2.50781     0.00000    -0.00026    -0.00000
  in kB     -26.93272   -29.11598    -2.56957     0.00000    -0.00027    -0.00000

 VOLUME and BASIS-vectors are now :
  energy-cutoff  :      600.00
  volume of cell :     1563.67
      direct lattice vectors                 reciprocal lattice vectors
     8.546113626  0.000000000  0.000000000     0.117012252  0.000000000  0.000000000
     0.000000000  8.546113626  0.000000000     0.000000000  0.117012252  0.000000000
     0.000000000  0.000000000 21.409585219     0.000000000  0.000000000  0.046708051

  length of vectors
     8.546113626  8.546113626 21.409585219     0.117012252  0.117012252  0.046708051

 FORCES acting on ions:
    Electron-Ion                     Ewald-Force                    Non-Local-Force
   0.426E-04 -.310E-02 -.106E+04   -.432E-04 0.359E-02 0.107E+04   0.806E-06 0.102E-04 -.206E+01
   -.518E-04 -.221E+03 -.174E+04   0.633E-04 0.264E+03 0.177E+04   -.122E-04 -.424E+02 -.270E+02
   0.233E-04 0.221E+03 -.174E+04   -.252E-04 -.264E+03 0.177E+04   0.191E-05 0.424E+02 -.270E+02
   0.936E-05 0.991E-05 0.204E+04   -.964E-05 -.101E-04 -.203E+04   0.175E-06 0.158E-06 -.631E+01
   0.331E-01 -.784E+00 0.204E+04   -.302E-01 0.821E+00 -.203E+04   -.267E-02 -.267E-01 -.645E+01
   0.557E-04 -.252E+01 0.729E+03   -.579E-04 0.267E+01 -.729E+03   0.145E-05 -.110E+00 0.733E-01
   0.255E+01 0.883E-04 0.729E+03   -.258E+01 -.891E-04 -.730E+03   0.180E-01 0.638E-06 0.761E+00
   0.472E-04 -.377E-04 -.551E+03   -.501E-04 0.416E-04 0.551E+03   0.214E-05 -.608E-06 0.123E+00
   0.473E+01 -.803E+01 -.574E+03   -.407E+01 0.826E+01 0.575E+03   -.655E+00 -.225E+00 -.127E+01
   0.384E-04 -.164E+02 -.192E+04   -.331E-04 0.172E+02 0.191E+04   -.549E-05 -.819E+00 0.566E+01
   0.440E+02 0.113E-03 -.183E+04   -.495E+02 -.455E-04 0.182E+04   0.550E+01 -.501E-04 0.654E+01
   0.107E-04 -.912E-05 0.204E+04   -.111E-04 0.939E-05 -.203E+04   0.202E-06 -.229E-06 -.641E+01
   0.331E-01 0.784E+00 0.204E+04   -.302E-01 -.821E+00 -.203E+04   -.267E-02 0.267E-01 -.645E+01
   0.425E-04 0.252E+01 0.729E+03   -.444E-04 -.267E+01 -.729E+03   0.129E-05 0.110E+00 0.733E-01
   -.114E+01 -.676E-04 0.725E+03   0.125E+01 0.695E-04 -.726E+03   -.803E-01 -.129E-05 0.423E+00
   0.608E-04 0.106E-03 -.574E+03   -.580E-04 -.106E-03 0.574E+03   -.277E-05 -.225E-05 -.157E+00
   0.473E+01 0.803E+01 -.574E+03   -.407E+01 -.826E+01 0.575E+03   -.655E+00 0.225E+00 -.127E+01
   0.369E-04 0.164E+02 -.192E+04   -.331E-04 -.172E+02 0.191E+04   -.386E-05 0.819E+00 0.566E+01
   0.258E+02 0.158E-03 -.191E+04   -.267E+02 -.190E-03 0.190E+04   0.929E+00 0.186E-04 0.579E+01
   -.941E-05 0.144E-04 0.204E+04   0.957E-05 -.146E-04 -.203E+04   -.145E-06 0.263E-06 -.626E+01
   -.331E-01 -.784E+00 0.204E+04   0.302E-01 0.821E+00 -.203E+04   0.267E-02 -.267E-01 -.645E+01
   -.490E-04 -.622E+01 0.726E+03   0.510E-04 0.652E+01 -.726E+03   -.137E-05 -.203E+00 0.514E+00
   -.255E+01 0.817E-04 0.729E+03   0.258E+01 -.820E-04 -.730E+03   -.180E-01 0.454E-06 0.761E+00
   -.401E-04 0.460E-03 -.557E+03   0.434E-04 -.410E-03 0.552E+03   -.307E-05 -.443E-04 0.470E+01
   -.473E+01 -.803E+01 -.574E+03   0.407E+01 0.826E+01 0.575E+03   0.655E+00 -.225E+00 -.127E+01
   -.117E-04 -.848E+02 -.184E+04   0.757E-05 0.880E+02 0.184E+04   0.381E-05 -.316E+01 0.113E+01
   -.440E+02 0.147E-03 -.183E+04   0.495E+02 -.792E-04 0.182E+04   -.550E+01 -.507E-04 0.654E+01
   -.107E-04 -.138E-04 0.204E+04   0.110E-04 0.137E-04 -.203E+04   -.182E-06 0.131E-07 -.646E+01
   -.331E-01 0.784E+00 0.204E+04   0.302E-01 -.821E+00 -.203E+04   0.267E-02 0.267E-01 -.645E+01
   -.463E-04 0.622E+01 0.726E+03   0.482E-04 -.652E+01 -.726E+03   -.128E-05 0.203E+00 0.514E+00
   0.114E+01 -.600E-04 0.725E+03   -.125E+01 0.619E-04 -.726E+03   0.803E-01 -.121E-05 0.423E+00
   -.365E-04 -.805E-04 -.583E+03   0.354E-04 0.662E-04 0.583E+03   0.106E-05 0.115E-04 -.362E+00
   -.473E+01 0.803E+01 -.574E+03   0.407E+01 -.826E+01 0.575E+03   0.655E+00 0.225E+00 -.127E+01
   -.430E-04 0.848E+02 -.184E+04   0.390E-04 -.880E+02 0.184E+04   0.558E-05 0.316E+01 0.113E+01
   -.258E+02 0.152E-03 -.191E+04   0.267E+02 -.183E-03 0.190E+04   -.929E+00 0.183E-04 0.579E+01
   0.274E-04 0.210E-04 0.550E+03   -.277E-04 -.210E-04 -.550E+03   0.265E-06 0.310E-06 0.395E+00
   0.358E+00 -.216E+01 0.544E+03   -.470E+00 0.225E+01 -.543E+03   0.148E+00 -.134E+00 -.326E+00
   0.796E-05 -.453E+00 0.153E+04   -.836E-05 0.488E+00 -.153E+04   0.426E-06 -.484E-01 0.356E+01
   0.191E+00 0.103E-04 0.153E+04   -.198E+00 -.104E-04 -.154E+04   0.916E-02 0.417E-06 0.363E+01
   -.176E-04 -.146E-03 -.144E+04   0.189E-04 0.184E-03 0.145E+04   -.103E-05 -.439E-04 -.505E+01
   0.344E+02 -.274E+02 -.141E+04   -.335E+02 0.275E+02 0.142E+04   -.903E+00 -.593E-01 -.504E+01
   0.654E-04 -.575E+01 -.423E+03   -.678E-04 0.581E+01 0.423E+03   0.170E-05 -.628E-01 0.858E-01
   0.264E+01 0.126E-03 -.418E+03   -.290E+01 -.108E-03 0.417E+03   0.255E+00 -.247E-04 0.893E+00
   0.384E-04 -.862E-05 0.545E+03   -.383E-04 0.626E-05 -.545E+03   -.497E-06 0.259E-05 -.105E-04
   0.357E+00 0.216E+01 0.544E+03   -.470E+00 -.225E+01 -.543E+03   0.148E+00 0.134E+00 -.326E+00
   0.730E-05 0.453E+00 0.153E+04   -.755E-05 -.488E+00 -.153E+04   0.355E-06 0.484E-01 0.356E+01
   -.128E+00 -.965E-05 0.153E+04   0.137E+00 0.977E-05 -.153E+04   -.126E-01 -.260E-06 0.354E+01
   0.380E-04 0.146E-03 -.146E+04   -.389E-04 -.155E-03 0.146E+04   0.386E-06 0.927E-05 -.493E+01
   0.344E+02 0.274E+02 -.141E+04   -.335E+02 -.275E+02 0.142E+04   -.902E+00 0.593E-01 -.504E+01
   0.281E-04 0.575E+01 -.423E+03   -.284E-04 -.581E+01 0.423E+03   -.126E-06 0.628E-01 0.858E-01
   0.229E+01 -.281E-04 -.427E+03   -.243E+01 0.245E-04 0.427E+03   0.143E+00 0.503E-05 0.379E+00
   -.264E-04 0.656E-04 0.555E+03   0.264E-04 -.611E-04 -.556E+03   -.118E-06 -.502E-05 0.571E+00
   -.358E+00 -.216E+01 0.544E+03   0.470E+00 0.225E+01 -.543E+03   -.148E+00 -.134E+00 -.326E+00
   -.790E-05 -.773E+00 0.153E+04   0.819E-05 0.823E+00 -.153E+04   -.441E-06 -.700E-01 0.357E+01
   -.191E+00 0.966E-05 0.153E+04   0.198E+00 -.969E-05 -.154E+04   -.916E-02 0.328E-06 0.363E+01
   -.164E-04 0.271E-03 -.119E+04   0.184E-04 -.678E-04 0.117E+04   -.228E-05 -.283E-03 0.222E+02
   -.344E+02 -.274E+02 -.141E+04   0.335E+02 0.275E+02 0.142E+04   0.903E+00 -.593E-01 -.504E+01
   -.215E-04 -.813E+01 -.446E+03   0.209E-04 0.851E+01 0.448E+03   0.100E-05 -.374E+00 -.191E+01
   -.264E+01 0.129E-03 -.418E+03   0.290E+01 -.110E-03 0.417E+03   -.255E+00 -.247E-04 0.893E+00
   -.366E-04 -.463E-04 0.541E+03   0.367E-04 0.492E-04 -.540E+03   0.142E-06 -.466E-05 -.287E+00
   -.357E+00 0.216E+01 0.544E+03   0.470E+00 -.225E+01 -.543E+03   -.148E+00 0.134E+00 -.326E+00
   -.742E-05 0.773E+00 0.153E+04   0.762E-05 -.823E+00 -.153E+04   -.368E-06 0.700E-01 0.357E+01
   0.128E+00 -.916E-05 0.153E+04   -.137E+00 0.909E-05 -.153E+04   0.126E-01 -.196E-06 0.354E+01
   -.185E-04 -.452E-03 -.142E+04   0.184E-04 0.392E-03 0.142E+04   0.216E-06 0.713E-04 -.384E+01
   -.344E+02 0.274E+02 -.141E+04   0.335E+02 -.275E+02 0.142E+04   0.902E+00 0.593E-01 -.504E+01
   -.481E-04 0.813E+01 -.446E+03   0.494E-04 -.851E+01 0.448E+03   -.113E-05 0.374E+00 -.191E+01
   -.229E+01 -.243E-04 -.427E+03   0.243E+01 0.216E-04 0.427E+03   -.143E+00 0.421E-05 0.379E+00
   0.181E-04 -.490E-03 0.512E+02   -.107E-13 -.641E-13 -.301E-11   -.173E-04 0.615E-03 -.511E+02

 POSITION                                       TOTAL-FORCE (eV/Angst)
      4.27306      6.40958     15.53096         0.000000      0.000488      0.009752
      4.27306      7.56862     16.02332        -0.000001      0.001261     -0.001894
      4.27306      5.25056     16.02331         0.000000     -0.001568     -0.001755
      0.00000      6.40959      7.50000        -0.000000     -0.000002      0.303352
      2.13653      0.00000      7.50000         0.000266      0.010294      0.331341
      0.00000      0.00000      9.63653        -0.000001      0.043760      0.064434
      2.13653      6.40959      9.63653        -0.020312     -0.000002     -0.022735
     -0.00000      6.40959     11.75246        -0.000001      0.000001     -0.006701
      2.15734      0.00683     11.79919         0.000077      0.001324     -0.001189
      0.00000      0.02303     13.89856        -0.000000     -0.002347     -0.000905
      2.01800      6.40958     13.87148        -0.005347      0.000015      0.002631
      0.00000      2.13653      7.50000        -0.000000     -0.000002      0.328958
      2.13653      4.27306      7.50000         0.000266     -0.010298      0.331341
      0.00000      4.27306      9.63653        -0.000001     -0.043763      0.064433
      2.13653      2.13653      9.63653         0.031610     -0.000001      0.056505
      0.00000      2.13653     11.77008         0.000000     -0.000004     -0.007187
      2.15734      4.26623     11.79919         0.000071     -0.001333     -0.001208
      0.00000      4.25003     13.89856        -0.000000      0.002334     -0.000914
      2.11170      2.13653     13.90807         0.002001     -0.000015      0.006025
      4.27306      6.40959      7.50000         0.000000     -0.000002      0.291929
      6.40959      0.00000      7.50000        -0.000266      0.010294      0.331341
      4.27306      0.00000      9.63653         0.000001      0.095074      0.063636
      6.40959      6.40959      9.63653         0.020312     -0.000002     -0.022734
      4.27306      6.40959     11.72871         0.000000      0.000004     -0.001724
      6.38877      0.00683     11.79919        -0.000075      0.001324     -0.001189
      4.27306      0.09964     14.12804        -0.000000      0.002167      0.003459
      6.52812      6.40958     13.87148         0.005346      0.000015      0.002630
      4.27306      2.13653      7.50000         0.000000     -0.000002      0.336768
      6.40959      4.27306      7.50000        -0.000266     -0.010298      0.331342
      4.27306      4.27306      9.63653         0.000001     -0.095080      0.063635
      6.40959      2.13653      9.63653        -0.031610     -0.000001      0.056506
      4.27306      2.13653     11.80646         0.000000     -0.000005      0.006822
      6.38877      4.26623     11.79920        -0.000072     -0.001333     -0.001205
      4.27306      4.17342     14.12804         0.000002     -0.002171      0.003425
      6.43441      2.13653     13.90807        -0.002000     -0.000014      0.006024
      0.00000      6.40959      9.63653         0.000000     -0.000002      0.043603
      2.13653      0.00000      9.63653         0.034767     -0.040935      0.045376
      0.00000      0.00000      7.50000         0.000000     -0.013631     -0.399751
      2.13653      6.40959      7.50000         0.002656     -0.000002     -0.382307
      0.00000      6.40959     13.91092         0.000000     -0.000008     -0.006361
      2.11657     -0.01097     13.92320         0.003334     -0.000517     -0.001722
      0.00000     -0.00430     11.76534        -0.000001     -0.001173     -0.004888
      2.15742      6.40959     11.78673        -0.000978     -0.000008     -0.000191
      0.00000      2.13653      9.63653        -0.000000     -0.000002      0.011272
      2.13653      4.27306      9.63653         0.034767      0.040932      0.045377
      0.00000      4.27306      7.50000         0.000000      0.013627     -0.399752
      2.13653      2.13653      7.50000        -0.003622     -0.000002     -0.406819
      0.00000      2.13653     13.92720        -0.000001     -0.000001     -0.002727
      2.11657      4.28403     13.92320         0.003352      0.000524     -0.001707
      0.00000      4.27736     11.76534        -0.000000      0.001169     -0.004889
      2.14280      2.13653     11.78019        -0.000635     -0.000001     -0.002989
      4.27306      6.40959      9.63653        -0.000000     -0.000002     -0.042935
      6.40959      0.00000      9.63653        -0.034767     -0.040935      0.045377
      4.27306      0.00000      7.50000        -0.000000     -0.019921     -0.398139
      6.40959      6.40959      7.50000        -0.002656     -0.000002     -0.382307
      4.27306      6.40959     14.04985        -0.000000     -0.000082     -0.004096
      6.42954     -0.01097     13.92320        -0.003333     -0.000517     -0.001722
      4.27306     -0.01967     11.80027         0.000000      0.001132      0.001147
      6.38869      6.40959     11.78673         0.000979     -0.000008     -0.000190
      4.27306      2.13653      9.63653         0.000000     -0.000004      0.091808
      6.40959      4.27306      9.63653        -0.034767      0.040931      0.045378
      4.27306      4.27306      7.50000        -0.000000      0.019917     -0.398139
      6.40959      2.13653      7.50000         0.003622     -0.000002     -0.406819
      4.27306      2.13653     13.97421         0.000000      0.000010     -0.002291
      6.42954      4.28403     13.92320        -0.003352      0.000525     -0.001707
      4.27306      4.29273     11.80027         0.000000     -0.001126      0.001150
      6.40332      2.13653     11.78019         0.000635     -0.000000     -0.002989
    total drift:                                0.000001      0.000126      0.024190

  FREE ENERGIE OF THE ION-ELECTRON SYSTEM (eV)
  free  energy   TOTEN  =      -244.64549988 eV

  energy  without entropy=     -244.64549988  energy(sigma->0) =     -244.64549988

 d Force = 0.1331062E-04[ 0.558E-05, 0.210E-04]  d Energy = 0.1421141E-04-0.901E-06
 d Force = 0.6822391E+01[ 0.682E+01, 0.682E+01]  d Ewald  = 0.6822391E+01 0.120E-09

 Conjugate gradient step on ions:
 trial-energy change:   -0.000014  1 .order   -0.000013   -0.000021   -0.000006
  (g-gl).g = 0.104E-03      g.g   = 0.981E-04  gl.gl    = 0.101E-03
 g(Force)  = 0.981E-04   g(Stress)= 0.000E+00 ortho     =-0.122E-04
 gamma     =   1.03325
 trial     =   0.24612
 opt step  =   0.30797  (harmonic =   0.33503) maximal distance =0.00056080
 next E    =  -244.645501   (d E  =  -0.00001)

 reached required accuracy - stopping structural energy minimisation