 vasp.6.3.0 20Jan22 (build Apr  1 2022 16:44:48) complex
 executed on        HPECrayEX_GCC date 2023.01.23  21:59:40

 INCAR:
   SYSTEM = MgO-rocksalt
   ISMEAR = 0
   SIGMA = 0.05
   EDIFF = 1E-8
   ALGO = ALL
   ISTART = 0
   IBRION = 5
   POTIM = 0.01
   NFREE = 2
   ISYM = 0
   DIPOL = 0.5 0.5 0.5
   IDIPOL = 3
   LDIPOL = .TRUE.
   GGA = RE
   IVDW = 13
   VDW_S8 = 1.7468
   VDW_A1 = 0.5363
   VDW_A2 = 3.0726
   ENCUT = 600
   PREC = Accurate
   LASPH = .TRUE.
   LREAL = .FALSE.
   ISPIN = 1
   NELM = 200
   NELMIN = 8
   NCORE = 8
   KPAR = 1
   LWAVE = .FALSE.
   LCHARG = .FALSE.

 POTCAR:    PAW_PBE C 08Apr2002
 POTCAR:    PAW_PBE O 08Apr2002
 POTCAR:    PAW_PBE Mg_pv 13Apr2007
 POTCAR:    PAW_PBE O 08Apr2002
 POTCAR:    PAW_PBE C 08Apr2002
   VRHFIN =C: s2p2

   TITEL  = PAW_PBE C 08Apr2002
   POMASS =   12.011; ZVAL   =    4.000    mass and valenz
   ENMAX  =  400.000; ENMIN  =  300.000 eV

[...]

   TITEL  = PAW_PBE Mg_pv 13Apr2007
   POMASS =   24.305; ZVAL   =    8.000    mass and valenz
   ENMAX  =  403.929; ENMIN  =  302.947 eV

   TITEL  = PAW_PBE O 08Apr2002
   POMASS =   16.000; ZVAL   =    6.000    mass and valenz
   ENMAX  =  400.000; ENMIN  =  300.000 eV

  PAW_PBE C 08Apr2002                   :
  PAW_PBE O 08Apr2002                   :
  PAW_PBE Mg_pv 13Apr2007               :
  PAW_PBE O 08Apr2002                   :

 POSCAR:  C  O Mg  O
  positions in direct lattice
|           W    W    AA    RRRRR   N    N  II  N    N   GGGG   !!!           |
|           W    W   A  A   R    R  NN   N  II  NN   N  G    G  !!!           |
|           W    W  A    A  R    R  N N  N  II  N N  N  G       !!!           |
|           W WW W  AAAAAA  RRRRR   N  N N  II  N  N N  G  GGG   !            |
|           WW  WW  A    A  R   R   N   NN  II  N   NN  G    G                |
|           W    W  A    A  R    R  N    N  II  N    N   GGGG   !!!           |
|     Specifying the vdW parameters                                           |
|     VDW_S8 = 1.747                                                          |
|     VDW_A1 = 0.536                                                          |
|     VDW_A2 = 3.073                                                          |
|     in the INCAR file will overwrite the defaults for revpbe. Please        |
|     make sure that is what you intended.                                    |

 ion  position               nearest neighbor table
   1  0.625  0.625  0.771-   3 1.18   2 1.18
   2  0.526  0.526  0.773-   1 1.18
   3  0.724  0.724  0.773-   1 1.18
   4  0.000  0.750  0.352-  36 2.11  38 2.11  39 2.11  46 2.11  55 2.11
   5  0.250  0.000  0.352-  37 2.11  38 2.11  39 2.11  47 2.11  54 2.11
   6  0.000  0.000  0.451-  38 2.11  37 2.11  36 2.11  44 2.11  53 2.11  42 2.12
   7  0.250  0.750  0.451-  39 2.11  37 2.11  36 2.11  45 2.11  52 2.11  43 2.12
   8  0.000  0.750  0.550-  50 2.11  42 2.11  59 2.11  43 2.11  36 2.12  40 2.14
   9  0.250  1.000  0.550-  51 2.11  42 2.11  58 2.11  43 2.11  37 2.12  41 2.15
  10  0.000  0.000  0.649-  48 2.11  41 2.11  40 2.11  57 2.11  42 2.11
  11  0.250  0.750  0.649-  40 2.10  43 2.11  49 2.11  41 2.11  56 2.12
  12  0.000  0.250  0.352-  44 2.11  38 2.11  46 2.11  47 2.11  63 2.11
  13  0.250  0.500  0.352-  45 2.11  39 2.11  46 2.11  47 2.11  62 2.11
  14  0.000  0.500  0.451-  46 2.11  44 2.11  45 2.11  36 2.11  61 2.11  50 2.12
  15  0.250  0.250  0.451-  47 2.11  44 2.11  45 2.11  37 2.11  60 2.11  51 2.12
  16  1.000  0.250  0.550-  51 2.11  42 2.11  67 2.11  50 2.11  44 2.12  48 2.15
  17  0.250  0.500  0.550-  43 2.11  51 2.11  66 2.11  50 2.11  45 2.12  49 2.14
  18  0.000  0.500  0.649-  49 2.10  50 2.11  40 2.11  48 2.11  65 2.12
  19  0.250  0.250  0.649-  41 2.11  48 2.11  64 2.11  49 2.11  51 2.11
  20  0.500  0.750  0.352-  52 2.11  39 2.11  54 2.11  55 2.11  62 2.11
  21  0.750  0.000  0.352-  53 2.11  38 2.11  54 2.11  55 2.11  63 2.11
  22  0.500  0.000  0.451-  54 2.11  52 2.11  53 2.11  37 2.11  60 2.11  58 2.12
  23  0.750  0.750  0.451-  55 2.11  52 2.11  53 2.11  36 2.11  61 2.11  59 2.12
  24  0.500  0.750  0.550-  66 2.11  59 2.11  43 2.11  58 2.11  52 2.13  56 2.16
  25  0.750  0.000  0.550-  58 2.11  42 2.11  59 2.11  67 2.11  53 2.12  57 2.14
  26  0.500  0.000  0.649-  64 2.10  58 2.11  57 2.11  41 2.11  56 2.12
  27  0.752  0.752  0.649-  57 2.10  40 2.10  59 2.11  56 2.12  65 2.12
  28  0.500  0.250  0.352-  60 2.11  54 2.11  47 2.11  62 2.11  63 2.11
  29  0.750  0.500  0.352-  61 2.11  55 2.11  46 2.11  62 2.11  63 2.11
  30  0.500  0.500  0.451-  62 2.11  52 2.11  60 2.11  61 2.11  45 2.11  66 2.12
  31  0.750  0.250  0.451-  63 2.11  53 2.11  60 2.11  61 2.11  44 2.11  67 2.12
  32  0.500  0.250  0.550-  67 2.11  51 2.11  66 2.11  58 2.11  60 2.12  64 2.14
  33  0.750  0.500  0.550-  66 2.11  59 2.11  67 2.11  50 2.11  61 2.13  65 2.16
  34  0.498  0.498  0.649-  64 2.10  49 2.10  66 2.11  56 2.12  65 2.12
  35  0.750  0.250  0.649-  57 2.10  67 2.11  64 2.11  48 2.11  65 2.12
  36  0.000  0.750  0.451-   4 2.11   6 2.11   7 2.11  14 2.11  23 2.11   8 2.12
  37  0.250  0.000  0.451-   5 2.11   6 2.11   7 2.11  15 2.11  22 2.11   9 2.12
  38  0.000  0.000  0.352-   6 2.11   5 2.11   4 2.11  12 2.11  21 2.11
  39  0.250  0.750  0.352-   7 2.11   5 2.11   4 2.11  13 2.11  20 2.11
  40  0.001  0.750  0.651-  27 2.10  11 2.10  18 2.11  10 2.11   8 2.14
  41  0.250  1.000  0.651-  10 2.11  19 2.11  11 2.11  26 2.11   9 2.15
  42  0.000  0.000  0.550-  16 2.11   9 2.11   8 2.11  25 2.11  10 2.11   6 2.12
  43  0.250  0.750  0.550-  24 2.11  11 2.11   9 2.11  17 2.11   8 2.11   7 2.12
  44  0.000  0.250  0.451-  12 2.11   6 2.11  14 2.11  15 2.11  31 2.11  16 2.12
  45  0.250  0.500  0.451-  13 2.11   7 2.11  14 2.11  15 2.11  30 2.11  17 2.12
  46  0.000  0.500  0.352-  14 2.11  12 2.11  13 2.11   4 2.11  29 2.11
  47  0.250  0.250  0.352-  15 2.11  12 2.11  13 2.11   5 2.11  28 2.11
  48  1.000  0.250  0.651-  10 2.11  19 2.11  35 2.11  18 2.11  16 2.15
  49  0.249  0.500  0.651-  34 2.10  18 2.10  11 2.11  19 2.11  17 2.14
  50  1.000  0.500  0.550-  33 2.11  18 2.11  16 2.11   8 2.11  17 2.11  14 2.12
  51  0.250  0.250  0.550-   9 2.11  16 2.11  17 2.11  32 2.11  19 2.11  15 2.12
  52  0.500  0.750  0.451-  20 2.11   7 2.11  22 2.11  23 2.11  30 2.11  24 2.13
  53  0.750  0.000  0.451-  21 2.11   6 2.11  22 2.11  23 2.11  31 2.11  25 2.12
  54  0.500  0.000  0.352-  22 2.11  20 2.11  21 2.11   5 2.11  28 2.11
  55  0.750  0.750  0.352-  23 2.11  20 2.11  21 2.11   4 2.11  29 2.11
  56  0.500  0.750  0.652-  11 2.12  26 2.12  34 2.12  27 2.12  24 2.16
  57  0.750  0.001  0.651-  27 2.10  35 2.10  26 2.11  10 2.11  25 2.14
  58  0.500  1.000  0.550-  24 2.11  26 2.11   9 2.11  25 2.11  32 2.11  22 2.12
  59  0.750  0.750  0.550-  33 2.11  24 2.11   8 2.11  25 2.11  27 2.11  23 2.12
  60  0.500  0.250  0.451-  28 2.11  22 2.11  15 2.11  30 2.11  31 2.11  32 2.12
  61  0.750  0.500  0.451-  29 2.11  23 2.11  14 2.11  30 2.11  31 2.11  33 2.13
  62  0.500  0.500  0.352-  30 2.11  20 2.11  28 2.11  29 2.11  13 2.11
  63  0.750  0.250  0.352-  31 2.11  21 2.11  28 2.11  29 2.11  12 2.11
  64  0.500  0.249  0.651-  34 2.10  26 2.10  35 2.11  19 2.11  32 2.14
  65  0.750  0.500  0.652-  35 2.12  18 2.12  34 2.12  27 2.12  33 2.16
  66  0.500  0.500  0.550-  33 2.11  24 2.11  17 2.11  32 2.11  34 2.11  30 2.12
  67  0.750  0.250  0.550-  33 2.11  35 2.11  16 2.11  32 2.11  25 2.11  31 2.12

IMPORTANT INFORMATION: All symmetrisations will be switched off!
NOSYMM: (Re-)initialisation of all symmetry stuff for point group C_1.

                                     Primitive cell

  volume of cell :    1519.8199

  direct lattice vectors                    reciprocal lattice vectors
     8.440984654  0.000000000  0.000000000     0.118469591  0.000000000  0.000000000
     0.000000000  8.440984654  0.000000000     0.000000000  0.118469591  0.000000000
     0.000000000  0.000000000 21.330738491     0.000000000  0.000000000  0.046880702

  length of vectors
     8.440984654  8.440984654 21.330738491     0.118469591  0.118469591  0.046880702

  position of ions in fractional coordinates (direct lattice)
     0.625002899  0.625002901  0.771290819
     0.526143413  0.526143399  0.772694230
     0.723854540  0.723854548  0.772693667
     0.000000000  0.750000000  0.351605267
     0.250000000  0.000000000  0.351605267
     0.000000000  0.000000000  0.450535089
     0.250000000  0.750000000  0.450535089
     0.000170472  0.750065529  0.550134920
     0.250061573  0.999938530  0.550145492
     0.000200186  0.000200186  0.648841524
     0.249828182  0.749789003  0.648754906
     0.000000000  0.250000000  0.351605267
     0.250000000  0.500000000  0.351605267
     0.000000000  0.500000000  0.450535089
     0.250000000  0.250000000  0.450535089
     0.999938525  0.250061567  0.550145489
     0.249829706  0.499934572  0.550134937
     0.000171958  0.500211139  0.648754903
     0.249799949  0.249799949  0.648841577
     0.500000000  0.750000000  0.351605267
     0.750000000  0.000000000  0.351605267
     0.500000000  0.000000000  0.450535089
     0.750000000  0.750000000  0.450535089
     0.500270350  0.749729670  0.550330173
     0.750065521  0.000170473  0.550134923
     0.500211148  0.000171955  0.648754900
     0.751918702  0.751918715  0.649114650
     0.500000000  0.250000000  0.351605267
     0.750000000  0.500000000  0.351605267
     0.500000000  0.500000000  0.450535089
     0.750000000  0.250000000  0.450535089
     0.499934575  0.249829699  0.550134936
     0.749729660  0.500270350  0.550330171
     0.498081444  0.498081442  0.649114742
     0.749788996  0.249828183  0.648754905
     0.000000000  0.750000000  0.450535089
     0.250000000  0.000000000  0.450535089
     0.000000000  0.000000000  0.351605267
     0.250000000  0.750000000  0.351605267
     0.000660961  0.750176837  0.650529582
     0.250168661  0.999831464  0.651058193
     0.000114890  0.000114892  0.549832723
     0.250404141  0.749981448  0.549877119
     0.000000000  0.250000000  0.450535089
     0.250000000  0.500000000  0.450535089
     0.000000000  0.500000000  0.351605267
     0.250000000  0.250000000  0.351605267
     0.999831464  0.250168659  0.651058194
     0.249339233  0.499823327  0.650529652
     0.999595943  0.500018646  0.549877121
     0.249885200  0.249885199  0.549832736
     0.500000000  0.750000000  0.450535089
     0.750000000  0.000000000  0.450535089
     0.500000000  0.000000000  0.351605267
     0.750000000  0.750000000  0.351605267
     0.500320192  0.749679842  0.651810825
     0.750176827  0.000660961  0.650529580
     0.500018644  0.999595957  0.549877121
     0.749970659  0.749970656  0.550040631
     0.500000000  0.250000000  0.450535089
     0.750000000  0.500000000  0.450535089
     0.500000000  0.500000000  0.351605267
     0.750000000  0.250000000  0.351605267
     0.499823327  0.249339232  0.650529649
     0.749679851  0.500320189  0.651810830
     0.500029444  0.500029444  0.550040659
     0.749981448  0.250404145  0.549877121

  ion indices of the primitive-cell ions
   primitive index   ion index
                 1           1
                 2           2
[...]
      0.00169      0.00169     13.84027        -0.002550     -0.002550     -0.002454
      2.10880      6.32896     13.83842        -0.001970      0.000299     -0.001362
      0.00000      2.11025      7.50000        -0.000097      0.000097      0.339826
      2.11025      4.22049      7.50000         0.000018      0.000063      0.336577
      0.00000      4.22049      9.61025        -0.013634     -0.003725      0.080679
      2.11025      2.11025      9.61025        -0.005413     -0.005413      0.077754
      8.44047      2.11077     11.73501        -0.000156     -0.000006     -0.004735
      2.10881      4.21994     11.73478         0.000580     -0.000991     -0.002019
      0.00145      4.22227     13.83842         0.001568      0.000193     -0.001046
      2.10856      2.10856     13.84027         0.002084      0.002084     -0.002482
      4.22049      6.33074      7.50000         0.000356     -0.000351      0.340803
      6.33074      0.00000      7.50000        -0.000059     -0.000020      0.336591
      4.22049      0.00000      9.61025        -0.003725     -0.013634      0.080679
      6.33074      6.33074      9.61025        -0.004962     -0.004962      0.083744
      4.22277      6.32846     11.73895        -0.000437      0.000307      0.000368
      6.33129      0.00144     11.73478         0.001167     -0.000557     -0.001612
      4.22227      0.00145     13.83842         0.000192      0.001569     -0.001045
      6.34693      6.34693     13.84609         0.001456      0.001454      0.001581
      4.22049      2.11025      7.50000         0.000063      0.000018      0.336577
      6.33074      4.22049      7.50000        -0.000351      0.000356      0.340803
      4.22049      4.22049      9.61025         0.004981      0.004981      0.083700
      6.33074      2.11025      9.61025         0.003745      0.013617      0.080735
      4.21994      2.10881     11.73478        -0.000991      0.000581     -0.002019
      6.32846      4.22277     11.73895         0.000308     -0.000436      0.000369
      4.20430      4.20430     13.84610        -0.001612     -0.001612     -0.003431
      6.32896      2.10880     13.83842         0.000299     -0.001969     -0.001361
      0.00000      6.33074      9.61025         0.001679      0.000635      0.086483
      2.11025      0.00000      9.61025         0.001687     -0.001641      0.075076
      0.00000      0.00000      7.50000        -0.000739     -0.000739     -0.500457
      2.11025      6.33074      7.50000        -0.001200     -0.000825     -0.500661
      0.00558      6.33223     13.87628         0.001796      0.000672     -0.001243
      2.11167      8.43956     13.88755        -0.003023      0.003351     -0.001508
      0.00097      0.00097     11.72834         0.001218      0.001218      0.000328
      2.11366      6.33058     11.72929        -0.001019      0.001028      0.000435
      0.00000      2.11025      9.61025        -0.001641      0.001687      0.075076
      2.11025      4.22049      9.61025        -0.001676     -0.000673      0.086531
      0.00000      4.22049      7.50000         0.001207      0.000822     -0.500660
      2.11025      2.11025      7.50000         0.000745      0.000745     -0.500449
      8.43956      2.11167     13.88755         0.003352     -0.003024     -0.001508
      2.10467      4.21900     13.87628        -0.000473     -0.000937     -0.000033
      8.43757      4.22065     11.72929         0.001045     -0.001149      0.000695
      2.10928      2.10928     11.72834        -0.001076     -0.001076      0.000529
      4.22049      6.33074      9.61025         0.007745     -0.007748      0.084021
      6.33074      0.00000      9.61025         0.000635      0.001679      0.086483
      4.22049      0.00000      7.50000         0.000822      0.001207     -0.500660
      6.33074      6.33074      7.50000         0.001712      0.001712     -0.501063
      4.22320      6.32804     13.90361        -0.002681     -0.000848     -0.000842
      6.33223      0.00558     13.87628         0.000672      0.001796     -0.001243
      4.22065      8.43757     11.72929        -0.001148      0.001044      0.000695
      6.33049      6.33049     11.73277        -0.000607     -0.000606      0.003506
      4.22049      2.11025      9.61025        -0.000673     -0.001676      0.086531
      6.33074      4.22049      9.61025        -0.007748      0.007745      0.084020
      4.22049      4.22049      7.50000        -0.001716     -0.001716     -0.501050
      6.33074      2.11025      7.50000        -0.000825     -0.001200     -0.500661
      4.21900      2.10467     13.87628        -0.000938     -0.000473     -0.000033
      6.32804      4.22320     13.90361        -0.000849     -0.002681     -0.000842
      4.22074      4.22074     11.73277         0.000438      0.000438      0.003671
      6.33058      2.11366     11.72929         0.001028     -0.001020      0.000434
    total drift:                               -0.000059     -0.000058     -0.001008

  FREE ENERGIE OF THE ION-ELECTRON SYSTEM (eV)
  free  energy   TOTEN  =      -394.04770972 eV

  energy  without entropy=     -394.04770972  energy(sigma->0) =     -394.04770972

 d Force = 0.1308282E-05[-0.702E-03, 0.705E-03]  d Energy = 0.1428066E-05-0.120E-06
 d Force =-0.3127676E+02[-0.313E+02,-0.313E+02]  d Ewald  =-0.3127677E+02 0.175E-04

 Finite differences progress:
  Degree of freedom:   9/  9
  Displacement:        2/  2
  Total:              18/ 18

 SECOND DERIVATIVES (NOT SYMMETRIZED)
               1X          1Y          1Z          2X          2Y          2Z          3X          3Y          3Z
  1X   -92.451058  -81.760214   -0.000701   45.902314   40.382391   -1.716353   45.930902   40.417398    1.717057
  1Y   -81.759034  -92.446063   -0.000613   40.382760   45.898613   -1.715685   40.417615   45.927188    1.716571
  1Z     0.000528   -0.000492  -10.071564   -0.453908   -0.457274    5.324074    0.460857    0.457580    5.317727
  2X    45.899015   40.378700   -0.461985  -47.652139  -44.537001    1.335734    1.705652    4.390898   -0.665305
  2Y    40.373356   45.898581   -0.458157  -44.540795  -47.654424    1.337644    4.390246    1.706668   -0.663910
  2Z    -1.719499   -1.719305    5.329590    1.337671    1.341372   -3.525551    0.664291    0.662880   -2.650167
  3X    45.929461   40.415101    0.464690    1.709434    4.394902    0.669447  -47.686399  -44.574812   -1.338690
  3Y    40.414970   45.923624    0.458689    4.393625    1.708469    0.663729  -44.564513  -47.680800   -1.338612
  3Z     1.714095    1.718768    5.328343   -0.662956   -0.663341   -2.649387   -1.348015   -1.343841   -3.517878

 Eigenvectors and eigenvalues of the dynamical matrix

   1 f  =   69.676402 THz   437.789744 2PiTHz 2324.154590 cm-1   288.158314 meV
             X         Y         Z           dx          dy          dz
      5.275640  5.275640 16.452203    -0.604068   -0.604051   -0.000008
      4.441168  4.441168 16.482139     0.259667    0.259658   -0.010840
      6.110045  6.110045 16.482127     0.259950    0.259934    0.010841
      0.000000  6.330738  7.500000            0           0           0
      2.110246  0.000000  7.500000            0           0           0
      0.000000  0.000000  9.610246            0           0           0
      2.110246  6.330738  9.610246            0           0           0
      0.001439  6.331292 11.734784            0           0           0
      2.110766  8.440466 11.735010            0           0           0
      0.001690  0.001690 13.840269            0           0           0
      2.108796  6.328957 13.838421            0           0           0
      0.000000  2.110246  7.500000            0           0           0
      2.110246  4.220492  7.500000            0           0           0
      0.000000  4.220492  9.610246            0           0           0
      2.110246  2.110246  9.610246            0           0           0
      8.440466  2.110766 11.735010            0           0           0
      2.108809  4.219940 11.734784            0           0           0
      0.001451  4.222275 13.838421            0           0           0
      2.108558  2.108558 13.840270            0           0           0
      4.220492  6.330738  7.500000            0           0           0
      6.330738  0.000000  7.500000            0           0           0
      4.220492  0.000000  9.610246            0           0           0
      6.330738  6.330738  9.610246            0           0           0
      4.222774  6.328457 11.738949            0           0           0
      6.331292  0.001439 11.734784            0           0           0
      4.222275  0.001451 13.838421            0           0           0
      6.346934  6.346934 13.846095            0           0           0
      4.220492  2.110246  7.500000            0           0           0
      6.330738  4.220492  7.500000            0           0           0
      4.220492  4.220492  9.610246            0           0           0
      6.330738  2.110246  9.610246            0           0           0
      4.219940  2.108809 11.734784            0           0           0
      6.328457  4.222774 11.738949            0           0           0
      4.204298  4.204298 13.846097            0           0           0
      6.328957  2.108796 13.838421            0           0           0
      0.000000  6.330738  9.610246            0           0           0
      2.110246  0.000000  9.610246            0           0           0
      0.000000  0.000000  7.500000            0           0           0
      2.110246  6.330738  7.500000            0           0           0
      0.005579  6.332231 13.876276            0           0           0
      2.111670  8.439562 13.887552            0           0           0
      0.000970  0.000970 11.728338            0           0           0
      2.113658  6.330582 11.729285            0           0           0
      0.000000  2.110246  9.610246            0           0           0
      2.110246  4.220492  9.610246            0           0           0
      0.000000  4.220492  7.500000            0           0           0
      2.110246  2.110246  7.500000            0           0           0
      8.439562  2.111670 13.887552            0           0           0
      2.104669  4.219001 13.876278            0           0           0
      8.437574  4.220650 11.729285            0           0           0
      2.109277  2.109277 11.728338            0           0           0
      4.220492  6.330738  9.610246            0           0           0
      6.330738  0.000000  9.610246            0           0           0
      4.220492  0.000000  7.500000            0           0           0
      6.330738  6.330738  7.500000            0           0           0
      4.223195  6.328036 13.903606            0           0           0
      6.332231  0.005579 13.876276            0           0           0
      4.220650  8.437574 11.729285            0           0           0
      6.330491  6.330491 11.732773            0           0           0
      4.220492  2.110246  9.610246            0           0           0
      6.330738  4.220492  9.610246            0           0           0
      4.220492  4.220492  7.500000            0           0           0
      6.330738  2.110246  7.500000            0           0           0
      4.219001  2.104669 13.876278            0           0           0
      6.328036  4.223195 13.903606            0           0           0
      4.220741  4.220741 11.732773            0           0           0
      6.330582  2.113658 11.729285            0           0           0

[...]

   9 f  =    1.074967 THz     6.754215 2PiTHz   35.857030 cm-1     4.445703 meV
             X         Y         Z           dx          dy          dz
      5.275640  5.275640 16.452203     0.382748   -0.375844    0.000413
      4.441168  4.441168 16.482139     0.431195   -0.422971    0.005094
      6.110045  6.110045 16.482127     0.420839   -0.412624   -0.004586
      0.000000  6.330738  7.500000            0           0           0
      2.110246  0.000000  7.500000            0           0           0
      0.000000  0.000000  9.610246            0           0           0
      2.110246  6.330738  9.610246            0           0           0
      0.001439  6.331292 11.734784            0           0           0
      2.110766  8.440466 11.735010            0           0           0
      0.001690  0.001690 13.840269            0           0           0
      2.108796  6.328957 13.838421            0           0           0
      0.000000  2.110246  7.500000            0           0           0
      2.110246  4.220492  7.500000            0           0           0
      0.000000  4.220492  9.610246            0           0           0
      2.110246  2.110246  9.610246            0           0           0
      8.440466  2.110766 11.735010            0           0           0
      2.108809  4.219940 11.734784            0           0           0
      0.001451  4.222275 13.838421            0           0           0
      2.108558  2.108558 13.840270            0           0           0
      4.220492  6.330738  7.500000            0           0           0
      6.330738  0.000000  7.500000            0           0           0
      4.220492  0.000000  9.610246            0           0           0
      6.330738  6.330738  9.610246            0           0           0
      4.222774  6.328457 11.738949            0           0           0
      6.331292  0.001439 11.734784            0           0           0
      4.222275  0.001451 13.838421            0           0           0
      6.346934  6.346934 13.846095            0           0           0
      4.220492  2.110246  7.500000            0           0           0
      6.330738  4.220492  7.500000            0           0           0
      4.220492  4.220492  9.610246            0           0           0
      6.330738  2.110246  9.610246            0           0           0
      4.219940  2.108809 11.734784            0           0           0
      6.328457  4.222774 11.738949            0           0           0
      4.204298  4.204298 13.846097            0           0           0
      6.328957  2.108796 13.838421            0           0           0
      0.000000  6.330738  9.610246            0           0           0
      2.110246  0.000000  9.610246            0           0           0
      0.000000  0.000000  7.500000            0           0           0
      2.110246  6.330738  7.500000            0           0           0
      0.005579  6.332231 13.876276            0           0           0
      2.111670  8.439562 13.887552            0           0           0
      0.000970  0.000970 11.728338            0           0           0
      2.113658  6.330582 11.729285            0           0           0
      0.000000  2.110246  9.610246            0           0           0
      2.110246  4.220492  9.610246            0           0           0
      0.000000  4.220492  7.500000            0           0           0
      2.110246  2.110246  7.500000            0           0           0
      8.439562  2.111670 13.887552            0           0           0
      2.104669  4.219001 13.876278            0           0           0
      8.437574  4.220650 11.729285            0           0           0
      2.109277  2.109277 11.728338            0           0           0
      4.220492  6.330738  9.610246            0           0           0
      6.330738  0.000000  9.610246            0           0           0
      4.220492  0.000000  7.500000            0           0           0
      6.330738  6.330738  7.500000            0           0           0
      4.223195  6.328036 13.903606            0           0           0
      6.332231  0.005579 13.876276            0           0           0
      4.220650  8.437574 11.729285            0           0           0
      6.330491  6.330491 11.732773            0           0           0
      4.220492  2.110246  9.610246            0           0           0
      6.330738  4.220492  9.610246            0           0           0
      4.220492  4.220492  7.500000            0           0           0
      6.330738  2.110246  7.500000            0           0           0
      4.219001  2.104669 13.876278            0           0           0
      6.328036  4.223195 13.903606            0           0           0
      4.220741  4.220741 11.732773            0           0           0
      6.330582  2.113658 11.729285            0           0           0

 Finite differences POTIM=   1.0000000000000000E-002