 vasp.6.3.0 20Jan22 (build Mar 11 2022 13:48:16) complex

 executed on             LinuxIFC date 2024.02.12  16:35:57

 INCAR:
   SYSTEM = Oxide-Surface
   ISMEAR = 0
   SIGMA = 0.05
   EDIFF = 1E-5
   ALGO = ALL
   ISTART = 0
   IBRION = -1
   NSW = 0
   ISYM = 2
   DIPOL = 0.5 0.5 0.5
   IDIPOL = 3
   LDIPOL = .TRUE.
   METAGGA = R2SCAN
   LUSE_VDW = .TRUE.
   BPARAM = 11.95
   CPARAM = 0.0093
   LASPH = .TRUE.
   ENCUT = 600
   PREC = Accurate
   LASPH = .TRUE.
   LREAL = .FALSE.
   ISPIN = 1
   NELM = 200
   NELMIN = 8
   NCORE = 19
   KPAR = 1
   LWAVE = .FALSE.
   LCHARG = .FALSE.

 POTCAR:    PAW_PBE Mg_pv 13Apr2007
 POTCAR:    PAW_PBE O 08Apr2002
|               ----> ADVICE to this user running VASP <----                  |
|     You have switched on vdW-DFT.                                           |
|     This routine was written and supplied by Jiri Klimes. We recommend      |
|     that you carefully read and cite the following publications:            |
|       J. Klimes, D.R. Bowler, A. Michelides                                 |
|          J. Phys.: Cond Matt. 22 022201 (2010)                              |
|       J. Klimes, D.R. Bowler, A. Michelides                                 |
|          Phys. Rev. B. 83, 195131 (2011)                                    |
|     and references therein.                                                 |

   TITEL  = PAW_PBE Mg_pv 13Apr2007
   POMASS =   24.305; ZVAL   =    8.000    mass and valenz
   ENMAX  =  403.929; ENMIN  =  302.947 eV

   TITEL  = PAW_PBE O 08Apr2002
   POMASS =   16.000; ZVAL   =    6.000    mass and valenz
   ENMAX  =  400.000; ENMIN  =  300.000 eV

  PAW_PBE Mg_pv 13Apr2007               :
  PAW_PBE O 08Apr2002                   :

 POSCAR: Mg  O
  positions in direct lattice

 METAGGA = R2SCA    LMAXTAU =  6    LMIXTAU =  F

 ion  position               nearest neighbor table
   1  0.000  0.750  0.352-  33 2.11  35 2.11  36 2.11  43 2.11  52 2.11
   2  0.250  0.000  0.352-  34 2.11  35 2.11  36 2.11  44 2.11  51 2.11
   3  0.000  0.000  0.451-  39 2.11  35 2.11  33 2.11  34 2.11  41 2.11  50 2.11
   4  0.250  0.750  0.451-  36 2.11  34 2.11  33 2.11  42 2.11  49 2.11  40 2.13
   5  1.000  0.750  0.549-  33 2.10  47 2.11  39 2.11  56 2.13  40 2.13  37 2.14
   6  0.252  0.001  0.551-  55 2.09  48 2.10  38 2.11  40 2.12  39 2.13  34 2.14
   7  0.000  0.002  0.649-  45 2.09  38 2.10  54 2.10  39 2.12  37 2.13
   8  0.237  0.750  0.647-  37 2.00  40 2.08  46 2.10  38 2.10  53 2.22
   9  0.000  0.250  0.352-  41 2.11  35 2.11  43 2.11  44 2.11  60 2.11
  10  0.250  0.500  0.352-  42 2.11  36 2.11  43 2.11  44 2.11  59 2.11
  11  0.000  0.500  0.451-  47 2.11  43 2.11  42 2.11  33 2.11  41 2.11  58 2.11
  12  0.250  0.250  0.451-  44 2.11  41 2.11  42 2.11  34 2.11  57 2.11  48 2.12
  13  0.000  0.250  0.550-  41 2.11  48 2.11  64 2.11  47 2.11  39 2.11  45 2.14
  14  0.252  0.499  0.551-  63 2.09  48 2.10  46 2.11  40 2.12  47 2.13  42 2.14
  15  0.000  0.498  0.649-  45 2.09  46 2.10  62 2.10  47 2.12  37 2.13
  16  0.248  0.250  0.649-  45 2.09  48 2.11  46 2.12  38 2.12  61 2.13
  17  0.500  0.750  0.352-  49 2.11  36 2.11  51 2.11  52 2.11  59 2.11
  18  0.750  0.000  0.352-  50 2.11  35 2.11  51 2.11  52 2.11  60 2.11
  19  0.500  0.000  0.451-  51 2.11  49 2.11  50 2.11  34 2.11  57 2.11  55 2.15
  20  0.750  0.750  0.451-  52 2.11  49 2.11  50 2.11  33 2.11  58 2.11  56 2.13
  21  0.500  0.750  0.548-  49 2.07  56 2.09  40 2.09  63 2.09  55 2.09
  22  0.748  0.001  0.551-  55 2.09  64 2.10  54 2.11  56 2.12  39 2.13  50 2.14
  23  0.500  0.011  0.658-  61 2.02  38 2.14  54 2.14  53 2.21
  24  0.763  0.750  0.647-  37 2.00  56 2.08  62 2.10  54 2.10  53 2.22
  25  0.500  0.250  0.352-  57 2.11  51 2.11  44 2.11  59 2.11  60 2.11
  26  0.750  0.500  0.352-  58 2.11  52 2.11  43 2.11  59 2.11  60 2.11
  27  0.500  0.500  0.451-  59 2.11  49 2.11  57 2.11  58 2.11  42 2.11  63 2.15
  28  0.750  0.250  0.451-  60 2.11  50 2.11  57 2.11  58 2.11  41 2.11  64 2.12
  29  0.500  0.250  0.551-  48 2.11  64 2.11  63 2.13  55 2.13  61 2.14  57 2.15
  30  0.748  0.499  0.551-  63 2.09  64 2.10  62 2.11  56 2.12  47 2.13  58 2.14
  31  0.500  0.489  0.658-  61 2.02  46 2.14  62 2.14  53 2.21
  32  0.752  0.250  0.649-  45 2.09  64 2.11  62 2.12  54 2.12  61 2.13
  33  0.000  0.750  0.451-   5 2.10   1 2.11   4 2.11   3 2.11  11 2.11  20 2.11
  34  0.250  0.000  0.451-   2 2.11   3 2.11   4 2.11  12 2.11  19 2.11   6 2.14
  35  0.000  0.000  0.352-   3 2.11   2 2.11   1 2.11   9 2.11  18 2.11
  36  0.250  0.750  0.352-   4 2.11   2 2.11   1 2.11  10 2.11  17 2.11
  37  0.000  0.750  0.649-   8 2.00  24 2.00   7 2.13  15 2.13   5 2.14
  38  0.248  0.999  0.650-   7 2.10   8 2.10   6 2.11  16 2.12  23 2.14
  39  0.000  0.999  0.549-   5 2.11   3 2.11  13 2.11   7 2.12   6 2.13  22 2.13
  40  0.252  0.750  0.550-   8 2.08  21 2.09   6 2.12  14 2.12   4 2.13   5 2.13
  41  0.000  0.250  0.451-   9 2.11   3 2.11  11 2.11  12 2.11  28 2.11  13 2.11
  42  0.250  0.500  0.451-  10 2.11   4 2.11  11 2.11  12 2.11  27 2.11  14 2.14
  43  0.000  0.500  0.352-  11 2.11   9 2.11  10 2.11   1 2.11  26 2.11
  44  0.250  0.250  0.352-  12 2.11   9 2.11  10 2.11   2 2.11  25 2.11
  45  0.000  0.250  0.650-  16 2.09  32 2.09   7 2.09  15 2.09  13 2.14
  46  0.248  0.501  0.650-  15 2.10   8 2.10  14 2.11  16 2.12  31 2.14
  47  0.000  0.501  0.549-   5 2.11  11 2.11  13 2.11  15 2.12  14 2.13  30 2.13
  48  0.251  0.250  0.550-   6 2.10  14 2.10  29 2.11  16 2.11  13 2.11  12 2.12
  49  0.500  0.750  0.451-  21 2.07  17 2.11  19 2.11  20 2.11   4 2.11  27 2.11
  50  0.750  0.000  0.451-  18 2.11   3 2.11  19 2.11  20 2.11  28 2.11  22 2.14
  51  0.500  0.000  0.352-  19 2.11  17 2.11  18 2.11   2 2.11  25 2.11
  52  0.750  0.750  0.352-  20 2.11  17 2.11  18 2.11   1 2.11  26 2.11
  53  0.500  0.750  0.655-  23 2.21  31 2.21   8 2.22  24 2.22
  54  0.752  0.999  0.650-   7 2.10  24 2.10  22 2.11  32 2.12  23 2.14
  55  0.500  0.998  0.551-  21 2.09   6 2.09  22 2.09  29 2.13  19 2.15
  56  0.748  0.750  0.550-  24 2.08  21 2.09  22 2.12  30 2.12  20 2.13   5 2.13
  57  0.500  0.250  0.451-  25 2.11  19 2.11  12 2.11  27 2.11  28 2.11  29 2.15
  58  0.750  0.500  0.451-  26 2.11  20 2.11  11 2.11  27 2.11  28 2.11  30 2.14
  59  0.500  0.500  0.352-  27 2.11  17 2.11  25 2.11  26 2.11  10 2.11
  60  0.750  0.250  0.352-  28 2.11  18 2.11  25 2.11  26 2.11   9 2.11
  61  0.500  0.250  0.652-  23 2.02  31 2.02  32 2.13  16 2.13  29 2.14
  62  0.752  0.501  0.650-  15 2.10  24 2.10  30 2.11  32 2.12  31 2.14
  63  0.500  0.502  0.551-  21 2.09  14 2.09  30 2.09  29 2.13  27 2.15
  64  0.749  0.250  0.550-  22 2.10  30 2.10  29 2.11  32 2.11  13 2.11  28 2.12

  LATTYP: Found a simple tetragonal cell.
 ALAT       =     8.4409846542
 C/A-ratio  =     2.5270438657

  Lattice vectors:

 A1 = (   8.4409846542,   0.0000000000,   0.0000000000)
 A2 = (   0.0000000000,   8.4409846542,   0.0000000000)
 A3 = (   0.0000000000,   0.0000000000,  21.3307384906)

Analysis of symmetry for initial positions (statically):
 Subroutine PRICEL returns:
 Original cell was already a primitive cell.

 Routine SETGRP: Setting up the symmetry group for a
 simple tetragonal supercell.

 Subroutine GETGRP returns: Found  4 space group operations
 (whereof  2 operations were pure point group operations)
 out of a pool of 16 trial point group operations.

The static configuration has the point symmetry C_1h.
 The point group associated with its full space group is C_2v.

Analysis of symmetry for dynamics (positions and initial velocities):
 Subroutine PRICEL returns:
 Original cell was already a primitive cell.

[...]

The dynamic configuration has the point symmetry C_1h.
 The point group associated with its full space group is C_2v.

Analysis of constrained symmetry for selective dynamics:
 Subroutine PRICEL returns:
 Original cell was already a primitive cell.

 Routine SETGRP: Setting up the symmetry group for a
 simple tetragonal supercell.

 Subroutine GETGRP returns: Found  4 space group operations
 (whereof  2 operations were pure point group operations)
 out of a pool of 16 trial point group operations.

The constrained configuration has the point symmetry C_1h.
 The point group associated with its full space group is C_2v.

 Subroutine INISYM returns: Found  4 space group operations
 (whereof  2 operations are pure point group operations),
 and found     1 'primitive' translations

                                     Primitive cell

  volume of cell :    1519.8199

  direct lattice vectors                    reciprocal lattice vectors
     8.440984654  0.000000000  0.000000000     0.118469591  0.000000000  0.000000000
     0.000000000  8.440984654  0.000000000     0.000000000  0.118469591  0.000000000
     0.000000000  0.000000000 21.330738491     0.000000000  0.000000000  0.046880702

  length of vectors
     8.440984654  8.440984654 21.330738491     0.118469591  0.118469591  0.046880702

  position of ions in fractional coordinates (direct lattice)
     0.000000000  0.750000000  0.351605267
     0.250000000  0.000000000  0.351605267
     0.000000000  0.000000000  0.450535089
     0.250000000  0.750000000  0.450535089
     0.999999975  0.749999946  0.548865087
     0.252039878  0.000756628  0.550788885
     0.000000022  0.002311195  0.648546918
     0.237174188  0.749999934  0.647363126
     0.000000000  0.250000000  0.351605267
     0.250000000  0.500000000  0.351605267
     0.000000000  0.500000000  0.450535089
     0.250000000  0.250000000  0.450535089
     0.000000013  0.249999998  0.549624541
     0.252039900  0.499243377  0.550788959
     0.000000021  0.497688821  0.648546972
     0.247666318  0.250000068  0.648931672
     0.500000000  0.750000000  0.351605267
     0.750000000  0.000000000  0.351605267
     0.500000000  0.000000000  0.450535089
     0.750000000  0.750000000  0.450535089
     0.500000019  0.750000015  0.547754495
     0.747960121  0.000756607  0.550788926
     0.499999989  0.011207993  0.658121991
     0.762825847  0.749999939  0.647363220
     0.500000000  0.250000000  0.351605267
     0.750000000  0.500000000  0.351605267
     0.500000000  0.500000000  0.450535089
     0.750000000  0.250000000  0.450535089
     0.499999992  0.250000035  0.551140650
     0.747960100  0.499243403  0.550789001
     0.499999989  0.488792575  0.658122307
     0.752333689  0.250000066  0.648931633
     0.000000000  0.750000000  0.450535089
     0.250000000  0.000000000  0.450535089
     0.000000000  0.000000000  0.351605267
     0.250000000  0.750000000  0.351605267
     0.000000022  0.750000036  0.649408351
     0.248158655  0.998502614  0.649732587
     0.000000003  0.999457034  0.549345342
     0.252314547  0.750000035  0.550267426
     0.000000000  0.250000000  0.450535089
     0.250000000  0.500000000  0.450535089
     0.000000000  0.500000000  0.351605267
     0.250000000  0.250000000  0.351605267
     0.000000004  0.249999984  0.650138735
     0.248158633  0.501497394  0.649732528
     0.000000002  0.500542928  0.549345336
     0.250533587  0.249999977  0.549905895
     0.500000000  0.750000000  0.450535089
[...]
   0.50000000  0.25000000  0.45053509
   0.75000000  0.50000000  0.45053509
   0.50000000  0.50000000  0.35160527
   0.75000000  0.25000000  0.35160527
   0.50000001  0.24999992  0.65166380
   0.75184138  0.50149742  0.64973254
   0.50000000  0.50230022  0.55109561
   0.74946642  0.24999998  0.54990591

 position of ions in cartesian coordinates  (Angst):
   0.00000000  6.33073849  7.50000000
   2.11024616  0.00000000  7.50000000
   0.00000000  0.00000000  9.61024616
   2.11024616  6.33073849  9.61024616
   8.44098444  6.33073804 11.70769764
   2.12746474  0.00638669 11.74873367
   0.00000019  0.01950876 13.83398470
   2.00198368  6.33073794 13.80873355
   0.00000000  2.11024616  7.50000000
   2.11024616  4.22049233  7.50000000
   0.00000000  4.22049233  9.61024616
   2.11024616  2.11024616  9.61024616
   0.00000011  2.11024615 11.72389735
   2.12746493  4.21410568 11.74873525
   0.00000018  4.20098370 13.83398587
   2.09054759  2.11024674 13.84219179
   4.22049233  6.33073849  7.50000000
   6.33073849  0.00000000  7.50000000
   4.22049233  0.00000000  9.61024616
   6.33073849  6.33073849  9.61024616
   4.22049249  6.33073862 11.68400790
   6.31351991  0.00638650 11.74873453
   4.22049223  0.09460649 14.03822808
   6.43900126  6.33073797 13.80873555
   4.22049233  2.11024616  7.50000000
   6.33073849  4.22049233  7.50000000
   4.22049233  4.22049233  9.61024616
   6.33073849  2.11024616  9.61024616
   4.22049226  2.11024646 11.75623708
   6.31351973  4.21410590 11.74873614
   4.22049223  4.12589063 14.03823482
   6.35043712  2.11024672 13.84219097
   0.00000000  6.33073849  9.61024616
   2.11024616  0.00000000  9.61024616
   0.00000000  0.00000000  7.50000000
   2.11024616  6.33073849  7.50000000
   0.00000018  6.33073879 13.85235970
   2.09470340  8.42834524 13.85927591
   0.00000002  8.43640149 11.71794183
   2.12978322  6.33073879 11.73761057
   0.00000000  2.11024616  9.61024616
   2.11024616  4.22049233  9.61024616
   0.00000000  4.22049233  7.50000000
   2.11024616  2.11024616  7.50000000
   0.00000003  2.11024603 13.86793934
   2.09470322  4.23313180 13.85927465
   0.00000001  4.22507517 11.71794171
   2.11475016  2.11024597 11.72989885
   4.22049233  6.33073849  9.61024616
   6.33073849  0.00000000  9.61024616
   4.22049233  0.00000000  7.50000000
   6.33073849  6.33073849  7.50000000
   4.22049199  6.33074540 13.97278725
   6.34628139  8.42834508 13.85927601
   4.22049229  8.42156897 11.75527639
   6.31120145  6.33073879 11.73761136
   4.22049233  2.11024616  9.61024616
   6.33073849  4.22049233  9.61024616
   4.22049233  4.22049233  7.50000000
   6.33073849  2.11024616  7.50000000
   4.22049238  2.11024547 13.90047003
   6.34628153  4.23313201 13.85927490
   4.22049229  4.23990844 11.75527627
   6.32623455  2.11024596 11.72989914

--------------------------------------- Iteration      FINAL  ---------------------------------------

--------------------OUTCAR has been truncated-------------------------

[...]

--------------------OUTCAR has been truncated-------------------------

  FORCE on cell =-STRESS in cart. coord.  units (eV):
  Direction    XX          YY          ZZ          XY          YZ          ZX
  Alpha Z   875.25928   875.25928   875.25928
  Ewald  160488.42214160506.06676************    -0.00000     0.00043    -0.00002
  Hartree170648.24431170660.77861************    -0.00000     0.00012    -0.00002
  E(xc)   -2654.19968 -2654.22420 -2652.51016     0.00000     0.00001     0.00001
  Local  ************************341386.15198     0.00000    -0.00047     0.00004
  n-local -2785.79906 -2785.68870 -2807.96791     0.00000    -0.00004    -0.00004
  augment  1177.90479  1178.01019  1167.63725     0.00000     0.00003    -0.00000
  Kinetic  7317.33493  7316.69096  7351.76858     0.00001     0.00018     0.00012
  Fock        0.00000     0.00000     0.00000     0.00000     0.00000     0.00000
  Total     -44.91693   -45.31352   -15.34890     0.00000     0.00000     0.00000
  in kB     -47.35093   -47.76901   -16.18064     0.00000     0.00000     0.00000

 VOLUME and BASIS-vectors are now :
  energy-cutoff  :      600.00
  volume of cell :     1519.82
      direct lattice vectors                 reciprocal lattice vectors
     8.440984654  0.000000000  0.000000000     0.118469591  0.000000000  0.000000000
     0.000000000  8.440984654  0.000000000     0.000000000  0.118469591  0.000000000
     0.000000000  0.000000000 21.330738491     0.000000000  0.000000000  0.046880702

  length of vectors
     8.440984654  8.440984654 21.330738491     0.118469591  0.118469591  0.046880702

 FORCES acting on ions:
    Electron-Ion                     Ewald-Force                    Non-Local-Force
   0.270E-04 -.576E-04 0.207E+04   -.148E-04 -.216E-04 -.206E+04   0.614E-21 0.551E-21 -.711E+01
   -.641E+00 -.264E+00 0.207E+04   0.653E+00 0.281E+00 -.206E+04   -.954E-02 -.128E-01 -.721E+01
   0.526E-04 -.681E+00 0.685E+03   -.688E-04 0.710E+00 -.685E+03   -.112E-20 -.205E-01 0.226E+00
   -.110E+01 -.581E-04 0.680E+03   0.110E+01 -.133E-03 -.681E+03   -.129E-02 -.136E-20 0.438E+00
   0.108E-03 -.759E-05 -.663E+03   -.380E-04 -.202E-04 0.662E+03   0.106E-21 0.424E-23 0.703E+00
   -.961E+01 0.279E+01 -.692E+03   0.107E+02 -.319E+01 0.692E+03   -.107E+01 0.206E+00 -.609E+00
   -.309E-04 0.134E+01 -.205E+04   -.847E-06 -.750E+00 0.204E+04   -.905E-23 -.658E+00 0.654E+01
   -.507E+02 -.712E-04 -.203E+04   0.516E+02 -.306E-04 0.202E+04   0.651E+00 -.561E-21 0.631E+01
   0.279E-04 -.753E-04 0.207E+04   -.148E-04 0.221E-04 -.206E+04   -.274E-22 -.333E-21 -.712E+01
   -.641E+00 0.264E+00 0.207E+04   0.653E+00 -.281E+00 -.206E+04   -.954E-02 0.128E-01 -.721E+01
   0.536E-04 0.681E+00 0.685E+03   -.707E-04 -.710E+00 -.685E+03   -.102E-20 0.205E-01 0.226E+00
   -.367E+01 -.164E-03 0.681E+03   0.385E+01 0.133E-03 -.681E+03   -.128E+00 0.297E-21 0.555E+00
   0.807E-05 -.127E-03 -.676E+03   -.446E-04 0.622E-04 0.675E+03   -.147E-22 0.185E-22 0.434E+00
   -.961E+01 -.279E+01 -.692E+03   0.107E+02 0.319E+01 0.692E+03   -.107E+01 -.206E+00 -.609E+00
   -.292E-04 -.134E+01 -.205E+04   -.814E-05 0.750E+00 0.204E+04   0.219E-22 0.658E+00 0.654E+01
   -.488E+01 -.170E-03 -.204E+04   0.337E+01 0.401E-04 0.203E+04   0.137E+01 -.773E-21 0.690E+01
   0.167E-04 -.557E-04 0.207E+04   0.150E-04 -.267E-04 -.206E+04   0.133E-22 -.134E-20 -.712E+01
   0.641E+00 -.264E+00 0.207E+04   -.653E+00 0.281E+00 -.206E+04   0.954E-02 -.128E-01 -.721E+01
   -.509E-05 -.323E+01 0.675E+03   0.714E-04 0.344E+01 -.676E+03   -.113E-20 -.145E+00 0.408E+00
   0.110E+01 -.578E-04 0.680E+03   -.110E+01 -.134E-03 -.681E+03   0.129E-02 0.558E-22 0.438E+00
   -.419E-04 -.407E-04 -.701E+03   0.540E-04 -.477E-03 0.702E+03   -.191E-22 -.465E-20 0.273E-01
   0.961E+01 0.279E+01 -.692E+03   -.107E+02 -.319E+01 0.692E+03   0.107E+01 0.206E+00 -.609E+00
   0.486E-04 0.439E+02 -.211E+04   0.323E-04 -.459E+02 0.210E+04   0.608E-22 0.241E+00 0.754E+01
   0.507E+02 -.697E-04 -.203E+04   -.516E+02 -.354E-04 0.202E+04   -.651E+00 0.236E-20 0.631E+01
   0.159E-04 -.768E-04 0.206E+04   0.149E-04 0.266E-04 -.206E+04   0.267E-21 -.398E-21 -.722E+01
   0.641E+00 0.264E+00 0.207E+04   -.653E+00 -.281E+00 -.206E+04   0.954E-02 0.128E-01 -.721E+01
   -.574E-05 0.323E+01 0.675E+03   0.738E-04 -.344E+01 -.676E+03   -.123E-20 0.145E+00 0.408E+00
   0.367E+01 -.165E-03 0.681E+03   -.385E+01 0.137E-03 -.681E+03   0.128E+00 0.465E-21 0.555E+00
   0.277E-04 -.357E-03 -.698E+03   0.507E-04 0.500E-03 0.697E+03   0.194E-21 0.145E-20 0.598E+00
   0.961E+01 -.279E+01 -.692E+03   -.107E+02 0.319E+01 0.692E+03   0.107E+01 -.206E+00 -.609E+00
   0.474E-04 -.439E+02 -.211E+04   0.297E-04 0.459E+02 0.210E+04   -.204E-21 -.241E+00 0.754E+01
   0.488E+01 -.166E-03 -.204E+04   -.337E+01 0.552E-04 0.203E+04   -.137E+01 0.126E-20 0.690E+01
   0.118E-03 0.523E-03 0.515E+03   -.397E-04 -.432E-04 -.515E+03   0.348E-21 0.440E-21 0.244E+00
   -.205E+01 -.402E+00 0.509E+03   0.201E+01 0.387E+00 -.508E+03   0.477E-01 0.182E-01 -.305E+00
   0.112E-03 -.118E+00 0.155E+04   -.113E-04 0.128E+00 -.156E+04   0.144E-20 -.134E-01 0.342E+01
   -.351E+00 0.514E-03 0.155E+04   0.357E+00 -.191E-04 -.155E+04   -.771E-02 0.767E-22 0.344E+01
   -.129E-03 0.765E-04 -.155E+04   0.415E-04 0.509E-04 0.155E+04   0.100E-20 0.363E-21 -.430E+01
   -.142E+02 0.627E+01 -.154E+04   0.153E+02 -.751E+01 0.154E+04   -.123E+01 0.175E+01 -.324E+01
   0.989E-04 -.898E+00 -.502E+03   -.380E-04 0.772E+00 0.501E+03   0.721E-21 0.211E+00 0.611E+00
   -.108E+02 0.180E-03 -.514E+03   0.115E+02 -.146E-03 0.514E+03   -.116E+01 0.926E-20 0.742E-01
   0.127E-03 0.485E-03 0.513E+03   -.473E-04 0.573E-04 -.513E+03   0.102E-20 -.248E-20 0.145E+00
   -.205E+01 0.403E+00 0.509E+03   0.201E+01 -.387E+00 -.508E+03   0.477E-01 -.182E-01 -.305E+00
   0.112E-03 0.119E+00 0.155E+04   -.115E-04 -.128E+00 -.156E+04   -.642E-22 0.134E-01 0.342E+01
   -.577E+00 0.498E-03 0.155E+04   0.600E+00 0.192E-04 -.155E+04   -.308E-01 -.421E-21 0.340E+01
   0.746E-04 0.708E-03 -.155E+04   -.196E-04 -.185E-04 0.155E+04   -.708E-22 0.208E-21 -.420E+01
   -.142E+02 -.627E+01 -.154E+04   0.153E+02 0.751E+01 0.154E+04   -.123E+01 -.175E+01 -.324E+01
   0.106E-03 0.899E+00 -.502E+03   -.409E-04 -.772E+00 0.501E+03   -.980E-21 -.211E+00 0.611E+00
   -.507E+01 0.699E-03 -.507E+03   0.500E+01 0.145E-03 0.506E+03   0.419E-01 -.405E-20 0.937E+00
   0.963E-04 0.545E-03 0.515E+03   0.435E-04 -.912E-04 -.515E+03   0.222E-20 0.182E-22 0.244E+00
   0.205E+01 -.402E+00 0.509E+03   -.201E+01 0.387E+00 -.508E+03   -.477E-01 0.182E-01 -.305E+00
   0.103E-03 -.344E+00 0.155E+04   0.114E-04 0.371E+00 -.155E+04   -.264E-20 -.364E-01 0.340E+01
   0.352E+00 0.514E-03 0.155E+04   -.357E+00 -.193E-04 -.155E+04   0.771E-02 -.611E-22 0.344E+01
   0.488E-03 -.738E-02 -.156E+04   0.614E-04 -.119E-02 0.156E+04   0.505E-20 0.199E-19 -.243E+01
   0.142E+02 0.627E+01 -.154E+04   -.153E+02 -.751E+01 0.154E+04   0.123E+01 0.175E+01 -.324E+01
   0.140E-03 0.350E+01 -.546E+03   0.407E-04 -.426E+01 0.548E+03   0.156E-20 0.122E+01 -.224E+01
   0.108E+02 0.177E-03 -.514E+03   -.115E+02 -.146E-03 0.514E+03   0.116E+01 -.762E-20 0.742E-01
   0.886E-04 0.480E-03 0.505E+03   0.475E-04 0.834E-04 -.505E+03   -.798E-21 -.328E-20 -.278E+00
   0.205E+01 0.403E+00 0.509E+03   -.201E+01 -.387E+00 -.508E+03   -.477E-01 -.182E-01 -.305E+00
   0.103E-03 0.345E+00 0.155E+04   0.116E-04 -.371E+00 -.155E+04   0.264E-20 0.364E-01 0.340E+01
   0.578E+00 0.498E-03 0.155E+04   -.600E+00 0.195E-04 -.155E+04   0.308E-01 0.361E-20 0.340E+01
   0.345E-04 0.803E-03 -.154E+04   0.191E-04 0.125E-02 0.154E+04   0.209E-20 -.507E-20 -.170E+01
   0.142E+02 -.627E+01 -.154E+04   -.153E+02 0.751E+01 0.154E+04   0.123E+01 -.175E+01 -.324E+01
   0.127E-03 -.350E+01 -.546E+03   0.461E-04 0.426E+01 0.548E+03   -.159E-20 -.122E+01 -.224E+01
   0.507E+01 0.708E-03 -.507E+03   -.500E+01 0.160E-03 0.506E+03   -.419E-01 -.309E-20 0.937E+00
   0.383E-02 0.427E-02 0.212E+00   0.142E-12 -.176E-12 0.711E-11   -.833E-16 -.309E-20 -.648E+00

 POSITION                                       TOTAL-FORCE (eV/Angst)
      0.00000      6.33074      7.50000        -0.000000     -0.000000      0.511175
      2.11025      0.00000      7.50000         0.003083      0.004537      0.526947
      0.00000      0.00000      9.61025        -0.000000      0.008938     -0.038984
      2.11025      6.33074      9.61025        -0.005455     -0.000000     -0.003303
      8.44098      6.33074     11.70770        -0.000000     -0.000000     -0.026517
      2.12746      0.00639     11.74873         0.056884     -0.193419     -0.040558
      0.00000      0.01951     13.83398        -0.000000     -0.065576     -0.370448
      2.00198      6.33074     13.80873         1.491191     -0.000000     -0.037627
      0.00000      2.11025      7.50000        -0.000000     -0.000000      0.510774
      2.11025      4.22049      7.50000         0.003083     -0.004537      0.526947
      0.00000      4.22049      9.61025        -0.000000     -0.008938     -0.038984
      2.11025      2.11025      9.61025         0.049993     -0.000000     -0.054004
      0.00000      2.11025     11.72390        -0.000000     -0.000000     -0.094334
      2.12746      4.21411     11.74874         0.056884      0.193419     -0.040558
      0.00000      4.20098     13.83399        -0.000000      0.065576     -0.370448
      2.09055      2.11025     13.84219        -0.130669     -0.000000     -0.492381
      4.22049      6.33074      7.50000        -0.000000     -0.000000      0.512494
      6.33074      0.00000      7.50000        -0.003083      0.004537      0.526947
      4.22049      0.00000      9.61025        -0.000000      0.064515      0.066499
      6.33074      6.33074      9.61025         0.005455     -0.000000     -0.003303
      4.22049      6.33074     11.68401        -0.000000     -0.000000      1.076394
      6.31352      0.00639     11.74873        -0.056884     -0.193419     -0.040558
      4.22049      0.09461     14.03823        -0.000000     -1.696867     -1.334745
      6.43900      6.33074     13.80874        -1.491191     -0.000000     -0.037627
      4.22049      2.11025      7.50000        -0.000000     -0.000000      0.533022
      6.33074      4.22049      7.50000        -0.003083     -0.004537      0.526947
      4.22049      4.22049      9.61025        -0.000000     -0.064515      0.066499
      6.33074      2.11025      9.61025        -0.049993     -0.000000     -0.054004
      4.22049      2.11025     11.75624        -0.000000     -0.000000     -0.307199
      6.31352      4.21411     11.74874        -0.056884      0.193419     -0.040558
      4.22049      4.12589     14.03823        -0.000000      1.696867     -1.334745
      6.35044      2.11025     13.84219         0.130669     -0.000000     -0.492381
      0.00000      6.33074      9.61025        -0.000000     -0.000000      0.041277
      2.11025      0.00000      9.61025         0.007610      0.002601      0.079190
      0.00000      0.00000      7.50000        -0.000000     -0.003769     -0.350373
      2.11025      6.33074      7.50000        -0.002187     -0.000000     -0.345580
      0.00000      6.33074     13.85236        -0.000000     -0.000000      0.069609
      2.09470      8.42835     13.85928        -0.102011      0.516334      0.369780
      0.00000      8.43640     11.71794        -0.000000      0.084606      0.176288
      2.12978      6.33074     11.73761        -0.425588     -0.000000     -0.196643
      0.00000      2.11025      9.61025        -0.000000     -0.000000      0.095495
      2.11025      4.22049      9.61025         0.007610     -0.002601      0.079190
      0.00000      4.22049      7.50000        -0.000000      0.003769     -0.350373
      2.11025      2.11025      7.50000        -0.008752     -0.000000     -0.355647
      0.00000      2.11025     13.86794        -0.000000     -0.000000      0.065102
      2.09470      4.23313     13.85927        -0.102011     -0.516334      0.369780
      0.00000      4.22508     11.71794        -0.000000     -0.084606      0.176288
      2.11475      2.11025     11.72990        -0.023976     -0.000000      0.198275
      4.22049      6.33074      9.61025        -0.000000     -0.000000     -0.089108
      6.33074      0.00000      9.61025        -0.007610      0.002601      0.079190
      4.22049      0.00000      7.50000        -0.000000     -0.010295     -0.356131
      6.33074      6.33074      7.50000         0.002187     -0.000000     -0.345580
      4.22049      6.33075     13.97279        -0.000000     -0.000000      0.016282
      6.34628      8.42835     13.85928         0.102011      0.516334      0.369780
      4.22049      8.42157     11.75528        -0.000000      0.464966     -0.141235
      6.31120      6.33074     11.73761         0.425588     -0.000000     -0.196643
      4.22049      2.11025      9.61025        -0.000000     -0.000000      0.119301
      6.33074      4.22049      9.61025        -0.007610     -0.002601      0.079190
      4.22049      4.22049      7.50000        -0.000000      0.010295     -0.356131
      6.33074      2.11025      7.50000         0.008752     -0.000000     -0.355647
      4.22049      2.11025     13.90047        -0.000000     -0.000000      0.496872
      6.34628      4.23313     13.85927         0.102011     -0.516334      0.369780
      4.22049      4.23991     11.75528        -0.000000     -0.464966     -0.141235
      6.32623      2.11025     11.72990         0.023976     -0.000000      0.198275
    total drift:                                0.003833      0.004266     -0.435226

  FREE ENERGIE OF THE ION-ELECTRON SYSTEM (eV)
  free  energy   TOTEN  =      -490.51845629 eV

  energy  without entropy=     -490.51845629  energy(sigma->0) =     -490.51845629