 vasp.6.3.0 20Jan22 (build Mar 11 2022 13:48:16) complex

 executed on             LinuxIFC date 2024.02.15  14:53:53

 INCAR:
   SYSTEM = Oxide-Surface
   ISMEAR = 0
   SIGMA = 0.05
   EDIFF = 1E-5
   ALGO = ALL
   ISTART = 0
   IBRION = -1
   NSW = 0
   ISYM = 2
   DIPOL = 0.5 0.5 0.5
   IDIPOL = 3
   LDIPOL = .TRUE.
   METAGGA = R2SCAN
   LUSE_VDW = .TRUE.
   BPARAM = 11.95
   CPARAM = 0.0093
   LASPH = .TRUE.
   ENCUT = 600
   PREC = Accurate
   LASPH = .TRUE.
   LREAL = .FALSE.
   ISPIN = 1
   NELM = 200
   NELMIN = 8
   NCORE = 19
   KPAR = 1
   LWAVE = .FALSE.
   LCHARG = .FALSE.

 POTCAR:    PAW_PBE Ti_pv 07Sep2000
 POTCAR:    PAW_PBE O 08Apr2002
|               ----> ADVICE to this user running VASP <----                  |
|     You have switched on vdW-DFT.                                           |
|     This routine was written and supplied by Jiri Klimes. We recommend      |
|     that you carefully read and cite the following publications:            |
|       J. Klimes, D.R. Bowler, A. Michelides                                 |
|          J. Phys.: Cond Matt. 22 022201 (2010)                              |
|       J. Klimes, D.R. Bowler, A. Michelides                                 |
|          Phys. Rev. B. 83, 195131 (2011)                                    |
|     and references therein.                                                 |

   TITEL  = PAW_PBE Ti_pv 07Sep2000
   POMASS =   47.880; ZVAL   =   10.000    mass and valenz
   ENMAX  =  222.335; ENMIN  =  166.751 eV

   TITEL  = PAW_PBE O 08Apr2002
   POMASS =   16.000; ZVAL   =    6.000    mass and valenz
   ENMAX  =  400.000; ENMIN  =  300.000 eV

  PAW_PBE Ti_pv 07Sep2000               :
  PAW_PBE O 08Apr2002                   :

 POSCAR: Ti  O
  positions in direct lattice

 METAGGA = R2SCA    LMAXTAU =  6    LMIXTAU =  F

 ion  position               nearest neighbor table
   1  0.750  0.625  0.287-  82 1.95 142 1.95 141 1.95  81 1.95  84 1.98 163 1.98  11 2.96  31 2.96

   2  0.000  0.750  0.287-  83 1.95  84 1.95 103 1.95 104 1.95  85 1.98  32 2.96  12 2.96
   3  0.000  0.625  0.394-  85 1.95 145 1.95  86 1.95 146 1.95  87 1.98  88 1.98  13 2.96  33 2.96

[...]

  80  0.500  0.499  0.709- 234 1.82 240 1.94 239 1.94 180 1.96 179 1.96  70 2.95  50 2.98
  81  0.750  0.750  0.245-   1 1.95  11 1.95
  82  0.750  0.750  0.329-   1 1.95  11 1.95   4 1.98
  83  0.098  0.625  0.287-   2 1.95  32 1.95  41 1.98
  84  0.902  0.625  0.287-   2 1.95  32 1.95   1 1.98
  85  0.000  0.750  0.352-   3 1.95  13 1.95   2 1.98
  86  0.000  0.750  0.435-   3 1.95  13 1.95   6 1.98
  87  0.848  0.625  0.394-   4 1.95  34 1.95   3 1.98
  88  0.152  0.625  0.394-  44 1.95  74 1.95   3 1.98
  89  0.750  0.750  0.458-   5 1.95  15 1.95   4 1.98
  90  0.750  0.750  0.542-   5 1.95  15 1.95   8 2.11
  91  0.098  0.625  0.500-   6 1.95  36 1.95  45 1.98
  92  0.902  0.625  0.500-   6 1.95  36 1.95   5 1.98
  93  1.000  0.750  0.565-  17 1.89   7 1.89   6 2.00
  94  0.000  0.750  0.649-  10 1.81   7 2.02  17 2.02
  95  0.850  0.625  0.607-   7 1.95   8 1.97  38 1.97
  96  0.150  0.625  0.607-   7 1.95  48 1.97  78 1.97
  97  0.750  0.750  0.672-   8 1.86   9 2.10  19 2.10
  98  0.749  0.750  0.756-   9 1.83  19 1.83
  99  0.094  0.625  0.719-  40 1.95  10 1.95  49 2.03
 100  0.906  0.625  0.719-  40 1.95  10 1.95   9 2.03
 101  0.750  0.000  0.245-  11 1.95  21 1.95
 102  0.750  0.000  0.329-  11 1.95  21 1.95  14 1.98
 103  0.098  0.875  0.287-   2 1.95  12 1.95  51 1.98
 104  0.902  0.875  0.287-   2 1.95  12 1.95  11 1.98
 105  0.000  0.000  0.352-  13 1.95  23 1.95  12 1.98
 106  0.000  0.000  0.435-  13 1.95  23 1.95  16 1.98
 107  0.848  0.875  0.394-   4 1.95  14 1.95  13 1.98
 108  0.152  0.875  0.394-  44 1.95  54 1.95  13 1.98
 109  0.750  0.000  0.458-  15 1.95  25 1.95  14 1.98
 110  0.750  0.000  0.542-  15 1.95  25 1.95  18 2.11
 111  0.098  0.875  0.500-   6 1.95  16 1.95  55 1.98
 112  0.902  0.875  0.500-   6 1.95  16 1.95  15 1.98
 113  1.000  0.000  0.565-  27 1.89  17 1.89  16 2.00
 114  1.000  1.000  0.649-  20 1.81  17 2.02  27 2.02
 115  0.850  0.875  0.607-  17 1.95   8 1.97  18 1.97
 116  0.150  0.875  0.607-  17 1.95  48 1.97  58 1.97
 117  0.750  0.000  0.672-  18 1.86  29 2.10  19 2.10
 118  0.750  1.000  0.756-  19 1.83  29 1.83
 119  0.094  0.875  0.719-  10 1.95  20 1.95  59 2.03
 120  0.906  0.875  0.719-  10 1.95  20 1.95  19 2.03
 121  0.750  0.250  0.245-  21 1.95  31 1.95
 122  0.750  0.250  0.329-  21 1.95  31 1.95  24 1.98
 123  0.098  0.125  0.287-  12 1.95  22 1.95  61 1.98
 124  0.902  0.125  0.287-  12 1.95  22 1.95  21 1.98
 125  0.000  0.250  0.352-  23 1.95  33 1.95  22 1.98
 126  0.000  0.250  0.435-  23 1.95  33 1.95  26 1.98
 127  0.848  0.125  0.394-  14 1.95  24 1.95  23 1.98
 128  0.152  0.125  0.394-  54 1.95  64 1.95  23 1.98
 129  0.750  0.250  0.458-  25 1.95  35 1.95  24 1.98
 130  0.750  0.250  0.542-  25 1.95  35 1.95  28 2.11
 131  0.098  0.125  0.500-  16 1.95  26 1.95  65 1.98
 132  0.902  0.125  0.500-  16 1.95  26 1.95  25 1.98
 133  1.000  0.250  0.565-  37 1.89  27 1.89  26 2.00
 134  1.000  0.250  0.649-  30 1.81  37 2.02  27 2.02
 135  0.850  0.125  0.607-  27 1.95  18 1.97  28 1.97
 136  0.150  0.125  0.607-  27 1.95  58 1.97  68 1.97
 137  0.750  0.250  0.672-  28 1.86  29 2.10  39 2.10
 138  0.750  0.250  0.756-  39 1.83  29 1.83
 139  0.094  0.125  0.719-  30 1.95  20 1.95  69 2.03
[...]
 226  0.500  0.500  0.435-  43 1.95  73 1.95  76 1.98
 227  0.348  0.375  0.394-  64 1.95  74 1.95  73 1.98
 228  0.652  0.375  0.394-  24 1.95  34 1.95  73 1.98
 229  0.250  0.500  0.458-  45 1.95  75 1.95  74 1.98
 230  0.250  0.500  0.542-  45 1.95  75 1.95  78 2.11
 231  0.598  0.375  0.500-  66 1.95  76 1.95  35 1.98
 232  0.402  0.375  0.500-  66 1.95  76 1.95  75 1.98
 233  0.500  0.500  0.565-  77 1.89  47 1.90  76 2.00
 234  0.500  0.500  0.649-  80 1.82  47 2.01  77 2.01
 235  0.350  0.375  0.607-  77 1.95  78 1.97  68 1.97
 236  0.650  0.375  0.607-  77 1.95  38 1.97  28 1.97
 237  0.249  0.500  0.672-  78 1.86  49 2.10  79 2.10
 238  0.251  0.500  0.756-  79 1.83  49 1.84
 239  0.594  0.374  0.718-  80 1.94  70 1.94  39 2.03
 240  0.406  0.374  0.718-  80 1.94  70 1.94  79 2.03

  LATTYP: Found a simple orthorhombic cell.
 ALAT       =    11.8303781148
 B/A-ratio  =     1.0992024327
 C/A-ratio  =     2.5825673970

  Lattice vectors:

 A1 = (   0.0000000000, -11.8303781148,   0.0000000000)
 A2 = (  13.0039804036,   0.0000000000,   0.0000000000)
 A3 = (   0.0000000000,   0.0000000000,  30.5527488131)

Analysis of symmetry for initial positions (statically):
 Subroutine PRICEL returns:
 Original cell was already a primitive cell.

 Routine SETGRP: Setting up the symmetry group for a
 simple orthorhombic supercell.

 Subroutine GETGRP returns: Found  2 space group operations
 (whereof  2 operations were pure point group operations)
 out of a pool of  8 trial point group operations.

The static configuration has the point symmetry C_1h.

Analysis of symmetry for dynamics (positions and initial velocities):
 Subroutine PRICEL returns:
 Original cell was already a primitive cell.

[...]

The dynamic configuration has the point symmetry C_1h.

Analysis of constrained symmetry for selective dynamics:
 Subroutine PRICEL returns:
 Original cell was already a primitive cell.

 Routine SETGRP: Setting up the symmetry group for a
 simple orthorhombic supercell.

 Subroutine GETGRP returns: Found  2 space group operations
 (whereof  2 operations were pure point group operations)
 out of a pool of  8 trial point group operations.

The constrained configuration has the point symmetry C_1h.

 Subroutine INISYM returns: Found  2 space group operations
 (whereof  2 operations are pure point group operations),
 and found     1 'primitive' translations

                                     Primitive cell

  volume of cell :    4700.2961

  direct lattice vectors                    reciprocal lattice vectors
    13.003980404  0.000000000  0.000000000     0.076899531  0.000000000  0.000000000
     0.000000000 11.830378115  0.000000000     0.000000000  0.084528152  0.000000000
     0.000000000  0.000000000 30.552748813     0.000000000  0.000000000  0.032730279

  length of vectors
    13.003980404 11.830378115 30.552748813     0.076899531  0.084528152  0.032730279

  position of ions in fractional coordinates (direct lattice)
     0.750000000  0.625000000  0.287188045
     0.000000000  0.750000000  0.287188045
     0.000000000  0.625000000  0.393594023
     0.750000000  0.750000000  0.393594023
     0.750000000  0.625000000  0.500000000
     0.000000000  0.750000000  0.500000000
     0.999999939  0.625012602  0.604131190
     0.750021775  0.750035515  0.610696778
     0.750003064  0.625099460  0.720187232
     0.000000016  0.750048202  0.708165271
     0.750000000  0.875000000  0.287188045
     0.000000000  0.000000000  0.287188045
     0.000000000  0.875000000  0.393594023
     0.750000000  0.000000000  0.393594023
     0.750000000  0.875000000  0.500000000
     0.000000000  0.000000000  0.500000000
     0.999999991  0.875008991  0.604144304
     0.749983712  0.000012875  0.610796716
     0.749876203  0.874991967  0.720525488
     0.999999989  0.999985733  0.708180187
     0.750000000  0.125000000  0.287188045
     0.000000000  0.250000000  0.287188045
     0.000000000  0.125000000  0.393594023
     0.750000000  0.250000000  0.393594023
     0.750000000  0.125000000  0.500000000
     0.000000000  0.250000000  0.500000000
     0.000000067  0.124986485  0.604150370
     0.750020773  0.249966864  0.610793409
     0.749936140  0.125009463  0.720500285
     0.000000014  0.249968494  0.708178592
     0.750000000  0.375000000  0.287188045
     0.000000000  0.500000000  0.287188045
     0.000000000  0.375000000  0.393594023
     0.750000000  0.500000000  0.393594023
     0.750000000  0.375000000  0.500000000
     0.000000000  0.500000000  0.500000000
     0.000000084  0.374994155  0.604134382
     0.750042567  0.499977077  0.610710241
     0.750059276  0.375070994  0.720471486
     0.999999993  0.500046918  0.708154109
     0.250000000  0.625000000  0.287188045
     0.500000000  0.750000000  0.287188045
     0.500000000  0.625000000  0.393594023
     0.250000000  0.750000000  0.393594023
     0.250000000  0.625000000  0.500000000
     0.500000000  0.750000000  0.500000000
     0.499999957  0.624723114  0.604426797
     0.249978087  0.750035507  0.610696776
     0.249996934  0.625099468  0.720187222
     0.500000013  0.750558309  0.708051210
     0.250000000  0.875000000  0.287188045
     0.500000000  0.000000000  0.287188045
     0.500000000  0.875000000  0.393594023
     0.250000000  0.000000000  0.393594023
     0.250000000  0.875000000  0.500000000
     0.500000000  0.000000000  0.500000000
     0.499999960  0.874829590  0.604010476
     0.250016350  0.000012902  0.610796720
     0.250123805  0.874991976  0.720525490
     0.499999993  0.000021181  0.708009690
[...]
     0.500000000  0.500000000  0.435304973
     0.347999548  0.375000000  0.393594023
     0.652000452  0.375000000  0.393594023
     0.250000000  0.500000000  0.458289049
     0.250000000  0.500000000  0.541710951
[...]
   6.50199020 10.35158085 12.02537931
   3.25099510  0.00000000 12.02537931
   3.25099510 10.35158085 15.27637441
   6.50199020  0.00000000 15.27637441
   6.50198968 10.34956484 18.45418034
   3.25120772  0.00015263 18.66151877
   3.25260506 10.35148592 22.01403431
   6.50199011  0.00025058 21.63164221
[...]
   6.50199020  5.91518906 13.29976351
   4.52537931  4.43639179 12.02537931
   8.47860110  4.43639179 12.02537931
   3.25099510  5.91518906 14.00199020
   3.25099510  5.91518906 16.55075861
   7.77637441  4.43639179 15.27637441
   5.22760600  4.43639179 15.27637441
   6.50199004  5.91530680 17.27591230
   6.50199033  5.91455267 19.83683155
   4.55288322  4.43640225 18.55266361
   8.45109701  4.43640221 18.55266318
   3.24421045  5.91558211 20.51998956
   3.26640132  5.91880495 23.09439213
   7.72931080  4.42764771 21.93714797
   5.27466957  4.42764778 21.93714791

--------------------------------------- Iteration      FINAL  ---------------------------------------

--------------------OUTCAR has been truncated-------------------------

[...]

--------------------OUTCAR has been truncated-------------------------

  FORCE on cell =-STRESS in cart. coord.  units (eV):
  Direction    XX          YY          ZZ          XY          YZ          ZX
  Alpha Z  4654.20310  4654.20310  4654.20310
  Ewald  981353.95808999113.87322************    -0.00000    -2.03956     0.00013
  Hartree************************************    -0.00000    -0.96106     0.00003
  E(xc)   -9126.50443 -9135.89339 -9124.37318    -0.00000     0.00067     0.00001
  Local  ************************************     0.00001     2.96974    -0.00013
  n-local -5172.86261 -5080.16492 -5218.51361     0.00001    -0.05287    -0.00016
  augment  5516.80609  5483.88716  5520.44300    -0.00000     0.00692    -0.00000
  Kinetic 28658.35906 28178.17105 28704.12616     0.00001     0.07987     0.00018
  Fock        0.00000     0.00000     0.00000     0.00000     0.00000     0.00000
  Total     -11.71287   -57.82176   -51.90617     0.00000     0.00371     0.00000
  in kB      -3.99253   -19.70955   -17.69312     0.00000     0.00127     0.00000

 VOLUME and BASIS-vectors are now :
  energy-cutoff  :      600.00
  volume of cell :     4700.30
      direct lattice vectors                 reciprocal lattice vectors
    13.003980404  0.000000000  0.000000000     0.076899531  0.000000000  0.000000000
     0.000000000 11.830378115  0.000000000     0.000000000  0.084528152  0.000000000
     0.000000000  0.000000000 30.552748813     0.000000000  0.000000000  0.032730279

  length of vectors
    13.003980404 11.830378115 30.552748813     0.076899531  0.084528152  0.032730279

 FORCES acting on ions:
    Electron-Ion                     Ewald-Force                    Non-Local-Force
   0.919E-02 0.603E-02 0.380E+04   -.930E-02 -.603E-02 -.380E+04   0.238E-04 0.151E-04 0.442E+00
   0.159E-08 0.406E-02 0.398E+04   0.275E-07 -.400E-02 -.397E+04   -.909E-21 -.490E-05 -.402E+01
   0.159E-06 0.173E-01 0.193E+04   -.200E-06 -.172E-01 -.193E+04   0.172E-21 -.627E-06 -.628E-01
   0.374E-01 0.356E-01 0.192E+04   -.378E-01 -.350E-01 -.192E+04   0.803E-04 -.526E-05 0.215E+00
   0.365E+00 0.152E+00 -.214E+02   -.368E+00 -.152E+00 0.223E+02   0.515E-03 0.398E-05 -.140E+00
   -.361E-06 -.103E-01 -.926E+01   0.619E-05 0.139E-01 0.811E+01   0.133E-20 -.781E-03 0.356E+00
   0.134E-03 0.756E-01 -.190E+04   0.105E-03 -.742E-01 0.190E+04   -.234E-20 -.666E-03 0.118E+00
   0.208E+00 0.128E+00 -.196E+04   -.192E+00 -.123E+00 0.196E+04   -.513E-02 -.388E-02 -.144E+00
   -.152E+01 0.926E+00 -.379E+04   0.148E+01 -.918E+00 0.379E+04   0.346E-01 -.731E-03 -.356E+00
   -.220E-04 0.647E+00 -.381E+04   -.752E-04 -.652E+00 0.381E+04   0.316E-20 -.299E-02 0.112E+01
   0.536E-02 0.395E-02 0.380E+04   -.557E-02 -.354E-02 -.380E+04   0.645E-04 -.743E-04 0.442E+00
   -.246E-07 -.219E-02 0.398E+04   0.100E-06 0.224E-02 -.397E+04   0.804E-21 -.115E-04 -.402E+01
   -.265E-07 -.366E-02 0.193E+04   0.258E-06 0.395E-02 -.193E+04   -.588E-21 -.537E-05 -.629E-01
   0.525E-02 -.108E-01 0.192E+04   -.597E-02 0.112E-01 -.192E+04   0.169E-03 0.161E-04 0.214E+00
   0.146E-01 0.262E-01 -.213E+02   -.159E-01 -.108E-01 0.222E+02   0.265E-03 -.112E-02 -.142E+00
   0.614E-06 -.748E-01 -.944E+01   0.673E-05 0.772E-01 0.829E+01   0.203E-20 -.424E-03 0.357E+00
   0.325E-04 -.867E-01 -.190E+04   -.361E-04 0.852E-01 0.190E+04   0.545E-21 -.828E-03 0.118E+00
   -.224E+00 0.371E-01 -.197E+04   0.234E+00 -.419E-01 0.197E+04   -.888E-03 -.966E-04 -.137E+00
   -.109E+01 0.591E+00 -.379E+04   0.113E+01 -.626E+00 0.379E+04   0.266E-02 -.282E-02 -.351E+00
   0.278E-04 0.344E+00 -.381E+04   0.336E-05 -.357E+00 0.381E+04   0.209E-20 0.757E-03 0.113E+01
   0.469E-02 -.611E-02 0.380E+04   -.491E-02 0.603E-02 -.380E+04   0.651E-04 0.563E-05 0.442E+00
   -.223E-07 -.405E-02 0.398E+04   0.102E-06 0.400E-02 -.397E+04   -.204E-20 0.456E-05 -.402E+01
   -.145E-06 -.173E-01 0.193E+04   0.693E-06 0.172E-01 -.193E+04   -.118E-20 0.191E-05 -.630E-01
   0.277E-01 -.353E-01 0.192E+04   -.282E-01 0.346E-01 -.192E+04   0.100E-03 0.742E-05 0.214E+00
   -.408E-01 -.146E+00 -.215E+02   0.395E-01 0.144E+00 0.224E+02   0.358E-03 0.102E-03 -.143E+00
   0.313E-05 0.116E-01 -.946E+01   0.184E-05 -.153E-01 0.832E+01   0.208E-20 0.776E-03 0.357E+00
   -.126E-03 -.147E+00 -.190E+04   -.200E-03 0.146E+00 0.190E+04   0.155E-20 0.146E-02 0.122E+00
   -.469E-01 -.211E+00 -.197E+04   0.648E-01 0.207E+00 0.197E+04   -.477E-02 0.300E-02 -.137E+00
   -.339E+00 -.110E+00 -.379E+04   0.376E+00 0.101E+00 0.379E+04   -.323E-02 -.118E-02 -.347E+00
   -.243E-04 -.119E+01 -.381E+04   -.500E-04 0.120E+01 0.381E+04   0.523E-21 0.297E-02 0.112E+01
   0.852E-02 -.387E-02 0.380E+04   -.863E-02 0.354E-02 -.380E+04   0.272E-04 0.453E-04 0.442E+00
   0.421E-08 0.220E-02 0.398E+04   0.290E-07 -.224E-02 -.397E+04   0.282E-20 0.191E-04 -.402E+01
   0.631E-07 0.367E-02 0.193E+04   0.154E-06 -.393E-02 -.193E+04   -.924E-22 0.165E-05 -.629E-01
   0.598E-01 0.105E-01 0.192E+04   -.599E-01 -.108E-01 -.192E+04   -.147E-04 -.320E-04 0.215E+00
   0.301E+00 -.317E-01 -.216E+02   -.303E+00 0.179E-01 0.225E+02   0.238E-03 0.106E-02 -.141E+00
   0.274E-05 0.781E-01 -.927E+01   0.360E-06 -.804E-01 0.812E+01   -.173E-21 0.307E-03 0.356E+00
   -.146E-03 0.113E+00 -.190E+04   -.295E-03 -.111E+00 0.190E+04   -.483E-20 0.379E-03 0.119E+00
   0.454E+00 0.234E-01 -.196E+04   -.431E+00 -.183E-01 0.196E+04   -.762E-02 0.531E-03 -.146E+00
   -.165E+01 -.118E+01 -.379E+04   0.176E+01 0.122E+01 0.379E+04   -.192E-01 0.585E-02 -.342E+00
   0.211E-04 0.523E-01 -.381E+04   -.169E-04 -.409E-01 0.381E+04   0.190E-20 0.824E-03 0.111E+01
   -.919E-02 0.603E-02 0.380E+04   0.930E-02 -.603E-02 -.380E+04   -.238E-04 0.151E-04 0.442E+00
   0.227E-08 0.100E-01 0.398E+04   -.308E-07 -.981E-02 -.397E+04   0.181E-21 -.387E-04 -.402E+01
   -.108E-06 0.552E-01 0.193E+04   0.214E-06 -.522E-01 -.193E+04   -.112E-20 -.566E-03 -.628E-01
   -.374E-01 0.356E-01 0.192E+04   0.378E-01 -.350E-01 -.192E+04   -.803E-04 -.526E-05 0.215E+00
   -.365E+00 0.152E+00 -.214E+02   0.368E+00 -.152E+00 0.223E+02   -.515E-03 0.398E-05 -.140E+00
   -.288E-05 0.476E+00 -.975E+01   0.135E-04 -.489E+00 0.863E+01   -.473E-21 0.798E-02 0.350E+00
   0.924E-04 0.232E+00 -.190E+04   0.703E-04 -.165E+00 0.190E+04   0.163E-20 -.251E-01 0.128E+00
   -.208E+00 0.128E+00 -.196E+04   0.193E+00 -.123E+00 0.196E+04   0.513E-02 -.388E-02 -.144E+00
   0.152E+01 0.926E+00 -.379E+04   -.148E+01 -.918E+00 0.379E+04   -.346E-01 -.731E-03 -.356E+00
   -.178E-04 0.234E+01 -.381E+04   -.717E-04 -.257E+01 0.381E+04   0.306E-20 0.454E-01 0.120E+01
   -.536E-02 0.395E-02 0.380E+04   0.557E-02 -.354E-02 -.380E+04   -.645E-04 -.743E-04 0.442E+00
   0.325E-07 -.117E-02 0.398E+04   -.113E-06 0.122E-02 -.397E+04   0.172E-21 -.920E-05 -.402E+01
   0.124E-06 0.491E-01 0.193E+04   -.339E-06 -.468E-01 -.193E+04   -.450E-21 -.535E-03 -.630E-01
   -.525E-02 -.108E-01 0.192E+04   0.597E-02 0.112E-01 -.192E+04   -.169E-03 0.161E-04 0.214E+00
   -.146E-01 0.262E-01 -.213E+02   0.159E-01 -.108E-01 0.222E+02   -.265E-03 -.112E-02 -.142E+00
   0.473E-05 -.192E-01 -.856E+01   -.556E-05 0.205E-01 0.741E+01   -.109E-20 0.438E-03 0.349E+00
   0.904E-04 -.930E+00 -.189E+04   0.600E-04 0.933E+00 0.189E+04   0.393E-22 0.193E-03 0.893E-01
   0.224E+00 0.372E-01 -.197E+04   -.234E+00 -.421E-01 0.197E+04   0.888E-03 -.966E-04 -.137E+00
   0.109E+01 0.591E+00 -.379E+04   -.113E+01 -.627E+00 0.379E+04   -.266E-02 -.282E-02 -.351E+00
   0.162E-04 -.808E+00 -.381E+04   -.125E-04 0.829E+00 0.380E+04   0.103E-20 -.327E-02 0.113E+01
[...]
   -.533E+02 -.203E-01 0.115E+04   0.573E+02 0.196E-01 -.115E+04   -.365E+01 0.123E-02 0.176E+00
   0.533E+02 -.203E-01 0.115E+04   -.573E+02 0.196E-01 -.115E+04   0.365E+01 0.123E-02 0.176E+00
   -.114E+00 0.184E-01 0.497E+03   0.115E+00 -.204E-01 -.501E+03   -.172E-02 0.440E-02 0.431E+01
   -.455E+00 0.835E-01 -.539E+03   0.455E+00 -.833E-01 0.546E+03   0.209E-02 0.995E-03 -.747E+01
   -.551E+02 -.219E+00 -.677E+01   0.600E+02 0.214E+00 0.649E+01   -.545E+01 0.120E-01 0.377E+00
   0.551E+02 -.219E+00 -.677E+01   -.600E+02 0.214E+00 0.649E+01   0.545E+01 0.120E-01 0.377E+00
   0.238E-03 -.394E+00 -.643E+03   -.488E-04 0.443E+00 0.637E+03   0.165E-21 -.519E-01 0.674E+01
   -.180E-03 -.145E+01 -.163E+04   0.373E-04 0.159E+01 0.162E+04   -.132E-22 -.163E+00 0.270E+01
   -.273E+02 -.469E-03 -.115E+04   0.303E+02 -.296E-01 0.115E+04   -.302E+01 0.297E-01 0.937E+00
   0.273E+02 -.266E-03 -.115E+04   -.303E+02 -.299E-01 0.115E+04   0.302E+01 0.297E-01 0.937E+00
   0.115E+01 0.725E+00 -.183E+04   -.126E+01 -.797E+00 0.184E+04   0.111E+00 0.607E-01 -.242E+01
   -.304E+01 -.495E+00 -.274E+04   0.327E+01 0.617E+00 0.276E+04   -.258E+00 -.185E+00 -.219E+02
   -.225E+02 -.148E+00 -.236E+04   0.289E+02 0.948E-02 0.236E+04   -.658E+01 0.195E+00 -.334E+01
   0.225E+02 -.148E+00 -.236E+04   -.289E+02 0.939E-02 0.236E+04   0.658E+01 0.195E+00 -.334E+01
   0.470E-02 -.334E+00 0.984E+02   -.292E-11 -.383E-12 0.537E-10   0.178E-14 0.334E+00 -.982E+02

 POSITION                                       TOTAL-FORCE (eV/Angst)
      9.75299      7.39399      8.77438        -0.000084      0.000011     -3.733340
      0.00000      8.87278      8.77438        -0.000000      0.000056      2.968364
      0.00000      7.39399     12.02538        -0.000000      0.000068      0.530912
      9.75299      8.87278     12.02538        -0.000324      0.000643     -0.734038
      9.75299      7.39399     15.27637        -0.002312      0.000191      0.730664
      0.00000      8.87278     15.27637        -0.000000      0.002789     -0.782837
     13.00398      7.39414     18.45787        -0.000000      0.000769      0.138744
      9.75327      8.87320     18.65847         0.010006      0.001804     -0.066959
      9.75303      7.39516     22.00370        -0.012826      0.007895      0.145550
      0.00000      8.87335     21.63640        -0.000000     -0.007369      0.159305
      9.75299     10.35158      8.77438        -0.000139      0.000332     -3.733263
      0.00000      0.00000      8.77438        -0.000000      0.000034      2.968410
      0.00000     10.35158     12.02538        -0.000000      0.000284      0.531138
      9.75299      0.00000     12.02538        -0.000548      0.000343     -0.732200
      9.75299     10.35158     15.27637        -0.001055      0.014215      0.739902
      0.00000      0.00000     15.27637        -0.000000      0.002006     -0.781841
     13.00398     10.35169     18.45827        -0.000000     -0.002297      0.138350
      9.75277      0.00015     18.66152         0.009183     -0.004814     -0.073437
      9.75138     10.35149     22.01403         0.043681     -0.036939      0.088707
     13.00398     11.83021     21.63685        -0.000000     -0.012083      0.151703
      9.75299      1.47880      8.77438        -0.000150     -0.000071     -3.733116
      0.00000      2.95759      8.77438        -0.000000     -0.000044      2.968420
      0.00000      1.47880     12.02538        -0.000000     -0.000109      0.531236
      9.75299      2.95759     12.02538        -0.000361     -0.000644     -0.732247
      9.75299      1.47880     15.27637        -0.000977     -0.001739      0.748385
      0.00000      2.95759     15.27637        -0.000000     -0.002864     -0.782323
      0.00000      1.47864     18.45845        -0.000000     -0.000485      0.136442
      9.75326      2.95720     18.66142         0.013525     -0.001864     -0.080265
      9.75215      1.47891     22.01326         0.033102     -0.010359      0.080224
      0.00000      2.95722     21.63680        -0.000000      0.008154      0.151280
      9.75299      4.43639      8.77438        -0.000081     -0.000287     -3.733262
      0.00000      5.91519      8.77438        -0.000000     -0.000023      2.968355
      0.00000      4.43639     12.02538        -0.000000     -0.000252      0.530996
      9.75299      5.91519     12.02538        -0.000140     -0.000359     -0.734031
      9.75299      4.43639     15.27637        -0.001975     -0.012685      0.738868
      0.00000      5.91519     15.27637        -0.000000     -0.001926     -0.783372
      0.00000      4.43632     18.45797        -0.000000      0.002511      0.137029
      9.75354      5.91492     18.65888         0.014582      0.005397     -0.069842
      9.75376      4.43723     22.01238         0.095873      0.037989      0.090823
     13.00398      5.91574     21.63605        -0.000000      0.012091      0.159057
      3.25100      7.39399      8.77438         0.000084      0.000011     -3.733340
      6.50199      8.87278      8.77438        -0.000000      0.000171      2.968603
      6.50199      7.39399     12.02538        -0.000000      0.002373      0.531024
      3.25100      8.87278     12.02538         0.000324      0.000643     -0.734038
      3.25100      7.39399     15.27637         0.002312      0.000191      0.730664
      6.50199      8.87278     15.27637        -0.000000     -0.004548     -0.765565
      6.50199      7.39071     18.46690        -0.000000      0.040662      0.103721
      3.25071      8.87320     18.65847        -0.010006      0.001804     -0.066959
      3.25096      7.39516     22.00370         0.012826      0.007895      0.145550
      6.50199      8.87939     21.63291        -0.000000     -0.177602      0.091511
      3.25100     10.35158      8.77438         0.000139      0.000332     -3.733263
      6.50199      0.00000      8.77438        -0.000000      0.000041      2.968891
      6.50199     10.35158     12.02538        -0.000000      0.001788      0.533012
      3.25100      0.00000     12.02538         0.000548      0.000343     -0.732200
      3.25100     10.35158     15.27637         0.001055      0.014215      0.739902
      6.50199      0.00000     15.27637        -0.000000      0.001712     -0.795097
      6.50199     10.34956     18.45418        -0.000000      0.002603      0.122553
      3.25121      0.00015     18.66152        -0.009183     -0.004814     -0.073437
      3.25261     10.35149     22.01403        -0.043681     -0.036939      0.088707
      6.50199      0.00025     21.63164        -0.000000      0.016745      0.101157
[...]
      6.50199      5.91519     13.29976        -0.000000      0.000204     -0.132442
      4.52538      4.43639     12.02538         0.424251      0.000542      0.055097
      8.47860      4.43639     12.02538        -0.424251      0.000542      0.055097
      3.25100      5.91519     14.00199        -0.000554      0.002377     -0.081988
      3.25100      5.91519     16.55076         0.002028      0.001172      0.018725
      7.77637      4.43639     15.27637        -0.531936      0.007580      0.101110
      5.22761      4.43639     15.27637         0.531936      0.007580      0.101110
      6.50199      5.91531     17.27591        -0.000000     -0.002938     -0.029419
      6.50199      5.91455     19.83683        -0.000000     -0.021000     -0.040890
      4.55288      4.43640     18.55266        -0.026839     -0.000425      0.003281
      8.45110      4.43640     18.55266         0.026839     -0.000425      0.003281
      3.24421      5.91558     20.51999         0.005804     -0.011318      0.106496
      3.26640      5.91880     23.09439        -0.018374     -0.062670     -0.292396
      7.72931      4.42765     21.93715        -0.128625      0.055992      0.083344
      5.27467      4.42765     21.93715         0.128625      0.055992      0.083344
    total drift:                                0.004695      0.000074      0.209349

  FREE ENERGIE OF THE ION-ELECTRON SYSTEM (eV)
  free  energy   TOTEN  =     -2710.31697369 eV

  energy  without entropy=    -2710.31697369  energy(sigma->0) =    -2710.31697369