 vasp.6.3.0 20Jan22 (build Apr  1 2022 16:44:48) gamma-only
 executed on        HPECrayEX_GCC date 2023.03.12  02:48:46

 INCAR:
   SYSTEM = MgO-rocksalt
   ISMEAR = 0
   SIGMA = 0.05
   EDIFF = 1E-6
   ALGO = ALL
   ISTART = 0
   IBRION = -1
   NSW = 0
   ISYM = 0
   DIPOL = 0.5 0.5 0.5
   IDIPOL = 3
   LDIPOL = .TRUE.
   LHFCALC = .TRUE.
   GGA = PE
   IVDW = 13
   VDW_S8 = 1.2007
   VDW_A1 = 0.4009
   VDW_A2 = 5.0293
   ENCUT = 520
   PREC = Accurate
   LASPH = .TRUE.
   LREAL = Auto
   ISPIN = 1
   NELM = 200
   NELMIN = 8
   NCORE = 8
   KPAR = 1
   LWAVE = .FALSE.
   LCHARG = .FALSE.

 POTCAR:    PAW_PBE Mg_pv 13Apr2007
 POTCAR:    PAW_PBE O 08Apr2002
 POTCAR:    PAW_PBE Mg_pv 13Apr2007
   VRHFIN =Mg: p6s2

   TITEL  = PAW_PBE Mg_pv 13Apr2007
   POMASS =   24.305; ZVAL   =    8.000    mass and valenz
   ENMAX  =  403.929; ENMIN  =  302.947 eV

   TITEL  = PAW_PBE O 08Apr2002
   POMASS =   16.000; ZVAL   =    6.000    mass and valenz
   ENMAX  =  400.000; ENMIN  =  300.000 eV

 Optimization of the real space projectors (new method)

 maximal supplied QI-value         = 18.90
 optimisation between [QCUT,QGAM] = [ 11.53, 23.24] = [ 37.21,151.29] Ry
 Optimized for a Real-space Cutoff    1.28 Angstroem

   l    n(q)    QCUT    max X(q) W(low)/X(q) W(high)/X(q)  e(spline)
   1      8    11.527     2.974    0.44E-04    0.56E-04    0.12E-06
   1      8    11.527     4.279    0.12E-03    0.12E-03    0.26E-06
   0      9    11.527    16.381    0.46E-04    0.64E-04    0.78E-07
   0      9    11.527     5.611    0.26E-04    0.43E-04    0.55E-07
   2      8    11.527     4.652    0.22E-03    0.72E-04    0.47E-07
 Optimization of the real space projectors (new method)

 maximal supplied QI-value         = 24.76
 optimisation between [QCUT,QGAM] = [ 11.64, 23.27] = [ 37.91,151.63] Ry
 Optimized for a Real-space Cutoff    1.14 Angstroem

   l    n(q)    QCUT    max X(q) W(low)/X(q) W(high)/X(q)  e(spline)
   0      8    11.635    20.381    0.10E-03    0.33E-03    0.24E-06
   0      8    11.635    15.268    0.11E-03    0.35E-03    0.26E-06
   1      7    11.635     5.964    0.24E-03    0.31E-03    0.30E-06
   1      7    11.635     5.382    0.22E-03    0.25E-03    0.26E-06
  PAW_PBE Mg_pv 13Apr2007               :
  PAW_PBE O 08Apr2002                   :

 POSCAR: Mg  O
  positions in direct lattice
|           W    W    AA    RRRRR   N    N  II  N    N   GGGG   !!!           |
|           W    W   A  A   R    R  NN   N  II  NN   N  G    G  !!!           |
|           W    W  A    A  R    R  N N  N  II  N N  N  G       !!!           |
|           W WW W  AAAAAA  RRRRR   N  N N  II  N  N N  G  GGG   !            |
|           WW  WW  A    A  R   R   N   NN  II  N   NN  G    G                |
|           W    W  A    A  R    R  N    N  II  N    N   GGGG   !!!           |
|     Specifying the vdW parameters                                           |
|     VDW_S8 = 1.201                                                          |
|     VDW_A1 = 0.401                                                          |
|     VDW_A2 = 5.029                                                          |
|     in the INCAR file will overwrite the defaults for pbe0. Please make     |
|     sure that is what you intended.                                         |

 ion  position               nearest neighbor table
   1  0.000  0.375  0.350- 129 2.14 132 2.14 139 2.14 163 2.14 212 2.14
   2  0.125  0.000  0.350- 130 2.14 131 2.14 140 2.14 147 2.14 164 2.14
   3  0.000  0.000  0.450- 131 2.14 130 2.14 137 2.14 161 2.14 210 2.14 135 2.14
   4  0.125  0.375  0.450- 136 2.14 132 2.14 129 2.14 138 2.14 145 2.14 162 2.14
   5  0.000  0.375  0.550- 216 2.13 136 2.13 167 2.14 143 2.14 129 2.14 133 2.17
   6  0.125  1.000  0.550- 144 2.14 151 2.14 135 2.14 168 2.14 130 2.14 134 2.16
   7  0.000  1.000  0.649- 135 2.12 214 2.13 134 2.13 165 2.14 141 2.14
   8  0.125  0.375  0.649- 149 2.11 136 2.12 133 2.14 166 2.14 142 2.14
   9  0.000  0.125  0.350- 137 2.14 131 2.14 139 2.14 140 2.14 220 2.14
  10  0.125  0.250  0.350- 138 2.14 132 2.14 139 2.14 140 2.14 155 2.14
  11  0.000  0.250  0.450- 139 2.14 137 2.14 138 2.14 129 2.14 218 2.14 143 2.14
  12  0.125  0.125  0.450- 144 2.14 140 2.14 138 2.14 130 2.14 137 2.14 153 2.14
  13  1.000  0.125  0.550- 144 2.13 224 2.13 143 2.14 135 2.14 137 2.14 141 2.17
  14  0.125  0.250  0.550- 159 2.13 143 2.14 136 2.14 138 2.14 144 2.14 142 2.17
  15  1.000  0.250  0.649- 143 2.12 222 2.13 142 2.13 141 2.14 133 2.14
  16  0.125  0.125  0.649- 144 2.12 157 2.13 141 2.14 142 2.14 134 2.14
  17  0.250  0.375  0.350- 145 2.14 132 2.14 148 2.14 155 2.14 179 2.14
  18  0.375  0.000  0.350- 146 2.14 147 2.14 156 2.14 180 2.14 195 2.14
  19  0.250  0.000  0.450- 151 2.14 147 2.14 130 2.14 146 2.14 153 2.14 177 2.14
  20  0.375  0.375  0.450- 148 2.14 145 2.14 154 2.14 178 2.14 193 2.14 152 2.15
  21  0.251  0.375  0.550- 152 2.12 159 2.14 183 2.14 145 2.15 136 2.15 149 2.16
  22  0.375  1.000  0.550- 160 2.13 184 2.14 199 2.14 146 2.14 151 2.14 150 2.17
  23  0.250  1.000  0.649- 151 2.12 157 2.13 181 2.14 150 2.14 134 2.14
  24  0.374  0.375  0.653- 149 2.15 197 2.15 158 2.16 182 2.17 152 2.19
  25  0.250  0.125  0.350- 153 2.14 147 2.14 140 2.14 155 2.14 156 2.14
  26  0.375  0.250  0.350- 154 2.14 148 2.14 155 2.14 156 2.14 203 2.14
  27  0.250  0.250  0.450- 159 2.13 155 2.14 153 2.14 154 2.14 138 2.14 145 2.14
  28  0.375  0.125  0.450- 160 2.13 156 2.14 154 2.14 146 2.14 153 2.14 201 2.14
  29  0.250  0.125  0.550- 159 2.13 160 2.13 153 2.14 144 2.14 151 2.14 157 2.17
  30  0.376  0.251  0.551- 152 2.13 207 2.13 158 2.14 159 2.15 160 2.15 154 2.16
  31  0.250  0.250  0.648- 159 2.11 158 2.11 142 2.14 157 2.14 149 2.14
  32  0.375  0.125  0.648- 160 2.10 158 2.12 150 2.14 157 2.14 205 2.14
  33  0.000  0.875  0.350- 161 2.14 131 2.14 164 2.14 171 2.14 244 2.14
  34  0.125  0.500  0.350- 162 2.14 132 2.14 163 2.14 172 2.14 179 2.14
  35  0.000  0.500  0.450- 163 2.14 162 2.14 129 2.14 169 2.14 242 2.14 167 2.14
  36  0.125  0.875  0.450- 164 2.14 161 2.14 130 2.14 170 2.14 177 2.14 168 2.14
  37  0.000  0.875  0.550- 168 2.14 248 2.14 135 2.14 175 2.14 161 2.14 165 2.16
  38  0.125  0.500  0.550- 183 2.13 167 2.14 136 2.14 162 2.14 176 2.14 166 2.17
  39  0.000  0.500  0.649- 167 2.12 166 2.13 246 2.13 173 2.14 133 2.14
  40  0.125  0.875  0.649- 168 2.12 134 2.13 174 2.13 165 2.14 181 2.14
  41  0.000  0.625  0.350- 169 2.14 163 2.14 171 2.14 172 2.14 252 2.14
  42  0.125  0.750  0.350- 170 2.14 164 2.14 171 2.14 172 2.14 187 2.14
  43  0.000  0.750  0.450- 171 2.14 169 2.14 170 2.14 161 2.14 250 2.14 175 2.14
  44  0.125  0.625  0.450- 176 2.14 172 2.14 170 2.14 162 2.14 169 2.14 185 2.14
  45  0.000  0.625  0.550- 256 2.13 176 2.13 167 2.14 175 2.14 169 2.14 173 2.17
  46  0.125  0.750  0.550- 191 2.14 176 2.14 175 2.14 168 2.14 170 2.14 174 2.16
  47  0.000  0.750  0.649- 175 2.12 174 2.13 254 2.13 165 2.14 173 2.14
  48  0.125  0.625  0.649- 176 2.12 189 2.13 173 2.14 166 2.14 174 2.14
  49  0.250  0.875  0.350- 177 2.14 164 2.14 147 2.14 180 2.14 187 2.14
  50  0.375  0.500  0.350- 178 2.14 148 2.14 179 2.14 188 2.14 227 2.14
  51  0.250  0.500  0.450- 183 2.13 179 2.14 178 2.14 145 2.14 162 2.14 185 2.14
  52  0.375  0.875  0.450- 180 2.14 177 2.14 146 2.14 186 2.14 225 2.14 184 2.14
  53  0.250  0.875  0.550- 151 2.13 191 2.13 184 2.14 168 2.14 177 2.14 181 2.17
  54  0.376  0.499  0.551- 231 2.13 152 2.13 182 2.14 192 2.15 183 2.15 178 2.16
  55  0.250  0.500  0.648- 183 2.10 182 2.12 166 2.14 189 2.14 149 2.14
  56  0.375  0.875  0.649- 184 2.12 150 2.13 190 2.13 181 2.14 229 2.14
  57  0.250  0.625  0.350- 185 2.14 179 2.14 172 2.14 187 2.14 188 2.14
  58  0.375  0.750  0.350- 186 2.14 180 2.14 187 2.14 188 2.14 235 2.14
  59  0.250  0.750  0.450- 191 2.14 187 2.14 185 2.14 186 2.14 170 2.14 177 2.14
  60  0.375  0.625  0.450- 192 2.13 188 2.14 186 2.14 178 2.14 185 2.14 233 2.14
[...]
 242  0.875  0.500  0.450- 114 2.14  84 2.14  35 2.14 115 2.14 124 2.14 118 2.14
 243  0.750  0.500  0.350- 115 2.14  98 2.14 114 2.14  81 2.14 121 2.14
 244  0.875  0.875  0.350- 116 2.14  82 2.14 113 2.14  33 2.14 122 2.14
 245  0.750  0.875  0.651- 127 2.14  87 2.14 120 2.14 104 2.14 117 2.17
 246  0.875  0.500  0.651-  39 2.13 128 2.14 119 2.14  88 2.14 118 2.17
 247  0.750  0.500  0.550- 119 2.11 118 2.13 125 2.13 115 2.13  85 2.14 102 2.15
 248  0.875  0.875  0.550- 120 2.12  37 2.14 126 2.14  86 2.14 116 2.14 117 2.14
 249  0.750  0.625  0.450- 121 2.14 115 2.14 108 2.14 123 2.14 124 2.14 125 2.14
 250  0.875  0.750  0.450- 122 2.14 116 2.14  43 2.14 123 2.14 124 2.14 126 2.14
 251  0.750  0.750  0.350- 123 2.14 113 2.14 121 2.14 122 2.14 106 2.14
 252  0.875  0.625  0.350- 124 2.14 114 2.14 121 2.14 122 2.14  41 2.14
 253  0.751  0.626  0.651- 127 2.13 128 2.13 112 2.14 119 2.14 125 2.17
 254  0.875  0.750  0.651- 120 2.13  47 2.13 127 2.14 128 2.14 126 2.16
 255  0.750  0.750  0.550- 127 2.12 117 2.13 126 2.14 123 2.14 125 2.14 110 2.14
 256  0.875  0.625  0.550- 128 2.12  45 2.13 126 2.14 124 2.14 125 2.14 118 2.14

IMPORTANT INFORMATION: All symmetrisations will be switched off!
NOSYMM: (Re-)initialisation of all symmetry stuff for point group C_1.

                                     Primitive cell

  volume of cell :    6254.6868

  direct lattice vectors                    reciprocal lattice vectors
    17.092227251  0.000000000  0.000000000     0.058506126  0.000000000  0.000000000
     0.000000000 17.092227251  0.000000000     0.000000000  0.058506126  0.000000000
     0.000000000  0.000000000 21.409585219     0.000000000  0.000000000  0.046708051

  length of vectors
    17.092227251 17.092227251 21.409585219     0.058506126  0.058506126  0.046708051

  position of ions in fractional coordinates (direct lattice)
     0.000000000  0.375000000  0.350310383
     0.125000000  0.000000000  0.350310383
     0.000000000  0.000000000  0.450103461
     0.125000000  0.375000000  0.450103461
     0.000001196  0.375000689  0.550045974
     0.124971383  0.999967172  0.550076441
     0.000003901  0.999894575  0.649008526
     0.124950872  0.374997879  0.648687935
     0.000000000  0.125000000  0.350310383
     0.125000000  0.250000000  0.350310383
     0.000000000  0.250000000  0.450103461
     0.125000000  0.125000000  0.450103461
     0.999998119  0.124956460  0.550074306
     0.124972870  0.250030761  0.549984253
     0.999994506  0.249889590  0.648948091
     0.124883864  0.124805483  0.648916537
     0.250000000  0.375000000  0.350310383
     0.375000000  0.000000000  0.350310383
     0.250000000  0.000000000  0.450103461
     0.375000000  0.375000000  0.450103461
     0.250541518  0.374964573  0.550388470
     0.375025838  0.999958293  0.549965825
     0.249800541  0.999881307  0.648915418
     0.374268146  0.374855607  0.653080472
     0.250000000  0.125000000  0.350310383
     0.375000000  0.250000000  0.350310383
     0.250000000  0.250000000  0.450103461
     0.375000000  0.125000000  0.450103461
     0.249981558  0.125006374  0.549902449
     0.375628411  0.250661725  0.550888700
     0.249773893  0.249651572  0.648195745
     0.374626804  0.124758048  0.648020935
[...]
   6.40958522  4.27305681  7.50000000
   4.27305681  4.27305681  9.63652841
   6.40958522  2.13652841  9.63652841
   4.27274159  2.13663735 11.77318335
   6.42032617  4.28436718 11.79429857
   4.26919214  4.26710140 13.87760205
   6.40320648  2.13239292 13.87385943
   0.00000000 14.95569884  7.50000000
   2.13652841  8.54611363  7.50000000
   0.00000000  8.54611363  9.63652841
   2.13652841 14.95569884  9.63652841
   0.00006877 14.95573348 11.77702055
   2.13590661  8.54554883 11.77476716
   0.00026784  8.54808429 13.89408890
   2.13478931 14.95567936 13.89491471
   0.00000000 10.68264203  7.50000000
   2.13652841 12.81917044  7.50000000
   0.00000000 12.81917044  9.63652841
   2.13652841 10.68264203  9.63652841
   0.00012990 10.68335521 11.77692786
   2.13602329 12.81967681 11.77697620
   0.00016627 12.82095544 13.89504811
   2.13456055 10.68589411 13.89326470
   4.27305681 14.95569884  7.50000000
   6.40958522  8.54611363  7.50000000
   4.27305681  8.54611363  9.63652841
   6.40958522 14.95569884  9.63652841
   4.27232012 14.95581322 11.77678547
   6.42096767  8.53539943 11.79428757
   4.26916568  8.55218382 13.87404341
   6.40761833 14.95586695 13.89384681
   4.27305681 10.68264203  7.50000000
   6.40958522 12.81917044  7.50000000
   4.27305681 12.81917044  9.63652841
   6.40958522 10.68264203  9.63652841
[...]
  14.95569884  8.54611363  9.63652841
  12.81917044  8.54611363  7.50000000
  14.95569884 14.95569884  7.50000000
  12.82237445 14.95573543 13.94215296
  14.95991400  8.55041305 13.94370213
  12.82593667  8.54942423 11.76981334
  14.95678096 14.95569844 11.77314198
  12.81917044 10.68264203  9.63652841
  14.95569884 12.81917044  9.63652841
  12.81917044 12.81917044  7.50000000
  14.95569884 10.68264203  7.50000000
  12.82837632 10.69225917 13.94006115
  14.95890601 12.82237970 13.94159409
  12.82095389 12.82130411 11.77244208
  14.95812233 10.68453114 11.77259822

--------------------------------------- Iteration      FINAL  ---------------------------------------

--------------------OUTCAR has been truncated-------------------------

[...]

--------------------OUTCAR has been truncated-------------------------

 VOLUME and BASIS-vectors are now :
  energy-cutoff  :      520.00
  volume of cell :     6254.69
      direct lattice vectors                 reciprocal lattice vectors
    17.092227251  0.000000000  0.000000000     0.058506126  0.000000000  0.000000000
     0.000000000 17.092227251  0.000000000     0.000000000  0.058506126  0.000000000
     0.000000000  0.000000000 21.409585219     0.000000000  0.000000000  0.046708051

  length of vectors
    17.092227251 17.092227251 21.409585219     0.058506126  0.058506126  0.046708051

 FORCES acting on ions:
    Electron-Ion                     Ewald-Force                    Non-Local-Force
   -.316E-02 -.605E-02 0.201E+04   0.317E-02 0.626E-02 -.200E+04   -.103E-04 -.145E-03 -.670E+01
   -.353E+00 -.357E+00 0.201E+04   0.343E+00 0.347E+00 -.200E+04   0.710E-02 0.689E-02 -.671E+01
   0.207E-01 -.406E+00 0.667E+03   -.208E-01 0.389E+00 -.668E+03   0.745E-04 0.110E-01 0.337E+00
   -.236E+01 -.665E-02 0.666E+03   0.236E+01 0.636E-02 -.667E+03   0.434E-02 0.176E-03 0.346E+00
   -.222E-01 -.306E-01 -.669E+03   0.222E-01 0.321E-01 0.669E+03   0.174E-03 -.891E-03 -.258E+00
   -.547E+00 -.561E+00 -.668E+03   0.517E+00 0.534E+00 0.669E+03   0.162E-01 0.142E-01 -.272E+00
   0.963E-02 -.844E+00 -.200E+04   -.100E-01 0.819E+00 0.199E+04   0.394E-03 0.192E-01 0.584E+01
   0.190E+01 -.409E-01 -.199E+04   -.190E+01 0.458E-01 0.199E+04   -.891E-01 -.326E-02 0.578E+01
   0.484E-02 -.463E+00 0.201E+04   -.484E-02 0.449E+00 -.200E+04   0.493E-06 0.946E-02 -.671E+01
   -.847E+00 -.512E+00 0.201E+04   0.843E+00 0.503E+00 -.200E+04   0.293E-02 0.555E-02 -.670E+01
   -.201E-01 -.556E+00 0.667E+03   0.221E-01 0.531E+00 -.667E+03   -.121E-02 0.164E-01 0.361E+00
   -.792E+00 -.909E+00 0.667E+03   0.749E+00 0.872E+00 -.668E+03   0.269E-01 0.238E-01 0.339E+00
   0.107E-01 -.102E+01 -.669E+03   -.831E-02 0.982E+00 0.669E+03   -.158E-02 0.219E-01 -.271E+00
   -.583E+00 -.109E+01 -.668E+03   0.523E+00 0.106E+01 0.668E+03   0.110E-01 0.974E-02 -.195E+00
   0.775E-02 -.121E+01 -.200E+04   -.921E-02 0.119E+01 0.199E+04   0.140E-02 0.191E-01 0.583E+01
   0.330E-01 -.132E+01 -.200E+04   -.123E-01 0.130E+01 0.199E+04   -.357E-01 0.109E-01 0.583E+01
   -.172E+01 -.956E-02 0.201E+04   0.173E+01 0.937E-02 -.200E+04   -.505E-02 0.130E-03 -.670E+01
   -.510E+00 -.848E+00 0.201E+04   0.502E+00 0.844E+00 -.200E+04   0.563E-02 0.299E-02 -.670E+01
   -.882E+00 -.808E+00 0.667E+03   0.843E+00 0.768E+00 -.668E+03   0.251E-01 0.258E-01 0.338E+00
   -.502E+01 -.245E-01 0.659E+03   0.511E+01 0.263E-01 -.659E+03   -.517E-01 -.893E-03 0.598E+00
   -.436E+01 -.139E+00 -.671E+03   0.455E+01 0.133E+00 0.671E+03   -.240E+00 0.790E-02 -.215E+00
   -.108E+01 -.654E+00 -.668E+03   0.105E+01 0.577E+00 0.668E+03   0.861E-02 0.266E-01 -.197E+00
   -.132E+01 0.888E-01 -.200E+04   0.130E+01 -.586E-01 0.199E+04   0.998E-02 -.437E-01 0.583E+01
   -.463E+01 -.128E+01 -.202E+04   0.386E+01 0.117E+01 0.201E+04   0.529E+00 0.114E+00 0.663E+01
   -.100E+01 -.101E+01 0.201E+04   0.996E+00 0.100E+01 -.200E+04   0.590E-02 0.547E-02 -.670E+01
   -.128E+01 -.128E+01 0.201E+04   0.129E+01 0.129E+01 -.200E+04   -.468E-02 -.511E-02 -.671E+01
   -.409E+01 -.218E+01 0.665E+03   0.411E+01 0.218E+01 -.666E+03   -.842E-02 -.736E-03 0.361E+00
   -.218E+01 -.411E+01 0.665E+03   0.218E+01 0.413E+01 -.666E+03   -.141E-02 -.111E-01 0.361E+00
   -.169E+01 -.168E+01 -.666E+03   0.158E+01 0.158E+01 0.666E+03   0.519E-01 0.374E-01 -.181E+00
   -.474E+01 -.450E+01 -.675E+03   0.499E+01 0.476E+01 0.675E+03   -.271E+00 -.279E+00 -.354E+00
   0.103E+01 -.249E+01 -.199E+04   -.132E+01 0.211E+01 0.198E+04   0.720E-01 0.259E+00 0.584E+01
   -.296E+01 0.171E+00 -.199E+04   0.256E+01 -.524E+00 0.198E+04   0.281E+00 0.143E+00 0.585E+01
   0.605E-02 0.521E-02 0.201E+04   -.611E-02 -.530E-02 -.200E+04   0.420E-04 0.680E-04 -.672E+01
   -.851E+00 0.501E+00 0.201E+04   0.846E+00 -.492E+00 -.200E+04   0.311E-02 -.562E-02 -.670E+01
   0.937E-02 0.537E+00 0.667E+03   -.108E-01 -.512E+00 -.667E+03   0.879E-03 -.166E-01 0.362E+00
   -.400E+00 0.195E-01 0.667E+03   0.383E+00 -.202E-01 -.668E+03   0.114E-01 0.399E-03 0.337E+00
   0.329E-01 0.141E-01 -.668E+03   -.334E-01 -.149E-01 0.669E+03   0.133E-03 0.376E-03 -.285E+00
   -.674E+00 0.103E+01 -.668E+03   0.597E+00 -.997E+00 0.668E+03   0.267E-01 -.674E-02 -.195E+00
   0.212E-01 0.128E+01 -.200E+04   -.201E-01 -.125E+01 0.199E+04   -.174E-02 -.253E-01 0.583E+01
   -.839E+00 0.166E-01 -.200E+04   0.815E+00 -.165E-01 0.199E+04   0.182E-01 -.222E-03 0.584E+01
   -.100E-02 0.463E+00 0.201E+04   0.900E-03 -.449E+00 -.200E+04   0.654E-04 -.939E-02 -.671E+01
   -.357E+00 0.368E+00 0.201E+04   0.347E+00 -.358E+00 -.200E+04   0.696E-02 -.682E-02 -.671E+01
   0.803E-02 0.428E+00 0.667E+03   -.730E-02 -.412E+00 -.668E+03   -.469E-03 -.108E-01 0.337E+00
   -.807E+00 0.897E+00 0.667E+03   0.765E+00 -.859E+00 -.668E+03   0.263E-01 -.242E-01 0.339E+00
   -.159E-01 0.101E+01 -.669E+03   0.134E-01 -.972E+00 0.669E+03   0.187E-02 -.200E-01 -.270E+00
   -.557E+00 0.619E+00 -.669E+03   0.530E+00 -.590E+00 0.669E+03   0.147E-01 -.162E-01 -.271E+00
   0.540E-01 0.865E+00 -.200E+04   -.515E-01 -.840E+00 0.199E+04   -.287E-02 -.199E-01 0.584E+01
   0.612E-01 0.131E+01 -.200E+04   -.287E-01 -.129E+01 0.199E+04   -.450E-01 -.872E-02 0.583E+01
   -.462E+00 0.102E-01 0.201E+04   0.447E+00 -.105E-01 -.200E+04   0.961E-02 0.148E-03 -.671E+01
   -.127E+01 0.128E+01 0.201E+04   0.128E+01 -.128E+01 -.200E+04   -.493E-02 0.471E-02 -.671E+01
   -.408E+01 0.216E+01 0.665E+03   0.411E+01 -.216E+01 -.666E+03   -.102E-01 0.215E-02 0.363E+00
   -.561E+00 0.448E-01 0.667E+03   0.535E+00 -.477E-01 -.667E+03   0.165E-01 0.173E-02 0.361E+00
   -.102E+01 0.514E-01 -.669E+03   0.980E+00 -.542E-01 0.669E+03   0.213E-01 0.120E-02 -.270E+00
   -.444E+01 0.476E+01 -.675E+03   0.470E+01 -.501E+01 0.675E+03   -.279E+00 0.271E+00 -.355E+00
   0.191E+00 0.294E+01 -.199E+04   -.541E+00 -.254E+01 0.198E+04   0.139E+00 -.277E+00 0.584E+01
   -.126E+01 0.116E-01 -.200E+04   0.123E+01 -.108E-01 0.199E+04   0.222E-01 -.880E-03 0.583E+01
   -.100E+01 0.101E+01 0.201E+04   0.994E+00 -.100E+01 -.200E+04   0.566E-02 -.569E-02 -.670E+01
   -.504E+00 0.855E+00 0.201E+04   0.496E+00 -.851E+00 -.200E+04   0.566E-02 -.273E-02 -.670E+01
   -.899E+00 0.825E+00 0.667E+03   0.862E+00 -.783E+00 -.668E+03   0.240E-01 -.265E-01 0.340E+00
   -.214E+01 0.409E+01 0.665E+03   0.215E+01 -.412E+01 -.666E+03   -.107E-02 0.821E-02 0.361E+00
[...]
   0.114E+01 0.638E+00 0.151E+04   -.114E+01 -.638E+00 -.151E+04   -.329E-03 -.193E-03 0.305E+01
   0.222E+00 0.116E-02 0.151E+04   -.216E+00 -.116E-02 -.151E+04   -.702E-02 0.417E-05 0.304E+01
   0.107E+01 0.716E-02 -.152E+04   -.108E+01 -.515E-02 0.152E+04   0.923E-02 -.213E-02 -.454E+01
   0.816E+00 0.112E+01 -.152E+04   -.763E+00 -.114E+01 0.152E+04   -.836E-01 -.313E-02 -.466E+01
   0.536E+01 0.262E+01 -.492E+03   -.546E+01 -.259E+01 0.492E+03   0.107E-01 -.623E-01 0.587E+00
   0.540E+00 -.143E-01 -.497E+03   -.542E+00 0.165E-01 0.496E+03   -.429E-02 -.182E-02 0.169E+00
   0.144E+01 0.142E+01 0.500E+03   -.144E+01 -.141E+01 -.500E+03   -.156E-02 -.208E-02 -.320E-01
   0.351E+00 0.355E+00 0.500E+03   -.345E+00 -.350E+00 -.500E+03   -.639E-02 -.679E-02 -.105E+00
   0.442E+00 0.422E+00 0.151E+04   -.433E+00 -.415E+00 -.151E+04   -.104E-01 -.852E-02 0.305E+01
   0.420E+00 0.441E+00 0.151E+04   -.413E+00 -.433E+00 -.151E+04   -.867E-02 -.993E-02 0.305E+01
   0.154E+01 0.155E+01 -.152E+04   -.153E+01 -.153E+01 0.152E+04   -.657E-01 -.690E-01 -.469E+01
   0.662E+00 0.673E+00 -.152E+04   -.676E+00 -.689E+00 0.152E+04   0.419E-02 0.509E-02 -.453E+01
   0.107E+01 0.839E+00 -.496E+03   -.108E+01 -.850E+00 0.496E+03   -.651E-02 -.676E-02 0.174E+00
   0.818E+00 0.108E+01 -.496E+03   -.822E+00 -.109E+01 0.496E+03   -.131E-01 -.691E-02 0.175E+00
   -.454E-02 0.193E-01 0.676E+02   -.273E-11 -.846E-12 -.755E-10   0.286E-02 -.171E-01 -.575E+02

 POSITION                                       TOTAL-FORCE (eV/Angst)
      0.00000      6.40959      7.50000        -0.000006      0.000041      0.747818
      2.13653      0.00000      7.50000        -0.002418     -0.002370      0.750784
      0.00000      0.00000      9.63653        -0.000023     -0.003869      0.030728
      2.13653      6.40959      9.63653         0.005352     -0.000089      0.026385
      0.00002      6.40960     11.77626         0.000220      0.000460      0.036253
      2.13604     17.09167     11.77691        -0.011153     -0.010217      0.028337
      0.00007     17.09043     13.89500         0.000051     -0.003346     -0.309161
      2.13569      6.40955     13.88814        -0.094105      0.001177     -0.246945
      0.00000      2.13653      7.50000        -0.000005     -0.003244      0.750379
      2.13653      4.27306      7.50000        -0.001265     -0.001795      0.747142
      0.00000      4.27306      9.63653         0.000599     -0.006333      0.023356
      2.13653      2.13653      9.63653        -0.011200     -0.009252      0.024295
     17.09220      2.13578     11.77686         0.000513     -0.010902      0.030456
      2.13606      4.27358     11.77493        -0.044097     -0.020529      0.027760
     17.09213      4.27117     13.89371         0.000072     -0.001580     -0.289348
      2.13454      2.13320     13.89303        -0.017735     -0.007163     -0.295075
      4.27306      6.40959      7.50000         0.001319     -0.000040      0.746399
      6.40959      0.00000      7.50000        -0.001820     -0.001265      0.746814
      4.27306      0.00000      9.63653        -0.009854     -0.010551      0.023971
      6.40959      6.40959      9.63653         0.032626      0.000713      0.030338
      4.28231      6.40898     11.78359        -0.078490      0.002505     -0.060811
      6.41003     17.09151     11.77454        -0.020008     -0.044345      0.028503
      4.26965     17.09020     13.89301        -0.006047     -0.017210     -0.294551
      6.39708      6.40712     13.98218        -0.163675      0.013341     -0.956633
      4.27306      2.13653      7.50000        -0.001992     -0.001864      0.745994
      6.40959      4.27306      7.50000         0.001650      0.001782      0.748355
      4.27306      4.27306      9.63653         0.012742      0.002051      0.020774
      6.40959      2.13653      9.63653         0.002658      0.013970      0.021149
      4.27274      2.13664     11.77318        -0.047953     -0.047333      0.015180
      6.42033      4.28437     11.79430        -0.051196     -0.052561     -0.135266
      4.26919      4.26710     13.87760        -0.185911     -0.079870     -0.224199
      6.40321      2.13239     13.87386        -0.077121     -0.177288     -0.198978
      0.00000     14.95570      7.50000        -0.000021     -0.000014      0.751527
      2.13653      8.54611      7.50000        -0.001310      0.001816      0.747013
      0.00000      8.54611      9.63653        -0.000409      0.006449      0.023723
      2.13653     14.95570      9.63653        -0.004004     -0.000236      0.030635
      0.00007     14.95573     11.77702        -0.000267     -0.000388      0.030349
      2.13591      8.54555     11.77477        -0.044547      0.020556      0.027804
      0.00027      8.54808     13.89409        -0.000751      0.000847     -0.291674
      2.13479     14.95568     13.89491        -0.003441     -0.000169     -0.308508
      0.00000     10.68264      7.50000        -0.000027      0.003212      0.750427
      2.13653     12.81917      7.50000        -0.002389      0.002315      0.750839
      0.00000     12.81917      9.63653         0.000189      0.003790      0.030925
      2.13653     10.68264      9.63653        -0.010774      0.009431      0.024666
      0.00013     10.68336     11.77693        -0.000254      0.010862      0.030574
      2.13602     12.81968     11.77698        -0.010364      0.010348      0.028349
      0.00017     12.82096     13.89505        -0.000638      0.003337     -0.309308
      2.13456     10.68589     13.89326        -0.016373      0.006362     -0.295140
      4.27306     14.95570      7.50000        -0.003290     -0.000061      0.750326
      6.40959      8.54611      7.50000         0.001740     -0.001655      0.748360
      4.27306      8.54611      9.63653         0.013637     -0.002995      0.021582
      6.40959     14.95570      9.63653        -0.006380     -0.000867      0.023180
      4.27232     14.95581     11.77679        -0.011177     -0.001176      0.031163
      6.42097      8.53540     11.79429        -0.052954      0.050551     -0.134864
      4.26917      8.55218     13.87404        -0.177740      0.077800     -0.199167
      6.40762     14.95587     13.89385        -0.001528     -0.000159     -0.290682
      4.27306     10.68264      7.50000        -0.001917      0.001945      0.745942
      6.40959     12.81917      7.50000        -0.001839      0.001190      0.747188
      4.27306     12.81917      9.63653        -0.009297      0.011033      0.024545
      6.40959     10.68264      9.63653         0.002176     -0.012583      0.020902
[...]
     14.95570      8.54611      9.63653         0.001250     -0.001448      0.012315
     12.81917      8.54611      7.50000        -0.000016      0.000002     -0.262524
     14.95570     14.95570      7.50000        -0.002319      0.000003     -0.266482
     12.82237     14.95574     13.94215        -0.008413     -0.000486     -0.233422
     14.95991      8.55041     13.94370        -0.046447     -0.024347     -0.270540
     12.82594      8.54942     11.76981        -0.087609     -0.043224      0.042055
     14.95678     14.95570     11.77314        -0.006960      0.000094     -0.033368
     12.81917     10.68264      9.63653        -0.000317     -0.000267      0.014673
     14.95570     12.81917      9.63653        -0.002111     -0.002277      0.006785
     12.81917     12.81917      7.50000        -0.003423     -0.002841     -0.263884
     14.95570     10.68264      7.50000        -0.002874     -0.003289     -0.263975
     12.82838     10.69226     13.94006        -0.062043     -0.066406     -0.273344
     14.95891     12.82238     13.94159        -0.010180     -0.010616     -0.227317
     12.82095     12.82130     11.77244        -0.016468     -0.019296     -0.032041
     14.95812     10.68453     11.77260        -0.020845     -0.017166     -0.033194
    total drift:                               -0.000283      0.000547     -0.118104

  FREE ENERGIE OF THE ION-ELECTRON SYSTEM (eV)
  free  energy   TOTEN  =     -1878.79099243 eV

  energy  without entropy=    -1878.79099243  energy(sigma->0) =    -1878.79099243