 vasp.6.4.2 20Jul23 (build Feb 22 2024 13:53:45) complex
 executed on              LinuxNV date 2024.08.27  14:21:37
 OpenACC runtime initialized ...    4 GPUs detected

 INCAR:
   SYSTEM = Oxide-Surface
   ISMEAR = 0
   SIGMA = 0.05
   EDIFF = 1E-5
   ALGO = Normal
   IBRION = -1
   NSW = 0
   ISYM = 0
   DIPOL = 0.5 0.5 0.5
   IDIPOL = 3
   LDIPOL = .TRUE.
   ISTART = 1
   LHFCALC = .TRUE.
   GGA = PE
   IVDW = 21
   VDW_SR = 0.96
   HFRCUT = -1
   ENCUT = 520
   PREC = Normal
   PRECFOCK = Normal
   LASPH = .TRUE.
   LREAL = Auto
   ISPIN = 1
   NELM = 200
   NELMIN = 8
   NCORE = 1
   KPAR = 1
   LWAVE = .FALSE.
   LCHARG = .FALSE.

 POTCAR:    PAW_PBE C 08Apr2002
 POTCAR:    PAW_PBE H 15Jun2001
 POTCAR:    PAW_PBE Mg_pv 13Apr2007
 POTCAR:    PAW_PBE O 08Apr2002
 POTCAR:    PAW_PBE C 08Apr2002
   VRHFIN =C: s2p2

   TITEL  = PAW_PBE C 08Apr2002
   POMASS =   12.011; ZVAL   =    4.000    mass and valenz
   ENMAX  =  400.000; ENMIN  =  300.000 eV

   TITEL  = PAW_PBE H 15Jun2001
   POMASS =    1.000; ZVAL   =    1.000    mass and valenz
   ENMAX  =  250.000; ENMIN  =  200.000 eV

   TITEL  = PAW_PBE Mg_pv 13Apr2007
   POMASS =   24.305; ZVAL   =    8.000    mass and valenz
   ENMAX  =  403.929; ENMIN  =  302.947 eV

   TITEL  = PAW_PBE O 08Apr2002
   POMASS =   16.000; ZVAL   =    6.000    mass and valenz
   ENMAX  =  400.000; ENMIN  =  300.000 eV

 Optimization of the real space projectors (new method)

 maximal supplied QI-value         = 25.13
 optimisation between [QCUT,QGAM] = [ 11.56, 23.12] = [ 37.43,149.72] Ry
 Optimized for a Real-space Cutoff    1.04 Angstroem

   l    n(q)    QCUT    max X(q) W(low)/X(q) W(high)/X(q)  e(spline)
   0      7    11.561   115.676    0.20E-03    0.60E-03    0.21E-06
   0      7    11.561    87.132    0.20E-03    0.59E-03    0.21E-06
   1      7    11.561     4.429    0.23E-03    0.35E-03    0.15E-06
   1      7    11.561     2.733    0.18E-03    0.25E-03    0.12E-06
 Optimization of the real space projectors (new method)

[...]

   l    n(q)    QCUT    max X(q) W(low)/X(q) W(high)/X(q)  e(spline)
   1      8    11.527     2.974    0.16E-03    0.13E-03    0.98E-07
   1      8    11.527     4.279    0.42E-03    0.30E-03    0.22E-06
   0      8    11.527    16.381    0.13E-03    0.20E-03    0.72E-07
   0      8    11.527     5.611    0.88E-04    0.13E-03    0.50E-07
   2      7    11.527     4.652    0.25E-03    0.73E-04    0.51E-07
 Optimization of the real space projectors (new method)

 maximal supplied QI-value         = 24.76
 optimisation between [QCUT,QGAM] = [ 11.64, 23.27] = [ 37.91,151.63] Ry
 Optimized for a Real-space Cutoff    1.04 Angstroem

   l    n(q)    QCUT    max X(q) W(low)/X(q) W(high)/X(q)  e(spline)
   0      7    11.635    20.381    0.14E-03    0.49E-03    0.18E-06
   0      7    11.635    15.268    0.16E-03    0.52E-03    0.19E-06
   1      7    11.635     5.964    0.30E-03    0.44E-03    0.22E-06
   1      7    11.635     5.382    0.27E-03    0.34E-03    0.19E-06
  PAW_PBE C 08Apr2002                   :
  PAW_PBE H 15Jun2001                   :
  PAW_PBE Mg_pv 13Apr2007               :
  PAW_PBE O 08Apr2002                   :

 POSCAR:  C  H Mg  O
  positions in direct lattice
 exchange correlation table for  LEXCH =        8
   RHO(1)=    0.500       N(1)  =     2000
   RHO(2)=  100.500       N(2)  =     4000

 ion  position               nearest neighbor table
   1  0.504  0.498  0.743-   5 1.10   3 1.10   4 1.10   2 1.53
   2  0.675  0.499  0.774-   6 1.10   8 1.10   7 1.10   1 1.53
   3  0.482  0.392  0.707-   1 1.10
   4  0.479  0.604  0.708-   1 1.10
   5  0.418  0.495  0.792-   1 1.10
   6  0.759  0.502  0.724-   2 1.10
   7  0.701  0.394  0.809-   2 1.10
   8  0.698  0.604  0.811-   2 1.10
   9  0.000  0.750  0.189-  43 2.11  44 2.11  51 2.11  60 2.11  41 2.11
  10  0.250  0.000  0.189-  43 2.11  44 2.11  52 2.11  59 2.11  42 2.11
  11  0.000  0.000  0.313-  41 2.11  42 2.11  49 2.11  58 2.11  43 2.11  47 2.12
  12  0.250  0.750  0.313-  41 2.11  42 2.11  50 2.11  57 2.11  44 2.11  48 2.12
  13  1.000  0.750  0.438-  64 2.11  48 2.11  55 2.11  47 2.11  41 2.12  45 2.15
  14  0.250  1.000  0.438-  48 2.11  56 2.11  63 2.11  47 2.11  42 2.12  46 2.15
  15  1.000  1.000  0.562-  46 2.11  62 2.11  47 2.11  45 2.11  53 2.11
  16  0.250  0.750  0.562-  48 2.11  54 2.11  45 2.11  46 2.11  61 2.11
  17  0.000  0.250  0.189-  43 2.11  51 2.11  52 2.11  68 2.11  49 2.11
  18  0.250  0.500  0.189-  44 2.11  51 2.11  52 2.11  67 2.11  50 2.11
  19  0.000  0.500  0.313-  41 2.11  49 2.11  50 2.11  66 2.11  51 2.11  55 2.12
  20  0.250  0.250  0.313-  42 2.11  49 2.11  50 2.11  65 2.11  52 2.11  56 2.12
  21  1.000  0.250  0.438-  72 2.11  56 2.11  55 2.11  47 2.11  49 2.12  53 2.15
  22  0.250  0.500  0.439-  71 2.11  56 2.11  48 2.11  55 2.11  50 2.13  54 2.15
  23  0.000  0.500  0.562-  54 2.11  55 2.11  70 2.11  45 2.11  53 2.11
  24  0.250  0.250  0.562-  56 2.11  53 2.11  54 2.11  46 2.11  69 2.11
  25  0.500  0.750  0.189-  44 2.11  59 2.11  60 2.11  67 2.11  57 2.11
  26  0.750  0.000  0.189-  43 2.11  59 2.11  60 2.11  68 2.11  58 2.11
  27  0.500  0.000  0.313-  42 2.11  57 2.11  58 2.11  65 2.11  59 2.11  63 2.12
  28  0.750  0.750  0.313-  41 2.11  57 2.11  58 2.11  66 2.11  60 2.11  64 2.12
  29  0.500  0.750  0.439-  71 2.11  64 2.11  48 2.11  63 2.11  57 2.13  61 2.15
  30  0.750  1.000  0.438-  64 2.11  72 2.11  47 2.11  63 2.11  58 2.13  62 2.15
  31  0.500  1.000  0.562-  69 2.11  61 2.11  63 2.11  46 2.11  62 2.11
  32  0.750  0.750  0.562-  64 2.11  45 2.11  62 2.11  70 2.11  61 2.11
  33  0.500  0.250  0.189-  52 2.11  59 2.11  67 2.11  68 2.11  65 2.11
  34  0.750  0.500  0.189-  51 2.11  60 2.11  67 2.11  68 2.11  66 2.11
  35  0.500  0.500  0.313-  50 2.11  57 2.11  65 2.11  66 2.11  67 2.11  71 2.12
  36  0.750  0.250  0.313-  49 2.11  58 2.11  65 2.11  66 2.11  68 2.11  72 2.12
  37  0.500  0.250  0.439-  71 2.11  72 2.11  56 2.11  63 2.11  65 2.13  69 2.15
  38  0.750  0.500  0.439-  71 2.11  72 2.11  64 2.11  55 2.11  66 2.13  70 2.15
  39  0.500  0.500  0.563-  54 2.11  61 2.11  69 2.11  70 2.11  71 2.12
  40  0.750  0.250  0.562-  72 2.11  53 2.11  62 2.11  70 2.11  69 2.11
  41  0.000  0.750  0.313-  11 2.11  12 2.11  19 2.11  28 2.11   9 2.11  13 2.12
  42  0.250  0.000  0.313-  11 2.11  12 2.11  20 2.11  27 2.11  10 2.11  14 2.12
  43  0.000  0.000  0.189-   9 2.11  10 2.11  17 2.11  26 2.11  11 2.11
  44  0.250  0.750  0.189-   9 2.11  10 2.11  18 2.11  25 2.11  12 2.11
  45  1.000  0.750  0.565-  32 2.11  16 2.11  23 2.11  15 2.11  13 2.15
  46  0.250  1.000  0.565-  15 2.11  31 2.11  24 2.11  16 2.11  14 2.15
  47  1.000  1.000  0.438-  30 2.11  13 2.11  21 2.11  14 2.11  15 2.11  11 2.12
  48  0.250  0.750  0.438-  16 2.11  14 2.11  13 2.11  29 2.11  22 2.11  12 2.12
  49  0.000  0.250  0.313-  11 2.11  19 2.11  20 2.11  36 2.11  17 2.11  21 2.12
  50  0.250  0.500  0.313-  12 2.11  19 2.11  20 2.11  35 2.11  18 2.11  22 2.13
  51  0.000  0.500  0.189-   9 2.11  17 2.11  18 2.11  34 2.11  19 2.11
  52  0.250  0.250  0.189-  10 2.11  17 2.11  18 2.11  33 2.11  20 2.11
  53  1.000  0.250  0.565-  40 2.11  24 2.11  23 2.11  15 2.11  21 2.15
  54  0.250  0.500  0.565-  23 2.11  16 2.11  24 2.11  39 2.11  22 2.15
  55  1.000  0.500  0.438-  23 2.11  21 2.11  13 2.11  38 2.11  22 2.11  19 2.12
  56  0.250  0.250  0.438-  24 2.11  14 2.11  21 2.11  37 2.11  22 2.11  20 2.12
  57  0.500  0.750  0.313-  12 2.11  27 2.11  28 2.11  35 2.11  25 2.11  29 2.13
  58  0.750  0.000  0.313-  11 2.11  27 2.11  28 2.11  36 2.11  26 2.11  30 2.13
  59  0.500  0.000  0.189-  10 2.11  25 2.11  26 2.11  33 2.11  27 2.11
  60  0.750  0.750  0.189-   9 2.11  25 2.11  26 2.11  34 2.11  28 2.11
  61  0.500  0.750  0.565-  31 2.11  32 2.11  16 2.11  39 2.11  29 2.15
  62  0.750  1.000  0.565-  40 2.11  15 2.11  32 2.11  31 2.11  30 2.15
  63  0.500  1.000  0.438-  31 2.11  30 2.11  14 2.11  29 2.11  37 2.11  27 2.12
  64  0.750  0.750  0.438-  32 2.11  30 2.11  13 2.11  29 2.11  38 2.11  28 2.12
  65  0.500  0.250  0.313-  20 2.11  27 2.11  35 2.11  36 2.11  33 2.11  37 2.13
  66  0.750  0.500  0.313-  19 2.11  28 2.11  35 2.11  36 2.11  34 2.11  38 2.13
  67  0.500  0.500  0.189-  18 2.11  25 2.11  33 2.11  34 2.11  35 2.11
  68  0.750  0.250  0.189-  17 2.11  26 2.11  33 2.11  34 2.11  36 2.11
  69  0.500  0.250  0.565-  31 2.11  40 2.11  24 2.11  39 2.11  37 2.15
  70  0.750  0.500  0.565-  23 2.11  32 2.11  40 2.11  39 2.11  38 2.15
  71  0.500  0.500  0.438-  38 2.11  29 2.11  37 2.11  22 2.11  39 2.12  35 2.12
  72  0.750  0.250  0.438-  40 2.11  30 2.11  21 2.11  37 2.11  38 2.11  36 2.12

IMPORTANT INFORMATION: All symmetrisations will be switched off!
NOSYMM: (Re-)initialisation of all symmetry stuff for point group C_1.

                                     Primitive cell

  volume of cell :    1211.2538

  direct lattice vectors                    reciprocal lattice vectors
     8.440984654  0.000000000  0.000000000     0.118469591  0.000000000  0.000000000
     0.000000000  8.440984654  0.000000000     0.000000000  0.118469591  0.000000000
     0.000000000  0.000000000 17.000000000     0.000000000  0.000000000  0.058823529

  length of vectors
     8.440984654  8.440984654 17.000000000     0.118469591  0.118469591  0.058823529

  position of ions in fractional coordinates (direct lattice)
     0.504442512  0.497603211  0.743410718
     0.675427142  0.499371115  0.773615542
     0.481946286  0.392260978  0.706770344
     0.478809683  0.604144071  0.708156302
     0.417859844  0.495031697  0.791753827
     0.759160533  0.502033602  0.724065079
     0.701478841  0.393602621  0.809133108
     0.698200527  0.603760305  0.810658094
     0.000007636  0.750031286  0.189341906
     0.250007636  0.000031286  0.189341906
     0.000007636  0.000031286  0.313474033
     0.250007636  0.750031286  0.313474033
     0.999976970  0.749963850  0.438457003
     0.249986644  0.999964140  0.438470494
     0.999992364  0.999910906  0.562348157
     0.249873245  0.749845785  0.562202626
     0.000007636  0.250031286  0.189341906
     0.250007636  0.500031286  0.189341906
     0.000007636  0.500031286  0.313474033
     0.250007636  0.250031286  0.313474033
     0.999977352  0.249980617  0.438453686
     0.250127274  0.499963970  0.438535724
     0.000145226  0.499923750  0.562114841
     0.249869118  0.249973003  0.562195641
     0.500007636  0.750031286  0.189341906
     0.750007636  0.000031286  0.189341906
     0.500007636  0.000031286  0.313474033
     0.750007636  0.750031286  0.313474033
     0.499991240  0.749815526  0.438527908
     0.749986537  0.999961265  0.438479227
     0.499961494  0.999896839  0.562145227
     0.750043134  0.749924142  0.562250345
     0.500007636  0.250031286  0.189341906
     0.750007636  0.500031286  0.189341906
     0.500007636  0.500031286  0.313474033
     0.750007636  0.250031286  0.313474033
     0.499993003  0.250082768  0.438527210
     0.749860656  0.499960669  0.438562571
     0.499843564  0.499898967  0.563085918
     0.750058171  0.249889399  0.562241868
     0.000007636  0.750031286  0.313474033
     0.250007636  0.000031286  0.313474033
     0.000007636  0.000031286  0.189341906
[...]
  VDW_IDAMPF =  0
  VDW_S6 =     1.000
  VDW_SR =     0.960
  VDW_D =    20.000
  LVDW_ONECELL = F F F
  LVDW_SAMETYPE T T T T
  LVDW_EWALD = F

  Number of pair interactions contributing to vdW energy: 1130448
  Edisp (eV):   -4.13518

 VOLUME and BASIS-vectors are now :
  energy-cutoff  :      520.00
  volume of cell :     1211.25
      direct lattice vectors                 reciprocal lattice vectors
     8.440984654  0.000000000  0.000000000     0.118469591  0.000000000  0.000000000
     0.000000000  8.440984654  0.000000000     0.000000000  0.118469591  0.000000000
     0.000000000  0.000000000 17.000000000     0.000000000  0.000000000  0.058823529

  length of vectors
     8.440984654  8.440984654 17.000000000     0.118469591  0.118469591  0.058823529

 FORCES acting on ions
    electron-ion (+dipol)            ewald-force                    non-local-force                 convergence-correction
   0.690E+02 0.735E+00 -.577E+03   -.689E+02 -.748E+00 0.577E+03   -.696E-01 0.529E-02 -.242E+00   0.655E-03 0.276E-04 0.634E-01
   -.692E+02 -.734E+00 -.495E+03   0.695E+02 0.746E+00 0.494E+03   -.373E+00 -.149E-01 0.146E+00   0.237E-02 0.391E-04 0.588E-01
   0.181E+02 0.465E+02 -.155E+03   -.190E+02 -.508E+02 0.152E+03   0.944E+00 0.431E+01 0.291E+01   0.197E-03 0.309E-03 0.172E-01
   0.195E+02 -.468E+02 -.155E+03   -.205E+02 0.512E+02 0.152E+03   0.107E+01 -.436E+01 0.280E+01   0.197E-03 -.286E-03 0.172E-01
   0.457E+02 0.122E+01 -.137E+03   -.492E+02 -.133E+01 0.141E+03   0.355E+01 0.104E+00 -.394E+01   -.668E-03 -.144E-04 0.142E-01
   -.449E+02 -.127E+01 -.131E+03   0.484E+02 0.138E+01 0.127E+03   -.342E+01 -.107E+00 0.411E+01   -.219E-03 -.112E-05 0.174E-01
   -.196E+02 0.465E+02 -.113E+03   0.207E+02 -.507E+02 0.116E+03   -.110E+01 0.428E+01 -.291E+01   0.563E-03 -.471E-03 0.129E-01
   -.181E+02 -.460E+02 -.112E+03   0.191E+02 0.503E+02 0.115E+03   -.963E+00 -.423E+01 -.304E+01   0.561E-03 0.495E-03 0.127E-01
   -.743E+00 -.131E+01 0.170E+04   0.742E+00 0.131E+01 -.170E+04   0.709E-04 0.576E-03 -.678E+01   0.243E-03 0.390E-03 -.126E+00
   0.799E+00 0.134E-01 0.170E+04   -.799E+00 -.137E-01 -.170E+04   0.595E-03 0.535E-04 -.678E+01   -.207E-03 -.547E-05 -.126E+00
   -.416E+00 0.126E-01 0.582E+03   0.415E+00 -.151E-01 -.582E+03   0.613E-03 0.146E-02 0.468E+00   -.223E-04 0.536E-05 -.936E-01
   0.798E+00 -.111E+01 0.583E+03   -.796E+00 0.110E+01 -.583E+03   -.128E-02 0.164E-02 0.457E+00   0.145E-03 -.117E-03 -.931E-01
   -.164E+01 -.416E+01 -.527E+03   0.164E+01 0.416E+01 0.528E+03   0.229E-02 0.391E-02 -.184E+00   -.244E-03 -.718E-03 -.216E-01
   0.285E+01 0.598E-01 -.530E+03   -.285E+01 -.602E-01 0.530E+03   -.209E-02 0.286E-03 -.187E+00   0.665E-03 0.138E-04 -.218E-01
   -.460E+01 0.102E+00 -.165E+04   0.460E+01 -.100E+00 0.164E+04   -.139E-02 -.551E-04 0.571E+01   -.122E-03 -.309E-05 0.591E-01
   0.170E+02 -.197E+02 -.163E+04   -.171E+02 0.197E+02 0.162E+04   0.456E-01 0.195E-01 0.575E+01   0.219E-02 -.195E-02 0.598E-01
   -.743E+00 0.131E+01 0.170E+04   0.742E+00 -.131E+01 -.170E+04   0.137E-03 -.581E-03 -.678E+01   0.243E-03 -.387E-03 -.126E+00
   0.103E+01 -.140E-01 0.170E+04   -.103E+01 0.139E-01 -.169E+04   0.270E-03 -.341E-04 -.678E+01   -.304E-03 0.141E-05 -.126E+00
   -.502E+00 -.272E-01 0.583E+03   0.499E+00 0.248E-01 -.583E+03   0.216E-02 0.143E-02 0.434E+00   -.134E-04 -.718E-05 -.929E-01
   0.792E+00 0.110E+01 0.583E+03   -.791E+00 -.110E+01 -.583E+03   -.880E-03 0.156E-02 0.456E+00   0.146E-03 0.118E-03 -.931E-01
   -.165E+01 0.418E+01 -.527E+03   0.165E+01 -.418E+01 0.528E+03   0.227E-02 -.428E-02 -.185E+00   -.234E-03 0.709E-03 -.216E-01
   0.440E+01 -.571E-01 -.520E+03   -.437E+01 0.576E-01 0.521E+03   -.314E-01 -.262E-03 -.333E+00   0.790E-03 -.123E-04 -.203E-01
   -.113E+02 -.901E-01 -.163E+04   0.114E+02 0.913E-01 0.162E+04   -.776E-01 -.961E-03 0.574E+01   -.140E-02 0.990E-05 0.596E-01
   0.172E+02 0.197E+02 -.163E+04   -.173E+02 -.197E+02 0.162E+04   0.524E-01 -.190E-01 0.576E+01   0.225E-02 0.196E-02 0.598E-01
   0.748E+00 -.154E+01 0.170E+04   -.747E+00 0.154E+01 -.169E+04   -.347E-04 0.934E-03 -.678E+01   -.238E-03 0.486E-03 -.125E+00
   -.801E+00 0.135E-01 0.170E+04   0.802E+00 -.136E-01 -.170E+04   -.576E-03 -.124E-04 -.678E+01   0.208E-03 -.845E-05 -.126E+00
   0.410E+00 0.993E-02 0.583E+03   -.410E+00 -.140E-01 -.583E+03   0.442E-03 0.233E-02 0.442E+00   0.139E-04 0.726E-05 -.930E-01
   -.801E+00 -.120E+01 0.583E+03   0.797E+00 0.119E+01 -.583E+03   0.248E-02 0.342E-02 0.463E+00   -.155E-03 -.129E-03 -.928E-01
   0.166E+01 -.571E+01 -.520E+03   -.165E+01 0.568E+01 0.521E+03   -.191E-02 0.300E-01 -.230E+00   0.227E-03 -.831E-03 -.199E-01
   -.284E+01 0.643E-01 -.528E+03   0.284E+01 -.645E-01 0.528E+03   0.177E-03 0.300E-03 -.186E+00   -.660E-03 0.907E-05 -.217E-01
   0.465E+01 0.331E+00 -.164E+04   -.465E+01 -.329E+00 0.163E+04   0.150E-02 -.123E-02 0.572E+01   0.122E-03 0.626E-04 0.591E-01
   -.172E+02 -.269E+02 -.162E+04   0.172E+02 0.269E+02 0.161E+04   -.386E-01 -.300E-01 0.575E+01   -.213E-02 -.317E-02 0.602E-01
   0.748E+00 0.154E+01 0.170E+04   -.747E+00 -.154E+01 -.169E+04   -.112E-03 -.868E-03 -.678E+01   -.240E-03 -.480E-03 -.125E+00
   -.104E+01 -.140E-01 0.170E+04   0.104E+01 0.138E-01 -.169E+04   -.211E-03 0.411E-04 -.678E+01   0.301E-03 -.333E-05 -.125E+00
   0.499E+00 -.199E-01 0.584E+03   -.497E+00 0.170E-01 -.584E+03   -.160E-02 0.158E-02 0.485E+00   0.401E-04 -.475E-05 -.923E-01
   -.796E+00 0.118E+01 0.583E+03   0.792E+00 -.118E+01 -.583E+03   0.202E-02 -.752E-04 0.462E+00   -.155E-03 0.132E-03 -.928E-01
   0.166E+01 0.569E+01 -.520E+03   -.166E+01 -.566E+01 0.520E+03   -.203E-02 -.295E-01 -.236E+00   0.227E-03 0.813E-03 -.199E-01
   -.444E+01 -.634E-01 -.517E+03   0.440E+01 0.645E-01 0.517E+03   0.333E-01 -.512E-03 -.281E+00   -.783E-03 -.258E-05 -.194E-01
   0.120E+02 -.507E+00 -.156E+04   -.121E+02 0.521E+00 0.155E+04   0.596E-01 -.933E-02 0.547E+01   0.117E-02 -.910E-04 0.668E-01
   -.174E+02 0.269E+02 -.162E+04   0.175E+02 -.270E+02 0.161E+04   -.454E-01 0.302E-01 0.575E+01   -.220E-02 0.317E-02 0.602E-01
   -.341E+00 -.864E+00 0.436E+03   0.343E+00 0.861E+00 -.436E+03   -.233E-02 -.468E-03 -.143E+00   -.148E-04 -.914E-04 -.717E-01
   0.581E+00 0.875E-02 0.436E+03   -.575E+00 -.523E-02 -.436E+03   -.662E-02 -.819E-02 -.148E+00   0.110E-03 0.205E-05 -.719E-01
   -.478E+00 0.978E-02 0.128E+04   0.478E+00 -.970E-02 -.128E+04   -.148E-03 0.494E-03 0.301E+01   0.156E-03 -.112E-06 -.967E-01
   0.683E+00 -.986E+00 0.128E+04   -.683E+00 0.985E+00 -.128E+04   0.328E-03 0.101E-02 0.300E+01   -.182E-03 0.294E-03 -.963E-01
   -.594E+01 -.117E+02 -.125E+04   0.594E+01 0.117E+02 0.125E+04   -.902E-03 0.146E-01 -.451E+01   -.456E-03 -.120E-02 0.451E-01
   0.732E+01 0.147E+00 -.125E+04   -.730E+01 -.150E+00 0.126E+04   -.171E-01 0.758E-02 -.451E+01   0.943E-03 0.156E-04 0.450E-01
   -.985E+00 0.294E-01 -.394E+03   0.986E+00 -.275E-01 0.393E+03   -.358E-03 -.254E-02 0.225E+00   -.102E-03 0.710E-05 -.198E-01
   0.266E+01 -.339E+01 -.389E+03   -.265E+01 0.337E+01 0.389E+03   -.624E-02 0.171E-01 0.246E+00   0.603E-03 -.555E-03 -.192E-01
   -.342E+00 0.856E+00 0.436E+03   0.344E+00 -.847E+00 -.436E+03   -.226E-02 -.148E-01 -.143E+00   -.908E-05 0.904E-04 -.717E-01
   0.644E+00 -.195E-01 0.437E+03   -.654E+00 0.229E-01 -.437E+03   0.117E-01 -.797E-02 -.155E+00   0.107E-03 -.815E-05 -.714E-01
   -.638E+00 -.972E-02 0.128E+04   0.637E+00 0.979E-02 -.128E+04   0.862E-03 0.504E-03 0.301E+01   0.196E-03 0.184E-05 -.960E-01
   0.684E+00 0.986E+00 0.128E+04   -.684E+00 -.985E+00 -.128E+04   0.399E-03 -.462E-04 0.300E+01   -.183E-03 -.295E-03 -.963E-01
   -.596E+01 0.117E+02 -.125E+04   0.596E+01 -.117E+02 0.125E+04   0.327E-02 -.268E-02 -.452E+01   -.449E-03 0.119E-02 0.451E-01
   0.211E+02 -.168E+00 -.122E+04   -.210E+02 0.166E+00 0.123E+04   -.885E-01 0.503E-02 -.459E+01   0.260E-02 -.110E-04 0.463E-01
   -.146E+01 -.449E-01 -.387E+03   0.147E+01 0.450E-01 0.387E+03   -.757E-02 -.340E-03 0.247E+00   -.304E-03 0.359E-05 -.190E-01
   0.266E+01 0.339E+01 -.389E+03   -.266E+01 -.337E+01 0.389E+03   -.561E-02 -.174E-01 0.246E+00   0.614E-03 0.546E-03 -.192E-01
   0.337E+00 -.930E+00 0.437E+03   -.337E+00 0.944E+00 -.437E+03   -.308E-03 -.194E-01 -.153E+00   0.288E-04 -.946E-04 -.714E-01
   -.583E+00 0.904E-02 0.436E+03   0.579E+00 -.537E-02 -.436E+03   0.427E-02 -.836E-02 -.147E+00   -.108E-03 0.939E-06 -.717E-01
   0.480E+00 0.109E-01 0.128E+04   -.480E+00 -.109E-01 -.128E+04   0.369E-03 0.508E-03 0.300E+01   -.154E-03 -.385E-05 -.963E-01
   -.687E+00 -.115E+01 0.128E+04   0.687E+00 0.115E+01 -.128E+04   -.983E-04 0.205E-02 0.300E+01   0.186E-03 0.341E-03 -.959E-01
   0.604E+01 -.260E+02 -.122E+04   -.604E+01 0.259E+02 0.122E+04   -.830E-02 0.813E-01 -.448E+01   0.342E-03 -.288E-02 0.469E-01
   -.737E+01 0.162E+00 -.125E+04   0.735E+01 -.165E+00 0.125E+04   0.166E-01 0.953E-02 -.453E+01   -.937E-03 0.164E-04 0.448E-01
   0.977E+00 0.624E-01 -.389E+03   -.980E+00 -.647E-01 0.389E+03   0.188E-02 0.175E-02 0.258E+00   0.971E-04 0.278E-04 -.191E-01
   -.267E+01 -.388E+01 -.387E+03   0.266E+01 0.387E+01 0.386E+03   0.532E-02 0.111E-01 0.247E+00   -.585E-03 -.759E-03 -.189E-01
   0.338E+00 0.914E+00 0.437E+03   -.338E+00 -.919E+00 -.437E+03   -.189E-03 0.133E-02 -.152E+00   0.263E-04 0.961E-04 -.714E-01
   -.647E+00 -.207E-01 0.437E+03   0.658E+00 0.243E-01 -.437E+03   -.127E-01 -.817E-02 -.160E+00   -.125E-03 -.647E-05 -.712E-01
   0.644E+00 -.106E-01 0.128E+04   -.643E+00 0.108E-01 -.128E+04   -.687E-03 0.398E-03 0.300E+01   -.195E-03 -.314E-05 -.954E-01
   -.688E+00 0.115E+01 0.128E+04   0.688E+00 -.115E+01 -.128E+04   -.150E-03 -.111E-02 0.300E+01   0.184E-03 -.335E-03 -.959E-01
   0.607E+01 0.261E+02 -.122E+04   -.607E+01 -.260E+02 0.122E+04   -.745E-02 -.783E-01 -.448E+01   0.347E-03 0.291E-02 0.470E-01
   -.216E+02 -.180E+00 -.120E+04   0.216E+02 0.176E+00 0.121E+04   0.781E-01 0.466E-02 -.451E+01   -.234E-02 -.126E-04 0.481E-01
   0.149E+01 -.343E-01 -.382E+03   -.149E+01 0.310E-01 0.382E+03   0.558E-02 0.210E-02 0.502E-01   0.292E-03 -.121E-04 -.179E-01
   -.267E+01 0.389E+01 -.387E+03   0.266E+01 -.388E+01 0.386E+03   0.505E-02 -.103E-01 0.248E+00   -.610E-03 0.745E-03 -.189E-01
   0.436E+00 -.812E-02 0.233E+02   -.693E-12 0.139E-12 -.523E-11   -.396E+00 -.157E-01 -.184E+02   0.361E-02 0.841E-04 -.234E+01

 POSITION                                       TOTAL-FORCE (eV/Angst)
      4.25799      4.20026     12.63798         0.079690     -0.005681      0.045866
      5.70127      4.21518     13.15146        -0.082795     -0.003664      0.009723
      4.06810      3.31107     12.01510         0.048066      0.175697      0.155541
      4.04163      5.09957     12.03866         0.053153     -0.181149      0.150358
      3.52715      4.17855     13.45982         0.186749      0.005939     -0.191039
      6.40806      4.23766     12.30911        -0.159224     -0.004375      0.206070
      5.92117      3.32239     13.75526        -0.056059      0.213745     -0.140350
      5.89350      5.09633     13.78119        -0.047175     -0.210535     -0.148908
      0.00006      6.33100      3.21881        -0.000140      0.000189      0.554380
      2.11031      0.00026      3.21881        -0.000342      0.000445      0.554952
      0.00006      0.00026      5.32906        -0.000510     -0.000512      0.041663
      2.11031      6.33100      5.32906         0.000487     -0.001073      0.043418
      8.44079      6.33043      7.45377        -0.000185     -0.000422      0.045421
      2.11013      8.44068      7.45400         0.000335      0.000276      0.044530
      8.44092      8.44023      9.55992        -0.001431      0.001603     -0.144618
      2.10918      6.32944      9.55744        -0.006960      0.002883     -0.148327
      0.00006      2.11051      3.21881        -0.000169      0.000740      0.554423
      2.11031      4.22076      3.21881        -0.000277      0.000481      0.555867
      0.00006      4.22076      5.32906        -0.000979     -0.000485      0.045688
      2.11031      2.11051      5.32906         0.000375     -0.000144      0.043320
      8.44079      2.11008      7.45371        -0.000046      0.000326      0.045841
      2.11132      4.22019      7.45511        -0.000236      0.000511      0.047561
      0.00123      4.21985      9.55595         0.008350     -0.000086     -0.147107
      2.10914      2.11002      9.55733        -0.008345     -0.000489     -0.148135
      4.22056      6.33100      3.21881        -0.000088      0.000125      0.555939
      6.33080      0.00026      3.21881         0.000115      0.000471      0.555269
      4.22056      0.00026      5.32906        -0.000403     -0.001002      0.045656
      6.33080      6.33100      5.32906        -0.001558     -0.001852      0.043670
      4.22042      6.32918      7.45497        -0.000079      0.001412      0.046401
      6.33062      8.44066      7.45415        -0.000419      0.000357      0.045041
      4.22017      8.44011      9.55647         0.000964      0.000392     -0.139780
      6.33110      6.33010      9.55826         0.003501      0.010456     -0.149930
      4.22056      2.11051      3.21881        -0.000055      0.000782      0.555869
      6.33080      4.22076      3.21881         0.000025      0.000442      0.555526
      4.22056      4.22076      5.32906         0.000466     -0.000723      0.049640
      6.33080      2.11051      5.32906        -0.001396      0.000536      0.043474
      4.22043      2.11094      7.45496        -0.000136      0.000851      0.045544
      6.32956      4.22016      7.45556        -0.000597      0.000779      0.043325
      4.21917      4.21964      9.57246        -0.007314      0.003525     -0.117967
      6.33123      2.10931      9.55811         0.005004     -0.007481     -0.150145
      0.00006      6.33100      5.32906        -0.000843     -0.001592      0.042716
      2.11031      0.00026      5.32906        -0.002315     -0.004332      0.041853
      0.00006      0.00026      3.21881        -0.000183      0.000757     -0.454138
      2.11031      6.33100      3.21881         0.000102      0.000822     -0.454529
      8.44051      6.32978      9.60579        -0.003236      0.004676     -0.115863
      2.10979      8.44024      9.60586         0.002168      0.004970     -0.116483
      8.44074      8.44072      7.44906         0.000407     -0.000503      0.027653
      2.10995      6.33108      7.44854         0.000155      0.000903      0.027381
      0.00006      2.11051      5.32906        -0.000821     -0.006730      0.042410
      2.11031      4.22076      5.32906         0.003623     -0.004231      0.045411
      0.00006      4.22076      3.21881         0.000109      0.000762     -0.454168
      2.11031      2.11051      3.21881         0.000127      0.000686     -0.454552
      8.44053      2.10979      9.60563         0.000612      0.004709     -0.115871
      2.10787      4.21974      9.60038        -0.012368      0.003013     -0.138464
      8.44074      4.22024      7.44750        -0.002993      0.000179      0.026211
      2.10988      2.10931      7.44846         0.001030     -0.001012      0.027559
      4.22056      6.33100      5.32906        -0.000112     -0.007733      0.045464
      6.33080      0.00026      5.32906         0.001433     -0.004380      0.042738
      4.22056      0.00026      3.21881         0.000077      0.000765     -0.454924
      6.33080      6.33100      3.21881        -0.000204      0.001136     -0.454676
      4.22041      6.33259      9.60494        -0.004834      0.017876     -0.130464
      6.33080      8.44022      9.60644        -0.001464      0.006260     -0.124338
      4.22046      8.44054      7.44788        -0.000164      0.000447      0.029574
      6.33078      6.33100      7.44892        -0.001015     -0.001808      0.030133
      4.22056      2.11051      5.32906        -0.000076     -0.001371      0.045730
      6.33080      4.22076      5.32906        -0.004161     -0.004289      0.046046
      4.22056      4.22076      3.21881        -0.000211      0.000723     -0.455048
      6.33080      2.11051      3.21881        -0.000226      0.000357     -0.454625
      4.22047      2.10650      9.60436        -0.004636     -0.017600     -0.130185
      6.33249      4.21973      9.60317         0.019663      0.001692     -0.146310
      4.22062      4.22016      7.45169         0.001758     -0.000357     -0.000136
      6.33087      2.10935      7.44884        -0.001766      0.001920      0.030224
    total drift:                                0.011142     -0.022274     -0.496646

  FREE ENERGIE OF THE ION-ELECTRON SYSTEM (eV)
  free  energy   TOTEN  =      -516.25694469 eV

  energy  without entropy=     -516.25694469  energy(sigma->0) =     -516.25694469