 vasp.6.4.2 20Jul23 (build Feb 22 2024 13:53:45) complex
 executed on              LinuxNV date 2024.08.27  14:17:59
 OpenACC runtime initialized ...    4 GPUs detected

 INCAR:
   SYSTEM = Oxide-Surface
   ISMEAR = 0
   SIGMA = 0.05
   EDIFF = 1E-5
   ALGO = Normal
   IBRION = -1
   NSW = 0
   ISYM = 0
   DIPOL = 0.5 0.5 0.5
   IDIPOL = 3
   LDIPOL = .TRUE.
   ISTART = 0
   LHFCALC = .FALSE.
   GGA = PE
   IVDW = 21
   VDW_SR = 0.96
   HFRCUT = -1
   ENCUT = 520
   PREC = Normal
   PRECFOCK = Normal
   LASPH = .TRUE.
   LREAL = Auto
   ISPIN = 1
   NELM = 200
   NELMIN = 8
   NCORE = 1
   KPAR = 1
   LWAVE = .TRUE.
   LCHARG = .FALSE.

 POTCAR:    PAW_PBE C 08Apr2002
 POTCAR:    PAW_PBE H 15Jun2001
 POTCAR:    PAW_PBE Mg_pv 13Apr2007
 POTCAR:    PAW_PBE O 08Apr2002
 POTCAR:    PAW_PBE C 08Apr2002
   VRHFIN =C: s2p2

   TITEL  = PAW_PBE C 08Apr2002
   POMASS =   12.011; ZVAL   =    4.000    mass and valenz
   ENMAX  =  400.000; ENMIN  =  300.000 eV

   TITEL  = PAW_PBE H 15Jun2001
   POMASS =    1.000; ZVAL   =    1.000    mass and valenz
   ENMAX  =  250.000; ENMIN  =  200.000 eV

   TITEL  = PAW_PBE Mg_pv 13Apr2007
   POMASS =   24.305; ZVAL   =    8.000    mass and valenz
   ENMAX  =  403.929; ENMIN  =  302.947 eV

   TITEL  = PAW_PBE O 08Apr2002
   POMASS =   16.000; ZVAL   =    6.000    mass and valenz
   ENMAX  =  400.000; ENMIN  =  300.000 eV

 Optimization of the real space projectors (new method)

 maximal supplied QI-value         = 25.13
 optimisation between [QCUT,QGAM] = [ 11.56, 23.12] = [ 37.43,149.72] Ry
 Optimized for a Real-space Cutoff    1.04 Angstroem

   l    n(q)    QCUT    max X(q) W(low)/X(q) W(high)/X(q)  e(spline)
   0      7    11.561   115.676    0.20E-03    0.60E-03    0.21E-06
   0      7    11.561    87.132    0.20E-03    0.59E-03    0.21E-06
   1      7    11.561     4.429    0.23E-03    0.35E-03    0.15E-06
   1      7    11.561     2.733    0.18E-03    0.25E-03    0.12E-06
 Optimization of the real space projectors (new method)

[...]

   l    n(q)    QCUT    max X(q) W(low)/X(q) W(high)/X(q)  e(spline)
   1      8    11.527     2.974    0.16E-03    0.13E-03    0.98E-07
   1      8    11.527     4.279    0.42E-03    0.30E-03    0.22E-06
   0      8    11.527    16.381    0.13E-03    0.20E-03    0.72E-07
   0      8    11.527     5.611    0.88E-04    0.13E-03    0.50E-07
   2      7    11.527     4.652    0.25E-03    0.73E-04    0.51E-07
 Optimization of the real space projectors (new method)

 maximal supplied QI-value         = 24.76
 optimisation between [QCUT,QGAM] = [ 11.64, 23.27] = [ 37.91,151.63] Ry
 Optimized for a Real-space Cutoff    1.04 Angstroem

   l    n(q)    QCUT    max X(q) W(low)/X(q) W(high)/X(q)  e(spline)
   0      7    11.635    20.381    0.14E-03    0.49E-03    0.18E-06
   0      7    11.635    15.268    0.16E-03    0.52E-03    0.19E-06
   1      7    11.635     5.964    0.30E-03    0.44E-03    0.22E-06
   1      7    11.635     5.382    0.27E-03    0.34E-03    0.19E-06
  PAW_PBE C 08Apr2002                   :
  PAW_PBE H 15Jun2001                   :
  PAW_PBE Mg_pv 13Apr2007               :
  PAW_PBE O 08Apr2002                   :

 POSCAR:  C  H Mg  O
  positions in direct lattice
 exchange correlation table for  LEXCH =        8
   RHO(1)=    0.500       N(1)  =     2000
   RHO(2)=  100.500       N(2)  =     4000

 ion  position               nearest neighbor table
   1  0.504  0.498  0.743-   5 1.10   3 1.10   4 1.10   2 1.53
   2  0.675  0.499  0.774-   6 1.10   8 1.10   7 1.10   1 1.53
   3  0.482  0.392  0.707-   1 1.10
   4  0.479  0.604  0.708-   1 1.10
   5  0.418  0.495  0.792-   1 1.10
   6  0.759  0.502  0.724-   2 1.10
   7  0.701  0.394  0.809-   2 1.10
   8  0.698  0.604  0.811-   2 1.10
   9  0.000  0.750  0.189-  43 2.11  44 2.11  51 2.11  60 2.11  41 2.11
  10  0.250  0.000  0.189-  43 2.11  44 2.11  52 2.11  59 2.11  42 2.11
  11  0.000  0.000  0.313-  41 2.11  42 2.11  49 2.11  58 2.11  43 2.11  47 2.12
  12  0.250  0.750  0.313-  41 2.11  42 2.11  50 2.11  57 2.11  44 2.11  48 2.12
  13  1.000  0.750  0.438-  64 2.11  48 2.11  55 2.11  47 2.11  41 2.12  45 2.15
  14  0.250  1.000  0.438-  48 2.11  56 2.11  63 2.11  47 2.11  42 2.12  46 2.15
  15  1.000  1.000  0.562-  46 2.11  62 2.11  47 2.11  45 2.11  53 2.11
  16  0.250  0.750  0.562-  48 2.11  54 2.11  45 2.11  46 2.11  61 2.11
  17  0.000  0.250  0.189-  43 2.11  51 2.11  52 2.11  68 2.11  49 2.11
  18  0.250  0.500  0.189-  44 2.11  51 2.11  52 2.11  67 2.11  50 2.11
  19  0.000  0.500  0.313-  41 2.11  49 2.11  50 2.11  66 2.11  51 2.11  55 2.12
  20  0.250  0.250  0.313-  42 2.11  49 2.11  50 2.11  65 2.11  52 2.11  56 2.12
  21  1.000  0.250  0.438-  72 2.11  56 2.11  55 2.11  47 2.11  49 2.12  53 2.15
  22  0.250  0.500  0.439-  71 2.11  56 2.11  48 2.11  55 2.11  50 2.13  54 2.15
  23  0.000  0.500  0.562-  54 2.11  55 2.11  70 2.11  45 2.11  53 2.11
  24  0.250  0.250  0.562-  56 2.11  53 2.11  54 2.11  46 2.11  69 2.11
  25  0.500  0.750  0.189-  44 2.11  59 2.11  60 2.11  67 2.11  57 2.11
  26  0.750  0.000  0.189-  43 2.11  59 2.11  60 2.11  68 2.11  58 2.11
  27  0.500  0.000  0.313-  42 2.11  57 2.11  58 2.11  65 2.11  59 2.11  63 2.12
  28  0.750  0.750  0.313-  41 2.11  57 2.11  58 2.11  66 2.11  60 2.11  64 2.12
  29  0.500  0.750  0.439-  71 2.11  64 2.11  48 2.11  63 2.11  57 2.13  61 2.15
  30  0.750  1.000  0.438-  64 2.11  72 2.11  47 2.11  63 2.11  58 2.13  62 2.15
  31  0.500  1.000  0.562-  69 2.11  61 2.11  63 2.11  46 2.11  62 2.11
  32  0.750  0.750  0.562-  64 2.11  45 2.11  62 2.11  70 2.11  61 2.11
  33  0.500  0.250  0.189-  52 2.11  59 2.11  67 2.11  68 2.11  65 2.11
  34  0.750  0.500  0.189-  51 2.11  60 2.11  67 2.11  68 2.11  66 2.11
  35  0.500  0.500  0.313-  50 2.11  57 2.11  65 2.11  66 2.11  67 2.11  71 2.12
  36  0.750  0.250  0.313-  49 2.11  58 2.11  65 2.11  66 2.11  68 2.11  72 2.12
  37  0.500  0.250  0.439-  71 2.11  72 2.11  56 2.11  63 2.11  65 2.13  69 2.15
  38  0.750  0.500  0.439-  71 2.11  72 2.11  64 2.11  55 2.11  66 2.13  70 2.15
  39  0.500  0.500  0.563-  54 2.11  61 2.11  69 2.11  70 2.11  71 2.12
  40  0.750  0.250  0.562-  72 2.11  53 2.11  62 2.11  70 2.11  69 2.11
  41  0.000  0.750  0.313-  11 2.11  12 2.11  19 2.11  28 2.11   9 2.11  13 2.12
  42  0.250  0.000  0.313-  11 2.11  12 2.11  20 2.11  27 2.11  10 2.11  14 2.12
  43  0.000  0.000  0.189-   9 2.11  10 2.11  17 2.11  26 2.11  11 2.11
  44  0.250  0.750  0.189-   9 2.11  10 2.11  18 2.11  25 2.11  12 2.11
  45  1.000  0.750  0.565-  32 2.11  16 2.11  23 2.11  15 2.11  13 2.15
  46  0.250  1.000  0.565-  15 2.11  31 2.11  24 2.11  16 2.11  14 2.15
  47  1.000  1.000  0.438-  30 2.11  13 2.11  21 2.11  14 2.11  15 2.11  11 2.12
  48  0.250  0.750  0.438-  16 2.11  14 2.11  13 2.11  29 2.11  22 2.11  12 2.12
  49  0.000  0.250  0.313-  11 2.11  19 2.11  20 2.11  36 2.11  17 2.11  21 2.12
  50  0.250  0.500  0.313-  12 2.11  19 2.11  20 2.11  35 2.11  18 2.11  22 2.13
  51  0.000  0.500  0.189-   9 2.11  17 2.11  18 2.11  34 2.11  19 2.11
  52  0.250  0.250  0.189-  10 2.11  17 2.11  18 2.11  33 2.11  20 2.11
  53  1.000  0.250  0.565-  40 2.11  24 2.11  23 2.11  15 2.11  21 2.15
  54  0.250  0.500  0.565-  23 2.11  16 2.11  24 2.11  39 2.11  22 2.15
  55  1.000  0.500  0.438-  23 2.11  21 2.11  13 2.11  38 2.11  22 2.11  19 2.12
  56  0.250  0.250  0.438-  24 2.11  14 2.11  21 2.11  37 2.11  22 2.11  20 2.12
  57  0.500  0.750  0.313-  12 2.11  27 2.11  28 2.11  35 2.11  25 2.11  29 2.13
  58  0.750  0.000  0.313-  11 2.11  27 2.11  28 2.11  36 2.11  26 2.11  30 2.13
  59  0.500  0.000  0.189-  10 2.11  25 2.11  26 2.11  33 2.11  27 2.11
  60  0.750  0.750  0.189-   9 2.11  25 2.11  26 2.11  34 2.11  28 2.11
  61  0.500  0.750  0.565-  31 2.11  32 2.11  16 2.11  39 2.11  29 2.15
  62  0.750  1.000  0.565-  40 2.11  15 2.11  32 2.11  31 2.11  30 2.15
  63  0.500  1.000  0.438-  31 2.11  30 2.11  14 2.11  29 2.11  37 2.11  27 2.12
  64  0.750  0.750  0.438-  32 2.11  30 2.11  13 2.11  29 2.11  38 2.11  28 2.12
  65  0.500  0.250  0.313-  20 2.11  27 2.11  35 2.11  36 2.11  33 2.11  37 2.13
  66  0.750  0.500  0.313-  19 2.11  28 2.11  35 2.11  36 2.11  34 2.11  38 2.13
  67  0.500  0.500  0.189-  18 2.11  25 2.11  33 2.11  34 2.11  35 2.11
  68  0.750  0.250  0.189-  17 2.11  26 2.11  33 2.11  34 2.11  36 2.11
  69  0.500  0.250  0.565-  31 2.11  40 2.11  24 2.11  39 2.11  37 2.15
  70  0.750  0.500  0.565-  23 2.11  32 2.11  40 2.11  39 2.11  38 2.15
  71  0.500  0.500  0.438-  38 2.11  29 2.11  37 2.11  22 2.11  39 2.12  35 2.12
  72  0.750  0.250  0.438-  40 2.11  30 2.11  21 2.11  37 2.11  38 2.11  36 2.12

IMPORTANT INFORMATION: All symmetrisations will be switched off!
NOSYMM: (Re-)initialisation of all symmetry stuff for point group C_1.

                                     Primitive cell

  volume of cell :    1211.2538

  direct lattice vectors                    reciprocal lattice vectors
     8.440984654  0.000000000  0.000000000     0.118469591  0.000000000  0.000000000
     0.000000000  8.440984654  0.000000000     0.000000000  0.118469591  0.000000000
     0.000000000  0.000000000 17.000000000     0.000000000  0.000000000  0.058823529

  length of vectors
     8.440984654  8.440984654 17.000000000     0.118469591  0.118469591  0.058823529

  position of ions in fractional coordinates (direct lattice)
     0.504442512  0.497603211  0.743410718
     0.675427142  0.499371115  0.773615542
     0.481946286  0.392260978  0.706770344
     0.478809683  0.604144071  0.708156302
     0.417859844  0.495031697  0.791753827
     0.759160533  0.502033602  0.724065079
     0.701478841  0.393602621  0.809133108
     0.698200527  0.603760305  0.810658094
     0.000007636  0.750031286  0.189341906
     0.250007636  0.000031286  0.189341906
     0.000007636  0.000031286  0.313474033
     0.250007636  0.750031286  0.313474033
     0.999976970  0.749963850  0.438457003
     0.249986644  0.999964140  0.438470494
     0.999992364  0.999910906  0.562348157
     0.249873245  0.749845785  0.562202626
     0.000007636  0.250031286  0.189341906
     0.250007636  0.500031286  0.189341906
     0.000007636  0.500031286  0.313474033
     0.250007636  0.250031286  0.313474033
     0.999977352  0.249980617  0.438453686
     0.250127274  0.499963970  0.438535724
     0.000145226  0.499923750  0.562114841
     0.249869118  0.249973003  0.562195641
     0.500007636  0.750031286  0.189341906
     0.750007636  0.000031286  0.189341906
     0.500007636  0.000031286  0.313474033
     0.750007636  0.750031286  0.313474033
     0.499991240  0.749815526  0.438527908
     0.749986537  0.999961265  0.438479227
     0.499961494  0.999896839  0.562145227
     0.750043134  0.749924142  0.562250345
     0.500007636  0.250031286  0.189341906
     0.750007636  0.500031286  0.189341906
     0.500007636  0.500031286  0.313474033
     0.750007636  0.250031286  0.313474033
     0.499993003  0.250082768  0.438527210
     0.749860656  0.499960669  0.438562571
     0.499843564  0.499898967  0.563085918
     0.750058171  0.249889399  0.562241868
     0.000007636  0.750031286  0.313474033
     0.250007636  0.000031286  0.313474033
     0.000007636  0.000031286  0.189341906
[...]
  Total     -21.33792   -21.31648     3.53922    -0.00337     0.08241     0.06009
  in kB     -28.22459   -28.19622     4.68148    -0.00446     0.10901     0.07948

 VOLUME and BASIS-vectors are now :
  energy-cutoff  :      520.00
  volume of cell :     1211.25
      direct lattice vectors                 reciprocal lattice vectors
     8.440984654  0.000000000  0.000000000     0.118469591  0.000000000  0.000000000
     0.000000000  8.440984654  0.000000000     0.000000000  0.118469591  0.000000000
     0.000000000  0.000000000 17.000000000     0.000000000  0.000000000  0.058823529

  length of vectors
     8.440984654  8.440984654 17.000000000     0.118469591  0.118469591  0.058823529

 FORCES acting on ions
    electron-ion (+dipol)            ewald-force                    non-local-force                 convergence-correction
   0.690E+02 0.735E+00 -.577E+03   -.689E+02 -.748E+00 0.577E+03   -.383E-01 0.708E-02 -.174E+00   -.140E-03 -.445E-05 -.734E-03
   -.692E+02 -.734E+00 -.495E+03   0.695E+02 0.746E+00 0.494E+03   -.413E+00 -.160E-01 0.191E+00   0.754E-03 0.111E-04 0.135E-03
   0.181E+02 0.464E+02 -.155E+03   -.190E+02 -.508E+02 0.152E+03   0.973E+00 0.446E+01 0.301E+01   -.519E-04 -.149E-03 -.357E-03
   0.194E+02 -.467E+02 -.155E+03   -.205E+02 0.512E+02 0.152E+03   0.110E+01 -.450E+01 0.289E+01   -.571E-04 0.155E-03 -.353E-03
   0.456E+02 0.122E+01 -.137E+03   -.492E+02 -.133E+01 0.141E+03   0.366E+01 0.108E+00 -.406E+01   -.227E-03 -.580E-05 0.328E-03
   -.448E+02 -.127E+01 -.131E+03   0.484E+02 0.138E+01 0.127E+03   -.353E+01 -.110E+00 0.424E+01   -.952E-05 -.132E-05 -.105E-03
   -.195E+02 0.463E+02 -.113E+03   0.207E+02 -.507E+02 0.116E+03   -.113E+01 0.442E+01 -.301E+01   0.345E-04 0.117E-04 0.186E-03
   -.181E+02 -.459E+02 -.112E+03   0.191E+02 0.503E+02 0.115E+03   -.993E+00 -.437E+01 -.314E+01   0.347E-04 -.963E-05 0.193E-03
   -.743E+00 -.131E+01 0.170E+04   0.742E+00 0.131E+01 -.170E+04   0.186E-03 0.799E-03 -.706E+01   0.192E-03 0.473E-03 -.257E-02
   0.798E+00 0.134E-01 0.170E+04   -.799E+00 -.137E-01 -.170E+04   0.901E-03 0.358E-03 -.707E+01   -.109E-03 0.551E-04 -.272E-02
   -.415E+00 0.128E-01 0.581E+03   0.415E+00 -.151E-01 -.582E+03   0.548E-03 0.156E-02 0.505E+00   -.744E-05 0.569E-05 -.155E-02
   0.798E+00 -.111E+01 0.583E+03   -.796E+00 0.110E+01 -.583E+03   -.128E-02 0.167E-02 0.493E+00   -.707E-04 0.542E-04 -.146E-02
   -.164E+01 -.417E+01 -.527E+03   0.164E+01 0.416E+01 0.528E+03   0.184E-02 0.556E-02 -.229E+00   0.512E-05 0.463E-04 -.135E-02
   0.285E+01 0.598E-01 -.530E+03   -.285E+01 -.602E-01 0.530E+03   -.225E-02 0.365E-03 -.232E+00   0.502E-04 0.453E-06 -.136E-02
   -.460E+01 0.102E+00 -.165E+04   0.460E+01 -.100E+00 0.164E+04   -.267E-02 -.401E-03 0.598E+01   -.912E-04 0.460E-04 -.170E-02
   0.170E+02 -.197E+02 -.163E+04   -.171E+02 0.197E+02 0.162E+04   0.542E-01 0.204E-01 0.602E+01   0.855E-04 -.294E-03 -.149E-02
   -.743E+00 0.131E+01 0.170E+04   0.742E+00 -.131E+01 -.170E+04   0.262E-03 -.189E-03 -.707E+01   0.198E-03 -.471E-03 -.253E-02
   0.103E+01 -.140E-01 0.170E+04   -.103E+01 0.139E-01 -.169E+04   0.208E-03 0.282E-03 -.707E+01   0.118E-03 -.603E-04 -.240E-02
   -.502E+00 -.270E-01 0.583E+03   0.499E+00 0.248E-01 -.583E+03   0.245E-02 0.151E-02 0.466E+00   0.463E-04 -.187E-04 -.135E-02
   0.792E+00 0.110E+01 0.583E+03   -.791E+00 -.110E+01 -.583E+03   -.867E-03 0.172E-02 0.492E+00   -.862E-04 -.529E-04 -.152E-02
   -.165E+01 0.418E+01 -.527E+03   0.165E+01 -.418E+01 0.528E+03   0.183E-02 -.593E-02 -.231E+00   0.500E-04 -.296E-04 -.128E-02
   0.440E+01 -.570E-01 -.520E+03   -.437E+01 0.576E-01 0.521E+03   -.289E-01 -.324E-03 -.394E+00   0.122E-04 -.345E-05 -.108E-02
   -.113E+02 -.900E-01 -.162E+04   0.114E+02 0.913E-01 0.162E+04   -.875E-01 -.155E-02 0.601E+01   0.957E-04 -.684E-04 -.131E-02
   0.172E+02 0.197E+02 -.163E+04   -.173E+02 -.197E+02 0.162E+04   0.618E-01 -.208E-01 0.602E+01   -.414E-04 0.295E-03 -.151E-02
   0.748E+00 -.154E+01 0.170E+04   -.747E+00 0.154E+01 -.169E+04   0.468E-05 0.154E-02 -.707E+01   -.155E-03 0.209E-03 -.239E-02
   -.801E+00 0.134E-01 0.170E+04   0.802E+00 -.136E-01 -.170E+04   -.708E-03 0.279E-03 -.707E+01   0.854E-04 0.574E-04 -.252E-02
   0.409E+00 0.102E-01 0.583E+03   -.410E+00 -.140E-01 -.583E+03   0.577E-03 0.248E-02 0.477E+00   -.339E-04 -.850E-05 -.161E-02
   -.801E+00 -.120E+01 0.583E+03   0.797E+00 0.119E+01 -.583E+03   0.255E-02 0.377E-02 0.501E+00   0.728E-04 0.828E-04 -.137E-02
   0.166E+01 -.571E+01 -.520E+03   -.165E+01 0.568E+01 0.521E+03   -.139E-02 0.293E-01 -.274E+00   -.371E-04 0.440E-04 -.118E-02
   -.284E+01 0.643E-01 -.528E+03   0.284E+01 -.645E-01 0.528E+03   0.315E-03 0.381E-03 -.230E+00   0.929E-06 -.435E-04 -.128E-02
   0.465E+01 0.330E+00 -.163E+04   -.465E+01 -.329E+00 0.163E+04   0.242E-02 -.152E-02 0.598E+01   0.884E-04 -.675E-04 -.149E-02
   -.172E+02 -.269E+02 -.162E+04   0.172E+02 0.269E+02 0.161E+04   -.490E-01 -.389E-01 0.602E+01   -.515E-04 -.931E-04 -.145E-02
   0.748E+00 0.154E+01 0.170E+04   -.747E+00 -.154E+01 -.169E+04   -.754E-04 -.843E-03 -.707E+01   -.170E-03 -.218E-03 -.240E-02
   -.104E+01 -.140E-01 0.170E+04   0.104E+01 0.138E-01 -.169E+04   -.396E-04 0.355E-03 -.707E+01   -.194E-03 -.359E-04 -.220E-02
   0.499E+00 -.197E-01 0.584E+03   -.497E+00 0.170E-01 -.584E+03   -.176E-02 0.164E-02 0.524E+00   -.302E-04 0.190E-04 -.172E-02
   -.795E+00 0.118E+01 0.583E+03   0.792E+00 -.118E+01 -.583E+03   0.204E-02 -.240E-03 0.500E+00   0.107E-03 -.856E-04 -.145E-02
   0.166E+01 0.569E+01 -.520E+03   -.166E+01 -.566E+01 0.520E+03   -.153E-02 -.287E-01 -.281E+00   -.826E-04 -.516E-04 -.123E-02
   -.443E+01 -.634E-01 -.517E+03   0.440E+01 0.645E-01 0.517E+03   0.313E-01 -.614E-03 -.331E+00   -.475E-05 0.327E-04 -.124E-02
   0.120E+02 -.507E+00 -.156E+04   -.121E+02 0.521E+00 0.155E+04   0.742E-01 -.101E-01 0.577E+01   -.163E-03 0.627E-04 -.963E-03
   -.174E+02 0.269E+02 -.162E+04   0.175E+02 -.270E+02 0.161E+04   -.564E-01 0.384E-01 0.603E+01   0.784E-04 0.964E-04 -.141E-02
   -.341E+00 -.864E+00 0.436E+03   0.343E+00 0.861E+00 -.436E+03   -.291E-02 0.122E-02 -.145E+00   0.290E-04 0.898E-04 -.784E-03
   0.580E+00 0.860E-02 0.436E+03   -.575E+00 -.523E-02 -.436E+03   -.726E-02 -.766E-02 -.151E+00   -.167E-04 0.299E-05 -.893E-03
   -.478E+00 0.978E-02 0.128E+04   0.478E+00 -.970E-02 -.128E+04   -.177E-03 0.316E-03 0.345E+01   0.112E-03 0.200E-04 -.288E-02
   0.683E+00 -.986E+00 0.128E+04   -.683E+00 0.985E+00 -.128E+04   0.327E-03 0.100E-02 0.344E+01   -.124E-03 0.182E-03 -.255E-02
   -.594E+01 -.117E+02 -.125E+04   0.594E+01 0.117E+02 0.125E+04   -.247E-02 0.169E-01 -.505E+01   -.212E-04 -.116E-03 -.224E-02
   0.732E+01 0.147E+00 -.125E+04   -.730E+01 -.150E+00 0.126E+04   -.171E-01 0.706E-02 -.505E+01   0.317E-04 -.117E-04 -.239E-02
   -.985E+00 0.293E-01 -.394E+03   0.986E+00 -.275E-01 0.393E+03   -.881E-03 -.255E-02 0.229E+00   -.188E-04 -.613E-05 -.148E-02
   0.266E+01 -.339E+01 -.389E+03   -.265E+01 0.337E+01 0.389E+03   -.529E-02 0.203E-01 0.251E+00   0.116E-04 -.916E-05 -.141E-02
   -.342E+00 0.856E+00 0.436E+03   0.344E+00 -.847E+00 -.436E+03   -.283E-02 -.154E-01 -.145E+00   0.258E-04 -.797E-04 -.818E-03
   0.644E+00 -.196E-01 0.437E+03   -.654E+00 0.229E-01 -.437E+03   0.136E-01 -.745E-02 -.159E+00   0.264E-04 -.280E-05 -.834E-03
   -.638E+00 -.969E-02 0.128E+04   0.637E+00 0.979E-02 -.128E+04   0.965E-03 0.340E-03 0.345E+01   0.193E-03 -.186E-04 -.234E-02
   0.684E+00 0.986E+00 0.128E+04   -.684E+00 -.985E+00 -.128E+04   0.411E-03 -.374E-03 0.344E+01   -.127E-03 -.188E-03 -.258E-02
   -.595E+01 0.117E+02 -.125E+04   0.596E+01 -.117E+02 0.125E+04   0.340E-03 -.669E-02 -.505E+01   -.195E-04 0.123E-03 -.222E-02
   0.211E+02 -.168E+00 -.122E+04   -.210E+02 0.166E+00 0.123E+04   -.100E+00 0.453E-02 -.514E+01   0.204E-03 -.379E-06 -.198E-02
   -.146E+01 -.449E-01 -.387E+03   0.147E+01 0.450E-01 0.387E+03   -.102E-01 -.218E-03 0.249E+00   0.612E-05 -.860E-05 -.136E-02
   0.266E+01 0.339E+01 -.389E+03   -.266E+01 -.337E+01 0.389E+03   -.448E-02 -.202E-01 0.251E+00   -.150E-05 0.169E-04 -.142E-02
   0.337E+00 -.931E+00 0.437E+03   -.337E+00 0.944E+00 -.437E+03   -.194E-03 -.203E-01 -.155E+00   -.301E-04 0.540E-04 -.856E-03
   -.583E+00 0.889E-02 0.436E+03   0.579E+00 -.537E-02 -.436E+03   0.453E-02 -.786E-02 -.150E+00   0.454E-04 0.209E-05 -.830E-03
   0.480E+00 0.109E-01 0.128E+04   -.480E+00 -.109E-01 -.128E+04   0.316E-03 0.327E-03 0.344E+01   -.111E-03 0.130E-04 -.261E-02
   -.687E+00 -.115E+01 0.128E+04   0.687E+00 0.115E+01 -.128E+04   -.172E-03 0.218E-02 0.344E+01   0.673E-04 0.214E-03 -.229E-02
   0.604E+01 -.260E+02 -.122E+04   -.604E+01 0.259E+02 0.122E+04   -.178E-02 0.879E-01 -.502E+01   0.121E-05 -.300E-03 -.193E-02
   -.737E+01 0.162E+00 -.125E+04   0.735E+01 -.165E+00 0.125E+04   0.155E-01 0.874E-02 -.506E+01   -.557E-04 -.460E-05 -.231E-02
   0.977E+00 0.625E-01 -.389E+03   -.980E+00 -.647E-01 0.389E+03   0.290E-02 0.239E-02 0.266E+00   -.428E-04 -.237E-04 -.144E-02
   -.267E+01 -.389E+01 -.387E+03   0.266E+01 0.387E+01 0.386E+03   0.407E-02 0.125E-01 0.254E+00   0.367E-04 0.291E-04 -.138E-02
   0.338E+00 0.915E+00 0.437E+03   -.338E+00 -.919E+00 -.437E+03   -.557E-04 0.306E-02 -.154E+00   -.438E-04 -.565E-04 -.881E-03
   -.647E+00 -.208E-01 0.437E+03   0.658E+00 0.243E-01 -.437E+03   -.148E-01 -.768E-02 -.164E+00   -.327E-04 -.694E-05 -.740E-03
   0.644E+00 -.106E-01 0.128E+04   -.643E+00 0.108E-01 -.128E+04   -.866E-03 0.202E-03 0.344E+01   -.136E-03 -.260E-05 -.216E-02
   -.688E+00 0.115E+01 0.128E+04   0.688E+00 -.115E+01 -.128E+04   -.243E-03 -.158E-02 0.344E+01   0.887E-04 -.236E-03 -.231E-02
   0.607E+01 0.261E+02 -.122E+04   -.607E+01 -.260E+02 0.122E+04   -.966E-03 -.832E-01 -.501E+01   0.147E-04 0.301E-03 -.194E-02
   -.216E+02 -.179E+00 -.120E+04   0.216E+02 0.176E+00 0.121E+04   0.754E-01 0.481E-02 -.505E+01   -.159E-03 0.692E-05 -.179E-02
   0.148E+01 -.342E-01 -.382E+03   -.149E+01 0.310E-01 0.382E+03   0.815E-02 0.252E-02 0.490E-01   -.385E-04 0.255E-04 -.135E-02
   -.267E+01 0.389E+01 -.387E+03   0.266E+01 -.388E+01 0.386E+03   0.369E-02 -.110E-01 0.255E+00   0.468E-04 -.228E-04 -.137E-02
   0.421E+00 -.866E-02 0.189E+02   -.693E-12 0.139E-12 -.523E-11   -.409E+00 -.122E-01 -.193E+02   0.257E-03 -.281E-04 -.108E+00

 POSITION                                       TOTAL-FORCE (eV/Angst)
      4.25799      4.20026     12.63798         0.094934     -0.005206      0.086792
      5.70127      4.21518     13.15146        -0.093878     -0.003676      0.024550
      4.06810      3.31107     12.01510        -0.009140     -0.012427      0.015267
      4.04163      5.09957     12.03866        -0.009668      0.008514      0.015392
      3.52715      4.17855     13.45982         0.010090      0.000924     -0.017585
      6.40806      4.23766     12.30911         0.009836      0.000607      0.023812
      5.92117      3.32239     13.75526         0.007583      0.021264     -0.005834
      5.89350      5.09633     13.78119         0.010384     -0.020273     -0.008572
      0.00006      6.33100      3.21881        -0.000170      0.000153      0.328597
      2.11031      0.00026      3.21881        -0.000369      0.000423      0.329354
      0.00006      0.00026      5.32906        -0.000443     -0.000502      0.045039
      2.11031      6.33100      5.32906         0.000363     -0.001024      0.046649
      8.44079      6.33043      7.45377         0.000102     -0.000940      0.048479
      2.11013      8.44068      7.45400         0.000350      0.000256      0.047358
      8.44092      8.44023      9.55992        -0.000984      0.001578      0.029461
      2.10918      6.32944      9.55744        -0.007146      0.002712      0.026288
      0.00006      2.11051      3.21881        -0.000198      0.000738      0.328626
      2.11031      4.22076      3.21881        -0.000268      0.000461      0.329926
      0.00006      4.22076      5.32906        -0.000903     -0.000464      0.048870
      2.11031      2.11051      5.32906         0.000258     -0.000160      0.046514
      8.44079      2.11008      7.45371         0.000232      0.000835      0.048841
      2.11132      4.22019      7.45511        -0.001920      0.000526      0.049124
      0.00123      4.21985      9.55595         0.007503      0.000001      0.028653
      2.10914      2.11002      9.55733        -0.008466     -0.000325      0.026410
      4.22056      6.33100      3.21881        -0.000078      0.000046      0.330031
      6.33080      0.00026      3.21881         0.000120      0.000450      0.329386
      4.22056      0.00026      5.32906        -0.000457     -0.000961      0.048702
      6.33080      6.33100      5.32906        -0.001438     -0.001807      0.046802
      4.22042      6.32918      7.45497        -0.000388      0.002302      0.047489
      6.33062      8.44066      7.45415        -0.000512      0.000348      0.047633
      4.22017      8.44011      9.55647         0.000422      0.000331      0.033544
      6.33110      6.33010      9.55826         0.005563      0.011294      0.021629
      4.22056      2.11051      3.21881        -0.000045      0.000819      0.329958
      6.33080      4.22076      3.21881        -0.000031      0.000424      0.329564
      4.22056      4.22076      5.32906         0.000419     -0.000704      0.053281
      6.33080      2.11051      5.32906        -0.001290      0.000533      0.046580
      4.22043      2.11094      7.45496        -0.000422     -0.000045      0.046481
      6.32956      4.22016      7.45556         0.001102      0.000786      0.044283
      4.21917      4.21964      9.57246        -0.010480      0.003402      0.041958
      6.33123      2.10931      9.55811         0.006901     -0.008382      0.021291
      0.00006      6.33100      5.32906        -0.000915     -0.001590      0.056183
      2.11031      0.00026      5.32906        -0.001989     -0.004026      0.055404
      0.00006      0.00026      3.21881        -0.000183      0.000704     -0.535872
      2.11031      6.33100      3.21881         0.000082      0.000790     -0.536202
      8.44051      6.32978      9.60579        -0.003879      0.004930      0.015845
      2.10979      8.44024      9.60586         0.003005      0.004680      0.015361
      8.44074      8.44072      7.44906         0.000140     -0.000409      0.009151
      2.10995      6.33108      7.44854         0.000854      0.000759      0.007705
      0.00006      2.11051      5.32906        -0.000897     -0.006173      0.055888
      2.11031      4.22076      5.32906         0.003646     -0.003948      0.059030
      0.00006      4.22076      3.21881         0.000087      0.000710     -0.535801
      2.11031      2.11051      3.21881         0.000108      0.000614     -0.536224
      8.44053      2.10979      9.60563        -0.000324      0.003900      0.015964
      2.10787      4.21974      9.60038        -0.012346      0.002774     -0.012431
      8.44074      4.22024      7.44750        -0.003339      0.000178      0.005180
      2.10988      2.10931      7.44846         0.001728     -0.000814      0.007908
      4.22056      6.33100      5.32906        -0.000036     -0.007417      0.059215
      6.33080      0.00026      5.32906         0.001143     -0.004068      0.056422
      4.22056      0.00026      3.21881         0.000042      0.000708     -0.536542
      6.33080      6.33100      3.21881        -0.000214      0.001091     -0.536260
      4.22041      6.33259      9.60494        -0.001758      0.015144     -0.000387
      6.33080      8.44022      9.60644        -0.002376      0.005888      0.008527
      4.22046      8.44054      7.44788         0.000082      0.000446      0.009727
      6.33078      6.33100      7.44892        -0.001755     -0.002002      0.010767
      4.22056      2.11051      5.32906        -0.000002     -0.001052      0.059469
      6.33080      4.22076      5.32906        -0.004189     -0.004004      0.059846
      4.22056      4.22076      3.21881        -0.000231      0.000666     -0.536487
      6.33080      2.11051      3.21881        -0.000234      0.000305     -0.536219
      4.22047      2.10650      9.60436        -0.001603     -0.014877     -0.000342
      6.33249      4.21973      9.60317         0.018259      0.001535     -0.023082
      4.22062      4.22016      7.45169         0.002134     -0.000422     -0.013233
      6.33087      2.10935      7.44884        -0.002507      0.002154      0.010864
    total drift:                                0.011909     -0.020941     -0.505984

  FREE ENERGIE OF THE ION-ELECTRON SYSTEM (eV)
  free  energy   TOTEN  =      -416.38413816 eV

  energy  without entropy=     -416.38413816  energy(sigma->0) =     -416.38413816

 writing wavefunctions