 vasp.6.3.0 20Jan22 (build Mar 11 2022 13:48:16) complex

 executed on             LinuxIFC date 2024.02.25  05:29:30

 INCAR:
   SYSTEM = Oxide-Surface
   ISMEAR = 0
   SIGMA = 0.05
   EDIFF = 1E-5
   ALGO = ALL
   ISTART = 0
   IBRION = -1
   NSW = 0
   ISYM = 0
   DIPOL = 0.5 0.5 0.5
   IDIPOL = 3
   LDIPOL = .TRUE.
   GGA = PE
   IVDW = 263
   ENCUT = 600
   PREC = Accurate
   LASPH = .TRUE.
   LREAL = .FALSE.
   ISPIN = 1
   NELM = 200
   NELMIN = 8
   NCORE = 19
   KPAR = 1
   LWAVE = .FALSE.
   LCHARG = .FALSE.

 POTCAR:    PAW_PBE Ti_pv 07Sep2000
 POTCAR:    PAW_PBE O 08Apr2002
 POTCAR:    PAW_PBE Ti_pv 07Sep2000
   VRHFIN =Ti: d3 s1

   TITEL  = PAW_PBE Ti_pv 07Sep2000
   POMASS =   47.880; ZVAL   =   10.000    mass and valenz
   ENMAX  =  222.335; ENMIN  =  166.751 eV

   TITEL  = PAW_PBE O 08Apr2002
   POMASS =   16.000; ZVAL   =    6.000    mass and valenz
   ENMAX  =  400.000; ENMIN  =  300.000 eV

  PAW_PBE Ti_pv 07Sep2000               :
  PAW_PBE O 08Apr2002                   :

 POSCAR: Ti  O
  positions in direct lattice
 exchange correlation table for  LEXCH =        8
   RHO(1)=    0.500       N(1)  =     2000
   RHO(2)=  100.500       N(2)  =     4000

 ion  position               nearest neighbor table
   1  0.808  0.833  0.295-  85 1.94  51 1.94  53 1.94  50 1.99  52 1.99  18 3.05   4 3.05   2 3.05

   2  0.592  0.667  0.327-  49 1.94 116 1.94  52 1.94  54 1.94  53 1.99  55 1.99  33 3.05   3 3.05
                             1 3.05   7 3.08
   3  0.308  0.667  0.295- 121 1.94  55 1.94  57 1.94  49 1.99  56 1.99  36 3.05   2 3.05   4 3.05

   4  0.092  0.833  0.327-  50 1.94  88 1.94  56 1.94  58 1.94  57 1.99  51 1.99  19 3.05   1 3.05
                             3 3.05   5 3.08
   5  0.944  0.833  0.423-  59 1.92  93 1.93  61 1.93  51 1.98  60 1.98  58 2.00   8 3.00   6 3.05
                            22 3.05   4 3.08
   6  0.726  0.666  0.451-  54 1.89 124 1.93  60 1.94  62 1.96  63 1.99  61 2.00   7 3.01   5 3.05
                            37 3.05  11 3.11
   7  0.444  0.666  0.423-  63 1.93 129 1.93  65 1.94  55 1.97  64 1.98  54 2.01   6 3.01   8 3.05
                            40 3.05   2 3.08
   8  0.225  0.833  0.452-  58 1.89  96 1.94  64 1.94  66 1.97  59 1.98  65 2.01   5 3.00  23 3.05
                             7 3.05   9 3.11
   9  0.085  0.833  0.550-  67 1.92 101 1.93  69 1.93  68 1.97  59 2.00  66 2.01  12 2.95  10 3.04
                            26 3.05   8 3.11
  10  0.865  0.666  0.576-  62 1.86 132 1.93  68 1.95  71 1.95  69 2.01  70 2.01  11 2.97   9 3.04
                            41 3.06  15 3.17
  11  0.584  0.666  0.550- 137 1.93  73 1.93  71 1.93  72 1.98  63 1.98  62 2.01  10 2.97  12 3.05
                            44 3.06   6 3.11
  12  0.363  0.833  0.576-  66 1.86 104 1.94  72 1.94  67 1.95  74 2.00  73 2.02   9 2.95  11 3.05
                            27 3.05
  13  0.231  0.833  0.680-  75 1.86  77 1.93 109 1.94  76 2.00  67 2.09  74 2.10  16 2.85  30 3.07
                            14 3.08
  14  0.001  0.666  0.700-  70 1.78  78 1.84 140 1.97  76 1.99  77 2.07  15 2.86  13 3.08  45 3.10

[...]

  17  0.808  0.167  0.295-  85 1.94  83 1.94 117 1.94  82 1.99  84 1.99  18 3.05  20 3.05  34 3.05

[...]

  36  0.092  0.500  0.327- 114 1.94  56 1.94 120 1.94 122 1.94 121 1.99 115 1.99  35 3.05   3 3.05
                            33 3.05  37 3.07
  37  0.946  0.500  0.422- 123 1.92  61 1.94 125 1.94 115 1.97 122 1.99 124 2.00  40 2.99   6 3.05
                            38 3.05  36 3.07
  38  0.726  0.334  0.451- 118 1.89 124 1.93  92 1.94 126 1.96 127 1.99 125 2.00  39 3.01  21 3.05
                            37 3.05  43 3.11
  39  0.444  0.334  0.423- 127 1.93 129 1.93  97 1.94 119 1.97 128 1.98 118 2.01  38 3.01  24 3.05
                            40 3.05  34 3.08
  40  0.226  0.500  0.453- 122 1.92  64 1.94 128 1.94 123 1.96 130 1.97 129 2.01  37 2.99   7 3.05
                            39 3.05  41 3.08
  41  0.088  0.500  0.550- 131 1.91 133 1.93  69 1.93 130 1.98 132 2.00 123 2.01  44 2.96  10 3.06
                            42 3.06  40 3.08
  42  0.865  0.334  0.576- 126 1.86 132 1.93 100 1.95 135 1.95 133 2.01 134 2.01  43 2.97  25 3.04
                            41 3.06  47 3.17
  43  0.584  0.334  0.550- 137 1.93 105 1.93 135 1.93 136 1.98 127 1.98 126 2.01  42 2.97  28 3.05
                            44 3.06  38 3.11
  44  0.365  0.500  0.580- 130 1.92  72 1.94 136 1.94 131 1.94 138 1.98 137 2.03  41 2.96  11 3.06
                            43 3.06  45 3.13
  45  0.235  0.500  0.681- 139 1.86 141 1.93  77 1.93 138 2.03 140 2.03 131 2.10  48 2.87  14 3.10
                            46 3.10  44 3.13
  46  0.001  0.334  0.700- 134 1.78 142 1.84 140 1.97 108 1.99 141 2.07  47 2.86  29 3.08  45 3.10

  47  0.729  0.333  0.678- 142 1.89 144 1.93 112 1.94 143 1.99 135 2.04 134 2.10  46 2.86  32 3.08
                            48 3.08  42 3.17
  48  0.506  0.500  0.706- 139 1.84 138 1.88  79 1.98 143 1.98 144 2.07  45 2.87  15 3.08  47 3.08

  49  0.488  0.667  0.269-   2 1.94   3 1.99
  50  0.988  0.833  0.269-   4 1.94   1 1.99
  51  0.911  0.833  0.353-   1 1.94   5 1.98   4 1.99
  52  0.627  0.833  0.321-  18 1.94   2 1.94   1 1.99
  53  0.772  0.667  0.300-  33 1.94   1 1.94   2 1.99
  54  0.624  0.667  0.395-   6 1.89   2 1.94   7 2.01
  55  0.411  0.667  0.353-   3 1.94   7 1.97   2 1.99
  56  0.127  0.667  0.321-  36 1.94   4 1.94   3 1.99
  57  0.272  0.833  0.300-  19 1.94   3 1.94   4 1.99
  58  0.124  0.833  0.395-   8 1.89   4 1.94   5 2.00
  59  0.049  0.833  0.480-   5 1.92   8 1.98   9 2.00
  60  0.764  0.833  0.448-  22 1.94   6 1.94   5 1.98
  61  0.909  0.667  0.427-   5 1.93  37 1.94   6 2.00
  62  0.763  0.666  0.520-  10 1.86   6 1.96  11 2.01
  63  0.549  0.666  0.480-   7 1.93  11 1.98   6 1.99
  64  0.264  0.667  0.448-  40 1.94   8 1.94   7 1.98
  65  0.408  0.833  0.427-  23 1.93   7 1.94   8 2.01
  66  0.263  0.833  0.521-  12 1.86   8 1.97   9 2.01
  67  0.192  0.833  0.607-   9 1.92  12 1.95  13 2.09
  68  0.903  0.833  0.573-  26 1.94  10 1.95   9 1.97
  69  0.050  0.667  0.553-   9 1.93  41 1.93  10 2.01
  70  0.913  0.667  0.645-  14 1.78  10 2.01  15 2.10
  71  0.693  0.668  0.606-  11 1.93  10 1.95  15 2.04
  72  0.404  0.667  0.575-  44 1.94  12 1.94  11 1.98
  73  0.549  0.833  0.553-  11 1.93  27 1.93  12 2.02
  74  0.412  0.836  0.646-  16 1.78  12 2.00  13 2.10
  75  0.347  0.833  0.732-  16 1.84  13 1.86
  76  0.052  0.833  0.709-  30 1.98  14 1.99  13 2.00
  77  0.195  0.666  0.681-  13 1.93  45 1.93  14 2.07
  78  0.843  0.664  0.731-  14 1.84  15 1.89
  79  0.553  0.669  0.707-  16 1.96  48 1.98  15 1.99
  80  0.696  0.834  0.679-  31 1.93  15 1.94  16 2.06
  81  0.488  0.000  0.269-  18 1.94  19 1.99
  82  0.988  0.167  0.269-  20 1.94  17 1.99
  83  0.911  0.167  0.353-  17 1.94  21 1.98  20 1.99
  84  0.627  0.167  0.321-  18 1.94  34 1.94  17 1.99
  85  0.772  0.000  0.300-   1 1.94  17 1.94  18 1.99
  86  0.624  0.000  0.395-  22 1.89  18 1.94  23 2.01
  87  0.411  0.000  0.353-  19 1.94  23 1.98  18 1.99
  88  0.127  0.000  0.321-   4 1.94  20 1.94  19 1.99
  89  0.272  0.167  0.300-  19 1.94  35 1.94  20 1.99
  90  0.124  0.167  0.395-  24 1.89  20 1.94  21 2.00
  91  0.049  0.167  0.480-  21 1.92  24 1.98  25 2.00
  92  0.764  0.167  0.448-  22 1.94  38 1.94  21 1.98
  93  0.909  0.000  0.427-  21 1.93   5 1.93  22 2.00
  94  0.763  0.000  0.520-  26 1.86  22 1.97  27 2.01
  95  0.549  1.000  0.480-  23 1.92  22 1.98  27 2.00
  96  0.264  0.000  0.448-   8 1.94  24 1.94  23 1.99
  97  0.408  0.167  0.427-  23 1.93  39 1.94  24 2.01
  98  0.263  0.167  0.521-  28 1.86  24 1.97  25 2.01
  99  0.192  0.167  0.607-  25 1.92  28 1.95  29 2.09
 100  0.903  0.167  0.573-  26 1.94  42 1.95  25 1.97
 101  0.051  0.000  0.553-   9 1.93  25 1.93  26 2.03
 102  0.913  0.000  0.646-  30 1.78  26 2.01  31 2.08
 103  0.693  1.000  0.606-  27 1.92  26 1.94  31 2.10
 104  0.403  0.000  0.573-  28 1.94  12 1.94  27 1.98
 105  0.549  0.167  0.553-  43 1.93  27 1.93  28 2.02
 106  0.412  0.164  0.646-  32 1.78  28 2.00  29 2.10
 107  0.347  0.167  0.732-  32 1.84  29 1.86
 108  0.052  0.167  0.709-  30 1.98  46 1.99  29 2.00
[...]
 130  0.265  0.500  0.522-  44 1.92  40 1.97  41 1.98
 131  0.192  0.500  0.607-  41 1.91  44 1.94  45 2.10
 132  0.903  0.500  0.573-  42 1.93  10 1.93  41 2.00
 133  0.050  0.333  0.553-  25 1.93  41 1.93  42 2.01
 134  0.913  0.333  0.645-  46 1.78  42 2.01  47 2.10
 135  0.693  0.332  0.606-  43 1.93  42 1.95  47 2.04
 136  0.404  0.333  0.575-  44 1.94  28 1.94  43 1.98
 137  0.550  0.500  0.554-  43 1.93  11 1.93  44 2.03
 138  0.412  0.500  0.648-  48 1.88  44 1.98  45 2.03
 139  0.345  0.500  0.734-  48 1.84  45 1.86
 140  0.052  0.500  0.709-  14 1.97  46 1.97  45 2.03
 141  0.195  0.334  0.681-  29 1.93  45 1.93  46 2.07
 142  0.843  0.336  0.731-  46 1.84  47 1.89
 143  0.553  0.331  0.707-  32 1.96  48 1.98  47 1.99
 144  0.693  0.500  0.678-  15 1.93  47 1.93  48 2.07

IMPORTANT INFORMATION: All symmetrisations will be switched off!
NOSYMM: (Re-)initialisation of all symmetry stuff for point group C_1.

                                     Primitive cell

  volume of cell :    3260.9117

  direct lattice vectors                    reciprocal lattice vectors
    10.273755933  0.000000000  0.000000000     0.097335386 -0.000000000  0.000000000
     0.000000000 11.368810418  0.000000000     0.000000000  0.087959950  0.000000000
     0.000000000  0.000000000 27.918672987     0.000000000  0.000000000  0.035818321

  length of vectors
    10.273755933 11.368810418 27.918672987     0.097335386  0.087959950  0.035818321

  position of ions in fractional coordinates (direct lattice)
     0.807806441  0.833333333  0.294980927
     0.591821331  0.666666667  0.326522323
     0.307806441  0.666666667  0.294980927
     0.091821331  0.833333333  0.326522323
     0.944470222  0.833365553  0.422621320
     0.726188711  0.666242110  0.451236925
     0.444020646  0.666435021  0.422505552
     0.225345679  0.833291647  0.451558282
     0.085207893  0.833458157  0.550245170
     0.864537392  0.666049808  0.575513820
     0.584131337  0.666489594  0.549510775
     0.363379700  0.833396839  0.576398729
     0.231027096  0.832650555  0.680365362
     0.000839242  0.665563877  0.700225126
     0.729499001  0.666506279  0.677803001
     0.502980314  0.834688342  0.700005936
     0.807806441  0.166666667  0.294980927
     0.591821331  0.000000000  0.326522323
     0.307806441  0.000000000  0.294980927
     0.091821331  0.166666667  0.326522323
     0.944470214  0.166634460  0.422621320
     0.725765220  0.999999998  0.451324700
     0.444200454  0.000000003  0.422603091
     0.225345679  0.166708357  0.451558284
     0.085207910  0.166541854  0.550245171
     0.863361311  0.000000013  0.576011458
     0.584764469  0.999999999  0.549872906
     0.363379695  0.166603175  0.576398732
     0.231027090  0.167349432  0.680365370
     0.003204531  0.999999989  0.700272405
     0.732698794  0.999999993  0.679817630
     0.502980307  0.165311650  0.700005930
     0.807806441  0.500000000  0.294980927
     0.591821331  0.333333333  0.326522323
[...]
   O          20.029          3.266          5.563          2.547          2.638          1.040
   O          19.941          3.265          5.555          2.488          2.459          1.039
   O          19.339          3.250          5.479          2.713          3.190          1.027
   O          19.909          3.263          5.545          2.703          3.153          1.036
   O          20.051          3.267          5.565          2.653          2.982          1.040
   O          19.569          3.256          5.511          2.725          3.229          1.033
   O          19.877          3.262          5.540          2.683          3.084          1.035
   O          20.088          3.268          5.570          2.624          2.884          1.041

  vdW correction parametrized for the method pbe

  IVDW = 263
  VDW_RADIUS =    50.000 A
  VDW_SR =     0.830
  VDW_D =     6.000
  SCSRAD =   120.000 A
  LVDWSCS = T
  LSCSGRAD = T
  LSCALER0 = T
  ITIM =  1
  Edisp (eV):  -34.77733

  FORCE on cell =-STRESS in cart. coord.  units (eV):
  Direction    XX          YY          ZZ          XY          YZ          ZX
  Alpha Z  2415.09386  2415.09386  2415.09386
  Ewald  488765.71305482299.47875************     0.00020    -0.00012 -1893.53506
  Hartree509726.49187505788.60899************     0.00011    -0.00008 -1278.05012
  E(xc)   -5148.20026 -5152.20008 -5159.12012     0.00000    -0.00000    -1.46058
  Local  ************************************    -0.00030     0.00022  3181.57165
  n-local -3259.62847 -3227.36251 -3271.69678     0.00000     0.00000     1.37389
  augment  3132.13104  3128.12677  3119.24073    -0.00000    -0.00001    -1.36344
  Kinetic 17021.52059 17079.85178 17129.06138    -0.00003    -0.00002   -16.62848
  Fock        0.00000     0.00000     0.00000     0.00000     0.00000     0.00000
  vdW       -44.79112   -57.30881   -44.60767    -0.00001     0.00000    -3.39731
  Total     -52.09895   -33.78771   -27.97132    -0.00002     0.00000   -11.48945
  in kB     -25.59768   -16.60085   -13.74309    -0.00001     0.00000    -5.64509

 VOLUME and BASIS-vectors are now :
  energy-cutoff  :      600.00
  volume of cell :     3260.91
      direct lattice vectors                 reciprocal lattice vectors
    10.273755933  0.000000000  0.000000000     0.097335386 -0.000000000  0.000000000
     0.000000000 11.368810418  0.000000000     0.000000000  0.087959950  0.000000000
     0.000000000  0.000000000 27.918672987     0.000000000  0.000000000  0.035818321

  length of vectors
    10.273755933 11.368810418 27.918672987     0.097335386  0.087959950  0.035818321

 FORCES acting on ions:
    Electron-Ion                     Ewald-Force                    Non-Local-Force
   0.656E+01 0.571E-01 0.337E+04   -.165E+01 -.559E-01 -.337E+04   -.109E+01 -.303E-03 -.332E+01
   0.482E+01 0.988E-02 0.277E+04   -.639E+01 -.738E-02 -.277E+04   -.833E-01 -.105E-02 -.435E-01
   0.641E+01 0.235E+00 0.337E+04   -.154E+01 -.239E+00 -.336E+04   -.109E+01 0.109E-02 -.332E+01
   0.355E+01 0.167E+00 0.277E+04   -.517E+01 -.172E+00 -.277E+04   -.755E-01 0.105E-02 -.490E-01
   -.499E+00 0.455E+00 0.125E+04   0.320E+00 -.449E+00 -.125E+04   0.182E+00 -.133E-02 0.212E-01
   0.661E+00 -.679E+00 0.778E+03   -.579E+00 0.674E+00 -.778E+03   -.478E-01 0.149E-01 -.155E+00
   0.613E+00 0.920E-01 0.125E+04   -.775E+00 -.866E-01 -.125E+04   0.173E+00 0.634E-02 0.328E-02
   -.546E+01 0.765E+00 0.773E+03   0.553E+01 -.758E+00 -.773E+03   -.283E-01 0.136E-02 -.160E+00
   -.469E+01 -.848E-01 -.809E+03   0.438E+01 0.912E-01 0.809E+03   0.309E+00 0.748E-02 0.118E+00
   -.692E+01 -.427E+00 -.121E+04   0.715E+01 0.463E+00 0.121E+04   -.119E+00 -.569E-02 -.278E+00
   0.573E+00 0.205E+01 -.793E+03   -.761E+00 -.200E+01 0.793E+03   0.255E+00 -.853E-02 0.960E-01
   -.495E+01 0.333E+01 -.123E+04   0.514E+01 -.326E+01 0.123E+04   -.119E+00 -.278E-01 -.312E+00
   0.211E+02 0.225E+00 -.281E+04   -.221E+02 -.144E+00 0.281E+04   0.960E+00 -.112E-01 -.171E+00
   -.679E+02 -.527E+01 -.321E+04   0.680E+02 0.517E+01 0.321E+04   -.102E-01 0.133E+00 0.651E+00
   0.120E+02 -.162E+01 -.278E+04   -.124E+02 0.182E+01 0.278E+04   0.817E+00 -.484E-01 -.482E-01
   -.719E+02 -.302E+01 -.321E+04   0.721E+02 0.328E+01 0.321E+04   -.659E-02 -.306E-01 0.647E+00
   0.656E+01 -.571E-01 0.337E+04   -.165E+01 0.559E-01 -.337E+04   -.109E+01 0.304E-03 -.332E+01
   0.478E+01 -.751E-05 0.277E+04   -.637E+01 0.566E-05 -.277E+04   -.779E-01 -.181E-05 -.497E-01
   0.634E+01 -.509E-05 0.337E+04   -.144E+01 0.316E-05 -.336E+04   -.109E+01 -.151E-05 -.332E+01
   0.355E+01 -.167E+00 0.277E+04   -.517E+01 0.172E+00 -.277E+04   -.755E-01 -.105E-02 -.490E-01
   -.499E+00 -.455E+00 0.125E+04   0.320E+00 0.449E+00 -.125E+04   0.182E+00 0.133E-02 0.212E-01
   -.171E+01 -.412E-04 0.776E+03   0.176E+01 0.388E-04 -.776E+03   -.153E-01 -.288E-06 -.164E+00
   0.752E+00 -.262E-04 0.125E+04   -.915E+00 0.211E-04 -.125E+04   0.172E+00 0.864E-07 0.645E-02
   -.546E+01 -.765E+00 0.773E+03   0.553E+01 0.758E+00 -.773E+03   -.283E-01 -.136E-02 -.160E+00
   -.468E+01 0.847E-01 -.809E+03   0.438E+01 -.912E-01 0.809E+03   0.309E+00 -.748E-02 0.118E+00
   -.881E+01 -.274E-04 -.122E+04   0.902E+01 0.284E-04 0.122E+04   -.953E-01 0.422E-06 -.278E+00
   -.323E+01 -.687E-04 -.802E+03   0.296E+01 0.644E-04 0.802E+03   0.310E+00 0.405E-06 0.159E+00
   -.495E+01 -.333E+01 -.123E+04   0.514E+01 0.326E+01 0.123E+04   -.119E+00 0.278E-01 -.312E+00
   0.211E+02 -.226E+00 -.281E+04   -.221E+02 0.144E+00 0.281E+04   0.960E+00 0.112E-01 -.171E+00
   -.699E+02 -.251E-04 -.321E+04   0.702E+02 0.120E-04 0.321E+04   -.589E-01 -.353E-05 0.677E+00
   0.165E+02 -.200E-04 -.281E+04   -.173E+02 0.216E-04 0.281E+04   0.869E+00 -.127E-06 -.123E+00
   -.719E+02 0.302E+01 -.321E+04   0.721E+02 -.328E+01 0.321E+04   -.660E-02 0.306E-01 0.647E+00
   0.660E+01 0.213E-06 0.337E+04   -.168E+01 -.755E-05 -.337E+04   -.109E+01 0.255E-05 -.332E+01
   0.482E+01 -.986E-02 0.277E+04   -.639E+01 0.737E-02 -.277E+04   -.833E-01 0.105E-02 -.435E-01
   0.641E+01 -.235E+00 0.337E+04   -.154E+01 0.239E+00 -.336E+04   -.109E+01 -.108E-02 -.332E+01
   0.262E+01 0.159E-04 0.277E+04   -.418E+01 -.111E-04 -.277E+04   -.933E-01 0.208E-05 -.428E-01
   0.231E+01 0.361E-04 0.125E+04   -.250E+01 -.435E-04 -.125E+04   0.167E+00 -.284E-05 0.538E-01
   0.661E+00 0.679E+00 0.778E+03   -.579E+00 -.675E+00 -.778E+03   -.478E-01 -.149E-01 -.155E+00
   0.613E+00 -.920E-01 0.125E+04   -.775E+00 0.866E-01 -.125E+04   0.173E+00 -.634E-02 0.328E-02
   -.922E+01 0.376E-04 0.755E+03   0.929E+01 -.342E-04 -.755E+03   -.348E-01 0.123E-05 -.515E-01
   -.971E-01 0.203E-04 -.815E+03   -.290E+00 -.220E-04 0.814E+03   0.270E+00 0.402E-06 0.159E+00
   -.692E+01 0.427E+00 -.121E+04   0.715E+01 -.463E+00 0.121E+04   -.119E+00 0.570E-02 -.278E+00
   0.573E+00 -.205E+01 -.793E+03   -.761E+00 0.200E+01 0.793E+03   0.255E+00 0.853E-02 0.960E-01
   -.809E+01 0.446E-04 -.128E+04   0.818E+01 -.462E-04 0.128E+04   -.120E+00 0.122E-06 -.734E-03
   0.281E+02 -.219E-04 -.283E+04   -.295E+02 0.181E-04 0.283E+04   0.855E+00 -.590E-06 -.506E-01
   -.679E+02 0.527E+01 -.321E+04   0.680E+02 -.517E+01 0.321E+04   -.102E-01 -.133E+00 0.651E+00
   0.120E+02 0.162E+01 -.278E+04   -.124E+02 -.182E+01 0.278E+04   0.817E+00 0.484E-01 -.482E-01
   -.744E+02 0.318E-04 -.330E+04   0.733E+02 -.229E-04 0.330E+04   0.445E+00 -.154E-05 0.220E+01
   -.322E+02 0.390E-01 0.228E+04   0.370E+02 -.388E-01 -.229E+04   -.655E+01 -.178E-03 0.171E+02
   -.325E+02 0.278E-01 0.228E+04   0.372E+02 -.292E-01 -.229E+04   -.655E+01 0.184E-02 0.171E+02
   0.813E+02 0.120E+00 0.138E+04   -.861E+02 -.120E+00 -.137E+04   0.383E+01 -.533E-03 -.446E+01
   0.749E+02 0.621E-01 0.168E+04   -.819E+02 -.603E-01 -.168E+04   0.739E+01 -.386E-02 -.269E+01
   -.861E+02 0.183E-01 0.194E+04   0.934E+02 -.192E-01 -.194E+04   -.698E+01 0.103E-02 -.119E+00
   -.689E+02 -.564E+00 0.105E+04   0.745E+02 0.619E+00 -.105E+04   -.571E+01 -.526E-01 0.432E+01
   0.818E+02 0.186E+00 0.138E+04   -.866E+02 -.166E+00 -.137E+04   0.381E+01 -.218E-01 -.432E+01
   0.740E+02 0.158E+00 0.168E+04   -.810E+02 -.165E+00 -.168E+04   0.741E+01 0.168E-01 -.271E+01
   -.864E+02 0.934E-01 0.194E+04   0.936E+02 -.927E-01 -.194E+04   -.696E+01 -.369E-02 -.122E+00
   -.722E+02 0.265E+00 0.105E+04   0.779E+02 -.261E+00 -.106E+04   -.580E+01 -.732E-02 0.440E+01
   0.781E+02 -.263E+00 0.144E+03   -.845E+02 0.300E+00 -.139E+03   0.642E+01 -.389E-01 -.504E+01
   0.804E+02 0.712E+00 0.471E+03   -.870E+02 -.792E+00 -.467E+03   0.667E+01 0.763E-01 -.308E+01
[...]
   0.847E+02 0.176E-04 -.110E+04   -.917E+02 -.173E-04 0.111E+04   0.715E+01 0.172E-05 -.747E+01
   0.731E+02 -.716E-05 -.739E+03   -.790E+02 0.983E-05 0.742E+03   0.601E+01 -.748E-06 -.309E+01
   -.804E+02 -.804E+00 -.477E+03   0.867E+02 0.766E+00 0.474E+03   -.633E+01 0.691E-01 0.279E+01
   -.581E+02 0.282E+01 -.131E+04   0.604E+02 -.316E+01 0.130E+04   -.247E+01 0.348E+00 0.966E+01
   0.829E+02 0.270E+01 -.108E+04   -.892E+02 -.303E+01 0.108E+04   0.628E+01 0.348E+00 -.599E+01
   0.772E+02 -.189E+01 -.754E+03   -.836E+02 0.180E+01 0.757E+03   0.643E+01 0.166E+00 -.323E+01
   -.737E+02 -.150E-04 -.486E+03   0.798E+02 0.183E-04 0.483E+03   -.614E+01 0.495E-05 0.254E+01
   -.756E+02 -.528E-05 -.135E+04   0.805E+02 0.983E-05 0.134E+04   -.438E+01 0.867E-06 0.808E+01
   0.544E+02 -.555E-05 -.230E+04   -.605E+02 0.704E-05 0.232E+04   0.674E+01 -.152E-05 -.203E+02
   0.549E+02 -.860E-05 -.203E+04   -.587E+02 0.709E-05 0.204E+04   0.395E+01 0.143E-05 -.782E+01
   -.549E+02 -.457E+00 -.167E+04   0.596E+02 0.547E+00 0.167E+04   -.470E+01 0.253E-01 0.303E+01
   0.508E+02 -.164E+01 -.229E+04   -.567E+02 0.208E+01 0.231E+04   0.597E+01 -.494E+00 -.209E+02
   0.606E+02 -.191E+01 -.201E+04   -.657E+02 0.186E+01 0.202E+04   0.498E+01 0.669E+00 -.597E+01
   -.519E+02 0.506E-05 -.164E+04   0.567E+02 0.963E-06 0.164E+04   -.506E+01 0.149E-05 0.486E+01
   -.146E+02 -.265E-04 0.672E+02   0.988E-12 -.141E-11 -.109E-10   0.146E+02 0.345E-04 -.673E+02

 POSITION                                       TOTAL-FORCE (eV/Angst)
      8.29921      9.47401      8.23548         3.835045      0.000930      1.822429
      6.08023      7.57921      9.11607        -1.607441      0.001555     -1.855489
      3.16233      7.57921      8.23548         3.808074     -0.002526      1.806230
      0.94335      9.47401      9.11607        -1.637562     -0.004631     -1.858022
      9.70326      9.47437     11.79903        -0.011197      0.005846     -0.014066
      7.46069      7.57438     12.59794         0.018652      0.003520      0.031419
      4.56176      7.57657     11.79579        -0.003721      0.007634     -0.019113
      2.31515      9.47353     12.60691         0.012476      0.007790      0.028890
      0.87541      9.47543     15.36211        -0.032011      0.016908     -0.001954
      8.88205      7.57219     16.06758         0.062751      0.020756      0.131810
      6.00122      7.57719     15.34161         0.034076      0.042407     -0.027255
      3.73327      9.47473     16.09229         0.017155      0.050790      0.075965
      2.37352      9.46625     18.99490        -0.119521      0.062140      0.046946
      0.00862      7.56667     19.54936        -0.149653      0.014791      0.155574
      7.49469      7.57738     18.92336         0.336402      0.142857      0.248947
      5.16750      9.48941     19.54324        -0.013791      0.216146      0.068119
      8.29921      1.89480      8.23548         3.835055     -0.000926      1.822421
      6.08023      0.00000      9.11607        -1.622863     -0.000002     -1.854185
      3.16233      0.00000      8.23548         3.827177     -0.000005      1.815955
      0.94335      1.89480      9.11607        -1.637578      0.004633     -1.858032
      9.70326      1.89444     11.79903        -0.011193     -0.005837     -0.014069
      7.45633     11.36881     12.60039         0.013315     -0.000003      0.041676
      4.56361      0.00000     11.79852        -0.003984     -0.000005     -0.006742
      2.31515      1.89528     12.60691         0.012465     -0.007796      0.028890
      0.87541      1.89338     15.36211        -0.032016     -0.016905     -0.001951
      8.86996      0.00000     16.08148         0.047922      0.000001      0.119089
      6.00773     11.36881     15.35172         0.000672     -0.000004      0.000410
      3.73327      1.89408     16.09229         0.017154     -0.050791      0.075972
      2.37352      1.90256     18.99490        -0.119536     -0.062137      0.046959
      0.03292     11.36881     19.55068         0.006958     -0.000017      0.054831
      7.52757     11.36881     18.97961        -0.003162      0.000001      0.058261
      5.16750      1.87940     19.54324        -0.013779     -0.216127      0.068121
      8.29921      5.68441      8.23548         3.845533     -0.000004      1.817942
      6.08023      3.78960      9.11607        -1.607430     -0.001541     -1.855504
      3.16233      3.78960      8.23548         3.808093      0.002529      1.806215
      0.94335      5.68441      9.11607        -1.607227      0.000006     -1.800224
      9.71960      5.68441     11.79385        -0.033343     -0.000010     -0.022693
      7.46069      3.79443     12.59794         0.018657     -0.003516      0.031415
      4.56176      3.79224     11.79579        -0.003714     -0.007630     -0.019114
      2.31866      5.68441     12.63667         0.010536      0.000005     -0.035817
      0.90718      5.68441     15.36884        -0.123252     -0.000001     -0.066773
      8.88205      3.79662     16.06758         0.062757     -0.020757      0.131810
      6.00122      3.79162     15.34161         0.034076     -0.042403     -0.027253
      3.75245      5.68441     16.17890        -0.059183     -0.000001     -0.325967
      2.41334      5.68441     19.01311        -0.556235     -0.000005     -0.057689
      0.00862      3.80214     19.54936        -0.149652     -0.014804      0.155600
      7.49469      3.79143     18.92336         0.336411     -0.142883      0.248947
      5.19886      5.68441     19.70820        -0.851941      0.000007     -1.755584
      5.01563      7.57921      7.50000        -1.786695      0.000050      1.033879
     10.15251      9.47401      7.50000        -1.782447      0.000421      1.029196
      9.36381      9.47401      9.85155        -1.002556     -0.001231     -0.159580
      6.44591      9.47401      8.97095         0.353997     -0.002062     -0.051699
      7.93353      7.57921      8.38059         0.279812      0.000095     -1.069732
      6.41347      7.57921     11.02238        -0.062576      0.001527      0.430713
      4.22693      7.57921      9.85155        -1.007960     -0.002224     -0.141091
      1.30903      7.57921      8.97095         0.364247      0.010426     -0.059076
      2.79665      9.47401      8.38059         0.289273     -0.002933     -1.071715
      1.27659      9.47401     11.02238        -0.001817     -0.003399      0.461330
      0.50283      9.47575     13.39263        -0.010964     -0.002232      0.019904
      7.84616      9.47342     12.49395        -0.025627     -0.003754      0.003471
[...]
      2.71792      5.68441     14.56626         0.094062      0.000003      0.059743
      1.97059      5.68441     16.95776         0.137066      0.000002      0.114652
      9.28176      5.68441     16.00703        -0.005852      0.000002     -0.019858
      0.51819      3.79142     15.43874         0.040051      0.030795     -0.006084
      9.38325      3.78626     18.01613        -0.086593      0.013949     -0.187946
      7.12329      3.77877     16.91525        -0.045551      0.021570     -0.012314
      4.15003      3.79019     16.04303        -0.042188      0.076095      0.023647
      5.64889      5.68441     15.46030        -0.019149      0.000008      0.016730
      4.23095      5.68441     18.10183         0.510635      0.000005      0.813702
      3.53954      5.68441     20.49291         0.587886     -0.000000      0.068066
      0.53179      5.68441     19.78819         0.114081     -0.000000     -0.116304
      2.00220      3.79374     19.00564         0.119507      0.114280     -0.004816
      8.65667      3.82129     20.40772         0.090478     -0.053542     -0.391262
      5.68077      3.76119     19.74360        -0.117754      0.622924      0.298964
      7.11906      5.68441     18.92853        -0.255054      0.000007      0.289426
    total drift:                                0.006603      0.000008     -0.059699

  FREE ENERGIE OF THE ION-ELECTRON SYSTEM (eV)
  free  energy   TOTEN  =     -1310.18682881 eV

  energy  without entropy=    -1310.18682881  energy(sigma->0) =    -1310.18682881