 vasp.6.3.0 20Jan22 (build Mar 11 2022 13:48:16) complex

 executed on             LinuxIFC date 2024.02.14  11:30:31

 INCAR:
   SYSTEM = Oxide-Surface
   ISMEAR = 0
   SIGMA = 0.05
   EDIFF = 1E-5
   ALGO = ALL
   ISTART = 0
   IBRION = -1
   NSW = 0
   ISYM = 2
   DIPOL = 0.5 0.5 0.5
   IDIPOL = 3
   LDIPOL = .TRUE.
   GGA = MK
   LUSE_VDW = .TRUE.
   PARAM1 = 0.1234
   PARAM2 = 0.711357
   ZAB_VDW = -1.8867
   AGGAC = 0.0
   ENCUT = 600
   PREC = Accurate
   LASPH = .TRUE.
   LREAL = .FALSE.
   ISPIN = 1
   NELM = 200
   NELMIN = 8
   NCORE = 19
   KPAR = 1
   LWAVE = .FALSE.
   LCHARG = .FALSE.

 POTCAR:    PAW_PBE C 08Apr2002
 POTCAR:    PAW_PBE H 15Jun2001
 POTCAR:    PAW_PBE Ti_pv 07Sep2000
 POTCAR:    PAW_PBE O 08Apr2002
|               ----> ADVICE to this user running VASP <----                  |
|     You have switched on vdW-DFT.                                           |
|     This routine was written and supplied by Jiri Klimes. We recommend      |
|     that you carefully read and cite the following publications:            |
|       J. Klimes, D.R. Bowler, A. Michelides                                 |
|          J. Phys.: Cond Matt. 22 022201 (2010)                              |
|       J. Klimes, D.R. Bowler, A. Michelides                                 |
|          Phys. Rev. B. 83, 195131 (2011)                                    |
|     and references therein.                                                 |

   TITEL  = PAW_PBE C 08Apr2002
   POMASS =   12.011; ZVAL   =    4.000    mass and valenz
   ENMAX  =  400.000; ENMIN  =  300.000 eV

   TITEL  = PAW_PBE H 15Jun2001
   POMASS =    1.000; ZVAL   =    1.000    mass and valenz
   ENMAX  =  250.000; ENMIN  =  200.000 eV

   TITEL  = PAW_PBE Ti_pv 07Sep2000
   POMASS =   47.880; ZVAL   =   10.000    mass and valenz
   ENMAX  =  222.335; ENMIN  =  166.751 eV

   TITEL  = PAW_PBE O 08Apr2002
   POMASS =   16.000; ZVAL   =    6.000    mass and valenz
   ENMAX  =  400.000; ENMIN  =  300.000 eV

  PAW_PBE C 08Apr2002                   :
  PAW_PBE H 15Jun2001                   :
  PAW_PBE Ti_pv 07Sep2000               :
  PAW_PBE O 08Apr2002                   :

 POSCAR:  C  H Ti  O
  positions in direct lattice
 exchange correlation table for  LEXCH =       43
   RHO(1)=    0.500       N(1)  =     2000
   RHO(2)=  100.500       N(2)  =     4000

 ion  position               nearest neighbor table
   1  0.500  0.500  0.813-   2 1.10   3 1.10   4 1.10   5 1.10
   2  0.496  0.576  0.833-   1 1.10
   3  0.504  0.424  0.833-   1 1.10
   4  0.571  0.504  0.793-   1 1.10
   5  0.430  0.496  0.793-   1 1.10
   6  0.750  0.625  0.287-  87 1.95 147 1.95 146 1.95  86 1.95  89 1.98 168 1.98  16 2.96  36 2.96

   7  0.000  0.750  0.287-  88 1.95  89 1.95 108 1.95 109 1.95  90 1.98  37 2.96  17 2.96
   8  0.000  0.625  0.394-  90 1.95 150 1.95  91 1.95 151 1.95  92 1.98  93 1.98  18 2.96  38 2.96

[...]

  85  0.500  0.500  0.709- 239 1.82 244 1.95 185 1.95 184 1.95 245 1.95  75 2.96  55 2.96
  86  0.750  0.750  0.245-   6 1.95  16 1.95
  87  0.750  0.750  0.329-   6 1.95  16 1.95   9 1.98
  88  0.098  0.625  0.287-   7 1.95  37 1.95  46 1.98
  89  0.902  0.625  0.287-   7 1.95  37 1.95   6 1.98
  90  0.000  0.750  0.352-   8 1.95  18 1.95   7 1.98
  91  0.000  0.750  0.435-   8 1.95  18 1.95  11 1.98
  92  0.848  0.625  0.394-   9 1.95  39 1.95   8 1.98
  93  0.152  0.625  0.394-  49 1.95  79 1.95   8 1.98
  94  0.750  0.750  0.458-  10 1.95  20 1.95   9 1.98
  95  0.750  0.750  0.542-  10 1.95  20 1.95  13 2.11
  96  0.098  0.625  0.500-  11 1.95  41 1.95  50 1.98
  97  0.902  0.625  0.500-  11 1.95  41 1.95  10 1.98
  98  0.000  0.750  0.565-  22 1.90  12 1.90  11 2.00
  99  0.000  0.750  0.649-  15 1.81  12 2.02  22 2.02
 100  0.850  0.625  0.607-  12 1.95  13 1.97  43 1.97
 101  0.150  0.625  0.607-  12 1.95  53 1.97  83 1.97
 102  0.750  0.750  0.672-  13 1.86  14 2.10  24 2.10
 103  0.750  0.750  0.756-  14 1.83  24 1.83
 104  0.094  0.625  0.719-  45 1.95  15 1.95  54 2.03
 105  0.906  0.625  0.719-  45 1.95  15 1.95  14 2.03
 106  0.750  0.000  0.245-  16 1.95  26 1.95
 107  0.750  0.000  0.329-  16 1.95  26 1.95  19 1.98
 108  0.098  0.875  0.287-   7 1.95  17 1.95  56 1.98
 109  0.902  0.875  0.287-   7 1.95  17 1.95  16 1.98
 110  0.000  0.000  0.352-  18 1.95  28 1.95  17 1.98
 111  0.000  0.000  0.435-  18 1.95  28 1.95  21 1.98
 112  0.848  0.875  0.394-   9 1.95  19 1.95  18 1.98
 113  0.152  0.875  0.394-  49 1.95  59 1.95  18 1.98
 114  0.750  0.000  0.458-  20 1.95  30 1.95  19 1.98
 115  0.750  0.000  0.542-  20 1.95  30 1.95  23 2.11
 116  0.098  0.875  0.500-  11 1.95  21 1.95  60 1.98
 117  0.902  0.875  0.500-  11 1.95  21 1.95  20 1.98
 118  0.000  0.000  0.565-  32 1.89  22 1.89  21 2.00
 119  1.000  0.000  0.649-  25 1.81  32 2.02  22 2.02
 120  0.850  0.875  0.607-  22 1.95  13 1.97  23 1.97
 121  0.150  0.875  0.607-  22 1.95  53 1.97  63 1.97
 122  0.750  0.000  0.672-  23 1.86  24 2.10  34 2.10
 123  0.750  0.000  0.756-  24 1.83  34 1.83
 124  0.094  0.875  0.719-  15 1.95  25 1.95  64 2.03
 125  0.906  0.875  0.719-  15 1.95  25 1.95  24 2.03
 126  0.750  0.250  0.245-  26 1.95  36 1.95
 127  0.750  0.250  0.329-  26 1.95  36 1.95  29 1.98
 128  0.098  0.125  0.287-  17 1.95  27 1.95  66 1.98
 129  0.902  0.125  0.287-  17 1.95  27 1.95  26 1.98
 130  0.000  0.250  0.352-  28 1.95  38 1.95  27 1.98
 131  0.000  0.250  0.435-  28 1.95  38 1.95  31 1.98
 132  0.848  0.125  0.394-  19 1.95  29 1.95  28 1.98
 133  0.152  0.125  0.394-  59 1.95  69 1.95  28 1.98
 134  0.750  0.250  0.458-  30 1.95  40 1.95  29 1.98
 135  0.750  0.250  0.542-  30 1.95  40 1.95  33 2.11
 136  0.098  0.125  0.500-  21 1.95  31 1.95  70 1.98
 137  0.902  0.125  0.500-  21 1.95  31 1.95  30 1.98
 138  0.000  0.250  0.565-  32 1.90  42 1.90  31 2.00
 139  1.000  0.250  0.649-  35 1.81  42 2.02  32 2.02
 140  0.850  0.125  0.607-  32 1.95  33 1.97  23 1.97
 141  0.150  0.125  0.607-  32 1.95  73 1.97  63 1.97
 142  0.750  0.250  0.672-  33 1.86  44 2.10  34 2.10
 143  0.750  0.250  0.756-  44 1.83  34 1.83
 144  0.094  0.125  0.719-  35 1.95  25 1.95  74 2.03
[...]
 231  0.500  0.500  0.435-  48 1.95  78 1.95  81 1.98
 232  0.348  0.375  0.394-  69 1.95  79 1.95  78 1.98
 233  0.652  0.375  0.394-  29 1.95  39 1.95  78 1.98
 234  0.250  0.500  0.458-  50 1.95  80 1.95  79 1.98
 235  0.250  0.500  0.542-  50 1.95  80 1.95  83 2.11
 236  0.598  0.375  0.500-  71 1.95  81 1.95  40 1.98
 237  0.402  0.375  0.500-  71 1.95  81 1.95  80 1.98
 238  0.500  0.500  0.565-  52 1.90  82 1.90  81 2.00
 239  0.500  0.500  0.649-  85 1.82  82 2.02  52 2.02
 240  0.350  0.375  0.607-  82 1.95  83 1.97  73 1.97
 241  0.650  0.375  0.607-  82 1.95  43 1.97  33 1.97
 242  0.249  0.500  0.672-  83 1.86  84 2.10  54 2.10
 243  0.251  0.500  0.756-  54 1.83  84 1.84
 244  0.594  0.374  0.718-  75 1.94  85 1.95  44 2.03
 245  0.406  0.374  0.718-  75 1.94  85 1.95  84 2.03

  LATTYP: Found a simple orthorhombic cell.
 ALAT       =    11.8303781148
 B/A-ratio  =     1.0992024327
 C/A-ratio  =     2.5825673970

  Lattice vectors:

 A1 = (   0.0000000000, -11.8303781148,   0.0000000000)
 A2 = (  13.0039804036,   0.0000000000,   0.0000000000)
 A3 = (   0.0000000000,   0.0000000000,  30.5527488131)

Analysis of symmetry for initial positions (statically):
 Subroutine PRICEL returns:
 Original cell was already a primitive cell.

 Routine SETGRP: Setting up the symmetry group for a
 simple orthorhombic supercell.

 Subroutine GETGRP returns: Found  1 space group operations
 (whereof  1 operations were pure point group operations)
 out of a pool of  8 trial point group operations.

The static configuration has the point symmetry C_1 .

Analysis of symmetry for dynamics (positions and initial velocities):
 Subroutine PRICEL returns:
 Original cell was already a primitive cell.

[...]

The dynamic configuration has the point symmetry C_1 .

Analysis of constrained symmetry for selective dynamics:
 Subroutine PRICEL returns:
 Original cell was already a primitive cell.

 Routine SETGRP: Setting up the symmetry group for a
 simple orthorhombic supercell.

 Subroutine GETGRP returns: Found  1 space group operations
 (whereof  1 operations were pure point group operations)
 out of a pool of  8 trial point group operations.

The constrained configuration has the point symmetry C_1 .

 Subroutine INISYM returns: Found  1 space group operations
 (whereof  1 operations are pure point group operations),
 and found     1 'primitive' translations

                                     Primitive cell

  volume of cell :    4700.2961

  direct lattice vectors                    reciprocal lattice vectors
    13.003980404  0.000000000  0.000000000     0.076899531  0.000000000  0.000000000
     0.000000000 11.830378115  0.000000000     0.000000000  0.084528152  0.000000000
     0.000000000  0.000000000 30.552748813     0.000000000  0.000000000  0.032730279

  length of vectors
    13.003980404 11.830378115 30.552748813     0.076899531  0.084528152  0.032730279

  position of ions in fractional coordinates (direct lattice)
     0.500064745  0.500001964  0.812552324
     0.496116017  0.575765146  0.833149304
     0.504021047  0.424236385  0.833153143
     0.570575337  0.504286174  0.792850438
     0.429538212  0.495704170  0.792857062
     0.750000000  0.625000000  0.287188045
     0.000000000  0.750000000  0.287188045
     0.000000000  0.625000000  0.393594023
     0.750000000  0.750000000  0.393594023
     0.750000000  0.625000000  0.500000000
     0.000000000  0.750000000  0.500000000
     0.999998721  0.625016579  0.604133070
     0.750021371  0.750038293  0.610722288
     0.750117203  0.625133247  0.720287438
     0.000025088  0.750082327  0.708163002
     0.750000000  0.875000000  0.287188045
     0.000000000  0.000000000  0.287188045
     0.000000000  0.875000000  0.393594023
     0.750000000  0.000000000  0.393594023
     0.750000000  0.875000000  0.500000000
     0.000000000  0.000000000  0.500000000
     0.999995888  0.875019827  0.604149471
     0.749960154  0.000003634  0.610781080
     0.749868681  0.875032810  0.720490641
     0.999999839  0.999999986  0.708171277
     0.750000000  0.125000000  0.287188045
     0.000000000  0.250000000  0.287188045
     0.000000000  0.125000000  0.393594023
     0.750000000  0.250000000  0.393594023
     0.750000000  0.125000000  0.500000000
     0.000000000  0.250000000  0.500000000
     0.000004291  0.124980166  0.604149473
     0.750020909  0.249964332  0.610733868
     0.749849705  0.124984894  0.720495097
     0.999975957  0.249917704  0.708163011
     0.750000000  0.375000000  0.287188045
     0.000000000  0.500000000  0.287188045
     0.000000000  0.375000000  0.393594023
     0.750000000  0.500000000  0.393594023
     0.750000000  0.375000000  0.500000000
     0.000000000  0.500000000  0.500000000
     0.000001188  0.374983462  0.604133074
     0.750045959  0.499996868  0.610724841
     0.750061545  0.374909743  0.720323388
     0.000000688  0.500000006  0.708145396
     0.250000000  0.625000000  0.287188045
     0.500000000  0.750000000  0.287188045
     0.500000000  0.625000000  0.393594023
[...]
   3.25072444  8.87320378 18.65960594
   3.25021591  7.39504777 22.00788445
   6.50207892  8.87248325 21.63236979
   3.25099510 10.35158085  8.77438420
   6.50199020  0.00000000  8.77438420
   6.50199020 10.35158085 12.02537931
   3.25099510  0.00000000 12.02537931
   3.25099510 10.35158085 15.27637441
[...]
   6.50199020  5.91518906 13.29976351
   4.52537931  4.43639179 12.02537931
   8.47860110  4.43639179 12.02537931
   3.25099510  5.91518906 14.00199020
   3.25099510  5.91518906 16.55075861
   7.77637441  4.43639179 15.27637441
   5.22760600  4.43639179 15.27637441
   6.50199046  5.91518881 17.27737408
   6.50198573  5.91518784 19.84135494
   4.55307904  4.43637240 18.55283349
   8.45090995  4.43645282 18.55268145
   3.24438093  5.91545982 20.51904399
   3.26188261  5.91463626 23.09198361
   7.72811721  4.42967298 21.94583423
   5.27492595  4.42915132 21.94273054

--------------------------------------- Iteration      FINAL  ---------------------------------------

--------------------OUTCAR has been truncated-------------------------

[...]

--------------------OUTCAR has been truncated-------------------------

  FORCE on cell =-STRESS in cart. coord.  units (eV):
  Direction    XX          YY          ZZ          XY          YZ          ZX
  Alpha Z  4686.74880  4686.74880  4686.74880
  Ewald  975347.37252992940.88627************    -0.34174     0.00452    -0.05463
  Hartree************************************    -0.22342     0.00043    -0.04646
  E(xc)   -8634.67023 -8629.30603 -8631.51261    -0.00074     0.00001    -0.00000
  Local  ************************************     0.59156    -0.00334     0.10072
  n-local -5480.19553 -5406.78003 -5525.70642    -0.00164    -0.00013     0.00042
  augment  5250.20688  5225.46098  5254.62960    -0.00230    -0.00002    -0.00001
  Kinetic 28697.00940 28229.75684 28741.44461    -0.00531    -0.00022    -0.00189
  Fock        0.00000     0.00000     0.00000     0.00000     0.00000     0.00000
  Total      38.00715   -10.99533    -6.76442     0.01641     0.00126    -0.00185
  in kB      12.95539    -3.74795    -2.30577     0.00560     0.00043    -0.00063

 VOLUME and BASIS-vectors are now :
  energy-cutoff  :      600.00
  volume of cell :     4700.30
      direct lattice vectors                 reciprocal lattice vectors
    13.003980404  0.000000000  0.000000000     0.076899531  0.000000000  0.000000000
     0.000000000 11.830378115  0.000000000     0.000000000  0.084528152  0.000000000
     0.000000000  0.000000000 30.552748813     0.000000000  0.000000000  0.032730279

  length of vectors
    13.003980404 11.830378115 30.552748813     0.076899531  0.084528152  0.032730279

 FORCES acting on ions:
    Electron-Ion                     Ewald-Force                    Non-Local-Force
   0.236E-01 0.125E-02 -.152E+04   -.224E-01 -.224E-02 0.152E+04   -.266E-02 -.174E-02 -.727E+00
   0.226E+01 -.433E+02 -.373E+03   -.252E+01 0.479E+02 0.376E+03   0.265E+00 -.457E+01 -.324E+01
   -.226E+01 0.433E+02 -.373E+03   0.252E+01 -.479E+02 0.376E+03   -.265E+00 0.457E+01 -.324E+01
   -.354E+02 -.243E+01 -.388E+03   0.403E+02 0.269E+01 0.386E+03   -.478E+01 -.259E+00 0.284E+01
   0.354E+02 0.243E+01 -.388E+03   -.403E+02 -.270E+01 0.386E+03   0.478E+01 0.260E+00 0.284E+01
   -.114E+00 -.365E-01 0.379E+04   0.114E+00 0.367E-01 -.380E+04   0.879E-05 -.173E-05 0.371E+00
   -.149E-03 -.495E-01 0.398E+04   0.153E-03 0.496E-01 -.397E+04   -.504E-06 -.603E-05 -.370E+01
   -.862E-03 -.565E-01 0.193E+04   0.896E-03 0.566E-01 -.193E+04   -.619E-05 0.110E-04 -.420E-01
   -.145E+00 -.652E-01 0.193E+04   0.145E+00 0.657E-01 -.193E+04   0.903E-04 0.364E-06 0.194E+00
   -.530E+00 -.266E+00 -.354E+01   0.526E+00 0.267E+00 0.438E+01   0.540E-03 -.920E-04 -.132E+00
   -.118E-01 -.423E+00 0.753E+01   0.121E-01 0.426E+00 -.860E+01   -.663E-04 -.836E-03 0.338E+00
   -.324E-01 -.131E+01 -.187E+04   0.325E-01 0.131E+01 0.187E+04   -.653E-04 -.912E-03 0.223E-01
   -.433E+01 -.338E+01 -.194E+04   0.433E+01 0.338E+01 0.194E+04   -.184E-02 -.197E-02 -.212E-01
   -.342E+02 -.140E+02 -.375E+04   0.342E+02 0.140E+02 0.375E+04   0.275E-02 0.549E-02 -.126E+00
   -.542E-01 -.477E+01 -.379E+04   0.536E-01 0.477E+01 0.379E+04   0.586E-03 -.497E-03 0.873E+00
   -.111E+00 -.366E-01 0.379E+04   0.111E+00 0.368E-01 -.380E+04   0.336E-04 -.263E-04 0.371E+00
   -.733E-04 0.128E-04 0.398E+04   0.689E-04 0.794E-06 -.397E+04   -.227E-05 0.219E-07 -.370E+01
   -.883E-03 -.569E-01 0.193E+04   0.904E-03 0.570E-01 -.193E+04   -.696E-05 0.382E-05 -.421E-01
   -.163E+00 -.104E-02 0.193E+04   0.162E+00 0.106E-02 -.193E+04   0.143E-03 0.964E-05 0.194E+00
   -.734E+00 -.305E+00 -.418E+01   0.732E+00 0.312E+00 0.503E+01   0.365E-03 -.404E-03 -.133E+00
   -.609E-03 0.197E-04 0.708E+01   0.615E-03 -.181E-04 -.814E+01   -.320E-05 -.146E-05 0.338E+00
   -.508E-01 -.124E+01 -.187E+04   0.510E-01 0.124E+01 0.187E+04   -.133E-03 -.127E-02 0.214E-01
   -.328E+01 -.171E-02 -.194E+04   0.328E+01 0.172E-02 0.194E+04   0.533E-03 -.743E-04 -.181E-01
   -.126E+02 -.996E+01 -.377E+04   0.126E+02 0.996E+01 0.377E+04   0.130E-01 0.931E-04 -.138E+00
   -.349E-02 -.309E-03 -.379E+04   0.352E-02 0.344E-03 0.379E+04   -.861E-05 -.173E-05 0.880E+00
   -.111E+00 0.365E-01 0.379E+04   0.111E+00 -.366E-01 -.380E+04   0.332E-04 0.203E-04 0.371E+00
   0.614E-05 0.495E-01 0.398E+04   -.774E-05 -.496E-01 -.397E+04   0.553E-05 0.929E-05 -.370E+01
   0.515E-03 0.569E-01 0.193E+04   -.536E-03 -.570E-01 -.193E+04   0.555E-05 -.674E-05 -.421E-01
   -.145E+00 0.653E-01 0.193E+04   0.145E+00 -.658E-01 -.193E+04   0.870E-04 0.166E-05 0.194E+00
   -.739E+00 0.289E+00 -.420E+01   0.737E+00 -.295E+00 0.505E+01   0.411E-03 0.308E-03 -.133E+00
   0.100E-01 0.423E+00 0.753E+01   -.103E-01 -.426E+00 -.860E+01   0.647E-04 0.836E-03 0.338E+00
   0.469E-01 0.124E+01 -.187E+04   -.471E-01 -.124E+01 0.187E+04   0.133E-03 0.127E-02 0.214E-01
   -.436E+01 0.338E+01 -.194E+04   0.436E+01 -.338E+01 0.194E+04   -.175E-02 0.128E-02 -.212E-01
   -.126E+02 0.989E+01 -.377E+04   0.126E+02 -.989E+01 0.377E+04   0.135E-01 0.126E-03 -.138E+00
   0.409E-01 0.477E+01 -.379E+04   -.403E-01 -.477E+01 0.379E+04   -.568E-03 0.505E-03 0.873E+00
   -.114E+00 0.367E-01 0.379E+04   0.114E+00 -.368E-01 -.380E+04   -.716E-05 0.110E-04 0.371E+00
   -.946E-04 -.257E-05 0.398E+04   0.763E-04 -.814E-06 -.397E+04   -.384E-05 0.646E-05 -.370E+01
   0.439E-03 0.565E-01 0.193E+04   -.461E-03 -.566E-01 -.193E+04   0.798E-05 -.111E-04 -.420E-01
   -.127E+00 0.963E-03 0.193E+04   0.127E+00 -.984E-03 -.193E+04   -.190E-04 -.771E-05 0.194E+00
   -.533E+00 0.282E+00 -.356E+01   0.530E+00 -.284E+00 0.439E+01   0.581E-03 0.197E-03 -.132E+00
   -.113E-02 0.308E-05 0.798E+01   0.114E-02 -.551E-05 -.905E+01   -.441E-05 0.677E-06 0.338E+00
   0.245E-01 0.131E+01 -.187E+04   -.246E-01 -.131E+01 0.187E+04   0.577E-04 0.916E-03 0.223E-01
   -.562E+01 0.312E-02 -.193E+04   0.562E+01 -.367E-02 0.193E+04   -.184E-02 0.702E-03 -.231E-01
   -.340E+02 0.142E+02 -.375E+04   0.340E+02 -.142E+02 0.375E+04   0.230E-02 -.509E-02 -.129E+00
   -.913E-02 0.220E-03 -.378E+04   0.916E-02 -.233E-03 0.378E+04   -.143E-04 -.152E-05 0.866E+00
   0.114E+00 -.366E-01 0.379E+04   -.114E+00 0.368E-01 -.380E+04   0.280E-05 -.175E-04 0.371E+00
   0.162E-03 -.538E-01 0.398E+04   -.149E-03 0.540E-01 -.397E+04   -.474E-06 -.251E-04 -.370E+01
   0.775E-03 -.249E-01 0.194E+04   -.797E-03 0.283E-01 -.193E+04   0.719E-05 -.676E-03 -.421E-01
   0.145E+00 -.653E-01 0.193E+04   -.145E+00 0.657E-01 -.193E+04   -.878E-04 -.530E-05 0.194E+00
   0.533E+00 -.282E+00 -.356E+01   -.530E+00 0.284E+00 0.440E+01   -.582E-03 -.193E-03 -.132E+00
   0.826E-02 -.214E+00 0.869E+01   -.849E-02 0.200E+00 -.972E+01   0.373E-04 0.900E-02 0.330E+00
   0.105E-01 -.313E+01 -.186E+04   -.104E-01 0.315E+01 0.186E+04   -.800E-04 -.220E-01 0.283E-01
   0.436E+01 -.338E+01 -.194E+04   -.437E+01 0.338E+01 0.194E+04   0.175E-02 -.128E-02 -.212E-01
   0.339E+02 -.142E+02 -.375E+04   -.339E+02 0.142E+02 0.375E+04   -.230E-02 0.509E-02 -.129E+00
   0.208E+00 -.341E+02 -.375E+04   -.206E+00 0.342E+02 0.375E+04   -.235E-02 -.160E-01 0.909E+00
   0.111E+00 -.365E-01 0.379E+04   -.111E+00 0.366E-01 -.380E+04   -.427E-04 -.114E-04 0.371E+00
   0.429E-04 -.679E-05 0.398E+04   -.688E-04 0.176E-05 -.397E+04   -.413E-05 -.123E-05 -.370E+01
   0.775E-03 -.270E-01 0.194E+04   -.792E-03 0.288E-01 -.193E+04   0.354E-05 -.470E-03 -.422E-01
   0.163E+00 0.102E-02 0.193E+04   -.162E+00 -.104E-02 -.193E+04   -.146E-03 -.788E-05 0.194E+00
   0.739E+00 -.289E+00 -.421E+01   -.737E+00 0.295E+00 0.505E+01   -.413E-03 -.308E-03 -.133E+00
[...]
   -.533E+02 0.214E-01 0.116E+04   0.572E+02 -.218E-01 -.116E+04   -.351E+01 0.658E-03 0.157E+00
   0.533E+02 0.221E-01 0.116E+04   -.572E+02 -.225E-01 -.116E+04   0.351E+01 0.719E-03 0.157E+00
   0.164E+00 -.200E-02 0.505E+03   -.163E+00 0.223E-02 -.510E+03   -.202E-02 -.513E-03 0.410E+01
   0.625E+00 -.645E-02 -.525E+03   -.620E+00 0.664E-02 0.533E+03   -.317E-02 -.441E-03 -.710E+01
   -.556E+02 0.276E-01 0.445E+01   0.602E+02 -.292E-01 -.470E+01   -.513E+01 0.867E-02 0.340E+00
   0.556E+02 0.229E-01 0.445E+01   -.602E+02 -.243E-01 -.470E+01   0.513E+01 0.838E-02 0.341E+00
   0.124E-02 0.427E-03 -.626E+03   -.124E-02 -.469E-03 0.619E+03   -.133E-06 0.330E-04 0.643E+01
   0.811E-02 -.393E-03 -.159E+04   -.848E-02 0.418E-03 0.159E+04   0.371E-03 -.263E-04 0.238E+01
   -.248E+02 0.181E+01 -.113E+04   0.277E+02 -.184E+01 0.113E+04   -.296E+01 0.221E-01 0.871E+00
   0.248E+02 0.184E+01 -.113E+04   -.277E+02 -.187E+01 0.113E+04   0.296E+01 0.245E-01 0.876E+00
   0.114E+02 -.132E+00 -.181E+04   -.114E+02 0.139E+00 0.181E+04   0.672E-01 -.643E-02 -.222E+01
   0.395E+02 -.128E-01 -.271E+04   -.395E+02 0.919E-02 0.273E+04   0.318E-01 0.349E-02 -.206E+02
   -.394E+02 0.217E+02 -.231E+04   0.453E+02 -.217E+02 0.231E+04   -.584E+01 -.209E-01 -.357E+01
   0.394E+02 0.216E+02 -.231E+04   -.453E+02 -.216E+02 0.231E+04   0.585E+01 -.292E-01 -.349E+01
   0.319E-02 0.247E-02 0.936E+02   -.259E-11 -.984E-12 0.346E-10   -.325E-02 -.235E-02 -.937E+02

 POSITION                                       TOTAL-FORCE (eV/Angst)
      6.50283      5.91521     24.82571        -0.001484     -0.002716      0.028111
      6.45148      6.81152     25.45500         0.000103      0.031999      0.018164
      6.55428      5.01888     25.45512        -0.000223     -0.029580      0.016630
      7.41975      5.96590     24.22376         0.078592      0.002612     -0.039961
      5.58571      5.86437     24.22396        -0.077227     -0.002324     -0.039118
      9.75299      7.39399      8.77438        -0.000009      0.000128     -3.541100
      0.00000      8.87278      8.77438         0.000004      0.000076      2.691396
      0.00000      7.39399     12.02538         0.000028      0.000116      0.522314
      9.75299      8.87278     12.02538        -0.000286      0.000470     -0.709237
      9.75299      7.39399     15.27637        -0.002953      0.000697      0.703478
      0.00000      8.87278     15.27637         0.000197      0.001843     -0.736405
     13.00396      7.39418     18.45793         0.000060     -0.000287      0.088892
      9.75326      8.87324     18.65924         0.000800     -0.003177     -0.081782
      9.75451      7.39556     22.00676         0.006481      0.008039      0.049040
      0.00033      8.87376     21.63633         0.000033     -0.001651      0.167527
      9.75299     10.35158      8.77438        -0.000055      0.000125     -3.540941
      0.00000      0.00000      8.77438        -0.000006      0.000013      2.691414
      0.00000     10.35158     12.02538         0.000015      0.000118      0.522470
      9.75299      0.00000     12.02538        -0.000488      0.000029     -0.708677
      9.75299     10.35158     15.27637        -0.001251      0.007378      0.708598
      0.00000      0.00000     15.27637         0.000002     -0.000000     -0.735914
     13.00393     10.35182     18.45843        -0.000015     -0.000554      0.088911
      9.75247      0.00004     18.66104         0.003235      0.000007     -0.082020
      9.75128     10.35197     22.01297         0.000635      0.002970      0.057376
     13.00398     11.83038     21.63658         0.000014      0.000033      0.167298
      9.75299      1.47880      8.77438        -0.000040     -0.000117     -3.540974
      0.00000      2.95759      8.77438         0.000004     -0.000057      2.691419
      0.00000      1.47880     12.02538        -0.000016     -0.000114      0.522472
      9.75299      2.95759     12.02538        -0.000277     -0.000464     -0.709045
      9.75299      1.47880     15.27637        -0.001246     -0.005913      0.709569
      0.00000      2.95759     15.27637        -0.000180     -0.001841     -0.736396
      0.00006      1.47856     18.45843         0.000026      0.000575      0.088925
      9.75326      2.95717     18.65960         0.000830      0.003152     -0.081860
      9.75103      1.47862     22.01311         0.000413     -0.002800      0.057456
     13.00367      2.95662     21.63633        -0.000027      0.001644      0.167552
      9.75299      4.43639      8.77438        -0.000004     -0.000120     -3.541034
      0.00000      5.91519      8.77438        -0.000022      0.000003      2.691474
      0.00000      4.43639     12.02538        -0.000014     -0.000124      0.522312
      9.75299      5.91519     12.02538        -0.000109     -0.000029     -0.709546
      9.75299      4.43639     15.27637        -0.002947     -0.002161      0.704512
      0.00000      5.91519     15.27637         0.000011     -0.000002     -0.737088
      0.00002      4.43620     18.45793        -0.000055      0.000264      0.088896
      9.75358      5.91515     18.65932        -0.000983      0.000080     -0.084127
      9.75379      4.43532     22.00786         0.006502     -0.008075      0.049153
      0.00001      5.91519     21.63579         0.000014     -0.000014      0.168383
      3.25100      7.39399      8.77438         0.000025      0.000140     -3.541063
      6.50199      8.87278      8.77438         0.000012      0.000191      2.691837
      6.50199      7.39399     12.02538        -0.000015      0.002759      0.522496
      3.25100      8.87278     12.02538         0.000284      0.000447     -0.709027
      3.25100      7.39399     15.27637         0.002946      0.002151      0.704563
      6.50199      8.87278     15.27637        -0.000189     -0.005112     -0.711038
      6.50198      7.39030     18.46721        -0.000039     -0.000599      0.089103
      3.25072      8.87320     18.65961        -0.000817     -0.003148     -0.081868
      3.25022      7.39505     22.00788        -0.006438      0.008064      0.049127
      6.50208      8.87248     21.63237         0.000087      0.014248      0.168880
      3.25100     10.35158      8.77438         0.000047      0.000114     -3.541001
      6.50199      0.00000      8.77438        -0.000030     -0.000007      2.691960
      6.50199     10.35158     12.02538        -0.000012      0.001291      0.524363
      3.25100      0.00000     12.02538         0.000482     -0.000031     -0.708661
      3.25100     10.35158     15.27637         0.001245      0.005880      0.709603
[...]
      6.50199      5.91519     13.29976         0.000001     -0.000008     -0.086396
      4.52538      4.43639     12.02538         0.451479      0.000244      0.049606
      8.47860      4.43639     12.02538        -0.451483      0.000283      0.049595
      3.25100      5.91519     14.00199        -0.000641     -0.000286     -0.133329
      3.25100      5.91519     16.55076         0.001134     -0.000259      0.084746
      7.77637      4.43639     15.27637        -0.462228      0.007069      0.094023
      5.22761      4.43639     15.27637         0.461961      0.007001      0.094071
      6.50199      5.91519     17.27737        -0.000001     -0.000010     -0.072570
      6.50199      5.91519     19.84135        -0.000004     -0.000002     -0.088190
      4.55308      4.43637     18.55283        -0.010553     -0.000493     -0.007973
      8.45091      4.43645     18.55268         0.010582     -0.000568     -0.008119
      3.24438      5.91546     20.51904        -0.000156      0.000143      0.114138
      3.26188      5.91464     23.09198        -0.000502     -0.000137     -0.013191
      7.72812      4.42967     21.94583         0.025775     -0.008859      0.009182
      5.27493      4.42915     21.94273        -0.025431     -0.008361      0.009052
    total drift:                               -0.000064      0.000118     -0.056202

  FREE ENERGIE OF THE ION-ELECTRON SYSTEM (eV)
  free  energy   TOTEN  =     -1762.98134325 eV

  energy  without entropy=    -1762.98134325  energy(sigma->0) =    -1762.98134325