 vasp.6.3.0 20Jan22 (build Mar 11 2022 13:48:16) complex

 executed on             LinuxIFC date 2023.12.29  11:26:27

 INCAR:
   SYSTEM = TiO2
   ISMEAR = 0
   SIGMA = 0.05
   EDIFF = 1E-7
   ALGO = ALL
   ISTART = 0
   IBRION = 2
   NSW = 1000
   ISYM = 0
   ISIF = 2
   EDIFFG = -0.01
   DIPOL = 0.5 0.5 0.5
   IDIPOL = 3
   LDIPOL = .TRUE.
   GGA = PE
   IVDW = 21
   LDAU = .TRUE.
   LDAUTYPE = 2
   LDAUL = -1 -1 -1 2 -1
   LDAUU = 0.0 0.0 0.0 4.2 0.0
   LDAUPRINT = 1
   LMAXMIX = 4
   ENCUT = 600
   PREC = Accurate
   LASPH = .TRUE.
   LREAL = .FALSE.
   ISPIN = 1
   NELM = 200
   NELMIN = 8
   NCORE = 19
   KPAR = 1
   LWAVE = .FALSE.
   LCHARG = .FALSE.

 POTCAR:    PAW_PBE C 08Apr2002
 POTCAR:    PAW_PBE O 08Apr2002
 POTCAR:    PAW_PBE H 15Jun2001
 POTCAR:    PAW_PBE Ti_pv 07Sep2000
 POTCAR:    PAW_PBE O 08Apr2002
 POTCAR:    PAW_PBE C 08Apr2002
   VRHFIN =C: s2p2

   TITEL  = PAW_PBE C 08Apr2002
   POMASS =   12.011; ZVAL   =    4.000    mass and valenz
   ENMAX  =  400.000; ENMIN  =  300.000 eV

[...]

   TITEL  = PAW_PBE H 15Jun2001
   POMASS =    1.000; ZVAL   =    1.000    mass and valenz
   ENMAX  =  250.000; ENMIN  =  200.000 eV

   TITEL  = PAW_PBE Ti_pv 07Sep2000
   POMASS =   47.880; ZVAL   =   10.000    mass and valenz
   ENMAX  =  222.335; ENMIN  =  166.751 eV

   TITEL  = PAW_PBE O 08Apr2002
   POMASS =   16.000; ZVAL   =    6.000    mass and valenz
   ENMAX  =  400.000; ENMIN  =  300.000 eV

  PAW_PBE C 08Apr2002                   :
  PAW_PBE O 08Apr2002                   :
  PAW_PBE H 15Jun2001                   :
  PAW_PBE Ti_pv 07Sep2000               :
  PAW_PBE O 08Apr2002                   :

 POSCAR:  C  O  H Ti  O
  positions in direct lattice
  velocities in cartesian coordinates
 exchange correlation table for  LEXCH =        8
   RHO(1)=    0.500       N(1)  =     2000
   RHO(2)=  100.500       N(2)  =     4000

 ion  position               nearest neighbor table
   1  0.516  0.583  0.812-   3 1.09   5 1.10   6 1.10   2 1.45
   2  0.546  0.499  0.781-   4 1.02   1 1.45  86 2.15
   3  0.433  0.591  0.811-   1 1.09
   4  0.624  0.497  0.779-   2 1.02
   5  0.540  0.558  0.845-   1 1.10
   6  0.552  0.663  0.804-   1 1.10
   7  0.750  0.625  0.286-  87 1.98  88 1.98 147 1.98 148 1.98 169 2.00  90 2.00  17 3.03  37 3.03

   8  0.000  0.750  0.286-  89 1.98  90 1.98 109 1.98 110 1.98  91 2.00  38 3.03  18 3.03
   9  0.000  0.625  0.393-  92 1.98 152 1.98 151 1.98  91 1.98  93 2.00  94 2.00  19 3.03  39 3.03

[...]

  87  0.750  0.750  0.244-   7 1.98  17 1.98
  88  0.750  0.750  0.328-   7 1.98  17 1.98  10 2.00
  89  0.098  0.625  0.286-   8 1.98  38 1.98  47 2.00
  90  0.902  0.625  0.286-   8 1.98  38 1.98   7 2.00
  91  0.000  0.750  0.351-   9 1.98  19 1.98   8 2.00
  92  0.000  0.750  0.435-   9 1.98  19 1.98  12 2.00
  93  0.848  0.625  0.393-  10 1.98  40 1.98   9 2.00
  94  0.152  0.625  0.393-  50 1.98  80 1.98   9 2.00
  95  0.750  0.750  0.458-  11 1.98  21 1.98  10 2.00
  96  0.750  0.750  0.542-  11 1.98  21 1.98  14 2.08
  97  0.098  0.625  0.500-  12 1.98  42 1.98  51 2.00
  98  0.902  0.625  0.500-  12 1.98  42 1.98  11 2.00
  99  0.000  0.750  0.565-  23 1.94  13 1.94  12 2.01
 100  0.999  0.750  0.649-  16 1.86  13 2.03  23 2.03
 101  0.850  0.625  0.607-  13 1.98  14 2.00  44 2.00
 102  0.150  0.625  0.607-  13 1.97  54 2.00  84 2.01
 103  0.754  0.751  0.672-  14 1.93  15 2.08  25 2.10
 104  0.748  0.749  0.756-  15 1.87  25 1.89
 105  0.094  0.625  0.719-  46 1.97  16 1.97  55 2.07
 106  0.907  0.624  0.721-  46 1.97  16 1.98  15 2.05
 107  0.750  0.000  0.244-  17 1.98  27 1.98
 108  0.750  0.000  0.328-  17 1.98  27 1.98  20 2.00
 109  0.098  0.875  0.286-   8 1.98  18 1.98  57 2.00
 110  0.902  0.875  0.286-   8 1.98  18 1.98  17 2.00
 111  0.000  0.000  0.351-  19 1.98  29 1.98  18 2.00
 112  0.000  0.000  0.435-  19 1.98  29 1.98  22 2.00
 113  0.848  0.875  0.393-  10 1.98  20 1.98  19 2.00
 114  0.152  0.875  0.393-  50 1.98  60 1.98  19 2.00
 115  0.750  0.000  0.458-  21 1.98  31 1.98  20 2.00
 116  0.750  0.000  0.542-  21 1.98  31 1.98  24 2.09
 117  0.098  0.875  0.500-  12 1.98  22 1.98  61 2.00
 118  0.902  0.875  0.500-  12 1.98  22 1.98  21 2.00
 119  0.000  0.000  0.565-  23 1.94  33 1.94  22 2.01
 120  1.000  0.000  0.649-  26 1.86  23 2.03  33 2.03
 121  0.850  0.876  0.607-  23 1.98  24 2.00  14 2.00
 122  0.150  0.875  0.607-  23 1.97  54 2.00  64 2.00
 123  0.751  0.000  0.672-  24 1.93  25 2.10  35 2.10
 124  0.750  0.000  0.756-  25 1.87  35 1.87
 125  0.094  0.875  0.719-  16 1.97  26 1.97  65 2.07
 126  0.907  0.875  0.720-  16 1.97  26 1.97  25 2.06
 127  0.750  0.250  0.244-  27 1.98  37 1.98
 128  0.750  0.250  0.328-  27 1.98  37 1.98  30 2.00
 129  0.098  0.125  0.286-  18 1.98  28 1.98  67 2.00
 130  0.902  0.125  0.286-  18 1.98  28 1.98  27 2.00
 131  0.000  0.250  0.351-  29 1.98  39 1.98  28 2.00
 132  0.000  0.250  0.435-  29 1.98  39 1.98  32 2.00
 133  0.848  0.125  0.393-  20 1.98  30 1.98  29 2.00
 134  0.152  0.125  0.393-  60 1.98  70 1.98  29 2.00
 135  0.750  0.250  0.458-  31 1.98  41 1.98  30 2.00
 136  0.750  0.250  0.542-  31 1.98  41 1.98  34 2.08
 137  0.098  0.125  0.500-  22 1.98  32 1.98  71 2.00
 138  0.902  0.125  0.500-  22 1.98  32 1.98  31 2.00
 139  0.000  0.250  0.565-  33 1.94  43 1.94  32 2.01
 140  0.999  0.250  0.649-  36 1.86  43 2.03  33 2.03
 141  0.850  0.125  0.607-  33 1.98  24 2.00  34 2.00
 142  0.150  0.125  0.607-  33 1.97  64 2.00  74 2.00
 143  0.753  0.249  0.672-  34 1.93  45 2.08  35 2.11
 144  0.749  0.251  0.756-  45 1.87  35 1.88
 145  0.093  0.125  0.719-  36 1.97  26 1.97  75 2.07
 146  0.907  0.125  0.720-  36 1.97  26 1.97  35 2.06
[...]
 232  0.500  0.500  0.435-  49 1.98  79 1.98  82 2.00
 233  0.348  0.375  0.393-  70 1.98  80 1.98  79 2.00
 234  0.652  0.375  0.393-  30 1.98  40 1.98  79 2.00
 235  0.250  0.500  0.458-  51 1.98  81 1.98  80 2.00
 236  0.250  0.500  0.542-  51 1.98  81 1.98  84 2.09
 237  0.598  0.375  0.500-  72 1.98  82 1.98  41 2.00
 238  0.402  0.375  0.500-  72 1.98  82 1.98  81 2.00
 239  0.500  0.500  0.566-  53 1.94  83 1.95  82 2.01
 240  0.499  0.500  0.650-  86 1.97  53 2.00  83 2.00
 241  0.349  0.375  0.607-  83 1.98  74 2.00  84 2.00
 242  0.651  0.375  0.608-  83 1.99  34 2.00  44 2.00
 243  0.250  0.500  0.672-  84 1.92  55 2.10  85 2.11
 244  0.252  0.500  0.756-  55 1.88  85 1.88
 245  0.596  0.371  0.714-  76 1.95  86 1.99  45 2.04
 246  0.408  0.374  0.719-  76 1.96  86 1.98  85 2.06

IMPORTANT INFORMATION: All symmetrisations will be switched off!
NOSYMM: (Re-)initialisation of all symmetry stuff for point group C_1.

                                     Primitive cell

  volume of cell :    4886.2662

  direct lattice vectors                    reciprocal lattice vectors
    13.143747607  0.000000000  0.000000000     0.076081802  0.000000000  0.000000000
     0.000000000 12.104894358  0.000000000     0.000000000  0.082611212  0.000000000
     0.000000000  0.000000000 30.711208800     0.000000000  0.000000000  0.032561401

  length of vectors
    13.143747607 12.104894358 30.711208800     0.076081802  0.082611212  0.032561401

  position of ions in fractional coordinates (direct lattice)
     0.516310947  0.583373363  0.812109072
     0.546074397  0.498594228  0.781428185
     0.433370230  0.590557281  0.810844145
     0.623676317  0.496618205  0.778502948
     0.540467628  0.558403242  0.844856146
     0.552415000  0.662828040  0.803846602
     0.750000000  0.625000000  0.286010579
     0.000000000  0.750000000  0.286010579
     0.000000000  0.625000000  0.393005289
     0.750000000  0.750000000  0.393005289
     0.750000000  0.625000000  0.500000000
     0.000000000  0.750000000  0.500000000
     0.000176948  0.625126918  0.605123051
     0.750308454  0.750183433  0.609414514
     0.750632509  0.626591638  0.718651773
     0.999997427  0.750140482  0.709905407
     0.750000000  0.875000000  0.286010579
     0.000000000  0.000000000  0.286010579
     0.000000000  0.875000000  0.393005289
     0.750000000  0.000000000  0.393005289
     0.750000000  0.875000000  0.500000000
     0.000000000  0.000000000  0.500000000
     0.000029821  0.875118934  0.605165924
     0.749841846  0.000102336  0.609722184
     0.750079158  0.875512993  0.719986208
     0.000317935  0.000129453  0.709851969
     0.750000000  0.125000000  0.286010579
     0.000000000  0.250000000  0.286010579
     0.000000000  0.125000000  0.393005289
     0.750000000  0.250000000  0.393005289
     0.750000000  0.125000000  0.500000000
     0.000000000  0.250000000  0.500000000
     0.000020158  0.125102984  0.605174598
     0.750203524  0.250053152  0.609421230
     0.750029595  0.124676711  0.719990749
     0.000075858  0.250169984  0.709907970
     0.750000000  0.375000000  0.286010579
     0.000000000  0.500000000  0.286010579
     0.000000000  0.375000000  0.393005289
     0.750000000  0.500000000  0.393005289
     0.750000000  0.375000000  0.500000000
     0.000000000  0.500000000  0.500000000
     0.000163928  0.375112583  0.605121280
     0.750559524  0.500105946  0.609637346
     0.750848143  0.373521330  0.718801202
     0.001117058  0.500185314  0.709825679
     0.250000000  0.625000000  0.286010579
     0.500000000  0.750000000  0.286010579
     0.500000000  0.625000000  0.393005289
     0.250000000  0.750000000  0.393005289
     0.250000000  0.625000000  0.500000000
     0.500000000  0.750000000  0.500000000
     0.499985091  0.623151993  0.606213463
     0.250210682  0.750052680  0.609761222
     0.251164985  0.625299592  0.719978131
     0.499999231  0.750744751  0.708539634
     0.250000000  0.875000000  0.286010579
     0.500000000  0.000000000  0.286010579
     0.500000000  0.875000000  0.393005289
     0.250000000  0.000000000  0.393005289
[...]
     0.500000000  0.500000000  0.434805357
     0.347668537  0.375000000  0.393005289
     0.652331463  0.375000000  0.393005289
     0.250000000  0.500000000  0.458199933
     0.250000000  0.500000000  0.541800067
     0.597668537  0.375000000  0.500000000
     0.402331463  0.375000000  0.500000000
     0.500439467  0.499993611  0.565564188
     0.498990663  0.500287888  0.649774449
     0.349067892  0.375122889  0.607277884
     0.651132942  0.375088788  0.607899374
     0.250253439  0.500331254  0.672431632
     0.251538357  0.500365710  0.756190127
     0.596237001  0.371081514  0.714449862
     0.407700553  0.374200373  0.719232913

  ion indices of the primitive-cell ions
   primitive index   ion index
                 1           1
                 2           2
                 3           3
                 4           4
                 5           5
                 6           6
                 7           7
                 8           8
                 9           9
                10          10
                11          11
                12          12
                13          13
                14          14
                15          15
                16          16
                17          17
                18          18
                19          19
                20          20
                21          21
                22          22
[...]
   O          58.228          3.978         10.433          1.93197529
   O          58.152          3.977         10.426          1.93072444
   O          58.879          3.985         10.491          1.94274713
   O          58.521          3.981         10.459          1.93682809
   O          58.431          3.980         10.451          1.93533559
   O          59.620          3.993         10.557          1.95492778
   O          39.606          3.730          8.604          1.59337000
   O          58.659          3.982         10.471          1.93912103
   O          56.596          3.959         10.285          1.90471840

  vdW correction parametrized for the method pbe

  IVDW =  21
  VDW_RADIUS =    50.000 A
  VDW_IDAMPF =  0
  VDW_S6 =     1.000
  VDW_SR =     0.950
  VDW_D =    20.000
  LVDW_ONECELL = F F F
  LVDW_SAMETYPE T T T T T
  LVDW_EWALD = F

  Number of pair interactions contributing to vdW energy: 3292989
  Edisp (eV):  -33.52855

  FORCE on cell =-STRESS in cart. coord.  units (eV):
  Direction    XX          YY          ZZ          XY          YZ          ZX
  Alpha Z  4532.08030  4532.08030  4532.08030
  Ewald  937897.19015954985.39005************   -68.91930   134.24635   -91.46906
  Hartree978648.20759987874.93498************   -38.41739    78.10944   -58.58126
  E(xc)   -8613.50329 -8597.04549 -8622.75303    -0.08813     0.18519    -0.20300
  Local  ************************************   102.49479  -203.27168   145.97400
  n-local -5261.53174 -5138.26682 -5299.05062    -1.02681     1.82117    -0.66341
  augment  5275.69264  5269.38231  5279.25423     0.38939    -0.75872     0.09835
  Kinetic 28693.87724 28152.13038 28750.38811     5.50892   -10.67298     4.86943
  Fock        0.00000     0.00000     0.00000     0.00000     0.00000     0.00000
  vdW       -48.66320   -38.67006   -41.34901     0.00225     0.03987     0.18193
  Total      10.24489   -41.33026   -28.01854    -0.05629    -0.30136     0.20698
  in kB       3.35924   -13.55194    -9.18711    -0.01846    -0.09881     0.06787

 VOLUME and BASIS-vectors are now :
  energy-cutoff  :      600.00
  volume of cell :     4886.27
      direct lattice vectors                 reciprocal lattice vectors
    13.143747607  0.000000000  0.000000000     0.076081802  0.000000000  0.000000000
     0.000000000 12.104894358  0.000000000     0.000000000  0.082611212  0.000000000
     0.000000000  0.000000000 30.711208800     0.000000000  0.000000000  0.032561401

  length of vectors
    13.143747607 12.104894358 30.711208800     0.076081802  0.082611212  0.032561401

 FORCES acting on ions:
    Electron-Ion                     Ewald-Force                    Non-Local-Force
   0.411E+02 -.884E+02 -.156E+04   -.436E+02 0.932E+02 0.156E+04   0.251E+01 -.490E+01 -.498E+01
   0.236E+02 0.123E+03 -.242E+04   -.421E+02 -.149E+03 0.241E+04   0.185E+02 0.262E+02 0.824E+01
   0.593E+02 -.139E+02 -.379E+03   -.652E+02 0.144E+02 0.379E+03   0.588E+01 -.497E+00 0.151E+00
   -.624E+02 0.122E+02 -.413E+03   0.690E+02 -.125E+02 0.412E+03   -.662E+01 0.328E+00 0.559E+00
   -.121E+02 0.799E+01 -.374E+03   0.137E+02 -.954E+01 0.379E+03   -.162E+01 0.155E+01 -.531E+01
   -.175E+02 -.620E+02 -.378E+03   0.199E+02 0.669E+02 0.377E+03   -.245E+01 -.493E+01 0.117E+01
   -.205E+00 -.258E-01 0.365E+04   0.201E+00 0.259E-01 -.366E+04   0.125E-02 -.105E-04 0.821E+00
   -.702E-01 -.739E-01 0.383E+04   0.721E-01 0.741E-01 -.382E+04   -.464E-03 -.273E-04 -.474E+01
   -.262E+00 -.468E-01 0.187E+04   0.270E+00 0.463E-01 -.187E+04   -.187E-02 0.168E-03 -.130E+00
   -.414E+00 -.953E-01 0.186E+04   0.403E+00 0.954E-01 -.187E+04   0.291E-02 0.218E-04 0.286E+00
   -.973E+00 -.141E+00 0.203E+02   0.917E+00 0.118E+00 -.198E+02   0.136E-01 0.389E-02 -.115E+00
   -.121E+01 -.824E+00 0.267E+02   0.124E+01 0.828E+00 -.275E+02   -.103E-01 -.332E-02 0.266E+00
   -.673E+01 -.212E+01 -.180E+04   0.673E+01 0.212E+01 0.180E+04   0.455E-03 -.406E-02 0.448E+00
   -.723E+01 -.990E+01 -.183E+04   0.725E+01 0.991E+01 0.183E+04   -.214E-01 -.221E-02 -.609E+00
   -.102E+03 -.160E+02 -.355E+04   0.102E+03 0.161E+02 0.355E+04   0.364E+00 -.810E-01 -.810E+00
   -.659E+01 -.660E+01 -.365E+04   0.668E+01 0.665E+01 0.365E+04   -.990E-01 -.632E-01 0.216E+01
   -.209E+00 -.802E-01 0.365E+04   0.205E+00 0.806E-01 -.366E+04   0.130E-02 -.454E-04 0.821E+00
   -.665E-01 -.344E-01 0.383E+04   0.684E-01 0.345E-01 -.382E+04   -.457E-03 -.203E-04 -.474E+01
   -.225E+00 -.151E+00 0.187E+04   0.233E+00 0.151E+00 -.187E+04   -.176E-02 0.105E-03 -.130E+00
   -.479E+00 -.889E-01 0.186E+04   0.468E+00 0.888E-01 -.187E+04   0.280E-02 0.913E-05 0.286E+00
   -.198E+01 -.105E+01 0.187E+02   0.194E+01 0.108E+01 -.183E+02   0.990E-02 -.500E-02 -.117E+00
   -.818E+00 -.247E+00 0.254E+02   0.846E+00 0.250E+00 -.262E+02   -.104E-01 -.200E-02 0.264E+00
   -.401E+01 -.302E+01 -.180E+04   0.401E+01 0.303E+01 0.180E+04   -.532E-02 -.134E-01 0.456E+00
   -.422E+01 -.189E+01 -.184E+04   0.425E+01 0.188E+01 0.185E+04   -.296E-01 0.164E-02 -.622E+00
   -.284E+02 -.274E+02 -.361E+04   0.284E+02 0.274E+02 0.361E+04   0.757E-01 -.289E-01 -.105E+01
   -.581E+01 -.211E+01 -.365E+04   0.578E+01 0.211E+01 0.365E+04   0.325E-01 -.575E-02 0.220E+01
   -.203E+00 0.257E-01 0.365E+04   0.199E+00 -.260E-01 -.366E+04   0.129E-02 0.377E-04 0.821E+00
   -.699E-01 0.739E-01 0.383E+04   0.718E-01 -.741E-01 -.382E+04   -.471E-03 0.271E-04 -.474E+01
   -.225E+00 0.488E-01 0.187E+04   0.233E+00 -.486E-01 -.187E+04   -.181E-02 -.274E-04 -.130E+00
   -.380E+00 0.955E-01 0.186E+04   0.369E+00 -.957E-01 -.187E+04   0.281E-02 -.445E-04 0.286E+00
   -.183E+01 0.419E+00 0.182E+02   0.179E+01 -.453E+00 -.177E+02   0.107E-01 0.557E-02 -.117E+00
   -.119E+01 0.922E+00 0.262E+02   0.122E+01 -.923E+00 -.270E+02   -.102E-01 0.376E-03 0.267E+00
   -.338E+01 0.165E+01 -.180E+04   0.339E+01 -.167E+01 0.180E+04   -.821E-02 0.126E-01 0.461E+00
   -.623E+01 0.965E+01 -.183E+04   0.625E+01 -.965E+01 0.183E+04   -.158E-01 0.103E-02 -.612E+00
   -.210E+02 0.164E+02 -.362E+04   0.209E+02 -.164E+02 0.362E+04   0.706E-01 0.320E-01 -.106E+01
   -.587E+01 0.617E+01 -.365E+04   0.596E+01 -.623E+01 0.365E+04   -.925E-01 0.645E-01 0.217E+01
   -.199E+00 0.803E-01 0.365E+04   0.196E+00 -.806E-01 -.366E+04   0.124E-02 0.159E-04 0.821E+00
   -.735E-01 0.344E-01 0.383E+04   0.754E-01 -.345E-01 -.382E+04   -.476E-03 0.208E-04 -.474E+01
   -.262E+00 0.149E+00 0.187E+04   0.271E+00 -.148E+00 -.187E+04   -.190E-02 -.110E-03 -.130E+00
   -.319E+00 0.888E-01 0.186E+04   0.309E+00 -.886E-01 -.187E+04   0.269E-02 -.476E-04 0.286E+00
   -.795E+00 0.757E+00 0.198E+02   0.738E+00 -.734E+00 -.193E+02   0.140E-01 -.360E-02 -.115E+00
   -.133E+01 0.356E+00 0.275E+02   0.136E+01 -.354E+00 -.283E+02   -.122E-01 -.168E-02 0.261E+00
   -.628E+01 0.355E+01 -.180E+04   0.628E+01 -.356E+01 0.180E+04   -.151E-02 0.396E-02 0.449E+00
   -.860E+01 0.196E+01 -.182E+04   0.867E+01 -.196E+01 0.182E+04   -.751E-01 0.566E-02 -.653E+00
   -.888E+02 0.272E+02 -.357E+04   0.885E+02 -.273E+02 0.357E+04   0.318E+00 0.734E-01 -.829E+00
   -.968E+01 0.245E+01 -.364E+04   0.964E+01 -.245E+01 0.364E+04   0.441E-01 0.673E-02 0.210E+01
   0.206E+00 -.210E-01 0.365E+04   -.202E+00 0.209E-01 -.366E+04   -.125E-02 0.398E-04 0.820E+00
   0.692E-01 -.678E-01 0.383E+04   -.711E-01 0.682E-01 -.382E+04   0.468E-03 -.871E-04 -.475E+01
   0.239E+00 0.111E+00 0.187E+04   -.247E+00 -.101E+00 -.187E+04   0.171E-02 -.261E-02 -.135E+00
   0.438E+00 -.396E-01 0.186E+04   -.427E+00 0.394E-01 -.187E+04   -.279E-02 0.135E-05 0.279E+00
   0.183E+01 0.121E+00 0.176E+02   -.177E+01 -.139E+00 -.170E+02   -.146E-01 0.319E-02 -.133E+00
   0.106E+01 0.431E+00 0.315E+02   -.107E+01 -.517E+00 -.320E+02   -.240E-02 0.354E-01 0.167E+00
   0.262E+01 -.986E+01 -.178E+04   -.265E+01 0.975E+01 0.178E+04   0.398E-01 0.105E+00 0.288E+00
   0.138E+02 -.622E+01 -.184E+04   -.137E+02 0.620E+01 0.184E+04   -.423E-01 0.214E-01 -.647E+00
   0.617E+02 -.145E+02 -.358E+04   -.617E+02 0.145E+02 0.358E+04   0.188E-01 -.684E-02 -.113E+01
   0.245E+02 -.812E+02 -.356E+04   -.243E+02 0.812E+02 0.356E+04   -.224E+00 0.849E-01 0.235E+01
   0.210E+00 -.748E-01 0.365E+04   -.206E+00 0.750E-01 -.366E+04   -.131E-02 -.108E-04 0.820E+00
   0.657E-01 -.425E-01 0.383E+04   -.675E-01 0.426E-01 -.382E+04   0.457E-03 -.648E-05 -.475E+01
   0.203E+00 -.485E-01 0.187E+04   -.211E+00 0.475E-01 -.187E+04   0.160E-02 -.234E-03 -.136E+00
   0.500E+00 -.907E-01 0.186E+04   -.490E+00 0.907E-01 -.186E+04   -.284E-02 0.116E-04 0.279E+00
[...]
   -.493E+02 0.402E-01 0.112E+04   0.531E+02 -.407E-01 -.112E+04   -.336E+01 0.616E-03 0.172E+00
   0.495E+02 0.565E-01 0.112E+04   -.533E+02 -.571E-01 -.112E+04   0.338E+01 0.932E-03 0.182E+00
   0.476E+00 0.145E+00 0.493E+03   -.456E+00 -.146E+00 -.497E+03   -.265E-01 0.242E-02 0.413E+01
   0.238E+01 0.552E+00 -.483E+03   -.233E+01 -.562E+00 0.489E+03   -.680E-01 0.128E-01 -.615E+01
   -.505E+02 0.121E+00 0.162E+02   0.548E+02 -.127E+00 -.163E+02   -.466E+01 0.245E-01 0.147E+00
   0.515E+02 0.235E-01 0.156E+02   -.559E+02 -.324E-01 -.157E+02   0.473E+01 0.294E-01 0.145E+00
   -.356E-01 0.132E+01 -.592E+03   0.173E+00 -.137E+01 0.586E+03   -.137E+00 0.568E-01 0.596E+01
   0.144E+02 0.344E+01 -.154E+04   -.150E+02 -.339E+01 0.154E+04   0.585E+00 -.451E-01 -.286E+01
   -.235E+02 0.435E+01 -.108E+04   0.266E+02 -.449E+01 0.108E+04   -.309E+01 0.137E+00 0.876E+00
   0.284E+02 0.559E+01 -.108E+04   -.316E+02 -.565E+01 0.108E+04   0.320E+01 0.581E-01 0.335E+00
   0.202E+02 0.267E+01 -.172E+04   -.201E+02 -.271E+01 0.172E+04   -.409E-01 0.394E-01 -.142E+01
   0.584E+02 0.971E+01 -.260E+04   -.585E+02 -.981E+01 0.262E+04   0.426E-01 0.966E-01 -.207E+02
   -.472E+02 0.612E+02 -.211E+04   0.530E+02 -.612E+02 0.211E+04   -.579E+01 -.271E-01 -.183E+00
   0.696E+02 0.425E+02 -.220E+04   -.757E+02 -.421E+02 0.221E+04   0.607E+01 -.413E+00 -.353E+01
   -.130E+02 -.178E+02 0.929E+02   0.550E-11 -.296E-11 -.114E-10   0.130E+02 0.178E+02 -.929E+02

 POSITION                                       TOTAL-FORCE (eV/Angst)
      6.78626      7.06167     24.94085         0.008859      0.002828     -0.002339
      7.17746      6.03543     23.99860         0.000247      0.001654     -0.000406
      5.69611      7.14863     24.90200         0.000900     -0.002742     -0.000098
      8.19744      6.01151     23.90877         0.000096     -0.002107     -0.000762
      7.10377      6.75941     25.94655         0.000948     -0.002102      0.001695
      7.26080      8.02346     24.68710        -0.002300     -0.008575      0.000783
      9.85781      7.56556      8.78373        -0.002504      0.000106     -3.247651
      0.00000      9.07867      8.78373         0.001426      0.000133      2.636106
      0.00000      7.56556     12.06967         0.006515     -0.000324      0.480729
      9.85781      9.07867     12.06967        -0.007865      0.000196     -0.746072
      9.85781      7.56556     15.35560        -0.042673     -0.018907      0.351619
      0.00000      9.07867     15.35560         0.019156      0.000685     -0.521840
      0.00233      7.56710     18.58406         0.000420      0.000829     -0.001519
      9.86186      9.08089     18.71586         0.000468      0.000823      0.000668
      9.86612      7.58483     22.07066        -0.002627      0.000373     -0.005597
     13.14371      9.08037     21.80205        -0.000229     -0.001985      0.001491
      9.85781     10.59178      8.78373        -0.002604      0.000365     -3.247759
      0.00000      0.00000      8.78373         0.001396      0.000090      2.635850
      0.00000     10.59178     12.06967         0.006195     -0.000198      0.480457
      9.85781      0.00000     12.06967        -0.007906     -0.000122     -0.746003
      9.85781     10.59178     15.35560        -0.029864      0.027125      0.359505
      0.00000      0.00000     15.35560         0.018011      0.001068     -0.516806
      0.00039     10.59322     18.58538         0.000038      0.000277     -0.000094
      9.85573      0.00124     18.72531         0.000265     -0.000534      0.000142
      9.85885     10.59799     22.11165         0.001158     -0.002455     -0.001133
      0.00418      0.00157     21.80041        -0.001023     -0.001712      0.003114
      9.85781      1.51311      8.78373        -0.002592     -0.000229     -3.247898
      0.00000      3.02622      8.78373         0.001439     -0.000127      2.635931
      0.00000      1.51311     12.06967         0.006295      0.000176      0.480443
      9.85781      3.02622     12.06967        -0.007643     -0.000213     -0.746100
      9.85781      1.51311     15.35560        -0.030640     -0.028027      0.359234
      0.00000      3.02622     15.35560         0.020258     -0.000218     -0.521173
      0.00026      1.51436     18.58564        -0.000008     -0.002079     -0.000330
      9.86049      3.02687     18.71606         0.000689     -0.001169     -0.000312
      9.85820      1.50920     22.11179         0.000031     -0.000060     -0.000906
      0.00100      3.02828     21.80213         0.000434      0.000731      0.001604
      9.85781      4.53934      8.78373        -0.002485     -0.000259     -3.247773
      0.00000      6.05245      8.78373         0.001449     -0.000094      2.636199
      0.00000      4.53934     12.06967         0.006616      0.000324      0.480671
      9.85781      6.05245     12.06967        -0.007568      0.000117     -0.745878
      9.85781      4.53934     15.35560        -0.043149      0.019214      0.351569
      0.00000      6.05245     15.35560         0.020124      0.000344     -0.524353
      0.00215      4.54070     18.58401         0.000099     -0.001711     -0.001273
      9.86516      6.05373     18.72270        -0.000957     -0.000069      0.001464
      9.86896      4.52144     22.07525        -0.003392     -0.000471     -0.004406
      0.01468      6.05469     21.79960        -0.001868      0.000836     -0.000397
      3.28594      7.56556      8.78373         0.002523     -0.000139     -3.244983
      6.57187      9.07867      8.78373        -0.001392      0.000294      2.642490
      6.57187      7.56556     12.06967        -0.006178      0.007372      0.503017
      3.28594      9.07867     12.06967         0.007592     -0.000206     -0.727044
      3.28594      7.56556     15.35560         0.039429     -0.014938      0.413505
      6.57187      9.07867     15.35560        -0.011936     -0.048711     -0.405736
      6.57168      7.54319     18.61755         0.001147      0.000144     -0.002438
      3.28871      9.07931     18.72650         0.001859      0.002989      0.000059
      3.30125      7.56919     22.11140         0.002154      0.000254     -0.006877
      6.57186      9.08769     21.76011         0.000460      0.000313      0.001864
      3.28594     10.59178      8.78373         0.002626      0.000190     -3.245289
      6.57187      0.00000      8.78373        -0.001380      0.000071      2.642322
      6.57187     10.59178     12.06967        -0.005887     -0.001220      0.503057
      3.28594      0.00000     12.06967         0.007677      0.000031     -0.727990
[...]
      6.57187      6.05245     13.35340         0.002406     -0.000181     -0.172751
      4.56967      4.53934     12.06967         0.396150      0.000121      0.057959
      8.57408      4.53934     12.06967        -0.389045      0.000319      0.060539
      3.28594      6.05245     14.07187        -0.006875      0.001168     -0.011555
      3.28594      6.05245     16.63933        -0.020385      0.002591      0.151097
      7.85560      4.53934     15.35560        -0.277500      0.018027      0.034696
      5.28814      4.53934     15.35560         0.313087      0.020217      0.038680
      6.57765      6.05237     17.36916         0.000711      0.000239      0.009826
      6.55861      6.05593     19.95536        -0.000623     -0.001176     -0.005117
      4.58806      4.54082     18.65024         0.001966      0.000497      0.000777
      8.55833      4.54041     18.66932        -0.001049     -0.000606      0.002675
      3.28927      6.05646     20.65119        -0.001015     -0.000520      0.000406
      3.30616      6.05687     23.22351         0.002516     -0.001397      0.001143
      7.83679      4.49190     21.94162         0.003458     -0.001466     -0.001515
      5.35871      4.52966     22.08851        -0.002506     -0.000231     -0.000157
    total drift:                               -0.003157      0.000211     -0.008463

  FREE ENERGIE OF THE ION-ELECTRON SYSTEM (eV)
  free  energy   TOTEN  =     -1944.84350013 eV

  energy  without entropy=    -1944.84350013  energy(sigma->0) =    -1944.84350013

 reached required accuracy - stopping structural energy minimisation