 vasp.6.3.0 20Jan22 (build Apr  1 2022 16:44:48) complex
 executed on        HPECrayEX_GCC date 2022.11.03  22:23:50

 INCAR:
   SYSTEM = MgO-rocksalt
   ISMEAR = 0
   SIGMA = 0.05
   EDIFF = 1E-9
   ALGO = ALL
   ISTART = 0
   IBRION = 2
   NSW = 1000
   ISYM = 0
   ISIF = 2
   EDIFFG = -0.033
   DIPOL = 0.5 0.5 0.5
   IDIPOL = 3
   LDIPOL = .TRUE.
   GGA = PE
   IVDW = 1
   VDW_C6 = 1.23 0.70 0.63 0.70
   VDW_R0 = 1.397 1.342 1.243 1.342
   ENCUT = 600
   PREC = Accurate
   LASPH = .TRUE.
   LREAL = .FALSE.
   ISPIN = 2
   MAGMOM = 1.0 0.0 0.0 0.0 0.0 0.0 0.0 0.0 0.0 0.0 0.0 0.0 0.0 0.0 0.0 0.0 0.0 0.0 0.0 0.0 0.0 0.0 0.0 0.0 0.0 0.0 0.0 0.0 0.0 0.0 0.0 0.0 0.0 0.0 0.0 0.0 0.0 0.0 0.0 0.0 0.0 0.0 0.0 0.0 0.0 0.0 0.0 0.0 0.0 0.0 0.0 0.0 0.0 0.0 0.0 0.0 0.0 0.0 0.0 0.0 0.0 0.0 0.0 0.0 0.0 0.0
   NELM = 200
   NELMIN = 8
   NCORE = 8
   KPAR = 1
   LWAVE = .FALSE.
   LCHARG = .FALSE.

 POTCAR:    PAW_PBE N 08Apr2002
 POTCAR:    PAW_PBE O 08Apr2002
 POTCAR:    PAW_PBE Mg_pv 13Apr2007
 POTCAR:    PAW_PBE O 08Apr2002
 POTCAR:    PAW_PBE N 08Apr2002
   VRHFIN =N: s2p3

   TITEL  = PAW_PBE N 08Apr2002
   POMASS =   14.001; ZVAL   =    5.000    mass and valenz
   ENMAX  =  400.000; ENMIN  =  300.000 eV

[...]

   TITEL  = PAW_PBE Mg_pv 13Apr2007
   POMASS =   24.305; ZVAL   =    8.000    mass and valenz
   ENMAX  =  403.929; ENMIN  =  302.947 eV

   TITEL  = PAW_PBE O 08Apr2002
   POMASS =   16.000; ZVAL   =    6.000    mass and valenz
   ENMAX  =  400.000; ENMIN  =  300.000 eV

  PAW_PBE N 08Apr2002                   :
  PAW_PBE O 08Apr2002                   :
  PAW_PBE Mg_pv 13Apr2007               :
  PAW_PBE O 08Apr2002                   :

 POSCAR:  N  O Mg  O
  positions in direct lattice
 exchange correlation table for  LEXCH =        8
   RHO(1)=    0.500       N(1)  =     2000
   RHO(2)=  100.500       N(2)  =     4000

 ion  position               nearest neighbor table
   1  0.496  0.250  0.758-   2 1.19
   2  0.629  0.250  0.775-   1 1.19
   3  0.250  0.000  0.351-  35 2.12  37 2.12  38 2.12  45 2.12  54 2.12
   4  0.500  0.250  0.351-  36 2.12  37 2.12  38 2.12  46 2.12  53 2.12
   5  0.250  0.250  0.450-  37 2.12  36 2.12  35 2.12  43 2.12  52 2.12  41 2.12
   6  0.500  0.000  0.450-  38 2.12  36 2.12  35 2.12  44 2.12  51 2.12  42 2.12
   7  0.250  0.000  0.550-  41 2.12  42 2.12  49 2.12  58 2.12  35 2.13  39 2.15
   8  0.500  0.250  0.550-  41 2.12  42 2.12  50 2.12  57 2.12  36 2.13  40 2.15
   9  0.250  0.250  0.649-  41 2.11  40 2.12  39 2.12  47 2.12  56 2.12
  10  0.500  0.000  0.649-  42 2.11  40 2.12  39 2.12  48 2.12  55 2.12
  11  0.250  0.500  0.351-  43 2.12  37 2.12  45 2.12  46 2.12  62 2.12
  12  0.500  0.750  0.351-  44 2.12  38 2.12  45 2.12  46 2.12  61 2.12
  13  0.250  0.750  0.450-  45 2.12  43 2.12  44 2.12  35 2.12  60 2.12  49 2.12
  14  0.500  0.500  0.450-  46 2.12  43 2.12  44 2.12  36 2.12  59 2.12  50 2.12
  15  0.250  0.500  0.550-  41 2.12  49 2.12  50 2.12  66 2.12  43 2.13  47 2.15
  16  0.500  0.750  0.550-  42 2.12  49 2.12  50 2.12  65 2.12  44 2.13  48 2.15
  17  0.250  0.750  0.649-  49 2.11  47 2.12  48 2.12  39 2.12  64 2.12
  18  0.500  0.500  0.649-  50 2.11  47 2.12  48 2.12  40 2.12  63 2.12
  19  0.750  0.000  0.351-  51 2.12  38 2.12  53 2.12  54 2.12  61 2.12
  20  0.000  0.250  0.351-  52 2.12  37 2.12  53 2.12  54 2.12  62 2.12
  21  0.750  0.250  0.450-  53 2.12  51 2.12  52 2.12  36 2.12  59 2.12  57 2.12
  22  0.000  0.000  0.450-  54 2.12  51 2.12  52 2.12  35 2.12  60 2.12  58 2.12
  23  0.750  0.000  0.550-  42 2.12  57 2.12  58 2.12  65 2.12  51 2.13  55 2.15
  24  0.000  0.250  0.550-  41 2.12  57 2.12  58 2.12  66 2.12  52 2.13  56 2.15
  25  0.750  0.250  0.649-  57 2.11  55 2.12  56 2.12  40 2.12  63 2.12
  26  0.000  0.000  0.649-  58 2.11  55 2.12  56 2.12  39 2.12  64 2.12
  27  0.750  0.500  0.351-  59 2.12  53 2.12  46 2.12  61 2.12  62 2.12
  28  0.000  0.750  0.351-  60 2.12  54 2.12  45 2.12  61 2.12  62 2.12
  29  0.750  0.750  0.450-  61 2.12  51 2.12  59 2.12  60 2.12  44 2.12  65 2.12
  30  0.000  0.500  0.450-  62 2.12  52 2.12  59 2.12  60 2.12  43 2.12  66 2.12
  31  0.750  0.500  0.550-  50 2.12  57 2.12  65 2.12  66 2.12  59 2.13  63 2.15
  32  0.000  0.750  0.550-  49 2.12  58 2.12  65 2.12  66 2.12  60 2.13  64 2.15
  33  0.750  0.750  0.649-  65 2.11  55 2.12  63 2.12  64 2.12  48 2.12
  34  0.000  0.500  0.649-  66 2.11  56 2.12  63 2.12  64 2.12  47 2.12
  35  0.250  0.000  0.450-   3 2.12   5 2.12   6 2.12  13 2.12  22 2.12   7 2.13
  36  0.500  0.250  0.450-   4 2.12   5 2.12   6 2.12  14 2.12  21 2.12   8 2.13
  37  0.250  0.250  0.351-   5 2.12   4 2.12   3 2.12  11 2.12  20 2.12
  38  0.500  0.000  0.351-   6 2.12   4 2.12   3 2.12  12 2.12  19 2.12
  39  0.250  0.000  0.651-   9 2.12  10 2.12  17 2.12  26 2.12   7 2.15
  40  0.500  0.250  0.651-   9 2.12  10 2.12  18 2.12  25 2.12   8 2.15
  41  0.250  0.250  0.550-   9 2.11   8 2.12   7 2.12  15 2.12  24 2.12   5 2.12
  42  0.500  0.000  0.550-  10 2.11   8 2.12   7 2.12  16 2.12  23 2.12   6 2.12
  43  0.250  0.500  0.450-  11 2.12   5 2.12  13 2.12  14 2.12  30 2.12  15 2.13
  44  0.500  0.750  0.450-  12 2.12   6 2.12  13 2.12  14 2.12  29 2.12  16 2.13
  45  0.250  0.750  0.351-  13 2.12  11 2.12  12 2.12   3 2.12  28 2.12
  46  0.500  0.500  0.351-  14 2.12  11 2.12  12 2.12   4 2.12  27 2.12
  47  0.250  0.500  0.651-   9 2.12  17 2.12  18 2.12  34 2.12  15 2.15
  48  0.500  0.750  0.651-  10 2.12  17 2.12  18 2.12  33 2.12  16 2.15
  49  0.250  0.750  0.550-  17 2.11  15 2.12  16 2.12   7 2.12  32 2.12  13 2.12
  50  0.500  0.500  0.550-  18 2.11  15 2.12  16 2.12   8 2.12  31 2.12  14 2.12
  51  0.750  0.000  0.450-  19 2.12   6 2.12  21 2.12  22 2.12  29 2.12  23 2.13
  52  0.000  0.250  0.450-  20 2.12   5 2.12  21 2.12  22 2.12  30 2.12  24 2.13
  53  0.750  0.250  0.351-  21 2.12  19 2.12  20 2.12   4 2.12  27 2.12
  54  0.000  0.000  0.351-  22 2.12  19 2.12  20 2.12   3 2.12  28 2.12
  55  0.750  0.000  0.651-  10 2.12  25 2.12  26 2.12  33 2.12  23 2.15
  56  0.000  0.250  0.651-   9 2.12  25 2.12  26 2.12  34 2.12  24 2.15
  57  0.750  0.250  0.550-  25 2.11  23 2.12  24 2.12   8 2.12  31 2.12  21 2.12
  58  0.000  0.000  0.550-  26 2.11  23 2.12  24 2.12   7 2.12  32 2.12  22 2.12
  59  0.750  0.500  0.450-  27 2.12  21 2.12  14 2.12  29 2.12  30 2.12  31 2.13
  60  0.000  0.750  0.450-  28 2.12  22 2.12  13 2.12  29 2.12  30 2.12  32 2.13
  61  0.750  0.750  0.351-  29 2.12  19 2.12  27 2.12  28 2.12  12 2.12
  62  0.000  0.500  0.351-  30 2.12  20 2.12  27 2.12  28 2.12  11 2.12
  63  0.750  0.500  0.651-  18 2.12  25 2.12  33 2.12  34 2.12  31 2.15
  64  0.000  0.750  0.651-  17 2.12  26 2.12  33 2.12  34 2.12  32 2.15
  65  0.750  0.750  0.550-  33 2.11  23 2.12  31 2.12  32 2.12  16 2.12  29 2.12
  66  0.000  0.500  0.550-  34 2.11  24 2.12  31 2.12  32 2.12  15 2.12  30 2.12

IMPORTANT INFORMATION: All symmetrisations will be switched off!
NOSYMM: (Re-)initialisation of all symmetry stuff for point group C_1.

                                     Primitive cell

  volume of cell :    1530.6606

  direct lattice vectors                    reciprocal lattice vectors
     8.467142631  0.000000000  0.000000000     0.118103597  0.000000000  0.000000000
     0.000000000  8.467142631  0.000000000     0.000000000  0.118103597  0.000000000
     0.000000000  0.000000000 21.350356973     0.000000000  0.000000000  0.046837624

  length of vectors
     8.467142631  8.467142631 21.350356973     0.118103597  0.118103597  0.046837624

  position of ions in fractional coordinates (direct lattice)
     0.496237219  0.250000000  0.757768785
     0.629299818  0.250000000  0.775448583
     0.250000000  0.000000000  0.351282183
     0.500000000  0.250000000  0.351282183
     0.250000000  0.250000000  0.450427394
     0.500000000  0.000000000  0.450427394
     0.250000000  0.000000000  0.550191116
     0.500000000  0.250000000  0.550191116
     0.250000000  0.250000000  0.648532086
     0.500000000  0.000000000  0.648532086
     0.250000000  0.500000000  0.351282183
     0.500000000  0.750000000  0.351282183
     0.250000000  0.750000000  0.450427394
     0.500000000  0.500000000  0.450427394
     0.250000000  0.500000000  0.550191116
     0.500000000  0.750000000  0.550191116
     0.250000000  0.750000000  0.648532086
     0.500000000  0.500000000  0.648532086
     0.750000000  0.000000000  0.351282183
     0.000000000  0.250000000  0.351282183
     0.750000000  0.250000000  0.450427394
     0.000000000  0.000000000  0.450427394
     0.750000000  0.000000000  0.550191116
     0.000000000  0.250000000  0.550191116
     0.750000000  0.250000000  0.648532086
     0.000000000  0.000000000  0.648532086
     0.750000000  0.500000000  0.351282183
     0.000000000  0.750000000  0.351282183
     0.750000000  0.750000000  0.450427394
     0.000000000  0.500000000  0.450427394
     0.750000000  0.500000000  0.550191116
     0.000000000  0.750000000  0.550191116
     0.750000000  0.750000000  0.648532086
     0.000000000  0.500000000  0.648532086
     0.250000000  0.000000000  0.450427394
     0.500000000  0.250000000  0.450427394
     0.250000000  0.250000000  0.351282183
     0.500000000  0.000000000  0.351282183
     0.250000000  0.000000000  0.650785562
     0.500000000  0.250000000  0.650785562
     0.250000000  0.250000000  0.549814593
     0.500000000  0.000000000  0.549814593
     0.250000000  0.500000000  0.450427394
     0.500000000  0.750000000  0.450427394
     0.250000000  0.750000000  0.351282183
     0.500000000  0.500000000  0.351282183
     0.250000000  0.500000000  0.650785562
     0.500000000  0.750000000  0.650785562
     0.250000000  0.750000000  0.549814593
     0.500000000  0.500000000  0.549814593
     0.750000000  0.000000000  0.450427394
     0.000000000  0.250000000  0.450427394
     0.750000000  0.250000000  0.351282183
     0.000000000  0.000000000  0.351282183
     0.750000000  0.000000000  0.650785562
     0.000000000  0.250000000  0.650785562
     0.750000000  0.250000000  0.549814593
     0.000000000  0.000000000  0.549814593
     0.750000000  0.500000000  0.450427394
     0.000000000  0.750000000  0.450427394
     0.750000000  0.750000000  0.351282183
     0.000000000  0.500000000  0.351282183
     0.750000000  0.500000000  0.650785562
     0.000000000  0.750000000  0.650785562
     0.750000000  0.750000000  0.549814593
     0.000000000  0.500000000  0.549814593

  ion indices of the primitive-cell ions
   primitive index   ion index
                 1           1
                 2           2
                 3           3
                 4           4
                 5           5
                 6           6
                 7           7
                 8           8
                 9           9
                10          10
                11          11
                12          12
                13          13
                14          14
                15          15
                16          16
                17          17
                18          18
                19          19
                20          20
                21          21
                22          22
[...]
   4.23357132  4.23357132  9.61678566
   2.11678566  4.23357132 11.74677673
   4.23357132  6.35035697 11.74677673
   2.11678566  6.35035697 13.84639155
   4.23357132  4.23357132 13.84639155
   6.35035697  0.00000000  7.50000000
   0.00000000  2.11678566  7.50000000
   6.35035697  2.11678566  9.61678566
   0.00000000  0.00000000  9.61678566
   6.35035697  0.00000000 11.74677673
   0.00000000  2.11678566 11.74677673
   6.35035697  2.11678566 13.84639155
   0.00000000  0.00000000 13.84639155
   6.35035697  4.23357132  7.50000000
   0.00000000  6.35035697  7.50000000
   6.35035697  6.35035697  9.61678566
   0.00000000  4.23357132  9.61678566
   6.35035697  4.23357132 11.74677673
   0.00000000  6.35035697 11.74677673
   6.35035697  6.35035697 13.84639155
   0.00000000  4.23357132 13.84639155
   2.11678566  0.00000000  9.61678566
   4.23357132  2.11678566  9.61678566
   2.11678566  2.11678566  7.50000000
   4.23357132  0.00000000  7.50000000
   2.11678566  0.00000000 13.89450407
   4.23357132  2.11678566 13.89450407
   2.11678566  2.11678566 11.73873783
   4.23357132  0.00000000 11.73873783
   2.11678566  4.23357132  9.61678566
   4.23357132  6.35035697  9.61678566
   2.11678566  6.35035697  7.50000000
   4.23357132  4.23357132  7.50000000
   2.11678566  4.23357132 13.89450407
   4.23357132  6.35035697 13.89450407
   2.11678566  6.35035697 11.73873783
   4.23357132  4.23357132 11.73873783
   6.35035697  0.00000000  9.61678566
   0.00000000  2.11678566  9.61678566
   6.35035697  2.11678566  7.50000000
   0.00000000  0.00000000  7.50000000
   6.35035697  0.00000000 13.89450407
   0.00000000  2.11678566 13.89450407
   6.35035697  2.11678566 11.73873783
   0.00000000  0.00000000 11.73873783
   6.35035697  4.23357132  9.61678566
   0.00000000  6.35035697  9.61678566
   6.35035697  6.35035697  7.50000000
   0.00000000  4.23357132  7.50000000
   6.35035697  4.23357132 13.89450407
   0.00000000  6.35035697 13.89450407
   6.35035697  6.35035697 11.73873783
   0.00000000  4.23357132 11.73873783

--------------------------------------- Iteration      FINAL  ---------------------------------------

--------------------OUTCAR has been truncated-------------------------

[...]

--------------------OUTCAR has been truncated-------------------------

  Number of pair interactions contributing to vdW energy:  763828
  Edisp (eV):   -3.67361

  FORCE on cell =-STRESS in cart. coord.  units (eV):
  Direction    XX          YY          ZZ          XY          YZ          ZX
  Alpha Z   903.80560   903.80560   903.80560
  Ewald  158311.44325157978.36609************     0.00003     0.00008   105.74047
  Hartree168520.25979168383.43203************     0.00002     0.00006    44.10847
  E(xc)   -2505.50037 -2506.56349 -2511.31114     0.00000     0.00000     0.38558
  Local  ************************336181.10641    -0.00004    -0.00014  -141.62145
  n-local -2849.42631 -2846.15720 -2860.41692     0.00000    -0.00000    -3.23381
  augment  1054.33622  1056.04209  1045.10425     0.00000     0.00000    -0.08266
  Kinetic  7506.91102  7543.37317  7559.37210    -0.00000     0.00000    -5.34436
  Fock        0.00000     0.00000     0.00000     0.00000     0.00000     0.00000
  vdW        -5.33451    -5.33669    -4.48584    -0.00000    -0.00000     0.00501
  Total     -29.22748   -29.33724    -2.54663     0.00000     0.00000    -0.04276
  in kB     -30.59307   -30.70796    -2.66562     0.00000     0.00000    -0.04476

 VOLUME and BASIS-vectors are now :
  energy-cutoff  :      600.00
  volume of cell :     1530.66
      direct lattice vectors                 reciprocal lattice vectors
     8.467142631  0.000000000  0.000000000     0.118103597  0.000000000  0.000000000
     0.000000000  8.467142631  0.000000000     0.000000000  0.118103597  0.000000000
     0.000000000  0.000000000 21.350356973     0.000000000  0.000000000  0.046837624

  length of vectors
     8.467142631  8.467142631 21.350356973     0.118103597  0.118103597  0.046837624

 FORCES acting on ions:
    Electron-Ion                     Ewald-Force                    Non-Local-Force
   0.245E+03 -.247E-04 -.128E+04   -.286E+03 0.251E-04 0.127E+04   0.405E+02 -.817E-06 0.973E+01
   -.231E+03 -.246E-04 -.160E+04   0.284E+03 0.266E-04 0.162E+04   -.528E+02 -.185E-05 -.194E+02
   0.331E+00 0.394E+00 0.207E+04   -.338E+00 -.401E+00 -.206E+04   0.516E-02 0.509E-02 -.704E+01
   0.101E+00 0.160E-06 0.207E+04   -.101E+00 -.269E-06 -.207E+04   -.111E-03 0.708E-07 -.698E+01
   0.218E+01 0.620E-05 0.721E+03   -.225E+01 -.664E-05 -.721E+03   0.480E-01 0.280E-06 0.514E+00
   0.415E+00 0.251E+01 0.721E+03   -.416E+00 -.258E+01 -.722E+03   0.113E-02 0.505E-01 0.520E+00
   0.533E+01 0.591E+01 -.625E+03   -.533E+01 -.590E+01 0.626E+03   0.148E-02 -.123E-01 -.495E+00
   0.286E+01 0.531E-05 -.603E+03   -.289E+01 -.930E-05 0.602E+03   0.341E-01 0.392E-05 0.657E+00
   0.357E+02 0.795E-05 -.195E+04   -.367E+02 -.684E-05 0.194E+04   0.975E+00 -.145E-05 0.626E+01
   0.111E+02 0.436E+02 -.194E+04   -.111E+02 -.445E+02 0.193E+04   0.596E-01 0.906E+00 0.616E+01
   0.331E+00 -.394E+00 0.207E+04   -.338E+00 0.401E+00 -.206E+04   0.516E-02 -.509E-02 -.704E+01
   0.885E-01 -.155E-06 0.207E+04   -.883E-01 0.249E-06 -.206E+04   -.105E-03 -.655E-07 -.703E+01
   0.106E+01 -.560E-05 0.718E+03   -.108E+01 0.602E-05 -.719E+03   0.145E-01 -.309E-06 0.461E+00
   0.415E+00 -.251E+01 0.721E+03   -.416E+00 0.258E+01 -.722E+03   0.113E-02 -.505E-01 0.520E+00
   0.533E+01 -.591E+01 -.625E+03   -.533E+01 0.590E+01 0.626E+03   0.148E-02 0.123E-01 -.495E+00
   0.147E+01 -.346E-05 -.624E+03   -.148E+01 0.760E-05 0.624E+03   0.447E-02 -.401E-05 -.327E+00
   0.116E+02 -.573E-05 -.199E+04   -.117E+02 0.497E-05 0.198E+04   0.109E+00 0.948E-06 0.612E+01
   0.111E+02 -.436E+02 -.194E+04   -.111E+02 0.445E+02 0.193E+04   0.596E-01 -.906E+00 0.616E+01
   -.332E+00 0.406E+00 0.207E+04   0.339E+00 -.414E+00 -.206E+04   -.489E-02 0.516E-02 -.704E+01
   -.999E-01 0.178E-05 0.207E+04   0.100E+00 -.186E-05 -.206E+04   -.113E-03 0.545E-07 -.702E+01
   -.220E+01 0.691E-05 0.722E+03   0.228E+01 -.735E-05 -.722E+03   -.516E-01 0.363E-06 0.520E+00
   -.408E+00 0.137E+01 0.719E+03   0.404E+00 -.139E+01 -.719E+03   0.261E-02 0.166E-01 0.461E+00
   -.538E+01 0.746E+01 -.621E+03   0.538E+01 -.747E+01 0.622E+03   0.922E-03 0.399E-02 -.498E+00
   -.280E+01 0.313E-04 -.621E+03   0.286E+01 -.331E-04 0.622E+03   -.519E-01 0.102E-05 -.353E+00
   -.434E+02 0.632E-05 -.190E+04   0.446E+02 -.509E-05 0.190E+04   -.119E+01 -.120E-05 0.629E+01
   -.864E+01 0.165E+02 -.198E+04   0.868E+01 -.167E+02 0.198E+04   -.419E-01 0.118E+00 0.612E+01
   -.332E+00 -.406E+00 0.207E+04   0.339E+00 0.414E+00 -.206E+04   -.489E-02 -.516E-02 -.704E+01
   -.879E-01 -.172E-05 0.207E+04   0.877E-01 0.183E-05 -.206E+04   0.111E-03 -.653E-07 -.704E+01
   -.107E+01 -.616E-05 0.719E+03   0.109E+01 0.667E-05 -.719E+03   -.144E-01 -.357E-06 0.465E+00
   -.408E+00 -.137E+01 0.719E+03   0.404E+00 0.139E+01 -.719E+03   0.261E-02 -.166E-01 0.461E+00
   -.538E+01 -.746E+01 -.621E+03   0.538E+01 0.747E+01 0.622E+03   0.920E-03 -.399E-02 -.498E+00
   -.144E+01 -.261E-04 -.632E+03   0.144E+01 0.281E-04 0.632E+03   0.793E-03 -.143E-05 -.329E+00
   -.120E+02 -.517E-05 -.198E+04   0.121E+02 0.400E-05 0.198E+04   -.107E+00 0.103E-05 0.612E+01
   -.864E+01 -.165E+02 -.198E+04   0.868E+01 0.167E+02 0.198E+04   -.419E-01 -.118E+00 0.612E+01
   0.104E+01 0.123E+01 0.539E+03   -.106E+01 -.126E+01 -.539E+03   0.264E-01 0.317E-01 -.146E+00
   0.346E+00 -.409E-05 0.544E+03   -.346E+00 0.389E-05 -.544E+03   0.155E-02 0.357E-06 0.124E+00
   0.301E+00 0.777E-06 0.156E+04   -.312E+00 -.848E-06 -.156E+04   0.156E-01 0.123E-06 0.350E+01
   0.714E-01 0.353E+00 0.156E+04   -.711E-01 -.365E+00 -.156E+04   -.445E-03 0.157E-01 0.350E+01
   0.177E+02 0.180E+02 -.150E+04   -.178E+02 -.180E+02 0.150E+04   0.293E-01 -.132E-03 -.518E+01
   0.174E+02 -.117E-04 -.139E+04   -.173E+02 0.122E-04 0.140E+04   -.844E-01 -.676E-06 -.386E+01
   0.516E+01 0.180E-04 -.460E+03   -.520E+01 -.185E-04 0.460E+03   0.491E-01 0.394E-06 0.165E+00
   0.161E+01 0.625E+01 -.459E+03   -.160E+01 -.629E+01 0.458E+03   -.922E-02 0.434E-01 0.214E+00
   0.104E+01 -.123E+01 0.539E+03   -.106E+01 0.126E+01 -.539E+03   0.264E-01 -.317E-01 -.146E+00
   0.269E+00 0.434E-05 0.539E+03   -.269E+00 -.422E-05 -.539E+03   0.321E-03 -.241E-06 -.783E-01
   0.203E+00 -.694E-06 0.156E+04   -.209E+00 0.828E-06 -.156E+04   0.790E-02 -.130E-06 0.348E+01
   0.714E-01 -.353E+00 0.156E+04   -.711E-01 0.365E+00 -.156E+04   -.445E-03 -.157E-01 0.350E+01
   0.177E+02 -.180E+02 -.150E+04   -.178E+02 0.180E+02 0.150E+04   0.293E-01 0.132E-03 -.518E+01
   0.373E+01 0.141E-04 -.150E+04   -.372E+01 -.156E-04 0.151E+04   -.159E-01 0.141E-05 -.510E+01
   0.295E+01 -.150E-04 -.466E+03   -.295E+01 0.153E-04 0.465E+03   0.338E-02 -.286E-06 0.319E+00
   0.161E+01 -.625E+01 -.459E+03   -.160E+01 0.629E+01 0.458E+03   -.922E-02 -.434E-01 0.214E+00
   -.106E+01 0.132E+01 0.539E+03   0.108E+01 -.134E+01 -.539E+03   -.361E-01 0.306E-01 -.149E+00
   -.322E+00 0.780E-05 0.540E+03   0.316E+00 -.825E-05 -.539E+03   0.724E-02 0.533E-06 -.730E-01
   -.302E+00 0.809E-06 0.156E+04   0.313E+00 -.912E-06 -.156E+04   -.152E-01 0.139E-06 0.350E+01
   -.704E-01 0.255E+00 0.156E+04   0.704E-01 -.261E+00 -.156E+04   -.102E-04 0.821E-02 0.348E+01
   -.194E+02 0.284E+02 -.148E+04   0.194E+02 -.284E+02 0.149E+04   0.373E-01 0.104E-01 -.520E+01
   -.123E+02 0.285E-05 -.150E+04   0.124E+02 -.278E-05 0.150E+04   -.129E+00 0.147E-06 -.512E+01
   -.514E+01 0.183E-04 -.454E+03   0.516E+01 -.185E-04 0.454E+03   -.174E-01 0.437E-06 0.258E+00
   -.153E+01 0.393E+01 -.464E+03   0.152E+01 -.394E+01 0.464E+03   0.980E-02 0.394E-02 0.300E+00
   -.106E+01 -.132E+01 0.539E+03   0.108E+01 0.134E+01 -.539E+03   -.361E-01 -.306E-01 -.149E+00
   -.264E+00 -.725E-05 0.538E+03   0.264E+00 0.771E-05 -.537E+03   -.109E-03 -.581E-06 -.125E+00
   -.204E+00 -.779E-06 0.156E+04   0.209E+00 0.892E-06 -.156E+04   -.785E-02 -.130E-06 0.348E+01
   -.704E-01 -.255E+00 0.156E+04   0.704E-01 0.261E+00 -.156E+04   -.102E-04 -.821E-02 0.348E+01
   -.194E+02 -.284E+02 -.148E+04   0.194E+02 0.284E+02 0.149E+04   0.373E-01 -.104E-01 -.520E+01
   -.348E+01 -.109E-05 -.151E+04   0.347E+01 0.102E-05 0.152E+04   0.464E-02 0.605E-07 -.513E+01
   -.301E+01 -.147E-04 -.464E+03   0.303E+01 0.151E-04 0.464E+03   -.199E-01 -.352E-06 0.317E+00
   -.153E+01 -.393E+01 -.464E+03   0.152E+01 0.394E+01 0.464E+03   0.980E-02 -.394E-02 0.300E+00
   0.125E+02 0.171E-05 0.256E+02   0.242E-12 0.462E-13 -.318E-11   -.125E+02 -.748E-06 -.256E+02

 POSITION                                       TOTAL-FORCE (eV/Angst)
      4.20091      2.11679     16.18114        -0.012225     -0.000000     -0.001837
      5.32523      2.11679     16.56512        -0.009344      0.000000      0.028435
      2.11679      0.00000      7.50000        -0.002019     -0.002019      0.395200
      4.23357      2.11679      7.50000         0.000073     -0.000000      0.382953
      2.11679      2.11679      9.61679        -0.021388     -0.000000      0.016302
      4.23357      0.00000      9.61679        -0.000614     -0.022918      0.016995
      2.11661      0.00057     11.74941        -0.003258     -0.002402     -0.006750
      4.23289      2.11679     11.72830         0.002065     -0.000000      0.001204
      2.10302      2.11679     13.85809        -0.002210     -0.000000     -0.001821
      4.23059     -0.01631     13.85510         0.001746     -0.001586     -0.001759
      2.11679      4.23357      7.50000        -0.002019      0.002019      0.395200
      4.23357      6.35036      7.50000         0.000078      0.000000      0.393509
      2.11679      6.35036      9.61679        -0.005726      0.000000      0.033674
      4.23357      4.23357      9.61679        -0.000614      0.022918      0.016995
      2.11661      4.23301     11.74941        -0.003258      0.002402     -0.006750
      4.23352      6.35036     11.74565        -0.001824      0.000000     -0.002643
      2.11325      6.35036     13.84857         0.001118      0.000000     -0.006155
      4.23059      4.24988     13.85510         0.001746      0.001587     -0.001760
      6.35036      0.00000      7.50000         0.001974     -0.002048      0.395259
      0.00000      2.11679      7.50000         0.000044     -0.000000      0.393297
      6.35036      2.11679      9.61679         0.023496     -0.000000      0.017560
      0.00000      0.00000      9.61679        -0.001519     -0.006698      0.033787
      6.34961      0.00016     11.74981         0.002432     -0.002881     -0.007607
      0.00154      2.11679     11.74499         0.003917     -0.000001     -0.003897
      6.37715      2.11679     13.85154         0.004855      0.000000     -0.007395
     -0.00000     -0.00318     13.84969         0.002144      0.000462     -0.006970
      6.35036      4.23357      7.50000         0.001974      0.002048      0.395259
      0.00000      6.35036      7.50000        -0.000006      0.000000      0.397038
      6.35036      6.35036      9.61679         0.006062      0.000000      0.033370
      0.00000      4.23357      9.61679        -0.001519      0.006698      0.033786
      6.34961      4.23341     11.74981         0.002432      0.002881     -0.007608
     -0.00002      6.35036     11.74706        -0.001892      0.000001     -0.013175
      6.35290      6.35036     13.84911        -0.003988     -0.000000     -0.005256
     -0.00000      4.23675     13.84969         0.002144     -0.000462     -0.006972
      2.11679      0.00000      9.61679         0.007376      0.008524      0.056130
      4.23357      2.11679      9.61679         0.000970      0.000000      0.032103
      2.11679      2.11679      7.50000         0.004460      0.000000     -0.473581
      4.23357      0.00000      7.50000        -0.000108      0.004455     -0.473610
      2.11732      0.00139     13.88830         0.004294      0.002738      0.006326
      4.23744      2.11679     13.88147         0.006293     -0.000000      0.001488
      2.11986      2.11679     11.74024         0.006558     -0.000000      0.009459
      4.23316      0.00299     11.74032        -0.000455      0.004070      0.010982
      2.11679      4.23357      9.61679         0.007376     -0.008524      0.056130
      4.23357      6.35036      9.61679         0.000217     -0.000000      0.060147
      2.11679      6.35036      7.50000         0.002235     -0.000000     -0.478344
      4.23357      4.23357      7.50000        -0.000108     -0.004455     -0.473610
      2.11732      4.23218     13.88830         0.004294     -0.002738      0.006325
      4.23300      6.35036     13.89058        -0.001060     -0.000000      0.004505
      2.11752      6.35036     11.73857        -0.002408      0.000000      0.003217
      4.23316      4.23058     11.74032        -0.000454     -0.004070      0.010981
      6.35036      0.00000      9.61679        -0.009752      0.008407      0.057329
      0.00000      2.11679      9.61679         0.001131      0.000000      0.058446
      6.35036      2.11679      7.50000        -0.004307      0.000000     -0.473534
      0.00000      0.00000      7.50000         0.000015      0.002304     -0.478269
      6.34760      0.00224     13.88903        -0.000254      0.003022      0.005012
      0.00252      2.11679     13.88807         0.003548      0.000000      0.003149
      6.34765      2.11679     11.74011        -0.000968      0.000000      0.008911
     -0.00041      0.00057     11.73872         0.000257     -0.001389      0.002351
      6.35036      4.23357      9.61679        -0.009752     -0.008407      0.057329
      0.00000      6.35036      9.61679        -0.000080     -0.000000      0.051824
      6.35036      6.35036      7.50000        -0.002174     -0.000000     -0.478369
      0.00000      4.23357      7.50000         0.000015     -0.002304     -0.478269
      6.34760      4.23134     13.88903        -0.000254     -0.003022      0.005011
     -0.00038      6.35036     13.89201        -0.000880     -0.000000      0.002182
      6.34950      6.35036     11.73873        -0.001162      0.000000      0.004432
     -0.00041      4.23300     11.73872         0.000257      0.001389      0.002351
    total drift:                               -0.001372      0.000001      0.010733

  FREE ENERGIE OF THE ION-ELECTRON SYSTEM (eV)
  free  energy   TOTEN  =      -388.17395102 eV

  energy  without entropy=     -388.17395102  energy(sigma->0) =     -388.17395102

 d Force = 0.1067661E-03[ 0.170E-04, 0.197E-03]  d Energy = 0.1060669E-03 0.699E-06
 d Force = 0.3241789E+01[ 0.324E+01, 0.324E+01]  d Ewald  = 0.3241787E+01 0.136E-05

 reached required accuracy - stopping structural energy minimisation