 vasp.6.3.0 20Jan22 (build Mar 11 2022 13:48:16) complex

 executed on             LinuxIFC date 2024.01.22  17:11:00

 INCAR:
   SYSTEM = TiO2
   ISMEAR = 0
   SIGMA = 0.05
   EDIFF = 1E-5
   ALGO = ALL
   ISTART = 0
   IBRION = -1
   NSW = 0
   ISYM = 0
   ISIF = 2
   EDIFFG = -0.01
   DIPOL = 0.5 0.5 0.5
   IDIPOL = 3
   LDIPOL = .TRUE.
   GGA = RE
   AGGAC = 0.0
   LUSE_VDW = .TRUE.
   LASPH = .TRUE.
   ENCUT = 600
   PREC = Accurate
   LASPH = .TRUE.
   LREAL = .FALSE.
   ISPIN = 1
   NELM = 200
   NELMIN = 8
   NCORE = 2
   KPAR = 1
   LWAVE = .FALSE.
   LCHARG = .FALSE.

 POTCAR:    PAW_PBE Ti_pv 07Sep2000
 POTCAR:    PAW_PBE O 08Apr2002
|           W    W    AA    RRRRR   N    N  II  N    N   GGGG   !!!           |
|           W    W   A  A   R    R  NN   N  II  NN   N  G    G  !!!           |
|           W    W  A    A  R    R  N N  N  II  N N  N  G       !!!           |
|           W WW W  AAAAAA  RRRRR   N  N N  II  N  N N  G  GGG   !            |
|           WW  WW  A    A  R   R   N   NN  II  N   NN  G    G                |
|           W    W  A    A  R    R  N    N  II  N    N   GGGG   !!!           |
|     For optimal performance we recommend to set                             |
|       NCORE = 2 up to number-of-cores-per-socket                            |
|     This setting can greatly improve the performance of VASP for DFT.       |
|     The default, NCORE=1 might be grossly inefficient on modern             |
|     multi-core architectures or massively parallel machines. Do your        |
|     Unfortunately you need to use the default for GW and RPA                |
|     calculations (for HF NCORE is supported but not extensively tested      |
|     yet).                                                                   |

   TITEL  = PAW_PBE Ti_pv 07Sep2000
   POMASS =   47.880; ZVAL   =   10.000    mass and valenz
   ENMAX  =  222.335; ENMIN  =  166.751 eV

   TITEL  = PAW_PBE O 08Apr2002
   POMASS =   16.000; ZVAL   =    6.000    mass and valenz
   ENMAX  =  400.000; ENMIN  =  300.000 eV

  PAW_PBE Ti_pv 07Sep2000               :
  PAW_PBE O 08Apr2002                   :

 POSCAR: Ti  O
  positions in direct lattice
 exchange correlation table for  LEXCH =       40
   RHO(1)=    0.500       N(1)  =     2000
   RHO(2)=  100.500       N(2)  =     4000

 ion  position               nearest neighbor table
   1  0.750  0.625  0.287-  82 1.95 142 1.95 141 1.95  81 1.95  84 1.98 163 1.98  11 2.96  31 2.96

   2  0.000  0.750  0.287-  83 1.95  84 1.95 103 1.95 104 1.95  85 1.98  32 2.96  12 2.96
   3  0.000  0.625  0.394-  85 1.95 145 1.95  86 1.95 146 1.95  87 1.98  88 1.98  13 2.96  33 2.96

[...]

  80  0.500  0.499  0.709- 234 1.82 240 1.94 239 1.94 180 1.96 179 1.96  70 2.95  50 2.98
  81  0.750  0.750  0.245-   1 1.95  11 1.95
  82  0.750  0.750  0.329-   1 1.95  11 1.95   4 1.98
  83  0.098  0.625  0.287-   2 1.95  32 1.95  41 1.98
  84  0.902  0.625  0.287-   2 1.95  32 1.95   1 1.98
  85  0.000  0.750  0.352-   3 1.95  13 1.95   2 1.98
  86  0.000  0.750  0.435-   3 1.95  13 1.95   6 1.98
  87  0.848  0.625  0.394-   4 1.95  34 1.95   3 1.98
  88  0.152  0.625  0.394-  44 1.95  74 1.95   3 1.98
  89  0.750  0.750  0.458-   5 1.95  15 1.95   4 1.98
  90  0.750  0.750  0.542-   5 1.95  15 1.95   8 2.11
  91  0.098  0.625  0.500-   6 1.95  36 1.95  45 1.98
  92  0.902  0.625  0.500-   6 1.95  36 1.95   5 1.98
  93  1.000  0.750  0.565-  17 1.89   7 1.89   6 2.00
  94  0.000  0.750  0.649-  10 1.81   7 2.02  17 2.02
  95  0.850  0.625  0.607-   7 1.95   8 1.97  38 1.97
  96  0.150  0.625  0.607-   7 1.95  48 1.97  78 1.97
  97  0.750  0.750  0.672-   8 1.86   9 2.10  19 2.10
  98  0.749  0.750  0.756-   9 1.83  19 1.83
  99  0.094  0.625  0.719-  40 1.95  10 1.95  49 2.03
 100  0.906  0.625  0.719-  40 1.95  10 1.95   9 2.03
 101  0.750  0.000  0.245-  11 1.95  21 1.95
 102  0.750  0.000  0.329-  11 1.95  21 1.95  14 1.98
 103  0.098  0.875  0.287-   2 1.95  12 1.95  51 1.98
 104  0.902  0.875  0.287-   2 1.95  12 1.95  11 1.98
 105  0.000  0.000  0.352-  13 1.95  23 1.95  12 1.98
 106  0.000  0.000  0.435-  13 1.95  23 1.95  16 1.98
 107  0.848  0.875  0.394-   4 1.95  14 1.95  13 1.98
 108  0.152  0.875  0.394-  44 1.95  54 1.95  13 1.98
 109  0.750  0.000  0.458-  15 1.95  25 1.95  14 1.98
 110  0.750  0.000  0.542-  15 1.95  25 1.95  18 2.11
 111  0.098  0.875  0.500-   6 1.95  16 1.95  55 1.98
 112  0.902  0.875  0.500-   6 1.95  16 1.95  15 1.98
 113  1.000  0.000  0.565-  27 1.89  17 1.89  16 2.00
 114  1.000  1.000  0.649-  20 1.81  17 2.02  27 2.02
 115  0.850  0.875  0.607-  17 1.95   8 1.97  18 1.97
 116  0.150  0.875  0.607-  17 1.95  48 1.97  58 1.97
 117  0.750  0.000  0.672-  18 1.86  29 2.10  19 2.10
 118  0.750  1.000  0.756-  19 1.83  29 1.83
 119  0.094  0.875  0.719-  10 1.95  20 1.95  59 2.03
 120  0.906  0.875  0.719-  10 1.95  20 1.95  19 2.03
 121  0.750  0.250  0.245-  21 1.95  31 1.95
 122  0.750  0.250  0.329-  21 1.95  31 1.95  24 1.98
 123  0.098  0.125  0.287-  12 1.95  22 1.95  61 1.98
 124  0.902  0.125  0.287-  12 1.95  22 1.95  21 1.98
 125  0.000  0.250  0.352-  23 1.95  33 1.95  22 1.98
 126  0.000  0.250  0.435-  23 1.95  33 1.95  26 1.98
 127  0.848  0.125  0.394-  14 1.95  24 1.95  23 1.98
 128  0.152  0.125  0.394-  54 1.95  64 1.95  23 1.98
 129  0.750  0.250  0.458-  25 1.95  35 1.95  24 1.98
 130  0.750  0.250  0.542-  25 1.95  35 1.95  28 2.11
 131  0.098  0.125  0.500-  16 1.95  26 1.95  65 1.98
 132  0.902  0.125  0.500-  16 1.95  26 1.95  25 1.98
 133  1.000  0.250  0.565-  37 1.89  27 1.89  26 2.00
 134  1.000  0.250  0.649-  30 1.81  37 2.02  27 2.02
 135  0.850  0.125  0.607-  27 1.95  18 1.97  28 1.97
 136  0.150  0.125  0.607-  27 1.95  58 1.97  68 1.97
 137  0.750  0.250  0.672-  28 1.86  29 2.10  39 2.10
 138  0.750  0.250  0.756-  39 1.83  29 1.83
 139  0.094  0.125  0.719-  30 1.95  20 1.95  69 2.03
[...]
 226  0.500  0.500  0.435-  43 1.95  73 1.95  76 1.98
 227  0.348  0.375  0.394-  64 1.95  74 1.95  73 1.98
 228  0.652  0.375  0.394-  24 1.95  34 1.95  73 1.98
 229  0.250  0.500  0.458-  45 1.95  75 1.95  74 1.98
 230  0.250  0.500  0.542-  45 1.95  75 1.95  78 2.11
 231  0.598  0.375  0.500-  66 1.95  76 1.95  35 1.98
 232  0.402  0.375  0.500-  66 1.95  76 1.95  75 1.98
 233  0.500  0.500  0.565-  77 1.89  47 1.90  76 2.00
 234  0.500  0.500  0.649-  80 1.82  47 2.01  77 2.01
 235  0.350  0.375  0.607-  77 1.95  78 1.97  68 1.97
 236  0.650  0.375  0.607-  77 1.95  38 1.97  28 1.97
 237  0.249  0.500  0.672-  78 1.86  49 2.10  79 2.10
 238  0.251  0.500  0.756-  79 1.83  49 1.84
 239  0.594  0.374  0.718-  80 1.94  70 1.94  39 2.03
 240  0.406  0.374  0.718-  80 1.94  70 1.94  79 2.03

IMPORTANT INFORMATION: All symmetrisations will be switched off!
NOSYMM: (Re-)initialisation of all symmetry stuff for point group C_1.

                                     Primitive cell

  volume of cell :    4700.2961

  direct lattice vectors                    reciprocal lattice vectors
    13.003980404  0.000000000  0.000000000     0.076899531  0.000000000  0.000000000
     0.000000000 11.830378115  0.000000000     0.000000000  0.084528152  0.000000000
     0.000000000  0.000000000 30.552748813     0.000000000  0.000000000  0.032730279

  length of vectors
    13.003980404 11.830378115 30.552748813     0.076899531  0.084528152  0.032730279

  position of ions in fractional coordinates (direct lattice)
     0.750000000  0.625000000  0.287188045
     0.000000000  0.750000000  0.287188045
     0.000000000  0.625000000  0.393594023
     0.750000000  0.750000000  0.393594023
     0.750000000  0.625000000  0.500000000
     0.000000000  0.750000000  0.500000000
     0.999999939  0.625012602  0.604131190
     0.750021775  0.750035515  0.610696778
     0.750003064  0.625099460  0.720187232
     0.000000016  0.750048202  0.708165271
     0.750000000  0.875000000  0.287188045
     0.000000000  0.000000000  0.287188045
     0.000000000  0.875000000  0.393594023
     0.750000000  0.000000000  0.393594023
     0.750000000  0.875000000  0.500000000
     0.000000000  0.000000000  0.500000000
     0.999999991  0.875008991  0.604144304
     0.749983712  0.000012875  0.610796716
     0.749876203  0.874991967  0.720525488
     0.999999989  0.999985733  0.708180187
     0.750000000  0.125000000  0.287188045
     0.000000000  0.250000000  0.287188045
     0.000000000  0.125000000  0.393594023
     0.750000000  0.250000000  0.393594023
     0.750000000  0.125000000  0.500000000
     0.000000000  0.250000000  0.500000000
     0.000000067  0.124986485  0.604150370
     0.750020773  0.249966864  0.610793409
     0.749936140  0.125009463  0.720500285
     0.000000014  0.249968494  0.708178592
     0.750000000  0.375000000  0.287188045
     0.000000000  0.500000000  0.287188045
     0.000000000  0.375000000  0.393594023
     0.750000000  0.500000000  0.393594023
     0.750000000  0.375000000  0.500000000
     0.000000000  0.500000000  0.500000000
     0.000000084  0.374994155  0.604134382
     0.750042567  0.499977077  0.610710241
     0.750059276  0.375070994  0.720471486
     0.999999993  0.500046918  0.708154109
     0.250000000  0.625000000  0.287188045
     0.500000000  0.750000000  0.287188045
     0.500000000  0.625000000  0.393594023
     0.250000000  0.750000000  0.393594023
     0.250000000  0.625000000  0.500000000
     0.500000000  0.750000000  0.500000000
     0.499999957  0.624723114  0.604426797
     0.249978087  0.750035507  0.610696776
     0.249996934  0.625099468  0.720187222
     0.500000013  0.750558309  0.708051210
     0.250000000  0.875000000  0.287188045
     0.500000000  0.000000000  0.287188045
     0.500000000  0.875000000  0.393594023
     0.250000000  0.000000000  0.393594023
     0.250000000  0.875000000  0.500000000
     0.500000000  0.000000000  0.500000000
     0.499999960  0.874829590  0.604010476
     0.250016350  0.000012902  0.610796720
     0.250123805  0.874991976  0.720525490
     0.499999993  0.000021181  0.708009690
[...]
     0.500000000  0.500000000  0.435304973
     0.347999548  0.375000000  0.393594023
     0.652000452  0.375000000  0.393594023
     0.250000000  0.500000000  0.458289049
     0.250000000  0.500000000  0.541710951
     0.597999548  0.375000000  0.500000000
     0.402000452  0.375000000  0.500000000
     0.499999988  0.500009952  0.565445434
     0.500000010  0.499946207  0.649265036
     0.350114586  0.375000884  0.607233860
     0.649885401  0.375000880  0.607233846
     0.249478263  0.500033224  0.671624988
     0.251184731  0.500305644  0.755885903
     0.594380379  0.374260879  0.718008979
     0.405619619  0.374260885  0.718008977

  ion indices of the primitive-cell ions
   primitive index   ion index
                 1           1
                 2           2
                 3           3
                 4           4
                 5           5
                 6           6
                 7           7
                 8           8
                 9           9
                10          10
                11          11
                12          12
                13          13
                14          14
                15          15
[...]
   6.50199020 10.35158085 12.02537931
   3.25099510  0.00000000 12.02537931
   3.25099510 10.35158085 15.27637441
   6.50199020  0.00000000 15.27637441
   6.50198968 10.34956484 18.45418034
   3.25120772  0.00015263 18.66151877
   3.25260506 10.35148592 22.01403431
   6.50199011  0.00025058 21.63164221
[...]
   6.50199020  5.91518906 13.29976351
   4.52537931  4.43639179 12.02537931
   8.47860110  4.43639179 12.02537931
   3.25099510  5.91518906 14.00199020
   3.25099510  5.91518906 16.55075861
   7.77637441  4.43639179 15.27637441
   5.22760600  4.43639179 15.27637441
   6.50199004  5.91530680 17.27591230
   6.50199033  5.91455267 19.83683155
   4.55288322  4.43640225 18.55266361
   8.45109701  4.43640221 18.55266318
   3.24421045  5.91558211 20.51998956
   3.26640132  5.91880495 23.09439213
   7.72931080  4.42764771 21.93714797
   5.27466957  4.42764778 21.93714791

--------------------------------------- Iteration      FINAL  ---------------------------------------

--------------------OUTCAR has been truncated-------------------------

[...]

--------------------OUTCAR has been truncated-------------------------

  FORCE on cell =-STRESS in cart. coord.  units (eV):
  Direction    XX          YY          ZZ          XY          YZ          ZX
  Alpha Z  4654.20310  4654.20310  4654.20310
  Ewald  981353.95808999113.87322************    -0.00000    -2.03956     0.00013
  Hartree************************************    -0.00002    -0.96686     0.00008
  E(xc)   -8820.50179 -8795.02195 -8820.58443    -0.00000    -0.00658     0.00000
  Local  ************************************     0.00006     2.97233    -0.00019
  n-local -5404.31661 -5327.95148 -5449.30952     0.00001    -0.05065     0.00001
  augment  5301.58132  5277.93942  5305.84770    -0.00001     0.00413    -0.00001
  Kinetic 28729.63461 28258.40337 28762.90636    -0.00001     0.08779    -0.00003
  Fock        0.00000     0.00000     0.00000     0.00000     0.00000     0.00000
  Total     172.36220   149.89069   112.95504     0.00002     0.00061    -0.00001
  in kB      58.75264    51.09284    38.50268     0.00001     0.00021    -0.00000

 VOLUME and BASIS-vectors are now :
  energy-cutoff  :      600.00
  volume of cell :     4700.30
      direct lattice vectors                 reciprocal lattice vectors
    13.003980404  0.000000000  0.000000000     0.076899531  0.000000000  0.000000000
     0.000000000 11.830378115  0.000000000     0.000000000  0.084528152  0.000000000
     0.000000000  0.000000000 30.552748813     0.000000000  0.000000000  0.032730279

  length of vectors
    13.003980404 11.830378115 30.552748813     0.076899531  0.084528152  0.032730279

 FORCES acting on ions:
    Electron-Ion                     Ewald-Force                    Non-Local-Force
   0.919E-02 0.608E-02 0.380E+04   -.930E-02 -.603E-02 -.380E+04   0.372E-04 -.104E-04 0.416E+00
   -.158E-04 0.406E-02 0.398E+04   0.275E-07 -.400E-02 -.397E+04   -.133E-05 -.518E-05 -.369E+01
   0.188E-05 0.173E-01 0.193E+04   -.200E-06 -.172E-01 -.193E+04   0.197E-05 0.606E-05 -.439E-01
   0.375E-01 0.356E-01 0.192E+04   -.378E-01 -.350E-01 -.192E+04   0.801E-04 0.995E-05 0.191E+00
   0.366E+00 0.152E+00 -.215E+02   -.368E+00 -.152E+00 0.223E+02   0.441E-03 0.105E-04 -.134E+00
   -.588E-05 -.106E-01 -.920E+01   0.619E-05 0.139E-01 0.811E+01   0.306E-06 -.735E-03 0.350E+00
   -.961E-04 0.753E-01 -.190E+04   0.105E-03 -.742E-01 0.190E+04   0.120E-05 -.568E-03 0.638E-01
   0.207E+00 0.128E+00 -.196E+04   -.192E+00 -.123E+00 0.196E+04   -.502E-02 -.358E-02 -.983E-01
   -.151E+01 0.924E+00 -.379E+04   0.148E+01 -.918E+00 0.379E+04   0.332E-01 0.214E-03 -.315E+00
   0.601E-04 0.645E+00 -.381E+04   -.752E-04 -.652E+00 0.381E+04   0.158E-05 -.231E-02 0.874E+00
   0.539E-02 0.387E-02 0.380E+04   -.557E-02 -.354E-02 -.380E+04   0.572E-04 -.304E-04 0.416E+00
   0.274E-05 -.222E-02 0.398E+04   0.100E-06 0.224E-02 -.397E+04   0.917E-05 -.406E-05 -.369E+01
   -.254E-05 -.372E-02 0.193E+04   0.258E-06 0.395E-02 -.193E+04   0.298E-05 0.689E-05 -.440E-01
   0.531E-02 -.109E-01 0.192E+04   -.597E-02 0.112E-01 -.192E+04   0.161E-03 0.300E-04 0.190E+00
   0.147E-01 0.256E-01 -.214E+02   -.159E-01 -.108E-01 0.222E+02   0.232E-03 -.982E-03 -.136E+00
   -.949E-05 -.749E-01 -.938E+01   0.673E-05 0.772E-01 0.829E+01   0.209E-05 -.391E-03 0.350E+00
   0.400E-04 -.871E-01 -.190E+04   -.361E-04 0.852E-01 0.190E+04   -.190E-05 -.755E-03 0.639E-01
   -.224E+00 0.370E-01 -.197E+04   0.234E+00 -.419E-01 0.197E+04   -.867E-03 0.149E-04 -.923E-01
   -.109E+01 0.591E+00 -.379E+04   0.113E+01 -.626E+00 0.379E+04   0.296E-02 -.276E-02 -.312E+00
   0.166E-04 0.344E+00 -.381E+04   0.336E-05 -.357E+00 0.381E+04   -.170E-05 0.822E-03 0.885E+00
   0.472E-02 -.608E-02 0.380E+04   -.491E-02 0.603E-02 -.380E+04   0.706E-04 0.555E-05 0.416E+00
   -.159E-04 -.404E-02 0.398E+04   0.102E-06 0.400E-02 -.397E+04   -.143E-05 0.989E-06 -.369E+01
   -.452E-05 -.173E-01 0.193E+04   0.693E-06 0.172E-01 -.193E+04   0.188E-05 0.468E-05 -.441E-01
   0.278E-01 -.352E-01 0.192E+04   -.282E-01 0.346E-01 -.192E+04   0.926E-04 -.723E-05 0.190E+00
   -.407E-01 -.146E+00 -.215E+02   0.395E-01 0.144E+00 0.224E+02   0.322E-03 0.729E-04 -.137E+00
   -.414E-05 0.119E-01 -.941E+01   0.184E-05 -.153E-01 0.832E+01   0.766E-06 0.732E-03 0.351E+00
   0.206E-03 -.147E+00 -.190E+04   -.200E-03 0.146E+00 0.190E+04   -.152E-05 0.123E-02 0.676E-01
   -.476E-01 -.211E+00 -.197E+04   0.648E-01 0.207E+00 0.197E+04   -.464E-02 0.254E-02 -.928E-01
   -.340E+00 -.109E+00 -.379E+04   0.376E+00 0.101E+00 0.379E+04   -.305E-02 -.123E-02 -.308E+00
   0.588E-04 -.119E+01 -.381E+04   -.500E-04 0.120E+01 0.381E+04   0.561E-07 0.205E-02 0.879E+00
   0.852E-02 -.382E-02 0.380E+04   -.863E-02 0.354E-02 -.380E+04   0.235E-04 0.361E-04 0.416E+00
   0.162E-05 0.220E-02 0.398E+04   0.290E-07 -.224E-02 -.397E+04   0.821E-05 0.805E-05 -.369E+01
   -.212E-05 0.373E-02 0.193E+04   0.154E-06 -.393E-02 -.193E+04   0.773E-07 -.146E-04 -.440E-01
   0.598E-01 0.105E-01 0.192E+04   -.599E-01 -.108E-01 -.192E+04   -.204E-04 -.366E-04 0.191E+00
   0.301E+00 -.312E-01 -.216E+02   -.303E+00 0.179E-01 0.225E+02   0.172E-03 0.947E-03 -.135E+00
   0.623E-05 0.782E-01 -.921E+01   0.360E-06 -.804E-01 0.812E+01   -.896E-06 0.277E-03 0.350E+00
   0.300E-03 0.113E+00 -.190E+04   -.295E-03 -.111E+00 0.190E+04   0.284E-06 0.308E-03 0.647E-01
   0.452E+00 0.231E-01 -.196E+04   -.431E+00 -.183E-01 0.196E+04   -.766E-02 0.461E-03 -.100E+00
   -.165E+01 -.118E+01 -.379E+04   0.176E+01 0.122E+01 0.379E+04   -.185E-01 0.602E-02 -.304E+00
   0.240E-04 0.520E-01 -.381E+04   -.169E-04 -.409E-01 0.381E+04   0.165E-05 0.958E-03 0.867E+00
   -.919E-02 0.608E-02 0.380E+04   0.930E-02 -.603E-02 -.380E+04   -.372E-04 -.538E-05 0.416E+00
   0.222E-04 0.100E-01 0.398E+04   -.308E-07 -.981E-02 -.397E+04   -.131E-05 -.310E-04 -.369E+01
   0.110E-05 0.551E-01 0.193E+04   0.214E-06 -.522E-01 -.193E+04   -.553E-06 -.578E-03 -.439E-01
   -.375E-01 0.355E-01 0.192E+04   0.378E-01 -.350E-01 -.192E+04   -.774E-04 0.122E-04 0.191E+00
   -.366E+00 0.152E+00 -.215E+02   0.368E+00 -.152E+00 0.223E+02   -.438E-03 0.103E-04 -.134E+00
   -.108E-04 0.478E+00 -.970E+01   0.135E-04 -.489E+00 0.863E+01   0.801E-07 0.799E-02 0.344E+00
   -.724E-04 0.231E+00 -.190E+04   0.703E-04 -.165E+00 0.190E+04   -.921E-06 -.271E-01 0.725E-01
   -.207E+00 0.128E+00 -.196E+04   0.193E+00 -.123E+00 0.196E+04   0.502E-02 -.358E-02 -.982E-01
   0.151E+01 0.924E+00 -.379E+04   -.148E+01 -.918E+00 0.379E+04   -.332E-01 0.211E-03 -.315E+00
   0.817E-04 0.235E+01 -.381E+04   -.717E-04 -.257E+01 0.381E+04   -.502E-05 0.459E-01 0.953E+00
   -.537E-02 0.386E-02 0.380E+04   0.557E-02 -.354E-02 -.380E+04   -.698E-04 -.360E-04 0.416E+00
   0.807E-05 -.118E-02 0.398E+04   -.113E-06 0.122E-02 -.397E+04   -.466E-06 -.898E-05 -.369E+01
   0.253E-05 0.491E-01 0.193E+04   -.339E-06 -.468E-01 -.193E+04   -.737E-06 -.541E-03 -.441E-01
   -.530E-02 -.109E-01 0.192E+04   0.597E-02 0.112E-01 -.192E+04   -.155E-03 0.292E-04 0.190E+00
   -.147E-01 0.256E-01 -.214E+02   0.159E-01 -.108E-01 0.222E+02   -.229E-03 -.986E-03 -.136E+00
   0.979E-05 -.192E-01 -.851E+01   -.556E-05 0.205E-01 0.741E+01   0.273E-05 0.463E-03 0.343E+00
   -.631E-04 -.925E+00 -.189E+04   0.600E-04 0.933E+00 0.189E+04   0.175E-05 -.202E-02 0.391E-01
   0.224E+00 0.372E-01 -.197E+04   -.234E+00 -.421E-01 0.197E+04   0.867E-03 0.168E-04 -.923E-01
   0.109E+01 0.591E+00 -.379E+04   -.113E+01 -.627E+00 0.379E+04   -.295E-02 -.276E-02 -.312E+00
   0.185E-04 -.806E+00 -.380E+04   -.125E-04 0.829E+00 0.380E+04   -.303E-05 -.376E-02 0.895E+00
[...]
   -.533E+02 -.202E-01 0.115E+04   0.573E+02 0.196E-01 -.115E+04   -.348E+01 0.112E-02 0.159E+00
   0.533E+02 -.202E-01 0.115E+04   -.573E+02 0.196E-01 -.115E+04   0.348E+01 0.112E-02 0.159E+00
   -.114E+00 0.186E-01 0.497E+03   0.115E+00 -.204E-01 -.501E+03   -.142E-02 0.421E-02 0.409E+01
   -.455E+00 0.836E-01 -.539E+03   0.455E+00 -.833E-01 0.546E+03   0.188E-02 0.941E-03 -.710E+01
   -.553E+02 -.218E+00 -.675E+01   0.600E+02 0.214E+00 0.649E+01   -.514E+01 0.110E-01 0.355E+00
   0.553E+02 -.218E+00 -.675E+01   -.600E+02 0.214E+00 0.649E+01   0.514E+01 0.110E-01 0.355E+00
   0.466E-04 -.395E+00 -.643E+03   -.488E-04 0.443E+00 0.637E+03   0.294E-05 -.498E-01 0.645E+01
   -.306E-04 -.145E+01 -.163E+04   0.373E-04 0.159E+01 0.162E+04   -.578E-05 -.154E+00 0.274E+01
   -.273E+02 0.648E-03 -.115E+04   0.303E+02 -.296E-01 0.115E+04   -.290E+01 0.280E-01 0.890E+00
   0.273E+02 0.929E-03 -.115E+04   -.303E+02 -.299E-01 0.115E+04   0.290E+01 0.280E-01 0.890E+00
   0.116E+01 0.726E+00 -.183E+04   -.126E+01 -.797E+00 0.184E+04   0.105E+00 0.575E-01 -.228E+01
   -.304E+01 -.502E+00 -.274E+04   0.327E+01 0.617E+00 0.276E+04   -.244E+00 -.175E+00 -.207E+02
   -.227E+02 -.135E+00 -.236E+04   0.289E+02 0.948E-02 0.236E+04   -.615E+01 0.179E+00 -.316E+01
   0.227E+02 -.135E+00 -.236E+04   -.289E+02 0.939E-02 0.236E+04   0.615E+01 0.179E+00 -.316E+01
   0.204E-03 -.323E+00 0.927E+02   -.292E-11 -.383E-12 0.537E-10   -.143E-03 0.323E+00 -.928E+02

 POSITION                                       TOTAL-FORCE (eV/Angst)
      9.75299      7.39399      8.77438        -0.000067      0.000035     -3.638967
      0.00000      8.87278      8.77438        -0.000017      0.000055      2.358179
      0.00000      7.39399     12.02538         0.000003      0.000074      0.526860
      9.75299      8.87278     12.02538        -0.000267      0.000617     -0.724208
      9.75299      7.39399     15.27637        -0.001982      0.000141      0.711765
      0.00000      8.87278     15.27637         0.000000      0.002560     -0.745252
     13.00398      7.39414     18.45787         0.000009      0.000578      0.119764
      9.75327      8.87320     18.65847         0.009224      0.001847     -0.107764
      9.75303      7.39516     22.00370        -0.006672      0.006500      0.147191
      0.00000      8.87335     21.63640        -0.000014     -0.008113      0.457493
      9.75299     10.35158      8.77438        -0.000117      0.000298     -3.638752
      0.00000      0.00000      8.77438         0.000012      0.000018      2.358202
      0.00000     10.35158     12.02538         0.000000      0.000232      0.527031
      9.75299      0.00000     12.02538        -0.000500      0.000324     -0.722406
      9.75299     10.35158     15.27637        -0.001009      0.013888      0.720699
      0.00000      0.00000     15.27637        -0.000001      0.001884     -0.744282
     13.00398     10.35169     18.45827         0.000002     -0.002612      0.118961
      9.75277      0.00015     18.66152         0.008620     -0.004721     -0.115170
      9.75138     10.35149     22.01403         0.044485     -0.037160      0.096278
     13.00398     11.83021     21.63685         0.000018     -0.012409      0.450595
      9.75299      1.47880      8.77438        -0.000119     -0.000046     -3.638609
      0.00000      2.95759      8.77438        -0.000017     -0.000045      2.358191
      0.00000      1.47880     12.02538        -0.000002     -0.000095      0.527087
      9.75299      2.95759     12.02538        -0.000308     -0.000628     -0.722462
      9.75299      1.47880     15.27637        -0.000939     -0.001681      0.729037
      0.00000      2.95759     15.27637        -0.000002     -0.002630     -0.744599
      0.00000      1.47864     18.45845         0.000005     -0.000189      0.117133
      9.75326      2.95720     18.66142         0.012495     -0.001758     -0.122328
      9.75215      1.47891     22.01326         0.031559     -0.009726      0.087525
      0.00000      2.95722     21.63680         0.000009      0.009572      0.449904
      9.75299      4.43639      8.77438        -0.000087     -0.000253     -3.638827
      0.00000      5.91519      8.77438         0.000010     -0.000027      2.358147
      0.00000      4.43639     12.02538        -0.000002     -0.000215      0.526914
      9.75299      5.91519     12.02538        -0.000084     -0.000323     -0.724209
      9.75299      4.43639     15.27637        -0.001744     -0.012373      0.719874
      0.00000      5.91519     15.27637         0.000005     -0.001845     -0.745735
      0.00000      4.43632     18.45797         0.000006      0.002685      0.117959
      9.75354      5.91492     18.65888         0.013555      0.004975     -0.111272
      9.75376      4.43723     22.01238         0.096238      0.039731      0.099067
     13.00398      5.91574     21.63605         0.000008      0.012096      0.456898
      3.25100      7.39399      8.77438         0.000070      0.000044     -3.638947
      6.50199      8.87278      8.77438         0.000021      0.000154      2.358386
      6.50199      7.39399     12.02538         0.000001      0.002353      0.526766
      3.25100      8.87278     12.02538         0.000272      0.000610     -0.724208
      3.25100      7.39399     15.27637         0.001981      0.000139      0.711760
      6.50199      8.87278     15.27637         0.000003     -0.003236     -0.728675
      6.50199      7.39071     18.46690        -0.000004      0.037063      0.082706
      3.25071      8.87320     18.65847        -0.009236      0.001853     -0.107747
      3.25096      7.39516     22.00370         0.006663      0.006490      0.147182
      6.50199      8.87939     21.63291         0.000005     -0.169577      0.400299
      3.25100     10.35158      8.77438         0.000123      0.000285     -3.638751
      6.50199      0.00000      8.77438         0.000007      0.000027      2.358602
      6.50199     10.35158     12.02538         0.000001      0.001762      0.528872
      3.25100      0.00000     12.02538         0.000511      0.000324     -0.722395
      3.25100     10.35158     15.27637         0.001012      0.013881      0.720712
      6.50199      0.00000     15.27637         0.000007      0.001758     -0.759036
      6.50199     10.34956     18.45418        -0.000002      0.003796      0.103124
      3.25121      0.00015     18.66152        -0.008623     -0.004723     -0.115168
      3.25261     10.35149     22.01403        -0.044493     -0.037166      0.096264
      6.50199      0.00025     21.63164         0.000003      0.017329      0.403643
[...]
      6.50199      5.91519     13.29976        -0.000003      0.000207      0.005869
      4.52538      4.43639     12.02538         0.552937      0.000509      0.050970
      8.47860      4.43639     12.02538        -0.552947      0.000510      0.050971
      3.25100      5.91519     14.00199        -0.000470      0.002382     -0.225473
      3.25100      5.91519     16.55076         0.002390      0.001179      0.228813
      7.77637      4.43639     15.27637        -0.381656      0.007429      0.100214
      5.22761      4.43639     15.27637         0.381658      0.007427      0.100215
      6.50199      5.91531     17.27591         0.000001     -0.002331     -0.171680
      6.50199      5.91455     19.83683         0.000001     -0.017599      0.041516
      4.55288      4.43640     18.55266         0.075924     -0.001004     -0.015729
      8.45110      4.43640     18.55266        -0.075915     -0.001007     -0.015735
      3.24421      5.91558     20.51999         0.002791     -0.013350      0.106571
      3.26640      5.91880     23.09439        -0.009829     -0.059150      0.443805
      7.72931      4.42765     21.93715         0.061665      0.053096      0.248733
      5.27467      4.42765     21.93715        -0.061668      0.053091      0.248728
    total drift:                                0.000061      0.000428     -0.079369

  FREE ENERGIE OF THE ION-ELECTRON SYSTEM (eV)
  free  energy   TOTEN  =     -1562.45839537 eV

  energy  without entropy=    -1562.45839537  energy(sigma->0) =    -1562.45839537