 vasp.6.4.2 20Jul23 (build Nov 17 2023 15:39:20) complex
 executed on              LinuxNV date 2024.02.27  23:41:31
 OpenACC runtime initialized ...    4 GPUs detected

 INCAR:
   SYSTEM = Oxide-Surface
   ISMEAR = 0
   SIGMA = 0.05
   EDIFF = 1E-4
   ALGO = Normal
   ISTART = 2
   IBRION = -1
   NSW = 0
   ISYM = 0
   DIPOL = 0.5 0.5 0.5
   IDIPOL = 3
   LDIPOL = .TRUE.
   LHFCALC = .TRUE.
   GGA = PE
   IVDW = 21
   VDW_SR = 0.96
   ENCUT = 450
   PREC = Normal
   LASPH = .TRUE.
   LREAL = Auto
   ISPIN = 1
   NELM = 200
   NELMIN = 8
   NCORE = 1
   KPAR = 1
   LWAVE = .FALSE.
   LCHARG = .FALSE.

 POTCAR:    PAW_PBE H 15Jun2001
 POTCAR:    PAW_PBE O 08Apr2002
 POTCAR:    PAW_PBE Mg_pv 13Apr2007
 POTCAR:    PAW_PBE O 08Apr2002
 POTCAR:    PAW_PBE H 15Jun2001
   VRHFIN =H: ultrasoft test

   TITEL  = PAW_PBE H 15Jun2001
   POMASS =    1.000; ZVAL   =    1.000    mass and valenz
   ENMAX  =  250.000; ENMIN  =  200.000 eV

   TITEL  = PAW_PBE O 08Apr2002
   POMASS =   16.000; ZVAL   =    6.000    mass and valenz
   ENMAX  =  400.000; ENMIN  =  300.000 eV

   TITEL  = PAW_PBE Mg_pv 13Apr2007
   POMASS =   24.305; ZVAL   =    8.000    mass and valenz
   ENMAX  =  403.929; ENMIN  =  302.947 eV

   TITEL  = PAW_PBE O 08Apr2002
   POMASS =   16.000; ZVAL   =    6.000    mass and valenz
   ENMAX  =  400.000; ENMIN  =  300.000 eV

 Optimization of the real space projectors (new method)

 maximal supplied QI-value         = 34.20
 optimisation between [QCUT,QGAM] = [ 10.60, 21.55] = [ 31.48,130.03] Ry
 Optimized for a Real-space Cutoff    1.23 Angstroem

   l    n(q)    QCUT    max X(q) W(low)/X(q) W(high)/X(q)  e(spline)
   0      8    10.603    19.460    0.37E-03    0.59E-03    0.23E-06
   0      8    10.603    12.209    0.35E-03    0.56E-03    0.22E-06
   1      7    10.603     4.655    0.70E-04    0.28E-03    0.29E-06
 Optimization of the real space projectors (new method)

[...]

   l    n(q)    QCUT    max X(q) W(low)/X(q) W(high)/X(q)  e(spline)
   1      7    10.771     2.974    0.18E-03    0.56E-05    0.13E-06
   1      7    10.771     4.279    0.39E-03    0.94E-04    0.28E-06
   0      8    10.771    16.381    0.27E-03    0.38E-03    0.44E-07
   0      8    10.771     5.611    0.18E-03    0.26E-03    0.32E-07
   2      7    10.771     4.652    0.12E-03    0.23E-03    0.45E-07
 Optimization of the real space projectors (new method)

 maximal supplied QI-value         = 24.76
 optimisation between [QCUT,QGAM] = [ 10.64, 21.54] = [ 31.73,129.89] Ry
 Optimized for a Real-space Cutoff    1.23 Angstroem

   l    n(q)    QCUT    max X(q) W(low)/X(q) W(high)/X(q)  e(spline)
   0      8    10.645    20.381    0.38E-03    0.60E-03    0.15E-06
   0      8    10.645    15.268    0.40E-03    0.65E-03    0.17E-06
   1      7    10.645     5.964    0.30E-03    0.63E-03    0.18E-06
   1      7    10.645     5.382    0.24E-03    0.53E-03    0.16E-06
  PAW_PBE H 15Jun2001                   :
  PAW_PBE O 08Apr2002                   :
  PAW_PBE Mg_pv 13Apr2007               :
  PAW_PBE O 08Apr2002                   :

 POSCAR:  H  O Mg  O
  positions in direct lattice
 exchange correlation table for  LEXCH =        8
   RHO(1)=    0.500       N(1)  =     2000
   RHO(2)=  100.500       N(2)  =     4000

 ion  position               nearest neighbor table
   1  0.617  0.554  0.767-   3 0.97
   2  0.510  0.673  0.728-   3 1.01
   3  0.508  0.572  0.754-   1 0.97   2 1.01  34 2.25
   4  0.000  0.750  0.352-  36 2.11  38 2.11  39 2.11  46 2.11  55 2.11
   5  0.250  0.000  0.352-  37 2.11  38 2.11  39 2.11  47 2.11  54 2.11
   6  0.000  0.000  0.451-  38 2.11  37 2.11  36 2.11  44 2.11  53 2.11  42 2.11
   7  0.250  0.750  0.451-  39 2.11  37 2.11  36 2.11  45 2.11  52 2.11  43 2.12
   8  0.000  0.750  0.550-  50 2.11  42 2.11  43 2.11  36 2.12  59 2.12  40 2.15
   9  0.250  0.000  0.550-  51 2.11  43 2.11  58 2.11  42 2.11  37 2.12  41 2.15
  10  0.000  0.000  0.649-  48 2.10  41 2.10  57 2.11  42 2.11  40 2.11
  11  0.248  0.750  0.648-  40 2.09  43 2.10  49 2.11  41 2.11  56 2.13
  12  0.000  0.250  0.352-  44 2.11  38 2.11  46 2.11  47 2.11  63 2.11
  13  0.250  0.500  0.352-  45 2.11  39 2.11  46 2.11  47 2.11  62 2.11
  14  0.000  0.500  0.451-  46 2.11  44 2.11  45 2.11  36 2.11  61 2.11  50 2.11
  15  0.250  0.250  0.451-  47 2.11  44 2.11  45 2.11  37 2.11  60 2.11  51 2.12
  16  0.000  0.250  0.550-  51 2.11  50 2.11  67 2.11  42 2.11  44 2.12  48 2.15
  17  0.251  0.500  0.550-  66 2.11  51 2.11  43 2.11  49 2.12  50 2.12  45 2.13
  18  0.000  0.500  0.648-  49 2.09  65 2.10  50 2.11  48 2.11  40 2.12
  19  0.249  0.250  0.649-  48 2.10  41 2.11  51 2.11  49 2.11  64 2.12
  20  0.500  0.750  0.352-  52 2.11  39 2.11  54 2.11  55 2.11  62 2.11
  21  0.750  0.000  0.352-  53 2.11  38 2.11  54 2.11  55 2.11  63 2.11
  22  0.500  0.000  0.451-  54 2.11  52 2.11  53 2.11  37 2.11  60 2.11  58 2.12
  23  0.750  0.750  0.451-  55 2.11  52 2.11  53 2.11  36 2.11  61 2.11  59 2.12
  24  0.500  0.749  0.550-  66 2.10  43 2.10  59 2.11  58 2.11  52 2.13  56 2.20
  25  0.750  0.000  0.550-  67 2.11  58 2.11  42 2.11  59 2.11  53 2.12  57 2.15
  26  0.500  0.002  0.649-  64 2.07  56 2.09  58 2.11  41 2.11  57 2.12
  27  0.752  0.751  0.648-  59 2.08  40 2.09  57 2.10  65 2.11  56 2.13
  28  0.500  0.250  0.352-  60 2.11  54 2.11  47 2.11  62 2.11  63 2.11
  29  0.750  0.500  0.352-  61 2.11  55 2.11  46 2.11  62 2.11  63 2.11
  30  0.500  0.500  0.451-  62 2.11  52 2.11  60 2.11  61 2.11  45 2.11  66 2.14
  31  0.750  0.250  0.451-  63 2.11  53 2.11  60 2.11  61 2.11  44 2.11  67 2.12
  32  0.500  0.251  0.550-  51 2.11  66 2.11  67 2.11  58 2.12  60 2.13  64 2.14
  33  0.749  0.500  0.550-  66 2.10  67 2.11  59 2.11  50 2.12  61 2.13  65 2.15
  34  0.498  0.494  0.653-  64 2.08  49 2.11  65 2.14  66 2.19  56 2.20   3 2.25
  35  0.751  0.250  0.648-  48 2.10  67 2.10  57 2.11  64 2.12  65 2.12
  36  0.000  0.750  0.451-   4 2.11   6 2.11   7 2.11  14 2.11  23 2.11   8 2.12
  37  0.250  0.000  0.451-   5 2.11   6 2.11   7 2.11  15 2.11  22 2.11   9 2.12
  38  0.000  0.000  0.352-   6 2.11   5 2.11   4 2.11  12 2.11  21 2.11
  39  0.250  0.750  0.352-   7 2.11   5 2.11   4 2.11  13 2.11  20 2.11
  40  1.000  0.750  0.651-  27 2.09  11 2.09  10 2.11  18 2.12   8 2.15
  41  0.249  1.000  0.651-  10 2.10  19 2.11  11 2.11  26 2.11   9 2.15
  42  1.000  1.000  0.550-  10 2.11   8 2.11  25 2.11   9 2.11  16 2.11   6 2.11
  43  0.251  0.750  0.550-  11 2.10  24 2.10   9 2.11   8 2.11  17 2.11   7 2.12
  44  0.000  0.250  0.451-  12 2.11   6 2.11  14 2.11  15 2.11  31 2.11  16 2.12
  45  0.250  0.500  0.451-  13 2.11   7 2.11  14 2.11  15 2.11  30 2.11  17 2.13
  46  0.000  0.500  0.352-  14 2.11  12 2.11  13 2.11   4 2.11  29 2.11
  47  0.250  0.250  0.352-  15 2.11  12 2.11  13 2.11   5 2.11  28 2.11
  48  1.000  0.250  0.651-  35 2.10  10 2.10  19 2.10  18 2.11  16 2.15
  49  0.248  0.500  0.650-  18 2.09  11 2.11  34 2.11  19 2.11  17 2.12
  50  1.000  0.500  0.550-   8 2.11  18 2.11  16 2.11  14 2.11  33 2.12  17 2.12
  51  0.250  0.250  0.550-   9 2.11  32 2.11  16 2.11  17 2.11  19 2.11  15 2.12
  52  0.500  0.750  0.451-  20 2.11   7 2.11  22 2.11  23 2.11  30 2.11  24 2.13
  53  0.750  0.000  0.451-  21 2.11   6 2.11  22 2.11  23 2.11  31 2.11  25 2.12
  54  0.500  0.000  0.352-  22 2.11  20 2.11  21 2.11   5 2.11  28 2.11
  55  0.750  0.750  0.352-  23 2.11  20 2.11  21 2.11   4 2.11  29 2.11
  56  0.500  0.754  0.653-  26 2.09  11 2.13  27 2.13  24 2.20  34 2.20
  57  0.750  1.000  0.651-  27 2.10  10 2.11  35 2.11  26 2.12  25 2.15
  58  0.500  0.999  0.550-  26 2.11  25 2.11   9 2.11  24 2.11  22 2.12  32 2.12
  59  0.749  0.750  0.550-  27 2.08  24 2.11  25 2.11  33 2.11   8 2.12  23 2.12
  60  0.500  0.250  0.451-  28 2.11  22 2.11  15 2.11  30 2.11  31 2.11  32 2.13
  61  0.750  0.500  0.451-  29 2.11  23 2.11  14 2.11  30 2.11  31 2.11  33 2.13
  62  0.500  0.500  0.352-  30 2.11  20 2.11  28 2.11  29 2.11  13 2.11
  63  0.750  0.250  0.352-  31 2.11  21 2.11  28 2.11  29 2.11  12 2.11
  64  0.500  0.248  0.651-  26 2.07  34 2.08  35 2.12  19 2.12  32 2.14
  65  0.752  0.500  0.651-  18 2.10  27 2.11  35 2.12  34 2.14  33 2.15
  66  0.500  0.500  0.551-  24 2.10  33 2.10  17 2.11  32 2.11  30 2.14  34 2.19
  67  0.750  0.250  0.550-  35 2.10  25 2.11  33 2.11  32 2.11  16 2.11  31 2.12

IMPORTANT INFORMATION: All symmetrisations will be switched off!
NOSYMM: (Re-)initialisation of all symmetry stuff for point group C_1.

                                     Primitive cell

  volume of cell :    1519.8199

  direct lattice vectors                    reciprocal lattice vectors
     8.440984654  0.000000000  0.000000000     0.118469591  0.000000000  0.000000000
     0.000000000  8.440984654  0.000000000     0.000000000  0.118469591  0.000000000
     0.000000000  0.000000000 21.330738491     0.000000000  0.000000000  0.046880702

  length of vectors
     8.440984654  8.440984654 21.330738491     0.118469591  0.118469591  0.046880702

  position of ions in fractional coordinates (direct lattice)
     0.616747350  0.554373542  0.766913467
     0.509929304  0.672789327  0.728458732
     0.507505033  0.572133215  0.754100542
     0.000000000  0.750000000  0.351605267
     0.250000000  0.000000000  0.351605267
     0.000000000  0.000000000  0.450535089
     0.250000000  0.750000000  0.450535089
     0.000207284  0.749768794  0.549791295
     0.250042949  0.000125680  0.550039895
     0.000073806  0.000410042  0.648595353
     0.247683155  0.749917871  0.648435248
     0.000000000  0.250000000  0.351605267
     0.250000000  0.500000000  0.351605267
     0.000000000  0.500000000  0.450535089
     0.250000000  0.250000000  0.450535089
     0.000031262  0.250140480  0.549909578
     0.250686002  0.499742672  0.550400910
     0.000425668  0.499513881  0.648371969
     0.248982972  0.249855834  0.648744198
     0.500000000  0.750000000  0.351605267
     0.750000000  0.000000000  0.351605267
     0.500000000  0.000000000  0.450535089
     0.750000000  0.750000000  0.450535089
     0.499726028  0.748980267  0.550355635
     0.749777797  0.000284338  0.549933824
     0.499677098  0.001992687  0.648655524
     0.752464721  0.750671887  0.647526815
     0.500000000  0.250000000  0.351605267
     0.750000000  0.500000000  0.351605267
     0.500000000  0.500000000  0.450535089
     0.750000000  0.250000000  0.450535089
     0.499781674  0.250547524  0.550270665
     0.749015091  0.499678732  0.550464135
     0.498120585  0.493518517  0.653381840
     0.750669226  0.249556903  0.648459532
     0.000000000  0.750000000  0.450535089
     0.250000000  0.000000000  0.450535089
     0.000000000  0.000000000  0.351605267
     0.250000000  0.750000000  0.351605267
     0.999772439  0.750337934  0.650565869
     0.249261806  0.999887658  0.650737238
     0.999830501  0.999774756  0.549663713
     0.250559146  0.750233236  0.549968787
     0.000000000  0.250000000  0.450535089
     0.250000000  0.500000000  0.450535089
     0.000000000  0.500000000  0.351605267
     0.250000000  0.250000000  0.351605267
     0.999743677  0.249577840  0.650728320
     0.248180911  0.500092169  0.649707399
     0.999581945  0.500107963  0.549555474
[...]
   O         195.631          4.868         19.123          3.54123862
   O         190.417          4.846         18.866          3.49372516
   O         189.863          4.844         18.839          3.48863882
   O         240.852          5.040         21.218          3.92926466
   O         243.086          5.047         21.316          3.94745050
   O         239.366          5.034         21.152          3.91712559
   O         238.720          5.032         21.124          3.91183304
   O         195.802          4.869         19.131          3.54278999
   O         195.870          4.869         19.134          3.54339688
   O         191.973          4.853         18.943          3.50797608
   O         195.121          4.866         19.098          3.53662059
   O         235.736          5.022         20.991          3.88731308
   O         243.421          5.048         21.331          3.95016877

  vdW correction parametrized for the method  «6    þ

  IVDW =  21
  VDW_RADIUS =    50.000 A
  VDW_IDAMPF =  0
  VDW_S6 =     1.000
  VDW_SR =     0.960
  VDW_D =    20.000
  LVDW_ONECELL = F F F
  LVDW_SAMETYPE T T T T
  LVDW_EWALD = F

  Number of pair interactions contributing to vdW energy:  791489
  Edisp (eV):   -3.94996

 VOLUME and BASIS-vectors are now :
  energy-cutoff  :      450.00
  volume of cell :     1519.82
      direct lattice vectors                 reciprocal lattice vectors
     8.440984654  0.000000000  0.000000000     0.118469591  0.000000000  0.000000000
     0.000000000  8.440984654  0.000000000     0.000000000  0.118469591  0.000000000
     0.000000000  0.000000000 21.330738491     0.000000000  0.000000000  0.046880702

  length of vectors
     8.440984654  8.440984654 21.330738491     0.118469591  0.118469591  0.046880702

 FORCES acting on ions
    electron-ion (+dipol)            ewald-force                    non-local-force                 convergence-correction
   -.823E+02 0.155E+02 -.292E+03   0.897E+02 -.169E+02 0.295E+03   -.753E+01 0.141E+01 -.235E+01   0.547E-03 0.327E-04 0.359E-01
   0.640E+00 -.675E+02 -.264E+03   -.800E+00 0.731E+02 0.260E+03   0.922E-01 -.583E+01 0.370E+01   -.621E-06 0.183E-03 0.356E-01
   0.480E+02 0.269E+02 -.170E+04   -.858E+02 -.473E+02 0.171E+04   0.330E+02 0.179E+02 -.997E+01   -.149E-02 0.588E-03 0.217E+00
   -.168E-01 -.215E-01 0.208E+04   0.185E-01 0.173E-01 -.208E+04   -.102E-02 0.265E-02 -.672E+01   -.347E-04 0.189E-04 -.234E+00
   -.315E-01 -.295E-01 0.208E+04   0.336E-01 0.322E-01 -.208E+04   -.126E-02 -.158E-02 -.675E+01   0.843E-05 -.288E-04 -.234E+00
   -.148E+00 -.258E+00 0.715E+03   0.164E+00 0.294E+00 -.715E+03   -.103E-01 -.230E-01 0.423E+00   -.749E-04 -.928E-04 -.103E+00
   -.321E-01 -.161E-02 0.715E+03   0.114E+00 -.985E-02 -.715E+03   -.526E-01 0.572E-02 0.558E+00   0.636E-04 0.243E-04 -.103E+00
   -.392E+00 -.284E+01 -.640E+03   0.479E+00 0.278E+01 0.640E+03   -.733E-01 0.446E-01 -.853E-01   -.214E-03 0.110E-03 0.639E-01
   0.257E+01 -.107E+01 -.645E+03   -.252E+01 0.114E+01 0.646E+03   -.373E-01 -.630E-01 -.195E+00   0.131E-03 -.303E-03 0.643E-01
   -.917E+00 -.431E+01 -.202E+04   0.994E+00 0.448E+01 0.201E+04   -.652E-01 -.146E+00 0.571E+01   -.343E-03 -.105E-03 0.208E+00
   0.250E+02 -.211E+02 -.198E+04   -.260E+02 0.212E+02 0.198E+04   0.864E+00 -.229E-01 0.585E+01   0.797E-03 0.551E-03 0.207E+00
   -.933E-02 0.208E-01 0.208E+04   0.103E-01 -.168E-01 -.208E+04   -.529E-03 -.249E-02 -.675E+01   -.329E-04 -.176E-04 -.234E+00
   -.642E-01 0.302E-01 0.208E+04   0.698E-01 -.331E-01 -.208E+04   -.369E-02 0.177E-02 -.675E+01   0.265E-05 0.290E-04 -.234E+00
   -.923E-01 0.248E+00 0.716E+03   0.611E-01 -.289E+00 -.716E+03   0.198E-01 0.254E-01 0.340E+00   -.776E-04 0.945E-04 -.103E+00
   -.153E+00 -.312E-01 0.715E+03   0.149E+00 0.379E-01 -.716E+03   0.372E-02 -.275E-02 0.430E+00   0.559E-04 -.239E-04 -.103E+00
   -.619E-01 0.285E+01 -.646E+03   0.108E+00 -.279E+01 0.646E+03   -.390E-01 -.525E-01 -.881E-01   -.220E-03 -.108E-03 0.640E-01
   0.357E+01 0.111E+01 -.636E+03   -.334E+01 -.117E+01 0.637E+03   -.207E+00 0.548E-01 -.868E+00   0.165E-03 0.293E-03 0.645E-01
   -.118E+01 0.512E+01 -.200E+04   0.138E+01 -.527E+01 0.200E+04   -.167E+00 0.134E+00 0.574E+01   -.709E-03 0.857E-04 0.207E+00
   0.165E+02 0.180E+02 -.201E+04   -.168E+02 -.181E+02 0.200E+04   0.285E+00 0.485E-01 0.580E+01   -.424E-03 -.606E-03 0.208E+00
   0.176E-01 0.971E-02 0.208E+04   -.193E-01 -.180E-01 -.208E+04   0.114E-02 0.534E-02 -.675E+01   0.340E-04 0.228E-04 -.234E+00
   0.305E-01 -.372E-01 0.208E+04   -.329E-01 0.405E-01 -.208E+04   0.153E-02 -.204E-02 -.673E+01   -.800E-05 -.332E-04 -.234E+00
   0.140E+00 -.307E+00 0.715E+03   -.164E+00 0.261E+00 -.715E+03   0.147E-01 0.293E-01 0.473E+00   0.756E-04 -.980E-04 -.103E+00
   0.617E-04 0.469E-01 0.715E+03   -.838E-01 -.102E+00 -.716E+03   0.541E-01 0.338E-01 0.576E+00   -.613E-04 0.260E-04 -.102E+00
   0.406E+00 -.296E+01 -.645E+03   -.483E+00 0.273E+01 0.644E+03   0.672E-01 0.208E+00 0.838E+00   0.213E-03 0.158E-03 0.656E-01
   -.257E+01 -.142E+01 -.643E+03   0.253E+01 0.153E+01 0.643E+03   0.338E-01 -.957E-01 -.141E+00   -.129E-03 -.299E-03 0.643E-01
   0.117E+01 -.111E+02 -.200E+04   -.124E+01 0.116E+02 0.199E+04   0.609E-01 -.407E+00 0.562E+01   0.332E-03 -.133E-02 0.207E+00
   -.259E+02 -.220E+02 -.197E+04   0.270E+02 0.223E+02 0.196E+04   -.942E+00 -.231E+00 0.592E+01   -.846E-03 0.170E-03 0.206E+00
   0.907E-02 -.133E-01 0.208E+04   -.104E-01 0.206E-01 -.208E+04   0.859E-03 -.474E-02 -.674E+01   0.306E-04 -.229E-04 -.234E+00
   0.626E-01 0.386E-01 0.208E+04   -.690E-01 -.419E-01 -.208E+04   0.416E-02 0.202E-02 -.676E+01   -.152E-05 0.302E-04 -.234E+00
   0.751E-01 0.336E+00 0.713E+03   -.578E-01 -.308E+00 -.714E+03   -.119E-01 -.198E-01 0.669E+00   0.717E-04 0.100E-03 -.103E+00
   0.132E+00 -.838E-01 0.715E+03   -.134E+00 0.139E+00 -.716E+03   0.600E-03 -.335E-01 0.482E+00   -.544E-04 -.225E-04 -.103E+00
   0.653E-01 0.365E+01 -.639E+03   -.106E+00 -.346E+01 0.639E+03   0.362E-01 -.170E+00 -.418E+00   0.219E-03 -.725E-04 0.643E-01
   -.341E+01 0.148E+01 -.641E+03   0.317E+01 -.158E+01 0.641E+03   0.214E+00 0.833E-01 -.307E+00   -.148E-03 0.289E-03 0.653E-01
   0.473E+01 0.301E+02 -.191E+04   -.518E+01 -.320E+02 0.191E+04   0.380E+00 0.167E+01 0.255E+01   0.949E-03 0.233E-02 0.216E+00
   -.168E+02 0.182E+02 -.200E+04   0.171E+02 -.184E+02 0.199E+04   -.263E+00 0.185E+00 0.580E+01   0.432E-03 -.252E-03 0.207E+00
   -.223E-01 -.221E+00 0.537E+03   0.200E-01 0.206E+00 -.537E+03   0.158E-02 0.187E-01 0.340E-01   -.607E-04 0.275E-04 -.747E-01
   -.210E-01 -.179E-01 0.536E+03   0.252E-01 0.378E-01 -.536E+03   -.431E-02 -.249E-01 -.779E-01   0.428E-04 -.809E-04 -.747E-01
   -.147E-01 -.270E-01 0.156E+04   0.181E-01 0.337E-01 -.157E+04   -.406E-02 -.800E-02 0.310E+01   -.279E-04 -.341E-04 -.176E+00
   -.327E-01 -.458E-02 0.156E+04   0.411E-01 0.111E-02 -.157E+04   -.101E-01 0.408E-02 0.310E+01   -.343E-05 0.172E-04 -.176E+00
   -.223E+01 -.717E+01 -.153E+04   0.230E+01 0.706E+01 0.153E+04   -.555E-01 0.917E-01 -.457E+01   -.281E-03 0.357E-03 0.158E+00
   0.841E+01 -.584E+01 -.153E+04   -.820E+01 0.578E+01 0.153E+04   -.184E+00 0.523E-01 -.456E+01   -.574E-04 -.319E-03 0.158E+00
   -.373E+00 -.124E+01 -.480E+03   0.384E+00 0.127E+01 0.480E+03   -.133E-01 -.281E-01 0.169E+00   -.132E-03 -.129E-03 0.471E-01
   0.201E+01 -.245E+01 -.475E+03   -.209E+01 0.240E+01 0.474E+03   0.797E-01 0.523E-01 0.396E+00   0.242E-03 0.103E-03 0.475E-01
   0.116E-01 0.213E+00 0.536E+03   -.184E-02 -.192E+00 -.536E+03   -.121E-01 -.246E-01 -.571E-01   -.599E-04 -.267E-04 -.747E-01
   -.184E+00 0.191E-01 0.536E+03   0.131E+00 -.329E-01 -.535E+03   0.613E-01 0.179E-01 -.126E+00   0.572E-04 0.801E-04 -.747E-01
   -.716E-02 0.275E-01 0.156E+04   0.614E-02 -.341E-01 -.157E+04   0.128E-02 0.781E-02 0.309E+01   -.237E-04 0.292E-04 -.176E+00
   -.358E-01 0.394E-02 0.156E+04   0.361E-01 -.350E-03 -.157E+04   -.444E-03 -.425E-02 0.309E+01   0.181E-04 -.161E-04 -.176E+00
   -.929E+00 0.659E+01 -.153E+04   0.934E+00 -.649E+01 0.154E+04   -.154E-02 -.789E-01 -.454E+01   -.302E-03 -.350E-03 0.158E+00
   0.294E+02 0.817E+01 -.149E+04   -.291E+02 -.810E+01 0.150E+04   -.341E+00 -.680E-01 -.467E+01   0.510E-03 0.392E-03 0.157E+00
   0.297E-01 0.125E+01 -.474E+03   0.729E-02 -.128E+01 0.473E+03   -.346E-01 0.296E-01 0.228E+00   -.217E-03 0.130E-03 0.469E-01
   0.234E+01 0.240E+01 -.476E+03   -.234E+01 -.234E+01 0.476E+03   -.662E-02 -.563E-01 0.184E+00   0.161E-04 -.951E-04 0.469E-01
   0.303E-01 -.717E-01 0.536E+03   -.260E-01 0.124E+00 -.536E+03   -.398E-02 -.586E-01 -.111E+00   0.604E-04 0.727E-05 -.745E-01
   0.774E-03 -.562E-01 0.536E+03   0.474E-02 0.647E-01 -.536E+03   -.668E-02 -.121E-01 -.289E-01   -.461E-04 -.788E-04 -.746E-01
   0.154E-01 -.290E-01 0.156E+04   -.186E-01 0.280E-01 -.157E+04   0.371E-02 0.132E-02 0.310E+01   0.253E-04 -.157E-04 -.176E+00
   0.320E-01 0.245E-02 0.156E+04   -.404E-01 -.106E-01 -.157E+04   0.101E-01 0.969E-02 0.310E+01   0.453E-05 0.215E-04 -.176E+00
   0.378E+01 -.371E+02 -.147E+04   -.391E+01 0.369E+02 0.147E+04   0.120E+00 0.231E+00 -.186E+01   0.371E-03 -.814E-03 0.160E+00
   -.854E+01 -.718E+01 -.153E+04   0.832E+01 0.719E+01 0.153E+04   0.197E+00 -.465E-02 -.457E+01   0.640E-04 -.304E-03 0.158E+00
   0.409E+00 -.623E+00 -.476E+03   -.429E+00 0.664E+00 0.476E+03   0.191E-01 -.437E-01 0.294E+00   0.133E-03 -.387E-03 0.475E-01
   -.201E+01 -.206E+01 -.471E+03   0.209E+01 0.204E+01 0.471E+03   -.794E-01 0.175E-01 0.680E+00   -.240E-03 0.257E-04 0.476E-01
   -.246E-01 -.422E-03 0.536E+03   0.240E-01 -.287E-01 -.535E+03   0.172E-02 0.333E-01 -.690E-01   0.568E-04 -.135E-04 -.747E-01
   0.157E+00 0.718E-01 0.535E+03   -.872E-01 -.802E-01 -.535E+03   -.806E-01 0.117E-01 -.156E+00   -.606E-04 0.800E-04 -.746E-01
   0.826E-02 0.315E-01 0.156E+04   -.673E-02 -.299E-01 -.157E+04   -.193E-02 -.203E-02 0.309E+01   0.252E-04 0.217E-04 -.176E+00
   0.358E-01 -.361E-02 0.156E+04   -.360E-01 0.117E-01 -.157E+04   0.168E-03 -.966E-02 0.309E+01   -.138E-04 -.176E-04 -.176E+00
   0.112E+01 0.263E+02 -.151E+04   -.114E+01 -.263E+02 0.151E+04   0.153E-01 0.441E-01 -.445E+01   0.295E-03 0.647E-04 0.157E+00
   -.310E+02 0.106E+02 -.149E+04   0.304E+02 -.106E+02 0.150E+04   0.546E+00 -.428E-01 -.431E+01   -.638E-03 0.420E-03 0.158E+00
   -.136E+00 0.150E+00 -.484E+03   0.869E-01 -.219E+00 0.484E+03   0.426E-01 0.563E-01 -.674E+00   0.212E-03 0.336E-03 0.485E-01
   -.235E+01 0.201E+01 -.476E+03   0.234E+01 -.199E+01 0.476E+03   0.722E-02 -.203E-01 0.309E+00   -.141E-04 -.101E-04 0.472E-01
   -.310E+02 -.179E+02 0.297E+02   -.611E-12 -.606E-13 -.284E-12   0.260E+02 0.150E+02 -.247E+02   -.781E-03 0.114E-02 -.582E+00

 POSITION                                       TOTAL-FORCE (eV/Angst)
      5.20595      4.67946     16.35883        -0.503182      0.039106     -0.101019
      4.30431      5.67900     15.53856        -0.063805     -0.474193      0.248520
      4.28384      4.82937     16.08552         0.554540      0.426595     -0.320063
      0.00000      6.33074      7.50000         0.000380     -0.001174      0.496391
      2.11025      0.00000      7.50000         0.000512      0.000782      0.503694
      0.00000      0.00000      9.61025         0.004267      0.009903      0.014438
      2.11025      6.33074      9.61025         0.021739     -0.004760      0.018726
      0.00175      6.32879     11.72745         0.003510     -0.001756      0.041186
      2.11061      0.00106     11.73276         0.003492      0.002730      0.052014
      0.00062      0.00346     13.83502         0.002828      0.000694     -0.125037
      2.09069      6.33005     13.83160        -0.020151      0.007564     -0.128537
      0.00000      2.11025      7.50000         0.000259      0.001125      0.504554
      2.11025      4.22049      7.50000         0.001248     -0.000817      0.505842
      0.00000      4.22049      9.61025        -0.008409     -0.011381      0.038814
      2.11025      2.11025      9.61025        -0.000225      0.003451      0.026271
      0.00026      2.11143     11.72998         0.001914     -0.000256      0.043366
      2.11604      4.21832     11.74046         0.004948      0.000369      0.059530
      0.00359      4.21639     13.83025         0.008206     -0.002117     -0.128951
      2.10166      2.10903     13.83819         0.000145     -0.005106     -0.120090
      4.22049      6.33074      7.50000        -0.000430     -0.002000      0.507090
      6.33074      0.00000      7.50000        -0.000710      0.000910      0.499838
      4.22049      0.00000      9.61025        -0.007011     -0.012226      0.039405
      6.33074      6.33074      9.61025        -0.021670     -0.015805      0.011111
      4.21818      6.32213     11.73949        -0.001263      0.002567      0.032283
      6.32886      0.00240     11.73049        -0.002969      0.003669      0.048267
      4.21777      0.01682     13.83630        -0.001659      0.011398     -0.128510
      6.35154      6.33641     13.81223         0.030224      0.018842     -0.159040
      4.22049      2.11025      7.50000        -0.000354      0.001826      0.501982
      6.33074      4.22049      7.50000        -0.001505     -0.000943      0.508155
      4.22049      4.22049      9.61025         0.003634      0.005613      0.052947
      6.33074      2.11025      9.61025        -0.002155      0.016278      0.020752
      4.21865      2.11487     11.73768        -0.001004      0.003357      0.054580
      6.32242      4.21778     11.74181        -0.003029     -0.000827      0.046866
      4.20463      4.16578     13.93712        -0.012902     -0.002973     -0.025947
      6.33639      2.10651     13.83212         0.005126     -0.013032     -0.129012
      0.00000      6.33074      9.61025        -0.000602      0.006835      0.087675
      2.11025      0.00000      9.61025        -0.000507     -0.009900      0.073266
      0.00000      0.00000      7.50000        -0.001448     -0.002805     -0.420774
      2.11025      6.33074      7.50000        -0.003354      0.001212     -0.420493
      8.43906      6.33359     13.87705         0.000372     -0.001799     -0.121311
      2.10402      8.44004     13.88071        -0.000697      0.005052     -0.126232
      8.43955      8.43908     11.72473        -0.003476     -0.004099      0.004897
      2.11497      6.33271     11.73124         0.007417      0.001503      0.016174
      0.00000      2.11025      9.61025        -0.004600     -0.008670      0.066867
      2.11025      4.22049      9.61025         0.020189      0.007725      0.095037
      0.00000      4.22049      7.50000         0.000443      0.002721     -0.423167
      2.11025      2.11025      7.50000         0.000040     -0.001298     -0.423056
      8.43882      2.10668     13.88052         0.001537      0.009297     -0.125145
      2.09489      4.22127     13.85874        -0.020604     -0.010075     -0.132505
      8.43746      4.22140     11.72242        -0.002624      0.005002      0.007944
      2.10948      2.10701     11.72619        -0.000208     -0.000507      0.007309
      4.22049      6.33074      9.61025        -0.000388     -0.017265      0.091604
      6.33074      0.00000      9.61025        -0.002852     -0.006100      0.079843
      4.22049      0.00000      7.50000         0.001218      0.000512     -0.421516
      6.33074      6.33074      7.50000         0.003225      0.003199     -0.417979
      4.22154      6.36778     13.93502         0.010908      0.009286     -0.028036
      6.33491      8.43985     13.88004         0.005400      0.003224     -0.121077
      4.22045      8.43503     11.72954         0.002423     -0.008137      0.013328
      6.32507      6.33100     11.72992        -0.007887     -0.000768      0.026566
      4.22049      2.11025      9.61025         0.001375      0.010314      0.101947
      6.33074      4.22049      9.61025        -0.026043      0.005817      0.089831
      4.22049      4.22049      7.50000        -0.000789     -0.000818     -0.425137
      6.33074      2.11025      7.50000        -0.000262     -0.003207     -0.422290
      4.22062      2.09110     13.87599         0.001824      0.005395     -0.118894
      6.34494      4.22297     13.88752         0.025062     -0.008009     -0.114996
      4.22176      4.22431     11.74807         0.000631     -0.004157     -0.021630
      6.32990      2.10929     11.72767        -0.000258      0.003110      0.011535
    total drift:                                0.003083      0.000006      0.016824

  FREE ENERGIE OF THE ION-ELECTRON SYSTEM (eV)
  free  energy   TOTEN  =      -486.68055195 eV

  energy  without entropy=     -486.68055195  energy(sigma->0) =     -486.68055195