 vasp.6.3.0 20Jan22 (build Aug 21 2024 11:13:42) complex
 executed on        HPECrayEX_GCC date 2024.08.27  13:44:44

 INCAR:
   SYSTEM = MgO-rocksalt
   ISMEAR = 0
   SIGMA = 0.05
   EDIFF = 1E-6
   ALGO = ALL
   ISTART = 0
   IBRION = -1
   NSW = 0
   ISYM = 0
   DIPOL = 0.5 0.5 0.5
   IDIPOL = 3
   LDIPOL = .TRUE.
   GGA = RE
   IVDW = 13
   VDW_S8 = 1.7468
   VDW_A1 = 0.5363
   VDW_A2 = 3.0726
   ENCUT = 600
   PREC = Accurate
   LASPH = .TRUE.
   LREAL = .FALSE.
   ISPIN = 1
   NELM = 200
   NELMIN = 8
   NCORE = 8
   KPAR = 1
   LWAVE = .FALSE.
   LCHARG = .FALSE.

 POTCAR:    PAW_PBE Mg_pv 13Apr2007
 POTCAR:    PAW_PBE O 08Apr2002
 POTCAR:    PAW_PBE Mg_pv 13Apr2007
   VRHFIN =Mg: p6s2

   TITEL  = PAW_PBE Mg_pv 13Apr2007
   POMASS =   24.305; ZVAL   =    8.000    mass and valenz
   ENMAX  =  403.929; ENMIN  =  302.947 eV

   TITEL  = PAW_PBE O 08Apr2002
   POMASS =   16.000; ZVAL   =    6.000    mass and valenz
   ENMAX  =  400.000; ENMIN  =  300.000 eV

  PAW_PBE Mg_pv 13Apr2007               :
  PAW_PBE O 08Apr2002                   :

 POSCAR: Mg  O
  positions in direct lattice
|           W    W    AA    RRRRR   N    N  II  N    N   GGGG   !!!           |
|           W    W   A  A   R    R  NN   N  II  NN   N  G    G  !!!           |
|           W    W  A    A  R    R  N N  N  II  N N  N  G       !!!           |
|           W WW W  AAAAAA  RRRRR   N  N N  II  N  N N  G  GGG   !            |
|           WW  WW  A    A  R   R   N   NN  II  N   NN  G    G                |
|           W    W  A    A  R    R  N    N  II  N    N   GGGG   !!!           |
|     Specifying the vdW parameters                                           |
|     VDW_S8 = 1.747                                                          |
|     VDW_A1 = 0.536                                                          |
|     VDW_A2 = 3.073                                                          |
|     in the INCAR file will overwrite the defaults for revpbe. Please        |
|     make sure that is what you intended.                                    |

 ion  position               nearest neighbor table
   1  0.250  0.000  0.352-  33 2.11  35 2.11  36 2.11  43 2.11  52 2.11
   2  0.500  0.250  0.352-  34 2.11  35 2.11  36 2.11  44 2.11  51 2.11
   3  0.250  0.250  0.451-  35 2.11  34 2.11  33 2.11  41 2.11  50 2.11  39 2.11
   4  0.500  0.000  0.451-  36 2.11  34 2.11  33 2.11  42 2.11  49 2.11  40 2.12
   5  0.250  0.000  0.550-  40 2.11  39 2.11  47 2.11  56 2.11  33 2.12  37 2.14
   6  0.500  0.250  0.550-  55 2.11  40 2.11  48 2.11  39 2.11  34 2.12  38 2.14
   7  0.250  0.250  0.648-  39 2.10  54 2.10  38 2.11  37 2.11  45 2.11
   8  0.500  0.000  0.649-  38 2.11  40 2.11  46 2.11  37 2.11  53 2.12
   9  0.250  0.500  0.352-  41 2.11  35 2.11  43 2.11  44 2.11  60 2.11
  10  0.500  0.750  0.352-  42 2.11  36 2.11  43 2.11  44 2.11  59 2.11
  11  0.250  0.750  0.451-  43 2.11  41 2.11  42 2.11  33 2.11  58 2.11  47 2.11
  12  0.500  0.500  0.451-  44 2.11  41 2.11  42 2.11  34 2.11  57 2.11  48 2.12
  13  0.250  0.500  0.550-  48 2.11  47 2.11  39 2.11  64 2.11  41 2.12  45 2.14
  14  0.500  0.750  0.550-  63 2.11  40 2.11  48 2.11  47 2.11  42 2.12  46 2.14
  15  0.250  0.750  0.648-  47 2.10  62 2.10  46 2.11  45 2.11  37 2.11
  16  0.500  0.500  0.649-  46 2.11  48 2.11  38 2.11  45 2.11  61 2.12
  17  0.750  0.000  0.352-  49 2.11  36 2.11  51 2.11  52 2.11  59 2.11
  18  0.000  0.250  0.352-  50 2.11  35 2.11  51 2.11  52 2.11  60 2.11
  19  0.750  0.250  0.451-  51 2.11  49 2.11  50 2.11  34 2.11  57 2.11  55 2.12
  20  0.000  0.000  0.451-  52 2.11  49 2.11  50 2.11  33 2.11  58 2.11  56 2.11
  21  0.750  0.000  0.550-  40 2.11  55 2.11  63 2.11  56 2.11  49 2.12  53 2.14
  22  1.000  0.250  0.550-  55 2.11  64 2.11  56 2.11  39 2.11  50 2.12  54 2.14
  23  0.750  0.250  0.649-  61 2.11  55 2.11  53 2.11  54 2.11  38 2.12
  24  0.000  0.000  0.648-  56 2.10  37 2.10  53 2.11  62 2.11  54 2.11
  25  0.750  0.500  0.352-  57 2.11  51 2.11  44 2.11  59 2.11  60 2.11
  26  0.000  0.750  0.352-  58 2.11  52 2.11  43 2.11  59 2.11  60 2.11
  27  0.750  0.750  0.451-  59 2.11  49 2.11  57 2.11  58 2.11  42 2.11  63 2.12
  28  0.000  0.500  0.451-  60 2.11  50 2.11  57 2.11  58 2.11  41 2.11  64 2.11
  29  0.750  0.500  0.550-  48 2.11  63 2.11  55 2.11  64 2.11  57 2.12  61 2.14
  30  1.000  0.750  0.550-  63 2.11  64 2.11  56 2.11  47 2.11  58 2.12  62 2.14
  31  0.750  0.750  0.649-  53 2.11  63 2.11  61 2.11  62 2.11  46 2.12
  32  0.000  0.500  0.648-  64 2.10  45 2.10  61 2.11  54 2.11  62 2.11
  33  0.250  0.000  0.451-   1 2.11   3 2.11   4 2.11  11 2.11  20 2.11   5 2.12
  34  0.500  0.250  0.451-   2 2.11   3 2.11   4 2.11  12 2.11  19 2.11   6 2.12
  35  0.250  0.250  0.352-   3 2.11   2 2.11   1 2.11   9 2.11  18 2.11
  36  0.500  0.000  0.352-   4 2.11   2 2.11   1 2.11  10 2.11  17 2.11
  37  0.249  0.000  0.650-  24 2.10   7 2.11  15 2.11   8 2.11   5 2.14
  38  0.500  0.250  0.650-   8 2.11   7 2.11  16 2.11  23 2.12   6 2.14
  39  0.250  0.250  0.550-   7 2.10   5 2.11  13 2.11   6 2.11   3 2.11  22 2.11
  40  0.500  0.000  0.550-  21 2.11   5 2.11  14 2.11   6 2.11   8 2.11   4 2.12
  41  0.250  0.500  0.451-   9 2.11   3 2.11  11 2.11  12 2.11  28 2.11  13 2.12
  42  0.500  0.750  0.451-  10 2.11   4 2.11  11 2.11  12 2.11  27 2.11  14 2.12
  43  0.250  0.750  0.352-  11 2.11   9 2.11  10 2.11   1 2.11  26 2.11
  44  0.500  0.500  0.352-  12 2.11   9 2.11  10 2.11   2 2.11  25 2.11
  45  0.249  0.500  0.650-  32 2.10  15 2.11   7 2.11  16 2.11  13 2.14
  46  0.500  0.750  0.650-  16 2.11  15 2.11   8 2.11  31 2.12  14 2.14
  47  0.250  0.750  0.550-  15 2.10   5 2.11  13 2.11  14 2.11  11 2.11  30 2.11
  48  0.500  0.500  0.550-  13 2.11  29 2.11  16 2.11   6 2.11  14 2.11  12 2.12
  49  0.750  0.000  0.451-  17 2.11   4 2.11  19 2.11  20 2.11  27 2.11  21 2.12
  50  0.000  0.250  0.451-  18 2.11   3 2.11  19 2.11  20 2.11  28 2.11  22 2.12
  51  0.750  0.250  0.352-  19 2.11  17 2.11  18 2.11   2 2.11  25 2.11
  52  0.000  0.000  0.352-  20 2.11  17 2.11  18 2.11   1 2.11  26 2.11
  53  0.750  0.000  0.650-  31 2.11  24 2.11  23 2.11   8 2.12  21 2.14
  54  0.001  0.250  0.650-   7 2.10  32 2.11  24 2.11  23 2.11  22 2.14
  55  0.750  0.250  0.550-  22 2.11   6 2.11  21 2.11  29 2.11  23 2.11  19 2.12
  56  1.000  0.000  0.550-  24 2.10  30 2.11  22 2.11  21 2.11  20 2.11   5 2.11
  57  0.750  0.500  0.451-  25 2.11  19 2.11  12 2.11  27 2.11  28 2.11  29 2.12
  58  0.000  0.750  0.451-  26 2.11  20 2.11  11 2.11  27 2.11  28 2.11  30 2.12
  59  0.750  0.750  0.352-  27 2.11  17 2.11  25 2.11  26 2.11  10 2.11
  60  0.000  0.500  0.352-  28 2.11  18 2.11  25 2.11  26 2.11   9 2.11
  61  0.750  0.500  0.650-  23 2.11  32 2.11  31 2.11  16 2.12  29 2.14
  62  0.001  0.750  0.650-  15 2.10  24 2.11  32 2.11  31 2.11  30 2.14
  63  0.750  0.750  0.550-  30 2.11  14 2.11  21 2.11  29 2.11  31 2.11  27 2.12
  64  1.000  0.500  0.550-  32 2.10  22 2.11  30 2.11  29 2.11  28 2.11  13 2.11

IMPORTANT INFORMATION: All symmetrisations will be switched off!
NOSYMM: (Re-)initialisation of all symmetry stuff for point group C_1.

                                     Primitive cell

  volume of cell :    1519.6535

  direct lattice vectors                    reciprocal lattice vectors
     8.440582262  0.000000000  0.000000000     0.118475239  0.000000000  0.000000000
     0.000000000  8.440582262  0.000000000     0.000000000  0.118475239  0.000000000
     0.000000000  0.000000000 21.330436697     0.000000000  0.000000000  0.046881366

  length of vectors
     8.440582262  8.440582262 21.330436697     0.118475239  0.118475239  0.046881366

  position of ions in fractional coordinates (direct lattice)
     0.250000000  0.000000000  0.351610242
     0.500000000  0.250000000  0.351610242
     0.250000000  0.250000000  0.450536747
     0.500000000  0.000000000  0.450536747
     0.250224690  0.000046991  0.549867504
     0.500231897  0.250027359  0.550102720
     0.249800584  0.250071873  0.647835510
     0.499714720  0.000158054  0.648745206
     0.250000000  0.500000000  0.351610242
     0.500000000  0.750000000  0.351610242
     0.250000000  0.750000000  0.450536747
     0.500000000  0.500000000  0.450536747
     0.250217395  0.500045624  0.549876756
     0.500231127  0.750037191  0.550100771
     0.249802018  0.750108527  0.647836743
     0.499710836  0.500159284  0.648725973
     0.750000000  0.000000000  0.351610242
     0.000000000  0.250000000  0.351610242
     0.750000000  0.250000000  0.450536747
     0.000000000  0.000000000  0.450536747
     0.749801425  0.000028354  0.550098713
     0.999777575  0.250051927  0.549880149
     0.750302333  0.250132189  0.648778965
     0.000223629  0.000091402  0.647853053
     0.750000000  0.500000000  0.351610242
     0.000000000  0.750000000  0.351610242
     0.750000000  0.750000000  0.450536747
     0.000000000  0.500000000  0.450536747
     0.749810072  0.500026670  0.550116489
     0.999779264  0.750047056  0.549881125
     0.750302344  0.750186134  0.648777644
     0.000226577  0.500090522  0.647866231
     0.250000000  0.000000000  0.450536747
     0.500000000  0.250000000  0.450536747
     0.250000000  0.250000000  0.351610242
     0.500000000  0.000000000  0.351610242
     0.249478678  0.000114183  0.650007073
     0.499723507  0.250037701  0.650331726
     0.250063939  0.250036691  0.549555343
     0.500019618  0.000028690  0.549810884
     0.250000000  0.500000000  0.450536747
     0.500000000  0.750000000  0.450536747
     0.250000000  0.750000000  0.351610242
     0.500000000  0.500000000  0.351610242
     0.249490791  0.500113809  0.650002894
     0.499723680  0.750049129  0.650330234
     0.250064611  0.750047921  0.549555938
     0.500010345  0.500026703  0.549820297
     0.750000000  0.000000000  0.450536747
     0.000000000  0.250000000  0.450536747
     0.750000000  0.250000000  0.351610242
     0.000000000  0.000000000  0.351610242
     0.750286863  0.000043360  0.650369162
     0.000536943  0.250108046  0.650057661
     0.750022687  0.250016414  0.549830742
     0.999928229  0.000048124  0.549570564
     0.750000000  0.500000000  0.450536747
     0.000000000  0.750000000  0.450536747
     0.750000000  0.750000000  0.351610242
     0.000000000  0.500000000  0.351610242
     0.750279731  0.500042915  0.650345919
     0.000537170  0.750123762  0.650058153
     0.750024104  0.750036121  0.549830444
     0.999935467  0.500046075  0.549563950

  ion indices of the primitive-cell ions
   primitive index   ion index
                 1           1
                 2           2
                 3           3
                 4           4
                 5           5
                 6           6
                 7           7
                 8           8
                 9           9
                10          10
                11          11
                12          12
                13          13
                14          14
                15          15
                16          16
                17          17
                18          18
                19          19
                20          20
[...]
   0.75000000  0.75000000  0.35161024
   0.00000000  0.50000000  0.35161024
   0.75027973  0.50004291  0.65034592
   0.00053717  0.75012376  0.65005815
   0.75002410  0.75003612  0.54983044
   0.99993547  0.50004608  0.54956395

 position of ions in cartesian coordinates  (Angst):
   2.11014557  0.00000000  7.50000000
   4.22029113  2.11014557  7.50000000
   2.11014557  2.11014557  9.61014557
   4.22029113  0.00000000  9.61014557
   2.11204208  0.00039663 11.72891398
   4.22224847  2.11037649 11.73393126
   2.10846238  2.11075222 13.81861434
   4.21788320  0.00133407 13.83801855
   2.11014557  4.22029113  7.50000000
   4.22029113  6.33043670  7.50000000
   2.11014557  6.33043670  9.61014557
   4.22029113  4.22029113  9.61014557
   2.11198050  4.22067622 11.72911134
   4.22224198  6.33075061 11.73388968
   2.10847448  6.33135273 13.81864063
   4.21785042  4.22163558 13.83760829
   6.33043670  0.00000000  7.50000000
   0.00000000  2.11014557  7.50000000
   6.33043670  2.11014557  9.61014557
   0.00000000  0.00000000  9.61014557
   6.32876061  0.00023932 11.73384577
   8.43870487  2.11058386 11.72918371
   6.33298857  2.11126132 13.83873864
   0.00188756  0.00077149 13.81898854
   6.33043670  4.22029113  7.50000000
   0.00000000  6.33043670  7.50000000
   6.33043670  6.33043670  9.61014557
   0.00000000  4.22029113  9.61014557
   6.32883359  4.22051624 11.73422494
   8.43871912  6.33083388 11.72920453
   6.33298865  6.33200777 13.83871046
   0.00191244  4.22105519 13.81926963
   2.11014557  0.00000000  9.61014557
   4.22029113  2.11014557  9.61014557
   2.11014557  2.11014557  7.50000000
   4.22029113  0.00000000  7.50000000
   2.10574530  0.00096377 13.86493472
   4.21795737  2.11046379 13.87185971
   2.11068524  2.11045526 11.72225546
   4.22045672  0.00024216 11.72770625
   2.11014557  4.22029113  9.61014557
   4.22029113  6.33043670  9.61014557
   2.11014557  6.33043670  7.50000000
   4.22029113  4.22029113  7.50000000
   2.10584755  4.22125175 13.86484559
   4.21795883  6.33085137 13.87182789
   2.11069092  6.33084118 11.72226815
   4.22037845  4.22051652 11.72790705
   6.33043670  0.00000000  9.61014557
   0.00000000  2.11014557  9.61014557
   6.33043670  2.11014557  7.50000000
   0.00000000  0.00000000  7.50000000
   6.33285799  0.00036598 13.87265825
   0.00453212  2.11105754 13.86601380
   6.33062819  2.11028411 11.72812985
   8.43997648  0.00040620 11.72258012
   6.33043670  4.22029113  9.61014557
   0.00000000  6.33043670  9.61014557
   6.33043670  6.33043670  7.50000000
   0.00000000  4.22029113  7.50000000
   6.33279779  4.22065336 13.87216245
   0.00453403  6.33148132 13.86602428
   6.33064015  6.33074158 11.72812348
   8.44003757  4.22068003 11.72243904

--------------------------------------- Iteration      FINAL  ---------------------------------------

--------------------OUTCAR has been truncated-------------------------

[...]

--------------------OUTCAR has been truncated-------------------------

  FORCE on cell =-STRESS in cart. coord.  units (eV):
  Direction    XX          YY          ZZ          XY          YZ          ZX
  Alpha Z   875.35513   875.35513   875.35513
  Ewald  161553.11552161553.24510************    -0.00007     0.30486     0.01975
  Hartree171635.01111171635.11917************    -0.00003     0.19419     0.01189
  E(xc)   -2465.54564 -2465.54548 -2473.77073    -0.00000     0.00124     0.00010
  Local  ************************343445.46557     0.00010    -0.50999    -0.03244
  n-local -2795.22046 -2795.22034 -2815.72747    -0.00000     0.01139     0.00095
  augment  1046.56236  1046.56268  1037.12924    -0.00001     0.00381     0.00030
  Kinetic  7310.39848  7310.39536  7350.61298     0.00000    -0.05768    -0.00517
  Fock        0.00000     0.00000     0.00000     0.00000     0.00000     0.00000
  vdW       -21.53584   -21.53594   -16.20681     0.00000    -0.00037    -0.00003
  Total     -25.80669   -25.81261     0.15765    -0.00001    -0.05255    -0.00467
  in kB     -27.20810   -27.21435     0.16621    -0.00001    -0.05540    -0.00492

 VOLUME and BASIS-vectors are now :
  energy-cutoff  :      600.00
  volume of cell :     1519.65
      direct lattice vectors                 reciprocal lattice vectors
     8.440582262  0.000000000  0.000000000     0.118475239  0.000000000  0.000000000
     0.000000000  8.440582262  0.000000000     0.000000000  0.118475239  0.000000000
     0.000000000  0.000000000 21.330436697     0.000000000  0.000000000  0.046881366

  length of vectors
     8.440582262  8.440582262 21.330436697     0.118475239  0.118475239  0.046881366

 FORCES acting on ions:
    Electron-Ion                     Ewald-Force                    Non-Local-Force
   -.116E+00 0.386E-03 0.207E+04   0.118E+00 -.271E-03 -.206E+04   -.141E-02 -.911E-04 -.716E+01
   -.126E+00 -.547E-02 0.207E+04   0.128E+00 0.571E-02 -.206E+04   -.164E-02 -.183E-03 -.716E+01
   -.502E+00 -.163E-01 0.686E+03   0.519E+00 0.190E-01 -.686E+03   -.119E-01 -.179E-02 0.436E+00
   -.566E+00 0.236E-02 0.684E+03   0.582E+00 -.888E-03 -.685E+03   -.115E-01 -.101E-02 0.511E+00
   -.767E+00 0.289E-01 -.688E+03   0.826E+00 -.281E-01 0.688E+03   -.632E-01 -.104E-02 -.299E+00
   -.980E+00 -.553E-01 -.692E+03   0.103E+01 0.566E-01 0.692E+03   -.522E-01 -.299E-03 -.301E+00
   -.139E+01 -.180E+00 -.205E+04   0.126E+01 0.170E+00 0.205E+04   0.129E+00 0.118E-01 0.628E+01
   -.729E+00 0.277E+00 -.206E+04   0.666E+00 -.257E+00 0.205E+04   0.644E-01 -.269E-01 0.638E+01
   -.118E+00 -.473E-05 0.207E+04   0.120E+00 0.104E-03 -.206E+04   -.144E-02 -.788E-04 -.716E+01
   -.126E+00 0.566E-02 0.207E+04   0.128E+00 -.576E-02 -.206E+04   -.163E-02 0.741E-04 -.716E+01
   -.499E+00 0.209E-01 0.686E+03   0.516E+00 -.199E-01 -.686E+03   -.117E-01 -.653E-03 0.436E+00
   -.580E+00 0.288E-02 0.684E+03   0.597E+00 -.198E-02 -.685E+03   -.116E-01 -.602E-03 0.513E+00
   -.761E+00 0.206E-01 -.688E+03   0.819E+00 -.200E-01 0.689E+03   -.620E-01 -.815E-03 -.305E+00
   -.984E+00 0.532E-02 -.692E+03   0.104E+01 -.167E-02 0.692E+03   -.517E-01 -.304E-02 -.300E+00
   -.138E+01 -.364E-01 -.205E+04   0.125E+01 0.316E-01 0.205E+04   0.128E+00 0.439E-02 0.628E+01
   -.761E+00 0.275E+00 -.206E+04   0.697E+00 -.255E+00 0.205E+04   0.660E-01 -.270E-01 0.639E+01
   0.117E+00 0.190E-03 0.207E+04   -.119E+00 -.116E-03 -.206E+04   0.149E-02 -.541E-04 -.716E+01
   0.124E+00 -.338E-02 0.207E+04   -.126E+00 0.364E-02 -.206E+04   0.149E-02 -.191E-03 -.716E+01
   0.549E+00 -.271E-01 0.684E+03   -.564E+00 0.294E-01 -.685E+03   0.100E-01 -.153E-02 0.517E+00
   0.521E+00 0.498E-02 0.686E+03   -.539E+00 -.301E-02 -.686E+03   0.125E-01 -.129E-02 0.441E+00
   0.953E+00 -.300E-01 -.692E+03   -.100E+01 0.329E-01 0.692E+03   0.478E-01 -.163E-02 -.288E+00
   0.787E+00 -.830E-02 -.688E+03   -.851E+00 0.826E-02 0.689E+03   0.685E-01 -.419E-03 -.290E+00
   0.784E+00 0.178E+00 -.206E+04   -.719E+00 -.161E+00 0.205E+04   -.664E-01 -.215E-01 0.638E+01
   0.137E+01 -.109E+00 -.205E+04   -.123E+01 0.102E+00 0.205E+04   -.131E+00 0.828E-02 0.628E+01
   0.119E+00 -.176E-03 0.207E+04   -.121E+00 0.217E-03 -.206E+04   0.151E-02 -.343E-04 -.716E+01
   0.124E+00 0.384E-02 0.207E+04   -.126E+00 -.385E-02 -.206E+04   0.149E-02 0.437E-05 -.716E+01
   0.547E+00 0.357E-01 0.684E+03   -.561E+00 -.359E-01 -.685E+03   0.973E-02 0.612E-04 0.516E+00
   0.535E+00 0.334E-03 0.686E+03   -.552E+00 0.178E-02 -.686E+03   0.127E-01 -.138E-02 0.439E+00
   0.960E+00 -.387E-01 -.692E+03   -.101E+01 0.413E-01 0.692E+03   0.457E-01 -.127E-02 -.304E+00
   0.787E+00 0.497E-01 -.688E+03   -.851E+00 -.506E-01 0.689E+03   0.685E-01 0.370E-03 -.290E+00
   0.784E+00 0.384E+00 -.206E+04   -.720E+00 -.360E+00 0.205E+04   -.664E-01 -.327E-01 0.638E+01
   0.138E+01 -.115E+00 -.205E+04   -.125E+01 0.107E+00 0.205E+04   -.131E+00 0.851E-02 0.628E+01
   -.338E+00 0.598E-02 0.514E+03   0.328E+00 -.831E-02 -.514E+03   0.129E-01 0.307E-02 -.647E-01
   -.400E+00 -.180E-01 0.513E+03   0.386E+00 0.166E-01 -.513E+03   0.183E-01 0.187E-02 -.108E+00
   -.884E-01 -.312E-02 0.155E+04   0.902E-01 0.321E-02 -.156E+04   -.261E-02 -.123E-03 0.341E+01
   -.944E-01 -.305E-04 0.155E+04   0.965E-01 0.205E-04 -.156E+04   -.297E-02 0.133E-04 0.341E+01
   -.115E+01 0.768E-01 -.156E+04   0.115E+01 -.777E-01 0.157E+04   0.537E-01 -.188E-02 -.485E+01
   -.726E+00 -.272E+00 -.156E+04   0.749E+00 0.296E+00 0.157E+04   -.427E-03 -.187E-01 -.472E+01
   -.624E+00 -.445E-01 -.510E+03   0.610E+00 0.465E-01 0.510E+03   0.149E-01 -.155E-02 0.381E+00
   -.774E+00 0.291E-01 -.514E+03   0.765E+00 -.318E-01 0.514E+03   0.120E-01 0.341E-02 0.216E+00
   -.351E+00 0.403E-02 0.514E+03   0.341E+00 -.642E-02 -.514E+03   0.135E-01 0.315E-02 -.670E-01
   -.400E+00 0.236E-01 0.513E+03   0.386E+00 -.252E-01 -.513E+03   0.182E-01 0.205E-02 -.107E+00
   -.881E-01 0.287E-02 0.155E+04   0.900E-01 -.311E-02 -.156E+04   -.255E-02 0.333E-03 0.341E+01
   -.955E-01 -.729E-04 0.155E+04   0.977E-01 -.204E-05 -.156E+04   -.302E-02 0.110E-03 0.341E+01
   -.112E+01 0.748E-01 -.156E+04   0.112E+01 -.757E-01 0.157E+04   0.507E-01 -.185E-02 -.486E+01
   -.729E+00 -.192E+00 -.156E+04   0.752E+00 0.209E+00 0.157E+04   -.613E-03 -.113E-01 -.472E+01
   -.622E+00 0.789E-02 -.510E+03   0.608E+00 -.883E-02 0.510E+03   0.147E-01 0.116E-02 0.381E+00
   -.797E+00 0.241E-01 -.514E+03   0.789E+00 -.267E-01 0.514E+03   0.117E-01 0.347E-02 0.220E+00
   0.371E+00 0.202E-02 0.513E+03   -.360E+00 -.330E-02 -.513E+03   -.151E-01 0.170E-02 -.107E+00
   0.369E+00 -.212E-02 0.514E+03   -.359E+00 0.497E-04 -.514E+03   -.138E-01 0.266E-02 -.673E-01
   0.895E-01 -.410E-02 0.155E+04   -.916E-01 0.427E-02 -.156E+04   0.285E-02 -.224E-03 0.341E+01
   0.932E-01 0.103E-03 0.155E+04   -.952E-01 -.194E-03 -.156E+04   0.281E-02 0.127E-03 0.341E+01
   0.754E+00 -.234E+00 -.156E+04   -.773E+00 0.254E+00 0.157E+04   -.319E-02 -.152E-01 -.472E+01
   0.110E+01 0.238E-01 -.156E+04   -.109E+01 -.238E-01 0.157E+04   -.514E-01 -.200E-02 -.486E+01
   0.768E+00 -.315E-02 -.514E+03   -.763E+00 0.107E-02 0.514E+03   -.995E-02 0.330E-02 0.210E+00
   0.630E+00 -.139E-01 -.510E+03   -.610E+00 0.153E-01 0.510E+03   -.193E-01 -.167E-02 0.378E+00
   0.385E+00 0.392E-03 0.513E+03   -.374E+00 -.164E-02 -.513E+03   -.158E-01 0.166E-02 -.110E+00
   0.369E+00 0.124E-01 0.514E+03   -.359E+00 -.156E-01 -.514E+03   -.137E-01 0.425E-02 -.675E-01
   0.893E-01 0.413E-02 0.155E+04   -.913E-01 -.436E-02 -.156E+04   0.281E-02 0.324E-03 0.341E+01
   0.943E-01 -.407E-03 0.155E+04   -.963E-01 0.327E-03 -.156E+04   0.285E-02 0.119E-03 0.341E+01
   0.736E+00 -.238E+00 -.156E+04   -.757E+00 0.258E+00 0.157E+04   -.143E-03 -.153E-01 -.472E+01
   0.110E+01 0.134E+00 -.156E+04   -.109E+01 -.135E+00 0.157E+04   -.515E-01 -.176E-02 -.486E+01
   0.768E+00 0.766E-01 -.514E+03   -.763E+00 -.830E-01 0.514E+03   -.101E-01 0.687E-02 0.210E+00
   0.643E+00 -.225E-01 -.510E+03   -.625E+00 0.241E-01 0.510E+03   -.190E-01 -.168E-02 0.378E+00
   0.104E-01 0.127E+00 0.146E+02   0.471E-13 0.978E-13 0.318E-11   -.101E-01 -.126E+00 -.146E+02

 POSITION                                       TOTAL-FORCE (eV/Angst)
      2.11015      0.00000      7.50000         0.000452     -0.000005      0.338709
      4.22029      2.11015      7.50000         0.000500      0.000022      0.339967
      2.11015      2.11015      9.61015         0.004880      0.000862      0.057520
      4.22029      0.00000      9.61015         0.004653      0.000429      0.067719
      2.11204      0.00040     11.72891        -0.003736     -0.000279     -0.030794
      4.22225      2.11038     11.73393         0.000970      0.000985     -0.039584
      2.10846      2.11075     13.81861        -0.002334      0.001973      0.050729
      4.21788      0.00133     13.83802         0.001289     -0.006505     -0.069302
      2.11015      4.22029      7.50000         0.000446     -0.000008      0.338838
      4.22029      6.33044      7.50000         0.000495     -0.000051      0.339926
      2.11015      6.33044      9.61015         0.004786      0.000311      0.057529
      4.22029      4.22029      9.61015         0.004776      0.000270      0.068573
      2.11198      4.22068     11.72911        -0.003531     -0.000168     -0.032338
      4.22224      6.33075     11.73389         0.001018      0.000595     -0.039215
      2.10847      6.33135     13.81864        -0.002423     -0.000414      0.050506
      4.21785      4.22164     13.83761         0.001703     -0.006583     -0.066246
      6.33044      0.00000      7.50000        -0.000486     -0.000007      0.339905
      0.00000      2.11015      7.50000        -0.000463      0.000036      0.338817
      6.33044      2.11015      9.61015        -0.004171      0.000684      0.068634
      0.00000      0.00000      9.61015        -0.004945      0.000645      0.057769
      6.32876      0.00024     11.73385        -0.001260      0.001229     -0.037062
      8.43870      2.11058     11.72918         0.003634     -0.000482     -0.030623
      6.33299      2.11126     13.83874        -0.001604     -0.004860     -0.071649
      0.00189      0.00077     13.81899         0.002009      0.000811      0.050581
      6.33044      4.22029      7.50000        -0.000489     -0.000021      0.340071
      0.00000      6.33044      7.50000        -0.000454     -0.000036      0.338831
      6.33044      6.33044      9.61015        -0.004052     -0.000137      0.068660
      0.00000      4.22029      9.61015        -0.005061      0.000691      0.057821
      6.32883      4.22052     11.73422        -0.001620      0.001326     -0.040297
      8.43872      6.33083     11.72920         0.003574     -0.000469     -0.030798
      6.33299      6.33201     13.83871        -0.001603     -0.008445     -0.071519
      0.00191      4.22106     13.81927         0.001814      0.000851      0.048200
      2.11015      0.00000      9.61015         0.003051      0.000718      0.059607
      4.22029      2.11015      9.61015         0.004825      0.000476      0.072131
      2.11015      2.11015      7.50000        -0.000768     -0.000058     -0.501486
      4.22029      0.00000      7.50000        -0.000874     -0.000024     -0.502278
      2.10575      0.00096     13.86493         0.049519     -0.002755      0.081217
      4.21796      2.11046     13.87186         0.021343      0.004615      0.100209
      2.11069      2.11046     11.72226         0.000236      0.000402     -0.011455
      4.22046      0.00024     11.72771         0.003549      0.000646     -0.008508
      2.11015      4.22029      9.61015         0.003313      0.000747      0.059907
      4.22029      6.33044      9.61015         0.004824      0.000415      0.072120
      2.11015      6.33044      7.50000        -0.000750      0.000070     -0.501477
      4.22029      4.22029      7.50000        -0.000886      0.000008     -0.502388
      2.10585      4.22125     13.86485         0.047815     -0.002730      0.081921
      4.21796      6.33085     13.87183         0.021367      0.005224      0.100367
      2.11069      6.33084     11.72227         0.000173      0.000189     -0.011594
      4.22038      4.22052     11.72791         0.004207      0.000804     -0.011407
      6.33044      0.00000      9.61015        -0.003963      0.000395      0.071874
      0.00000      2.11015      9.61015        -0.003385      0.000575      0.060141
      6.33044      2.11015      7.50000         0.000835     -0.000087     -0.502360
      0.00000      0.00000      7.50000         0.000815      0.000009     -0.501461
      6.33286      0.00037     13.87266        -0.021926      0.004919      0.097022
      0.00453      2.11106     13.86601        -0.048111     -0.002072      0.076934
      6.33063      2.11028     11.72813        -0.004672      0.001184     -0.010517
      8.43998      0.00041     11.72258         0.000290     -0.000260     -0.013169
      6.33044      4.22029      9.61015        -0.004247      0.000388      0.072769
      0.00000      6.33044      9.61015        -0.003342      0.001076      0.060184
      6.33044      6.33044      7.50000         0.000824      0.000065     -0.502351
      0.00000      4.22029      7.50000         0.000825      0.000013     -0.501553
      6.33280      4.22065     13.87216        -0.020722      0.004943      0.100134
      0.00453      6.33148     13.86602        -0.048097     -0.003593      0.076868
      6.33064      6.33074     11.72812        -0.004774      0.000540     -0.010515
      8.44004      4.22068     11.72244        -0.000061     -0.000092     -0.010765
    total drift:                                0.000242      0.001751      0.012563

  FREE ENERGIE OF THE ION-ELECTRON SYSTEM (eV)
  free  energy   TOTEN  =      -371.28603237 eV

  energy  without entropy=     -371.28603237  energy(sigma->0) =     -371.28603237