 vasp.6.3.0 20Jan22 (build Dec 25 2023 18:06:01) complex
 executed on        HPECrayEX_GCC date 2024.11.20  21:22:14

 INCAR:
   SYSTEM = TiO2
   ISMEAR = 0
   SIGMA = 0.05
   EDIFF = 1E-7
   ALGO = Normal
   ISTART = 0
   IBRION = 2
   NSW = 1000
   ISYM = 0
   ISIF = 2
   EDIFFG = -0.01
   DIPOL = 0.5 0.5 0.5
   IDIPOL = 3
   LDIPOL = .TRUE.
   GGA = RE
   IVDW = 13
   VDW_S8 = 1.7468
   VDW_A1 = 0.5363
   VDW_A2 = 3.0726
   ENCUT = 600
   PREC = Accurate
   LASPH = .TRUE.
   LREAL = .FALSE.
   ISPIN = 1
   NELM = 200
   NELMIN = 8
   NCORE = 8
   KPAR = 1
   LWAVE = .FALSE.
   LCHARG = .FALSE.

 POTCAR:    PAW_PBE N 08Apr2002
 POTCAR:    PAW_PBE H 15Jun2001
 POTCAR:    PAW_PBE Ti_pv 07Sep2000
 POTCAR:    PAW_PBE O 08Apr2002
 POTCAR:    PAW_PBE N 08Apr2002
   VRHFIN =N: s2p3

   TITEL  = PAW_PBE N 08Apr2002
   POMASS =   14.001; ZVAL   =    5.000    mass and valenz
   ENMAX  =  400.000; ENMIN  =  300.000 eV

   TITEL  = PAW_PBE H 15Jun2001
   POMASS =    1.000; ZVAL   =    1.000    mass and valenz
   ENMAX  =  250.000; ENMIN  =  200.000 eV

   TITEL  = PAW_PBE Ti_pv 07Sep2000
   POMASS =   47.880; ZVAL   =   10.000    mass and valenz
   ENMAX  =  222.335; ENMIN  =  166.751 eV

   TITEL  = PAW_PBE O 08Apr2002
   POMASS =   16.000; ZVAL   =    6.000    mass and valenz
   ENMAX  =  400.000; ENMIN  =  300.000 eV

  PAW_PBE N 08Apr2002                   :
  PAW_PBE H 15Jun2001                   :
  PAW_PBE Ti_pv 07Sep2000               :
  PAW_PBE O 08Apr2002                   :

 POSCAR:  N  H Ti  O
  positions in direct lattice
|           W    W    AA    RRRRR   N    N  II  N    N   GGGG   !!!           |
|           W    W   A  A   R    R  NN   N  II  NN   N  G    G  !!!           |
|           W    W  A    A  R    R  N N  N  II  N N  N  G       !!!           |
|           W WW W  AAAAAA  RRRRR   N  N N  II  N  N N  G  GGG   !            |
|           WW  WW  A    A  R   R   N   NN  II  N   NN  G    G                |
|           W    W  A    A  R    R  N    N  II  N    N   GGGG   !!!           |
|     Specifying the vdW parameters                                           |
|     VDW_S8 = 1.747                                                          |
|     VDW_A1 = 0.536                                                          |
|     VDW_A2 = 3.073                                                          |
|     in the INCAR file will overwrite the defaults for revpbe. Please        |
|     make sure that is what you intended.                                    |

 ion  position               nearest neighbor table
   1  0.609  0.500  0.773-   2 1.02   4 1.02   3 1.02  52 2.30
   2  0.546  0.500  0.801-   1 1.02
   3  0.668  0.428  0.776-   1 1.02
   4  0.668  0.572  0.776-   1 1.02
   5  0.808  0.833  0.295-  89 1.94  57 1.94  55 1.94  54 1.99  56 1.99  22 3.05   8 3.05   6 3.05

   6  0.592  0.667  0.327-  53 1.94 120 1.94  56 1.94  58 1.94  57 1.99  59 1.99  37 3.05   7 3.05
                             5 3.05  11 3.08
   7  0.308  0.667  0.295- 125 1.94  61 1.94  59 1.94  53 1.99  60 1.99  40 3.05   6 3.05   8 3.05

   8  0.092  0.833  0.327-  54 1.94  92 1.94  60 1.94  62 1.94  61 1.99  55 1.99  23 3.05   5 3.05
                             7 3.05   9 3.08
   9  0.944  0.833  0.423-  63 1.92  65 1.93  97 1.93  55 1.98  64 1.98  62 2.01  12 3.00  10 3.05
                            26 3.05   8 3.08
  10  0.725  0.667  0.451-  58 1.89 128 1.94  64 1.94  66 1.97  67 1.98  65 2.01  11 3.00  41 3.05
                             9 3.05  15 3.11
  11  0.444  0.667  0.423-  67 1.92  69 1.93 133 1.93  59 1.98  68 1.98  58 2.01  10 3.00  44 3.05
                            12 3.05   6 3.08
  12  0.225  0.833  0.451-  62 1.89  68 1.94 100 1.94  70 1.97  63 1.98  69 2.01   9 3.00  11 3.05
                            27 3.05  13 3.11
  13  0.085  0.833  0.550-  71 1.92 105 1.93  73 1.93  72 1.98  63 2.00  70 2.01  16 2.95  30 3.05
                            14 3.05  12 3.11
  14  0.863  0.667  0.576-  66 1.86  72 1.94 136 1.94  75 1.95  74 2.01  73 2.02  15 2.95  13 3.05
                            45 3.05
  15  0.585  0.667  0.550-  75 1.92  77 1.93 141 1.93  76 1.98  67 2.00  66 2.01  14 2.95  48 3.05
                            16 3.05  10 3.11
  16  0.363  0.833  0.576-  70 1.86 108 1.94  76 1.94  71 1.95  78 2.01  77 2.02  13 2.95  31 3.05
                            15 3.05
  17  0.232  0.833  0.680-  79 1.86 113 1.93  81 1.93  80 2.00  78 2.09  71 2.09  20 2.84  34 3.07
                            18 3.07
  18  0.003  0.667  0.700-  74 1.78  82 1.83  80 1.98 144 1.98  81 2.06  19 2.84  17 3.07  49 3.07

[...]

  21  0.808  0.167  0.295-  89 1.94 121 1.94  87 1.94  86 1.99  88 1.99  22 3.05  24 3.05  38 3.05

[...]

  37  0.808  0.500  0.295-  57 1.94 121 1.94 119 1.94 118 1.99 120 1.99  38 3.05   6 3.05  40 3.05

  38  0.592  0.333  0.327- 117 1.94 120 1.94  88 1.94 122 1.94 121 1.99 123 1.99  37 3.05  39 3.05
                            21 3.05  43 3.08
  39  0.308  0.333  0.295- 125 1.94  93 1.94 123 1.94 117 1.99 124 1.99  40 3.05  38 3.05  24 3.05

  40  0.092  0.500  0.327- 118 1.94  60 1.94 124 1.94 126 1.94 125 1.99 119 1.99   7 3.05  39 3.05
                            37 3.05  41 3.08
  41  0.944  0.500  0.423- 127 1.92 129 1.93  65 1.93 119 1.98 128 1.98 126 2.01  44 3.00  10 3.05
                            42 3.05  40 3.08
  42  0.725  0.333  0.451- 122 1.89  96 1.94 128 1.94 130 1.97 131 1.98 129 2.01  43 3.00  25 3.05
                            41 3.05  47 3.11
  43  0.444  0.333  0.423- 131 1.92 101 1.93 133 1.93 123 1.98 132 1.98 122 2.01  42 3.00  28 3.05
                            44 3.05  38 3.08
  44  0.225  0.500  0.451- 126 1.89  68 1.94 132 1.94 134 1.97 127 1.98 133 2.01  41 3.00  11 3.05
                            43 3.05  45 3.11
  45  0.085  0.500  0.550- 135 1.92 137 1.93  73 1.93 136 1.98 127 2.00 134 2.01  48 2.95  46 3.05
                            14 3.05  44 3.11
  46  0.863  0.333  0.576- 130 1.86 136 1.94 104 1.94 139 1.95 138 2.01 137 2.02  47 2.95  45 3.05
                            29 3.05
  47  0.585  0.333  0.550- 139 1.92 141 1.93 109 1.93 140 1.98 131 2.00 130 2.01  46 2.95  48 3.05
                            32 3.05  42 3.11
  48  0.363  0.500  0.576- 134 1.86 140 1.94  76 1.94 135 1.95 142 2.01 141 2.02  45 2.95  47 3.05
                            15 3.05
  49  0.232  0.500  0.680- 143 1.86 145 1.93  81 1.93 144 2.00 142 2.09 135 2.09  52 2.84  50 3.07
                            18 3.07
  50  0.003  0.333  0.700- 138 1.78 146 1.83 144 1.98 112 1.98 145 2.06  51 2.84  49 3.07  33 3.07

  51  0.732  0.333  0.680- 146 1.86 148 1.93 116 1.93 147 2.00 138 2.09 139 2.09  50 2.84  52 3.07
                            36 3.07
  52  0.503  0.500  0.700- 142 1.78 143 1.83  83 1.98 147 1.98 148 2.06   1 2.30  49 2.84  51 3.07
                            19 3.07
  53  0.488  0.667  0.269-   6 1.94   7 1.99
  54  0.988  0.833  0.269-   8 1.94   5 1.99
  55  0.911  0.833  0.353-   5 1.94   9 1.98   8 1.99
  56  0.627  0.833  0.321-  22 1.94   6 1.94   5 1.99
  57  0.772  0.667  0.300-  37 1.94   5 1.94   6 1.99
  58  0.624  0.667  0.395-  10 1.89   6 1.94  11 2.01
  59  0.411  0.667  0.353-   7 1.94  11 1.98   6 1.99
  60  0.127  0.667  0.321-  40 1.94   8 1.94   7 1.99
  61  0.272  0.833  0.300-  23 1.94   7 1.94   8 1.99
  62  0.124  0.833  0.395-  12 1.89   8 1.94   9 2.01
  63  0.049  0.833  0.480-   9 1.92  12 1.98  13 2.00
  64  0.763  0.833  0.448-  10 1.94  26 1.94   9 1.98
  65  0.908  0.667  0.427-   9 1.93  41 1.93  10 2.01
  66  0.763  0.667  0.521-  14 1.86  10 1.97  15 2.01
  67  0.549  0.667  0.480-  11 1.92  10 1.98  15 2.00
  68  0.263  0.667  0.448-  44 1.94  12 1.94  11 1.98
  69  0.408  0.833  0.427-  27 1.93  11 1.93  12 2.01
  70  0.263  0.833  0.521-  16 1.86  12 1.97  13 2.01
  71  0.193  0.833  0.606-  13 1.92  16 1.95  17 2.09
  72  0.903  0.833  0.574-  30 1.94  14 1.94  13 1.98
  73  0.050  0.667  0.553-  13 1.93  45 1.93  14 2.02
  74  0.913  0.667  0.646-  18 1.78  14 2.01  19 2.09
  75  0.693  0.667  0.606-  15 1.92  14 1.95  19 2.09
  76  0.403  0.667  0.574-  16 1.94  48 1.94  15 1.98
  77  0.550  0.833  0.553-  31 1.93  15 1.93  16 2.02
  78  0.413  0.833  0.646-  20 1.78  16 2.01  17 2.09
  79  0.346  0.833  0.732-  20 1.83  17 1.86
  80  0.054  0.833  0.708-  18 1.98  34 1.98  17 2.00
  81  0.196  0.667  0.680-  17 1.93  49 1.93  18 2.06
  82  0.846  0.667  0.732-  18 1.83  19 1.86
  83  0.554  0.667  0.708-  52 1.98  20 1.98  19 2.00
  84  0.696  0.833  0.680-  35 1.93  19 1.93  20 2.06
  85  0.488  0.000  0.269-  22 1.94  23 1.99
  86  0.988  0.167  0.269-  24 1.94  21 1.99
  87  0.911  0.167  0.353-  21 1.94  25 1.98  24 1.99
  88  0.627  0.167  0.321-  22 1.94  38 1.94  21 1.99
  89  0.772  0.000  0.300-   5 1.94  21 1.94  22 1.99
  90  0.624  0.000  0.395-  26 1.89  22 1.94  27 2.01
  91  0.411  0.000  0.353-  23 1.94  27 1.98  22 1.99
  92  0.127  0.000  0.321-   8 1.94  24 1.94  23 1.99
  93  0.272  0.167  0.300-  23 1.94  39 1.94  24 1.99
  94  0.124  0.167  0.395-  28 1.89  24 1.94  25 2.01
  95  0.049  0.167  0.480-  25 1.92  28 1.98  29 2.00
  96  0.763  0.167  0.448-  26 1.94  42 1.94  25 1.98
  97  0.908  1.000  0.427-  25 1.93   9 1.93  26 2.01
  98  0.763  1.000  0.521-  30 1.86  26 1.97  31 2.01
  99  0.549  1.000  0.480-  27 1.92  26 1.98  31 2.00
 100  0.263  0.000  0.448-  28 1.94  12 1.94  27 1.98
 101  0.408  0.167  0.427-  43 1.93  27 1.93  28 2.01
 102  0.263  0.167  0.521-  32 1.86  28 1.97  29 2.01
 103  0.193  0.167  0.606-  29 1.92  32 1.95  33 2.09
 104  0.903  0.167  0.574-  46 1.94  30 1.94  29 1.98
 105  0.050  1.000  0.553-  13 1.93  29 1.93  30 2.02
 106  0.913  1.000  0.646-  34 1.78  30 2.01  35 2.09
 107  0.693  1.000  0.606-  31 1.92  30 1.95  35 2.09
 108  0.403  1.000  0.574-  16 1.94  32 1.94  31 1.98
 109  0.550  0.167  0.553-  47 1.93  31 1.93  32 2.02
 110  0.413  0.167  0.646-  36 1.78  32 2.01  33 2.09
 111  0.346  0.167  0.732-  36 1.83  33 1.86
 112  0.054  0.167  0.708-  34 1.98  50 1.98  33 2.00
[...]
 134  0.263  0.500  0.521-  48 1.86  44 1.97  45 2.01
 135  0.193  0.500  0.606-  45 1.92  48 1.95  49 2.09
 136  0.903  0.500  0.574-  46 1.94  14 1.94  45 1.98
 137  0.050  0.333  0.553-  45 1.93  29 1.93  46 2.02
 138  0.913  0.333  0.646-  50 1.78  46 2.01  51 2.09
 139  0.693  0.333  0.606-  47 1.92  46 1.95  51 2.09
 140  0.403  0.333  0.574-  48 1.94  32 1.94  47 1.98
 141  0.550  0.500  0.553-  47 1.93  15 1.93  48 2.02
 142  0.413  0.500  0.646-  52 1.78  48 2.01  49 2.09
 143  0.346  0.500  0.732-  52 1.83  49 1.86
 144  0.054  0.500  0.708-  50 1.98  18 1.98  49 2.00
 145  0.196  0.333  0.680-  49 1.93  33 1.93  50 2.06
 146  0.846  0.333  0.732-  50 1.83  51 1.86
 147  0.554  0.333  0.708-  36 1.98  52 1.98  51 2.00
 148  0.696  0.500  0.680-  51 1.93  19 1.93  52 2.06

IMPORTANT INFORMATION: All symmetrisations will be switched off!
NOSYMM: (Re-)initialisation of all symmetry stuff for point group C_1.

                                     Primitive cell

  volume of cell :    3260.5577

  direct lattice vectors                    reciprocal lattice vectors
    10.272661001  0.000000000  0.000000000     0.097345761 -0.000000000  0.000000000
[...]
   -.419E+02 0.548E+02 -.355E+03   0.463E+02 -.607E+02 0.356E+03   -.438E+01 0.592E+01 -.377E+00   -.106E-04 -.450E-04 0.373E-04
   -.419E+02 -.548E+02 -.355E+03   0.463E+02 0.607E+02 0.356E+03   -.438E+01 -.592E+01 -.377E+00   -.969E-05 0.451E-04 0.374E-04
   0.658E+01 0.330E-02 0.337E+04   -.163E+01 -.349E-02 -.337E+04   -.113E+01 -.530E-04 -.348E+01   -.485E-05 0.189E-04 -.147E-03
   0.476E+01 -.105E+00 0.277E+04   -.636E+01 0.105E+00 -.277E+04   -.682E-01 -.661E-03 -.237E-01   0.103E-03 0.299E-04 -.126E-03
   0.654E+01 0.146E+00 0.337E+04   -.162E+01 -.152E+00 -.337E+04   -.112E+01 0.147E-02 -.347E+01   -.817E-04 0.399E-04 -.163E-03
   0.349E+01 0.911E-01 0.277E+04   -.513E+01 -.991E-01 -.277E+04   -.610E-01 0.161E-02 -.278E-01   0.470E-04 0.399E-04 -.558E-04
   -.557E+00 0.255E+00 0.126E+04   0.379E+00 -.253E+00 -.126E+04   0.179E+00 -.174E-02 0.178E-01   0.180E-03 -.697E-04 0.130E-03
   0.481E+00 -.157E+01 0.801E+03   -.435E+00 0.155E+01 -.801E+03   -.444E-01 0.183E-01 -.151E+00   0.105E-03 -.690E-04 0.263E-03
   0.982E+00 -.310E+00 0.126E+04   -.115E+01 0.299E+00 -.126E+04   0.172E+00 0.936E-02 -.132E-02   0.469E-04 0.982E-04 0.142E-03
   -.506E+01 0.838E-01 0.794E+03   0.509E+01 -.874E-01 -.794E+03   -.222E-01 0.323E-02 -.156E+00   0.119E-03 0.209E-03 0.112E-03
   -.530E+01 -.247E+01 -.781E+03   0.501E+01 0.246E+01 0.781E+03   0.307E+00 0.113E-01 0.130E+00   -.197E-03 0.502E-04 -.145E-03
   -.112E+02 -.508E+01 -.117E+04   0.113E+02 0.509E+01 0.117E+04   -.101E+00 -.102E-02 -.247E+00   -.302E-03 0.957E-04 0.647E-04
   0.106E+01 -.196E+01 -.756E+03   -.132E+01 0.196E+01 0.756E+03   0.271E+00 0.208E-02 0.953E-01   0.221E-04 -.181E-04 0.174E-03
   -.192E+01 -.923E+00 -.119E+04   0.204E+01 0.936E+00 0.119E+04   -.109E+00 -.166E-01 -.296E+00   0.164E-03 0.592E-04 -.300E-03
   0.276E+02 -.109E+02 -.279E+04   -.285E+02 0.109E+02 0.279E+04   0.921E+00 0.252E-02 -.175E+00   -.193E-04 -.670E-04 -.239E-03
   -.873E+02 -.214E+02 -.318E+04   0.873E+02 0.213E+02 0.318E+04   0.411E-01 0.145E+00 0.773E+00   -.191E-03 0.862E-04 -.306E-03
   -.104E+02 -.398E+02 -.270E+04   0.963E+01 0.399E+02 0.271E+04   0.842E+00 -.256E-01 -.447E-01   -.174E-03 0.529E-03 -.302E-03
   -.609E+02 -.340E+02 -.317E+04   0.608E+02 0.340E+02 0.317E+04   0.863E-01 0.442E-01 0.789E+00   0.309E-03 0.593E-04 0.201E-03
   0.658E+01 -.331E-02 0.337E+04   -.163E+01 0.350E-02 -.337E+04   -.113E+01 0.530E-04 -.348E+01   -.486E-05 -.189E-04 -.147E-03
   0.479E+01 -.396E-05 0.277E+04   -.641E+01 0.407E-05 -.277E+04   -.624E-01 -.363E-07 -.288E-01   0.963E-04 0.359E-07 -.915E-04
   0.644E+01 -.214E-05 0.337E+04   -.150E+01 0.221E-05 -.337E+04   -.113E+01 -.179E-07 -.348E+01   -.135E-03 0.323E-07 -.164E-03
   0.349E+01 -.911E-01 0.277E+04   -.513E+01 0.991E-01 -.277E+04   -.610E-01 -.161E-02 -.278E-01   0.470E-04 -.399E-04 -.559E-04
   -.556E+00 -.255E+00 0.126E+04   0.379E+00 0.253E+00 -.126E+04   0.179E+00 0.174E-02 0.178E-01   0.180E-03 0.697E-04 0.130E-03
   -.192E+01 -.651E-05 0.798E+03   0.193E+01 0.659E-05 -.798E+03   -.942E-02 -.345E-07 -.157E+00   -.174E-04 -.335E-07 0.184E-03
   0.129E+01 0.497E-07 0.126E+04   -.146E+01 0.102E-07 -.126E+04   0.170E+00 -.120E-06 0.246E-02   -.271E-04 0.133E-07 0.228E-03
   -.506E+01 -.838E-01 0.794E+03   0.509E+01 0.874E-01 -.794E+03   -.222E-01 -.323E-02 -.156E+00   0.119E-03 -.209E-03 0.112E-03
   -.530E+01 0.247E+01 -.781E+03   0.501E+01 -.246E+01 0.781E+03   0.307E+00 -.113E-01 0.130E+00   -.197E-03 -.503E-04 -.146E-03
   -.109E+02 -.456E-05 -.119E+04   0.110E+02 0.502E-05 0.119E+04   -.796E-01 -.805E-07 -.250E+00   -.311E-03 -.229E-06 0.423E-03
   -.313E+01 0.571E-05 -.772E+03   0.283E+01 -.575E-05 0.772E+03   0.317E+00 -.141E-06 0.170E+00   0.839E-04 -.960E-07 0.211E-03
   -.192E+01 0.923E+00 -.119E+04   0.204E+01 -.936E+00 0.119E+04   -.109E+00 0.166E-01 -.296E+00   0.164E-03 -.593E-04 -.300E-03
   0.276E+02 0.109E+02 -.279E+04   -.285E+02 -.109E+02 0.279E+04   0.921E+00 -.252E-02 -.175E+00   -.193E-04 0.667E-04 -.239E-03
   -.753E+02 -.877E-05 -.319E+04   0.753E+02 0.853E-05 0.319E+04   0.733E-02 0.470E-06 0.786E+00   -.583E-03 -.452E-06 -.229E-03
   0.118E+02 -.129E-04 -.278E+04   -.126E+02 0.137E-04 0.278E+04   0.861E+00 0.538E-07 -.136E+00   -.302E-03 -.643E-06 0.111E-03
   -.609E+02 0.340E+02 -.317E+04   0.608E+02 -.340E+02 0.317E+04   0.863E-01 -.442E-01 0.789E+00   0.309E-03 -.605E-04 0.200E-03
   0.659E+01 0.393E-05 0.337E+04   -.163E+01 -.402E-05 -.337E+04   -.113E+01 0.270E-07 -.347E+01   -.528E-04 -.325E-07 -.146E-03
   0.476E+01 0.105E+00 0.277E+04   -.636E+01 -.105E+00 -.277E+04   -.682E-01 0.661E-03 -.237E-01   0.103E-03 -.299E-04 -.126E-03
   0.654E+01 -.146E+00 0.337E+04   -.162E+01 0.152E+00 -.337E+04   -.112E+01 -.147E-02 -.347E+01   -.817E-04 -.400E-04 -.163E-03
   0.261E+01 0.148E-05 0.277E+04   -.420E+01 -.148E-05 -.277E+04   -.775E-01 -.101E-07 -.267E-01   0.356E-04 -.258E-07 -.930E-04
   0.208E+01 0.599E-05 0.126E+04   -.222E+01 -.602E-05 -.126E+04   0.153E+00 0.189E-07 0.500E-01   -.246E-03 0.172E-07 0.144E-03
   0.481E+00 0.157E+01 0.801E+03   -.435E+00 -.155E+01 -.801E+03   -.444E-01 -.183E-01 -.151E+00   0.105E-03 0.690E-04 0.263E-03
   0.982E+00 0.310E+00 0.126E+04   -.115E+01 -.299E+00 -.126E+04   0.172E+00 -.936E-02 -.131E-02   0.468E-04 -.982E-04 0.142E-03
   -.878E+01 -.472E-05 0.777E+03   0.880E+01 0.463E-05 -.777E+03   -.211E-01 0.156E-06 -.625E-01   -.544E-04 -.134E-07 0.270E-03
   -.908E+00 0.283E-05 -.783E+03   0.685E+00 -.302E-05 0.783E+03   0.228E+00 0.684E-07 0.155E+00   -.206E-03 0.105E-06 0.120E-03
   -.112E+02 0.508E+01 -.117E+04   0.113E+02 -.509E+01 0.117E+04   -.101E+00 0.102E-02 -.247E+00   -.302E-03 -.955E-04 0.646E-04
   0.106E+01 0.196E+01 -.756E+03   -.132E+01 -.196E+01 0.756E+03   0.271E+00 -.208E-02 0.953E-01   0.220E-04 0.182E-04 0.174E-03
   -.237E+01 -.466E-05 -.123E+04   0.247E+01 0.495E-05 0.124E+04   -.913E-01 0.200E-07 -.178E+00   -.123E-03 0.759E-07 -.318E-04
   0.481E+02 0.466E-05 -.279E+04   -.488E+02 -.416E-05 0.279E+04   0.645E+00 -.214E-06 -.391E-01   0.276E-03 0.289E-06 -.186E-04
   -.873E+02 0.214E+02 -.318E+04   0.873E+02 -.213E+02 0.318E+04   0.411E-01 -.145E+00 0.773E+00   -.191E-03 -.857E-04 -.307E-03
   -.104E+02 0.398E+02 -.270E+04   0.963E+01 -.399E+02 0.271E+04   0.842E+00 0.256E-01 -.447E-01   -.174E-03 -.528E-03 -.303E-03
   0.114E+02 0.724E-05 -.312E+04   -.109E+02 -.653E-05 0.313E+04   -.531E+00 -.530E-06 -.333E+00   -.661E-03 0.144E-06 -.571E-03
   -.322E+02 -.178E-01 0.228E+04   0.370E+02 0.176E-01 -.229E+04   -.657E+01 0.365E-03 0.171E+02   -.770E-04 0.151E-04 -.332E-04
   -.325E+02 -.153E-01 0.228E+04   0.373E+02 0.133E-01 -.229E+04   -.656E+01 0.255E-02 0.171E+02   -.499E-04 0.233E-04 -.432E-04
   0.813E+02 0.152E+00 0.138E+04   -.861E+02 -.151E+00 -.138E+04   0.387E+01 -.435E-02 -.446E+01   0.329E-05 0.100E-04 -.845E-04
   0.748E+02 0.925E-02 0.169E+04   -.819E+02 -.836E-02 -.168E+04   0.742E+01 -.164E-02 -.270E+01   0.839E-04 -.202E-05 -.831E-04
   -.862E+02 -.316E-01 0.194E+04   0.934E+02 0.297E-01 -.194E+04   -.699E+01 0.361E-02 -.158E+00   0.284E-04 -.203E-04 -.786E-04
   -.690E+02 -.770E+00 0.106E+04   0.747E+02 0.822E+00 -.106E+04   -.570E+01 -.489E-01 0.434E+01   0.246E-04 0.180E-04 0.385E-04
   0.819E+02 0.104E+00 0.138E+04   -.868E+02 -.869E-01 -.138E+04   0.385E+01 -.188E-01 -.434E+01   -.508E-04 0.468E-04 -.133E-03
   0.740E+02 0.107E+00 0.169E+04   -.810E+02 -.116E+00 -.168E+04   0.743E+01 0.216E-01 -.272E+01   0.652E-04 0.474E-04 -.860E-04
[...]
   0.870E+02 0.146E-04 -.108E+04   -.939E+02 -.150E-04 0.109E+04   0.689E+01 0.317E-06 -.772E+01   -.109E-03 0.982E-07 0.145E-03
   0.703E+02 -.219E-06 -.715E+03   -.763E+02 0.145E-05 0.718E+03   0.601E+01 -.111E-05 -.305E+01   -.909E-04 0.772E-07 0.130E-03
   -.813E+02 0.725E+00 -.458E+03   0.877E+02 -.741E+00 0.455E+03   -.640E+01 0.173E-01 0.282E+01   0.273E-03 0.308E-04 0.390E-03
   -.664E+02 0.974E+01 -.128E+04   0.687E+02 -.100E+02 0.127E+04   -.238E+01 0.300E+00 0.988E+01   0.108E-03 0.224E-03 0.637E-03
   0.805E+02 0.890E+01 -.105E+04   -.869E+02 -.918E+01 0.105E+04   0.639E+01 0.278E+00 -.592E+01   0.216E-03 0.262E-03 0.347E-03
   0.799E+02 0.999E+00 -.731E+03   -.864E+02 -.103E+01 0.734E+03   0.648E+01 0.373E-01 -.331E+01   0.120E-03 -.634E-04 0.368E-03
   -.727E+02 0.612E-05 -.462E+03   0.788E+02 -.679E-05 0.460E+03   -.608E+01 0.432E-06 0.245E+01   0.533E-04 0.600E-07 -.433E-04
   -.611E+02 -.169E-04 -.131E+04   0.669E+02 0.178E-04 0.130E+04   -.572E+01 -.122E-05 0.631E+01   0.191E-03 0.311E-06 0.101E-02
   0.107E+03 -.922E-05 -.227E+04   -.113E+03 0.965E-05 0.229E+04   0.574E+01 -.849E-06 -.204E+02   -.344E-04 0.285E-06 0.288E-03
   0.452E+02 -.353E-04 -.201E+04   -.488E+02 0.377E-04 0.202E+04   0.363E+01 -.286E-05 -.750E+01   -.112E-03 0.159E-06 0.733E-03
   -.491E+02 0.664E+01 -.165E+04   0.541E+02 -.649E+01 0.165E+04   -.495E+01 -.148E+00 0.318E+01   0.149E-03 -.161E-03 0.663E-03
   0.119E+02 0.313E+02 -.226E+04   -.172E+02 -.312E+02 0.228E+04   0.536E+01 -.123E+00 -.196E+02   -.127E-04 -.459E-03 0.376E-03
   0.784E+02 0.460E+02 -.195E+04   -.836E+02 -.456E+02 0.196E+04   0.513E+01 -.428E+00 -.646E+01   0.616E-04 -.195E-03 0.422E-03
   -.687E+02 -.184E-04 -.156E+04   0.732E+02 0.193E-04 0.156E+04   -.449E+01 -.788E-06 0.437E+01   0.216E-04 -.118E-07 0.248E-03
   -.162E+02 0.353E-04 0.556E+02   0.136E-11 0.150E-11 -.728E-11   0.162E+02 -.261E-04 -.556E+02   0.326E-02 -.810E-05 0.198E-01

 POSITION                                       TOTAL-FORCE (eV/Angst)
      6.28960      5.68441     21.72356         0.000799     -0.000035     -0.003293
      5.64310      5.68441     22.51263        -0.002012      0.000002      0.005029
      6.89680      4.86564     21.80064         0.002940     -0.002634      0.000802
      6.89680      6.50317     21.80064         0.002963      0.002668      0.000807
      8.29735      9.47401      8.23554         3.834545     -0.000178      1.702701
      6.07868      7.57921      9.11612        -1.659486      0.000014     -1.858110
      3.16102      7.57921      8.23554         3.807047     -0.003896      1.688425
      0.94235      9.47401      9.11612        -1.688590     -0.006200     -1.863572
      9.70296      9.47444     11.79892        -0.001724      0.000504      0.000094
      7.46107      7.57430     12.59646         0.000706     -0.000159      0.000102
      4.56182      7.57663     11.79566         0.000130     -0.002427     -0.000646
      2.31613      9.47353     12.60523         0.000769      0.000360      0.001210
      0.87814      9.47528     15.36023        -0.000559      0.001651      0.002244
      8.88480      7.57212     16.06407        -0.000309      0.000041      0.001957
      6.00350      7.57673     15.33938        -0.001773      0.002261     -0.000051
      3.73655      9.47458     16.08823        -0.000100     -0.001131      0.002756
      2.37673      9.46617     18.99059         0.001229     -0.000986      0.000225
      0.01239      7.56663     19.54483         0.002258      0.000862      0.004932
      7.49738      7.57766     18.91859         0.000860     -0.001246      0.002890
      5.17082      9.48964     19.53826        -0.000311      0.000536      0.002040
      8.29735      1.89480      8.23554         3.834545      0.000178      1.702701
      6.07868      0.00000      9.11612        -1.676960      0.000000     -1.862283
      3.16102      0.00000      8.23554         3.826929      0.000000      1.697594
      0.94235      1.89480      9.11612        -1.688590      0.006200     -1.863572
      9.70296      1.89437     11.79892        -0.001724     -0.000504      0.000094
      7.45680     11.36881     12.59828         0.000708     -0.000000      0.000866
      4.56387     11.36881     11.79879        -0.002825     -0.000000      0.000312
      2.31613      1.89529     12.60523         0.000768     -0.000360      0.001210
      0.87814      1.89353     15.36023        -0.000559     -0.001651      0.002244
      8.87219     -0.00000     16.07703         0.002460      0.000000      0.001061
      6.00954     11.36881     15.34943        -0.001574     -0.000000      0.001101
      3.73655      1.89423     16.08823        -0.000100      0.001131      0.002756
      2.37673      1.90265     18.99059         0.001228      0.000986      0.000225
      0.03709     11.36881     19.54521         0.005401     -0.000000      0.007040
      7.53093     -0.00000     18.97526        -0.003082      0.000000      0.000932
      5.17082      1.87918     19.53826        -0.000310     -0.000536      0.002040
      8.29735      5.68441      8.23554         3.847994     -0.000000      1.699306
      6.07868      3.78960      9.11612        -1.659486     -0.000014     -1.858109
      3.16102      3.78960      8.23554         3.807048      0.003896      1.688425
      0.94235      5.68441      9.11612        -1.658789     -0.000000     -1.790736
      9.71904      5.68441     11.79391         0.003252     -0.000000      0.001114
      7.46107      3.79452     12.59646         0.000706      0.000159      0.000102
      4.56182      3.79219     11.79566         0.000130      0.002427     -0.000646
      2.31971      5.68441     12.63544        -0.002933      0.000000     -0.001222
      0.91004      5.68441     15.36701        -0.000005     -0.000000     -0.000418
      8.88480      3.79669     16.06407        -0.000309     -0.000041      0.001957
      6.00350      3.79208     15.33938        -0.001773     -0.002260     -0.000051
      3.75503      5.68441     16.17598        -0.000004      0.000000      0.000817
      2.41699      5.68441     19.01030        -0.001192      0.000001      0.004370
      0.01239      3.80218     19.54484         0.002257     -0.000862      0.004931
      7.49738      3.79116     18.91859         0.000860      0.001246      0.002889
      5.20291      5.68441     19.70272         0.000672      0.000000      0.004678
      5.01424      7.57921      7.50000        -1.751655      0.000181      0.958590
     10.15057      9.47401      7.50000        -1.748101      0.000609      0.954868
      9.36179      9.47401      9.85165        -1.000174     -0.003370     -0.174131
      6.44412      9.47401      8.97107         0.351483     -0.000744     -0.045408
      7.93191      7.57921      8.38058         0.266983      0.001702     -1.067922
      6.41224      7.57921     11.02232        -0.068153      0.003340      0.443694
      4.22546      7.57921      9.85165        -1.004664     -0.001498     -0.160163
      1.30779      7.57921      8.97107         0.361388      0.013132     -0.053614
[...]
      2.72045      5.68441     14.56372         0.001050     -0.000000      0.001752
      1.97384      5.68441     16.95538         0.000715     -0.000000     -0.001376
      9.28364      5.68441     16.00356        -0.000704      0.000000      0.000249
      0.52164      3.79145     15.43693         0.000715      0.000012     -0.000855
      9.38585      3.78683     18.01178        -0.000910      0.001476     -0.003637
      7.12590      3.77850     16.91210         0.000616     -0.001285      0.001007
      4.15243      3.79037     16.03960        -0.000119      0.002007     -0.000098
      5.65229      5.68441     15.45841        -0.000009     -0.000000     -0.001365
      4.23459      5.68441     18.09751        -0.000536     -0.000000     -0.000067
      3.54373      5.68441     20.48892         0.001700     -0.000000      0.002734
      0.53545      5.68441     19.78477         0.001995     -0.000000     -0.000933
      2.00650      3.79385     19.00145         0.000464      0.001132      0.002717
      8.65956      3.82097     20.40315        -0.001865     -0.000115      0.001547
      5.68358      3.76100     19.73814         0.002457      0.002830      0.000308
      7.12190      5.68441     18.92331         0.001980      0.000000      0.000378
    total drift:                                0.002008      0.000001      0.002918

  FREE ENERGIE OF THE ION-ELECTRON SYSTEM (eV)
  free  energy   TOTEN  =     -1295.07259596 eV

  energy  without entropy=    -1295.07259596  energy(sigma->0) =    -1295.07259596

 d Force = 0.2814629E-04[ 0.954E-05, 0.468E-04]  d Energy = 0.2845627E-04-0.310E-06
 d Force = 0.1485494E+02[ 0.149E+02, 0.149E+02]  d Ewald  = 0.1485494E+02-0.806E-06

 Conjugate gradient step on ions:
 trial-energy change:   -0.000028  1 .order   -0.000028   -0.000047   -0.000010
  (g-gl).g = 0.875E-04      g.g   = 0.919E-04  gl.gl    = 0.105E-03
 g(Force)  = 0.919E-04   g(Stress)= 0.000E+00 ortho     = 0.532E-05
 gamma     =   0.83646
 trial     =   0.48509
 opt step  =   0.60938  (harmonic =   0.60938) maximal distance =0.00079195
 next E    = -1295.072597   (d E  =  -0.00003)

 reached required accuracy - stopping structural energy minimisation