 vasp.6.3.0 20Jan22 (build Apr  1 2022 16:44:48) complex
 executed on        HPECrayEX_GCC date 2023.04.10  23:07:54

 INCAR:
   SYSTEM = TiO2
   ISMEAR = 0
   SIGMA = 0.05
   EDIFF = 1E-7
   ALGO = ALL
   ISTART = 0
   IBRION = 2
   NSW = 1000
   ISYM = 0
   ISIF = 2
   EDIFFG = -0.01
   DIPOL = 0.5 0.5 0.5
   IDIPOL = 3
   LDIPOL = .TRUE.
   GGA = RE
   IVDW = 13
   VDW_S8 = 1.7468
   VDW_A1 = 0.5363
   VDW_A2 = 3.0726
   ENCUT = 600
   PREC = Accurate
   LASPH = .TRUE.
   LREAL = .FALSE.
   ISPIN = 1
   NELM = 200
   NELMIN = 8
   NCORE = 8
   KPAR = 1
   LWAVE = .FALSE.
   LCHARG = .FALSE.

 POTCAR:    PAW_PBE N 08Apr2002
 POTCAR:    PAW_PBE H 15Jun2001
 POTCAR:    PAW_PBE Ti_pv 07Sep2000
 POTCAR:    PAW_PBE O 08Apr2002
 POTCAR:    PAW_PBE N 08Apr2002
   VRHFIN =N: s2p3

   TITEL  = PAW_PBE N 08Apr2002
   POMASS =   14.001; ZVAL   =    5.000    mass and valenz
   ENMAX  =  400.000; ENMIN  =  300.000 eV

   TITEL  = PAW_PBE H 15Jun2001
   POMASS =    1.000; ZVAL   =    1.000    mass and valenz
   ENMAX  =  250.000; ENMIN  =  200.000 eV

   TITEL  = PAW_PBE Ti_pv 07Sep2000
   POMASS =   47.880; ZVAL   =   10.000    mass and valenz
   ENMAX  =  222.335; ENMIN  =  166.751 eV

   TITEL  = PAW_PBE O 08Apr2002
   POMASS =   16.000; ZVAL   =    6.000    mass and valenz
   ENMAX  =  400.000; ENMIN  =  300.000 eV

  PAW_PBE N 08Apr2002                   :
  PAW_PBE H 15Jun2001                   :
  PAW_PBE Ti_pv 07Sep2000               :
  PAW_PBE O 08Apr2002                   :

 POSCAR:  N  H Ti  O
  positions in direct lattice
|           W    W    AA    RRRRR   N    N  II  N    N   GGGG   !!!           |
|           W    W   A  A   R    R  NN   N  II  NN   N  G    G  !!!           |
|           W    W  A    A  R    R  N N  N  II  N N  N  G       !!!           |
|           W WW W  AAAAAA  RRRRR   N  N N  II  N  N N  G  GGG   !            |
|           WW  WW  A    A  R   R   N   NN  II  N   NN  G    G                |
|           W    W  A    A  R    R  N    N  II  N    N   GGGG   !!!           |
|     Specifying the vdW parameters                                           |
|     VDW_S8 = 1.747                                                          |
|     VDW_A1 = 0.536                                                          |
|     VDW_A2 = 3.073                                                          |
|     in the INCAR file will overwrite the defaults for revpbe. Please        |
|     make sure that is what you intended.                                    |

 ion  position               nearest neighbor table
   1  0.601  0.500  0.772-   4 1.02   3 1.02   2 1.02  52 2.24
   2  0.509  0.500  0.786-   1 1.02
   3  0.647  0.428  0.786-   1 1.02
   4  0.647  0.572  0.786-   1 1.02
   5  0.808  0.833  0.295-  89 1.94  55 1.94  57 1.94  54 1.99  56 1.99  22 3.05   8 3.05   6 3.05

   6  0.592  0.667  0.327-  53 1.94 120 1.94  56 1.94  58 1.94  57 1.99  59 1.99  37 3.05   7 3.05
                             5 3.05  11 3.08
   7  0.308  0.667  0.295- 125 1.94  59 1.94  61 1.94  53 1.99  60 1.99  40 3.05   6 3.05   8 3.05

   8  0.092  0.833  0.327-  54 1.94  92 1.94  60 1.94  62 1.94  61 1.99  55 1.99  23 3.05   5 3.05
                             7 3.05   9 3.08
   9  0.944  0.833  0.423-  63 1.92  97 1.93  65 1.93  55 1.98  64 1.99  62 2.00  12 3.00  26 3.05
                            10 3.05   8 3.08
  10  0.725  0.667  0.452-  58 1.89 128 1.94  64 1.94  66 1.97  67 1.98  65 2.01  11 3.00  41 3.05
                             9 3.05  15 3.11
  11  0.444  0.667  0.423-  67 1.92  69 1.93 133 1.93  59 1.98  68 1.99  58 2.00  10 3.00  12 3.05
                            44 3.05   6 3.08
  12  0.225  0.833  0.452-  62 1.89  68 1.94 100 1.94  70 1.97  63 1.98  69 2.01   9 3.00  11 3.05
                            27 3.05  13 3.11
  13  0.085  0.833  0.550-  71 1.92 105 1.93  73 1.93  72 1.98  63 2.00  70 2.01  16 2.95  30 3.05
                            14 3.05  12 3.11
  14  0.864  0.667  0.576-  66 1.86  72 1.94 136 1.94  75 1.95  74 2.01  73 2.02  15 2.95  13 3.05
                            45 3.05
  15  0.585  0.667  0.550-  75 1.92 141 1.93  77 1.93  76 1.98  67 2.00  66 2.01  14 2.95  16 3.05
                            48 3.05  10 3.11
  16  0.364  0.833  0.576-  70 1.86  76 1.94 108 1.94  71 1.95  78 2.01  77 2.02  13 2.95  15 3.05
                            31 3.05
  17  0.232  0.833  0.680-  79 1.86  81 1.93 113 1.93  80 2.00  78 2.09  71 2.09  20 2.84  18 3.07
                            34 3.07
  18  0.003  0.667  0.700-  74 1.78  82 1.83  80 1.98 144 1.98  81 2.06  19 2.84  17 3.07  49 3.07

[...]

  21  0.808  0.167  0.295-  89 1.94  87 1.94 121 1.94  86 1.99  88 1.99  22 3.05  24 3.05  38 3.05

[...]

  37  0.808  0.500  0.295-  57 1.94 121 1.94 119 1.94 120 1.99 118 1.99   6 3.05  38 3.05  40 3.05

  38  0.592  0.333  0.327- 117 1.94 120 1.94  88 1.94 122 1.94 121 1.99 123 1.99  37 3.05  39 3.05
                            21 3.05  43 3.08
  39  0.308  0.333  0.295- 125 1.94 123 1.94  93 1.94 124 1.99 117 1.99  40 3.05  38 3.05  24 3.05

  40  0.092  0.500  0.327- 118 1.94  60 1.94 124 1.94 126 1.94 125 1.99 119 1.99  39 3.05   7 3.05
                            37 3.05  41 3.08
  41  0.944  0.500  0.423- 127 1.92  65 1.93 129 1.93 119 1.98 128 1.99 126 2.00  44 3.00  10 3.05
                            42 3.05  40 3.08
  42  0.725  0.333  0.452- 122 1.89 128 1.94  96 1.94 130 1.97 131 1.98 129 2.01  43 3.00  41 3.05
                            25 3.05  47 3.11
  43  0.444  0.333  0.423- 131 1.92 101 1.93 133 1.93 123 1.98 132 1.99 122 2.00  42 3.00  28 3.05
                            44 3.05  38 3.08
  44  0.225  0.500  0.452- 126 1.89  68 1.94 132 1.94 134 1.97 127 1.98 133 2.01  41 3.00  11 3.05
                            43 3.05  45 3.11
  45  0.085  0.500  0.550- 135 1.92  73 1.93 137 1.93 136 1.98 127 2.00 134 2.01  48 2.95  46 3.05
                            14 3.05  44 3.11
  46  0.864  0.333  0.576- 130 1.86 104 1.94 136 1.94 139 1.95 138 2.01 137 2.02  47 2.95  29 3.05
                            45 3.05
  47  0.585  0.333  0.550- 139 1.92 141 1.93 109 1.93 140 1.98 131 2.00 130 2.01  46 2.95  32 3.05
                            48 3.05  42 3.11
  48  0.364  0.500  0.576- 134 1.86  76 1.94 140 1.94 135 1.95 142 2.01 141 2.02  45 2.95  15 3.05
                            47 3.05
  49  0.232  0.500  0.680- 143 1.86 145 1.93  81 1.93 144 2.00 142 2.09 135 2.09  52 2.84  18 3.07
                            50 3.07
  50  0.003  0.333  0.700- 138 1.78 146 1.83 144 1.98 112 1.98 145 2.06  51 2.84  49 3.07  33 3.07

  51  0.732  0.333  0.680- 146 1.86 116 1.93 148 1.93 147 2.00 138 2.09 139 2.09  50 2.84  36 3.07
                            52 3.07
  52  0.503  0.500  0.700- 142 1.78 143 1.83 147 1.98  83 1.98 148 2.06   1 2.24  49 2.84  19 3.07
                            51 3.07
  53  0.488  0.667  0.269-   6 1.94   7 1.99
  54  0.988  0.833  0.269-   8 1.94   5 1.99
  55  0.911  0.833  0.353-   5 1.94   9 1.98   8 1.99
  56  0.627  0.833  0.321-  22 1.94   6 1.94   5 1.99
  57  0.772  0.667  0.300-  37 1.94   5 1.94   6 1.99
  58  0.624  0.667  0.395-  10 1.89   6 1.94  11 2.00
  59  0.411  0.667  0.353-   7 1.94  11 1.98   6 1.99
  60  0.127  0.667  0.321-  40 1.94   8 1.94   7 1.99
  61  0.272  0.833  0.300-  23 1.94   7 1.94   8 1.99
  62  0.124  0.833  0.395-  12 1.89   8 1.94   9 2.00
  63  0.049  0.833  0.480-   9 1.92  12 1.98  13 2.00
  64  0.764  0.833  0.448-  10 1.94  26 1.94   9 1.99
  65  0.909  0.667  0.427-  41 1.93   9 1.93  10 2.01
  66  0.764  0.667  0.521-  14 1.86  10 1.97  15 2.01
  67  0.549  0.667  0.480-  11 1.92  10 1.98  15 2.00
  68  0.264  0.667  0.448-  44 1.94  12 1.94  11 1.99
  69  0.409  0.833  0.427-  11 1.93  27 1.93  12 2.01
  70  0.264  0.833  0.521-  16 1.86  12 1.97  13 2.01
  71  0.193  0.833  0.607-  13 1.92  16 1.95  17 2.09
  72  0.903  0.833  0.574-  14 1.94  30 1.94  13 1.98
  73  0.050  0.667  0.553-  45 1.93  13 1.93  14 2.02
  74  0.913  0.667  0.646-  18 1.78  14 2.01  19 2.09
  75  0.693  0.667  0.607-  15 1.92  14 1.95  19 2.09
  76  0.403  0.667  0.574-  16 1.94  48 1.94  15 1.98
  77  0.550  0.833  0.553-  31 1.93  15 1.93  16 2.02
  78  0.413  0.833  0.646-  20 1.78  16 2.01  17 2.09
  79  0.347  0.833  0.732-  20 1.83  17 1.86
  80  0.054  0.833  0.709-  34 1.98  18 1.98  17 2.00
  81  0.196  0.667  0.680-  17 1.93  49 1.93  18 2.06
  82  0.847  0.667  0.732-  18 1.83  19 1.86
  83  0.554  0.667  0.709-  52 1.98  20 1.98  19 2.00
  84  0.696  0.833  0.680-  19 1.93  35 1.93  20 2.06
  85  0.488  0.000  0.269-  22 1.94  23 1.99
  86  0.988  0.167  0.269-  24 1.94  21 1.99
  87  0.911  0.167  0.353-  21 1.94  25 1.98  24 1.99
  88  0.627  0.167  0.321-  22 1.94  38 1.94  21 1.99
  89  0.772  0.000  0.300-   5 1.94  21 1.94  22 1.99
  90  0.624  0.000  0.395-  26 1.89  22 1.94  27 2.00
  91  0.411  0.000  0.353-  23 1.94  27 1.98  22 1.99
  92  0.127  0.000  0.321-   8 1.94  24 1.94  23 1.99
  93  0.272  0.167  0.300-  23 1.94  39 1.94  24 1.99
  94  0.124  0.167  0.395-  28 1.89  24 1.94  25 2.00
  95  0.049  0.167  0.480-  25 1.92  28 1.98  29 2.00
  96  0.764  0.167  0.448-  26 1.94  42 1.94  25 1.99
  97  0.909  0.000  0.427-  25 1.93   9 1.93  26 2.01
  98  0.764  1.000  0.521-  30 1.86  26 1.97  31 2.01
  99  0.549  0.000  0.480-  27 1.92  26 1.98  31 2.00
 100  0.264  0.000  0.448-  28 1.94  12 1.94  27 1.99
 101  0.409  0.167  0.427-  43 1.93  27 1.93  28 2.01
 102  0.264  0.167  0.521-  32 1.86  28 1.97  29 2.01
 103  0.193  0.167  0.607-  29 1.92  32 1.95  33 2.09
 104  0.903  0.167  0.574-  46 1.94  30 1.94  29 1.98
 105  0.050  0.000  0.553-  13 1.93  29 1.93  30 2.02
 106  0.913  1.000  0.646-  34 1.78  30 2.01  35 2.09
 107  0.693  0.000  0.607-  31 1.92  30 1.95  35 2.09
 108  0.403  1.000  0.574-  16 1.94  32 1.94  31 1.98
 109  0.550  0.167  0.553-  47 1.93  31 1.93  32 2.02
 110  0.413  0.167  0.646-  36 1.78  32 2.01  33 2.09
 111  0.347  0.167  0.732-  36 1.83  33 1.86
 112  0.054  0.167  0.709-  34 1.98  50 1.98  33 2.00
[...]
 134  0.264  0.500  0.521-  48 1.86  44 1.97  45 2.01
 135  0.193  0.500  0.607-  45 1.92  48 1.95  49 2.09
 136  0.903  0.500  0.574-  46 1.94  14 1.94  45 1.98
 137  0.050  0.333  0.553-  29 1.93  45 1.93  46 2.02
 138  0.913  0.333  0.646-  50 1.78  46 2.01  51 2.09
 139  0.693  0.333  0.607-  47 1.92  46 1.95  51 2.09
 140  0.403  0.333  0.574-  32 1.94  48 1.94  47 1.98
 141  0.550  0.500  0.553-  47 1.93  15 1.93  48 2.02
 142  0.413  0.500  0.646-  52 1.78  48 2.01  49 2.09
 143  0.347  0.500  0.732-  52 1.83  49 1.86
 144  0.054  0.500  0.709-  18 1.98  50 1.98  49 2.00
 145  0.196  0.333  0.680-  33 1.93  49 1.93  50 2.06
 146  0.847  0.333  0.732-  50 1.83  51 1.86
 147  0.554  0.333  0.709-  36 1.98  52 1.98  51 2.00
 148  0.696  0.500  0.680-  51 1.93  19 1.93  52 2.06

IMPORTANT INFORMATION: All symmetrisations will be switched off!
NOSYMM: (Re-)initialisation of all symmetry stuff for point group C_1.

                                     Primitive cell

  volume of cell :    3260.9117

  direct lattice vectors                    reciprocal lattice vectors
    10.273755933  0.000000000  0.000000000     0.097335386 -0.000000000  0.000000000
[...]
   2.01172123  3.78960347 18.98111365
   8.69774538  3.78960338 20.42830848
   5.68916243  3.78960344 19.78041002
   7.14859660  5.68440507 18.98111371

--------------------------------------- Iteration      FINAL  ---------------------------------------

--------------------OUTCAR has been truncated-------------------------

[...]

--------------------OUTCAR has been truncated-------------------------

  FORCE on cell =-STRESS in cart. coord.  units (eV):
  Direction    XX          YY          ZZ          XY          YZ          ZX
  Alpha Z  2442.80598  2442.80598  2442.80598
  Ewald  486179.11009479644.41182************     0.00015    -0.00012 -1841.39413
  Hartree507489.50306503487.08300************     0.00008    -0.00007 -1234.40189
  E(xc)   -5191.80843 -5197.47184 -5207.79513     0.00000    -0.00000    -1.85037
  Local  ************************************    -0.00023     0.00019  3075.36972
  n-local -3243.79404 -3213.19891 -3256.03420     0.00000    -0.00000     1.32554
  augment  3131.82141  3127.29802  3118.35930     0.00000    -0.00000    -0.61024
  Kinetic 17164.21044 17220.57834 17281.98841    -0.00001     0.00000    -6.83549
  Fock        0.00000     0.00000     0.00000     0.00000     0.00000     0.00000
  vdW       -69.26938   -72.30087   -62.01486    -0.00000     0.00000    -0.69420
  Total     -40.75820   -13.43605   -13.80010    -0.00001     0.00000    -9.09106
  in kB     -20.02564    -6.60151    -6.78038    -0.00000     0.00000    -4.46669

 VOLUME and BASIS-vectors are now :
  energy-cutoff  :      600.00
  volume of cell :     3260.91
      direct lattice vectors                 reciprocal lattice vectors
    10.273755933  0.000000000  0.000000000     0.097335386 -0.000000000  0.000000000
     0.000000000 11.368810418  0.000000000     0.000000000  0.087959950  0.000000000
     0.000000000  0.000000000 27.918672987     0.000000000  0.000000000  0.035818321

  length of vectors
    10.273755933 11.368810418 27.918672987     0.097335386  0.087959950  0.035818321

 FORCES acting on ions:
    Electron-Ion                     Ewald-Force                    Non-Local-Force
   -.152E+02 -.256E-05 -.175E+04   0.549E+01 0.133E-05 0.174E+04   0.966E+01 0.485E-06 0.183E+02
   0.427E+02 -.290E-06 -.372E+03   -.475E+02 0.264E-06 0.377E+03   0.476E+01 0.486E-07 -.557E+01
   -.419E+02 0.548E+02 -.355E+03   0.463E+02 -.607E+02 0.355E+03   -.438E+01 0.592E+01 -.373E+00
   -.419E+02 -.548E+02 -.355E+03   0.463E+02 0.607E+02 0.355E+03   -.438E+01 -.592E+01 -.373E+00
   0.653E+01 -.414E-01 0.337E+04   -.161E+01 0.412E-01 -.337E+04   -.113E+01 0.152E-05 -.348E+01
   0.481E+01 -.113E+00 0.277E+04   -.640E+01 0.114E+00 -.277E+04   -.686E-01 -.698E-03 -.246E-01
   0.647E+01 0.139E+00 0.337E+04   -.158E+01 -.144E+00 -.337E+04   -.112E+01 0.145E-02 -.347E+01
   0.352E+01 0.522E-01 0.277E+04   -.516E+01 -.599E-01 -.277E+04   -.611E-01 0.148E-02 -.293E-01
   -.715E+00 0.519E-01 0.126E+04   0.537E+00 -.517E-01 -.126E+04   0.182E+00 -.509E-03 0.153E-01
   0.358E+00 -.138E+01 0.800E+03   -.289E+00 0.137E+01 -.800E+03   -.429E-01 0.175E-01 -.146E+00
   0.867E+00 -.348E+00 0.126E+04   -.103E+01 0.344E+00 -.126E+04   0.176E+00 0.891E-02 -.515E-02
   -.523E+01 0.168E+00 0.793E+03   0.530E+01 -.172E+00 -.793E+03   -.223E-01 0.297E-02 -.149E+00
   -.509E+01 -.236E+01 -.779E+03   0.480E+01 0.235E+01 0.779E+03   0.308E+00 0.116E-01 0.123E+00
   -.113E+02 -.494E+01 -.117E+04   0.115E+02 0.495E+01 0.117E+04   -.103E+00 -.889E-03 -.244E+00
   0.117E+01 -.167E+01 -.755E+03   -.142E+01 0.167E+01 0.755E+03   0.272E+00 0.763E-04 0.911E-01
   -.215E+01 -.860E+00 -.119E+04   0.234E+01 0.872E+00 0.119E+04   -.109E+00 -.174E-01 -.290E+00
   0.278E+02 -.109E+02 -.279E+04   -.288E+02 0.109E+02 0.279E+04   0.921E+00 0.251E-02 -.180E+00
   -.870E+02 -.215E+02 -.318E+04   0.872E+02 0.213E+02 0.317E+04   0.386E-01 0.146E+00 0.775E+00
   -.102E+02 -.398E+02 -.270E+04   0.935E+01 0.399E+02 0.270E+04   0.842E+00 -.248E-01 -.526E-01
   -.607E+02 -.339E+02 -.317E+04   0.609E+02 0.339E+02 0.317E+04   0.845E-01 0.439E-01 0.791E+00
   0.653E+01 0.413E-01 0.337E+04   -.161E+01 -.412E-01 -.337E+04   -.113E+01 -.160E-05 -.348E+01
   0.477E+01 -.523E-05 0.277E+04   -.638E+01 0.565E-05 -.277E+04   -.635E-01 -.696E-07 -.295E-01
   0.639E+01 -.296E-05 0.337E+04   -.148E+01 0.315E-05 -.337E+04   -.112E+01 -.645E-07 -.348E+01
   0.352E+01 -.522E-01 0.277E+04   -.516E+01 0.599E-01 -.277E+04   -.611E-01 -.148E-02 -.293E-01
   -.715E+00 -.520E-01 0.126E+04   0.537E+00 0.517E-01 -.126E+04   0.182E+00 0.509E-03 0.153E-01
   -.193E+01 -.386E-04 0.797E+03   0.197E+01 0.388E-04 -.796E+03   -.992E-02 -.259E-06 -.151E+00
   0.944E+00 -.228E-04 0.126E+04   -.111E+01 0.210E-04 -.126E+04   0.173E+00 0.478E-07 -.182E-03
   -.523E+01 -.168E+00 0.793E+03   0.530E+01 0.172E+00 -.793E+03   -.223E-01 -.297E-02 -.149E+00
   -.509E+01 0.236E+01 -.779E+03   0.480E+01 -.235E+01 0.779E+03   0.308E+00 -.116E-01 0.123E+00
   -.110E+02 -.324E-04 -.119E+04   0.112E+02 0.277E-04 0.119E+04   -.798E-01 -.103E-05 -.245E+00
   -.291E+01 -.636E-04 -.771E+03   0.261E+01 0.642E-04 0.771E+03   0.318E+00 0.792E-07 0.163E+00
   -.215E+01 0.859E+00 -.119E+04   0.234E+01 -.872E+00 0.119E+04   -.109E+00 0.174E-01 -.290E+00
   0.278E+02 0.109E+02 -.279E+04   -.288E+02 -.109E+02 0.279E+04   0.921E+00 -.251E-02 -.180E+00
   -.752E+02 -.957E-05 -.319E+04   0.755E+02 0.121E-04 0.319E+04   0.103E-01 0.414E-07 0.790E+00
   0.118E+02 -.165E-04 -.278E+04   -.127E+02 0.212E-04 0.278E+04   0.860E+00 0.808E-06 -.139E+00
   -.607E+02 0.339E+02 -.317E+04   0.609E+02 -.339E+02 0.317E+04   0.845E-01 -.439E-01 0.791E+00
   0.657E+01 0.691E-05 0.337E+04   -.163E+01 -.755E-05 -.337E+04   -.113E+01 0.857E-07 -.347E+01
   0.481E+01 0.113E+00 0.277E+04   -.640E+01 -.114E+00 -.277E+04   -.686E-01 0.698E-03 -.246E-01
   0.647E+01 -.139E+00 0.337E+04   -.158E+01 0.144E+00 -.337E+04   -.112E+01 -.145E-02 -.347E+01
   0.259E+01 0.106E-04 0.277E+04   -.417E+01 -.111E-04 -.277E+04   -.776E-01 0.244E-07 -.268E-01
   0.205E+01 0.408E-04 0.126E+04   -.223E+01 -.434E-04 -.126E+04   0.158E+00 0.365E-06 0.482E-01
   0.358E+00 0.138E+01 0.800E+03   -.289E+00 -.137E+01 -.800E+03   -.429E-01 -.175E-01 -.146E+00
   0.867E+00 0.348E+00 0.126E+04   -.103E+01 -.344E+00 -.126E+04   0.176E+00 -.891E-02 -.515E-02
   -.891E+01 0.343E-04 0.776E+03   0.897E+01 -.342E-04 -.776E+03   -.215E-01 0.326E-06 -.602E-01
   -.592E+00 0.196E-04 -.781E+03   0.343E+00 -.217E-04 0.781E+03   0.227E+00 0.691E-06 0.149E+00
   -.113E+02 0.494E+01 -.117E+04   0.115E+02 -.495E+01 0.117E+04   -.103E+00 0.890E-03 -.244E+00
   0.117E+01 0.167E+01 -.755E+03   -.142E+01 -.167E+01 0.755E+03   0.272E+00 -.766E-04 0.911E-01
   -.248E+01 0.472E-04 -.123E+04   0.263E+01 -.453E-04 0.123E+04   -.921E-01 0.132E-05 -.172E+00
   0.480E+02 -.227E-04 -.278E+04   -.487E+02 0.189E-04 0.278E+04   0.642E+00 0.852E-06 -.429E-01
   -.870E+02 0.215E+02 -.318E+04   0.872E+02 -.213E+02 0.317E+04   0.386E-01 -.146E+00 0.775E+00
   -.102E+02 0.398E+02 -.270E+04   0.935E+01 -.399E+02 0.270E+04   0.842E+00 0.248E-01 -.526E-01
   0.114E+02 0.203E-04 -.312E+04   -.107E+02 -.164E-04 0.312E+04   -.532E+00 0.950E-06 -.328E+00
   -.322E+02 -.206E-01 0.228E+04   0.370E+02 0.204E-01 -.229E+04   -.657E+01 0.314E-03 0.171E+02
   -.324E+02 -.294E-01 0.228E+04   0.373E+02 0.274E-01 -.229E+04   -.656E+01 0.250E-02 0.171E+02
   0.812E+02 0.263E-01 0.138E+04   -.860E+02 -.284E-01 -.138E+04   0.385E+01 0.136E-02 -.445E+01
   0.748E+02 -.809E-02 0.169E+04   -.819E+02 0.902E-02 -.168E+04   0.741E+01 -.178E-02 -.270E+01
   -.861E+02 -.423E-01 0.194E+04   0.934E+02 0.405E-01 -.194E+04   -.698E+01 0.350E-02 -.162E+00
   -.689E+02 -.742E+00 0.106E+04   0.745E+02 0.796E+00 -.106E+04   -.570E+01 -.500E-01 0.434E+01
   0.818E+02 0.897E-01 0.138E+04   -.867E+02 -.721E-01 -.138E+04   0.383E+01 -.190E-01 -.433E+01
   0.739E+02 0.921E-01 0.169E+04   -.810E+02 -.100E+00 -.168E+04   0.743E+01 0.207E-01 -.272E+01
[...]
   0.870E+02 0.158E-04 -.108E+04   -.939E+02 -.169E-04 0.109E+04   0.689E+01 0.189E-05 -.771E+01
   0.701E+02 -.926E-05 -.715E+03   -.761E+02 0.100E-04 0.718E+03   0.598E+01 0.261E-07 -.305E+01
   -.810E+02 0.691E+00 -.457E+03   0.874E+02 -.710E+00 0.454E+03   -.637E+01 0.205E-01 0.283E+01
   -.663E+02 0.982E+01 -.128E+04   0.686E+02 -.101E+02 0.127E+04   -.238E+01 0.316E+00 0.990E+01
   0.807E+02 0.871E+01 -.105E+04   -.871E+02 -.898E+01 0.105E+04   0.640E+01 0.270E+00 -.595E+01
   0.796E+02 0.962E+00 -.730E+03   -.861E+02 -.992E+00 0.734E+03   0.646E+01 0.333E-01 -.332E+01
   -.728E+02 -.168E-04 -.461E+03   0.789E+02 0.184E-04 0.459E+03   -.607E+01 0.185E-05 0.246E+01
   -.615E+02 -.100E-04 -.131E+04   0.672E+02 0.114E-04 0.130E+04   -.573E+01 -.971E-06 0.632E+01
   0.108E+03 -.912E-05 -.227E+04   -.113E+03 0.866E-05 0.229E+04   0.578E+01 0.962E-06 -.204E+02
   0.451E+02 -.105E-04 -.201E+04   -.488E+02 0.806E-05 0.202E+04   0.361E+01 0.537E-06 -.748E+01
   -.492E+02 0.662E+01 -.165E+04   0.541E+02 -.647E+01 0.165E+04   -.493E+01 -.148E+00 0.316E+01
   0.118E+02 0.312E+02 -.226E+04   -.171E+02 -.311E+02 0.228E+04   0.534E+01 -.129E+00 -.196E+02
   0.783E+02 0.459E+02 -.195E+04   -.834E+02 -.455E+02 0.195E+04   0.510E+01 -.425E+00 -.647E+01
   -.684E+02 -.245E-05 -.156E+04   0.729E+02 0.217E-05 0.156E+04   -.447E+01 0.224E-05 0.434E+01
   -.162E+02 -.341E-05 0.557E+02   -.455E-12 0.146E-11 0.182E-11   0.162E+02 0.483E-04 -.557E+02

 POSITION                                       TOTAL-FORCE (eV/Angst)
      6.28582      5.68441     21.73001        -0.004263     -0.000001     -0.000190
      5.64009      5.68441     22.51999         0.001546     -0.000000     -0.002619
      6.89297      4.86545     21.80663         0.002158      0.001420      0.000394
      6.89297      6.50336     21.80663         0.002159     -0.001420      0.000394
      8.29921      9.47401      8.23548         3.833092     -0.000156      1.703027
      6.08023      7.57921      9.11607        -1.658351      0.000036     -1.854165
      3.16233      7.57921      8.23548         3.805431     -0.003966      1.688545
      0.94335      9.47401      9.11607        -1.687734     -0.006118     -1.858011
      9.70326      9.47437     11.79903        -0.000038      0.001335     -0.001361
      7.46069      7.57438     12.59794         0.002605     -0.002213     -0.001183
      4.56176      7.57657     11.79579         0.001649      0.000281      0.001641
      2.31515      9.47353     12.60691         0.002362     -0.000306     -0.002457
      0.87541      9.47543     15.36211        -0.000277     -0.001376      0.003355
      8.88205      7.57219     16.06758         0.006744      0.000079      0.001344
      6.00122      7.57719     15.34161         0.001376      0.000703     -0.000853
      3.73327      9.47473     16.09229         0.000133     -0.000311     -0.003179
      2.37352      9.46625     18.99490        -0.003928     -0.000742     -0.001188
      0.00862      7.56667     19.54936         0.001183      0.003140     -0.001277
      7.49469      7.57738     18.92336         0.000881      0.000146     -0.003900
      5.16750      9.48941     19.54324         0.001692     -0.000849     -0.003975
      8.29921      1.89480      8.23548         3.833092      0.000156      1.703028
      6.08023      0.00000      9.11607        -1.673543      0.000000     -1.856580
      3.16233      0.00000      8.23548         3.823919     -0.000000      1.696535
      0.94335      1.89480      9.11607        -1.687735      0.006118     -1.858011
      9.70326      1.89444     11.79903        -0.000036     -0.001335     -0.001360
      7.45633     -0.00000     12.60039        -0.002081     -0.000001     -0.001245
      4.56361      0.00000     11.79852         0.001288     -0.000002      0.006067
      2.31515      1.89528     12.60691         0.002361      0.000304     -0.002457
      0.87541      1.89338     15.36211        -0.000278      0.001372      0.003342
      8.86996      0.00000     16.08148         0.002577     -0.000006     -0.001292
      6.00773     -0.00000     15.35172        -0.002659      0.000000      0.002793
      3.73327      1.89408     16.09229         0.000131      0.000314     -0.003194
      2.37352      1.90256     18.99490        -0.003924      0.000740     -0.001188
      0.03292     -0.00000     19.55068         0.003590      0.000002     -0.000805
      7.52757     -0.00000     18.97961         0.001138      0.000005     -0.002192
      5.16750      1.87940     19.54324         0.001696      0.000874     -0.003995
      8.29921      5.68441      8.23548         3.846700     -0.000001      1.699885
      6.08023      3.78960      9.11607        -1.658351     -0.000038     -1.854163
      3.16233      3.78960      8.23548         3.805431      0.003966      1.688545
      0.94335      5.68441      9.11607        -1.658583     -0.000001     -1.788880
      9.71960      5.68441     11.79385        -0.003415     -0.000002      0.002851
      7.46069      3.79443     12.59794         0.002606      0.002210     -0.001182
      4.56176      3.79224     11.79579         0.001650     -0.000281      0.001642
      2.31866      5.68441     12.63667        -0.000047      0.000000      0.003105
      0.90718      5.68441     15.36884         0.001278     -0.000002      0.002160
      8.88205      3.79662     16.06758         0.006749     -0.000078      0.001345
      6.00122      3.79162     15.34161         0.001373     -0.000705     -0.000851
      3.75245      5.68441     16.17890        -0.001690      0.000003     -0.000017
      2.41334      5.68441     19.01311         0.000543     -0.000003      0.003259
      0.00862      3.80214     19.54936         0.001168     -0.003112     -0.001286
      7.49469      3.79143     18.92336         0.000874     -0.000152     -0.003902
      5.19886      5.68441     19.70820         0.002328      0.000005     -0.001947
      5.01563      7.57921      7.50000        -1.751954      0.000098      0.958866
     10.15251      9.47401      7.50000        -1.748419      0.000526      0.954946
      9.36381      9.47401      9.85155        -1.002314     -0.000863     -0.171554
      6.44591      9.47401      8.97095         0.350563     -0.000844     -0.045727
      7.93353      7.57921      8.38059         0.267730      0.001716     -1.068203
      6.41347      7.57921     11.02238        -0.074517      0.002591      0.457628
      4.22693      7.57921      9.85155        -1.006928     -0.001300     -0.156527
      1.30903      7.57921      8.97095         0.360826      0.012580     -0.053826
[...]
      2.71792      5.68441     14.56626         0.003018      0.000001      0.001640
      1.97059      5.68441     16.95776         0.002446      0.000000      0.001087
      9.28176      5.68441     16.00703         0.000299      0.000000     -0.000229
      0.51819      3.79142     15.43874        -0.000005      0.000488     -0.000729
      9.38325      3.78626     18.01613        -0.003105      0.002685     -0.001492
      7.12329      3.77877     16.91525        -0.000097     -0.001093     -0.000990
      4.15003      3.79019     16.04303         0.002080      0.001135     -0.001937
      5.64889      5.68441     15.46030         0.003837      0.000003     -0.003157
      4.23095      5.68441     18.10183         0.001880      0.000000     -0.001242
      3.53954      5.68441     20.49291         0.000269      0.000000      0.001899
      0.53179      5.68441     19.78819        -0.000227     -0.000002      0.000704
      2.00220      3.79374     19.00564         0.005598      0.001553     -0.000355
      8.65667      3.82129     20.40772        -0.001936     -0.000762     -0.000734
      5.68077      3.76119     19.74360         0.000658      0.003636     -0.002310
      7.11906      5.68441     18.92853        -0.000029      0.000002     -0.003786
    total drift:                                0.028887      0.000045     -0.014424

  FREE ENERGIE OF THE ION-ELECTRON SYSTEM (eV)
  free  energy   TOTEN  =     -1295.07039414 eV

  energy  without entropy=    -1295.07039414  energy(sigma->0) =    -1295.07039414

 d Force = 0.4760824E-04[ 0.293E-04, 0.659E-04]  d Energy = 0.4485152E-04 0.276E-05
 d Force =-0.2783316E+02[-0.278E+02,-0.278E+02]  d Ewald  =-0.2783315E+02-0.107E-05

 Conjugate gradient step on ions:
 trial-energy change:   -0.000045  1 .order   -0.000048   -0.000066   -0.000029
  (g-gl).g = 0.957E-04      g.g   = 0.101E-03  gl.gl    = 0.117E-03
 g(Force)  = 0.101E-03   g(Stress)= 0.000E+00 ortho     = 0.632E-06
 gamma     =   0.81553
 trial     =   0.64698
 opt step  =   1.16512  (harmonic =   1.16512) maximal distance =0.00152837
 next E    = -1295.070409   (d E  =  -0.00006)

 reached required accuracy - stopping structural energy minimisation