 vasp.6.3.0 20Jan22 (build Mar 11 2022 13:48:16) complex

 executed on             LinuxIFC date 2024.02.15  19:47:42

 INCAR:
   SYSTEM = Oxide-Surface
   ISMEAR = 0
   SIGMA = 0.05
   EDIFF = 1E-5
   ALGO = ALL
   ISTART = 0
   IBRION = -1
   NSW = 0
   ISYM = 2
   DIPOL = 0.5 0.5 0.5
   IDIPOL = 3
   LDIPOL = .TRUE.
   GGA = PE
   IVDW = 263
   ENCUT = 600
   PREC = Accurate
   LASPH = .TRUE.
   LREAL = .FALSE.
   ISPIN = 1
   NELM = 200
   NELMIN = 8
   NCORE = 19
   KPAR = 1
   LWAVE = .FALSE.
   LCHARG = .FALSE.

 POTCAR:    PAW_PBE Ti_pv 07Sep2000
 POTCAR:    PAW_PBE O 08Apr2002
 POTCAR:    PAW_PBE Ti_pv 07Sep2000
   VRHFIN =Ti: d3 s1

   TITEL  = PAW_PBE Ti_pv 07Sep2000
   POMASS =   47.880; ZVAL   =   10.000    mass and valenz
   ENMAX  =  222.335; ENMIN  =  166.751 eV

   TITEL  = PAW_PBE O 08Apr2002
   POMASS =   16.000; ZVAL   =    6.000    mass and valenz
   ENMAX  =  400.000; ENMIN  =  300.000 eV

  PAW_PBE Ti_pv 07Sep2000               :
  PAW_PBE O 08Apr2002                   :

 POSCAR: Ti  O
  positions in direct lattice
 exchange correlation table for  LEXCH =        8
   RHO(1)=    0.500       N(1)  =     2000
   RHO(2)=  100.500       N(2)  =     4000

 ion  position               nearest neighbor table
   1  0.750  0.625  0.287-  82 1.95 142 1.95 141 1.95  81 1.95  84 1.98 163 1.98  11 2.96  31 2.96

   2  0.000  0.750  0.287-  83 1.95  84 1.95 103 1.95 104 1.95  85 1.98  32 2.96  12 2.96
   3  0.000  0.625  0.394-  85 1.95 145 1.95  86 1.95 146 1.95  87 1.98  88 1.98  13 2.96  33 2.96

[...]

  80  0.502  0.499  0.712- 234 1.89 240 1.93 180 1.94 239 1.96 179 1.98  70 2.96  50 2.97
  81  0.750  0.750  0.245-   1 1.95  11 1.95
  82  0.750  0.750  0.329-   1 1.95  11 1.95   4 1.98
  83  0.098  0.625  0.287-   2 1.95  32 1.95  41 1.98
  84  0.902  0.625  0.287-   2 1.95  32 1.95   1 1.98
  85  0.000  0.750  0.352-   3 1.95  13 1.95   2 1.98
  86  0.000  0.750  0.435-   3 1.95  13 1.95   6 1.98
  87  0.848  0.625  0.394-   4 1.95  34 1.95   3 1.98
  88  0.152  0.625  0.394-  44 1.95  74 1.95   3 1.98
  89  0.750  0.750  0.458-   5 1.95  15 1.95   4 1.98
  90  0.750  0.750  0.542-   5 1.95  15 1.95   8 2.10
  91  0.098  0.625  0.500-   6 1.95  36 1.95  45 1.98
  92  0.902  0.625  0.500-   6 1.95  36 1.95   5 1.98
  93  0.001  0.750  0.565-  17 1.90   7 1.90   6 2.00
  94  0.000  0.750  0.649-  10 1.81   7 2.02  17 2.02
  95  0.851  0.625  0.607-   8 1.93  38 1.93   7 2.03
  96  0.151  0.625  0.607-   7 1.87  48 2.02  78 2.02
  97  0.754  0.751  0.671-   8 1.87   9 2.08  19 2.09
  98  0.750  0.749  0.756-   9 1.83  19 1.84
  99  0.095  0.625  0.719-  40 1.94  10 1.95  49 2.03
 100  0.907  0.624  0.720-  40 1.95  10 1.96   9 2.02
 101  0.750  0.000  0.245-  11 1.95  21 1.95
 102  0.750  0.000  0.329-  11 1.95  21 1.95  14 1.98
 103  0.098  0.875  0.287-   2 1.95  12 1.95  51 1.98
 104  0.902  0.875  0.287-   2 1.95  12 1.95  11 1.98
 105  0.000  0.000  0.352-  13 1.95  23 1.95  12 1.98
 106  0.000  0.000  0.435-  13 1.95  23 1.95  16 1.98
 107  0.848  0.875  0.394-   4 1.95  14 1.95  13 1.98
 108  0.152  0.875  0.394-  44 1.95  54 1.95  13 1.98
 109  0.750  0.000  0.458-  15 1.95  25 1.95  14 1.98
 110  0.750  0.000  0.542-  15 1.95  25 1.95  18 2.10
 111  0.098  0.875  0.500-   6 1.95  16 1.95  55 1.98
 112  0.902  0.875  0.500-   6 1.95  16 1.95  15 1.98
 113  0.001  1.000  0.565-  27 1.90  17 1.90  16 2.00
 114  0.000  1.000  0.649-  20 1.81  17 2.02  27 2.02
 115  0.851  0.875  0.607-  18 1.93   8 1.93  17 2.04
 116  0.151  0.875  0.607-  17 1.87  48 2.02  58 2.02
 117  0.752  1.000  0.672-  18 1.87  29 2.09  19 2.10
 118  0.751  1.000  0.756-  29 1.83  19 1.84
 119  0.095  0.875  0.718-  10 1.94  20 1.95  59 2.04
 120  0.907  0.875  0.719-  10 1.94  20 1.95  19 2.04
 121  0.750  0.250  0.245-  21 1.95  31 1.95
 122  0.750  0.250  0.329-  21 1.95  31 1.95  24 1.98
 123  0.098  0.125  0.287-  12 1.95  22 1.95  61 1.98
 124  0.902  0.125  0.287-  12 1.95  22 1.95  21 1.98
 125  0.000  0.250  0.352-  23 1.95  33 1.95  22 1.98
 126  0.000  0.250  0.435-  23 1.95  33 1.95  26 1.98
 127  0.848  0.125  0.394-  14 1.95  24 1.95  23 1.98
 128  0.152  0.125  0.394-  54 1.95  64 1.95  23 1.98
 129  0.750  0.250  0.458-  25 1.95  35 1.95  24 1.98
 130  0.750  0.250  0.542-  25 1.95  35 1.95  28 2.10
 131  0.098  0.125  0.500-  16 1.95  26 1.95  65 1.98
 132  0.902  0.125  0.500-  16 1.95  26 1.95  25 1.98
 133  0.001  0.250  0.565-  37 1.90  27 1.90  26 2.00
 134  0.000  0.250  0.649-  30 1.81  37 2.02  27 2.02
 135  0.851  0.125  0.607-  18 1.93  28 1.93  27 2.04
 136  0.151  0.125  0.607-  27 1.87  58 2.02  68 2.02
 137  0.754  0.250  0.671-  28 1.87  39 2.07  29 2.10
 138  0.750  0.251  0.756-  39 1.83  29 1.84
 139  0.095  0.125  0.719-  30 1.94  20 1.95  69 2.04
[...]
 226  0.500  0.500  0.435-  43 1.95  73 1.95  76 1.98
 227  0.348  0.375  0.394-  64 1.95  74 1.95  73 1.98
 228  0.652  0.375  0.394-  24 1.95  34 1.95  73 1.98
 229  0.250  0.500  0.458-  45 1.95  75 1.95  74 1.98
 230  0.250  0.500  0.542-  45 1.95  75 1.95  78 2.11
 231  0.598  0.375  0.500-  66 1.95  76 1.95  35 1.98
 232  0.402  0.375  0.500-  66 1.95  76 1.95  75 1.98
 233  0.501  0.500  0.566-  47 1.90  77 1.90  76 2.00
 234  0.500  0.500  0.650-  80 1.89  47 1.99  77 1.99
 235  0.350  0.375  0.607-  68 1.92  78 1.93  77 2.04
 236  0.651  0.375  0.608-  77 1.87  28 2.02  38 2.02
 237  0.251  0.500  0.672-  78 1.86  49 2.09  79 2.10
 238  0.252  0.500  0.756-  79 1.84  49 1.84
 239  0.598  0.371  0.714-  70 1.92  80 1.96  39 2.02
 240  0.407  0.374  0.718-  80 1.93  70 1.94  79 2.03

  LATTYP: Found a simple orthorhombic cell.
 ALAT       =    11.8303781148
 B/A-ratio  =     1.0992024327
 C/A-ratio  =     2.5825673970

  Lattice vectors:

 A1 = (   0.0000000000, -11.8303781148,   0.0000000000)
 A2 = (  13.0039804036,   0.0000000000,   0.0000000000)
 A3 = (   0.0000000000,   0.0000000000,  30.5527488131)

Analysis of symmetry for initial positions (statically):
 Subroutine PRICEL returns:
 Original cell was already a primitive cell.

 Routine SETGRP: Setting up the symmetry group for a
 simple orthorhombic supercell.

 Subroutine GETGRP returns: Found  1 space group operations
 (whereof  1 operations were pure point group operations)
 out of a pool of  8 trial point group operations.

The static configuration has the point symmetry C_1 .

Analysis of symmetry for dynamics (positions and initial velocities):
 Subroutine PRICEL returns:
 Original cell was already a primitive cell.

[...]

The dynamic configuration has the point symmetry C_1 .

Analysis of constrained symmetry for selective dynamics:
 Subroutine PRICEL returns:
 Original cell was already a primitive cell.

 Routine SETGRP: Setting up the symmetry group for a
 simple orthorhombic supercell.

 Subroutine GETGRP returns: Found  1 space group operations
 (whereof  1 operations were pure point group operations)
 out of a pool of  8 trial point group operations.

The constrained configuration has the point symmetry C_1 .

 Subroutine INISYM returns: Found  1 space group operations
 (whereof  1 operations are pure point group operations),
 and found     1 'primitive' translations

                                     Primitive cell

  volume of cell :    4700.2961

  direct lattice vectors                    reciprocal lattice vectors
    13.003980404  0.000000000  0.000000000     0.076899531  0.000000000  0.000000000
     0.000000000 11.830378115  0.000000000     0.000000000  0.084528152  0.000000000
     0.000000000  0.000000000 30.552748813     0.000000000  0.000000000  0.032730279

  length of vectors
    13.003980404 11.830378115 30.552748813     0.076899531  0.084528152  0.032730279

  position of ions in fractional coordinates (direct lattice)
     0.750000000  0.625000000  0.287188045
     0.000000000  0.750000000  0.287188045
     0.000000000  0.625000000  0.393594023
     0.750000000  0.750000000  0.393594023
     0.750000000  0.625000000  0.500000000
     0.000000000  0.750000000  0.500000000
     0.007153851  0.625014308  0.604051248
     0.756304002  0.750075782  0.610262489
     0.751644692  0.625562917  0.719252858
     0.000794862  0.750172552  0.708180947
     0.750000000  0.875000000  0.287188045
     0.000000000  0.000000000  0.287188045
     0.000000000  0.875000000  0.393594023
     0.750000000  0.000000000  0.393594023
     0.750000000  0.875000000  0.500000000
     0.000000000  0.000000000  0.500000000
     0.007277969  0.874988203  0.604120477
     0.755823970  0.999936719  0.610540702
     0.750558456  0.874801778  0.720210742
     0.000972366  0.999860664  0.708137749
     0.750000000  0.125000000  0.287188045
     0.000000000  0.250000000  0.287188045
     0.000000000  0.125000000  0.393594023
     0.750000000  0.250000000  0.393594023
     0.750000000  0.125000000  0.500000000
     0.000000000  0.250000000  0.500000000
     0.007298258  0.124917644  0.604100230
     0.756284959  0.249808457  0.610237489
     0.750454270  0.124164987  0.720199614
     0.000891816  0.249547152  0.708163781
     0.750000000  0.375000000  0.287188045
     0.000000000  0.500000000  0.287188045
     0.000000000  0.375000000  0.393594023
     0.750000000  0.500000000  0.393594023
     0.750000000  0.375000000  0.500000000
     0.000000000  0.500000000  0.500000000
     0.007178713  0.374943068  0.604052437
     0.756563247  0.499958319  0.610421053
     0.752182607  0.373375021  0.719287257
     0.001629605  0.499997807  0.708113155
     0.250000000  0.625000000  0.287188045
     0.500000000  0.750000000  0.287188045
     0.500000000  0.625000000  0.393594023
     0.250000000  0.750000000  0.393594023
     0.250000000  0.625000000  0.500000000
     0.500000000  0.750000000  0.500000000
     0.507320083  0.622908111  0.605197857
     0.256313719  0.749863999  0.610535728
     0.251324883  0.625073828  0.720260147
     0.501526304  0.750046487  0.706999378
     0.250000000  0.875000000  0.287188045
     0.500000000  0.000000000  0.287188045
     0.500000000  0.875000000  0.393594023
     0.250000000  0.000000000  0.393594023
     0.250000000  0.875000000  0.500000000
     0.500000000  0.000000000  0.500000000
     0.507087916  0.874087949  0.603151519
     0.256128090  0.999945940  0.610575253
     0.251728128  0.874965616  0.720273385
     0.500287337  0.999861506  0.707198828
[...]
     0.500000000  0.500000000  0.435304973
     0.347999548  0.375000000  0.393594023
     0.652000452  0.375000000  0.393594023
     0.250000000  0.500000000  0.458289049
     0.250000000  0.500000000  0.541710951
     0.597999548  0.375000000  0.500000000
     0.402000452  0.375000000  0.500000000
     0.501117386  0.499778844  0.565532930
     0.499713178  0.500386743  0.649591141
     0.350391877  0.374994760  0.607107718
     0.651325941  0.374991118  0.607676041
     0.251182300  0.500380033  0.671616784
     0.252350693  0.499836245  0.755769292
     0.597520163  0.371494485  0.714046372
     0.407335910  0.373881061  0.717873155

  ion indices of the primitive-cell ions
   primitive index   ion index
                 1           1
                 2           2
                 3           3
                 4           4
                 5           5
[...]
   O          19.887          3.263          5.544          2.482          2.441          1.037
   O          20.139          3.269          5.579          2.451          2.352          1.043
   O          20.111          3.268          5.574          2.549          2.645          1.042
   O          20.173          3.270          5.583          2.541          2.619          1.044
   O          20.495          3.279          5.626          2.541          2.619          1.051
   O          19.312          3.249          5.475          2.698          3.135          1.026
   O          19.952          3.264          5.552          2.652          2.979          1.038
   O          19.898          3.262          5.544          2.673          3.048          1.036

  vdW correction parametrized for the method pbe

  IVDW = 263
  VDW_RADIUS =    50.000 A
  VDW_SR =     0.830
  VDW_D =     6.000
  SCSRAD =   120.000 A
  LVDWSCS = T
  LSCSGRAD = T
  LSCALER0 = T
  ITIM =  1
  Edisp (eV):  -66.88904

  FORCE on cell =-STRESS in cart. coord.  units (eV):
  Direction    XX          YY          ZZ          XY          YZ          ZX
  Alpha Z  4654.20310  4654.20310  4654.20310
  Ewald  982778.06297************************    -3.19922     1.08824   -16.94950
  Hartree************************************    -1.36629     0.76418   -11.96095
  E(xc)   -8594.78967 -8576.66208 -8604.34091    -0.00548     0.00247    -0.03300
  Local  ************************************     4.56346    -1.80561    30.17819
  n-local -5401.24580 -5325.35803 -5446.88508    -0.06698     0.05649    -0.34557
  augment  5219.37754  5201.83029  5223.14212    -0.02378    -0.01565    -0.33606
  Kinetic 28619.68697 28147.46780 28667.03691     0.03073     0.04590     0.00650
  Fock        0.00000     0.00000     0.00000     0.00000     0.00000     0.00000
  vdW      -102.39616  -100.18843   -86.38226     0.00346    -0.00272    -0.07178
  Total      -7.39642   -61.60279   -51.14463    -0.06410     0.13331     0.48782
  in kB      -2.52120   -20.99838   -17.43353    -0.02185     0.04544     0.16628

 VOLUME and BASIS-vectors are now :
  energy-cutoff  :      600.00
  volume of cell :     4700.30
      direct lattice vectors                 reciprocal lattice vectors
    13.003980404  0.000000000  0.000000000     0.076899531  0.000000000  0.000000000
     0.000000000 11.830378115  0.000000000     0.000000000  0.084528152  0.000000000
     0.000000000  0.000000000 30.552748813     0.000000000  0.000000000  0.032730279

  length of vectors
    13.003980404 11.830378115 30.552748813     0.076899531  0.084528152  0.032730279

 FORCES acting on ions:
    Electron-Ion                     Ewald-Force                    Non-Local-Force
   0.966E-02 0.256E-01 0.380E+04   -.115E-01 -.255E-01 -.380E+04   0.540E-03 -.153E-04 0.437E+00
   -.195E-01 0.215E-01 0.398E+04   0.202E-01 -.215E-01 -.397E+04   -.142E-03 -.377E-05 -.389E+01
   -.585E-01 0.550E-01 0.193E+04   0.621E-01 -.549E-01 -.193E+04   -.659E-03 0.690E-04 -.438E-01
   -.477E-01 0.166E+00 0.192E+04   0.426E-01 -.165E+00 -.192E+04   0.166E-02 -.310E-04 0.207E+00
   0.221E+00 0.602E+00 -.191E+02   -.240E+00 -.618E+00 0.199E+02   0.588E-02 0.938E-03 -.128E+00
   0.189E+01 0.144E-01 -.797E+01   -.190E+01 -.100E-01 0.694E+01   -.497E-03 -.228E-02 0.335E+00
   0.151E+02 0.916E-01 -.190E+04   -.153E+02 -.852E-01 0.190E+04   0.534E-01 -.716E-02 0.510E-01
   0.106E+02 -.115E+01 -.196E+04   -.106E+02 0.119E+01 0.196E+04   -.556E-01 -.157E-01 -.962E-01
   -.132E+02 0.140E+02 -.380E+04   0.133E+02 -.147E+02 0.380E+04   0.128E+00 0.997E-01 -.153E+00
   -.800E+00 0.473E+01 -.381E+04   0.755E+00 -.477E+01 0.381E+04   -.241E-01 -.628E-02 0.903E+00
   -.709E-02 0.202E-01 0.380E+04   0.502E-02 -.202E-01 -.380E+04   0.634E-03 -.108E-05 0.437E+00
   -.181E-01 -.272E-02 0.398E+04   0.189E-01 0.268E-02 -.397E+04   -.146E-03 0.169E-05 -.389E+01
   -.357E-01 0.384E-01 0.193E+04   0.392E-01 -.388E-01 -.193E+04   -.662E-03 0.695E-04 -.438E-01
   -.161E+00 -.186E-01 0.192E+04   0.155E+00 0.181E-01 -.192E+04   0.171E-02 -.555E-05 0.207E+00
   -.146E+01 0.213E+00 -.187E+02   0.145E+01 -.189E+00 0.195E+02   0.527E-02 -.792E-03 -.132E+00
   0.223E+01 -.439E-01 -.826E+01   -.224E+01 0.405E-01 0.723E+01   -.590E-03 0.140E-02 0.333E+00
   0.174E+02 0.316E+00 -.190E+04   -.176E+02 -.317E+00 0.190E+04   0.521E-01 -.551E-02 0.610E-01
   0.991E+01 -.738E-01 -.197E+04   -.991E+01 0.714E-01 0.197E+04   -.567E-01 -.172E-02 -.973E-01
   0.142E+00 -.110E+01 -.380E+04   -.112E+00 0.968E+00 0.380E+04   0.283E-01 0.177E-01 -.169E+00
   -.211E+01 0.214E+00 -.381E+04   0.205E+01 -.229E+00 0.381E+04   0.331E-01 0.121E-02 0.946E+00
   -.561E-02 -.256E-01 0.380E+04   0.359E-02 0.254E-01 -.380E+04   0.615E-03 0.262E-04 0.437E+00
   -.196E-01 -.215E-01 0.398E+04   0.204E-01 0.215E-01 -.397E+04   -.151E-03 0.500E-05 -.389E+01
   -.354E-01 -.521E-01 0.193E+04   0.391E-01 0.521E-01 -.193E+04   -.712E-03 -.617E-04 -.438E-01
   -.280E-01 -.166E+00 0.192E+04   0.232E-01 0.166E+00 -.192E+04   0.156E-02 0.202E-04 0.207E+00
   -.138E+01 -.320E+00 -.187E+02   0.138E+01 0.289E+00 0.195E+02   0.575E-02 0.169E-02 -.131E+00
   0.193E+01 -.386E-01 -.799E+01   -.193E+01 0.354E-01 0.695E+01   -.797E-03 0.228E-02 0.336E+00
   0.181E+02 -.302E+00 -.190E+04   -.183E+02 0.296E+00 0.190E+04   0.547E-01 0.718E-02 0.607E-01
   0.105E+02 0.802E+00 -.196E+04   -.105E+02 -.832E+00 0.196E+04   -.584E-01 0.107E-01 -.101E+00
   0.323E+00 -.176E+01 -.380E+04   -.254E+00 0.186E+01 0.380E+04   0.204E-01 -.284E-01 -.163E+00
   -.132E+00 -.487E+01 -.381E+04   0.760E-01 0.492E+01 0.381E+04   -.172E-01 0.192E-02 0.904E+00
   0.111E-01 -.202E-01 0.380E+04   -.129E-01 0.203E-01 -.380E+04   0.525E-03 -.785E-05 0.437E+00
   -.209E-01 0.274E-02 0.398E+04   0.217E-01 -.270E-02 -.397E+04   -.144E-03 -.588E-05 -.389E+01
   -.588E-01 -.412E-01 0.193E+04   0.625E-01 0.416E-01 -.193E+04   -.692E-03 -.140E-03 -.438E-01
   0.826E-01 0.192E-01 0.192E+04   -.867E-01 -.188E-01 -.192E+04   0.127E-02 -.231E-04 0.206E+00
   0.327E+00 -.487E+00 -.193E+02   -.347E+00 0.511E+00 0.200E+02   0.602E-02 -.137E-02 -.127E+00
   0.180E+01 0.336E-02 -.772E+01   -.180E+01 -.296E-02 0.668E+01   -.138E-02 0.368E-03 0.334E+00
   0.155E+02 0.428E-01 -.190E+04   -.157E+02 -.408E-01 0.190E+04   0.522E-01 0.302E-02 0.567E-01
   0.126E+02 0.129E+00 -.196E+04   -.125E+02 -.123E+00 0.196E+04   -.114E+00 -.239E-02 -.927E-01
   -.114E+02 -.167E+02 -.380E+04   0.116E+02 0.174E+02 0.380E+04   0.613E-01 -.136E+00 -.148E+00
   -.324E+00 0.370E+00 -.381E+04   0.148E+00 -.357E+00 0.381E+04   0.713E-01 -.103E-02 0.847E+00
   -.153E-01 0.277E-01 0.380E+04   0.170E-01 -.277E-01 -.380E+04   -.462E-03 -.510E-05 0.437E+00
   0.252E-01 0.474E-01 0.398E+04   -.259E-01 -.470E-01 -.397E+04   0.138E-03 -.595E-04 -.389E+01
   0.190E+00 0.271E+00 0.193E+04   -.193E+00 -.257E+00 -.193E+04   0.231E-03 -.301E-02 -.444E-01
   -.801E-01 0.196E+00 0.192E+04   0.847E-01 -.196E+00 -.192E+04   -.534E-03 -.762E-04 0.204E+00
   -.160E+01 0.727E+00 -.205E+02   0.163E+01 -.735E+00 0.213E+02   -.316E-02 0.424E-03 -.138E+00
   0.310E+01 0.226E+01 -.733E+01   -.313E+01 -.233E+01 0.641E+01   0.677E-03 0.380E-01 0.283E+00
   0.186E+02 -.500E+01 -.191E+04   -.188E+02 0.539E+01 0.191E+04   0.418E-01 -.140E+00 0.864E-01
   0.116E+02 -.298E+00 -.197E+04   -.117E+02 0.322E+00 0.197E+04   -.299E-01 0.312E-02 -.844E-01
   -.775E+00 0.129E+01 -.379E+04   0.462E+00 -.123E+01 0.379E+04   0.138E+00 0.411E-02 -.180E+00
   0.101E+02 -.527E+01 -.380E+04   -.996E+01 0.569E+01 0.380E+04   -.156E+00 -.967E-01 0.958E+00
   0.132E-02 0.223E-01 0.380E+04   0.716E-03 -.222E-01 -.380E+04   -.562E-03 -.101E-04 0.437E+00
   0.240E-01 -.506E-02 0.398E+04   -.247E-01 0.495E-02 -.397E+04   0.140E-03 0.130E-04 -.389E+01
   0.172E+00 0.217E+00 0.193E+04   -.176E+00 -.214E+00 -.193E+04   0.355E-03 -.147E-02 -.448E-01
   0.276E-01 -.201E-01 0.192E+04   -.224E-01 0.198E-01 -.192E+04   -.734E-03 0.500E-04 0.204E+00
   -.209E+00 0.567E+00 -.196E+02   0.228E+00 -.560E+00 0.204E+02   -.125E-03 -.864E-03 -.137E+00
   0.274E+01 -.262E+00 -.306E+01   -.277E+01 0.258E+00 0.196E+01   0.817E-02 0.471E-03 0.303E+00
   0.162E+02 -.553E+01 -.188E+04   -.164E+02 0.562E+01 0.188E+04   0.328E-01 -.257E-01 -.660E-01
   0.114E+02 0.202E+00 -.197E+04   -.115E+02 -.209E+00 0.197E+04   -.572E-01 0.436E-03 -.716E-01
   0.328E+01 0.181E+01 -.380E+04   -.330E+01 -.182E+01 0.380E+04   -.417E-01 0.296E-03 -.179E+00
   -.513E+01 0.359E+00 -.380E+04   0.513E+01 -.434E+00 0.380E+04   0.496E-01 0.146E-01 0.842E+00
[...]
   -.534E+02 -.105E+00 0.115E+04   0.574E+02 0.104E+00 -.115E+04   -.356E+01 0.150E-02 0.156E+00
   0.534E+02 -.975E-01 0.115E+04   -.574E+02 0.966E-01 -.115E+04   0.356E+01 0.127E-02 0.160E+00
   -.535E+00 0.387E-01 0.498E+03   0.550E+00 -.386E-01 -.502E+03   -.215E-01 -.157E-03 0.416E+01
   0.691E+00 0.213E+00 -.539E+03   -.976E+00 -.208E+00 0.546E+03   0.287E+00 -.899E-02 -.710E+01
   -.545E+02 -.838E+00 -.553E+01   0.591E+02 0.834E+00 0.530E+01   -.510E+01 0.264E-01 0.295E+00
   0.549E+02 -.885E+00 -.814E+01   -.596E+02 0.879E+00 0.797E+01   0.512E+01 0.301E-01 0.265E+00
   0.114E+02 0.649E+00 -.641E+03   -.125E+02 -.735E+00 0.634E+03   0.107E+01 0.790E-01 0.696E+01
   0.151E+02 -.149E+01 -.166E+04   -.163E+02 0.160E+01 0.166E+04   0.115E+01 -.137E+00 0.529E+00
   -.546E+02 -.767E+00 -.115E+04   0.608E+02 0.691E+00 0.115E+04   -.611E+01 0.879E-01 0.138E+01
   0.468E+01 0.581E+00 -.116E+04   -.456E+01 -.751E+00 0.116E+04   -.180E+00 0.179E+00 0.447E+00
   0.428E+01 -.407E+00 -.184E+04   -.478E+01 0.410E+00 0.184E+04   0.539E+00 -.174E-01 -.213E+01
   -.154E+01 0.692E+00 -.274E+04   0.159E+01 -.666E+00 0.276E+04   -.184E-01 -.739E-01 -.209E+02
   -.249E+02 -.607E+01 -.231E+04   0.315E+02 0.646E+01 0.231E+04   -.702E+01 0.304E-02 0.238E+00
   0.239E+02 0.159E+01 -.236E+04   -.304E+02 -.183E+01 0.236E+04   0.676E+01 0.526E+00 -.220E+01
   0.244E+02 -.837E+00 0.883E+02   -.339E-11 -.940E-12 0.246E-10   -.244E+02 0.833E+00 -.884E+02

 POSITION                                       TOTAL-FORCE (eV/Angst)
      9.75299      7.39399      8.77438        -0.001214      0.000116     -3.383522
      0.00000      8.87278      8.77438         0.000661      0.000032      2.916536
      0.00000      7.39399     12.02538         0.002608      0.000236      0.528085
      9.75299      8.87278     12.02538        -0.003601      0.000655     -0.708434
      9.75299      7.39399     15.27637        -0.015169     -0.014698      0.640837
      0.00000      8.87278     15.27637        -0.005441      0.002125     -0.709976
      0.09303      7.39416     18.45543        -0.081810     -0.000623      0.088614
      9.83496      8.87368     18.64520         0.024562      0.019910      0.038209
      9.77437      7.40065     21.97515         0.146811     -0.500318      0.487990
      0.01034      8.87482     21.63687        -0.066383     -0.033496      0.014175
      9.75299     10.35158      8.77438        -0.001397      0.000029     -3.383449
      0.00000      0.00000      8.77438         0.000662     -0.000021      2.916506
      0.00000     10.35158     12.02538         0.002587     -0.000287      0.528187
      9.75299      0.00000     12.02538        -0.004075     -0.000418     -0.709432
      9.75299     10.35158     15.27637        -0.006292      0.022241      0.647168
      0.00000      0.00000     15.27637        -0.005396     -0.002056     -0.708973
      0.09464     10.35144     18.45754        -0.078234     -0.004988      0.082891
      9.82872     11.82963     18.65370        -0.001005     -0.004785      0.017319
      9.76025     10.34924     22.00442         0.051040     -0.110259      0.105423
      0.01264     11.82873     21.63555        -0.036292     -0.013504     -0.001738
      9.75299      1.47880      8.77438        -0.001362     -0.000210     -3.383570
      0.00000      2.95759      8.77438         0.000666      0.000003      2.916493
      0.00000      1.47880     12.02538         0.002679     -0.000105      0.527870
      9.75299      2.95759     12.02538        -0.003361     -0.000603     -0.709633
      9.75299      1.47880     15.27637        -0.004900     -0.029669      0.642281
      0.00000      2.95759     15.27637        -0.004171     -0.000903     -0.711691
      0.09491      1.47782     18.45692        -0.079089      0.000141      0.079461
      9.83471      2.95533     18.64443         0.025384     -0.018651      0.030740
      9.75889      1.46892     22.00408         0.080766      0.056048      0.081121
      0.01160      2.95224     21.63635        -0.069545      0.033428      0.006021
      9.75299      4.43639      8.77438        -0.001186      0.000129     -3.383633
      0.00000      5.91519      8.77438         0.000659      0.000045      2.916527
      0.00000      4.43639     12.02538         0.002715      0.000217      0.527845
      9.75299      5.91519     12.02538        -0.002981      0.000420     -0.708452
      9.75299      4.43639     15.27637        -0.016035      0.022209      0.636699
      0.00000      5.91519     15.27637        -0.004885      0.000760     -0.713325
      0.09335      4.43572     18.45546        -0.084748      0.005344      0.086285
      9.83833      5.91470     18.65004         0.051383      0.002455      0.060119
      9.78137      4.41717     21.97620         0.166314      0.563424      0.453860
      0.02119      5.91516     21.63480        -0.104696      0.012932      0.033544
      3.25100      7.39399      8.77438         0.001322      0.000101     -3.382176
      6.50199      8.87278      8.77438        -0.000513      0.000359      2.919537
      6.50199      7.39399     12.02538        -0.003116      0.011447      0.537607
      3.25100      8.87278     12.02538         0.003893      0.000817     -0.699506
      3.25100      7.39399     15.27637         0.020879     -0.007369      0.671913
      6.50199      8.87278     15.27637        -0.019566     -0.031640     -0.648297
      6.59718      7.36924     18.49046        -0.016544      0.238902     -0.133945
      3.33310      8.87117     18.65354        -0.071480      0.023088     -0.048820
      3.26822      7.39486     22.00593        -0.182918      0.066607      0.046335
      6.52184      8.87333     21.60077        -0.002045      0.285804      0.054011
      3.25100     10.35158      8.77438         0.001507      0.000121     -3.382081
      6.50199      0.00000      8.77438        -0.000508     -0.000075      2.920088
      6.50199     10.35158     12.02538        -0.003423      0.001563      0.542763
      3.25100      0.00000     12.02538         0.004472     -0.000215     -0.699725
      3.25100     10.35158     15.27637         0.017288      0.006556      0.670717
      6.50199      0.00000     15.27637        -0.024668     -0.003684     -0.801113
      6.59416     10.34079     18.42794        -0.023855      0.050018      0.059367
      3.33068     11.82974     18.65475        -0.058843     -0.006308     -0.039012
      3.27347     10.35117     22.00633        -0.052403     -0.006549      0.024766
      6.50573     11.82874     21.60687         0.032198     -0.059358     -0.009776
[...]
      6.50199      5.91519     13.29976         0.003033     -0.000891     -0.035870
      4.52538      4.43639     12.02538         0.502423      0.000455      0.048385
      8.47860      4.43639     12.02538        -0.499090      0.000395      0.049511
      3.25100      5.91519     14.00199        -0.007234     -0.000087     -0.176058
      3.25100      5.91519     16.55076         0.007521     -0.003364      0.124681
      7.77637      4.43639     15.27637        -0.374042      0.022580      0.067639
      5.22761      4.43639     15.27637         0.400367      0.024315      0.092468
      6.51652      5.91257     17.27859         0.005327     -0.006084      0.007132
      6.49826      5.91976     19.84679        -0.042394     -0.026568      0.785055
      4.55649      4.43633     18.54881         0.141710      0.010103      0.016269
      8.46983      4.43629     18.56617        -0.143171      0.006118      0.003348
      3.26637      5.91968     20.51974         0.042861     -0.014351     -0.019219
      3.28156      5.91325     23.09083         0.028420     -0.047963     -0.120114
      7.77014      4.39492     21.81608        -0.409217      0.383727      0.429038
      5.29699      4.42315     21.93300         0.164342      0.277823      0.293424
    total drift:                               -0.010178     -0.003973     -0.088480

  FREE ENERGIE OF THE ION-ELECTRON SYSTEM (eV)
  free  energy   TOTEN  =     -2186.46526511 eV

  energy  without entropy=    -2186.46526511  energy(sigma->0) =    -2186.46526511