 vasp.6.3.0 20Jan22 (build Apr  1 2022 16:44:48) complex
 executed on        HPECrayEX_GCC date 2022.09.24  12:34:34

 INCAR:
   SYSTEM = MgO-rocksalt
   ISMEAR = 0
   SIGMA = 0.05
   EDIFF = 1E-7
   ALGO = ALL
   ISTART = 0
   IBRION = 2
   NSW = 1000
   ISYM = 2
   ISIF = 3
   EDIFFG = -0.005
   GGA = RE
   IVDW = 13
   VDW_S8 = 1.7468
   VDW_A1 = 0.5363
   VDW_A2 = 3.0726
   ENCUT = 600
   PREC = Normal
   LASPH = .TRUE.
   LREAL = .FALSE.
   ISPIN = 1
   NELM = 200
   NELMIN = 8
   NCORE = 4
   KPAR = 2
   LWAVE = .FALSE.
   LCHARG = .FALSE.

 POTCAR:    PAW_PBE Mg_pv 13Apr2007
 POTCAR:    PAW_PBE O 08Apr2002
 POTCAR:    PAW_PBE Mg_pv 13Apr2007
   VRHFIN =Mg: p6s2

   TITEL  = PAW_PBE Mg_pv 13Apr2007
   POMASS =   24.305; ZVAL   =    8.000    mass and valenz
   ENMAX  =  403.929; ENMIN  =  302.947 eV

   TITEL  = PAW_PBE O 08Apr2002
   POMASS =   16.000; ZVAL   =    6.000    mass and valenz
   ENMAX  =  400.000; ENMIN  =  300.000 eV

  PAW_PBE Mg_pv 13Apr2007               :
  PAW_PBE O 08Apr2002                   :

 POSCAR: Mg4 O4
  positions in direct lattice
  velocities in cartesian coordinates
|           W    W    AA    RRRRR   N    N  II  N    N   GGGG   !!!           |
|           W    W   A  A   R    R  NN   N  II  NN   N  G    G  !!!           |
|           W    W  A    A  R    R  N N  N  II  N N  N  G       !!!           |
|           W WW W  AAAAAA  RRRRR   N  N N  II  N  N N  G  GGG   !            |
|           WW  WW  A    A  R   R   N   NN  II  N   NN  G    G                |
|           W    W  A    A  R    R  N    N  II  N    N   GGGG   !!!           |
|     Specifying the vdW parameters                                           |
|     VDW_S8 = 1.747                                                          |
|     VDW_A1 = 0.536                                                          |
|     VDW_A2 = 3.073                                                          |
|     in the INCAR file will overwrite the defaults for revpbe. Please        |
|     make sure that is what you intended.                                    |

 ion  position               nearest neighbor table
   1  0.000  0.000  0.000-   5 2.11   7 2.11   8 2.11   7 2.11   8 2.11   5 2.11
   2  0.000  0.500  0.500-   6 2.11   7 2.11   8 2.11   8 2.11   7 2.11   6 2.11
   3  0.500  0.000  0.500-   5 2.11   6 2.11   7 2.11   5 2.11   6 2.11   7 2.11
   4  0.500  0.500  0.000-   5 2.11   6 2.11   8 2.11   6 2.11   5 2.11   8 2.11
   5  0.500  0.000  0.000-   1 2.11   3 2.11   4 2.11   3 2.11   4 2.11   1 2.11
   6  0.500  0.500  0.500-   2 2.11   3 2.11   4 2.11   4 2.11   3 2.11   2 2.11
   7  0.000  0.000  0.500-   1 2.11   2 2.11   3 2.11   1 2.11   2 2.11   3 2.11
   8  0.000  0.500  0.000-   1 2.11   2 2.11   4 2.11   2 2.11   1 2.11   4 2.11

  LATTYP: Found a simple cubic cell.
 ALAT       =     4.2204923271

  Lattice vectors:

 A1 = (   4.2204923271,  -0.0000000000,   0.0000000000)
 A2 = (   0.0000000000,   4.2204923271,  -0.0000000000)
 A3 = (  -0.0000000000,   0.0000000000,   4.2204923271)

Analysis of symmetry for initial positions (statically):
 Subroutine PRICEL returns following result:

  LATTYP: Found a face centered cubic cell.
 ALAT       =     4.2204923271

[...]

   4 primitive cells build up your supercell.

 Routine SETGRP: Setting up the symmetry group for a
 simple cubic supercell.

 Subroutine GETGRP returns: Found 48 space group operations
 (whereof 48 operations were pure point group operations)
 out of a pool of 48 trial point group operations.

The static configuration has the point symmetry O_h .

Analysis of symmetry for dynamics (positions and initial velocities):
 Subroutine PRICEL returns following result:

  LATTYP: Found a face centered cubic cell.
 ALAT       =     4.2204923271

  Lattice vectors:

 A1 = (   2.1102461635,  -2.1102461635,   0.0000000000)
 A2 = (   2.1102461635,   0.0000000000,   2.1102461635)
 A3 = (   0.0000000000,  -2.1102461635,   2.1102461635)

   4 primitive cells build up your supercell.

 Routine SETGRP: Setting up the symmetry group for a
 simple cubic supercell.

 Subroutine GETGRP returns: Found 48 space group operations
 (whereof 48 operations were pure point group operations)
 out of a pool of 48 trial point group operations.

The dynamic configuration has the point symmetry O_h .

 Subroutine INISYM returns: Found 48 space group operations
 (whereof 48 operations are pure point group operations),
 and found     4 'primitive' translations

                                     Primitive cell

  volume of cell :      18.7944

  direct lattice vectors                    reciprocal lattice vectors
     2.110246164 -2.110246164  0.000000000     0.236939182 -0.236939182 -0.236939182
     2.110246164  0.000000000  2.110246164     0.236939182  0.236939182  0.236939182
     0.000000000 -2.110246164  2.110246164    -0.236939182 -0.236939182  0.236939182

  length of vectors
     2.984338744  2.984338744  2.984338744     0.410390702  0.410390702  0.410390702

  position of ions in fractional coordinates (direct lattice)
     0.000000000  0.000000000  0.000000000
     0.500000000  0.500000000  0.500000000

  ion indices of the primitive-cell ions
   primitive index   ion index
                 1           1
                 2           5

 KPOINTS: pymatgen v2020.8.13 with grid density =

Automatic generation of k-mesh.
 Grid dimensions read from file:
 generate k-points for:    8    8    8

 Generating k-lattice:

  Cartesian coordinates                     Fractional coordinates (reciprocal lattice)
     0.029617398  0.000000000  0.000000000     0.125000000  0.000000000  0.000000000
     0.000000000  0.029617398  0.000000000     0.000000000  0.125000000  0.000000000
     0.000000000  0.000000000  0.029617398     0.000000000  0.000000000  0.125000000

  Length of vectors
     0.029617398  0.029617398  0.029617398

  Shift w.r.t. Gamma in fractional coordinates (k-lattice)
     0.000000000  0.000000000  0.000000000

 Subroutine IBZKPT returns following result:

 Found     35 irreducible k-points:

 Following reciprocal coordinates:
            Coordinates               Weight
  0.000000  0.000000  0.000000      1.000000
  0.125000  0.000000  0.000000      6.000000
  0.250000  0.000000  0.000000      6.000000
  0.375000  0.000000  0.000000      6.000000
  0.500000  0.000000  0.000000      3.000000
  0.125000  0.125000  0.000000     12.000000
  0.250000  0.125000  0.000000     24.000000
  0.375000  0.125000  0.000000     24.000000
  0.500000  0.125000  0.000000     12.000000
  0.250000  0.250000  0.000000     12.000000
  0.375000  0.250000  0.000000     24.000000
  0.500000  0.250000  0.000000     12.000000
  0.375000  0.375000  0.000000     12.000000
  0.500000  0.375000  0.000000     12.000000
  0.500000  0.500000  0.000000      3.000000
  0.125000  0.125000  0.125000      8.000000
  0.250000  0.125000  0.125000     24.000000
  0.375000  0.125000  0.125000     24.000000
  0.500000  0.125000  0.125000     12.000000
  0.250000  0.250000  0.125000     24.000000
  0.375000  0.250000  0.125000     48.000000
  0.500000  0.250000  0.125000     24.000000
  0.375000  0.375000  0.125000     24.000000
  0.500000  0.375000  0.125000     24.000000
  0.500000  0.500000  0.125000      6.000000
  0.250000  0.250000  0.250000      8.000000
  0.375000  0.250000  0.250000     24.000000
  0.500000  0.250000  0.250000     12.000000
  0.375000  0.375000  0.250000     24.000000
  0.500000  0.375000  0.250000     24.000000
  0.500000  0.500000  0.250000      6.000000
  0.375000  0.375000  0.375000      8.000000
  0.500000  0.375000  0.375000     12.000000
  0.500000  0.500000  0.375000      6.000000
  0.500000  0.500000  0.500000      1.000000

 Following cartesian coordinates:
            Coordinates               Weight
  0.000000  0.000000  0.000000      1.000000
  0.029617  0.000000  0.000000      6.000000
  0.059235  0.000000  0.000000      6.000000
  0.088852  0.000000  0.000000      6.000000
  0.118470  0.000000  0.000000      3.000000
  0.029617  0.029617  0.000000     12.000000
  0.059235  0.029617  0.000000     24.000000
  0.088852  0.029617  0.000000     24.000000
  0.118470  0.029617  0.000000     12.000000
  0.059235  0.059235  0.000000     12.000000
  0.088852  0.059235  0.000000     24.000000
  0.118470  0.059235  0.000000     12.000000
  0.088852  0.088852  0.000000     12.000000
  0.118470  0.088852  0.000000     12.000000
  0.118470  0.118470  0.000000      3.000000
  0.029617  0.029617  0.029617      8.000000
  0.059235  0.029617  0.029617     24.000000
  0.088852  0.029617  0.029617     24.000000
  0.118470  0.029617  0.029617     12.000000
  0.059235  0.059235  0.029617     24.000000
  0.088852  0.059235  0.029617     48.000000
  0.118470  0.059235  0.029617     24.000000
  0.088852  0.088852  0.029617     24.000000
  0.118470  0.088852  0.029617     24.000000
  0.118470  0.118470  0.029617      6.000000
  0.059235  0.059235  0.059235      8.000000
  0.088852  0.059235  0.059235     24.000000
  0.118470  0.059235  0.059235     12.000000
  0.088852  0.088852  0.059235     24.000000
  0.118470  0.088852  0.059235     24.000000
  0.118470  0.118470  0.059235      6.000000
  0.088852  0.088852  0.088852      8.000000
  0.118470  0.088852  0.088852     12.000000
  0.118470  0.118470  0.088852      6.000000
  0.118470  0.118470  0.118470      1.000000

 SYSTEM =  MgO-rocksalt
 POSCAR =  Mg4 O4

  energy-cutoff  :      600.00
  volume of cell :       75.18
      direct lattice vectors                 reciprocal lattice vectors
     4.220492327 -0.000000000  0.000000000     0.236939182  0.000000000  0.000000000
     0.000000000  4.220492327 -0.000000000     0.000000000  0.236939182  0.000000000
    -0.000000000  0.000000000  4.220492327     0.000000000  0.000000000  0.236939182

[...]

 k-points in units of 2pi/SCALE and weight: pymatgen v2020.8.13 with grid density =
   0.00000000  0.00000000  0.00000000       0.002
   0.02961740  0.00000000  0.00000000       0.012
   0.05923480  0.00000000  0.00000000       0.012
   0.08885219  0.00000000  0.00000000       0.012
   0.11846959  0.00000000  0.00000000       0.006
   0.02961740  0.02961740  0.00000000       0.023
   0.05923480  0.02961740  0.00000000       0.047
   0.08885219  0.02961740  0.00000000       0.047
   0.11846959  0.02961740  0.00000000       0.023
   0.05923480  0.05923480  0.00000000       0.023
   0.08885219  0.05923480  0.00000000       0.047
   0.11846959  0.05923480  0.00000000       0.023
   0.08885219  0.08885219  0.00000000       0.023
   0.11846959  0.08885219  0.00000000       0.023
   0.11846959  0.11846959  0.00000000       0.006
   0.02961740  0.02961740  0.02961740       0.016
   0.05923480  0.02961740  0.02961740       0.047
   0.08885219  0.02961740  0.02961740       0.047
   0.11846959  0.02961740  0.02961740       0.023
   0.05923480  0.05923480  0.02961740       0.047
   0.08885219  0.05923480  0.02961740       0.094
   0.11846959  0.05923480  0.02961740       0.047
   0.08885219  0.08885219  0.02961740       0.047
   0.11846959  0.08885219  0.02961740       0.047
   0.11846959  0.11846959  0.02961740       0.012
   0.05923480  0.05923480  0.05923480       0.016
   0.08885219  0.05923480  0.05923480       0.047
   0.11846959  0.05923480  0.05923480       0.023
   0.08885219  0.08885219  0.05923480       0.047
   0.11846959  0.08885219  0.05923480       0.047
   0.11846959  0.11846959  0.05923480       0.012
   0.08885219  0.08885219  0.08885219       0.016
   0.11846959  0.08885219  0.08885219       0.023
   0.11846959  0.11846959  0.08885219       0.012
   0.11846959  0.11846959  0.11846959       0.002

 k-points in reciprocal lattice and weights: pymatgen v2020.8.13 with grid density =
   0.00000000  0.00000000  0.00000000       0.002
   0.12500000  0.00000000  0.00000000       0.012
   0.25000000  0.00000000  0.00000000       0.012
   0.37500000  0.00000000  0.00000000       0.012
   0.50000000  0.00000000  0.00000000       0.006
   0.12500000  0.12500000  0.00000000       0.023
   0.25000000  0.12500000  0.00000000       0.047
   0.37500000  0.12500000  0.00000000       0.047
   0.50000000  0.12500000  0.00000000       0.023
   0.25000000  0.25000000  0.00000000       0.023
   0.37500000  0.25000000  0.00000000       0.047
   0.50000000  0.25000000  0.00000000       0.023
   0.37500000  0.37500000  0.00000000       0.023
   0.50000000  0.37500000  0.00000000       0.023
   0.50000000  0.50000000  0.00000000       0.006
   0.12500000  0.12500000  0.12500000       0.016
   0.25000000  0.12500000  0.12500000       0.047
   0.37500000  0.12500000  0.12500000       0.047
   0.50000000  0.12500000  0.12500000       0.023
   0.25000000  0.25000000  0.12500000       0.047
   0.37500000  0.25000000  0.12500000       0.094
   0.50000000  0.25000000  0.12500000       0.047
   0.37500000  0.37500000  0.12500000       0.047
   0.50000000  0.37500000  0.12500000       0.047
   0.50000000  0.50000000  0.12500000       0.012
   0.25000000  0.25000000  0.25000000       0.016
   0.37500000  0.25000000  0.25000000       0.047
   0.50000000  0.25000000  0.25000000       0.023
   0.37500000  0.37500000  0.25000000       0.047
   0.50000000  0.37500000  0.25000000       0.047
   0.50000000  0.50000000  0.25000000       0.012
   0.37500000  0.37500000  0.37500000       0.016
   0.50000000  0.37500000  0.37500000       0.023
   0.50000000  0.50000000  0.37500000       0.012
   0.50000000  0.50000000  0.50000000       0.002

 position of ions in fractional coordinates (direct lattice)
   0.00000000  0.00000000  0.00000000
   0.00000000  0.50000000  0.50000000
   0.50000000  0.00000000  0.50000000
   0.50000000  0.50000000  0.00000000
   0.50000000  0.00000000  0.00000000
   0.50000000  0.50000000  0.50000000
   0.00000000  0.00000000  0.50000000
   0.00000000  0.50000000  0.00000000

 position of ions in cartesian coordinates  (Angst):
   0.00000000  0.00000000  0.00000000
   0.00000000  2.11024616  2.11024616
   2.11024616  0.00000000  2.11024616
   2.11024616  2.11024616  0.00000000
   2.11024616  0.00000000  0.00000000
   2.11024616  2.11024616  2.11024616
   0.00000000  0.00000000  2.11024616
   0.00000000  2.11024616  0.00000000

--------------------------------------- Iteration      FINAL  ---------------------------------------

--------------------OUTCAR has been truncated-------------------------

[...]

--------------------OUTCAR has been truncated-------------------------

  FORCE on cell =-STRESS in cart. coord.  units (eV):
  Direction    XX          YY          ZZ          XY          YZ          ZX
  Alpha Z   276.47733   276.47733   276.47733
  Ewald   -1280.82071 -1280.82071 -1280.82071     0.00000     0.00000    -0.00000
  Hartree   409.33558   409.33558   409.33558    -0.00000    -0.00000    -0.00000
  E(xc)    -309.36460  -309.36460  -309.36460     0.00000     0.00000    -0.00000
  Local     208.20632   208.20632   208.20632     0.00000    -0.00000     0.00000
  n-local  -349.50549  -350.94047  -350.74074     0.17402     0.16062     0.09806
  augment   130.37168   130.37168   130.37168    -0.00000    -0.00000    -0.00000
  Kinetic   912.76725   921.43753   924.18033    -2.95684    -2.89431    -1.78004
  Fock        0.00000     0.00000     0.00000     0.00000     0.00000     0.00000
  vdW        -3.26375    -3.26375    -3.26375    -0.00000    -0.00000    -0.00000
  Total       0.00798     0.00798     0.00798    -0.00000    -0.00000     0.00000
  in kB       0.17012     0.17012     0.17012    -0.00000    -0.00000     0.00000

 VOLUME and BASIS-vectors are now :
  energy-cutoff  :      600.00
  volume of cell :       75.18
      direct lattice vectors                 reciprocal lattice vectors
     4.220492327 -0.000000000  0.000000000     0.236939182  0.000000000  0.000000000
     0.000000000  4.220492327 -0.000000000     0.000000000  0.236939182  0.000000000
    -0.000000000  0.000000000  4.220492327     0.000000000  0.000000000  0.236939182

  length of vectors
     4.220492327  4.220492327  4.220492327     0.236939182  0.236939182  0.236939182

 FORCES acting on ions:
    Electron-Ion                     Ewald-Force                    Non-Local-Force
   -.290E-13 -.289E-13 -.329E-13   -.293E-14 -.451E-14 -.182E-14   -.517E-25 0.465E-24 0.482E-24
   -.284E-13 0.406E-12 0.393E-12   -.286E-14 0.624E-14 0.472E-14   0.336E-24 0.000E+00 0.229E-24
   0.400E-12 -.346E-13 0.293E-11   -.863E-14 -.499E-14 0.465E-14   0.439E-24 0.000E+00 0.376E-24
   0.403E-12 0.974E-12 -.345E-12   -.856E-14 0.576E-14 -.414E-14   -.414E-24 -.620E-24 -.100E-24
   0.175E-12 -.281E-13 -.155E-11   0.426E-14 -.377E-14 -.184E-14   0.103E-24 0.000E+00 -.851E-25
   0.169E-12 0.130E-12 0.737E-12   0.420E-14 0.291E-14 0.234E-14   0.103E-24 0.000E+00 0.980E-25
   -.269E-13 -.217E-13 0.165E-12   0.686E-14 -.400E-14 0.235E-14   0.103E-24 0.000E+00 -.994E-25
   -.271E-13 0.179E-12 -.176E-13   0.680E-14 0.268E-14 -.496E-14   0.103E-24 0.000E+00 -.117E-24
   0.105E-11 0.160E-11 0.233E-11   -.874E-15 0.317E-15 0.130E-14   0.724E-24 -.155E-24 0.784E-24

 POSITION                                       TOTAL-FORCE (eV/Angst)
      0.00000      0.00000      0.00000        -0.000000      0.000000     -0.000000
      0.00000      2.11025      2.11025        -0.000000      0.000000      0.000000
      2.11025      0.00000      2.11025        -0.000000      0.000000     -0.000000
      2.11025      2.11025      0.00000         0.000000     -0.000000      0.000000
      2.11025      0.00000      0.00000        -0.000000      0.000000     -0.000000
      2.11025      2.11025      2.11025         0.000000     -0.000000      0.000000
      0.00000      0.00000      2.11025         0.000000     -0.000000     -0.000000
      0.00000      2.11025      0.00000        -0.000000      0.000000      0.000000
    total drift:                                0.000000      0.000000      0.000000

  FREE ENERGIE OF THE ION-ELECTRON SYSTEM (eV)
  free  energy   TOTEN  =       -47.68604272 eV

  energy  without entropy=      -47.68604272  energy(sigma->0) =      -47.68604272

 reached required accuracy - stopping structural energy minimisation