 vasp.6.3.0 20Jan22 (build Apr  1 2022 16:44:48) complex
 executed on        HPECrayEX_GCC date 2022.11.13  15:27:35

 INCAR:
   SYSTEM = MgO-rocksalt
   ISMEAR = 0
   SIGMA = 0.05
   EDIFF = 1E-6
   ALGO = ALL
   ISTART = 0
   IBRION = -1
   NSW = 0
   ISYM = 0
   DIPOL = 0.5 0.5 0.5
   IDIPOL = 3
   LDIPOL = .TRUE.
   LHFCALC = .TRUE.
   GGA = B5
   AEXX = 0.2
   AGGAX = 0.72
   AGGAC = 0.81
   ALDAC = 0.19
   IVDW = 1
   VDW_S6 = 1.05
   VDW_C6 = 1.23 0.70 0.63 0.70
   VDW_R0 = 1.397 1.342 1.243 1.342
   ENCUT = 600
   PREC = Accurate
   LASPH = .TRUE.
   LREAL = .FALSE.
   ISPIN = 2
   MAGMOM = 1.0 0.0 0.0 0.0 0.0 0.0 0.0 0.0 0.0 0.0 0.0 0.0 0.0 0.0 0.0 0.0 0.0 0.0 0.0 0.0 0.0 0.0 0.0 0.0 0.0 0.0 0.0 0.0 0.0 0.0 0.0 0.0 0.0 0.0 0.0 0.0 0.0 0.0 0.0 0.0 0.0 0.0 0.0 0.0 0.0 0.0 0.0 0.0 0.0 0.0 0.0 0.0 0.0 0.0 0.0 0.0 0.0 0.0 0.0 0.0 0.0 0.0 0.0 0.0 0.0 0.0
   NELM = 200
   NELMIN = 8
   NCORE = 8
   KPAR = 1
   LWAVE = .FALSE.
   LCHARG = .FALSE.

 POTCAR:    PAW_PBE N 08Apr2002
 POTCAR:    PAW_PBE O 08Apr2002
 POTCAR:    PAW_PBE Mg_pv 13Apr2007
 POTCAR:    PAW_PBE O 08Apr2002
 POTCAR:    PAW_PBE N 08Apr2002
   VRHFIN =N: s2p3

   TITEL  = PAW_PBE N 08Apr2002
   POMASS =   14.001; ZVAL   =    5.000    mass and valenz
   ENMAX  =  400.000; ENMIN  =  300.000 eV

[...]

   TITEL  = PAW_PBE Mg_pv 13Apr2007
   POMASS =   24.305; ZVAL   =    8.000    mass and valenz
   ENMAX  =  403.929; ENMIN  =  302.947 eV

   TITEL  = PAW_PBE O 08Apr2002
   POMASS =   16.000; ZVAL   =    6.000    mass and valenz
   ENMAX  =  400.000; ENMIN  =  300.000 eV

  PAW_PBE N 08Apr2002                   :
  PAW_PBE O 08Apr2002                   :
  PAW_PBE Mg_pv 13Apr2007               :
  PAW_PBE O 08Apr2002                   :

 POSCAR:  N  O Mg  O
  positions in direct lattice
 exchange correlation table for  LEXCH =       12
   RHO(1)=    0.500       N(1)  =     2000
   RHO(2)=  100.500       N(2)  =     4000

 ion  position               nearest neighbor table
   1  0.639  0.476  0.749-   2 1.18
   2  0.696  0.565  0.785-   1 1.18
   3  0.250  0.000  0.351-  35 2.12  37 2.12  38 2.12  45 2.12  54 2.12
   4  0.500  0.250  0.351-  36 2.12  37 2.12  38 2.12  46 2.12  53 2.12
   5  0.250  0.250  0.450-  37 2.12  36 2.12  35 2.12  43 2.12  52 2.12  41 2.12
   6  0.500  0.000  0.450-  38 2.12  36 2.12  35 2.12  44 2.12  51 2.12  42 2.12
   7  0.250  0.000  0.550-  42 2.12  41 2.12  49 2.12  58 2.12  35 2.13  39 2.15
   8  0.500  0.250  0.550-  50 2.12  40 2.12  57 2.12  41 2.12  42 2.12  36 2.14
   9  0.250  0.249  0.648-  41 2.11  40 2.11  39 2.11  56 2.12  47 2.12
  10  0.499  0.000  0.648-  40 2.11  42 2.11  48 2.11  39 2.12  55 2.12
  11  0.250  0.500  0.351-  43 2.12  37 2.12  45 2.12  46 2.12  62 2.12
  12  0.500  0.750  0.351-  44 2.12  38 2.12  45 2.12  46 2.12  61 2.12
  13  0.250  0.750  0.450-  45 2.12  43 2.12  44 2.12  35 2.12  60 2.12  49 2.12
  14  0.500  0.500  0.450-  46 2.12  43 2.12  44 2.12  36 2.12  59 2.12  50 2.13
  15  0.251  0.500  0.550-  50 2.12  41 2.12  49 2.12  66 2.13  43 2.13  47 2.15
  16  0.500  0.750  0.550-  50 2.11  49 2.12  42 2.12  65 2.12  48 2.13  44 2.13
  17  0.250  0.751  0.649-  49 2.11  39 2.11  48 2.12  64 2.12  47 2.12
  18  0.497  0.500  0.651-  47 2.10  40 2.12  48 2.13  50 2.15  63 2.16
  19  0.750  0.000  0.351-  51 2.12  38 2.12  53 2.12  54 2.12  61 2.12
  20  0.000  0.250  0.351-  52 2.12  37 2.12  53 2.12  54 2.12  62 2.12
  21  0.750  0.250  0.450-  53 2.12  51 2.12  52 2.12  36 2.12  59 2.12  57 2.13
  22  0.000  0.000  0.450-  54 2.12  51 2.12  52 2.12  35 2.12  60 2.12  58 2.12
  23  0.750  0.000  0.550-  42 2.12  58 2.12  57 2.12  65 2.12  51 2.13  55 2.15
  24  1.000  0.250  0.550-  57 2.11  41 2.11  66 2.12  58 2.12  52 2.13  56 2.15
  25  0.749  0.248  0.649-  55 2.10  40 2.11  57 2.12  56 2.12  63 2.14
  26  0.000  0.000  0.649-  58 2.11  39 2.11  56 2.12  64 2.12  55 2.12
  27  0.750  0.500  0.351-  59 2.12  53 2.12  46 2.12  61 2.12  62 2.12
  28  0.000  0.750  0.351-  60 2.12  54 2.12  45 2.12  61 2.12  62 2.12
  29  0.750  0.750  0.450-  61 2.12  51 2.12  59 2.12  60 2.12  44 2.12  65 2.12
  30  0.000  0.500  0.450-  62 2.12  52 2.12  59 2.12  60 2.12  43 2.12  66 2.13
  31  0.749  0.500  0.550-  50 2.11  57 2.11  65 2.11  59 2.12  66 2.12  63 2.17
  32  0.000  0.750  0.550-  49 2.11  65 2.12  58 2.12  66 2.12  60 2.13  64 2.15
  33  0.750  0.753  0.648-  55 2.09  65 2.10  48 2.11  64 2.12  63 2.14
  34  0.003  0.500  0.649-  47 2.09  66 2.11  56 2.12  64 2.12  63 2.12
  35  0.250  0.000  0.450-   3 2.12   5 2.12   6 2.12  13 2.12  22 2.12   7 2.13
  36  0.500  0.250  0.450-   4 2.12   5 2.12   6 2.12  14 2.12  21 2.12   8 2.14
  37  0.250  0.250  0.351-   5 2.12   4 2.12   3 2.12  11 2.12  20 2.12
  38  0.500  0.000  0.351-   6 2.12   4 2.12   3 2.12  12 2.12  19 2.12
  39  0.250  1.000  0.651-  26 2.11  17 2.11   9 2.11  10 2.12   7 2.15
  40  0.500  0.249  0.650-  10 2.11   9 2.11  25 2.11   8 2.12  18 2.12
  41  0.249  0.250  0.550-   9 2.11  24 2.11  15 2.12   7 2.12   5 2.12   8 2.12
  42  0.500  1.000  0.550-  10 2.11  23 2.12   7 2.12   6 2.12  16 2.12   8 2.12
  43  0.250  0.500  0.450-  11 2.12   5 2.12  13 2.12  14 2.12  30 2.12  15 2.13
  44  0.500  0.750  0.450-  12 2.12   6 2.12  13 2.12  14 2.12  29 2.12  16 2.13
  45  0.250  0.750  0.351-  13 2.12  11 2.12  12 2.12   3 2.12  28 2.12
  46  0.500  0.500  0.351-  14 2.12  11 2.12  12 2.12   4 2.12  27 2.12
  47  0.250  0.500  0.651-  34 2.09  18 2.10  17 2.12   9 2.12  15 2.15
  48  0.500  0.751  0.650-  10 2.11  33 2.11  17 2.12  18 2.13  16 2.13
  49  0.250  0.750  0.550-  17 2.11  32 2.11  15 2.12  16 2.12   7 2.12  13 2.12
  50  0.500  0.500  0.550-  31 2.11  16 2.11   8 2.12  15 2.12  14 2.13  18 2.15
  51  0.750  0.000  0.450-  19 2.12   6 2.12  21 2.12  22 2.12  29 2.12  23 2.13
  52  0.000  0.250  0.450-  20 2.12   5 2.12  21 2.12  22 2.12  30 2.12  24 2.13
  53  0.750  0.250  0.351-  21 2.12  19 2.12  20 2.12   4 2.12  27 2.12
  54  0.000  0.000  0.351-  22 2.12  19 2.12  20 2.12   3 2.12  28 2.12
  55  0.750  0.000  0.651-  33 2.09  25 2.10  26 2.12  10 2.12  23 2.15
  56  1.000  0.250  0.651-  34 2.12  26 2.12  25 2.12   9 2.12  24 2.15
  57  0.750  0.251  0.550-  31 2.11  24 2.11  25 2.12  23 2.12   8 2.12  21 2.13
  58  1.000  0.000  0.550-  26 2.11  23 2.12  32 2.12  24 2.12   7 2.12  22 2.12
  59  0.750  0.500  0.450-  27 2.12  21 2.12  14 2.12  29 2.12  30 2.12  31 2.12
  60  0.000  0.750  0.450-  28 2.12  22 2.12  13 2.12  29 2.12  30 2.12  32 2.13
  61  0.750  0.750  0.351-  29 2.12  19 2.12  27 2.12  28 2.12  12 2.12
  62  0.000  0.500  0.351-  30 2.12  20 2.12  27 2.12  28 2.12  11 2.12
  63  0.752  0.501  0.651-  34 2.12  33 2.14  25 2.14  18 2.16  31 2.17
  64  1.000  0.750  0.651-  33 2.12  34 2.12  26 2.12  17 2.12  32 2.15
  65  0.750  0.750  0.550-  33 2.10  31 2.11  32 2.12  16 2.12  23 2.12  29 2.12
  66  0.999  0.500  0.550-  34 2.11  32 2.12  24 2.12  31 2.12  30 2.13  15 2.13

IMPORTANT INFORMATION: All symmetrisations will be switched off!
NOSYMM: (Re-)initialisation of all symmetry stuff for point group C_1.

                                     Primitive cell

  volume of cell :    1530.6606

  direct lattice vectors                    reciprocal lattice vectors
     8.467142631  0.000000000  0.000000000     0.118103597  0.000000000  0.000000000
     0.000000000  8.467142631  0.000000000     0.000000000  0.118103597  0.000000000
     0.000000000  0.000000000 21.350356973     0.000000000  0.000000000  0.046837624

  length of vectors
     8.467142631  8.467142631 21.350356973     0.118103597  0.118103597  0.046837624

  position of ions in fractional coordinates (direct lattice)
     0.638783318  0.476312711  0.749003969
     0.696084108  0.564777778  0.785379425
     0.250000000  0.000000000  0.351282183
     0.500000000  0.250000000  0.351282183
     0.250000000  0.250000000  0.450427394
     0.500000000  0.000000000  0.450427394
     0.249994189  0.000038498  0.550059457
     0.499865849  0.250274561  0.550426333
     0.250200922  0.249318378  0.648444818
     0.499451013  0.000153556  0.648347845
     0.250000000  0.500000000  0.351282183
     0.500000000  0.750000000  0.351282183
     0.250000000  0.750000000  0.450427394
     0.500000000  0.500000000  0.450427394
     0.250591829  0.499964044  0.550233449
     0.499842153  0.749572464  0.550412346
     0.250217814  0.750664754  0.648550983
     0.497292694  0.499644168  0.650901730
     0.750000000  0.000000000  0.351282183
     0.000000000  0.250000000  0.351282183
     0.750000000  0.250000000  0.450427394
     0.000000000  0.000000000  0.450427394
     0.749830653  0.000389041  0.550051103
     0.999750651  0.250046750  0.550330319
     0.749326459  0.248144603  0.649194989
     0.000377422  0.000206028  0.648631861
     0.750000000  0.500000000  0.351282183
     0.000000000  0.750000000  0.351282183
     0.750000000  0.750000000  0.450427394
     0.000000000  0.500000000  0.450427394
     0.749102685  0.499782279  0.549595095
     0.000014203  0.750046886  0.550262855
     0.749899213  0.753072152  0.648345012
     0.002912781  0.500038454  0.648626054
     0.250000000  0.000000000  0.450427394
     0.500000000  0.250000000  0.450427394
     0.250000000  0.250000000  0.351282183
     0.500000000  0.000000000  0.351282183
     0.249589783  0.999893872  0.650590383
     0.499571575  0.248824605  0.649635837
     0.249457448  0.250113299  0.549734442
     0.499983270  0.999742144  0.549595394
     0.250000000  0.500000000  0.450427394
     0.500000000  0.750000000  0.450427394
     0.250000000  0.750000000  0.351282183
     0.500000000  0.500000000  0.351282183
     0.249643718  0.500040756  0.650765042
     0.500317876  0.750649009  0.650343184
     0.249709261  0.749868087  0.549803576
     0.500427758  0.500084999  0.550242721
     0.750000000  0.000000000  0.450427394
     0.000000000  0.250000000  0.450427394
     0.750000000  0.250000000  0.351282183
     0.000000000  0.000000000  0.351282183
     0.750115623  0.000226859  0.650583810
     0.999774688  0.250221488  0.650878515
     0.750120547  0.250595458  0.550011592
     0.999802353  0.000018231  0.549797969
     0.750000000  0.500000000  0.450427394
     0.000000000  0.750000000  0.450427394
     0.750000000  0.750000000  0.351282183
     0.000000000  0.500000000  0.351282183
     0.752377861  0.500740553  0.651167790
     0.999774542  0.750020413  0.650779856
     0.750111337  0.749520086  0.549937664
     0.999337224  0.500065337  0.550036179

  ion indices of the primitive-cell ions
   primitive index   ion index
                 1           1
                 2           2
                 3           3
                 4           4
                 5           5
                 6           6
                 7           7
                 8           8
                 9           9
                10          10
                11          11
                12          12
                13          13
                14          14
                15          15
                16          16
                17          17
                18          18
                19          19
                20          20
[...]
   0.75012055  0.25059546  0.55001159
   0.99980235  0.00001823  0.54979797
   0.75000000  0.50000000  0.45042739
   0.00000000  0.75000000  0.45042739
   0.75000000  0.75000000  0.35128218
   0.00000000  0.50000000  0.35128218
   0.75237786  0.50074055  0.65116779
   0.99977454  0.75002041  0.65077986
   0.75011134  0.74952009  0.54993766
   0.99933722  0.50006534  0.55003618

 position of ions in cartesian coordinates  (Angst):
   5.40866947  4.03300766 15.99150212
   5.89384343  4.78205400 16.76813108
   2.11678566  0.00000000  7.50000000
   4.23357132  2.11678566  7.50000000
   2.11678566  2.11678566  9.61678566
   4.23357132  0.00000000  9.61678566
   2.11673646  0.00032597 11.74396577
   4.23243544  2.11911041 11.75179869
   2.11848690  2.11101427 13.84452835
   4.22892297  0.00130018 13.84245793
   2.11678566  4.23357132  7.50000000
   4.23357132  6.35035697  7.50000000
   2.11678566  6.35035697  9.61678566
   4.23357132  4.23357132  9.61678566
   2.12179676  4.23326687 11.74768056
   4.23223480  6.34673696 11.75150007
   2.11862992  6.35598554 13.84679501
   4.21064817  4.23055843 13.89698428
   6.35035697  0.00000000  7.50000000
   0.00000000  2.11678566  7.50000000
   6.35035697  2.11678566  9.61678566
   0.00000000  0.00000000  9.61678566
   6.34892309  0.00329407 11.74378741
   8.46503136  2.11718150 11.74974876
   6.34465400  2.10107575 13.86054477
   0.00319568  0.00174447 13.84852177
   6.35035697  4.23357132  7.50000000
   0.00000000  6.35035697  7.50000000
   6.35035697  6.35035697  9.61678566
   0.00000000  4.23357132  9.61678566
   6.34275928  4.23172784 11.73405146
   0.00012026  6.35075396 11.74830838
   6.34950359  6.37636932 13.84239745
   0.02466294  4.23389691 13.84839780
   2.11678566  0.00000000  9.61678566
   4.23357132  2.11678566  9.61678566
   2.11678566  2.11678566  7.50000000
   4.23357132  0.00000000  7.50000000
   2.11331229  8.46624403 13.89033691
   4.22994378  2.10683342 13.86995701
   2.11219180  2.11774497 11.73702659
   4.23342966  8.46495933 11.73405785
   2.11678566  4.23357132  9.61678566
   4.23357132  6.35035697  9.61678566
   2.11678566  6.35035697  7.50000000
   4.23357132  4.23357132  7.50000000
   2.11376897  4.23391641 13.89406594
   4.23626282  6.35585222 13.88505913
   2.11432393  6.34924004 11.73850261
   4.23719320  4.23429102 11.74787851
   6.35035697  0.00000000  9.61678566
   0.00000000  2.11678566  9.61678566
   6.35035697  2.11678566  7.50000000
   0.00000000  0.00000000  7.50000000
   6.35133597  0.00192085 13.89019658
   8.46523488  2.11866103 13.89648864
   6.35137766  2.12182749 11.74294382
   8.46546913  0.00015436 11.73838291
   6.35035697  4.23357132  9.61678566
   0.00000000  6.35035697  9.61678566
   6.35035697  6.35035697  7.50000000
   0.00000000  4.23357132  7.50000000
   6.37049066  4.23984168 13.90266477
   8.46523364  6.35052981 13.89438224
   6.35129968  6.34629347 11.74136543
   8.46153082  4.23412453 11.74346876

--------------------------------------- Iteration      FINAL  ---------------------------------------

--------------------OUTCAR has been truncated-------------------------

[...]

--------------------OUTCAR has been truncated-------------------------

  DFT-D2 method for vdW energy calculation

  Parameters of vdW forcefield:
         C6(Jnm^6/mol)     R0(A)
   N        1.230          1.397
   O        0.700          1.342
   Mg       0.630          1.243
   O        0.700          1.342

  vdW correction parametrized for the method        ì¼¸

  IVDW =   1
  VDW_RADIUS =    50.000 A
  VDW_S6 =     1.050
  VDW_SR =     1.000
  VDW_D =    20.000
  LVDW_EWALD = F

  Number of pair interactions contributing to vdW energy:  763892
  Edisp (eV):   -5.13550

 VOLUME and BASIS-vectors are now :
  energy-cutoff  :      600.00
  volume of cell :     1530.66
      direct lattice vectors                 reciprocal lattice vectors
     8.467142631  0.000000000  0.000000000     0.118103597  0.000000000  0.000000000
     0.000000000  8.467142631  0.000000000     0.000000000  0.118103597  0.000000000
     0.000000000  0.000000000 21.350356973     0.000000000  0.000000000  0.046837624

  length of vectors
     8.467142631  8.467142631 21.350356973     0.118103597  0.118103597  0.046837624

 FORCES acting on ions:
    Electron-Ion                     Ewald-Force                    Non-Local-Force
   0.103E+03 0.167E+03 -.124E+04   -.122E+03 -.194E+03 0.121E+04   0.174E+02 0.262E+02 0.229E+02
   -.102E+03 -.157E+03 -.162E+04   0.126E+03 0.193E+03 0.166E+04   -.216E+02 -.332E+02 -.350E+02
   0.148E+00 -.206E-01 0.207E+04   -.147E+00 0.209E-01 -.206E+04   -.595E-03 -.168E-03 -.638E+01
   0.267E+00 0.214E+00 0.207E+04   -.273E+00 -.217E+00 -.206E+04   0.389E-02 0.229E-02 -.639E+01
   0.576E+00 0.529E+00 0.719E+03   -.597E+00 -.532E+00 -.719E+03   0.138E-01 0.258E-02 0.378E+00
   0.794E+00 -.133E+00 0.720E+03   -.814E+00 0.115E+00 -.720E+03   0.131E-01 0.115E-01 0.308E+00
   0.285E+01 -.940E-01 -.629E+03   -.284E+01 0.990E-01 0.630E+03   -.201E-01 -.731E-02 -.169E+00
   0.476E+01 0.560E+01 -.618E+03   -.471E+01 -.549E+01 0.619E+03   -.357E-01 -.935E-01 -.809E+00
   0.144E+02 0.145E+02 -.198E+04   -.143E+02 -.148E+02 0.197E+04   -.133E+00 0.226E+00 0.548E+01
   0.125E+02 -.786E+00 -.198E+04   -.127E+02 0.923E+00 0.197E+04   0.128E+00 -.130E+00 0.547E+01
   0.168E+00 0.209E-01 0.207E+04   -.165E+00 -.212E-01 -.206E+04   -.198E-02 0.181E-03 -.638E+01
   0.271E+00 -.215E+00 0.207E+04   -.278E+00 0.218E+00 -.206E+04   0.410E-02 -.195E-02 -.639E+01
   0.589E+00 -.538E+00 0.719E+03   -.580E+00 0.541E+00 -.719E+03   -.533E-02 -.236E-02 0.411E+00
   0.195E+01 0.123E+00 0.720E+03   -.201E+01 -.116E+00 -.721E+03   0.314E-01 -.543E-02 0.516E+00
   0.468E+01 0.143E+00 -.623E+03   -.451E+01 -.149E+00 0.623E+03   -.167E+00 0.534E-02 -.207E+00
   0.533E+01 -.560E+01 -.620E+03   -.532E+01 0.550E+01 0.620E+03   -.665E-02 0.930E-01 -.511E+00
   0.128E+02 -.145E+02 -.198E+04   -.128E+02 0.148E+02 0.197E+04   -.927E-02 -.239E+00 0.546E+01
   0.530E+02 0.245E+00 -.190E+04   -.541E+02 -.190E+00 0.189E+04   0.107E+01 -.451E-01 0.455E+01
   -.148E+00 -.235E-01 0.207E+04   0.147E+00 0.247E-01 -.206E+04   0.839E-03 -.824E-03 -.637E+01
   -.267E+00 0.194E+00 0.207E+04   0.273E+00 -.199E+00 -.206E+04   -.322E-02 0.332E-02 -.639E+01
   -.641E+00 0.165E+01 0.720E+03   0.642E+00 -.168E+01 -.721E+03   -.241E-02 0.183E-01 0.479E+00
   -.817E+00 -.114E+00 0.718E+03   0.830E+00 0.127E+00 -.719E+03   -.844E-02 -.822E-02 0.408E+00
   -.291E+01 -.419E+00 -.622E+03   0.289E+01 0.503E+00 0.622E+03   0.142E-01 -.789E-01 -.168E+00
   -.433E+01 0.421E+01 -.628E+03   0.430E+01 -.416E+01 0.629E+03   0.226E-01 -.334E-01 -.255E+00
   -.206E+02 0.390E+02 -.194E+04   0.206E+02 -.400E+02 0.194E+04   -.296E-02 0.916E+00 0.563E+01
   -.113E+02 -.230E+01 -.199E+04   0.114E+02 0.230E+01 0.198E+04   -.164E+00 -.615E-02 0.541E+01
   -.171E+00 0.248E-01 0.207E+04   0.167E+00 -.256E-01 -.206E+04   0.236E-02 0.530E-03 -.635E+01
   -.271E+00 -.194E+00 0.207E+04   0.277E+00 0.199E+00 -.206E+04   -.387E-02 -.344E-02 -.638E+01
   -.637E+00 -.166E+01 0.720E+03   0.623E+00 0.170E+01 -.721E+03   0.860E-02 -.235E-01 0.467E+00
   -.192E+01 0.123E+00 0.719E+03   0.196E+01 -.132E+00 -.719E+03   -.255E-01 0.584E-02 0.476E+00
   -.505E+01 0.409E+00 -.608E+03   0.490E+01 -.472E+00 0.608E+03   0.155E+00 0.641E-01 0.577E+00
   -.491E+01 -.419E+01 -.626E+03   0.490E+01 0.413E+01 0.626E+03   -.682E-02 0.322E-01 -.267E+00
   -.184E+02 -.383E+02 -.193E+04   0.184E+02 0.393E+02 0.192E+04   -.323E-01 -.914E+00 0.565E+01
   -.280E+02 0.279E+01 -.196E+04   0.287E+02 -.279E+01 0.195E+04   -.650E+00 0.656E-02 0.549E+01
   0.526E+00 -.252E-01 0.538E+03   -.507E+00 0.293E-01 -.538E+03   -.232E-01 -.540E-02 -.889E-01
   0.804E+00 0.697E+00 0.539E+03   -.818E+00 -.736E+00 -.539E+03   0.179E-01 0.488E-01 -.156E+00
   0.115E+00 0.110E+00 0.156E+04   -.114E+00 -.113E+00 -.156E+04   -.100E-02 0.385E-02 0.313E+01
   0.159E+00 -.175E-01 0.156E+04   -.164E+00 0.170E-01 -.156E+04   0.561E-02 0.643E-03 0.312E+01
   0.513E+01 -.855E+00 -.151E+04   -.509E+01 0.861E+00 0.152E+04   -.247E-01 -.130E-02 -.467E+01
   0.193E+02 0.282E+02 -.147E+04   -.192E+02 -.279E+02 0.148E+04   -.837E-01 -.231E+00 -.469E+01
   0.267E+01 0.275E+01 -.463E+03   -.263E+01 -.276E+01 0.462E+03   -.218E-01 0.103E-01 0.365E+00
   0.271E+01 -.132E+00 -.460E+03   -.272E+01 0.149E+00 0.460E+03   0.462E-02 -.132E-01 0.329E+00
   0.708E+00 0.304E-01 0.539E+03   -.726E+00 -.345E-01 -.538E+03   0.196E-01 0.535E-02 -.844E-01
   0.834E+00 -.709E+00 0.539E+03   -.845E+00 0.761E+00 -.539E+03   0.144E-01 -.632E-01 -.168E+00
   0.114E+00 -.110E+00 0.156E+04   -.111E+00 0.113E+00 -.156E+04   -.352E-02 -.384E-02 0.313E+01
   0.257E+00 0.185E-01 0.156E+04   -.264E+00 -.176E-01 -.156E+04   0.939E-02 -.119E-02 0.314E+01
   0.154E+02 0.813E+00 -.150E+04   -.153E+02 -.813E+00 0.150E+04   -.357E-01 -.224E-02 -.454E+01
   0.218E+02 -.282E+02 -.148E+04   -.218E+02 0.280E+02 0.148E+04   -.373E-01 0.192E+00 -.465E+01
   0.234E+01 -.281E+01 -.464E+03   -.232E+01 0.283E+01 0.463E+03   -.541E-02 -.161E-01 0.360E+00
   0.509E+01 0.197E+00 -.461E+03   -.512E+01 -.224E+00 0.461E+03   0.218E-02 0.224E-01 -.226E+00
   -.540E+00 -.104E-01 0.539E+03   0.531E+00 -.485E-02 -.539E+03   0.130E-01 0.169E-01 -.536E-01
   -.813E+00 0.562E+00 0.538E+03   0.850E+00 -.578E+00 -.538E+03   -.453E-01 0.212E-01 -.151E+00
   -.115E+00 0.206E+00 0.156E+04   0.115E+00 -.212E+00 -.156E+04   0.113E-03 0.795E-02 0.314E+01
   -.159E+00 -.187E-01 0.156E+04   0.164E+00 0.202E-01 -.156E+04   -.588E-02 -.187E-02 0.313E+01
   -.613E+01 -.344E+01 -.150E+04   0.610E+01 0.352E+01 0.151E+04   0.249E-01 -.714E-01 -.464E+01
   -.145E+02 0.139E+02 -.150E+04   0.144E+02 -.139E+02 0.151E+04   0.927E-01 -.717E-01 -.465E+01
   -.291E+01 0.494E+01 -.460E+03   0.286E+01 -.494E+01 0.460E+03   0.419E-01 -.154E-01 0.160E+00
   -.268E+01 -.436E+00 -.466E+03   0.270E+01 0.431E+00 0.466E+03   -.121E-01 0.636E-02 0.323E+00
   -.777E+00 0.336E-01 0.542E+03   0.810E+00 -.286E-01 -.542E+03   -.360E-01 -.479E-02 0.377E-01
   -.823E+00 -.555E+00 0.538E+03   0.841E+00 0.567E+00 -.538E+03   -.227E-01 -.156E-01 -.124E+00
   -.115E+00 -.207E+00 0.156E+04   0.112E+00 0.213E+00 -.156E+04   0.329E-02 -.753E-02 0.314E+01
   -.255E+00 0.187E-01 0.156E+04   0.263E+00 -.204E-01 -.156E+04   -.983E-02 0.202E-02 0.314E+01
   -.344E+02 0.257E+01 -.140E+04   0.346E+02 -.240E+01 0.141E+04   -.139E+00 -.150E+00 -.352E+01
   -.174E+02 -.143E+02 -.150E+04   0.174E+02 0.142E+02 0.150E+04   0.759E-01 0.109E+00 -.471E+01
   -.261E+01 -.485E+01 -.456E+03   0.259E+01 0.484E+01 0.456E+03   0.153E-01 0.324E-01 0.389E+00
   -.452E+01 0.433E+00 -.461E+03   0.447E+01 -.425E+00 0.461E+03   0.718E-01 -.953E-02 0.336E+00
   0.547E+01 0.954E+01 0.329E+02   -.323E-12 0.199E-12 -.466E-11   -.410E+01 -.738E+01 -.281E+02

 POSITION                                       TOTAL-FORCE (eV/Angst)
      5.40867      4.03301     15.99150         0.550808      0.912900      1.127996
      5.89384      4.78205     16.76813        -0.572907     -0.911288     -0.950872
      2.11679      0.00000      7.50000         0.000371      0.000120      0.509635
      4.23357      2.11679      7.50000        -0.001605     -0.001131      0.509568
      2.11679      2.11679      9.61679        -0.005336     -0.000756      0.037893
      4.23357      0.00000      9.61679        -0.005579     -0.004752      0.042495
      2.11674      0.00033     11.74397        -0.003185     -0.002639     -0.025488
      4.23244      2.11911     11.75180         0.008655      0.007006     -0.021855
      2.11849      2.11101     13.84453        -0.012982     -0.009565     -0.086397
      4.22892      0.00130     13.84246        -0.003434     -0.004399     -0.084170
      2.11679      4.23357      7.50000         0.000707     -0.000068      0.507565
      4.23357      6.35036      7.50000        -0.001645      0.001013      0.510867
      2.11679      6.35036      9.61679         0.002687      0.000849      0.034806
      4.23357      4.23357      9.61679        -0.017086      0.001106      0.035385
      2.12180      4.23327     11.74768        -0.006742      0.000558     -0.026253
      4.23223      6.34674     11.75150         0.010801     -0.006739     -0.021575
      2.11863      6.35599     13.84680        -0.014204      0.007838     -0.080840
      4.21065      4.23056     13.89698        -0.001206      0.009021     -0.182508
      6.35036      0.00000      7.50000        -0.000360      0.000261      0.506559
      0.00000      2.11679      7.50000         0.001503     -0.001366      0.510198
      6.35036      2.11679      9.61679        -0.000833     -0.010128      0.028816
      0.00000      0.00000      9.61679         0.003520      0.003502      0.032836
      6.34892      0.00329     11.74379         0.000318     -0.002398     -0.024738
      8.46503      2.11718     11.74975        -0.008025      0.015430     -0.022335
      6.34465      2.10108     13.86054         0.029133      0.017097     -0.140951
      0.00320      0.00174     13.84852        -0.000164     -0.005330     -0.079820
      6.35036      4.23357      7.50000        -0.000755     -0.000163      0.500636
      0.00000      6.35036      7.50000         0.001698      0.001429      0.508206
      6.35036      6.35036      9.61679        -0.004082      0.013089      0.032510
      0.00000      4.23357      9.61679         0.013080     -0.002181      0.043447
      6.34276      4.23173     11.73405         0.021685      0.006260      0.037432
      0.00012      6.35075     11.74831        -0.010774     -0.016703     -0.017960
      6.34950      6.37637     13.84240         0.025585     -0.035849     -0.098643
      0.02466      4.23390     13.84840        -0.054828      0.008233     -0.096626
      2.11679      0.00000      9.61679        -0.008187     -0.002097      0.042719
      4.23357      2.11679      9.61679         0.006539      0.016054      0.057651
      2.11679      2.11679      7.50000        -0.000277      0.001245     -0.394785
      4.23357      0.00000      7.50000         0.001866      0.000223     -0.394961
      2.11331      8.46624     13.89034         0.012772      0.004483     -0.126978
      4.22994      2.10683     13.86996        -0.004242      0.002801     -0.092687
      2.11219      2.11774     11.73703         0.008023      0.000181      0.027423
      4.23343      8.46496     11.73406         0.000429      0.002416      0.027032
      2.11679      4.23357      9.61679         0.003794      0.002029      0.064046
      4.23357      6.35036      9.61679         0.005581     -0.020474      0.051104
      2.11679      6.35036      7.50000        -0.001111     -0.001233     -0.394459
      4.23357      4.23357      7.50000         0.003132     -0.000409     -0.391902
      2.11377      4.23392     13.89407         0.021397     -0.002740     -0.108317
      4.23626      6.35585     13.88506        -0.012197     -0.005378     -0.103065
      2.11432      6.34924     11.73850         0.007775     -0.000329      0.027799
      4.23719      4.23429     11.74788        -0.024753     -0.001608      0.001929
      6.35036      0.00000      9.61679         0.005104      0.003974      0.055602
      0.00000      2.11679      9.61679        -0.014776      0.007723      0.048311
      6.35036      2.11679      7.50000         0.000044      0.002630     -0.391027
      0.00000      0.00000      7.50000        -0.001887     -0.000599     -0.394026
      6.35134      0.00192     13.89020        -0.003567      0.005828     -0.122715
      8.46523      2.11866     13.89649         0.013681     -0.016501     -0.121517
      6.35138      2.12183     11.74294        -0.002374     -0.025284      0.006873
      8.46547      0.00015     11.73838         0.000067      0.002084      0.027104
      6.35036      4.23357      9.61679        -0.008107     -0.000469      0.038644
      0.00000      6.35036      9.61679        -0.007967     -0.006018      0.051272
      6.35036      6.35036      7.50000         0.001112     -0.002462     -0.390338
      0.00000      4.23357      7.50000        -0.003214      0.000681     -0.390434
      6.37049      4.23984     13.90266         0.002470     -0.005466     -0.147275
      8.46523      6.35053     13.89438         0.021058      0.021009     -0.129097
      6.35130      6.34629     11.74137        -0.002887      0.029654      0.007965
      8.46153      4.23412     11.74347         0.035881     -0.002205      0.002291
    total drift:                               -0.002920     -0.000607      0.009226

  FREE ENERGIE OF THE ION-ELECTRON SYSTEM (eV)
  free  energy   TOTEN  =      -454.25297089 eV

  energy  without entropy=     -454.25297089  energy(sigma->0) =     -454.25297089