 vasp.6.3.0 20Jan22 (build Apr  1 2022 16:44:48) complex
 executed on        HPECrayEX_GCC date 2022.11.03  22:27:55

 INCAR:
   SYSTEM = MgO-rocksalt
   ISMEAR = 0
   SIGMA = 0.05
   EDIFF = 1E-9
   ALGO = ALL
   ISTART = 0
   IBRION = 2
   NSW = 1000
   ISYM = 0
   ISIF = 2
   EDIFFG = -0.03
   DIPOL = 0.5 0.5 0.5
   IDIPOL = 3
   LDIPOL = .TRUE.
   GGA = RE
   AGGAC = 0.0
   LUSE_VDW = .TRUE.
   LASPH = .TRUE.
   ENCUT = 600
   PREC = Accurate
   LASPH = .TRUE.
   LREAL = .FALSE.
   ISPIN = 2
   MAGMOM = 1.0 0.0 0.0 0.0 0.0 0.0 0.0 0.0 0.0 0.0 0.0 0.0 0.0 0.0 0.0 0.0 0.0 0.0 0.0 0.0 0.0 0.0 0.0 0.0 0.0 0.0 0.0 0.0 0.0 0.0 0.0 0.0 0.0 0.0 0.0 0.0 0.0 0.0 0.0 0.0 0.0 0.0 0.0 0.0 0.0 0.0 0.0 0.0 0.0 0.0 0.0 0.0 0.0 0.0 0.0 0.0 0.0 0.0 0.0 0.0 0.0 0.0 0.0 0.0 0.0 0.0
   NELM = 200
   NELMIN = 8
   NCORE = 8
   KPAR = 1
   LWAVE = .FALSE.
   LCHARG = .FALSE.

 POTCAR:    PAW_PBE N 08Apr2002
 POTCAR:    PAW_PBE O 08Apr2002
 POTCAR:    PAW_PBE Mg_pv 13Apr2007
 POTCAR:    PAW_PBE O 08Apr2002
|               ----> ADVICE to this user running VASP <----                  |
|     You have switched on vdW-DFT.                                           |
|     This routine was written and supplied by Jiri Klimes. We recommend      |
|     that you carefully read and cite the following publications:            |
|       J. Klimes, D.R. Bowler, A. Michelides                                 |
|          J. Phys.: Cond Matt. 22 022201 (2010)                              |
|       J. Klimes, D.R. Bowler, A. Michelides                                 |
|          Phys. Rev. B. 83, 195131 (2011)                                    |
|     and references therein.                                                 |

   TITEL  = PAW_PBE N 08Apr2002
   POMASS =   14.001; ZVAL   =    5.000    mass and valenz
   ENMAX  =  400.000; ENMIN  =  300.000 eV

[...]

   TITEL  = PAW_PBE Mg_pv 13Apr2007
   POMASS =   24.305; ZVAL   =    8.000    mass and valenz
   ENMAX  =  403.929; ENMIN  =  302.947 eV

   TITEL  = PAW_PBE O 08Apr2002
   POMASS =   16.000; ZVAL   =    6.000    mass and valenz
   ENMAX  =  400.000; ENMIN  =  300.000 eV

  PAW_PBE N 08Apr2002                   :
  PAW_PBE O 08Apr2002                   :
  PAW_PBE Mg_pv 13Apr2007               :
  PAW_PBE O 08Apr2002                   :

 POSCAR:  N  O Mg  O
  positions in direct lattice
  velocities in cartesian coordinates
 exchange correlation table for  LEXCH =       40
   RHO(1)=    0.500       N(1)  =     2000
   RHO(2)=  100.500       N(2)  =     4000

 ion  position               nearest neighbor table
   1  0.496  0.750  0.770-   2 1.19
   2  0.627  0.750  0.788-   1 1.19
   3  0.000  0.750  0.350-  35 2.14  37 2.14  38 2.14  45 2.14  54 2.14
   4  0.250  0.000  0.350-  36 2.14  37 2.14  38 2.14  46 2.14  53 2.14
   5  0.000  0.000  0.450-  37 2.14  36 2.14  35 2.14  43 2.14  52 2.14  41 2.14
   6  0.250  0.750  0.450-  42 2.14  38 2.14  35 2.14  36 2.14  44 2.14  51 2.14
   7  0.000  0.750  0.550-  49 2.14  41 2.14  42 2.14  35 2.14  58 2.14  39 2.15
   8  0.250  0.000  0.550-  50 2.14  57 2.14  42 2.14  41 2.14  36 2.14  40 2.15
   9  0.000  0.000  0.649-  41 2.13  47 2.14  39 2.14  40 2.14  56 2.14
  10  0.249  0.750  0.649-  39 2.13  42 2.13  40 2.14  48 2.14  55 2.15
  11  0.000  0.250  0.350-  43 2.14  37 2.14  45 2.14  46 2.14  62 2.14
  12  0.250  0.500  0.350-  44 2.14  38 2.14  45 2.14  46 2.14  61 2.14
  13  0.000  0.500  0.450-  45 2.14  43 2.14  44 2.14  35 2.14  60 2.14  49 2.14
  14  0.250  0.250  0.450-  46 2.14  43 2.14  44 2.14  36 2.14  59 2.14  50 2.14
  15  0.000  0.250  0.550-  49 2.14  41 2.14  66 2.14  50 2.14  43 2.15  47 2.16
  16  0.250  0.500  0.550-  50 2.14  65 2.14  42 2.14  49 2.14  44 2.14  48 2.15
  17  0.000  0.500  0.649-  49 2.13  47 2.14  39 2.14  48 2.14  64 2.14
  18  0.250  0.250  0.649-  50 2.13  47 2.14  40 2.14  48 2.14  63 2.14
  19  0.500  0.750  0.350-  51 2.14  38 2.14  53 2.14  54 2.14  61 2.14
  20  0.750  0.000  0.350-  52 2.14  37 2.14  53 2.14  54 2.14  62 2.14
  21  0.500  0.000  0.450-  57 2.14  53 2.14  52 2.14  36 2.14  51 2.14  59 2.14
  22  0.750  0.750  0.450-  58 2.13  54 2.14  52 2.14  35 2.14  51 2.14  60 2.14
  23  0.500  0.750  0.549-  51 2.13  42 2.13  65 2.13  57 2.13  58 2.13  55 2.18
  24  0.750  0.000  0.550-  66 2.14  57 2.14  41 2.14  58 2.14  52 2.14  56 2.15
  25  0.500  0.001  0.649-  63 2.13  57 2.13  40 2.13  56 2.14  55 2.15
  26  0.752  0.750  0.649-  39 2.12  58 2.12  56 2.13  64 2.13  55 2.15
  27  0.500  0.250  0.350-  59 2.14  53 2.14  46 2.14  61 2.14  62 2.14
  28  0.750  0.500  0.350-  60 2.14  54 2.14  45 2.14  61 2.14  62 2.14
  29  0.500  0.500  0.450-  65 2.14  61 2.14  59 2.14  60 2.14  44 2.14  51 2.14
  30  0.750  0.250  0.450-  66 2.14  62 2.14  59 2.14  60 2.14  43 2.14  52 2.14
  31  0.500  0.250  0.550-  50 2.13  66 2.14  65 2.14  57 2.14  59 2.14  63 2.16
  32  0.750  0.500  0.550-  66 2.14  65 2.14  49 2.14  58 2.14  60 2.14  64 2.15
  33  0.500  0.499  0.649-  63 2.13  65 2.13  48 2.13  64 2.14  55 2.15
  34  0.750  0.250  0.649-  66 2.13  47 2.13  63 2.14  56 2.14  64 2.14
  35  0.000  0.750  0.450-   3 2.14   5 2.14   6 2.14  13 2.14  22 2.14   7 2.14
  36  0.250  0.000  0.450-   4 2.14   5 2.14   6 2.14  14 2.14  21 2.14   8 2.14
  37  0.000  0.000  0.350-   5 2.14   4 2.14   3 2.14  11 2.14  20 2.14
  38  0.250  0.750  0.350-   6 2.14   4 2.14   3 2.14  12 2.14  19 2.14
  39  0.000  0.750  0.651-  26 2.12  10 2.13   9 2.14  17 2.14   7 2.15
  40  0.250  1.000  0.651-  25 2.13  10 2.14  18 2.14   9 2.14   8 2.15
  41  0.000  1.000  0.550-   9 2.13   7 2.14  24 2.14   5 2.14   8 2.14  15 2.14
  42  0.250  0.750  0.550-  23 2.13  10 2.13   6 2.14  16 2.14   8 2.14   7 2.14
  43  0.000  0.250  0.450-  11 2.14   5 2.14  13 2.14  14 2.14  30 2.14  15 2.15
  44  0.250  0.500  0.450-  12 2.14   6 2.14  13 2.14  14 2.14  29 2.14  16 2.14
  45  0.000  0.500  0.350-  13 2.14  11 2.14  12 2.14   3 2.14  28 2.14
  46  0.250  0.250  0.350-  14 2.14  11 2.14  12 2.14   4 2.14  27 2.14
  47  1.000  0.250  0.651-  34 2.13   9 2.14  17 2.14  18 2.14  15 2.16
  48  0.250  0.500  0.651-  33 2.13  10 2.14  18 2.14  17 2.14  16 2.15
  49  0.000  0.500  0.550-  17 2.13   7 2.14  32 2.14  13 2.14  16 2.14  15 2.14
  50  0.250  0.250  0.550-  18 2.13  31 2.13  16 2.14   8 2.14  14 2.14  15 2.14
  51  0.500  0.750  0.450-  23 2.13  19 2.14  21 2.14  22 2.14   6 2.14  29 2.14
  52  0.750  0.000  0.450-  20 2.14   5 2.14  21 2.14  22 2.14  30 2.14  24 2.14
  53  0.500  0.000  0.350-  21 2.14  19 2.14  20 2.14   4 2.14  27 2.14
  54  0.750  0.750  0.350-  22 2.14  19 2.14  20 2.14   3 2.14  28 2.14
  55  0.501  0.750  0.651-  25 2.15  33 2.15  10 2.15  26 2.15  23 2.18
  56  0.750  1.000  0.651-  26 2.13  25 2.14   9 2.14  34 2.14  24 2.15
  57  0.500  1.000  0.550-  25 2.13  23 2.13  21 2.14   8 2.14  24 2.14  31 2.14
  58  0.750  0.750  0.550-  26 2.12  22 2.13  23 2.13  32 2.14  24 2.14   7 2.14
  59  0.500  0.250  0.450-  27 2.14  21 2.14  14 2.14  29 2.14  30 2.14  31 2.14
  60  0.750  0.500  0.450-  28 2.14  22 2.14  13 2.14  29 2.14  30 2.14  32 2.14
  61  0.500  0.500  0.350-  29 2.14  19 2.14  27 2.14  28 2.14  12 2.14
  62  0.750  0.250  0.350-  30 2.14  20 2.14  27 2.14  28 2.14  11 2.14
  63  0.500  0.250  0.651-  25 2.13  33 2.13  34 2.14  18 2.14  31 2.16
  64  0.750  0.500  0.651-  26 2.13  33 2.14  17 2.14  34 2.14  32 2.15
  65  0.500  0.500  0.550-  33 2.13  23 2.13  29 2.14  16 2.14  32 2.14  31 2.14
  66  0.750  0.250  0.550-  34 2.13  31 2.14  32 2.14  24 2.14  30 2.14  15 2.14

IMPORTANT INFORMATION: All symmetrisations will be switched off!
NOSYMM: (Re-)initialisation of all symmetry stuff for point group C_1.

                                     Primitive cell

  volume of cell :    1563.6717

  direct lattice vectors                    reciprocal lattice vectors
     8.546113626  0.000000000  0.000000000     0.117012252  0.000000000  0.000000000
     0.000000000  8.546113626  0.000000000     0.000000000  0.117012252  0.000000000
     0.000000000  0.000000000 21.409585219     0.000000000  0.000000000  0.046708051

  length of vectors
     8.546113626  8.546113626 21.409585219     0.117012252  0.117012252  0.046708051

  position of ions in fractional coordinates (direct lattice)
     0.496072961  0.749999800  0.769848700
     0.627361546  0.749999994  0.787982073
     0.000000000  0.750000000  0.350310383
     0.250000000  0.000000000  0.350310383
     0.000000000  0.000000000  0.450103461
     0.250000000  0.750000000  0.450103461
     0.000243767  0.749999976  0.550061042
     0.250050983  0.000029671  0.550237429
     0.000013196  0.000136651  0.649317477
     0.249036588  0.750000037  0.649461738
     0.000000000  0.250000000  0.350310383
     0.250000000  0.500000000  0.350310383
     0.000000000  0.500000000  0.450103461
     0.250000000  0.250000000  0.450103461
     0.000055352  0.250000025  0.550365478
     0.250050988  0.499970335  0.550237489
     0.000013192  0.499863358  0.649317537
     0.249905484  0.249999970  0.649333781
     0.500000000  0.750000000  0.350310383
     0.750000000  0.000000000  0.350310383
     0.500000000  0.000000000  0.450103461
     0.750000000  0.750000000  0.450103461
     0.499868882  0.749999972  0.549441079
     0.750007112  0.000102456  0.550187663
     0.499875107  0.001275116  0.649330398
     0.752350675  0.750000036  0.648813574
     0.500000000  0.250000000  0.350310383
     0.750000000  0.500000000  0.350310383
     0.500000000  0.500000000  0.450103461
     0.750000000  0.250000000  0.450103461
     0.500036581  0.250000035  0.550153915
     0.750007107  0.499897548  0.550187722
     0.499875105  0.498724893  0.649330498
     0.750212259  0.249999971  0.649300930
     0.000000000  0.750000000  0.450103461
     0.250000000  0.000000000  0.450103461
     0.000000000  0.000000000  0.350310383
     0.250000000  0.750000000  0.350310383
     0.000162259  0.750000019  0.650691453
     0.250167993  0.999886279  0.650774924
     0.000009894  0.999899553  0.549902915
     0.250481472  0.749999987  0.549895095
     0.000000000  0.250000000  0.450103461
     0.250000000  0.500000000  0.450103461
     0.000000000  0.500000000  0.350310383
     0.250000000  0.250000000  0.350310383
     0.999948724  0.249999986  0.651085000
     0.250168003  0.500113727  0.650774993
     0.000009892  0.500100452  0.549902958
     0.250228019  0.250000015  0.549910524
     0.500000000  0.750000000  0.450103461
     0.750000000  0.000000000  0.450103461
     0.500000000  0.000000000  0.350310383
     0.750000000  0.750000000  0.350310383
     0.500671193  0.750000022  0.651081701
     0.749818726  0.999696179  0.650772453
     0.500021415  0.999595204  0.549855585
     0.749641496  0.749999989  0.549757226
     0.500000000  0.250000000  0.450103461
     0.750000000  0.500000000  0.450103461
     0.500000000  0.500000000  0.350310383
     0.750000000  0.250000000  0.350310383
     0.500151526  0.249999993  0.650883858
     0.749818709  0.500303825  0.650772518
     0.500021413  0.500404801  0.549855614
     0.749892409  0.250000015  0.549887504

  ion indices of the primitive-cell ions
   primitive index   ion index
[...]
   0.00011277  0.00116783 13.90161786
   2.12829497  6.40958553 13.90470643
   0.00000000  2.13652841  7.50000000
   2.13652841  4.27305681  7.50000000
   0.00000000  4.27305681  9.63652841
   2.13652841  2.13652841  9.63652841
   0.00047305  2.13652862 11.78309660
   2.13696416  4.27280329 11.78035641
   0.00011274  4.27188906 13.90161914
   2.13572067  2.13652815 13.90196692
   4.27305681  6.40958522  7.50000000
   6.40958522  0.00000000  7.50000000
   4.27305681  0.00000000  9.63652841
   6.40958522  6.40958522  9.63652841
   4.27193626  6.40958498 11.76330560
   6.40964600  0.00087560 11.77928966
   4.27198946  0.01089729 13.90189449
   6.42967436  6.40958552 13.89082951
   4.27305681  2.13652841  7.50000000
   6.40958522  4.27305681  7.50000000
   4.27305681  4.27305681  9.63652841
   6.40958522  2.13652841  9.63652841
   4.27336944  2.13652871 11.77856712
   6.40964596  4.27218125 11.77929092
   4.27198944  4.26215960 13.90189663
   6.41139921  2.13652816 13.90126359
   0.00000000  6.40958522  9.63652841
   2.13652841  0.00000000  9.63652841
   0.00000000  0.00000000  7.50000000
   2.13652841  6.40958522  7.50000000
   0.00138668  6.40958538 13.93103411
   2.13796410  8.54514175 13.93282119
   0.00008455  8.54525519 11.77319332
   2.14064312  6.40958510 11.77302590
   0.00000000  2.13652841  9.63652841
   2.13652841  4.27305681  9.63652841
   0.00000000  4.27305681  7.50000000
   2.13652841  2.13652841  7.50000000
   8.54567542  2.13652828 13.93945978
   2.13796418  4.27402874 13.93282268
   0.00008454  4.27391529 11.77319424
   2.13847708  2.13652854 11.77335623
   4.27305681  6.40958522  9.63652841
   6.40958522  0.00000000  9.63652841
   4.27305681  0.00000000  7.50000000
   6.40958522  6.40958522  7.50000000
   4.27879290  6.40958541 13.93938916
   6.40803603  8.54351714 13.93276829
   4.27323983  8.54265419 11.77218001
   6.40652140  6.40958513 11.77007418
   4.27305681  2.13652841  9.63652841
   6.40958522  4.27305681  9.63652841
   4.27305681  4.27305681  7.50000000
   6.40958522  2.13652841  7.50000000
   4.27435177  2.13652834 13.93515343
   6.40803589  4.27565334 13.93276968
   4.27323981  4.27651629 11.77218062
   6.40866573  2.13652853 11.77286338

--------------------------------------- Iteration      FINAL  ---------------------------------------

--------------------OUTCAR has been truncated-------------------------

[...]

--------------------OUTCAR has been truncated-------------------------

  FORCE on cell =-STRESS in cart. coord.  units (eV):
  Direction    XX          YY          ZZ          XY          YZ          ZX
  Alpha Z   884.72509   884.72509   884.72509
  Ewald  153983.13472153653.86276************     0.00054     0.00038   111.12948
  Hartree164233.61769164099.64080************     0.00021     0.00023    47.42105
  E(xc)   -2569.01780 -2570.74405 -2573.38112     0.00000     0.00000     0.74321
  Local  ************************327275.81902    -0.00068    -0.00063  -150.87517
  n-local -2852.24217 -2849.18839 -2861.24034    -0.00000    -0.00002    -3.49553
  augment  1084.94402  1086.69551  1076.25362    -0.00000     0.00000    -0.02557
  Kinetic  7514.81014  7552.75547  7563.03158    -0.00007     0.00003    -5.03634
  Fock        0.00000     0.00000     0.00000     0.00000     0.00000     0.00000
  Total     -30.30981   -30.37606    -1.56131     0.00000    -0.00000    -0.13886
  in kB     -31.05620   -31.12407    -1.59975     0.00000    -0.00000    -0.14228

 VOLUME and BASIS-vectors are now :
  energy-cutoff  :      600.00
  volume of cell :     1563.67
      direct lattice vectors                 reciprocal lattice vectors
     8.546113626  0.000000000  0.000000000     0.117012252  0.000000000  0.000000000
     0.000000000  8.546113626  0.000000000     0.000000000  0.117012252  0.000000000
     0.000000000  0.000000000 21.409585219     0.000000000  0.000000000  0.046708051

  length of vectors
     8.546113626  8.546113626 21.409585219     0.117012252  0.117012252  0.046708051

 FORCES acting on ions:
    Electron-Ion                     Ewald-Force                    Non-Local-Force
   0.245E+03 0.342E-03 -.119E+04   -.285E+03 -.408E-03 0.117E+04   0.404E+02 0.653E-04 0.118E+02
   -.232E+03 -.431E-03 -.149E+04   0.285E+03 0.521E-03 0.151E+04   -.533E+02 -.894E-04 -.194E+02
   -.103E+00 0.513E-05 0.202E+04   0.104E+00 -.517E-05 -.202E+04   -.127E-02 0.572E-07 -.640E+01
   0.195E+00 -.281E+00 0.202E+04   -.199E+00 0.284E+00 -.202E+04   0.264E-02 -.252E-02 -.641E+01
   -.401E+00 -.928E+00 0.702E+03   0.406E+00 0.948E+00 -.702E+03   -.384E-02 -.148E-01 0.345E+00
   0.127E+01 0.135E-04 0.703E+03   -.128E+01 -.141E-04 -.704E+03   0.960E-02 0.436E-06 0.405E+00
   -.222E+01 0.877E-04 -.610E+03   0.228E+01 -.954E-04 0.610E+03   -.699E-01 0.546E-05 -.281E+00
   0.403E+01 -.479E+01 -.613E+03   -.404E+01 0.480E+01 0.614E+03   0.223E-01 -.917E-02 -.413E+00
   -.704E+01 -.145E+02 -.194E+04   0.707E+01 0.146E+02 0.193E+04   -.317E-01 -.803E-01 0.563E+01
   0.308E+02 -.714E-05 -.191E+04   -.315E+02 0.819E-05 0.190E+04   0.672E+00 -.138E-05 0.577E+01
   -.951E-01 -.501E-05 0.202E+04   0.960E-01 0.511E-05 -.202E+04   -.630E-03 -.632E-07 -.641E+01
   0.195E+00 0.281E+00 0.202E+04   -.199E+00 -.284E+00 -.202E+04   0.264E-02 0.252E-02 -.641E+01
   -.401E+00 0.928E+00 0.702E+03   0.406E+00 -.948E+00 -.702E+03   -.384E-02 0.148E-01 0.345E+00
   0.533E+00 -.115E-04 0.701E+03   -.549E+00 0.123E-04 -.702E+03   0.124E-01 -.527E-06 0.361E+00
   -.107E+01 -.809E-04 -.619E+03   0.108E+01 0.890E-04 0.619E+03   -.166E-01 -.591E-05 -.227E+00
   0.403E+01 0.479E+01 -.613E+03   -.404E+01 -.480E+01 0.614E+03   0.223E-01 0.917E-02 -.413E+00
   -.704E+01 0.145E+02 -.194E+04   0.707E+01 -.146E+02 0.193E+04   -.317E-01 0.803E-01 0.563E+01
   0.105E+02 -.820E-05 -.194E+04   -.105E+02 0.697E-05 0.194E+04   0.758E-01 0.149E-05 0.565E+01
   0.108E+00 0.272E-05 0.202E+04   -.109E+00 -.289E-05 -.202E+04   0.445E-03 0.138E-06 -.638E+01
   -.198E+00 -.290E+00 0.202E+04   0.202E+00 0.294E+00 -.202E+04   -.254E-02 -.273E-02 -.641E+01
   0.466E+00 -.168E+01 0.703E+03   -.474E+00 0.170E+01 -.704E+03   0.520E-02 -.161E-01 0.421E+00
   -.133E+01 0.190E-04 0.704E+03   0.136E+01 -.202E-04 -.705E+03   -.211E-01 0.863E-06 0.406E+00
   0.263E+01 0.148E-04 -.597E+03   -.269E+01 -.225E-04 0.597E+03   0.542E-01 0.772E-05 0.368E+00
   -.434E+01 -.608E+01 -.609E+03   0.436E+01 0.613E+01 0.610E+03   -.155E-01 -.477E-01 -.387E+00
   0.904E+01 -.373E+02 -.190E+04   -.908E+01 0.379E+02 0.189E+04   0.404E-01 -.590E+00 0.573E+01
   -.360E+02 -.334E-04 -.187E+04   0.368E+02 0.357E-04 0.186E+04   -.779E+00 -.167E-05 0.590E+01
   0.976E-01 -.263E-05 0.202E+04   -.984E-01 0.283E-05 -.202E+04   0.586E-03 -.147E-06 -.640E+01
   -.198E+00 0.290E+00 0.202E+04   0.202E+00 -.294E+00 -.202E+04   -.254E-02 0.273E-02 -.641E+01
   0.466E+00 0.168E+01 0.703E+03   -.474E+00 -.170E+01 -.704E+03   0.520E-02 0.161E-01 0.421E+00
   -.582E+00 -.171E-04 0.702E+03   0.599E+00 0.185E-04 -.702E+03   -.130E-01 -.998E-06 0.365E+00
   0.138E+01 -.146E-04 -.612E+03   -.138E+01 0.225E-04 0.613E+03   0.387E-02 -.783E-05 -.272E+00
   -.434E+01 0.608E+01 -.609E+03   0.436E+01 -.613E+01 0.610E+03   -.155E-01 0.477E-01 -.387E+00
   0.904E+01 0.373E+02 -.190E+04   -.908E+01 -.379E+02 0.189E+04   0.404E-01 0.590E+00 0.573E+01
   -.110E+02 0.721E-05 -.194E+04   0.111E+02 -.110E-04 0.193E+04   -.695E-01 0.323E-05 0.565E+01
   -.268E+00 0.204E-04 0.527E+03   0.253E+00 -.213E-04 -.527E+03   0.187E-01 0.123E-05 -.245E-01
   0.561E+00 -.853E+00 0.526E+03   -.573E+00 0.865E+00 -.526E+03   0.185E-01 -.165E-01 -.102E+00
   -.749E-01 -.185E+00 0.152E+04   0.761E-01 0.189E+00 -.152E+04   -.162E-02 -.556E-02 0.357E+01
   0.180E+00 0.259E-05 0.152E+04   -.184E+00 -.273E-05 -.152E+04   0.673E-02 0.187E-06 0.358E+01
   -.976E+01 0.826E-05 -.146E+04   0.985E+01 -.887E-05 0.147E+04   -.891E-01 0.354E-06 -.493E+01
   0.155E+02 -.159E+02 -.146E+04   -.155E+02 0.159E+02 0.147E+04   -.452E-02 0.233E-02 -.496E+01
   -.118E+01 -.304E+01 -.457E+03   0.115E+01 0.304E+01 0.456E+03   0.251E-01 -.791E-02 0.199E+00
   0.389E+01 0.346E-04 -.453E+03   -.389E+01 -.346E-04 0.453E+03   -.432E-02 0.629E-06 0.142E+00
   -.254E+00 -.189E-04 0.526E+03   0.254E+00 0.196E-04 -.526E+03   -.118E-02 -.924E-06 -.670E-01
   0.561E+00 0.853E+00 0.526E+03   -.573E+00 -.865E+00 -.526E+03   0.185E-01 0.165E-01 -.102E+00
   -.749E-01 0.185E+00 0.152E+04   0.761E-01 -.189E+00 -.152E+04   -.162E-02 0.556E-02 0.357E+01
   0.117E+00 -.254E-05 0.152E+04   -.121E+00 0.268E-05 -.152E+04   0.554E-02 -.174E-06 0.357E+01
   -.285E+01 -.148E-04 -.148E+04   0.283E+01 0.157E-04 0.148E+04   0.178E-01 -.630E-06 -.487E+01
   0.155E+02 0.159E+02 -.146E+04   -.155E+02 -.159E+02 0.147E+04   -.451E-02 -.233E-02 -.496E+01
   -.118E+01 0.304E+01 -.457E+03   0.115E+01 -.304E+01 0.456E+03   0.251E-01 0.791E-02 0.199E+00
   0.206E+01 -.272E-04 -.458E+03   -.206E+01 0.267E-04 0.458E+03   0.981E-02 -.246E-06 0.209E+00
   0.361E+00 0.347E-05 0.529E+03   -.370E+00 -.278E-05 -.529E+03   0.123E-01 -.825E-06 0.467E-01
   -.608E+00 -.904E+00 0.527E+03   0.624E+00 0.912E+00 -.527E+03   -.230E-01 -.122E-01 -.853E-01
   0.775E-01 -.248E+00 0.152E+04   -.784E-01 0.252E+00 -.152E+04   0.135E-02 -.614E-02 0.358E+01
   -.183E+00 0.314E-05 0.152E+04   0.187E+00 -.330E-05 -.152E+04   -.553E-02 0.298E-06 0.358E+01
   0.136E+02 -.728E-04 -.138E+04   -.136E+02 0.739E-04 0.139E+04   -.653E-02 -.862E-06 -.440E+01
   -.169E+02 -.240E+02 -.145E+04   0.169E+02 0.240E+02 0.146E+04   0.145E-01 -.142E-01 -.496E+01
   0.152E+01 -.508E+01 -.451E+03   -.153E+01 0.510E+01 0.451E+03   0.103E-01 -.236E-01 0.183E+00
   -.426E+01 0.332E-04 -.446E+03   0.430E+01 -.326E-04 0.446E+03   -.369E-01 -.337E-06 0.319E+00
   0.293E+00 -.248E-05 0.526E+03   -.296E+00 0.156E-05 -.526E+03   0.316E-02 0.103E-05 -.308E-01
   -.608E+00 0.904E+00 0.527E+03   0.624E+00 -.912E+00 -.527E+03   -.230E-01 0.122E-01 -.853E-01
   0.775E-01 0.248E+00 0.152E+04   -.784E-01 -.252E+00 -.152E+04   0.135E-02 0.614E-02 0.358E+01
   -.119E+00 -.307E-05 0.152E+04   0.123E+00 0.326E-05 -.152E+04   -.547E-02 -.231E-06 0.357E+01
   0.326E+01 0.170E-04 -.147E+04   -.326E+01 -.184E-04 0.147E+04   0.765E-02 0.251E-05 -.488E+01
   -.169E+02 0.240E+02 -.145E+04   0.169E+02 -.240E+02 0.146E+04   0.145E-01 0.142E-01 -.496E+01
   0.152E+01 0.508E+01 -.451E+03   -.153E+01 -.510E+01 0.451E+03   0.103E-01 0.236E-01 0.183E+00
   -.231E+01 -.282E-04 -.457E+03   0.233E+01 0.274E-04 0.457E+03   -.223E-01 0.272E-06 0.199E+00
   0.130E+02 0.247E-04 0.212E+02   -.117E-12 -.112E-12 -.301E-11   -.130E+02 -.246E-04 -.212E+02

 POSITION                                       TOTAL-FORCE (eV/Angst)
      4.23763      6.40958     16.48230        -0.013101     -0.000001      0.003327
      5.35763      6.40959     16.87496        -0.014727      0.000001      0.018527
      0.00000      6.40959      7.50000         0.000371      0.000000      0.322668
      2.13653      0.00000      7.50000        -0.001038      0.000996      0.325570
      0.00000      0.00000      9.63653         0.000882      0.004991      0.012670
      2.13653      6.40959      9.63653        -0.003626     -0.000000      0.006933
      0.00361      6.40959     11.77722        -0.005240     -0.000002      0.012495
      2.13562      0.00032     11.78216         0.008385     -0.001972      0.003272
      0.00151      0.00247     13.90420        -0.005401     -0.002845      0.000145
      2.12782      6.40959     13.90943        -0.006282     -0.000000      0.004540
      0.00000      2.13653      7.50000         0.000252      0.000000      0.326197
      2.13653      4.27306      7.50000        -0.001037     -0.000996      0.325570
      0.00000      4.27306      9.63653         0.000882     -0.004991      0.012671
      2.13653      2.13653      9.63653        -0.003700      0.000000      0.015316
      0.00055      2.13653     11.77754        -0.003185      0.000002      0.021964
      2.13562      4.27273     11.78216         0.008383      0.001972      0.003276
      0.00151      4.27059     13.90420        -0.005400      0.002845      0.000140
      2.13444      2.13653     13.90418         0.003576      0.000000     -0.002043
      4.27306      6.40959      7.50000        -0.000158     -0.000000      0.318859
      6.40959      0.00000      7.50000         0.001023      0.001051      0.324615
      4.27306      0.00000      9.63653        -0.002469      0.007789      0.009637
      6.40959      6.40959      9.63653         0.010784     -0.000000      0.006518
      4.27320      6.40959     11.77133        -0.007412      0.000000     -0.019758
      6.40997      0.00135     11.78101         0.001662     -0.000573      0.008603
      4.27189      0.01119     13.90584        -0.000881      0.010825      0.003866
      6.42955      6.40959     13.89402         0.020356      0.000001      0.008155
      4.27306      2.13653      7.50000        -0.000196      0.000000      0.322609
      6.40959      4.27306      7.50000         0.001023     -0.001051      0.324615
      4.27306      4.27306      9.63653        -0.002469     -0.007789      0.009637
      6.40959      2.13653      9.63653         0.004514      0.000000      0.012123
      4.27303      2.13653     11.77846        -0.002462      0.000000      0.016071
      6.40997      4.27170     11.78101         0.001666      0.000573      0.008606
      4.27189      4.26186     13.90584        -0.000882     -0.010825      0.003862
      6.41159      2.13653     13.90421         0.002810     -0.000001     -0.001999
      0.00000      6.40959      9.63653         0.003648      0.000000      0.033947
      2.13653      0.00000      9.63653         0.006145     -0.004861      0.032821
      0.00000      0.00000      7.50000        -0.000438     -0.001571     -0.398006
      2.13653      6.40959      7.50000         0.001937      0.000000     -0.395860
      0.00253      6.40959     13.93530         0.000249     -0.000000      0.006633
      2.13843      8.54421     13.93606        -0.004555      0.005323      0.012852
      0.00007      0.00058     11.77223         0.001443     -0.009479      0.014808
      2.13966      6.40959     11.77498         0.002433      0.000001      0.008728
      0.00000      2.13653      9.63653        -0.000581     -0.000000      0.021511
      2.13653      4.27306      9.63653         0.006145      0.004861      0.032821
      0.00000      4.27306      7.50000        -0.000438      0.001571     -0.398006
      2.13653      2.13653      7.50000         0.001579     -0.000000     -0.398249
      0.00025      2.13653     13.93911         0.000157      0.000000      0.009650
      2.13843      4.27496     13.93606        -0.004554     -0.005323      0.012852
      0.00007      4.27247     11.77223         0.001443      0.009479      0.014810
      2.13617      2.13653     11.77333         0.011173     -0.000001      0.007755
      4.27306      6.40959      9.63653         0.003657     -0.000000      0.025937
      6.40959      0.00000      9.63653        -0.006983     -0.004227      0.032510
      4.27306      0.00000      7.50000         0.000402     -0.001738     -0.395505
      6.40959      6.40959      7.50000        -0.001536      0.000000     -0.395151
      4.27864      6.40959     13.93782         0.003636      0.000000      0.024392
      6.40826      8.54310     13.93636         0.002496      0.005841      0.013797
      4.27316      8.54418     11.77589         0.001377     -0.004309     -0.001612
      6.40901      6.40959     11.77400        -0.006115      0.000000     -0.002451
      4.27306      2.13653      9.63653         0.000889      0.000000      0.038320
      6.40959      4.27306      9.63653        -0.006984      0.004227      0.032510
      4.27306      4.27306      7.50000         0.000402      0.001738     -0.395505
      6.40959      2.13653      7.50000        -0.001519     -0.000000     -0.397668
      4.27317      2.13653     13.93816         0.002356      0.000001      0.011858
      6.40826      4.27607     13.93636         0.002495     -0.005841      0.013797
      4.27316      4.27499     11.77589         0.001377      0.004309     -0.001612
      6.40987      2.13653     11.77321        -0.008640     -0.000001      0.008058
    total drift:                               -0.001211      0.000000      0.016906

  FREE ENERGIE OF THE ION-ELECTRON SYSTEM (eV)
  free  energy   TOTEN  =      -235.84544182 eV

  energy  without entropy=     -235.84544182  energy(sigma->0) =     -235.84544182

 d Force = 0.1219211E-03[-0.435E-05, 0.248E-03]  d Energy = 0.1184546E-03 0.347E-05
 d Force =-0.3289637E+02[-0.329E+02,-0.329E+02]  d Ewald  =-0.3289637E+02-0.140E-05

 reached required accuracy - stopping structural energy minimisation