 vasp.6.3.0 20Jan22 (build Dec 25 2023 18:06:01) complex
 executed on        HPECrayEX_GCC date 2024.01.26  01:38:48

 INCAR:
   SYSTEM = MgO-rocksalt
   ISMEAR = 0
   SIGMA = 0.05
   EDIFF = 1E-5
   ALGO = ALL
   ISTART = 0
   IBRION = -1
   NSW = 0
   ISYM = 2
   ISIF = 2
   DIPOL = 0.5 0.5 0.5
   IDIPOL = 3
   LDIPOL = .TRUE.
   LHFCALC = .TRUE.
   GGA = B5
   AEXX = 0.2
   AGGAX = 0.72
   AGGAC = 0.81
   ALDAC = 0.19
   IVDW = 1
   VDW_S6 = 1.05
   VDW_C6 = 1.75 0.70 0.63 0.70
   VDW_R0 = 1.452 1.342 1.243 1.342
   ENCUT = 600
   PREC = Accurate
   LASPH = .TRUE.
   LREAL = .FALSE.
   ISPIN = 1
   NELM = 200
   NELMIN = 8
   NCORE = 8
   KPAR = 1
   LWAVE = .FALSE.
   LCHARG = .FALSE.

 POTCAR:    PAW_PBE C 08Apr2002
 POTCAR:    PAW_PBE O 08Apr2002
 POTCAR:    PAW_PBE Mg_pv 13Apr2007
 POTCAR:    PAW_PBE O 08Apr2002
|           W    W    AA    RRRRR   N    N  II  N    N   GGGG   !!!           |
|           W    W   A  A   R    R  NN   N  II  NN   N  G    G  !!!           |
|           W    W  A    A  R    R  N N  N  II  N N  N  G       !!!           |
|           W WW W  AAAAAA  RRRRR   N  N N  II  N  N N  G  GGG   !            |
|           WW  WW  A    A  R   R   N   NN  II  N   NN  G    G                |
|           W    W  A    A  R    R  N    N  II  N    N   GGGG   !!!           |
|     You have selected ISYM=2 for a HF type calculation. This will           |
|     symmetrize the charge density but not the exchange potential. I         |
|     suggest to use ISYM=3 instead. This uses symmetry to obtain the         |
|     orbitals at all k-points in the Brillouin zone, but does not apply      |
|     symmetry to the Hartree potential directly. The resultant charge        |
|     might have lower symmetry than the crystal but, at least, Hartree       |
|     and exchange are fully compatible.                                      |

   TITEL  = PAW_PBE C 08Apr2002
   POMASS =   12.011; ZVAL   =    4.000    mass and valenz
   ENMAX  =  400.000; ENMIN  =  300.000 eV

[...]

   TITEL  = PAW_PBE Mg_pv 13Apr2007
   POMASS =   24.305; ZVAL   =    8.000    mass and valenz
   ENMAX  =  403.929; ENMIN  =  302.947 eV

   TITEL  = PAW_PBE O 08Apr2002
   POMASS =   16.000; ZVAL   =    6.000    mass and valenz
   ENMAX  =  400.000; ENMIN  =  300.000 eV

  PAW_PBE C 08Apr2002                   :
  PAW_PBE O 08Apr2002                   :
  PAW_PBE Mg_pv 13Apr2007               :
  PAW_PBE O 08Apr2002                   :

 POSCAR:  C  O Mg  O
  positions in direct lattice
 exchange correlation table for  LEXCH =       12
   RHO(1)=    0.500       N(1)  =     2000
   RHO(2)=  100.500       N(2)  =     4000

 ion  position               nearest neighbor table
   1  0.500  0.500  0.766-   2 1.13
   2  0.500  0.500  0.819-   1 1.13
   3  0.250  0.000  0.353-  37 2.09  38 2.09  45 2.09  54 2.09  35 2.09
   4  0.500  0.250  0.353-  37 2.09  38 2.09  46 2.09  53 2.09  36 2.09
   5  0.250  0.250  0.451-  35 2.09  36 2.09  43 2.09  52 2.09  37 2.09  41 2.09
   6  0.500  0.000  0.451-  35 2.09  36 2.09  44 2.09  51 2.09  38 2.09  42 2.09
   7  0.250  0.000  0.550-  42 2.09  41 2.09  49 2.09  58 2.09  35 2.10  39 2.12
   8  0.500  0.250  0.550-  50 2.08  41 2.09  57 2.09  42 2.09  36 2.10  40 2.12
   9  0.250  0.250  0.647-  41 2.08  39 2.09  56 2.09  47 2.09  40 2.09
  10  0.500  0.000  0.647-  40 2.08  48 2.08  42 2.08  39 2.09  55 2.09
  11  0.250  0.500  0.353-  37 2.09  45 2.09  46 2.09  62 2.09  43 2.09
  12  0.500  0.750  0.353-  38 2.09  45 2.09  46 2.09  61 2.09  44 2.09
  13  0.250  0.750  0.451-  35 2.09  43 2.09  44 2.09  60 2.09  45 2.09  49 2.09
  14  0.500  0.500  0.451-  36 2.09  43 2.09  44 2.09  59 2.09  46 2.09  50 2.10
  15  0.250  0.500  0.550-  50 2.08  49 2.09  41 2.09  66 2.09  43 2.10  47 2.12
  16  0.500  0.750  0.550-  50 2.08  49 2.09  65 2.09  42 2.09  44 2.10  48 2.12
  17  0.250  0.750  0.647-  49 2.08  39 2.09  64 2.09  47 2.09  48 2.09
  18  0.500  0.500  0.649-  40 2.10  47 2.10  48 2.10  63 2.10  50 2.12
  19  0.750  0.000  0.353-  38 2.09  53 2.09  54 2.09  61 2.09  51 2.09
  20  0.000  0.250  0.353-  37 2.09  53 2.09  54 2.09  62 2.09  52 2.09
  21  0.750  0.250  0.451-  36 2.09  51 2.09  52 2.09  59 2.09  53 2.09  57 2.09
  22  0.000  0.000  0.451-  35 2.09  51 2.09  52 2.09  60 2.09  54 2.09  58 2.09
  23  0.750  0.000  0.550-  42 2.09  57 2.09  65 2.09  58 2.09  51 2.10  55 2.12
  24  0.000  0.250  0.550-  66 2.09  57 2.09  41 2.09  58 2.09  52 2.10  56 2.12
  25  0.750  0.250  0.647-  57 2.08  56 2.09  55 2.09  40 2.09  63 2.09
  26  0.000  0.000  0.647-  58 2.08  55 2.09  56 2.09  39 2.09  64 2.09
  27  0.750  0.500  0.353-  46 2.09  53 2.09  61 2.09  62 2.09  59 2.09
  28  0.000  0.750  0.353-  45 2.09  54 2.09  61 2.09  62 2.09  60 2.09
  29  0.750  0.750  0.451-  44 2.09  51 2.09  59 2.09  60 2.09  61 2.09  65 2.09
  30  0.000  0.500  0.451-  43 2.09  52 2.09  59 2.09  60 2.09  62 2.09  66 2.09
  31  0.750  0.500  0.550-  50 2.08  57 2.09  65 2.09  66 2.09  59 2.10  63 2.12
  32  0.000  0.750  0.550-  66 2.09  65 2.09  49 2.09  58 2.09  60 2.10  64 2.12
  33  0.750  0.750  0.647-  65 2.08  64 2.09  55 2.09  48 2.09  63 2.09
  34  0.000  0.500  0.647-  47 2.08  63 2.08  66 2.08  64 2.09  56 2.09
  35  0.250  0.000  0.451-   5 2.09   6 2.09  13 2.09  22 2.09   3 2.09   7 2.10
  36  0.500  0.250  0.451-   5 2.09   6 2.09  14 2.09  21 2.09   4 2.09   8 2.10
  37  0.250  0.250  0.353-   3 2.09   4 2.09  11 2.09  20 2.09   5 2.09
  38  0.500  0.000  0.353-   3 2.09   4 2.09  12 2.09  19 2.09   6 2.09
  39  0.250  0.000  0.650-  26 2.09  17 2.09   9 2.09  10 2.09   7 2.12
  40  0.500  0.249  0.650-  10 2.08   9 2.09  25 2.09  18 2.10   8 2.12
  41  0.250  0.250  0.549-   9 2.08   8 2.09  15 2.09   7 2.09  24 2.09   5 2.09
  42  0.500  0.000  0.549-  10 2.08   7 2.09  23 2.09  16 2.09   8 2.09   6 2.09
  43  0.250  0.500  0.451-   5 2.09  13 2.09  14 2.09  30 2.09  11 2.09  15 2.10
  44  0.500  0.750  0.451-   6 2.09  13 2.09  14 2.09  29 2.09  12 2.09  16 2.10
  45  0.250  0.750  0.353-   3 2.09  11 2.09  12 2.09  28 2.09  13 2.09
  46  0.500  0.500  0.353-   4 2.09  11 2.09  12 2.09  27 2.09  14 2.09
  47  0.249  0.500  0.650-  34 2.08  17 2.09   9 2.09  18 2.10  15 2.12
  48  0.500  0.751  0.650-  10 2.08  17 2.09  33 2.09  18 2.10  16 2.12
  49  0.250  0.750  0.549-  17 2.08  16 2.09  15 2.09   7 2.09  32 2.09  13 2.09
  50  0.500  0.500  0.550-   8 2.08  15 2.08  16 2.08  31 2.08  14 2.10  18 2.12
  51  0.750  0.000  0.451-   6 2.09  21 2.09  22 2.09  29 2.09  19 2.09  23 2.10
  52  0.000  0.250  0.451-   5 2.09  21 2.09  22 2.09  30 2.09  20 2.09  24 2.10
  53  0.750  0.250  0.353-   4 2.09  19 2.09  20 2.09  27 2.09  21 2.09
  54  0.000  0.000  0.353-   3 2.09  19 2.09  20 2.09  28 2.09  22 2.09
  55  0.750  0.000  0.650-  26 2.09  25 2.09  33 2.09  10 2.09  23 2.12
  56  0.000  0.250  0.650-  26 2.09  25 2.09   9 2.09  34 2.09  24 2.12
  57  0.750  0.250  0.549-  25 2.08  31 2.09   8 2.09  23 2.09  24 2.09  21 2.09
  58  0.000  0.000  0.549-  26 2.08  23 2.09  24 2.09   7 2.09  32 2.09  22 2.09
  59  0.750  0.500  0.451-  14 2.09  21 2.09  29 2.09  30 2.09  27 2.09  31 2.10
  60  0.000  0.750  0.451-  13 2.09  22 2.09  29 2.09  30 2.09  28 2.09  32 2.10
  61  0.750  0.750  0.353-  12 2.09  19 2.09  27 2.09  28 2.09  29 2.09
  62  0.000  0.500  0.353-  11 2.09  20 2.09  27 2.09  28 2.09  30 2.09
  63  0.751  0.500  0.650-  34 2.08  33 2.09  25 2.09  18 2.10  31 2.12
  64  0.000  0.750  0.650-  26 2.09  17 2.09  33 2.09  34 2.09  32 2.12
  65  0.750  0.750  0.549-  33 2.08  31 2.09  16 2.09  32 2.09  23 2.09  29 2.09
  66  0.000  0.500  0.549-  34 2.08  32 2.09  24 2.09  31 2.09  15 2.09  30 2.09

  LATTYP: Found a simple tetragonal cell.
 ALAT       =     8.3491118266
 C/A-ratio  =     2.5465982863

  Lattice vectors:

 A1 = (   8.3491118266,   0.0000000000,   0.0000000000)
 A2 = (   0.0000000000,   8.3491118266,   0.0000000000)
 A3 = (   0.0000000000,   0.0000000000,  21.2618338699)

Analysis of symmetry for initial positions (statically):
 Subroutine PRICEL returns:
 Original cell was already a primitive cell.

 Routine SETGRP: Setting up the symmetry group for a
 simple tetragonal supercell.

 Subroutine GETGRP returns: Found  8 space group operations
 (whereof  8 operations were pure point group operations)
 out of a pool of 16 trial point group operations.

The static configuration has the point symmetry C_4v.

Analysis of symmetry for dynamics (positions and initial velocities):
 Subroutine PRICEL returns:
 Original cell was already a primitive cell.

[...]

The dynamic configuration has the point symmetry C_4v.

Analysis of constrained symmetry for selective dynamics:
 Subroutine PRICEL returns:
 Original cell was already a primitive cell.

 Routine SETGRP: Setting up the symmetry group for a
 simple tetragonal supercell.

 Subroutine GETGRP returns: Found  8 space group operations
 (whereof  8 operations were pure point group operations)
 out of a pool of 16 trial point group operations.

The constrained configuration has the point symmetry C_4v.

 Subroutine INISYM returns: Found  8 space group operations
 (whereof  8 operations are pure point group operations),
 and found     1 'primitive' translations

                                     Primitive cell

  volume of cell :    1482.1129

  direct lattice vectors                    reciprocal lattice vectors
     8.349111827  0.000000000  0.000000000     0.119773219  0.000000000  0.000000000
     0.000000000  8.349111827  0.000000000     0.000000000  0.119773219  0.000000000
     0.000000000  0.000000000 21.261833870     0.000000000  0.000000000  0.047032632

  length of vectors
     8.349111827  8.349111827 21.261833870     0.119773219  0.119773219  0.047032632

  position of ions in fractional coordinates (direct lattice)
     0.500000000  0.500000000  0.765950645
     0.500000000  0.500000000  0.819088148
     0.250000000  0.000000000  0.352744737
     0.500000000  0.250000000  0.352744737
     0.250000000  0.250000000  0.450914912
     0.500000000  0.000000000  0.450914912
     0.250126707  0.000000000  0.549606520
     0.500000000  0.250385208  0.549848982
     0.249782306  0.249782306  0.647054444
     0.500000000  0.000000000  0.647128461
     0.250000000  0.500000000  0.352744737
     0.500000000  0.750000000  0.352744737
     0.250000000  0.750000000  0.450914912
     0.500000000  0.500000000  0.450914912
     0.250385208  0.500000000  0.549848982
     0.500000000  0.749614792  0.549848982
     0.249782306  0.750217694  0.647054444
     0.500000000  0.500000000  0.649476521
     0.750000000  0.000000000  0.352744737
     0.000000000  0.250000000  0.352744737
     0.750000000  0.250000000  0.450914912
     0.000000000  0.000000000  0.450914912
     0.749873293  0.000000000  0.549606520
     0.000000000  0.250126707  0.549606520
     0.750217694  0.249782306  0.647054444
     0.000000000  0.000000000  0.647144567
     0.750000000  0.500000000  0.352744737
     0.000000000  0.750000000  0.352744737
     0.750000000  0.750000000  0.450914912
     0.000000000  0.500000000  0.450914912
     0.749614792  0.500000000  0.549848982
     0.000000000  0.749873293  0.549606520
[...]
   4.17455591  4.17455591 13.80906190
   6.26183387  0.00000000  7.50000000
   0.00000000  2.08727796  7.50000000
   6.26183387  2.08727796  9.58727796
   0.00000000  0.00000000  9.58727796
   6.26077598  0.00000000 11.68564251
   0.00000000  2.08833585 11.68564251
   6.26365142  2.08546040 13.75756409
   0.00000000  0.00000000 13.75948028
   6.26183387  4.17455591  7.50000000
   0.00000000  6.26183387  7.50000000
   6.26183387  6.26183387  9.58727796
   0.00000000  4.17455591  9.58727796
   6.25861772  4.17455591 11.69079771
   0.00000000  6.26077598 11.68564251
   6.26365142  6.26365142 13.75756409
   0.00000000  4.17455591 13.75913783
   2.08727796  0.00000000  9.58727796
   4.17455591  2.08727796  9.58727796
   2.08727796  2.08727796  7.50000000
   4.17455591  0.00000000  7.50000000
   2.08541955  0.00000000 13.80987194
   4.17455591  2.07762739 13.81210630
   2.08732041  2.08732041 11.68122074
   4.17455591  0.00000000 11.67984707
   2.08727796  4.17455591  9.58727796
   4.17455591  6.26183387  9.58727796
   2.08727796  6.26183387  7.50000000
   4.17455591  4.17455591  7.50000000
   2.07762739  4.17455591 13.81210630
   4.17455591  6.27148443 13.81210630
   2.08732041  6.26179142 11.68122074
   4.17455591  4.17455591 11.69108697
   6.26183387  0.00000000  9.58727796
   0.00000000  2.08727796  9.58727796
   6.26183387  2.08727796  7.50000000
   0.00000000  0.00000000  7.50000000
   6.26369228  0.00000000 13.80987194
   0.00000000  2.08541955 13.80987194
   6.26179142  2.08732041 11.68122074
   0.00000000  0.00000000 11.67940333
   6.26183387  4.17455591  9.58727796
   0.00000000  6.26183387  9.58727796
   6.26183387  6.26183387  7.50000000
   0.00000000  4.17455591  7.50000000
   6.27148443  4.17455591 13.81210630
   0.00000000  6.26369228 13.80987194
   6.26179142  6.26179142 11.68122074
   0.00000000  4.17455591 11.67984707

--------------------------------------- Iteration      FINAL  ---------------------------------------

--------------------OUTCAR has been truncated-------------------------

[...]

--------------------OUTCAR has been truncated-------------------------

  DFT-D2 method for vdW energy calculation

  Parameters of vdW forcefield:
         C6(Jnm^6/mol)     R0(A)
   C        1.750          1.452
   O        0.700          1.342
   Mg       0.630          1.243
   O        0.700          1.342

  vdW correction parametrized for the method          

  IVDW =   1
  VDW_RADIUS =    50.000 A
  VDW_S6 =     1.050
  VDW_SR =     1.000
  VDW_D =    20.000
  LVDW_EWALD = F

  Number of pair interactions contributing to vdW energy:  788718
  Edisp (eV):   -5.41122

  FORCE on cell =-STRESS in cart. coord.  units (eV):
  Direction    XX          YY          ZZ          XY          YZ          ZX
  Alpha Z   931.06396   931.06396   931.06396
  Ewald  162499.44104162499.44104************     0.00000    -0.00000     0.00000
  Hartree172906.95585172906.95585************    -0.00000    -0.00000    -0.00000
  E(xc)   -2040.13117 -2040.13117 -2042.23183     0.00000    -0.00000    -0.00000
  Local  ************************345275.53693    -0.00000     0.00000    -0.00000
  n-local -1181.87720 -1182.24194 -1214.63563     0.00000     0.00000    -0.00000
  augment   902.54690   902.54690   891.47712     0.00000     0.00000    -0.00000
  Kinetic  7544.67904  7546.39430  7563.05739    -0.00000    -0.00000     0.00000
  Fock    -2010.79565 -2010.92632 -2009.94981    -0.00000     0.00000     0.00000
  vdW        -7.86246    -7.86246    -6.49337    -0.00000     0.00000    -0.00000
  Total     -18.18153   -18.18153     6.11725     0.00000     0.00000     0.00000
  in kB     -19.65440   -19.65440     6.61280     0.00000     0.00000     0.00000

 VOLUME and BASIS-vectors are now :
  energy-cutoff  :      600.00
  volume of cell :     1482.11
      direct lattice vectors                 reciprocal lattice vectors
     8.349111827  0.000000000  0.000000000     0.119773219  0.000000000  0.000000000
     0.000000000  8.349111827  0.000000000     0.000000000  0.119773219  0.000000000
     0.000000000  0.000000000 21.261833870     0.000000000  0.000000000  0.047032632

  length of vectors
     8.349111827  8.349111827 21.261833870     0.119773219  0.119773219  0.047032632

 FORCES acting on ions:
    Electron-Ion                     Ewald-Force                    Non-Local-Force
   0.101E-12 -.133E-12 -.850E+03   0.280E-13 0.220E-13 0.822E+03   0.000E+00 -.397E-22 0.269E+02
   0.418E-12 0.170E-11 -.148E+04   0.484E-14 0.602E-14 0.154E+04   0.000E+00 0.000E+00 -.560E+02
   0.880E-01 0.953E-13 0.214E+04   -.857E-01 0.336E-13 -.213E+04   -.148E-02 0.000E+00 -.643E+01
   0.647E-12 0.689E-01 0.214E+04   -.698E-13 -.651E-01 -.213E+04   0.000E+00 -.253E-02 -.644E+01
   0.275E+00 0.275E+00 0.734E+03   -.254E+00 -.254E+00 -.735E+03   -.132E-01 -.132E-01 0.432E+00
   0.541E-12 -.810E-12 0.735E+03   0.426E-13 0.305E-11 -.735E+03   0.265E-22 0.000E+00 0.383E+00
   0.283E+01 -.112E-11 -.660E+03   -.280E+01 0.302E-11 0.660E+03   -.309E-01 0.265E-22 -.107E+00
   -.243E-12 0.350E+01 -.654E+03   0.199E-10 -.337E+01 0.655E+03   0.000E+00 -.113E+00 -.234E+00
   0.175E+02 0.175E+02 -.204E+04   -.176E+02 -.176E+02 0.203E+04   0.832E-01 0.832E-01 0.544E+01
   0.602E-12 -.490E-12 -.204E+04   -.195E-13 0.315E-11 0.204E+04   0.000E+00 0.000E+00 0.535E+01
   0.689E-01 0.681E-12 0.214E+04   -.651E-01 -.104E-11 -.213E+04   -.253E-02 0.926E-22 -.644E+01
   0.619E-12 -.689E-01 0.214E+04   0.170E-12 0.651E-01 -.213E+04   0.000E+00 0.253E-02 -.644E+01
   0.275E+00 -.275E+00 0.734E+03   -.254E+00 0.254E+00 -.735E+03   -.132E-01 0.132E-01 0.432E+00
   -.170E-12 0.926E-12 0.734E+03   0.454E-11 -.107E-10 -.735E+03   0.000E+00 -.414E-22 0.516E+00
   0.350E+01 -.395E-12 -.654E+03   -.337E+01 0.322E-11 0.655E+03   -.113E+00 -.106E-21 -.234E+00
   -.252E-12 -.350E+01 -.654E+03   0.231E-10 0.337E+01 0.655E+03   0.000E+00 0.113E+00 -.234E+00
   0.175E+02 -.175E+02 -.204E+04   -.176E+02 0.176E+02 0.203E+04   0.832E-01 -.832E-01 0.544E+01
   -.884E-13 0.790E-12 -.198E+04   0.172E-10 0.292E-11 0.197E+04   0.000E+00 0.000E+00 0.390E+01
   -.880E-01 0.817E-13 0.214E+04   0.857E-01 0.330E-13 -.213E+04   0.148E-02 -.106E-21 -.643E+01
   -.115E-13 0.880E-01 0.214E+04   0.896E-12 -.857E-01 -.213E+04   0.000E+00 -.148E-02 -.643E+01
   -.275E+00 0.275E+00 0.734E+03   0.254E+00 -.254E+00 -.735E+03   0.132E-01 -.132E-01 0.432E+00
   -.701E-13 -.517E-12 0.734E+03   -.159E-11 0.116E-12 -.734E+03   0.000E+00 0.000E+00 0.398E+00
   -.283E+01 -.116E-11 -.660E+03   0.280E+01 0.307E-11 0.660E+03   0.309E-01 0.000E+00 -.107E+00
   -.847E-12 0.283E+01 -.660E+03   0.310E-11 -.280E+01 0.660E+03   -.529E-22 -.309E-01 -.107E+00
   -.175E+02 0.175E+02 -.204E+04   0.176E+02 -.176E+02 0.203E+04   -.832E-01 0.832E-01 0.544E+01
   -.279E-13 0.504E-12 -.206E+04   -.175E-11 -.192E-11 0.205E+04   0.265E-22 0.000E+00 0.536E+01
   -.689E-01 0.641E-11 0.214E+04   0.651E-01 0.511E-12 -.213E+04   0.253E-02 0.106E-21 -.644E+01
   0.491E-14 -.880E-01 0.214E+04   0.120E-11 0.857E-01 -.213E+04   -.529E-22 0.148E-02 -.643E+01
   -.275E+00 -.275E+00 0.734E+03   0.254E+00 0.254E+00 -.735E+03   0.132E-01 0.132E-01 0.432E+00
   -.845E-12 0.252E-12 0.735E+03   0.167E-10 0.165E-11 -.735E+03   0.000E+00 0.000E+00 0.383E+00
   -.350E+01 -.526E-11 -.654E+03   0.337E+01 0.324E-11 0.655E+03   0.113E+00 0.106E-21 -.234E+00
   -.839E-12 -.283E+01 -.660E+03   0.318E-11 0.280E+01 0.660E+03   0.000E+00 0.309E-01 -.107E+00
   -.175E+02 -.175E+02 -.204E+04   0.176E+02 0.176E+02 0.203E+04   -.832E-01 -.832E-01 0.544E+01
   -.864E-12 0.980E-12 -.204E+04   0.311E-11 0.995E-13 0.204E+04   0.000E+00 0.000E+00 0.535E+01
   0.308E+00 0.391E-12 0.550E+03   -.303E+00 0.584E-12 -.550E+03   -.581E-02 -.529E-22 -.706E-01
   0.122E-12 0.192E+00 0.550E+03   0.645E-12 -.214E+00 -.550E+03   -.106E-21 0.275E-01 -.119E+00
   0.582E-01 0.582E-01 0.160E+04   -.552E-01 -.552E-01 -.161E+04   -.370E-02 -.370E-02 0.310E+01
   0.330E-12 -.191E-12 0.160E+04   0.144E-12 0.948E-13 -.161E+04   0.000E+00 -.635E-21 0.310E+01
   0.732E+01 -.831E-12 -.156E+04   -.725E+01 -.510E-12 0.157E+04   -.674E-01 0.159E-21 -.467E+01
   0.151E-12 0.228E+02 -.153E+04   0.152E-11 -.225E+02 0.154E+04   -.106E-21 -.281E+00 -.466E+01
   0.236E+01 0.236E+01 -.486E+03   -.235E+01 -.235E+01 0.485E+03   -.159E-01 -.159E-01 0.363E+00
   0.236E-12 -.489E-11 -.486E+03   0.983E-11 0.938E-11 0.486E+03   0.000E+00 0.000E+00 0.310E+00
   0.192E+00 0.878E-12 0.550E+03   -.214E+00 -.262E-12 -.550E+03   0.275E-01 0.106E-21 -.119E+00
   0.128E-12 -.192E+00 0.550E+03   -.237E-12 0.214E+00 -.550E+03   0.000E+00 -.275E-01 -.119E+00
   0.582E-01 -.582E-01 0.160E+04   -.552E-01 0.552E-01 -.161E+04   -.370E-02 0.370E-02 0.310E+01
   0.310E-12 0.817E-13 0.160E+04   -.882E-14 -.174E-12 -.161E+04   0.000E+00 0.000E+00 0.310E+01
   0.228E+02 -.110E-11 -.153E+04   -.225E+02 0.519E-12 0.154E+04   -.281E+00 -.529E-22 -.466E+01
   0.141E-12 -.228E+02 -.153E+04   0.256E-11 0.225E+02 0.154E+04   -.662E-22 0.281E+00 -.466E+01
   0.236E+01 -.236E+01 -.486E+03   -.235E+01 0.235E+01 0.485E+03   -.159E-01 0.159E-01 0.363E+00
   -.470E-11 -.335E-11 -.488E+03   0.979E-11 0.191E-10 0.488E+03   -.265E-22 0.000E+00 -.195E+00
   -.308E+00 0.439E-12 0.550E+03   0.303E+00 0.589E-12 -.550E+03   0.581E-02 0.794E-22 -.706E-01
   -.179E-12 0.308E+00 0.550E+03   0.237E-11 -.303E+00 -.550E+03   -.463E-22 -.581E-02 -.706E-01
   -.582E-01 0.582E-01 0.160E+04   0.552E-01 -.552E-01 -.161E+04   0.370E-02 -.370E-02 0.310E+01
   0.421E-13 0.477E-12 0.160E+04   0.423E-12 0.291E-14 -.161E+04   0.529E-22 0.000E+00 0.311E+01
   -.732E+01 -.885E-12 -.156E+04   0.725E+01 -.498E-12 0.157E+04   0.674E-01 0.000E+00 -.467E+01
   -.182E-12 0.732E+01 -.156E+04   -.354E-12 -.725E+01 0.157E+04   0.265E-22 -.674E-01 -.467E+01
   -.236E+01 0.236E+01 -.486E+03   0.235E+01 -.235E+01 0.485E+03   0.159E-01 -.159E-01 0.363E+00
   -.758E-13 0.667E-12 -.490E+03   0.189E-11 0.972E-11 0.490E+03   0.000E+00 0.000E+00 0.300E+00
   -.192E+00 0.919E-11 0.550E+03   0.214E+00 -.298E-12 -.550E+03   -.275E-01 0.000E+00 -.119E+00
   -.188E-12 -.308E+00 0.550E+03   0.150E-11 0.303E+00 -.550E+03   -.265E-22 0.581E-02 -.706E-01
   -.582E-01 -.582E-01 0.160E+04   0.552E-01 0.552E-01 -.161E+04   0.370E-02 0.370E-02 0.310E+01
   0.218E-13 0.980E-12 0.160E+04   0.342E-12 -.217E-12 -.161E+04   0.000E+00 0.000E+00 0.310E+01
   -.228E+02 0.283E-11 -.153E+04   0.225E+02 0.483E-12 0.154E+04   0.281E+00 -.159E-21 -.466E+01
   -.171E-12 -.732E+01 -.156E+04   0.605E-12 0.725E+01 0.157E+04   0.000E+00 0.674E-01 -.467E+01
   -.236E+01 -.236E+01 -.486E+03   0.235E+01 0.235E+01 0.485E+03   0.159E-01 0.159E-01 0.363E+00
   -.499E-11 0.436E-12 -.486E+03   0.189E-10 0.192E-12 0.486E+03   0.000E+00 0.106E-21 0.310E+00
   0.175E-11 -.744E-11 0.561E+02   0.235E-12 -.115E-12 0.244E-11   0.382E-16 0.139E-16 -.479E+02

 POSITION                                       TOTAL-FORCE (eV/Angst)
      4.17456      4.17456     16.28552        -0.000000     -0.000000     -0.000287
      4.17456      4.17456     17.41532         0.000000     -0.000000      0.056261
      2.08728      0.00000      7.50000         0.000641     -0.000000      0.305868
      4.17456      2.08728      7.50000         0.000000      0.000979      0.308050
      2.08728      2.08728      9.58728         0.006153      0.006153      0.044613
      4.17456      0.00000      9.58728         0.000000     -0.000000      0.051488
      2.08834      0.00000     11.68564        -0.002822     -0.000000      0.013709
      4.17456      2.09049     11.69080        -0.000000      0.007257      0.017023
      2.08546      2.08546     13.75756         0.000667      0.000667      0.111980
      4.17456      0.00000     13.75914         0.000000     -0.000000      0.118088
      2.08728      4.17456      7.50000         0.000979     -0.000000      0.308050
      4.17456      6.26183      7.50000         0.000000     -0.000979      0.308050
      2.08728      6.26183      9.58728         0.006153     -0.006153      0.044613
      4.17456      4.17456      9.58728         0.000000     -0.000000      0.068784
      2.09049      4.17456     11.69080         0.007257     -0.000000      0.017023
      4.17456      6.25862     11.69080        -0.000000     -0.007257      0.017023
      2.08546      6.26365     13.75756         0.000667     -0.000667      0.111980
      4.17456      4.17456     13.80906         0.000000     -0.000000      0.123940
      6.26183      0.00000      7.50000        -0.000641     -0.000000      0.305868
      0.00000      2.08728      7.50000        -0.000000      0.000641      0.305868
      6.26183      2.08728      9.58728        -0.006153      0.006153      0.044613
      0.00000      0.00000      9.58728        -0.000000     -0.000000      0.039189
      6.26078      0.00000     11.68564         0.002822     -0.000000      0.013709
      0.00000      2.08834     11.68564         0.000000     -0.002822      0.013709
      6.26365      2.08546     13.75756        -0.000667      0.000667      0.111980
      0.00000      0.00000     13.75948         0.000000     -0.000000      0.125889
      6.26183      4.17456      7.50000        -0.000979     -0.000000      0.308050
      0.00000      6.26183      7.50000        -0.000000     -0.000641      0.305868
      6.26183      6.26183      9.58728        -0.006153     -0.006153      0.044613
      0.00000      4.17456      9.58728         0.000000     -0.000000      0.051488
      6.25862      4.17456     11.69080        -0.007257     -0.000000      0.017023
      0.00000      6.26078     11.68564         0.000000      0.002822      0.013709
      6.26365      6.26365     13.75756        -0.000667     -0.000667      0.111980
      0.00000      4.17456     13.75914         0.000000     -0.000000      0.118088
      2.08728      0.00000      9.58728        -0.002219     -0.000000      0.061735
      4.17456      2.08728      9.58728        -0.000000      0.008872      0.073092
      2.08728      2.08728      7.50000        -0.001258     -0.001258     -0.590459
      4.17456      0.00000      7.50000         0.000000     -0.000000     -0.590703
      2.08542      0.00000     13.80987        -0.003250     -0.000000      0.022805
      4.17456      2.07763     13.81211        -0.000000      0.002492      0.016809
      2.08732      2.08732     11.68122        -0.004005     -0.004005      0.008989
      4.17456      0.00000     11.67985        -0.000000     -0.000000      0.007098
      2.08728      4.17456      9.58728         0.008872     -0.000000      0.073092
      4.17456      6.26183      9.58728         0.000000     -0.008872      0.073092
      2.08728      6.26183      7.50000        -0.001258      0.001258     -0.590459
      4.17456      4.17456      7.50000         0.000000     -0.000000     -0.592140
      2.07763      4.17456     13.81211         0.002492     -0.000000      0.016809
      4.17456      6.27148     13.81211         0.000000     -0.002492      0.016809
      2.08732      6.26179     11.68122        -0.004005      0.004005      0.008989
      4.17456      4.17456     11.69109         0.000000     -0.000000      0.002846
      6.26183      0.00000      9.58728         0.002219     -0.000000      0.061735
      0.00000      2.08728      9.58728         0.000000     -0.002219      0.061735
      6.26183      2.08728      7.50000         0.001258     -0.001258     -0.590459
      0.00000      0.00000      7.50000         0.000000     -0.000000     -0.589431
      6.26369      0.00000     13.80987         0.003250     -0.000000      0.022805
      0.00000      2.08542     13.80987        -0.000000     -0.003250      0.022805
      6.26179      2.08732     11.68122         0.004005     -0.004005      0.008989
      0.00000      0.00000     11.67940         0.000000     -0.000000      0.016154
      6.26183      4.17456      9.58728        -0.008872     -0.000000      0.073092
      0.00000      6.26183      9.58728         0.000000      0.002219      0.061735
      6.26183      6.26183      7.50000         0.001258      0.001258     -0.590459
      0.00000      4.17456      7.50000        -0.000000     -0.000000     -0.590703
      6.27148      4.17456     13.81211        -0.002492     -0.000000      0.016809
      0.00000      6.26369     13.80987         0.000000      0.003250      0.022805
      6.26179      6.26179     11.68122         0.004005      0.004005      0.008989
      0.00000      4.17456     11.67985         0.000000     -0.000000      0.007098
    total drift:                                0.000000     -0.000000      0.008269

  FREE ENERGIE OF THE ION-ELECTRON SYSTEM (eV)
  free  energy   TOTEN  =      -457.18532801 eV

  energy  without entropy=     -457.18532801  energy(sigma->0) =     -457.18532801