 vasp.6.3.0 20Jan22 (build Apr  1 2022 16:44:48) complex
 executed on        HPECrayEX_GCC date 2023.03.02  02:15:14

 INCAR:
   SYSTEM = MgO-rocksalt
   ISMEAR = 0
   SIGMA = 0.05
   EDIFF = 1E-8
   ALGO = ALL
   ISTART = 0
   IBRION = 5
   POTIM = 0.01
   NFREE = 2
   ISYM = 0
   DIPOL = 0.5 0.5 0.5
   IDIPOL = 3
   LDIPOL = .TRUE.
   GGA = PE
   IVDW = 1
   VDW_C6 = 1.23 0.70 0.63 0.70
   VDW_R0 = 1.397 1.342 1.243 1.342
   ENCUT = 600
   PREC = Accurate
   LASPH = .TRUE.
   LREAL = .FALSE.
   ISPIN = 1
   NELM = 200
   NELMIN = 8
   NCORE = 8
   KPAR = 1
   LWAVE = .FALSE.
   LCHARG = .FALSE.

 POTCAR:    PAW_PBE N 08Apr2002
 POTCAR:    PAW_PBE O 08Apr2002
 POTCAR:    PAW_PBE Mg_pv 13Apr2007
 POTCAR:    PAW_PBE O 08Apr2002
 POTCAR:    PAW_PBE N 08Apr2002
   VRHFIN =N: s2p3

   TITEL  = PAW_PBE N 08Apr2002
   POMASS =   14.001; ZVAL   =    5.000    mass and valenz
   ENMAX  =  400.000; ENMIN  =  300.000 eV

[...]

   TITEL  = PAW_PBE Mg_pv 13Apr2007
   POMASS =   24.305; ZVAL   =    8.000    mass and valenz
   ENMAX  =  403.929; ENMIN  =  302.947 eV

   TITEL  = PAW_PBE O 08Apr2002
   POMASS =   16.000; ZVAL   =    6.000    mass and valenz
   ENMAX  =  400.000; ENMIN  =  300.000 eV

  PAW_PBE N 08Apr2002                   :
  PAW_PBE O 08Apr2002                   :
  PAW_PBE Mg_pv 13Apr2007               :
  PAW_PBE O 08Apr2002                   :

 POSCAR:  N  O Mg  O
  positions in direct lattice
 exchange correlation table for  LEXCH =        8
   RHO(1)=    0.500       N(1)  =     2000
   RHO(2)=  100.500       N(2)  =     4000

 ion  position               nearest neighbor table
   1  0.495  0.518  0.769-   2 1.14
   2  0.471  0.595  0.812-   1 1.14   3 1.20
   3  0.447  0.677  0.857-   2 1.20
   4  0.250  0.000  0.351-  36 2.12  38 2.12  39 2.12  46 2.12  55 2.12
   5  0.500  0.250  0.351-  37 2.12  38 2.12  39 2.12  47 2.12  54 2.12
   6  0.250  0.250  0.450-  38 2.12  37 2.12  36 2.12  44 2.12  53 2.12  42 2.12
   7  0.500  0.000  0.450-  39 2.12  37 2.12  36 2.12  45 2.12  52 2.12  43 2.12
   8  0.250  0.000  0.550-  42 2.12  43 2.12  50 2.12  59 2.12  36 2.13  40 2.15
   9  0.500  0.250  0.550-  51 2.11  58 2.12  42 2.12  43 2.12  37 2.13  41 2.14
  10  0.250  0.250  0.648-  42 2.10  41 2.12  40 2.12  57 2.12  48 2.12
  11  0.500  0.000  0.648-  43 2.10  41 2.11  49 2.11  56 2.12  40 2.12
  12  0.250  0.500  0.351-  44 2.12  38 2.12  46 2.12  47 2.12  63 2.12
  13  0.500  0.750  0.351-  45 2.12  39 2.12  46 2.12  47 2.12  62 2.12
  14  0.250  0.750  0.450-  46 2.12  44 2.12  45 2.12  36 2.12  61 2.12  50 2.12
  15  0.500  0.500  0.450-  47 2.12  44 2.12  45 2.12  37 2.12  60 2.12  51 2.13
  16  0.250  0.500  0.550-  51 2.11  42 2.12  50 2.12  67 2.12  44 2.13  48 2.15
  17  0.500  0.749  0.550-  51 2.11  66 2.12  50 2.12  43 2.12  45 2.13  49 2.15
  18  0.250  0.750  0.648-  50 2.10  65 2.12  40 2.12  48 2.12  49 2.12
  19  0.500  0.499  0.650-  41 2.12  64 2.12  48 2.12  49 2.13  51 2.14
  20  0.750  0.000  0.351-  52 2.12  39 2.12  54 2.12  55 2.12  62 2.12
  21  0.000  0.250  0.351-  53 2.12  38 2.12  54 2.12  55 2.12  63 2.12
  22  0.750  0.250  0.450-  54 2.12  52 2.12  53 2.12  37 2.12  60 2.12  58 2.12
  23  0.000  0.000  0.450-  55 2.12  52 2.12  53 2.12  36 2.12  61 2.12  59 2.12
  24  0.750  0.000  0.550-  58 2.12  43 2.12  66 2.12  59 2.12  52 2.13  56 2.15
  25  1.000  0.250  0.550-  58 2.12  42 2.12  67 2.12  59 2.12  53 2.13  57 2.15
  26  0.750  0.250  0.648-  58 2.10  41 2.12  56 2.12  57 2.12  64 2.12
  27  1.000  0.000  0.648-  59 2.11  57 2.12  56 2.12  40 2.12  65 2.12
  28  0.750  0.500  0.351-  60 2.12  54 2.12  47 2.12  62 2.12  63 2.12
  29  0.000  0.750  0.351-  61 2.12  55 2.12  46 2.12  62 2.12  63 2.12
  30  0.750  0.750  0.450-  62 2.12  52 2.12  60 2.12  61 2.12  45 2.12  66 2.12
  31  0.000  0.500  0.450-  63 2.12  53 2.12  60 2.12  61 2.12  44 2.12  67 2.12
  32  0.750  0.500  0.550-  51 2.11  58 2.12  66 2.12  67 2.12  60 2.13  64 2.14
  33  1.000  0.750  0.550-  67 2.12  66 2.12  50 2.12  59 2.12  61 2.13  65 2.15
  34  0.750  0.750  0.648-  66 2.10  65 2.12  56 2.12  64 2.12  49 2.12
  35  1.000  0.500  0.648-  67 2.10  64 2.11  48 2.11  57 2.12  65 2.12
  36  0.250  0.000  0.450-   4 2.12   6 2.12   7 2.12  14 2.12  23 2.12   8 2.13
  37  0.500  0.250  0.450-   5 2.12   6 2.12   7 2.12  15 2.12  22 2.12   9 2.13
  38  0.250  0.250  0.351-   6 2.12   5 2.12   4 2.12  12 2.12  21 2.12
  39  0.500  0.000  0.351-   7 2.12   5 2.12   4 2.12  13 2.12  20 2.12
  40  0.250  1.000  0.651-  18 2.12  27 2.12  10 2.12  11 2.12   8 2.15
  41  0.500  0.249  0.650-  11 2.11  10 2.12  26 2.12  19 2.12   9 2.14
  42  0.250  0.250  0.550-  10 2.10   8 2.12  25 2.12  16 2.12   9 2.12   6 2.12
  43  0.500  1.000  0.550-  11 2.10   8 2.12  24 2.12  17 2.12   7 2.12   9 2.12
  44  0.250  0.500  0.450-  12 2.12   6 2.12  14 2.12  15 2.12  31 2.12  16 2.13
  45  0.500  0.750  0.450-  13 2.12   7 2.12  14 2.12  15 2.12  30 2.12  17 2.13
  46  0.250  0.750  0.351-  14 2.12  12 2.12  13 2.12   4 2.12  29 2.12
  47  0.500  0.500  0.351-  15 2.12  12 2.12  13 2.12   5 2.12  28 2.12
  48  0.249  0.500  0.651-  35 2.11  18 2.12  10 2.12  19 2.12  16 2.15
  49  0.500  0.751  0.651-  11 2.11  18 2.12  34 2.12  19 2.13  17 2.15
  50  0.250  0.750  0.550-  18 2.10  33 2.12   8 2.12  17 2.12  16 2.12  14 2.12
  51  0.500  0.500  0.550-  17 2.11  16 2.11  32 2.11   9 2.11  15 2.13  19 2.14
  52  0.750  0.000  0.450-  20 2.12   7 2.12  22 2.12  23 2.12  30 2.12  24 2.13
  53  0.000  0.250  0.450-  21 2.12   6 2.12  22 2.12  23 2.12  31 2.12  25 2.13
  54  0.750  0.250  0.351-  22 2.12  20 2.12  21 2.12   5 2.12  28 2.12
  55  0.000  0.000  0.351-  23 2.12  20 2.12  21 2.12   4 2.12  29 2.12
  56  0.750  1.000  0.651-  27 2.12  34 2.12  26 2.12  11 2.12  24 2.15
  57  0.000  0.250  0.651-  27 2.12  10 2.12  26 2.12  35 2.12  25 2.15
  58  0.750  0.250  0.550-  26 2.10  24 2.12  25 2.12  32 2.12   9 2.12  22 2.12
  59  0.000  1.000  0.550-  27 2.11  33 2.12   8 2.12  24 2.12  25 2.12  23 2.12
  60  0.750  0.500  0.450-  28 2.12  22 2.12  15 2.12  30 2.12  31 2.12  32 2.13
  61  0.000  0.750  0.450-  29 2.12  23 2.12  14 2.12  30 2.12  31 2.12  33 2.13
  62  0.750  0.750  0.351-  30 2.12  20 2.12  28 2.12  29 2.12  13 2.12
  63  0.000  0.500  0.351-  31 2.12  21 2.12  28 2.12  29 2.12  12 2.12
  64  0.751  0.500  0.651-  35 2.11  34 2.12  26 2.12  19 2.12  32 2.14
  65  0.000  0.750  0.651-  18 2.12  34 2.12  27 2.12  35 2.12  33 2.15
  66  0.750  0.750  0.550-  34 2.10  33 2.12  24 2.12  17 2.12  32 2.12  30 2.12
  67  0.000  0.500  0.550-  35 2.10  33 2.12  25 2.12  31 2.12  16 2.12  32 2.12

IMPORTANT INFORMATION: All symmetrisations will be switched off!
NOSYMM: (Re-)initialisation of all symmetry stuff for point group C_1.

                                     Primitive cell

  volume of cell :    1530.6606

  direct lattice vectors                    reciprocal lattice vectors
     8.467142631  0.000000000  0.000000000     0.118103597  0.000000000  0.000000000
     0.000000000  8.467142631  0.000000000     0.000000000  0.118103597  0.000000000
     0.000000000  0.000000000 21.350356973     0.000000000  0.000000000  0.046837624

  length of vectors
     8.467142631  8.467142631 21.350356973     0.118103597  0.118103597  0.046837624

  position of ions in fractional coordinates (direct lattice)
     0.494523686  0.517814064  0.769494881
     0.471210307  0.595159257  0.812311958
     0.446606029  0.676655478  0.857034181
     0.250000000  0.000000000  0.351282183
     0.500000000  0.250000000  0.351282183
     0.250000000  0.250000000  0.450427394
     0.500000000  0.000000000  0.450427394
     0.250059666  0.000062687  0.550067214
     0.500019149  0.250348925  0.550259409
     0.250055256  0.249843302  0.648308816
     0.500009437  0.000226404  0.648234394
     0.250000000  0.500000000  0.351282183
     0.500000000  0.750000000  0.351282183
     0.250000000  0.750000000  0.450427394
     0.500000000  0.500000000  0.450427394
     0.250466392  0.499847616  0.550249011
     0.500028851  0.749459032  0.550257739
     0.249714965  0.750081040  0.648008567
     0.500207128  0.499200776  0.650429793
     0.750000000  0.000000000  0.351282183
     0.000000000  0.250000000  0.351282183
     0.750000000  0.250000000  0.450427394
     0.000000000  0.000000000  0.450427394
     0.749928682  0.000026807  0.550079500
     0.999983031  0.250018417  0.550089079
     0.749954520  0.249891022  0.648322186
     0.999971123  0.000010671  0.648446490
     0.750000000  0.500000000  0.351282183
     0.000000000  0.750000000  0.351282183
     0.750000000  0.750000000  0.450427394
     0.000000000  0.500000000  0.450427394
     0.749556806  0.499858761  0.550251209
     0.999947268  0.749884355  0.550054262
     0.750198696  0.749941549  0.648149440
     0.999907868  0.499835900  0.648234899
     0.250000000  0.000000000  0.450427394
     0.500000000  0.250000000  0.450427394
     0.250000000  0.250000000  0.351282183
     0.500000000  0.000000000  0.351282183
     0.249823815  0.999845244  0.650804716
     0.499989005  0.249055431  0.650379242
     0.249844226  0.249867789  0.549794388
     0.499980654  0.999730104  0.549727501
     0.250000000  0.500000000  0.450427394
     0.500000000  0.750000000  0.450427394
     0.250000000  0.750000000  0.351282183
     0.500000000  0.500000000  0.351282183
     0.249246456  0.500052603  0.650766498
     0.499922968  0.750682062  0.651054315
     0.249951742  0.750039314  0.549776506
     0.499959732  0.500082167  0.550143809
     0.750000000  0.000000000  0.450427394
     0.000000000  0.250000000  0.450427394
     0.750000000  0.250000000  0.351282183
     0.000000000  0.000000000  0.351282183
     0.750158039  0.999833772  0.650820499
     0.000020973  0.249773370  0.650815655
     0.750157700  0.249820529  0.549784275
     0.000007678  0.999898748  0.549780711
     0.750000000  0.500000000  0.450427394
     0.000000000  0.750000000  0.450427394
     0.750000000  0.750000000  0.351282183
     0.000000000  0.500000000  0.351282183
     0.750786376  0.499993749  0.650568910
     0.000011981  0.750074802  0.650814648
     0.750028767  0.750066711  0.549793921
     0.000063540  0.500008691  0.549727432

  ion indices of the primitive-cell ions
   primitive index   ion index
                 1           1
                 2           2
                 3           3
                 4           4
                 5           5
                 6           6
                 7           7
                 8           8
                 9           9
                10          10
                11          11
                12          12
                13          13
                14          14
                15          15
                16          16
                17          17
                18          18
                19          19
                20          20
                21          21
                22          22
                23          23
                24          24
                25          25
                26          26
                27          27
                28          28
                29          29
[...]
    total drift:                                0.000195     -0.002438      0.019859

  FREE ENERGIE OF THE ION-ELECTRON SYSTEM (eV)
  free  energy   TOTEN  =      -397.20686643 eV

  energy  without entropy=     -397.20686643  energy(sigma->0) =     -397.20686643

 d Force =-0.3338312E-03[-0.106E-01, 0.994E-02]  d Energy =-0.1530591E-03-0.181E-03
 d Force =-0.2568457E+02[-0.258E+02,-0.256E+02]  d Ewald  =-0.2568451E+02-0.656E-04

 Finite differences progress:
  Degree of freedom:   9/  9
  Displacement:        2/  2
  Total:              18/ 18

 SECOND DERIVATIVES (NOT SYMMETRIZED)
               1X          1Y          1Z          2X          2Y          2Z          3X          3Y          3Z
  1X    -6.591132   11.325372   15.970890    8.894645  -10.551280  -14.758838   -2.500670   -0.808150   -1.131056
  1Y    11.324570  -40.719077  -52.988617  -10.559072   40.684719   49.015297   -0.805524   -0.072520    3.713784
  1Z    15.983869  -53.018333  -77.962069  -14.988964   49.744478   75.361624   -1.030656    3.398903    1.919000
  2X     8.881133  -10.548852  -14.967073  -16.683155   17.450307   24.424962    7.640005   -6.823885   -9.480648
  2Y   -10.560660   40.668957   49.720041   17.450921  -69.242472  -81.027919   -6.826102   28.194775   31.423266
  2Z   -14.775783   49.044219   75.354818   24.441866  -81.074541 -125.084266   -9.581291   31.758683   49.612457
  3X    -2.502011   -0.803861   -1.028036    7.651903   -6.816879   -9.574112   -5.042491    7.607395   10.573235
  3Y    -0.805004   -0.075855    3.393638   -6.822304   28.182442   31.726856    7.613204  -27.938810  -35.035628
  3Z    -1.128372    3.714583    1.920832   -9.488986   31.436168   49.615688   10.588416  -35.063304  -51.346098

 Eigenvectors and eigenvalues of the dynamical matrix

   1 f  =   70.629258 THz   443.776715 2PiTHz 2355.938448 cm-1   292.099008 meV
             X         Y         Z           dx          dy          dz
      4.187203  4.384406 16.428990     0.092518   -0.306925   -0.435306
      3.989805  5.039298 17.343150    -0.138726    0.460061    0.644985
      3.781477  5.729338 18.297986     0.042804   -0.141853   -0.197192
      2.116786  0.000000  7.500000            0           0           0
      4.233571  2.116786  7.500000            0           0           0
      2.116786  2.116786  9.616786            0           0           0
      4.233571  0.000000  9.616786            0           0           0
      2.117291  0.000531 11.744131            0           0           0
      4.233733  2.119740 11.748235            0           0           0
      2.117254  2.115459 13.841625            0           0           0
      4.233651  0.001917 13.840036            0           0           0
      2.116786  4.233571  7.500000            0           0           0
      4.233571  6.350357  7.500000            0           0           0
      2.116786  6.350357  9.616786            0           0           0
      4.233571  4.233571  9.616786            0           0           0
      2.120735  4.232281 11.748013            0           0           0
      4.233816  6.345777 11.748199            0           0           0
      2.114372  6.351043 13.835214            0           0           0
      4.235325  4.226804 13.886908            0           0           0
      6.350357  0.000000  7.500000            0           0           0
      0.000000  2.116786  7.500000            0           0           0
      6.350357  2.116786  9.616786            0           0           0
      0.000000  0.000000  9.616786            0           0           0
      6.349753  0.000227 11.744394            0           0           0
      8.466999  2.116942 11.744598            0           0           0
      6.349972  2.115863 13.841910            0           0           0
      8.466898  0.000090 13.844564            0           0           0
      6.350357  4.233571  7.500000            0           0           0
      0.000000  6.350357  7.500000            0           0           0
      6.350357  6.350357  9.616786            0           0           0
      0.000000  4.233571  9.616786            0           0           0
      6.346604  4.232375 11.748060            0           0           0
      8.466696  6.349378 11.743855            0           0           0
      6.352039  6.349862 13.838222            0           0           0
      8.466363  4.232182 13.840046            0           0           0
      2.116786  0.000000  9.616786            0           0           0
      4.233571  2.116786  9.616786            0           0           0
      2.116786  2.116786  7.500000            0           0           0
      4.233571  0.000000  7.500000            0           0           0
      2.115294  8.465832 13.894913            0           0           0
      4.233478  2.108788 13.885829            0           0           0
      2.115467  2.115666 11.738306            0           0           0
      4.233408  8.464857 11.736878            0           0           0
      2.116786  4.233571  9.616786            0           0           0
      4.233571  6.350357  9.616786            0           0           0
      2.116786  6.350357  7.500000            0           0           0
      4.233571  4.233571  7.500000            0           0           0
      2.110405  4.234017 13.894097            0           0           0
      4.232919  6.356132 13.900242            0           0           0
      2.116377  6.350690 11.737925            0           0           0
      4.233230  4.234267 11.745767            0           0           0
      6.350357  0.000000  9.616786            0           0           0
      0.000000  2.116786  9.616786            0           0           0
      6.350357  2.116786  7.500000            0           0           0
      0.000000  0.000000  7.500000            0           0           0
      6.351695  8.465735 13.895250            0           0           0
      0.000178  2.114867 13.895147            0           0           0
      6.351692  2.115266 11.738091            0           0           0
      0.000065  8.466285 11.738014            0           0           0
      6.350357  4.233571  9.616786            0           0           0
      0.000000  6.350357  9.616786            0           0           0
      6.350357  6.350357  7.500000            0           0           0
      0.000000  4.233571  7.500000            0           0           0
      6.357015  4.233518 13.889878            0           0           0
      0.000101  6.350990 13.895125            0           0           0
      6.350601  6.350922 11.738296            0           0           0
      0.000538  4.233645 11.736877            0           0           0

[...]

   8 f  =    0.293603 THz     1.844763 2PiTHz    9.793549 cm-1     1.214245 meV
             X         Y         Z           dx          dy          dz
      4.187203  4.384406 16.428990     0.102463    0.017402   -0.021588
      3.989805  5.039298 17.343150     0.427111   -0.075066    0.114287
      3.781477  5.729338 18.297986     0.822062   -0.185143    0.278477
      2.116786  0.000000  7.500000            0           0           0
      4.233571  2.116786  7.500000            0           0           0
      2.116786  2.116786  9.616786            0           0           0
      4.233571  0.000000  9.616786            0           0           0
      2.117291  0.000531 11.744131            0           0           0
      4.233733  2.119740 11.748235            0           0           0
      2.117254  2.115459 13.841625            0           0           0
      4.233651  0.001917 13.840036            0           0           0
      2.116786  4.233571  7.500000            0           0           0
      4.233571  6.350357  7.500000            0           0           0
      2.116786  6.350357  9.616786            0           0           0
      4.233571  4.233571  9.616786            0           0           0
      2.120735  4.232281 11.748013            0           0           0
      4.233816  6.345777 11.748199            0           0           0
      2.114372  6.351043 13.835214            0           0           0
      4.235325  4.226804 13.886908            0           0           0
      6.350357  0.000000  7.500000            0           0           0
      0.000000  2.116786  7.500000            0           0           0
      6.350357  2.116786  9.616786            0           0           0
      0.000000  0.000000  9.616786            0           0           0
      6.349753  0.000227 11.744394            0           0           0
      8.466999  2.116942 11.744598            0           0           0
      6.349972  2.115863 13.841910            0           0           0
      8.466898  0.000090 13.844564            0           0           0
      6.350357  4.233571  7.500000            0           0           0
      0.000000  6.350357  7.500000            0           0           0
      6.350357  6.350357  9.616786            0           0           0
      0.000000  4.233571  9.616786            0           0           0
      6.346604  4.232375 11.748060            0           0           0
      8.466696  6.349378 11.743855            0           0           0
      6.352039  6.349862 13.838222            0           0           0
      8.466363  4.232182 13.840046            0           0           0
      2.116786  0.000000  9.616786            0           0           0
      4.233571  2.116786  9.616786            0           0           0
      2.116786  2.116786  7.500000            0           0           0
      4.233571  0.000000  7.500000            0           0           0
      2.115294  8.465832 13.894913            0           0           0
      4.233478  2.108788 13.885829            0           0           0
      2.115467  2.115666 11.738306            0           0           0
      4.233408  8.464857 11.736878            0           0           0
      2.116786  4.233571  9.616786            0           0           0
      4.233571  6.350357  9.616786            0           0           0
      2.116786  6.350357  7.500000            0           0           0
      4.233571  4.233571  7.500000            0           0           0
      2.110405  4.234017 13.894097            0           0           0
      4.232919  6.356132 13.900242            0           0           0
      2.116377  6.350690 11.737925            0           0           0
      4.233230  4.234267 11.745767            0           0           0
      6.350357  0.000000  9.616786            0           0           0
      0.000000  2.116786  9.616786            0           0           0
      6.350357  2.116786  7.500000            0           0           0
      0.000000  0.000000  7.500000            0           0           0
      6.351695  8.465735 13.895250            0           0           0
      0.000178  2.114867 13.895147            0           0           0
      6.351692  2.115266 11.738091            0           0           0
      0.000065  8.466285 11.738014            0           0           0
      6.350357  4.233571  9.616786            0           0           0
      0.000000  6.350357  9.616786            0           0           0
      6.350357  6.350357  7.500000            0           0           0
      0.000000  4.233571  7.500000            0           0           0
      6.357015  4.233518 13.889878            0           0           0
      0.000101  6.350990 13.895125            0           0           0
      6.350601  6.350922 11.738296            0           0           0
      0.000538  4.233645 11.736877            0           0           0

   9 f/i=    0.253490 THz     1.592723 2PiTHz    8.455508 cm-1     1.048349 meV
             X         Y         Z           dx          dy          dz
      4.187203  4.384406 16.428990    -0.052009   -0.031482   -0.050576
      3.989805  5.039298 17.343150    -0.154296   -0.358875    0.160990
      3.781477  5.729338 18.297986    -0.278964   -0.752045    0.414533
      2.116786  0.000000  7.500000            0           0           0
      4.233571  2.116786  7.500000            0           0           0
      2.116786  2.116786  9.616786            0           0           0
      4.233571  0.000000  9.616786            0           0           0
      2.117291  0.000531 11.744131            0           0           0
      4.233733  2.119740 11.748235            0           0           0
      2.117254  2.115459 13.841625            0           0           0
      4.233651  0.001917 13.840036            0           0           0
      2.116786  4.233571  7.500000            0           0           0
      4.233571  6.350357  7.500000            0           0           0
      2.116786  6.350357  9.616786            0           0           0
      4.233571  4.233571  9.616786            0           0           0
      2.120735  4.232281 11.748013            0           0           0
      4.233816  6.345777 11.748199            0           0           0
      2.114372  6.351043 13.835214            0           0           0
      4.235325  4.226804 13.886908            0           0           0
      6.350357  0.000000  7.500000            0           0           0
      0.000000  2.116786  7.500000            0           0           0
      6.350357  2.116786  9.616786            0           0           0
      0.000000  0.000000  9.616786            0           0           0
      6.349753  0.000227 11.744394            0           0           0
      8.466999  2.116942 11.744598            0           0           0
      6.349972  2.115863 13.841910            0           0           0
      8.466898  0.000090 13.844564            0           0           0
      6.350357  4.233571  7.500000            0           0           0
      0.000000  6.350357  7.500000            0           0           0
      6.350357  6.350357  9.616786            0           0           0
      0.000000  4.233571  9.616786            0           0           0
      6.346604  4.232375 11.748060            0           0           0
      8.466696  6.349378 11.743855            0           0           0
      6.352039  6.349862 13.838222            0           0           0
      8.466363  4.232182 13.840046            0           0           0
      2.116786  0.000000  9.616786            0           0           0
      4.233571  2.116786  9.616786            0           0           0
      2.116786  2.116786  7.500000            0           0           0
      4.233571  0.000000  7.500000            0           0           0
      2.115294  8.465832 13.894913            0           0           0
      4.233478  2.108788 13.885829            0           0           0
      2.115467  2.115666 11.738306            0           0           0
      4.233408  8.464857 11.736878            0           0           0
      2.116786  4.233571  9.616786            0           0           0
      4.233571  6.350357  9.616786            0           0           0
      2.116786  6.350357  7.500000            0           0           0
      4.233571  4.233571  7.500000            0           0           0
      2.110405  4.234017 13.894097            0           0           0
      4.232919  6.356132 13.900242            0           0           0
      2.116377  6.350690 11.737925            0           0           0
      4.233230  4.234267 11.745767            0           0           0
      6.350357  0.000000  9.616786            0           0           0
      0.000000  2.116786  9.616786            0           0           0
      6.350357  2.116786  7.500000            0           0           0
      0.000000  0.000000  7.500000            0           0           0
      6.351695  8.465735 13.895250            0           0           0
      0.000178  2.114867 13.895147            0           0           0
      6.351692  2.115266 11.738091            0           0           0
      0.000065  8.466285 11.738014            0           0           0
      6.350357  4.233571  9.616786            0           0           0
      0.000000  6.350357  9.616786            0           0           0
      6.350357  6.350357  7.500000            0           0           0
      0.000000  4.233571  7.500000            0           0           0
      6.357015  4.233518 13.889878            0           0           0
      0.000101  6.350990 13.895125            0           0           0
      6.350601  6.350922 11.738296            0           0           0
      0.000538  4.233645 11.736877            0           0           0

 Finite differences POTIM=   1.0000000000000000E-002