 vasp.6.3.0 20Jan22 (build Apr  1 2022 16:44:48) complex
 executed on        HPECrayEX_GCC date 2023.03.02  02:26:38

 INCAR:
   SYSTEM = MgO-rocksalt
   ISMEAR = 0
   SIGMA = 0.05
   EDIFF = 1E-8
   ALGO = ALL
   ISTART = 0
   IBRION = 5
   POTIM = 0.01
   NFREE = 2
   ISYM = 0
   DIPOL = 0.5 0.5 0.5
   IDIPOL = 3
   LDIPOL = .TRUE.
   GGA = RE
   AGGAC = 0.0
   LUSE_VDW = .TRUE.
   LASPH = .TRUE.
   ENCUT = 600
   PREC = Accurate
   LASPH = .TRUE.
   LREAL = .FALSE.
   ISPIN = 1
   NELM = 200
   NELMIN = 8
   NCORE = 8
   KPAR = 1
   LWAVE = .FALSE.
   LCHARG = .FALSE.

 POTCAR:    PAW_PBE N 08Apr2002
 POTCAR:    PAW_PBE O 08Apr2002
 POTCAR:    PAW_PBE Mg_pv 13Apr2007
 POTCAR:    PAW_PBE O 08Apr2002
|               ----> ADVICE to this user running VASP <----                  |
|     You have switched on vdW-DFT.                                           |
|     This routine was written and supplied by Jiri Klimes. We recommend      |
|     that you carefully read and cite the following publications:            |
|       J. Klimes, D.R. Bowler, A. Michelides                                 |
|          J. Phys.: Cond Matt. 22 022201 (2010)                              |
|       J. Klimes, D.R. Bowler, A. Michelides                                 |
|          Phys. Rev. B. 83, 195131 (2011)                                    |
|     and references therein.                                                 |

   TITEL  = PAW_PBE N 08Apr2002
   POMASS =   14.001; ZVAL   =    5.000    mass and valenz
   ENMAX  =  400.000; ENMIN  =  300.000 eV

[...]

   TITEL  = PAW_PBE Mg_pv 13Apr2007
   POMASS =   24.305; ZVAL   =    8.000    mass and valenz
   ENMAX  =  403.929; ENMIN  =  302.947 eV

   TITEL  = PAW_PBE O 08Apr2002
   POMASS =   16.000; ZVAL   =    6.000    mass and valenz
   ENMAX  =  400.000; ENMIN  =  300.000 eV

  PAW_PBE N 08Apr2002                   :
  PAW_PBE O 08Apr2002                   :
  PAW_PBE Mg_pv 13Apr2007               :
  PAW_PBE O 08Apr2002                   :

 POSCAR:  N  O Mg  O
  positions in direct lattice
 exchange correlation table for  LEXCH =       40
   RHO(1)=    0.500       N(1)  =     2000
   RHO(2)=  100.500       N(2)  =     4000

 ion  position               nearest neighbor table
   1  0.503  0.540  0.789-   2 1.14
   2  0.458  0.663  0.800-   1 1.14   3 1.21
   3  0.409  0.792  0.811-   2 1.21
   4  0.000  0.750  0.350-  36 2.14  38 2.14  39 2.14  46 2.14  55 2.14
   5  0.250  0.000  0.350-  37 2.14  38 2.14  39 2.14  47 2.14  54 2.14
   6  0.000  0.000  0.450-  38 2.14  37 2.14  36 2.14  44 2.14  53 2.14  42 2.14
   7  0.250  0.750  0.450-  39 2.14  37 2.14  36 2.14  45 2.14  52 2.14  43 2.14
   8  1.000  0.750  0.550-  50 2.14  59 2.14  42 2.14  43 2.14  36 2.14  40 2.17
   9  0.250  0.000  0.550-  51 2.13  58 2.14  42 2.14  43 2.14  37 2.15  41 2.16
  10  1.000  0.000  0.650-  42 2.13  41 2.14  48 2.14  57 2.14  40 2.14
  11  0.249  0.751  0.649-  43 2.12  41 2.13  40 2.13  49 2.14  56 2.14
  12  0.000  0.250  0.350-  44 2.14  38 2.14  46 2.14  47 2.14  63 2.14
  13  0.250  0.500  0.350-  45 2.14  39 2.14  46 2.14  47 2.14  62 2.14
  14  0.000  0.500  0.450-  46 2.14  44 2.14  45 2.14  36 2.14  61 2.14  50 2.14
  15  0.250  0.250  0.450-  47 2.14  44 2.14  45 2.14  37 2.14  60 2.14  51 2.14
  16  1.000  0.250  0.550-  67 2.14  51 2.14  42 2.14  50 2.14  44 2.15  48 2.16
  17  0.250  0.500  0.550-  66 2.13  51 2.13  50 2.14  43 2.14  45 2.15  49 2.17
  18  1.000  0.500  0.650-  50 2.13  65 2.13  48 2.14  49 2.14  40 2.14
  19  0.250  0.250  0.650-  51 2.13  41 2.14  64 2.14  48 2.14  49 2.14
  20  0.500  0.750  0.350-  52 2.14  39 2.14  54 2.14  55 2.14  62 2.14
  21  0.750  0.000  0.350-  53 2.14  38 2.14  54 2.14  55 2.14  63 2.14
  22  0.500  0.000  0.450-  54 2.14  52 2.14  53 2.14  37 2.14  60 2.14  58 2.14
  23  0.750  0.750  0.450-  55 2.14  52 2.14  53 2.14  36 2.14  61 2.14  59 2.14
  24  0.500  0.750  0.551-  66 2.13  59 2.14  58 2.14  43 2.14  52 2.15  56 2.17
  25  0.750  0.000  0.550-  67 2.13  58 2.14  42 2.14  59 2.14  53 2.15  57 2.17
  26  0.500  0.000  0.650-  64 2.13  58 2.13  41 2.14  56 2.14  57 2.14
  27  0.750  0.750  0.649-  59 2.12  40 2.13  57 2.14  65 2.14  56 2.14
  28  0.500  0.250  0.350-  60 2.14  54 2.14  47 2.14  62 2.14  63 2.14
  29  0.750  0.500  0.350-  61 2.14  55 2.14  46 2.14  62 2.14  63 2.14
  30  0.500  0.500  0.450-  62 2.14  52 2.14  60 2.14  61 2.14  45 2.14  66 2.14
  31  0.750  0.250  0.450-  63 2.14  53 2.14  60 2.14  61 2.14  44 2.14  67 2.14
  32  0.500  0.250  0.551-  67 2.14  66 2.14  51 2.14  58 2.14  60 2.15  64 2.16
  33  0.750  0.500  0.550-  67 2.14  66 2.14  50 2.14  59 2.14  61 2.15  65 2.16
  34  0.500  0.499  0.650-  64 2.13  65 2.14  66 2.14  49 2.14  56 2.15
  35  0.750  0.250  0.650-  67 2.13  64 2.14  48 2.14  57 2.14  65 2.14
  36  0.000  0.750  0.450-   4 2.14   6 2.14   7 2.14  14 2.14  23 2.14   8 2.14
  37  0.250  0.000  0.450-   5 2.14   6 2.14   7 2.14  15 2.14  22 2.14   9 2.15
  38  0.000  0.000  0.350-   6 2.14   5 2.14   4 2.14  12 2.14  21 2.14
  39  0.250  0.750  0.350-   7 2.14   5 2.14   4 2.14  13 2.14  20 2.14
  40  1.000  0.750  0.651-  11 2.13  27 2.13  10 2.14  18 2.14   8 2.17
  41  0.250  0.000  0.651-  11 2.13  10 2.14  19 2.14  26 2.14   9 2.16
  42  1.000  0.000  0.550-  10 2.13   8 2.14  16 2.14  25 2.14   9 2.14   6 2.14
  43  0.250  0.750  0.550-  11 2.12  24 2.14   8 2.14  17 2.14   9 2.14   7 2.14
  44  0.000  0.250  0.450-  12 2.14   6 2.14  14 2.14  15 2.14  31 2.14  16 2.15
  45  0.250  0.500  0.450-  13 2.14   7 2.14  14 2.14  15 2.14  30 2.14  17 2.15
  46  0.000  0.500  0.350-  14 2.14  12 2.14  13 2.14   4 2.14  29 2.14
  47  0.250  0.250  0.350-  15 2.14  12 2.14  13 2.14   5 2.14  28 2.14
  48  1.000  0.250  0.652-  10 2.14  18 2.14  19 2.14  35 2.14  16 2.16
  49  0.250  0.500  0.652-  18 2.14  11 2.14  19 2.14  34 2.14  17 2.17
  50  0.000  0.500  0.550-  18 2.13   8 2.14  16 2.14  17 2.14  33 2.14  14 2.14
  51  0.250  0.250  0.550-  19 2.13  17 2.13   9 2.13  16 2.14  32 2.14  15 2.14
  52  0.500  0.750  0.450-  20 2.14   7 2.14  22 2.14  23 2.14  30 2.14  24 2.15
  53  0.750  0.000  0.450-  21 2.14   6 2.14  22 2.14  23 2.14  31 2.14  25 2.15
  54  0.500  0.000  0.350-  22 2.14  20 2.14  21 2.14   5 2.14  28 2.14
  55  0.750  0.750  0.350-  23 2.14  20 2.14  21 2.14   4 2.14  29 2.14
  56  0.500  0.750  0.652-  26 2.14  27 2.14  11 2.14  34 2.15  24 2.17
  57  0.750  1.000  0.652-  27 2.14  10 2.14  35 2.14  26 2.14  25 2.17
  58  0.500  1.000  0.550-  26 2.13  25 2.14   9 2.14  24 2.14  32 2.14  22 2.14
  59  0.750  0.750  0.550-  27 2.12   8 2.14  24 2.14  25 2.14  33 2.14  23 2.14
  60  0.500  0.250  0.450-  28 2.14  22 2.14  15 2.14  30 2.14  31 2.14  32 2.15
  61  0.750  0.500  0.450-  29 2.14  23 2.14  14 2.14  30 2.14  31 2.14  33 2.15
  62  0.500  0.500  0.350-  30 2.14  20 2.14  28 2.14  29 2.14  13 2.14
  63  0.750  0.250  0.350-  31 2.14  21 2.14  28 2.14  29 2.14  12 2.14
  64  0.500  0.250  0.651-  34 2.13  26 2.13  19 2.14  35 2.14  32 2.16
  65  0.750  0.500  0.651-  18 2.13  34 2.14  27 2.14  35 2.14  33 2.16
  66  0.500  0.500  0.550-  17 2.13  24 2.13  33 2.14  32 2.14  34 2.14  30 2.14
  67  0.750  0.250  0.550-  35 2.13  25 2.13  16 2.14  33 2.14  32 2.14  31 2.14

IMPORTANT INFORMATION: All symmetrisations will be switched off!
NOSYMM: (Re-)initialisation of all symmetry stuff for point group C_1.

                                     Primitive cell

  volume of cell :    1563.6717

  direct lattice vectors                    reciprocal lattice vectors
     8.546113626  0.000000000  0.000000000     0.117012252  0.000000000  0.000000000
     0.000000000  8.546113626  0.000000000     0.000000000  0.117012252  0.000000000
     0.000000000  0.000000000 21.409585219     0.000000000  0.000000000  0.046708051

  length of vectors
     8.546113626  8.546113626 21.409585219     0.117012252  0.117012252  0.046708051

  position of ions in fractional coordinates (direct lattice)
     0.503267929  0.539873863  0.788743300
     0.457573962  0.662619989  0.799925313
     0.408835850  0.792167960  0.810940899
     0.000000000  0.750000000  0.350310383
     0.250000000  0.000000000  0.350310383
     0.000000000  0.000000000  0.450103461
     0.250000000  0.750000000  0.450103461
     0.999908235  0.750070789  0.550260053
     0.250016923  0.000331605  0.550362379
     0.999971237  0.000232945  0.649621204
     0.249377943  0.750662215  0.649058141
     0.000000000  0.250000000  0.350310383
     0.250000000  0.500000000  0.350310383
     0.000000000  0.500000000  0.450103461
     0.250000000  0.250000000  0.450103461
     0.999955265  0.250075349  0.550422472
     0.250180560  0.499905882  0.550490506
     0.999909752  0.500064097  0.649516691
     0.249985224  0.249958015  0.649695503
     0.500000000  0.750000000  0.350310383
     0.750000000  0.000000000  0.350310383
     0.500000000  0.000000000  0.450103461
     0.750000000  0.750000000  0.450103461
     0.499999898  0.749893682  0.550518035
     0.749884821  0.000236467  0.550391165
     0.499815808  0.000245739  0.649737220
     0.750339575  0.750131907  0.649164961
     0.500000000  0.250000000  0.350310383
     0.750000000  0.500000000  0.350310383
     0.500000000  0.500000000  0.450103461
     0.750000000  0.250000000  0.450103461
     0.500007753  0.250027334  0.550519901
     0.749869320  0.499854908  0.550461301
     0.500402155  0.499079579  0.650158533
     0.749983722  0.250014727  0.649727772
     0.000000000  0.750000000  0.450103461
     0.250000000  0.000000000  0.450103461
     0.000000000  0.000000000  0.350310383
     0.250000000  0.750000000  0.350310383
     0.999940057  0.750199852  0.651399874
     0.249770307  0.000103249  0.651245912
     0.999914417  0.000046976  0.550108295
     0.249972844  0.750051360  0.550084190
     0.000000000  0.250000000  0.450103461
     0.250000000  0.500000000  0.450103461
     0.000000000  0.500000000  0.350310383
     0.250000000  0.250000000  0.350310383
     0.999987446  0.250093574  0.651511973
     0.249874506  0.500427548  0.651723206
     0.000105380  0.500125074  0.550101468
     0.249897213  0.250151319  0.550145331
     0.500000000  0.750000000  0.450103461
     0.750000000  0.000000000  0.450103461
     0.500000000  0.000000000  0.350310383
     0.750000000  0.750000000  0.350310383
     0.499939239  0.750082243  0.651858182
     0.750023051  0.999930972  0.651514594
     0.499979235  0.999860504  0.550136892
     0.749956526  0.750110301  0.550080931
     0.500000000  0.250000000  0.450103461
     0.750000000  0.500000000  0.450103461
     0.500000000  0.500000000  0.350310383
     0.750000000  0.250000000  0.350310383
     0.499981291  0.249706094  0.651236071
     0.750337487  0.500180129  0.651225934
     0.499934408  0.500098896  0.550272118
     0.750073054  0.249960028  0.550128801

  ion indices of the primitive-cell ions
   primitive index   ion index
                 1           1
                 2           2
                 3           3
                 4           4
                 5           5
                 6           6
                 7           7
                 8           8
[...]
    total drift:                                0.001152     -0.000503      0.026542

  FREE ENERGIE OF THE ION-ELECTRON SYSTEM (eV)
  free  energy   TOTEN  =      -242.80473628 eV

  energy  without entropy=     -242.80473628  energy(sigma->0) =     -242.80473628

 d Force = 0.4586809E-04[-0.999E-03, 0.109E-02]  d Energy = 0.2274933E-04 0.231E-04
 d Force =-0.2673637E+02[-0.267E+02,-0.267E+02]  d Ewald  =-0.2673661E+02 0.239E-03

 Finite differences progress:
  Degree of freedom:   9/  9
  Displacement:        2/  2
  Total:              18/ 18

 SECOND DERIVATIVES (NOT SYMMETRIZED)
               1X          1Y          1Z          2X          2Y          2Z          3X          3Y          3Z
  1X   -15.673400   34.311879    7.842085   17.263094  -31.757642   -7.152078   -1.636890   -2.627883   -0.654056
  1Y    34.350339  -95.098980  -21.065831  -31.825076   90.882355   19.434121   -2.630999    4.328492    1.619056
  1Z     7.838907  -21.033917   -7.596370   -7.246814   19.636160    9.606669   -0.607597    1.496606   -2.121296
  2X    17.255010  -31.785262   -7.245579  -29.711436   50.898020   11.275293   12.300319  -18.976827   -3.977696
  2Y   -31.810940   90.873951   19.677598   50.983819 -147.128865  -30.605719  -18.944318   55.838740   10.702440
  2Z    -7.154084   19.410688    9.604281   11.272642  -30.564005  -17.282385   -4.121765   11.107233    7.351111
  3X    -1.638676   -2.630437   -0.610312   12.317890  -18.915809   -4.128767  -10.589607   21.550480    4.688943
  3Y    -2.624977    4.328703    1.498868  -18.986715   55.835057   11.125130   21.584201  -59.999879  -12.377484
  3Z    -0.653989    1.620454   -2.121913   -3.970291   10.677659    7.363944    4.697035  -12.369831   -5.225309

 Eigenvectors and eigenvalues of the dynamical matrix

   1 f  =   67.976106 THz   427.106472 2PiTHz 2267.438837 cm-1   281.126460 meV
             X         Y         Z           dx          dy          dz
      4.300985  4.613823 16.886667     0.189503   -0.509435   -0.116442
      3.910479  5.662826 17.126069    -0.273547    0.733479    0.164288
      3.493958  6.769957 17.361908     0.077696   -0.207940   -0.043809
      0.000000  6.409585  7.500000            0           0           0
      2.136528  0.000000  7.500000            0           0           0
      0.000000  0.000000  9.636528            0           0           0
      2.136528  6.409585  9.636528            0           0           0
      8.545329  6.410190 11.780839            0           0           0
      2.136673  0.002834 11.783030            0           0           0
      8.545868  0.001991 13.908121            0           0           0
      2.131212  6.415245 13.896066            0           0           0
      0.000000  2.136528  7.500000            0           0           0
      2.136528  4.273057  7.500000            0           0           0
      0.000000  4.273057  9.636528            0           0           0
      2.136528  2.136528  9.636528            0           0           0
      8.545731  2.137172 11.784317            0           0           0
      2.138071  4.272252 11.785773            0           0           0
      8.545342  4.273605 13.905883            0           0           0
      2.136402  2.136170 13.909711            0           0           0
      4.273057  6.409585  7.500000            0           0           0
      6.409585  0.000000  7.500000            0           0           0
      4.273057  0.000000  9.636528            0           0           0
      6.409585  6.409585  9.636528            0           0           0
      4.273056  6.408677 11.786363            0           0           0
      6.408601  0.002021 11.783647            0           0           0
      4.271483  0.002100 13.910604            0           0           0
      6.412487  6.410713 13.898353            0           0           0
      4.273057  2.136528  7.500000            0           0           0
      6.409585  4.273057  7.500000            0           0           0
      4.273057  4.273057  9.636528            0           0           0
      6.409585  2.136528  9.636528            0           0           0
      4.273123  2.136762 11.786403            0           0           0
      6.408468  4.271817 11.785148            0           0           0
      4.276494  4.265191 13.919625            0           0           0
      6.409446  2.136654 13.910402            0           0           0
      0.000000  6.409585  9.636528            0           0           0
      2.136528  0.000000  9.636528            0           0           0
      0.000000  0.000000  7.500000            0           0           0
      2.136528  6.409585  7.500000            0           0           0
      8.545601  6.411293 13.946201            0           0           0
      2.134565  0.000882 13.942905            0           0           0
      8.545382  0.000401 11.777590            0           0           0
      2.136296  6.410024 11.777074            0           0           0
      0.000000  2.136528  9.636528            0           0           0
      2.136528  4.273057  9.636528            0           0           0
      0.000000  4.273057  7.500000            0           0           0
      2.136528  2.136528  7.500000            0           0           0
      8.546006  2.137328 13.948601            0           0           0
      2.135456  4.276711 13.953124            0           0           0
      0.000901  4.274126 11.777444            0           0           0
      2.135650  2.137822 11.778383            0           0           0
      4.273057  6.409585  9.636528            0           0           0
      6.409585  0.000000  9.636528            0           0           0
      4.273057  0.000000  7.500000            0           0           0
      6.409585  6.409585  7.500000            0           0           0
      4.272538  6.410288 13.956013            0           0           0
      6.409782  8.545524 13.948657            0           0           0
      4.272879  8.544921 11.778203            0           0           0
      6.409214  6.410528 11.777005            0           0           0
      4.273057  2.136528  9.636528            0           0           0
      6.409585  4.273057  9.636528            0           0           0
      4.273057  4.273057  7.500000            0           0           0
      6.409585  2.136528  7.500000            0           0           0
      4.272897  2.134017 13.942694            0           0           0
      6.412469  4.274596 13.942477            0           0           0
      4.272496  4.273902 11.781098            0           0           0
      6.410210  2.136187 11.778029            0           0           0

[...]

   8 f  =    0.584547 THz     3.672819 2PiTHz   19.498397 cm-1     2.417492 meV
             X         Y         Z           dx          dy          dz
      4.300985  4.613823 16.886667     0.023609    0.445576    0.217066
      3.910479  5.662826 17.126069    -0.085153    0.473143   -0.083475
      3.493958  6.769957 17.361908    -0.215075    0.533552   -0.429847
      0.000000  6.409585  7.500000            0           0           0
      2.136528  0.000000  7.500000            0           0           0
      0.000000  0.000000  9.636528            0           0           0
      2.136528  6.409585  9.636528            0           0           0
      8.545329  6.410190 11.780839            0           0           0
      2.136673  0.002834 11.783030            0           0           0
      8.545868  0.001991 13.908121            0           0           0
      2.131212  6.415245 13.896066            0           0           0
      0.000000  2.136528  7.500000            0           0           0
      2.136528  4.273057  7.500000            0           0           0
      0.000000  4.273057  9.636528            0           0           0
      2.136528  2.136528  9.636528            0           0           0
      8.545731  2.137172 11.784317            0           0           0
      2.138071  4.272252 11.785773            0           0           0
      8.545342  4.273605 13.905883            0           0           0
      2.136402  2.136170 13.909711            0           0           0
      4.273057  6.409585  7.500000            0           0           0
      6.409585  0.000000  7.500000            0           0           0
      4.273057  0.000000  9.636528            0           0           0
      6.409585  6.409585  9.636528            0           0           0
      4.273056  6.408677 11.786363            0           0           0
      6.408601  0.002021 11.783647            0           0           0
      4.271483  0.002100 13.910604            0           0           0
      6.412487  6.410713 13.898353            0           0           0
      4.273057  2.136528  7.500000            0           0           0
      6.409585  4.273057  7.500000            0           0           0
      4.273057  4.273057  9.636528            0           0           0
      6.409585  2.136528  9.636528            0           0           0
      4.273123  2.136762 11.786403            0           0           0
      6.408468  4.271817 11.785148            0           0           0
      4.276494  4.265191 13.919625            0           0           0
      6.409446  2.136654 13.910402            0           0           0
      0.000000  6.409585  9.636528            0           0           0
      2.136528  0.000000  9.636528            0           0           0
      0.000000  0.000000  7.500000            0           0           0
      2.136528  6.409585  7.500000            0           0           0
      8.545601  6.411293 13.946201            0           0           0
      2.134565  0.000882 13.942905            0           0           0
      8.545382  0.000401 11.777590            0           0           0
      2.136296  6.410024 11.777074            0           0           0
      0.000000  2.136528  9.636528            0           0           0
      2.136528  4.273057  9.636528            0           0           0
      0.000000  4.273057  7.500000            0           0           0
      2.136528  2.136528  7.500000            0           0           0
      8.546006  2.137328 13.948601            0           0           0
      2.135456  4.276711 13.953124            0           0           0
      0.000901  4.274126 11.777444            0           0           0
      2.135650  2.137822 11.778383            0           0           0
      4.273057  6.409585  9.636528            0           0           0
      6.409585  0.000000  9.636528            0           0           0
      4.273057  0.000000  7.500000            0           0           0
      6.409585  6.409585  7.500000            0           0           0
      4.272538  6.410288 13.956013            0           0           0
      6.409782  8.545524 13.948657            0           0           0
      4.272879  8.544921 11.778203            0           0           0
      6.409214  6.410528 11.777005            0           0           0
      4.273057  2.136528  9.636528            0           0           0
      6.409585  4.273057  9.636528            0           0           0
      4.273057  4.273057  7.500000            0           0           0
      6.409585  2.136528  7.500000            0           0           0
      4.272897  2.134017 13.942694            0           0           0
      6.412469  4.274596 13.942477            0           0           0
      4.272496  4.273902 11.781098            0           0           0
      6.410210  2.136187 11.778029            0           0           0

   9 f/i=    0.835920 THz     5.252238 2PiTHz   27.883280 cm-1     3.457085 meV
             X         Y         Z           dx          dy          dz
      4.300985  4.613823 16.886667    -0.033279    0.069929   -0.053549
      3.910479  5.662826 17.126069     0.355865    0.190274    0.054078
      3.493958  6.769957 17.361908     0.821058    0.341792    0.185494
      0.000000  6.409585  7.500000            0           0           0
      2.136528  0.000000  7.500000            0           0           0
      0.000000  0.000000  9.636528            0           0           0
      2.136528  6.409585  9.636528            0           0           0
      8.545329  6.410190 11.780839            0           0           0
      2.136673  0.002834 11.783030            0           0           0
      8.545868  0.001991 13.908121            0           0           0
      2.131212  6.415245 13.896066            0           0           0
      0.000000  2.136528  7.500000            0           0           0
      2.136528  4.273057  7.500000            0           0           0
      0.000000  4.273057  9.636528            0           0           0
      2.136528  2.136528  9.636528            0           0           0
      8.545731  2.137172 11.784317            0           0           0
      2.138071  4.272252 11.785773            0           0           0
      8.545342  4.273605 13.905883            0           0           0
      2.136402  2.136170 13.909711            0           0           0
      4.273057  6.409585  7.500000            0           0           0
      6.409585  0.000000  7.500000            0           0           0
      4.273057  0.000000  9.636528            0           0           0
      6.409585  6.409585  9.636528            0           0           0
      4.273056  6.408677 11.786363            0           0           0
      6.408601  0.002021 11.783647            0           0           0
      4.271483  0.002100 13.910604            0           0           0
      6.412487  6.410713 13.898353            0           0           0
      4.273057  2.136528  7.500000            0           0           0
      6.409585  4.273057  7.500000            0           0           0
      4.273057  4.273057  9.636528            0           0           0
      6.409585  2.136528  9.636528            0           0           0
      4.273123  2.136762 11.786403            0           0           0
      6.408468  4.271817 11.785148            0           0           0
      4.276494  4.265191 13.919625            0           0           0
      6.409446  2.136654 13.910402            0           0           0
      0.000000  6.409585  9.636528            0           0           0
      2.136528  0.000000  9.636528            0           0           0
      0.000000  0.000000  7.500000            0           0           0
      2.136528  6.409585  7.500000            0           0           0
      8.545601  6.411293 13.946201            0           0           0
      2.134565  0.000882 13.942905            0           0           0
      8.545382  0.000401 11.777590            0           0           0
      2.136296  6.410024 11.777074            0           0           0
      0.000000  2.136528  9.636528            0           0           0
      2.136528  4.273057  9.636528            0           0           0
      0.000000  4.273057  7.500000            0           0           0
      2.136528  2.136528  7.500000            0           0           0
      8.546006  2.137328 13.948601            0           0           0
      2.135456  4.276711 13.953124            0           0           0
      0.000901  4.274126 11.777444            0           0           0
      2.135650  2.137822 11.778383            0           0           0
      4.273057  6.409585  9.636528            0           0           0
      6.409585  0.000000  9.636528            0           0           0
      4.273057  0.000000  7.500000            0           0           0
      6.409585  6.409585  7.500000            0           0           0
      4.272538  6.410288 13.956013            0           0           0
      6.409782  8.545524 13.948657            0           0           0
      4.272879  8.544921 11.778203            0           0           0
      6.409214  6.410528 11.777005            0           0           0
      4.273057  2.136528  9.636528            0           0           0
      6.409585  4.273057  9.636528            0           0           0
      4.273057  4.273057  7.500000            0           0           0
      6.409585  2.136528  7.500000            0           0           0
      4.272897  2.134017 13.942694            0           0           0
      6.412469  4.274596 13.942477            0           0           0
      4.272496  4.273902 11.781098            0           0           0
      6.410210  2.136187 11.778029            0           0           0

 Finite differences POTIM=   1.0000000000000000E-002