 vasp.6.3.0 20Jan22 (build Apr  1 2022 16:44:48) complex
 executed on        HPECrayEX_GCC date 2022.10.08  14:40:17

 INCAR:
   SYSTEM = MgO-rocksalt
   ISMEAR = 0
   SIGMA = 0.05
   EDIFF = 1E-7
   ALGO = ALL
   ISTART = 0
   IBRION = 2
   NSW = 1000
   ISYM = 0
   ISIF = 2
   EDIFFG = -0.01
   DIPOL = 0.5 0.5 0.5
   IDIPOL = 3
   LDIPOL = .TRUE.
   GGA = PE
   IVDW = 1
   VDW_C6 = 1.75 0.14 0.63 0.70
   VDW_R0 = 1.452 1.001 1.243 1.342
   ENCUT = 600
   PREC = Accurate
   LASPH = .TRUE.
   LREAL = .FALSE.
   ISPIN = 1
   NELM = 200
   NELMIN = 8
   NCORE = 8
   KPAR = 1
   LWAVE = .FALSE.
   LCHARG = .FALSE.

 POTCAR:    PAW_PBE C 08Apr2002
 POTCAR:    PAW_PBE H 15Jun2001
 POTCAR:    PAW_PBE Mg_pv 13Apr2007
 POTCAR:    PAW_PBE O 08Apr2002
 POTCAR:    PAW_PBE C 08Apr2002
   VRHFIN =C: s2p2

   TITEL  = PAW_PBE C 08Apr2002
   POMASS =   12.011; ZVAL   =    4.000    mass and valenz
   ENMAX  =  400.000; ENMIN  =  300.000 eV

   TITEL  = PAW_PBE H 15Jun2001
   POMASS =    1.000; ZVAL   =    1.000    mass and valenz
   ENMAX  =  250.000; ENMIN  =  200.000 eV

   TITEL  = PAW_PBE Mg_pv 13Apr2007
   POMASS =   24.305; ZVAL   =    8.000    mass and valenz
   ENMAX  =  403.929; ENMIN  =  302.947 eV

   TITEL  = PAW_PBE O 08Apr2002
   POMASS =   16.000; ZVAL   =    6.000    mass and valenz
   ENMAX  =  400.000; ENMIN  =  300.000 eV

  PAW_PBE C 08Apr2002                   :
  PAW_PBE H 15Jun2001                   :
  PAW_PBE Mg_pv 13Apr2007               :
  PAW_PBE O 08Apr2002                   :

 POSCAR:  C  H Mg  O
  positions in direct lattice
 exchange correlation table for  LEXCH =        8
   RHO(1)=    0.500       N(1)  =     2000
   RHO(2)=  100.500       N(2)  =     4000

 ion  position               nearest neighbor table
   1  0.500  0.500  0.790-   5 1.10   2 1.10   3 1.10   4 1.10
   2  0.500  0.606  0.820-   1 1.10
   3  0.500  0.394  0.820-   1 1.10
   4  0.606  0.500  0.760-   1 1.10
   5  0.394  0.500  0.760-   1 1.10
   6  0.250  0.000  0.351-  38 2.12  40 2.12  41 2.12  48 2.12  57 2.12
   7  0.500  0.250  0.351-  39 2.12  40 2.12  41 2.12  49 2.12  56 2.12
   8  0.250  0.250  0.450-  40 2.12  39 2.12  38 2.12  46 2.12  55 2.12  44 2.12
   9  0.500  0.000  0.450-  41 2.12  39 2.12  38 2.12  47 2.12  54 2.12  45 2.12
  10  0.250  0.000  0.550-  44 2.12  45 2.12  52 2.12  61 2.12  38 2.13  42 2.15
  11  0.500  0.250  0.550-  44 2.12  45 2.12  53 2.12  60 2.12  39 2.13  43 2.15
  12  0.250  0.250  0.649-  44 2.11  43 2.12  42 2.12  50 2.12  59 2.12
  13  0.500  0.000  0.649-  45 2.11  43 2.12  42 2.12  51 2.12  58 2.12
  14  0.250  0.500  0.351-  46 2.12  40 2.12  48 2.12  49 2.12  65 2.12
  15  0.500  0.750  0.351-  47 2.12  41 2.12  48 2.12  49 2.12  64 2.12
  16  0.250  0.750  0.450-  48 2.12  46 2.12  47 2.12  38 2.12  63 2.12  52 2.12
  17  0.500  0.500  0.450-  49 2.12  46 2.12  47 2.12  39 2.12  62 2.12  53 2.12
  18  0.250  0.500  0.550-  44 2.12  52 2.12  53 2.12  69 2.12  46 2.13  50 2.15
  19  0.500  0.750  0.550-  45 2.12  52 2.12  53 2.12  68 2.12  47 2.13  51 2.15
  20  0.250  0.750  0.649-  52 2.11  50 2.12  51 2.12  42 2.12  67 2.12
  21  0.500  0.500  0.649-  53 2.11  50 2.12  51 2.12  43 2.12  66 2.12
  22  0.750  0.000  0.351-  54 2.12  41 2.12  56 2.12  57 2.12  64 2.12
  23  0.000  0.250  0.351-  55 2.12  40 2.12  56 2.12  57 2.12  65 2.12
  24  0.750  0.250  0.450-  56 2.12  54 2.12  55 2.12  39 2.12  62 2.12  60 2.12
  25  0.000  0.000  0.450-  57 2.12  54 2.12  55 2.12  38 2.12  63 2.12  61 2.12
  26  0.750  0.000  0.550-  45 2.12  60 2.12  61 2.12  68 2.12  54 2.13  58 2.15
  27  0.000  0.250  0.550-  44 2.12  60 2.12  61 2.12  69 2.12  55 2.13  59 2.15
  28  0.750  0.250  0.649-  60 2.11  58 2.12  59 2.12  43 2.12  66 2.12
  29  0.000  0.000  0.649-  61 2.11  58 2.12  59 2.12  42 2.12  67 2.12
  30  0.750  0.500  0.351-  62 2.12  56 2.12  49 2.12  64 2.12  65 2.12
  31  0.000  0.750  0.351-  63 2.12  57 2.12  48 2.12  64 2.12  65 2.12
  32  0.750  0.750  0.450-  64 2.12  54 2.12  62 2.12  63 2.12  47 2.12  68 2.12
  33  0.000  0.500  0.450-  65 2.12  55 2.12  62 2.12  63 2.12  46 2.12  69 2.12
  34  0.750  0.500  0.550-  53 2.12  60 2.12  68 2.12  69 2.12  62 2.13  66 2.15
  35  0.000  0.750  0.550-  52 2.12  61 2.12  68 2.12  69 2.12  63 2.13  67 2.15
  36  0.750  0.750  0.649-  68 2.11  58 2.12  66 2.12  67 2.12  51 2.12
  37  0.000  0.500  0.649-  69 2.11  59 2.12  66 2.12  67 2.12  50 2.12
  38  0.250  0.000  0.450-   6 2.12   8 2.12   9 2.12  16 2.12  25 2.12  10 2.13
  39  0.500  0.250  0.450-   7 2.12   8 2.12   9 2.12  17 2.12  24 2.12  11 2.13
  40  0.250  0.250  0.351-   8 2.12   7 2.12   6 2.12  14 2.12  23 2.12
  41  0.500  0.000  0.351-   9 2.12   7 2.12   6 2.12  15 2.12  22 2.12
  42  0.250  0.000  0.651-  12 2.12  13 2.12  20 2.12  29 2.12  10 2.15
  43  0.500  0.250  0.651-  12 2.12  13 2.12  21 2.12  28 2.12  11 2.15
  44  0.250  0.250  0.550-  12 2.11  11 2.12  10 2.12  18 2.12  27 2.12   8 2.12
  45  0.500  0.000  0.550-  13 2.11  11 2.12  10 2.12  19 2.12  26 2.12   9 2.12
  46  0.250  0.500  0.450-  14 2.12   8 2.12  16 2.12  17 2.12  33 2.12  18 2.13
  47  0.500  0.750  0.450-  15 2.12   9 2.12  16 2.12  17 2.12  32 2.12  19 2.13
  48  0.250  0.750  0.351-  16 2.12  14 2.12  15 2.12   6 2.12  31 2.12
  49  0.500  0.500  0.351-  17 2.12  14 2.12  15 2.12   7 2.12  30 2.12
  50  0.250  0.500  0.651-  12 2.12  20 2.12  21 2.12  37 2.12  18 2.15
  51  0.500  0.750  0.651-  13 2.12  20 2.12  21 2.12  36 2.12  19 2.15
  52  0.250  0.750  0.550-  20 2.11  18 2.12  19 2.12  10 2.12  35 2.12  16 2.12
  53  0.500  0.500  0.550-  21 2.11  18 2.12  19 2.12  11 2.12  34 2.12  17 2.12
  54  0.750  0.000  0.450-  22 2.12   9 2.12  24 2.12  25 2.12  32 2.12  26 2.13
  55  0.000  0.250  0.450-  23 2.12   8 2.12  24 2.12  25 2.12  33 2.12  27 2.13
  56  0.750  0.250  0.351-  24 2.12  22 2.12  23 2.12   7 2.12  30 2.12
  57  0.000  0.000  0.351-  25 2.12  22 2.12  23 2.12   6 2.12  31 2.12
  58  0.750  0.000  0.651-  13 2.12  28 2.12  29 2.12  36 2.12  26 2.15
  59  0.000  0.250  0.651-  12 2.12  28 2.12  29 2.12  37 2.12  27 2.15
  60  0.750  0.250  0.550-  28 2.11  26 2.12  27 2.12  11 2.12  34 2.12  24 2.12
  61  0.000  0.000  0.550-  29 2.11  26 2.12  27 2.12  10 2.12  35 2.12  25 2.12
  62  0.750  0.500  0.450-  30 2.12  24 2.12  17 2.12  32 2.12  33 2.12  34 2.13
  63  0.000  0.750  0.450-  31 2.12  25 2.12  16 2.12  32 2.12  33 2.12  35 2.13
  64  0.750  0.750  0.351-  32 2.12  22 2.12  30 2.12  31 2.12  15 2.12
  65  0.000  0.500  0.351-  33 2.12  23 2.12  30 2.12  31 2.12  14 2.12
  66  0.750  0.500  0.651-  21 2.12  28 2.12  36 2.12  37 2.12  34 2.15
  67  0.000  0.750  0.651-  20 2.12  29 2.12  36 2.12  37 2.12  35 2.15
  68  0.750  0.750  0.550-  36 2.11  26 2.12  34 2.12  35 2.12  19 2.12  32 2.12
  69  0.000  0.500  0.550-  37 2.11  27 2.12  34 2.12  35 2.12  18 2.12  33 2.12

IMPORTANT INFORMATION: All symmetrisations will be switched off!
NOSYMM: (Re-)initialisation of all symmetry stuff for point group C_1.

                                     Primitive cell

  volume of cell :    1530.6606

  direct lattice vectors                    reciprocal lattice vectors
     8.467142631  0.000000000  0.000000000     0.118103597  0.000000000  0.000000000
     0.000000000  8.467142631  0.000000000     0.000000000  0.118103597  0.000000000
     0.000000000  0.000000000 21.350356973     0.000000000  0.000000000  0.046837624

  length of vectors
     8.467142631  8.467142631 21.350356973     0.118103597  0.118103597  0.046837624

  position of ions in fractional coordinates (direct lattice)
     0.500000000  0.500000000  0.789981712
     0.500000003  0.605813049  0.819654337
     0.500000003  0.394186950  0.819654337
     0.605813053  0.500000000  0.760309086
     0.394186953  0.499999999  0.760309086
     0.250000000  0.000000000  0.351282183
     0.500000000  0.250000000  0.351282183
     0.250000000  0.250000000  0.450427394
     0.500000000  0.000000000  0.450427394
     0.250000000  0.000000000  0.550191116
     0.500000000  0.250000000  0.550191116
     0.250000000  0.250000000  0.648532086
     0.500000000  0.000000000  0.648532086
     0.250000000  0.500000000  0.351282183
     0.500000000  0.750000000  0.351282183
     0.250000000  0.750000000  0.450427394
     0.500000000  0.500000000  0.450427394
     0.250000000  0.500000000  0.550191116
     0.500000000  0.750000000  0.550191116
     0.250000000  0.750000000  0.648532086
     0.500000000  0.500000000  0.648532086
     0.750000000  0.000000000  0.351282183
     0.000000000  0.250000000  0.351282183
     0.750000000  0.250000000  0.450427394
     0.000000000  0.000000000  0.450427394
     0.750000000  0.000000000  0.550191116
     0.000000000  0.250000000  0.550191116
     0.750000000  0.250000000  0.648532086
     0.000000000  0.000000000  0.648532086
     0.750000000  0.500000000  0.351282183
     0.000000000  0.750000000  0.351282183
     0.750000000  0.750000000  0.450427394
     0.000000000  0.500000000  0.450427394
     0.750000000  0.500000000  0.550191116
     0.000000000  0.750000000  0.550191116
     0.750000000  0.750000000  0.648532086
     0.000000000  0.500000000  0.648532086
     0.250000000  0.000000000  0.450427394
     0.500000000  0.250000000  0.450427394
     0.250000000  0.250000000  0.351282183
     0.500000000  0.000000000  0.351282183
     0.250000000  0.000000000  0.650785562
     0.500000000  0.250000000  0.650785562
     0.250000000  0.250000000  0.549814593
     0.500000000  0.000000000  0.549814593
     0.250000000  0.500000000  0.450427394
     0.500000000  0.750000000  0.450427394
     0.250000000  0.750000000  0.351282183
     0.500000000  0.500000000  0.351282183
     0.250000000  0.500000000  0.650785562
     0.500000000  0.750000000  0.650785562
     0.250000000  0.750000000  0.549814593
     0.500000000  0.500000000  0.549814593
     0.750000000  0.000000000  0.450427394
     0.000000000  0.250000000  0.450427394
     0.750000000  0.250000000  0.351282183
     0.000000000  0.000000000  0.351282183
     0.750000000  0.000000000  0.650785562
     0.000000000  0.250000000  0.650785562
     0.750000000  0.250000000  0.549814593
     0.000000000  0.000000000  0.549814593
     0.750000000  0.500000000  0.450427394
     0.000000000  0.750000000  0.450427394
     0.750000000  0.750000000  0.351282183
     0.000000000  0.500000000  0.351282183
     0.750000000  0.500000000  0.650785562
     0.000000000  0.750000000  0.650785562
     0.750000000  0.750000000  0.549814593
     0.000000000  0.500000000  0.549814593

  ion indices of the primitive-cell ions
   primitive index   ion index
                 1           1
                 2           2
                 3           3
                 4           4
                 5           5
                 6           6
                 7           7
                 8           8
                 9           9
                10          10
                11          11
                12          12
                13          13
                14          14
                15          15
                16          16
                17          17
                18          18
[...]
   0.00000000  6.35035697  7.50000000
   6.35035697  6.35035697  9.61678566
   0.00000000  4.23357132  9.61678566
   6.35035697  4.23357132 11.74677673
   0.00000000  6.35035697 11.74677673
   6.35035697  6.35035697 13.84639155
   0.00000000  4.23357132 13.84639155
   2.11678566  0.00000000  9.61678566
   4.23357132  2.11678566  9.61678566
   2.11678566  2.11678566  7.50000000
   4.23357132  0.00000000  7.50000000
   2.11678566  0.00000000 13.89450407
   4.23357132  2.11678566 13.89450407
   2.11678566  2.11678566 11.73873783
   4.23357132  0.00000000 11.73873783
   2.11678566  4.23357132  9.61678566
   4.23357132  6.35035697  9.61678566
   2.11678566  6.35035697  7.50000000
   4.23357132  4.23357132  7.50000000
   2.11678566  4.23357132 13.89450407
   4.23357132  6.35035697 13.89450407
   2.11678566  6.35035697 11.73873783
   4.23357132  4.23357132 11.73873783
   6.35035697  0.00000000  9.61678566
   0.00000000  2.11678566  9.61678566
   6.35035697  2.11678566  7.50000000
   0.00000000  0.00000000  7.50000000
   6.35035697  0.00000000 13.89450407
   0.00000000  2.11678566 13.89450407
   6.35035697  2.11678566 11.73873783
   0.00000000  0.00000000 11.73873783
   6.35035697  4.23357132  9.61678566
   0.00000000  6.35035697  9.61678566
   6.35035697  6.35035697  7.50000000
   0.00000000  4.23357132  7.50000000
   6.35035697  4.23357132 13.89450407
   0.00000000  6.35035697 13.89450407
   6.35035697  6.35035697 11.73873783
   0.00000000  4.23357132 11.73873783

--------------------------------------- Iteration      FINAL  ---------------------------------------

--------------------OUTCAR has been truncated-------------------------

[...]

--------------------OUTCAR has been truncated-------------------------

  Number of pair interactions contributing to vdW energy:  833301
  Edisp (eV):   -3.71470

  FORCE on cell =-STRESS in cart. coord.  units (eV):
  Direction    XX          YY          ZZ          XY          YZ          ZX
  Alpha Z   893.60044   893.60044   893.60044
  Ewald  157744.40378157741.03711************     0.00000     0.00001    -0.00001
  Hartree167966.14119167964.26900************     0.00000     0.00001    -0.00000
  E(xc)   -2482.97256 -2482.99383 -2487.95707    -0.00000    -0.00000    -0.00000
  Local  ************************335561.11162    -0.00000    -0.00002     0.00001
  n-local -2828.41902 -2828.40930 -2848.54485     0.00000    -0.00000     0.00000
  augment  1047.99403  1047.99658  1038.98186     0.00000     0.00000     0.00000
  Kinetic  7399.36087  7399.42288  7442.16576     0.00000     0.00000     0.00000
  Fock        0.00000     0.00000     0.00000     0.00000     0.00000     0.00000
  vdW        -5.25990    -5.25676    -4.56472    -0.00000    -0.00000     0.00000
  Total     -29.37018   -29.32801    -2.61313     0.00000    -0.00000    -0.00000
  in kB     -30.74244   -30.69830    -2.73522     0.00000    -0.00000    -0.00000

 VOLUME and BASIS-vectors are now :
  energy-cutoff  :      600.00
  volume of cell :     1530.66
      direct lattice vectors                 reciprocal lattice vectors
     8.467142631  0.000000000  0.000000000     0.118103597  0.000000000  0.000000000
     0.000000000  8.467142631  0.000000000     0.000000000  0.118103597  0.000000000
     0.000000000  0.000000000 21.350356973     0.000000000  0.000000000  0.046837624

  length of vectors
     8.467142631  8.467142631 21.350356973     0.118103597  0.118103597  0.046837624

 FORCES acting on ions:
    Electron-Ion                     Ewald-Force                    Non-Local-Force
   0.238E-05 -.569E-05 -.951E+03   -.282E-05 0.769E-05 0.951E+03   -.139E-06 0.255E-05 -.112E+00
   0.970E-06 -.430E+02 -.236E+03   -.102E-05 0.474E+02 0.239E+03   0.884E-07 -.452E+01 -.314E+01
   0.798E-06 0.430E+02 -.236E+03   -.834E-06 -.474E+02 0.239E+03   0.631E-07 0.452E+01 -.314E+01
   -.432E+02 -.394E-05 -.240E+03   0.477E+02 0.412E-05 0.237E+03   -.458E+01 -.384E-06 0.300E+01
   0.432E+02 -.399E-05 -.240E+03   -.477E+02 0.423E-05 0.237E+03   0.458E+01 -.381E-06 0.300E+01
   0.143E+00 -.699E-06 0.206E+04   -.143E+00 0.706E-06 -.206E+04   0.660E-04 -.148E-07 -.703E+01
   -.427E-06 0.137E+00 0.206E+04   0.479E-06 -.136E+00 -.206E+04   -.420E-07 -.753E-03 -.703E+01
   0.575E+00 0.557E+00 0.705E+03   -.576E+00 -.556E+00 -.706E+03   0.472E-03 -.933E-03 0.500E+00
   -.279E-05 -.260E-05 0.706E+03   0.305E-05 0.277E-05 -.706E+03   -.189E-06 -.147E-06 0.461E+00
   0.256E+01 -.747E-05 -.646E+03   -.255E+01 0.869E-05 0.647E+03   -.124E-01 -.108E-05 -.255E+00
   -.720E-06 0.387E+01 -.639E+03   0.128E-05 -.385E+01 0.640E+03   -.693E-06 -.239E-01 -.441E+00
   0.154E+02 0.154E+02 -.198E+04   -.154E+02 -.155E+02 0.198E+04   -.166E-01 0.949E-01 0.611E+01
   0.108E-05 0.561E-06 -.199E+04   -.143E-05 -.964E-06 0.198E+04   0.201E-06 0.253E-06 0.609E+01
   0.147E+00 0.702E-06 0.206E+04   -.146E+00 -.714E-06 -.206E+04   -.939E-03 0.223E-07 -.703E+01
   -.540E-06 -.137E+00 0.206E+04   0.564E-06 0.136E+00 -.206E+04   -.117E-07 0.753E-03 -.703E+01
   0.575E+00 -.557E+00 0.705E+03   -.576E+00 0.556E+00 -.706E+03   0.472E-03 0.933E-03 0.500E+00
   -.304E-05 0.233E-05 0.706E+03   0.320E-05 -.252E-05 -.707E+03   -.561E-07 0.110E-06 0.522E+00
   0.402E+01 0.834E-05 -.640E+03   -.398E+01 -.969E-05 0.640E+03   -.367E-01 0.790E-06 -.264E+00
   -.330E-05 -.387E+01 -.639E+03   0.412E-05 0.385E+01 0.640E+03   -.903E-06 0.239E-01 -.441E+00
   0.154E+02 -.154E+02 -.198E+04   -.154E+02 0.155E+02 0.198E+04   -.166E-01 -.949E-01 0.611E+01
   -.322E-05 -.711E-05 -.193E+04   0.227E-05 0.685E-05 0.192E+04   0.861E-06 0.323E-06 0.584E+01
   -.143E+00 -.609E-06 0.206E+04   0.143E+00 0.629E-06 -.206E+04   -.660E-04 -.856E-08 -.703E+01
   0.451E-06 0.133E+00 0.206E+04   -.492E-06 -.133E+00 -.206E+04   0.302E-07 0.245E-03 -.703E+01
   -.575E+00 0.557E+00 0.705E+03   0.576E+00 -.556E+00 -.706E+03   -.472E-03 -.933E-03 0.500E+00
   0.292E-05 -.289E-05 0.704E+03   -.313E-05 0.295E-05 -.705E+03   0.194E-06 -.553E-07 0.507E+00
   -.256E+01 -.566E-05 -.646E+03   0.255E+01 0.675E-05 0.647E+03   0.124E-01 -.979E-06 -.255E+00
   0.191E-05 0.242E+01 -.647E+03   -.249E-05 -.242E+01 0.647E+03   0.703E-06 0.238E-03 -.262E+00
   -.154E+02 0.154E+02 -.198E+04   0.154E+02 -.155E+02 0.198E+04   0.166E-01 0.949E-01 0.611E+01
   -.474E-06 0.102E-05 -.200E+04   0.839E-06 -.111E-05 0.200E+04   -.177E-06 0.190E-06 0.607E+01
   -.147E+00 0.614E-06 0.206E+04   0.146E+00 -.628E-06 -.206E+04   0.939E-03 0.131E-07 -.703E+01
   0.530E-06 -.133E+00 0.206E+04   -.569E-06 0.133E+00 -.206E+04   0.411E-07 -.245E-03 -.703E+01
   -.575E+00 -.557E+00 0.705E+03   0.576E+00 0.556E+00 -.706E+03   -.472E-03 0.933E-03 0.500E+00
   0.331E-05 0.335E-05 0.705E+03   -.348E-05 -.344E-05 -.706E+03   0.128E-06 0.123E-08 0.482E+00
   -.402E+01 0.485E-05 -.640E+03   0.398E+01 -.594E-05 0.640E+03   0.367E-01 0.107E-05 -.264E+00
   0.341E-05 -.242E+01 -.647E+03   -.418E-05 0.242E+01 0.647E+03   0.789E-06 -.238E-03 -.262E+00
   -.154E+02 -.154E+02 -.198E+04   0.154E+02 0.155E+02 0.198E+04   0.166E-01 -.949E-01 0.611E+01
   0.239E-05 0.459E-06 -.199E+04   -.186E-05 -.143E-06 0.198E+04   -.644E-06 -.531E-06 0.606E+01
   0.455E+00 -.219E-05 0.528E+03   -.449E+00 0.214E-05 -.528E+03   -.876E-02 -.279E-07 -.854E-01
   -.467E-06 0.442E+00 0.529E+03   0.468E-06 -.453E+00 -.529E+03   0.282E-07 0.146E-01 -.104E+00
   0.108E+00 0.101E+00 0.155E+04   -.108E+00 -.101E+00 -.155E+04   -.629E-03 -.304E-03 0.349E+01
   -.409E-06 -.446E-06 0.155E+04   0.432E-06 0.490E-06 -.155E+04   -.463E-07 -.430E-07 0.349E+01
   0.623E+01 0.436E-05 -.152E+04   -.621E+01 -.430E-05 0.152E+04   -.291E-01 -.440E-07 -.515E+01
   0.233E-05 0.199E+02 -.149E+04   -.278E-05 -.198E+02 0.150E+04   0.370E-06 -.103E+00 -.519E+01
   0.240E+01 0.228E+01 -.476E+03   -.238E+01 -.228E+01 0.475E+03   -.259E-01 -.284E-02 0.387E+00
   -.372E-05 -.476E-05 -.476E+03   0.361E-05 0.483E-05 0.476E+03   0.204E-06 -.230E-06 0.342E+00
   0.483E+00 0.227E-05 0.529E+03   -.491E+00 -.233E-05 -.529E+03   0.110E-01 0.544E-07 -.917E-01
   -.111E-05 -.442E+00 0.529E+03   0.116E-05 0.453E+00 -.529E+03   -.101E-06 -.146E-01 -.104E+00
   0.108E+00 -.101E+00 0.155E+04   -.108E+00 0.101E+00 -.155E+04   -.629E-03 0.304E-03 0.349E+01
   -.388E-06 0.461E-06 0.155E+04   0.437E-06 -.485E-06 -.155E+04   -.472E-07 0.393E-07 0.349E+01
   0.205E+02 -.623E-05 -.149E+04   -.204E+02 0.629E-05 0.150E+04   -.860E-01 -.183E-06 -.507E+01
   0.170E-05 -.199E+02 -.149E+04   -.196E-05 0.198E+02 0.150E+04   0.356E-06 0.103E+00 -.519E+01
   0.240E+01 -.228E+01 -.476E+03   -.238E+01 0.228E+01 0.475E+03   -.259E-01 0.284E-02 0.387E+00
   -.487E-05 0.257E-05 -.472E+03   0.481E-05 -.247E-05 0.472E+03   0.228E-06 -.113E-06 0.169E+00
   -.455E+00 -.167E-05 0.528E+03   0.449E+00 0.164E-05 -.528E+03   0.876E-02 0.547E-08 -.854E-01
   0.721E-06 0.415E+00 0.528E+03   -.764E-06 -.411E+00 -.528E+03   0.586E-07 -.499E-02 -.949E-01
   -.108E+00 0.101E+00 0.155E+04   0.108E+00 -.101E+00 -.155E+04   0.629E-03 -.304E-03 0.349E+01
   0.412E-06 -.492E-06 0.155E+04   -.436E-06 0.515E-06 -.155E+04   0.441E-07 -.253E-07 0.349E+01
   -.623E+01 0.386E-05 -.152E+04   0.621E+01 -.402E-05 0.152E+04   0.291E-01 0.180E-06 -.515E+01
   -.206E-05 0.637E+01 -.152E+04   0.232E-05 -.635E+01 0.152E+04   -.248E-06 -.228E-01 -.515E+01
   -.240E+01 0.228E+01 -.476E+03   0.238E+01 -.228E+01 0.475E+03   0.259E-01 -.284E-02 0.387E+00
   0.437E-05 -.468E-05 -.480E+03   -.414E-05 0.466E-05 0.480E+03   -.105E-06 0.909E-08 0.358E+00
   -.483E+00 0.158E-05 0.529E+03   0.491E+00 -.155E-05 -.529E+03   -.110E-01 -.224E-07 -.917E-01
   0.116E-05 -.415E+00 0.528E+03   -.120E-05 0.411E+00 -.528E+03   0.692E-07 0.499E-02 -.949E-01
   -.108E+00 -.101E+00 0.155E+04   0.108E+00 0.101E+00 -.155E+04   0.629E-03 0.304E-03 0.349E+01
   0.406E-06 0.493E-06 0.155E+04   -.447E-06 -.526E-06 -.155E+04   0.516E-07 0.250E-07 0.349E+01
   -.205E+02 -.491E-05 -.149E+04   0.204E+02 0.516E-05 0.150E+04   0.860E-01 -.269E-06 -.507E+01
   -.432E-05 -.637E+01 -.152E+04   0.470E-05 0.635E+01 0.152E+04   -.280E-06 0.228E-01 -.515E+01
   -.240E+01 -.228E+01 -.476E+03   0.238E+01 0.228E+01 0.475E+03   0.259E-01 0.284E-02 0.387E+00
   0.647E-05 0.726E-05 -.476E+03   -.658E-05 -.751E-05 0.476E+03   0.681E-07 0.126E-06 0.400E+00
   -.593E-07 -.388E-05 0.177E+02   -.341E-12 0.426E-13 -.620E-11   0.207E-05 0.298E-05 -.177E+02

 POSITION                                       TOTAL-FORCE (eV/Angst)
      4.23357      4.23357     16.86603        -0.000001      0.000005     -0.000394
      4.23357      5.13315     17.49432         0.000000     -0.000371      0.006849
      4.23357      3.33399     17.49432        -0.000000      0.000367      0.006851
      5.14119      4.23357     16.24204        -0.009180     -0.000000      0.002990
      3.32596      4.23357     16.24204         0.009180     -0.000000      0.002990
      2.11679      0.00000      7.50000         0.000017      0.000000      0.393335
      4.23357      2.11679      7.50000        -0.000000      0.000191      0.393810
      2.11679      2.11679      9.61679         0.000334      0.000490      0.021775
      4.23357      0.00000      9.61679         0.000000      0.000000      0.025781
      2.11699      0.00000     11.74588         0.002294      0.000000     -0.003730
      4.23357      2.11779     11.74745        -0.000000     -0.000346      0.002284
      2.11706      2.11484     13.84338         0.003895     -0.001896     -0.002186
      4.23357     -0.00000     13.84389        -0.000000     -0.000000     -0.005181
      2.11679      4.23357      7.50000         0.000265      0.000000      0.393294
      4.23357      6.35036      7.50000        -0.000000     -0.000191      0.393810
      2.11679      6.35036      9.61679         0.000334     -0.000490      0.021775
      4.23357      4.23357      9.61679         0.000000     -0.000000      0.028213
      2.11801      4.23357     11.74691         0.001929     -0.000001      0.001301
      4.23357      6.34935     11.74745        -0.000000      0.000346      0.002284
      2.11706      6.35231     13.84338         0.003895      0.001896     -0.002187
      4.23357      4.23357     13.86118        -0.000000      0.000000      0.008632
      6.35036      0.00000      7.50000        -0.000017      0.000000      0.393335
      0.00000      2.11679      7.50000        -0.000000     -0.000061      0.393550
      6.35036      2.11679      9.61679        -0.000334      0.000490      0.021775
      0.00000      0.00000      9.61679        -0.000000      0.000000      0.021035
      6.35015      0.00000     11.74588        -0.002294      0.000000     -0.003730
     -0.00000      2.11681     11.74651         0.000000     -0.000095     -0.007336
      6.35008      2.11484     13.84338        -0.003894     -0.001897     -0.002187
      0.00000     -0.00000     13.84605         0.000000      0.000000     -0.001512
      6.35036      4.23357      7.50000        -0.000265      0.000000      0.393294
      0.00000      6.35036      7.50000        -0.000000      0.000061      0.393550
      6.35036      6.35036      9.61679        -0.000334     -0.000490      0.021775
      0.00000      4.23357      9.61679        -0.000000     -0.000000      0.023334
      6.34913      4.23357     11.74691        -0.001929     -0.000000      0.001301
     -0.00000      6.35033     11.74651        -0.000000      0.000095     -0.007336
      6.35008      6.35231     13.84338        -0.003894      0.001897     -0.002188
      0.00000      4.23357     13.84326        -0.000000     -0.000000      0.000571
      2.11679      0.00000      9.61679        -0.002650     -0.000000      0.057235
      4.23357      2.11679      9.61679        -0.000000      0.004045      0.059505
      2.11679      2.11679      7.50000        -0.000172     -0.000087     -0.475999
      4.23357      0.00000      7.50000        -0.000000      0.000000     -0.476199
      2.11633      0.00000     13.89515        -0.003884      0.000000     -0.002889
      4.23357      2.11380     13.88923        -0.000000      0.000962      0.001184
      2.11595      2.11665     11.73883        -0.001237      0.002240     -0.000040
      4.23357      0.00000     11.73757         0.000000     -0.000000     -0.002990
      2.11679      4.23357      9.61679         0.002855      0.000000      0.060472
      4.23357      6.35036      9.61679        -0.000000     -0.004045      0.059505
      2.11679      6.35036      7.50000        -0.000172      0.000087     -0.475999
      4.23357      4.23357      7.50000        -0.000000      0.000000     -0.476428
      2.11353      4.23357     13.89615        -0.005241     -0.000000      0.004873
      4.23357      6.35334     13.88923         0.000000     -0.000962      0.001183
      2.11595      6.35050     11.73883        -0.001237     -0.002240     -0.000041
      4.23357      4.23357     11.74188         0.000000      0.000000      0.000120
      6.35036      0.00000      9.61679         0.002650     -0.000000      0.057235
      0.00000      2.11679      9.61679        -0.000000     -0.001439      0.057240
      6.35036      2.11679      7.50000         0.000171     -0.000087     -0.475999
      0.00000      0.00000      7.50000        -0.000000      0.000000     -0.475992
      6.35081      0.00000     13.89515         0.003884      0.000000     -0.002889
     -0.00000      2.11629     13.89549        -0.000000      0.001529     -0.002895
      6.35119      2.11665     11.73883         0.001237      0.002240     -0.000041
      0.00000      0.00000     11.73923         0.000000     -0.000000      0.001467
      6.35036      4.23357      9.61679        -0.002855      0.000000      0.060472
      0.00000      6.35036      9.61679         0.000000      0.001439      0.057240
      6.35036      6.35036      7.50000         0.000171      0.000087     -0.475999
      0.00000      4.23357      7.50000        -0.000000      0.000000     -0.475861
      6.35361      4.23357     13.89615         0.005241     -0.000000      0.004872
     -0.00000      6.35085     13.89549         0.000000     -0.001529     -0.002895
      6.35119      6.35050     11.73883         0.001237     -0.002240     -0.000041
      0.00000      4.23357     11.73801        -0.000000     -0.000000      0.009068
    total drift:                                0.000002     -0.000001      0.014473

  FREE ENERGIE OF THE ION-ELECTRON SYSTEM (eV)
  free  energy   TOTEN  =      -399.83531635 eV

  energy  without entropy=     -399.83531635  energy(sigma->0) =     -399.83531635

 d Force = 0.4616417E-04[ 0.200E-05, 0.903E-04]  d Energy = 0.4795877E-04-0.179E-05
 d Force =-0.4260117E+00[-0.426E+00,-0.426E+00]  d Ewald  =-0.4260116E+00-0.470E-07

 reached required accuracy - stopping structural energy minimisation