 vasp.6.4.2 20Jul23 (build Feb 22 2024 13:53:45) complex
 executed on              LinuxNV date 2024.08.28  23:13:33
 OpenACC runtime initialized ...    4 GPUs detected

 INCAR:
   SYSTEM = Oxide-Surface
   ISMEAR = 0
   SIGMA = 0.05
   EDIFF = 1E-5
   ALGO = Normal
   IBRION = -1
   NSW = 0
   ISYM = 0
   DIPOL = 0.5 0.5 0.5
   IDIPOL = 3
   LDIPOL = .TRUE.
   ISTART = 0
   LHFCALC = .FALSE.
   GGA = PE
   HFRCUT = -1
   ENCUT = 520
   PREC = Normal
   PRECFOCK = Normal
   LASPH = .TRUE.
   LREAL = Auto
   ISPIN = 1
   NELM = 200
   NELMIN = 8
   NCORE = 1
   KPAR = 1
   LWAVE = .TRUE.
   LCHARG = .FALSE.

 POTCAR:    PAW_PBE C 08Apr2002
 POTCAR:    PAW_PBE O 08Apr2002
 POTCAR:    PAW_PBE Ti_pv 07Sep2000
 POTCAR:    PAW_PBE O 08Apr2002
 POTCAR:    PAW_PBE C 08Apr2002
   VRHFIN =C: s2p2

   TITEL  = PAW_PBE C 08Apr2002
   POMASS =   12.011; ZVAL   =    4.000    mass and valenz
   ENMAX  =  400.000; ENMIN  =  300.000 eV

[...]

   TITEL  = PAW_PBE Ti_pv 07Sep2000
   POMASS =   47.880; ZVAL   =   10.000    mass and valenz
   ENMAX  =  222.335; ENMIN  =  166.751 eV

   TITEL  = PAW_PBE O 08Apr2002
   POMASS =   16.000; ZVAL   =    6.000    mass and valenz
   ENMAX  =  400.000; ENMIN  =  300.000 eV

 Optimization of the real space projectors (new method)

 maximal supplied QI-value         = 25.13
 optimisation between [QCUT,QGAM] = [ 11.56, 23.12] = [ 37.43,149.72] Ry
 Optimized for a Real-space Cutoff    1.04 Angstroem

   l    n(q)    QCUT    max X(q) W(low)/X(q) W(high)/X(q)  e(spline)
   0      7    11.561   115.676    0.20E-03    0.60E-03    0.21E-06
   0      7    11.561    87.132    0.20E-03    0.59E-03    0.21E-06
   1      7    11.561     4.429    0.23E-03    0.35E-03    0.15E-06
   1      7    11.561     2.733    0.18E-03    0.25E-03    0.12E-06
 Optimization of the real space projectors (new method)

[...]

   l    n(q)    QCUT    max X(q) W(low)/X(q) W(high)/X(q)  e(spline)
   1     10    11.641     4.216    0.33E-04    0.72E-04    0.48E-07
   1     10    11.641     5.422    0.11E-03    0.20E-03    0.10E-06
   2      9    11.641    72.084    0.36E-03    0.27E-03    0.57E-06
   2      9    11.641    65.965    0.35E-03    0.27E-03    0.57E-06
   0     10    11.641    41.531    0.11E-03    0.93E-04    0.16E-06
   0     10    11.641    16.290    0.82E-04    0.72E-04    0.13E-06
 Optimization of the real space projectors (new method)

 maximal supplied QI-value         = 24.76
 optimisation between [QCUT,QGAM] = [ 11.64, 23.27] = [ 37.91,151.63] Ry
 Optimized for a Real-space Cutoff    1.04 Angstroem

   l    n(q)    QCUT    max X(q) W(low)/X(q) W(high)/X(q)  e(spline)
   0      7    11.635    20.381    0.14E-03    0.49E-03    0.18E-06
   0      7    11.635    15.268    0.16E-03    0.52E-03    0.19E-06
   1      7    11.635     5.964    0.30E-03    0.44E-03    0.22E-06
   1      7    11.635     5.382    0.27E-03    0.34E-03    0.19E-06
  PAW_PBE C 08Apr2002                   :
  PAW_PBE O 08Apr2002                   :
  PAW_PBE Ti_pv 07Sep2000               :
  PAW_PBE O 08Apr2002                   :

 POSCAR:  C  O Ti  O
  positions in direct lattice
 exchange correlation table for  LEXCH =        8
   RHO(1)=    0.500       N(1)  =     2000
   RHO(2)=  100.500       N(2)  =     4000

 ion  position               nearest neighbor table
   1  0.500  0.610  0.837-   2 1.18   3 1.18
   2  0.500  0.709  0.844-   1 1.18
   3  0.500  0.512  0.829-   1 1.18
   4  0.750  0.625  0.207-  85 1.95 145 1.95 144 1.95  84 1.95  87 1.98 166 1.98  14 2.96  34 2.96

   5  0.000  0.750  0.207-  87 1.95 107 1.95 106 1.95  86 1.95  88 1.98  35 2.96  15 2.96
   6  0.000  0.625  0.337-  88 1.95 148 1.95  89 1.95 149 1.95  90 1.98  91 1.98  16 2.96  36 2.96

[...]

  83  0.500  0.499  0.722- 237 1.82 243 1.94 242 1.94 183 1.96 182 1.96  73 2.95  53 2.98
  84  0.750  0.750  0.156-   4 1.95  14 1.95
  85  0.750  0.750  0.258-   4 1.95  14 1.95   7 1.98
  86  0.098  0.625  0.207-   5 1.95  35 1.95  44 1.98
  87  0.902  0.625  0.207-   5 1.95  35 1.95   4 1.98
  88  0.000  0.750  0.286-   6 1.95  16 1.95   5 1.98
  89  0.000  0.750  0.388-   6 1.95  16 1.95   9 1.98
  90  0.848  0.625  0.337-   7 1.95  37 1.95   6 1.98
  91  0.152  0.625  0.337-  47 1.95  77 1.95   6 1.98
  92  0.750  0.750  0.416-   8 1.95  18 1.95   7 1.98
  93  0.750  0.750  0.518-   8 1.95  18 1.95  11 2.11
  94  0.098  0.625  0.467-   9 1.95  39 1.95  48 1.98
  95  0.902  0.625  0.467-   9 1.95  39 1.95   8 1.98
  96  1.000  0.750  0.547-  20 1.89  10 1.89   9 2.00
  97  0.000  0.750  0.649-  13 1.81  10 2.02  20 2.02
  98  0.850  0.625  0.598-  10 1.95  11 1.97  41 1.97
  99  0.150  0.625  0.598-  10 1.95  51 1.97  81 1.97
 100  0.750  0.750  0.677-  11 1.86  12 2.10  22 2.10
 101  0.749  0.750  0.780-  12 1.83  22 1.83
 102  0.094  0.625  0.735-  43 1.95  13 1.95  52 2.03
 103  0.906  0.625  0.735-  43 1.95  13 1.95  12 2.03
 104  0.750  0.000  0.156-  14 1.95  24 1.95
 105  0.750  0.000  0.258-  14 1.95  24 1.95  17 1.98
 106  0.098  0.875  0.207-   5 1.95  15 1.95  54 1.98
 107  0.902  0.875  0.207-   5 1.95  15 1.95  14 1.98
 108  0.000  0.000  0.286-  16 1.95  26 1.95  15 1.98
 109  0.000  0.000  0.388-  16 1.95  26 1.95  19 1.98
 110  0.848  0.875  0.337-   7 1.95  17 1.95  16 1.98
 111  0.152  0.875  0.337-  47 1.95  57 1.95  16 1.98
 112  0.750  0.000  0.416-  18 1.95  28 1.95  17 1.98
 113  0.750  0.000  0.518-  18 1.95  28 1.95  21 2.11
 114  0.098  0.875  0.467-   9 1.95  19 1.95  58 1.98
 115  0.902  0.875  0.467-   9 1.95  19 1.95  18 1.98
 116  1.000  0.000  0.547-  30 1.89  20 1.89  19 2.00
 117  1.000  1.000  0.649-  23 1.81  20 2.02  30 2.02
 118  0.850  0.875  0.598-  20 1.95  11 1.97  21 1.97
 119  0.150  0.875  0.598-  20 1.95  51 1.97  61 1.97
 120  0.750  0.000  0.677-  21 1.86  32 2.10  22 2.10
 121  0.750  1.000  0.780-  22 1.83  32 1.83
 122  0.094  0.875  0.735-  13 1.95  23 1.95  62 2.03
 123  0.906  0.875  0.735-  13 1.95  23 1.95  22 2.03
 124  0.750  0.250  0.156-  24 1.95  34 1.95
 125  0.750  0.250  0.258-  24 1.95  34 1.95  27 1.98
 126  0.098  0.125  0.207-  15 1.95  25 1.95  64 1.98
 127  0.902  0.125  0.207-  15 1.95  25 1.95  24 1.98
 128  0.000  0.250  0.286-  26 1.95  36 1.95  25 1.98
 129  0.000  0.250  0.388-  26 1.95  36 1.95  29 1.98
 130  0.848  0.125  0.337-  17 1.95  27 1.95  26 1.98
 131  0.152  0.125  0.337-  57 1.95  67 1.95  26 1.98
 132  0.750  0.250  0.416-  28 1.95  38 1.95  27 1.98
 133  0.750  0.250  0.518-  28 1.95  38 1.95  31 2.11
 134  0.098  0.125  0.467-  19 1.95  29 1.95  68 1.98
 135  0.902  0.125  0.467-  19 1.95  29 1.95  28 1.98
 136  1.000  0.250  0.547-  40 1.89  30 1.89  29 2.00
 137  1.000  0.250  0.649-  33 1.81  40 2.02  30 2.02
 138  0.850  0.125  0.598-  30 1.95  21 1.97  31 1.97
 139  0.150  0.125  0.598-  30 1.95  61 1.97  71 1.97
 140  0.750  0.250  0.677-  31 1.86  32 2.10  42 2.10
 141  0.750  0.250  0.780-  42 1.83  32 1.83
 142  0.094  0.125  0.735-  33 1.95  23 1.95  72 2.03
[...]
 229  0.500  0.500  0.388-  46 1.95  76 1.95  79 1.98
 230  0.348  0.375  0.337-  67 1.95  77 1.95  76 1.98
 231  0.652  0.375  0.337-  27 1.95  37 1.95  76 1.98
 232  0.250  0.500  0.416-  48 1.95  78 1.95  77 1.98
 233  0.250  0.500  0.518-  48 1.95  78 1.95  81 2.11
 234  0.598  0.375  0.467-  69 1.95  79 1.95  38 1.98
 235  0.402  0.375  0.467-  69 1.95  79 1.95  78 1.98
 236  0.500  0.500  0.547-  80 1.89  50 1.90  79 2.00
 237  0.500  0.500  0.650-  83 1.82  50 2.01  80 2.01
 238  0.350  0.375  0.598-  80 1.95  81 1.97  71 1.97
 239  0.650  0.375  0.598-  80 1.95  41 1.97  31 1.97
 240  0.249  0.500  0.677-  81 1.86  52 2.10  82 2.10
 241  0.251  0.500  0.780-  82 1.83  52 1.84
 242  0.594  0.374  0.734-  83 1.94  73 1.94  42 2.03
 243  0.406  0.374  0.734-  83 1.94  73 1.94  82 2.03

IMPORTANT INFORMATION: All symmetrisations will be switched off!
NOSYMM: (Re-)initialisation of all symmetry stuff for point group C_1.

                                     Primitive cell

  volume of cell :    3846.0501

  direct lattice vectors                    reciprocal lattice vectors
    13.003980404  0.000000000  0.000000000     0.076899531  0.000000000  0.000000000
     0.000000000 11.830378115  0.000000000     0.000000000  0.084528152  0.000000000
     0.000000000  0.000000000 25.000000000     0.000000000  0.000000000  0.040000000

  length of vectors
    13.003980404 11.830378115 25.000000000     0.076899531  0.084528152  0.040000000

  position of ions in fractional coordinates (direct lattice)
     0.499999661  0.610175892  0.837208440
     0.499999550  0.708568373  0.843818866
     0.499999787  0.511627540  0.829412707
     0.750000001  0.625007134  0.207156502
     0.000000001  0.750007134  0.207156502
     0.000000001  0.625007134  0.337196306
     0.750000001  0.750007134  0.337196306
     0.750000001  0.625007134  0.467236110
     0.000000001  0.750007134  0.467236110
     0.999999940  0.625019735  0.594495874
     0.750021777  0.750042649  0.602519744
     0.750003066  0.625106593  0.736329117
     0.000000017  0.750055336  0.721636960
     0.750000001  0.875007134  0.207156502
     0.000000001  0.000007134  0.207156502
     0.000000001  0.875007134  0.337196306
     0.750000001  0.000007134  0.337196306
     0.750000001  0.875007134  0.467236110
     0.000000001  0.000007134  0.467236110
     0.999999992  0.875016125  0.594511900
     0.749983713  0.000020009  0.602641880
     0.749876204  0.874999101  0.736742504
     0.999999990  0.999992866  0.721655188
     0.750000001  0.125007134  0.207156502
     0.000000001  0.250007134  0.207156502
     0.000000001  0.125007134  0.337196306
     0.750000001  0.250007134  0.337196306
     0.750000001  0.125007134  0.467236110
     0.000000001  0.250007134  0.467236110
     0.000000068  0.124993619  0.594519314
     0.750020774  0.249973997  0.602637838
     0.749936142  0.125016596  0.736711702
     0.000000016  0.249975627  0.721653239
     0.750000001  0.375007134  0.207156502
     0.000000001  0.500007134  0.207156502
     0.000000001  0.375007134  0.337196306
     0.750000001  0.500007134  0.337196306
     0.750000001  0.375007134  0.467236110
     0.000000001  0.500007134  0.467236110
     0.000000085  0.375001288  0.594499775
     0.750042568  0.499984211  0.602536198
     0.750059278  0.375078128  0.736676508
     0.999999994  0.500054051  0.721623319
     0.250000001  0.625007134  0.207156502
     0.500000001  0.750007134  0.207156502
     0.500000001  0.625007134  0.337196306
     0.250000001  0.750007134  0.337196306
     0.250000001  0.625007134  0.467236110
     0.500000001  0.750007134  0.467236110
     0.499999958  0.624730247  0.594857138
     0.249978089  0.750042641  0.602519742
     0.249996935  0.625106602  0.736329106
     0.500000014  0.750565443  0.721497564
     0.250000001  0.875007134  0.207156502
     0.500000001  0.000007134  0.207156502
     0.500000001  0.875007134  0.337196306
     0.250000001  0.000007134  0.337196306
     0.250000001  0.875007134  0.467236110
     0.500000001  0.000007134  0.467236110
     0.499999961  0.874836724  0.594348348
[...]
     0.500000001  0.500007134  0.388171674
     0.347999549  0.375007134  0.337196306
     0.652000453  0.375007134  0.337196306
[...]
   0.868E-04 -.272E+03 -.153E+04   -.190E-03 0.335E+03 0.154E+04   0.793E-04 -.633E+02 -.103E+02   0.164E-04 -.601E-03 -.919E-03
   -.486E-03 0.269E+03 -.160E+04   0.579E-03 -.331E+03 0.159E+04   -.842E-04 0.620E+02 0.711E+01   -.143E-04 0.658E-03 -.563E-03
   -.252E+01 -.499E-01 0.279E+04   0.252E+01 0.512E-01 -.279E+04   -.441E-03 -.155E-02 0.436E+00   0.224E-03 -.126E-03 0.225E-02
   -.500E-04 -.675E+00 0.297E+04   -.519E-05 0.677E+00 -.297E+04   0.788E-06 -.250E-03 -.389E+01   0.585E-04 -.113E-03 0.594E-03
   0.117E-04 -.166E-01 0.144E+04   -.220E-05 0.167E-01 -.143E+04   0.508E-06 -.942E-04 -.446E-01   -.866E-05 0.415E-04 0.128E-02
   -.897E+00 -.291E+00 0.143E+04   0.896E+00 0.292E+00 -.143E+04   0.192E-03 0.958E-04 0.206E+00   -.724E-07 -.116E-03 0.462E-03
   -.219E+01 -.217E-01 0.107E+01   0.219E+01 0.209E-01 -.233E+00   0.121E-02 0.177E-02 -.138E+00   -.638E-04 0.583E-04 0.744E-03
   -.501E-04 -.748E+00 0.106E+02   0.122E-05 0.751E+00 -.117E+02   -.924E-07 -.690E-03 0.348E+00   0.509E-04 0.122E-04 0.764E-03
   -.955E-04 -.401E+00 -.138E+04   0.861E-04 0.401E+00 0.138E+04   -.105E-05 -.121E-02 0.479E-02   0.101E-04 -.527E-04 0.112E-02
   -.128E+02 -.562E+01 -.140E+04   0.128E+02 0.562E+01 0.140E+04   -.320E-02 -.345E-02 -.523E-01   -.321E-04 -.728E-04 0.122E-02
   -.854E+02 -.463E+01 -.269E+04   0.854E+02 0.464E+01 0.269E+04   0.730E-02 -.826E-03 -.147E+00   -.163E-03 0.546E-03 0.162E-02
   0.170E-03 -.755E+01 -.281E+04   -.159E-03 0.755E+01 0.281E+04   0.159E-05 -.305E-02 0.950E+00   -.123E-04 -.130E-04 0.140E-02
   -.223E+01 -.121E+01 0.279E+04   0.223E+01 0.121E+01 -.280E+04   -.179E-03 0.163E-02 0.436E+00   0.715E-04 0.164E-03 0.209E-02
   -.305E-04 -.611E+00 0.297E+04   -.432E-05 0.612E+00 -.297E+04   -.108E-05 -.413E-04 -.389E+01   0.391E-04 0.249E-03 0.491E-03
   -.151E-03 -.366E+00 0.144E+04   -.164E-05 0.366E+00 -.143E+04   -.243E-05 0.164E-03 -.446E-01   0.157E-03 0.188E-04 0.131E-02
   -.851E+00 -.281E+00 0.143E+04   0.850E+00 0.282E+00 -.143E+04   0.277E-03 0.941E-04 0.206E+00   -.668E-04 0.615E-04 0.425E-03
   -.221E+01 -.119E+01 -.138E+00   0.220E+01 0.121E+01 0.987E+00   0.887E-03 -.278E-02 -.140E+00   -.188E-04 -.938E-04 0.656E-03
   -.705E-04 -.635E+00 0.937E+01   0.255E-05 0.638E+00 -.105E+02   -.536E-06 -.370E-03 0.351E+00   0.703E-04 -.746E-04 0.749E-03
   0.539E-05 -.364E+01 -.138E+04   -.544E-04 0.364E+01 0.138E+04   -.808E-06 -.129E-02 0.426E-02   0.512E-04 0.128E-04 0.113E-02
   -.878E+01 -.404E+01 -.142E+04   0.878E+01 0.404E+01 0.142E+04   0.970E-03 -.391E-03 -.426E-01   0.724E-05 0.426E-04 0.123E-02
   -.459E+02 -.316E+02 -.273E+04   0.459E+02 0.316E+02 0.273E+04   0.163E-01 -.135E-03 -.175E+00   0.377E-04 -.481E-03 0.167E-02
   -.393E-05 -.581E+01 -.282E+04   -.410E-04 0.581E+01 0.282E+04   -.224E-05 -.768E-03 0.958E+00   0.467E-04 0.224E-03 0.151E-02
   -.195E+01 0.514E-01 0.279E+04   0.195E+01 -.519E-01 -.280E+04   -.824E-04 -.157E-02 0.437E+00   0.556E-04 -.697E-05 0.197E-02
   0.126E-03 0.672E+00 0.297E+04   -.420E-05 -.673E+00 -.297E+04   -.233E-05 0.671E-04 -.389E+01   -.124E-03 -.251E-03 0.366E-03
   -.567E-04 0.166E-01 0.144E+04   -.108E-05 -.166E-01 -.143E+04   -.533E-06 -.913E-04 -.447E-01   0.608E-04 -.841E-04 0.128E-02
   -.836E+00 0.291E+00 0.143E+04   0.835E+00 -.292E+00 -.143E+04   0.230E-03 0.486E-04 0.205E+00   -.200E-04 -.100E-04 0.383E-03
   -.202E+01 0.232E-01 -.124E+01   0.202E+01 -.243E-01 0.210E+01   0.105E-02 0.169E-02 -.141E+00   -.686E-04 0.503E-04 0.668E-03
   -.988E-04 0.746E+00 0.949E+01   -.232E-05 -.749E+00 -.106E+02   -.513E-06 0.802E-03 0.348E+00   0.105E-03 0.538E-04 0.794E-03
   0.200E-03 0.309E+00 -.138E+04   -.217E-03 -.309E+00 0.138E+04   -.457E-06 0.119E-02 0.710E-02   0.188E-04 0.105E-04 0.119E-02
   -.925E+01 0.525E+01 -.141E+04   0.926E+01 -.526E+01 0.141E+04   -.185E-02 0.169E-02 -.475E-01   -.253E-04 0.391E-04 0.135E-02
   -.244E+02 0.320E+01 -.275E+04   0.244E+02 -.320E+01 0.275E+04   0.882E-02 -.291E-02 -.174E+00   0.147E-03 0.292E-03 0.139E-02
   0.136E-03 0.663E+01 -.282E+04   -.964E-04 -.663E+01 0.282E+04   0.255E-05 0.214E-02 0.952E+00   -.443E-04 -.139E-03 0.154E-02
   -.224E+01 0.121E+01 0.279E+04   0.224E+01 -.121E+01 -.280E+04   -.309E-03 0.160E-02 0.436E+00   0.220E-03 -.399E-04 0.211E-02
   0.109E-03 0.614E+00 0.297E+04   -.506E-05 -.615E+00 -.297E+04   -.321E-05 0.142E-03 -.389E+01   -.103E-03 0.117E-03 0.526E-03
   0.126E-05 0.366E+00 0.144E+04   -.172E-05 -.366E+00 -.143E+04   -.354E-06 0.218E-03 -.446E-01   0.216E-05 0.244E-04 0.131E-02
   -.882E+00 0.281E+00 0.143E+04   0.881E+00 -.282E+00 -.143E+04   0.110E-03 0.149E-04 0.207E+00   0.216E-04 0.646E-04 0.331E-03
   -.201E+01 0.119E+01 -.493E-01   0.201E+01 -.121E+01 0.898E+00   0.102E-02 -.492E-03 -.140E+00   -.101E-03 -.138E-04 0.769E-03
   -.875E-04 0.642E+00 0.107E+02   -.459E-05 -.645E+00 -.118E+02   -.103E-05 0.374E-03 0.351E+00   0.957E-04 0.801E-05 0.834E-03
   0.329E-03 0.369E+01 -.138E+04   -.319E-03 -.369E+01 0.138E+04   -.603E-06 0.849E-03 0.479E-02   -.111E-04 0.297E-04 0.115E-02
   -.134E+02 0.438E+01 -.140E+04   0.134E+02 -.438E+01 0.140E+04   -.379E-02 0.125E-02 -.522E-01   -.656E-04 -.839E-05 0.111E-02
   -.551E+02 0.332E+02 -.272E+04   0.551E+02 -.332E+02 0.272E+04   0.109E-01 0.618E-02 -.169E+00   0.950E-04 -.363E-03 0.135E-02
   0.736E-04 0.657E+01 -.281E+04   -.936E-04 -.657E+01 0.281E+04   -.221E-05 0.312E-02 0.943E+00   0.217E-04 -.713E-04 0.136E-02
   0.252E+01 -.499E-01 0.279E+04   -.252E+01 0.512E-01 -.279E+04   0.442E-03 -.153E-02 0.436E+00   -.298E-03 -.137E-03 0.236E-02
   -.126E-03 -.114E+01 0.297E+04   0.548E-05 0.114E+01 -.296E+04   0.677E-06 -.492E-03 -.389E+01   0.121E-03 -.384E-04 0.118E-02
   -.428E-05 0.949E-02 0.144E+04   0.224E-05 -.680E-02 -.143E+04   -.428E-06 -.640E-03 -.450E-01   0.181E-05 -.585E-04 0.139E-02
   0.897E+00 -.291E+00 0.143E+04   -.896E+00 0.292E+00 -.143E+04   -.191E-03 0.951E-04 0.206E+00   -.589E-04 0.618E-04 0.565E-03
   0.219E+01 -.217E-01 0.107E+01   -.219E+01 0.209E-01 -.233E+00   -.121E-02 0.177E-02 -.138E+00   0.335E-04 0.408E-04 0.610E-03
   0.506E-04 -.786E+00 0.148E+02   0.187E-04 0.774E+00 -.158E+02   0.298E-06 0.787E-02 0.337E+00   -.717E-04 0.292E-05 0.761E-03
   -.163E-03 -.143E+01 -.135E+04   0.973E-04 0.144E+01 0.135E+04   -.770E-06 -.185E-01 0.971E-02   0.681E-04 -.201E-04 0.111E-02
   0.128E+02 -.562E+01 -.140E+04   -.128E+02 0.562E+01 0.140E+04   0.320E-02 -.345E-02 -.523E-01   -.449E-06 0.491E-04 0.119E-02
   0.854E+02 -.463E+01 -.269E+04   -.854E+02 0.464E+01 0.269E+04   -.730E-02 -.828E-03 -.147E+00   0.129E-03 -.833E-04 0.157E-02
   -.265E-03 -.685E+02 -.267E+04   0.201E-03 0.686E+02 0.267E+04   -.146E-05 -.153E-01 0.101E+01   0.642E-04 -.358E-03 0.136E-02
   0.223E+01 -.121E+01 0.279E+04   -.223E+01 0.121E+01 -.280E+04   0.186E-03 0.161E-02 0.436E+00   -.302E-03 0.112E-03 0.227E-02
   -.214E-03 -.104E+01 0.297E+04   0.447E-05 0.104E+01 -.296E+04   0.314E-05 -.142E-03 -.389E+01   0.211E-03 0.264E-03 0.999E-03
   0.476E-04 -.435E+00 0.144E+04   0.158E-05 0.437E+00 -.143E+04   0.697E-06 -.410E-03 -.450E-01   -.505E-04 0.133E-03 0.144E-02
   0.851E+00 -.281E+00 0.143E+04   -.850E+00 0.282E+00 -.143E+04   -.274E-03 0.952E-04 0.206E+00   -.518E-04 -.782E-04 0.521E-03
   0.221E+01 -.119E+01 -.138E+00   -.220E+01 0.121E+01 0.987E+00   -.889E-03 -.278E-02 -.140E+00   0.699E-04 -.133E-04 0.595E-03
   0.126E-03 -.950E+00 0.137E+02   -.123E-05 0.952E+00 -.148E+02   0.139E-05 0.513E-03 0.341E+00   -.129E-03 -.109E-04 0.733E-03
   -.182E-04 -.105E+02 -.136E+04   0.804E-04 0.105E+02 0.136E+04   -.744E-06 -.303E-02 -.264E-01   -.638E-04 0.527E-04 0.108E-02
[...]
   -.529E+02 0.254E+00 0.858E+03   0.569E+02 -.255E+00 -.858E+03   -.355E+01 0.241E-02 0.155E+00   -.420E-04 0.137E-04 0.546E-03
   0.529E+02 0.254E+00 0.858E+03   -.569E+02 -.255E+00 -.858E+03   0.355E+01 0.241E-02 0.155E+00   0.443E-04 0.864E-05 0.501E-03
   0.754E+00 0.269E+00 0.389E+03   -.752E+00 -.271E+00 -.394E+03   -.328E-02 0.478E-02 0.415E+01   0.104E-04 0.147E-04 0.551E-03
   0.235E+01 0.945E+00 -.404E+03   -.234E+01 -.946E+00 0.411E+03   -.478E-02 0.271E-02 -.715E+01   -.287E-05 0.223E-04 0.525E-03
   -.561E+02 0.678E+00 0.726E+01   0.608E+02 -.682E+00 -.751E+01   -.518E+01 0.165E-01 0.353E+00   -.251E-04 0.179E-04 0.498E-03
   0.561E+02 0.679E+00 0.726E+01   -.608E+02 -.682E+00 -.751E+01   0.518E+01 0.165E-01 0.353E+00   0.389E-04 0.605E-05 0.458E-03
   -.440E-06 0.140E+01 -.434E+03   -.404E-04 -.135E+01 0.428E+03   0.252E-05 -.438E-01 0.646E+01   0.385E-04 0.137E-04 0.672E-03
   -.103E-03 0.760E+01 -.115E+04   0.787E-04 -.749E+01 0.115E+04   -.377E-05 -.109E+00 0.236E+01   0.286E-04 0.567E-04 0.691E-03
   -.216E+02 0.527E+01 -.826E+03   0.246E+02 -.530E+01 0.825E+03   -.299E+01 0.340E-01 0.875E+00   0.482E-04 0.497E-05 0.715E-03
   0.216E+02 0.527E+01 -.826E+03   -.246E+02 -.530E+01 0.825E+03   0.299E+01 0.341E-01 0.875E+00   -.517E-04 0.134E-04 0.716E-03
   0.232E+02 0.759E+01 -.132E+04   -.232E+02 -.768E+01 0.132E+04   0.819E-01 0.823E-01 -.218E+01   0.102E-05 0.155E-06 0.737E-03
   0.691E+02 0.208E+02 -.200E+04   -.689E+02 -.208E+02 0.202E+04   -.194E+00 -.648E-03 -.207E+02   -.294E-04 -.246E-04 0.376E-03
   -.531E+02 0.484E+02 -.169E+04   0.591E+02 -.484E+02 0.169E+04   -.602E+01 0.620E-01 -.348E+01   0.829E-04 -.644E-04 0.670E-03
   0.531E+02 0.484E+02 -.169E+04   -.591E+02 -.484E+02 0.169E+04   0.602E+01 0.621E-01 -.348E+01   -.335E-04 0.889E-05 0.708E-03
   0.535E-04 0.899E+00 0.956E+02   0.261E-11 -.938E-12 0.978E-11   -.124E-03 -.881E+00 -.956E+02   0.381E-04 0.179E-03 0.186E+00

 POSITION                                       TOTAL-FORCE (eV/Angst)
      6.50199      7.21861     20.93021        -0.000006      0.035759      0.057891
      6.50198      8.38263     21.09547        -0.000007     -0.220471      0.036246
      6.50199      6.05275     20.73532        -0.000005      0.188619      0.090640
      9.75299      7.39407      5.17891         0.001267     -0.000499     -3.579844
      0.00000      8.87287      5.17891         0.000004      0.001169      2.636213
      0.00000      7.39407      8.42991         0.000002     -0.000026      0.515383
      9.75299      8.87287      8.42991        -0.000698      0.000761     -0.713422
      9.75299      7.39407     11.68090        -0.005072      0.000927      0.699802
      0.00000      8.87287     11.68090         0.000002      0.002573     -0.751617
     13.00398      7.39422     14.86240        -0.000000     -0.000816      0.066368
      9.75327      8.87329     15.06299         0.000273     -0.000269     -0.028210
      9.75303      7.39525     18.40823         0.027841      0.002729      0.110611
      0.00000      8.87344     18.04092        -0.000000      0.000880      0.171897
      9.75299     10.35167      5.17891         0.000576      0.004295     -3.581893
      0.00000      0.00008      5.17891         0.000003      0.000706      2.636543
      0.00000     10.35167      8.42991         0.000002      0.000588      0.515430
      9.75299      0.00008      8.42991        -0.000933      0.000466     -0.711155
      9.75299     10.35167     11.68090        -0.003840      0.012795      0.708573
      0.00000      0.00008     11.68090         0.000002      0.002212     -0.746880
     13.00398     10.35177     14.86280         0.000001     -0.000105      0.066753
      9.75277      0.00024     15.06605         0.000299     -0.000577     -0.025011
      9.75138     10.35157     18.41856         0.007928      0.006425      0.119211
     13.00398     11.83029     18.04138        -0.000000     -0.001804      0.172664
      9.75299      1.47888      5.17891         0.000313     -0.002207     -3.582830
      0.00000      2.95768      5.17891        -0.000004     -0.001496      2.635196
      0.00000      1.47888      8.42991         0.000003     -0.000252      0.515437
      9.75299      2.95768      8.42991        -0.000783     -0.000763     -0.711808
      9.75299      1.47888     11.68090        -0.003866      0.000572      0.717604
      0.00000      2.95768     11.68090         0.000003     -0.002677     -0.750438
      0.00000      1.47872     14.86298         0.000001      0.000404      0.066833
      9.75326      2.95729     15.06595         0.000403     -0.000250     -0.029833
      9.75215      1.47899     18.41779         0.001549     -0.002476      0.123596
      0.00000      2.95731     18.04133        -0.000002      0.000870      0.171218
      9.75299      4.43648      5.17891         0.000908     -0.001771     -3.580888
      0.00000      5.91527      5.17891        -0.000002     -0.000768      2.638424
      0.00000      4.43648      8.42991         0.000001     -0.000404      0.515417
      9.75299      5.91527      8.42991        -0.000557     -0.000504     -0.712370
      9.75299      4.43648     11.68090        -0.005002     -0.014476      0.708623
      0.00000      5.91527     11.68090         0.000003     -0.002195     -0.748357
      0.00000      4.43641     14.86249        -0.000001     -0.000050      0.066439
      9.75354      5.91500     15.06340         0.000880      0.000760     -0.026846
      9.75376      4.43732     18.41691         0.013513     -0.005774      0.117311
     13.00398      5.91583     18.04058        -0.000000      0.000637      0.171505
      3.25100      7.39407      5.17891        -0.001261     -0.000503     -3.579844
      6.50199      8.87287      5.17891         0.000002      0.002708      2.640582
      6.50199      7.39407      8.42991        -0.000001      0.001919      0.518202
      3.25100      8.87287      8.42991         0.000698      0.000765     -0.713427
      3.25100      7.39407     11.68090         0.005072      0.000927      0.699797
      6.50199      8.87287     11.68090        -0.000002     -0.003700     -0.725502
      6.50199      7.39080     14.87143         0.000002     -0.002393      0.061555
      3.25071      8.87329     15.06299        -0.000274     -0.000266     -0.028211
      3.25096      7.39525     18.40823        -0.027840      0.002702      0.110609
      6.50199      8.87947     18.03744        -0.000001      0.021648      0.168278
      3.25100     10.35167      5.17891        -0.000564      0.004291     -3.581893
      6.50199      0.00008      5.17891         0.000005      0.001299      2.638635
      6.50199     10.35167      8.42991        -0.000000      0.002233      0.519480
      3.25100      0.00008      8.42991         0.000933      0.000465     -0.711154
      3.25100     10.35167     11.68090         0.003840      0.012801      0.708571
      6.50199      0.00008     11.68090        -0.000003      0.002343     -0.752028
      6.50199     10.34965     14.85871        -0.000002      0.001647      0.063176
[...]
      6.50199      5.91527      9.70429         0.000000      0.000444     -0.102261
      4.52538      4.43648      8.42991         0.438269      0.001616      0.046158
      8.47860      4.43648      8.42991        -0.438264      0.001618      0.046179
      3.25100      5.91527     10.40652        -0.000931      0.002706     -0.118330
      3.25100      5.91527     12.95529         0.000655      0.001899      0.064446
      7.77637      4.43648     11.68090        -0.478104      0.013225      0.098998
      5.22761      4.43648     11.68090         0.478101      0.013224      0.099020
      6.50199      5.91539     13.68044         0.000000     -0.000296     -0.040533
      6.50199      5.91464     16.24136         0.000001     -0.000256     -0.027147
      4.55288      4.43649     14.95719        -0.013591      0.006848     -0.001974
      8.45110      4.43649     14.95719         0.013586      0.006848     -0.001979
      3.24421      5.91567     16.92452        -0.000173     -0.002145      0.078137
      3.26640      5.91889     19.49892        -0.008042     -0.008432      0.071166
      7.72931      4.42773     18.34168         0.000441     -0.022599      0.097544
      5.27467      4.42773     18.34168        -0.000445     -0.022599      0.097534
    total drift:                               -0.000032      0.018154      0.213920

  FREE ENERGIE OF THE ION-ELECTRON SYSTEM (eV)
  free  energy   TOTEN  =     -2142.61825610 eV

  energy  without entropy=    -2142.61825610  energy(sigma->0) =    -2142.61825610

 writing wavefunctions

     |            E. Caldeweyher, S. Ehlert & S. Grimme          |
     |          Mulliken Center for Theoretical Chemistry        |
     |                    University of Bonn                     |

Rational (Becke-Johnson) damping: hse06-D4-ATM
  s6         1.0000
  s8         1.1953
  s9         1.0000
  a1         0.3866
  a2         5.1913
 alp        16.0000

Dispersion energy:      -1.4455131098651E+00 Eh