 vasp.6.4.2 20Jul23 (build Feb 22 2024 13:53:45) complex
 executed on              LinuxNV date 2024.08.28  23:20:16
 OpenACC runtime initialized ...    4 GPUs detected

 INCAR:
   SYSTEM = Oxide-Surface
   ISMEAR = 0
   SIGMA = 0.05
   EDIFF = 1E-5
   ALGO = Normal
   IBRION = -1
   NSW = 0
   ISYM = 0
   DIPOL = 0.5 0.5 0.5
   IDIPOL = 3
   LDIPOL = .TRUE.
   ISTART = 1
   LHFCALC = .TRUE.
   HFSCREEN = 0.2
   GGA = PE
   HFRCUT = -1
   ENCUT = 520
   PREC = Normal
   PRECFOCK = Normal
   LASPH = .TRUE.
   LREAL = Auto
   ISPIN = 1
   NELM = 200
   NELMIN = 8
   NCORE = 1
   KPAR = 1
   LWAVE = .FALSE.
   LCHARG = .FALSE.

 POTCAR:    PAW_PBE C 08Apr2002
 POTCAR:    PAW_PBE O 08Apr2002
 POTCAR:    PAW_PBE Ti_pv 07Sep2000
 POTCAR:    PAW_PBE O 08Apr2002
 POTCAR:    PAW_PBE C 08Apr2002
   VRHFIN =C: s2p2

   TITEL  = PAW_PBE C 08Apr2002
   POMASS =   12.011; ZVAL   =    4.000    mass and valenz
   ENMAX  =  400.000; ENMIN  =  300.000 eV

[...]

   TITEL  = PAW_PBE Ti_pv 07Sep2000
   POMASS =   47.880; ZVAL   =   10.000    mass and valenz
   ENMAX  =  222.335; ENMIN  =  166.751 eV

   TITEL  = PAW_PBE O 08Apr2002
   POMASS =   16.000; ZVAL   =    6.000    mass and valenz
   ENMAX  =  400.000; ENMIN  =  300.000 eV

 Optimization of the real space projectors (new method)

 maximal supplied QI-value         = 25.13
 optimisation between [QCUT,QGAM] = [ 11.56, 23.12] = [ 37.43,149.72] Ry
 Optimized for a Real-space Cutoff    1.04 Angstroem

   l    n(q)    QCUT    max X(q) W(low)/X(q) W(high)/X(q)  e(spline)
   0      7    11.561   115.676    0.20E-03    0.60E-03    0.21E-06
   0      7    11.561    87.132    0.20E-03    0.59E-03    0.21E-06
   1      7    11.561     4.429    0.23E-03    0.35E-03    0.15E-06
   1      7    11.561     2.733    0.18E-03    0.25E-03    0.12E-06
 Optimization of the real space projectors (new method)

[...]

   l    n(q)    QCUT    max X(q) W(low)/X(q) W(high)/X(q)  e(spline)
   1     10    11.641     4.216    0.33E-04    0.72E-04    0.48E-07
   1     10    11.641     5.422    0.11E-03    0.20E-03    0.10E-06
   2      9    11.641    72.084    0.36E-03    0.27E-03    0.57E-06
   2      9    11.641    65.965    0.35E-03    0.27E-03    0.57E-06
   0     10    11.641    41.531    0.11E-03    0.93E-04    0.16E-06
   0     10    11.641    16.290    0.82E-04    0.72E-04    0.13E-06
 Optimization of the real space projectors (new method)

 maximal supplied QI-value         = 24.76
 optimisation between [QCUT,QGAM] = [ 11.64, 23.27] = [ 37.91,151.63] Ry
 Optimized for a Real-space Cutoff    1.04 Angstroem

   l    n(q)    QCUT    max X(q) W(low)/X(q) W(high)/X(q)  e(spline)
   0      7    11.635    20.381    0.14E-03    0.49E-03    0.18E-06
   0      7    11.635    15.268    0.16E-03    0.52E-03    0.19E-06
   1      7    11.635     5.964    0.30E-03    0.44E-03    0.22E-06
   1      7    11.635     5.382    0.27E-03    0.34E-03    0.19E-06
  PAW_PBE C 08Apr2002                   :
  PAW_PBE O 08Apr2002                   :
  PAW_PBE Ti_pv 07Sep2000               :
  PAW_PBE O 08Apr2002                   :

 POSCAR:  C  O Ti  O
  positions in direct lattice
 exchange correlation table for  LEXCH =        8
   RHO(1)=    0.500       N(1)  =     2000
   RHO(2)=  100.500       N(2)  =     4000

 ion  position               nearest neighbor table
   1  0.500  0.610  0.837-   2 1.18   3 1.18
   2  0.500  0.709  0.844-   1 1.18
   3  0.500  0.512  0.829-   1 1.18
   4  0.750  0.625  0.207-  85 1.95 145 1.95 144 1.95  84 1.95  87 1.98 166 1.98  14 2.96  34 2.96

   5  0.000  0.750  0.207-  87 1.95 107 1.95 106 1.95  86 1.95  88 1.98  35 2.96  15 2.96
   6  0.000  0.625  0.337-  88 1.95 148 1.95  89 1.95 149 1.95  90 1.98  91 1.98  16 2.96  36 2.96

[...]

  83  0.500  0.499  0.722- 237 1.82 243 1.94 242 1.94 183 1.96 182 1.96  73 2.95  53 2.98
  84  0.750  0.750  0.156-   4 1.95  14 1.95
  85  0.750  0.750  0.258-   4 1.95  14 1.95   7 1.98
  86  0.098  0.625  0.207-   5 1.95  35 1.95  44 1.98
  87  0.902  0.625  0.207-   5 1.95  35 1.95   4 1.98
  88  0.000  0.750  0.286-   6 1.95  16 1.95   5 1.98
  89  0.000  0.750  0.388-   6 1.95  16 1.95   9 1.98
  90  0.848  0.625  0.337-   7 1.95  37 1.95   6 1.98
  91  0.152  0.625  0.337-  47 1.95  77 1.95   6 1.98
  92  0.750  0.750  0.416-   8 1.95  18 1.95   7 1.98
  93  0.750  0.750  0.518-   8 1.95  18 1.95  11 2.11
  94  0.098  0.625  0.467-   9 1.95  39 1.95  48 1.98
  95  0.902  0.625  0.467-   9 1.95  39 1.95   8 1.98
  96  1.000  0.750  0.547-  20 1.89  10 1.89   9 2.00
  97  0.000  0.750  0.649-  13 1.81  10 2.02  20 2.02
  98  0.850  0.625  0.598-  10 1.95  11 1.97  41 1.97
  99  0.150  0.625  0.598-  10 1.95  51 1.97  81 1.97
 100  0.750  0.750  0.677-  11 1.86  12 2.10  22 2.10
 101  0.749  0.750  0.780-  12 1.83  22 1.83
 102  0.094  0.625  0.735-  43 1.95  13 1.95  52 2.03
 103  0.906  0.625  0.735-  43 1.95  13 1.95  12 2.03
 104  0.750  0.000  0.156-  14 1.95  24 1.95
 105  0.750  0.000  0.258-  14 1.95  24 1.95  17 1.98
 106  0.098  0.875  0.207-   5 1.95  15 1.95  54 1.98
 107  0.902  0.875  0.207-   5 1.95  15 1.95  14 1.98
 108  0.000  0.000  0.286-  16 1.95  26 1.95  15 1.98
 109  0.000  0.000  0.388-  16 1.95  26 1.95  19 1.98
 110  0.848  0.875  0.337-   7 1.95  17 1.95  16 1.98
 111  0.152  0.875  0.337-  47 1.95  57 1.95  16 1.98
 112  0.750  0.000  0.416-  18 1.95  28 1.95  17 1.98
 113  0.750  0.000  0.518-  18 1.95  28 1.95  21 2.11
 114  0.098  0.875  0.467-   9 1.95  19 1.95  58 1.98
 115  0.902  0.875  0.467-   9 1.95  19 1.95  18 1.98
 116  1.000  0.000  0.547-  30 1.89  20 1.89  19 2.00
 117  1.000  1.000  0.649-  23 1.81  20 2.02  30 2.02
 118  0.850  0.875  0.598-  20 1.95  11 1.97  21 1.97
 119  0.150  0.875  0.598-  20 1.95  51 1.97  61 1.97
 120  0.750  0.000  0.677-  21 1.86  32 2.10  22 2.10
 121  0.750  1.000  0.780-  22 1.83  32 1.83
 122  0.094  0.875  0.735-  13 1.95  23 1.95  62 2.03
 123  0.906  0.875  0.735-  13 1.95  23 1.95  22 2.03
 124  0.750  0.250  0.156-  24 1.95  34 1.95
 125  0.750  0.250  0.258-  24 1.95  34 1.95  27 1.98
 126  0.098  0.125  0.207-  15 1.95  25 1.95  64 1.98
 127  0.902  0.125  0.207-  15 1.95  25 1.95  24 1.98
 128  0.000  0.250  0.286-  26 1.95  36 1.95  25 1.98
 129  0.000  0.250  0.388-  26 1.95  36 1.95  29 1.98
 130  0.848  0.125  0.337-  17 1.95  27 1.95  26 1.98
 131  0.152  0.125  0.337-  57 1.95  67 1.95  26 1.98
 132  0.750  0.250  0.416-  28 1.95  38 1.95  27 1.98
 133  0.750  0.250  0.518-  28 1.95  38 1.95  31 2.11
 134  0.098  0.125  0.467-  19 1.95  29 1.95  68 1.98
 135  0.902  0.125  0.467-  19 1.95  29 1.95  28 1.98
 136  1.000  0.250  0.547-  40 1.89  30 1.89  29 2.00
 137  1.000  0.250  0.649-  33 1.81  40 2.02  30 2.02
 138  0.850  0.125  0.598-  30 1.95  21 1.97  31 1.97
 139  0.150  0.125  0.598-  30 1.95  61 1.97  71 1.97
 140  0.750  0.250  0.677-  31 1.86  32 2.10  42 2.10
 141  0.750  0.250  0.780-  42 1.83  32 1.83
 142  0.094  0.125  0.735-  33 1.95  23 1.95  72 2.03
[...]
 229  0.500  0.500  0.388-  46 1.95  76 1.95  79 1.98
 230  0.348  0.375  0.337-  67 1.95  77 1.95  76 1.98
 231  0.652  0.375  0.337-  27 1.95  37 1.95  76 1.98
 232  0.250  0.500  0.416-  48 1.95  78 1.95  77 1.98
 233  0.250  0.500  0.518-  48 1.95  78 1.95  81 2.11
 234  0.598  0.375  0.467-  69 1.95  79 1.95  38 1.98
 235  0.402  0.375  0.467-  69 1.95  79 1.95  78 1.98
 236  0.500  0.500  0.547-  80 1.89  50 1.90  79 2.00
 237  0.500  0.500  0.650-  83 1.82  50 2.01  80 2.01
 238  0.350  0.375  0.598-  80 1.95  81 1.97  71 1.97
 239  0.650  0.375  0.598-  80 1.95  41 1.97  31 1.97
 240  0.249  0.500  0.677-  81 1.86  52 2.10  82 2.10
 241  0.251  0.500  0.780-  82 1.83  52 1.84
 242  0.594  0.374  0.734-  83 1.94  73 1.94  42 2.03
 243  0.406  0.374  0.734-  83 1.94  73 1.94  82 2.03

IMPORTANT INFORMATION: All symmetrisations will be switched off!
NOSYMM: (Re-)initialisation of all symmetry stuff for point group C_1.

                                     Primitive cell

  volume of cell :    3846.0501

  direct lattice vectors                    reciprocal lattice vectors
    13.003980404  0.000000000  0.000000000     0.076899531  0.000000000  0.000000000
     0.000000000 11.830378115  0.000000000     0.000000000  0.084528152  0.000000000
     0.000000000  0.000000000 25.000000000     0.000000000  0.000000000  0.040000000

  length of vectors
    13.003980404 11.830378115 25.000000000     0.076899531  0.084528152  0.040000000

  position of ions in fractional coordinates (direct lattice)
     0.499999661  0.610175892  0.837208440
     0.499999550  0.708568373  0.843818866
     0.499999787  0.511627540  0.829412707
     0.750000001  0.625007134  0.207156502
     0.000000001  0.750007134  0.207156502
     0.000000001  0.625007134  0.337196306
     0.750000001  0.750007134  0.337196306
     0.750000001  0.625007134  0.467236110
     0.000000001  0.750007134  0.467236110
     0.999999940  0.625019735  0.594495874
     0.750021777  0.750042649  0.602519744
     0.750003066  0.625106593  0.736329117
     0.000000017  0.750055336  0.721636960
     0.750000001  0.875007134  0.207156502
     0.000000001  0.000007134  0.207156502
     0.000000001  0.875007134  0.337196306
     0.750000001  0.000007134  0.337196306
     0.750000001  0.875007134  0.467236110
     0.000000001  0.000007134  0.467236110
     0.999999992  0.875016125  0.594511900
     0.749983713  0.000020009  0.602641880
     0.749876204  0.874999101  0.736742504
     0.999999990  0.999992866  0.721655188
     0.750000001  0.125007134  0.207156502
     0.000000001  0.250007134  0.207156502
     0.000000001  0.125007134  0.337196306
     0.750000001  0.250007134  0.337196306
     0.750000001  0.125007134  0.467236110
     0.000000001  0.250007134  0.467236110
     0.000000068  0.124993619  0.594519314
     0.750020774  0.249973997  0.602637838
     0.749936142  0.125016596  0.736711702
     0.000000016  0.249975627  0.721653239
     0.750000001  0.375007134  0.207156502
     0.000000001  0.500007134  0.207156502
     0.000000001  0.375007134  0.337196306
     0.750000001  0.500007134  0.337196306
     0.750000001  0.375007134  0.467236110
     0.000000001  0.500007134  0.467236110
     0.000000085  0.375001288  0.594499775
     0.750042568  0.499984211  0.602536198
     0.750059278  0.375078128  0.736676508
     0.999999994  0.500054051  0.721623319
     0.250000001  0.625007134  0.207156502
     0.500000001  0.750007134  0.207156502
     0.500000001  0.625007134  0.337196306
     0.250000001  0.750007134  0.337196306
     0.250000001  0.625007134  0.467236110
     0.500000001  0.750007134  0.467236110
     0.499999958  0.624730247  0.594857138
     0.249978089  0.750042641  0.602519742
     0.249996935  0.625106602  0.736329106
     0.500000014  0.750565443  0.721497564
     0.250000001  0.875007134  0.207156502
     0.500000001  0.000007134  0.207156502
     0.500000001  0.875007134  0.337196306
     0.250000001  0.000007134  0.337196306
     0.250000001  0.875007134  0.467236110
     0.500000001  0.000007134  0.467236110
     0.499999961  0.874836724  0.594348348
[...]
     0.500000001  0.500007134  0.388171674
     0.347999549  0.375007134  0.337196306
     0.652000453  0.375007134  0.337196306
[...]
   0.102E-03 -.271E+03 -.153E+04   -.190E-03 0.335E+03 0.154E+04   0.694E-04 -.573E+02 -.943E+01   -.321E-05 -.302E-02 -.134E+00
   -.497E-03 0.268E+03 -.160E+04   0.579E-03 -.331E+03 0.159E+04   -.785E-04 0.562E+02 0.627E+01   -.573E-06 0.360E-02 -.138E+00
   -.252E+01 -.498E-01 0.279E+04   0.252E+01 0.512E-01 -.279E+04   -.549E-03 -.143E-01 0.608E+00   -.156E-03 -.612E-04 0.207E+00
   0.400E-05 -.675E+00 0.297E+04   -.519E-05 0.677E+00 -.297E+04   -.390E-06 -.686E-03 -.419E+01   0.200E-05 -.163E-03 0.206E+00
   0.788E-05 -.164E-01 0.144E+04   -.220E-05 0.167E-01 -.143E+04   0.330E-05 -.856E-03 -.943E-01   -.480E-05 -.290E-04 0.144E+00
   -.897E+00 -.291E+00 0.143E+04   0.896E+00 0.292E+00 -.143E+04   0.219E-03 0.201E-03 0.256E+00   0.660E-04 -.448E-04 0.142E+00
   -.220E+01 -.218E-01 0.112E+01   0.219E+01 0.209E-01 -.233E+00   0.170E-02 0.218E-01 -.174E+00   0.239E-03 0.161E-04 0.303E-01
   0.203E-05 -.747E+00 0.104E+02   0.122E-05 0.751E+00 -.117E+02   0.662E-06 -.592E-03 0.389E+00   -.304E-05 0.803E-05 0.255E-01
   -.884E-04 -.401E+00 -.138E+04   0.861E-04 0.401E+00 0.138E+04   -.174E-05 -.246E-02 0.145E+00   0.158E-05 0.446E-04 -.827E-01
   -.128E+02 -.562E+01 -.140E+04   0.128E+02 0.562E+01 0.140E+04   -.434E-02 -.610E-02 -.256E+00   0.692E-03 0.214E-03 -.919E-01
   -.854E+02 -.463E+01 -.269E+04   0.854E+02 0.464E+01 0.269E+04   0.122E-01 -.127E-01 -.442E+00   0.147E-02 0.231E-03 -.190E+00
   0.158E-03 -.754E+01 -.281E+04   -.159E-03 0.755E+01 0.281E+04   0.538E-07 -.599E-02 0.127E+01   0.149E-05 -.105E-03 -.182E+00
   -.222E+01 -.121E+01 0.279E+04   0.223E+01 0.121E+01 -.280E+04   -.236E-03 0.148E-01 0.608E+00   -.654E-04 -.269E-03 0.207E+00
   0.227E-05 -.611E+00 0.298E+04   -.432E-05 0.612E+00 -.297E+04   -.119E-06 0.241E-03 -.418E+01   0.328E-05 -.139E-03 0.207E+00
   0.492E-05 -.365E+00 0.144E+04   -.164E-05 0.366E+00 -.143E+04   0.197E-06 0.143E-02 -.942E-01   -.120E-05 -.227E-04 0.144E+00
   -.851E+00 -.281E+00 0.143E+04   0.850E+00 0.282E+00 -.143E+04   0.309E-03 0.381E-03 0.258E+00   0.706E-04 -.304E-04 0.142E+00
   -.221E+01 -.119E+01 -.911E-01   0.220E+01 0.121E+01 0.987E+00   0.120E-02 -.229E-01 -.176E+00   0.201E-03 0.621E-04 0.305E-01
   -.417E-05 -.635E+00 0.920E+01   0.255E-05 0.638E+00 -.105E+02   0.344E-06 -.231E-03 0.422E+00   0.959E-06 0.791E-05 0.256E-01
   0.562E-04 -.364E+01 -.138E+04   -.544E-04 0.364E+01 0.138E+04   -.720E-06 -.541E-02 0.145E+00   -.146E-05 0.569E-04 -.827E-01
   -.878E+01 -.404E+01 -.142E+04   0.878E+01 0.404E+01 0.142E+04   0.130E-02 -.134E-02 -.223E+00   0.511E-03 0.376E-04 -.919E-01
   -.459E+02 -.316E+02 -.273E+04   0.459E+02 0.316E+02 0.273E+04   0.221E-01 0.581E-02 -.474E+00   0.796E-03 -.920E-04 -.191E+00
   0.358E-04 -.581E+01 -.282E+04   -.410E-04 0.581E+01 0.282E+04   -.191E-05 -.252E-02 0.127E+01   0.648E-05 -.140E-03 -.182E+00
   -.195E+01 0.511E-01 0.279E+04   0.195E+01 -.519E-01 -.280E+04   -.120E-03 -.143E-01 0.608E+00   -.248E-04 0.428E-04 0.207E+00
   -.153E-06 0.671E+00 0.298E+04   -.420E-05 -.673E+00 -.297E+04   0.176E-06 -.198E-03 -.419E+01   0.472E-05 0.196E-03 0.207E+00
   0.822E-07 0.165E-01 0.144E+04   -.108E-05 -.166E-01 -.143E+04   0.361E-05 -.819E-03 -.944E-01   0.662E-06 -.619E-05 0.144E+00
   -.836E+00 0.291E+00 0.143E+04   0.835E+00 -.292E+00 -.143E+04   0.260E-03 0.351E-03 0.255E+00   0.788E-04 0.473E-04 0.142E+00
   -.203E+01 0.233E-01 -.119E+01   0.202E+01 -.243E-01 0.210E+01   0.134E-02 0.217E-01 -.178E+00   0.197E-03 -.205E-04 0.305E-01
   -.604E-06 0.745E+00 0.932E+01   -.232E-05 -.749E+00 -.106E+02   -.589E-06 0.126E-02 0.390E+00   0.124E-05 -.282E-04 0.255E-01
   0.219E-03 0.308E+00 -.138E+04   -.217E-03 -.309E+00 0.138E+04   0.677E-06 0.591E-02 0.149E+00   0.886E-06 -.494E-04 -.828E-01
   -.926E+01 0.525E+01 -.141E+04   0.926E+01 -.526E+01 0.141E+04   -.403E-02 0.214E-02 -.250E+00   0.580E-03 -.179E-03 -.920E-01
   -.244E+02 0.320E+01 -.274E+04   0.244E+02 -.320E+01 0.275E+04   0.143E-01 -.107E-01 -.475E+00   0.794E-03 -.154E-03 -.192E+00
   0.950E-04 0.663E+01 -.282E+04   -.964E-04 -.663E+01 0.282E+04   0.536E-06 0.671E-02 0.127E+01   0.136E-05 0.618E-04 -.182E+00
   -.224E+01 0.121E+01 0.279E+04   0.224E+01 -.121E+01 -.280E+04   -.387E-03 0.151E-01 0.608E+00   -.878E-04 0.281E-03 0.207E+00
   0.815E-06 0.614E+00 0.297E+04   -.506E-05 -.615E+00 -.297E+04   0.246E-06 0.504E-03 -.418E+01   0.476E-05 0.105E-03 0.206E+00
   0.479E-05 0.365E+00 0.144E+04   -.172E-05 -.366E+00 -.143E+04   0.788E-06 0.166E-02 -.942E-01   -.179E-05 0.553E-04 0.144E+00
   -.882E+00 0.281E+00 0.143E+04   0.881E+00 -.282E+00 -.143E+04   0.145E-03 0.450E-03 0.259E+00   0.631E-04 0.265E-04 0.142E+00
   -.202E+01 0.119E+01 -.249E-02   0.201E+01 -.121E+01 0.898E+00   0.153E-02 -.193E-01 -.176E+00   0.230E-03 -.423E-04 0.304E-01
   0.407E-05 0.641E+00 0.106E+02   -.459E-05 -.645E+00 -.118E+02   0.136E-06 0.846E-03 0.422E+00   -.813E-06 0.599E-05 0.255E-01
   0.319E-03 0.369E+01 -.138E+04   -.319E-03 -.369E+01 0.138E+04   0.128E-05 -.208E-02 0.145E+00   0.244E-05 -.497E-04 -.828E-01
   -.134E+02 0.438E+01 -.140E+04   0.134E+02 -.438E+01 0.140E+04   -.405E-02 0.381E-02 -.235E+00   0.768E-03 -.703E-04 -.920E-01
   -.552E+02 0.332E+02 -.272E+04   0.551E+02 -.332E+02 0.272E+04   0.150E-01 0.168E-01 -.472E+00   0.119E-02 0.501E-05 -.191E+00
   0.942E-04 0.657E+01 -.281E+04   -.936E-04 -.657E+01 0.281E+04   -.777E-06 0.585E-02 0.125E+01   0.335E-06 0.207E-03 -.182E+00
   0.252E+01 -.498E-01 0.279E+04   -.252E+01 0.512E-01 -.279E+04   0.549E-03 -.143E-01 0.608E+00   0.154E-03 -.624E-04 0.207E+00
   -.365E-05 -.114E+01 0.297E+04   0.548E-05 0.114E+01 -.296E+04   0.110E-05 -.100E-02 -.420E+01   -.279E-05 -.289E-03 0.206E+00
   -.603E-05 0.969E-02 0.143E+04   0.224E-05 -.680E-02 -.143E+04   -.666E-06 -.143E-02 -.950E-01   0.216E-05 0.727E-06 0.144E+00
   0.897E+00 -.291E+00 0.143E+04   -.896E+00 0.292E+00 -.143E+04   -.221E-03 0.199E-03 0.256E+00   -.614E-04 -.384E-04 0.142E+00
   0.220E+01 -.218E-01 0.112E+01   -.219E+01 0.209E-01 -.233E+00   -.170E-02 0.218E-01 -.174E+00   -.236E-03 0.203E-04 0.303E-01
   -.208E-04 -.788E+00 0.146E+02   0.187E-04 0.774E+00 -.158E+02   0.321E-07 0.783E-02 0.379E+00   0.199E-05 0.751E-04 0.251E-01
   -.966E-04 -.143E+01 -.135E+04   0.973E-04 0.144E+01 0.135E+04   -.143E-05 -.150E-01 0.148E+00   -.210E-05 0.210E-03 -.840E-01
   0.128E+02 -.562E+01 -.140E+04   -.128E+02 0.562E+01 0.140E+04   0.433E-02 -.610E-02 -.256E+00   -.692E-03 0.209E-03 -.919E-01
   0.854E+02 -.463E+01 -.269E+04   -.854E+02 0.464E+01 0.269E+04   -.122E-01 -.127E-01 -.442E+00   -.147E-02 0.238E-03 -.190E+00
   -.199E-03 -.685E+02 -.267E+04   0.201E-03 0.686E+02 0.267E+04   0.533E-06 -.133E-01 0.130E+01   -.197E-05 0.136E-02 -.182E+00
   0.222E+01 -.121E+01 0.279E+04   -.223E+01 0.121E+01 -.280E+04   0.236E-03 0.148E-01 0.608E+00   0.726E-04 -.266E-03 0.207E+00
   -.291E-05 -.104E+01 0.297E+04   0.447E-05 0.104E+01 -.296E+04   0.332E-06 0.112E-03 -.418E+01   -.184E-05 -.197E-03 0.206E+00
   0.203E-05 -.434E+00 0.144E+04   0.158E-05 0.437E+00 -.143E+04   -.173E-05 0.858E-03 -.950E-01   -.424E-05 -.312E-04 0.144E+00
   0.851E+00 -.281E+00 0.143E+04   -.850E+00 0.282E+00 -.143E+04   -.313E-03 0.381E-03 0.258E+00   -.594E-04 -.261E-04 0.142E+00
   0.221E+01 -.119E+01 -.911E-01   -.220E+01 0.121E+01 0.987E+00   -.120E-02 -.229E-01 -.176E+00   -.201E-03 0.696E-04 0.305E-01
   0.933E-07 -.949E+00 0.136E+02   -.123E-05 0.952E+00 -.148E+02   0.577E-06 0.629E-03 0.409E+00   0.277E-06 0.176E-04 0.252E-01
   -.807E-04 -.105E+02 -.136E+04   0.804E-04 0.105E+02 0.136E+04   -.202E-05 0.762E-02 0.112E+00   -.805E-07 0.379E-03 -.833E-01
[...]
   -.527E+02 0.254E+00 0.858E+03   0.569E+02 -.255E+00 -.858E+03   -.341E+01 0.228E-02 0.174E+00   0.282E-03 0.309E-04 0.862E-01
   0.527E+02 0.254E+00 0.858E+03   -.569E+02 -.255E+00 -.858E+03   0.341E+01 0.228E-02 0.174E+00   -.278E-03 0.327E-04 0.862E-01
   0.755E+00 0.268E+00 0.389E+03   -.752E+00 -.271E+00 -.394E+03   -.343E-02 0.494E-02 0.403E+01   -.984E-04 0.147E-05 0.463E-01
   0.235E+01 0.944E+00 -.404E+03   -.234E+01 -.946E+00 0.411E+03   -.437E-02 0.333E-02 -.695E+01   -.245E-03 -.266E-04 -.118E-01
   -.557E+02 0.677E+00 0.720E+01   0.608E+02 -.682E+00 -.751E+01   -.507E+01 0.183E-01 0.358E+00   0.225E-03 -.432E-04 0.166E-01
   0.557E+02 0.677E+00 0.720E+01   -.608E+02 -.682E+00 -.751E+01   0.507E+01 0.183E-01 0.358E+00   -.223E-03 -.442E-04 0.166E-01
   0.378E-04 0.140E+01 -.435E+03   -.404E-04 -.135E+01 0.428E+03   0.336E-05 -.405E-01 0.624E+01   -.107E-05 -.668E-04 -.274E-01
   -.764E-04 0.761E+01 -.115E+04   0.787E-04 -.749E+01 0.115E+04   -.130E-05 -.101E+00 0.218E+01   -.176E-06 -.204E-03 -.750E-01
   -.215E+02 0.526E+01 -.826E+03   0.246E+02 -.530E+01 0.825E+03   -.280E+01 0.369E-01 0.862E+00   -.101E-02 -.177E-03 -.526E-01
   0.215E+02 0.526E+01 -.826E+03   -.246E+02 -.530E+01 0.825E+03   0.280E+01 0.370E-01 0.862E+00   0.101E-02 -.177E-03 -.526E-01
   0.232E+02 0.758E+01 -.132E+04   -.232E+02 -.768E+01 0.132E+04   0.782E-01 0.837E-01 -.221E+01   -.789E-03 -.326E-04 -.871E-01
   0.691E+02 0.208E+02 -.199E+04   -.689E+02 -.208E+02 0.202E+04   -.190E+00 0.165E-02 -.200E+02   -.583E-03 0.479E-03 -.135E+00
   -.526E+02 0.484E+02 -.169E+04   0.591E+02 -.484E+02 0.169E+04   -.594E+01 0.655E-01 -.351E+01   0.126E-02 -.562E-03 -.116E+00
   0.526E+02 0.484E+02 -.169E+04   -.591E+02 -.484E+02 0.169E+04   0.594E+01 0.655E-01 -.351E+01   -.125E-02 -.562E-03 -.116E+00
   0.114E-03 0.872E+00 0.101E+03   0.261E-11 -.938E-12 0.978E-11   -.143E-03 -.726E+00 -.927E+02   0.175E-04 0.943E-03 0.321E+01

 POSITION                                       TOTAL-FORCE (eV/Angst)
      6.50199      7.21861     20.93021        -0.000006      0.134756      0.041007
      6.50198      8.38263     21.09547        -0.000007     -1.674703     -0.207646
      6.50199      6.05275     20.73532        -0.000007      1.543913      0.234517
      9.75299      7.39407      5.17891         0.001461     -0.000679     -4.040076
      0.00000      8.87287      5.17891         0.000000      0.001526      3.225555
      0.00000      7.39407      8.42991         0.000005      0.000012      0.550396
      9.75299      8.87287      8.42991        -0.000811      0.000952     -0.814366
      9.75299      7.39407     11.68090        -0.006119      0.001131      0.765571
      0.00000      8.87287     11.68090         0.000001      0.003127     -0.854753
     13.00398      7.39422     14.86240        -0.000001     -0.000763     -0.013429
      9.75327      8.87329     15.06299         0.000308      0.000874      0.153181
      9.75303      7.39525     18.40823         0.023109      0.005603      0.371864
      0.00000      8.87344     18.04092        -0.000000      0.005444     -0.086927
      9.75299     10.35167      5.17891         0.000652      0.005427     -4.042486
      0.00000      0.00008      5.17891         0.000001      0.000875      3.225920
      0.00000     10.35167      8.42991         0.000002      0.000812      0.550465
      9.75299      0.00008      8.42991        -0.001088      0.000620     -0.812009
      9.75299     10.35167     11.68090        -0.004221      0.014211      0.775237
      0.00000      0.00008     11.68090        -0.000000      0.002745     -0.849026
     13.00398     10.35177     14.86280        -0.000000      0.000811     -0.012781
      9.75277      0.00024     15.06605        -0.000496      0.000519      0.158960
      9.75138     10.35157     18.41856         0.003068      0.014122      0.383347
     13.00398     11.83029     18.04138        -0.000000      0.000201     -0.086724
      9.75299      1.47888      5.17891         0.000348     -0.002870     -4.043579
      0.00000      2.95768      5.17891         0.000001     -0.001848      3.224399
      0.00000      1.47888      8.42991         0.000004     -0.000264      0.550546
      9.75299      2.95768      8.42991        -0.000922     -0.000917     -0.812477
      9.75299      1.47888     11.68090        -0.004320      0.000986      0.785214
      0.00000      2.95768     11.68090        -0.000002     -0.003284     -0.853287
      0.00000      1.47872     14.86298         0.000002      0.000231     -0.012829
      9.75326      2.95729     15.06595        -0.000294     -0.001008      0.155832
      9.75215      1.47899     18.41779        -0.000395     -0.002538      0.387478
      0.00000      2.95731     18.04133         0.000000     -0.003650     -0.087961
      9.75299      4.43648      5.17891         0.001058     -0.002066     -4.041287
      0.00000      5.91527      5.17891         0.000001     -0.000968      3.228127
      0.00000      4.43648      8.42991         0.000002     -0.000629      0.550486
      9.75299      5.91527      8.42991        -0.000636     -0.000619     -0.813282
      9.75299      4.43648     11.68090        -0.005924     -0.016530      0.775250
      0.00000      5.91527     11.68090        -0.000001     -0.002662     -0.850938
      0.00000      4.43641     14.86249         0.000003     -0.001091     -0.013124
      9.75354      5.91500     15.06340         0.000560     -0.000562      0.157035
      9.75376      4.43732     18.41691         0.000150     -0.015062      0.379634
     13.00398      5.91583     18.04058         0.000001     -0.001866     -0.086778
      3.25100      7.39407      5.17891        -0.001459     -0.000679     -4.040077
      6.50199      8.87287      5.17891         0.000000      0.003326      3.230440
      6.50199      7.39407      8.42991        -0.000002      0.002157      0.553516
      3.25100      8.87287      8.42991         0.000810      0.000954     -0.814366
      3.25100      7.39407     11.68090         0.006117      0.001130      0.765570
      6.50199      8.87287     11.68090         0.000000     -0.005845     -0.826167
      6.50199      7.39080     14.87143        -0.000002     -0.002893     -0.014937
      3.25071      8.87329     15.06299        -0.000307      0.000875      0.153184
      3.25096      7.39525     18.40823        -0.023106      0.005601      0.371871
      6.50199      8.87947     18.03744         0.000000      0.032725     -0.091431
      3.25100     10.35167      5.17891        -0.000654      0.005427     -4.042488
      6.50199      0.00008      5.17891         0.000000      0.001554      3.228201
      6.50199     10.35167      8.42991        -0.000003      0.002645      0.554963
      3.25100      0.00008      8.42991         0.001085      0.000620     -0.812011
      3.25100     10.35167     11.68090         0.004221      0.014213      0.775235
      6.50199      0.00008     11.68090        -0.000000      0.002704     -0.852311
      6.50199     10.34965     14.85871        -0.000002      0.000198     -0.011103
[...]
      6.50199      5.91527      9.70429        -0.000000      0.000550     -0.279907
      4.52538      4.43648      8.42991         0.292926      0.001712      0.057889
      8.47860      4.43648      8.42991        -0.292925      0.001714      0.057911
      3.25100      5.91527     10.40652        -0.001088      0.003013      0.068165
      3.25100      5.91527     12.95529         0.000497      0.002282     -0.232171
      7.77637      4.43648     11.68090        -0.721220      0.014471      0.113693
      5.22761      4.43648     11.68090         0.721221      0.014470      0.113716
      6.50199      5.91539     13.68044         0.000000     -0.000643      0.195101
      6.50199      5.91464     16.24136         0.000001     -0.003903      0.032178
      4.55288      4.43649     14.95719        -0.106383      0.009050      0.026565
      8.45110      4.43649     14.95719         0.106383      0.009049      0.026563
      3.24421      5.91567     16.92452         0.001815      0.001156     -0.045283
      3.26640      5.91889     19.49892        -0.015591     -0.005097     -0.632673
      7.72931      4.42773     18.34168        -0.307640     -0.017696     -0.046320
      5.27467      4.42773     18.34168         0.307638     -0.017696     -0.046328
    total drift:                               -0.000029      0.020073      0.232592

  FREE ENERGIE OF THE ION-ELECTRON SYSTEM (eV)
  free  energy   TOTEN  =     -2646.55587931 eV

  energy  without entropy=    -2646.55587931  energy(sigma->0) =    -2646.55587931

     |            E. Caldeweyher, S. Ehlert & S. Grimme          |
     |          Mulliken Center for Theoretical Chemistry        |
     |                    University of Bonn                     |

Rational (Becke-Johnson) damping: hse06-D4-ATM
  s6         1.0000
  s8         1.1953
  s9         1.0000
  a1         0.3866
  a2         5.1913
 alp        16.0000

Dispersion energy:      -1.4455131098651E+00 Eh