 vasp.6.4.2 20Jul23 (build Feb 22 2024 13:53:45) complex
 executed on              LinuxNV date 2024.08.28  22:59:12
 OpenACC runtime initialized ...    4 GPUs detected

 INCAR:
   SYSTEM = Oxide-Surface
   ISMEAR = 0
   SIGMA = 0.05
   EDIFF = 1E-5
   ALGO = Normal
   IBRION = -1
   NSW = 0
   ISYM = 0
   DIPOL = 0.5 0.5 0.5
   IDIPOL = 3
   LDIPOL = .TRUE.
   ISTART = 0
   LHFCALC = .FALSE.
   GGA = PE
   HFRCUT = -1
   ENCUT = 1000
   PREC = Normal
   PRECFOCK = Normal
   LASPH = .TRUE.
   LREAL = Auto
   ISPIN = 1
   NELM = 200
   NELMIN = 8
   NCORE = 1
   KPAR = 1
   LWAVE = .FALSE.
   LCHARG = .FALSE.

 POTCAR:    PAW_PBE C_h 06Feb2004
 POTCAR:    PAW_PBE O_h 06Feb2004
 POTCAR:    PAW_PBE Ti_sv 26Sep2005
 POTCAR:    PAW_PBE O_h 06Feb2004
 POTCAR:    PAW_PBE C_h 06Feb2004
   VRHFIN =C: s2p2

   TITEL  = PAW_PBE C_h 06Feb2004
   POMASS =   12.011; ZVAL   =    4.000    mass and valenz
   ENMAX  =  700.000; ENMIN  =  500.000 eV

[...]

   TITEL  = PAW_PBE Ti_sv 26Sep2005
   POMASS =   47.880; ZVAL   =   12.000    mass and valenz
   ENMAX  =  274.610; ENMIN  =  205.957 eV

   TITEL  = PAW_PBE O_h 06Feb2004
   POMASS =   16.000; ZVAL   =    6.000    mass and valenz
   ENMAX  =  700.000; ENMIN  =  500.000 eV

 Optimization of the real space projectors (new method)

 maximal supplied QI-value         = 34.20
 optimisation between [QCUT,QGAM] = [ 16.08, 32.15] = [ 72.37,289.48] Ry
 Optimized for a Real-space Cutoff    0.71 Angstroem

   l    n(q)    QCUT    max X(q) W(low)/X(q) W(high)/X(q)  e(spline)
   0      7    16.076   134.812    0.49E-03    0.92E-03    0.59E-07
   0      7    16.076    80.524    0.48E-03    0.91E-03    0.58E-07
   1      6    16.076    79.026    0.37E-03    0.58E-03    0.12E-06
   1      6    16.076    45.188    0.36E-03    0.56E-03    0.12E-06
 Optimization of the real space projectors (new method)

[...]

   l    n(q)    QCUT    max X(q) W(low)/X(q) W(high)/X(q)  e(spline)
   0     12    16.089    12.277    0.23E-04    0.54E-05    0.15E-06
   0     12    16.089    11.419    0.26E-04    0.82E-06    0.19E-06
   1     12    16.089     4.010    0.40E-04    0.12E-04    0.58E-06
   1     12    16.089     6.182    0.55E-05    0.28E-04    0.27E-06
   2     11    16.089    47.177    0.17E-03    0.26E-03    0.90E-06
   2     11    16.089    42.437    0.17E-03    0.25E-03    0.88E-06
 Optimization of the real space projectors (new method)

 maximal supplied QI-value         = 34.20
 optimisation between [QCUT,QGAM] = [ 16.08, 32.15] = [ 72.37,289.48] Ry
 Optimized for a Real-space Cutoff    0.71 Angstroem

   l    n(q)    QCUT    max X(q) W(low)/X(q) W(high)/X(q)  e(spline)
   0      7    16.076   280.207    0.42E-03    0.69E-03    0.60E-07
   0      7    16.076   228.978    0.42E-03    0.69E-03    0.61E-07
   1      6    16.076    86.127    0.11E-03    0.66E-03    0.10E-06
   1      6    16.076    65.368    0.11E-03    0.65E-03    0.10E-06
  PAW_PBE C_h 06Feb2004                 :
  PAW_PBE O_h 06Feb2004                 :
  PAW_PBE Ti_sv 26Sep2005               :
  PAW_PBE O_h 06Feb2004                 :

 POSCAR:  C  O Ti  O
  positions in direct lattice
 exchange correlation table for  LEXCH =        8
   RHO(1)=    0.500       N(1)  =     2000
   RHO(2)=  100.500       N(2)  =     4000

 ion  position               nearest neighbor table
   1  0.500  0.610  0.837-   2 1.18   3 1.18
   2  0.500  0.709  0.844-   1 1.18
   3  0.500  0.512  0.829-   1 1.18
   4  0.750  0.625  0.207-  85 1.95 145 1.95 144 1.95  84 1.95  87 1.98 166 1.98
   5  0.000  0.750  0.207-  87 1.95 107 1.95 106 1.95  86 1.95  88 1.98
   6  0.000  0.625  0.337-  88 1.95 148 1.95  89 1.95 149 1.95  90 1.98  91 1.98
   7  0.750  0.750  0.337-  90 1.95 110 1.95 171 1.95 191 1.95  85 1.98  92 1.98
   8  0.750  0.625  0.467-  92 1.95  93 1.95 152 1.95 153 1.95  95 1.98 174 1.98
   9  0.000  0.750  0.467-  95 1.95 115 1.95 114 1.95  94 1.95  89 1.98  96 2.00
  10  1.000  0.625  0.594-  96 1.89 156 1.90  98 1.95  99 1.95  97 2.02 157 2.02
  11  0.750  0.750  0.603- 100 1.86 199 1.97 179 1.97 118 1.97  98 1.97  93 2.11
  12  0.750  0.625  0.736- 101 1.83 161 1.84 182 2.03 103 2.03 100 2.10 160 2.10
  13  0.000  0.750  0.722-  97 1.81 122 1.95 123 1.95 102 1.95 103 1.95
  14  0.750  0.875  0.207-  85 1.95 105 1.95 104 1.95  84 1.95 107 1.98 186 1.98
  15  0.000  0.000  0.207- 107 1.95 127 1.95 126 1.95 106 1.95 108 1.98
  16  0.000  0.875  0.337-  88 1.95 108 1.95  89 1.95 109 1.95 110 1.98 111 1.98
  17  0.750  0.000  0.337- 110 1.95 130 1.95 191 1.95 211 1.95 105 1.98 112 1.98
  18  0.750  0.875  0.467-  92 1.95  93 1.95 112 1.95 113 1.95 115 1.98 194 1.98
  19  0.000  0.000  0.467- 115 1.95 135 1.95 134 1.95 114 1.95 109 1.98 116 2.00
  20  1.000  0.875  0.595-  96 1.89 116 1.89 118 1.95 119 1.95 117 2.02  97 2.02
  21  0.750  0.000  0.603- 120 1.86 219 1.97 199 1.97 138 1.97 118 1.97 113 2.11
  22  0.750  0.875  0.737- 121 1.83 101 1.83 202 2.03 123 2.03 120 2.10 100 2.10
  23  1.000  1.000  0.722- 117 1.81 143 1.95 142 1.95 123 1.95 122 1.95
  24  0.750  0.125  0.207- 105 1.95 125 1.95 124 1.95 104 1.95 127 1.98 206 1.98
  25  0.000  0.250  0.207- 127 1.95 147 1.95 146 1.95 126 1.95 128 1.98
  26  0.000  0.125  0.337- 108 1.95 128 1.95 109 1.95 129 1.95 130 1.98 131 1.98
  27  0.750  0.250  0.337- 130 1.95 150 1.95 211 1.95 231 1.95 125 1.98 132 1.98
  28  0.750  0.125  0.467- 112 1.95 113 1.95 132 1.95 133 1.95 135 1.98 214 1.98
  29  0.000  0.250  0.467- 135 1.95 155 1.95 154 1.95 134 1.95 129 1.98 136 2.00
  30  0.000  0.125  0.595- 116 1.89 136 1.89 139 1.95 138 1.95 117 2.02 137 2.02
  31  0.750  0.250  0.603- 140 1.86 219 1.97 239 1.97 138 1.97 158 1.97 133 2.11
  32  0.750  0.125  0.737- 121 1.83 141 1.83 222 2.03 143 2.03 140 2.10 120 2.10
  33  0.000  0.250  0.722- 137 1.81 142 1.95 143 1.95 162 1.95 163 1.95
  34  0.750  0.375  0.207- 125 1.95 145 1.95 144 1.95 124 1.95 147 1.98 226 1.98
  35  0.000  0.500  0.207-  87 1.95 147 1.95 146 1.95  86 1.95 148 1.98
  36  0.000  0.375  0.337- 128 1.95 148 1.95 129 1.95 149 1.95 150 1.98 151 1.98
  37  0.750  0.500  0.337-  90 1.95 150 1.95 171 1.95 231 1.95 145 1.98 152 1.98
  38  0.750  0.375  0.467- 132 1.95 133 1.95 152 1.95 153 1.95 155 1.98 234 1.98
  39  0.000  0.500  0.467-  95 1.95 155 1.95 154 1.95  94 1.95 149 1.98 156 2.00
  40  0.000  0.375  0.594- 136 1.89 156 1.89 159 1.95 158 1.95 137 2.02 157 2.02
  41  0.750  0.500  0.603- 160 1.86 239 1.97 179 1.97 158 1.97  98 1.97 153 2.11
  42  0.750  0.375  0.737- 141 1.83 161 1.83 242 2.03 163 2.03 160 2.10 140 2.10
  43  1.000  0.500  0.722- 157 1.81 163 1.95 162 1.95 103 1.95 102 1.95
  44  0.250  0.625  0.207- 165 1.95 225 1.95 224 1.95 164 1.95  86 1.98 167 1.98
  45  0.500  0.750  0.207- 166 1.95 167 1.95 186 1.95 187 1.95 168 1.98
  46  0.500  0.625  0.337- 168 1.95 228 1.95 169 1.95 229 1.95 171 1.98 170 1.98
  47  0.250  0.750  0.337-  91 1.95 111 1.95 170 1.95 190 1.95 165 1.98 172 1.98
  48  0.250  0.625  0.467- 172 1.95 173 1.95 232 1.95 233 1.95  94 1.98 175 1.98
  49  0.500  0.750  0.467- 174 1.95 175 1.95 194 1.95 195 1.95 169 1.98 176 2.00
  50  0.500  0.625  0.595- 236 1.90 176 1.90 178 1.95 179 1.95 177 2.01 237 2.01
  51  0.250  0.750  0.603- 180 1.86 198 1.97 178 1.97 119 1.97  99 1.97 173 2.11
  52  0.250  0.625  0.736- 181 1.83 241 1.84 183 2.03 102 2.03 180 2.10 240 2.10
  53  0.500  0.751  0.721- 177 1.81 202 1.94 203 1.94 182 1.95 183 1.95
  54  0.250  0.875  0.207- 165 1.95 185 1.95 184 1.95 164 1.95 106 1.98 187 1.98
  55  0.500  0.000  0.207- 186 1.95 187 1.95 206 1.95 207 1.95 188 1.98
  56  0.500  0.875  0.337- 168 1.95 188 1.95 169 1.95 189 1.95 191 1.98 190 1.98
  57  0.250  0.000  0.337- 111 1.95 131 1.95 190 1.95 210 1.95 185 1.98 192 1.98
  58  0.250  0.875  0.467- 172 1.95 173 1.95 192 1.95 193 1.95 114 1.98 195 1.98
  59  0.500  0.000  0.467- 194 1.95 195 1.95 214 1.95 215 1.95 189 1.98 196 1.99
  60  0.500  0.875  0.594- 176 1.89 196 1.90 198 1.95 199 1.95 177 2.01 197 2.02
[...]
 229  0.500  0.500  0.388-  46 1.95  76 1.95  79 1.98
 230  0.348  0.375  0.337-  67 1.95  77 1.95  76 1.98
 231  0.652  0.375  0.337-  27 1.95  37 1.95  76 1.98
 232  0.250  0.500  0.416-  48 1.95  78 1.95  77 1.98
 233  0.250  0.500  0.518-  48 1.95  78 1.95  81 2.11
 234  0.598  0.375  0.467-  69 1.95  79 1.95  38 1.98
 235  0.402  0.375  0.467-  69 1.95  79 1.95  78 1.98
 236  0.500  0.500  0.547-  80 1.89  50 1.90  79 2.00
 237  0.500  0.500  0.650-  83 1.82  50 2.01  80 2.01
 238  0.350  0.375  0.598-  80 1.95  81 1.97  71 1.97
 239  0.650  0.375  0.598-  80 1.95  41 1.97  31 1.97
 240  0.249  0.500  0.677-  81 1.86  52 2.10  82 2.10
 241  0.251  0.500  0.780-  82 1.83  52 1.84
 242  0.594  0.374  0.734-  83 1.94  73 1.94  42 2.03
 243  0.406  0.374  0.734-  83 1.94  73 1.94  82 2.03

IMPORTANT INFORMATION: All symmetrisations will be switched off!
NOSYMM: (Re-)initialisation of all symmetry stuff for point group C_1.

                                     Primitive cell

  volume of cell :    3846.0501

  direct lattice vectors                    reciprocal lattice vectors
    13.003980404  0.000000000  0.000000000     0.076899531  0.000000000  0.000000000
     0.000000000 11.830378115  0.000000000     0.000000000  0.084528152  0.000000000
     0.000000000  0.000000000 25.000000000     0.000000000  0.000000000  0.040000000

  length of vectors
    13.003980404 11.830378115 25.000000000     0.076899531  0.084528152  0.040000000

  position of ions in fractional coordinates (direct lattice)
     0.499999661  0.610175892  0.837208440
     0.499999550  0.708568373  0.843818866
     0.499999787  0.511627540  0.829412707
     0.750000001  0.625007134  0.207156502
     0.000000001  0.750007134  0.207156502
     0.000000001  0.625007134  0.337196306
     0.750000001  0.750007134  0.337196306
     0.750000001  0.625007134  0.467236110
     0.000000001  0.750007134  0.467236110
     0.999999940  0.625019735  0.594495874
     0.750021777  0.750042649  0.602519744
     0.750003066  0.625106593  0.736329117
     0.000000017  0.750055336  0.721636960
     0.750000001  0.875007134  0.207156502
     0.000000001  0.000007134  0.207156502
     0.000000001  0.875007134  0.337196306
     0.750000001  0.000007134  0.337196306
     0.750000001  0.875007134  0.467236110
     0.000000001  0.000007134  0.467236110
     0.999999992  0.875016125  0.594511900
     0.749983713  0.000020009  0.602641880
     0.749876204  0.874999101  0.736742504
     0.999999990  0.999992866  0.721655188
     0.750000001  0.125007134  0.207156502
     0.000000001  0.250007134  0.207156502
     0.000000001  0.125007134  0.337196306
     0.750000001  0.250007134  0.337196306
     0.750000001  0.125007134  0.467236110
     0.000000001  0.250007134  0.467236110
     0.000000068  0.124993619  0.594519314
     0.750020774  0.249973997  0.602637838
     0.749936142  0.125016596  0.736711702
     0.000000016  0.249975627  0.721653239
     0.750000001  0.375007134  0.207156502
     0.000000001  0.500007134  0.207156502
     0.000000001  0.375007134  0.337196306
     0.750000001  0.500007134  0.337196306
     0.750000001  0.375007134  0.467236110
     0.000000001  0.500007134  0.467236110
     0.000000085  0.375001288  0.594499775
[...]
   0.106E-03 -.274E+03 -.167E+04   -.187E-03 0.335E+03 0.167E+04   0.980E-04 -.612E+02 -.998E+01   -.439E-05 0.466E-04 -.821E-03
   -.499E-03 0.271E+03 -.176E+04   0.578E-03 -.331E+03 0.175E+04   -.729E-04 0.602E+02 0.679E+01   -.136E-05 -.110E-04 -.797E-03
   -.302E+01 -.599E-01 0.366E+04   0.302E+01 0.609E-01 -.367E+04   -.711E-03 -.121E-02 0.116E+01   0.216E-03 -.813E-05 -.947E-03
   0.769E-04 -.810E+00 0.388E+04   -.623E-05 0.812E+00 -.388E+04   -.683E-05 -.143E-02 -.568E+01   -.734E-04 -.121E-03 -.570E-03
   0.201E-04 -.180E-01 0.188E+04   -.274E-05 0.181E-01 -.188E+04   0.341E-06 0.406E-02 -.185E+00   -.186E-04 0.427E-04 0.121E-02
   -.107E+01 -.345E+00 0.187E+04   0.107E+01 0.346E+00 -.187E+04   0.330E-03 0.363E-02 0.337E+00   -.151E-04 -.142E-04 0.173E-02
   -.258E+01 -.813E-02 -.203E+01   0.257E+01 0.745E-02 0.301E+01   0.236E-02 -.759E-03 -.287E+00   -.521E-04 0.292E-05 0.155E-02
   -.488E-05 -.907E+00 0.132E+02   0.128E-05 0.911E+00 -.145E+02   0.134E-05 -.220E-02 0.585E+00   0.399E-05 -.202E-04 0.176E-02
   -.959E-04 -.480E+00 -.181E+04   0.910E-04 0.481E+00 0.181E+04   0.151E-04 -.246E-02 0.780E+00   -.136E-05 0.185E-05 0.158E-02
   -.153E+02 -.675E+01 -.185E+04   0.153E+02 0.675E+01 0.185E+04   -.251E-02 -.673E-02 -.111E+01   -.148E-04 -.140E-04 0.148E-02
   -.102E+03 -.554E+01 -.355E+04   0.102E+03 0.555E+01 0.355E+04   0.227E-01 -.956E-02 -.159E+01   0.144E-03 -.127E-04 0.126E-02
   0.207E-03 -.905E+01 -.369E+04   -.196E-03 0.906E+01 0.369E+04   -.201E-05 -.214E-01 0.285E+01   -.120E-04 0.592E-04 0.100E-02
   -.267E+01 -.145E+01 0.366E+04   0.267E+01 0.146E+01 -.367E+04   -.323E-03 -.155E-02 0.116E+01   0.136E-03 0.173E-04 -.102E-02
   0.350E-04 -.733E+00 0.389E+04   -.519E-05 0.734E+00 -.388E+04   -.122E-04 -.127E-02 -.567E+01   -.287E-04 0.129E-03 -.732E-03
   0.190E-04 -.440E+00 0.188E+04   -.197E-05 0.441E+00 -.188E+04   0.149E-05 0.395E-02 -.185E+00   -.199E-04 -.112E-03 0.126E-02
   -.102E+01 -.339E+00 0.187E+04   0.102E+01 0.340E+00 -.187E+04   0.457E-03 0.371E-02 0.336E+00   -.394E-04 -.253E-04 0.173E-02
   -.265E+01 -.144E+01 -.348E+01   0.264E+01 0.146E+01 0.447E+01   0.173E-02 -.480E-02 -.291E+00   -.557E-04 -.232E-04 0.155E-02
   -.753E-05 -.775E+00 0.117E+02   0.213E-05 0.778E+00 -.130E+02   0.110E-05 -.181E-02 0.586E+00   0.591E-05 -.331E-04 0.179E-02
   0.647E-04 -.440E+01 -.181E+04   -.715E-04 0.440E+01 0.181E+04   0.633E-06 -.317E-02 0.781E+00   0.785E-05 -.935E-05 0.159E-02
   -.106E+02 -.484E+01 -.186E+04   0.106E+02 0.484E+01 0.186E+04   0.820E-02 0.305E-02 -.112E+01   -.176E-04 -.798E-05 0.152E-02
   -.552E+02 -.379E+02 -.359E+04   0.552E+02 0.379E+02 0.359E+04   0.300E-01 -.108E-01 -.165E+01   0.162E-03 0.819E-04 0.129E-02
   0.521E-04 -.696E+01 -.370E+04   -.495E-04 0.696E+01 0.369E+04   0.249E-05 -.298E-02 0.286E+01   -.239E-05 0.721E-04 0.115E-02
   -.234E+01 0.607E-01 0.367E+04   0.234E+01 -.618E-01 -.367E+04   -.172E-03 -.980E-03 0.116E+01   0.100E-03 0.113E-03 -.116E-02
   0.257E-04 0.806E+00 0.389E+04   -.504E-05 -.808E+00 -.388E+04   -.678E-05 -.769E-03 -.567E+01   -.221E-04 0.663E-04 -.801E-03
   0.190E-04 0.179E-01 0.188E+04   -.126E-05 -.180E-01 -.188E+04   0.196E-05 0.412E-02 -.185E+00   -.211E-04 0.179E-04 0.123E-02
   -.998E+00 0.345E+00 0.187E+04   0.997E+00 -.346E+00 -.187E+04   0.380E-03 0.398E-02 0.336E+00   -.487E-04 0.302E-04 0.169E-02
   -.244E+01 0.106E-01 -.483E+01   0.243E+01 -.117E-01 0.584E+01   0.186E-02 -.762E-03 -.294E+00   -.603E-04 -.137E-04 0.156E-02
   -.278E-05 0.905E+00 0.118E+02   -.510E-05 -.909E+00 -.132E+02   0.756E-06 0.295E-03 0.587E+00   0.813E-05 0.197E-04 0.179E-02
   0.256E-03 0.368E+00 -.181E+04   -.256E-03 -.370E+00 0.181E+04   -.190E-04 0.353E-02 0.785E+00   0.109E-04 -.871E-05 0.162E-02
   -.111E+02 0.628E+01 -.186E+04   0.111E+02 -.629E+01 0.186E+04   0.625E-03 -.260E-02 -.113E+01   -.154E-04 -.246E-05 0.153E-02
   -.294E+02 0.384E+01 -.361E+04   0.293E+02 -.384E+01 0.361E+04   0.232E-01 -.159E-02 -.164E+01   0.171E-03 0.779E-06 0.139E-02
   0.119E-03 0.792E+01 -.369E+04   -.119E-03 -.794E+01 0.369E+04   -.192E-05 0.230E-01 0.285E+01   0.102E-06 -.644E-04 0.117E-02
   -.269E+01 0.145E+01 0.366E+04   0.269E+01 -.146E+01 -.367E+04   -.507E-03 -.673E-03 0.116E+01   0.159E-03 -.123E-03 -.109E-02
   0.707E-04 0.737E+00 0.388E+04   -.608E-05 -.738E+00 -.388E+04   0.161E-05 -.906E-03 -.568E+01   -.719E-04 -.699E-04 -.657E-03
   0.157E-04 0.440E+00 0.188E+04   -.213E-05 -.441E+00 -.188E+04   0.140E-05 0.422E-02 -.185E+00   -.151E-04 0.509E-04 0.118E-02
   -.105E+01 0.339E+00 0.187E+04   0.105E+01 -.340E+00 -.187E+04   0.228E-03 0.390E-02 0.337E+00   -.190E-04 0.106E-04 0.174E-02
   -.237E+01 0.144E+01 -.340E+01   0.236E+01 -.146E+01 0.439E+01   0.218E-02 0.265E-02 -.290E+00   -.598E-04 0.334E-04 0.155E-02
   0.279E-05 0.783E+00 0.134E+02   -.741E-05 -.786E+00 -.147E+02   0.125E-05 -.213E-03 0.585E+00   0.474E-05 0.334E-04 0.178E-02
   0.384E-03 0.445E+01 -.181E+04   -.380E-03 -.445E+01 0.181E+04   -.237E-04 0.161E-02 0.781E+00   0.938E-05 0.166E-04 0.161E-02
   -.160E+02 0.527E+01 -.184E+04   0.160E+02 -.528E+01 0.185E+04   -.678E-02 0.334E-02 -.112E+01   -.791E-05 0.222E-04 0.148E-02
   -.663E+02 0.398E+02 -.358E+04   0.663E+02 -.398E+02 0.359E+04   0.244E-01 0.115E-01 -.164E+01   0.172E-03 -.729E-04 0.132E-02
   0.126E-03 0.790E+01 -.369E+04   -.114E-03 -.790E+01 0.368E+04   0.364E-05 -.245E-02 0.284E+01   -.155E-04 -.673E-04 0.102E-02
   0.302E+01 -.599E-01 0.366E+04   -.302E+01 0.609E-01 -.367E+04   0.713E-03 -.122E-02 0.116E+01   -.228E-03 -.221E-04 -.120E-02
   -.813E-04 -.136E+01 0.388E+04   0.658E-05 0.137E+01 -.387E+04   0.390E-05 -.189E-02 -.568E+01   0.725E-04 0.903E-04 -.754E-04
   -.206E-04 0.183E-01 0.188E+04   0.275E-05 -.153E-01 -.188E+04   -.160E-05 0.326E-02 -.186E+00   0.193E-04 -.595E-04 0.137E-02
   0.107E+01 -.345E+00 0.187E+04   -.107E+01 0.346E+00 -.187E+04   -.331E-03 0.363E-02 0.337E+00   0.176E-04 -.121E-04 0.185E-02
   0.258E+01 -.813E-02 -.203E+01   -.257E+01 0.745E-02 0.301E+01   -.236E-02 -.757E-03 -.287E+00   0.506E-04 -.347E-05 0.155E-02
   -.243E-04 -.814E+00 0.181E+02   0.234E-04 0.802E+00 -.194E+02   -.223E-05 0.706E-02 0.571E+00   0.527E-06 -.151E-04 0.175E-02
   -.120E-03 -.180E+01 -.178E+04   0.110E-03 0.179E+01 0.178E+04   0.995E-05 0.212E-01 0.734E+00   0.599E-05 0.205E-04 0.147E-02
   0.153E+02 -.675E+01 -.185E+04   -.153E+02 0.675E+01 0.185E+04   0.254E-02 -.673E-02 -.111E+01   0.104E-04 0.467E-05 0.146E-02
   0.102E+03 -.554E+01 -.355E+04   -.102E+03 0.555E+01 0.355E+04   -.227E-01 -.956E-02 -.159E+01   -.140E-03 -.365E-06 0.128E-02
   -.241E-03 -.816E+02 -.352E+04   0.238E-03 0.816E+02 0.351E+04   -.473E-05 -.218E-01 0.288E+01   0.398E-05 0.687E-04 0.722E-03
   0.267E+01 -.145E+01 0.366E+04   -.267E+01 0.146E+01 -.367E+04   0.331E-03 -.154E-02 0.116E+01   -.141E-03 0.955E-04 -.128E-02
   -.516E-04 -.124E+01 0.388E+04   0.536E-05 0.124E+01 -.387E+04   0.254E-05 -.146E-02 -.568E+01   0.488E-04 0.125E-03 -.271E-03
   -.171E-04 -.515E+00 0.188E+04   0.184E-05 0.518E+00 -.188E+04   -.154E-05 0.312E-02 -.186E+00   0.173E-04 0.526E-04 0.134E-02
   0.102E+01 -.339E+00 0.187E+04   -.102E+01 0.340E+00 -.187E+04   -.459E-03 0.371E-02 0.336E+00   0.471E-04 -.151E-04 0.185E-02
   0.265E+01 -.144E+01 -.348E+01   -.264E+01 0.146E+01 0.447E+01   -.173E-02 -.481E-02 -.291E+00   0.514E-04 -.174E-04 0.156E-02
   0.675E-05 -.114E+01 0.170E+02   -.433E-05 0.114E+01 -.183E+02   -.108E-05 -.931E-03 0.564E+00   -.370E-05 -.203E-04 0.175E-02
   -.892E-04 -.126E+02 -.178E+04   0.883E-04 0.126E+02 0.178E+04   0.108E-04 0.131E-01 0.721E+00   -.390E-05 0.121E-05 0.150E-02
[...]
   -.629E+02 0.252E+00 0.936E+03   0.663E+02 -.253E+00 -.936E+03   -.303E+01 0.151E-02 0.182E+00   0.406E-04 -.258E-05 0.830E-03
   0.629E+02 0.252E+00 0.936E+03   -.663E+02 -.253E+00 -.936E+03   0.303E+01 0.150E-02 0.182E+00   -.585E-04 0.759E-05 0.786E-03
   0.740E+00 0.270E+00 0.429E+03   -.737E+00 -.273E+00 -.433E+03   -.396E-02 0.570E-02 0.374E+01   0.256E-04 0.894E-05 0.807E-03
   0.230E+01 0.953E+00 -.451E+03   -.229E+01 -.954E+00 0.458E+03   -.518E-02 0.295E-02 -.637E+01   0.206E-04 0.720E-05 0.728E-03
   -.668E+02 0.661E+00 0.683E+01   0.712E+02 -.666E+00 -.714E+01   -.493E+01 0.125E-01 0.405E+00   0.334E-04 0.925E-05 0.782E-03
   0.668E+02 0.661E+00 0.683E+01   -.712E+02 -.666E+00 -.714E+01   0.493E+01 0.125E-01 0.405E+00   -.487E-04 0.724E-05 0.783E-03
   0.449E-04 0.129E+01 -.469E+03   -.487E-04 -.126E+01 0.463E+03   0.339E-05 -.371E-01 0.563E+01   0.108E-06 0.158E-04 0.700E-03
   -.834E-04 0.733E+01 -.126E+04   0.846E-04 -.722E+01 0.126E+04   -.589E-05 -.111E+00 0.165E+01   0.397E-05 0.992E-06 0.664E-03
   -.273E+02 0.531E+01 -.903E+03   0.302E+02 -.533E+01 0.902E+03   -.294E+01 0.240E-01 0.845E+00   -.544E-04 0.558E-05 0.736E-03
   0.273E+02 0.531E+01 -.903E+03   -.302E+02 -.533E+01 0.902E+03   0.294E+01 0.241E-01 0.845E+00   0.475E-04 0.899E-05 0.741E-03
   0.233E+02 0.777E+01 -.145E+04   -.234E+02 -.784E+01 0.145E+04   0.746E-01 0.699E-01 -.116E+01   -.318E-04 -.181E-04 0.600E-03
   0.686E+02 0.206E+02 -.221E+04   -.684E+02 -.206E+02 0.223E+04   -.182E+00 0.103E-01 -.192E+02   -.145E-03 -.539E-04 0.120E-03
   -.636E+02 0.485E+02 -.185E+04   0.691E+02 -.486E+02 0.186E+04   -.551E+01 0.476E-01 -.312E+01   0.105E-03 -.587E-04 0.342E-03
   0.636E+02 0.485E+02 -.185E+04   -.691E+02 -.486E+02 0.186E+04   0.551E+01 0.476E-01 -.312E+01   -.105E-03 -.629E-04 0.344E-03
   0.131E-03 0.115E+01 0.931E+02   -.215E-11 -.227E-12 0.762E-10   -.138E-03 -.115E+01 -.939E+02   -.958E-06 0.837E-04 0.148E+00

 POSITION                                       TOTAL-FORCE (eV/Angst)
      6.50199      7.21861     20.93021         0.000031      0.065968      0.045292
      6.50198      8.38263     21.09547         0.000013     -0.854031     -0.045789
      6.50199      6.05275     20.73532         0.000004      0.784338      0.194875
      9.75299      7.39407      5.17891         0.001262     -0.000208     -3.598297
      0.00000      8.87287      5.17891        -0.000010      0.000275      2.681669
      0.00000      7.39407      8.42991        -0.000001      0.004212      0.494958
      9.75299      8.87287      8.42991        -0.000687      0.004602     -0.726851
      9.75299      7.39407     11.68090        -0.005160     -0.001413      0.697302
      0.00000      8.87287     11.68090         0.000002      0.001697     -0.755770
     13.00398      7.39422     14.86240         0.000009     -0.001499      0.069059
      9.75327      8.87329     15.06299        -0.000933     -0.001218     -0.008109
      9.75303      7.39525     18.40823         0.023227      0.001535      0.210651
      0.00000      8.87344     18.04092        -0.000003     -0.004534      0.144812
      9.75299     10.35167      5.17891         0.000580      0.001918     -3.600339
      0.00000      0.00008      5.17891        -0.000011     -0.000324      2.680236
      0.00000     10.35167      8.42991        -0.000001      0.004629      0.495002
      9.75299      0.00008      8.42991        -0.000934      0.004323     -0.725379
      9.75299     10.35167     11.68090        -0.003854      0.013438      0.706084
      0.00000      0.00008     11.68090         0.000002      0.001322     -0.754494
     13.00398     10.35177     14.86280         0.000002     -0.001156      0.069780
      9.75277      0.00024     15.06605         0.001673      0.004837     -0.015059
      9.75138     10.35157     18.41856         0.003452      0.005672      0.189213
     13.00398     11.83029     18.04138         0.000003     -0.000784      0.139716
      9.75299      1.47888      5.17891         0.000316     -0.001884     -3.601259
      0.00000      2.95768      5.17891        -0.000008     -0.002375      2.680534
      0.00000      1.47888      8.42991        -0.000001      0.004001      0.495038
      9.75299      2.95768      8.42991        -0.000784      0.003074     -0.725207
      9.75299      1.47888     11.68090        -0.003884     -0.001780      0.715085
      0.00000      2.95768     11.68090         0.000001     -0.003602     -0.754638
      0.00000      1.47872     14.86298        -0.000008      0.000809      0.068076
      9.75326      2.95729     15.06595         0.000084     -0.007291     -0.014732
      9.75215      1.47899     18.41779         0.003612     -0.002129      0.197920
      0.00000      2.95731     18.04133        -0.000002      0.002756      0.139441
      9.75299      4.43648      5.17891         0.000930     -0.004124     -3.599271
      0.00000      5.91527      5.17891        -0.000006     -0.001824      2.682048
      0.00000      4.43648      8.42991        -0.000000      0.003630      0.494992
      9.75299      5.91527      8.42991        -0.000550      0.003348     -0.726594
      9.75299      4.43648     11.68090        -0.005073     -0.013891      0.706101
      0.00000      5.91527     11.68090         0.000001     -0.003119     -0.755974
      0.00000      4.43641     14.86249        -0.000011     -0.000034      0.068213
      9.75354      5.91500     15.06340        -0.003941      0.000100     -0.011583
      9.75376      4.43732     18.41691         0.017721     -0.008755      0.190338
     13.00398      5.91583     18.04058         0.000000     -0.005404      0.148063
      3.25100      7.39407      5.17891        -0.001258     -0.000202     -3.598409
      6.50199      8.87287      5.17891         0.000002      0.001783      2.685906
      6.50199      7.39407      8.42991        -0.000000      0.006148      0.497809
      3.25100      8.87287      8.42991         0.000686      0.004602     -0.726821
      3.25100      7.39407     11.68090         0.005160     -0.001412      0.697298
      6.50199      8.87287     11.68090        -0.000003     -0.004602     -0.729518
      6.50199      7.39080     14.87143         0.000006      0.014681      0.045274
      3.25071      8.87329     15.06299         0.000949     -0.001218     -0.008110
      3.25096      7.39525     18.40823        -0.023229      0.001545      0.210666
      6.50199      8.87947     18.03744        -0.000004     -0.000637      0.109932
      3.25100     10.35167      5.17891        -0.000573      0.001926     -3.600409
      6.50199      0.00008      5.17891         0.000005      0.000256      2.682329
      6.50199     10.35167      8.42991         0.000001      0.006233      0.499042
      3.25100      0.00008      8.42991         0.000933      0.004324     -0.725354
      3.25100     10.35167     11.68090         0.003854      0.013437      0.706081
      6.50199      0.00008     11.68090        -0.000002      0.001418     -0.759272
      6.50199     10.34965     14.85871         0.000006     -0.011556      0.042702
[...]
      6.50199      5.91527      9.70429        -0.000000      0.002342     -0.132465
      4.52538      4.43648      8.42991         0.412116      0.000568      0.051777
      8.47860      4.43648      8.42991        -0.412115      0.000567      0.051775
      3.25100      5.91527     10.40652        -0.000944      0.002513     -0.092518
      3.25100      5.91527     12.95529         0.000640      0.001683      0.022661
      7.77637      4.43648     11.68090        -0.507817      0.007088      0.093752
      5.22761      4.43648     11.68090         0.507818      0.007089      0.093753
      6.50199      5.91539     13.68044        -0.000000     -0.001304      0.005148
      6.50199      5.91464     16.24136        -0.000001      0.000801     -0.013648
      4.55288      4.43649     14.95719        -0.027740     -0.000080     -0.009874
      8.45110      4.43649     14.95719         0.027740     -0.000081     -0.009875
      3.24421      5.91567     16.92452         0.000310     -0.000040      0.062806
      3.26640      5.91889     19.49892        -0.019536     -0.010998     -0.024413
      7.72931      4.42773     18.34168        -0.049149     -0.015164      0.086615
      5.27467      4.42773     18.34168         0.049151     -0.015165      0.086615
    total drift:                               -0.000008     -0.006684     -0.594823

  FREE ENERGIE OF THE ION-ELECTRON SYSTEM (eV)
  free  energy   TOTEN  =     -2153.27878709 eV

  energy  without entropy=    -2153.27878709  energy(sigma->0) =    -2153.27878709

     |            E. Caldeweyher, S. Ehlert & S. Grimme          |
     |          Mulliken Center for Theoretical Chemistry        |
     |                    University of Bonn                     |

Rational (Becke-Johnson) damping: hse06-D4-ATM
  s6         1.0000
  s8         1.1953
  s9         1.0000
  a1         0.3866
  a2         5.1913
 alp        16.0000

Dispersion energy:      -1.4455131098651E+00 Eh