 vasp.6.4.2 20Jul23 (build Feb 22 2024 13:53:45) complex
 executed on              LinuxNV date 2024.08.30  04:23:20
 OpenACC runtime initialized ...    4 GPUs detected

 INCAR:
   SYSTEM = Oxide-Surface
   ISMEAR = 0
   SIGMA = 0.05
   EDIFF = 1E-5
   ALGO = Normal
   IBRION = -1
   NSW = 0
   ISYM = 0
   DIPOL = 0.5 0.5 0.5
   IDIPOL = 3
   LDIPOL = .TRUE.
   ISTART = 1
   LHFCALC = .TRUE.
   HFSCREEN = 0.2
   GGA = PE
   HFRCUT = -1
   ENCUT = 520
   PREC = Normal
   PRECFOCK = Normal
   LASPH = .TRUE.
   LREAL = Auto
   ISPIN = 1
   NELM = 200
   NELMIN = 8
   NCORE = 1
   KPAR = 1
   LWAVE = .FALSE.
   LCHARG = .FALSE.

 POTCAR:    PAW_PBE H 15Jun2001
 POTCAR:    PAW_PBE O 08Apr2002
 POTCAR:    PAW_PBE Ti_pv 07Sep2000
 POTCAR:    PAW_PBE O 08Apr2002
 POTCAR:    PAW_PBE H 15Jun2001
   VRHFIN =H: ultrasoft test

   TITEL  = PAW_PBE H 15Jun2001
   POMASS =    1.000; ZVAL   =    1.000    mass and valenz
   ENMAX  =  250.000; ENMIN  =  200.000 eV

   TITEL  = PAW_PBE O 08Apr2002
   POMASS =   16.000; ZVAL   =    6.000    mass and valenz
   ENMAX  =  400.000; ENMIN  =  300.000 eV

   TITEL  = PAW_PBE Ti_pv 07Sep2000
   POMASS =   47.880; ZVAL   =   10.000    mass and valenz
   ENMAX  =  222.335; ENMIN  =  166.751 eV

   TITEL  = PAW_PBE O 08Apr2002
   POMASS =   16.000; ZVAL   =    6.000    mass and valenz
   ENMAX  =  400.000; ENMIN  =  300.000 eV

 Optimization of the real space projectors (new method)

 maximal supplied QI-value         = 34.20
 optimisation between [QCUT,QGAM] = [ 11.63, 23.26] = [ 37.87,151.49] Ry
 Optimized for a Real-space Cutoff    1.14 Angstroem

   l    n(q)    QCUT    max X(q) W(low)/X(q) W(high)/X(q)  e(spline)
   0      8    11.629    19.460    0.27E-03    0.65E-03    0.17E-06
   0      8    11.629    12.209    0.25E-03    0.62E-03    0.16E-06
   1      7    11.629     4.655    0.29E-03    0.85E-04    0.19E-06
 Optimization of the real space projectors (new method)

[...]

   l    n(q)    QCUT    max X(q) W(low)/X(q) W(high)/X(q)  e(spline)
   1     10    11.641     4.216    0.33E-04    0.72E-04    0.48E-07
   1     10    11.641     5.422    0.11E-03    0.20E-03    0.10E-06
   2      9    11.641    72.084    0.36E-03    0.27E-03    0.57E-06
   2      9    11.641    65.965    0.35E-03    0.27E-03    0.57E-06
   0     10    11.641    41.531    0.11E-03    0.93E-04    0.16E-06
   0     10    11.641    16.290    0.82E-04    0.72E-04    0.13E-06
 Optimization of the real space projectors (new method)

 maximal supplied QI-value         = 24.76
 optimisation between [QCUT,QGAM] = [ 11.64, 23.27] = [ 37.91,151.63] Ry
 Optimized for a Real-space Cutoff    1.04 Angstroem

   l    n(q)    QCUT    max X(q) W(low)/X(q) W(high)/X(q)  e(spline)
   0      7    11.635    20.381    0.14E-03    0.49E-03    0.18E-06
   0      7    11.635    15.268    0.16E-03    0.52E-03    0.19E-06
   1      7    11.635     5.964    0.30E-03    0.44E-03    0.22E-06
   1      7    11.635     5.382    0.27E-03    0.34E-03    0.19E-06
  PAW_PBE H 15Jun2001                   :
  PAW_PBE O 08Apr2002                   :
  PAW_PBE Ti_pv 07Sep2000               :
  PAW_PBE O 08Apr2002                   :

 POSCAR:  H  O Ti  O
  positions in direct lattice
 exchange correlation table for  LEXCH =        8
   RHO(1)=    0.500       N(1)  =     2000
   RHO(2)=  100.500       N(2)  =     4000

 ion  position               nearest neighbor table
   1  0.557  0.550  0.840-   3 0.97
   2  0.660  0.496  0.817-   3 1.00
   3  0.584  0.491  0.817-   1 0.97   2 1.00  83 2.23
   4  0.796  0.625  0.211-  85 1.95 145 1.95 144 1.95  84 1.95  87 1.98 166 1.98  14 2.96  34 2.96

   5  0.046  0.750  0.211-  86 1.95  87 1.95 106 1.95 107 1.95  88 1.98  35 2.96  15 2.96
   6  0.046  0.625  0.341-  88 1.95 148 1.95  89 1.95 149 1.95  90 1.98  91 1.98  16 2.96  36 2.96

[...]

  84  0.796  0.750  0.160-   4 1.95  14 1.95
  85  0.796  0.750  0.262-   4 1.95  14 1.95   7 1.98
  86  0.144  0.625  0.211-   5 1.95  35 1.95  44 1.98
  87  0.948  0.625  0.211-   5 1.95  35 1.95   4 1.98
  88  0.046  0.750  0.290-   6 1.95  16 1.95   5 1.98
  89  0.046  0.750  0.392-   6 1.95  16 1.95   9 1.98
  90  0.894  0.625  0.341-   7 1.95  37 1.95   6 1.98
  91  0.198  0.625  0.341-  47 1.95  77 1.95   6 1.98
  92  0.796  0.750  0.420-   8 1.95  18 1.95   7 1.98
  93  0.796  0.750  0.522-   8 1.95  18 1.95  11 2.10
  94  0.144  0.625  0.471-   9 1.95  39 1.95  48 1.98
  95  0.948  0.625  0.471-   9 1.95  39 1.95   8 1.98
  96  0.047  0.750  0.551-  20 1.90  10 1.90   9 2.00
  97  0.047  0.750  0.653-  13 1.81  10 2.02  20 2.02
  98  0.898  0.625  0.601-  11 1.93  41 1.93  10 2.03
  99  0.197  0.625  0.602-  10 1.87  51 2.02  81 2.02
 100  0.801  0.751  0.680-  11 1.87  12 2.08  22 2.09
 101  0.796  0.749  0.783-  12 1.83  22 1.84
 102  0.142  0.625  0.738-  43 1.94  13 1.95  52 2.03
 103  0.954  0.624  0.740-  43 1.95  13 1.96  12 2.02
 104  0.796  0.000  0.160-  14 1.95  24 1.95
 105  0.796  0.000  0.262-  14 1.95  24 1.95  17 1.98
 106  0.144  0.875  0.211-   5 1.95  15 1.95  54 1.98
 107  0.948  0.875  0.211-   5 1.95  15 1.95  14 1.98
 108  0.046  0.000  0.290-  16 1.95  26 1.95  15 1.98
 109  0.046  0.000  0.392-  16 1.95  26 1.95  19 1.98
 110  0.894  0.875  0.341-   7 1.95  17 1.95  16 1.98
 111  0.198  0.875  0.341-  47 1.95  57 1.95  16 1.98
 112  0.796  0.000  0.420-  18 1.95  28 1.95  17 1.98
 113  0.796  0.000  0.522-  18 1.95  28 1.95  21 2.10
 114  0.144  0.875  0.471-   9 1.95  19 1.95  58 1.98
 115  0.948  0.875  0.471-   9 1.95  19 1.95  18 1.98
 116  0.047  1.000  0.551-  30 1.90  20 1.90  19 2.00
 117  0.047  1.000  0.653-  23 1.81  20 2.02  30 2.02
 118  0.897  0.875  0.602-  21 1.93  11 1.93  20 2.04
 119  0.197  0.875  0.602-  20 1.87  51 2.02  61 2.02
 120  0.798  1.000  0.681-  21 1.87  32 2.09  22 2.10
 121  0.797  1.000  0.784-  32 1.83  22 1.84
 122  0.142  0.875  0.738-  13 1.94  23 1.95  62 2.04
 123  0.954  0.875  0.739-  13 1.94  23 1.95  22 2.04
 124  0.796  0.250  0.160-  24 1.95  34 1.95
 125  0.796  0.250  0.262-  24 1.95  34 1.95  27 1.98
 126  0.144  0.125  0.211-  15 1.95  25 1.95  64 1.98
 127  0.948  0.125  0.211-  15 1.95  25 1.95  24 1.98
 128  0.046  0.250  0.290-  26 1.95  36 1.95  25 1.98
 129  0.046  0.250  0.392-  26 1.95  36 1.95  29 1.98
 130  0.894  0.125  0.341-  17 1.95  27 1.95  26 1.98
 131  0.198  0.125  0.341-  57 1.95  67 1.95  26 1.98
 132  0.796  0.250  0.420-  28 1.95  38 1.95  27 1.98
 133  0.796  0.250  0.522-  28 1.95  38 1.95  31 2.10
 134  0.144  0.125  0.471-  19 1.95  29 1.95  68 1.98
 135  0.948  0.125  0.471-  19 1.95  29 1.95  28 1.98
 136  0.047  0.250  0.551-  40 1.90  30 1.90  29 2.00
 137  0.047  0.250  0.653-  33 1.81  40 2.02  30 2.02
 138  0.897  0.125  0.602-  21 1.93  31 1.93  30 2.04
 139  0.197  0.125  0.602-  30 1.87  61 2.02  71 2.02
 140  0.800  0.250  0.680-  31 1.87  42 2.07  32 2.10
 141  0.796  0.251  0.783-  42 1.83  32 1.84
 142  0.142  0.125  0.738-  33 1.94  23 1.95  72 2.04
 143  0.953  0.125  0.739-  33 1.94  23 1.95  32 2.04
[...]
 229  0.546  0.500  0.392-  46 1.95  76 1.95  79 1.98
 230  0.394  0.375  0.341-  67 1.95  77 1.95  76 1.98
 231  0.698  0.375  0.341-  27 1.95  37 1.95  76 1.98
 232  0.296  0.500  0.420-  48 1.95  78 1.95  77 1.98
 233  0.296  0.500  0.522-  48 1.95  78 1.95  81 2.11
 234  0.644  0.375  0.471-  69 1.95  79 1.95  38 1.98
 235  0.448  0.375  0.471-  69 1.95  79 1.95  78 1.98
 236  0.548  0.500  0.551-  50 1.90  80 1.90  79 2.00
 237  0.546  0.500  0.654-  83 1.89  50 1.99  80 1.99
 238  0.397  0.375  0.602-  71 1.92  81 1.93  80 2.04
 239  0.698  0.375  0.603-  80 1.87  31 2.02  41 2.02
 240  0.298  0.500  0.681-  81 1.86  52 2.09  82 2.10
 241  0.299  0.500  0.784-  82 1.84  52 1.84
 242  0.644  0.372  0.733-  73 1.92  83 1.96  42 2.02
 243  0.454  0.374  0.737-  83 1.93  73 1.94  82 2.03

IMPORTANT INFORMATION: All symmetrisations will be switched off!
NOSYMM: (Re-)initialisation of all symmetry stuff for point group C_1.

                                     Primitive cell

  volume of cell :    3846.0501

  direct lattice vectors                    reciprocal lattice vectors
    13.003980404  0.000000000  0.000000000     0.076899531  0.000000000  0.000000000
     0.000000000 11.830378115  0.000000000     0.000000000  0.084528152  0.000000000
     0.000000000  0.000000000 25.000000000     0.000000000  0.000000000  0.040000000

  length of vectors
    13.003980404 11.830378115 25.000000000     0.076899531  0.084528152  0.040000000

  position of ions in fractional coordinates (direct lattice)
     0.557344291  0.549757631  0.840085132
     0.660249560  0.496094975  0.817011996
     0.583830190  0.491132145  0.816593541
     0.796469805  0.625012682  0.210890236
     0.046469805  0.750012682  0.210890236
     0.046469805  0.625012682  0.340930040
     0.796469805  0.750012682  0.340930040
     0.796469805  0.625012682  0.470969844
     0.046469805  0.750012682  0.470969844
     0.053623656  0.625026990  0.598131909
     0.802773807  0.750088464  0.605722728
     0.798114496  0.625575600  0.738920944
     0.047264667  0.750185234  0.725389851
     0.796469805  0.875012682  0.210890236
     0.046469805  0.000012682  0.210890236
     0.046469805  0.875012682  0.340930040
     0.796469805  0.000012682  0.340930040
     0.796469805  0.875012682  0.470969844
     0.046469805  0.000012682  0.470969844
     0.053747774  0.875000886  0.598216515
     0.802293775  0.999949401  0.606062736
     0.797028260  0.874814460  0.740091583
     0.047442171  0.999873346  0.725337059
     0.796469805  0.125012682  0.210890236
     0.046469805  0.250012682  0.210890236
     0.046469805  0.125012682  0.340930040
     0.796469805  0.250012682  0.340930040
     0.796469805  0.125012682  0.470969844
     0.046469805  0.250012682  0.470969844
     0.053768063  0.124930326  0.598191771
     0.802754763  0.249821140  0.605692176
     0.796924074  0.124177669  0.740077984
     0.047361621  0.249559835  0.725368873
     0.796469805  0.375012682  0.210890236
     0.046469805  0.500012682  0.210890236
     0.046469805  0.375012682  0.340930040
     0.796469805  0.500012682  0.340930040
     0.796469805  0.375012682  0.470969844
     0.046469805  0.500012682  0.470969844
     0.053648518  0.374955751  0.598133362
     0.803033051  0.499971001  0.605916512
     0.798652412  0.373387703  0.738962983
     0.048099410  0.500010489  0.725307002
     0.296469805  0.625012682  0.210890236
     0.546469805  0.750012682  0.210890236
     0.546469805  0.625012682  0.340930040
     0.296469805  0.750012682  0.340930040
     0.296469805  0.625012682  0.470969844
     0.546469805  0.750012682  0.470969844
     0.553789888  0.622920794  0.599533192
     0.302783524  0.749876682  0.606056658
     0.297794688  0.625086510  0.740151961
     0.547996109  0.750059170  0.723945844
     0.296469805  0.875012682  0.210890236
     0.546469805  0.000012682  0.210890236
     0.546469805  0.875012682  0.340930040
     0.296469805  0.000012682  0.340930040
     0.296469805  0.875012682  0.470969844
     0.546469805  0.000012682  0.470969844
     0.553557721  0.874100632  0.597032342
[...]
     0.546469805  0.500012682  0.391905408
     0.394469353  0.375012682  0.340930040
[...]
   -.639E+02 -.245E+01 -.306E+03   0.713E+02 0.265E+01 0.306E+03   -.755E+01 -.245E+00 0.335E-02   0.659E-03 0.271E-03 -.233E-01
   0.531E+02 0.398E+02 -.180E+04   -.720E+02 -.722E+02 0.178E+04   0.168E+02 0.287E+02 0.127E+02   0.229E-02 0.339E-02 -.140E+00
   -.919E+00 -.378E+00 0.281E+04   0.919E+00 0.379E+00 -.281E+04   -.541E-04 0.540E-02 0.611E+00   -.114E-03 -.298E-04 0.213E+00
   -.223E+00 -.399E+00 0.299E+04   0.226E+00 0.401E+00 -.298E+04   -.783E-02 0.372E-03 -.419E+01   -.259E-03 -.164E-03 0.213E+00
   -.180E+00 -.101E+00 0.144E+04   0.187E+00 0.101E+00 -.144E+04   -.522E-02 -.149E-02 -.842E-01   -.586E-04 0.114E-04 0.135E+00
   -.493E+00 -.992E-01 0.143E+04   0.483E+00 0.997E-01 -.143E+04   -.148E-01 -.132E-02 0.247E+00   0.792E-04 -.245E-04 0.133E+00
   -.134E+01 -.133E+00 -.657E+01   0.130E+01 0.114E+00 0.739E+01   0.111E-01 -.631E-02 -.152E+00   0.248E-03 0.665E-04 0.131E-01
   0.153E+01 -.670E+00 0.203E+01   -.152E+01 0.675E+00 -.325E+01   -.273E-01 -.163E-02 0.380E+00   0.401E-04 0.835E-05 0.785E-02
   0.137E+02 -.183E+01 -.140E+04   -.137E+02 0.184E+01 0.140E+04   -.901E-01 -.104E-01 0.230E+00   0.626E-03 0.104E-03 -.100E+00
   0.381E+01 -.713E+01 -.143E+04   -.375E+01 0.714E+01 0.143E+04   -.144E+00 -.394E-02 -.274E+00   -.368E-03 0.218E-03 -.108E+00
   -.686E+02 -.171E+02 -.274E+04   0.684E+02 0.171E+02 0.274E+04   0.202E+00 0.100E+00 -.279E+00   -.270E-03 0.570E-03 -.195E+00
   -.517E+01 -.228E+01 -.284E+04   0.523E+01 0.232E+01 0.284E+04   -.577E-01 -.370E-01 0.125E+01   -.351E-03 -.307E-04 -.189E+00
   -.776E+00 -.381E+00 0.281E+04   0.775E+00 0.385E+00 -.281E+04   -.222E-03 -.813E-02 0.611E+00   -.932E-04 -.240E-03 0.213E+00
   -.198E+00 -.592E-02 0.299E+04   0.201E+00 0.736E-02 -.298E+04   0.326E-01 0.553E-03 -.418E+01   -.231E-03 -.951E-04 0.213E+00
   -.145E+00 -.115E+00 0.144E+04   0.151E+00 0.115E+00 -.144E+04   -.520E-02 0.274E-02 -.841E-01   -.379E-04 -.656E-04 0.135E+00
   -.573E+00 -.164E-01 0.143E+04   0.562E+00 0.162E-01 -.143E+04   0.156E-01 -.213E-02 0.248E+00   0.744E-04 -.188E-04 0.133E+00
   -.267E+01 -.471E+00 -.752E+01   0.265E+01 0.496E+00 0.835E+01   0.907E-02 0.369E-02 -.158E+00   0.199E-03 0.673E-04 0.132E-01
   0.193E+01 -.333E-01 0.119E+01   -.192E+01 0.298E-01 -.240E+01   0.401E-02 0.202E-02 0.382E+00   0.292E-04 -.802E-05 0.782E-02
   0.166E+02 -.146E+01 -.141E+04   -.166E+02 0.147E+01 0.141E+04   -.103E+00 -.634E-02 0.239E+00   0.530E-03 -.317E-05 -.100E+00
   0.556E+01 0.328E-01 -.144E+04   -.548E+01 -.277E-01 0.144E+04   -.159E+00 -.345E-02 -.287E+00   -.411E-03 -.136E-03 -.109E+00
   -.153E+02 -.164E+02 -.277E+04   0.153E+02 0.164E+02 0.277E+04   0.599E-01 -.391E-02 -.405E+00   0.156E-03 -.625E-03 -.196E+00
   -.461E+01 0.308E+00 -.284E+04   0.459E+01 -.303E+00 0.284E+04   0.426E-01 -.244E-02 0.127E+01   -.363E-03 -.264E-03 -.189E+00
   -.772E+00 0.371E+00 0.281E+04   0.771E+00 -.372E+00 -.281E+04   0.414E-03 0.546E-02 0.612E+00   -.529E-04 0.486E-04 0.213E+00
   -.226E+00 0.399E+00 0.299E+04   0.229E+00 -.401E+00 -.298E+04   -.782E-02 0.925E-03 -.419E+01   -.251E-03 0.160E-03 0.213E+00
   -.145E+00 0.103E+00 0.144E+04   0.152E+00 -.103E+00 -.144E+04   -.523E-02 -.155E-02 -.840E-01   -.502E-04 0.579E-04 0.135E+00
   -.473E+00 0.986E-01 0.143E+04   0.464E+00 -.991E-01 -.143E+04   -.148E-01 -.132E-02 0.248E+00   0.920E-04 0.244E-04 0.133E+00
   -.261E+01 0.391E+00 -.752E+01   0.258E+01 -.423E+00 0.834E+01   0.748E-02 -.520E-02 -.153E+00   0.203E-03 -.121E-03 0.132E-01
   0.156E+01 0.647E+00 0.204E+01   -.155E+01 -.650E+00 -.326E+01   -.276E-01 0.281E-02 0.381E+00   0.376E-04 -.655E-05 0.778E-02
   0.173E+02 0.153E+01 -.141E+04   -.173E+02 -.154E+01 0.141E+04   -.101E+00 0.508E-02 0.238E+00   0.548E-03 -.113E-03 -.100E+00
   0.361E+01 0.682E+01 -.143E+04   -.355E+01 -.682E+01 0.143E+04   -.148E+00 0.110E-02 -.281E+00   -.319E-03 -.172E-03 -.109E+00
   -.155E+02 0.142E+02 -.277E+04   0.154E+02 -.142E+02 0.277E+04   0.653E-01 -.207E-02 -.402E+00   0.428E-03 -.832E-04 -.197E+00
   -.465E+01 0.216E+01 -.284E+04   0.471E+01 -.220E+01 0.284E+04   -.543E-01 0.279E-01 0.125E+01   -.330E-03 -.237E-04 -.189E+00
   -.915E+00 0.387E+00 0.281E+04   0.914E+00 -.392E+00 -.281E+04   -.308E-03 -.796E-02 0.611E+00   -.970E-04 0.219E-03 0.213E+00
   -.252E+00 0.597E-02 0.299E+04   0.255E+00 -.746E-02 -.298E+04   0.326E-01 0.893E-03 -.418E+01   -.283E-03 0.111E-03 0.213E+00
   -.181E+00 0.112E+00 0.144E+04   0.188E+00 -.113E+00 -.144E+04   -.528E-02 0.271E-02 -.841E-01   -.496E-04 0.259E-04 0.135E+00
   -.396E+00 0.170E-01 0.143E+04   0.387E+00 -.168E-01 -.143E+04   0.154E-01 -.217E-02 0.247E+00   0.748E-04 0.223E-04 0.133E+00
   -.124E+01 0.221E+00 -.667E+01   0.120E+01 -.195E+00 0.748E+01   0.134E-01 0.329E-02 -.155E+00   0.267E-03 -.147E-04 0.131E-01
   0.137E+01 -.838E-02 0.288E+01   -.136E+01 0.810E-02 -.410E+01   0.294E-02 0.991E-03 0.383E+00   0.448E-04 0.199E-05 0.775E-02
   0.142E+02 0.191E+01 -.140E+04   -.141E+02 -.191E+01 0.140E+04   -.908E-01 0.531E-02 0.235E+00   0.550E-03 0.234E-04 -.100E+00
   0.254E+01 -.190E-01 -.142E+04   -.243E+01 0.179E-01 0.142E+04   -.206E+00 -.160E-02 -.297E+00   -.284E-03 0.764E-04 -.108E+00
   -.686E+02 0.138E+02 -.274E+04   0.684E+02 -.137E+02 0.274E+04   0.142E+00 -.125E+00 -.265E+00   -.426E-04 0.304E-04 -.195E+00
   -.728E+01 0.248E+00 -.284E+04   0.726E+01 -.251E+00 0.284E+04   0.443E-01 0.111E-03 0.117E+01   -.262E-03 0.294E-03 -.189E+00
   0.905E+00 -.331E+00 0.281E+04   -.905E+00 0.331E+00 -.281E+04   -.205E-03 0.542E-02 0.611E+00   0.124E-03 0.121E-04 0.213E+00
   0.235E+00 -.618E+00 0.299E+04   -.238E+00 0.622E+00 -.298E+04   -.675E-02 0.564E-04 -.419E+01   0.250E-03 -.215E-03 0.212E+00
   0.313E+00 0.615E-01 0.144E+04   -.320E+00 -.494E-01 -.144E+04   -.281E-02 -.406E-02 -.883E-01   0.420E-04 -.171E-04 0.135E+00
   0.363E+00 -.489E-01 0.143E+04   -.354E+00 0.493E-01 -.143E+04   -.191E-01 -.136E-02 0.243E+00   -.517E-04 0.360E-05 0.133E+00
   -.634E-01 0.991E-01 -.876E+01   0.123E+00 -.114E+00 0.964E+01   -.125E-01 -.649E-02 -.163E+00   -.289E-03 0.406E-04 0.134E-01
   0.350E+01 0.105E+01 0.533E+01   -.352E+01 -.114E+01 -.634E+01   -.230E-01 0.378E-01 0.302E+00   -.684E-04 0.114E-03 0.750E-02
   0.211E+02 -.115E+02 -.139E+04   -.210E+02 0.116E+02 0.139E+04   -.108E+00 -.210E-01 0.160E+00   0.489E-03 0.826E-04 -.101E+00
   0.183E+02 -.493E+01 -.144E+04   -.182E+02 0.491E+01 0.144E+04   -.154E+00 0.122E-01 -.276E+00   -.936E-03 0.614E-04 -.109E+00
   0.368E+02 -.141E+02 -.275E+04   -.369E+02 0.141E+02 0.275E+04   0.588E-01 0.119E-01 -.439E+00   0.192E-03 -.228E-05 -.197E+00
   0.198E+02 -.547E+02 -.280E+04   -.196E+02 0.547E+02 0.280E+04   -.176E+00 0.597E-03 0.134E+01   0.363E-03 -.419E-03 -.186E+00
   0.766E+00 -.340E+00 0.281E+04   -.765E+00 0.344E+00 -.281E+04   -.968E-03 -.811E-02 0.611E+00   0.805E-04 -.214E-03 0.213E+00
   0.207E+00 -.111E-01 0.299E+04   -.210E+00 0.139E-01 -.298E+04   0.336E-01 0.349E-03 -.418E+01   0.236E-03 -.164E-03 0.213E+00
   0.282E+00 0.107E-01 0.144E+04   -.289E+00 -.943E-02 -.144E+04   -.277E-02 0.187E-02 -.887E-01   0.583E-05 -.828E-05 0.135E+00
   0.438E+00 -.187E-01 0.143E+04   -.429E+00 0.187E-01 -.143E+04   0.111E-01 -.211E-02 0.244E+00   -.625E-04 -.314E-04 0.133E+00
   0.100E+01 -.255E-01 -.901E+01   -.960E+00 0.295E-01 0.988E+01   -.551E-02 0.509E-02 -.166E+00   -.234E-03 0.427E-04 0.134E-01
   0.306E+01 -.241E+00 0.837E+01   -.310E+01 0.238E+00 -.959E+01   0.161E-01 0.135E-02 0.327E+00   -.631E-04 -.560E-04 0.782E-02
   0.176E+02 -.104E+02 -.138E+04   -.175E+02 0.104E+02 0.138E+04   -.104E+00 0.924E-02 0.867E-01   0.668E-03 -.247E-04 -.997E-01
[...]
   -.529E+02 0.827E-02 0.860E+03   0.571E+02 -.923E-02 -.860E+03   -.342E+01 -.249E-02 0.173E+00   0.356E-03 0.190E-04 0.806E-01
   0.530E+02 0.227E-01 0.860E+03   -.572E+02 -.234E-01 -.860E+03   0.343E+01 0.423E-02 0.177E+00   -.320E-03 0.260E-04 0.804E-01
   -.262E-02 0.342E-01 0.386E+03   0.272E-01 -.347E-01 -.391E+03   -.366E-01 0.119E-02 0.403E+01   -.119E-03 0.195E-05 0.369E-01
   0.247E+01 0.198E+00 -.413E+03   -.278E+01 -.193E+00 0.421E+03   0.264E+00 -.849E-02 -.690E+01   -.327E-03 0.177E-04 -.231E-01
   -.544E+02 -.333E+00 0.264E+01   0.594E+02 0.329E+00 -.290E+01   -.495E+01 0.112E-01 0.282E+00   0.208E-03 -.211E-04 0.591E-02
   0.553E+02 -.420E+00 -.292E+00   -.603E+02 0.413E+00 0.988E-01   0.499E+01 0.245E-01 0.243E+00   -.278E-03 -.120E-04 0.593E-02
   0.121E+02 0.596E+00 -.445E+03   -.133E+02 -.692E+00 0.437E+03   0.106E+01 0.950E-01 0.656E+01   0.153E-03 0.239E-04 -.385E-01
   0.195E+02 -.189E+01 -.120E+04   -.210E+02 0.196E+01 0.120E+04   0.132E+01 -.595E-01 -.115E+01   0.205E-03 0.116E-03 -.833E-01
   -.491E+02 0.197E+01 -.835E+03   0.557E+02 -.203E+01 0.834E+03   -.593E+01 0.464E-01 0.128E+01   -.939E-03 0.298E-04 -.627E-01
   0.987E+00 0.406E+01 -.844E+03   -.873E+00 -.422E+01 0.844E+03   -.623E-01 0.144E+00 0.403E+00   0.685E-03 0.943E-06 -.630E-01
   0.184E+02 -.539E+00 -.134E+04   -.188E+02 0.514E+00 0.135E+04   0.371E+00 0.153E-01 -.214E+01   -.223E-03 0.185E-03 -.942E-01
   0.369E+02 0.606E+00 -.202E+04   -.367E+02 -.670E+00 0.204E+04   -.191E+00 0.597E-01 -.199E+02   0.719E-03 0.554E-03 -.137E+00
   -.470E+02 0.418E+02 -.164E+04   0.534E+02 -.415E+02 0.164E+04   -.592E+01 -.272E+00 -.598E+00   0.101E-02 -.222E-04 -.117E+00
   0.629E+02 0.336E+02 -.171E+04   -.696E+02 -.338E+02 0.171E+04   0.606E+01 0.825E-01 -.318E+01   -.568E-03 0.419E-03 -.119E+00
   0.158E+02 -.276E+02 0.825E+02   -.682E-12 -.426E-13 0.234E-10   -.155E+02 0.236E+02 -.766E+02   0.167E-02 0.363E-02 0.185E+01

 POSITION                                       TOTAL-FORCE (eV/Angst)
      7.24769      6.50384     21.00213         0.125375     -0.348094     -0.273443
      8.58587      5.86899     20.42530        -0.391626     -0.056108     -0.033930
      7.59212      5.81028     20.41484         0.253368      0.428490      0.087449
     10.35728      7.39414      5.27226         0.001177      0.001589     -4.038830
      0.60429      8.87293      5.27226         0.003261      0.002032      3.228138
      0.60429      7.39414      8.52325         0.005694     -0.000090      0.549931
     10.35728      8.87293      8.52325        -0.008257      0.000366     -0.836264
     10.35728      7.39414     11.77425        -0.034114     -0.018099      0.691913
      0.60429      8.87293     11.77425        -0.002591      0.002217     -0.834511
      0.69732      7.39431     14.95330         0.076833      0.002175     -0.015042
     10.43925      8.87383     15.14307        -0.016432      0.001516      0.131991
     10.37867      7.40080     18.47302        -0.046665      0.081209      0.334458
      0.61463      8.87497     18.13475         0.012935      0.016190     -0.094987
     10.35728     10.35173      5.27226         0.000335      0.003719     -4.042009
      0.60429      0.00015      5.27226         0.006191      0.001378      3.224453
      0.60429     10.35173      8.52325         0.005511      0.000734      0.549703
     10.35728      0.00015      8.52325        -0.005301     -0.000448     -0.837162
     10.35728     10.35173     11.77425        -0.016052      0.025059      0.698292
      0.60429      0.00015     11.77425         0.000582     -0.001854     -0.829859
      0.69894     10.35159     14.95541         0.070598      0.003345     -0.015603
     10.43301     11.82978     15.15157        -0.017601      0.002324      0.132795
     10.36454     10.34939     18.50229        -0.002647      0.012910      0.366864
      0.61694     11.82888     18.13343         0.004664      0.002392     -0.101657
     10.35728      1.47895      5.27226        -0.000106     -0.000651     -4.044090
      0.60429      2.95774      5.27226         0.003249     -0.001727      3.226341
      0.60429      1.47895      8.52325         0.005635     -0.000344      0.549281
     10.35728      2.95774      8.52325        -0.008094     -0.000547     -0.837911
     10.35728      1.47895     11.77425        -0.015336     -0.031433      0.694929
      0.60429      2.95774     11.77425        -0.001043     -0.000552     -0.835316
      0.69920      1.47797     14.95479         0.071921     -0.004199     -0.015483
     10.43901      2.95548     15.14230        -0.021241      0.000474      0.137520
     10.36319      1.46907     18.50195        -0.003383     -0.018179      0.366844
      0.61589      2.95239     18.13422         0.011113     -0.015529     -0.094095
     10.35728      4.43654      5.27226         0.000592     -0.005195     -4.040923
      0.60429      5.91534      5.27226         0.006502     -0.001058      3.227310
      0.60429      4.43654      8.52325         0.005851      0.000537      0.549562
     10.35728      5.91534      8.52325        -0.004802     -0.000109     -0.834831
     10.35728      4.43654     11.77425        -0.035538      0.024128      0.687841
      0.60429      5.91534     11.77425         0.002791      0.000310     -0.836433
      0.69764      4.43587     14.95333         0.075131     -0.001512     -0.015030
     10.44263      5.91485     15.14791        -0.019882     -0.002265      0.140220
     10.38566      4.41732     18.47407        -0.063025     -0.101306      0.338482
      0.62548      5.91531     18.13268         0.010877     -0.001456     -0.090303
      3.85529      7.39414      5.27226         0.001031      0.000860     -4.039535
      7.10628      8.87293      5.27226        -0.001275      0.003719      3.241249
      7.10628      7.39414      8.52325        -0.005447      0.009381      0.573586
      3.85529      8.87293      8.52325         0.006671      0.000234     -0.821593
      3.85529      7.39414     11.77425         0.048613     -0.014660      0.743619
      7.10628      8.87293     11.77425        -0.029178     -0.051355     -0.709016
      7.20147      7.36939     14.98833         0.054627     -0.019077     -0.002765
      3.93739      8.87132     15.15142        -0.010615     -0.007899      0.137052
      3.87252      7.39501     18.50380         0.000105      0.003591      0.386554
      7.12613      8.87348     18.09865         0.017672     -0.008379     -0.112020
      3.85529     10.35173      5.27226         0.001747      0.003039     -4.042044
      7.10628      0.00015      5.27226         0.002001      0.002462      3.234675
      7.10628     10.35173      8.52325        -0.005549      0.000947      0.575156
      3.85529      0.00015      8.52325         0.010053     -0.000224     -0.822458
      3.85529     10.35173     11.77425         0.036514      0.004041      0.736359
      7.10628      0.00015     11.77425        -0.030389     -0.002870     -0.891038
      7.19845     10.34094     14.92581         0.052149     -0.018171      0.004219
[...]
      7.10628      5.91534      9.79764         0.000683     -0.001466     -0.292102
      5.12967      4.43654      8.52325         0.289885     -0.001847      0.060231
      9.08289      4.43654      8.52325        -0.285411      0.003577      0.060508
      3.85529      5.91534     10.49986        -0.016225      0.000899      0.068290
      3.85529      5.91534     13.04863        -0.000647     -0.004277     -0.219498
      8.38067      4.43654     11.77425        -0.656041      0.013346      0.077727
      5.83190      4.43654     11.77425         0.696427      0.022943      0.095328
      7.12081      5.91272     13.77646         0.018777      0.011051      0.217696
      7.10255      5.91991     16.34467         0.031494      0.001656     -0.061858
      5.16078      4.43648     15.04668        -0.166960      0.001440      0.027113
      9.07412      4.43644     15.06405         0.039777      0.007737      0.008498
      3.87066      5.91984     17.01761         0.004483     -0.005893     -0.036357
      3.88586      5.91340     19.58870        -0.027056      0.005720     -0.627208
      8.37443      4.39507     18.31395        -0.310527     -0.025060      0.033331
      5.90128      4.42330     18.43087         0.301475     -0.013356     -0.037965
    total drift:                                0.057114     -0.020143     -0.051416

  FREE ENERGIE OF THE ION-ELECTRON SYSTEM (eV)
  free  energy   TOTEN  =     -2636.46783968 eV

  energy  without entropy=    -2636.46783968  energy(sigma->0) =    -2636.46783968

     |            E. Caldeweyher, S. Ehlert & S. Grimme          |
     |          Mulliken Center for Theoretical Chemistry        |
     |                    University of Bonn                     |

Rational (Becke-Johnson) damping: hse06-D4-ATM
  s6         1.0000
  s8         1.1953
  s9         1.0000
  a1         0.3866
  a2         5.1913
 alp        16.0000

Dispersion energy:      -1.4424270025648E+00 Eh