 vasp.6.4.2 20Jul23 (build Nov 17 2023 15:39:20) complex
 executed on              LinuxNV date 2024.02.27  20:33:05
 OpenACC runtime initialized ...    4 GPUs detected

 INCAR:
   SYSTEM = Oxide-Surface
   ISMEAR = 0
   SIGMA = 0.05
   EDIFF = 1E-4
   ALGO = Normal
   ISTART = 2
   IBRION = -1
   NSW = 0
   ISYM = 0
   DIPOL = 0.5 0.5 0.5
   IDIPOL = 3
   LDIPOL = .TRUE.
   LHFCALC = .TRUE.
   GGA = PE
   IVDW = 21
   VDW_SR = 0.96
   ENCUT = 450
   PREC = Normal
   LASPH = .TRUE.
   LREAL = Auto
   ISPIN = 1
   NELM = 200
   NELMIN = 8
   NCORE = 1
   KPAR = 1
   LWAVE = .FALSE.
   LCHARG = .FALSE.

 POTCAR:    PAW_PBE C 08Apr2002
 POTCAR:    PAW_PBE O 08Apr2002
 POTCAR:    PAW_PBE Mg_pv 13Apr2007
 POTCAR:    PAW_PBE O 08Apr2002
 POTCAR:    PAW_PBE C 08Apr2002
   VRHFIN =C: s2p2

   TITEL  = PAW_PBE C 08Apr2002
   POMASS =   12.011; ZVAL   =    4.000    mass and valenz
   ENMAX  =  400.000; ENMIN  =  300.000 eV

[...]

   TITEL  = PAW_PBE Mg_pv 13Apr2007
   POMASS =   24.305; ZVAL   =    8.000    mass and valenz
   ENMAX  =  403.929; ENMIN  =  302.947 eV

   TITEL  = PAW_PBE O 08Apr2002
   POMASS =   16.000; ZVAL   =    6.000    mass and valenz
   ENMAX  =  400.000; ENMIN  =  300.000 eV

 Optimization of the real space projectors (new method)

 maximal supplied QI-value         = 25.13
 optimisation between [QCUT,QGAM] = [ 10.81, 21.61] = [ 32.71,130.83] Ry
 Optimized for a Real-space Cutoff    1.23 Angstroem

   l    n(q)    QCUT    max X(q) W(low)/X(q) W(high)/X(q)  e(spline)
   0      8    10.807   115.676    0.36E-03    0.72E-03    0.24E-06
   0      8    10.807    87.132    0.35E-03    0.71E-03    0.24E-06
   1      7    10.807     4.429    0.19E-03    0.39E-03    0.11E-06
   1      7    10.807     2.733    0.14E-03    0.28E-03    0.13E-06
 Optimization of the real space projectors (new method)

[...]

   l    n(q)    QCUT    max X(q) W(low)/X(q) W(high)/X(q)  e(spline)
   1      7    10.771     2.974    0.18E-03    0.56E-05    0.13E-06
   1      7    10.771     4.279    0.39E-03    0.94E-04    0.28E-06
   0      8    10.771    16.381    0.27E-03    0.38E-03    0.44E-07
   0      8    10.771     5.611    0.18E-03    0.26E-03    0.32E-07
   2      7    10.771     4.652    0.12E-03    0.23E-03    0.45E-07
 Optimization of the real space projectors (new method)

 maximal supplied QI-value         = 24.76
 optimisation between [QCUT,QGAM] = [ 10.64, 21.54] = [ 31.73,129.89] Ry
 Optimized for a Real-space Cutoff    1.23 Angstroem

   l    n(q)    QCUT    max X(q) W(low)/X(q) W(high)/X(q)  e(spline)
   0      8    10.645    20.381    0.38E-03    0.60E-03    0.15E-06
   0      8    10.645    15.268    0.40E-03    0.65E-03    0.17E-06
   1      7    10.645     5.964    0.30E-03    0.63E-03    0.18E-06
   1      7    10.645     5.382    0.24E-03    0.53E-03    0.16E-06
  PAW_PBE C 08Apr2002                   :
  PAW_PBE O 08Apr2002                   :
  PAW_PBE Mg_pv 13Apr2007               :
  PAW_PBE O 08Apr2002                   :

 POSCAR:  C  O Mg  O
  positions in direct lattice
 exchange correlation table for  LEXCH =        8
   RHO(1)=    0.500       N(1)  =     2000
   RHO(2)=  100.500       N(2)  =     4000

 ion  position               nearest neighbor table
   1  0.500  0.500  0.765-   2 1.15
   2  0.500  0.500  0.819-   1 1.15
   3  0.000  0.750  0.352-  35 2.11  37 2.11  38 2.11  45 2.11  54 2.11
   4  0.250  0.000  0.352-  36 2.11  37 2.11  38 2.11  46 2.11  53 2.11
   5  0.000  0.000  0.451-  37 2.11  36 2.11  35 2.11  43 2.11  52 2.11  41 2.12
   6  0.250  0.750  0.451-  38 2.11  36 2.11  35 2.11  44 2.11  51 2.11  42 2.12
   7  0.000  0.750  0.550-  49 2.11  42 2.11  58 2.11  41 2.11  35 2.12  39 2.15
   8  0.250  0.000  0.550-  57 2.11  50 2.11  42 2.11  41 2.11  36 2.12  40 2.15
   9  0.000  0.000  0.649-  39 2.11  40 2.11  47 2.11  56 2.11  41 2.11
  10  0.250  0.750  0.649-  42 2.11  40 2.11  39 2.11  48 2.11  55 2.11
  11  0.000  0.250  0.352-  43 2.11  37 2.11  45 2.11  46 2.11  62 2.11
  12  0.250  0.500  0.352-  44 2.11  38 2.11  45 2.11  46 2.11  61 2.11
  13  0.000  0.500  0.451-  45 2.11  43 2.11  44 2.11  35 2.11  60 2.11  49 2.12
  14  0.250  0.250  0.451-  46 2.11  43 2.11  44 2.11  36 2.11  59 2.11  50 2.12
  15  0.000  0.250  0.550-  49 2.11  50 2.11  66 2.11  41 2.11  43 2.12  47 2.15
  16  0.250  0.500  0.550-  65 2.11  50 2.11  42 2.11  49 2.11  44 2.13  48 2.15
  17  0.000  0.500  0.649-  48 2.10  64 2.10  49 2.11  47 2.11  39 2.11
  18  0.250  0.250  0.649-  50 2.11  47 2.11  40 2.11  48 2.11  63 2.11
  19  0.500  0.750  0.352-  51 2.11  38 2.11  53 2.11  54 2.11  61 2.11
  20  0.750  0.000  0.352-  52 2.11  37 2.11  53 2.11  54 2.11  62 2.11
  21  0.500  0.000  0.451-  53 2.11  51 2.11  52 2.11  36 2.11  59 2.11  57 2.12
  22  0.750  0.750  0.451-  54 2.11  51 2.11  52 2.11  35 2.11  60 2.11  58 2.12
  23  0.500  0.750  0.550-  65 2.11  58 2.11  42 2.11  57 2.11  51 2.13  55 2.15
  24  0.750  0.000  0.550-  57 2.11  58 2.11  66 2.11  41 2.11  52 2.12  56 2.15
  25  0.500  0.000  0.649-  55 2.10  63 2.10  57 2.11  40 2.11  56 2.11
  26  0.750  0.750  0.649-  58 2.11  56 2.11  39 2.11  55 2.11  64 2.11
  27  0.500  0.250  0.352-  59 2.11  53 2.11  46 2.11  61 2.11  62 2.11
  28  0.750  0.500  0.352-  60 2.11  54 2.11  45 2.11  61 2.11  62 2.11
  29  0.500  0.500  0.451-  61 2.11  51 2.11  59 2.11  60 2.11  44 2.11  65 2.13
  30  0.750  0.250  0.451-  62 2.11  52 2.11  59 2.11  60 2.11  43 2.11  66 2.12
  31  0.500  0.250  0.550-  65 2.11  50 2.11  66 2.11  57 2.11  59 2.13  63 2.15
  32  0.750  0.500  0.550-  65 2.11  58 2.11  66 2.11  49 2.11  60 2.13  64 2.15
  33  0.500  0.500  0.651-  48 2.12  55 2.12  63 2.12  64 2.12  65 2.14
  34  0.750  0.250  0.649-  66 2.11  56 2.11  47 2.11  64 2.11  63 2.11
  35  0.000  0.750  0.451-   3 2.11   5 2.11   6 2.11  13 2.11  22 2.11   7 2.12
  36  0.250  0.000  0.451-   4 2.11   5 2.11   6 2.11  14 2.11  21 2.11   8 2.12
  37  0.000  0.000  0.352-   5 2.11   4 2.11   3 2.11  11 2.11  20 2.11
  38  0.250  0.750  0.352-   6 2.11   4 2.11   3 2.11  12 2.11  19 2.11
  39  0.000  0.750  0.651-   9 2.11  10 2.11  26 2.11  17 2.11   7 2.15
  40  0.250  0.000  0.651-   9 2.11  10 2.11  18 2.11  25 2.11   8 2.15
  41  0.000  0.000  0.550-   9 2.11   8 2.11   7 2.11  15 2.11  24 2.11   5 2.12
  42  0.250  0.750  0.550-  10 2.11   8 2.11   7 2.11  23 2.11  16 2.11   6 2.12
  43  0.000  0.250  0.451-  11 2.11   5 2.11  13 2.11  14 2.11  30 2.11  15 2.12
  44  0.250  0.500  0.451-  12 2.11   6 2.11  13 2.11  14 2.11  29 2.11  16 2.13
  45  0.000  0.500  0.352-  13 2.11  11 2.11  12 2.11   3 2.11  28 2.11
  46  0.250  0.250  0.352-  14 2.11  11 2.11  12 2.11   4 2.11  27 2.11
  47  0.000  0.250  0.651-   9 2.11  18 2.11  34 2.11  17 2.11  15 2.15
  48  0.249  0.500  0.651-  17 2.10  10 2.11  18 2.11  33 2.12  16 2.15
  49  0.000  0.500  0.550-  17 2.11  15 2.11   7 2.11  16 2.11  32 2.11  13 2.12
  50  0.250  0.250  0.550-  18 2.11  15 2.11   8 2.11  31 2.11  16 2.11  14 2.12
  51  0.500  0.750  0.451-  19 2.11   6 2.11  21 2.11  22 2.11  29 2.11  23 2.13
  52  0.750  0.000  0.451-  20 2.11   5 2.11  21 2.11  22 2.11  30 2.11  24 2.12
  53  0.500  0.000  0.352-  21 2.11  19 2.11  20 2.11   4 2.11  27 2.11
  54  0.750  0.750  0.352-  22 2.11  19 2.11  20 2.11   3 2.11  28 2.11
  55  0.500  0.751  0.651-  25 2.10  10 2.11  26 2.11  33 2.12  23 2.15
  56  0.750  0.000  0.651-   9 2.11  26 2.11  34 2.11  25 2.11  24 2.15
  57  0.500  0.000  0.550-  25 2.11  24 2.11   8 2.11  23 2.11  31 2.11  21 2.12
  58  0.750  0.750  0.550-  26 2.11  24 2.11   7 2.11  23 2.11  32 2.11  22 2.12
  59  0.500  0.250  0.451-  27 2.11  21 2.11  14 2.11  29 2.11  30 2.11  31 2.13
  60  0.750  0.500  0.451-  28 2.11  22 2.11  13 2.11  29 2.11  30 2.11  32 2.13
  61  0.500  0.500  0.352-  29 2.11  19 2.11  27 2.11  28 2.11  12 2.11
  62  0.750  0.250  0.352-  30 2.11  20 2.11  27 2.11  28 2.11  11 2.11
  63  0.500  0.249  0.651-  25 2.10  18 2.11  34 2.11  33 2.12  31 2.15
  64  0.751  0.500  0.651-  17 2.10  26 2.11  34 2.11  33 2.12  32 2.15
  65  0.500  0.500  0.550-  16 2.11  23 2.11  31 2.11  32 2.11  29 2.13  33 2.14
  66  0.750  0.250  0.550-  34 2.11  24 2.11  15 2.11  31 2.11  32 2.11  30 2.12

IMPORTANT INFORMATION: All symmetrisations will be switched off!
NOSYMM: (Re-)initialisation of all symmetry stuff for point group C_1.

                                     Primitive cell

  volume of cell :    1519.8199

  direct lattice vectors                    reciprocal lattice vectors
     8.440984654  0.000000000  0.000000000     0.118469591  0.000000000  0.000000000
     0.000000000  8.440984654  0.000000000     0.000000000  0.118469591  0.000000000
     0.000000000  0.000000000 21.330738491     0.000000000  0.000000000  0.046880702

  length of vectors
     8.440984654  8.440984654 21.330738491     0.118469591  0.118469591  0.046880702

  position of ions in fractional coordinates (direct lattice)
     0.500000000  0.500000000  0.765053803
     0.500000000  0.500000000  0.818817521
     0.000000000  0.750000000  0.351605267
     0.250000000  0.000000000  0.351605267
     0.000000000  0.000000000  0.450535089
     0.250000000  0.750000000  0.450535089
     0.000000000  0.749939268  0.550083239
     0.250060732  0.000000000  0.550083239
     0.000000000  0.000000000  0.648745309
     0.249858327  0.750141673  0.648569547
     0.000000000  0.250000000  0.351605267
     0.250000000  0.500000000  0.351605267
     0.000000000  0.500000000  0.450535089
     0.250000000  0.250000000  0.450535089
     0.000000000  0.250060732  0.550083239
     0.250378379  0.500000000  0.550219524
     0.000000000  0.500000000  0.648615280
     0.249858327  0.249858327  0.648569547
     0.500000000  0.750000000  0.351605267
     0.750000000  0.000000000  0.351605267
     0.500000000  0.000000000  0.450535089
     0.750000000  0.750000000  0.450535089
     0.500000000  0.749621621  0.550219524
     0.749939268  0.000000000  0.550083239
     0.500000000  0.000000000  0.648615280
     0.750141673  0.750141673  0.648569547
     0.500000000  0.250000000  0.351605267
     0.750000000  0.500000000  0.351605267
     0.500000000  0.500000000  0.450535089
     0.750000000  0.250000000  0.450535089
     0.500000000  0.250378379  0.550219524
     0.749621621  0.500000000  0.550219524
     0.500000000  0.500000000  0.650616960
     0.750141673  0.249858327  0.648569547
     0.000000000  0.750000000  0.450535089
     0.250000000  0.000000000  0.450535089
     0.000000000  0.000000000  0.351605267
     0.250000000  0.750000000  0.351605267
     0.000000000  0.750218533  0.650979255
     0.249781467  0.000000000  0.650979255
     0.000000000  0.000000000  0.549809890
     0.249945770  0.750054230  0.549859113
     0.000000000  0.250000000  0.450535089
     0.250000000  0.500000000  0.450535089
     0.000000000  0.500000000  0.351605267
     0.250000000  0.250000000  0.351605267
     0.000000000  0.249781467  0.650979255
     0.248822710  0.500000000  0.650882872
     0.000000000  0.500000000  0.549762666
     0.249945770  0.249945770  0.549859113
     0.500000000  0.750000000  0.450535089
     0.750000000  0.000000000  0.450535089
     0.500000000  0.000000000  0.351605267
[...]
   O         238.869          5.033         21.130          3.91305431
   O         238.538          5.031         21.116          3.91034257
   O         195.382          4.867         19.111          3.53898793
   O         195.352          4.867         19.109          3.53871425
   O         206.260          4.911         19.635          3.63616935
   O         191.597          4.851         18.924          3.50453334
   O         241.830          5.043         21.261          3.93723875
   O         242.107          5.044         21.273          3.93949384
   O         238.869          5.033         21.130          3.91305447
   O         238.869          5.033         21.130          3.91305458
   O         195.421          4.867         19.112          3.53933902
   O         195.352          4.867         19.109          3.53871422
   O         206.260          4.911         19.635          3.63616936
   O         206.260          4.911         19.635          3.63616930
   O         239.054          5.033         21.139          3.91457191
   O         242.107          5.044         21.273          3.93949373

  vdW correction parametrized for the method ÀÍÜ5    þ

  IVDW =  21
  VDW_RADIUS =    50.000 A
  VDW_IDAMPF =  0
  VDW_S6 =     1.000
  VDW_SR =     0.960
  VDW_D =    20.000
  LVDW_ONECELL = F F F
  LVDW_SAMETYPE T T T T
  LVDW_EWALD = F

  Number of pair interactions contributing to vdW energy:  768278
  Edisp (eV):   -3.94210

 VOLUME and BASIS-vectors are now :
  energy-cutoff  :      450.00
  volume of cell :     1519.82
      direct lattice vectors                 reciprocal lattice vectors
     8.440984654  0.000000000  0.000000000     0.118469591  0.000000000  0.000000000
     0.000000000  8.440984654  0.000000000     0.000000000  0.118469591  0.000000000
     0.000000000  0.000000000 21.330738491     0.000000000  0.000000000  0.046880702

  length of vectors
     8.440984654  8.440984654 21.330738491     0.118469591  0.118469591  0.046880702

 FORCES acting on ions
    electron-ion (+dipol)            ewald-force                    non-local-force                 convergence-correction
   0.195E-06 -.417E-06 -.837E+03   0.129E-13 -.244E-14 0.811E+03   -.348E-06 -.264E-07 0.259E+02   0.157E-06 0.210E-06 0.150E+00
   -.514E-06 -.182E-07 -.145E+04   -.222E-15 -.289E-14 0.151E+04   0.288E-06 -.117E-06 -.534E+02   0.169E-06 0.600E-07 0.197E+00
   0.202E-05 -.129E+00 0.208E+04   -.103E-12 0.129E+00 -.207E+04   -.226E-05 0.362E-04 -.675E+01   0.822E-06 -.593E-04 -.237E+00
   0.129E+00 -.191E-05 0.208E+04   -.129E+00 0.586E-13 -.207E+04   -.366E-04 0.142E-05 -.675E+01   0.566E-04 0.571E-07 -.237E+00
   -.149E-05 0.176E-05 0.713E+03   -.213E-13 0.782E-13 -.714E+03   0.616E-06 -.683E-06 0.472E+00   0.936E-06 -.570E-06 -.941E-01
   0.472E+00 -.472E+00 0.714E+03   -.467E+00 0.467E+00 -.715E+03   -.275E-02 0.275E-02 0.495E+00   0.229E-03 -.229E-03 -.936E-01
   0.434E-06 -.285E+01 -.643E+03   0.693E-13 0.283E+01 0.643E+03   -.674E-06 0.177E-01 -.112E+00   0.851E-06 -.757E-03 0.814E-01
   0.285E+01 -.666E-06 -.643E+03   -.283E+01 0.391E-13 0.643E+03   -.177E-01 0.989E-06 -.112E+00   0.757E-03 -.411E-06 0.814E-01
   -.873E-06 0.125E-05 -.200E+04   -.128E-12 0.249E-13 0.200E+04   0.237E-05 -.986E-06 0.570E+01   -.163E-05 -.128E-06 0.226E+00
   0.181E+02 -.181E+02 -.198E+04   -.182E+02 0.182E+02 0.198E+04   0.751E-01 -.751E-01 0.579E+01   0.183E-02 -.183E-02 0.226E+00
   -.485E-06 0.129E+00 0.208E+04   -.453E-13 -.129E+00 -.207E+04   -.120E-05 -.396E-04 -.675E+01   0.219E-05 0.615E-04 -.237E+00
   0.124E+00 0.893E-07 0.208E+04   -.121E+00 -.124E-13 -.207E+04   -.149E-02 0.107E-05 -.675E+01   0.637E-04 -.164E-05 -.237E+00
   -.592E-06 -.391E-06 0.714E+03   -.711E-14 0.711E-13 -.715E+03   0.931E-07 -.116E-06 0.435E+00   0.344E-06 0.363E-06 -.935E-01
   0.472E+00 0.472E+00 0.714E+03   -.467E+00 -.467E+00 -.715E+03   -.275E-02 -.275E-02 0.495E+00   0.229E-03 0.229E-03 -.936E-01
   0.863E-06 0.285E+01 -.643E+03   -.284E-13 -.283E+01 0.643E+03   -.521E-07 -.177E-01 -.112E+00   -.211E-06 0.758E-03 0.814E-01
   0.413E+01 -.185E-06 -.636E+03   -.405E+01 -.817E-13 0.636E+03   -.744E-01 0.107E-06 -.232E+00   0.596E-03 0.204E-06 0.832E-01
   0.352E-05 -.597E-06 -.199E+04   -.213E-13 -.320E-13 0.198E+04   -.225E-05 0.531E-06 0.571E+01   -.346E-06 -.206E-06 0.226E+00
   0.181E+02 0.181E+02 -.198E+04   -.182E+02 -.182E+02 0.198E+04   0.751E-01 0.751E-01 0.579E+01   0.183E-02 0.183E-02 0.226E+00
   0.833E-06 -.124E+00 0.208E+04   -.138E-13 0.121E+00 -.207E+04   0.388E-06 0.149E-02 -.675E+01   -.117E-05 -.690E-04 -.237E+00
   -.129E+00 -.111E-05 0.208E+04   0.129E+00 0.462E-13 -.207E+04   0.379E-04 0.117E-05 -.675E+01   -.556E-04 -.388E-06 -.237E+00
   0.201E-05 0.848E-06 0.714E+03   0.711E-14 0.000E+00 -.715E+03   0.230E-06 -.630E-06 0.435E+00   -.180E-05 0.218E-06 -.935E-01
   -.472E+00 -.472E+00 0.714E+03   0.467E+00 0.467E+00 -.715E+03   0.275E-02 0.275E-02 0.495E+00   -.227E-03 -.230E-03 -.936E-01
   0.247E-06 -.413E+01 -.636E+03   -.373E-13 0.405E+01 0.636E+03   0.392E-06 0.744E-01 -.232E+00   -.882E-06 -.597E-03 0.832E-01
   -.285E+01 -.483E-06 -.643E+03   0.283E+01 -.568E-13 0.643E+03   0.177E-01 0.403E-07 -.112E+00   -.756E-03 0.141E-06 0.814E-01
   -.767E-06 -.578E-06 -.199E+04   0.568E-13 -.995E-13 0.198E+04   0.520E-06 0.298E-06 0.571E+01   0.999E-07 0.751E-07 0.226E+00
   -.181E+02 -.181E+02 -.198E+04   0.182E+02 0.182E+02 0.198E+04   -.751E-01 -.751E-01 0.579E+01   -.183E-02 -.183E-02 0.226E+00
   0.628E-06 0.124E+00 0.208E+04   -.853E-13 -.121E+00 -.207E+04   0.104E-05 -.149E-02 -.675E+01   -.178E-05 0.681E-04 -.237E+00
   -.124E+00 -.154E-05 0.208E+04   0.121E+00 -.178E-14 -.207E+04   0.149E-02 0.159E-05 -.675E+01   -.648E-04 -.501E-06 -.237E+00
   0.712E-06 -.640E-06 0.715E+03   -.497E-13 0.604E-13 -.715E+03   0.454E-06 0.140E-06 0.564E+00   -.109E-05 0.399E-06 -.931E-01
   -.472E+00 0.472E+00 0.714E+03   0.467E+00 -.467E+00 -.715E+03   0.275E-02 -.275E-02 0.495E+00   -.229E-03 0.231E-03 -.936E-01
   -.520E-06 0.413E+01 -.636E+03   -.284E-13 -.405E+01 0.636E+03   0.698E-06 -.744E-01 -.232E+00   -.426E-06 0.597E-03 0.832E-01
   -.413E+01 0.238E-06 -.636E+03   0.405E+01 0.000E+00 0.636E+03   0.744E-01 0.546E-07 -.232E+00   -.596E-03 -.365E-06 0.832E-01
   -.953E-06 0.503E-06 -.191E+04   0.639E-13 0.000E+00 0.191E+04   -.117E-06 -.783E-06 0.383E+01   0.957E-06 0.693E-06 0.234E+00
   -.181E+02 0.181E+02 -.198E+04   0.182E+02 -.182E+02 0.198E+04   -.751E-01 0.751E-01 0.579E+01   -.183E-02 0.183E-02 0.226E+00
   0.174E-05 -.406E+00 0.535E+03   0.311E-13 0.400E+00 -.535E+03   0.110E-05 0.750E-02 -.700E-01   -.120E-05 -.188E-03 -.685E-01
   0.406E+00 0.494E-05 0.535E+03   -.400E+00 -.284E-13 -.535E+03   -.749E-02 -.485E-05 -.700E-01   0.188E-03 0.487E-07 -.685E-01
   -.252E-05 0.224E-05 0.156E+04   0.395E-13 -.666E-14 -.156E+04   0.195E-05 -.272E-05 0.309E+01   0.349E-06 0.182E-06 -.178E+00
   0.940E-01 -.940E-01 0.156E+04   -.931E-01 0.931E-01 -.156E+04   -.113E-02 0.113E-02 0.309E+01   0.515E-04 -.540E-04 -.178E+00
   0.493E-06 -.733E+01 -.152E+04   0.284E-13 0.727E+01 0.153E+04   -.967E-06 0.524E-01 -.451E+01   0.307E-06 -.937E-03 0.172E+00
   0.733E+01 0.598E-06 -.152E+04   -.727E+01 0.106E-12 0.153E+04   -.524E-01 -.122E-05 -.451E+01   0.938E-03 -.221E-06 0.172E+00
   0.672E-05 -.343E-06 -.478E+03   -.995E-13 0.711E-13 0.478E+03   -.393E-05 0.724E-06 0.239E+00   -.494E-06 -.441E-06 0.592E-01
   0.257E+01 -.257E+01 -.473E+03   -.256E+01 0.256E+01 0.473E+03   -.977E-02 0.977E-02 0.301E+00   0.586E-03 -.587E-03 0.599E-01
   -.300E-05 0.406E+00 0.535E+03   0.355E-13 -.400E+00 -.535E+03   0.209E-05 -.751E-02 -.701E-01   0.110E-05 0.189E-03 -.686E-01
   0.378E+00 -.179E-05 0.536E+03   -.406E+00 -.338E-13 -.535E+03   0.322E-01 0.379E-05 -.896E-01   0.171E-03 -.398E-06 -.683E-01
   0.328E-06 0.509E-07 0.156E+04   0.493E-13 -.107E-13 -.156E+04   -.155E-05 -.161E-05 0.309E+01   0.120E-05 -.571E-06 -.178E+00
   0.940E-01 0.940E-01 0.156E+04   -.931E-01 -.931E-01 -.156E+04   -.112E-02 -.112E-02 0.309E+01   0.501E-04 0.535E-04 -.178E+00
   0.244E-05 0.733E+01 -.152E+04   0.853E-13 -.727E+01 0.153E+04   0.155E-05 -.524E-01 -.451E+01   -.130E-05 0.938E-03 0.172E+00
   0.236E+02 0.607E-07 -.149E+04   -.233E+02 -.355E-13 0.150E+04   -.274E+00 -.336E-05 -.446E+01   0.181E-02 0.283E-06 0.172E+00
   0.418E-06 0.270E-05 -.473E+03   -.114E-12 -.924E-13 0.473E+03   0.174E-06 -.234E-05 0.255E+00   0.188E-06 -.248E-06 0.598E-01
   0.257E+01 0.257E+01 -.473E+03   -.256E+01 -.256E+01 0.473E+03   -.978E-02 -.978E-02 0.301E+00   0.587E-03 0.587E-03 0.599E-01
   0.946E-05 -.378E+00 0.536E+03   0.924E-13 0.406E+00 -.535E+03   -.819E-05 -.322E-01 -.896E-01   -.126E-05 -.172E-03 -.683E-01
   -.406E+00 -.154E-05 0.535E+03   0.400E+00 -.497E-13 -.535E+03   0.751E-02 0.186E-06 -.701E-01   -.187E-03 0.543E-06 -.685E-01
   0.109E-05 0.135E-05 0.156E+04   0.109E-12 -.213E-13 -.156E+04   0.401E-05 0.117E-05 0.309E+01   -.269E-05 0.105E-05 -.178E+00
   -.940E-01 -.940E-01 0.156E+04   0.931E-01 0.931E-01 -.156E+04   0.112E-02 0.113E-02 0.309E+01   -.486E-04 -.537E-04 -.178E+00
   -.248E-05 -.236E+02 -.149E+04   -.107E-13 0.233E+02 0.150E+04   0.233E-05 0.274E+00 -.446E+01   0.412E-06 -.182E-02 0.172E+00
   -.733E+01 -.589E-06 -.152E+04   0.727E+01 0.128E-12 0.153E+04   0.524E-01 0.174E-06 -.451E+01   -.937E-03 -.273E-06 0.172E+00
   0.350E-05 0.209E-05 -.473E+03   0.213E-13 0.568E-13 0.473E+03   -.683E-06 -.259E-05 0.255E+00   -.599E-06 -.149E-08 0.598E-01
   -.257E+01 -.257E+01 -.473E+03   0.256E+01 0.256E+01 0.473E+03   0.978E-02 0.978E-02 0.301E+00   -.586E-03 -.587E-03 0.599E-01
   0.971E-06 0.378E+00 0.536E+03   0.426E-13 -.406E+00 -.535E+03   -.294E-05 0.322E-01 -.896E-01   0.286E-06 0.171E-03 -.683E-01
   -.378E+00 -.363E-05 0.536E+03   0.406E+00 -.355E-13 -.535E+03   -.322E-01 0.339E-05 -.896E-01   -.169E-03 0.384E-06 -.683E-01
   0.141E-05 -.100E-05 0.156E+04   0.488E-14 -.608E-13 -.156E+04   0.851E-06 -.260E-06 0.309E+01   -.762E-06 0.550E-06 -.178E+00
   -.940E-01 0.940E-01 0.156E+04   0.931E-01 -.931E-01 -.156E+04   0.112E-02 -.112E-02 0.309E+01   -.501E-04 0.537E-04 -.178E+00
   -.676E-06 0.236E+02 -.149E+04   0.355E-13 -.233E+02 0.150E+04   0.257E-05 -.274E+00 -.446E+01   -.168E-05 0.182E-02 0.172E+00
   -.236E+02 0.464E-06 -.149E+04   0.233E+02 -.711E-14 0.150E+04   0.274E+00 -.684E-06 -.446E+01   -.181E-02 0.156E-06 0.172E+00
   0.312E-05 -.113E-05 -.473E+03   0.711E-14 0.711E-14 0.473E+03   -.337E-05 0.114E-05 -.166E+00   -.860E-06 0.540E-06 0.612E-01
   -.257E+01 0.257E+01 -.473E+03   0.256E+01 -.256E+01 0.473E+03   0.978E-02 -.978E-02 0.301E+00   -.586E-03 0.587E-03 0.599E-01
   -.117E-04 0.105E-04 0.549E+02   -.444E-12 0.437E-12 0.148E-11   0.129E-04 -.136E-04 -.448E+02   0.128E-05 0.126E-05 0.651E-01

 POSITION                                       TOTAL-FORCE (eV/Angst)
      4.22049      4.22049     16.31916        -0.000000     -0.000000      2.038142
      4.22049      4.22049     17.46598        -0.000000     -0.000000     -1.993029
      0.00000      6.33074      7.50000         0.000000     -0.000062      0.503551
      2.11025      0.00000      7.50000         0.000062     -0.000000      0.503549
      0.00000      0.00000      9.61025         0.000000      0.000000      0.022249
      2.11025      6.33074      9.61025         0.001768     -0.001768      0.024080
      0.00000      6.33023     11.73368         0.000000     -0.002047      0.043366
      2.11076      0.00000     11.73368         0.002046      0.000000      0.043363
      0.00000      0.00000     13.83822         0.000000      0.000000     -0.128176
      2.10905      6.33193     13.83447        -0.008287      0.008286     -0.143551
      0.00000      2.11025      7.50000         0.000000      0.000063      0.503552
      2.11025      4.22049      7.50000         0.000460     -0.000000      0.504478
      0.00000      4.22049      9.61025        -0.000000     -0.000000      0.032725
      2.11025      2.11025      9.61025         0.001768      0.001768      0.024080
      0.00000      2.11076     11.73368         0.000001      0.002047      0.043363
      2.11344      4.22049     11.73659        -0.005674      0.000000      0.051646
      0.00000      4.22049     13.83544         0.000001     -0.000000     -0.136002
      2.10905      2.10905     13.83447        -0.008286     -0.008286     -0.143543
      4.22049      6.33074      7.50000        -0.000000     -0.000460      0.504477
      6.33074      0.00000      7.50000        -0.000063     -0.000000      0.503551
      4.22049      0.00000      9.61025         0.000000      0.000000      0.032725
      6.33074      6.33074      9.61025        -0.001769     -0.001768      0.024080
      4.22049      6.32754     11.73659        -0.000000      0.005674      0.051668
      6.33023      0.00000     11.73368        -0.002048     -0.000000      0.043365
      4.22049      0.00000     13.83544        -0.000000     -0.000000     -0.136002
      6.33193      6.33193     13.83447         0.008286      0.008286     -0.143560
      4.22049      2.11025      7.50000         0.000000      0.000460      0.504477
      6.33074      4.22049      7.50000        -0.000460     -0.000000      0.504479
      4.22049      4.22049      9.61025         0.000000     -0.000000      0.031654
      6.33074      2.11025      9.61025        -0.001769      0.001769      0.024080
      4.22049      2.11344     11.73659        -0.000000     -0.005674      0.051646
      6.32754      4.22049     11.73659         0.005674      0.000000      0.051667
      4.22049      4.22049     13.87814        -0.000000      0.000000     -0.127369
      6.33193      2.10905     13.83447         0.008287     -0.008287     -0.143552
      0.00000      6.33074      9.61025         0.000002      0.002899      0.079191
      2.11025      0.00000      9.61025        -0.002899     -0.000001      0.079190
      0.00000      0.00000      7.50000         0.000000     -0.000001     -0.423710
      2.11025      6.33074      7.50000        -0.000315      0.000315     -0.423283
      0.00000      6.33258     13.88587        -0.000000     -0.002473     -0.117968
      2.10840      0.00000     13.88587         0.002473     -0.000001     -0.117967
      0.00000      0.00000     11.72785         0.000002      0.000000      0.012964
      2.10979      6.33120     11.72890         0.001423     -0.001424      0.011712
      0.00000      2.11025      9.61025         0.000001     -0.002904      0.079189
      2.11025      4.22049      9.61025         0.009804      0.000002      0.086827
      0.00000      4.22049      7.50000        -0.000000     -0.000002     -0.423700
      2.11025      2.11025      7.50000        -0.000313     -0.000311     -0.423276
      0.00000      2.10840     13.88587         0.000003      0.002472     -0.117967
      2.10031      4.22049     13.88381        -0.009266     -0.000004     -0.116120
      0.00000      4.22049     11.72684         0.000001     -0.000000      0.011753
      2.10979      2.10979     11.72890         0.001423      0.001424      0.011711
      4.22049      6.33074      9.61025        -0.000002     -0.009803      0.086825
      6.33074      0.00000      9.61025         0.002901     -0.000001      0.079187
      4.22049      0.00000      7.50000         0.000003      0.000004     -0.423704
      6.33074      6.33074      7.50000         0.000310      0.000314     -0.423274
      4.22049      6.34068     13.88381         0.000001      0.009264     -0.116134
      6.33258      0.00000     13.88587        -0.002471     -0.000001     -0.117969
      4.22049      0.00000     11.72684         0.000002     -0.000001      0.011754
      6.33120      6.33120     11.72890        -0.001424     -0.001423      0.011710
      4.22049      2.11025      9.61025        -0.000002      0.009803      0.086828
      6.33074      4.22049      9.61025        -0.009806      0.000001      0.086829
      4.22049      4.22049      7.50000         0.000002     -0.000001     -0.423306
      6.33074      2.11025      7.50000         0.000313     -0.000310     -0.423271
      4.22049      2.10031     13.88381         0.000001     -0.009266     -0.116126
      6.34068      4.22049     13.88381         0.009263     -0.000000     -0.116133
      4.22049      4.22049     11.73684        -0.000002      0.000001      0.005297
      6.33120      2.10979     11.72890        -0.001423      0.001424      0.011711
    total drift:                                0.000005     -0.000005      0.043223

  FREE ENERGIE OF THE ION-ELECTRON SYSTEM (eV)
  free  energy   TOTEN  =      -487.28337441 eV

  energy  without entropy=     -487.28337441  energy(sigma->0) =     -487.28337441