 vasp.6.3.0 20Jan22 (build Apr  1 2022 16:44:48) complex
 executed on        HPECrayEX_GCC date 2023.03.08  21:52:29

 INCAR:
   SYSTEM = MgO-rocksalt
   ISMEAR = 0
   SIGMA = 0.05
   EDIFF = 1E-7
   ALGO = ALL
   ISTART = 0
   IBRION = 2
   NSW = 1000
   ISYM = 0
   ISIF = 2
   EDIFFG = -0.01
   DIPOL = 0.5 0.5 0.5
   IDIPOL = 3
   LDIPOL = .TRUE.
   GGA = RE
   AGGAC = 0.0
   LUSE_VDW = .TRUE.
   LASPH = .TRUE.
   ENCUT = 600
   PREC = Accurate
   LASPH = .TRUE.
   LREAL = .FALSE.
   ISPIN = 1
   NELM = 200
   NELMIN = 8
   NCORE = 8
   KPAR = 1
   LWAVE = .FALSE.
   LCHARG = .FALSE.

 POTCAR:    PAW_PBE C 08Apr2002
 POTCAR:    PAW_PBE H 15Jun2001
 POTCAR:    PAW_PBE Mg_pv 13Apr2007
 POTCAR:    PAW_PBE O 08Apr2002
|               ----> ADVICE to this user running VASP <----                  |
|     You have switched on vdW-DFT.                                           |
|     This routine was written and supplied by Jiri Klimes. We recommend      |
|     that you carefully read and cite the following publications:            |
|       J. Klimes, D.R. Bowler, A. Michelides                                 |
|          J. Phys.: Cond Matt. 22 022201 (2010)                              |
|       J. Klimes, D.R. Bowler, A. Michelides                                 |
|          Phys. Rev. B. 83, 195131 (2011)                                    |
|     and references therein.                                                 |

   TITEL  = PAW_PBE C 08Apr2002
   POMASS =   12.011; ZVAL   =    4.000    mass and valenz
   ENMAX  =  400.000; ENMIN  =  300.000 eV

   TITEL  = PAW_PBE H 15Jun2001
   POMASS =    1.000; ZVAL   =    1.000    mass and valenz
   ENMAX  =  250.000; ENMIN  =  200.000 eV

   TITEL  = PAW_PBE Mg_pv 13Apr2007
   POMASS =   24.305; ZVAL   =    8.000    mass and valenz
   ENMAX  =  403.929; ENMIN  =  302.947 eV

   TITEL  = PAW_PBE O 08Apr2002
   POMASS =   16.000; ZVAL   =    6.000    mass and valenz
   ENMAX  =  400.000; ENMIN  =  300.000 eV

  PAW_PBE C 08Apr2002                   :
  PAW_PBE H 15Jun2001                   :
  PAW_PBE Mg_pv 13Apr2007               :
  PAW_PBE O 08Apr2002                   :

 POSCAR:  C  H Mg  O
  positions in direct lattice
  velocities in cartesian coordinates
 exchange correlation table for  LEXCH =       40
   RHO(1)=    0.500       N(1)  =     2000
   RHO(2)=  100.500       N(2)  =     4000

 ion  position               nearest neighbor table
   1  0.504  0.498  0.809-   5 1.10   4 1.10   3 1.10   2 1.54
   2  0.677  0.499  0.829-   7 1.10   6 1.10   8 1.10   1 1.54
   3  0.479  0.396  0.779-   1 1.10
   4  0.475  0.604  0.782-   1 1.10
   5  0.425  0.494  0.849-   1 1.10
   6  0.756  0.502  0.789-   2 1.10
   7  0.705  0.395  0.857-   2 1.10
   8  0.703  0.603  0.858-   2 1.10
   9  0.000  0.750  0.350-  41 2.14  43 2.14  44 2.14  51 2.14  60 2.14
  10  0.250  0.000  0.350-  42 2.14  43 2.14  44 2.14  52 2.14  59 2.14
  11  0.000  0.000  0.450-  43 2.14  42 2.14  41 2.14  49 2.14  58 2.14  47 2.14
  12  0.250  0.750  0.450-  44 2.14  42 2.14  41 2.14  50 2.14  57 2.14  48 2.14
  13  1.000  0.750  0.550-  47 2.14  48 2.14  64 2.14  55 2.14  41 2.15  45 2.16
  14  0.250  1.000  0.550-  48 2.14  56 2.14  47 2.14  63 2.14  42 2.15  46 2.16
  15  0.000  1.000  0.650-  47 2.13  45 2.14  46 2.14  53 2.14  62 2.14
  16  0.250  0.750  0.649-  48 2.13  45 2.14  54 2.14  46 2.14  61 2.14
  17  0.000  0.250  0.350-  49 2.14  43 2.14  51 2.14  52 2.14  68 2.14
  18  0.250  0.500  0.350-  50 2.14  44 2.14  51 2.14  52 2.14  67 2.14
  19  0.000  0.500  0.450-  51 2.14  49 2.14  50 2.14  41 2.14  66 2.14  55 2.14
  20  0.250  0.250  0.450-  52 2.14  49 2.14  50 2.14  42 2.14  65 2.14  56 2.14
  21  1.000  0.250  0.550-  72 2.14  56 2.14  47 2.14  55 2.14  49 2.15  53 2.16
  22  0.250  0.500  0.550-  71 2.14  55 2.14  48 2.14  56 2.14  50 2.15  54 2.16
  23  0.000  0.500  0.649-  55 2.13  54 2.13  70 2.14  45 2.14  53 2.14
  24  0.250  0.250  0.649-  56 2.13  53 2.14  54 2.14  46 2.14  69 2.14
  25  0.500  0.750  0.350-  57 2.14  44 2.14  59 2.14  60 2.14  67 2.14
  26  0.750  0.000  0.350-  58 2.14  43 2.14  59 2.14  60 2.14  68 2.14
  27  0.500  0.000  0.450-  59 2.14  57 2.14  58 2.14  42 2.14  65 2.14  63 2.14
  28  0.750  0.750  0.450-  60 2.14  57 2.14  58 2.14  41 2.14  66 2.14  64 2.14
  29  0.500  0.750  0.550-  71 2.14  48 2.14  64 2.14  63 2.14  57 2.15  61 2.16
  30  0.750  1.000  0.550-  64 2.14  72 2.14  63 2.14  47 2.14  58 2.15  62 2.16
  31  0.500  1.000  0.649-  63 2.13  69 2.14  61 2.14  46 2.14  62 2.14
  32  0.750  0.750  0.649-  64 2.13  62 2.14  45 2.14  61 2.14  70 2.14
  33  0.500  0.250  0.350-  65 2.14  59 2.14  52 2.14  67 2.14  68 2.14
  34  0.750  0.500  0.350-  66 2.14  60 2.14  51 2.14  67 2.14  68 2.14
  35  0.500  0.500  0.450-  67 2.14  57 2.14  65 2.14  66 2.14  50 2.14  71 2.14
  36  0.750  0.250  0.450-  68 2.14  58 2.14  65 2.14  66 2.14  49 2.14  72 2.14
  37  0.500  0.250  0.550-  71 2.14  56 2.14  72 2.14  63 2.14  65 2.15  69 2.16
  38  0.750  0.500  0.550-  71 2.14  55 2.14  64 2.14  72 2.14  66 2.15  70 2.16
  39  0.500  0.500  0.650-  71 2.13  54 2.14  61 2.14  69 2.14  70 2.14
  40  0.750  0.250  0.649-  72 2.13  53 2.14  62 2.14  70 2.14  69 2.14
  41  0.000  0.750  0.450-   9 2.14  11 2.14  12 2.14  19 2.14  28 2.14  13 2.15
  42  0.250  0.000  0.450-  10 2.14  11 2.14  12 2.14  20 2.14  27 2.14  14 2.15
  43  0.000  0.000  0.350-  11 2.14  10 2.14   9 2.14  17 2.14  26 2.14
  44  0.250  0.750  0.350-  12 2.14  10 2.14   9 2.14  18 2.14  25 2.14
  45  1.000  0.750  0.651-  32 2.14  15 2.14  16 2.14  23 2.14  13 2.16
  46  0.250  1.000  0.651-  15 2.14  31 2.14  24 2.14  16 2.14  14 2.16
  47  1.000  1.000  0.550-  15 2.13  13 2.14  21 2.14  30 2.14  14 2.14  11 2.14
  48  0.250  0.750  0.550-  16 2.13  14 2.14  13 2.14  29 2.14  22 2.14  12 2.14
  49  0.000  0.250  0.450-  17 2.14  11 2.14  19 2.14  20 2.14  36 2.14  21 2.15
  50  0.250  0.500  0.450-  18 2.14  12 2.14  19 2.14  20 2.14  35 2.14  22 2.15
  51  0.000  0.500  0.350-  19 2.14  17 2.14  18 2.14   9 2.14  34 2.14
  52  0.250  0.250  0.350-  20 2.14  17 2.14  18 2.14  10 2.14  33 2.14
  53  1.000  0.250  0.651-  40 2.14  24 2.14  15 2.14  23 2.14  21 2.16
  54  0.250  0.500  0.651-  23 2.13  16 2.14  24 2.14  39 2.14  22 2.16
  55  1.000  0.500  0.550-  23 2.13  38 2.14  13 2.14  21 2.14  22 2.14  19 2.14
  56  0.250  0.250  0.550-  24 2.13  14 2.14  21 2.14  37 2.14  22 2.14  20 2.14
  57  0.500  0.750  0.450-  25 2.14  12 2.14  27 2.14  28 2.14  35 2.14  29 2.15
  58  0.750  0.000  0.450-  26 2.14  11 2.14  27 2.14  28 2.14  36 2.14  30 2.15
  59  0.500  0.000  0.350-  27 2.14  25 2.14  26 2.14  10 2.14  33 2.14
  60  0.750  0.750  0.350-  28 2.14  25 2.14  26 2.14   9 2.14  34 2.14
  61  0.500  0.750  0.651-  31 2.14  32 2.14  39 2.14  16 2.14  29 2.16
  62  0.750  1.000  0.651-  40 2.14  32 2.14  15 2.14  31 2.14  30 2.16
  63  0.500  1.000  0.550-  31 2.13  30 2.14  14 2.14  37 2.14  29 2.14  27 2.14
  64  0.750  0.750  0.550-  32 2.13  30 2.14  13 2.14  29 2.14  38 2.14  28 2.14
  65  0.500  0.250  0.450-  33 2.14  27 2.14  20 2.14  35 2.14  36 2.14  37 2.15
  66  0.750  0.500  0.450-  34 2.14  28 2.14  19 2.14  35 2.14  36 2.14  38 2.15
  67  0.500  0.500  0.350-  35 2.14  25 2.14  33 2.14  34 2.14  18 2.14
  68  0.750  0.250  0.350-  36 2.14  26 2.14  33 2.14  34 2.14  17 2.14
  69  0.500  0.250  0.651-  31 2.14  40 2.14  39 2.14  24 2.14  37 2.16
  70  0.750  0.500  0.651-  23 2.14  32 2.14  40 2.14  39 2.14  38 2.16
  71  0.500  0.500  0.550-  39 2.13  37 2.14  29 2.14  38 2.14  22 2.14  35 2.14
  72  0.750  0.250  0.550-  40 2.13  30 2.14  21 2.14  37 2.14  38 2.14  36 2.14

IMPORTANT INFORMATION: All symmetrisations will be switched off!
NOSYMM: (Re-)initialisation of all symmetry stuff for point group C_1.

                                     Primitive cell

  volume of cell :    1563.6717

  direct lattice vectors                    reciprocal lattice vectors
     8.546113626  0.000000000  0.000000000     0.117012252  0.000000000  0.000000000
     0.000000000  8.546113626  0.000000000     0.000000000  0.117012252  0.000000000
     0.000000000  0.000000000 21.409585219     0.000000000  0.000000000  0.046708051

  length of vectors
     8.546113626  8.546113626 21.409585219     0.117012252  0.117012252  0.046708051

  position of ions in fractional coordinates (direct lattice)
     0.504430061  0.498450282  0.808524314
     0.677079326  0.499494238  0.829331041
     0.478794598  0.396163787  0.779100265
     0.475443176  0.604467271  0.781844678
     0.424968218  0.493725605  0.848791528
     0.755679064  0.501676476  0.788787831
     0.705121332  0.395114265  0.857029353
     0.702942210  0.602558953  0.858147037
     0.000000000  0.750000000  0.350310383
     0.250000000  0.000000000  0.350310383
     0.000000000  0.000000000  0.450103461
     0.250000000  0.750000000  0.450103461
     0.999991796  0.750021697  0.550363503
     0.249990273  0.999995974  0.550368230
     0.000044319  0.999969519  0.649615162
     0.249904600  0.749955444  0.649484406
     0.000000000  0.250000000  0.350310383
     0.250000000  0.500000000  0.350310383
     0.000000000  0.500000000  0.450103461
     0.250000000  0.250000000  0.450103461
     0.999990548  0.249978760  0.550362711
     0.250008005  0.500000526  0.550422432
     0.000153211  0.500008402  0.649453254
     0.249859766  0.250016390  0.649478297
     0.500000000  0.750000000  0.350310383
     0.750000000  0.000000000  0.350310383
     0.500000000  0.000000000  0.450103461
     0.750000000  0.750000000  0.450103461
     0.499988411  0.749943888  0.550423611
     0.749987720  0.999994394  0.550367375
     0.499966227  0.999991690  0.649491732
     0.750074718  0.750082872  0.649476282
     0.500000000  0.250000000  0.350310383
     0.750000000  0.500000000  0.350310383
     0.500000000  0.500000000  0.450103461
     0.750000000  0.250000000  0.450103461
     0.499988908  0.250049819  0.550424796
     0.749975826  0.499999408  0.550460228
     0.499860088  0.500002950  0.649726675
     0.750119882  0.249888788  0.649471474
     0.000000000  0.750000000  0.450103461
     0.250000000  0.000000000  0.450103461
     0.000000000  0.000000000  0.350310383
     0.250000000  0.750000000  0.350310383
     0.999980091  0.750043576  0.651461749
     0.249992399  0.999987458  0.651457912
     0.999986386  0.999993758  0.550124263
     0.249964664  0.750065603  0.550096693
     0.000000000  0.250000000  0.450103461
     0.250000000  0.500000000  0.450103461
     0.000000000  0.500000000  0.350310383
     0.250000000  0.250000000  0.350310383
     0.999978845  0.249934406  0.651458645
     0.249816327  0.499986982  0.651274387
     0.999974278  0.500004721  0.550067674
     0.249955977  0.249929922  0.550096287
     0.500000000  0.750000000  0.450103461
     0.750000000  0.000000000  0.450103461
     0.500000000  0.000000000  0.350310383
     0.750000000  0.750000000  0.350310383
     0.500013481  0.750106123  0.651440509
     0.750015756  0.999986131  0.651485816
     0.499995032  0.999998600  0.550094846
     0.750018487  0.750072341  0.550108965
     0.500000000  0.250000000  0.450103461
[...]
   8.54589380  4.27309716 11.77672074
   2.13615218  2.13592951 11.77733334
   4.27305681  6.40958522  9.63652841
   6.40958522  0.00000000  9.63652841
   4.27305681  0.00000000  7.50000000
   6.40958522  6.40958522  7.50000000
   4.27317203  6.41049216 13.94707109
   6.40971987  8.54599510 13.94804109
   4.27301435  8.54610166 11.77730248
   6.40974321  6.41020345 11.77760477
   4.27305681  2.13652841  9.63652841
   6.40958522  4.27305681  9.63652841
   4.27305681  4.27305681  7.50000000
   6.40958522  2.13652841  7.50000000
   4.27318753  2.13534035 13.94694047
   6.41088827  4.27295942 13.94564965
   4.27311018  4.27300127 11.77864604
   6.40981294  2.13585469 11.77760339

--------------------------------------- Iteration      FINAL  ---------------------------------------

--------------------OUTCAR has been truncated-------------------------

[...]

--------------------OUTCAR has been truncated-------------------------

  FORCE on cell =-STRESS in cart. coord.  units (eV):
  Direction    XX          YY          ZZ          XY          YZ          ZX
  Alpha Z   893.75235   893.75235   893.75235
  Ewald  150545.76859150384.22199************     0.85656     0.16078    41.75199
  Hartree160878.63690160751.53368************     0.64016     0.17028    31.63293
  E(xc)   -2568.77409 -2568.40971 -2571.24345    -0.00196     0.00079    -0.10459
  Local  ************************320526.93644    -1.53344    -0.35616   -75.09751
  n-local -2840.62226 -2841.80489 -2860.33979     0.00692     0.00274     0.37175
  augment  1078.54251  1078.46821  1069.92832     0.00046     0.00052     0.02172
  Kinetic  7494.51824  7489.48190  7528.69303     0.03084     0.02215     1.49035
  Fock        0.00000     0.00000     0.00000     0.00000     0.00000     0.00000
  Total     -30.67318   -30.68452    -2.34646    -0.00047     0.00109     0.06663
  in kB     -31.42851   -31.44013    -2.40425    -0.00049     0.00112     0.06827

 VOLUME and BASIS-vectors are now :
  energy-cutoff  :      600.00
  volume of cell :     1563.67
      direct lattice vectors                 reciprocal lattice vectors
     8.546113626  0.000000000  0.000000000     0.117012252  0.000000000  0.000000000
     0.000000000  8.546113626  0.000000000     0.000000000  0.117012252  0.000000000
     0.000000000  0.000000000 21.409585219     0.000000000  0.000000000  0.046708051

  length of vectors
     8.546113626  8.546113626 21.409585219     0.117012252  0.117012252  0.046708051

 FORCES acting on ions:
    Electron-Ion                     Ewald-Force                    Non-Local-Force
   0.692E+02 0.384E+00 -.827E+03   -.690E+02 -.374E+00 0.827E+03   -.238E+00 -.903E-02 -.153E+00
   -.693E+02 -.468E+00 -.782E+03   0.693E+02 0.475E+00 0.782E+03   -.227E-01 -.687E-02 0.188E+00
   0.196E+02 0.456E+02 -.208E+03   -.208E+02 -.502E+02 0.205E+03   0.116E+01 0.452E+01 0.318E+01
   0.211E+02 -.470E+02 -.208E+03   -.224E+02 0.517E+02 0.205E+03   0.130E+01 -.466E+01 0.291E+01
   0.433E+02 0.203E+01 -.212E+03   -.469E+02 -.222E+01 0.217E+03   0.354E+01 0.196E+00 -.440E+01
   -.430E+02 -.110E+01 -.190E+03   0.465E+02 0.120E+01 0.186E+03   -.348E+01 -.100E+00 0.450E+01
   -.209E+02 0.465E+02 -.195E+03   0.222E+02 -.511E+02 0.198E+03   -.129E+01 0.458E+01 -.305E+01
   -.199E+02 -.459E+02 -.195E+03   0.211E+02 0.504E+02 0.198E+03   -.119E+01 -.451E+01 -.318E+01
   -.930E-01 -.238E+00 0.202E+04   0.928E-01 0.237E+00 -.201E+04   0.160E-03 0.207E-03 -.640E+01
   0.155E+00 0.234E-02 0.202E+04   -.155E+00 -.237E-02 -.201E+04   -.134E-03 0.254E-04 -.640E+01
   -.280E+00 0.119E-01 0.699E+03   0.281E+00 -.124E-01 -.700E+03   -.714E-03 0.343E-03 0.455E+00
   0.568E+00 -.823E+00 0.701E+03   -.566E+00 0.826E+00 -.701E+03   -.104E-02 -.215E-02 0.438E+00
   -.141E+01 -.354E+01 -.608E+03   0.141E+01 0.354E+01 0.608E+03   0.324E-03 0.143E-02 -.232E+00
   0.236E+01 0.333E-01 -.610E+03   -.236E+01 -.336E-01 0.610E+03   0.162E-02 0.236E-03 -.240E+00
   -.406E+01 0.918E-01 -.193E+04   0.406E+01 -.890E-01 0.192E+04   0.143E-02 -.307E-02 0.560E+01
   0.136E+02 -.160E+02 -.191E+04   -.136E+02 0.160E+02 0.191E+04   0.230E-01 0.217E-01 0.562E+01
   -.930E-01 0.237E+00 0.202E+04   0.928E-01 -.237E+00 -.201E+04   0.158E-03 -.168E-03 -.640E+01
   0.164E+00 -.242E-02 0.202E+04   -.163E+00 0.242E-02 -.201E+04   -.391E-03 0.528E-05 -.640E+01
   -.291E+00 -.127E-01 0.701E+03   0.287E+00 0.125E-01 -.702E+03   0.338E-02 0.162E-03 0.418E+00
   0.563E+00 0.823E+00 0.701E+03   -.561E+00 -.826E+00 -.701E+03   -.135E-02 0.254E-02 0.438E+00
   -.141E+01 0.354E+01 -.608E+03   0.141E+01 -.354E+01 0.608E+03   0.148E-03 -.191E-02 -.232E+00
   0.356E+01 -.356E-01 -.602E+03   -.355E+01 0.365E-01 0.602E+03   -.425E-02 -.503E-03 -.374E+00
   -.939E+01 -.979E-01 -.191E+04   0.945E+01 0.952E-01 0.190E+04   -.562E-01 0.329E-02 0.561E+01
   0.138E+02 0.160E+02 -.191E+04   -.138E+02 -.160E+02 0.191E+04   0.202E-01 -.213E-01 0.562E+01
   0.930E-01 -.246E+00 0.202E+04   -.928E-01 0.245E+00 -.201E+04   -.113E-03 0.416E-03 -.640E+01
   -.155E+00 0.237E-02 0.202E+04   0.155E+00 -.239E-02 -.201E+04   0.102E-03 0.195E-04 -.640E+01
   0.279E+00 0.342E-02 0.701E+03   -.279E+00 -.367E-02 -.701E+03   0.410E-03 0.201E-03 0.438E+00
   -.570E+00 -.839E+00 0.701E+03   0.567E+00 0.837E+00 -.702E+03   0.137E-02 0.160E-02 0.440E+00
   0.142E+01 -.464E+01 -.602E+03   -.143E+01 0.464E+01 0.602E+03   0.103E-02 -.472E-02 -.290E+00
   -.236E+01 0.346E-01 -.608E+03   0.236E+01 -.352E-01 0.608E+03   0.240E-04 0.415E-03 -.231E+00
   0.410E+01 0.156E+00 -.192E+04   -.410E+01 -.161E+00 0.191E+04   -.393E-03 0.448E-02 0.560E+01
   -.138E+02 -.218E+02 -.190E+04   0.138E+02 0.218E+02 0.189E+04   -.158E-01 0.612E-02 0.562E+01
   0.930E-01 0.246E+00 0.202E+04   -.928E-01 -.245E+00 -.201E+04   -.117E-03 -.409E-03 -.640E+01
   -.164E+00 -.241E-02 0.202E+04   0.163E+00 0.241E-02 -.201E+04   0.443E-03 0.764E-06 -.641E+01
   0.289E+00 -.510E-02 0.702E+03   -.286E+00 0.523E-02 -.703E+03   -.226E-02 -.115E-03 0.434E+00
   -.565E+00 0.838E+00 0.701E+03   0.563E+00 -.836E+00 -.702E+03   0.161E-02 -.136E-02 0.439E+00
   0.142E+01 0.464E+01 -.602E+03   -.143E+01 -.464E+01 0.602E+03   0.120E-02 0.429E-02 -.292E+00
   -.357E+01 -.363E-01 -.599E+03   0.357E+01 0.373E-01 0.599E+03   0.509E-02 -.595E-03 -.361E+00
   0.982E+01 -.273E+00 -.186E+04   -.986E+01 0.286E+00 0.185E+04   0.373E-01 -.135E-01 0.571E+01
   -.140E+02 0.218E+02 -.190E+04   0.140E+02 -.218E+02 0.189E+04   -.131E-01 -.587E-02 0.562E+01
   -.218E+00 -.638E+00 0.525E+03   0.218E+00 0.633E+00 -.525E+03   -.335E-03 0.647E-02 -.688E-01
   0.422E+00 0.644E-02 0.525E+03   -.420E+00 -.606E-02 -.524E+03   -.334E-02 -.520E-03 -.732E-01
   -.681E-01 0.204E-02 0.151E+04   0.681E-01 -.205E-02 -.152E+04   -.452E-04 0.976E-05 0.358E+01
   0.120E+00 -.179E+00 0.151E+04   -.119E+00 0.179E+00 -.152E+04   -.575E-03 0.179E-03 0.358E+01
   -.502E+01 -.987E+01 -.146E+04   0.501E+01 0.987E+01 0.146E+04   0.717E-03 0.805E-02 -.491E+01
   0.610E+01 0.843E-01 -.146E+04   -.609E+01 -.849E-01 0.147E+04   -.145E-01 0.910E-03 -.490E+01
   -.875E+00 0.333E-01 -.454E+03   0.880E+00 -.350E-01 0.454E+03   -.595E-02 0.178E-02 0.263E+00
   0.214E+01 -.281E+01 -.450E+03   -.213E+01 0.278E+01 0.449E+03   -.133E-01 0.253E-01 0.282E+00
   -.218E+00 0.635E+00 0.525E+03   0.218E+00 -.630E+00 -.525E+03   -.221E-03 -.788E-02 -.683E-01
   0.461E+00 -.836E-02 0.526E+03   -.463E+00 0.881E-02 -.526E+03   0.177E-02 -.577E-03 -.719E-01
   -.710E-01 -.198E-02 0.151E+04   0.706E-01 0.202E-02 -.152E+04   0.616E-03 -.589E-04 0.358E+01
   0.119E+00 0.179E+00 0.151E+04   -.119E+00 -.179E+00 -.152E+04   -.599E-03 -.215E-03 0.358E+01
   -.502E+01 0.988E+01 -.146E+04   0.502E+01 -.988E+01 0.146E+04   0.285E-03 -.632E-02 -.491E+01
   0.163E+02 -.110E+00 -.144E+04   -.163E+02 0.110E+00 0.144E+04   -.411E-01 0.814E-04 -.496E+01
   -.119E+01 -.273E-01 -.448E+03   0.119E+01 0.269E-01 0.448E+03   -.953E-03 0.817E-03 0.271E+00
   0.216E+01 0.281E+01 -.450E+03   -.214E+01 -.279E+01 0.449E+03   -.118E-01 -.234E-01 0.283E+00
   0.218E+00 -.668E+00 0.526E+03   -.218E+00 0.666E+00 -.526E+03   -.363E-03 0.175E-02 -.762E-01
   -.420E+00 0.689E-02 0.525E+03   0.417E+00 -.666E-02 -.525E+03   0.434E-02 -.314E-03 -.704E-01
   0.680E-01 0.147E-02 0.151E+04   -.681E-01 -.148E-02 -.152E+04   0.860E-04 0.168E-04 0.358E+01
   -.120E+00 -.182E+00 0.151E+04   0.119E+00 0.181E+00 -.152E+04   0.554E-03 0.941E-03 0.358E+01
   0.512E+01 -.203E+02 -.144E+04   -.512E+01 0.203E+02 0.144E+04   0.706E-02 0.348E-01 -.492E+01
   -.615E+01 0.901E-01 -.146E+04   0.614E+01 -.899E-01 0.146E+04   0.101E-01 0.297E-04 -.490E+01
   0.861E+00 0.132E-01 -.450E+03   -.861E+00 -.125E-01 0.450E+03   -.615E-03 -.178E-03 0.272E+00
   -.216E+01 -.319E+01 -.448E+03   0.216E+01 0.317E+01 0.447E+03   0.792E-02 0.229E-01 0.293E+00
   0.218E+00 0.668E+00 0.526E+03   -.218E+00 -.666E+00 -.526E+03   -.319E-03 -.200E-02 -.762E-01
   -.463E+00 -.806E-02 0.526E+03   0.466E+00 0.832E-02 -.526E+03   -.423E-02 -.328E-03 -.813E-01
   0.712E-01 -.150E-02 0.151E+04   -.706E-01 0.152E-02 -.152E+04   -.713E-03 -.210E-04 0.357E+01
   -.119E+00 0.182E+00 0.151E+04   0.119E+00 -.182E+00 -.152E+04   0.584E-03 -.960E-03 0.358E+01
   0.513E+01 0.204E+02 -.143E+04   -.514E+01 -.203E+02 0.144E+04   0.687E-02 -.421E-01 -.492E+01
   -.167E+02 -.117E+00 -.142E+04   0.166E+02 0.118E+00 0.143E+04   0.254E-01 -.365E-03 -.494E+01
   0.120E+01 -.122E-01 -.443E+03   -.120E+01 0.112E-01 0.443E+03   -.630E-03 0.582E-03 0.235E+00
   -.218E+01 0.319E+01 -.447E+03   0.217E+01 -.317E+01 0.447E+03   0.633E-02 -.218E-01 0.294E+00
   0.244E+00 0.795E-02 0.142E+02   -.128E-12 0.426E-13 -.250E-11   -.243E+00 -.771E-02 -.142E+02

 POSITION                                       TOTAL-FORCE (eV/Angst)
      4.31119      4.25977     17.31226        -0.002163      0.000843      0.000608
      5.78654      4.26899     17.75693         0.004670      0.000574      0.002872
      4.09334      3.38472     16.68393        -0.000627     -0.007241      0.003619
      4.06497      5.16406     16.73831         0.001793      0.001627     -0.003017
      3.62999      4.22173     18.17232         0.001722      0.004268      0.008411
      6.45608      4.28881     16.88734         0.003462      0.003172     -0.002501
      6.02875      3.37627     18.34808         0.002445     -0.008055      0.001618
      6.01009      5.14834     18.37485         0.000014      0.004320      0.005196
      0.00000      6.40959      7.50000        -0.000053     -0.000103      0.323363
      2.13653      0.00000      7.50000         0.000061     -0.000009      0.323518
      0.00000      0.00000      9.63653         0.000422     -0.000206      0.022136
      2.13653      6.40959      9.63653         0.000522      0.000505      0.022162
      8.54605      6.40945     11.78318         0.000184      0.000850      0.001338
      2.13662      8.54605     11.78346        -0.001500     -0.000030      0.000948
     -0.00024      0.00004     13.90839         0.000636     -0.000297      0.000475
      2.13536      6.40944     13.90522         0.000297     -0.003025     -0.001374
      0.00000      2.13653      7.50000        -0.000050      0.000090      0.323343
      2.13653      4.27306      7.50000         0.000126     -0.000001      0.323347
      0.00000      4.27306      9.63653        -0.001309     -0.000087      0.022786
      2.13653      2.13653      9.63653         0.000641     -0.000735      0.021985
      8.54606      2.13649     11.78312         0.000156     -0.000299      0.001534
      2.13666      4.27298     11.78322        -0.000349      0.000429      0.005585
      0.00095      4.27286     13.90454         0.001786      0.000642     -0.003123
      2.13558      2.13657     13.90513        -0.001411      0.003065     -0.001507
      4.27306      6.40959      7.50000         0.000059     -0.000171      0.323540
      6.40959      0.00000      7.50000        -0.000075     -0.000007      0.323368
      4.27306      0.00000      9.63653        -0.000160     -0.000047      0.022782
      6.40959      6.40959      9.63653        -0.000732     -0.000984      0.021705
      4.27306      6.40972     11.78386        -0.001207     -0.002012      0.002959
      6.40962      8.54607     11.78329         0.000025     -0.000133      0.000811
      4.27299      8.54600     13.90659        -0.001270     -0.000361     -0.003432
      6.40993      6.40979     13.90490        -0.000492     -0.000088     -0.001732
      4.27306      2.13653      7.50000         0.000059      0.000162      0.323533
      6.40959      4.27306      7.50000        -0.000154      0.000000      0.323817
      4.27306      4.27306      9.63653         0.000876      0.000013      0.024440
      6.40959      2.13653      9.63653        -0.000819      0.000858      0.021521
      4.27307      2.13635     11.78390        -0.001217      0.002089      0.002349
      6.40922      4.27300     11.78405        -0.000204      0.000365      0.003405
      4.27130      4.27340     13.90884        -0.001355     -0.000031     -0.000965
      6.40976      2.13632     13.90478         0.001150     -0.000104     -0.001643
      0.00000      6.40959      9.63653        -0.000088      0.002024      0.048823
      2.13653      0.00000      9.63653        -0.001047     -0.000141      0.048787
      0.00000      0.00000      7.50000        -0.000016     -0.000002     -0.396463
      2.13653      6.40959      7.50000        -0.000167      0.000039     -0.396663
      8.54563      6.40902     13.94794        -0.001092      0.004007      0.000517
      2.13615      8.54607     13.94786        -0.000369      0.000269      0.001712
      8.54606      8.54606     11.77854        -0.000602      0.000099     -0.001579
      2.13623      6.41023     11.77757        -0.000938      0.001883     -0.003922
      0.00000      2.13653      9.63653        -0.000061     -0.002375      0.048693
      2.13653      4.27306      9.63653         0.000559     -0.000133      0.048260
      0.00000      4.27306      7.50000         0.000166     -0.000020     -0.396739
      2.13653      2.13653      7.50000        -0.000174     -0.000057     -0.396658
      8.54565      2.13696     13.94786        -0.001169     -0.003803      0.000514
      2.13525      4.27301     13.94181        -0.001671     -0.000210      0.003605
      8.54597      4.27295     11.77670        -0.001420      0.000393     -0.004292
      2.13627      2.13575     11.77752        -0.000753     -0.001541     -0.003542
      4.27306      6.40959      9.63653        -0.000127      0.000362      0.049836
      6.40959      0.00000      9.63653         0.001275     -0.000091      0.048809
      4.27306      0.00000      7.50000         0.000016      0.000002     -0.396714
      6.40959      6.40959      7.50000         0.000151      0.000259     -0.396792
      4.27290      6.41052     13.94685         0.000792      0.002127      0.001101
      6.40966      8.54610     13.94798        -0.000389      0.000186      0.002495
      4.27320      8.54602     11.77769        -0.000803      0.000561     -0.001901
      6.40980      6.41019     11.77755        -0.000055      0.001148     -0.002193
      4.27306      2.13653      9.63653        -0.000115     -0.000435      0.050038
      6.40959      4.27306      9.63653        -0.001205     -0.000071      0.049186
      4.27306      4.27306      7.50000        -0.000211     -0.000010     -0.397134
      6.40959      2.13653      7.50000         0.000159     -0.000271     -0.396787
      4.27291      2.13556     13.94670         0.000820     -0.002367      0.001036
      6.40978      4.27305     13.94391         0.001954     -0.000305      0.003131
      4.27292      4.27309     11.77792         0.000888     -0.000433     -0.003192
      6.40979      2.13584     11.77749        -0.000266     -0.000943     -0.001749
    total drift:                                0.000441      0.000237      0.020727

  FREE ENERGIE OF THE ION-ELECTRON SYSTEM (eV)
  free  energy   TOTEN  =      -264.78088944 eV

  energy  without entropy=     -264.78088944  energy(sigma->0) =     -264.78088944

 d Force = 0.1117230E-04[ 0.960E-05, 0.127E-04]  d Energy = 0.1154800E-04-0.376E-06
 d Force = 0.3562287E-01[ 0.356E-01, 0.356E-01]  d Ewald  = 0.3562337E-01-0.492E-06

 Conjugate gradient step on ions:
 trial-energy change:   -0.000012  1 .order   -0.000011   -0.000013   -0.000010
  (g-gl).g = 0.135E-04      g.g   = 0.536E-04  gl.gl    = 0.134E-03
 g(Force)  = 0.536E-04   g(Stress)= 0.000E+00 ortho     = 0.478E-05
 gamma     =   0.10097
 trial     =   0.23582
 opt step  =   0.94329  (harmonic =   0.95363) maximal distance =0.00047697
 next E    =  -264.780904   (d E  =  -0.00003)

 reached required accuracy - stopping structural energy minimisation