 vasp.6.3.0 20Jan22 (build Apr  1 2022 16:44:48) complex
 executed on        HPECrayEX_GCC date 2023.01.23  22:14:38

 INCAR:
   SYSTEM = MgO-rocksalt
   ISMEAR = 0
   SIGMA = 0.05
   EDIFF = 1E-8
   ALGO = ALL
   ISTART = 0
   IBRION = 5
   POTIM = 0.01
   NFREE = 2
   ISYM = 0
   DIPOL = 0.5 0.5 0.5
   IDIPOL = 3
   LDIPOL = .TRUE.
   GGA = RE
   IVDW = 13
   VDW_S8 = 1.7468
   VDW_A1 = 0.5363
   VDW_A2 = 3.0726
   ENCUT = 600
   PREC = Accurate
   LASPH = .TRUE.
   LREAL = .FALSE.
   ISPIN = 1
   NELM = 200
   NELMIN = 8
   NCORE = 8
   KPAR = 1
   LWAVE = .FALSE.
   LCHARG = .FALSE.

 POTCAR:    PAW_PBE C 08Apr2002
 POTCAR:    PAW_PBE O 08Apr2002
 POTCAR:    PAW_PBE H 15Jun2001
 POTCAR:    PAW_PBE Mg_pv 13Apr2007
 POTCAR:    PAW_PBE O 08Apr2002
 POTCAR:    PAW_PBE C 08Apr2002
   VRHFIN =C: s2p2

   TITEL  = PAW_PBE C 08Apr2002
   POMASS =   12.011; ZVAL   =    4.000    mass and valenz
   ENMAX  =  400.000; ENMIN  =  300.000 eV

[...]

   TITEL  = PAW_PBE H 15Jun2001
   POMASS =    1.000; ZVAL   =    1.000    mass and valenz
   ENMAX  =  250.000; ENMIN  =  200.000 eV

   TITEL  = PAW_PBE Mg_pv 13Apr2007
   POMASS =   24.305; ZVAL   =    8.000    mass and valenz
   ENMAX  =  403.929; ENMIN  =  302.947 eV

   TITEL  = PAW_PBE O 08Apr2002
   POMASS =   16.000; ZVAL   =    6.000    mass and valenz
   ENMAX  =  400.000; ENMIN  =  300.000 eV

  PAW_PBE C 08Apr2002                   :
  PAW_PBE O 08Apr2002                   :
  PAW_PBE H 15Jun2001                   :
  PAW_PBE Mg_pv 13Apr2007               :
  PAW_PBE O 08Apr2002                   :

 POSCAR:  C  O  H Mg  O
  positions in direct lattice
|           W    W    AA    RRRRR   N    N  II  N    N   GGGG   !!!           |
|           W    W   A  A   R    R  NN   N  II  NN   N  G    G  !!!           |
|           W    W  A    A  R    R  N N  N  II  N N  N  G       !!!           |
|           W WW W  AAAAAA  RRRRR   N  N N  II  N  N N  G  GGG   !            |
|           WW  WW  A    A  R   R   N   NN  II  N   NN  G    G                |
|           W    W  A    A  R    R  N    N  II  N    N   GGGG   !!!           |
|     Specifying the vdW parameters                                           |
|     VDW_S8 = 1.747                                                          |
|     VDW_A1 = 0.536                                                          |
|     VDW_A2 = 3.073                                                          |
|     in the INCAR file will overwrite the defaults for revpbe. Please        |
|     make sure that is what you intended.                                    |

 ion  position               nearest neighbor table
   1  0.500  0.927  0.795-   3 1.10   6 1.11   5 1.11   2 1.43
   2  0.500  0.763  0.779-   4 1.00   1 1.43
   3  0.500  0.937  0.846-   1 1.10
   4  0.500  0.756  0.732-   2 1.00
   5  0.607  0.990  0.777-   1 1.11
   6  0.393  0.990  0.777-   1 1.11
   7  0.000  0.750  0.352-  39 2.11  41 2.11  42 2.11  49 2.11  58 2.11
   8  0.250  0.000  0.352-  40 2.11  41 2.11  42 2.11  50 2.11  57 2.11
   9  0.000  0.000  0.451-  41 2.11  40 2.11  39 2.11  47 2.11  56 2.11  45 2.12
  10  0.250  0.750  0.451-  42 2.11  40 2.11  39 2.11  48 2.11  55 2.11  46 2.12
  11  0.000  0.750  0.550-  45 2.11  53 2.11  46 2.11  62 2.11  39 2.12  43 2.15
  12  0.250  0.000  0.550-  46 2.11  45 2.11  54 2.11  61 2.11  40 2.13  44 2.15
  13  0.000  0.001  0.649-  51 2.11  44 2.11  60 2.11  43 2.11  45 2.11
  14  0.248  0.750  0.649-  43 2.09  52 2.11  44 2.11  46 2.12  59 2.13
  15  0.000  0.250  0.352-  47 2.11  41 2.11  49 2.11  50 2.11  66 2.11
  16  0.250  0.500  0.352-  48 2.11  42 2.11  49 2.11  50 2.11  65 2.11
  17  0.000  0.500  0.451-  49 2.11  47 2.11  48 2.11  39 2.11  64 2.11  53 2.12
  18  0.250  0.250  0.451-  50 2.11  47 2.11  48 2.11  40 2.11  63 2.11  54 2.12
  19  0.000  0.250  0.550-  53 2.11  54 2.11  70 2.11  45 2.11  47 2.12  51 2.15
  20  0.250  0.500  0.550-  53 2.11  46 2.11  69 2.11  54 2.11  48 2.13  52 2.14
  21  1.000  0.500  0.649-  51 2.11  68 2.11  52 2.11  43 2.11  53 2.12
  22  0.250  0.250  0.649-  51 2.11  52 2.11  67 2.11  44 2.11  54 2.11
  23  0.500  0.750  0.352-  55 2.11  42 2.11  57 2.11  58 2.11  65 2.11
  24  0.750  0.000  0.352-  56 2.11  41 2.11  57 2.11  58 2.11  66 2.11
  25  0.500  0.000  0.451-  57 2.11  55 2.11  56 2.11  40 2.11  63 2.11  61 2.12
  26  0.750  0.750  0.451-  58 2.11  55 2.11  56 2.11  39 2.11  64 2.11  62 2.12
  27  0.500  0.750  0.550-  69 2.11  46 2.11  62 2.11  61 2.11  55 2.12  59 2.17
  28  0.750  0.000  0.550-  62 2.11  45 2.11  70 2.11  61 2.11  56 2.13  60 2.15
  29  0.500  0.003  0.649-  67 2.09  61 2.10  44 2.11  60 2.11  59 2.14
  30  0.752  0.750  0.649-  43 2.09  68 2.11  60 2.11  62 2.12  59 2.13
  31  0.500  0.250  0.352-  63 2.11  57 2.11  50 2.11  65 2.11  66 2.11
  32  0.750  0.500  0.352-  64 2.11  58 2.11  49 2.11  65 2.11  66 2.11
  33  0.500  0.500  0.451-  65 2.11  55 2.11  63 2.11  64 2.11  48 2.11  69 2.12
  34  0.750  0.250  0.451-  66 2.11  56 2.11  63 2.11  64 2.11  47 2.11  70 2.12
  35  0.500  0.250  0.550-  54 2.11  70 2.11  69 2.11  61 2.12  63 2.12  67 2.14
  36  0.750  0.500  0.550-  53 2.11  62 2.11  69 2.11  70 2.11  64 2.13  68 2.14
  37  0.500  0.498  0.649-  67 2.09  68 2.11  52 2.11  69 2.11  59 2.13
  38  0.750  0.250  0.649-  51 2.11  68 2.11  67 2.11  60 2.11  70 2.11
  39  0.000  0.750  0.451-   7 2.11   9 2.11  10 2.11  17 2.11  26 2.11  11 2.12
  40  0.250  0.000  0.451-   8 2.11   9 2.11  10 2.11  18 2.11  25 2.11  12 2.13
  41  0.000  0.000  0.352-   9 2.11   8 2.11   7 2.11  15 2.11  24 2.11
  42  0.250  0.750  0.352-  10 2.11   8 2.11   7 2.11  16 2.11  23 2.11
  43  1.000  0.750  0.651-  30 2.09  14 2.09  13 2.11  21 2.11  11 2.15
  44  0.250  0.000  0.651-  29 2.11  14 2.11  13 2.11  22 2.11  12 2.15
  45  1.000  0.000  0.550-  11 2.11  28 2.11  12 2.11  19 2.11  13 2.11   9 2.12
  46  0.250  0.750  0.550-  27 2.11  12 2.11  20 2.11  11 2.11  14 2.12  10 2.12
  47  0.000  0.250  0.451-  15 2.11   9 2.11  17 2.11  18 2.11  34 2.11  19 2.12
  48  0.250  0.500  0.451-  16 2.11  10 2.11  17 2.11  18 2.11  33 2.11  20 2.13
  49  0.000  0.500  0.352-  17 2.11  15 2.11  16 2.11   7 2.11  32 2.11
  50  0.250  0.250  0.352-  18 2.11  15 2.11  16 2.11   8 2.11  31 2.11
  51  1.000  0.250  0.651-  13 2.11  38 2.11  22 2.11  21 2.11  19 2.15
  52  0.250  0.500  0.651-  14 2.11  37 2.11  22 2.11  21 2.11  20 2.14
  53  0.000  0.500  0.550-  11 2.11  20 2.11  36 2.11  19 2.11  21 2.12  17 2.12
  54  0.250  0.250  0.550-  35 2.11  12 2.11  19 2.11  20 2.11  22 2.11  18 2.12
  55  0.500  0.750  0.451-  23 2.11  10 2.11  25 2.11  26 2.11  33 2.11  27 2.12
  56  0.750  0.000  0.451-  24 2.11   9 2.11  25 2.11  26 2.11  34 2.11  28 2.13
  57  0.500  0.000  0.352-  25 2.11  23 2.11  24 2.11   8 2.11  31 2.11
  58  0.750  0.750  0.352-  26 2.11  23 2.11  24 2.11   7 2.11  32 2.11
  59  0.500  0.750  0.652-  30 2.13  14 2.13  37 2.13  29 2.14  27 2.17
  60  0.750  0.000  0.651-  29 2.11  30 2.11  13 2.11  38 2.11  28 2.15
  61  0.500  1.000  0.550-  29 2.10  27 2.11  28 2.11  12 2.11  35 2.12  25 2.12
  62  0.750  0.750  0.550-  27 2.11  28 2.11  36 2.11  11 2.11  30 2.12  26 2.12
  63  0.500  0.250  0.451-  31 2.11  25 2.11  18 2.11  33 2.11  34 2.11  35 2.12
  64  0.750  0.500  0.451-  32 2.11  26 2.11  17 2.11  33 2.11  34 2.11  36 2.13
  65  0.500  0.500  0.352-  33 2.11  23 2.11  31 2.11  32 2.11  16 2.11
  66  0.750  0.250  0.352-  34 2.11  24 2.11  31 2.11  32 2.11  15 2.11
  67  0.500  0.250  0.651-  29 2.09  37 2.09  38 2.11  22 2.11  35 2.14
  68  0.750  0.500  0.651-  30 2.11  37 2.11  38 2.11  21 2.11  36 2.14
  69  0.500  0.501  0.550-  27 2.11  36 2.11  20 2.11  37 2.11  35 2.11  33 2.12
  70  0.750  0.250  0.550-  35 2.11  28 2.11  19 2.11  36 2.11  38 2.11  34 2.12

IMPORTANT INFORMATION: All symmetrisations will be switched off!
NOSYMM: (Re-)initialisation of all symmetry stuff for point group C_1.

                                     Primitive cell

  volume of cell :    1519.8199

  direct lattice vectors                    reciprocal lattice vectors
     8.440984654  0.000000000  0.000000000     0.118469591  0.000000000  0.000000000
     0.000000000  8.440984654  0.000000000     0.000000000  0.118469591  0.000000000
     0.000000000  0.000000000 21.330738491     0.000000000  0.000000000  0.046880702

  length of vectors
     8.440984654  8.440984654 21.330738491     0.118469591  0.118469591  0.046880702

  position of ions in fractional coordinates (direct lattice)
     0.499992559  0.927425025  0.794672850
     0.500000622  0.763027173  0.778637205
     0.500000547  0.937136336  0.846026296
     0.500000090  0.756298660  0.731770613
     0.606662785  0.989570896  0.776953163
     0.393344181  0.989568125  0.776954137
     0.000000000  0.750000000  0.351605267
     0.250000000  0.000000000  0.351605267
     0.000000000  0.000000000  0.450535089
     0.250000000  0.750000000  0.450535089
     0.000000008  0.750147550  0.550126567
     0.249905350  0.000103435  0.550222861
     0.000000026  0.000546055  0.648943465
     0.247747286  0.750033192  0.649243266
     0.000000000  0.250000000  0.351605267
     0.250000000  0.500000000  0.351605267
     0.000000000  0.500000000  0.450535089
     0.250000000  0.250000000  0.450535089
     0.000000012  0.250191124  0.550146528
     0.249928207  0.500214927  0.550255332
     0.999999983  0.499940436  0.649062667
     0.249636403  0.250399205  0.648941138
     0.500000000  0.750000000  0.351605267
     0.750000000  0.000000000  0.351605267
     0.500000000  0.000000000  0.450535089
     0.750000000  0.750000000  0.450535089
     0.499999985  0.750123901  0.550030192
     0.750094647  0.000103445  0.550222837
     0.499999941  0.003291849  0.648638534
     0.752252711  0.750033147  0.649243200
     0.500000000  0.250000000  0.351605267
     0.750000000  0.500000000  0.351605267
     0.500000000  0.500000000  0.450535089
     0.750000000  0.250000000  0.450535089
     0.499999992  0.250340414  0.549992972
     0.750071788  0.500214927  0.550255323
     0.500000005  0.497841145  0.648989133
     0.750363599  0.250399263  0.648941088
     0.000000000  0.750000000  0.450535089
     0.250000000  0.000000000  0.450535089
     0.000000000  0.000000000  0.351605267
     0.250000000  0.750000000  0.351605267
     0.999999975  0.750297883  0.650700566
     0.250242377  0.000040639  0.650797168
     0.999999986  0.000044611  0.549843935
     0.250470800  0.750233324  0.550076074
     0.000000000  0.250000000  0.450535089
     0.250000000  0.500000000  0.450535089
     0.000000000  0.500000000  0.351605267
     0.250000000  0.250000000  0.351605267
     0.999999976  0.250139304  0.650810627
     0.250241849  0.500380847  0.650569646
     0.000000002  0.500222649  0.549863570
     0.250081150  0.250070487  0.549831101
     0.500000000  0.750000000  0.450535089
     0.750000000  0.000000000  0.450535089
     0.500000000  0.000000000  0.351605267
     0.750000000  0.750000000  0.351605267
     0.500000011  0.750432985  0.651858218
     0.749757573  0.000040640  0.650797178
     0.500000010  0.999759990  0.549985217
     0.749529196  0.750233335  0.550076086
[...]
  5Z    -6.384092   -3.395294    7.570230    0.773719    0.623601   -0.641278   -2.569900   -1.197776    0.969265    0.121884    0.006473   -0.047904    7.030806    3.542177   -7.413896    1.032614    0.420153   -0.464122
  6X    19.687972   -7.446060    6.588701   -0.738575   -0.508587   -0.487562   -0.016082    0.088403   -0.051415   -0.072948   -0.043440    0.127142    2.022275   -0.927047    1.033293  -21.039564    8.857140   -7.045337
  6Y    -7.256750    7.915878   -3.272971   -2.508060    3.297863   -0.311576    0.003981   -0.157989   -0.087733    0.042283   -0.091839   -0.368552    0.927017   -0.747993    0.420249    8.849724  -10.252201    3.549219
  6Z     6.394045   -3.400920    7.571893   -0.773949    0.623510   -0.641117    2.569964   -1.198049    0.969122   -0.121846    0.006474   -0.048054   -1.033119    0.419905   -0.464021   -7.040198    3.547887   -7.415135

 Eigenvectors and eigenvalues of the dynamical matrix

   1 f  =   93.873032 THz   589.821658 2PiTHz 3131.267314 cm-1   388.227493 meV
             X         Y         Z           dx          dy          dz
      4.220430  7.828380 16.950959    -0.000041   -0.015540   -0.031027
      4.220498  6.440701 16.608907     0.000003   -0.023623   -0.249626
      4.220497  7.910353 18.046366     0.000016    0.020236    0.127838
      4.220493  6.383905 15.609208     0.000007    0.075921    0.953793
      5.120831  8.352953 16.572985     0.031413    0.026942   -0.011852
      3.320212  8.352929 16.573006    -0.031206    0.026867   -0.011794
      0.000000  6.330738  7.500000            0           0           0
      2.110246  0.000000  7.500000            0           0           0
      0.000000  0.000000  9.610246            0           0           0
      2.110246  6.330738  9.610246            0           0           0
      0.000000  6.331984 11.734606            0           0           0
      2.109447  0.000873 11.736660            0           0           0
      0.000000  0.004609 13.842443            0           0           0
      2.091231  6.331019 13.848838            0           0           0
      0.000000  2.110246  7.500000            0           0           0
      2.110246  4.220492  7.500000            0           0           0
      0.000000  4.220492  9.610246            0           0           0
      2.110246  2.110246  9.610246            0           0           0
      0.000000  2.111859 11.735032            0           0           0
      2.109640  4.222307 11.737353            0           0           0
      8.440985  4.219990 13.844986            0           0           0
      2.107177  2.113616 13.842394            0           0           0
      4.220492  6.330738  7.500000            0           0           0
      6.330738  0.000000  7.500000            0           0           0
      4.220492  0.000000  9.610246            0           0           0
      6.330738  6.330738  9.610246            0           0           0
      4.220492  6.331784 11.732550            0           0           0
      6.331537  0.000873 11.736659            0           0           0
      4.220492  0.027786 13.835939            0           0           0
      6.349754  6.331018 13.848837            0           0           0
      4.220492  2.110246  7.500000            0           0           0
      6.330738  4.220492  7.500000            0           0           0
      4.220492  4.220492  9.610246            0           0           0
      6.330738  2.110246  9.610246            0           0           0
      4.220492  2.113120 11.731756            0           0           0
      6.331344  4.222307 11.737352            0           0           0
      4.220492  4.202269 13.843417            0           0           0
      6.333808  2.113616 13.842393            0           0           0
      0.000000  6.330738  9.610246            0           0           0
      2.110246  0.000000  9.610246            0           0           0
      0.000000  0.000000  7.500000            0           0           0
      2.110246  6.330738  7.500000            0           0           0
      8.440984  6.333253 13.879924            0           0           0
      2.112292  0.000343 13.881984            0           0           0
      8.440985  0.000377 11.728577            0           0           0
      2.114220  6.332708 11.733529            0           0           0
      0.000000  2.110246  9.610246            0           0           0
      2.110246  4.220492  9.610246            0           0           0
      0.000000  4.220492  7.500000            0           0           0
      2.110246  2.110246  7.500000            0           0           0
      8.440984  2.111422 13.882271            0           0           0
      2.112288  4.223707 13.877131            0           0           0
      0.000000  4.222372 11.728996            0           0           0
      2.110931  2.110841 11.728303            0           0           0
      4.220492  6.330738  9.610246            0           0           0
      6.330738  0.000000  9.610246            0           0           0
      4.220492  0.000000  7.500000            0           0           0
      6.330738  6.330738  7.500000            0           0           0
      4.220492  6.334393 13.904617            0           0           0
      6.328692  0.000343 13.881984            0           0           0
      4.220492  8.438959 11.731591            0           0           0
      6.326764  6.332708 11.733529            0           0           0
      4.220492  2.110246  9.610246            0           0           0
      6.330738  4.220492  9.610246            0           0           0
      4.220492  4.220492  7.500000            0           0           0
      6.330738  2.110246  7.500000            0           0           0
      4.220493  2.113280 13.876075            0           0           0
      6.328697  4.223707 13.877130            0           0           0
      4.220492  4.226221 11.731741            0           0           0
      6.330053  2.110841 11.728303            0           0           0

[...]

  17 f  =    1.197332 THz     7.523056 2PiTHz   39.938683 cm-1     4.951763 meV
             X         Y         Z           dx          dy          dz
      4.220430  7.828380 16.950959     0.000513    0.607653   -0.329814
      4.220498  6.440701 16.608907    -0.003649    0.601654    0.023819
      4.220497  7.910353 18.046366    -0.002900    0.255252   -0.101197
      4.220493  6.383905 15.609208    -0.000288    0.075215    0.010818
      5.120831  8.352953 16.572985     0.002987    0.145936   -0.129566
      3.320212  8.352929 16.573006     0.000797    0.148469   -0.134529
      0.000000  6.330738  7.500000            0           0           0
      2.110246  0.000000  7.500000            0           0           0
      0.000000  0.000000  9.610246            0           0           0
      2.110246  6.330738  9.610246            0           0           0
      0.000000  6.331984 11.734606            0           0           0
      2.109447  0.000873 11.736660            0           0           0
      0.000000  0.004609 13.842443            0           0           0
      2.091231  6.331019 13.848838            0           0           0
      0.000000  2.110246  7.500000            0           0           0
      2.110246  4.220492  7.500000            0           0           0
      0.000000  4.220492  9.610246            0           0           0
      2.110246  2.110246  9.610246            0           0           0
      0.000000  2.111859 11.735032            0           0           0
      2.109640  4.222307 11.737353            0           0           0
      8.440985  4.219990 13.844986            0           0           0
      2.107177  2.113616 13.842394            0           0           0
      4.220492  6.330738  7.500000            0           0           0
      6.330738  0.000000  7.500000            0           0           0
      4.220492  0.000000  9.610246            0           0           0
      6.330738  6.330738  9.610246            0           0           0
      4.220492  6.331784 11.732550            0           0           0
      6.331537  0.000873 11.736659            0           0           0
      4.220492  0.027786 13.835939            0           0           0
      6.349754  6.331018 13.848837            0           0           0
      4.220492  2.110246  7.500000            0           0           0
      6.330738  4.220492  7.500000            0           0           0
      4.220492  4.220492  9.610246            0           0           0
      6.330738  2.110246  9.610246            0           0           0
      4.220492  2.113120 11.731756            0           0           0
      6.331344  4.222307 11.737352            0           0           0
      4.220492  4.202269 13.843417            0           0           0
      6.333808  2.113616 13.842393            0           0           0
      0.000000  6.330738  9.610246            0           0           0
      2.110246  0.000000  9.610246            0           0           0
      0.000000  0.000000  7.500000            0           0           0
      2.110246  6.330738  7.500000            0           0           0
      8.440984  6.333253 13.879924            0           0           0
      2.112292  0.000343 13.881984            0           0           0
      8.440985  0.000377 11.728577            0           0           0
      2.114220  6.332708 11.733529            0           0           0
      0.000000  2.110246  9.610246            0           0           0
      2.110246  4.220492  9.610246            0           0           0
      0.000000  4.220492  7.500000            0           0           0
      2.110246  2.110246  7.500000            0           0           0
      8.440984  2.111422 13.882271            0           0           0
      2.112288  4.223707 13.877131            0           0           0
      0.000000  4.222372 11.728996            0           0           0
      2.110931  2.110841 11.728303            0           0           0
      4.220492  6.330738  9.610246            0           0           0
      6.330738  0.000000  9.610246            0           0           0
      4.220492  0.000000  7.500000            0           0           0
      6.330738  6.330738  7.500000            0           0           0
      4.220492  6.334393 13.904617            0           0           0
      6.328692  0.000343 13.881984            0           0           0
      4.220492  8.438959 11.731591            0           0           0
      6.326764  6.332708 11.733529            0           0           0
      4.220492  2.110246  9.610246            0           0           0
      6.330738  4.220492  9.610246            0           0           0
      4.220492  4.220492  7.500000            0           0           0
      6.330738  2.110246  7.500000            0           0           0
      4.220493  2.113280 13.876075            0           0           0
      6.328697  4.223707 13.877130            0           0           0
      4.220492  4.226221 11.731741            0           0           0
      6.330053  2.110841 11.728303            0           0           0

  18 f/i=    1.346288 THz     8.458978 2PiTHz   44.907340 cm-1     5.567798 meV
             X         Y         Z           dx          dy          dz
      4.220430  7.828380 16.950959     0.235584    0.002847   -0.001324
      4.220498  6.440701 16.608907     0.930663    0.002737    0.000667
      4.220497  7.910353 18.046366     0.150978    0.001270   -0.000427
      4.220493  6.383905 15.609208     0.106250    0.000294    0.000198
      5.120831  8.352953 16.572985    -0.034649    0.124287   -0.075678
      3.320212  8.352929 16.573006    -0.034692   -0.123005    0.074531
      0.000000  6.330738  7.500000            0           0           0
      2.110246  0.000000  7.500000            0           0           0
      0.000000  0.000000  9.610246            0           0           0
      2.110246  6.330738  9.610246            0           0           0
      0.000000  6.331984 11.734606            0           0           0
      2.109447  0.000873 11.736660            0           0           0
      0.000000  0.004609 13.842443            0           0           0
      2.091231  6.331019 13.848838            0           0           0
      0.000000  2.110246  7.500000            0           0           0
      2.110246  4.220492  7.500000            0           0           0
      0.000000  4.220492  9.610246            0           0           0
      2.110246  2.110246  9.610246            0           0           0
      0.000000  2.111859 11.735032            0           0           0
      2.109640  4.222307 11.737353            0           0           0
      8.440985  4.219990 13.844986            0           0           0
      2.107177  2.113616 13.842394            0           0           0
      4.220492  6.330738  7.500000            0           0           0
      6.330738  0.000000  7.500000            0           0           0
      4.220492  0.000000  9.610246            0           0           0
      6.330738  6.330738  9.610246            0           0           0
      4.220492  6.331784 11.732550            0           0           0
      6.331537  0.000873 11.736659            0           0           0
      4.220492  0.027786 13.835939            0           0           0
      6.349754  6.331018 13.848837            0           0           0
      4.220492  2.110246  7.500000            0           0           0
      6.330738  4.220492  7.500000            0           0           0
      4.220492  4.220492  9.610246            0           0           0
      6.330738  2.110246  9.610246            0           0           0
      4.220492  2.113120 11.731756            0           0           0
      6.331344  4.222307 11.737352            0           0           0
      4.220492  4.202269 13.843417            0           0           0
      6.333808  2.113616 13.842393            0           0           0
      0.000000  6.330738  9.610246            0           0           0
      2.110246  0.000000  9.610246            0           0           0
      0.000000  0.000000  7.500000            0           0           0
      2.110246  6.330738  7.500000            0           0           0
      8.440984  6.333253 13.879924            0           0           0
      2.112292  0.000343 13.881984            0           0           0
      8.440985  0.000377 11.728577            0           0           0
      2.114220  6.332708 11.733529            0           0           0
      0.000000  2.110246  9.610246            0           0           0
      2.110246  4.220492  9.610246            0           0           0
      0.000000  4.220492  7.500000            0           0           0
      2.110246  2.110246  7.500000            0           0           0
      8.440984  2.111422 13.882271            0           0           0
      2.112288  4.223707 13.877131            0           0           0
      0.000000  4.222372 11.728996            0           0           0
      2.110931  2.110841 11.728303            0           0           0
      4.220492  6.330738  9.610246            0           0           0
      6.330738  0.000000  9.610246            0           0           0
      4.220492  0.000000  7.500000            0           0           0
      6.330738  6.330738  7.500000            0           0           0
      4.220492  6.334393 13.904617            0           0           0
      6.328692  0.000343 13.881984            0           0           0
      4.220492  8.438959 11.731591            0           0           0
      6.326764  6.332708 11.733529            0           0           0
      4.220492  2.110246  9.610246            0           0           0
      6.330738  4.220492  9.610246            0           0           0
      4.220492  4.220492  7.500000            0           0           0
      6.330738  2.110246  7.500000            0           0           0
      4.220493  2.113280 13.876075            0           0           0
      6.328697  4.223707 13.877130            0           0           0
      4.220492  4.226221 11.731741            0           0           0
      6.330053  2.110841 11.728303            0           0           0

 Finite differences POTIM=   1.0000000000000000E-002