 vasp.6.3.0 20Jan22 (build Apr  1 2022 16:44:48) complex
 executed on        HPECrayEX_GCC date 2023.02.18  05:21:03

 INCAR:
   SYSTEM = MgO-rocksalt
   ISMEAR = 0
   SIGMA = 0.05
   EDIFF = 1E-7
   ALGO = ALL
   ISTART = 0
   IBRION = 2
   NSW = 1000
   ISYM = 0
   ISIF = 2
   EDIFFG = -0.01
   DIPOL = 0.5 0.5 0.5
   IDIPOL = 3
   LDIPOL = .TRUE.
   GGA = MK
   LUSE_VDW = .TRUE.
   PARAM1 = 0.1234
   PARAM2 = 0.711357
   ZAB_VDW = -1.8867
   AGGAC = 0.0
   ENCUT = 520
   PREC = Accurate
   LASPH = .TRUE.
   LREAL = Auto
   ISPIN = 1
   NELM = 200
   NELMIN = 8
   NCORE = 8
   KPAR = 1
   LWAVE = .FALSE.
   LCHARG = .FALSE.

 POTCAR:    PAW_PBE H 15Jun2001
 POTCAR:    PAW_PBE O 08Apr2002
 POTCAR:    PAW_PBE Mg 13Apr2007
 POTCAR:    PAW_PBE O 08Apr2002
|               ----> ADVICE to this user running VASP <----                  |
|     You have switched on vdW-DFT.                                           |
|     This routine was written and supplied by Jiri Klimes. We recommend      |
|     that you carefully read and cite the following publications:            |
|       J. Klimes, D.R. Bowler, A. Michelides                                 |
|          J. Phys.: Cond Matt. 22 022201 (2010)                              |
|       J. Klimes, D.R. Bowler, A. Michelides                                 |
|          Phys. Rev. B. 83, 195131 (2011)                                    |
|     and references therein.                                                 |

   TITEL  = PAW_PBE H 15Jun2001
   POMASS =    1.000; ZVAL   =    1.000    mass and valenz
   ENMAX  =  250.000; ENMIN  =  200.000 eV

   TITEL  = PAW_PBE O 08Apr2002
   POMASS =   16.000; ZVAL   =    6.000    mass and valenz
   ENMAX  =  400.000; ENMIN  =  300.000 eV

[...]

   TITEL  = PAW_PBE O 08Apr2002
   POMASS =   16.000; ZVAL   =    6.000    mass and valenz
   ENMAX  =  400.000; ENMIN  =  300.000 eV

 Optimization of the real space projectors (new method)

 maximal supplied QI-value         = 34.20
 optimisation between [QCUT,QGAM] = [ 11.63, 23.26] = [ 37.87,151.49] Ry
 Optimized for a Real-space Cutoff    1.21 Angstroem

   l    n(q)    QCUT    max X(q) W(low)/X(q) W(high)/X(q)  e(spline)
   0      8    11.629    19.460    0.17E-03    0.34E-03    0.21E-06
   0      8    11.629    12.209    0.16E-03    0.33E-03    0.21E-06
   1      8    11.629     4.655    0.18E-03    0.16E-03    0.26E-06
 Optimization of the real space projectors (new method)

[...]

   l    n(q)    QCUT    max X(q) W(low)/X(q) W(high)/X(q)  e(spline)
   0      9    11.527    28.265    0.62E-04    0.53E-04    0.73E-07
   0      9    11.527    10.429    0.52E-04    0.40E-04    0.58E-07
   1      8    11.527    13.073    0.98E-04    0.18E-03    0.86E-07
   1      8    11.527     9.625    0.79E-04    0.15E-03    0.74E-07
   2      8    11.527     4.652    0.22E-03    0.72E-04    0.47E-07
 Optimization of the real space projectors (new method)

 maximal supplied QI-value         = 24.76
 optimisation between [QCUT,QGAM] = [ 11.64, 23.27] = [ 37.91,151.63] Ry
 Optimized for a Real-space Cutoff    1.14 Angstroem

   l    n(q)    QCUT    max X(q) W(low)/X(q) W(high)/X(q)  e(spline)
   0      8    11.635    20.381    0.10E-03    0.33E-03    0.24E-06
   0      8    11.635    15.268    0.11E-03    0.35E-03    0.26E-06
   1      7    11.635     5.964    0.24E-03    0.31E-03    0.30E-06
   1      7    11.635     5.382    0.22E-03    0.25E-03    0.26E-06
|               ----> ADVICE to this user running VASP <----                  |
|     You enforced a specific xc type in the INCAR file but a different       |
|     type was found in the POTCAR file.                                      |
|     I HOPE YOU KNOW WHAT YOU ARE DOING!                                     |

  PAW_PBE H 15Jun2001                   :
  PAW_PBE O 08Apr2002                   :
  PAW_PBE Mg 13Apr2007                  :
  PAW_PBE O 08Apr2002                   :

 POSCAR:  H  O Mg  O
  positions in direct lattice
 exchange correlation table for  LEXCH =       43
   RHO(1)=    0.500       N(1)  =     2000
   RHO(2)=  100.500       N(2)  =     4000

 ion  position               nearest neighbor table
   1  0.415  0.429  0.760-   9 0.99
   2  0.329  0.392  0.767-   9 0.97
   3  0.586  0.325  0.761-  10 0.99
   4  0.672  0.360  0.767-  10 0.97
   5  0.449  0.292  0.760-  11 0.99
   6  0.485  0.207  0.769-  11 0.97
   7  0.554  0.464  0.760-  12 0.99
   8  0.516  0.550  0.763-  12 0.97
   9  0.384  0.380  0.755-   2 0.97   1 0.99  43 2.28
  10  0.618  0.373  0.755-   4 0.97   3 0.99  91 2.27
  11  0.497  0.260  0.755-   6 0.97   5 0.99 108 2.28
  12  0.504  0.495  0.754-   8 0.97   7 0.99 132 2.27
  13  0.125  0.000  0.352- 141 2.11 143 2.11 144 2.11 160 2.11 183 2.11  16 2.98  32 2.98  55 2.98
                            15 2.98  54 2.98  30 2.98  70 2.98  14 2.98
  14  0.250  0.125  0.352- 142 2.11 143 2.11 144 2.11 152 2.11 159 2.11  16 2.98  24 2.98  31 2.98
                            15 2.98  29 2.98  21 2.98  37 2.98  13 2.98
  15  0.125  0.125  0.451- 143 2.11 142 2.11 141 2.11 149 2.11 158 2.11 147 2.12  21 2.98  30 2.98
                            13 2.98  14 2.98  32 2.98  40 2.98  24 2.98  16 2.98  34 2.99  25 2.99
  16  0.250  0.000  0.451- 144 2.11 142 2.11 141 2.11 157 2.11 182 2.11 148 2.12  29 2.98  54 2.98
                            13 2.98  14 2.98  55 2.98  71 2.98  31 2.98  15 2.98  58 2.99  33 2.99
  17  0.125  0.000  0.550- 147 2.11 148 2.11 164 2.11 187 2.11 141 2.12 145 2.14  36 2.98  59 2.98
                            19 2.98  20 2.98  34 2.98  74 2.98  18 2.98  58 2.98  16 2.99  15 2.99
  18  0.250  0.125  0.550- 147 2.11 148 2.11 156 2.11 163 2.11 142 2.12 146 2.14  28 2.98  35 2.98
                            19 2.98  20 2.98  25 2.98  41 2.98  17 2.98  33 2.98  16 2.99  15 2.99
  19  0.125  0.125  0.648- 147 2.10 146 2.11 145 2.11 153 2.11 162 2.11  18 2.98  25 2.98  34 2.98
                            17 2.98  20 2.98  36 2.98  44 2.98  28 2.98
  20  0.250  0.000  0.648- 148 2.10 146 2.11 145 2.11 161 2.11 186 2.11  18 2.98  33 2.98  58 2.98
                            17 2.98  19 2.98  59 2.98  75 2.98  35 2.98
  21  0.125  0.250  0.352- 149 2.11 143 2.11 151 2.11 152 2.11 168 2.11  23 2.98  24 2.98  40 2.98
                            15 2.98  30 2.98  38 2.98  14 2.98  22 2.98
  22  0.250  0.375  0.352- 150 2.11 151 2.11 152 2.11 167 2.11 176 2.11  24 2.98  39 2.98  48 2.98
                            23 2.98  45 2.98  37 2.98  61 2.98  21 2.98
  23  0.125  0.375  0.451- 151 2.11 150 2.11 149 2.11 166 2.11 173 2.11 155 2.12  38 2.98  45 2.98
                            21 2.98  22 2.98  48 2.98  64 2.98  40 2.98  24 2.98  49 2.99  42 2.99
  24  0.250  0.250  0.451- 152 2.11 149 2.11 150 2.11 142 2.11 165 2.11 156 2.12  22 2.98  37 2.98
                            14 2.98  21 2.98  15 2.98  39 2.98  23 2.98  31 2.98  26 2.99  41 2.99
  25  0.125  0.250  0.550- 147 2.11 155 2.11 156 2.11 172 2.11 149 2.12 153 2.14  28 2.98  44 2.98
                            19 2.98  27 2.98  42 2.98  18 2.98  26 2.98  34 2.98  23 2.99  24 2.99
  26  0.250  0.375  0.550- 155 2.11 156 2.11 171 2.11 180 2.11 150 2.12 154 2.14  43 2.98  52 2.98
                            27 2.98  28 2.98  41 2.98  65 2.98  25 2.98  49 2.98  24 2.99  23 2.99
  27  0.125  0.375  0.648- 155 2.10 154 2.11 153 2.11 170 2.11 177 2.11  26 2.98  42 2.98  49 2.98
                            25 2.98  28 2.98  52 2.98  68 2.98  44 2.98
  28  0.250  0.250  0.648- 156 2.10 153 2.11 154 2.11 146 2.11 169 2.11  25 2.98  26 2.98  41 2.98
                            18 2.98  35 2.98  19 2.98  43 2.98  27 2.98
  29  0.375  0.000  0.352- 157 2.11 144 2.11 159 2.11 199 2.11 224 2.11  31 2.98  71 2.98  96 2.98
                            16 2.98  94 2.98  54 2.98 134 2.98  14 2.98
  30  0.000  0.125  0.352- 158 2.11 143 2.11 160 2.11 168 2.11 223 2.11  32 2.98  40 2.98  95 2.98
                            15 2.98  93 2.98  13 2.98 101 2.98  21 2.98
  31  0.375  0.125  0.451- 159 2.11 157 2.11 142 2.11 165 2.11 222 2.11 163 2.12  37 2.98  94 2.98
                            14 2.98  29 2.98  96 2.98 104 2.98  24 2.98  16 2.98  98 2.99  41 2.99
  32  0.000  0.000  0.451- 160 2.11 158 2.11 141 2.11 198 2.11 221 2.11 164 2.12  70 2.98  93 2.98
                            13 2.98  30 2.98  95 2.98 135 2.98  15 2.98  55 2.98  97 2.99  74 2.99
  33  0.375  0.000  0.550- 148 2.11 163 2.11 203 2.11 228 2.11 157 2.12 161 2.14  75 2.98 100 2.98
                            20 2.98  35 2.98  58 2.98 138 2.98  18 2.98  98 2.98  71 2.99  16 2.99
  34  0.000  0.125  0.550- 147 2.11 164 2.11 172 2.11 227 2.11 158 2.12 162 2.14  44 2.98  99 2.98
                            19 2.98  36 2.98  17 2.98 105 2.98  25 2.98  97 2.98  40 2.99  32 2.99
  35  0.375  0.125  0.648- 163 2.10 161 2.11 146 2.11 169 2.11 226 2.11  33 2.98  41 2.98  98 2.98
                            18 2.98  20 2.98 100 2.98 108 2.98  28 2.98
  36  0.000  0.000  0.648- 164 2.10 162 2.11 145 2.11 202 2.11 225 2.11  34 2.98  74 2.98  97 2.98
                            17 2.98  59 2.98  99 2.98 139 2.98  19 2.98
  37  0.375  0.250  0.352- 165 2.11 159 2.11 152 2.11 167 2.11 232 2.11  31 2.98  39 2.98 104 2.98
                            24 2.98  94 2.98 102 2.98  22 2.98  14 2.98
  38  0.000  0.375  0.352- 166 2.11 151 2.11 168 2.11 192 2.11 231 2.11  40 2.98  64 2.98 103 2.98
                            23 2.98 101 2.98  45 2.98 125 2.98  21 2.98
  39  0.375  0.375  0.451- 167 2.11 165 2.11 150 2.11 189 2.11 230 2.11 171 2.12  61 2.98 102 2.98
                            22 2.98  37 2.98 104 2.98 128 2.98  24 2.98  48 2.98 106 2.99  65 2.99
  40  0.000  0.250  0.451- 168 2.11 158 2.11 166 2.11 149 2.11 229 2.11 172 2.12  38 2.98 101 2.98
                            21 2.98  30 2.98  15 2.98 103 2.98  23 2.98  95 2.98  42 2.99 105 2.99
  41  0.375  0.250  0.550- 156 2.11 163 2.11 171 2.11 236 2.11 165 2.12 169 2.14  43 2.98 108 2.98
                            28 2.98  35 2.98 106 2.98  26 2.98  18 2.98  98 2.98  39 2.99  31 2.99
  42  0.000  0.375  0.550- 155 2.11 172 2.11 196 2.11 235 2.11 166 2.12 170 2.14  68 2.98 107 2.98
                            27 2.98  44 2.98  49 2.98 129 2.98  25 2.98 105 2.98  64 2.99  23 2.99
  43  0.375  0.375  0.648- 171 2.10 169 2.11 154 2.11 193 2.11 234 2.11   9 2.28  41 2.98  65 2.98
                           106 2.98  26 2.98  52 2.98 108 2.98 132 2.98  28 2.98
  44  0.000  0.250  0.648- 172 2.10 162 2.11 170 2.11 153 2.11 233 2.11  34 2.98  42 2.98 105 2.98
                            25 2.98  99 2.98  19 2.98 107 2.98  27 2.98
  45  0.125  0.500  0.352- 173 2.11 151 2.11 175 2.11 176 2.11 192 2.11  47 2.98  48 2.98  64 2.98
                            23 2.98  38 2.98  62 2.98  46 2.98  22 2.98
  46  0.250  0.625  0.352- 174 2.11 175 2.11 176 2.11 184 2.11 191 2.11  48 2.98  56 2.98  63 2.98
                            47 2.98  61 2.98  53 2.98  69 2.98  45 2.98
  47  0.125  0.625  0.451- 175 2.11 174 2.11 173 2.11 181 2.11 190 2.11 179 2.12  53 2.98  62 2.98
                            45 2.98  46 2.98  64 2.98  72 2.98  56 2.98  48 2.98  66 2.99  57 2.99
[...]
  14.77101896 14.77101896  7.50000000
   8.44058226 12.66087339  7.50000000
  14.77101896 12.66087339 13.86857013
   8.44058226 14.77101896 13.86857013
  14.77101896 14.77101896 11.72549760
   8.44058226 12.66087339 11.72549760

--------------------------------------- Iteration      FINAL  ---------------------------------------

--------------------OUTCAR has been truncated-------------------------

[...]

--------------------OUTCAR has been truncated-------------------------

  FORCE on cell =-STRESS in cart. coord.  units (eV):
  Direction    XX          YY          ZZ          XY          YZ          ZX
  Alpha Z  1034.84722  1034.84722  1034.84722
  Ewald  207040.22638207044.55011************     0.33207   -14.26986    -4.29926
  Hartree222326.53687222330.00242************     0.12587    -7.41950    -1.53633
  E(xc)   -4807.08084 -4807.07638 -4789.87376     0.00103    -0.03689    -0.01580
  Local  ************************431959.02540    -0.40332    19.54384     4.92074
  n-local -2521.64169 -2521.65886 -2597.33672     0.00379    -0.00250     0.02772
  augment   911.35352   911.34776   923.71822    -0.00455     0.14199     0.06046
  Kinetic 18552.80975 18552.69525 18797.00640    -0.05601     2.02542     0.86360
  Fock        0.00000     0.00000     0.00000     0.00000     0.00000     0.00000
  Total    -114.02442  -114.05579    -0.47346    -0.00112    -0.01750     0.02114
  in kB     -30.05411   -30.06238    -0.12479    -0.00029    -0.00461     0.00557

 VOLUME and BASIS-vectors are now :
  energy-cutoff  :      520.00
  volume of cell :     6078.61
      direct lattice vectors                 reciprocal lattice vectors
    16.881164524  0.000000000  0.000000000     0.059237619  0.000000000  0.000000000
     0.000000000 16.881164524  0.000000000     0.000000000  0.059237619  0.000000000
     0.000000000  0.000000000 21.330436697     0.000000000  0.000000000  0.046881366

  length of vectors
    16.881164524 16.881164524 21.330436697     0.059237619  0.059237619  0.046881366

 FORCES acting on ions:
    Electron-Ion                     Ewald-Force                    Non-Local-Force
   -.111E+02 -.640E+02 -.166E+03   0.154E+02 0.704E+02 0.166E+03   -.439E+01 -.632E+01 -.777E+00
   0.999E+02 -.153E+02 -.178E+03   -.108E+03 0.167E+02 0.181E+03   0.776E+01 -.136E+01 -.259E+01
   0.115E+02 0.636E+02 -.167E+03   -.159E+02 -.698E+02 0.168E+03   0.443E+01 0.627E+01 -.923E+00
   -.100E+03 0.158E+02 -.177E+03   0.108E+03 -.172E+02 0.179E+03   -.780E+01 0.141E+01 -.243E+01
   0.630E+02 -.118E+02 -.166E+03   -.692E+02 0.163E+02 0.167E+03   0.622E+01 -.448E+01 -.829E+00
   0.159E+02 0.992E+02 -.180E+03   -.173E+02 -.107E+03 0.182E+03   0.142E+01 0.769E+01 -.280E+01
   -.650E+02 0.105E+02 -.167E+03   0.714E+02 -.148E+02 0.167E+03   -.639E+01 0.433E+01 -.893E+00
   -.152E+02 -.101E+03 -.174E+03   0.165E+02 0.109E+03 0.176E+03   -.134E+01 -.791E+01 -.206E+01
   0.144E+03 0.322E+02 -.917E+03   -.129E+03 -.652E+02 0.903E+03   -.152E+02 0.330E+02 0.140E+02
   -.143E+03 -.328E+02 -.917E+03   0.128E+03 0.661E+02 0.904E+03   0.153E+02 -.333E+02 0.138E+02
   -.325E+02 0.145E+03 -.915E+03   0.655E+02 -.130E+03 0.900E+03   -.329E+02 -.145E+02 0.152E+02
   0.326E+02 -.142E+03 -.920E+03   -.659E+02 0.125E+03 0.908E+03   0.334E+02 0.162E+02 0.120E+02
   0.895E+00 0.884E+00 0.304E+03   -.893E+00 -.881E+00 -.302E+03   -.553E-03 -.784E-03 -.232E+01
   0.159E+01 0.158E+01 0.305E+03   -.158E+01 -.158E+01 -.303E+03   -.248E-02 -.235E-02 -.231E+01
   0.194E+01 0.209E+01 0.104E+03   -.194E+01 -.209E+01 -.104E+03   -.108E-02 -.387E-03 0.129E+00
   0.211E+01 0.192E+01 0.104E+03   -.210E+01 -.192E+01 -.104E+03   -.989E-03 -.127E-02 0.132E+00
   0.240E+01 0.238E+01 -.936E+02   -.240E+01 -.237E+01 0.936E+02   0.452E-03 0.175E-02 -.401E-01
   0.601E+01 0.599E+01 -.884E+02   -.600E+01 -.598E+01 0.885E+02   -.884E-02 -.168E-01 -.215E-01
   0.635E+01 0.583E+01 -.292E+03   -.632E+01 -.583E+01 0.291E+03   -.433E-01 -.451E-02 0.232E+01
   0.587E+01 0.635E+01 -.292E+03   -.587E+01 -.631E+01 0.291E+03   -.230E-02 -.452E-01 0.232E+01
   0.132E+01 0.926E+00 0.305E+03   -.131E+01 -.923E+00 -.303E+03   -.235E-02 -.845E-03 -.232E+01
   0.205E+01 0.236E-01 0.306E+03   -.203E+01 -.242E-01 -.304E+03   -.402E-02 0.848E-04 -.232E+01
   0.279E+01 0.420E-01 0.105E+03   -.276E+01 -.430E-01 -.105E+03   -.278E-02 -.523E-03 0.151E+00
   0.374E+01 0.219E+01 0.107E+03   -.370E+01 -.217E+01 -.107E+03   -.492E-04 -.324E-02 0.133E+00
   0.548E+01 0.289E+01 -.900E+02   -.544E+01 -.288E+01 0.900E+02   -.491E-01 -.124E-01 -.246E-01
   0.111E+02 0.103E+00 -.825E+02   -.109E+02 -.112E+00 0.825E+02   -.177E+00 0.104E-01 0.623E-01
   0.127E+02 0.126E+00 -.288E+03   -.126E+02 -.128E+00 0.287E+03   -.118E+00 0.264E-02 0.230E+01
   0.216E+02 0.115E+02 -.279E+03   -.214E+02 -.115E+02 0.278E+03   -.222E+00 0.331E-01 0.232E+01
   0.914E+00 0.130E+01 0.305E+03   -.911E+00 -.130E+01 -.303E+03   -.115E-02 -.249E-02 -.232E+01
   -.938E-03 0.116E+01 0.304E+03   0.963E-03 -.116E+01 -.302E+03   -.642E-05 -.517E-03 -.232E+01
   0.215E+01 0.372E+01 0.107E+03   -.213E+01 -.369E+01 -.107E+03   -.365E-02 -.836E-04 0.123E+00
   -.755E-03 0.123E+01 0.102E+03   0.827E-03 -.122E+01 -.102E+03   -.330E-04 -.119E-03 0.144E+00
   0.286E+01 0.547E+01 -.899E+02   -.285E+01 -.543E+01 0.899E+02   -.137E-01 -.466E-01 -.157E-01
   -.758E-03 0.285E+01 -.931E+02   0.192E-02 -.286E+01 0.931E+02   -.233E-02 0.710E-02 -.371E-01
   0.117E+02 0.217E+02 -.279E+03   -.117E+02 -.215E+02 0.277E+03   0.165E-01 -.220E+00 0.232E+01
   -.580E-02 0.266E+01 -.295E+03   0.623E-02 -.266E+01 0.293E+03   -.147E-02 0.913E-02 0.232E+01
   0.138E+01 0.139E+01 0.307E+03   -.137E+01 -.138E+01 -.305E+03   -.289E-02 -.257E-02 -.232E+01
   0.161E-02 0.129E-01 0.305E+03   -.168E-02 -.130E-01 -.303E+03   0.205E-04 -.165E-03 -.231E+01
   0.305E+01 0.584E-01 0.111E+03   -.303E+01 -.631E-01 -.111E+03   0.333E-02 -.541E-04 0.171E+00
   -.459E-02 0.129E+01 0.104E+03   0.551E-02 -.129E+01 -.104E+03   0.230E-03 -.132E-03 0.143E+00
   0.796E+01 0.802E+01 -.753E+02   -.785E+01 -.792E+01 0.755E+02   -.127E+00 -.127E+00 -.277E+00
   0.228E-02 0.298E-01 -.913E+02   -.184E-02 -.312E-01 0.914E+02   -.581E-03 0.154E-02 -.245E-01
   0.288E+02 0.964E+00 -.234E+03   -.286E+02 -.102E+01 0.233E+03   -.270E+00 0.565E-01 0.127E+01
   -.333E-01 0.322E+01 -.292E+03   0.362E-01 -.324E+01 0.291E+03   -.303E-02 0.246E-01 0.232E+01
   0.133E+01 -.904E+00 0.305E+03   -.132E+01 0.901E+00 -.303E+03   -.205E-02 0.945E-03 -.232E+01
   0.159E+01 -.159E+01 0.305E+03   -.159E+01 0.158E+01 -.303E+03   -.234E-02 0.244E-02 -.231E+01
   0.197E+01 -.211E+01 0.104E+03   -.197E+01 0.211E+01 -.104E+03   -.672E-03 0.141E-02 0.128E+00
   0.375E+01 -.213E+01 0.107E+03   -.372E+01 0.211E+01 -.108E+03   -.645E-03 0.321E-02 0.117E+00
   0.555E+01 -.283E+01 -.899E+02   -.551E+01 0.282E+01 0.899E+02   -.427E-01 0.135E-01 -.130E-01
   0.605E+01 -.605E+01 -.883E+02   -.604E+01 0.604E+01 0.883E+02   -.127E-01 0.702E-02 -.179E-01
   0.643E+01 -.589E+01 -.292E+03   -.640E+01 0.589E+01 0.291E+03   -.403E-01 0.695E-03 0.232E+01
   0.219E+02 -.116E+02 -.278E+03   -.217E+02 0.117E+02 0.277E+03   -.220E+00 -.242E-01 0.232E+01
   0.899E+00 -.906E+00 0.304E+03   -.897E+00 0.904E+00 -.302E+03   -.638E-03 0.679E-03 -.232E+01
   0.116E+01 -.168E-01 0.304E+03   -.116E+01 0.170E-01 -.302E+03   -.722E-03 -.176E-03 -.232E+01
   0.125E+01 -.277E-01 0.102E+03   -.125E+01 0.276E-01 -.102E+03   0.411E-03 -.491E-03 0.135E+00
   0.211E+01 -.197E+01 0.104E+03   -.211E+01 0.197E+01 -.104E+03   -.815E-03 0.153E-02 0.132E+00
   0.241E+01 -.242E+01 -.936E+02   -.241E+01 0.242E+01 0.936E+02   0.293E-02 -.373E-02 -.417E-01
   0.288E+01 -.517E-01 -.931E+02   -.288E+01 0.524E-01 0.931E+02   0.439E-02 0.467E-03 -.385E-01
   0.269E+01 -.374E-01 -.295E+03   -.269E+01 0.383E-01 0.293E+03   0.102E-01 -.133E-02 0.232E+01
   0.589E+01 -.643E+01 -.292E+03   -.589E+01 0.640E+01 0.291E+03   -.272E-02 0.380E-01 0.232E+01
[...]
   -.332E+01 -.384E+01 0.881E+03   0.331E+01 0.383E+01 -.885E+03   0.156E-01 0.102E-01 0.353E+01
   -.228E-02 -.436E+01 0.889E+03   0.243E-02 0.433E+01 -.893E+03   -.219E-03 0.335E-01 0.346E+01
   -.304E+02 -.153E+02 -.849E+03   0.303E+02 0.152E+02 0.854E+03   0.852E-01 0.789E-01 -.493E+01
   0.127E+01 -.875E+02 -.798E+03   -.128E+01 0.869E+02 0.802E+03   0.619E-02 0.541E+00 -.463E+01
   -.112E+02 -.111E+02 -.273E+03   0.112E+02 0.110E+02 0.273E+03   0.400E-01 0.361E-01 0.283E+00
   0.173E-01 -.267E+02 -.211E+03   0.867E-02 0.263E+02 0.212E+03   -.254E-01 0.384E+00 -.337E+00
   -.439E+01 -.439E+01 0.308E+03   0.437E+01 0.438E+01 -.308E+03   0.198E-01 0.182E-01 -.883E-03
   0.478E-02 -.135E+00 0.313E+03   -.580E-02 0.136E+00 -.313E+03   0.138E-02 -.362E-02 0.187E-01
   -.244E+01 -.447E-01 0.879E+03   0.244E+01 0.451E-01 -.883E+03   0.847E-02 0.272E-02 0.354E+01
   0.828E-02 -.428E+01 0.883E+03   -.866E-02 0.426E+01 -.887E+03   0.527E-03 0.300E-01 0.352E+01
   -.110E+02 -.110E+02 -.861E+03   0.110E+02 0.109E+02 0.866E+03   0.374E-01 0.412E-01 -.494E+01
   0.155E-01 -.437E+00 -.854E+03   -.136E-01 0.452E+00 0.859E+03   -.191E-02 -.155E-01 -.493E+01
   -.589E+01 -.107E+00 -.280E+03   0.587E+01 0.107E+00 0.279E+03   0.206E-01 -.113E-02 0.286E+00
   0.104E+00 -.182E+02 -.264E+03   -.104E+00 0.181E+02 0.264E+03   0.830E-04 0.150E+00 0.357E+00
   -.462E+00 -.105E+01 -.277E+01   -.497E-12 -.341E-12 -.546E-11   0.459E+00 0.101E+01 0.272E+01

 POSITION                                       TOTAL-FORCE (eV/Angst)
      7.03878      7.22879     16.23663        -0.001075     -0.003440      0.001093
      5.59145      6.58569     16.43679         0.002740     -0.000420     -0.004426
      9.85079      5.47027     16.25264        -0.001366      0.000250     -0.001297
     11.30868      6.10105     16.41571        -0.006033     -0.001546     -0.001220
      7.56811      4.95129     16.25077         0.000122      0.001764     -0.002149
      8.19486      3.49965     16.46668         0.001180     -0.004048     -0.005844
      9.32816      7.77843     16.23835         0.003644     -0.003541      0.002170
      8.67945      9.23388     16.36381         0.003639     -0.003166      0.005159
      6.49616      6.40279     16.12085        -0.001194      0.003671      0.001097
     10.39868      6.28972     16.11833        -0.000970     -0.002454      0.001272
      8.38367      4.39416     16.12708         0.005790      0.004947     -0.004457
      8.49751      8.30917     16.10982         0.000595     -0.001703      0.000819
      2.11015      0.00000      7.50000         0.001811      0.001836      0.352891
      4.22029      2.11015      7.50000         0.006116      0.006262      0.356851
      2.11015      2.11015      9.61015         0.001859      0.003113     -0.001456
      4.22029      0.00000      9.61015         0.002350      0.001709      0.000502
      2.10919     -0.00114     11.72497         0.003060      0.004003     -0.003059
      4.21928      2.10984     11.72234         0.002729      0.001170      0.000264
      2.10861      2.10710     13.81627        -0.001613      0.000293     -0.000207
      4.21736     -0.00193     13.81595         0.000946     -0.002212      0.000140
      2.11015      4.22029      7.50000         0.005750      0.002784      0.356705
      4.22029      6.33044      7.50000         0.010077     -0.000402      0.368578
      2.11015      6.33044      9.61015         0.026478     -0.001429      0.012544
      4.22029      4.22029      9.61015         0.031449      0.019283      0.026939
      2.10974      4.22043     11.72418         0.000900      0.000237     -0.000350
      4.22680      6.32970     11.72990         0.001826     -0.000208      0.001176
      2.10743      6.33043     13.81654         0.000683     -0.000097     -0.000951
      4.21796      4.21431     13.80701        -0.002364     -0.000122     -0.002076
      6.33044      0.00000      7.50000         0.002767      0.005935      0.355952
      0.00000      2.11015      7.50000         0.000030      0.002184      0.353181
      6.33044      2.11015      9.61015         0.019977      0.030995      0.023164
      0.00000      0.00000      9.61015         0.000067      0.000308      0.000733
      6.33084     -0.00087     11.72345         0.000099      0.000596      0.000006
      0.00015      2.10907     11.72467        -0.000768      0.001772     -0.000770
      6.32441      2.10747     13.80090        -0.001513     -0.002087     -0.001625
      0.00021     -0.00161     13.81827        -0.000794      0.001403      0.000280
      6.33044      4.22029      7.50000         0.007085      0.006715      0.373820
      0.00000      6.33044      7.50000        -0.000037     -0.000105      0.352607
      6.33044      6.33044      9.61015         0.021916     -0.004636      0.078312
      0.00000      4.22029      9.61015         0.001097      0.000314     -0.001116
      6.33825      4.22681     11.73738        -0.000079     -0.000070     -0.000544
      0.00002      6.33049     11.72561        -0.000025      0.000284      0.000383
      6.33507      6.32237     13.87923        -0.000400     -0.000448     -0.001739
      0.00018      4.21755     13.81742         0.000365      0.003281     -0.000579
      2.11015      8.44058      7.50000         0.005453     -0.002803      0.355650
      4.22029     10.55073      7.50000         0.005771     -0.005562      0.356236
      2.11015     10.55073      9.61015         0.001235     -0.000592     -0.002106
      4.22029      8.44058      9.61015         0.027807     -0.020015      0.019855
      2.10893      8.44052     11.72314         0.000261     -0.000054      0.000784
      4.21980     10.55204     11.72171         0.001509     -0.001670      0.001652
      2.10827     10.55421     13.81581        -0.002421     -0.001837      0.000775
      4.21753      8.44734     13.79926        -0.002560     -0.000038     -0.001875
      2.11015     12.66087      7.50000         0.001664     -0.001312      0.353633
      4.22029     14.77102      7.50000         0.001916      0.000227      0.353976
      2.11015     14.77102      9.61015         0.000699     -0.000501     -0.001931
      4.22029     12.66087      9.61015         0.002154      0.000337     -0.000708
      2.10909     12.66206     11.72501         0.002628     -0.003274     -0.003579
      4.21955     14.77086     11.72472         0.000037      0.001039     -0.001134
      2.10862     14.77099     13.81787         0.001956     -0.000098      0.000872
      4.21734     12.66268     13.81610         0.000296      0.002327     -0.001098
[...]
      8.44058     10.55073      9.61015        -0.000769      0.028928      0.029367
     14.77102     10.55073      7.50000         0.006704      0.000567     -0.405632
      8.44058      8.44058      7.50000        -0.000049      0.009525     -0.429649
     14.77453      8.44448     13.86359        -0.000639      0.001130     -0.001674
      8.44180     10.56844     13.88661        -0.000293      0.001063      0.003330
     14.77331     10.55259     11.71943         0.000095     -0.000721     -0.000160
      8.43969      8.44947     11.72827         0.000636      0.003760     -0.000497
     14.77102     12.66087      9.61015         0.006962      0.004987      0.039235
      8.44058     14.77102      9.61015         0.000362     -0.002240      0.047271
     14.77102     14.77102      7.50000         0.004703      0.003242     -0.404331
      8.44058     12.66087      7.50000         0.000164      0.008543     -0.410221
     14.77399     12.66396     13.86210         0.000188     -0.000540     -0.002723
      8.44074     14.77050     13.86588        -0.000044     -0.000494     -0.007410
     14.77208     14.77127     11.71999         0.000281     -0.000776      0.001590
      8.44073     12.66192     11.72222         0.000123      0.001262     -0.001071
    total drift:                               -0.003440     -0.033759     -0.053171

  FREE ENERGIE OF THE ION-ELECTRON SYSTEM (eV)
  free  energy   TOTEN  =     -1239.48024496 eV

  energy  without entropy=    -1239.48024496  energy(sigma->0) =    -1239.48024496

 d Force = 0.3917274E-04[ 0.230E-04, 0.553E-04]  d Energy = 0.3865691E-04 0.516E-06
 d Force = 0.1042282E+01[ 0.104E+01, 0.104E+01]  d Ewald  = 0.1042282E+01-0.264E-06

 Conjugate gradient step on ions:
 trial-energy change:   -0.000039  1 .order   -0.000039   -0.000055   -0.000023
  (g-gl).g = 0.843E-04      g.g   = 0.141E-03  gl.gl    = 0.354E-03
 g(Force)  = 0.141E-03   g(Stress)= 0.000E+00 ortho     = 0.158E-05
 gamma     =   0.23804
 trial     =   0.39137
 opt step  =   0.73057  (harmonic =   0.66995) maximal distance =0.00132965
 next E    = -1239.480255   (d E  =  -0.00005)

 reached required accuracy - stopping structural energy minimisation