 vasp.6.3.0 20Jan22 (build Mar 11 2022 13:48:16) complex

 executed on             LinuxIFC date 2024.02.11  07:35:58

 INCAR:
   SYSTEM = Oxide-Surface
   ISMEAR = 0
   SIGMA = 0.05
   EDIFF = 1E-5
   ALGO = ALL
   ISTART = 0
   IBRION = -1
   NSW = 0
   ISYM = 2
   DIPOL = 0.5 0.5 0.5
   IDIPOL = 3
   LDIPOL = .TRUE.
   GGA = PE
   IVDW = 263
   ENCUT = 600
   PREC = Accurate
   LASPH = .TRUE.
   LREAL = .FALSE.
   ISPIN = 1
   NELM = 200
   NELMIN = 8
   NCORE = 19
   KPAR = 1
   LWAVE = .FALSE.
   LCHARG = .FALSE.

 POTCAR:    PAW_PBE C 08Apr2002
 POTCAR:    PAW_PBE H 15Jun2001
 POTCAR:    PAW_PBE Mg_pv 13Apr2007
 POTCAR:    PAW_PBE O 08Apr2002
 POTCAR:    PAW_PBE C 08Apr2002
   VRHFIN =C: s2p2

   TITEL  = PAW_PBE C 08Apr2002
   POMASS =   12.011; ZVAL   =    4.000    mass and valenz
   ENMAX  =  400.000; ENMIN  =  300.000 eV

   TITEL  = PAW_PBE H 15Jun2001
   POMASS =    1.000; ZVAL   =    1.000    mass and valenz
   ENMAX  =  250.000; ENMIN  =  200.000 eV

   TITEL  = PAW_PBE Mg_pv 13Apr2007
   POMASS =   24.305; ZVAL   =    8.000    mass and valenz
   ENMAX  =  403.929; ENMIN  =  302.947 eV

   TITEL  = PAW_PBE O 08Apr2002
   POMASS =   16.000; ZVAL   =    6.000    mass and valenz
   ENMAX  =  400.000; ENMIN  =  300.000 eV

  PAW_PBE C 08Apr2002                   :
  PAW_PBE H 15Jun2001                   :
  PAW_PBE Mg_pv 13Apr2007               :
  PAW_PBE O 08Apr2002                   :

 POSCAR:  C  H Mg  O
  positions in direct lattice
 exchange correlation table for  LEXCH =        8
   RHO(1)=    0.500       N(1)  =     2000
   RHO(2)=  100.500       N(2)  =     4000

 ion  position               nearest neighbor table
   1  0.500  0.500  0.796-   3 1.10   2 1.10   4 1.10   5 1.10
   2  0.500  0.606  0.825-   1 1.10
   3  0.500  0.394  0.825-   1 1.10
   4  0.607  0.500  0.766-   1 1.10
   5  0.393  0.500  0.766-   1 1.10
   6  0.000  0.750  0.352-  38 2.11  40 2.11  41 2.11  48 2.11  57 2.11
   7  0.250  0.000  0.352-  39 2.11  40 2.11  41 2.11  49 2.11  56 2.11
   8  0.000  0.000  0.451-  40 2.11  39 2.11  38 2.11  46 2.11  55 2.11  44 2.12
   9  0.250  0.750  0.451-  41 2.11  39 2.11  38 2.11  47 2.11  54 2.11  45 2.12
  10  0.000  0.750  0.550-  61 2.11  45 2.11  44 2.11  52 2.11  38 2.12  42 2.15
  11  0.250  1.000  0.550-  53 2.11  45 2.11  44 2.11  60 2.11  39 2.12  43 2.15
  12  0.000  1.000  0.649-  44 2.11  59 2.11  43 2.11  42 2.11  50 2.11
  13  0.250  0.750  0.649-  45 2.11  58 2.11  43 2.11  51 2.11  42 2.11
  14  0.000  0.250  0.352-  46 2.11  40 2.11  48 2.11  49 2.11  65 2.11
  15  0.250  0.500  0.352-  47 2.11  41 2.11  48 2.11  49 2.11  64 2.11
  16  0.000  0.500  0.451-  48 2.11  46 2.11  47 2.11  38 2.11  63 2.11  52 2.12
  17  0.250  0.250  0.451-  49 2.11  46 2.11  47 2.11  39 2.11  62 2.11  53 2.12
  18  0.000  0.250  0.550-  53 2.11  69 2.11  44 2.11  52 2.11  46 2.12  50 2.15
  19  0.250  0.500  0.550-  68 2.11  45 2.11  53 2.11  52 2.11  47 2.12  51 2.15
  20  0.000  0.500  0.649-  52 2.11  67 2.11  51 2.11  42 2.11  50 2.11
  21  0.250  0.250  0.649-  53 2.11  66 2.11  43 2.11  51 2.11  50 2.11
  22  0.500  0.750  0.352-  54 2.11  41 2.11  56 2.11  57 2.11  64 2.11
  23  0.750  0.000  0.352-  55 2.11  40 2.11  56 2.11  57 2.11  65 2.11
  24  0.500  0.000  0.451-  56 2.11  54 2.11  55 2.11  39 2.11  62 2.11  60 2.12
  25  0.750  0.750  0.451-  57 2.11  54 2.11  55 2.11  38 2.11  63 2.11  61 2.12
  26  0.500  0.750  0.550-  68 2.11  45 2.11  61 2.11  60 2.11  54 2.13  58 2.15
  27  0.750  0.000  0.550-  69 2.11  61 2.11  44 2.11  60 2.11  55 2.12  59 2.15
  28  0.500  1.000  0.649-  66 2.11  58 2.11  60 2.11  43 2.11  59 2.11
  29  0.750  0.750  0.649-  61 2.11  58 2.11  59 2.11  67 2.11  42 2.11
  30  0.500  0.250  0.352-  62 2.11  56 2.11  49 2.11  64 2.11  65 2.11
  31  0.750  0.500  0.352-  63 2.11  57 2.11  48 2.11  64 2.11  65 2.11
  32  0.500  0.500  0.451-  64 2.11  54 2.11  62 2.11  63 2.11  47 2.11  68 2.12
  33  0.750  0.250  0.451-  65 2.11  55 2.11  62 2.11  63 2.11  46 2.11  69 2.12
  34  0.500  0.250  0.550-  68 2.11  53 2.11  69 2.11  60 2.11  62 2.13  66 2.15
  35  0.750  0.500  0.550-  68 2.11  61 2.11  69 2.11  52 2.11  63 2.12  67 2.15
  36  0.500  0.500  0.649-  66 2.11  58 2.11  51 2.11  67 2.11  68 2.12
  37  0.750  0.250  0.649-  69 2.11  66 2.11  59 2.11  67 2.11  50 2.11
  38  0.000  0.750  0.451-   6 2.11   8 2.11   9 2.11  16 2.11  25 2.11  10 2.12
  39  0.250  0.000  0.451-   7 2.11   8 2.11   9 2.11  17 2.11  24 2.11  11 2.12
  40  0.000  0.000  0.352-   8 2.11   7 2.11   6 2.11  14 2.11  23 2.11
  41  0.250  0.750  0.352-   9 2.11   7 2.11   6 2.11  15 2.11  22 2.11
  42  0.000  0.750  0.651-  12 2.11  20 2.11  29 2.11  13 2.11  10 2.15
  43  0.250  0.000  0.651-  21 2.11  13 2.11  12 2.11  28 2.11  11 2.15
  44  0.000  1.000  0.550-  10 2.11  18 2.11  12 2.11  11 2.11  27 2.11   8 2.12
  45  0.250  0.750  0.550-  13 2.11  10 2.11  11 2.11  19 2.11  26 2.11   9 2.12
  46  0.000  0.250  0.451-  14 2.11   8 2.11  16 2.11  17 2.11  33 2.11  18 2.12
  47  0.250  0.500  0.451-  15 2.11   9 2.11  16 2.11  17 2.11  32 2.11  19 2.12
  48  0.000  0.500  0.352-  16 2.11  14 2.11  15 2.11   6 2.11  31 2.11
  49  0.250  0.250  0.352-  17 2.11  14 2.11  15 2.11   7 2.11  30 2.11
  50  0.000  0.250  0.651-  12 2.11  20 2.11  21 2.11  37 2.11  18 2.15
  51  0.250  0.500  0.651-  20 2.11  21 2.11  13 2.11  36 2.11  19 2.15
  52  0.000  0.500  0.550-  20 2.11  10 2.11  18 2.11  19 2.11  35 2.11  16 2.12
  53  0.250  0.250  0.550-  21 2.11  18 2.11  11 2.11  19 2.11  34 2.11  17 2.12
  54  0.500  0.750  0.451-  22 2.11   9 2.11  24 2.11  25 2.11  32 2.11  26 2.13
  55  0.750  0.000  0.451-  23 2.11   8 2.11  24 2.11  25 2.11  33 2.11  27 2.12
  56  0.500  0.000  0.352-  24 2.11  22 2.11  23 2.11   7 2.11  30 2.11
  57  0.750  0.750  0.352-  25 2.11  22 2.11  23 2.11   6 2.11  31 2.11
  58  0.500  0.750  0.651-  28 2.11  13 2.11  29 2.11  36 2.11  26 2.15
  59  0.750  0.000  0.651-  37 2.11  29 2.11  12 2.11  28 2.11  27 2.15
  60  0.500  1.000  0.550-  28 2.11  27 2.11  11 2.11  26 2.11  34 2.11  24 2.12
  61  0.750  0.750  0.550-  29 2.11  10 2.11  27 2.11  35 2.11  26 2.11  25 2.12
  62  0.500  0.250  0.451-  30 2.11  24 2.11  17 2.11  32 2.11  33 2.11  34 2.13
  63  0.750  0.500  0.451-  31 2.11  25 2.11  16 2.11  32 2.11  33 2.11  35 2.12
  64  0.500  0.500  0.352-  32 2.11  22 2.11  30 2.11  31 2.11  15 2.11
  65  0.750  0.250  0.352-  33 2.11  23 2.11  30 2.11  31 2.11  14 2.11
  66  0.500  0.250  0.651-  28 2.11  21 2.11  37 2.11  36 2.11  34 2.15
  67  0.750  0.500  0.651-  20 2.11  29 2.11  37 2.11  36 2.11  35 2.15
  68  0.500  0.500  0.550-  35 2.11  19 2.11  34 2.11  26 2.11  36 2.12  32 2.12
  69  0.750  0.250  0.550-  37 2.11  18 2.11  27 2.11  35 2.11  34 2.11  33 2.12

  LATTYP: Found a simple tetragonal cell.
 ALAT       =     8.4409846542
 C/A-ratio  =     2.5270438657

  Lattice vectors:

 A1 = (   8.4409846542,   0.0000000000,   0.0000000000)
 A2 = (   0.0000000000,   8.4409846542,   0.0000000000)
 A3 = (   0.0000000000,   0.0000000000,  21.3307384906)

Analysis of symmetry for initial positions (statically):
 Subroutine PRICEL returns:
 Original cell was already a primitive cell.

 Routine SETGRP: Setting up the symmetry group for a
 simple tetragonal supercell.

 Subroutine GETGRP returns: Found  4 space group operations
 (whereof  4 operations were pure point group operations)
 out of a pool of 16 trial point group operations.

The static configuration has the point symmetry C_2v.

Analysis of symmetry for dynamics (positions and initial velocities):
 Subroutine PRICEL returns:
 Original cell was already a primitive cell.

[...]

The dynamic configuration has the point symmetry C_2v.

Analysis of constrained symmetry for selective dynamics:
 Subroutine PRICEL returns:
 Original cell was already a primitive cell.

 Routine SETGRP: Setting up the symmetry group for a
 simple tetragonal supercell.

 Subroutine GETGRP returns: Found  4 space group operations
 (whereof  4 operations were pure point group operations)
 out of a pool of 16 trial point group operations.

The constrained configuration has the point symmetry C_2v.

 Subroutine INISYM returns: Found  4 space group operations
 (whereof  4 operations are pure point group operations),
 and found     1 'primitive' translations

                                     Primitive cell

  volume of cell :    1519.8199

  direct lattice vectors                    reciprocal lattice vectors
     8.440984654  0.000000000  0.000000000     0.118469591  0.000000000  0.000000000
     0.000000000  8.440984654  0.000000000     0.000000000  0.118469591  0.000000000
     0.000000000  0.000000000 21.330738491     0.000000000  0.000000000  0.046880702

  length of vectors
     8.440984654  8.440984654 21.330738491     0.118469591  0.118469591  0.046880702

  position of ions in fractional coordinates (direct lattice)
     0.500000022  0.499997701  0.795765481
     0.499999966  0.606400245  0.825294148
     0.499999960  0.393601765  0.825293628
     0.607088423  0.500000081  0.766452828
     0.392911520  0.500000085  0.766452812
     0.000000000  0.750000000  0.351605267
     0.250000000  0.000000000  0.351605267
     0.000000000  0.000000000  0.450535089
     0.250000000  0.750000000  0.450535089
     0.000000003  0.750032167  0.550141647
     0.249992769  0.999999998  0.550135640
     0.000000010  0.999999991  0.648847037
     0.250116514  0.750097339  0.648710816
     0.000000000  0.250000000  0.351605267
     0.250000000  0.500000000  0.351605267
     0.000000000  0.500000000  0.450535089
     0.250000000  0.250000000  0.450535089
     0.000000007  0.249967822  0.550141651
     0.250108445  0.500000001  0.550153757
     0.000000011  0.499999994  0.648675549
     0.250116504  0.249902631  0.648710813
     0.500000000  0.750000000  0.351605267
     0.750000000  0.000000000  0.351605267
     0.500000000  0.000000000  0.450535089
     0.750000000  0.750000000  0.450535089
     0.499999994  0.749901112  0.550182719
     0.750007254  0.000000005  0.550135636
     0.500000006  0.999999998  0.648747779
     0.749883526  0.750097344  0.648710829
     0.500000000  0.250000000  0.351605267
     0.750000000  0.500000000  0.351605267
     0.500000000  0.500000000  0.450535089
     0.750000000  0.250000000  0.450535089
     0.500000001  0.250098874  0.550182703
     0.749891587  0.499999991  0.550153763
     0.500000014  0.499999988  0.649279172
     0.749883523  0.249902625  0.648710829
     0.000000000  0.750000000  0.450535089
     0.250000000  0.000000000  0.450535089
     0.000000000  0.000000000  0.351605267
     0.250000000  0.750000000  0.351605267
     0.000000011  0.750041776  0.650981394
     0.249939864  0.000000003  0.651016895
     0.000000015  0.999999981  0.549923091
     0.249924098  0.750012792  0.549866046
     0.000000000  0.250000000  0.450535089
     0.250000000  0.500000000  0.450535089
     0.000000000  0.500000000  0.351605267
     0.250000000  0.250000000  0.351605267
     0.000000016  0.249958209  0.650981374
     0.249749451  0.499999982  0.651002082
     0.000000017  0.500000002  0.549828664
     0.249924102  0.249987198  0.549866042
[...]
   O          21.846          3.308          5.782          2.785          3.447          1.074
   O          20.839          3.285          5.658          2.330          2.019          1.054
   O          20.863          3.285          5.661          2.326          2.008          1.054
   O          20.881          3.286          5.663          2.283          1.899          1.055
   O          20.890          3.286          5.664          2.294          1.928          1.055
   O          22.317          3.320          5.843          2.776          3.414          1.085
   O          22.317          3.320          5.843          2.774          3.408          1.085
   O          21.989          3.312          5.800          2.784          3.444          1.077
   O          22.354          3.321          5.847          2.791          3.472          1.086
   O          20.836          3.285          5.658          2.326          2.009          1.054
   O          20.863          3.285          5.661          2.326          2.008          1.054
   O          20.881          3.286          5.663          2.283          1.899          1.055
   O          20.883          3.286          5.664          2.282          1.897          1.055
   O          22.318          3.320          5.843          2.777          3.420          1.085
   O          22.317          3.320          5.843          2.774          3.408          1.085
   O          21.989          3.312          5.800          2.784          3.444          1.077
   O          21.846          3.308          5.782          2.785          3.447          1.074
   O          20.905          3.286          5.667          2.404          2.217          1.055
   O          20.863          3.285          5.661          2.326          2.008          1.054

  vdW correction parametrized for the method pbe

  IVDW = 263
  VDW_RADIUS =    50.000 A
  VDW_SR =     0.830
  VDW_D =     6.000
  SCSRAD =   120.000 A
  LVDWSCS = T
  LSCSGRAD = T
  LSCALER0 = T
  ITIM =  1
  Edisp (eV):  -17.84437

  FORCE on cell =-STRESS in cart. coord.  units (eV):
  Direction    XX          YY          ZZ          XY          YZ          ZX
  Alpha Z   899.97440   899.97440   899.97440
  Ewald  158472.03545158469.55949************    -0.00000    -0.00268    -0.00001
  Hartree168676.17175168674.86896************    -0.00000    -0.00003     0.00001
  E(xc)   -2483.91210 -2483.92991 -2489.01809    -0.00000     0.00000    -0.00000
  Local  ************************337095.02705     0.00000     0.00100    -0.00003
  n-local -2827.79464 -2827.78408 -2848.62543     0.02944     0.00002     0.00001
  augment  1047.95593  1047.95811  1038.68889     0.00000     0.00002    -0.00000
  Kinetic  7404.15334  7404.21193  7445.88412    -0.29578     0.00057     0.00001
  Fock        0.00000     0.00000     0.00000     0.00000     0.00000     0.00000
  vdW       -23.34471   -23.37598   -16.40188    -0.03008    -0.00002    -0.00001
  Total     -42.42920   -42.46545   -11.92798     0.00000     0.00000     0.00000
  in kB     -44.72840   -44.76661   -12.57434     0.00000     0.00000     0.00000

 VOLUME and BASIS-vectors are now :
  energy-cutoff  :      600.00
  volume of cell :     1519.82
      direct lattice vectors                 reciprocal lattice vectors
     8.440984654  0.000000000  0.000000000     0.118469591  0.000000000  0.000000000
     0.000000000  8.440984654  0.000000000     0.000000000  0.118469591  0.000000000
     0.000000000  0.000000000 21.330738491     0.000000000  0.000000000  0.046880702

  length of vectors
     8.440984654  8.440984654 21.330738491     0.118469591  0.118469591  0.046880702

 FORCES acting on ions:
    Electron-Ion                     Ewald-Force                    Non-Local-Force
   -.747E-04 0.809E-02 -.932E+03   -.191E-04 0.142E-02 0.932E+03   0.329E-23 0.993E-20 -.552E-01
   0.284E-04 -.429E+02 -.230E+03   -.216E-04 0.474E+02 0.234E+03   -.116E-21 -.451E+01 -.316E+01
   0.336E-04 0.429E+02 -.230E+03   -.245E-04 -.474E+02 0.234E+03   -.937E-22 0.451E+01 -.316E+01
   -.431E+02 -.876E-04 -.235E+03   0.477E+02 0.885E-03 0.232E+03   -.457E+01 -.281E-20 0.305E+01
   0.431E+02 -.911E-04 -.235E+03   -.477E+02 0.887E-03 0.232E+03   0.457E+01 0.241E-20 0.305E+01
   0.945E-06 -.144E+00 0.208E+04   -.251E-05 0.144E+00 -.207E+04   0.145E-21 -.490E-03 -.704E+01
   0.139E+00 0.925E-06 0.208E+04   -.139E+00 -.297E-05 -.207E+04   0.120E-03 -.951E-23 -.704E+01
   -.294E-06 0.603E-06 0.707E+03   -.610E-05 0.103E-05 -.707E+03   0.101E-21 0.428E-23 0.542E+00
   0.554E+00 -.601E+00 0.708E+03   -.553E+00 0.602E+00 -.709E+03   -.532E-03 -.451E-03 0.523E+00
   0.830E-06 -.232E+01 -.652E+03   -.193E-04 0.232E+01 0.653E+03   0.109E-21 -.677E-02 -.210E+00
   0.229E+01 0.125E-04 -.652E+03   -.229E+01 -.401E-04 0.653E+03   -.559E-02 -.318E-21 -.195E+00
   -.250E-04 0.264E-04 -.201E+04   0.194E-04 -.665E-04 0.201E+04   -.825E-22 0.550E-22 0.599E+01
   0.146E+02 -.148E+02 -.200E+04   -.146E+02 0.149E+02 0.199E+04   -.282E-01 -.604E-01 0.602E+01
   0.700E-06 0.144E+00 0.208E+04   -.234E-05 -.144E+00 -.207E+04   -.227E-21 0.490E-03 -.704E+01
   0.145E+00 -.852E-06 0.208E+04   -.144E+00 0.287E-05 -.207E+04   -.922E-03 -.629E-23 -.704E+01
   0.377E-05 0.111E-05 0.708E+03   -.154E-04 -.836E-06 -.709E+03   -.639E-22 -.199E-22 0.506E+00
   0.554E+00 0.601E+00 0.708E+03   -.553E+00 -.602E+00 -.709E+03   -.532E-03 0.451E-03 0.523E+00
   -.766E-05 0.232E+01 -.652E+03   -.348E-04 -.232E+01 0.653E+03   0.151E-21 0.677E-02 -.210E+00
   0.388E+01 0.810E-06 -.646E+03   -.386E+01 0.167E-04 0.646E+03   -.247E-01 0.752E-21 -.199E+00
   -.284E-04 0.116E-04 -.200E+04   0.334E-04 0.567E-04 0.199E+04   0.120E-22 -.127E-22 0.599E+01
   0.146E+02 0.148E+02 -.200E+04   -.146E+02 -.149E+02 0.199E+04   -.282E-01 0.604E-01 0.602E+01
   -.114E-05 -.149E+00 0.208E+04   0.274E-05 0.149E+00 -.207E+04   0.203E-22 0.553E-03 -.705E+01
   -.139E+00 0.122E-05 0.208E+04   0.139E+00 -.330E-05 -.207E+04   -.120E-03 0.842E-22 -.704E+01
   -.353E-05 0.115E-04 0.708E+03   0.536E-05 -.265E-04 -.709E+03   0.845E-22 -.134E-21 0.491E+00
   -.554E+00 -.601E+00 0.708E+03   0.553E+00 0.602E+00 -.709E+03   0.532E-03 -.451E-03 0.523E+00
   -.158E-04 -.394E+01 -.646E+03   0.685E-04 0.393E+01 0.646E+03   -.439E-21 0.169E-01 -.341E+00
   -.229E+01 0.521E-05 -.652E+03   0.229E+01 -.769E-04 0.653E+03   0.559E-02 0.297E-21 -.195E+00
   -.252E-04 0.909E-05 -.200E+04   0.492E-04 -.141E-03 0.200E+04   -.156E-21 -.170E-20 0.600E+01
   -.146E+02 -.148E+02 -.200E+04   0.146E+02 0.149E+02 0.199E+04   0.282E-01 -.604E-01 0.602E+01
   -.813E-06 0.149E+00 0.208E+04   0.235E-05 -.149E+00 -.207E+04   -.344E-22 -.553E-03 -.705E+01
   -.145E+00 -.115E-05 0.208E+04   0.144E+00 0.313E-05 -.207E+04   0.922E-03 0.661E-22 -.704E+01
   -.927E-05 -.920E-05 0.709E+03   0.163E-04 0.270E-04 -.710E+03   0.890E-24 0.279E-21 0.550E+00
   -.554E+00 0.601E+00 0.708E+03   0.553E+00 -.602E+00 -.709E+03   0.532E-03 0.451E-03 0.523E+00
   -.165E-04 0.394E+01 -.646E+03   0.282E-04 -.393E+01 0.646E+03   -.356E-21 -.169E-01 -.341E+00
   -.388E+01 0.151E-04 -.646E+03   0.386E+01 0.286E-04 0.646E+03   0.247E-01 -.196E-21 -.199E+00
   -.391E-04 0.271E-04 -.195E+04   0.463E-04 0.238E-03 0.194E+04   0.277E-22 0.445E-20 0.584E+01
   -.146E+02 0.148E+02 -.200E+04   0.146E+02 -.149E+02 0.199E+04   0.282E-01 0.604E-01 0.602E+01
   0.309E-05 -.436E+00 0.530E+03   -.831E-05 0.430E+00 -.530E+03   0.258E-22 0.753E-02 -.101E+00
   0.427E+00 0.249E-05 0.530E+03   -.419E+00 -.932E-05 -.530E+03   -.110E-01 0.858E-22 -.975E-01
   0.374E-06 0.345E-06 0.156E+04   -.130E-05 -.115E-05 -.156E+04   0.322E-23 -.325E-22 0.349E+01
   0.106E+00 -.110E+00 0.156E+04   -.105E+00 0.110E+00 -.156E+04   -.697E-03 -.125E-03 0.349E+01
   -.122E-03 -.613E+01 -.153E+04   0.279E-04 0.612E+01 0.153E+04   -.623E-21 0.134E-02 -.502E+01
   0.588E+01 -.642E-05 -.153E+04   -.587E+01 -.109E-03 0.153E+04   -.219E-02 0.517E-21 -.503E+01
   -.145E-03 0.189E-03 -.486E+03   -.150E-04 -.190E-05 0.485E+03   -.408E-21 -.158E-21 0.242E+00
   0.229E+01 -.230E+01 -.481E+03   -.227E+01 0.230E+01 0.481E+03   -.156E-01 -.175E-03 0.284E+00
   0.240E-05 0.436E+00 0.530E+03   -.942E-05 -.430E+00 -.530E+03   -.198E-21 -.753E-02 -.101E+00
   0.462E+00 -.161E-05 0.531E+03   -.470E+00 0.758E-05 -.531E+03   0.105E-01 -.264E-21 -.978E-01
   0.814E-06 -.288E-06 0.156E+04   -.224E-05 0.108E-05 -.156E+04   -.105E-21 -.114E-21 0.349E+01
   0.106E+00 0.110E+00 0.156E+04   -.105E+00 -.110E+00 -.156E+04   -.697E-03 0.125E-03 0.349E+01
   -.165E-03 0.613E+01 -.153E+04   -.101E-05 -.612E+01 0.153E+04   0.366E-21 -.134E-02 -.502E+01
   0.189E+02 0.184E-03 -.150E+04   -.188E+02 0.934E-04 0.151E+04   -.652E-01 -.198E-20 -.496E+01
   -.169E-03 -.202E-04 -.481E+03   -.963E-05 0.212E-05 0.481E+03   -.789E-21 -.132E-21 0.302E+00
   0.229E+01 0.230E+01 -.481E+03   -.227E+01 -.230E+01 0.481E+03   -.156E-01 0.175E-03 0.284E+00
   -.592E-05 -.474E+00 0.531E+03   0.130E-04 0.485E+00 -.531E+03   0.125E-21 -.144E-01 -.110E+00
   -.427E+00 0.511E-05 0.530E+03   0.419E+00 -.137E-04 -.530E+03   0.110E-01 -.475E-22 -.975E-01
   -.494E-06 0.133E-05 0.156E+04   0.137E-05 -.357E-05 -.156E+04   -.233E-22 0.550E-22 0.349E+01
   -.106E+00 -.110E+00 0.156E+04   0.105E+00 0.110E+00 -.156E+04   0.697E-03 -.125E-03 0.349E+01
   -.586E-04 -.187E+02 -.150E+04   0.541E-04 0.186E+02 0.151E+04   -.519E-21 0.811E-01 -.508E+01
   -.588E+01 -.133E-04 -.153E+04   0.587E+01 -.118E-03 0.153E+04   0.219E-02 0.523E-21 -.503E+01
   -.146E-03 0.134E-03 -.482E+03   0.246E-04 -.343E-04 0.481E+03   0.123E-21 -.490E-21 0.258E+00
   -.229E+01 -.230E+01 -.481E+03   0.227E+01 0.230E+01 0.481E+03   0.156E-01 -.175E-03 0.284E+00
   -.293E-05 0.474E+00 0.531E+03   0.802E-05 -.485E+00 -.531E+03   0.108E-21 0.144E-01 -.110E+00
   -.462E+00 -.440E-05 0.531E+03   0.470E+00 0.103E-04 -.531E+03   -.105E-01 -.155E-21 -.978E-01
   -.975E-06 -.126E-05 0.156E+04   0.236E-05 0.350E-05 -.156E+04   0.126E-22 -.139E-21 0.349E+01
   -.106E+00 0.110E+00 0.156E+04   0.105E+00 -.110E+00 -.156E+04   0.697E-03 0.125E-03 0.349E+01
   -.518E-04 0.187E+02 -.150E+04   0.290E-04 -.186E+02 0.151E+04   -.126E-20 -.811E-01 -.508E+01
   -.189E+02 0.136E-03 -.150E+04   0.188E+02 0.859E-04 0.151E+04   0.652E-01 -.125E-20 -.496E+01
   -.183E-03 0.820E-04 -.477E+03   0.316E-04 0.362E-04 0.477E+03   0.437E-22 0.963E-21 0.123E+00
   -.229E+01 0.230E+01 -.481E+03   0.227E+01 -.230E+01 0.481E+03   0.156E-01 0.175E-03 0.284E+00
   -.235E-02 0.916E-02 0.174E+02   0.586E-12 -.348E-12 0.165E-11   -.156E-16 0.897E-15 -.174E+02

 POSITION                                       TOTAL-FORCE (eV/Angst)
      4.22049      4.22047     16.97427        -0.000000      0.000000      0.034318
      4.22049      5.11862     17.60413        -0.000000     -0.023052     -0.017381
      4.22049      3.32239     17.60412        -0.000000      0.023052     -0.017381
      5.12442      4.22049     16.34900         0.009628     -0.000000     -0.018085
      3.31656      4.22049     16.34900        -0.009628     -0.000000     -0.018085
      0.00000      6.33074      7.50000        -0.000000     -0.000795      0.517458
      2.11025      0.00000      7.50000         0.000801     -0.000000      0.517163
      0.00000      0.00000      9.61025        -0.000000     -0.000000      0.113394
      2.11025      6.33074      9.61025        -0.000510      0.001329      0.108995
      0.00000      6.33101     11.73493        -0.000000     -0.003188     -0.047245
      2.11019      8.44098     11.73480         0.004955     -0.000000     -0.046775
      0.00000      8.44098     13.84039        -0.000000     -0.000000     -0.170076
      2.11123      6.33156     13.83748         0.000305      0.001854     -0.151980
      0.00000      2.11025      7.50000        -0.000000      0.000795      0.517458
      2.11025      4.22049      7.50000         0.001812     -0.000000      0.517959
      0.00000      4.22049      9.61025        -0.000000     -0.000000      0.113848
      2.11025      2.11025      9.61025        -0.000510     -0.001329      0.108995
      0.00000      2.10997     11.73493        -0.000000      0.003188     -0.047245
      2.11116      4.22049     11.73519        -0.000880     -0.000000     -0.044901
      0.00000      4.22049     13.83673        -0.000000     -0.000000     -0.160734
      2.11123      2.10942     13.83748         0.000305     -0.001854     -0.151980
      4.22049      6.33074      7.50000        -0.000000     -0.001824      0.518564
      6.33074      0.00000      7.50000        -0.000801     -0.000000      0.517163
      4.22049      0.00000      9.61025        -0.000000     -0.000000      0.116877
      6.33074      6.33074      9.61025         0.000510      0.001329      0.108995
      4.22049      6.32990     11.73580        -0.000000      0.003012     -0.045265
      6.33080      0.00000     11.73480        -0.004955     -0.000000     -0.046775
      4.22049      8.44098     13.83827        -0.000000     -0.000000     -0.168985
      6.32976      6.33156     13.83748        -0.000305      0.001854     -0.151980
      4.22049      2.11025      7.50000        -0.000000      0.001824      0.518564
      6.33074      4.22049      7.50000        -0.001812     -0.000000      0.517959
      4.22049      4.22049      9.61025        -0.000000     -0.000000      0.111489
      6.33074      2.11025      9.61025         0.000510     -0.001329      0.108995
      4.22049      2.11108     11.73580        -0.000000     -0.003012     -0.045265
      6.32982      4.22049     11.73519         0.000880     -0.000000     -0.044901
      4.22049      4.22049     13.84960        -0.000000     -0.000000     -0.132284
      6.32976      2.10942     13.83748        -0.000305     -0.001854     -0.151980
      0.00000      6.33074      9.61025        -0.000000      0.002370      0.061952
      2.11025      0.00000      9.61025        -0.003420     -0.000000      0.062433
      0.00000      0.00000      7.50000        -0.000000     -0.000000     -0.474537
      2.11025      6.33074      7.50000        -0.000121     -0.000105     -0.474143
      0.00000      6.33109     13.88591        -0.000000     -0.005314     -0.020662
      2.10974      0.00000     13.88667         0.003689     -0.000000     -0.026028
      0.00000      8.44098     11.73027        -0.000000     -0.000000      0.003669
      2.10961      6.33085     11.72905        -0.000510     -0.001458      0.010734
      0.00000      2.11025      9.61025        -0.000000     -0.002370      0.061952
      2.11025      4.22049      9.61025         0.002026     -0.000000      0.063325
      0.00000      4.22049      7.50000        -0.000000     -0.000000     -0.474220
      2.11025      2.11025      7.50000        -0.000121      0.000105     -0.474143
      0.00000      2.10989     13.88591        -0.000000      0.005314     -0.020662
      2.10813      4.22049     13.88636        -0.007675     -0.000000     -0.014538
      0.00000      4.22049     11.72825        -0.000000     -0.000000      0.018198
      2.10961      2.11014     11.72905        -0.000510      0.001458      0.010734
      4.22049      6.33074      9.61025        -0.000000     -0.003254      0.062959
      6.33074      0.00000      9.61025         0.003420     -0.000000      0.062433
      4.22049      0.00000      7.50000        -0.000000     -0.000000     -0.474703
      6.33074      6.33074      7.50000         0.000121     -0.000105     -0.474143
      4.22049      6.33193     13.88124        -0.000000      0.009684     -0.022533
      6.33125      0.00000     13.88667        -0.003689     -0.000000     -0.026028
      4.22049      8.44098     11.72805        -0.000000     -0.000000      0.013310
      6.33138      6.33085     11.72905         0.000510     -0.001458      0.010734
      4.22049      2.11025      9.61025        -0.000000      0.003254      0.062959
      6.33074      4.22049      9.61025        -0.002026     -0.000000      0.063325
      4.22049      4.22049      7.50000        -0.000000     -0.000000     -0.474646
      6.33074      2.11025      7.50000         0.000121      0.000105     -0.474143
      4.22049      2.10905     13.88124        -0.000000     -0.009684     -0.022533
      6.33285      4.22049     13.88636         0.007675     -0.000000     -0.014538
      4.22049      4.22049     11.73184        -0.000000     -0.000000     -0.006149
      6.33138      2.11014     11.72905         0.000510      0.001458      0.010734
    total drift:                               -0.002350      0.009156     -0.005209

  FREE ENERGIE OF THE ION-ELECTRON SYSTEM (eV)
  free  energy   TOTEN  =      -414.07694494 eV

  energy  without entropy=     -414.07694494  energy(sigma->0) =     -414.07694494