 vasp.6.3.0 20Jan22 (build Mar 11 2022 13:48:16) complex

 executed on             LinuxIFC date 2024.01.22  18:44:42

 INCAR:
   SYSTEM = TiO2
   ISMEAR = 0
   SIGMA = 0.05
   EDIFF = 1E-5
   ALGO = ALL
   ISTART = 0
   IBRION = -1
   NSW = 0
   ISYM = 0
   ISIF = 2
   EDIFFG = -0.01
   DIPOL = 0.5 0.5 0.5
   IDIPOL = 3
   LDIPOL = .TRUE.
   GGA = MK
   LUSE_VDW = .TRUE.
   PARAM1 = 0.1234
   PARAM2 = 0.711357
   ZAB_VDW = -1.8867
   AGGAC = 0.0
   ENCUT = 600
   PREC = Accurate
   LASPH = .TRUE.
   LREAL = .FALSE.
   ISPIN = 1
   NELM = 200
   NELMIN = 8
   NCORE = 2
   KPAR = 1
   LWAVE = .FALSE.
   LCHARG = .FALSE.

 POTCAR:    PAW_PBE C 08Apr2002
 POTCAR:    PAW_PBE O 08Apr2002
 POTCAR:    PAW_PBE Ti_pv 07Sep2000
 POTCAR:    PAW_PBE O 08Apr2002
|           W    W    AA    RRRRR   N    N  II  N    N   GGGG   !!!           |
|           W    W   A  A   R    R  NN   N  II  NN   N  G    G  !!!           |
|           W    W  A    A  R    R  N N  N  II  N N  N  G       !!!           |
|           W WW W  AAAAAA  RRRRR   N  N N  II  N  N N  G  GGG   !            |
|           WW  WW  A    A  R   R   N   NN  II  N   NN  G    G                |
|           W    W  A    A  R    R  N    N  II  N    N   GGGG   !!!           |
|     For optimal performance we recommend to set                             |
|       NCORE = 2 up to number-of-cores-per-socket                            |
|     This setting can greatly improve the performance of VASP for DFT.       |
|     The default, NCORE=1 might be grossly inefficient on modern             |
|     multi-core architectures or massively parallel machines. Do your        |
|     Unfortunately you need to use the default for GW and RPA                |
|     calculations (for HF NCORE is supported but not extensively tested      |
|     yet).                                                                   |

   TITEL  = PAW_PBE C 08Apr2002
   POMASS =   12.011; ZVAL   =    4.000    mass and valenz
   ENMAX  =  400.000; ENMIN  =  300.000 eV

[...]

   TITEL  = PAW_PBE Ti_pv 07Sep2000
   POMASS =   47.880; ZVAL   =   10.000    mass and valenz
   ENMAX  =  222.335; ENMIN  =  166.751 eV

   TITEL  = PAW_PBE O 08Apr2002
   POMASS =   16.000; ZVAL   =    6.000    mass and valenz
   ENMAX  =  400.000; ENMIN  =  300.000 eV

  PAW_PBE C 08Apr2002                   :
  PAW_PBE O 08Apr2002                   :
  PAW_PBE Ti_pv 07Sep2000               :
  PAW_PBE O 08Apr2002                   :

 POSCAR:  C  O Ti  O
  positions in direct lattice
 exchange correlation table for  LEXCH =       43
   RHO(1)=    0.500       N(1)  =     2000
   RHO(2)=  100.500       N(2)  =     4000

 ion  position               nearest neighbor table
   1  0.500  0.602  0.811-   2 1.18   3 1.18
   2  0.500  0.697  0.821-   1 1.18
   3  0.501  0.507  0.800-   1 1.18
   4  0.750  0.625  0.285-  85 1.98 145 1.98 144 1.98  84 1.98  87 2.02 166 2.02  14 3.00  34 3.00

   5  0.000  0.750  0.285-  86 1.98  87 1.98 106 1.98 107 1.98  88 2.02  35 3.00  15 3.00
   6  0.000  0.625  0.393-  88 1.98 148 1.98  89 1.98 149 1.98  90 2.02  91 2.02  16 3.00  36 3.00

[...]

  83  0.500  0.499  0.711- 237 1.85 242 1.97 243 1.97 182 1.98 183 1.99  73 2.99  53 3.01
  84  0.750  0.750  0.243-   4 1.98  14 1.98
  85  0.750  0.750  0.327-   4 1.98  14 1.98   7 2.02
  86  0.098  0.625  0.285-   5 1.98  35 1.98  44 2.02
  87  0.902  0.625  0.285-   5 1.98  35 1.98   4 2.02
  88  0.000  0.750  0.351-   6 1.98  16 1.98   5 2.02
  89  0.000  0.750  0.434-   6 1.98  16 1.98   9 2.02
  90  0.848  0.625  0.393-   7 1.98  37 1.98   6 2.02
  91  0.152  0.625  0.393-  47 1.98  77 1.98   6 2.02
  92  0.750  0.750  0.458-   8 1.98  18 1.98   7 2.02
  93  0.750  0.750  0.542-   8 1.98  18 1.98  11 2.16
  94  0.098  0.625  0.500-   9 1.98  39 1.98  48 2.02
  95  0.902  0.625  0.500-   9 1.98  39 1.98   8 2.02
  96  1.000  0.750  0.566-  10 1.92  20 1.92   9 2.05
  97  1.000  0.750  0.651-  13 1.83  20 2.05  10 2.05
  98  0.850  0.625  0.608-  10 1.87  41 2.07  11 2.07
  99  0.151  0.625  0.608-  51 1.93  81 1.93  10 2.13
 100  0.750  0.750  0.673-  11 1.89  12 2.12  22 2.14
 101  0.750  0.750  0.757-  12 1.85  22 1.85
 102  0.094  0.625  0.721-  43 1.97  13 1.97  52 2.07
 103  0.907  0.625  0.721-  43 1.98  13 1.98  12 2.07
 104  0.750  0.000  0.243-  14 1.98  24 1.98
 105  0.750  0.000  0.327-  14 1.98  24 1.98  17 2.02
 106  0.098  0.875  0.285-   5 1.98  15 1.98  54 2.02
 107  0.902  0.875  0.285-   5 1.98  15 1.98  14 2.02
 108  0.000  0.000  0.351-  16 1.98  26 1.98  15 2.02
 109  0.000  0.000  0.434-  16 1.98  26 1.98  19 2.02
 110  0.848  0.875  0.393-   7 1.98  17 1.98  16 2.02
 111  0.152  0.875  0.393-  47 1.98  57 1.98  16 2.02
 112  0.750  0.000  0.458-  18 1.98  28 1.98  17 2.02
 113  0.750  0.000  0.542-  18 1.98  28 1.98  21 2.17
 114  0.098  0.875  0.500-   9 1.98  19 1.98  58 2.02
 115  0.902  0.875  0.500-   9 1.98  19 1.98  18 2.02
 116  1.000  0.000  0.566-  30 1.92  20 1.92  19 2.05
 117  1.000  0.000  0.651-  23 1.83  30 2.05  20 2.05
 118  0.850  0.875  0.608-  20 1.87  11 2.07  21 2.07
 119  0.151  0.875  0.608-  51 1.93  61 1.93  20 2.13
 120  0.750  1.000  0.673-  21 1.88  22 2.13  32 2.14
 121  0.750  0.000  0.758-  22 1.85  32 1.85
 122  0.094  0.875  0.721-  13 1.97  23 1.97  62 2.08
 123  0.907  0.875  0.721-  13 1.97  23 1.97  22 2.07
 124  0.750  0.250  0.243-  24 1.98  34 1.98
 125  0.750  0.250  0.327-  24 1.98  34 1.98  27 2.02
 126  0.098  0.125  0.285-  15 1.98  25 1.98  64 2.02
 127  0.902  0.125  0.285-  15 1.98  25 1.98  24 2.02
 128  0.000  0.250  0.351-  26 1.98  36 1.98  25 2.02
 129  0.000  0.250  0.434-  26 1.98  36 1.98  29 2.02
 130  0.848  0.125  0.393-  17 1.98  27 1.98  26 2.02
 131  0.152  0.125  0.393-  57 1.98  67 1.98  26 2.02
 132  0.750  0.250  0.458-  28 1.98  38 1.98  27 2.02
 133  0.750  0.250  0.542-  28 1.98  38 1.98  31 2.17
 134  0.098  0.125  0.500-  19 1.98  29 1.98  68 2.02
 135  0.902  0.125  0.500-  19 1.98  29 1.98  28 2.02
 136  1.000  0.250  0.566-  30 1.92  40 1.92  29 2.05
 137  1.000  0.250  0.651-  33 1.83  40 2.05  30 2.05
 138  0.850  0.125  0.608-  30 1.87  21 2.07  31 2.07
 139  0.151  0.125  0.608-  61 1.93  71 1.93  30 2.12
 140  0.750  0.250  0.673-  31 1.88  32 2.13  42 2.14
 141  0.750  0.251  0.757-  32 1.85  42 1.85
 142  0.094  0.125  0.721-  33 1.97  23 1.97  72 2.08
[...]
 229  0.500  0.500  0.434-  46 1.98  76 1.98  79 2.02
 230  0.348  0.375  0.393-  67 1.98  77 1.98  76 2.02
 231  0.652  0.375  0.393-  27 1.98  37 1.98  76 2.02
 232  0.250  0.500  0.458-  48 1.98  78 1.98  77 2.02
 233  0.250  0.500  0.542-  48 1.98  78 1.98  81 2.17
 234  0.598  0.375  0.500-  69 1.98  79 1.98  38 2.02
 235  0.402  0.375  0.500-  69 1.98  79 1.98  78 2.02
 236  0.500  0.500  0.566-  80 1.92  50 1.92  79 2.05
 237  0.500  0.500  0.651-  83 1.85  50 2.05  80 2.05
 238  0.350  0.375  0.608-  80 1.87  81 2.07  71 2.07
 239  0.651  0.375  0.608-  41 1.93  31 1.93  80 2.13
 240  0.249  0.500  0.673-  81 1.89  82 2.13  52 2.13
 241  0.251  0.501  0.757-  82 1.85  52 1.85
 242  0.594  0.375  0.720-  83 1.97  73 1.97  42 2.07
 243  0.406  0.375  0.720-  83 1.97  73 1.97  82 2.07

IMPORTANT INFORMATION: All symmetrisations will be switched off!
NOSYMM: (Re-)initialisation of all symmetry stuff for point group C_1.

                                     Primitive cell

  volume of cell :    4895.9617

  direct lattice vectors                    reciprocal lattice vectors
    13.251680751  0.000000000  0.000000000     0.075462126  0.000000000  0.000000000
     0.000000000 11.981436613  0.000000000     0.000000000  0.083462445  0.000000000
     0.000000000  0.000000000 30.836008487     0.000000000  0.000000000  0.032429619

  length of vectors
    13.251680751 11.981436613 30.836008487     0.075462126  0.083462445  0.032429619

  position of ions in fractional coordinates (direct lattice)
     0.500380105  0.602065450  0.811157136
     0.500109635  0.696826269  0.820994583
     0.500651630  0.507338725  0.800295515
     0.750000000  0.625000000  0.285126523
     0.000000000  0.750000000  0.285126523
     0.000000000  0.625000000  0.392563261
     0.750000000  0.750000000  0.392563261
     0.750000000  0.625000000  0.500000000
     0.000000000  0.750000000  0.500000000
     0.990642058  0.625089321  0.605183373
     0.742790698  0.750115095  0.612026799
     0.750649906  0.625832011  0.722102060
     0.000442685  0.750354071  0.709985079
     0.750000000  0.875000000  0.285126523
     0.000000000  0.000000000  0.285126523
     0.000000000  0.875000000  0.392563261
     0.750000000  0.000000000  0.392563261
     0.750000000  0.875000000  0.500000000
     0.000000000  0.000000000  0.500000000
     0.990674160  0.875072860  0.605235294
     0.742847601  0.000100450  0.612122876
     0.750325767  0.875696740  0.722383520
     0.000406898  0.000229148  0.710007364
     0.750000000  0.125000000  0.285126523
     0.000000000  0.250000000  0.285126523
     0.000000000  0.125000000  0.392563261
     0.750000000  0.250000000  0.392563261
     0.750000000  0.125000000  0.500000000
     0.000000000  0.250000000  0.500000000
     0.990768846  0.125046028  0.605219505
     0.742921847  0.250013640  0.612114566
     0.750375382  0.125702182  0.722337395
     0.000410111  0.250186945  0.709993683
     0.750000000  0.375000000  0.285126523
     0.000000000  0.500000000  0.285126523
     0.000000000  0.375000000  0.392563261
     0.750000000  0.500000000  0.392563261
     0.750000000  0.375000000  0.500000000
     0.000000000  0.500000000  0.500000000
     0.990703597  0.375067442  0.605203349
     0.742843505  0.500044812  0.612070950
     0.750649566  0.375745588  0.722331602
     0.000457404  0.500294461  0.709965767
     0.250000000  0.625000000  0.285126523
     0.500000000  0.750000000  0.285126523
     0.500000000  0.625000000  0.392563261
     0.250000000  0.750000000  0.392563261
     0.250000000  0.625000000  0.500000000
     0.500000000  0.750000000  0.500000000
     0.490637834  0.624690425  0.605444426
     0.242753806  0.750086773  0.612029608
     0.250416328  0.625835001  0.722114829
     0.500431891  0.750679797  0.709622325
     0.250000000  0.875000000  0.285126523
     0.500000000  0.000000000  0.285126523
     0.500000000  0.875000000  0.392563261
     0.250000000  0.000000000  0.392563261
     0.250000000  0.875000000  0.500000000
     0.500000000  0.000000000  0.500000000
     0.490589201  0.874937379  0.604973125
[...]
     0.500000000  0.500000000  0.434467643
     0.347509432  0.375000000  0.392563261
     0.652490568  0.375000000  0.392563261
     0.250000000  0.500000000  0.458095618
     0.250000000  0.500000000  0.541904382
     0.597509432  0.375000000  0.500000000
     0.402490568  0.375000000  0.500000000
     0.499797772  0.499991257  0.566477586
     0.499802916  0.500227700  0.650879515
     0.349764800  0.375086935  0.608179090
     0.651055382  0.375086505  0.608475922
     0.249324791  0.500143761  0.673138979
     0.251236879  0.500649839  0.757473456
     0.594281948  0.374568079  0.719932910
     0.406230206  0.374541930  0.719970270

  ion indices of the primitive-cell ions
   primitive index   ion index
[...]
   6.63156365  8.99422240 21.88192004
   3.31292019 10.48375704  8.79216387
   6.62584038  0.00000000  8.79216387
   6.62584038 10.48375704 12.10508406
   3.31292019  0.00000000 12.10508406
   3.31292019 10.48375704 15.41800424
   6.62584038  0.00000000 15.41800424
   6.50113147 10.48300675 18.65495643
[...]
   6.62584038  5.99071831 13.39724792
   4.60508406  4.49303873 12.10508406
   8.64659670  4.49303873 12.10508406
   3.31292019  5.99071831 14.12584038
   3.31292019  5.99071831 16.71016811
   7.91800424  4.49303873 15.41800424
   5.33367651  4.49303873 15.41800424
   6.62316051  5.99061355 17.46790766
   6.62322868  5.99344648 20.07052624
   4.63497147  4.49408034 18.75381560
   8.62757808  4.49407518 18.76296870
   3.30397253  5.99244077 20.75691927
   3.32931092  5.99850431 23.35745792
   7.87523465  4.48786369 22.19985731
   5.38323301  4.48755040 22.20100934

--------------------------------------- Iteration      FINAL  ---------------------------------------

--------------------OUTCAR has been truncated-------------------------

[...]

--------------------OUTCAR has been truncated-------------------------

  FORCE on cell =-STRESS in cart. coord.  units (eV):
  Direction    XX          YY          ZZ          XY          YZ          ZX
  Alpha Z  4533.07076  4533.07076  4533.07076
  Ewald  927297.30322945953.98308************    -2.63133   199.86005    10.92864
  Hartree968767.28596978905.64025************    -1.22088    93.16912     6.72195
  E(xc)   -8650.85752 -8642.97270 -8647.50146    -0.00599     0.50796     0.00630
  Local  ************************************     3.64299  -274.58767   -17.83251
  n-local -5548.97303 -5477.38430 -5587.05819     0.01027    -1.73209     0.26580
  augment  5266.31280  5244.75972  5270.78150     0.00466    -0.68538     0.03885
  Kinetic 28804.90001 28273.66259 28841.63674     0.19721   -16.92186    -0.57466
  Fock        0.00000     0.00000     0.00000     0.00000     0.00000     0.00000
  Total    -116.58448  -188.88536  -149.26185    -0.00306    -0.38987    -0.44563
  in kB     -38.15165   -61.81172   -48.84514    -0.00100    -0.12758    -0.14583

 VOLUME and BASIS-vectors are now :
  energy-cutoff  :      600.00
  volume of cell :     4895.96
      direct lattice vectors                 reciprocal lattice vectors
    13.251680751  0.000000000  0.000000000     0.075462126  0.000000000  0.000000000
     0.000000000 11.981436613  0.000000000     0.000000000  0.083462445  0.000000000
     0.000000000  0.000000000 30.836008487     0.000000000  0.000000000  0.032429619

  length of vectors
    13.251680751 11.981436613 30.836008487     0.075462126  0.083462445  0.032429619

 FORCES acting on ions:
    Electron-Ion                     Ewald-Force                    Non-Local-Force
   -.473E-01 0.507E+01 -.149E+04   0.463E-01 -.501E+01 0.149E+04   0.505E-03 -.149E-01 -.633E-01
   0.687E+00 -.265E+03 -.219E+04   -.887E+00 0.327E+03 0.221E+04   0.202E+00 -.624E+02 -.174E+02
   -.706E+00 0.262E+03 -.226E+04   0.909E+00 -.322E+03 0.225E+04   -.206E+00 0.606E+02 0.148E+02
   -.262E+00 -.399E-02 0.363E+04   0.262E+00 0.407E-02 -.364E+04   0.499E-04 0.452E-05 0.316E+00
   -.304E-02 -.719E-01 0.381E+04   0.302E-02 0.720E-01 -.380E+04   -.104E-04 -.118E-04 -.368E+01
   -.921E-01 -.148E-01 0.186E+04   0.929E-01 0.146E-01 -.186E+04   -.193E-03 0.766E-04 -.453E-01
   -.344E+00 -.128E+00 0.185E+04   0.342E+00 0.129E+00 -.186E+04   -.280E-03 -.756E-05 0.205E+00
   -.325E+00 -.287E-01 0.155E+02   0.305E+00 0.245E-01 -.147E+02   -.771E-03 0.201E-03 -.121E+00
   -.292E+01 -.644E+00 0.235E+02   0.296E+01 0.649E+00 -.245E+02   -.151E-01 -.219E-02 0.363E+00
   -.322E+02 -.665E+00 -.177E+04   0.322E+02 0.662E+00 0.177E+04   0.806E-01 0.205E-02 0.161E+00
   -.221E+02 -.527E+01 -.182E+04   0.220E+02 0.527E+01 0.182E+04   0.129E+00 0.192E-02 -.204E+00
   -.756E+02 -.514E+01 -.355E+04   0.756E+02 0.513E+01 0.355E+04   0.323E-02 0.106E-01 -.127E+00
   -.691E+00 -.750E+01 -.361E+04   0.694E+00 0.749E+01 0.361E+04   -.551E-02 0.335E-02 0.990E+00
   -.257E+00 -.104E+00 0.363E+04   0.256E+00 0.104E+00 -.364E+04   0.956E-04 -.219E-04 0.316E+00
   -.297E-02 -.640E-01 0.381E+04   0.297E-02 0.641E-01 -.380E+04   -.115E-04 -.637E-05 -.368E+01
   -.919E-01 -.176E+00 0.186E+04   0.927E-01 0.176E+00 -.186E+04   -.190E-03 0.851E-04 -.453E-01
   -.338E+00 -.130E+00 0.185E+04   0.336E+00 0.130E+00 -.186E+04   -.219E-03 0.380E-04 0.204E+00
   -.380E+00 -.103E+01 0.144E+02   0.360E+00 0.104E+01 -.136E+02   -.899E-03 -.892E-03 -.122E+00
   -.293E+01 -.470E+00 0.223E+02   0.296E+01 0.471E+00 -.233E+02   -.149E-01 -.732E-03 0.364E+00
   -.320E+02 -.337E+01 -.177E+04   0.320E+02 0.337E+01 0.177E+04   0.816E-01 0.225E-02 0.164E+00
   -.185E+02 -.314E+01 -.183E+04   0.184E+02 0.313E+01 0.183E+04   0.134E+00 0.372E-02 -.201E+00
   -.398E+02 -.260E+02 -.358E+04   0.398E+02 0.259E+02 0.358E+04   0.162E-01 0.964E-02 -.156E+00
   -.688E+00 -.551E+01 -.362E+04   0.695E+00 0.551E+01 0.362E+04   -.737E-02 0.266E-02 0.100E+01
   -.248E+00 0.400E-02 0.363E+04   0.247E+00 -.409E-02 -.364E+04   0.956E-04 -.539E-05 0.316E+00
   -.303E-02 0.718E-01 0.381E+04   0.303E-02 -.719E-01 -.380E+04   -.866E-05 0.197E-04 -.368E+01
   -.919E-01 0.150E-01 0.186E+04   0.927E-01 -.149E-01 -.186E+04   -.195E-03 -.761E-05 -.454E-01
   -.313E+00 0.129E+00 0.185E+04   0.312E+00 -.129E+00 -.186E+04   -.299E-03 0.193E-04 0.204E+00
   -.159E+00 0.452E-01 0.134E+02   0.139E+00 -.462E-01 -.126E+02   -.747E-03 -.107E-03 -.123E+00
   -.290E+01 0.704E+00 0.225E+02   0.294E+01 -.705E+00 -.236E+02   -.152E-01 -.121E-03 0.365E+00
   -.317E+02 0.336E+00 -.177E+04   0.317E+02 -.338E+00 0.177E+04   0.816E-01 0.273E-02 0.164E+00
   -.191E+02 0.469E+01 -.183E+04   0.190E+02 -.469E+01 0.183E+04   0.133E+00 0.259E-02 -.201E+00
   -.234E+02 0.648E+01 -.359E+04   0.234E+02 -.649E+01 0.359E+04   0.893E-02 0.866E-02 -.151E+00
   -.750E+00 0.605E+01 -.362E+04   0.755E+00 -.605E+01 0.361E+04   -.638E-02 0.725E-02 0.992E+00
   -.254E+00 0.104E+00 0.363E+04   0.253E+00 -.104E+00 -.364E+04   0.551E-04 0.190E-04 0.316E+00
   -.309E-02 0.641E-01 0.381E+04   0.308E-02 -.641E-01 -.380E+04   -.112E-04 0.738E-05 -.368E+01
   -.920E-01 0.175E+00 0.186E+04   0.928E-01 -.175E+00 -.186E+04   -.196E-03 -.330E-04 -.453E-01
   -.319E+00 0.130E+00 0.185E+04   0.318E+00 -.130E+00 -.186E+04   -.406E-03 -.376E-04 0.205E+00
   -.119E+00 0.101E+01 0.145E+02   0.994E-01 -.102E+01 -.137E+02   -.907E-03 0.607E-03 -.122E+00
   -.290E+01 0.541E+00 0.237E+02   0.294E+01 -.543E+00 -.248E+02   -.152E-01 -.333E-03 0.363E+00
   -.320E+02 0.311E+01 -.177E+04   0.320E+02 -.311E+01 0.177E+04   0.813E-01 0.162E-02 0.163E+00
   -.228E+02 0.356E+01 -.182E+04   0.227E+02 -.356E+01 0.182E+04   0.133E+00 0.144E-02 -.206E+00
   -.526E+02 0.318E+02 -.357E+04   0.526E+02 -.319E+02 0.357E+04   0.643E-02 0.132E-01 -.149E+00
   -.652E+00 0.520E+01 -.361E+04   0.656E+00 -.521E+01 0.361E+04   -.594E-02 0.530E-02 0.981E+00
   0.271E+00 -.388E-02 0.363E+04   -.271E+00 0.395E-02 -.364E+04   -.149E-03 0.293E-05 0.316E+00
   -.564E-02 -.809E-01 0.381E+04   0.554E-02 0.812E-01 -.380E+04   0.127E-04 -.350E-04 -.368E+01
   -.107E+00 0.294E-01 0.186E+04   0.107E+00 -.255E-01 -.186E+04   -.937E-04 -.765E-03 -.455E-01
   0.539E+00 -.127E+00 0.185E+04   -.538E+00 0.128E+00 -.186E+04   -.835E-03 0.522E-05 0.205E+00
   0.353E+01 -.231E-01 0.156E+02   -.354E+01 0.200E-01 -.148E+02   -.326E-02 0.937E-04 -.121E+00
   -.304E+01 -.551E+00 0.278E+02   0.307E+01 0.539E+00 -.288E+02   -.143E-01 0.699E-02 0.349E+00
   -.310E+02 -.155E+01 -.175E+04   0.310E+02 0.157E+01 0.175E+04   0.859E-01 -.194E-01 0.154E+00
   0.205E+00 -.521E+01 -.182E+04   -.297E+00 0.521E+01 0.182E+04   0.134E+00 0.865E-03 -.202E+00
   0.745E+02 -.506E+01 -.355E+04   -.744E+02 0.504E+01 0.355E+04   -.148E-01 0.987E-02 -.129E+00
   -.897E+00 -.620E+02 -.349E+04   0.901E+00 0.620E+02 0.349E+04   -.550E-02 0.108E-01 0.100E+01
   0.265E+00 -.104E+00 0.363E+04   -.265E+00 0.104E+00 -.364E+04   -.196E-03 -.257E-04 0.316E+00
   -.573E-02 -.778E-01 0.381E+04   0.560E-02 0.779E-01 -.380E+04   0.138E-04 -.122E-04 -.368E+01
   -.109E+00 -.182E+00 0.186E+04   0.109E+00 0.184E+00 -.186E+04   -.117E-03 -.366E-03 -.456E-01
   0.534E+00 -.131E+00 0.185E+04   -.532E+00 0.131E+00 -.186E+04   -.908E-03 0.396E-04 0.204E+00
   0.364E+01 -.103E+01 0.144E+02   -.365E+01 0.105E+01 -.136E+02   -.288E-02 -.987E-03 -.122E+00
   -.302E+01 -.823E+00 0.268E+02   0.306E+01 0.828E+00 -.279E+02   -.157E-01 -.231E-02 0.351E+00
   -.310E+02 -.953E+01 -.175E+04   0.309E+02 0.953E+01 0.175E+04   0.906E-01 0.547E-02 0.134E+00
[...]
   -.559E+02 0.110E+00 0.111E+04   0.600E+02 -.110E+00 -.111E+04   -.379E+01 0.940E-03 0.158E+00
   0.559E+02 0.110E+00 0.111E+04   -.600E+02 -.111E+00 -.111E+04   0.379E+01 0.915E-03 0.158E+00
   0.945E+00 0.212E+00 0.496E+03   -.953E+00 -.213E+00 -.500E+03   0.129E-01 0.380E-02 0.435E+01
   0.128E+01 0.826E+00 -.493E+03   -.979E+00 -.830E+00 0.500E+03   -.311E+00 0.697E-02 -.745E+01
   -.585E+02 0.565E+00 0.140E+02   0.633E+02 -.568E+00 -.142E+02   -.536E+01 0.970E-02 0.308E+00
   0.582E+02 0.547E+00 0.172E+02   -.631E+02 -.550E+00 -.175E+02   0.538E+01 0.106E-01 0.406E+00
   -.188E+02 0.145E+01 -.580E+03   0.205E+02 -.146E+01 0.573E+03   -.176E+01 0.703E-02 0.673E+01
   -.114E+02 0.573E+01 -.150E+04   0.125E+02 -.568E+01 0.149E+04   -.113E+01 -.539E-01 0.229E+01
   0.134E+02 0.452E+01 -.107E+04   -.148E+02 -.454E+01 0.107E+04   0.142E+01 0.199E-01 0.697E+00
   0.641E+02 0.464E+01 -.106E+04   -.715E+02 -.469E+01 0.106E+04   0.754E+01 0.496E-01 0.128E+01
   0.144E+02 0.511E+01 -.171E+04   -.139E+02 -.505E+01 0.172E+04   -.508E+00 -.606E-01 -.224E+01
   0.648E+02 0.166E+02 -.259E+04   -.647E+02 -.165E+02 0.261E+04   -.118E+00 -.132E+00 -.205E+02
   -.549E+02 0.444E+02 -.219E+04   0.610E+02 -.445E+02 0.219E+04   -.616E+01 0.125E+00 -.350E+01
   0.540E+02 0.441E+02 -.219E+04   -.598E+02 -.442E+02 0.219E+04   0.595E+01 0.983E-01 -.353E+01
   -.419E+02 0.239E+01 0.931E+02   -.198E-11 -.110E-11 0.864E-11   0.419E+02 -.238E+01 -.932E+02

 POSITION                                       TOTAL-FORCE (eV/Angst)
      6.63088      7.21361     25.01285        -0.000474      0.055870     -0.111000
      6.62729      8.34898     25.31620         0.002085     -0.391574     -0.103552
      6.63448      6.07865     24.67792        -0.002509      0.319186     -0.010087
      9.93876      7.48840      8.79216        -0.000275      0.000060     -3.251841
      0.00000      8.98608      8.79216        -0.000027      0.000083      3.045814
      0.00000      7.48840     12.10508         0.000605     -0.000105      0.486783
      9.93876      8.98608     12.10508        -0.001564      0.000452     -0.671312
      9.93876      7.48840     15.41800        -0.020841     -0.003997      0.667628
      0.00000      8.98608     15.41800         0.024237      0.002408     -0.693942
     13.12767      7.48947     18.66144        -0.038195     -0.000812     -0.021357
      9.84323      8.98746     18.87246        -0.022361     -0.000813      0.053623
      9.94737      7.49837     22.26675        -0.003351      0.003745      0.004761
      0.00587      8.99032     21.89311        -0.001166     -0.000568     -0.250878
      9.93876     10.48376      8.79216        -0.000342      0.000312     -3.251853
      0.00000      0.00000      8.79216        -0.000008      0.000040      3.045695
      0.00000     10.48376     12.10508         0.000594     -0.000072      0.486744
      9.93876      0.00000     12.10508        -0.001788      0.000182     -0.670086
      9.93876     10.48376     15.41800        -0.020493      0.011368      0.672074
      0.00000      0.00000     15.41800         0.024076      0.001106     -0.693146
     13.12810     10.48463     18.66304        -0.040415     -0.000319     -0.024891
      9.84398      0.00120     18.87543        -0.023528     -0.000823      0.054457
      9.94308     10.49210     22.27542        -0.000876      0.004375     -0.000207
      0.00539      0.00275     21.89379        -0.000866      0.002136     -0.252919
      9.93876      1.49768      8.79216        -0.000345     -0.000126     -3.251779
      0.00000      2.99536      8.79216        -0.000007     -0.000142      3.045779
      0.00000      1.49768     12.10508         0.000608      0.000075      0.486685
      9.93876      2.99536     12.10508        -0.001530     -0.000507     -0.669810
      9.93876      1.49768     15.41800        -0.020939     -0.001162      0.679027
      0.00000      2.99536     15.41800         0.024206     -0.001068     -0.694116
     13.12935      1.49823     18.66255        -0.040131     -0.000025     -0.023246
      9.84496      2.99552     18.87517        -0.023725      0.001654      0.056029
      9.94374      1.50609     22.27400        -0.000003      0.001703      0.000659
      0.00543      2.99760     21.89337        -0.000708     -0.005280     -0.252099
      9.93876      4.49304      8.79216        -0.000261     -0.000367     -3.251793
      0.00000      5.99072      8.79216        -0.000022     -0.000077      3.045888
      0.00000      4.49304     12.10508         0.000613      0.000013      0.486807
      9.93876      5.99072     12.10508        -0.001304     -0.000229     -0.671069
      9.93876      4.49304     15.41800        -0.020950     -0.006681      0.674527
      0.00000      5.99072     15.41800         0.024369     -0.001670     -0.694814
     13.12849      4.49385     18.66206        -0.038802     -0.000138     -0.022901
      9.84392      5.99126     18.87383        -0.022542      0.000223      0.052601
      9.94737      4.50197     22.27382        -0.003003      0.000878     -0.001491
      0.00606      5.99425     21.89251        -0.001109      0.001551     -0.250013
      3.31292      7.48840      8.79216         0.000219      0.000039     -3.251767
      6.62584      8.98608      8.79216        -0.000092      0.000245      3.046827
      6.62584      7.48840     12.10508         0.000196      0.003048      0.488905
      3.31292      8.98608     12.10508         0.000381      0.000434     -0.670741
      3.31292      7.48840     15.41800        -0.011682     -0.003083      0.668375
      6.62584      8.98608     15.41800         0.023348     -0.004825     -0.676215
      6.50178      7.48469     18.66949        -0.041462     -0.000833     -0.024249
      3.21690      8.98712     18.87255        -0.024551     -0.000671      0.053151
      3.31844      7.49840     22.26714         0.004898      0.003947      0.004625
      6.63156      8.99422     21.88192        -0.001309     -0.009516     -0.214273
      3.31292     10.48376      8.79216         0.000289      0.000343     -3.251761
      6.62584      0.00000      8.79216        -0.000108      0.000023      3.046768
      6.62584     10.48376     12.10508         0.000236      0.001163      0.490932
      3.31292      0.00000     12.10508         0.000593      0.000205     -0.669337
      3.31292     10.48376     15.41800        -0.013237      0.012108      0.674073
      6.62584      0.00000     15.41800         0.024508      0.003017     -0.702287
      6.50113     10.48301     18.65496        -0.039146      0.000801     -0.020024
[...]
      6.62584      5.99072     13.39725        -0.000936      0.000007     -0.196733
      4.60508      4.49304     12.10508         0.312492      0.000391      0.048264
      8.64660      4.49304     12.10508        -0.311598      0.000369      0.048237
      3.31292      5.99072     14.12584         0.004712      0.002156     -0.025052
      3.31292      5.99072     16.71017        -0.010070      0.002152     -0.191609
      7.91800      4.49304     15.41800        -0.556011      0.006915      0.096798
      5.33368      4.49304     15.41800         0.554847      0.007470      0.096707
      6.62316      5.99061     17.46791        -0.026316      0.000097      0.131491
      6.62323      5.99345     20.07053        -0.018833     -0.001064     -0.016301
      4.63497      4.49408     18.75382        -0.015502     -0.001142      0.009412
      8.62758      4.49408     18.76297         0.140142     -0.001075      0.022509
      3.30397      5.99244     20.75692        -0.008162     -0.002001     -0.021218
      3.32931      5.99850     23.35746        -0.002901     -0.003420     -0.510994
      7.87523      4.48786     22.19986        -0.111490      0.005875     -0.099817
      5.38323      4.48755     22.20101         0.105059      0.004680     -0.099625
    total drift:                               -0.001267      0.006835     -0.088749

  FREE ENERGIE OF THE ION-ELECTRON SYSTEM (eV)
  free  energy   TOTEN  =     -1756.41261514 eV

  energy  without entropy=    -1756.41261514  energy(sigma->0) =    -1756.41261514