 vasp.6.3.0 20Jan22 (build Apr  1 2022 16:44:48) complex
 executed on        HPECrayEX_GCC date 2022.10.26  06:23:41

 INCAR:
   SYSTEM = MgO-rocksalt
   ISMEAR = 0
   SIGMA = 0.05
   EDIFF = 1E-7
   ALGO = ALL
   ISTART = 0
   IBRION = 2
   NSW = 1000
   ISYM = 0
   ISIF = 2
   EDIFFG = -0.01
   DIPOL = 0.5 0.5 0.5
   IDIPOL = 3
   LDIPOL = .TRUE.
   GGA = RE
   IVDW = 13
   VDW_S8 = 1.7468
   VDW_A1 = 0.5363
   VDW_A2 = 3.0726
   ENCUT = 600
   PREC = Accurate
   LASPH = .TRUE.
   LREAL = .FALSE.
   ISPIN = 1
   NELM = 200
   NELMIN = 8
   NCORE = 8
   KPAR = 1
   LWAVE = .FALSE.
   LCHARG = .FALSE.

 POTCAR:    PAW_PBE C 08Apr2002
 POTCAR:    PAW_PBE O 08Apr2002
 POTCAR:    PAW_PBE Mg_pv 13Apr2007
 POTCAR:    PAW_PBE O 08Apr2002
 POTCAR:    PAW_PBE C 08Apr2002
   VRHFIN =C: s2p2

   TITEL  = PAW_PBE C 08Apr2002
   POMASS =   12.011; ZVAL   =    4.000    mass and valenz
   ENMAX  =  400.000; ENMIN  =  300.000 eV

[...]

   TITEL  = PAW_PBE Mg_pv 13Apr2007
   POMASS =   24.305; ZVAL   =    8.000    mass and valenz
   ENMAX  =  403.929; ENMIN  =  302.947 eV

   TITEL  = PAW_PBE O 08Apr2002
   POMASS =   16.000; ZVAL   =    6.000    mass and valenz
   ENMAX  =  400.000; ENMIN  =  300.000 eV

  PAW_PBE C 08Apr2002                   :
  PAW_PBE O 08Apr2002                   :
  PAW_PBE Mg_pv 13Apr2007               :
  PAW_PBE O 08Apr2002                   :

 POSCAR:  C  O Mg  O
  positions in direct lattice
|           W    W    AA    RRRRR   N    N  II  N    N   GGGG   !!!           |
|           W    W   A  A   R    R  NN   N  II  NN   N  G    G  !!!           |
|           W    W  A    A  R    R  N N  N  II  N N  N  G       !!!           |
|           W WW W  AAAAAA  RRRRR   N  N N  II  N  N N  G  GGG   !            |
|           WW  WW  A    A  R   R   N   NN  II  N   NN  G    G                |
|           W    W  A    A  R    R  N    N  II  N    N   GGGG   !!!           |
|     Specifying the vdW parameters                                           |
|     VDW_S8 = 1.747                                                          |
|     VDW_A1 = 0.536                                                          |
|     VDW_A2 = 3.073                                                          |
|     in the INCAR file will overwrite the defaults for revpbe. Please        |
|     make sure that is what you intended.                                    |

 ion  position               nearest neighbor table
   1  0.500  0.750  0.717-   2 1.18   3 1.18  56 1.41
   2  0.500  0.877  0.740-   1 1.18  26 2.20
   3  0.500  0.623  0.740-   1 1.18  34 2.20
   4  0.000  0.750  0.352-  36 2.11  38 2.11  39 2.11  46 2.11  55 2.11
   5  0.250  0.000  0.352-  37 2.11  38 2.11  39 2.11  47 2.11  54 2.11
   6  0.000  0.000  0.451-  38 2.11  37 2.11  36 2.11  44 2.11  53 2.11  42 2.12
   7  0.250  0.750  0.451-  39 2.11  37 2.11  36 2.11  45 2.11  52 2.11  43 2.12
   8  0.000  0.750  0.550-  42 2.11  43 2.11  50 2.11  59 2.11  36 2.13  40 2.15
   9  0.250  0.000  0.550-  42 2.11  43 2.11  51 2.11  58 2.11  37 2.13  41 2.15
  10  0.000  0.000  0.649-  40 2.11  41 2.11  48 2.11  57 2.11  42 2.11
  11  0.250  0.750  0.649-  40 2.11  41 2.11  49 2.11  56 2.11  43 2.11
  12  0.000  0.250  0.352-  44 2.11  38 2.11  46 2.11  47 2.11  63 2.11
  13  0.250  0.500  0.352-  45 2.11  39 2.11  46 2.11  47 2.11  62 2.11
  14  0.000  0.500  0.451-  46 2.11  44 2.11  45 2.11  36 2.11  61 2.11  50 2.12
  15  0.250  0.250  0.451-  47 2.11  44 2.11  45 2.11  37 2.11  60 2.11  51 2.12
  16  0.000  0.250  0.550-  42 2.11  50 2.11  51 2.11  67 2.11  44 2.13  48 2.15
  17  0.250  0.500  0.550-  43 2.11  50 2.11  51 2.11  66 2.11  45 2.13  49 2.15
  18  0.000  0.500  0.649-  40 2.11  48 2.11  49 2.11  65 2.11  50 2.11
  19  0.250  0.250  0.649-  41 2.11  48 2.11  49 2.11  64 2.11  51 2.11
  20  0.500  0.750  0.352-  52 2.11  39 2.11  54 2.11  55 2.11  62 2.11
  21  0.750  0.000  0.352-  53 2.11  38 2.11  54 2.11  55 2.11  63 2.11
  22  0.500  0.000  0.451-  54 2.11  52 2.11  53 2.11  37 2.11  60 2.11  58 2.12
  23  0.750  0.750  0.451-  55 2.11  52 2.11  53 2.11  36 2.11  61 2.11  59 2.12
  24  0.500  0.750  0.550-  43 2.11  58 2.11  59 2.11  66 2.11  52 2.13  56 2.15
  25  0.750  0.000  0.550-  42 2.11  58 2.11  59 2.11  67 2.11  53 2.13  57 2.15
  26  0.500  0.000  0.649-  41 2.11  56 2.11  57 2.11  64 2.11  58 2.11   2 2.20
  27  0.750  0.750  0.649-  40 2.11  56 2.11  57 2.11  65 2.11  59 2.11
  28  0.500  0.250  0.352-  60 2.11  54 2.11  47 2.11  62 2.11  63 2.11
  29  0.750  0.500  0.352-  61 2.11  55 2.11  46 2.11  62 2.11  63 2.11
  30  0.500  0.500  0.451-  62 2.11  52 2.11  60 2.11  61 2.11  45 2.11  66 2.12
  31  0.750  0.250  0.451-  63 2.11  53 2.11  60 2.11  61 2.11  44 2.11  67 2.12
  32  0.500  0.250  0.550-  51 2.11  58 2.11  66 2.11  67 2.11  60 2.13  64 2.15
  33  0.750  0.500  0.550-  50 2.11  59 2.11  66 2.11  67 2.11  61 2.13  65 2.15
  34  0.500  0.500  0.649-  49 2.11  56 2.11  64 2.11  65 2.11  66 2.11   3 2.20
  35  0.750  0.250  0.649-  48 2.11  57 2.11  64 2.11  65 2.11  67 2.11
  36  0.000  0.750  0.451-   4 2.11   6 2.11   7 2.11  14 2.11  23 2.11   8 2.13
  37  0.250  0.000  0.451-   5 2.11   6 2.11   7 2.11  15 2.11  22 2.11   9 2.13
  38  0.000  0.000  0.352-   6 2.11   5 2.11   4 2.11  12 2.11  21 2.11
  39  0.250  0.750  0.352-   7 2.11   5 2.11   4 2.11  13 2.11  20 2.11
  40  0.000  0.750  0.651-  10 2.11  11 2.11  18 2.11  27 2.11   8 2.15
  41  0.250  0.000  0.651-  10 2.11  11 2.11  19 2.11  26 2.11   9 2.15
  42  0.000  0.000  0.550-   8 2.11   9 2.11  16 2.11  25 2.11  10 2.11   6 2.12
  43  0.250  0.750  0.550-   8 2.11   9 2.11  17 2.11  24 2.11  11 2.11   7 2.12
  44  0.000  0.250  0.451-  12 2.11   6 2.11  14 2.11  15 2.11  31 2.11  16 2.13
  45  0.250  0.500  0.451-  13 2.11   7 2.11  14 2.11  15 2.11  30 2.11  17 2.13
  46  0.000  0.500  0.352-  14 2.11  12 2.11  13 2.11   4 2.11  29 2.11
  47  0.250  0.250  0.352-  15 2.11  12 2.11  13 2.11   5 2.11  28 2.11
  48  0.000  0.250  0.651-  10 2.11  18 2.11  19 2.11  35 2.11  16 2.15
  49  0.250  0.500  0.651-  11 2.11  18 2.11  19 2.11  34 2.11  17 2.15
  50  0.000  0.500  0.550-   8 2.11  16 2.11  17 2.11  33 2.11  18 2.11  14 2.12
  51  0.250  0.250  0.550-   9 2.11  16 2.11  17 2.11  32 2.11  19 2.11  15 2.12
  52  0.500  0.750  0.451-  20 2.11   7 2.11  22 2.11  23 2.11  30 2.11  24 2.13
  53  0.750  0.000  0.451-  21 2.11   6 2.11  22 2.11  23 2.11  31 2.11  25 2.13
  54  0.500  0.000  0.352-  22 2.11  20 2.11  21 2.11   5 2.11  28 2.11
  55  0.750  0.750  0.352-  23 2.11  20 2.11  21 2.11   4 2.11  29 2.11
  56  0.500  0.750  0.651-   1 1.41  11 2.11  26 2.11  27 2.11  34 2.11  24 2.15
  57  0.750  0.000  0.651-  10 2.11  26 2.11  27 2.11  35 2.11  25 2.15
  58  0.500  0.000  0.550-   9 2.11  24 2.11  25 2.11  32 2.11  26 2.11  22 2.12
  59  0.750  0.750  0.550-   8 2.11  24 2.11  25 2.11  33 2.11  27 2.11  23 2.12
  60  0.500  0.250  0.451-  28 2.11  22 2.11  15 2.11  30 2.11  31 2.11  32 2.13
  61  0.750  0.500  0.451-  29 2.11  23 2.11  14 2.11  30 2.11  31 2.11  33 2.13
  62  0.500  0.500  0.352-  30 2.11  20 2.11  28 2.11  29 2.11  13 2.11
  63  0.750  0.250  0.352-  31 2.11  21 2.11  28 2.11  29 2.11  12 2.11
  64  0.500  0.250  0.651-  19 2.11  26 2.11  34 2.11  35 2.11  32 2.15
  65  0.750  0.500  0.651-  18 2.11  27 2.11  34 2.11  35 2.11  33 2.15
  66  0.500  0.500  0.550-  17 2.11  24 2.11  32 2.11  33 2.11  34 2.11  30 2.12
  67  0.750  0.250  0.550-  16 2.11  25 2.11  32 2.11  33 2.11  35 2.11  31 2.12

IMPORTANT INFORMATION: All symmetrisations will be switched off!
NOSYMM: (Re-)initialisation of all symmetry stuff for point group C_1.

                                     Primitive cell

  volume of cell :    1519.8199

  direct lattice vectors                    reciprocal lattice vectors
     8.440984654  0.000000000  0.000000000     0.118469591  0.000000000  0.000000000
     0.000000000  8.440984654  0.000000000     0.000000000  0.118469591  0.000000000
     0.000000000  0.000000000 21.330738491     0.000000000  0.000000000  0.046880702

  length of vectors
     8.440984654  8.440984654 21.330738491     0.118469591  0.118469591  0.046880702

  position of ions in fractional coordinates (direct lattice)
     0.500000000  0.750000000  0.717108113
     0.500000000  0.877299641  0.739906207
     0.500000000  0.622700359  0.739906207
     0.000000000  0.750000000  0.351605267
     0.250000000  0.000000000  0.351605267
     0.000000000  0.000000000  0.450535089
     0.250000000  0.750000000  0.450535089
     0.000000000  0.750000000  0.550171424
     0.250000000  0.000000000  0.550171424
     0.000000000  0.000000000  0.648861363
     0.250000000  0.750000000  0.648861363
     0.000000000  0.250000000  0.351605267
     0.250000000  0.500000000  0.351605267
     0.000000000  0.500000000  0.450535089
     0.250000000  0.250000000  0.450535089
     0.000000000  0.250000000  0.550171424
     0.250000000  0.500000000  0.550171424
     0.000000000  0.500000000  0.648861363
     0.250000000  0.250000000  0.648861363
     0.500000000  0.750000000  0.351605267
     0.750000000  0.000000000  0.351605267
     0.500000000  0.000000000  0.450535089
     0.750000000  0.750000000  0.450535089
     0.500000000  0.750000000  0.550171424
     0.750000000  0.000000000  0.550171424
     0.500000000  0.000000000  0.648861363
     0.750000000  0.750000000  0.648861363
     0.500000000  0.250000000  0.351605267
     0.750000000  0.500000000  0.351605267
     0.500000000  0.500000000  0.450535089
     0.750000000  0.250000000  0.450535089
     0.500000000  0.250000000  0.550171424
     0.750000000  0.500000000  0.550171424
     0.500000000  0.500000000  0.648861363
     0.750000000  0.250000000  0.648861363
     0.000000000  0.750000000  0.450535089
     0.250000000  0.000000000  0.450535089
     0.000000000  0.000000000  0.351605267
     0.250000000  0.750000000  0.351605267
     0.000000000  0.750000000  0.651006323
     0.250000000  0.000000000  0.651006323
     0.000000000  0.000000000  0.549890244
     0.250000000  0.750000000  0.549890244
     0.000000000  0.250000000  0.450535089
     0.250000000  0.500000000  0.450535089
     0.000000000  0.500000000  0.351605267
     0.250000000  0.250000000  0.351605267
     0.000000000  0.250000000  0.651006323
     0.250000000  0.500000000  0.651006323
     0.000000000  0.500000000  0.549890244
     0.250000000  0.250000000  0.549890244
     0.500000000  0.750000000  0.450535089
     0.750000000  0.000000000  0.450535089
     0.500000000  0.000000000  0.351605267
     0.750000000  0.750000000  0.351605267
     0.500000000  0.750000000  0.651006323
     0.750000000  0.000000000  0.651006323
     0.500000000  0.000000000  0.549890244
     0.750000000  0.750000000  0.549890244
     0.500000000  0.250000000  0.450535089
     0.750000000  0.500000000  0.450535089
     0.500000000  0.500000000  0.351605267
     0.750000000  0.250000000  0.351605267
     0.500000000  0.250000000  0.651006323
     0.750000000  0.500000000  0.651006323
     0.500000000  0.500000000  0.549890244
     0.750000000  0.250000000  0.549890244

  ion indices of the primitive-cell ions
   primitive index   ion index
[...]
   4.22049233  2.11024616  7.50000000
   6.33073849  4.22049233  7.50000000
   4.22049233  4.22049233  9.61024616
   6.33073849  2.11024616  9.61024616
   4.22049233  2.11024616 11.73556278
   6.33073849  4.22049233 11.73556278
   4.22049233  4.22049233 13.84069205
   6.33073849  2.11024616 13.84069205
   0.00000000  6.33073849  9.61024616
   2.11024616  0.00000000  9.61024616
   0.00000000  0.00000000  7.50000000
   2.11024616  6.33073849  7.50000000
   0.00000000  6.33073849 13.88644563
   2.11024616  0.00000000 13.88644563
   0.00000000  0.00000000 11.72956500
   2.11024616  6.33073849 11.72956500
   0.00000000  2.11024616  9.61024616
   2.11024616  4.22049233  9.61024616
   0.00000000  4.22049233  7.50000000
   2.11024616  2.11024616  7.50000000
   0.00000000  2.11024616 13.88644563
   2.11024616  4.22049233 13.88644563
   0.00000000  4.22049233 11.72956500
   2.11024616  2.11024616 11.72956500
   4.22049233  6.33073849  9.61024616
   6.33073849  0.00000000  9.61024616
   4.22049233  0.00000000  7.50000000
   6.33073849  6.33073849  7.50000000
   4.22049233  6.33073849 13.88644563
   6.33073849  0.00000000 13.88644563
   4.22049233  0.00000000 11.72956500
   6.33073849  6.33073849 11.72956500
   4.22049233  2.11024616  9.61024616
   6.33073849  4.22049233  9.61024616
   4.22049233  4.22049233  7.50000000
   6.33073849  2.11024616  7.50000000
   4.22049233  2.11024616 13.88644563
   6.33073849  4.22049233 13.88644563
   4.22049233  4.22049233 11.72956500
   6.33073849  2.11024616 11.72956500

--------------------------------------- Iteration      FINAL  ---------------------------------------

--------------------OUTCAR has been truncated-------------------------

[...]

--------------------OUTCAR has been truncated-------------------------

  FORCE on cell =-STRESS in cart. coord.  units (eV):
  Direction    XX          YY          ZZ          XY          YZ          ZX
  Alpha Z   926.92928   926.92928   926.92928
  Ewald  159889.86787160762.13617************     0.00011    -0.02788     0.00004
  Hartree170393.06347170900.07150************     0.00005    -0.00125     0.00000
  E(xc)   -2542.73106 -2540.49303 -2548.94275     0.00000    -0.00012     0.00000
  Local  ************************340291.97587    -0.00015     0.02234    -0.00004
  n-local -2843.69846 -2848.02042 -2868.10147    -0.00000     0.00100    -0.00000
  augment  1059.36346  1058.18569  1051.07252     0.00000     0.00004     0.00000
  Kinetic  7654.31697  7615.13815  7683.50129    -0.00001     0.00191    -0.00000
  Fock        0.00000     0.00000     0.00000     0.00000     0.00000     0.00000
  vdW       -22.01820   -22.04811   -16.93050    -0.00000    -0.00000    -0.00000
  Total     -22.23430   -24.11075    -1.94566     0.00000    -0.00396    -0.00000
  in kB     -23.43916   -25.41729    -2.05110     0.00000    -0.00418    -0.00000

 VOLUME and BASIS-vectors are now :
  energy-cutoff  :      600.00
  volume of cell :     1519.82
      direct lattice vectors                 reciprocal lattice vectors
     8.440984654  0.000000000  0.000000000     0.118469591  0.000000000  0.000000000
     0.000000000  8.440984654  0.000000000     0.000000000  0.118469591  0.000000000
     0.000000000  0.000000000 21.330738491     0.000000000  0.000000000  0.046880702

  length of vectors
     8.440984654  8.440984654 21.330738491     0.118469591  0.118469591  0.046880702

 FORCES acting on ions:
    Electron-Ion                     Ewald-Force                    Non-Local-Force
   0.104E-03 -.475E-01 -.110E+04   -.106E-03 0.576E-01 0.110E+04   0.151E-05 -.586E-03 -.232E+01
   -.603E-04 -.223E+03 -.180E+04   0.793E-04 0.265E+03 0.182E+04   -.193E-04 -.424E+02 -.271E+02
   0.435E-04 0.223E+03 -.180E+04   -.423E-04 -.265E+03 0.182E+04   -.707E-06 0.424E+02 -.271E+02
   0.142E-04 0.187E-04 0.210E+04   -.147E-04 -.179E-04 -.209E+04   0.361E-06 -.573E-06 -.707E+01
   0.433E-01 -.778E+00 0.210E+04   -.437E-01 0.814E+00 -.209E+04   -.208E-03 -.256E-01 -.720E+01
   0.651E-04 -.253E+01 0.749E+03   -.683E-04 0.268E+01 -.750E+03   0.225E-05 -.106E+00 0.172E+00
   0.265E+01 0.111E-03 0.751E+03   -.270E+01 -.108E-03 -.751E+03   0.209E-01 -.169E-05 0.824E+00
   0.265E-04 0.341E-04 -.572E+03   -.331E-04 0.323E-04 0.572E+03   0.649E-05 -.439E-04 0.910E-01
   0.565E+01 -.860E+01 -.591E+03   -.509E+01 0.882E+01 0.593E+03   -.574E+00 -.220E+00 -.125E+01
   0.404E-05 -.183E+02 -.197E+04   0.916E-06 0.191E+02 0.197E+04   -.516E-05 -.751E+00 0.623E+01
   0.496E+02 -.376E-03 -.188E+04   -.553E+02 0.842E-03 0.188E+04   0.562E+01 -.328E-03 0.701E+01
   0.144E-04 -.193E-04 0.210E+04   -.148E-04 0.184E-04 -.209E+04   0.250E-06 0.637E-06 -.718E+01
   0.433E-01 0.778E+00 0.210E+04   -.437E-01 -.814E+00 -.209E+04   -.208E-03 0.256E-01 -.720E+01
   0.669E-04 0.253E+01 0.749E+03   -.703E-04 -.268E+01 -.750E+03   0.239E-05 0.106E+00 0.172E+00
   -.104E+01 -.113E-03 0.747E+03   0.112E+01 0.112E-03 -.747E+03   -.575E-01 0.108E-05 0.464E+00
   0.463E-04 -.840E-04 -.595E+03   -.442E-04 0.238E-04 0.596E+03   -.258E-05 0.422E-04 -.155E+00
   0.565E+01 0.860E+01 -.591E+03   -.509E+01 -.882E+01 0.593E+03   -.574E+00 0.220E+00 -.125E+01
   0.162E-04 0.183E+02 -.197E+04   -.106E-04 -.191E+02 0.197E+04   -.580E-05 0.751E+00 0.623E+01
   0.293E+02 -.429E-03 -.196E+04   -.301E+02 0.568E-04 0.196E+04   0.822E+00 0.275E-03 0.634E+01
   -.144E-04 0.222E-04 0.210E+04   0.149E-04 -.213E-04 -.209E+04   -.362E-06 -.760E-06 -.702E+01
   -.433E-01 -.778E+00 0.210E+04   0.437E-01 0.814E+00 -.209E+04   0.208E-03 -.256E-01 -.720E+01
   -.675E-04 -.621E+01 0.746E+03   0.709E-04 0.648E+01 -.747E+03   -.232E-05 -.184E+00 0.668E+00
   -.265E+01 0.112E-03 0.751E+03   0.270E+01 -.110E-03 -.751E+03   -.209E-01 -.162E-05 0.824E+00
   -.481E-04 0.202E-03 -.572E+03   0.542E-04 -.202E-03 0.567E+03   -.633E-05 -.489E-05 0.483E+01
   -.565E+01 -.860E+01 -.591E+03   0.509E+01 0.882E+01 0.593E+03   0.574E+00 -.220E+00 -.125E+01
   0.123E-05 -.859E+02 -.189E+04   -.576E-05 0.891E+02 0.189E+04   0.469E-05 -.322E+01 0.148E+01
   -.496E+02 -.361E-03 -.188E+04   0.553E+02 0.827E-03 0.188E+04   -.562E+01 -.328E-03 0.701E+01
   -.145E-04 -.221E-04 0.210E+04   0.148E-04 0.214E-04 -.209E+04   -.270E-06 0.650E-06 -.721E+01
   -.433E-01 0.778E+00 0.210E+04   0.437E-01 -.814E+00 -.209E+04   0.208E-03 0.256E-01 -.720E+01
   -.699E-04 0.621E+01 0.746E+03   0.735E-04 -.648E+01 -.747E+03   -.241E-05 0.184E+00 0.668E+00
   0.104E+01 -.117E-03 0.747E+03   -.112E+01 0.116E-03 -.747E+03   0.575E-01 0.989E-06 0.464E+00
   -.516E-04 -.418E-03 -.598E+03   0.486E-04 0.386E-03 0.599E+03   0.324E-05 0.229E-04 -.499E+00
   -.565E+01 0.860E+01 -.591E+03   0.509E+01 -.882E+01 0.593E+03   0.574E+00 0.220E+00 -.125E+01
   -.193E-04 0.859E+02 -.189E+04   0.142E-04 -.891E+02 0.189E+04   0.507E-05 0.322E+01 0.148E+01
   -.293E+02 -.452E-03 -.196E+04   0.301E+02 0.781E-04 0.196E+04   -.822E+00 0.277E-03 0.634E+01
   0.405E-04 0.439E-04 0.565E+03   -.394E-04 -.310E-04 -.565E+03   -.142E-05 -.166E-04 0.311E+00
   0.321E+00 -.216E+01 0.560E+03   -.436E+00 0.225E+01 -.559E+03   0.153E+00 -.136E+00 -.331E+00
   0.108E-04 -.450E+00 0.158E+04   -.113E-04 0.484E+00 -.158E+04   0.689E-06 -.475E-01 0.339E+01
   0.200E+00 0.168E-04 0.158E+04   -.210E+00 -.157E-04 -.158E+04   0.132E-01 -.164E-05 0.346E+01
   -.380E-04 0.251E-04 -.149E+04   0.405E-04 0.136E-03 0.149E+04   -.283E-05 -.224E-03 -.508E+01
   0.379E+02 -.293E+02 -.145E+04   -.371E+02 0.295E+02 0.146E+04   -.853E+00 -.104E+00 -.511E+01
   0.348E-04 -.616E+01 -.437E+03   -.366E-04 0.624E+01 0.437E+03   0.115E-05 -.782E-01 0.514E-01
   0.390E+01 0.953E-04 -.431E+03   -.419E+01 -.329E-04 0.430E+03   0.296E+00 -.881E-04 0.834E+00
   0.463E-04 -.558E-04 0.561E+03   -.471E-04 0.463E-04 -.561E+03   0.914E-06 0.126E-04 -.768E-01
   0.321E+00 0.216E+01 0.560E+03   -.436E+00 -.225E+01 -.559E+03   0.153E+00 0.136E+00 -.331E+00
   0.110E-04 0.450E+00 0.158E+04   -.115E-04 -.484E+00 -.158E+04   0.681E-06 0.475E-01 0.339E+01
   -.117E+00 -.171E-04 0.158E+04   0.121E+00 0.159E-04 -.158E+04   -.533E-02 0.171E-05 0.337E+01
   0.156E-04 -.136E-03 -.150E+04   -.171E-04 -.235E-04 0.151E+04   0.194E-05 0.222E-03 -.496E+01
   0.379E+02 0.294E+02 -.145E+04   -.371E+02 -.295E+02 0.146E+04   -.853E+00 0.104E+00 -.511E+01
   0.399E-04 0.616E+01 -.437E+03   -.400E-04 -.624E+01 0.437E+03   0.568E-06 0.782E-01 0.516E-01
   0.305E+01 -.162E-03 -.440E+03   -.317E+01 0.927E-04 0.440E+03   0.123E+00 0.950E-04 0.309E+00
   -.441E-04 0.712E-04 0.571E+03   0.432E-04 -.660E-04 -.571E+03   0.141E-05 -.819E-05 0.512E+00
   -.321E+00 -.216E+01 0.560E+03   0.436E+00 0.225E+01 -.559E+03   -.153E+00 -.136E+00 -.331E+00
   -.109E-04 -.767E+00 0.158E+04   0.113E-04 0.814E+00 -.158E+04   -.669E-06 -.661E-01 0.341E+01
   -.200E+00 0.169E-04 0.158E+04   0.210E+00 -.159E-04 -.158E+04   -.132E-01 -.162E-05 0.346E+01
   0.220E-04 -.500E-02 -.123E+04   -.217E-04 0.722E-02 0.121E+04   0.423E-06 -.268E-02 0.226E+02
   -.379E+02 -.293E+02 -.145E+04   0.371E+02 0.295E+02 0.146E+04   0.853E+00 -.104E+00 -.511E+01
   -.383E-04 -.863E+01 -.458E+03   0.383E-04 0.904E+01 0.460E+03   0.446E-06 -.409E+00 -.179E+01
   -.390E+01 0.965E-04 -.431E+03   0.419E+01 -.343E-04 0.430E+03   -.296E+00 -.887E-04 0.834E+00
   -.467E-04 -.699E-04 0.556E+03   0.472E-04 0.627E-04 -.556E+03   -.445E-06 0.109E-04 -.283E+00
   -.321E+00 0.216E+01 0.560E+03   0.436E+00 -.225E+01 -.559E+03   -.153E+00 0.136E+00 -.331E+00
   -.111E-04 0.767E+00 0.158E+04   0.116E-04 -.814E+00 -.158E+04   -.677E-06 0.661E-01 0.341E+01
   0.117E+00 -.173E-04 0.158E+04   -.121E+00 0.161E-04 -.158E+04   0.533E-02 0.168E-05 0.337E+01
   -.148E-04 -.177E-02 -.146E+04   0.161E-04 0.148E-02 0.146E+04   -.188E-05 0.425E-03 -.401E+01
   -.379E+02 0.294E+02 -.145E+04   0.371E+02 -.295E+02 0.146E+04   0.853E+00 0.104E+00 -.511E+01
   -.450E-04 0.863E+01 -.458E+03   0.447E-04 -.904E+01 0.460E+03   0.780E-06 0.409E+00 -.179E+01
   -.305E+01 -.178E-03 -.440E+03   0.317E+01 0.108E-03 0.440E+03   -.123E+00 0.953E-04 0.309E+00
   0.293E-04 -.912E-02 0.548E+02   -.391E-13 -.583E-12 -.438E-11   -.304E-04 0.943E-02 -.548E+02

 POSITION                                       TOTAL-FORCE (eV/Angst)
      4.22049      6.33068     15.44229        -0.000000      0.009392      0.002613
      4.22049      7.48651     15.93687        -0.000000     -0.001182     -0.007144
      4.22049      5.17505     15.93684         0.000001     -0.007488     -0.003388
      0.00000      6.33074      7.50000        -0.000000     -0.000004      0.319775
      2.11025      0.00000      7.50000        -0.000677      0.009937      0.345021
      0.00000      0.00000      9.61025        -0.000001      0.043628      0.115244
      2.11025      6.33074      9.61025        -0.024618     -0.000004      0.037916
     -0.00000      6.33074     11.70770        -0.000000      0.000018     -0.001725
      2.12746      0.00639     11.74873        -0.000502      0.001198      0.000563
      0.00000      0.01951     13.83398        -0.000000     -0.000391     -0.001453
      2.00198      6.33074     13.80873        -0.002416      0.000130      0.001170
      0.00000      2.11025      7.50000        -0.000000     -0.000005      0.346367
      2.11025      4.22049      7.50000        -0.000677     -0.009946      0.345020
      0.00000      4.22049      9.61025        -0.000001     -0.043639      0.115230
      2.11025      2.11025      9.61025         0.022360     -0.000005      0.113416
      0.00000      2.11025     11.72390        -0.000000     -0.000022     -0.000772
      2.12746      4.21411     11.74874        -0.000487     -0.001204      0.000483
      0.00000      4.20098     13.83399        -0.000000      0.000382     -0.001475
      2.09055      2.11025     13.84219         0.000307     -0.000100      0.003784
      4.22049      6.33074      7.50000         0.000000     -0.000004      0.305452
      6.33074      0.00000      7.50000         0.000677      0.009937      0.345021
      4.22049      0.00000      9.61025         0.000001      0.090825      0.128723
      6.33074      6.33074      9.61025         0.024618     -0.000004      0.037917
      4.22049      6.33074     11.68401        -0.000000     -0.000010     -0.000945
      6.31352      0.00639     11.74873         0.000503      0.001198      0.000563
      4.22049      0.09461     14.03823         0.000000      0.000355     -0.000176
      6.43900      6.33074     13.80874         0.002416      0.000131      0.001171
      4.22049      2.11025      7.50000         0.000000     -0.000005      0.347709
      6.33074      4.22049      7.50000         0.000677     -0.009946      0.345020
      4.22049      4.22049      9.61025         0.000001     -0.090833      0.128716
      6.33074      2.11025      9.61025        -0.022360     -0.000005      0.113418
      4.22049      2.11025     11.75624         0.000000     -0.000013      0.001521
      6.31352      4.21411     11.74874         0.000487     -0.001204      0.000484
      4.22049      4.12589     14.03823        -0.000000     -0.000743     -0.000815
      6.35044      2.11025     13.84219        -0.000307     -0.000099      0.003785
      0.00000      6.33074      9.61025        -0.000000     -0.000008      0.067577
      2.11025      0.00000      9.61025         0.036967     -0.041829      0.079076
      0.00000      0.00000      7.50000         0.000000     -0.013407     -0.503871
      2.11025      6.33074      7.50000         0.003880     -0.000005     -0.486855
      0.00000      6.33074     13.85236        -0.000000     -0.000068     -0.002518
      2.09470     -0.01264     13.85928         0.000108     -0.000246     -0.000446
      0.00000     -0.00458     11.71794        -0.000001     -0.000458     -0.001569
      2.12978      6.33074     11.73761         0.000978     -0.000030     -0.001067
      0.00000      2.11025      9.61025         0.000000     -0.000002      0.034307
      2.11025      4.22049      9.61025         0.036967      0.041820      0.079084
      0.00000      4.22049      7.50000         0.000000      0.013398     -0.503870
      2.11025      2.11025      7.50000        -0.001691     -0.000004     -0.510603
      0.00000      2.11025     13.86794         0.000000      0.000058     -0.001349
      2.09470      4.23313     13.85927         0.000283      0.000330     -0.000233
      0.00000      4.22508     11.71794         0.000001      0.000452     -0.001520
      2.11475      2.11025     11.72990        -0.000236      0.000021      0.000377
      4.22049      6.33074      9.61025         0.000000     -0.000008     -0.018731
      6.33074      0.00000      9.61025        -0.036967     -0.041829      0.079077
      4.22049      0.00000      7.50000        -0.000000     -0.018994     -0.500519
      6.33074      6.33074      7.50000        -0.003880     -0.000005     -0.486855
      4.22049      6.33075     13.97279         0.000001     -0.000459     -0.006737
      6.34628     -0.01264     13.85928        -0.000108     -0.000246     -0.000446
      4.22049     -0.01942     11.75528         0.000000     -0.000796      0.000257
      6.31120      6.33074     11.73761        -0.000978     -0.000031     -0.001068
      4.22049      2.11025      9.61025         0.000000     -0.000001      0.131978
      6.33074      4.22049      9.61025        -0.036967      0.041820      0.079085
      4.22049      4.22049      7.50000        -0.000000      0.018985     -0.500518
      6.33074      2.11025      7.50000         0.001691     -0.000004     -0.510604
      4.22049      2.11025     13.90047        -0.000001      0.000135     -0.000089
      6.34628      4.23313     13.85927        -0.000283      0.000330     -0.000233
      4.22049      4.23991     11.75528         0.000000      0.000791      0.000296
      6.32623      2.11025     11.72990         0.000236      0.000021      0.000377
    total drift:                               -0.000001      0.000310     -0.005177

  FREE ENERGIE OF THE ION-ELECTRON SYSTEM (eV)
  free  energy   TOTEN  =      -394.31441027 eV

  energy  without entropy=     -394.31441027  energy(sigma->0) =     -394.31441027

 d Force = 0.3185700E-05[ 0.611E-06, 0.576E-05]  d Energy = 0.3167010E-05 0.187E-07
 d Force =-0.6550138E-01[-0.655E-01,-0.655E-01]  d Ewald  =-0.6550138E-01 0.119E-08

 Conjugate gradient step on ions:
 trial-energy change:   -0.000003  1 .order   -0.000003   -0.000006   -0.000001
  (g-gl).g = 0.209E-04      g.g   = 0.200E-04  gl.gl    = 0.317E-04
 g(Force)  = 0.200E-04   g(Stress)= 0.000E+00 ortho     =-0.110E-05
 gamma     =   0.65919
 trial     =   0.29880
 opt step  =   0.33424  (harmonic =   0.33424) maximal distance =0.00013711
 next E    =  -394.314410   (d E  =  -0.00000)

 reached required accuracy - stopping structural energy minimisation