 vasp.6.3.0 20Jan22 (build Mar 11 2022 13:48:16) complex

 executed on             LinuxIFC date 2023.12.26  17:33:34

 INCAR:
   SYSTEM = MgO-rocksalt
   ISMEAR = 0
   SIGMA = 0.05
   EDIFF = 1E-5
   ALGO = ALL
   ISTART = 0
   IBRION = -1
   NSW = 0
   ISYM = 2
   ISIF = 2
   DIPOL = 0.5 0.5 0.5
   IDIPOL = 3
   LDIPOL = .TRUE.
   GGA = MK
   LUSE_VDW = .TRUE.
   PARAM1 = 0.1234
   PARAM2 = 0.711357
   ZAB_VDW = -1.8867
   AGGAC = 0.0
   ENCUT = 600
   PREC = Accurate
   LASPH = .TRUE.
   LREAL = .FALSE.
   ISPIN = 1
   NELM = 200
   NELMIN = 8
   NCORE = 2
   KPAR = 1
   LWAVE = .FALSE.
   LCHARG = .FALSE.

 POTCAR:    PAW_PBE Mg_pv 13Apr2007
 POTCAR:    PAW_PBE O 08Apr2002
|           W    W    AA    RRRRR   N    N  II  N    N   GGGG   !!!           |
|           W    W   A  A   R    R  NN   N  II  NN   N  G    G  !!!           |
|           W    W  A    A  R    R  N N  N  II  N N  N  G       !!!           |
|           W WW W  AAAAAA  RRRRR   N  N N  II  N  N N  G  GGG   !            |
|           WW  WW  A    A  R   R   N   NN  II  N   NN  G    G                |
|           W    W  A    A  R    R  N    N  II  N    N   GGGG   !!!           |
|     For optimal performance we recommend to set                             |
|       NCORE = 2 up to number-of-cores-per-socket                            |
|     This setting can greatly improve the performance of VASP for DFT.       |
|     The default, NCORE=1 might be grossly inefficient on modern             |
|     multi-core architectures or massively parallel machines. Do your        |
|     Unfortunately you need to use the default for GW and RPA                |
|     calculations (for HF NCORE is supported but not extensively tested      |
|     yet).                                                                   |

   TITEL  = PAW_PBE Mg_pv 13Apr2007
   POMASS =   24.305; ZVAL   =    8.000    mass and valenz
   ENMAX  =  403.929; ENMIN  =  302.947 eV

   TITEL  = PAW_PBE O 08Apr2002
   POMASS =   16.000; ZVAL   =    6.000    mass and valenz
   ENMAX  =  400.000; ENMIN  =  300.000 eV

  PAW_PBE Mg_pv 13Apr2007               :
  PAW_PBE O 08Apr2002                   :

 POSCAR: Mg  O
  positions in direct lattice
 exchange correlation table for  LEXCH =       43
   RHO(1)=    0.500       N(1)  =     2000
   RHO(2)=  100.500       N(2)  =     4000

 ion  position               nearest neighbor table
   1  0.250  0.000  0.352-  35 2.10  36 2.10  43 2.10  52 2.10  33 2.10
   2  0.500  0.250  0.352-  35 2.10  36 2.10  44 2.10  51 2.10  34 2.10
   3  0.250  0.250  0.451-  33 2.10  34 2.10  41 2.10  50 2.10  35 2.10  39 2.11
   4  0.500  0.000  0.451-  33 2.10  34 2.10  42 2.10  49 2.10  36 2.10  40 2.11
   5  0.250  0.000  0.550-  40 2.10  39 2.10  47 2.10  56 2.10  33 2.11  37 2.13
   6  0.500  0.251  0.550-  48 2.10  39 2.10  55 2.10  40 2.11  34 2.12  38 2.13
   7  0.250  0.250  0.647-  39 2.09  37 2.10  54 2.10  45 2.10  38 2.10
   8  0.500  0.000  0.648-  40 2.09  38 2.09  46 2.09  37 2.10  53 2.10
   9  0.250  0.500  0.352-  35 2.10  43 2.10  44 2.10  60 2.10  41 2.10
  10  0.500  0.750  0.352-  36 2.10  43 2.10  44 2.10  59 2.10  42 2.10
  11  0.250  0.750  0.451-  33 2.10  41 2.10  42 2.10  58 2.10  43 2.10  47 2.11
  12  0.500  0.500  0.451-  34 2.10  41 2.10  42 2.10  57 2.10  44 2.10  48 2.12
  13  0.251  0.500  0.550-  48 2.10  47 2.10  39 2.10  64 2.11  41 2.12  45 2.13
  14  0.500  0.749  0.550-  48 2.10  47 2.10  63 2.10  40 2.11  42 2.12  46 2.13
  15  0.250  0.750  0.647-  47 2.09  37 2.10  62 2.10  45 2.10  46 2.10
  16  0.500  0.500  0.650-  38 2.11  45 2.11  46 2.11  61 2.11  48 2.13
  17  0.750  0.000  0.352-  36 2.10  51 2.10  52 2.10  59 2.10  49 2.10
  18  0.000  0.250  0.352-  35 2.10  51 2.10  52 2.10  60 2.10  50 2.10
  19  0.750  0.250  0.451-  34 2.10  49 2.10  50 2.10  57 2.10  51 2.10  55 2.11
  20  0.000  0.000  0.451-  33 2.10  49 2.10  50 2.10  58 2.10  52 2.10  56 2.11
  21  0.750  0.000  0.550-  40 2.10  55 2.10  63 2.10  56 2.10  49 2.11  53 2.13
  22  0.000  0.250  0.550-  64 2.10  55 2.10  39 2.10  56 2.10  50 2.11  54 2.13
  23  0.750  0.250  0.647-  55 2.09  54 2.10  53 2.10  38 2.10  61 2.10
  24  0.000  0.000  0.648-  56 2.09  53 2.10  54 2.10  37 2.10  62 2.10
  25  0.750  0.500  0.352-  44 2.10  51 2.10  59 2.10  60 2.10  57 2.10
  26  0.000  0.750  0.352-  43 2.10  52 2.10  59 2.10  60 2.10  58 2.10
  27  0.750  0.750  0.451-  42 2.10  49 2.10  57 2.10  58 2.10  59 2.10  63 2.11
  28  0.000  0.500  0.451-  41 2.10  50 2.10  57 2.10  58 2.10  60 2.10  64 2.11
  29  0.749  0.500  0.550-  48 2.10  55 2.10  63 2.10  64 2.11  57 2.12  61 2.13
  30  0.000  0.750  0.550-  64 2.10  63 2.10  47 2.10  56 2.10  58 2.11  62 2.13
  31  0.750  0.750  0.647-  63 2.09  62 2.10  53 2.10  46 2.10  61 2.10
  32  0.000  0.500  0.648-  64 2.09  61 2.09  45 2.09  62 2.10  54 2.10
  33  0.250  0.000  0.451-   3 2.10   4 2.10  11 2.10  20 2.10   1 2.10   5 2.11
  34  0.500  0.250  0.451-   3 2.10   4 2.10  12 2.10  19 2.10   2 2.10   6 2.12
  35  0.250  0.250  0.352-   1 2.10   2 2.10   9 2.10  18 2.10   3 2.10
  36  0.500  0.000  0.352-   1 2.10   2 2.10  10 2.10  17 2.10   4 2.10
  37  0.250  0.000  0.650-  24 2.10  15 2.10   7 2.10   8 2.10   5 2.13
  38  0.500  0.249  0.650-   8 2.09   7 2.10  23 2.10  16 2.11   6 2.13
  39  0.250  0.250  0.550-   7 2.09   5 2.10  22 2.10  13 2.10   6 2.10   3 2.11
  40  0.500  0.000  0.549-   8 2.09   5 2.10  21 2.10   4 2.11  14 2.11   6 2.11
  41  0.250  0.500  0.451-   3 2.10  11 2.10  12 2.10  28 2.10   9 2.10  13 2.12
  42  0.500  0.750  0.451-   4 2.10  11 2.10  12 2.10  27 2.10  10 2.10  14 2.12
  43  0.250  0.750  0.352-   1 2.10   9 2.10  10 2.10  26 2.10  11 2.10
  44  0.500  0.500  0.352-   2 2.10   9 2.10  10 2.10  25 2.10  12 2.10
  45  0.249  0.500  0.650-  32 2.09  15 2.10   7 2.10  16 2.11  13 2.13
  46  0.500  0.751  0.650-   8 2.09  15 2.10  31 2.10  16 2.11  14 2.13
  47  0.250  0.750  0.550-  15 2.09   5 2.10  30 2.10  13 2.10  14 2.10  11 2.11
  48  0.500  0.500  0.550-   6 2.10  13 2.10  14 2.10  29 2.10  12 2.12  16 2.13
  49  0.750  0.000  0.451-   4 2.10  19 2.10  20 2.10  27 2.10  17 2.10  21 2.11
  50  0.000  0.250  0.451-   3 2.10  19 2.10  20 2.10  28 2.10  18 2.10  22 2.11
  51  0.750  0.250  0.352-   2 2.10  17 2.10  18 2.10  25 2.10  19 2.10
  52  0.000  0.000  0.352-   1 2.10  17 2.10  18 2.10  26 2.10  20 2.10
  53  0.750  0.000  0.650-  24 2.10  23 2.10  31 2.10   8 2.10  21 2.13
  54  0.000  0.250  0.650-  24 2.10  23 2.10   7 2.10  32 2.10  22 2.13
  55  0.750  0.250  0.550-  23 2.09  22 2.10  21 2.10   6 2.10  29 2.10  19 2.11
  56  0.000  0.000  0.550-  24 2.09  21 2.10  22 2.10   5 2.10  30 2.10  20 2.11
  57  0.750  0.500  0.451-  12 2.10  19 2.10  27 2.10  28 2.10  25 2.10  29 2.12
  58  0.000  0.750  0.451-  11 2.10  20 2.10  27 2.10  28 2.10  26 2.10  30 2.11
  59  0.750  0.750  0.352-  10 2.10  17 2.10  25 2.10  26 2.10  27 2.10
  60  0.000  0.500  0.352-   9 2.10  18 2.10  25 2.10  26 2.10  28 2.10
  61  0.751  0.500  0.650-  32 2.09  31 2.10  23 2.10  16 2.11  29 2.13
  62  0.000  0.750  0.650-  24 2.10  15 2.10  31 2.10  32 2.10  30 2.13
  63  0.750  0.750  0.550-  31 2.09  30 2.10  21 2.10  14 2.10  29 2.10  27 2.11
  64  0.000  0.500  0.549-  32 2.09  30 2.10  22 2.10  28 2.11  13 2.11  29 2.11

  LATTYP: Found a simple tetragonal cell.
 ALAT       =     8.4048619950
 C/A-ratio  =     2.5346812963

  Lattice vectors:

 A1 = (   8.4048619950,   0.0000000000,   0.0000000000)
 A2 = (   0.0000000000,   8.4048619950,   0.0000000000)
 A3 = (   0.0000000000,   0.0000000000,  21.3036464962)

Analysis of symmetry for initial positions (statically):
 Subroutine PRICEL returns:
 Original cell was already a primitive cell.

 Routine SETGRP: Setting up the symmetry group for a
 simple tetragonal supercell.

 Subroutine GETGRP returns: Found  8 space group operations
 (whereof  8 operations were pure point group operations)
 out of a pool of 16 trial point group operations.

The static configuration has the point symmetry C_4v.

Analysis of symmetry for dynamics (positions and initial velocities):
 Subroutine PRICEL returns:
 Original cell was already a primitive cell.

[...]

The dynamic configuration has the point symmetry C_4v.

Analysis of constrained symmetry for selective dynamics:
 Subroutine PRICEL returns:
 Original cell was already a primitive cell.

 Routine SETGRP: Setting up the symmetry group for a
 simple tetragonal supercell.

 Subroutine GETGRP returns: Found  8 space group operations
 (whereof  8 operations were pure point group operations)
 out of a pool of 16 trial point group operations.

The constrained configuration has the point symmetry C_4v.

 Subroutine INISYM returns: Found  8 space group operations
 (whereof  8 operations are pure point group operations),
 and found     1 'primitive' translations

                                     Primitive cell

  volume of cell :    1504.9259

  direct lattice vectors                    reciprocal lattice vectors
     8.404861995  0.000000000  0.000000000     0.118978753  0.000000000  0.000000000
     0.000000000  8.404861995  0.000000000     0.000000000  0.118978753  0.000000000
     0.000000000  0.000000000 21.303646496     0.000000000  0.000000000  0.046940321

  length of vectors
     8.404861995  8.404861995 21.303646496     0.118978753  0.118978753  0.046940321

  position of ions in fractional coordinates (direct lattice)
     0.250000000  0.000000000  0.352052406
     0.500000000  0.250000000  0.352052406
     0.250000000  0.250000000  0.450684135
     0.500000000  0.000000000  0.450684135
     0.250107473  0.000000000  0.549739955
     0.500000000  0.250518132  0.550013704
     0.249743486  0.249743486  0.647447924
     0.500000000  0.000000000  0.647579443
     0.250000000  0.500000000  0.352052406
     0.500000000  0.750000000  0.352052406
     0.250000000  0.750000000  0.450684135
     0.500000000  0.500000000  0.450684135
     0.250518132  0.500000000  0.550013704
     0.500000000  0.749481868  0.550013704
     0.249743486  0.750256514  0.647447924
     0.500000000  0.500000000  0.650192045
     0.750000000  0.000000000  0.352052406
     0.000000000  0.250000000  0.352052406
     0.750000000  0.250000000  0.450684135
     0.000000000  0.000000000  0.450684135
     0.749892527  0.000000000  0.549739955
     0.000000000  0.250107473  0.549739955
     0.750256514  0.249743486  0.647447924
     0.000000000  0.000000000  0.647677188
     0.750000000  0.500000000  0.352052406
     0.000000000  0.750000000  0.352052406
     0.750000000  0.750000000  0.450684135
     0.000000000  0.500000000  0.450684135
     0.749481868  0.500000000  0.550013704
     0.000000000  0.749892527  0.549739955
     0.750256514  0.750256514  0.647447924
     0.000000000  0.500000000  0.647579443
     0.250000000  0.000000000  0.450684135
     0.500000000  0.250000000  0.450684135
     0.250000000  0.250000000  0.352052406
     0.500000000  0.000000000  0.352052406
     0.249742882  0.000000000  0.649806243
     0.500000000  0.248885363  0.649916189
     0.249962043  0.249962043  0.549551754
     0.500000000  0.000000000  0.549498077
     0.250000000  0.500000000  0.450684135
[...]
   0.75000000  0.50000000  0.45068414
   0.00000000  0.75000000  0.45068414
   0.75000000  0.75000000  0.35205241
   0.00000000  0.50000000  0.35205241
   0.75111464  0.50000000  0.64991619
   0.00000000  0.75025712  0.64980624
   0.75003796  0.75003796  0.54955175
   0.00000000  0.50000000  0.54949808

 position of ions in cartesian coordinates  (Angst):
   2.10121550  0.00000000  7.50000000
   4.20243100  2.10121550  7.50000000
   2.10121550  2.10121550  9.60121550
   4.20243100  0.00000000  9.60121550
   2.10211880  0.00000000 11.71146566
   4.20243100  2.10557033 11.71729751
   2.09905953  2.09905953 13.79300169
   4.20243100  0.00000000 13.79580352
   2.10121550  4.20243100  7.50000000
   4.20243100  6.30364650  7.50000000
   2.10121550  6.30364650  9.60121550
   4.20243100  4.20243100  9.60121550
   2.10557033  4.20243100 11.71729751
   4.20243100  6.29929167 11.71729751
   2.09905953  6.30580246 13.79300169
   4.20243100  4.20243100 13.85146147
   6.30364650  0.00000000  7.50000000
   0.00000000  2.10121550  7.50000000
   6.30364650  2.10121550  9.60121550
   0.00000000  0.00000000  9.60121550
   6.30274320  0.00000000 11.71146566
   0.00000000  2.10211880 11.71146566
   6.30580246  2.09905953 13.79300169
   0.00000000  0.00000000 13.79788585
   6.30364650  4.20243100  7.50000000
   0.00000000  6.30364650  7.50000000
   6.30364650  6.30364650  9.60121550
   0.00000000  4.20243100  9.60121550
   6.29929167  4.20243100 11.71729751
   0.00000000  6.30274320 11.71146566
   6.30580246  6.30580246 13.79300169
   0.00000000  4.20243100 13.79580352
   2.10121550  0.00000000  9.60121550
   4.20243100  2.10121550  9.60121550
   2.10121550  2.10121550  7.50000000
   4.20243100  0.00000000  7.50000000
   2.09905446  0.00000000 13.84324249
   4.20243100  2.09184713 13.84558474
   2.10089647  2.10089647 11.70745629
   4.20243100  0.00000000 11.70631278
   2.10121550  4.20243100  9.60121550
   4.20243100  6.30364650  9.60121550
   2.10121550  6.30364650  7.50000000
   4.20243100  4.20243100  7.50000000
   2.09184713  4.20243100 13.84558474
   4.20243100  6.31301486 13.84558474
   2.10089647  6.30396552 11.70745629
   4.20243100  4.20243100 11.71715660
   6.30364650  0.00000000  9.60121550
   0.00000000  2.10121550  9.60121550
   6.30364650  2.10121550  7.50000000
   0.00000000  0.00000000  7.50000000
   6.30580754  0.00000000 13.84324249
   0.00000000  2.09905446 13.84324249
   6.30396552  2.10089647 11.70745629
   0.00000000  0.00000000 11.70673204
   6.30364650  4.20243100  9.60121550
   0.00000000  6.30364650  9.60121550
   6.30364650  6.30364650  7.50000000
   0.00000000  4.20243100  7.50000000
   6.31301486  4.20243100 13.84558474
   0.00000000  6.30580754 13.84324249
   6.30396552  6.30396552 11.70745629
   0.00000000  4.20243100 11.70631278

--------------------------------------- Iteration      FINAL  ---------------------------------------

--------------------OUTCAR has been truncated-------------------------

[...]

--------------------OUTCAR has been truncated-------------------------

  FORCE on cell =-STRESS in cart. coord.  units (eV):
  Direction    XX          YY          ZZ          XY          YZ          ZX
  Alpha Z   883.92154   883.92154   883.92154
  Ewald  163361.10479163361.10479************    -0.00000    -0.00000     0.00000
  Hartree173364.51227173364.51227************    -0.00000    -0.00000    -0.00000
  E(xc)   -2457.65994 -2457.65994 -2457.75625     0.00000    -0.00000     0.00000
  Local  ************************347114.03153    -0.00000     0.00000    -0.00000
  n-local -2830.80762 -2831.63687 -2850.55623     0.00000    -0.00000    -0.00000
  augment  1051.42093  1051.42093  1042.01384     0.00000    -0.00000    -0.00000
  Kinetic  7310.92644  7313.54682  7349.88626    -0.00001     0.00000    -0.00000
  Fock        0.00000     0.00000     0.00000     0.00000     0.00000     0.00000
  Total     -22.42968   -22.42968     3.22208     0.00000     0.00000     0.00000
  in kB     -23.87913   -23.87913     3.43030     0.00000     0.00000     0.00000

 VOLUME and BASIS-vectors are now :
  energy-cutoff  :      600.00
  volume of cell :     1504.93
      direct lattice vectors                 reciprocal lattice vectors
     8.404861995  0.000000000  0.000000000     0.118978753  0.000000000  0.000000000
     0.000000000  8.404861995  0.000000000     0.000000000  0.118978753  0.000000000
     0.000000000  0.000000000 21.303646496     0.000000000  0.000000000  0.046940321

  length of vectors
     8.404861995  8.404861995 21.303646496     0.118978753  0.118978753  0.046940321

 FORCES acting on ions:
    Electron-Ion                     Ewald-Force                    Non-Local-Force
   -.120E+00 -.122E-12 0.209E+04   0.121E+00 -.279E-13 -.208E+04   -.987E-03 0.254E-22 -.681E+01
   0.656E-12 -.154E+00 0.209E+04   0.170E-13 0.158E+00 -.208E+04   0.110E-21 -.289E-02 -.682E+01
   -.645E+00 -.645E+00 0.692E+03   0.663E+00 0.663E+00 -.693E+03   -.118E-01 -.118E-01 0.453E+00
   0.607E-12 -.304E-12 0.692E+03   0.615E-13 -.425E-13 -.693E+03   0.159E-22 -.338E-22 0.406E+00
   -.479E+00 -.186E-12 -.695E+03   0.475E+00 0.904E-14 0.696E+03   -.567E-02 0.299E-22 -.245E+00
   0.601E-12 -.183E+01 -.699E+03   -.180E-12 0.197E+01 0.699E+03   0.412E-22 -.135E+00 -.298E+00
   -.156E+01 -.156E+01 -.207E+04   0.139E+01 0.139E+01 0.207E+04   0.152E+00 0.152E+00 0.589E+01
   0.689E-12 0.825E-12 -.207E+04   -.125E-12 0.370E-14 0.207E+04   0.315E-23 -.448E-23 0.581E+01
   -.154E+00 0.453E-12 0.209E+04   0.158E+00 -.973E-13 -.208E+04   -.289E-02 -.360E-22 -.682E+01
   0.670E-12 0.154E+00 0.209E+04   0.191E-13 -.158E+00 -.208E+04   -.786E-22 0.289E-02 -.682E+01
   -.645E+00 0.645E+00 0.692E+03   0.663E+00 -.663E+00 -.693E+03   -.118E-01 0.118E-01 0.453E+00
   0.599E-12 0.389E-12 0.690E+03   -.145E-11 -.157E-11 -.690E+03   0.168E-22 -.149E-22 0.551E+00
   -.183E+01 -.115E-12 -.699E+03   0.197E+01 0.155E-10 0.699E+03   -.135E+00 0.149E-22 -.298E+00
   0.603E-12 0.183E+01 -.699E+03   0.137E-11 -.197E+01 0.699E+03   -.316E-23 0.135E+00 -.298E+00
   -.156E+01 0.156E+01 -.207E+04   0.139E+01 -.139E+01 0.207E+04   0.152E+00 -.152E+00 0.589E+01
   0.689E-12 0.230E-12 -.210E+04   -.120E-10 -.710E-13 0.209E+04   0.350E-23 -.531E-22 0.627E+01
   0.120E+00 -.156E-12 0.209E+04   -.121E+00 -.443E-13 -.208E+04   0.987E-03 0.809E-22 -.681E+01
   -.348E-13 -.120E+00 0.209E+04   0.316E-13 0.121E+00 -.208E+04   -.332E-22 -.987E-03 -.681E+01
   0.645E+00 -.645E+00 0.692E+03   -.663E+00 0.663E+00 -.693E+03   0.118E-01 -.118E-01 0.453E+00
   -.705E-13 -.595E-12 0.693E+03   0.313E-11 -.451E-13 -.693E+03   -.116E-22 -.594E-23 0.414E+00
   0.479E+00 -.237E-12 -.695E+03   -.475E+00 0.282E-15 0.696E+03   0.567E-02 -.430E-22 -.245E+00
   -.486E-13 -.479E+00 -.695E+03   0.628E-13 0.475E+00 0.696E+03   -.339E-22 -.567E-02 -.245E+00
   0.156E+01 -.156E+01 -.207E+04   -.139E+01 0.139E+01 0.207E+04   -.152E+00 0.152E+00 0.589E+01
   -.414E-13 -.264E-12 -.208E+04   -.103E-12 -.586E-13 0.207E+04   0.621E-23 -.834E-23 0.587E+01
   0.154E+00 0.248E-11 0.209E+04   -.158E+00 -.809E-13 -.208E+04   0.289E-02 0.152E-21 -.682E+01
   -.482E-13 0.120E+00 0.209E+04   -.552E-14 -.121E+00 -.208E+04   -.154E-22 0.987E-03 -.681E+01
   0.645E+00 0.645E+00 0.692E+03   -.663E+00 -.663E+00 -.693E+03   0.118E-01 0.118E-01 0.453E+00
   -.606E-13 -.152E-12 0.692E+03   0.146E-11 -.159E-11 -.693E+03   -.305E-22 -.243E-22 0.406E+00
   0.183E+01 0.158E-11 -.699E+03   -.197E+01 0.155E-10 0.699E+03   0.135E+00 0.358E-22 -.298E+00
   -.476E-13 0.479E+00 -.695E+03   0.850E-13 -.475E+00 0.696E+03   0.235E-22 0.567E-02 -.245E+00
   0.156E+01 0.156E+01 -.207E+04   -.139E+01 -.139E+01 0.207E+04   -.152E+00 -.152E+00 0.589E+01
   -.387E-13 0.480E-12 -.207E+04   -.110E-12 -.354E-13 0.207E+04   -.171E-22 -.387E-23 0.581E+01
   -.304E+00 -.357E-12 0.519E+03   0.306E+00 -.838E-14 -.519E+03   -.317E-02 -.665E-23 -.587E-01
   0.270E-12 -.502E+00 0.518E+03   -.112E-12 0.474E+00 -.518E+03   0.510E-22 0.369E-01 -.107E+00
   -.105E+00 -.105E+00 0.157E+04   0.107E+00 0.107E+00 -.157E+04   -.328E-02 -.328E-02 0.360E+01
   0.332E-12 -.812E-13 0.157E+04   0.102E-13 -.219E-13 -.157E+04   0.414E-22 0.774E-23 0.360E+01
   -.600E+00 0.920E-12 -.158E+04   0.634E+00 0.765E-13 0.158E+04   -.188E-01 -.351E-22 -.523E+01
   0.311E-12 -.281E+01 -.158E+04   -.528E-13 0.275E+01 0.158E+04   0.901E-22 0.188E+00 -.492E+01
   -.936E+00 -.936E+00 -.516E+03   0.923E+00 0.923E+00 0.516E+03   0.220E-01 0.220E-01 0.393E+00
   0.279E-12 -.375E-12 -.516E+03   0.866E-11 -.849E-11 0.515E+03   0.477E-23 0.677E-22 0.356E+00
   -.502E+00 0.237E-13 0.518E+03   0.474E+00 -.444E-14 -.518E+03   0.369E-01 -.156E-22 -.107E+00
   0.265E-12 0.502E+00 0.518E+03   -.117E-12 -.474E+00 -.518E+03   0.140E-22 -.369E-01 -.107E+00
   -.105E+00 0.105E+00 0.157E+04   0.107E+00 -.107E+00 -.157E+04   -.328E-02 0.328E-02 0.360E+01
   0.319E-12 0.122E-12 0.157E+04   -.231E-13 0.302E-13 -.157E+04   0.161E-22 0.460E-22 0.359E+01
   -.281E+01 0.108E-11 -.158E+04   0.275E+01 -.270E-14 0.158E+04   0.188E+00 0.131E-21 -.492E+01
   0.309E-12 0.281E+01 -.158E+04   -.515E-14 -.275E+01 0.158E+04   -.119E-21 -.188E+00 -.492E+01
   -.936E+00 0.936E+00 -.516E+03   0.923E+00 -.923E+00 0.516E+03   0.220E-01 -.220E-01 0.393E+00
   0.261E-12 0.570E-12 -.527E+03   -.327E-14 -.497E-13 0.527E+03   0.428E-23 -.952E-23 -.211E+00
   0.304E+00 -.343E-12 0.519E+03   -.306E+00 0.381E-15 -.519E+03   0.317E-02 0.542E-23 -.587E-01
   -.372E-13 -.304E+00 0.519E+03   -.141E-13 0.306E+00 -.519E+03   -.119E-22 -.317E-02 -.587E-01
   0.105E+00 -.105E+00 0.157E+04   -.107E+00 0.107E+00 -.157E+04   0.328E-02 -.328E-02 0.360E+01
   -.143E-14 0.257E-12 0.157E+04   0.563E-15 0.344E-13 -.157E+04   0.748E-23 -.181E-23 0.360E+01
   0.600E+00 0.103E-11 -.158E+04   -.634E+00 0.639E-13 0.158E+04   0.188E-01 -.262E-22 -.523E+01
   -.406E-13 -.600E+00 -.158E+04   0.902E-13 0.634E+00 0.158E+04   0.106E-21 -.188E-01 -.523E+01
   0.936E+00 -.936E+00 -.516E+03   -.923E+00 0.923E+00 0.516E+03   -.220E-01 0.220E-01 0.393E+00
   -.462E-13 -.206E-12 -.516E+03   0.113E-15 0.377E-13 0.516E+03   0.838E-24 0.111E-22 0.227E+00
   0.502E+00 0.640E-11 0.518E+03   -.474E+00 0.639E-13 -.518E+03   -.369E-01 -.170E-22 -.107E+00
   -.363E-13 0.304E+00 0.519E+03   -.139E-13 -.306E+00 -.519E+03   -.804E-23 0.317E-02 -.587E-01
   0.105E+00 0.105E+00 0.157E+04   -.107E+00 -.107E+00 -.157E+04   0.328E-02 0.328E-02 0.360E+01
   0.178E-13 0.446E-12 0.157E+04   0.240E-13 0.843E-13 -.157E+04   0.504E-22 -.144E-21 0.360E+01
   0.281E+01 -.206E-11 -.158E+04   -.275E+01 0.356E-13 0.158E+04   -.188E+00 0.124E-21 -.492E+01
   -.414E-13 0.600E+00 -.158E+04   -.284E-13 -.634E+00 0.158E+04   -.295E-22 0.188E-01 -.523E+01
   0.936E+00 0.936E+00 -.516E+03   -.923E+00 -.923E+00 0.516E+03   -.220E-01 -.220E-01 0.393E+00
   -.440E-13 0.196E-12 -.516E+03   -.638E-13 0.187E-15 0.515E+03   -.411E-23 -.287E-22 0.356E+00
   0.216E-10 0.182E-10 0.160E+02   0.137E-12 -.284E-12 0.205E-11   -.486E-16 0.104E-16 -.160E+02

 POSITION                                       TOTAL-FORCE (eV/Angst)
      2.10122      0.00000      7.50000         0.000356      0.000000      0.256720
      4.20243      2.10122      7.50000         0.000000      0.000691      0.258093
      2.10122      2.10122      9.60122         0.005207      0.005207      0.032421
      4.20243      0.00000      9.60122         0.000000      0.000000      0.040760
      2.10212      0.00000     11.71147        -0.009401      0.000000      0.014666
      4.20243      2.10557     11.71730         0.000000     -0.003501     -0.009182
      2.09906      2.09906     13.79300        -0.017712     -0.017712      0.158965
      4.20243      0.00000     13.79580         0.000000      0.000000      0.156056
      2.10122      4.20243      7.50000         0.000691      0.000000      0.258093
      4.20243      6.30365      7.50000         0.000000     -0.000691      0.258093
      2.10122      6.30365      9.60122         0.005207     -0.005207      0.032421
      4.20243      4.20243      9.60122         0.000000      0.000000      0.048151
      2.10557      4.20243     11.71730        -0.003501      0.000000     -0.009182
      4.20243      6.29929     11.71730         0.000000      0.003501     -0.009182
      2.09906      6.30580     13.79300        -0.017712      0.017712      0.158965
      4.20243      4.20243     13.85146         0.000000      0.000000     -0.228586
      6.30365      0.00000      7.50000        -0.000356      0.000000      0.256720
      0.00000      2.10122      7.50000         0.000000      0.000356      0.256720
      6.30365      2.10122      9.60122        -0.005207      0.005207      0.032421
      0.00000      0.00000      9.60122         0.000000      0.000000      0.032837
      6.30274      0.00000     11.71147         0.009401      0.000000      0.014666
      0.00000      2.10212     11.71147         0.000000     -0.009401      0.014666
      6.30580      2.09906     13.79300         0.017712     -0.017712      0.158965
      0.00000      0.00000     13.79789         0.000000      0.000000      0.127716
      6.30365      4.20243      7.50000        -0.000691      0.000000      0.258093
      0.00000      6.30365      7.50000         0.000000     -0.000356      0.256720
      6.30365      6.30365      9.60122        -0.005207     -0.005207      0.032421
      0.00000      4.20243      9.60122         0.000000      0.000000      0.040760
      6.29929      4.20243     11.71730         0.003501      0.000000     -0.009182
      0.00000      6.30274     11.71147         0.000000      0.009401      0.014666
      6.30580      6.30580     13.79300         0.017712      0.017712      0.158965
      0.00000      4.20243     13.79580         0.000000      0.000000      0.156056
      2.10122      0.00000      9.60122        -0.001176      0.000000      0.052607
      4.20243      2.10122      9.60122         0.000000      0.009089      0.067812
      2.10122      2.10122      7.50000        -0.000932     -0.000932     -0.458207
      4.20243      0.00000      7.50000         0.000000      0.000000     -0.458203
      2.09905      0.00000     13.84324         0.015876      0.000000     -0.024342
      4.20243      2.09185     13.84558         0.000000      0.130251      0.047513
      2.10090      2.10090     11.70746         0.008637      0.008637     -0.021654
      4.20243      0.00000     11.70631         0.000000      0.000000     -0.008937
      2.10122      4.20243      9.60122         0.009089      0.000000      0.067812
      4.20243      6.30365      9.60122         0.000000     -0.009089      0.067812
      2.10122      6.30365      7.50000        -0.000932      0.000932     -0.458207
      4.20243      4.20243      7.50000         0.000000      0.000000     -0.459723
      2.09185      4.20243     13.84558         0.130251      0.000000      0.047513
      4.20243      6.31301     13.84558         0.000000     -0.130251      0.047513
      2.10090      6.30397     11.70746         0.008637     -0.008637     -0.021654
      4.20243      4.20243     11.71716         0.000000      0.000000      0.008423
      6.30365      0.00000      9.60122         0.001176      0.000000      0.052607
      0.00000      2.10122      9.60122         0.000000     -0.001176      0.052607
      6.30365      2.10122      7.50000         0.000932     -0.000932     -0.458207
      0.00000      0.00000      7.50000         0.000000      0.000000     -0.457448
      6.30581      0.00000     13.84324        -0.015876      0.000000     -0.024342
      0.00000      2.09905     13.84324         0.000000      0.015876     -0.024342
      6.30397      2.10090     11.70746        -0.008637      0.008637     -0.021654
      0.00000      0.00000     11.70673         0.000000      0.000000     -0.032368
      6.30365      4.20243      9.60122        -0.009089      0.000000      0.067812
      0.00000      6.30365      9.60122         0.000000      0.001176      0.052607
      6.30365      6.30365      7.50000         0.000932      0.000932     -0.458207
      0.00000      4.20243      7.50000         0.000000      0.000000     -0.458203
      6.31301      4.20243     13.84558        -0.130251      0.000000      0.047513
      0.00000      6.30581     13.84324         0.000000     -0.015876     -0.024342
      6.30397      6.30397     11.70746        -0.008637     -0.008637     -0.021654
      0.00000      4.20243     11.70631         0.000000      0.000000     -0.008937
    total drift:                                0.000000      0.000000      0.006804

  FREE ENERGIE OF THE ION-ELECTRON SYSTEM (eV)
  free  energy   TOTEN  =      -264.99124459 eV

  energy  without entropy=     -264.99124459  energy(sigma->0) =     -264.99124459