 vasp.6.3.0 20Jan22 (build Apr  1 2022 16:44:48) complex
 executed on        HPECrayEX_GCC date 2023.02.21  22:59:53

 INCAR:
   SYSTEM = MgO-rocksalt
   ISMEAR = 0
   SIGMA = 0.05
   EDIFF = 1E-8
   ALGO = ALL
   ISTART = 0
   IBRION = 5
   POTIM = 0.01
   NFREE = 2
   ISYM = 0
   DIPOL = 0.5 0.5 0.5
   IDIPOL = 3
   LDIPOL = .TRUE.
   GGA = PE
   IVDW = 1
   VDW_C6 = 0.14 0.70 0.63 0.70
   VDW_R0 = 1.001 1.342 1.243 1.342
   ENCUT = 520
   PREC = Accurate
   LASPH = .TRUE.
   LREAL = Auto
   ISPIN = 1
   NELM = 200
   NELMIN = 8
   NCORE = 8
   KPAR = 1
   LWAVE = .FALSE.
   LCHARG = .FALSE.

 POTCAR:    PAW_PBE H 15Jun2001
 POTCAR:    PAW_PBE O 08Apr2002
 POTCAR:    PAW_PBE Mg_pv 13Apr2007
 POTCAR:    PAW_PBE O 08Apr2002
 POTCAR:    PAW_PBE H 15Jun2001
   VRHFIN =H: ultrasoft test

   TITEL  = PAW_PBE H 15Jun2001
   POMASS =    1.000; ZVAL   =    1.000    mass and valenz
   ENMAX  =  250.000; ENMIN  =  200.000 eV

   TITEL  = PAW_PBE O 08Apr2002
   POMASS =   16.000; ZVAL   =    6.000    mass and valenz
   ENMAX  =  400.000; ENMIN  =  300.000 eV

   TITEL  = PAW_PBE Mg_pv 13Apr2007
   POMASS =   24.305; ZVAL   =    8.000    mass and valenz
   ENMAX  =  403.929; ENMIN  =  302.947 eV

   TITEL  = PAW_PBE O 08Apr2002
   POMASS =   16.000; ZVAL   =    6.000    mass and valenz
   ENMAX  =  400.000; ENMIN  =  300.000 eV

 Optimization of the real space projectors (new method)

 maximal supplied QI-value         = 34.20
 optimisation between [QCUT,QGAM] = [ 11.63, 23.26] = [ 37.87,151.49] Ry
 Optimized for a Real-space Cutoff    1.21 Angstroem

   l    n(q)    QCUT    max X(q) W(low)/X(q) W(high)/X(q)  e(spline)
   0      8    11.629    19.460    0.17E-03    0.34E-03    0.21E-06
   0      8    11.629    12.209    0.16E-03    0.33E-03    0.21E-06
   1      8    11.629     4.655    0.18E-03    0.16E-03    0.26E-06
 Optimization of the real space projectors (new method)

[...]

   l    n(q)    QCUT    max X(q) W(low)/X(q) W(high)/X(q)  e(spline)
   1      8    11.527     2.974    0.44E-04    0.56E-04    0.12E-06
   1      8    11.527     4.279    0.12E-03    0.12E-03    0.26E-06
   0      9    11.527    16.381    0.46E-04    0.64E-04    0.78E-07
   0      9    11.527     5.611    0.26E-04    0.43E-04    0.55E-07
   2      8    11.527     4.652    0.22E-03    0.72E-04    0.47E-07
 Optimization of the real space projectors (new method)

 maximal supplied QI-value         = 24.76
 optimisation between [QCUT,QGAM] = [ 11.64, 23.27] = [ 37.91,151.63] Ry
 Optimized for a Real-space Cutoff    1.14 Angstroem

   l    n(q)    QCUT    max X(q) W(low)/X(q) W(high)/X(q)  e(spline)
   0      8    11.635    20.381    0.10E-03    0.33E-03    0.24E-06
   0      8    11.635    15.268    0.11E-03    0.35E-03    0.26E-06
   1      7    11.635     5.964    0.24E-03    0.31E-03    0.30E-06
   1      7    11.635     5.382    0.22E-03    0.25E-03    0.26E-06
  PAW_PBE H 15Jun2001                   :
  PAW_PBE O 08Apr2002                   :
  PAW_PBE Mg_pv 13Apr2007               :
  PAW_PBE O 08Apr2002                   :

 POSCAR:  H  O Mg  O
  positions in direct lattice
 exchange correlation table for  LEXCH =        8
   RHO(1)=    0.500       N(1)  =     2000
   RHO(2)=  100.500       N(2)  =     4000

 ion  position               nearest neighbor table
   1  0.417  0.429  0.760-   9 0.99
   2  0.331  0.392  0.767-   9 0.97
   3  0.584  0.325  0.761-  10 0.99
   4  0.671  0.360  0.766-  10 0.97
   5  0.449  0.294  0.761-  11 0.99
   6  0.484  0.208  0.769-  11 0.97
   7  0.553  0.463  0.760-  12 0.99
   8  0.516  0.549  0.762-  12 0.97
   9  0.385  0.380  0.755-   2 0.97   1 0.99  43 2.25
  10  0.616  0.373  0.755-   4 0.97   3 0.99  91 2.25
  11  0.497  0.261  0.756-   6 0.97   5 0.99 108 2.25
  12  0.504  0.493  0.755-   8 0.97   7 0.99 132 2.25
  13  0.125  0.000  0.351- 141 2.12 143 2.12 144 2.12 160 2.12 183 2.12
  14  0.250  0.125  0.351- 142 2.12 143 2.12 144 2.12 152 2.12 159 2.12
  15  0.125  0.125  0.450- 147 2.11 143 2.12 141 2.12 142 2.12 149 2.12 158 2.12
  16  0.250  0.000  0.450- 148 2.11 144 2.12 141 2.12 142 2.12 157 2.12 182 2.12
  17  0.125  1.000  0.550- 147 2.12 148 2.12 164 2.12 187 2.12 141 2.12 145 2.14
  18  0.250  0.125  0.550- 156 2.12 163 2.12 142 2.12 147 2.12 148 2.12 146 2.14
  19  0.125  0.125  0.648- 147 2.10 146 2.11 162 2.12 145 2.12 153 2.12
  20  0.250  1.000  0.647- 148 2.10 146 2.11 186 2.12 161 2.12 145 2.12
  21  0.125  0.250  0.351- 149 2.12 143 2.12 151 2.12 152 2.12 168 2.12
  22  0.250  0.375  0.351- 150 2.12 151 2.12 152 2.12 167 2.12 176 2.12
  23  0.125  0.375  0.450- 155 2.11 151 2.12 149 2.12 150 2.12 166 2.12 173 2.12
  24  0.250  0.250  0.450- 156 2.11 152 2.12 150 2.12 142 2.12 149 2.12 165 2.12
  25  0.125  0.250  0.550- 156 2.11 172 2.12 155 2.12 147 2.12 149 2.12 153 2.15
  26  0.250  0.375  0.550- 171 2.10 156 2.12 180 2.12 155 2.12 150 2.12 154 2.17
  27  0.125  0.375  0.648- 155 2.09 154 2.10 170 2.11 153 2.12 177 2.12
  28  0.250  0.250  0.647- 156 2.09 169 2.10 153 2.12 146 2.12 154 2.13
  29  0.375  0.000  0.351- 157 2.12 144 2.12 159 2.12 199 2.12 224 2.12
  30  0.000  0.125  0.351- 158 2.12 143 2.12 160 2.12 168 2.12 223 2.12
  31  0.375  0.125  0.450- 163 2.11 159 2.12 142 2.12 157 2.12 165 2.12 222 2.12
  32  0.000  0.000  0.450- 164 2.11 160 2.12 141 2.12 158 2.12 198 2.12 221 2.12
  33  0.375  1.000  0.550- 163 2.11 203 2.12 228 2.12 157 2.12 148 2.12 161 2.15
  34  0.000  0.125  0.550- 227 2.11 147 2.12 164 2.12 172 2.12 158 2.12 162 2.14
  35  0.375  0.125  0.647- 163 2.08 169 2.09 161 2.12 146 2.12 226 2.12
  36  0.000  1.000  0.648- 164 2.10 225 2.11 145 2.11 202 2.12 162 2.12
  37  0.375  0.250  0.351- 165 2.12 159 2.12 152 2.12 167 2.12 232 2.12
  38  0.000  0.375  0.351- 166 2.12 151 2.12 168 2.12 192 2.12 231 2.12
  39  0.375  0.375  0.450- 167 2.12 165 2.12 150 2.12 189 2.12 230 2.12 171 2.12
  40  0.000  0.250  0.450- 172 2.11 168 2.12 166 2.12 149 2.12 158 2.12 229 2.12
  41  0.375  0.250  0.550- 236 2.11 171 2.11 169 2.12 163 2.13 156 2.13 165 2.13
  42  0.000  0.375  0.550- 235 2.12 155 2.12 196 2.12 172 2.12 166 2.12 170 2.14
  43  0.375  0.374  0.650- 234 2.11 169 2.13 154 2.14 171 2.15 193 2.15   9 2.25
  44  0.000  0.250  0.648- 172 2.10 153 2.11 233 2.11 162 2.12 170 2.12
  45  0.125  0.500  0.351- 173 2.12 151 2.12 175 2.12 176 2.12 192 2.12
  46  0.250  0.625  0.351- 174 2.12 175 2.12 176 2.12 184 2.12 191 2.12
  47  0.125  0.625  0.450- 179 2.11 175 2.12 173 2.12 174 2.12 181 2.12 190 2.12
  48  0.250  0.500  0.450- 180 2.11 176 2.12 174 2.12 150 2.12 173 2.12 189 2.12
  49  0.125  0.500  0.550- 180 2.11 196 2.12 155 2.12 173 2.12 179 2.12 177 2.15
  50  0.250  0.625  0.550- 195 2.12 180 2.12 174 2.12 188 2.12 179 2.12 178 2.14
  51  0.125  0.625  0.648- 179 2.10 178 2.11 194 2.11 185 2.12 177 2.12
  52  0.250  0.500  0.647- 180 2.08 193 2.09 177 2.12 178 2.12 154 2.12
  53  0.125  0.750  0.351- 181 2.12 175 2.12 183 2.12 184 2.12 200 2.12
  54  0.250  0.875  0.351- 182 2.12 144 2.12 183 2.12 184 2.12 199 2.12
  55  0.125  0.875  0.450- 187 2.11 183 2.12 182 2.12 141 2.12 181 2.12 198 2.12
  56  0.250  0.750  0.450- 188 2.11 184 2.12 182 2.12 174 2.12 181 2.12 197 2.12
  57  0.125  0.750  0.550- 188 2.12 204 2.12 179 2.12 187 2.12 181 2.12 185 2.14
  58  0.250  0.875  0.550- 148 2.11 188 2.12 187 2.12 203 2.12 182 2.12 186 2.14
  59  0.125  0.875  0.648- 187 2.10 145 2.11 185 2.11 202 2.12 186 2.12
  60  0.250  0.750  0.648- 188 2.10 178 2.11 186 2.12 185 2.12 201 2.12
[...]
 254  0.500  0.625  0.450- 126 2.12 111 2.12  63 2.12 128 2.12 136 2.12 130 2.12
 255  0.875  0.625  0.351- 127 2.12 110 2.12 125 2.12  62 2.12 133 2.12
 256  0.500  0.500  0.351- 128 2.12 102 2.12 109 2.12 126 2.12  61 2.12
 257  0.875  0.500  0.650-  68 2.11 131 2.12 116 2.12 107 2.12 129 2.15
 258  0.500  0.626  0.652- 140 2.11 115 2.13  67 2.13 132 2.15 130 2.17
 259  0.875  0.625  0.549- 131 2.10 127 2.11  66 2.12 137 2.12 114 2.12 129 2.12
 260  0.500  0.501  0.550- 130 2.10  65 2.11 113 2.11 128 2.12 106 2.13 132 2.14
 261  0.875  0.750  0.450- 133 2.12 120 2.12 127 2.12  72 2.12 135 2.12 137 2.12
 262  0.500  0.875  0.450- 134 2.12  96 2.12 119 2.12  71 2.12 136 2.12 138 2.12
 263  0.875  0.875  0.351- 135 2.12  93 2.12 118 2.12 133 2.12  70 2.12
 264  0.500  0.750  0.351- 136 2.12 117 2.12 126 2.12 134 2.12  69 2.12
 265  0.875  0.750  0.650-  76 2.11 139 2.11 124 2.12 131 2.12 137 2.14
 266  0.500  0.875  0.650- 140 2.11 100 2.11 123 2.12  75 2.12 138 2.14
 267  0.875  0.875  0.549- 139 2.10 135 2.11  74 2.12  97 2.12 137 2.12 122 2.12
 268  0.500  0.750  0.550- 140 2.09 136 2.12  73 2.12 121 2.12 138 2.12 130 2.12

IMPORTANT INFORMATION: All symmetrisations will be switched off!
NOSYMM: (Re-)initialisation of all symmetry stuff for point group C_1.

                                     Primitive cell

  volume of cell :    6122.6422

  direct lattice vectors                    reciprocal lattice vectors
    16.934285261  0.000000000  0.000000000     0.059051798  0.000000000  0.000000000
     0.000000000 16.934285261  0.000000000     0.000000000  0.059051798  0.000000000
     0.000000000  0.000000000 21.350356973     0.000000000  0.000000000  0.046837624

  length of vectors
    16.934285261 16.934285261 21.350356973     0.059051798  0.059051798  0.046837624

  position of ions in fractional coordinates (direct lattice)
     0.416548634  0.428931814  0.759692052
     0.330655756  0.391962717  0.766821120
     0.583932523  0.324915976  0.760919985
     0.670679165  0.360445391  0.766326064
     0.448879897  0.294104466  0.760521239
     0.484499428  0.207930357  0.769493313
     0.553047746  0.462568351  0.760072841
     0.515681455  0.548868551  0.762330631
     0.384957108  0.379936687  0.755332063
     0.616363801  0.373182218  0.755342791
     0.496962318  0.261182222  0.755556936
     0.503718744  0.493341513  0.755018650
     0.125000000  0.000000000  0.351282183
     0.250000000  0.125000000  0.351282183
     0.125000000  0.125000000  0.450427394
     0.250000000  0.000000000  0.450427394
     0.124976460  0.999995091  0.549662152
     0.249963527  0.125000295  0.549598213
     0.124898938  0.124832303  0.647520932
     0.249821013  0.999907101  0.647494962
     0.125000000  0.250000000  0.351282183
     0.250000000  0.375000000  0.351282183
     0.125000000  0.375000000  0.450427394
     0.250000000  0.250000000  0.450427394
     0.124976666  0.250017933  0.549668808
     0.250388853  0.374968480  0.549914379
     0.124833868  0.375001886  0.647551616
     0.249853559  0.249628296  0.647168623
     0.375000000  0.000000000  0.351282183
     0.000000000  0.125000000  0.351282183
     0.375000000  0.125000000  0.450427394
     0.000000000  0.000000000  0.450427394
     0.375042764  0.999935057  0.549626224
     0.000005717  0.124969241  0.549668640
     0.374635274  0.124826722  0.646828975
     0.000006928  0.999935556  0.647533010
     0.375000000  0.250000000  0.351282183
     0.000000000  0.375000000  0.351282183
     0.375000000  0.375000000  0.450427394
     0.000000000  0.250000000  0.450427394
     0.375471394  0.250339584  0.550251992
     0.000004468  0.375026507  0.549716167
     0.375470488  0.374410050  0.650221597
[...]
  9X    13.987163   17.608652    1.662323   42.162195  -10.765202  -11.582732   -0.109735   -0.020834    0.023914   -0.028005   -0.006901    0.003781    0.251982    0.871249    0.079513    0.226788   -0.025862   -0.038823   -0.099764    0.113105    0.026708    0.277696   -0.116580   -0.058358  -59.341222   -7.619719    9.931741    0.120716   -0.016015   -0.045748    0.571124   -1.247478   -0.067835    0.723499    1.182742   -0.032872
  9Y    13.183514   29.608224    4.361423   -6.323633    6.104411    2.677869    0.174446    0.169057   -0.014439    0.006987   -0.013378   -0.001480    0.566313    0.083025   -0.291531   -0.096000   -0.089911    0.020897   -0.051168    0.365289   -0.029181    0.182594   -0.162784   -0.056108   -7.714326  -38.153957   -6.845046   -0.029304   -0.164533    0.013918   -1.040592    0.804264    0.163175    0.950903    0.540111   -0.001545
  9Z     0.435845    3.419309    1.910823  -10.516695    3.757739    3.494062   -0.045510   -0.009546    0.058585   -0.021749    0.001857    0.016718   -0.014554   -0.023182    0.418471   -0.017122    0.070847    0.032673   -0.058128    0.036721    0.043674   -0.009201   -0.060530    0.009626    9.891889   -6.786833   -7.191291    0.044700   -0.010100   -0.089537   -0.018578    0.005366   -0.326396    0.146879    0.076955   -0.300595
 10X    -0.097187   -0.007322   -0.025590   -0.029503   -0.007719   -0.004432   14.445474   17.732908   -2.316166   42.134061  -11.254541   11.109154   -0.130981    0.124728   -0.033953    0.272312   -0.093176    0.110223    0.268831    0.794240   -0.083632    0.215301   -0.008777    0.014757    0.121270   -0.029919    0.049908  -59.235169   -7.519403   -8.551805    0.806191    1.210639   -0.023571    0.463256   -1.128220    0.092181
 10Y     0.164882    0.158208    0.012849    0.006470   -0.014158    0.001722   13.303897   28.734794   -5.083762   -6.819128    6.256842   -2.843314   -0.059852    0.374947    0.023294    0.170864   -0.143387    0.094537    0.541156   -0.008316    0.274158   -0.105366   -0.093693   -0.000215   -0.015660   -0.164544   -0.010018   -7.494137  -37.231775    7.816043    1.006716    0.524933   -0.035845   -0.907764    0.738079   -0.176947
 10Z     0.039771    0.006204    0.058816    0.021546   -0.001532    0.016823   -0.978648   -4.264734    2.144007    9.943171   -3.840699    3.301094    0.066412   -0.049120    0.046297    0.023960    0.062078    0.009245    0.013814   -0.009699    0.395936    0.006417   -0.061919    0.033456   -0.046141    0.013910   -0.089030   -8.625870    7.891337   -7.272777   -0.185748   -0.082615   -0.327525    0.027251    0.000307   -0.301677
 11X     0.383399    0.058922    0.023224   -0.154066   -0.184037    0.085995    0.017260   -0.574962    0.316754   -0.092039    0.102102   -0.014072   28.306297  -13.475511   -4.887801    6.109565    6.476198   -3.321676    0.159552   -0.172833    0.016020   -0.016400   -0.006689    0.001827    0.569880   -1.040900   -0.018310    0.807656    1.007476   -0.184624  -36.761238    8.076750    8.114309   -0.162560    0.019964   -0.015020
 11Y    -0.128034   -0.117176    0.033475    0.105301    0.283724   -0.099570   -0.846462    0.252868    0.077677    0.021022    0.224899   -0.030951  -17.813852   14.614335    2.006150   10.802710   40.861470  -13.761278    0.015781   -0.100661    0.024524    0.008165   -0.031703    0.006764   -1.248943    0.805987    0.004580    1.209431    0.525422   -0.082025    7.969794  -58.386999   11.847838    0.022075    0.120305   -0.047940
 11Z    -0.044832   -0.061348    0.044990    0.062205   -0.022015    0.006989    0.032317   -0.014868    0.449389   -0.070200   -0.015129    0.031449   -3.783767    0.565221    2.221578   -4.578135  -12.503374    5.020000    0.008685   -0.041763    0.057918   -0.000908   -0.021474    0.018122   -0.067689    0.163515   -0.326548   -0.022963   -0.036122   -0.327135    8.097451   11.721001   -9.037368    0.009968    0.044329   -0.088642
 12X     0.082849   -0.534561   -0.231440   -0.090567    0.093957    0.010412    0.354329    0.053736   -0.028383   -0.146538   -0.162069   -0.070792    0.164868   -0.165461   -0.012190   -0.012038   -0.006539   -0.002200   30.385437  -12.977802    4.539525    6.163537    6.407766    1.932473    0.721293    0.949427    0.145201    0.463861   -0.907914    0.027144   -0.161470    0.024127    0.012531  -38.872115    7.303374   -6.279974
 12Y    -0.850698    0.236898   -0.089809    0.015739    0.220458    0.027600   -0.109860   -0.114268   -0.026559    0.100162    0.264223    0.080029    0.017837   -0.108724   -0.022867    0.007567   -0.027224   -0.001755  -17.476990   13.678510   -2.035225   10.970184   43.411273    7.647596    1.181845    0.539138    0.076788   -1.127388    0.737459    0.001039    0.021644    0.122272    0.044105    7.203042  -60.077005   -5.485170
 12Z     0.039489    0.019437    0.362603    0.061711    0.007736    0.035435    0.043391    0.065920    0.044917   -0.058369    0.012731    0.013166   -0.007445    0.045041    0.058727    0.002288    0.022507    0.016182    3.991480   -0.971267    1.779486    2.641523    6.709923    1.636675   -0.031657   -0.001265   -0.300472    0.092316   -0.177263   -0.300463   -0.014133   -0.046298   -0.089083   -6.354986   -5.520255   -5.353263

 Eigenvectors and eigenvalues of the dynamical matrix

   1 f  =  112.784270 THz   708.644466 2PiTHz 3762.078286 cm-1   466.438050 meV
             X         Y         Z           dx          dy          dz
      7.053953  7.263654 16.219696     0.003537   -0.000959   -0.001184
      5.599419  6.637608 16.371905    -0.072276    0.012762    0.019493
      9.888480  5.502220 16.245913     0.010618    0.017900   -0.004521
     11.357472  6.103885 16.361335     0.052053   -0.011145    0.013549
      7.601460  4.980449 16.237400     0.103076   -0.040644   -0.023065
      8.204652  3.521152 16.428957    -0.187572   -0.891469    0.296609
      9.365468  7.833264 16.227826    -0.000359    0.000040   -0.000415
      8.732697  9.294697 16.276031     0.001546    0.008797    0.001454
      6.518973  6.433956 16.126609     0.018092   -0.003936   -0.004200
     10.437680  6.319574 16.126838    -0.015949   -0.001894   -0.002364
      8.415702  4.422934 16.131410     0.020137    0.233414   -0.066804
      8.530117  8.354386 16.119918    -0.000459   -0.002387   -0.000197
      2.116786  0.000000  7.500000            0           0           0
      4.233571  2.116786  7.500000            0           0           0
      2.116786  2.116786  9.616786            0           0           0
      4.233571  0.000000  9.616786            0           0           0
      2.116387 16.934202 11.735483            0           0           0
      4.232954  2.116791 11.734118            0           0           0
      2.115074  2.113946 13.824803            0           0           0
      4.230540 16.932712 13.824249            0           0           0
      2.116786  4.233571  7.500000            0           0           0
      4.233571  6.350357  7.500000            0           0           0
      2.116786  6.350357  9.616786            0           0           0
      4.233571  4.233571  9.616786            0           0           0
      2.116391  4.233875 11.735625            0           0           0
      4.240156  6.349823 11.740868            0           0           0
      2.113972  6.350389 13.825458            0           0           0
      4.231091  4.227277 13.817281            0           0           0
      6.350357  0.000000  7.500000            0           0           0
      0.000000  2.116786  7.500000            0           0           0
      6.350357  2.116786  9.616786            0           0           0
      0.000000  0.000000  9.616786            0           0           0
      6.351081 16.933185 11.734716            0           0           0
      0.000097  2.116265 11.735622            0           0           0
      6.344181  2.113851 13.810030            0           0           0
      0.000117 16.933194 13.825061            0           0           0
      6.350357  4.233571  7.500000            0           0           0
      0.000000  6.350357  7.500000            0           0           0
      6.350357  6.350357  9.616786            0           0           0
      0.000000  4.233571  9.616786            0           0           0
      6.358340  4.239322 11.748076            0           0           0
      0.000076  6.350806 11.736636            0           0           0
      6.358324  6.340367 13.882463            0           0           0
      0.000209  4.231487 13.824698            0           0           0
      2.116786  8.467143  7.500000            0           0           0
      4.233571 10.583928  7.500000            0           0           0
      2.116786 10.583928  9.616786            0           0           0
      4.233571  8.467143  9.616786            0           0           0
      2.115289  8.467085 11.734562            0           0           0
      4.233235 10.585447 11.733967            0           0           0
      2.114570 10.587700 13.824643            0           0           0
      4.230020  8.474724 13.808559            0           0           0
      2.116786 12.700714  7.500000            0           0           0
      4.233571 14.817500  7.500000            0           0           0
      2.116786 14.817500  9.616786            0           0           0
      4.233571 12.700714  9.616786            0           0           0
      2.116335 12.701519 11.735583            0           0           0
      4.233090 14.817864 11.735766            0           0           0
      2.114875 14.818253 13.825001            0           0           0
      4.229937 12.703406 13.824738            0           0           0
[...]
      8.467143 10.583928  9.616786            0           0           0
     14.817500 10.583928  7.500000            0           0           0
      8.467143  8.467143  7.500000            0           0           0
     14.821246  8.471268 13.880768            0           0           0
      8.469241 10.601273 13.913544            0           0           0
     14.819445 10.585376 11.728670            0           0           0
      8.466056  8.477848 11.737503            0           0           0
     14.817500 12.700714  9.616786            0           0           0
      8.467143 14.817500  9.616786            0           0           0
     14.817500 14.817500  7.500000            0           0           0
      8.467143 12.700714  7.500000            0           0           0
     14.821145 12.703967 13.878078            0           0           0
      8.467439 14.817607 13.881732            0           0           0
     14.818717 14.817841 11.728515            0           0           0
      8.467215 12.700540 11.733121            0           0           0

[...]

  36 f  =    1.694718 THz    10.648229 2PiTHz   56.529715 cm-1     7.008788 meV
             X         Y         Z           dx          dy          dz
      7.053953  7.263654 16.219696    -0.113936    0.069115   -0.022050
      5.599419  6.637608 16.371905    -0.110291    0.029313   -0.131250
      9.888480  5.502220 16.245913    -0.181366    0.088901    0.012143
     11.357472  6.103885 16.361335    -0.190966    0.063458    0.205585
      7.601460  4.980449 16.237400    -0.079327    0.034867   -0.024027
      8.204652  3.521152 16.428957    -0.045571    0.059130    0.057311
      9.365468  7.833264 16.227826    -0.085943    0.065855    0.026128
      8.732697  9.294697 16.276031    -0.062855    0.087346   -0.093717
      6.518973  6.433956 16.126609    -0.292316    0.169439   -0.028818
     10.437680  6.319574 16.126838    -0.552492    0.248629    0.018095
      8.415702  4.422934 16.131410    -0.272682    0.185255    0.016286
      8.530117  8.354386 16.119918    -0.307587    0.301067   -0.038967
      2.116786  0.000000  7.500000            0           0           0
      4.233571  2.116786  7.500000            0           0           0
      2.116786  2.116786  9.616786            0           0           0
      4.233571  0.000000  9.616786            0           0           0
      2.116387 16.934202 11.735483            0           0           0
      4.232954  2.116791 11.734118            0           0           0
      2.115074  2.113946 13.824803            0           0           0
      4.230540 16.932712 13.824249            0           0           0
      2.116786  4.233571  7.500000            0           0           0
      4.233571  6.350357  7.500000            0           0           0
      2.116786  6.350357  9.616786            0           0           0
      4.233571  4.233571  9.616786            0           0           0
      2.116391  4.233875 11.735625            0           0           0
      4.240156  6.349823 11.740868            0           0           0
      2.113972  6.350389 13.825458            0           0           0
      4.231091  4.227277 13.817281            0           0           0
      6.350357  0.000000  7.500000            0           0           0
      0.000000  2.116786  7.500000            0           0           0
      6.350357  2.116786  9.616786            0           0           0
      0.000000  0.000000  9.616786            0           0           0
      6.351081 16.933185 11.734716            0           0           0
      0.000097  2.116265 11.735622            0           0           0
      6.344181  2.113851 13.810030            0           0           0
      0.000117 16.933194 13.825061            0           0           0
      6.350357  4.233571  7.500000            0           0           0
      0.000000  6.350357  7.500000            0           0           0
      6.350357  6.350357  9.616786            0           0           0
      0.000000  4.233571  9.616786            0           0           0
      6.358340  4.239322 11.748076            0           0           0
      0.000076  6.350806 11.736636            0           0           0
      6.358324  6.340367 13.882463            0           0           0
      0.000209  4.231487 13.824698            0           0           0
      2.116786  8.467143  7.500000            0           0           0
      4.233571 10.583928  7.500000            0           0           0
      2.116786 10.583928  9.616786            0           0           0
      4.233571  8.467143  9.616786            0           0           0
      2.115289  8.467085 11.734562            0           0           0
      4.233235 10.585447 11.733967            0           0           0
      2.114570 10.587700 13.824643            0           0           0
      4.230020  8.474724 13.808559            0           0           0
      2.116786 12.700714  7.500000            0           0           0
      4.233571 14.817500  7.500000            0           0           0
      2.116786 14.817500  9.616786            0           0           0
      4.233571 12.700714  9.616786            0           0           0
      2.116335 12.701519 11.735583            0           0           0
      4.233090 14.817864 11.735766            0           0           0
      2.114875 14.818253 13.825001            0           0           0
      4.229937 12.703406 13.824738            0           0           0
[...]
      8.467143 10.583928  9.616786            0           0           0
     14.817500 10.583928  7.500000            0           0           0
      8.467143  8.467143  7.500000            0           0           0
     14.821246  8.471268 13.880768            0           0           0
      8.469241 10.601273 13.913544            0           0           0
     14.819445 10.585376 11.728670            0           0           0
      8.466056  8.477848 11.737503            0           0           0
     14.817500 12.700714  9.616786            0           0           0
      8.467143 14.817500  9.616786            0           0           0
     14.817500 14.817500  7.500000            0           0           0
      8.467143 12.700714  7.500000            0           0           0
     14.821145 12.703967 13.878078            0           0           0
      8.467439 14.817607 13.881732            0           0           0
     14.818717 14.817841 11.728515            0           0           0
      8.467215 12.700540 11.733121            0           0           0

 Finite differences POTIM=   1.0000000000000000E-002