 vasp.6.3.0 20Jan22 (build Mar 11 2022 13:48:16) complex

 executed on             LinuxIFC date 2024.01.22  03:12:39

 INCAR:
   SYSTEM = TiO2
   ISMEAR = 0
   SIGMA = 0.05
   EDIFF = 1E-5
   ALGO = ALL
   ISTART = 0
   IBRION = -1
   NSW = 0
   ISYM = 0
   ISIF = 2
   EDIFFG = -0.01
   DIPOL = 0.5 0.5 0.5
   IDIPOL = 3
   LDIPOL = .TRUE.
   GGA = PE
   IVDW = 21
   LDAU = .TRUE.
   LDAUTYPE = 2
   LDAUL = -1 -1 2 -1
   LDAUU = 0.0 0.0 4.2 0.0
   LDAUPRINT = 1
   LMAXMIX = 4
   ENCUT = 600
   PREC = Accurate
   LASPH = .TRUE.
   LREAL = .FALSE.
   ISPIN = 1
   NELM = 200
   NELMIN = 8
   NCORE = 2
   KPAR = 1
   LWAVE = .FALSE.
   LCHARG = .FALSE.

 POTCAR:    PAW_PBE C 08Apr2002
 POTCAR:    PAW_PBE H 15Jun2001
 POTCAR:    PAW_PBE Ti_pv 07Sep2000
 POTCAR:    PAW_PBE O 08Apr2002
|           W    W    AA    RRRRR   N    N  II  N    N   GGGG   !!!           |
|           W    W   A  A   R    R  NN   N  II  NN   N  G    G  !!!           |
|           W    W  A    A  R    R  N N  N  II  N N  N  G       !!!           |
|           W WW W  AAAAAA  RRRRR   N  N N  II  N  N N  G  GGG   !            |
|           WW  WW  A    A  R   R   N   NN  II  N   NN  G    G                |
|           W    W  A    A  R    R  N    N  II  N    N   GGGG   !!!           |
|     For optimal performance we recommend to set                             |
|       NCORE = 2 up to number-of-cores-per-socket                            |
|     This setting can greatly improve the performance of VASP for DFT.       |
|     The default, NCORE=1 might be grossly inefficient on modern             |
|     multi-core architectures or massively parallel machines. Do your        |
|     Unfortunately you need to use the default for GW and RPA                |
|     calculations (for HF NCORE is supported but not extensively tested      |
|     yet).                                                                   |

   TITEL  = PAW_PBE C 08Apr2002
   POMASS =   12.011; ZVAL   =    4.000    mass and valenz
   ENMAX  =  400.000; ENMIN  =  300.000 eV

   TITEL  = PAW_PBE H 15Jun2001
   POMASS =    1.000; ZVAL   =    1.000    mass and valenz
   ENMAX  =  250.000; ENMIN  =  200.000 eV

   TITEL  = PAW_PBE Ti_pv 07Sep2000
   POMASS =   47.880; ZVAL   =   10.000    mass and valenz
   ENMAX  =  222.335; ENMIN  =  166.751 eV

   TITEL  = PAW_PBE O 08Apr2002
   POMASS =   16.000; ZVAL   =    6.000    mass and valenz
   ENMAX  =  400.000; ENMIN  =  300.000 eV

  PAW_PBE C 08Apr2002                   :
  PAW_PBE H 15Jun2001                   :
  PAW_PBE Ti_pv 07Sep2000               :
  PAW_PBE O 08Apr2002                   :

 POSCAR:  C  H Ti  O
  positions in direct lattice
 exchange correlation table for  LEXCH =        8
   RHO(1)=    0.500       N(1)  =     2000
   RHO(2)=  100.500       N(2)  =     4000

 ion  position               nearest neighbor table
   1  0.500  0.500  0.828-   3 1.09   2 1.09   5 1.10   4 1.10
   2  0.498  0.575  0.848-   1 1.09
   3  0.502  0.425  0.848-   1 1.09
   4  0.569  0.503  0.808-   1 1.10
   5  0.432  0.497  0.808-   1 1.10
   6  0.750  0.625  0.285-  87 1.98 147 1.98 146 1.98  86 1.98  89 2.02 168 2.02  16 3.00  36 3.00

   7  0.000  0.750  0.285-  88 1.98  89 1.98 108 1.98 109 1.98  90 2.02  37 3.00  17 3.00
   8  0.000  0.625  0.393-  90 1.98 150 1.98  91 1.98 151 1.98  92 2.02  93 2.02  18 3.00  38 3.00

[...]

  85  0.501  0.500  0.710- 239 1.84 244 1.97 184 1.97 245 1.98 185 1.98  75 2.99  55 2.99
  86  0.750  0.750  0.243-   6 1.98  16 1.98
  87  0.750  0.750  0.327-   6 1.98  16 1.98   9 2.02
  88  0.098  0.625  0.285-   7 1.98  37 1.98  46 2.02
  89  0.902  0.625  0.285-   7 1.98  37 1.98   6 2.02
  90  0.000  0.750  0.351-   8 1.98  18 1.98   7 2.02
  91  0.000  0.750  0.434-   8 1.98  18 1.98  11 2.02
  92  0.848  0.625  0.393-   9 1.98  39 1.98   8 2.02
  93  0.152  0.625  0.393-  49 1.98  79 1.98   8 2.02
  94  0.750  0.750  0.458-  10 1.98  20 1.98   9 2.02
  95  0.750  0.750  0.542-  10 1.98  20 1.98  13 2.17
  96  0.098  0.625  0.500-  11 1.98  41 1.98  50 2.02
  97  0.902  0.625  0.500-  11 1.98  41 1.98  10 2.02
  98  1.000  0.750  0.566-  22 1.92  12 1.92  11 2.05
  99  0.000  0.750  0.651-  15 1.83  12 2.05  22 2.05
 100  0.850  0.625  0.608-  12 1.87  43 2.07  13 2.07
 101  0.151  0.625  0.608-  53 1.93  83 1.93  12 2.13
 102  0.750  0.750  0.673-  13 1.88  14 2.13  24 2.13
 103  0.750  0.750  0.758-  14 1.85  24 1.85
 104  0.094  0.625  0.721-  15 1.97  45 1.97  54 2.08
 105  0.907  0.625  0.721-  45 1.98  15 1.98  14 2.07
 106  0.750  0.000  0.243-  16 1.98  26 1.98
 107  0.750  0.000  0.327-  16 1.98  26 1.98  19 2.02
 108  0.098  0.875  0.285-   7 1.98  17 1.98  56 2.02
 109  0.902  0.875  0.285-   7 1.98  17 1.98  16 2.02
 110  0.000  0.000  0.351-  18 1.98  28 1.98  17 2.02
 111  0.000  0.000  0.434-  18 1.98  28 1.98  21 2.02
 112  0.848  0.875  0.393-   9 1.98  19 1.98  18 2.02
 113  0.152  0.875  0.393-  49 1.98  59 1.98  18 2.02
 114  0.750  0.000  0.458-  20 1.98  30 1.98  19 2.02
 115  0.750  0.000  0.542-  20 1.98  30 1.98  23 2.17
 116  0.098  0.875  0.500-  11 1.98  21 1.98  60 2.02
 117  0.902  0.875  0.500-  11 1.98  21 1.98  20 2.02
 118  0.000  1.000  0.566-  32 1.92  22 1.92  21 2.05
 119  0.000  0.000  0.651-  25 1.83  32 2.05  22 2.05
 120  0.850  0.875  0.608-  22 1.87  23 2.07  13 2.07
 121  0.151  0.875  0.608-  53 1.93  63 1.93  22 2.13
 122  0.750  0.000  0.673-  23 1.88  34 2.13  24 2.13
 123  0.751  0.000  0.758-  24 1.85  34 1.85
 124  0.094  0.875  0.721-  15 1.97  25 1.97  64 2.08
 125  0.907  0.875  0.721-  15 1.98  25 1.98  24 2.07
 126  0.750  0.250  0.243-  26 1.98  36 1.98
 127  0.750  0.250  0.327-  26 1.98  36 1.98  29 2.02
 128  0.098  0.125  0.285-  17 1.98  27 1.98  66 2.02
 129  0.902  0.125  0.285-  17 1.98  27 1.98  26 2.02
 130  0.000  0.250  0.351-  28 1.98  38 1.98  27 2.02
 131  0.000  0.250  0.434-  28 1.98  38 1.98  31 2.02
 132  0.848  0.125  0.393-  19 1.98  29 1.98  28 2.02
 133  0.152  0.125  0.393-  59 1.98  69 1.98  28 2.02
 134  0.750  0.250  0.458-  30 1.98  40 1.98  29 2.02
 135  0.750  0.250  0.542-  30 1.98  40 1.98  33 2.17
 136  0.098  0.125  0.500-  21 1.98  31 1.98  70 2.02
 137  0.902  0.125  0.500-  21 1.98  31 1.98  30 2.02
 138  0.000  0.250  0.566-  42 1.92  32 1.92  31 2.05
 139  0.000  0.250  0.651-  35 1.83  32 2.05  42 2.05
 140  0.850  0.125  0.608-  32 1.87  33 2.07  23 2.07
 141  0.151  0.125  0.608-  63 1.93  73 1.93  32 2.13
 142  0.750  0.250  0.673-  33 1.88  44 2.13  34 2.13
 143  0.750  0.250  0.758-  44 1.85  34 1.85
 144  0.094  0.125  0.721-  25 1.97  35 1.97  74 2.08
[...]
 231  0.500  0.500  0.434-  48 1.98  78 1.98  81 2.02
 232  0.348  0.375  0.393-  69 1.98  79 1.98  78 2.02
 233  0.652  0.375  0.393-  29 1.98  39 1.98  78 2.02
 234  0.250  0.500  0.458-  50 1.98  80 1.98  79 2.02
 235  0.250  0.500  0.542-  50 1.98  80 1.98  83 2.17
 236  0.598  0.375  0.500-  71 1.98  81 1.98  40 2.02
 237  0.402  0.375  0.500-  71 1.98  81 1.98  80 2.02
 238  0.500  0.500  0.566-  82 1.92  52 1.92  81 2.05
 239  0.500  0.500  0.651-  85 1.84  82 2.05  52 2.05
 240  0.350  0.375  0.608-  82 1.87  83 2.07  73 2.07
 241  0.651  0.375  0.608-  43 1.93  33 1.93  82 2.13
 242  0.250  0.500  0.673-  83 1.88  84 2.13  54 2.13
 243  0.251  0.500  0.757-  54 1.85  84 1.85
 244  0.594  0.375  0.720-  75 1.97  85 1.97  44 2.08
 245  0.407  0.375  0.721-  75 1.97  85 1.98  84 2.07

IMPORTANT INFORMATION: All symmetrisations will be switched off!
NOSYMM: (Re-)initialisation of all symmetry stuff for point group C_1.

                                     Primitive cell

  volume of cell :    4895.9617

  direct lattice vectors                    reciprocal lattice vectors
    13.251680751  0.000000000  0.000000000     0.075462126  0.000000000  0.000000000
     0.000000000 11.981436613  0.000000000     0.000000000  0.083462445  0.000000000
     0.000000000  0.000000000 30.836008487     0.000000000  0.000000000  0.032429619

  length of vectors
    13.251680751 11.981436613 30.836008487     0.075462126  0.083462445  0.032429619

  position of ions in fractional coordinates (direct lattice)
     0.500090092  0.500003046  0.827930835
     0.497794248  0.574594927  0.848423326
     0.502367048  0.425414588  0.848422223
     0.568532760  0.502517379  0.807992223
     0.431685840  0.497499077  0.807973723
     0.750000000  0.625000000  0.285126523
     0.000000000  0.750000000  0.285126523
     0.000000000  0.625000000  0.392563261
     0.750000000  0.750000000  0.392563261
     0.750000000  0.625000000  0.500000000
     0.000000000  0.750000000  0.500000000
     0.990860722  0.625010312  0.605211217
     0.742984532  0.750001809  0.612102535
     0.750989427  0.625054114  0.722285544
     0.000805496  0.750059263  0.709966652
     0.750000000  0.875000000  0.285126523
     0.000000000  0.000000000  0.285126523
     0.000000000  0.875000000  0.392563261
     0.750000000  0.000000000  0.392563261
     0.750000000  0.875000000  0.500000000
     0.000000000  0.000000000  0.500000000
     0.990855767  0.875005284  0.605202357
     0.743033464  0.999998594  0.612136516
     0.750833206  0.875005954  0.722394568
     0.000763672  0.999999268  0.709961820
     0.750000000  0.125000000  0.285126523
     0.000000000  0.250000000  0.285126523
     0.000000000  0.125000000  0.392563261
     0.750000000  0.250000000  0.392563261
     0.750000000  0.125000000  0.500000000
     0.000000000  0.250000000  0.500000000
     0.990914333  0.124988265  0.605199383
     0.743116819  0.250008033  0.612107166
     0.750756218  0.125005460  0.722384311
     0.000722150  0.249936450  0.709950987
     0.750000000  0.375000000  0.285126523
     0.000000000  0.500000000  0.285126523
     0.000000000  0.375000000  0.392563261
     0.750000000  0.500000000  0.392563261
     0.750000000  0.375000000  0.500000000
     0.000000000  0.500000000  0.500000000
     0.990953166  0.374996140  0.605194993
     0.743080127  0.499995664  0.612096310
     0.750910787  0.374944737  0.722288471
     0.000764450  0.500001086  0.709968481
     0.250000000  0.625000000  0.285126523
     0.500000000  0.750000000  0.285126523
     0.500000000  0.625000000  0.392563261
     0.250000000  0.750000000  0.392563261
     0.250000000  0.625000000  0.500000000
     0.500000000  0.750000000  0.500000000
     0.490850053  0.624913445  0.605311704
     0.242944062  0.750022121  0.612106072
     0.250874750  0.625057540  0.722296602
     0.500809930  0.749926844  0.709931604
     0.250000000  0.875000000  0.285126523
     0.500000000  0.000000000  0.285126523
     0.500000000  0.875000000  0.392563261
     0.250000000  0.000000000  0.392563261
     0.250000000  0.875000000  0.500000000
[...]
     0.500000000  0.500000000  0.434467643
     0.347509432  0.375000000  0.392563261
     0.652490568  0.375000000  0.392563261
     0.250000000  0.500000000  0.458095618
     0.250000000  0.500000000  0.541904382
     0.597509432  0.375000000  0.500000000
     0.402490568  0.375000000  0.500000000
     0.500014597  0.499996645  0.566425033
     0.500030242  0.499976497  0.650659698
     0.350018309  0.375018064  0.608079048
     0.651255145  0.374995887  0.608490286
[...]
   O          57.907          3.974         10.404          1.92665386
   O          58.402          3.980         10.448          1.93486957
   O          57.905          3.974         10.404          1.92660819
   O          58.886          3.985         10.491          1.94286033
   O          57.485          3.969         10.366          1.91961386
   O          57.014          3.964         10.323          1.91173709
   O          58.887          3.985         10.492          1.94287380
   O          38.717          3.716          8.507          1.57538913
   O          55.806          3.950         10.213          1.89137424
   O          56.086          3.953         10.239          1.89611863

  vdW correction parametrized for the method pbe

  IVDW =  21
  VDW_RADIUS =    50.000 A
  VDW_IDAMPF =  0
  VDW_S6 =     1.000
  VDW_SR =     0.950
  VDW_D =    20.000
  LVDW_ONECELL = F F F
  LVDW_SAMETYPE T T T T
  LVDW_EWALD = F

  Number of pair interactions contributing to vdW energy: 3262223
  Edisp (eV):  -32.93188

  FORCE on cell =-STRESS in cart. coord.  units (eV):
  Direction    XX          YY          ZZ          XY          YZ          ZX
  Alpha Z  4499.44432  4499.44432  4499.44432
  Ewald  931334.10674949439.23002************    -0.10009    -0.03572    17.06852
  Hartree972091.10462981924.07479************    -0.07672    -0.01863     9.31309
  E(xc)   -8584.20372 -8567.03973 -8593.13259    -0.00006    -0.00003     0.02825
  Local  ************************************     0.18510     0.05302   -26.42512
  n-local -5242.57128 -5113.86154 -5277.70791     0.00060    -0.00005     0.31294
  augment  5265.70015  5259.52219  5267.60507    -0.00028    -0.00024     0.08582
  Kinetic 28551.32504 28051.72222 28595.12426    -0.00453     0.00010    -0.99894
  Fock        0.00000     0.00000     0.00000     0.00000     0.00000     0.00000
  vdW       -48.37524   -34.37135   -41.19959    -0.00083    -0.00002     0.04312
  Total     -15.90200    16.86279   -46.12570     0.00318    -0.00157    -0.57232
  in kB      -5.20385     5.51826   -15.09439     0.00104    -0.00051    -0.18729

 VOLUME and BASIS-vectors are now :
  energy-cutoff  :      600.00
  volume of cell :     4895.96
      direct lattice vectors                 reciprocal lattice vectors
    13.251680751  0.000000000  0.000000000     0.075462126  0.000000000  0.000000000
     0.000000000 11.981436613  0.000000000     0.000000000  0.083462445  0.000000000
     0.000000000  0.000000000 30.836008487     0.000000000  0.000000000  0.032429619

  length of vectors
    13.251680751 11.981436613 30.836008487     0.075462126  0.083462445  0.032429619

 FORCES acting on ions:
    Electron-Ion                     Ewald-Force                    Non-Local-Force
   -.182E+00 0.134E-01 -.136E+04   0.172E+00 -.131E-01 0.136E+04   0.112E-01 0.152E-02 -.432E+00
   0.136E+01 -.434E+02 -.333E+03   -.152E+01 0.480E+02 0.336E+03   0.155E+00 -.452E+01 -.322E+01
   -.140E+01 0.434E+02 -.333E+03   0.156E+01 -.480E+02 0.336E+03   -.154E+00 0.452E+01 -.322E+01
   -.374E+02 -.145E+01 -.348E+03   0.421E+02 0.161E+01 0.345E+03   -.465E+01 -.152E+00 0.298E+01
   0.372E+02 0.146E+01 -.348E+03   -.419E+02 -.161E+01 0.345E+03   0.465E+01 0.151E+00 0.299E+01
   -.141E+00 -.476E-01 0.363E+04   0.141E+00 0.477E-01 -.364E+04   -.952E-05 -.264E-04 0.766E+00
   -.359E-02 -.606E-01 0.381E+04   0.359E-02 0.606E-01 -.380E+04   -.339E-05 -.128E-04 -.466E+01
   -.918E-01 -.545E-01 0.185E+04   0.927E-01 0.548E-01 -.185E+04   -.149E-03 -.608E-04 -.116E+00
   -.567E-01 -.751E-01 0.184E+04   0.563E-01 0.754E-01 -.185E+04   -.190E-03 -.399E-04 0.276E+00
   0.936E+00 -.287E+00 -.419E+01   -.962E+00 0.289E+00 0.502E+01   0.575E-02 -.314E-03 -.191E+00
   -.272E+01 -.346E+00 0.527E+01   0.277E+01 0.348E+00 -.634E+01   -.137E-01 -.313E-03 0.469E+00
   -.318E+02 -.998E+00 -.179E+04   0.318E+02 0.100E+01 0.179E+04   0.757E+00 -.266E-02 0.613E+00
   -.142E+02 -.284E+01 -.185E+04   0.142E+02 0.284E+01 0.185E+04   0.590E+00 -.950E-03 -.917E+00
   -.269E+02 -.115E+02 -.359E+04   0.269E+02 0.115E+02 0.359E+04   -.124E-01 -.155E-02 -.124E+01
   -.990E+00 -.447E+01 -.363E+04   0.984E+00 0.448E+01 0.363E+04   -.102E-01 -.559E-02 0.200E+01
   -.133E+00 -.467E-01 0.363E+04   0.133E+00 0.469E-01 -.364E+04   0.465E-05 -.200E-04 0.766E+00
   -.350E-02 0.661E-03 0.381E+04   0.349E-02 -.646E-03 -.380E+04   0.140E-05 -.527E-06 -.466E+01
   -.916E-01 -.495E-01 0.185E+04   0.925E-01 0.497E-01 -.185E+04   -.149E-03 -.605E-04 -.116E+00
   -.578E-01 0.282E-02 0.184E+04   0.573E-01 -.281E-02 -.185E+04   -.168E-03 -.444E-05 0.276E+00
   0.935E+00 -.285E+00 -.480E+01   -.961E+00 0.289E+00 0.563E+01   0.584E-02 -.728E-03 -.192E+00
   -.267E+01 0.221E-01 0.498E+01   0.272E+01 -.223E-01 -.605E+01   -.144E-01 0.708E-04 0.467E+00
   -.317E+02 -.106E+01 -.179E+04   0.317E+02 0.106E+01 0.179E+04   0.758E+00 -.719E-03 0.611E+00
   -.134E+02 0.691E-01 -.186E+04   0.134E+02 -.698E-01 0.186E+04   0.591E+00 0.149E-03 -.916E+00
   -.114E+02 -.824E+01 -.361E+04   0.114E+02 0.824E+01 0.361E+04   -.295E-02 -.105E-02 -.124E+01
   -.107E+01 0.121E+00 -.363E+04   0.106E+01 -.120E+00 0.363E+04   -.753E-02 -.162E-02 0.200E+01
   -.133E+00 0.475E-01 0.363E+04   0.133E+00 -.477E-01 -.364E+04   0.472E-05 0.223E-04 0.766E+00
   -.344E-02 0.606E-01 0.381E+04   0.343E-02 -.606E-01 -.380E+04   0.186E-05 0.136E-04 -.466E+01
   -.899E-01 0.551E-01 0.185E+04   0.907E-01 -.553E-01 -.185E+04   -.151E-03 0.431E-04 -.116E+00
   -.575E-01 0.751E-01 0.184E+04   0.571E-01 -.754E-01 -.185E+04   -.182E-03 0.382E-04 0.276E+00
   0.923E+00 0.299E+00 -.479E+01   -.949E+00 -.304E+00 0.563E+01   0.585E-02 0.721E-03 -.192E+00
   -.263E+01 0.346E+00 0.534E+01   0.268E+01 -.349E+00 -.641E+01   -.147E-01 0.542E-03 0.468E+00
   -.318E+02 0.108E+01 -.179E+04   0.319E+02 -.108E+01 0.179E+04   0.761E+00 0.177E-02 0.608E+00
   -.142E+02 0.290E+01 -.185E+04   0.142E+02 -.290E+01 0.185E+04   0.586E+00 0.115E-03 -.916E+00
   -.114E+02 0.829E+01 -.361E+04   0.114E+02 -.829E+01 0.361E+04   0.175E-02 0.169E-02 -.124E+01
   -.112E+01 0.443E+01 -.363E+04   0.112E+01 -.444E+01 0.363E+04   -.482E-02 0.585E-02 0.200E+01
   -.141E+00 0.468E-01 0.363E+04   0.141E+00 -.469E-01 -.364E+04   -.257E-05 0.214E-04 0.766E+00
   -.353E-02 -.643E-03 0.381E+04   0.353E-02 0.647E-03 -.380E+04   -.329E-05 -.606E-06 -.466E+01
   -.900E-01 0.489E-01 0.185E+04   0.909E-01 -.492E-01 -.185E+04   -.150E-03 0.768E-04 -.116E+00
   -.565E-01 -.278E-02 0.185E+04   0.561E-01 0.277E-02 -.185E+04   -.215E-03 0.453E-05 0.276E+00
   0.921E+00 0.273E+00 -.419E+01   -.948E+00 -.275E+00 0.502E+01   0.593E-02 0.325E-03 -.191E+00
   -.267E+01 -.237E-01 0.559E+01   0.272E+01 0.245E-01 -.666E+01   -.142E-01 -.266E-03 0.469E+00
   -.318E+02 0.989E+00 -.179E+04   0.318E+02 -.992E+00 0.179E+04   0.758E+00 0.150E-02 0.612E+00
   -.151E+02 -.117E+00 -.185E+04   0.151E+02 0.119E+00 0.185E+04   0.587E+00 0.438E-03 -.921E+00
   -.269E+02 0.115E+02 -.359E+04   0.269E+02 -.115E+02 0.359E+04   -.766E-02 0.719E-03 -.123E+01
   -.107E+01 -.819E-01 -.363E+04   0.106E+01 0.808E-01 0.363E+04   -.693E-02 0.142E-02 0.200E+01
   0.149E+00 -.476E-01 0.363E+04   -.149E+00 0.478E-01 -.364E+04   -.227E-04 -.226E-04 0.766E+00
   -.454E-02 -.729E-01 0.381E+04   0.451E-02 0.730E-01 -.380E+04   0.571E-05 -.283E-04 -.466E+01
   -.963E-01 -.521E-01 0.185E+04   0.970E-01 0.533E-01 -.185E+04   -.106E-03 -.315E-03 -.116E+00
   0.241E+00 -.746E-01 0.184E+04   -.241E+00 0.749E-01 -.185E+04   -.347E-03 -.445E-04 0.276E+00
   0.216E+01 -.297E+00 -.419E+01   -.218E+01 0.299E+00 0.502E+01   0.466E-02 -.375E-03 -.191E+00
   -.275E+01 -.376E+00 0.644E+01   0.279E+01 0.373E+00 -.749E+01   -.132E-01 0.232E-02 0.466E+00
   -.314E+02 -.241E+01 -.178E+04   0.314E+02 0.241E+01 0.178E+04   0.760E+00 -.241E-02 0.608E+00
   -.703E+01 -.262E+01 -.185E+04   0.705E+01 0.262E+01 0.185E+04   0.593E+00 -.287E-02 -.917E+00
   0.265E+02 -.116E+02 -.359E+04   -.265E+02 0.116E+02 0.359E+04   -.241E-01 -.196E-02 -.124E+01
   -.111E+01 -.257E+02 -.360E+04   0.110E+01 0.257E+02 0.360E+04   -.103E-01 0.143E-01 0.202E+01
   0.141E+00 -.467E-01 0.363E+04   -.141E+00 0.467E-01 -.364E+04   -.350E-04 -.149E-04 0.766E+00
   -.460E-02 0.628E-03 0.381E+04   0.458E-02 -.626E-03 -.380E+04   0.480E-05 0.243E-07 -.466E+01
   -.968E-01 -.477E-01 0.185E+04   0.975E-01 0.485E-01 -.185E+04   -.115E-03 -.204E-03 -.116E+00
   0.242E+00 0.437E-02 0.184E+04   -.241E+00 -.438E-02 -.185E+04   -.363E-03 -.500E-06 0.276E+00
   0.217E+01 -.272E+00 -.478E+01   -.220E+01 0.277E+00 0.562E+01   0.473E-02 -.649E-03 -.192E+00
[...]
   -.557E+02 0.292E-01 0.111E+04   0.601E+02 -.294E-01 -.111E+04   -.401E+01 0.338E-03 0.179E+00
   0.557E+02 0.298E-01 0.111E+04   -.602E+02 -.300E-01 -.111E+04   0.402E+01 0.376E-03 0.178E+00
   0.532E+00 -.781E-02 0.486E+03   -.543E+00 0.803E-02 -.491E+03   0.150E-01 -.440E-03 0.465E+01
   0.106E+00 -.271E-01 -.507E+03   0.264E+00 0.272E-01 0.515E+03   -.392E+00 -.233E-03 -.783E+01
   -.577E+02 0.123E+00 0.228E+01   0.630E+02 -.124E+00 -.250E+01   -.572E+01 0.396E-02 0.325E+00
   0.574E+02 0.127E+00 0.533E+01   -.627E+02 -.128E+00 -.567E+01   0.574E+01 0.341E-02 0.446E+00
   -.186E+02 -.425E-01 -.599E+03   0.207E+02 0.449E-01 0.591E+03   -.207E+01 -.189E-02 0.675E+01
   -.111E+02 -.114E+00 -.153E+04   0.125E+02 0.117E+00 0.152E+04   -.135E+01 -.359E-03 0.233E+01
   0.102E+02 0.143E+01 -.109E+04   -.121E+02 -.143E+01 0.108E+04   0.126E+01 0.157E-02 0.796E+00
   0.666E+02 0.139E+01 -.108E+04   -.747E+02 -.141E+01 0.108E+04   0.756E+01 0.124E-01 0.142E+01
   0.252E+01 -.161E+00 -.173E+04   -.182E+01 0.168E+00 0.174E+04   -.703E+00 -.568E-02 -.226E+01
   0.332E+02 0.520E-01 -.260E+04   -.333E+02 -.626E-01 0.262E+04   0.114E+00 0.966E-02 -.213E+02
   -.376E+02 0.158E+02 -.222E+04   0.440E+02 -.158E+02 0.223E+04   -.643E+01 -.158E-01 -.435E+01
   0.361E+02 0.157E+02 -.222E+04   -.423E+02 -.156E+02 0.223E+04   0.620E+01 -.320E-01 -.438E+01
   -.435E+02 -.667E-03 0.106E+03   -.163E-11 -.906E-12 -.105E-10   0.435E+02 0.726E-03 -.106E+03

 POSITION                                       TOTAL-FORCE (eV/Angst)
      6.62703      5.99075     25.53008         0.001316      0.001780     -0.012622
      6.59661      6.88447     26.16199        -0.000434      0.025442     -0.000178
      6.65721      5.09708     26.16195         0.000927     -0.026965      0.000750
      7.53401      6.02088     24.91526         0.063586      0.001109     -0.037321
      5.72056      5.96075     24.91468        -0.064522     -0.001395     -0.038454
      9.93876      7.48840      8.79216        -0.000040      0.000103     -3.179268
      0.00000      8.98608      8.79216        -0.000046      0.000061      2.736627
      0.00000      7.48840     12.10508         0.000690      0.000237      0.452078
      9.93876      8.98608     12.10508        -0.000642      0.000268     -0.666302
      9.93876      7.48840     15.41800        -0.020801      0.001532      0.634998
      0.00000      8.98608     15.41800         0.030584      0.001180     -0.606420
     13.13057      7.48852     18.66230         0.659158      0.000236      0.483496
      9.84579      8.98610     18.87480         0.548342      0.001451     -0.584289
      9.95187      7.48905     22.27240        -0.036871      0.000179     -0.828062
      0.01067      8.98679     21.89254        -0.016859     -0.003057      0.567696
      9.93876     10.48376      8.79216        -0.000073      0.000122     -3.179209
      0.00000      0.00000      8.79216        -0.000042      0.000014      2.736634
      0.00000     10.48376     12.10508         0.000700      0.000211      0.452354
      9.93876      0.00000     12.10508        -0.000711      0.000006     -0.665890
      9.93876     10.48376     15.41800        -0.020701      0.004085      0.638623
      0.00000      0.00000     15.41800         0.030954     -0.000131     -0.606974
     13.13050     10.48382     18.66203         0.660362      0.001000      0.486180
      9.84644     11.98142     18.87585         0.545093     -0.000360     -0.585415
      9.94980     10.48383     22.27577        -0.026047     -0.001475     -0.834268
      0.01012     11.98143     21.89239        -0.014280     -0.000182      0.569304
      9.93876      1.49768      8.79216        -0.000073     -0.000138     -3.179210
      0.00000      2.99536      8.79216        -0.000034     -0.000071      2.736620
      0.00000      1.49768     12.10508         0.000698     -0.000169      0.452385
      9.93876      2.99536     12.10508        -0.000671     -0.000271     -0.666270
      9.93876      1.49768     15.41800        -0.020864     -0.003904      0.638813
      0.00000      2.99536     15.41800         0.030944     -0.001580     -0.607752
     13.13128      1.49754     18.66193         0.660267     -0.000075      0.486054
      9.84755      2.99546     18.87494         0.540668     -0.003501     -0.584416
      9.94878      1.49774     22.27545        -0.020491      0.000938     -0.831367
      0.00957      2.99460     21.89205        -0.011870      0.003237      0.571176
      9.93876      4.49304      8.79216        -0.000051     -0.000098     -3.179227
      0.00000      5.99072      8.79216        -0.000033      0.000002      2.736608
      0.00000      4.49304     12.10508         0.000696     -0.000279      0.452077
      9.93876      5.99072     12.10508        -0.000590     -0.000006     -0.666678
      9.93876      4.49304     15.41800        -0.021241     -0.001711      0.635126
      0.00000      5.99072     15.41800         0.030673      0.000522     -0.607156
     13.13179      4.49299     18.66180         0.657894     -0.001447      0.487002
      9.84706      5.99067     18.87461         0.541602      0.002051     -0.585045
      9.95083      4.49238     22.27249        -0.032090     -0.000037     -0.825920
      0.01013      5.99073     21.89259        -0.013870      0.000115      0.566180
      3.31292      7.48840      8.79216        -0.000039      0.000106     -3.179233
      6.62584      8.98608      8.79216        -0.000060      0.000084      2.736910
      6.62584      7.48840     12.10508         0.000579      0.000946      0.452551
      3.31292      8.98608     12.10508        -0.000218      0.000258     -0.666082
      3.31292      7.48840     15.41800        -0.017525      0.001870      0.635740
      6.62584      8.98608     15.41800         0.029963     -0.001460     -0.595797
      6.50459      7.48736     18.66540         0.659732      0.002632      0.481067
      3.21942      8.98634     18.87491         0.553114     -0.000641     -0.584313
      3.32451      7.48909     22.27274        -0.020973     -0.001051     -0.827977
      6.63657      8.98520     21.89146        -0.017867      0.011353      0.574333
      3.31292     10.48376      8.79216        -0.000010      0.000068     -3.179147
      6.62584      0.00000      8.79216        -0.000050      0.000002      2.736955
      6.62584     10.48376     12.10508         0.000604      0.000551      0.453278
      3.31292      0.00000     12.10508        -0.000169     -0.000014     -0.665785
      3.31292     10.48376     15.41800        -0.018304      0.003761      0.639278
[...]
      6.62584      5.99072     13.39725        -0.001556      0.000006     -0.038226
      4.60508      4.49304     12.10508         0.456701      0.000130      0.059292
      8.64660      4.49304     12.10508        -0.456320      0.000148      0.059099
      3.31292      5.99072     14.12584         0.004686     -0.000218     -0.153546
      3.31292      5.99072     16.71017        -0.020053     -0.000181      0.203391
      7.91800      4.49304     15.41800        -0.404083      0.002598      0.097357
      5.33368      4.49304     15.41800         0.397490      0.002334      0.100205
      6.62603      5.99068     17.46629        -0.014373      0.000509     -0.372686
      6.62624      5.99044     20.06375        -0.043466      0.002697     -0.740076
      4.63833      4.49326     18.75073        -0.609010     -0.002335      0.047060
      8.63023      4.49299     18.76341        -0.517878     -0.000421     -0.009922
      3.31216      5.99063     20.75634         0.002621      0.001430      0.551908
      3.32389      5.99044     23.35660         0.004547     -0.000910      0.461187
      7.87630      4.49073     22.21636         0.035812     -0.006287     -0.056550
      5.39017      4.49017     22.21763        -0.013092     -0.002821     -0.056965
    total drift:                                0.006908      0.000060      0.016543

  FREE ENERGIE OF THE ION-ELECTRON SYSTEM (eV)
  free  energy   TOTEN  =     -1936.39796030 eV

  energy  without entropy=    -1936.39796030  energy(sigma->0) =    -1936.39796030