 vasp.6.4.2 20Jul23 (build Nov 17 2023 15:39:20) complex
 executed on              LinuxNV date 2024.02.27  23:45:49
 OpenACC runtime initialized ...    4 GPUs detected

 INCAR:
   SYSTEM = Oxide-Surface
   ISMEAR = 0
   SIGMA = 0.05
   EDIFF = 1E-4
   ALGO = Normal
   ISTART = 2
   IBRION = -1
   NSW = 0
   ISYM = 0
   DIPOL = 0.5 0.5 0.5
   IDIPOL = 3
   LDIPOL = .TRUE.
   LHFCALC = .TRUE.
   HFSCREEN = 0.2
   GGA = PE
   ENCUT = 450
   PREC = Normal
   LASPH = .TRUE.
   LREAL = Auto
   ISPIN = 1
   NELM = 200
   NELMIN = 8
   NCORE = 1
   KPAR = 1
   LWAVE = .FALSE.
   LCHARG = .FALSE.

 POTCAR:    PAW_PBE H 15Jun2001
 POTCAR:    PAW_PBE O 08Apr2002
 POTCAR:    PAW_PBE Mg_pv 13Apr2007
 POTCAR:    PAW_PBE O 08Apr2002
 POTCAR:    PAW_PBE H 15Jun2001
   VRHFIN =H: ultrasoft test

   TITEL  = PAW_PBE H 15Jun2001
   POMASS =    1.000; ZVAL   =    1.000    mass and valenz
   ENMAX  =  250.000; ENMIN  =  200.000 eV

   TITEL  = PAW_PBE O 08Apr2002
   POMASS =   16.000; ZVAL   =    6.000    mass and valenz
   ENMAX  =  400.000; ENMIN  =  300.000 eV

   TITEL  = PAW_PBE Mg_pv 13Apr2007
   POMASS =   24.305; ZVAL   =    8.000    mass and valenz
   ENMAX  =  403.929; ENMIN  =  302.947 eV

   TITEL  = PAW_PBE O 08Apr2002
   POMASS =   16.000; ZVAL   =    6.000    mass and valenz
   ENMAX  =  400.000; ENMIN  =  300.000 eV

 Optimization of the real space projectors (new method)

 maximal supplied QI-value         = 34.20
 optimisation between [QCUT,QGAM] = [ 10.60, 21.55] = [ 31.48,130.03] Ry
 Optimized for a Real-space Cutoff    1.23 Angstroem

   l    n(q)    QCUT    max X(q) W(low)/X(q) W(high)/X(q)  e(spline)
   0      8    10.603    19.460    0.37E-03    0.59E-03    0.23E-06
   0      8    10.603    12.209    0.35E-03    0.56E-03    0.22E-06
   1      7    10.603     4.655    0.70E-04    0.28E-03    0.29E-06
 Optimization of the real space projectors (new method)

[...]

   l    n(q)    QCUT    max X(q) W(low)/X(q) W(high)/X(q)  e(spline)
   1      7    10.771     2.974    0.18E-03    0.56E-05    0.13E-06
   1      7    10.771     4.279    0.39E-03    0.94E-04    0.28E-06
   0      8    10.771    16.381    0.27E-03    0.38E-03    0.44E-07
   0      8    10.771     5.611    0.18E-03    0.26E-03    0.32E-07
   2      7    10.771     4.652    0.12E-03    0.23E-03    0.45E-07
 Optimization of the real space projectors (new method)

 maximal supplied QI-value         = 24.76
 optimisation between [QCUT,QGAM] = [ 10.64, 21.54] = [ 31.73,129.89] Ry
 Optimized for a Real-space Cutoff    1.23 Angstroem

   l    n(q)    QCUT    max X(q) W(low)/X(q) W(high)/X(q)  e(spline)
   0      8    10.645    20.381    0.38E-03    0.60E-03    0.15E-06
   0      8    10.645    15.268    0.40E-03    0.65E-03    0.17E-06
   1      7    10.645     5.964    0.30E-03    0.63E-03    0.18E-06
   1      7    10.645     5.382    0.24E-03    0.53E-03    0.16E-06
  PAW_PBE H 15Jun2001                   :
  PAW_PBE O 08Apr2002                   :
  PAW_PBE Mg_pv 13Apr2007               :
  PAW_PBE O 08Apr2002                   :

 POSCAR:  H  O Mg  O
  positions in direct lattice
 exchange correlation table for  LEXCH =        8
   RHO(1)=    0.500       N(1)  =     2000
   RHO(2)=  100.500       N(2)  =     4000

 ion  position               nearest neighbor table
   1  0.617  0.554  0.767-   3 0.97
   2  0.510  0.673  0.728-   3 1.01
   3  0.508  0.572  0.754-   1 0.97   2 1.01  34 2.25
   4  0.000  0.750  0.352-  36 2.11  38 2.11  39 2.11  46 2.11  55 2.11
   5  0.250  0.000  0.352-  37 2.11  38 2.11  39 2.11  47 2.11  54 2.11
   6  0.000  0.000  0.451-  38 2.11  37 2.11  36 2.11  44 2.11  53 2.11  42 2.11
   7  0.250  0.750  0.451-  39 2.11  37 2.11  36 2.11  45 2.11  52 2.11  43 2.12
   8  0.000  0.750  0.550-  50 2.11  42 2.11  43 2.11  36 2.12  59 2.12  40 2.15
   9  0.250  0.000  0.550-  51 2.11  43 2.11  58 2.11  42 2.11  37 2.12  41 2.15
  10  0.000  0.000  0.649-  48 2.10  41 2.10  57 2.11  42 2.11  40 2.11
  11  0.248  0.750  0.648-  40 2.09  43 2.10  49 2.11  41 2.11  56 2.13
  12  0.000  0.250  0.352-  44 2.11  38 2.11  46 2.11  47 2.11  63 2.11
  13  0.250  0.500  0.352-  45 2.11  39 2.11  46 2.11  47 2.11  62 2.11
  14  0.000  0.500  0.451-  46 2.11  44 2.11  45 2.11  36 2.11  61 2.11  50 2.11
  15  0.250  0.250  0.451-  47 2.11  44 2.11  45 2.11  37 2.11  60 2.11  51 2.12
  16  0.000  0.250  0.550-  51 2.11  50 2.11  67 2.11  42 2.11  44 2.12  48 2.15
  17  0.251  0.500  0.550-  66 2.11  51 2.11  43 2.11  49 2.12  50 2.12  45 2.13
  18  0.000  0.500  0.648-  49 2.09  65 2.10  50 2.11  48 2.11  40 2.12
  19  0.249  0.250  0.649-  48 2.10  41 2.11  51 2.11  49 2.11  64 2.12
  20  0.500  0.750  0.352-  52 2.11  39 2.11  54 2.11  55 2.11  62 2.11
  21  0.750  0.000  0.352-  53 2.11  38 2.11  54 2.11  55 2.11  63 2.11
  22  0.500  0.000  0.451-  54 2.11  52 2.11  53 2.11  37 2.11  60 2.11  58 2.12
  23  0.750  0.750  0.451-  55 2.11  52 2.11  53 2.11  36 2.11  61 2.11  59 2.12
  24  0.500  0.749  0.550-  66 2.10  43 2.10  59 2.11  58 2.11  52 2.13  56 2.20
  25  0.750  0.000  0.550-  67 2.11  58 2.11  42 2.11  59 2.11  53 2.12  57 2.15
  26  0.500  0.002  0.649-  64 2.07  56 2.09  58 2.11  41 2.11  57 2.12
  27  0.752  0.751  0.648-  59 2.08  40 2.09  57 2.10  65 2.11  56 2.13
  28  0.500  0.250  0.352-  60 2.11  54 2.11  47 2.11  62 2.11  63 2.11
  29  0.750  0.500  0.352-  61 2.11  55 2.11  46 2.11  62 2.11  63 2.11
  30  0.500  0.500  0.451-  62 2.11  52 2.11  60 2.11  61 2.11  45 2.11  66 2.14
  31  0.750  0.250  0.451-  63 2.11  53 2.11  60 2.11  61 2.11  44 2.11  67 2.12
  32  0.500  0.251  0.550-  51 2.11  66 2.11  67 2.11  58 2.12  60 2.13  64 2.14
  33  0.749  0.500  0.550-  66 2.10  67 2.11  59 2.11  50 2.12  61 2.13  65 2.15
  34  0.498  0.494  0.653-  64 2.08  49 2.11  65 2.14  66 2.19  56 2.20   3 2.25
  35  0.751  0.250  0.648-  48 2.10  67 2.10  57 2.11  64 2.12  65 2.12
  36  0.000  0.750  0.451-   4 2.11   6 2.11   7 2.11  14 2.11  23 2.11   8 2.12
  37  0.250  0.000  0.451-   5 2.11   6 2.11   7 2.11  15 2.11  22 2.11   9 2.12
  38  0.000  0.000  0.352-   6 2.11   5 2.11   4 2.11  12 2.11  21 2.11
  39  0.250  0.750  0.352-   7 2.11   5 2.11   4 2.11  13 2.11  20 2.11
  40  1.000  0.750  0.651-  27 2.09  11 2.09  10 2.11  18 2.12   8 2.15
  41  0.249  1.000  0.651-  10 2.10  19 2.11  11 2.11  26 2.11   9 2.15
  42  1.000  1.000  0.550-  10 2.11   8 2.11  25 2.11   9 2.11  16 2.11   6 2.11
  43  0.251  0.750  0.550-  11 2.10  24 2.10   9 2.11   8 2.11  17 2.11   7 2.12
  44  0.000  0.250  0.451-  12 2.11   6 2.11  14 2.11  15 2.11  31 2.11  16 2.12
  45  0.250  0.500  0.451-  13 2.11   7 2.11  14 2.11  15 2.11  30 2.11  17 2.13
  46  0.000  0.500  0.352-  14 2.11  12 2.11  13 2.11   4 2.11  29 2.11
  47  0.250  0.250  0.352-  15 2.11  12 2.11  13 2.11   5 2.11  28 2.11
  48  1.000  0.250  0.651-  35 2.10  10 2.10  19 2.10  18 2.11  16 2.15
  49  0.248  0.500  0.650-  18 2.09  11 2.11  34 2.11  19 2.11  17 2.12
  50  1.000  0.500  0.550-   8 2.11  18 2.11  16 2.11  14 2.11  33 2.12  17 2.12
  51  0.250  0.250  0.550-   9 2.11  32 2.11  16 2.11  17 2.11  19 2.11  15 2.12
  52  0.500  0.750  0.451-  20 2.11   7 2.11  22 2.11  23 2.11  30 2.11  24 2.13
  53  0.750  0.000  0.451-  21 2.11   6 2.11  22 2.11  23 2.11  31 2.11  25 2.12
  54  0.500  0.000  0.352-  22 2.11  20 2.11  21 2.11   5 2.11  28 2.11
  55  0.750  0.750  0.352-  23 2.11  20 2.11  21 2.11   4 2.11  29 2.11
  56  0.500  0.754  0.653-  26 2.09  11 2.13  27 2.13  24 2.20  34 2.20
  57  0.750  1.000  0.651-  27 2.10  10 2.11  35 2.11  26 2.12  25 2.15
  58  0.500  0.999  0.550-  26 2.11  25 2.11   9 2.11  24 2.11  22 2.12  32 2.12
  59  0.749  0.750  0.550-  27 2.08  24 2.11  25 2.11  33 2.11   8 2.12  23 2.12
  60  0.500  0.250  0.451-  28 2.11  22 2.11  15 2.11  30 2.11  31 2.11  32 2.13
  61  0.750  0.500  0.451-  29 2.11  23 2.11  14 2.11  30 2.11  31 2.11  33 2.13
  62  0.500  0.500  0.352-  30 2.11  20 2.11  28 2.11  29 2.11  13 2.11
  63  0.750  0.250  0.352-  31 2.11  21 2.11  28 2.11  29 2.11  12 2.11
  64  0.500  0.248  0.651-  26 2.07  34 2.08  35 2.12  19 2.12  32 2.14
  65  0.752  0.500  0.651-  18 2.10  27 2.11  35 2.12  34 2.14  33 2.15
  66  0.500  0.500  0.551-  24 2.10  33 2.10  17 2.11  32 2.11  30 2.14  34 2.19
  67  0.750  0.250  0.550-  35 2.10  25 2.11  33 2.11  32 2.11  16 2.11  31 2.12

IMPORTANT INFORMATION: All symmetrisations will be switched off!
NOSYMM: (Re-)initialisation of all symmetry stuff for point group C_1.

                                     Primitive cell

  volume of cell :    1519.8199

  direct lattice vectors                    reciprocal lattice vectors
     8.440984654  0.000000000  0.000000000     0.118469591  0.000000000  0.000000000
     0.000000000  8.440984654  0.000000000     0.000000000  0.118469591  0.000000000
     0.000000000  0.000000000 21.330738491     0.000000000  0.000000000  0.046880702

  length of vectors
     8.440984654  8.440984654 21.330738491     0.118469591  0.118469591  0.046880702

  position of ions in fractional coordinates (direct lattice)
     0.616747350  0.554373542  0.766913467
     0.509929304  0.672789327  0.728458732
     0.507505033  0.572133215  0.754100542
     0.000000000  0.750000000  0.351605267
     0.250000000  0.000000000  0.351605267
     0.000000000  0.000000000  0.450535089
     0.250000000  0.750000000  0.450535089
     0.000207284  0.749768794  0.549791295
     0.250042949  0.000125680  0.550039895
     0.000073806  0.000410042  0.648595353
     0.247683155  0.749917871  0.648435248
     0.000000000  0.250000000  0.351605267
     0.250000000  0.500000000  0.351605267
     0.000000000  0.500000000  0.450535089
     0.250000000  0.250000000  0.450535089
     0.000031262  0.250140480  0.549909578
     0.250686002  0.499742672  0.550400910
     0.000425668  0.499513881  0.648371969
     0.248982972  0.249855834  0.648744198
     0.500000000  0.750000000  0.351605267
     0.750000000  0.000000000  0.351605267
     0.500000000  0.000000000  0.450535089
     0.750000000  0.750000000  0.450535089
     0.499726028  0.748980267  0.550355635
     0.749777797  0.000284338  0.549933824
     0.499677098  0.001992687  0.648655524
     0.752464721  0.750671887  0.647526815
     0.500000000  0.250000000  0.351605267
     0.750000000  0.500000000  0.351605267
     0.500000000  0.500000000  0.450535089
     0.750000000  0.250000000  0.450535089
     0.499781674  0.250547524  0.550270665
     0.749015091  0.499678732  0.550464135
     0.498120585  0.493518517  0.653381840
     0.750669226  0.249556903  0.648459532
     0.000000000  0.750000000  0.450535089
     0.250000000  0.000000000  0.450535089
     0.000000000  0.000000000  0.351605267
     0.250000000  0.750000000  0.351605267
     0.999772439  0.750337934  0.650565869
     0.249261806  0.999887658  0.650737238
     0.999830501  0.999774756  0.549663713
     0.250559146  0.750233236  0.549968787
     0.000000000  0.250000000  0.450535089
     0.250000000  0.500000000  0.450535089
     0.000000000  0.500000000  0.351605267
     0.250000000  0.250000000  0.351605267
     0.999743677  0.249577840  0.650728320
     0.248180911  0.500092169  0.649707399
     0.999581945  0.500107963  0.549555474
[...]
   4.22049233  6.33073849  9.61024616
   6.33073849  0.00000000  9.61024616
   4.22049233  0.00000000  7.50000000
   6.33073849  6.33073849  7.50000000
   4.22153682  6.36778340 13.93501619
   6.33491019  8.43985314 13.88003698
   4.22045253  8.43502931 11.72954038
   6.32507095  6.33100409 11.72992309
   4.22049233  2.11024616  9.61024616
   6.33073849  4.22049233  9.61024616
   4.22049233  4.22049233  7.50000000
   6.33073849  2.11024616  7.50000000
   4.22061936  2.09110054 13.87598627
   6.34493629  4.22297378 13.88752142
   4.22176351  4.22431052 11.74806512
   6.32990452  2.10929340 11.72767439

--------------------------------------- Iteration      FINAL  ---------------------------------------

--------------------OUTCAR has been truncated-------------------------

[...]

--------------------OUTCAR has been truncated-------------------------

 VOLUME and BASIS-vectors are now :
  energy-cutoff  :      450.00
  volume of cell :     1519.82
      direct lattice vectors                 reciprocal lattice vectors
     8.440984654  0.000000000  0.000000000     0.118469591  0.000000000  0.000000000
     0.000000000  8.440984654  0.000000000     0.000000000  0.118469591  0.000000000
     0.000000000  0.000000000 21.330738491     0.000000000  0.000000000  0.046880702

  length of vectors
     8.440984654  8.440984654 21.330738491     0.118469591  0.118469591  0.046880702

 FORCES acting on ions
    electron-ion (+dipol)            ewald-force                    non-local-force                 convergence-correction
   -.823E+02 0.155E+02 -.292E+03   0.897E+02 -.169E+02 0.295E+03   -.756E+01 0.142E+01 -.236E+01   0.592E-03 0.587E-04 0.382E-01
   0.642E+00 -.675E+02 -.264E+03   -.800E+00 0.731E+02 0.260E+03   0.929E-01 -.585E+01 0.372E+01   0.222E-04 0.227E-03 0.383E-01
   0.480E+02 0.269E+02 -.170E+04   -.858E+02 -.473E+02 0.171E+04   0.335E+02 0.182E+02 -.101E+02   -.147E-02 0.692E-03 0.232E+00
   -.168E-01 -.216E-01 0.208E+04   0.185E-01 0.173E-01 -.208E+04   -.100E-02 0.262E-02 -.678E+01   -.426E-04 0.219E-04 -.255E+00
   -.316E-01 -.295E-01 0.208E+04   0.336E-01 0.322E-01 -.208E+04   -.120E-02 -.166E-02 -.681E+01   0.611E-05 -.277E-04 -.255E+00
   -.148E+00 -.258E+00 0.715E+03   0.164E+00 0.294E+00 -.715E+03   -.104E-01 -.233E-01 0.435E+00   -.855E-04 -.947E-04 -.112E+00
   -.320E-01 -.173E-02 0.715E+03   0.114E+00 -.985E-02 -.715E+03   -.537E-01 0.590E-02 0.571E+00   0.548E-04 0.360E-04 -.112E+00
   -.392E+00 -.284E+01 -.640E+03   0.479E+00 0.278E+01 0.640E+03   -.735E-01 0.445E-01 -.967E-01   -.262E-03 0.158E-03 0.702E-01
   0.257E+01 -.107E+01 -.645E+03   -.252E+01 0.114E+01 0.646E+03   -.373E-01 -.635E-01 -.207E+00   0.109E-03 -.339E-03 0.706E-01
   -.917E+00 -.431E+01 -.202E+04   0.994E+00 0.448E+01 0.201E+04   -.655E-01 -.146E+00 0.577E+01   -.437E-03 -.136E-03 0.227E+00
   0.250E+02 -.211E+02 -.198E+04   -.260E+02 0.212E+02 0.198E+04   0.869E+00 -.240E-01 0.590E+01   0.725E-03 0.764E-03 0.225E+00
   -.933E-02 0.208E-01 0.208E+04   0.103E-01 -.168E-01 -.208E+04   -.566E-03 -.247E-02 -.681E+01   -.358E-04 -.233E-04 -.255E+00
   -.642E-01 0.302E-01 0.208E+04   0.698E-01 -.331E-01 -.208E+04   -.364E-02 0.182E-02 -.682E+01   -.316E-06 0.288E-04 -.255E+00
   -.923E-01 0.248E+00 0.716E+03   0.611E-01 -.289E+00 -.716E+03   0.202E-01 0.257E-01 0.351E+00   -.920E-04 0.998E-04 -.113E+00
   -.153E+00 -.311E-01 0.715E+03   0.149E+00 0.379E-01 -.716E+03   0.350E-02 -.290E-02 0.442E+00   0.469E-04 -.352E-04 -.113E+00
   -.621E-01 0.285E+01 -.646E+03   0.108E+00 -.279E+01 0.646E+03   -.393E-01 -.526E-01 -.998E-01   -.266E-03 -.147E-03 0.703E-01
   0.357E+01 0.111E+01 -.636E+03   -.334E+01 -.117E+01 0.637E+03   -.207E+00 0.548E-01 -.886E+00   0.144E-03 0.323E-03 0.708E-01
   -.118E+01 0.512E+01 -.200E+04   0.138E+01 -.527E+01 0.200E+04   -.166E+00 0.134E+00 0.579E+01   -.880E-03 0.109E-03 0.226E+00
   0.165E+02 0.180E+02 -.201E+04   -.168E+02 -.181E+02 0.200E+04   0.286E+00 0.488E-01 0.586E+01   -.585E-03 -.819E-03 0.226E+00
   0.176E-01 0.964E-02 0.208E+04   -.193E-01 -.180E-01 -.208E+04   0.113E-02 0.535E-02 -.682E+01   0.449E-04 0.290E-04 -.255E+00
   0.305E-01 -.371E-01 0.208E+04   -.329E-01 0.405E-01 -.208E+04   0.144E-02 -.208E-02 -.680E+01   -.857E-05 -.363E-04 -.255E+00
   0.140E+00 -.307E+00 0.715E+03   -.164E+00 0.261E+00 -.715E+03   0.149E-01 0.300E-01 0.485E+00   0.917E-04 -.105E-03 -.112E+00
   -.167E-04 0.468E-01 0.715E+03   -.838E-01 -.102E+00 -.716E+03   0.552E-01 0.346E-01 0.590E+00   -.538E-04 0.351E-04 -.112E+00
   0.406E+00 -.296E+01 -.645E+03   -.483E+00 0.273E+01 0.644E+03   0.671E-01 0.207E+00 0.839E+00   0.266E-03 0.208E-03 0.721E-01
   -.257E+01 -.142E+01 -.643E+03   0.253E+01 0.153E+01 0.643E+03   0.332E-01 -.961E-01 -.154E+00   -.111E-03 -.333E-03 0.707E-01
   0.117E+01 -.111E+02 -.200E+04   -.124E+01 0.116E+02 0.199E+04   0.606E-01 -.406E+00 0.567E+01   0.422E-03 -.144E-02 0.226E+00
   -.259E+02 -.220E+02 -.197E+04   0.270E+02 0.223E+02 0.196E+04   -.949E+00 -.232E+00 0.598E+01   -.781E-03 0.299E-03 0.224E+00
   0.907E-02 -.132E-01 0.208E+04   -.104E-01 0.206E-01 -.208E+04   0.850E-03 -.470E-02 -.681E+01   0.395E-04 -.279E-04 -.255E+00
   0.626E-01 0.386E-01 0.208E+04   -.690E-01 -.419E-01 -.208E+04   0.413E-02 0.205E-02 -.683E+01   -.169E-05 0.330E-04 -.255E+00
   0.751E-01 0.336E+00 0.713E+03   -.578E-01 -.308E+00 -.714E+03   -.122E-01 -.199E-01 0.681E+00   0.935E-04 0.101E-03 -.112E+00
   0.131E+00 -.837E-01 0.715E+03   -.134E+00 0.139E+00 -.716E+03   0.818E-03 -.342E-01 0.494E+00   -.486E-04 -.340E-04 -.112E+00
   0.654E-01 0.365E+01 -.639E+03   -.106E+00 -.346E+01 0.639E+03   0.358E-01 -.170E+00 -.432E+00   0.268E-03 -.122E-03 0.707E-01
   -.341E+01 0.148E+01 -.641E+03   0.317E+01 -.158E+01 0.641E+03   0.213E+00 0.836E-01 -.322E+00   -.130E-03 0.324E-03 0.717E-01
   0.473E+01 0.301E+02 -.191E+04   -.518E+01 -.320E+02 0.191E+04   0.380E+00 0.168E+01 0.258E+01   0.114E-02 0.253E-02 0.235E+00
   -.168E+02 0.182E+02 -.200E+04   0.171E+02 -.184E+02 0.199E+04   -.264E+00 0.185E+00 0.586E+01   0.591E-03 -.391E-03 0.226E+00
   -.223E-01 -.221E+00 0.537E+03   0.200E-01 0.206E+00 -.537E+03   0.161E-02 0.190E-01 0.375E-01   -.720E-04 0.339E-04 -.818E-01
   -.211E-01 -.178E-01 0.536E+03   0.252E-01 0.378E-01 -.536E+03   -.430E-02 -.254E-01 -.763E-01   0.374E-04 -.846E-04 -.819E-01
   -.147E-01 -.270E-01 0.156E+04   0.181E-01 0.337E-01 -.157E+04   -.413E-02 -.815E-02 0.317E+01   -.283E-04 -.329E-04 -.191E+00
   -.327E-01 -.461E-02 0.156E+04   0.411E-01 0.111E-02 -.157E+04   -.102E-01 0.419E-02 0.317E+01   -.531E-05 0.192E-04 -.191E+00
   -.223E+01 -.717E+01 -.153E+04   0.230E+01 0.706E+01 0.153E+04   -.561E-01 0.934E-01 -.466E+01   -.362E-03 0.468E-03 0.172E+00
   0.842E+01 -.584E+01 -.153E+04   -.820E+01 0.578E+01 0.153E+04   -.187E+00 0.530E-01 -.465E+01   -.142E-03 -.350E-03 0.172E+00
   -.373E+00 -.124E+01 -.480E+03   0.384E+00 0.127E+01 0.480E+03   -.134E-01 -.286E-01 0.170E+00   -.163E-03 -.144E-03 0.517E-01
   0.201E+01 -.245E+01 -.475E+03   -.209E+01 0.240E+01 0.474E+03   0.815E-01 0.531E-01 0.401E+00   0.233E-03 0.149E-03 0.521E-01
   0.116E-01 0.213E+00 0.536E+03   -.184E-02 -.192E+00 -.536E+03   -.122E-01 -.251E-01 -.552E-01   -.699E-04 -.386E-04 -.819E-01
   -.184E+00 0.191E-01 0.536E+03   0.131E+00 -.329E-01 -.535E+03   0.622E-01 0.183E-01 -.125E+00   0.537E-04 0.880E-04 -.819E-01
   -.715E-02 0.274E-01 0.156E+04   0.614E-02 -.341E-01 -.157E+04   0.130E-02 0.796E-02 0.316E+01   -.313E-04 0.354E-04 -.191E+00
   -.358E-01 0.399E-02 0.156E+04   0.361E-01 -.350E-03 -.157E+04   -.477E-03 -.437E-02 0.316E+01   0.104E-04 -.260E-04 -.191E+00
   -.930E+00 0.659E+01 -.153E+04   0.934E+00 -.649E+01 0.154E+04   -.130E-02 -.806E-01 -.463E+01   -.387E-03 -.452E-03 0.173E+00
   0.294E+02 0.817E+01 -.149E+04   -.291E+02 -.810E+01 0.150E+04   -.347E+00 -.695E-01 -.476E+01   0.413E-03 0.410E-03 0.170E+00
   0.295E-01 0.125E+01 -.474E+03   0.729E-02 -.128E+01 0.473E+03   -.349E-01 0.301E-01 0.230E+00   -.260E-03 0.136E-03 0.514E-01
   0.234E+01 0.240E+01 -.476E+03   -.234E+01 -.234E+01 0.476E+03   -.650E-02 -.573E-01 0.186E+00   -.110E-04 -.128E-03 0.515E-01
   0.303E-01 -.718E-01 0.536E+03   -.260E-01 0.124E+00 -.536E+03   -.407E-02 -.593E-01 -.109E+00   0.735E-04 0.187E-04 -.817E-01
   0.839E-03 -.561E-01 0.536E+03   0.474E-02 0.647E-01 -.536E+03   -.687E-02 -.123E-01 -.264E-01   -.426E-04 -.850E-04 -.818E-01
   0.154E-01 -.290E-01 0.156E+04   -.186E-01 0.280E-01 -.157E+04   0.377E-02 0.131E-02 0.316E+01   0.308E-04 -.160E-04 -.191E+00
   0.320E-01 0.241E-02 0.156E+04   -.404E-01 -.106E-01 -.157E+04   0.102E-01 0.989E-02 0.317E+01   0.509E-05 0.231E-04 -.191E+00
   0.378E+01 -.371E+02 -.147E+04   -.391E+01 0.369E+02 0.147E+04   0.122E+00 0.230E+00 -.190E+01   0.462E-03 -.750E-03 0.174E+00
   -.854E+01 -.718E+01 -.153E+04   0.832E+01 0.719E+01 0.153E+04   0.200E+00 -.472E-02 -.465E+01   0.151E-03 -.330E-03 0.173E+00
   0.409E+00 -.623E+00 -.476E+03   -.429E+00 0.664E+00 0.476E+03   0.193E-01 -.450E-01 0.298E+00   0.162E-03 -.413E-03 0.521E-01
   -.201E+01 -.206E+01 -.471E+03   0.209E+01 0.204E+01 0.471E+03   -.813E-01 0.179E-01 0.690E+00   -.233E-03 0.479E-04 0.522E-01
   -.246E-01 -.206E-03 0.536E+03   0.240E-01 -.287E-01 -.535E+03   0.170E-02 0.336E-01 -.674E-01   0.767E-04 -.197E-04 -.819E-01
   0.157E+00 0.717E-01 0.535E+03   -.872E-01 -.802E-01 -.535E+03   -.818E-01 0.120E-01 -.156E+00   -.552E-04 0.843E-04 -.818E-01
   0.826E-02 0.315E-01 0.156E+04   -.673E-02 -.299E-01 -.157E+04   -.197E-02 -.204E-02 0.315E+01   0.323E-04 0.133E-04 -.191E+00
   0.358E-01 -.356E-02 0.156E+04   -.360E-01 0.117E-01 -.157E+04   0.193E-03 -.987E-02 0.316E+01   -.171E-04 -.195E-04 -.191E+00
   0.112E+01 0.263E+02 -.151E+04   -.114E+01 -.263E+02 0.151E+04   0.151E-01 0.464E-01 -.454E+01   0.368E-03 -.690E-04 0.171E+00
   -.310E+02 0.106E+02 -.149E+04   0.304E+02 -.106E+02 0.150E+04   0.555E+00 -.444E-01 -.440E+01   -.555E-03 0.451E-03 0.172E+00
   -.136E+00 0.149E+00 -.484E+03   0.869E-01 -.219E+00 0.484E+03   0.430E-01 0.576E-01 -.688E+00   0.259E-03 0.367E-03 0.532E-01
   -.235E+01 0.201E+01 -.476E+03   0.234E+01 -.199E+01 0.476E+03   0.701E-02 -.209E-01 0.313E+00   0.940E-05 -.373E-04 0.518E-01
   -.310E+02 -.179E+02 0.296E+02   -.611E-12 -.606E-13 -.284E-12   0.265E+02 0.152E+02 -.250E+02   -.699E-03 0.132E-02 -.643E+00

 POSITION                                       TOTAL-FORCE (eV/Angst)
      5.20595      4.67946     16.35883        -0.499722      0.042532     -0.093813
      4.30431      5.67900     15.53856        -0.061705     -0.468896      0.261399
      4.28384      4.82937     16.08552         0.548427      0.416667     -0.288918
      0.00000      6.33074      7.50000         0.000518     -0.001326      0.488460
      2.11025      0.00000      7.50000         0.000705      0.000657      0.495839
      0.00000      0.00000      9.61025         0.004361      0.009959      0.015415
      2.11025      6.33074      9.61025         0.021366     -0.004772      0.018979
      0.00175      6.32879     11.72745         0.003998     -0.002477      0.036525
      2.11061      0.00106     11.73276         0.003587      0.002925      0.046608
      0.00062      0.00346     13.83502         0.003128      0.001938     -0.117060
      2.09069      6.33005     13.83160        -0.028168      0.009529     -0.124274
      0.00000      2.11025      7.50000         0.000329      0.001101      0.496673
      2.11025      4.22049      7.50000         0.001523     -0.000877      0.498436
      0.00000      4.22049      9.61025        -0.008228     -0.011610      0.039790
      2.11025      2.11025      9.61025        -0.000510      0.003297      0.027070
      0.00026      2.11143     11.72998         0.001935      0.000128      0.038257
      2.11604      4.21832     11.74046         0.006467     -0.000464      0.054718
      0.00359      4.21639     13.83025         0.009254     -0.003646     -0.121859
      2.10166      2.10903     13.83819        -0.003491     -0.006576     -0.112169
      4.22049      6.33074      7.50000        -0.000354     -0.002216      0.499538
      6.33074      0.00000      7.50000        -0.000741      0.000826      0.491956
      4.22049      0.00000      9.61025        -0.006943     -0.011925      0.040171
      6.33074      6.33074      9.61025        -0.021136     -0.015695      0.010499
      4.21818      6.32213     11.73949        -0.001835     -0.000129      0.026807
      6.32886      0.00240     11.73049        -0.003475      0.004331      0.043142
      4.21777      0.01682     13.83630        -0.002382      0.017848     -0.120843
      6.35154      6.33641     13.81223         0.039146      0.023008     -0.154947
      4.22049      2.11025      7.50000        -0.000273      0.001915      0.494313
      6.33074      4.22049      7.50000        -0.001570     -0.001035      0.500600
      4.22049      4.22049      9.61025         0.003660      0.005606      0.053162
      6.33074      2.11025      9.61025        -0.001729      0.016055      0.021305
      4.21865      2.11487     11.73768        -0.001445      0.004638      0.048971
      6.32242      4.21778     11.74181        -0.005246     -0.001802      0.041748
      4.20463      4.16578     13.93712        -0.016293     -0.007511     -0.021584
      6.33639      2.10651     13.83212         0.008172     -0.015117     -0.122216
      0.00000      6.33074      9.61025        -0.000431      0.006943      0.082006
      2.11025      0.00000      9.61025        -0.000780     -0.009756      0.067064
      0.00000      0.00000      7.50000        -0.001327     -0.002795     -0.444472
      2.11025      6.33074      7.50000        -0.003454      0.001291     -0.444328
      8.43906      6.33359     13.87705         0.001024      0.000451     -0.097094
      2.10402      8.44004     13.88071        -0.002647      0.005639     -0.100479
      8.43955      8.43908     11.72473        -0.003689     -0.004185      0.008843
      2.11497      6.33271     11.73124         0.006025      0.003095      0.017508
      0.00000      2.11025      9.61025        -0.004467     -0.008886      0.060953
      2.11025      4.22049      9.61025         0.019832      0.007426      0.087906
      0.00000      4.22049      7.50000         0.000523      0.002555     -0.446932
      2.11025      2.11025      7.50000        -0.000130     -0.001525     -0.447167
      8.43882      2.10668     13.88052         0.002030      0.006907     -0.099470
      2.09489      4.22127     13.85874        -0.019357     -0.009163     -0.105470
      8.43746      4.22140     11.72242        -0.002893      0.004517      0.009429
      2.10948      2.10701     11.72619        -0.001802     -0.002725      0.009367
      4.22049      6.33074      9.61025        -0.000268     -0.017206      0.085617
      6.33074      0.00000      9.61025        -0.002316     -0.005904      0.073703
      4.22049      0.00000      7.50000         0.001300      0.000434     -0.445069
      6.33074      6.33074      7.50000         0.003536      0.003234     -0.441386
      4.22154      6.36778     13.93502         0.011713      0.008178      0.004695
      6.33491      8.43985     13.88004         0.006898      0.003358     -0.095311
      4.22045      8.43503     11.72954         0.002576     -0.008254      0.015680
      6.32507      6.33100     11.72992        -0.006412      0.000794      0.027622
      4.22049      2.11025      9.61025         0.001526      0.010175      0.095887
      6.33074      4.22049      9.61025        -0.025436      0.005486      0.082828
      4.22049      4.22049      7.50000        -0.000669     -0.000891     -0.448748
      6.33074      2.11025      7.50000         0.000119     -0.003395     -0.446277
      4.22062      2.09110     13.87599         0.001457      0.007162     -0.092677
      6.34494      4.22297     13.88752         0.023944     -0.007252     -0.087694
      4.22176      4.22431     11.74807         0.000833     -0.003548     -0.012423
      6.32990      2.10929     11.72767         0.001419      0.000959      0.013191
    total drift:                               -0.003582      0.005324     -0.031017

  FREE ENERGIE OF THE ION-ELECTRON SYSTEM (eV)
  free  energy   TOTEN  =      -464.08512120 eV

  energy  without entropy=     -464.08512120  energy(sigma->0) =     -464.08512120

     |            E. Caldeweyher, S. Ehlert & S. Grimme          |
     |          Mulliken Center for Theoretical Chemistry        |
     |                    University of Bonn                     |

Rational (Becke-Johnson) damping: hse06-D4-ATM
  s6         1.0000
  s8         1.1953
  s9         1.0000
  a1         0.3866
  a2         5.1913
 alp        16.0000

Dispersion energy:      -2.7248614849086E-01 Eh