 vasp.6.3.0 20Jan22 (build Apr  1 2022 16:44:48) complex
 executed on        HPECrayEX_GCC date 2023.01.26  19:02:55

 INCAR:
   SYSTEM = MgO-rocksalt
   ISMEAR = 0
   SIGMA = 0.05
   EDIFF = 1E-6
   ALGO = ALL
   ISTART = 0
   IBRION = -1
   NSW = 0
   ISYM = 0
   DIPOL = 0.5 0.5 0.5
   IDIPOL = 3
   LDIPOL = .TRUE.
   GGA = MK
   LUSE_VDW = .TRUE.
   PARAM1 = 0.1234
   PARAM2 = 0.711357
   ZAB_VDW = -1.8867
   AGGAC = 0.0
   ENCUT = 600
   PREC = Accurate
   LASPH = .TRUE.
   LREAL = .FALSE.
   ISPIN = 1
   NELM = 200
   NELMIN = 8
   NCORE = 8
   KPAR = 1
   LWAVE = .FALSE.
   LCHARG = .FALSE.

 POTCAR:    PAW_PBE Mg_pv 13Apr2007
 POTCAR:    PAW_PBE O 08Apr2002
|               ----> ADVICE to this user running VASP <----                  |
|     You have switched on vdW-DFT.                                           |
|     This routine was written and supplied by Jiri Klimes. We recommend      |
|     that you carefully read and cite the following publications:            |
|       J. Klimes, D.R. Bowler, A. Michelides                                 |
|          J. Phys.: Cond Matt. 22 022201 (2010)                              |
|       J. Klimes, D.R. Bowler, A. Michelides                                 |
|          Phys. Rev. B. 83, 195131 (2011)                                    |
|     and references therein.                                                 |

   TITEL  = PAW_PBE Mg_pv 13Apr2007
   POMASS =   24.305; ZVAL   =    8.000    mass and valenz
   ENMAX  =  403.929; ENMIN  =  302.947 eV

   TITEL  = PAW_PBE O 08Apr2002
   POMASS =   16.000; ZVAL   =    6.000    mass and valenz
   ENMAX  =  400.000; ENMIN  =  300.000 eV

  PAW_PBE Mg_pv 13Apr2007               :
  PAW_PBE O 08Apr2002                   :

 POSCAR: Mg  O
  positions in direct lattice
 exchange correlation table for  LEXCH =       43
   RHO(1)=    0.500       N(1)  =     2000
   RHO(2)=  100.500       N(2)  =     4000

 ion  position               nearest neighbor table
   1  0.250  0.000  0.352-  35 2.10  36 2.10  43 2.10  52 2.10  33 2.10
   2  0.500  0.250  0.352-  35 2.10  36 2.10  44 2.10  51 2.10  34 2.10
   3  0.250  0.250  0.451-  33 2.10  34 2.10  41 2.10  50 2.10  35 2.10  39 2.10
   4  0.500  0.000  0.451-  33 2.10  34 2.10  42 2.10  49 2.10  36 2.10  40 2.10
   5  0.250  0.000  0.550-  40 2.10  39 2.10  56 2.10  47 2.10  33 2.11  37 2.13
   6  0.500  0.250  0.550-  48 2.10  55 2.10  39 2.10  40 2.11  34 2.11  38 2.12
   7  0.250  0.250  0.648-  39 2.09  54 2.10  37 2.10  45 2.10  38 2.10
   8  0.500  0.001  0.647-  38 2.08  40 2.09  46 2.10  37 2.10  53 2.11
   9  0.250  0.500  0.352-  35 2.10  43 2.10  44 2.10  60 2.10  41 2.10
  10  0.500  0.750  0.352-  36 2.10  43 2.10  44 2.10  59 2.10  42 2.10
  11  0.250  0.750  0.451-  33 2.10  41 2.10  42 2.10  58 2.10  43 2.10  47 2.10
  12  0.500  0.500  0.451-  34 2.10  41 2.10  42 2.10  57 2.10  44 2.10  48 2.12
  13  0.250  0.500  0.550-  48 2.10  47 2.10  39 2.10  64 2.11  41 2.11  45 2.12
  14  0.500  0.750  0.550-  48 2.10  63 2.10  47 2.10  40 2.10  42 2.11  46 2.14
  15  0.249  0.751  0.647-  62 2.08  47 2.09  46 2.10  37 2.10  45 2.11
  16  0.498  0.498  0.650-  38 2.10  45 2.10  48 2.12  61 2.13  46 2.13
  17  0.750  0.000  0.352-  36 2.10  51 2.10  52 2.10  59 2.10  49 2.10
  18  0.000  0.250  0.352-  35 2.10  51 2.10  52 2.10  60 2.10  50 2.10
  19  0.750  0.250  0.451-  34 2.10  49 2.10  50 2.10  57 2.10  51 2.10  55 2.10
  20  0.000  0.000  0.451-  33 2.10  49 2.10  50 2.10  58 2.10  52 2.10  56 2.10
  21  0.750  1.000  0.550-  63 2.10  40 2.10  56 2.10  55 2.11  49 2.11  53 2.12
  22  0.000  0.250  0.550-  64 2.10  39 2.10  56 2.10  55 2.10  50 2.11  54 2.13
  23  0.751  0.249  0.647-  53 2.08  55 2.09  61 2.10  54 2.10  38 2.11
  24  0.001  0.001  0.648-  56 2.09  37 2.10  54 2.10  62 2.10  53 2.10
  25  0.750  0.500  0.352-  44 2.10  51 2.10  59 2.10  60 2.10  57 2.10
  26  0.000  0.750  0.352-  43 2.10  52 2.10  59 2.10  60 2.10  58 2.10
  27  0.750  0.750  0.451-  42 2.10  49 2.10  57 2.10  58 2.10  59 2.10  63 2.12
  28  0.000  0.500  0.451-  41 2.10  50 2.10  57 2.10  58 2.10  60 2.10  64 2.10
  29  0.750  0.500  0.550-  48 2.10  63 2.10  55 2.10  64 2.10  57 2.11  61 2.14
  30  1.000  0.750  0.550-  63 2.10  64 2.10  56 2.10  47 2.11  58 2.11  62 2.12
  31  0.752  0.752  0.649-  62 2.09  53 2.09  63 2.12  61 2.13  46 2.13
  32  0.001  0.500  0.647-  45 2.08  64 2.09  61 2.10  54 2.10  62 2.11
  33  0.250  0.000  0.451-   3 2.10   4 2.10  11 2.10  20 2.10   1 2.10   5 2.11
  34  0.500  0.250  0.451-   3 2.10   4 2.10  12 2.10  19 2.10   2 2.10   6 2.11
  35  0.250  0.250  0.352-   1 2.10   2 2.10   9 2.10  18 2.10   3 2.10
  36  0.500  0.000  0.352-   1 2.10   2 2.10  10 2.10  17 2.10   4 2.10
  37  0.250  0.000  0.650-  24 2.10   7 2.10   8 2.10  15 2.10   5 2.13
  38  0.500  0.249  0.650-   8 2.08  16 2.10   7 2.10  23 2.11   6 2.12
  39  0.250  0.250  0.549-   7 2.09   5 2.10  22 2.10   6 2.10  13 2.10   3 2.10
  40  0.500  1.000  0.549-   8 2.09   5 2.10  21 2.10  14 2.10   4 2.10   6 2.11
  41  0.250  0.500  0.451-   3 2.10  11 2.10  12 2.10  28 2.10   9 2.10  13 2.11
  42  0.500  0.750  0.451-   4 2.10  11 2.10  12 2.10  27 2.10  10 2.10  14 2.11
  43  0.250  0.750  0.352-   1 2.10   9 2.10  10 2.10  26 2.10  11 2.10
  44  0.500  0.500  0.352-   2 2.10   9 2.10  10 2.10  25 2.10  12 2.10
  45  0.249  0.500  0.650-  32 2.08  16 2.10   7 2.10  15 2.11  13 2.12
  46  0.498  0.752  0.650-   8 2.10  15 2.10  16 2.13  31 2.13  14 2.14
  47  0.250  0.750  0.549-  15 2.09  13 2.10   5 2.10  14 2.10  11 2.10  30 2.11
  48  0.500  0.500  0.550-  14 2.10  29 2.10   6 2.10  13 2.10  12 2.12  16 2.12
  49  0.750  0.000  0.451-   4 2.10  19 2.10  20 2.10  27 2.10  17 2.10  21 2.11
  50  0.000  0.250  0.451-   3 2.10  19 2.10  20 2.10  28 2.10  18 2.10  22 2.11
  51  0.750  0.250  0.352-   2 2.10  17 2.10  18 2.10  25 2.10  19 2.10
  52  0.000  0.000  0.352-   1 2.10  17 2.10  18 2.10  26 2.10  20 2.10
  53  0.750  0.001  0.649-  23 2.08  31 2.09  24 2.10   8 2.11  21 2.12
  54  0.000  0.250  0.650-  24 2.10   7 2.10  32 2.10  23 2.10  22 2.13
  55  0.750  0.250  0.549-  23 2.09   6 2.10  22 2.10  29 2.10  19 2.10  21 2.11
  56  0.000  0.000  0.549-  24 2.09   5 2.10  22 2.10  30 2.10  21 2.10  20 2.10
  57  0.750  0.500  0.451-  12 2.10  19 2.10  27 2.10  28 2.10  25 2.10  29 2.11
  58  0.000  0.750  0.451-  11 2.10  20 2.10  27 2.10  28 2.10  26 2.10  30 2.11
  59  0.750  0.750  0.352-  10 2.10  17 2.10  25 2.10  26 2.10  27 2.10
  60  0.000  0.500  0.352-   9 2.10  18 2.10  25 2.10  26 2.10  28 2.10
  61  0.752  0.498  0.650-  32 2.10  23 2.10  16 2.13  31 2.13  29 2.14
  62  0.001  0.750  0.649-  15 2.08  31 2.09  24 2.10  32 2.11  30 2.12
  63  0.750  0.750  0.550-  29 2.10  14 2.10  21 2.10  30 2.10  27 2.12  31 2.12
  64  1.000  0.500  0.549-  32 2.09  22 2.10  30 2.10  29 2.10  28 2.10  13 2.11

IMPORTANT INFORMATION: All symmetrisations will be switched off!
NOSYMM: (Re-)initialisation of all symmetry stuff for point group C_1.

                                     Primitive cell

  volume of cell :    1504.9259

  direct lattice vectors                    reciprocal lattice vectors
     8.404861995  0.000000000  0.000000000     0.118978753  0.000000000  0.000000000
     0.000000000  8.404861995  0.000000000     0.000000000  0.118978753  0.000000000
     0.000000000  0.000000000 21.303646496     0.000000000  0.000000000  0.046940321

  length of vectors
     8.404861995  8.404861995 21.303646496     0.118978753  0.118978753  0.046940321

  position of ions in fractional coordinates (direct lattice)
     0.250000000  0.000000000  0.352052406
     0.500000000  0.250000000  0.352052406
     0.250000000  0.250000000  0.450684135
     0.500000000  0.000000000  0.450684135
     0.250111905  0.000099836  0.549650919
     0.500105357  0.250496865  0.549866575
     0.249830519  0.249830514  0.647569254
     0.499781770  0.001245683  0.647344869
     0.250000000  0.500000000  0.352052406
     0.500000000  0.750000000  0.352052406
     0.250000000  0.750000000  0.450684135
     0.500000000  0.500000000  0.450684135
     0.250496871  0.500105344  0.549866597
     0.500490240  0.749662055  0.549929926
     0.249082035  0.750530264  0.647350366
     0.498481823  0.498481688  0.649704196
     0.750000000  0.000000000  0.352052406
     0.000000000  0.250000000  0.352052406
     0.750000000  0.250000000  0.450684135
     0.000000000  0.000000000  0.450684135
     0.750069645  0.999791816  0.549833450
     0.000099864  0.250111859  0.549650857
     0.750530230  0.249082101  0.647350277
     0.000514103  0.000514034  0.647534161
     0.750000000  0.500000000  0.352052406
     0.000000000  0.750000000  0.352052406
     0.750000000  0.750000000  0.450684135
     0.000000000  0.500000000  0.450684135
     0.749662124  0.500490276  0.549929899
     0.999791867  0.750069664  0.549833436
     0.752011815  0.752011711  0.649460270
     0.001245675  0.499781698  0.647344780
     0.250000000  0.000000000  0.450684135
     0.500000000  0.250000000  0.450684135
     0.250000000  0.250000000  0.352052406
     0.500000000  0.000000000  0.352052406
     0.249895423  0.000421044  0.649609212
     0.499966153  0.249182333  0.649531000
     0.250100586  0.250100452  0.549418518
     0.500068280  0.999894441  0.549448451
     0.250000000  0.500000000  0.450684135
     0.500000000  0.750000000  0.450684135
     0.250000000  0.750000000  0.352052406
     0.500000000  0.500000000  0.352052406
     0.249182325  0.499966102  0.649530966
     0.498483313  0.751852342  0.650179355
     0.250328590  0.750095220  0.549443652
     0.500302337  0.500302318  0.550045875
     0.750000000  0.000000000  0.450684135
     0.000000000  0.250000000  0.450684135
     0.750000000  0.250000000  0.352052406
     0.000000000  0.000000000  0.352052406
     0.750349060  0.001235189  0.649435199
     0.000421048  0.249895517  0.649608898
     0.750095117  0.250328560  0.549443594
     0.000108164  0.000108079  0.549397575
     0.750000000  0.500000000  0.450684135
     0.000000000  0.750000000  0.450684135
     0.750000000  0.750000000  0.352052406
     0.000000000  0.500000000  0.352052406
     0.751852440  0.498483241  0.650179279
     0.001235236  0.750349058  0.649435221
     0.749895223  0.749895221  0.550007133
     0.999894493  0.500068342  0.549448376

  ion indices of the primitive-cell ions
   primitive index   ion index
                 1           1
                 2           2
                 3           3
                 4           4
                 5           5
                 6           6
                 7           7
                 8           8
                 9           9
                10          10
                11          11
                12          12
                13          13
                14          14
                15          15
                16          16
                17          17
                18          18
                19          19
                20          20
                21          21
                22          22
                23          23
                24          24
[...]
   0.75000000  0.50000000  0.45068414
   0.00000000  0.75000000  0.45068414
   0.75000000  0.75000000  0.35205241
   0.00000000  0.50000000  0.35205241
   0.75185244  0.49848324  0.65017928
   0.00123524  0.75034906  0.64943522
   0.74989522  0.74989522  0.55000713
   0.99989449  0.50006834  0.54944838

 position of ions in cartesian coordinates  (Angst):
   2.10121550  0.00000000  7.50000000
   4.20243100  2.10121550  7.50000000
   2.10121550  2.10121550  9.60121550
   4.20243100  0.00000000  9.60121550
   2.10215604  0.00083911 11.70956888
   4.20331651  2.10539158 11.71416313
   2.09979103  2.09979099 13.79558647
   4.20059681  0.01046979 13.79080624
   2.10121550  4.20243100  7.50000000
   4.20243100  6.30364650  7.50000000
   2.10121550  6.30364650  9.60121550
   4.20243100  4.20243100  9.60121550
   2.10539163  4.20331640 11.71416361
   4.20655140  6.30080612 11.71551275
   2.09350013  6.30810329 13.79092335
   4.18967093  4.18966980 13.84106851
   6.30364650  0.00000000  7.50000000
   0.00000000  2.10121550  7.50000000
   6.30364650  2.10121550  9.60121550
   0.00000000  0.00000000  9.60121550
   6.30423186  8.40311224 11.71345746
   0.00083934  2.10215566 11.70956754
   6.30810300  2.09350069 13.79092146
   0.00432096  0.00432038 13.79483886
   6.30364650  4.20243100  7.50000000
   0.00000000  6.30364650  7.50000000
   6.30364650  6.30364650  9.60121550
   0.00000000  4.20243100  9.60121550
   6.30080670  4.20655170 11.71551217
   8.40311267  6.30423201 11.71345714
   6.32055552  6.32055465 13.83587201
   0.01046973  4.20059620 13.79080436
   2.10121550  0.00000000  9.60121550
   4.20243100  2.10121550  9.60121550
   2.10121550  2.10121550  7.50000000
   4.20243100  0.00000000  7.50000000
   2.10033654  0.00353881 13.83904501
   4.20214652  2.09434312 13.83737882
   2.10206091  2.10205978 11.70461789
   4.20300488  8.40397479 11.70525556
   2.10121550  4.20243100  9.60121550
   4.20243100  6.30364650  9.60121550
   2.10121550  6.30364650  7.50000000
   4.20243100  4.20243100  7.50000000
   2.09434305  4.20214609 13.83737808
   4.18968345  6.31921518 13.85119114
   2.10397725  6.30444681 11.70515332
   4.20497210  4.20497194 11.71798288
   6.30364650  0.00000000  9.60121550
   0.00000000  2.10121550  9.60121550
   6.30364650  2.10121550  7.50000000
   0.00000000  0.00000000  7.50000000
   6.30658030  0.01038159 13.83533790
   0.00353885  2.10033733 13.83903833
   6.30444594  2.10397700 11.70515209
   0.00090910  0.00090839 11.70417171
   6.30364650  4.20243100  9.60121550
   0.00000000  6.30364650  9.60121550
   6.30364650  6.30364650  7.50000000
   0.00000000  4.20243100  7.50000000
   6.31921600  4.18968285 13.85118953
   0.01038199  6.30658028 13.83533837
   6.30276586  6.30276584 11.71715753
   8.40397523  4.20300540 11.70525397

--------------------------------------- Iteration      FINAL  ---------------------------------------

--------------------OUTCAR has been truncated-------------------------

[...]

--------------------OUTCAR has been truncated-------------------------

  FORCE on cell =-STRESS in cart. coord.  units (eV):
  Direction    XX          YY          ZZ          XY          YZ          ZX
  Alpha Z   883.92154   883.92154   883.92154
  Ewald  163377.97189163377.97190************     0.03309     0.61320     0.61331
  Hartree173387.60040173387.60040************     0.00612     0.36051     0.36059
  E(xc)   -2457.66758 -2457.66758 -2457.76980    -0.00003     0.00074     0.00074
  Local  ************************347153.36894    -0.03156    -0.97933    -0.97952
  n-local -2831.23800 -2831.23800 -2850.57018    -0.00115     0.02012     0.02013
  augment  1051.43977  1051.43976  1041.99595    -0.00176     0.00465     0.00464
  Kinetic  7312.37515  7312.37515  7349.82250    -0.00156    -0.11589    -0.11592
  Fock        0.00000     0.00000     0.00000     0.00000     0.00000     0.00000
  Total     -22.37292   -22.37290     3.33134     0.00316    -0.09600    -0.09603
  in kB     -23.81870   -23.81869     3.54661     0.00336    -0.10221    -0.10223

 VOLUME and BASIS-vectors are now :
  energy-cutoff  :      600.00
  volume of cell :     1504.93
      direct lattice vectors                 reciprocal lattice vectors
     8.404861995  0.000000000  0.000000000     0.118978753  0.000000000  0.000000000
     0.000000000  8.404861995  0.000000000     0.000000000  0.118978753  0.000000000
     0.000000000  0.000000000 21.303646496     0.000000000  0.000000000  0.046940321

  length of vectors
     8.404861995  8.404861995 21.303646496     0.118978753  0.118978753  0.046940321

 FORCES acting on ions:
    Electron-Ion                     Ewald-Force                    Non-Local-Force
   -.131E+00 0.118E+00 0.209E+04   0.131E+00 -.118E+00 -.208E+04   -.284E-03 -.392E-03 -.681E+01
   -.117E+00 -.169E+00 0.209E+04   0.117E+00 0.172E+00 -.208E+04   0.535E-05 -.241E-02 -.681E+01
   -.690E+00 -.690E+00 0.693E+03   0.704E+00 0.704E+00 -.694E+03   -.980E-02 -.980E-02 0.410E+00
   -.643E+00 0.527E+00 0.693E+03   0.653E+00 -.533E+00 -.693E+03   -.649E-02 0.495E-02 0.393E+00
   -.947E+00 0.886E+00 -.694E+03   0.977E+00 -.911E+00 0.694E+03   -.223E-01 0.166E-01 -.214E+00
   -.978E+00 -.234E+01 -.696E+03   0.100E+01 0.247E+01 0.696E+03   -.181E-01 -.123E+00 -.266E+00
   -.143E+01 -.143E+01 -.208E+04   0.115E+01 0.115E+01 0.207E+04   0.241E+00 0.241E+00 0.599E+01
   -.198E+01 0.446E+01 -.207E+04   0.172E+01 -.461E+01 0.207E+04   0.236E+00 0.353E-01 0.589E+01
   -.169E+00 -.117E+00 0.209E+04   0.172E+00 0.117E+00 -.208E+04   -.241E-02 0.564E-05 -.681E+01
   -.159E+00 0.170E+00 0.209E+04   0.162E+00 -.172E+00 -.208E+04   -.207E-02 0.202E-02 -.682E+01
   -.560E+00 0.708E+00 0.693E+03   0.579E+00 -.715E+00 -.693E+03   -.132E-01 0.434E-02 0.392E+00
   -.509E+00 -.509E+00 0.690E+03   0.523E+00 0.523E+00 -.690E+03   -.102E-01 -.102E-01 0.565E+00
   -.234E+01 -.978E+00 -.696E+03   0.247E+01 0.100E+01 0.696E+03   -.123E+00 -.181E-01 -.266E+00
   -.282E+01 0.279E+01 -.702E+03   0.292E+01 -.291E+01 0.703E+03   -.992E-01 0.121E+00 -.323E+00
   -.450E+01 0.190E+01 -.207E+04   0.464E+01 -.164E+01 0.207E+04   -.217E-01 -.228E+00 0.589E+01
   -.845E+01 -.845E+01 -.209E+04   0.834E+01 0.834E+01 0.209E+04   0.284E+00 0.284E+00 0.631E+01
   0.132E+00 0.160E+00 0.209E+04   -.132E+00 -.162E+00 -.208E+04   -.684E-04 0.158E-02 -.681E+01
   0.118E+00 -.131E+00 0.209E+04   -.118E+00 0.131E+00 -.208E+04   -.394E-03 -.284E-03 -.681E+01
   0.709E+00 -.560E+00 0.693E+03   -.715E+00 0.579E+00 -.693E+03   0.435E-02 -.132E-01 0.392E+00
   0.658E+00 0.658E+00 0.694E+03   -.661E+00 -.662E+00 -.694E+03   0.206E-02 0.207E-02 0.403E+00
   0.105E+01 0.236E+01 -.695E+03   -.109E+01 -.247E+01 0.696E+03   0.228E-01 0.100E+00 -.277E+00
   0.886E+00 -.946E+00 -.694E+03   -.911E+00 0.977E+00 0.694E+03   0.166E-01 -.223E-01 -.214E+00
   0.190E+01 -.450E+01 -.207E+04   -.164E+01 0.464E+01 0.207E+04   -.228E+00 -.217E-01 0.589E+01
   0.152E+01 0.152E+01 -.208E+04   -.123E+01 -.123E+01 0.207E+04   -.251E+00 -.251E+00 0.600E+01
   0.170E+00 -.159E+00 0.209E+04   -.172E+00 0.162E+00 -.208E+04   0.202E-02 -.207E-02 -.682E+01
   0.160E+00 0.132E+00 0.209E+04   -.162E+00 -.132E+00 -.208E+04   0.158E-02 -.686E-04 -.681E+01
   0.576E+00 0.576E+00 0.690E+03   -.584E+00 -.584E+00 -.690E+03   0.704E-02 0.704E-02 0.559E+00
   0.526E+00 -.643E+00 0.693E+03   -.533E+00 0.653E+00 -.693E+03   0.495E-02 -.650E-02 0.393E+00
   0.279E+01 -.282E+01 -.702E+03   -.291E+01 0.292E+01 0.703E+03   0.121E+00 -.992E-01 -.323E+00
   0.236E+01 0.105E+01 -.695E+03   -.247E+01 -.109E+01 0.696E+03   0.100E+00 0.228E-01 -.277E+00
   0.859E+01 0.859E+01 -.209E+04   -.848E+01 -.848E+01 0.208E+04   -.298E+00 -.298E+00 0.630E+01
   0.446E+01 -.198E+01 -.207E+04   -.461E+01 0.172E+01 0.207E+04   0.353E-01 0.236E+00 0.589E+01
   -.372E+00 0.344E+00 0.520E+03   0.372E+00 -.354E+00 -.520E+03   0.873E-04 0.131E-01 -.534E-01
   -.327E+00 -.604E+00 0.519E+03   0.327E+00 0.570E+00 -.518E+03   0.620E-03 0.464E-01 -.826E-01
   -.117E+00 -.117E+00 0.157E+04   0.118E+00 0.118E+00 -.157E+04   -.129E-02 -.129E-02 0.360E+01
   -.108E+00 0.974E-01 0.157E+04   0.109E+00 -.987E-01 -.157E+04   -.642E-03 0.189E-02 0.360E+01
   -.118E+01 0.116E+01 -.158E+04   0.133E+01 -.131E+01 0.158E+04   -.174E+00 0.165E+00 -.515E+01
   -.156E+01 -.280E+01 -.158E+04   0.172E+01 0.276E+01 0.158E+04   -.181E+00 0.122E+00 -.480E+01
   -.903E+00 -.903E+00 -.515E+03   0.894E+00 0.894E+00 0.515E+03   0.141E-01 0.141E-01 0.324E+00
   -.939E+00 0.146E+01 -.515E+03   0.932E+00 -.153E+01 0.514E+03   0.131E-01 0.999E-01 0.389E+00
   -.604E+00 -.327E+00 0.519E+03   0.570E+00 0.327E+00 -.518E+03   0.464E-01 0.622E-03 -.826E-01
   -.583E+00 0.618E+00 0.518E+03   0.549E+00 -.593E+00 -.518E+03   0.474E-01 -.346E-01 -.109E+00
   -.107E+00 0.117E+00 0.157E+04   0.108E+00 -.118E+00 -.157E+04   -.210E-02 0.176E-02 0.360E+01
   -.976E-01 -.976E-01 0.157E+04   0.987E-01 0.987E-01 -.157E+04   -.152E-02 -.152E-02 0.359E+01
   -.280E+01 -.156E+01 -.158E+04   0.276E+01 0.172E+01 0.158E+04   0.122E+00 -.181E+00 -.480E+01
   -.624E+01 0.597E+01 -.158E+04   0.639E+01 -.610E+01 0.158E+04   0.119E-01 -.275E-01 -.470E+01
   -.154E+01 0.960E+00 -.515E+03   0.161E+01 -.946E+00 0.514E+03   -.104E+00 -.193E-01 0.385E+00
   -.180E+01 -.180E+01 -.527E+03   0.185E+01 0.185E+01 0.527E+03   -.846E-01 -.846E-01 -.154E+00
   0.390E+00 0.610E+00 0.519E+03   -.398E+00 -.588E+00 -.519E+03   0.112E-01 -.299E-01 -.742E-01
   0.344E+00 -.372E+00 0.520E+03   -.354E+00 0.372E+00 -.520E+03   0.131E-01 0.831E-04 -.534E-01
   0.117E+00 -.107E+00 0.157E+04   -.118E+00 0.108E+00 -.157E+04   0.176E-02 -.210E-02 0.360E+01
   0.108E+00 0.108E+00 0.157E+04   -.109E+00 -.109E+00 -.157E+04   0.992E-03 0.995E-03 0.360E+01
   0.155E+01 0.292E+01 -.158E+04   -.171E+01 -.286E+01 0.158E+04   0.183E+00 -.150E+00 -.480E+01
   0.116E+01 -.118E+01 -.158E+04   -.131E+01 0.133E+01 0.158E+04   0.165E+00 -.174E+00 -.515E+01
   0.960E+00 -.154E+01 -.515E+03   -.946E+00 0.161E+01 0.514E+03   -.193E-01 -.104E+00 0.385E+00
   0.861E+00 0.861E+00 -.515E+03   -.854E+00 -.854E+00 0.514E+03   -.130E-01 -.130E-01 0.324E+00
   0.619E+00 -.583E+00 0.518E+03   -.593E+00 0.549E+00 -.518E+03   -.346E-01 0.474E-01 -.109E+00
   0.610E+00 0.390E+00 0.519E+03   -.588E+00 -.398E+00 -.519E+03   -.299E-01 0.113E-01 -.742E-01
   0.106E+00 0.106E+00 0.157E+04   -.108E+00 -.108E+00 -.157E+04   0.271E-02 0.271E-02 0.359E+01
   0.974E-01 -.108E+00 0.157E+04   -.987E-01 0.109E+00 -.157E+04   0.189E-02 -.643E-03 0.360E+01
   0.597E+01 -.624E+01 -.158E+04   -.610E+01 0.639E+01 0.158E+04   -.275E-01 0.119E-01 -.470E+01
   0.292E+01 0.155E+01 -.158E+04   -.286E+01 -.171E+01 0.158E+04   -.150E+00 0.183E+00 -.480E+01
   0.185E+01 0.185E+01 -.526E+03   -.190E+01 -.190E+01 0.527E+03   0.800E-01 0.799E-01 -.928E-01
   0.146E+01 -.939E+00 -.515E+03   -.153E+01 0.932E+00 0.514E+03   0.999E-01 0.131E-01 0.389E+00
   0.386E-01 0.386E-01 0.139E+02   -.650E-12 0.968E-13 -.819E-11   -.357E-01 -.356E-01 -.139E+02

 POSITION                                       TOTAL-FORCE (eV/Angst)
      2.10122      0.00000      7.50000         0.000033      0.000018      0.259109
      4.20243      2.10122      7.50000        -0.000044      0.000429      0.259222
      2.10122      2.10122      9.60122         0.004748      0.004745      0.021639
      4.20243      0.00000      9.60122         0.003396     -0.001910      0.036707
      2.10216      0.00084     11.70957         0.007890     -0.008307      0.005393
      4.20332      2.10539     11.71416         0.007985      0.007185     -0.032830
      2.09979      2.09979     13.79559        -0.038514     -0.038509      0.083680
      4.20060      0.01047     13.79081        -0.033572     -0.114870      0.143539
      2.10122      4.20243      7.50000         0.000429     -0.000043      0.259232
      4.20243      6.30365      7.50000         0.000359     -0.000512      0.260137
      2.10122      6.30365      9.60122         0.005623     -0.002136      0.035890
      4.20243      4.20243      9.60122         0.003561      0.003561      0.047876
      2.10539      4.20332     11.71416         0.007189      0.007983     -0.032829
      4.20655      6.30081     11.71551         0.002697     -0.003469      0.088717
      2.09350      6.30810     13.79092         0.115130      0.032497      0.141453
      4.18967      4.18967     13.84107         0.169931      0.169945     -0.191891
      6.30365      0.00000      7.50000        -0.000109     -0.000359      0.258889
      0.00000      2.10122      7.50000         0.000019      0.000036      0.259104
      6.30365      2.10122      9.60122        -0.002138      0.005622      0.035890
      0.00000      0.00000      9.60122        -0.001436     -0.001439      0.020562
      6.30423      8.40311     11.71346        -0.008219     -0.007785     -0.034384
      0.00084      2.10216     11.70957        -0.008307      0.007891      0.005401
      6.30810      2.09350     13.79092         0.032512      0.115120      0.141451
      0.00432      0.00432     13.79484         0.038656      0.038669      0.083440
      6.30365      4.20243      7.50000        -0.000512      0.000355      0.260141
      0.00000      6.30365      7.50000        -0.000358     -0.000112      0.258884
      6.30365      6.30365      9.60122        -0.001651     -0.001650      0.046337
      0.00000      4.20243      9.60122        -0.001911      0.003399      0.036700
      6.30081      4.20655     11.71551        -0.003472      0.002692      0.088714
      8.40311      6.30423     11.71346        -0.007780     -0.008217     -0.034382
      6.32056      6.32055     13.83587        -0.180331     -0.180325     -0.163686
      0.01047      4.20060     13.79080        -0.114868     -0.033568      0.143535
      2.10122      0.00000      9.60122        -0.000039      0.003187      0.043766
      4.20243      2.10122      9.60122         0.000075      0.012191      0.059362
      2.10122      2.10122      7.50000        -0.000413     -0.000406     -0.458670
      4.20243      0.00000      7.50000        -0.000221      0.000497     -0.458493
      2.10034      0.00354     13.83905        -0.023596      0.021815      0.002769
      4.20215      2.09434     13.83738        -0.024223      0.084510      0.095549
      2.10206      2.10206     11.70462         0.004946      0.004958     -0.000631
      4.20300      8.40397     11.70526         0.006031      0.036139     -0.014797
      2.10122      4.20243      9.60122         0.012190      0.000074      0.059366
      4.20243      6.30365      9.60122         0.012480     -0.009246      0.058544
      2.10122      6.30365      7.50000        -0.000641      0.000459     -0.458501
      4.20243      4.20243      7.50000        -0.000492     -0.000489     -0.459439
      2.09434      4.20215     13.83738         0.084513     -0.024224      0.095554
      4.18968      6.31922     13.85119         0.158140     -0.156307      0.069498
      2.10398      6.30445     11.70515        -0.037366     -0.005541     -0.014515
      4.20497      4.20497     11.71798        -0.032483     -0.032475     -0.020150
      6.30365      0.00000      9.60122         0.002721     -0.008460      0.058343
      0.00000      2.10122      9.60122         0.003194     -0.000039      0.043763
      6.30365      2.10122      7.50000         0.000456     -0.000643     -0.458504
      0.00000      0.00000      7.50000         0.000240      0.000242     -0.458432
      6.30658      0.01038     13.83534         0.025290     -0.093887      0.100877
      0.00354      2.10034     13.83904         0.021808     -0.023606      0.002805
      6.30445      2.10398     11.70515        -0.005537     -0.037369     -0.014513
      0.00091      0.00091     11.70417        -0.005950     -0.005952     -0.000348
      6.30365      4.20243      9.60122        -0.009242      0.012480      0.058545
      0.00000      6.30365      9.60122        -0.008453      0.002722      0.058338
      6.30365      6.30365      7.50000         0.000754      0.000753     -0.459191
      0.00000      4.20243      7.50000         0.000501     -0.000224     -0.458493
      6.31922      4.18968     13.85119        -0.156309      0.158145      0.069506
      0.01038      6.30658     13.83534        -0.093891      0.025282      0.100872
      6.30277      6.30277     11.71716         0.032445      0.032449     -0.019625
      8.40398      4.20301     11.70525         0.036138      0.006030     -0.014793
    total drift:                                0.002947      0.002975      0.005139

  FREE ENERGIE OF THE ION-ELECTRON SYSTEM (eV)
  free  energy   TOTEN  =      -264.97959904 eV

  energy  without entropy=     -264.97959904  energy(sigma->0) =     -264.97959904