 vasp.6.3.0 20Jan22 (build Mar 11 2022 13:48:16) complex

 executed on             LinuxIFC date 2024.02.13  04:46:02

 INCAR:
   SYSTEM = Oxide-Surface
   ISMEAR = 0
   SIGMA = 0.05
   EDIFF = 1E-5
   ALGO = ALL
   ISTART = 0
   IBRION = -1
   NSW = 0
   ISYM = 2
   DIPOL = 0.5 0.5 0.5
   IDIPOL = 3
   LDIPOL = .TRUE.
   METAGGA = R2SCAN
   LUSE_VDW = .TRUE.
   BPARAM = 11.95
   CPARAM = 0.0093
   LASPH = .TRUE.
   ENCUT = 600
   PREC = Accurate
   LASPH = .TRUE.
   LREAL = .FALSE.
   ISPIN = 1
   NELM = 200
   NELMIN = 8
   NCORE = 19
   KPAR = 1
   LWAVE = .FALSE.
   LCHARG = .FALSE.

 POTCAR:    PAW_PBE H 15Jun2001
 POTCAR:    PAW_PBE O 08Apr2002
 POTCAR:    PAW_PBE Mg_pv 13Apr2007
 POTCAR:    PAW_PBE O 08Apr2002
|               ----> ADVICE to this user running VASP <----                  |
|     You have switched on vdW-DFT.                                           |
|     This routine was written and supplied by Jiri Klimes. We recommend      |
|     that you carefully read and cite the following publications:            |
|       J. Klimes, D.R. Bowler, A. Michelides                                 |
|          J. Phys.: Cond Matt. 22 022201 (2010)                              |
|       J. Klimes, D.R. Bowler, A. Michelides                                 |
|          Phys. Rev. B. 83, 195131 (2011)                                    |
|     and references therein.                                                 |

   TITEL  = PAW_PBE H 15Jun2001
   POMASS =    1.000; ZVAL   =    1.000    mass and valenz
   ENMAX  =  250.000; ENMIN  =  200.000 eV

   TITEL  = PAW_PBE O 08Apr2002
   POMASS =   16.000; ZVAL   =    6.000    mass and valenz
   ENMAX  =  400.000; ENMIN  =  300.000 eV

   TITEL  = PAW_PBE Mg_pv 13Apr2007
   POMASS =   24.305; ZVAL   =    8.000    mass and valenz
   ENMAX  =  403.929; ENMIN  =  302.947 eV

   TITEL  = PAW_PBE O 08Apr2002
   POMASS =   16.000; ZVAL   =    6.000    mass and valenz
   ENMAX  =  400.000; ENMIN  =  300.000 eV

  PAW_PBE H 15Jun2001                   :
  PAW_PBE O 08Apr2002                   :
  PAW_PBE Mg_pv 13Apr2007               :
  PAW_PBE O 08Apr2002                   :

 POSCAR:  H  O Mg  O
  positions in direct lattice

 METAGGA = R2SCA    LMAXTAU =  6    LMIXTAU =  F

 ion  position               nearest neighbor table
   1  0.617  0.554  0.767-   3 0.97
   2  0.510  0.673  0.728-   3 1.01
   3  0.508  0.572  0.754-   1 0.97   2 1.01  34 2.25
   4  0.000  0.750  0.352-  36 2.11  38 2.11  39 2.11  46 2.11  55 2.11
   5  0.250  0.000  0.352-  37 2.11  38 2.11  39 2.11  47 2.11  54 2.11
   6  0.000  0.000  0.451-  38 2.11  37 2.11  36 2.11  44 2.11  53 2.11  42 2.11
   7  0.250  0.750  0.451-  39 2.11  37 2.11  36 2.11  45 2.11  52 2.11  43 2.12
   8  0.000  0.750  0.550-  50 2.11  42 2.11  43 2.11  36 2.12  59 2.12  40 2.15
   9  0.250  0.000  0.550-  51 2.11  43 2.11  58 2.11  42 2.11  37 2.12  41 2.15
  10  0.000  0.000  0.649-  48 2.10  41 2.10  57 2.11  42 2.11  40 2.11
  11  0.248  0.750  0.648-  40 2.09  43 2.10  49 2.11  41 2.11  56 2.13
  12  0.000  0.250  0.352-  44 2.11  38 2.11  46 2.11  47 2.11  63 2.11
  13  0.250  0.500  0.352-  45 2.11  39 2.11  46 2.11  47 2.11  62 2.11
  14  0.000  0.500  0.451-  46 2.11  44 2.11  45 2.11  36 2.11  61 2.11  50 2.11
  15  0.250  0.250  0.451-  47 2.11  44 2.11  45 2.11  37 2.11  60 2.11  51 2.12
  16  0.000  0.250  0.550-  51 2.11  50 2.11  67 2.11  42 2.11  44 2.12  48 2.15
  17  0.251  0.500  0.550-  66 2.11  51 2.11  43 2.11  49 2.12  50 2.12  45 2.13
  18  0.000  0.500  0.648-  49 2.09  65 2.10  50 2.11  48 2.11  40 2.12
  19  0.249  0.250  0.649-  48 2.10  41 2.11  51 2.11  49 2.11  64 2.12
  20  0.500  0.750  0.352-  52 2.11  39 2.11  54 2.11  55 2.11  62 2.11
  21  0.750  0.000  0.352-  53 2.11  38 2.11  54 2.11  55 2.11  63 2.11
  22  0.500  0.000  0.451-  54 2.11  52 2.11  53 2.11  37 2.11  60 2.11  58 2.12
  23  0.750  0.750  0.451-  55 2.11  52 2.11  53 2.11  36 2.11  61 2.11  59 2.12
  24  0.500  0.749  0.550-  66 2.10  43 2.10  59 2.11  58 2.11  52 2.13  56 2.20
  25  0.750  0.000  0.550-  67 2.11  58 2.11  42 2.11  59 2.11  53 2.12  57 2.15
  26  0.500  0.002  0.649-  64 2.07  56 2.09  58 2.11  41 2.11  57 2.12
  27  0.752  0.751  0.648-  59 2.08  40 2.09  57 2.10  65 2.11  56 2.13
  28  0.500  0.250  0.352-  60 2.11  54 2.11  47 2.11  62 2.11  63 2.11
  29  0.750  0.500  0.352-  61 2.11  55 2.11  46 2.11  62 2.11  63 2.11
  30  0.500  0.500  0.451-  62 2.11  52 2.11  60 2.11  61 2.11  45 2.11  66 2.14
  31  0.750  0.250  0.451-  63 2.11  53 2.11  60 2.11  61 2.11  44 2.11  67 2.12
  32  0.500  0.251  0.550-  51 2.11  66 2.11  67 2.11  58 2.12  60 2.13  64 2.14
  33  0.749  0.500  0.550-  66 2.10  67 2.11  59 2.11  50 2.12  61 2.13  65 2.15
  34  0.498  0.494  0.653-  64 2.08  49 2.11  65 2.14  66 2.19  56 2.20   3 2.25
  35  0.751  0.250  0.648-  48 2.10  67 2.10  57 2.11  64 2.12  65 2.12
  36  0.000  0.750  0.451-   4 2.11   6 2.11   7 2.11  14 2.11  23 2.11   8 2.12
  37  0.250  0.000  0.451-   5 2.11   6 2.11   7 2.11  15 2.11  22 2.11   9 2.12
  38  0.000  0.000  0.352-   6 2.11   5 2.11   4 2.11  12 2.11  21 2.11
  39  0.250  0.750  0.352-   7 2.11   5 2.11   4 2.11  13 2.11  20 2.11
  40  1.000  0.750  0.651-  27 2.09  11 2.09  10 2.11  18 2.12   8 2.15
  41  0.249  1.000  0.651-  10 2.10  19 2.11  11 2.11  26 2.11   9 2.15
  42  1.000  1.000  0.550-  10 2.11   8 2.11  25 2.11   9 2.11  16 2.11   6 2.11
  43  0.251  0.750  0.550-  11 2.10  24 2.10   9 2.11   8 2.11  17 2.11   7 2.12
  44  0.000  0.250  0.451-  12 2.11   6 2.11  14 2.11  15 2.11  31 2.11  16 2.12
  45  0.250  0.500  0.451-  13 2.11   7 2.11  14 2.11  15 2.11  30 2.11  17 2.13
  46  0.000  0.500  0.352-  14 2.11  12 2.11  13 2.11   4 2.11  29 2.11
  47  0.250  0.250  0.352-  15 2.11  12 2.11  13 2.11   5 2.11  28 2.11
  48  1.000  0.250  0.651-  35 2.10  10 2.10  19 2.10  18 2.11  16 2.15
  49  0.248  0.500  0.650-  18 2.09  11 2.11  34 2.11  19 2.11  17 2.12
  50  1.000  0.500  0.550-   8 2.11  18 2.11  16 2.11  14 2.11  33 2.12  17 2.12
  51  0.250  0.250  0.550-   9 2.11  32 2.11  16 2.11  17 2.11  19 2.11  15 2.12
  52  0.500  0.750  0.451-  20 2.11   7 2.11  22 2.11  23 2.11  30 2.11  24 2.13
  53  0.750  0.000  0.451-  21 2.11   6 2.11  22 2.11  23 2.11  31 2.11  25 2.12
  54  0.500  0.000  0.352-  22 2.11  20 2.11  21 2.11   5 2.11  28 2.11
  55  0.750  0.750  0.352-  23 2.11  20 2.11  21 2.11   4 2.11  29 2.11
  56  0.500  0.754  0.653-  26 2.09  11 2.13  27 2.13  24 2.20  34 2.20
  57  0.750  1.000  0.651-  27 2.10  10 2.11  35 2.11  26 2.12  25 2.15
  58  0.500  0.999  0.550-  26 2.11  25 2.11   9 2.11  24 2.11  22 2.12  32 2.12
  59  0.749  0.750  0.550-  27 2.08  24 2.11  25 2.11  33 2.11   8 2.12  23 2.12
  60  0.500  0.250  0.451-  28 2.11  22 2.11  15 2.11  30 2.11  31 2.11  32 2.13
  61  0.750  0.500  0.451-  29 2.11  23 2.11  14 2.11  30 2.11  31 2.11  33 2.13
  62  0.500  0.500  0.352-  30 2.11  20 2.11  28 2.11  29 2.11  13 2.11
  63  0.750  0.250  0.352-  31 2.11  21 2.11  28 2.11  29 2.11  12 2.11
  64  0.500  0.248  0.651-  26 2.07  34 2.08  35 2.12  19 2.12  32 2.14
  65  0.752  0.500  0.651-  18 2.10  27 2.11  35 2.12  34 2.14  33 2.15
  66  0.500  0.500  0.551-  24 2.10  33 2.10  17 2.11  32 2.11  30 2.14  34 2.19
  67  0.750  0.250  0.550-  35 2.10  25 2.11  33 2.11  32 2.11  16 2.11  31 2.12

  LATTYP: Found a simple tetragonal cell.
 ALAT       =     8.4409846542
 C/A-ratio  =     2.5270438657

  Lattice vectors:

 A1 = (   8.4409846542,   0.0000000000,   0.0000000000)
 A2 = (   0.0000000000,   8.4409846542,   0.0000000000)
 A3 = (   0.0000000000,   0.0000000000,  21.3307384906)

Analysis of symmetry for initial positions (statically):
 Subroutine PRICEL returns:
 Original cell was already a primitive cell.

 Routine SETGRP: Setting up the symmetry group for a
 simple tetragonal supercell.

 Subroutine GETGRP returns: Found  1 space group operations
 (whereof  1 operations were pure point group operations)
 out of a pool of 16 trial point group operations.

The static configuration has the point symmetry C_1 .

Analysis of symmetry for dynamics (positions and initial velocities):
 Subroutine PRICEL returns:
 Original cell was already a primitive cell.

[...]

The dynamic configuration has the point symmetry C_1 .

Analysis of constrained symmetry for selective dynamics:
 Subroutine PRICEL returns:
 Original cell was already a primitive cell.

 Routine SETGRP: Setting up the symmetry group for a
 simple tetragonal supercell.

 Subroutine GETGRP returns: Found  1 space group operations
 (whereof  1 operations were pure point group operations)
 out of a pool of 16 trial point group operations.

The constrained configuration has the point symmetry C_1 .

 Subroutine INISYM returns: Found  1 space group operations
 (whereof  1 operations are pure point group operations),
 and found     1 'primitive' translations

                                     Primitive cell

  volume of cell :    1519.8199

  direct lattice vectors                    reciprocal lattice vectors
     8.440984654  0.000000000  0.000000000     0.118469591  0.000000000  0.000000000
     0.000000000  8.440984654  0.000000000     0.000000000  0.118469591  0.000000000
     0.000000000  0.000000000 21.330738491     0.000000000  0.000000000  0.046880702

  length of vectors
     8.440984654  8.440984654 21.330738491     0.118469591  0.118469591  0.046880702

  position of ions in fractional coordinates (direct lattice)
     0.616747350  0.554373542  0.766913467
     0.509929304  0.672789327  0.728458732
     0.507505033  0.572133215  0.754100542
     0.000000000  0.750000000  0.351605267
     0.250000000  0.000000000  0.351605267
     0.000000000  0.000000000  0.450535089
     0.250000000  0.750000000  0.450535089
     0.000207284  0.749768794  0.549791295
     0.250042949  0.000125680  0.550039895
     0.000073806  0.000410042  0.648595353
     0.247683155  0.749917871  0.648435248
     0.000000000  0.250000000  0.351605267
     0.250000000  0.500000000  0.351605267
     0.000000000  0.500000000  0.450535089
     0.250000000  0.250000000  0.450535089
     0.000031262  0.250140480  0.549909578
     0.250686002  0.499742672  0.550400910
     0.000425668  0.499513881  0.648371969
     0.248982972  0.249855834  0.648744198
     0.500000000  0.750000000  0.351605267
     0.750000000  0.000000000  0.351605267
     0.500000000  0.000000000  0.450535089
     0.750000000  0.750000000  0.450535089
     0.499726028  0.748980267  0.550355635
     0.749777797  0.000284338  0.549933824
     0.499677098  0.001992687  0.648655524
     0.752464721  0.750671887  0.647526815
     0.500000000  0.250000000  0.351605267
     0.750000000  0.500000000  0.351605267
     0.500000000  0.500000000  0.450535089
     0.750000000  0.250000000  0.450535089
     0.499781674  0.250547524  0.550270665
     0.749015091  0.499678732  0.550464135
     0.498120585  0.493518517  0.653381840
     0.750669226  0.249556903  0.648459532
     0.000000000  0.750000000  0.450535089
     0.250000000  0.000000000  0.450535089
     0.000000000  0.000000000  0.351605267
     0.250000000  0.750000000  0.351605267
     0.999772439  0.750337934  0.650565869
[...]
   2.11060869  0.00106086 11.73275716
   0.00062299  0.00346116 13.83501786
   2.09068971  6.33004524 13.83160269
   0.00000000  2.11024616  7.50000000
   2.11024616  4.22049233  7.50000000
   0.00000000  4.22049233  9.61024616
   2.11024616  2.11024616  9.61024616
   0.00026388  2.11143195 11.72997741
   2.11603670  4.21832022 11.74045787
   0.00359306  4.21638900 13.83025292
   2.10166144  2.10902926 13.83819283
   4.22049233  6.33073849  7.50000000
   6.33073849  0.00000000  7.50000000
   4.22049233  0.00000000  9.61024616
   6.33073849  6.33073849  9.61024616
   4.21817974  6.32213094 11.73949212
   6.32886287  0.00240009 11.73049459
   4.21776672  0.01682024 13.83630135
   6.35154316  6.33640988 13.81222516
   4.22049233  2.11024616  7.50000000
   6.33073849  4.22049233  7.50000000
   4.22049233  4.22049233  9.61024616
   6.33073849  2.11024616  9.61024616
   4.21864944  2.11486781 11.73767965
   6.32242489  4.21778051 11.74180651
   4.20462822  4.16578223 13.93711716
   6.33638741  2.10650599 13.83212070
   0.00000000  6.33073849  9.61024616
   2.11024616  0.00000000  9.61024616
   0.00000000  0.00000000  7.50000000
   2.11024616  6.33073849  7.50000000
   8.43906381  6.33359099 13.87705043
   2.10401508  8.44003638 13.88070586
   8.43955392  8.43908338 11.72473292
   2.11496591  6.33270723 11.73124038
   0.00000000  2.11024616  9.61024616
   2.11024616  4.22049233  9.61024616
   0.00000000  4.22049233  7.50000000
   2.11024616  2.11024616  7.50000000
   8.43882104  2.10668272 13.88051562
   2.09489126  4.22127032 13.85873863
   8.43745586  4.22140364 11.72242410
   2.10947957  2.10701274 11.72618737
   4.22049233  6.33073849  9.61024616
   6.33073849  0.00000000  9.61024616
   4.22049233  0.00000000  7.50000000
   6.33073849  6.33073849  7.50000000
   4.22153682  6.36778340 13.93501619
   6.33491019  8.43985314 13.88003698
   4.22045253  8.43502931 11.72954038
   6.32507095  6.33100409 11.72992309
   4.22049233  2.11024616  9.61024616
   6.33073849  4.22049233  9.61024616
   4.22049233  4.22049233  7.50000000
   6.33073849  2.11024616  7.50000000
   4.22061936  2.09110054 13.87598627
   6.34493629  4.22297378 13.88752142
   4.22176351  4.22431052 11.74806512
   6.32990452  2.10929340 11.72767439

--------------------------------------- Iteration      FINAL  ---------------------------------------

--------------------OUTCAR has been truncated-------------------------

[...]

--------------------OUTCAR has been truncated-------------------------

  FORCE on cell =-STRESS in cart. coord.  units (eV):
  Direction    XX          YY          ZZ          XY          YZ          ZX
  Alpha Z   899.29934   899.29934   899.29934
  Ewald  160252.11361160264.72282************   -13.83408   -25.87346    31.07552
  Hartree170535.89735170552.12438************    -2.95068    -0.50073     6.66963
  E(xc)   -2692.75883 -2692.59318 -2690.55007     0.09080     0.09406    -0.20819
  Local  ************************340638.04968    13.04578    15.96730   -29.62999
  n-local -2816.09884 -2815.89704 -2837.01361    -0.23583     0.23823     0.42058
  augment  1184.34276  1184.76425  1176.24791     0.21767     0.69895    -0.60242
  Kinetic  7463.82214  7469.12565  7511.37716     3.70577     9.55914    -7.77737
  Fock        0.00000     0.00000     0.00000     0.00000     0.00000     0.00000
  Total     -44.37284   -44.22458   -14.92850     0.03943     0.18349    -0.05225
  in kB     -46.77736   -46.62106   -15.73746     0.04157     0.19343    -0.05508

 VOLUME and BASIS-vectors are now :
  energy-cutoff  :      600.00
  volume of cell :     1519.82
      direct lattice vectors                 reciprocal lattice vectors
     8.440984654  0.000000000  0.000000000     0.118469591  0.000000000  0.000000000
     0.000000000  8.440984654  0.000000000     0.000000000  0.118469591  0.000000000
     0.000000000  0.000000000 21.330738491     0.000000000  0.000000000  0.046880702

  length of vectors
     8.440984654  8.440984654 21.330738491     0.118469591  0.118469591  0.046880702

 FORCES acting on ions:
    Electron-Ion                     Ewald-Force                    Non-Local-Force
   -.822E+02 0.155E+02 -.292E+03   0.897E+02 -.169E+02 0.295E+03   -.785E+01 0.148E+01 -.246E+01
   0.663E+00 -.674E+02 -.264E+03   -.800E+00 0.731E+02 0.260E+03   0.103E+00 -.604E+01 0.379E+01
   0.480E+02 0.269E+02 -.170E+04   -.858E+02 -.473E+02 0.171E+04   0.381E+02 0.207E+02 -.114E+02
   -.169E-01 -.213E-01 0.208E+04   0.185E-01 0.173E-01 -.208E+04   -.122E-02 0.270E-02 -.713E+01
   -.320E-01 -.297E-01 0.208E+04   0.336E-01 0.322E-01 -.208E+04   -.113E-02 -.189E-02 -.716E+01
   -.148E+00 -.258E+00 0.715E+03   0.164E+00 0.294E+00 -.715E+03   -.117E-01 -.265E-01 0.318E+00
   -.328E-01 -.191E-02 0.715E+03   0.114E+00 -.985E-02 -.715E+03   -.590E-01 0.677E-02 0.465E+00
   -.391E+00 -.284E+01 -.640E+03   0.479E+00 0.278E+01 0.640E+03   -.108E+00 0.842E-01 -.788E-01
   0.257E+01 -.107E+01 -.645E+03   -.252E+01 0.114E+01 0.646E+03   -.479E-01 -.816E-01 -.183E+00
   -.919E+00 -.432E+01 -.202E+04   0.994E+00 0.448E+01 0.201E+04   -.722E-01 -.161E+00 0.608E+01
   0.250E+02 -.212E+02 -.198E+04   -.260E+02 0.212E+02 0.198E+04   0.961E+00 -.149E-01 0.616E+01
   -.944E-02 0.205E-01 0.208E+04   0.103E-01 -.168E-01 -.208E+04   -.620E-03 -.261E-02 -.716E+01
   -.643E-01 0.304E-01 0.208E+04   0.698E-01 -.331E-01 -.208E+04   -.466E-02 0.189E-02 -.717E+01
   -.921E-01 0.248E+00 0.716E+03   0.611E-01 -.289E+00 -.716E+03   0.223E-01 0.291E-01 0.220E+00
   -.154E+00 -.309E-01 0.715E+03   0.149E+00 0.379E-01 -.716E+03   0.420E-02 -.409E-02 0.325E+00
   -.632E-01 0.285E+01 -.646E+03   0.108E+00 -.279E+01 0.646E+03   -.458E-01 -.751E-01 -.827E-01
   0.357E+01 0.111E+01 -.636E+03   -.334E+01 -.117E+01 0.637E+03   -.304E+00 0.884E-01 -.961E+00
   -.119E+01 0.512E+01 -.200E+04   0.138E+01 -.527E+01 0.200E+04   -.173E+00 0.145E+00 0.602E+01
   0.165E+02 0.180E+02 -.201E+04   -.168E+02 -.181E+02 0.200E+04   0.320E+00 0.496E-01 0.619E+01
   0.176E-01 0.963E-02 0.208E+04   -.193E-01 -.180E-01 -.208E+04   0.129E-02 0.655E-02 -.717E+01
   0.309E-01 -.373E-01 0.208E+04   -.329E-01 0.405E-01 -.208E+04   0.161E-02 -.234E-02 -.714E+01
   0.140E+00 -.307E+00 0.715E+03   -.164E+00 0.261E+00 -.715E+03   0.167E-01 0.326E-01 0.367E+00
   0.114E-02 0.470E-01 0.715E+03   -.838E-01 -.102E+00 -.716E+03   0.600E-01 0.392E-01 0.482E+00
   0.403E+00 -.297E+01 -.645E+03   -.483E+00 0.273E+01 0.644E+03   0.103E+00 0.356E+00 0.956E+00
   -.257E+01 -.142E+01 -.643E+03   0.253E+01 0.153E+01 0.643E+03   0.677E-01 -.138E+00 -.131E+00
   0.117E+01 -.112E+02 -.200E+04   -.124E+01 0.116E+02 0.199E+04   0.824E-01 -.462E+00 0.593E+01
   -.259E+02 -.221E+02 -.197E+04   0.270E+02 0.223E+02 0.196E+04   -.111E+01 -.276E+00 0.626E+01
   0.909E-02 -.133E-01 0.208E+04   -.104E-01 0.206E-01 -.208E+04   0.949E-03 -.589E-02 -.715E+01
   0.625E-01 0.388E-01 0.208E+04   -.690E-01 -.419E-01 -.208E+04   0.511E-02 0.248E-02 -.718E+01
   0.752E-01 0.336E+00 0.713E+03   -.578E-01 -.308E+00 -.714E+03   -.134E-01 -.217E-01 0.594E+00
   0.132E+00 -.837E-01 0.715E+03   -.134E+00 0.139E+00 -.716E+03   0.509E-03 -.389E-01 0.381E+00
   0.635E-01 0.365E+01 -.639E+03   -.106E+00 -.346E+01 0.639E+03   0.660E-01 -.252E+00 -.438E+00
   -.341E+01 0.148E+01 -.641E+03   0.317E+01 -.158E+01 0.641E+03   0.343E+00 0.123E+00 -.335E+00
   0.474E+01 0.301E+02 -.191E+04   -.518E+01 -.320E+02 0.191E+04   0.506E+00 0.182E+01 0.262E+01
   -.168E+02 0.182E+02 -.200E+04   0.171E+02 -.184E+02 0.199E+04   -.281E+00 0.190E+00 0.611E+01
   -.222E-01 -.221E+00 0.537E+03   0.200E-01 0.206E+00 -.537E+03   0.159E-02 0.226E-01 0.248E-01
   -.210E-01 -.181E-01 0.536E+03   0.252E-01 0.378E-01 -.536E+03   -.525E-02 -.290E-01 -.101E+00
   -.148E-01 -.271E-01 0.156E+04   0.181E-01 0.337E-01 -.157E+04   -.466E-02 -.929E-02 0.342E+01
   -.329E-01 -.464E-02 0.156E+04   0.411E-01 0.111E-02 -.157E+04   -.117E-01 0.486E-02 0.342E+01
   -.224E+01 -.717E+01 -.153E+04   0.230E+01 0.706E+01 0.153E+04   -.577E-01 0.107E+00 -.513E+01
   0.841E+01 -.584E+01 -.153E+04   -.820E+01 0.578E+01 0.153E+04   -.212E+00 0.593E-01 -.511E+01
   -.373E+00 -.124E+01 -.480E+03   0.384E+00 0.127E+01 0.480E+03   -.100E-01 -.260E-01 0.193E+00
   0.201E+01 -.245E+01 -.475E+03   -.209E+01 0.240E+01 0.474E+03   0.814E-01 0.565E-01 0.444E+00
   0.114E-01 0.213E+00 0.536E+03   -.184E-02 -.192E+00 -.536E+03   -.140E-01 -.295E-01 -.792E-01
   -.185E+00 0.193E-01 0.535E+03   0.131E+00 -.329E-01 -.535E+03   0.732E-01 0.207E-01 -.157E+00
   -.712E-02 0.275E-01 0.156E+04   0.614E-02 -.341E-01 -.157E+04   0.149E-02 0.915E-02 0.341E+01
   -.360E-01 0.410E-02 0.156E+04   0.361E-01 -.350E-03 -.157E+04   -.301E-03 -.523E-02 0.341E+01
   -.934E+00 0.660E+01 -.153E+04   0.934E+00 -.649E+01 0.154E+04   0.277E-02 -.960E-01 -.510E+01
   0.294E+02 0.817E+01 -.149E+04   -.291E+02 -.810E+01 0.150E+04   -.398E+00 -.721E-01 -.525E+01
   0.285E-01 0.125E+01 -.474E+03   0.729E-02 -.128E+01 0.473E+03   -.325E-01 0.315E-01 0.257E+00
   0.234E+01 0.240E+01 -.476E+03   -.234E+01 -.234E+01 0.476E+03   -.345E-02 -.579E-01 0.208E+00
   0.302E-01 -.715E-01 0.536E+03   -.260E-01 0.124E+00 -.536E+03   -.468E-02 -.695E-01 -.137E+00
   0.558E-03 -.561E-01 0.536E+03   0.474E-02 0.647E-01 -.536E+03   -.745E-02 -.144E-01 -.451E-01
   0.155E-01 -.291E-01 0.156E+04   -.186E-01 0.280E-01 -.157E+04   0.430E-02 0.149E-02 0.342E+01
   0.322E-01 0.244E-02 0.156E+04   -.404E-01 -.106E-01 -.157E+04   0.116E-01 0.115E-01 0.342E+01
   0.380E+01 -.372E+02 -.147E+04   -.391E+01 0.369E+02 0.147E+04   0.114E+00 0.284E+00 -.216E+01
   -.854E+01 -.718E+01 -.153E+04   0.832E+01 0.719E+01 0.153E+04   0.228E+00 -.800E-02 -.512E+01
   0.409E+00 -.624E+00 -.476E+03   -.429E+00 0.664E+00 0.476E+03   0.231E-01 -.336E-01 0.323E+00
   -.201E+01 -.206E+01 -.471E+03   0.209E+01 0.204E+01 0.471E+03   -.772E-01 0.200E-01 0.775E+00
   -.246E-01 -.101E-02 0.535E+03   0.240E-01 -.287E-01 -.535E+03   0.190E-02 0.401E-01 -.894E-01
   0.157E+00 0.719E-01 0.535E+03   -.872E-01 -.802E-01 -.535E+03   -.956E-01 0.135E-01 -.192E+00
   0.832E-02 0.316E-01 0.156E+04   -.673E-02 -.299E-01 -.157E+04   -.240E-02 -.250E-02 0.341E+01
   0.359E-01 -.356E-02 0.156E+04   -.360E-01 0.117E-01 -.157E+04   -.983E-05 -.114E-01 0.341E+01
   0.112E+01 0.263E+02 -.151E+04   -.114E+01 -.263E+02 0.151E+04   0.173E-01 0.256E-01 -.500E+01
   -.310E+02 0.106E+02 -.149E+04   0.304E+02 -.106E+02 0.150E+04   0.662E+00 -.575E-01 -.489E+01
   -.136E+00 0.149E+00 -.484E+03   0.869E-01 -.219E+00 0.484E+03   0.506E-01 0.663E-01 -.776E+00
   -.235E+01 0.201E+01 -.476E+03   0.234E+01 -.199E+01 0.476E+03   0.913E-02 -.232E-01 0.348E+00
   -.309E+02 -.178E+02 0.292E+02   0.504E-12 -.394E-12 0.557E-11   0.310E+02 0.177E+02 -.295E+02

 POSITION                                       TOTAL-FORCE (eV/Angst)
      5.20595      4.67946     16.35883        -0.332678      0.029585     -0.069572
      4.30431      5.67900     15.53856        -0.035779     -0.334779      0.173550
      4.28384      4.82937     16.08552         0.341064      0.269346     -0.301437
      0.00000      6.33074      7.50000        -0.001885     -0.000940      0.540717
      2.11025      0.00000      7.50000        -0.001739      0.000942      0.546450
      0.00000      0.00000      9.61025         0.002130      0.010042     -0.043714
      2.11025      6.33074      9.61025         0.020002     -0.004502     -0.037626
      0.00175      6.32879     11.72745        -0.022569      0.025751      0.025664
      2.11061      0.00106     11.73276        -0.000727     -0.008978      0.050809
      0.00062      0.00346     13.83502         0.000353     -0.003158     -0.107352
      2.09069      6.33005     13.83160        -0.005749      0.011059     -0.151454
      0.00000      2.11025      7.50000        -0.002002      0.001438      0.547777
      2.11025      4.22049      7.50000        -0.001392     -0.000440      0.547691
      0.00000      4.22049      9.61025        -0.010868     -0.010929     -0.018966
      2.11025      2.11025      9.61025        -0.002728      0.003222     -0.031753
      0.00026      2.11143     11.72998        -0.003023     -0.011814      0.028325
      2.11604      4.21832     11.74046        -0.072823      0.028027      0.028613
      0.00359      4.21639     13.83025         0.008043      0.000507     -0.176904
      2.10166      2.10903     13.83819         0.011933     -0.003314     -0.077118
      4.22049      6.33074      7.50000        -0.002624     -0.001378      0.548380
      6.33074      0.00000      7.50000        -0.002688      0.001163      0.543418
      4.22049      0.00000      9.61025        -0.009395     -0.012558     -0.018038
      6.33074      6.33074      9.61025        -0.024616     -0.015021     -0.041844
      4.21818      6.32213     11.73949         0.021182      0.121539      0.034728
      6.32886      0.00240     11.73049         0.018094     -0.025535      0.038161
      4.21777      0.01682     13.83630         0.009302      0.001747     -0.145944
      6.35154      6.33641     13.81223        -0.037964     -0.010386     -0.137562
      4.22049      2.11025      7.50000        -0.002586      0.001814      0.544818
      6.33074      4.22049      7.50000        -0.003501     -0.000272      0.550864
      4.22049      4.22049      9.61025         0.001792      0.006669      0.001006
      6.33074      2.11025      9.61025        -0.003946      0.016417     -0.036532
      4.21865      2.11487     11.73768         0.021373     -0.061273      0.050834
      6.32242      4.21778     11.74181         0.098442      0.027546      0.026514
      4.20463      4.16578     13.93712         0.068018     -0.046184      0.057047
      6.33639      2.10651     13.83212        -0.000101     -0.012687     -0.152595
      0.00000      6.33074      9.61025        -0.002826      0.007555      0.077398
      2.11025      0.00000      9.61025        -0.003213     -0.008940      0.066449
      0.00000      0.00000      7.50000        -0.003556     -0.002306     -0.344933
      2.11025      6.33074      7.50000        -0.005667      0.001713     -0.345327
      8.43906      6.33359     13.87705         0.000169      0.000178     -0.180546
      2.10402      8.44004     13.88071        -0.002454      0.003950     -0.181412
      8.43955      8.43908     11.72473        -0.001333      0.001798      0.014555
      2.11497      6.33271     11.73124        -0.005690      0.000507      0.017462
      0.00000      2.11025      9.61025        -0.006692     -0.008432      0.058844
      2.11025      4.22049      9.61025         0.017457      0.007446      0.085639
      0.00000      4.22049      7.50000        -0.001726      0.002948     -0.347275
      2.11025      2.11025      7.50000        -0.002383     -0.001095     -0.347545
      8.43882      2.10668     13.88052         0.001119      0.005091     -0.186723
      2.09489      4.22127     13.85874        -0.009326     -0.002064     -0.161448
      8.43746      4.22140     11.72242         0.001069      0.002765      0.016563
      2.10948      2.10701     11.72619        -0.000817      0.003551      0.014437
      4.22049      6.33074      9.61025        -0.002614     -0.016840      0.085220
      6.33074      0.00000      9.61025        -0.004380     -0.005368      0.071966
      4.22049      0.00000      7.50000        -0.001035      0.000758     -0.345559
      6.33074      6.33074      7.50000         0.001138      0.003696     -0.344206
      4.22154      6.36778     13.93502         0.001655     -0.000365     -0.102144
      6.33491      8.43985     13.88004         0.003776     -0.000526     -0.179563
      4.22045      8.43503     11.72954         0.000826      0.007277      0.014692
      6.32507      6.33100     11.72992         0.004256      0.001376      0.030607
      4.22049      2.11025      9.61025        -0.000969      0.010706      0.094080
      6.33074      4.22049      9.61025        -0.027723      0.005630      0.079771
      4.22049      4.22049      7.50000        -0.003035     -0.000419     -0.348832
      6.33074      2.11025      7.50000        -0.002272     -0.002830     -0.346891
      4.22062      2.09110     13.87599         0.000630     -0.008177     -0.162254
      6.34494      4.22297     13.88752         0.015773     -0.001248     -0.151989
      4.22176      4.22431     11.74807        -0.000670     -0.002922     -0.003442
      6.32990      2.10929     11.72767         0.000171      0.001919      0.015452
    total drift:                                0.149381     -0.025542     -0.316677

  FREE ENERGIE OF THE ION-ELECTRON SYSTEM (eV)
  free  energy   TOTEN  =      -506.90771102 eV

  energy  without entropy=     -506.90771102  energy(sigma->0) =     -506.90771102