 vasp.6.4.2 20Jul23 (build Nov 17 2023 15:39:20) complex
 executed on              LinuxNV date 2024.02.25  11:14:12
 OpenACC runtime initialized ...    4 GPUs detected

 INCAR:
   SYSTEM = Oxide-Surface
   ISMEAR = 0
   SIGMA = 0.05
   EDIFF = 1E-4
   ALGO = Normal
   ISTART = 2
   IBRION = -1
   NSW = 0
   ISYM = 0
   DIPOL = 0.5 0.5 0.5
   IDIPOL = 3
   LDIPOL = .TRUE.
   LHFCALC = .TRUE.
   GGA = PE
   IVDW = 21
   VDW_SR = 0.96
   ENCUT = 450
   PREC = Normal
   LASPH = .TRUE.
   LREAL = Auto
   ISPIN = 1
   NELM = 200
   NELMIN = 8
   NCORE = 1
   KPAR = 1
   LWAVE = .FALSE.
   LCHARG = .FALSE.

 POTCAR:    PAW_PBE H 15Jun2001
 POTCAR:    PAW_PBE O 08Apr2002
 POTCAR:    PAW_PBE Ti_pv 07Sep2000
 POTCAR:    PAW_PBE O 08Apr2002
 POTCAR:    PAW_PBE H 15Jun2001
   VRHFIN =H: ultrasoft test

   TITEL  = PAW_PBE H 15Jun2001
   POMASS =    1.000; ZVAL   =    1.000    mass and valenz
   ENMAX  =  250.000; ENMIN  =  200.000 eV

   TITEL  = PAW_PBE O 08Apr2002
   POMASS =   16.000; ZVAL   =    6.000    mass and valenz
   ENMAX  =  400.000; ENMIN  =  300.000 eV

   TITEL  = PAW_PBE Ti_pv 07Sep2000
   POMASS =   47.880; ZVAL   =   10.000    mass and valenz
   ENMAX  =  222.335; ENMIN  =  166.751 eV

   TITEL  = PAW_PBE O 08Apr2002
   POMASS =   16.000; ZVAL   =    6.000    mass and valenz
   ENMAX  =  400.000; ENMIN  =  300.000 eV

 Optimization of the real space projectors (new method)

 maximal supplied QI-value         = 34.20
 optimisation between [QCUT,QGAM] = [ 10.60, 21.55] = [ 31.48,130.03] Ry
 Optimized for a Real-space Cutoff    1.23 Angstroem

   l    n(q)    QCUT    max X(q) W(low)/X(q) W(high)/X(q)  e(spline)
   0      8    10.603    19.460    0.37E-03    0.59E-03    0.23E-06
   0      8    10.603    12.209    0.35E-03    0.56E-03    0.22E-06
   1      7    10.603     4.655    0.70E-04    0.28E-03    0.29E-06
 Optimization of the real space projectors (new method)

[...]

   l    n(q)    QCUT    max X(q) W(low)/X(q) W(high)/X(q)  e(spline)
   1      9    10.734     4.216    0.90E-04    0.17E-04    0.73E-07
   1      9    10.734     5.422    0.20E-03    0.95E-04    0.21E-06
   2      9    10.734    72.084    0.40E-03    0.60E-03    0.19E-06
   2      9    10.734    65.965    0.40E-03    0.59E-03    0.19E-06
   0      9    10.734    41.531    0.93E-04    0.36E-04    0.17E-06
   0      9    10.734    16.290    0.71E-04    0.26E-04    0.13E-06
 Optimization of the real space projectors (new method)

 maximal supplied QI-value         = 24.76
 optimisation between [QCUT,QGAM] = [ 10.64, 21.54] = [ 31.73,129.89] Ry
 Optimized for a Real-space Cutoff    1.23 Angstroem

   l    n(q)    QCUT    max X(q) W(low)/X(q) W(high)/X(q)  e(spline)
   0      8    10.645    20.381    0.38E-03    0.60E-03    0.15E-06
   0      8    10.645    15.268    0.40E-03    0.65E-03    0.17E-06
   1      7    10.645     5.964    0.30E-03    0.63E-03    0.18E-06
   1      7    10.645     5.382    0.24E-03    0.53E-03    0.16E-06
  PAW_PBE H 15Jun2001                   :
  PAW_PBE O 08Apr2002                   :
  PAW_PBE Ti_pv 07Sep2000               :
  PAW_PBE O 08Apr2002                   :

 POSCAR:  H  O Ti  O
  positions in direct lattice
 exchange correlation table for  LEXCH =        8
   RHO(1)=    0.500       N(1)  =     2000
   RHO(2)=  100.500       N(2)  =     4000

 ion  position               nearest neighbor table
   1  0.694  0.433  0.772-   3 0.98
   2  0.689  0.569  0.774-   3 0.98
   3  0.632  0.499  0.774-   2 0.98   1 0.98  51 2.30
   4  0.808  0.833  0.295-  88 1.94  54 1.94  56 1.94  53 1.99  55 1.99  21 3.05   7 3.05   5 3.05

   5  0.592  0.667  0.327-  52 1.94 119 1.94  55 1.94  57 1.94  56 1.99  58 1.99  36 3.05   6 3.05
                             4 3.05  10 3.08
   6  0.308  0.667  0.295- 124 1.94  58 1.94  60 1.94  52 1.99  59 1.99  39 3.05   5 3.05   7 3.05

   7  0.092  0.833  0.327-  53 1.94  91 1.94  59 1.94  61 1.94  60 1.99  54 1.99  22 3.05   4 3.05
                             6 3.05   8 3.08
   8  0.945  0.834  0.423-  62 1.92  96 1.93  64 1.94  54 1.98  63 1.98  61 2.00  11 2.99   9 3.04
                            25 3.05   7 3.08
   9  0.727  0.666  0.451-  57 1.89 127 1.93  63 1.94  65 1.96  66 1.99  64 2.00  10 3.01   8 3.04
                            40 3.05  14 3.10
  10  0.444  0.667  0.422-  66 1.93 132 1.93  68 1.93  58 1.97  67 1.99  57 2.00   9 3.01  11 3.05
                            43 3.05   5 3.08
  11  0.226  0.833  0.452-  61 1.90  99 1.94  67 1.94  62 1.97  69 1.97  68 2.01   8 2.99  26 3.05
                            10 3.05  12 3.11
  12  0.086  0.834  0.550-  70 1.92 104 1.93  72 1.94  71 1.97  69 2.01  62 2.01  15 2.95  13 3.04
                            29 3.05  11 3.11
  13  0.865  0.666  0.575-  65 1.86 135 1.93  71 1.94  74 1.95  72 2.01  73 2.01  14 2.98  12 3.04
                            44 3.05  18 3.17
  14  0.584  0.667  0.549- 140 1.93  74 1.93  76 1.93  66 1.97  75 1.98  65 2.02  13 2.98  15 3.05
                            47 3.06   9 3.10
  15  0.364  0.834  0.577-  69 1.86 107 1.94  75 1.94  70 1.95  77 2.00  76 2.02  12 2.95  30 3.05
                            14 3.05
  16  0.231  0.833  0.681-  78 1.86  80 1.93 112 1.94  79 2.00  77 2.10  70 2.10  19 2.85  33 3.07
                            17 3.09
  17  0.000  0.666  0.700-  73 1.78  81 1.84 143 1.97  79 1.98  80 2.07  18 2.86  16 3.09  48 3.10

[...]

  20  0.808  0.167  0.295-  88 1.94  86 1.94 120 1.94  85 1.99  87 1.99  21 3.05  23 3.05  37 3.05

[...]

  36  0.808  0.500  0.295-  56 1.94 120 1.94 118 1.94 119 1.99 117 1.99  37 3.05   5 3.05  39 3.05

  37  0.592  0.333  0.327- 116 1.94 119 1.94  87 1.94 121 1.94 120 1.99 122 1.99  36 3.05  38 3.05
                            20 3.05  42 3.08
  38  0.308  0.333  0.295- 124 1.94 122 1.94  92 1.94 123 1.99 116 1.99  39 3.05  37 3.05  23 3.05

  39  0.092  0.500  0.327- 117 1.94  59 1.94 123 1.94 125 1.94 124 1.99 118 1.99   6 3.05  38 3.05
                            36 3.05  40 3.07
  40  0.946  0.500  0.422- 126 1.93  64 1.93 128 1.94 118 1.97 125 1.98 127 2.00  43 2.99  41 3.05
                             9 3.05  39 3.07
  41  0.727  0.334  0.451- 121 1.89 127 1.93  95 1.94 129 1.96 130 1.99 128 2.00  42 3.01  24 3.04
                            40 3.05  46 3.10
  42  0.444  0.334  0.422- 130 1.93 132 1.93 100 1.93 122 1.97 131 1.99 121 2.01  41 3.01  27 3.05
                            43 3.05  37 3.08
  43  0.226  0.500  0.453- 125 1.92 131 1.94  67 1.94 126 1.96 133 1.97 132 2.01  40 2.99  42 3.05
                            10 3.05  44 3.07
  44  0.089  0.500  0.551- 134 1.92  72 1.93 136 1.93 133 1.98 135 2.00 126 2.01  47 2.96  45 3.05
                            13 3.05  43 3.07
  45  0.865  0.334  0.575- 129 1.86 135 1.93 103 1.94 138 1.95 136 2.01 137 2.01  46 2.98  28 3.04
                            44 3.05  50 3.16
  46  0.584  0.334  0.549- 140 1.93 138 1.93 108 1.93 130 1.97 139 1.98 129 2.02  45 2.98  31 3.05
                            47 3.06  41 3.10
  47  0.366  0.500  0.580- 133 1.92  75 1.94 139 1.94 134 1.94 141 2.00 140 2.03  44 2.96  46 3.06
                            14 3.06  48 3.14
  48  0.234  0.500  0.681- 142 1.86 144 1.93  80 1.93 143 2.03 141 2.05 134 2.10  51 2.87  17 3.10
                            49 3.10  47 3.14
  49  1.000  0.335  0.700- 137 1.78 145 1.84 143 1.97 111 1.98 144 2.07  50 2.86  32 3.09  48 3.10

  50  0.729  0.335  0.677- 145 1.90 147 1.92 115 1.94 146 1.99 138 2.03 137 2.10  49 2.86  35 3.08
                            51 3.08  45 3.16
  51  0.505  0.500  0.706- 142 1.82 141 1.86 146 1.98  82 1.98 147 2.11   3 2.30  48 2.87  50 3.08
                            18 3.08
  52  0.488  0.667  0.269-   5 1.94   6 1.99
  53  0.988  0.833  0.269-   7 1.94   4 1.99
  54  0.911  0.833  0.353-   4 1.94   8 1.98   7 1.99
  55  0.627  0.833  0.321-  21 1.94   5 1.94   4 1.99
  56  0.772  0.667  0.300-  36 1.94   4 1.94   5 1.99
  57  0.624  0.667  0.395-   9 1.89   5 1.94  10 2.00
  58  0.411  0.667  0.353-   6 1.94  10 1.97   5 1.99
  59  0.127  0.667  0.321-  39 1.94   7 1.94   6 1.99
  60  0.272  0.833  0.300-  22 1.94   6 1.94   7 1.99
  61  0.124  0.833  0.395-  11 1.90   7 1.94   8 2.00
  62  0.049  0.834  0.480-   8 1.92  11 1.97  12 2.01
  63  0.764  0.833  0.447-  25 1.94   9 1.94   8 1.98
  64  0.910  0.667  0.427-  40 1.93   8 1.94   9 2.00
  65  0.764  0.666  0.520-  13 1.86   9 1.96  14 2.02
  66  0.549  0.666  0.480-  10 1.93  14 1.97   9 1.99
  67  0.264  0.667  0.448-  43 1.94  11 1.94  10 1.99
  68  0.409  0.833  0.427-  10 1.93  26 1.93  11 2.01
  69  0.264  0.833  0.521-  15 1.86  11 1.97  12 2.01
  70  0.193  0.833  0.607-  12 1.92  15 1.95  16 2.10
  71  0.904  0.834  0.573-  29 1.94  13 1.94  12 1.97
  72  0.052  0.667  0.553-  44 1.93  12 1.94  13 2.01
  73  0.914  0.668  0.645-  17 1.78  13 2.01  18 2.10
  74  0.694  0.669  0.605-  14 1.93  13 1.95  18 2.03
  75  0.405  0.667  0.575-  47 1.94  15 1.94  14 1.98
  76  0.549  0.834  0.553-  30 1.93  14 1.93  15 2.02
  77  0.412  0.835  0.646-  19 1.78  15 2.00  16 2.10
  78  0.347  0.833  0.732-  19 1.84  16 1.86
  79  0.052  0.833  0.709-  33 1.98  17 1.98  16 2.00
  80  0.195  0.666  0.681-  16 1.93  48 1.93  17 2.07
  81  0.841  0.661  0.731-  17 1.84  18 1.89
  82  0.554  0.668  0.708-  19 1.97  51 1.98  18 1.99
  83  0.695  0.834  0.679-  34 1.93  18 1.94  19 2.06
  84  0.488  0.000  0.269-  21 1.94  22 1.99
  85  0.988  0.167  0.269-  23 1.94  20 1.99
  86  0.911  0.167  0.353-  20 1.94  24 1.98  23 1.99
  87  0.627  0.167  0.321-  21 1.94  37 1.94  20 1.99
  88  0.772  0.000  0.300-   4 1.94  20 1.94  21 1.99
  89  0.624  0.000  0.395-  25 1.89  21 1.94  26 2.00
  90  0.411  0.000  0.353-  22 1.94  26 1.98  21 1.99
  91  0.127  0.000  0.321-   7 1.94  23 1.94  22 1.99
  92  0.272  0.167  0.300-  22 1.94  38 1.94  23 1.99
  93  0.124  0.167  0.395-  27 1.90  23 1.94  24 2.00
  94  0.049  0.167  0.480-  24 1.92  27 1.97  28 2.01
  95  0.764  0.167  0.447-  25 1.94  41 1.94  24 1.98
  96  0.909  0.000  0.427-   8 1.93  24 1.93  25 2.00
  97  0.764  0.000  0.520-  29 1.86  25 1.97  30 2.01
  98  0.549  0.000  0.480-  26 1.92  25 1.98  30 2.00
  99  0.264  0.000  0.448-  27 1.94  11 1.94  26 1.99
 100  0.409  0.167  0.427-  42 1.93  26 1.93  27 2.01
 101  0.264  0.167  0.521-  31 1.86  27 1.97  28 2.01
 102  0.193  0.167  0.607-  28 1.92  31 1.95  32 2.10
 103  0.904  0.167  0.573-  29 1.94  45 1.94  28 1.97
 104  0.051  0.000  0.553-  12 1.93  28 1.93  29 2.03
 105  0.913  0.000  0.646-  33 1.78  29 2.01  34 2.09
 106  0.693  0.000  0.606-  30 1.92  29 1.94  34 2.09
 107  0.404  0.000  0.574-  15 1.94  31 1.94  30 1.98
 108  0.549  0.167  0.553-  30 1.93  46 1.93  31 2.02
 109  0.412  0.165  0.646-  35 1.78  31 2.00  32 2.10
 110  0.347  0.167  0.732-  35 1.84  32 1.86
 111  0.052  0.168  0.709-  33 1.98  49 1.98  32 2.00
[...]
 133  0.266  0.500  0.522-  47 1.92  43 1.97  44 1.98
 134  0.193  0.500  0.608-  44 1.92  47 1.94  48 2.10
 135  0.904  0.500  0.573-  45 1.93  13 1.93  44 2.00
 136  0.051  0.334  0.553-  44 1.93  28 1.94  45 2.01
 137  0.914  0.332  0.645-  49 1.78  45 2.01  50 2.10
 138  0.694  0.331  0.605-  46 1.93  45 1.95  50 2.03
 139  0.405  0.334  0.575-  47 1.94  31 1.94  46 1.98
[...]
     0.000000000  0.000000000 27.918672987     0.000000000  0.000000000  0.035818321

  length of vectors
    10.273755933 11.368810418 27.918672987     0.097335386  0.087959950  0.035818321

 FORCES acting on ions
    electron-ion (+dipol)            ewald-force                    non-local-force                 convergence-correction
   -.531E+02 0.637E+02 -.358E+03   0.580E+02 -.698E+02 0.358E+03   -.503E+01 0.617E+01 0.433E+00   0.413E-04 0.582E-04 -.174E-01
   -.494E+02 -.676E+02 -.360E+03   0.540E+02 0.741E+02 0.360E+03   -.466E+01 -.651E+01 0.842E-01   0.725E-04 0.859E-05 -.174E-01
   0.141E+02 0.229E+01 -.218E+04   -.555E+02 -.403E+01 0.219E+04   0.360E+02 0.151E+01 -.918E+01   0.496E-02 0.326E-03 -.108E+00
   0.708E+01 -.116E+00 0.337E+04   -.160E+01 0.120E+00 -.337E+04   -.132E+01 -.907E-03 -.369E+01   -.153E-02 0.108E-03 0.138E+00
   0.471E+01 -.247E+00 0.277E+04   -.655E+01 0.252E+00 -.277E+04   0.942E-02 -.114E-02 0.321E-01   0.183E-02 0.618E-04 0.127E+00
   0.709E+01 0.912E-01 0.337E+04   -.164E+01 -.926E-01 -.337E+04   -.131E+01 0.545E-03 -.369E+01   -.156E-02 0.440E-04 0.137E+00
   0.298E+01 0.515E-01 0.277E+04   -.487E+01 -.573E-01 -.277E+04   0.201E-01 0.150E-02 0.291E-01   0.172E-02 -.270E-04 0.127E+00
   -.229E+00 -.216E+00 0.126E+04   0.347E-01 0.219E+00 -.126E+04   0.155E+00 -.242E-01 -.259E-02   0.250E-02 0.303E-03 0.806E-01
   0.160E+01 -.226E+01 0.804E+03   -.157E+01 0.223E+01 -.804E+03   -.147E-02 0.270E-01 -.909E-01   -.203E-02 0.420E-03 0.587E-01
   0.198E+01 -.423E+00 0.127E+04   -.216E+01 0.408E+00 -.127E+04   0.159E+00 0.146E-01 -.419E-01   0.277E-02 0.303E-03 0.806E-01
   -.643E+01 0.244E+00 0.792E+03   0.644E+01 -.247E+00 -.792E+03   0.487E-01 0.264E-02 -.745E-01   -.173E-02 0.341E-03 0.582E-01
   -.598E+01 -.236E+01 -.782E+03   0.566E+01 0.236E+01 0.782E+03   0.269E+00 0.458E-02 0.560E-01   -.756E-03 0.100E-02 -.182E-01
   -.141E+02 -.506E+01 -.117E+04   0.142E+02 0.510E+01 0.117E+04   0.174E-01 -.259E-01 -.125E+00   0.795E-03 0.152E-02 -.428E-01
   0.296E+01 -.236E+01 -.747E+03   -.324E+01 0.236E+01 0.747E+03   0.235E+00 0.444E-03 0.553E-02   0.322E-04 0.149E-02 -.182E-01
   -.121E+01 -.208E+01 -.120E+04   0.129E+01 0.210E+01 0.120E+04   0.190E-01 -.139E-01 -.142E+00   0.116E-02 0.125E-02 -.427E-01
   0.287E+02 -.128E+02 -.279E+04   -.295E+02 0.128E+02 0.279E+04   0.855E+00 0.315E-01 -.344E+00   -.174E-01 0.283E-02 -.139E+00
   -.923E+02 -.284E+02 -.318E+04   0.920E+02 0.282E+02 0.318E+04   0.417E+00 0.206E+00 0.110E+01   0.158E-01 0.130E-02 -.144E+00
   -.109E+02 -.548E+02 -.268E+04   0.102E+02 0.548E+02 0.269E+04   0.769E+00 -.115E-02 -.158E+00   -.118E-01 0.548E-02 -.130E+00
   -.589E+02 -.349E+02 -.318E+04   0.584E+02 0.349E+02 0.318E+04   0.483E+00 0.229E-02 0.110E+01   0.210E-01 0.271E-02 -.150E+00
   0.708E+01 0.126E+00 0.337E+04   -.160E+01 -.130E+00 -.337E+04   -.132E+01 0.995E-03 -.369E+01   -.131E-02 -.626E-04 0.137E+00
   0.462E+01 0.211E-01 0.277E+04   -.650E+01 -.217E-01 -.277E+04   0.180E-01 0.221E-03 0.257E-01   0.164E-02 -.736E-04 0.127E+00
   0.695E+01 0.106E-01 0.337E+04   -.147E+01 -.110E-01 -.337E+04   -.131E+01 0.114E-03 -.369E+01   -.120E-02 0.586E-05 0.137E+00
   0.299E+01 -.156E-01 0.277E+04   -.488E+01 0.195E-01 -.277E+04   0.201E-01 -.757E-03 0.289E-01   0.165E-02 0.155E-03 0.127E+00
   -.347E+00 0.944E-01 0.126E+04   0.158E+00 -.105E+00 -.126E+04   0.156E+00 0.189E-01 -.939E-02   0.250E-02 -.294E-03 0.805E-01
   -.203E+01 0.812E-02 0.799E+03   0.202E+01 -.112E-01 -.799E+03   0.761E-01 -.154E-02 -.853E-01   -.188E-02 -.517E-04 0.590E-01
   0.204E+01 -.343E-01 0.126E+04   -.222E+01 0.315E-01 -.126E+04   0.151E+00 -.567E-02 -.342E-01   0.276E-02 -.298E-04 0.809E-01
   -.635E+01 -.925E-01 0.792E+03   0.636E+01 0.962E-01 -.792E+03   0.522E-01 -.542E-02 -.730E-01   -.172E-02 -.364E-03 0.583E-01
   -.619E+01 0.228E+01 -.782E+03   0.587E+01 -.229E+01 0.782E+03   0.280E+00 0.571E-02 0.566E-01   -.777E-03 -.119E-02 -.183E-01
   -.117E+02 0.349E-01 -.119E+04   0.117E+02 -.351E-01 0.119E+04   0.639E-01 0.308E-02 -.143E+00   0.122E-02 0.144E-04 -.416E-01
   -.916E+00 0.100E-01 -.770E+03   0.602E+00 -.116E-01 0.770E+03   0.256E+00 0.616E-02 0.987E-01   -.229E-03 -.842E-04 -.178E-01
   -.110E+01 0.204E+01 -.120E+04   0.119E+01 -.206E+01 0.120E+04   0.219E-01 0.230E-01 -.142E+00   0.120E-02 -.129E-02 -.428E-01
   0.290E+02 0.124E+02 -.279E+04   -.299E+02 -.124E+02 0.279E+04   0.858E+00 -.151E-01 -.344E+00   -.173E-01 -.306E-02 -.139E+00
   -.767E+02 -.162E+00 -.319E+04   0.763E+02 0.160E+00 0.319E+04   0.408E+00 0.865E-02 0.107E+01   0.193E-01 -.203E-03 -.149E+00
   0.107E+02 0.683E-01 -.278E+04   -.115E+02 -.645E-01 0.278E+04   0.787E+00 0.744E-02 -.278E+00   -.159E-01 -.340E-04 -.137E+00
   -.591E+02 0.353E+02 -.318E+04   0.587E+02 -.353E+02 0.318E+04   0.488E+00 -.116E-01 0.110E+01   0.210E-01 -.305E-02 -.150E+00
   0.708E+01 -.358E-02 0.337E+04   -.159E+01 0.424E-02 -.337E+04   -.132E+01 -.689E-04 -.369E+01   -.166E-02 -.477E-04 0.137E+00
   0.470E+01 0.257E+00 0.277E+04   -.654E+01 -.262E+00 -.277E+04   0.893E-02 0.138E-02 0.323E-01   0.201E-02 0.103E-04 0.127E+00
   0.709E+01 -.993E-01 0.337E+04   -.165E+01 0.102E+00 -.337E+04   -.131E+01 -.651E-03 -.369E+01   -.186E-02 -.582E-04 0.137E+00
   0.197E+01 0.116E-01 0.277E+04   -.381E+01 -.120E-01 -.277E+04   0.312E-02 0.280E-03 0.317E-01   0.196E-02 -.126E-03 0.127E+00
   0.578E+00 -.624E-01 0.126E+04   -.748E+00 0.615E-01 -.126E+04   0.113E+00 0.219E-02 0.576E-01   0.232E-02 -.208E-04 0.802E-01
   0.183E+01 0.224E+01 0.805E+03   -.180E+01 -.221E+01 -.805E+03   -.106E-01 -.328E-01 -.831E-01   -.206E-02 -.372E-03 0.586E-01
   0.186E+01 0.323E+00 0.127E+04   -.204E+01 -.311E+00 -.127E+04   0.158E+00 -.143E-01 -.468E-01   0.280E-02 -.273E-03 0.807E-01
   -.922E+01 0.745E-01 0.775E+03   0.924E+01 -.724E-01 -.776E+03   0.482E-01 -.515E-02 0.292E-04   -.133E-02 0.196E-04 0.566E-01
   -.305E+01 -.364E-01 -.785E+03   0.283E+01 0.350E-01 0.785E+03   0.150E+00 0.172E-02 0.727E-01   -.603E-03 0.191E-03 -.186E-01
   -.139E+02 0.490E+01 -.116E+04   0.140E+02 -.494E+01 0.117E+04   0.158E-01 0.388E-01 -.121E+00   0.587E-03 -.152E-02 -.428E-01
   0.292E+01 0.237E+01 -.747E+03   -.320E+01 -.237E+01 0.747E+03   0.239E+00 -.663E-02 0.921E-02   0.245E-04 -.141E-02 -.180E-01
   -.186E+01 0.182E+00 -.124E+04   0.194E+01 -.178E+00 0.124E+04   0.553E-02 -.493E-02 -.341E-01   0.391E-03 0.343E-04 -.467E-01
   0.442E+02 0.311E-01 -.279E+04   -.448E+02 -.293E-01 0.279E+04   0.589E+00 -.748E-02 -.184E+00   -.185E-01 0.226E-03 -.141E+00
   -.922E+02 0.287E+02 -.318E+04   0.918E+02 -.285E+02 0.318E+04   0.411E+00 -.194E+00 0.111E+01   0.157E-01 -.109E-02 -.143E+00
   -.116E+02 0.552E+02 -.268E+04   0.109E+02 -.552E+02 0.268E+04   0.768E+00 0.863E-02 -.152E+00   -.117E-01 -.548E-02 -.130E+00
   0.280E+02 -.579E+00 -.314E+04   -.279E+02 0.568E+00 0.314E+04   0.768E-01 0.999E-02 0.730E+00   0.190E-01 0.319E-03 -.157E+00
   -.316E+02 -.469E-01 0.228E+04   0.369E+02 0.482E-01 -.229E+04   -.633E+01 -.145E-02 0.165E+02   0.788E-02 0.371E-04 0.841E-01
   -.320E+02 -.440E-01 0.228E+04   0.373E+02 0.433E-01 -.229E+04   -.632E+01 0.750E-03 0.165E+02   0.782E-02 0.263E-04 0.843E-01
   0.813E+02 0.613E-01 0.138E+04   -.863E+02 -.853E-01 -.138E+04   0.359E+01 0.213E-01 -.412E+01   0.323E-02 0.890E-04 0.806E-01
   0.744E+02 -.102E+00 0.169E+04   -.819E+02 0.106E+00 -.168E+04   0.701E+01 -.704E-02 -.250E+01   -.598E-02 -.175E-04 0.817E-01
   -.859E+02 -.118E+00 0.194E+04   0.934E+02 0.119E+00 -.194E+04   -.647E+01 -.300E-02 -.250E+00   -.358E-02 0.119E-03 0.844E-01
   -.684E+02 -.865E+00 0.106E+04   0.742E+02 0.897E+00 -.106E+04   -.523E+01 -.227E-01 0.404E+01   0.116E-03 0.116E-03 0.627E-01
   0.822E+02 0.628E-01 0.138E+04   -.871E+02 -.538E-01 -.138E+04   0.356E+01 -.858E-02 -.395E+01   0.330E-02 0.641E-04 0.806E-01
   0.733E+02 0.473E-01 0.169E+04   -.808E+02 -.542E-01 -.168E+04   0.703E+01 0.139E-01 -.252E+01   -.601E-02 0.193E-05 0.817E-01
   -.860E+02 0.101E-01 0.194E+04   0.936E+02 -.653E-02 -.194E+04   -.645E+01 -.795E-02 -.255E+00   -.353E-02 -.249E-04 0.845E-01
[...]
   0.872E+02 -.456E-01 -.108E+04   -.945E+02 0.550E-01 0.109E+04   0.650E+01 -.978E-02 -.706E+01   -.812E-03 0.808E-04 -.419E-01
   0.684E+02 -.173E+00 -.715E+03   -.747E+02 0.189E+00 0.718E+03   0.557E+01 -.117E-01 -.298E+01   0.453E-03 0.988E-04 -.244E-01
   -.826E+02 0.137E+01 -.459E+03   0.893E+02 -.145E+01 0.456E+03   -.600E+01 0.693E-01 0.261E+01   -.968E-04 -.543E-03 -.128E-01
   -.703E+02 0.154E+02 -.128E+04   0.730E+02 -.161E+02 0.127E+04   -.237E+01 0.587E+00 0.918E+01   0.199E-02 -.118E-02 -.629E-01
   0.802E+02 0.158E+02 -.104E+04   -.868E+02 -.166E+02 0.104E+04   0.586E+01 0.685E+00 -.524E+01   -.673E-03 -.146E-02 -.411E-01
   0.805E+02 0.203E+01 -.733E+03   -.872E+02 -.216E+01 0.736E+03   0.594E+01 0.111E+00 -.318E+01   0.119E-03 -.682E-03 -.250E-01
   -.719E+02 -.611E-01 -.463E+03   0.783E+02 0.668E-01 0.460E+03   -.571E+01 -.198E-02 0.212E+01   -.208E-03 0.241E-04 -.137E-01
   -.534E+02 -.458E+00 -.131E+04   0.589E+02 0.498E+00 0.130E+04   -.487E+01 -.369E-01 0.663E+01   0.149E-02 0.727E-04 -.669E-01
   0.109E+03 0.188E-02 -.227E+04   -.116E+03 -.117E-01 0.230E+04   0.586E+01 0.537E-02 -.200E+02   -.261E-03 0.147E-03 -.107E+00
   0.407E+02 -.140E-01 -.200E+04   -.446E+02 0.225E-01 0.201E+04   0.345E+01 -.703E-02 -.699E+01   0.151E-02 0.740E-04 -.891E-01
   -.491E+02 0.817E+01 -.166E+04   0.541E+02 -.806E+01 0.165E+04   -.448E+01 -.103E+00 0.294E+01   -.501E-02 -.309E-03 -.802E-01
   0.337E+01 0.391E+02 -.225E+04   -.873E+01 -.388E+02 0.227E+04   0.481E+01 -.240E+00 -.181E+02   0.119E-02 -.310E-03 -.980E-01
   0.835E+02 0.555E+02 -.196E+04   -.885E+02 -.555E+02 0.196E+04   0.448E+01 -.810E-02 -.646E+01   0.396E-02 -.264E-02 -.915E-01
   -.562E+02 -.306E+00 -.152E+04   0.597E+02 0.301E+00 0.151E+04   -.319E+01 0.484E-02 0.503E+01   -.262E-02 0.105E-03 -.764E-01
   -.437E+02 -.154E+01 0.802E+02   -.129E-11 -.576E-12 0.227E-10   0.385E+02 0.135E+01 -.710E+02   0.542E-01 0.330E-03 0.746E+00

 POSITION                                       TOTAL-FORCE (eV/Angst)
      7.12601      4.92762     21.55423        -0.303556      0.300223      0.019950
      7.07816      6.46372     21.59719        -0.280841     -0.325347     -0.000494
      6.49485      5.67657     21.61376         0.463147      0.017449     -0.223244
      8.29921      9.47401      8.23548         4.318943      0.003431      2.135654
      6.08023      7.57921      9.11607        -1.866394      0.003236     -2.087643
      3.16233      7.57921      8.23548         4.282901     -0.000849      2.111107
      0.94335      9.47401      9.11607        -1.908718     -0.004524     -2.090778
      9.70804      9.47696     11.79939        -0.034076     -0.001082     -0.014102
      7.46680      7.57573     12.59376         0.003248     -0.008503      0.008006
      4.56313      7.57772     11.79452        -0.025831     -0.004067     -0.005712
      2.31691      9.47426     12.60946         0.017814     -0.000791      0.008761
      0.88581      9.47973     15.36543        -0.031522      0.006351     -0.032990
      8.89061      7.57665     16.05893         0.000247      0.001360      0.019174
      6.00361      7.58012     15.33207        -0.029830     -0.005411     -0.026432
      3.73970      9.47663     16.10029         0.024596      0.001561      0.029156
      2.37420      9.46848     19.00448         0.079703     -0.009611      0.134294
      0.00061      7.57079     19.54914        -0.201391     -0.024455     -0.156630
      7.48719      7.56984     18.89699         0.028768     -0.016881      0.096484
      5.17131      9.48586     19.55488        -0.245599     -0.014553     -0.154361
      8.29921      1.89480      8.23548         4.318400     -0.003539      2.134981
      6.08023      0.00000      9.11607        -1.892770     -0.000603     -2.084110
      3.16233      0.00000      8.23548         4.309499     -0.000408      2.128472
      0.94335      1.89480      9.11607        -1.908114      0.003160     -2.090691
      9.70775      1.89443     11.79934        -0.029760     -0.004263     -0.014880
      7.45840      0.00121     12.59926         0.009268     -0.002949      0.004576
      4.56506      0.00071     11.79888        -0.025401     -0.002794     -0.007133
      2.31702      1.89600     12.60912         0.016913     -0.000801      0.011317
      0.88555      1.89426     15.36503        -0.026742     -0.007657     -0.033654
      8.87554      0.00249     16.07756         0.008001      0.000314      0.012711
      6.01053      0.00188     15.34967        -0.034726      0.000037     -0.031416
      3.73944      1.89581     16.10016         0.023283     -0.002016      0.027886
      2.37400      1.90629     19.00429         0.075175      0.014313      0.133973
      0.02796      0.00320     19.54922        -0.236334      0.000103     -0.134265
      7.52089      0.00202     18.97289         0.065748      0.003025      0.129490
      5.17094      1.88638     19.55435        -0.241170      0.015458     -0.154040
      8.29921      5.68441      8.23548         4.324934      0.000418      2.125686
      6.08023      3.78960      9.11607        -1.864775     -0.003632     -2.087473
      3.16233      3.78960      8.23548         4.281781      0.001259      2.109810
      0.94335      5.68441      9.11607        -1.872358     -0.000244     -2.028575
      9.72335      5.68586     11.79347        -0.040360      0.000466     -0.020896
      7.46718      3.79564     12.59351        -0.000716      0.007337      0.010865
      4.56290      3.79264     11.79430        -0.024006      0.003078     -0.006886
      2.32113      5.68515     12.63847         0.025400     -0.000306     -0.004697
      0.91611      5.68740     15.37096        -0.032291      0.000072     -0.035196
      8.89151      3.79737     16.05804        -0.002834     -0.001078      0.017841
      6.00291      3.79240     15.33113        -0.025574      0.004823     -0.026795
      3.76101      5.68639     16.18358         0.029367      0.000729      0.016327
      2.40874      5.68700     19.01769         0.058602     -0.002182      0.121823
     10.27277      3.80414     19.54998        -0.199689      0.029979     -0.162090
      7.48558      3.80345     18.89296         0.024272      0.016607      0.093586
      5.18998      5.68612     19.72347        -0.140446     -0.002240      0.018883
      5.01563      7.57921      7.50000        -2.115346     -0.000450      1.597261
     10.15251      9.47401      7.50000        -2.108609      0.000027      1.590501
      9.36381      9.47401      9.85155        -0.820360      0.000782     -0.319231
      6.44591      9.47401      8.97095         0.702979     -0.004174     -0.163894
      7.93353      7.57921      8.38059         0.021829     -0.002673     -1.072765
      6.41347      7.57921     11.02238        -0.304106      0.005859      0.595937
      4.22693      7.57921      9.85155        -0.830704     -0.001279     -0.302711
      1.30903      7.57921      8.97095         0.715754      0.009690     -0.172676
      2.79665      9.47401      8.38059         0.033832     -0.006171     -1.075193
[...]
      2.72799      5.68568     14.57069        -0.269762      0.000718      0.174192
      1.98509      5.68729     16.96420         0.270162     -0.002220     -0.245937
      9.29014      5.68673     16.00732         0.234579      0.002670     -0.104193
      0.52907      3.79466     15.44053        -0.273534      0.000857      0.092772
      9.38592      3.77763     18.00929        -0.124575      0.014335      0.326022
      7.13023      3.76182     16.89922         0.233077      0.024224     -0.186412
      4.15795      3.79366     16.04770         0.246474      0.000313     -0.113254
      5.65779      5.68618     15.46271        -0.264246      0.002342      0.093127
      4.24705      5.68812     18.11858        -0.231573     -0.002943      0.244258
      3.54204      5.68646     20.49770         0.236419     -0.002784     -0.713001
      0.52904      5.68717     19.77764         0.152673     -0.000155     -0.188824
      1.99939      3.79770     19.01108        -0.265057     -0.008757      0.126097
      8.63879      3.86148     20.39754         0.226658     -0.031011     -0.658280
      5.69334      3.77385     19.75785         0.184845     -0.040680     -0.186102
      7.11529      5.68720     18.85004        -0.206506     -0.000341      0.155518
    total drift:                                0.077886      0.020207      0.210108

  FREE ENERGIE OF THE ION-ELECTRON SYSTEM (eV)
  free  energy   TOTEN  =     -1711.60341441 eV

  energy  without entropy=    -1711.60341441  energy(sigma->0) =    -1711.60341441