 vasp.6.3.0 20Jan22 (build Apr  1 2022 16:44:48) complex
 executed on        HPECrayEX_GCC date 2022.11.13  01:23:12

 INCAR:
   SYSTEM = MgO-rocksalt
   ISMEAR = 0
   SIGMA = 0.05
   EDIFF = 1E-6
   ALGO = ALL
   ISTART = 0
   IBRION = -1
   NSW = 0
   ISYM = 0
   DIPOL = 0.5 0.5 0.5
   IDIPOL = 3
   LDIPOL = .TRUE.
   LHFCALC = .TRUE.
   GGA = B5
   AEXX = 0.2
   AGGAX = 0.72
   AGGAC = 0.81
   ALDAC = 0.19
   IVDW = 1
   VDW_S6 = 1.05
   VDW_C6 = 0.63 0.70
   VDW_R0 = 1.243 1.342
   ENCUT = 600
   PREC = Accurate
   LASPH = .TRUE.
   LREAL = .FALSE.
   ISPIN = 1
   NELM = 200
   NELMIN = 8
   NCORE = 8
   KPAR = 1
   LWAVE = .FALSE.
   LCHARG = .FALSE.

 POTCAR:    PAW_PBE Mg_pv 13Apr2007
 POTCAR:    PAW_PBE O 08Apr2002
 POTCAR:    PAW_PBE Mg_pv 13Apr2007
   VRHFIN =Mg: p6s2

   TITEL  = PAW_PBE Mg_pv 13Apr2007
   POMASS =   24.305; ZVAL   =    8.000    mass and valenz
   ENMAX  =  403.929; ENMIN  =  302.947 eV

   TITEL  = PAW_PBE O 08Apr2002
   POMASS =   16.000; ZVAL   =    6.000    mass and valenz
   ENMAX  =  400.000; ENMIN  =  300.000 eV

  PAW_PBE Mg_pv 13Apr2007               :
  PAW_PBE O 08Apr2002                   :

 POSCAR: Mg  O
  positions in direct lattice
 exchange correlation table for  LEXCH =       12
   RHO(1)=    0.500       N(1)  =     2000
   RHO(2)=  100.500       N(2)  =     4000

 ion  position               nearest neighbor table
   1  0.250  0.000  0.352-  33 2.11  35 2.11  36 2.11  43 2.11  52 2.11
   2  0.500  0.250  0.352-  34 2.11  35 2.11  36 2.11  44 2.11  51 2.11
   3  0.250  0.250  0.451-  35 2.11  34 2.11  33 2.11  41 2.11  50 2.11  39 2.11
   4  0.500  0.000  0.451-  36 2.11  34 2.11  33 2.11  42 2.11  49 2.11  40 2.12
   5  0.250  0.000  0.550-  40 2.11  39 2.11  47 2.11  56 2.11  33 2.12  37 2.14
   6  0.500  0.250  0.550-  55 2.11  40 2.11  48 2.11  39 2.11  34 2.12  38 2.14
   7  0.250  0.250  0.648-  39 2.10  54 2.10  38 2.11  37 2.11  45 2.11
   8  0.500  0.000  0.649-  38 2.11  40 2.11  46 2.11  37 2.11  53 2.12
   9  0.250  0.500  0.352-  41 2.11  35 2.11  43 2.11  44 2.11  60 2.11
  10  0.500  0.750  0.352-  42 2.11  36 2.11  43 2.11  44 2.11  59 2.11
  11  0.250  0.750  0.451-  43 2.11  41 2.11  42 2.11  33 2.11  58 2.11  47 2.11
  12  0.500  0.500  0.451-  44 2.11  41 2.11  42 2.11  34 2.11  57 2.11  48 2.12
  13  0.250  0.500  0.550-  48 2.11  47 2.11  39 2.11  64 2.11  41 2.12  45 2.14
  14  0.500  0.750  0.550-  63 2.11  40 2.11  48 2.11  47 2.11  42 2.12  46 2.14
  15  0.250  0.750  0.648-  47 2.10  62 2.10  46 2.11  45 2.11  37 2.11
  16  0.500  0.500  0.649-  46 2.11  48 2.11  38 2.11  45 2.11  61 2.12
  17  0.750  0.000  0.352-  49 2.11  36 2.11  51 2.11  52 2.11  59 2.11
  18  0.000  0.250  0.352-  50 2.11  35 2.11  51 2.11  52 2.11  60 2.11
  19  0.750  0.250  0.451-  51 2.11  49 2.11  50 2.11  34 2.11  57 2.11  55 2.12
  20  0.000  0.000  0.451-  52 2.11  49 2.11  50 2.11  33 2.11  58 2.11  56 2.11
  21  0.750  0.000  0.550-  40 2.11  55 2.11  63 2.11  56 2.11  49 2.12  53 2.14
  22  1.000  0.250  0.550-  55 2.11  64 2.11  56 2.11  39 2.11  50 2.12  54 2.14
  23  0.750  0.250  0.649-  61 2.11  55 2.11  53 2.11  54 2.11  38 2.12
  24  0.000  0.000  0.648-  56 2.10  37 2.10  53 2.11  62 2.11  54 2.11
  25  0.750  0.500  0.352-  57 2.11  51 2.11  44 2.11  59 2.11  60 2.11
  26  0.000  0.750  0.352-  58 2.11  52 2.11  43 2.11  59 2.11  60 2.11
  27  0.750  0.750  0.451-  59 2.11  49 2.11  57 2.11  58 2.11  42 2.11  63 2.12
  28  0.000  0.500  0.451-  60 2.11  50 2.11  57 2.11  58 2.11  41 2.11  64 2.11
  29  0.750  0.500  0.550-  48 2.11  63 2.11  55 2.11  64 2.11  57 2.12  61 2.14
  30  1.000  0.750  0.550-  63 2.11  64 2.11  56 2.11  47 2.11  58 2.12  62 2.14
  31  0.750  0.750  0.649-  53 2.11  63 2.11  61 2.11  62 2.11  46 2.12
  32  0.000  0.500  0.648-  64 2.10  45 2.10  61 2.11  54 2.11  62 2.11
  33  0.250  0.000  0.451-   1 2.11   3 2.11   4 2.11  11 2.11  20 2.11   5 2.12
  34  0.500  0.250  0.451-   2 2.11   3 2.11   4 2.11  12 2.11  19 2.11   6 2.12
  35  0.250  0.250  0.352-   3 2.11   2 2.11   1 2.11   9 2.11  18 2.11
  36  0.500  0.000  0.352-   4 2.11   2 2.11   1 2.11  10 2.11  17 2.11
  37  0.249  0.000  0.650-  24 2.10   7 2.11  15 2.11   8 2.11   5 2.14
  38  0.500  0.250  0.650-   8 2.11   7 2.11  16 2.11  23 2.12   6 2.14
  39  0.250  0.250  0.550-   7 2.10   5 2.11  13 2.11   6 2.11   3 2.11  22 2.11
  40  0.500  0.000  0.550-  21 2.11   5 2.11  14 2.11   6 2.11   8 2.11   4 2.12
  41  0.250  0.500  0.451-   9 2.11   3 2.11  11 2.11  12 2.11  28 2.11  13 2.12
  42  0.500  0.750  0.451-  10 2.11   4 2.11  11 2.11  12 2.11  27 2.11  14 2.12
  43  0.250  0.750  0.352-  11 2.11   9 2.11  10 2.11   1 2.11  26 2.11
  44  0.500  0.500  0.352-  12 2.11   9 2.11  10 2.11   2 2.11  25 2.11
  45  0.249  0.500  0.650-  32 2.10  15 2.11   7 2.11  16 2.11  13 2.14
  46  0.500  0.750  0.650-  16 2.11  15 2.11   8 2.11  31 2.12  14 2.14
  47  0.250  0.750  0.550-  15 2.10   5 2.11  13 2.11  14 2.11  11 2.11  30 2.11
  48  0.500  0.500  0.550-  13 2.11  29 2.11  16 2.11   6 2.11  14 2.11  12 2.12
  49  0.750  0.000  0.451-  17 2.11   4 2.11  19 2.11  20 2.11  27 2.11  21 2.12
  50  0.000  0.250  0.451-  18 2.11   3 2.11  19 2.11  20 2.11  28 2.11  22 2.12
  51  0.750  0.250  0.352-  19 2.11  17 2.11  18 2.11   2 2.11  25 2.11
  52  0.000  0.000  0.352-  20 2.11  17 2.11  18 2.11   1 2.11  26 2.11
  53  0.750  0.000  0.650-  31 2.11  24 2.11  23 2.11   8 2.12  21 2.14
  54  0.001  0.250  0.650-   7 2.10  32 2.11  24 2.11  23 2.11  22 2.14
  55  0.750  0.250  0.550-  22 2.11   6 2.11  21 2.11  29 2.11  23 2.11  19 2.12
  56  1.000  0.000  0.550-  24 2.10  30 2.11  22 2.11  21 2.11  20 2.11   5 2.11
  57  0.750  0.500  0.451-  25 2.11  19 2.11  12 2.11  27 2.11  28 2.11  29 2.12
  58  0.000  0.750  0.451-  26 2.11  20 2.11  11 2.11  27 2.11  28 2.11  30 2.12
  59  0.750  0.750  0.352-  27 2.11  17 2.11  25 2.11  26 2.11  10 2.11
  60  0.000  0.500  0.352-  28 2.11  18 2.11  25 2.11  26 2.11   9 2.11
  61  0.750  0.500  0.650-  23 2.11  32 2.11  31 2.11  16 2.12  29 2.14
  62  0.001  0.750  0.650-  15 2.10  24 2.11  32 2.11  31 2.11  30 2.14
  63  0.750  0.750  0.550-  30 2.11  14 2.11  21 2.11  29 2.11  31 2.11  27 2.12
  64  1.000  0.500  0.550-  32 2.10  22 2.11  30 2.11  29 2.11  28 2.11  13 2.11

IMPORTANT INFORMATION: All symmetrisations will be switched off!
NOSYMM: (Re-)initialisation of all symmetry stuff for point group C_1.

                                     Primitive cell

  volume of cell :    1519.6535

  direct lattice vectors                    reciprocal lattice vectors
     8.440582262  0.000000000  0.000000000     0.118475239  0.000000000  0.000000000
     0.000000000  8.440582262  0.000000000     0.000000000  0.118475239  0.000000000
     0.000000000  0.000000000 21.330436697     0.000000000  0.000000000  0.046881366

  length of vectors
     8.440582262  8.440582262 21.330436697     0.118475239  0.118475239  0.046881366

  position of ions in fractional coordinates (direct lattice)
     0.250000000  0.000000000  0.351610242
     0.500000000  0.250000000  0.351610242
     0.250000000  0.250000000  0.450536747
     0.500000000  0.000000000  0.450536747
     0.250224690  0.000046991  0.549867504
     0.500231897  0.250027359  0.550102720
     0.249800584  0.250071873  0.647835510
     0.499714720  0.000158054  0.648745206
     0.250000000  0.500000000  0.351610242
     0.500000000  0.750000000  0.351610242
     0.250000000  0.750000000  0.450536747
     0.500000000  0.500000000  0.450536747
     0.250217395  0.500045624  0.549876756
     0.500231127  0.750037191  0.550100771
     0.249802018  0.750108527  0.647836743
     0.499710836  0.500159284  0.648725973
     0.750000000  0.000000000  0.351610242
     0.000000000  0.250000000  0.351610242
     0.750000000  0.250000000  0.450536747
     0.000000000  0.000000000  0.450536747
     0.749801425  0.000028354  0.550098713
     0.999777575  0.250051927  0.549880149
     0.750302333  0.250132189  0.648778965
     0.000223629  0.000091402  0.647853053
     0.750000000  0.500000000  0.351610242
     0.000000000  0.750000000  0.351610242
     0.750000000  0.750000000  0.450536747
     0.000000000  0.500000000  0.450536747
     0.749810072  0.500026670  0.550116489
     0.999779264  0.750047056  0.549881125
     0.750302344  0.750186134  0.648777644
     0.000226577  0.500090522  0.647866231
     0.250000000  0.000000000  0.450536747
     0.500000000  0.250000000  0.450536747
     0.250000000  0.250000000  0.351610242
     0.500000000  0.000000000  0.351610242
     0.249478678  0.000114183  0.650007073
     0.499723507  0.250037701  0.650331726
     0.250063939  0.250036691  0.549555343
     0.500019618  0.000028690  0.549810884
     0.250000000  0.500000000  0.450536747
     0.500000000  0.750000000  0.450536747
     0.250000000  0.750000000  0.351610242
     0.500000000  0.500000000  0.351610242
     0.249490791  0.500113809  0.650002894
     0.499723680  0.750049129  0.650330234
     0.250064611  0.750047921  0.549555938
     0.500010345  0.500026703  0.549820297
     0.750000000  0.000000000  0.450536747
     0.000000000  0.250000000  0.450536747
     0.750000000  0.250000000  0.351610242
     0.000000000  0.000000000  0.351610242
     0.750286863  0.000043360  0.650369162
     0.000536943  0.250108046  0.650057661
     0.750022687  0.250016414  0.549830742
     0.999928229  0.000048124  0.549570564
     0.750000000  0.500000000  0.450536747
     0.000000000  0.750000000  0.450536747
     0.750000000  0.750000000  0.351610242
     0.000000000  0.500000000  0.351610242
     0.750279731  0.500042915  0.650345919
     0.000537170  0.750123762  0.650058153
     0.750024104  0.750036121  0.549830444
     0.999935467  0.500046075  0.549563950

  ion indices of the primitive-cell ions
   primitive index   ion index
                 1           1
                 2           2
                 3           3
                 4           4
                 5           5
                 6           6
                 7           7
                 8           8
                 9           9
                10          10
                11          11
                12          12
                13          13
                14          14
                15          15
                16          16
                17          17
                18          18
                19          19
                20          20
                21          21
                22          22
                23          23
                24          24
                25          25
                26          26
                27          27
                28          28
                29          29
                30          30
                31          31
                32          32
                33          33
                34          34
                35          35
                36          36
                37          37
                38          38
                39          39
                40          40
                41          41
                42          42
                43          43
                44          44
[...]
   0.50000000  0.75000000  0.45053675
   0.25000000  0.75000000  0.35161024
   0.50000000  0.50000000  0.35161024
   0.24949079  0.50011381  0.65000289
   0.49972368  0.75004913  0.65033023
   0.25006461  0.75004792  0.54955594
   0.50001034  0.50002670  0.54982030
   0.75000000  0.00000000  0.45053675
   0.00000000  0.25000000  0.45053675
   0.75000000  0.25000000  0.35161024
   0.00000000  0.00000000  0.35161024
   0.75028686  0.00004336  0.65036916
   0.00053694  0.25010805  0.65005766
   0.75002269  0.25001641  0.54983074
   0.99992823  0.00004812  0.54957056
   0.75000000  0.50000000  0.45053675
   0.00000000  0.75000000  0.45053675
   0.75000000  0.75000000  0.35161024
   0.00000000  0.50000000  0.35161024
   0.75027973  0.50004291  0.65034592
   0.00053717  0.75012376  0.65005815
   0.75002410  0.75003612  0.54983044
   0.99993547  0.50004608  0.54956395

 position of ions in cartesian coordinates  (Angst):
   2.11014557  0.00000000  7.50000000
   4.22029113  2.11014557  7.50000000
   2.11014557  2.11014557  9.61014557
   4.22029113  0.00000000  9.61014557
   2.11204208  0.00039663 11.72891398
   4.22224847  2.11037649 11.73393126
   2.10846238  2.11075222 13.81861434
   4.21788320  0.00133407 13.83801855
   2.11014557  4.22029113  7.50000000
   4.22029113  6.33043670  7.50000000
   2.11014557  6.33043670  9.61014557
   4.22029113  4.22029113  9.61014557
   2.11198050  4.22067622 11.72911134
   4.22224198  6.33075061 11.73388968
   2.10847448  6.33135273 13.81864063
   4.21785042  4.22163558 13.83760829
   6.33043670  0.00000000  7.50000000
   0.00000000  2.11014557  7.50000000
   6.33043670  2.11014557  9.61014557
   0.00000000  0.00000000  9.61014557
   6.32876061  0.00023932 11.73384577
   8.43870487  2.11058386 11.72918371
   6.33298857  2.11126132 13.83873864
   0.00188756  0.00077149 13.81898854
   6.33043670  4.22029113  7.50000000
   0.00000000  6.33043670  7.50000000
   6.33043670  6.33043670  9.61014557
   0.00000000  4.22029113  9.61014557
   6.32883359  4.22051624 11.73422494
   8.43871912  6.33083388 11.72920453
   6.33298865  6.33200777 13.83871046
   0.00191244  4.22105519 13.81926963
   2.11014557  0.00000000  9.61014557
   4.22029113  2.11014557  9.61014557
   2.11014557  2.11014557  7.50000000
   4.22029113  0.00000000  7.50000000
   2.10574530  0.00096377 13.86493472
   4.21795737  2.11046379 13.87185971
   2.11068524  2.11045526 11.72225546
   4.22045672  0.00024216 11.72770625
   2.11014557  4.22029113  9.61014557
   4.22029113  6.33043670  9.61014557
   2.11014557  6.33043670  7.50000000
   4.22029113  4.22029113  7.50000000
   2.10584755  4.22125175 13.86484559
   4.21795883  6.33085137 13.87182789
   2.11069092  6.33084118 11.72226815
   4.22037845  4.22051652 11.72790705
   6.33043670  0.00000000  9.61014557
   0.00000000  2.11014557  9.61014557
   6.33043670  2.11014557  7.50000000
   0.00000000  0.00000000  7.50000000
   6.33285799  0.00036598 13.87265825
   0.00453212  2.11105754 13.86601380
   6.33062819  2.11028411 11.72812985
   8.43997648  0.00040620 11.72258012
   6.33043670  4.22029113  9.61014557
   0.00000000  6.33043670  9.61014557
   6.33043670  6.33043670  7.50000000
   0.00000000  4.22029113  7.50000000
   6.33279779  4.22065336 13.87216245
   0.00453403  6.33148132 13.86602428
   6.33064015  6.33074158 11.72812348
   8.44003757  4.22068003 11.72243904

--------------------------------------- Iteration      FINAL  ---------------------------------------

--------------------OUTCAR has been truncated-------------------------

[...]

--------------------OUTCAR has been truncated-------------------------

  DFT-D2 method for vdW energy calculation

  Parameters of vdW forcefield:
         C6(Jnm^6/mol)     R0(A)
   Mg       0.630          1.243
   O        0.700          1.342

  vdW correction parametrized for the method ¥ÿ      

  IVDW =   1
  VDW_RADIUS =    50.000 A
  VDW_S6 =     1.050
  VDW_SR =     1.000
  VDW_D =    20.000
  LVDW_EWALD = F

  Number of pair interactions contributing to vdW energy:  723328
  Edisp (eV):   -5.08137

 VOLUME and BASIS-vectors are now :
  energy-cutoff  :      600.00
  volume of cell :     1519.65
      direct lattice vectors                 reciprocal lattice vectors
     8.440582262  0.000000000  0.000000000     0.118475239  0.000000000  0.000000000
     0.000000000  8.440582262  0.000000000     0.000000000  0.118475239  0.000000000
     0.000000000  0.000000000 21.330436697     0.000000000  0.000000000  0.046881366

  length of vectors
     8.440582262  8.440582262 21.330436697     0.118475239  0.118475239  0.046881366

 FORCES acting on ions:
    Electron-Ion                     Ewald-Force                    Non-Local-Force
   -.116E+00 0.381E-03 0.207E+04   0.118E+00 -.271E-03 -.206E+04   -.119E-02 -.760E-04 -.639E+01
   -.126E+00 -.546E-02 0.207E+04   0.128E+00 0.571E-02 -.206E+04   -.137E-02 -.166E-03 -.640E+01
   -.502E+00 -.160E-01 0.686E+03   0.519E+00 0.190E-01 -.686E+03   -.111E-01 -.177E-02 0.368E+00
   -.565E+00 0.247E-02 0.684E+03   0.582E+00 -.888E-03 -.685E+03   -.105E-01 -.978E-03 0.440E+00
   -.763E+00 0.290E-01 -.688E+03   0.826E+00 -.281E-01 0.688E+03   -.603E-01 -.940E-03 -.222E+00
   -.976E+00 -.549E-01 -.692E+03   0.103E+01 0.566E-01 0.692E+03   -.500E-01 -.503E-03 -.228E+00
   -.140E+01 -.180E+00 -.205E+04   0.126E+01 0.170E+00 0.205E+04   0.124E+00 0.111E-01 0.549E+01
   -.733E+00 0.279E+00 -.206E+04   0.666E+00 -.257E+00 0.205E+04   0.610E-01 -.255E-01 0.559E+01
   -.118E+00 -.250E-04 0.207E+04   0.120E+00 0.104E-03 -.206E+04   -.120E-02 -.555E-04 -.639E+01
   -.126E+00 0.563E-02 0.207E+04   0.128E+00 -.576E-02 -.206E+04   -.136E-02 0.736E-04 -.640E+01
   -.499E+00 0.210E-01 0.686E+03   0.516E+00 -.199E-01 -.686E+03   -.109E-01 -.654E-03 0.368E+00
   -.580E+00 0.296E-02 0.684E+03   0.597E+00 -.198E-02 -.685E+03   -.106E-01 -.588E-03 0.442E+00
   -.758E+00 0.206E-01 -.688E+03   0.819E+00 -.200E-01 0.689E+03   -.592E-01 -.725E-03 -.228E+00
   -.980E+00 0.563E-02 -.692E+03   0.104E+01 -.167E-02 0.692E+03   -.495E-01 -.296E-02 -.228E+00
   -.139E+01 -.368E-01 -.205E+04   0.125E+01 0.316E-01 0.205E+04   0.124E+00 0.428E-02 0.549E+01
   -.765E+00 0.277E+00 -.206E+04   0.697E+00 -.255E+00 0.205E+04   0.624E-01 -.256E-01 0.559E+01
   0.118E+00 0.180E-03 0.207E+04   -.119E+00 -.116E-03 -.206E+04   0.125E-02 -.496E-04 -.640E+01
   0.124E+00 -.336E-02 0.207E+04   -.126E+00 0.364E-02 -.206E+04   0.125E-02 -.187E-03 -.639E+01
   0.549E+00 -.270E-01 0.684E+03   -.564E+00 0.294E-01 -.685E+03   0.918E-02 -.148E-02 0.445E+00
   0.521E+00 0.520E-02 0.686E+03   -.539E+00 -.301E-02 -.686E+03   0.116E-01 -.131E-02 0.373E+00
   0.950E+00 -.296E-01 -.692E+03   -.100E+01 0.329E-01 0.692E+03   0.458E-01 -.174E-02 -.216E+00
   0.783E+00 -.838E-02 -.688E+03   -.851E+00 0.826E-02 0.689E+03   0.654E-01 -.312E-03 -.213E+00
   0.787E+00 0.179E+00 -.206E+04   -.719E+00 -.161E+00 0.205E+04   -.626E-01 -.205E-01 0.559E+01
   0.138E+01 -.110E+00 -.205E+04   -.123E+01 0.102E+00 0.205E+04   -.126E+00 0.789E-02 0.549E+01
   0.120E+00 -.179E-03 0.207E+04   -.121E+00 0.217E-03 -.206E+04   0.127E-02 -.293E-04 -.640E+01
   0.124E+00 0.380E-02 0.207E+04   -.126E+00 -.385E-02 -.206E+04   0.124E-02 0.293E-04 -.639E+01
   0.547E+00 0.357E-01 0.684E+03   -.561E+00 -.359E-01 -.685E+03   0.891E-02 0.107E-03 0.445E+00
   0.534E+00 0.561E-03 0.686E+03   -.552E+00 0.178E-02 -.686E+03   0.117E-01 -.139E-02 0.370E+00
   0.957E+00 -.383E-01 -.692E+03   -.101E+01 0.413E-01 0.692E+03   0.438E-01 -.141E-02 -.231E+00
   0.782E+00 0.495E-01 -.688E+03   -.851E+00 -.506E-01 0.689E+03   0.653E-01 0.498E-03 -.213E+00
   0.788E+00 0.386E+00 -.206E+04   -.720E+00 -.360E+00 0.205E+04   -.626E-01 -.309E-01 0.559E+01
   0.139E+01 -.115E+00 -.205E+04   -.125E+01 0.107E+00 0.205E+04   -.126E+00 0.811E-02 0.549E+01
   -.339E+00 0.592E-02 0.514E+03   0.328E+00 -.831E-02 -.514E+03   0.125E-01 0.281E-02 -.693E-01
   -.401E+00 -.180E-01 0.513E+03   0.386E+00 0.166E-01 -.513E+03   0.176E-01 0.170E-02 -.109E+00
   -.884E-01 -.310E-02 0.155E+04   0.902E-01 0.321E-02 -.156E+04   -.226E-02 -.140E-03 0.313E+01
   -.945E-01 -.244E-04 0.155E+04   0.965E-01 0.205E-04 -.156E+04   -.256E-02 0.275E-05 0.313E+01
   -.116E+01 0.770E-01 -.156E+04   0.115E+01 -.777E-01 0.157E+04   0.499E-01 -.169E-02 -.450E+01
   -.728E+00 -.272E+00 -.156E+04   0.749E+00 0.296E+00 0.157E+04   -.514E-03 -.175E-01 -.438E+01
   -.625E+00 -.445E-01 -.510E+03   0.610E+00 0.465E-01 0.510E+03   0.142E-01 -.148E-02 0.365E+00
   -.774E+00 0.291E-01 -.514E+03   0.765E+00 -.318E-01 0.514E+03   0.113E-01 0.311E-02 0.211E+00
   -.352E+00 0.397E-02 0.514E+03   0.341E+00 -.642E-02 -.514E+03   0.131E-01 0.290E-02 -.715E-01
   -.401E+00 0.235E-01 0.513E+03   0.386E+00 -.252E-01 -.513E+03   0.175E-01 0.188E-02 -.108E+00
   -.882E-01 0.287E-02 0.155E+04   0.900E-01 -.311E-02 -.156E+04   -.222E-02 0.307E-03 0.313E+01
   -.956E-01 -.711E-04 0.155E+04   0.977E-01 -.204E-05 -.156E+04   -.260E-02 0.980E-04 0.313E+01
   -.112E+01 0.750E-01 -.156E+04   0.112E+01 -.757E-01 0.157E+04   0.471E-01 -.166E-02 -.451E+01
   -.731E+00 -.192E+00 -.156E+04   0.752E+00 0.209E+00 0.157E+04   -.690E-03 -.106E-01 -.438E+01
   -.622E+00 0.784E-02 -.510E+03   0.608E+00 -.883E-02 0.510E+03   0.140E-01 0.111E-02 0.364E+00
   -.797E+00 0.240E-01 -.514E+03   0.789E+00 -.267E-01 0.514E+03   0.110E-01 0.315E-02 0.215E+00
   0.372E+00 0.201E-02 0.513E+03   -.360E+00 -.330E-02 -.513E+03   -.145E-01 0.154E-02 -.108E+00
   0.370E+00 -.216E-02 0.514E+03   -.359E+00 0.497E-04 -.514E+03   -.134E-01 0.243E-02 -.718E-01
   0.896E-01 -.409E-02 0.155E+04   -.916E-01 0.427E-02 -.156E+04   0.247E-02 -.220E-03 0.313E+01
   0.933E-01 0.102E-03 0.155E+04   -.952E-01 -.194E-03 -.156E+04   0.242E-02 0.104E-03 0.313E+01
   0.756E+00 -.234E+00 -.156E+04   -.773E+00 0.254E+00 0.157E+04   -.290E-02 -.143E-01 -.438E+01
   0.110E+01 0.239E-01 -.156E+04   -.109E+01 -.238E-01 0.157E+04   -.478E-01 -.175E-02 -.451E+01
   0.768E+00 -.318E-02 -.514E+03   -.763E+00 0.107E-02 0.514E+03   -.916E-02 0.295E-02 0.205E+00
   0.630E+00 -.138E-01 -.510E+03   -.610E+00 0.153E-01 0.510E+03   -.185E-01 -.157E-02 0.361E+00
   0.386E+00 0.378E-03 0.513E+03   -.374E+00 -.164E-02 -.513E+03   -.152E-01 0.151E-02 -.111E+00
   0.370E+00 0.123E-01 0.514E+03   -.359E+00 -.156E-01 -.514E+03   -.133E-01 0.395E-02 -.720E-01
   0.893E-01 0.413E-02 0.155E+04   -.913E-01 -.436E-02 -.156E+04   0.242E-02 0.298E-03 0.313E+01
   0.944E-01 -.395E-03 0.155E+04   -.963E-01 0.327E-03 -.156E+04   0.246E-02 0.901E-04 0.313E+01
   0.738E+00 -.238E+00 -.156E+04   -.757E+00 0.258E+00 0.157E+04   0.148E-04 -.143E-01 -.438E+01
   0.110E+01 0.134E+00 -.156E+04   -.109E+01 -.135E+00 0.157E+04   -.478E-01 -.161E-02 -.451E+01
   0.768E+00 0.765E-01 -.514E+03   -.763E+00 -.830E-01 0.514E+03   -.930E-02 0.640E-02 0.206E+00
   0.644E+00 -.224E-01 -.510E+03   -.625E+00 0.241E-01 0.510E+03   -.181E-01 -.157E-02 0.361E+00
   0.108E-01 0.133E+00 0.163E+02   0.480E-13 0.978E-13 -.205E-11   -.960E-02 -.120E+00 -.143E+02

 POSITION                                       TOTAL-FORCE (eV/Angst)
      2.11015      0.00000      7.50000         0.000437     -0.000007      0.466042
      4.22029      2.11015      7.50000         0.000489      0.000026      0.467470
      2.11015      2.11015      9.61015         0.004960      0.000903      0.027454
      4.22029      0.00000      9.61015         0.004694      0.000441      0.035158
      2.11204      0.00040     11.72891        -0.002815     -0.000228     -0.003752
      4.22225      2.11038     11.73393         0.001730      0.000989     -0.012197
      2.10846      2.11075     13.81861        -0.005644      0.001679     -0.035763
      4.21788      0.00133     13.83802        -0.000177     -0.005881     -0.156317
      2.11015      4.22029      7.50000         0.000441     -0.000015      0.466158
      4.22029      6.33044      7.50000         0.000492     -0.000072      0.467423
      2.11015      6.33044      9.61015         0.004860      0.000319      0.027469
      4.22029      4.22029      9.61015         0.004838      0.000275      0.035942
      2.11198      4.22068     11.72911        -0.002614     -0.000130     -0.005169
      4.22224      6.33075     11.73389         0.001772      0.000628     -0.011847
      2.10847      6.33135     13.81864        -0.005723     -0.000524     -0.036005
      4.21785      4.22164     13.83761         0.000178     -0.005949     -0.153615
      6.33044      0.00000      7.50000        -0.000477     -0.000024      0.467373
      0.00000      2.11015      7.50000        -0.000464      0.000041      0.466171
      6.33044      2.11015      9.61015        -0.004184      0.000699      0.035838
      0.00000      0.00000      9.61015        -0.005036      0.000673      0.027651
      6.32876      0.00024     11.73385        -0.001895      0.001249     -0.009991
      8.43870      2.11058     11.72918         0.002596     -0.000468     -0.003827
      6.33299      2.11126     13.83874        -0.000077     -0.004354     -0.158527
      0.00189      0.00077     13.81899         0.005341      0.000598     -0.035867
      6.33044      4.22029      7.50000        -0.000468     -0.000027      0.467586
      0.00000      6.33044      7.50000        -0.000471     -0.000054      0.466156
      6.33044      6.33044      9.61015        -0.004061     -0.000142      0.035854
      0.00000      4.22029      9.61015        -0.005169      0.000725      0.027749
      6.32883      4.22052     11.73422        -0.002231      0.001335     -0.012810
      8.43872      6.33083     11.72920         0.002534     -0.000467     -0.003990
      6.33299      6.33201     13.83871        -0.000059     -0.007683     -0.158408
      0.00191      4.22106     13.81927         0.005126      0.000640     -0.038223
      2.11015      0.00000      9.61015         0.003713      0.000778      0.041358
      4.22029      2.11015      9.61015         0.005706      0.000511      0.052842
      2.11015      2.11015      7.50000        -0.000772     -0.000081     -0.435464
      4.22029      0.00000      7.50000        -0.000874     -0.000034     -0.436364
      2.10575      0.00096     13.86493         0.050695     -0.002768     -0.029842
      4.21796      2.11046     13.87186         0.021284      0.003873     -0.008149
      2.11069      2.11046     11.72226         0.001004      0.000334      0.017075
      4.22046      0.00024     11.72771         0.004159      0.000713      0.015271
      2.11015      4.22029      9.61015         0.004024      0.000827      0.041598
      4.22029      6.33044      9.61015         0.005699      0.000461      0.052856
      2.11015      6.33044      7.50000        -0.000745      0.000076     -0.435481
      4.22029      4.22029      7.50000        -0.000882      0.000006     -0.436445
      2.10585      4.22125     13.86485         0.048876     -0.002748     -0.029162
      4.21796      6.33085     13.87183         0.021309      0.004736     -0.007970
      2.11069      6.33084     11.72227         0.000936      0.000218      0.016922
      4.22038      4.22052     11.72791         0.004791      0.000867      0.012526
      6.33044      0.00000      9.61015        -0.004715      0.000425      0.052629
      0.00000      2.11015      9.61015        -0.004122      0.000619      0.041829
      6.33044      2.11015      7.50000         0.000825     -0.000105     -0.436415
      0.00000      0.00000      7.50000         0.000817     -0.000006     -0.435431
      6.33286      0.00037     13.87266        -0.021972      0.004298     -0.011164
      0.00453      2.11106     13.86601        -0.049227     -0.002064     -0.034287
      6.33063      2.11028     11.72813        -0.005139      0.001222      0.013132
      8.43998      0.00041     11.72258        -0.000700     -0.000321      0.015340
      6.33044      4.22029      9.61015        -0.005027      0.000414      0.053407
      0.00000      6.33044      9.61015        -0.004081      0.001193      0.041869
      6.33044      6.33044      7.50000         0.000818      0.000075     -0.436399
      0.00000      4.22029      7.50000         0.000815      0.000002     -0.435536
      6.33280      4.22065     13.87216        -0.020667      0.004322     -0.008220
      0.00453      6.33148     13.86602        -0.049226     -0.003626     -0.034368
      6.33064      6.33074     11.72812        -0.005231      0.000729      0.013140
      8.44004      4.22068     11.72244        -0.001019     -0.000142      0.017716
    total drift:                                0.000269      0.002090      0.002814

  FREE ENERGIE OF THE ION-ELECTRON SYSTEM (eV)
  free  energy   TOTEN  =      -438.45223229 eV

  energy  without entropy=     -438.45223229  energy(sigma->0) =     -438.45223229