 vasp.6.4.2 20Jul23 (build Feb 22 2024 13:53:45) complex
 executed on              LinuxNV date 2024.08.30  13:29:35
 OpenACC runtime initialized ...    4 GPUs detected

 INCAR:
   SYSTEM = Oxide-Surface
   ISMEAR = 0
   SIGMA = 0.05
   EDIFF = 1E-5
   ALGO = Normal
   IBRION = -1
   NSW = 0
   ISYM = 0
   DIPOL = 0.5 0.5 0.5
   IDIPOL = 3
   LDIPOL = .TRUE.
   ISTART = 0
   LHFCALC = .FALSE.
   GGA = PE
   HFRCUT = -1
   ENCUT = 1000
   PREC = Normal
   PRECFOCK = Normal
   LASPH = .TRUE.
   LREAL = Auto
   ISPIN = 1
   NELM = 200
   NELMIN = 8
   NCORE = 1
   KPAR = 1
   LWAVE = .FALSE.
   LCHARG = .FALSE.

 POTCAR:    PAW_PBE Ti_sv 26Sep2005
 POTCAR:    PAW_PBE O_h 06Feb2004
 POTCAR:    PAW_PBE Ti_sv 26Sep2005
   VRHFIN =Ti: 3p4s3d

   TITEL  = PAW_PBE Ti_sv 26Sep2005
   POMASS =   47.880; ZVAL   =   12.000    mass and valenz
   ENMAX  =  274.610; ENMIN  =  205.957 eV

   TITEL  = PAW_PBE O_h 06Feb2004
   POMASS =   16.000; ZVAL   =    6.000    mass and valenz
   ENMAX  =  700.000; ENMIN  =  500.000 eV

 Optimization of the real space projectors (new method)

 maximal supplied QI-value         = 16.25
 optimisation between [QCUT,QGAM] = [ 16.09, 32.34] = [ 72.49,292.89] Ry
 Optimized for a Real-space Cutoff    1.24 Angstroem

   l    n(q)    QCUT    max X(q) W(low)/X(q) W(high)/X(q)  e(spline)
   0     12    16.089    12.277    0.23E-04    0.54E-05    0.15E-06
   0     12    16.089    11.419    0.26E-04    0.82E-06    0.19E-06
   1     12    16.089     4.010    0.40E-04    0.12E-04    0.58E-06
   1     12    16.089     6.182    0.55E-05    0.28E-04    0.27E-06
   2     11    16.089    47.177    0.17E-03    0.26E-03    0.90E-06
   2     11    16.089    42.437    0.17E-03    0.25E-03    0.88E-06
 Optimization of the real space projectors (new method)

 maximal supplied QI-value         = 34.20
 optimisation between [QCUT,QGAM] = [ 16.08, 32.15] = [ 72.37,289.48] Ry
 Optimized for a Real-space Cutoff    0.71 Angstroem

   l    n(q)    QCUT    max X(q) W(low)/X(q) W(high)/X(q)  e(spline)
   0      7    16.076   280.207    0.42E-03    0.69E-03    0.60E-07
   0      7    16.076   228.978    0.42E-03    0.69E-03    0.61E-07
   1      6    16.076    86.127    0.11E-03    0.66E-03    0.10E-06
   1      6    16.076    65.368    0.11E-03    0.65E-03    0.10E-06
  PAW_PBE Ti_sv 26Sep2005               :
  PAW_PBE O_h 06Feb2004                 :

 POSCAR: Ti  O
  positions in direct lattice
 exchange correlation table for  LEXCH =        8
   RHO(1)=    0.500       N(1)  =     2000
   RHO(2)=  100.500       N(2)  =     4000

 ion  position               nearest neighbor table
   1  0.750  0.625  0.184-  82 1.95 142 1.95 141 1.95  81 1.95  84 1.98 163 1.98
   2  0.000  0.750  0.184-  83 1.95  84 1.95 103 1.95 104 1.95  85 1.98
   3  0.000  0.625  0.314-  85 1.95 145 1.95  86 1.95 146 1.95  87 1.98  88 1.98
   4  0.750  0.750  0.314-  87 1.95 107 1.95 168 1.95 188 1.95  89 1.98  82 1.98
   5  0.750  0.625  0.444-  89 1.95  90 1.95 149 1.95 150 1.95  92 1.98 171 1.98
   6  0.000  0.750  0.444-  91 1.95  92 1.95 111 1.95 112 1.95  86 1.98  93 2.00
   7  0.000  0.625  0.571- 153 1.90  93 1.90  96 1.95  95 1.95  94 2.02 154 2.02
   8  0.750  0.750  0.579-  97 1.86 176 1.97  95 1.97 196 1.97 115 1.98  90 2.11
   9  0.750  0.625  0.713- 158 1.83  98 1.83 179 2.02 100 2.03 157 2.10  97 2.10
  10  1.000  0.750  0.698-  94 1.81 120 1.94 119 1.95 100 1.95  99 1.95
  11  0.750  0.875  0.184-  82 1.95 102 1.95  81 1.95 101 1.95 104 1.98 183 1.98
  12  0.000  0.000  0.184- 123 1.95 124 1.95 103 1.95 104 1.95 105 1.98
  13  0.000  0.875  0.314-  85 1.95 105 1.95  86 1.95 106 1.95 107 1.98 108 1.98
  14  0.750  0.000  0.314- 127 1.95 208 1.95 188 1.95 107 1.95 109 1.98 102 1.98
  15  0.750  0.875  0.444-  89 1.95  90 1.95 109 1.95 110 1.95 112 1.98 191 1.98
  16  0.000  0.000  0.444- 131 1.95 132 1.95 111 1.95 112 1.95 106 1.98 113 2.00
  17  1.000  0.875  0.571-  93 1.89 113 1.90 115 1.95 116 1.95 114 2.02  94 2.02
  18  0.750  0.000  0.579- 117 1.86 196 1.97 216 1.97 135 1.97 115 1.97 110 2.11
  19  0.750  0.875  0.713- 118 1.83  98 1.83 199 2.02 120 2.03  97 2.10 117 2.10
  20  0.000  0.000  0.698- 114 1.81 119 1.95 139 1.95 120 1.95 140 1.95
  21  0.750  0.125  0.184- 102 1.95 122 1.95 121 1.95 101 1.95 124 1.98 203 1.98
  22  0.000  0.250  0.184- 123 1.95 124 1.95 143 1.95 144 1.95 125 1.98
  23  0.000  0.125  0.314- 105 1.95 125 1.95 106 1.95 126 1.95 127 1.98 128 1.98
  24  0.750  0.250  0.314- 127 1.95 147 1.95 208 1.95 228 1.95 129 1.98 122 1.98
  25  0.750  0.125  0.444- 109 1.95 110 1.95 129 1.95 130 1.95 132 1.98 211 1.98
  26  0.000  0.250  0.444- 131 1.95 132 1.95 151 1.95 152 1.95 126 1.98 133 2.00
  27  1.000  0.125  0.571- 133 1.89 113 1.90 135 1.95 136 1.95 114 2.02 134 2.02
  28  0.750  0.250  0.579- 137 1.86 236 1.97 155 1.97 216 1.97 135 1.98 130 2.11
  29  0.750  0.125  0.713- 118 1.83 138 1.83 219 2.02 140 2.03 137 2.10 117 2.10
  30  1.000  0.250  0.698- 134 1.81 140 1.94 139 1.95 160 1.95 159 1.95
  31  0.750  0.375  0.184- 142 1.95 122 1.95 141 1.95 121 1.95 144 1.98 223 1.98
  32  0.000  0.500  0.184- 143 1.95 144 1.95  83 1.95  84 1.95 145 1.98
  33  0.000  0.375  0.314- 145 1.95 125 1.95 146 1.95 126 1.95 147 1.98 148 1.98
  34  0.750  0.500  0.314- 147 1.95 228 1.95 168 1.95  87 1.95 142 1.98 149 1.98
  35  0.750  0.375  0.444- 149 1.95 150 1.95 129 1.95 130 1.95 152 1.98 231 1.98
  36  0.000  0.500  0.444- 151 1.95 152 1.95  91 1.95  92 1.95 146 1.98 153 2.00
  37  0.000  0.375  0.571- 153 1.90 133 1.90 156 1.95 155 1.95 134 2.02 154 2.02
  38  0.750  0.500  0.579- 157 1.86 176 1.97 236 1.97 155 1.97  95 1.97 150 2.11
  39  0.750  0.375  0.713- 158 1.83 138 1.83 239 2.02 160 2.03 157 2.10 137 2.10
  40  1.000  0.500  0.698- 154 1.81 100 1.94 160 1.94  99 1.95 159 1.95
  41  0.250  0.625  0.184- 162 1.95 222 1.95 221 1.95 161 1.95  83 1.98 164 1.98
  42  0.500  0.750  0.184- 163 1.95 164 1.95 183 1.95 184 1.95 165 1.98
  43  0.500  0.625  0.314- 165 1.95 225 1.95 166 1.95 226 1.95 167 1.98 168 1.98
  44  0.250  0.750  0.314-  88 1.95 108 1.95 167 1.95 187 1.95 169 1.98 162 1.98
  45  0.250  0.625  0.444- 169 1.95 170 1.95 229 1.95 230 1.95  91 1.98 172 1.98
  46  0.500  0.750  0.444- 171 1.95 172 1.95 191 1.95 192 1.95 166 1.98 173 2.00
  47  0.500  0.624  0.572- 233 1.90 173 1.91 176 1.95 175 1.95 174 2.01 234 2.01
  48  0.250  0.750  0.579- 177 1.86 195 1.97 116 1.97 175 1.97  96 1.97 170 2.10
  49  0.249  0.625  0.713- 178 1.83 238 1.84  99 2.02 180 2.03 177 2.09 237 2.10
  50  0.500  0.750  0.698- 174 1.80 180 1.93 179 1.94 200 1.95 199 1.95
  51  0.250  0.875  0.184- 162 1.95 182 1.95 161 1.95 181 1.95 103 1.98 184 1.98
  52  0.500  0.000  0.184- 203 1.95 204 1.95 183 1.95 184 1.95 185 1.98
  53  0.500  0.875  0.314- 165 1.95 185 1.95 166 1.95 186 1.95 187 1.98 188 1.98
  54  0.250  0.000  0.314- 128 1.95 207 1.95 187 1.95 108 1.95 189 1.98 182 1.98
  55  0.250  0.875  0.444- 169 1.95 170 1.95 189 1.95 190 1.95 111 1.98 192 1.98
  56  0.500  0.000  0.444- 211 1.95 212 1.95 191 1.95 192 1.95 186 1.98 193 1.99
  57  0.500  0.875  0.571- 173 1.89 193 1.89 196 1.95 195 1.95 174 2.01 194 2.02
  58  0.250  0.000  0.579- 197 1.86 215 1.97 195 1.97 136 1.97 116 1.97 190 2.11
  59  0.250  0.875  0.713- 198 1.83 178 1.84 200 2.02 119 2.03 197 2.10 177 2.10
  60  0.500  1.000  0.698- 194 1.80 199 1.94 219 1.94 200 1.95 220 1.95
[...]
 226  0.500  0.500  0.365-  73 1.95  43 1.95  76 1.98
 227  0.348  0.375  0.314-  74 1.95  64 1.95  73 1.98
 228  0.652  0.375  0.314-  34 1.95  24 1.95  73 1.98
 229  0.250  0.500  0.393-  75 1.95  45 1.95  74 1.98
 230  0.250  0.500  0.495-  75 1.95  45 1.95  78 2.10
 231  0.598  0.375  0.444-  76 1.95  66 1.95  35 1.98
 232  0.402  0.375  0.444-  76 1.95  66 1.95  75 1.98
 233  0.500  0.500  0.524-  47 1.90  77 1.90  76 2.00
 234  0.500  0.500  0.627-  80 1.83  77 2.01  47 2.01
 235  0.350  0.375  0.575-  77 1.95  78 1.97  68 1.97
 236  0.650  0.375  0.575-  77 1.95  28 1.97  38 1.97
 237  0.248  0.500  0.653-  78 1.86  79 2.10  49 2.10
 238  0.253  0.500  0.756-  49 1.84  79 1.84
 239  0.594  0.374  0.710-  70 1.94  80 1.95  39 2.02
 240  0.405  0.373  0.709-  70 1.93  80 1.95  79 2.03

IMPORTANT INFORMATION: All symmetrisations will be switched off!
NOSYMM: (Re-)initialisation of all symmetry stuff for point group C_1.

                                     Primitive cell

  volume of cell :    3846.0501

  direct lattice vectors                    reciprocal lattice vectors
    13.003980404  0.000000000  0.000000000     0.076899531  0.000000000  0.000000000
     0.000000000 11.830378115  0.000000000     0.000000000  0.084528152  0.000000000
     0.000000000  0.000000000 25.000000000     0.000000000  0.000000000  0.040000000

  length of vectors
    13.003980404 11.830378115 25.000000000     0.076899531  0.084528152  0.040000000

  position of ions in fractional coordinates (direct lattice)
     0.750009005  0.625000004  0.183674327
     0.000009005  0.750000004  0.183674327
     0.000009005  0.625000004  0.313714131
     0.750009005  0.750000004  0.313714131
     0.750009005  0.625000004  0.443753935
     0.000009005  0.750000004  0.443753935
     0.000039268  0.625021959  0.571008767
     0.750041367  0.749971392  0.579098488
     0.749740788  0.625029293  0.713111588
     0.999944200  0.750136611  0.698194134
     0.750009005  0.875000004  0.183674327
     0.000009005  0.000000004  0.183674327
     0.000009005  0.875000004  0.313714131
     0.750009005  0.000000004  0.313714131
     0.750009005  0.875000004  0.443753935
     0.000009005  0.000000004  0.443753935
     0.999929708  0.875024128  0.571049285
     0.749958663  0.000000007  0.579107830
     0.749825759  0.875046720  0.713182670
     0.000212581  0.000000005  0.698204043
     0.750009005  0.125000004  0.183674327
     0.000009005  0.250000004  0.183674327
     0.000009005  0.125000004  0.313714131
     0.750009005  0.250000004  0.313714131
     0.750009005  0.125000004  0.443753935
     0.000009005  0.250000004  0.443753935
     0.999929806  0.124975873  0.571049289
     0.750041514  0.250028642  0.579098486
     0.749825774  0.124953283  0.713182667
     0.999944204  0.249863411  0.698194132
     0.750009005  0.375000004  0.183674327
     0.000009005  0.500000004  0.183674327
     0.000009005  0.375000004  0.313714131
     0.750009005  0.500000004  0.313714131
     0.750009005  0.375000004  0.443753935
     0.000009005  0.500000004  0.443753935
     0.000039403  0.374978048  0.571008760
     0.750106312  0.500000004  0.579131674
     0.749740789  0.374970710  0.713111587
     0.999551305  0.500000007  0.698157090
     0.250009005  0.625000004  0.183674327
     0.500009005  0.750000004  0.183674327
     0.500009005  0.625000004  0.313714131
     0.250009005  0.750000004  0.313714131
     0.250009005  0.625000004  0.443753935
     0.500009005  0.750000004  0.443753935
     0.500040642  0.624340844  0.571661438
     0.249957923  0.750119640  0.578928957
     0.249460416  0.625320994  0.712524348
     0.500152263  0.750053206  0.697671829
     0.250009005  0.875000004  0.183674327
     0.500009005  0.000000004  0.183674327
     0.500009005  0.875000004  0.313714131
[...]
   0.222E-02 0.218E-01 0.391E+04   -.253E-02 -.216E-01 -.390E+04   -.153E-02 -.369E-04 -.568E+01   0.342E-04 -.306E-05 -.115E-02
   0.770E-01 0.254E-01 0.188E+04   -.793E-01 -.250E-01 -.188E+04   -.700E-03 -.505E-04 -.179E+00   0.155E-04 -.293E-04 0.385E-03
   0.711E-01 0.130E+00 0.187E+04   -.718E-01 -.129E+00 -.187E+04   -.101E-02 -.235E-03 0.340E+00   0.104E-04 -.173E-05 0.238E-03
   0.797E+00 0.438E+00 -.331E+02   -.802E+00 -.438E+00 0.341E+02   -.150E-03 -.892E-06 -.288E+00   0.195E-04 -.107E-04 0.742E-03
   0.322E+00 -.138E-01 -.141E+02   -.328E+00 0.202E-01 0.127E+02   0.621E-03 -.251E-02 0.577E+00   0.704E-05 0.180E-05 0.914E-03
   0.130E+01 0.267E-02 -.186E+04   -.127E+01 0.201E-02 0.186E+04   -.160E-01 -.434E-02 0.784E+00   0.179E-04 -.166E-05 0.794E-03
   -.197E+00 0.188E-01 -.191E+04   0.223E+00 -.937E-02 0.191E+04   0.230E-02 0.463E-03 -.110E+01   0.100E-05 0.806E-06 0.858E-03
   -.129E+01 0.800E+00 -.366E+04   0.144E+01 -.741E+00 0.366E+04   -.249E-01 -.926E-02 -.168E+01   -.682E-05 -.577E-05 -.111E-03
   -.575E+00 0.212E+01 -.373E+04   0.591E+00 -.209E+01 0.373E+04   0.139E-01 -.175E-01 0.281E+01   0.835E-05 -.627E-05 0.104E-03
   0.153E-01 0.213E-01 0.369E+04   -.155E-01 -.207E-01 -.370E+04   -.152E-02 -.421E-04 0.116E+01   -.861E-04 -.321E-03 -.263E-02
   0.182E-02 0.279E-04 0.391E+04   -.216E-02 -.450E-08 -.390E+04   -.155E-02 -.297E-05 -.568E+01   0.954E-04 -.184E-04 -.109E-02
   0.528E-01 0.241E-01 0.188E+04   -.546E-01 -.238E-01 -.188E+04   -.855E-03 -.497E-04 -.180E+00   0.259E-04 0.779E-05 0.395E-03
   -.921E-02 -.621E-05 0.187E+04   0.783E-02 0.403E-06 -.187E+04   -.771E-03 -.130E-07 0.340E+00   0.165E-04 0.581E-05 0.302E-03
   -.208E+00 0.425E+00 -.324E+02   0.207E+00 -.420E+00 0.334E+02   -.107E-02 -.812E-03 -.289E+00   0.195E-04 0.964E-06 0.736E-03
   0.128E+00 0.879E-05 -.143E+02   -.131E+00 -.510E-05 0.130E+02   -.653E-03 -.923E-06 0.576E+00   0.777E-05 -.362E-05 0.909E-03
   -.415E-01 0.169E-01 -.186E+04   0.461E-01 -.105E-01 0.186E+04   0.151E-01 -.638E-02 0.782E+00   0.622E-05 -.171E-05 0.790E-03
   -.931E+00 -.195E-04 -.191E+04   0.925E+00 0.226E-04 0.191E+04   0.320E-02 -.258E-06 -.109E+01   0.583E-05 -.274E-05 0.868E-03
   -.121E+01 0.321E+00 -.366E+04   0.120E+01 -.291E+00 0.366E+04   0.424E-01 0.178E-02 -.170E+01   -.207E-06 0.266E-04 -.727E-04
   0.550E-01 -.313E-04 -.373E+04   -.310E-01 0.249E-04 0.373E+04   0.100E-01 -.227E-05 0.283E+01   0.160E-05 0.823E-05 0.120E-03
   0.153E-01 -.213E-01 0.369E+04   -.155E-01 0.207E-01 -.370E+04   -.152E-02 0.448E-04 0.116E+01   -.644E-04 0.302E-03 -.263E-02
   0.222E-02 -.218E-01 0.391E+04   -.253E-02 0.216E-01 -.390E+04   -.153E-02 0.377E-04 -.568E+01   0.416E-04 0.483E-04 -.114E-02
   0.528E-01 -.241E-01 0.188E+04   -.546E-01 0.238E-01 -.188E+04   -.854E-03 0.492E-04 -.180E+00   0.116E-04 -.333E-05 0.396E-03
   0.711E-01 -.130E+00 0.187E+04   -.718E-01 0.129E+00 -.187E+04   -.101E-02 0.234E-03 0.340E+00   0.181E-04 0.392E-05 0.248E-03
   -.208E+00 -.425E+00 -.324E+02   0.207E+00 0.420E+00 0.334E+02   -.107E-02 0.811E-03 -.289E+00   0.146E-04 -.337E-05 0.739E-03
   0.322E+00 0.138E-01 -.141E+02   -.328E+00 -.202E-01 0.127E+02   0.621E-03 0.251E-02 0.577E+00   0.655E-05 0.126E-05 0.912E-03
   -.412E-01 -.169E-01 -.186E+04   0.458E-01 0.105E-01 0.186E+04   0.151E-01 0.638E-02 0.782E+00   0.101E-04 0.282E-05 0.789E-03
   -.197E+00 -.186E-01 -.191E+04   0.223E+00 0.924E-02 0.191E+04   0.226E-02 -.467E-03 -.110E+01   0.130E-05 0.341E-05 0.862E-03
   -.121E+01 -.321E+00 -.366E+04   0.120E+01 0.291E+00 0.366E+04   0.424E-01 -.178E-02 -.170E+01   0.565E-06 -.347E-04 -.941E-04
   -.575E+00 -.212E+01 -.373E+04   0.591E+00 0.209E+01 0.373E+04   0.139E-01 0.175E-01 0.281E+01   0.593E-05 0.577E-06 0.110E-03
   0.253E-01 -.206E-01 0.369E+04   -.253E-01 0.207E-01 -.370E+04   -.164E-02 0.593E-04 0.116E+01   -.363E-04 -.374E-03 -.256E-02
   0.248E-02 0.258E-04 0.391E+04   -.287E-02 0.824E-08 -.390E+04   -.153E-02 0.757E-06 -.568E+01   0.111E-03 -.260E-04 -.110E-02
   0.770E-01 -.254E-01 0.188E+04   -.793E-01 0.250E-01 -.188E+04   -.700E-03 0.499E-04 -.179E+00   0.154E-04 0.253E-04 0.375E-03
   0.151E+00 0.662E-05 0.187E+04   -.151E+00 -.375E-06 -.187E+04   -.130E-02 0.249E-06 0.340E+00   0.214E-04 -.724E-05 0.291E-03
   0.797E+00 -.438E+00 -.331E+02   -.802E+00 0.438E+00 0.341E+02   -.149E-03 -.823E-06 -.288E+00   0.188E-04 0.121E-04 0.745E-03
   0.470E+00 -.886E-05 -.139E+02   -.479E+00 0.804E-05 0.125E+02   0.190E-02 -.607E-06 0.576E+00   0.612E-05 0.104E-05 0.906E-03
   0.130E+01 -.268E-02 -.186E+04   -.127E+01 -.199E-02 0.186E+04   -.160E-01 0.434E-02 0.784E+00   0.150E-04 0.251E-06 0.793E-03
   0.519E+00 -.688E-04 -.191E+04   -.488E+00 0.689E-04 0.191E+04   -.207E-02 0.428E-06 -.111E+01   0.415E-06 -.140E-05 0.864E-03
   -.129E+01 -.800E+00 -.366E+04   0.144E+01 0.741E+00 0.366E+04   -.249E-01 0.926E-02 -.168E+01   0.365E-05 0.148E-04 -.121E-03
   -.730E+00 0.255E-05 -.373E+04   0.786E+00 -.800E-06 0.373E+04   -.234E-01 0.346E-06 0.279E+01   0.107E-04 -.211E-05 0.119E-03
   -.254E-01 0.208E-01 0.369E+04   0.253E-01 -.201E-01 -.370E+04   -.161E-02 -.911E-04 0.116E+01   0.369E-04 -.114E-03 -.256E-02
   -.219E-02 0.374E-01 0.391E+04   0.244E-02 -.368E-01 -.390E+04   -.168E-02 -.141E-03 -.568E+01   0.111E-04 -.428E-05 -.114E-02
   -.721E-01 0.159E+00 0.188E+04   0.744E-01 -.151E+00 -.188E+04   -.194E-02 -.231E-02 -.180E+00   -.135E-04 0.603E-05 0.308E-03
   -.755E-01 0.927E-01 0.187E+04   0.763E-01 -.912E-01 -.187E+04   -.151E-02 -.292E-03 0.343E+00   -.161E-04 0.125E-04 0.242E-03
   -.952E+00 0.197E+00 -.320E+02   0.957E+00 -.186E+00 0.330E+02   -.295E-02 -.273E-02 -.278E+00   -.241E-04 -.215E-04 0.747E-03
   -.269E+00 0.145E+01 -.147E+02   0.274E+00 -.148E+01 0.134E+02   -.251E-02 0.181E-01 0.553E+00   0.263E-05 -.108E-05 0.928E-03
   -.122E+00 0.484E+00 -.186E+04   0.107E+00 -.406E+00 0.186E+04   0.359E-02 -.270E-01 0.766E+00   -.870E-05 0.962E-05 0.800E-03
   -.861E+00 0.256E-01 -.191E+04   0.832E+00 0.153E-02 0.191E+04   0.150E-01 -.208E-01 -.109E+01   -.400E-05 -.137E-04 0.867E-03
   0.582E+01 0.516E+01 -.365E+04   -.590E+01 -.526E+01 0.366E+04   0.613E-02 -.266E-01 -.168E+01   -.151E-04 0.342E-04 -.179E-03
   -.169E+01 -.468E+01 -.373E+04   0.158E+01 0.486E+01 0.373E+04   0.675E-01 0.130E-02 0.289E+01   0.914E-05 0.281E-05 0.106E-03
   -.154E-01 0.206E-01 0.369E+04   0.156E-01 -.201E-01 -.370E+04   -.173E-02 -.139E-03 0.116E+01   0.422E-04 0.855E-04 -.253E-02
   -.176E-02 0.140E-04 0.391E+04   0.205E-02 0.189E-06 -.390E+04   -.166E-02 -.100E-05 -.568E+01   -.628E-04 -.184E-04 -.110E-02
   -.489E-01 0.155E+00 0.188E+04   0.508E-01 -.151E+00 -.188E+04   -.179E-02 -.145E-02 -.180E+00   -.193E-04 -.118E-04 0.313E-03
   0.553E-02 0.113E-04 0.187E+04   -.407E-02 0.838E-07 -.187E+04   -.172E-02 0.384E-06 0.341E+00   -.185E-04 -.128E-04 0.237E-03
   0.107E+00 0.898E-01 -.320E+02   -.105E+00 -.616E-01 0.330E+02   -.242E-02 -.565E-02 -.287E+00   -.264E-04 0.788E-05 0.746E-03
   -.810E-01 -.210E-04 -.116E+02   0.824E-01 0.153E-04 0.102E+02   -.166E-02 -.897E-06 0.543E+00   0.202E-05 0.641E-05 0.927E-03
   0.738E+00 -.294E+01 -.185E+04   -.741E+00 0.292E+01 0.185E+04   -.749E-02 0.179E-01 0.714E+00   -.714E-05 -.593E-05 0.813E-03
   -.163E+00 0.731E-04 -.191E+04   0.151E+00 -.768E-04 0.192E+04   0.611E-02 -.349E-05 -.110E+01   -.336E-05 0.588E-05 0.845E-03
   0.728E+00 0.382E+00 -.366E+04   -.705E+00 -.411E+00 0.366E+04   -.469E-01 0.495E-02 -.169E+01   -.837E-06 0.402E-04 -.104E-03
   0.120E+01 0.512E-06 -.373E+04   -.120E+01 -.605E-05 0.373E+04   -.141E-01 0.190E-05 0.273E+01   0.141E-05 0.417E-05 0.126E-03
[...]
   -.634E+02 -.548E-01 0.936E+03   0.668E+02 0.535E-01 -.936E+03   -.304E+01 0.203E-02 0.182E+00   -.180E-03 -.432E-05 0.190E-03
   0.633E+02 -.649E-01 0.936E+03   -.668E+02 0.638E-01 -.936E+03   0.303E+01 0.147E-02 0.179E+00   0.168E-03 -.405E-05 0.204E-03
   -.259E+00 -.290E-05 0.420E+03   0.262E+00 0.604E-06 -.424E+03   -.399E-02 -.714E-06 0.376E+01   -.127E-04 0.262E-05 0.380E-03
   -.116E+01 0.316E-05 -.471E+03   0.116E+01 -.437E-05 0.478E+03   0.264E-03 0.389E-06 -.633E+01   -.641E-05 0.246E-06 0.463E-03
   -.658E+02 -.578E+00 -.937E+01   0.702E+02 0.571E+00 0.908E+01   -.492E+01 0.211E-01 0.390E+00   0.443E-04 0.152E-05 0.428E-03
   0.655E+02 -.515E+00 -.919E+01   -.699E+02 0.507E+00 0.889E+01   0.490E+01 0.234E-01 0.394E+00   -.533E-04 0.189E-05 0.431E-03
   -.114E+00 0.657E-04 -.498E+03   0.953E-01 -.747E-04 0.492E+03   0.190E-01 0.101E-04 0.581E+01   -.556E-05 0.134E-06 0.439E-03
   -.167E+01 -.736E-04 -.133E+04   0.174E+01 0.774E-04 0.133E+04   -.622E-01 -.408E-05 0.192E+01   -.476E-05 0.211E-06 0.368E-03
   -.343E+02 0.143E+00 -.937E+03   0.372E+02 -.209E+00 0.937E+03   -.290E+01 0.690E-01 0.805E+00   -.873E-04 0.612E-06 0.439E-03
   0.334E+02 -.325E+00 -.936E+03   -.363E+02 0.274E+00 0.935E+03   0.293E+01 0.556E-01 0.921E+00   0.775E-04 -.977E-06 0.442E-03
   0.335E+01 -.370E-04 -.149E+04   -.363E+01 0.370E-04 0.149E+04   0.286E+00 0.112E-05 -.132E+01   -.341E-05 -.107E-05 0.245E-03
   -.103E+02 0.847E-04 -.224E+04   0.111E+02 -.918E-04 0.226E+04   -.812E+00 0.736E-05 -.194E+02   -.169E-04 -.335E-06 -.493E-03
   -.316E+02 -.219E+01 -.193E+04   0.371E+02 0.219E+01 0.193E+04   -.561E+01 0.149E+00 -.244E+01   0.329E-04 -.575E-05 -.690E-04
   0.328E+02 -.184E+01 -.192E+04   -.385E+02 0.173E+01 0.192E+04   0.597E+01 0.310E+00 -.203E+01   -.371E-04 -.671E-05 -.717E-04
   0.381E+00 -.358E-04 0.896E+02   0.348E-11 -.213E-11 0.598E-10   -.356E+00 -.224E-05 -.900E+02   0.251E-04 -.106E-05 0.111E-01

 POSITION                                       TOTAL-FORCE (eV/Angst)
      9.75310      7.39399      4.59186        -0.001706      0.000268     -3.595873
      0.00012      8.87278      4.59186        -0.001900      0.000160      2.681830
      0.00012      7.39399      7.84285        -0.003082      0.000306      0.502988
      9.75310      8.87278      7.84285        -0.001824      0.000749     -0.719701
      9.75310      7.39399     11.09385        -0.005243      0.000112      0.710239
      0.00012      8.87278     11.09385        -0.005745      0.003889     -0.749791
      0.00051      7.39425     14.27522         0.013318      0.000334      0.087132
      9.75352      8.87245     14.47746         0.028366      0.009850     -0.002359
      9.74961      7.39433     17.82779         0.125713      0.049751      0.169328
     13.00325      8.87440     17.45485         0.029584      0.010911      0.152603
      9.75310     10.35158      4.59186        -0.001864      0.000251     -3.595936
      0.00012      0.00000      4.59186        -0.001888      0.000007      2.681763
      0.00012     10.35158      7.84285        -0.002769      0.000265      0.503366
      9.75310      0.00000      7.84285        -0.002238      0.000000     -0.719517
      9.75310     10.35158     11.09385        -0.002499      0.003477      0.712213
      0.00012      0.00000     11.09385        -0.003667     -0.000001     -0.748497
     13.00307     10.35187     14.27623         0.019601      0.000026      0.082500
      9.75245      0.00000     14.47770        -0.002840      0.000000      0.015083
      9.75072     10.35213     17.82957         0.025765      0.031194      0.181990
      0.00276      0.00000     17.45510         0.033897     -0.000000      0.143166
      9.75310      1.47880      4.59186        -0.001863     -0.000249     -3.595935
      0.00012      2.95759      4.59186        -0.001896     -0.000165      2.681838
      0.00012      1.47880      7.84285        -0.002769     -0.000265      0.503365
      9.75310      2.95759      7.84285        -0.001824     -0.000749     -0.719700
      9.75310      1.47880     11.09385        -0.002498     -0.003479      0.712213
      0.00012      2.95759     11.09385        -0.005746     -0.003890     -0.749790
     13.00307      1.47851     14.27623         0.019586     -0.000024      0.082501
      9.75353      2.95793     14.47746         0.028350     -0.009853     -0.002358
      9.75072      1.47824     17.82957         0.025762     -0.031193      0.182007
     13.00325      2.95598     17.45485         0.029581     -0.010914      0.152596
      9.75310      4.43639      4.59186        -0.001704     -0.000268     -3.595864
      0.00012      5.91519      4.59186        -0.001911      0.000001      2.681846
      0.00012      4.43639      7.84285        -0.003083     -0.000307      0.502986
      9.75310      5.91519      7.84285        -0.001412     -0.000001     -0.719654
      9.75310      4.43639     11.09385        -0.005242     -0.000114      0.710238
      0.00012      5.91519     11.09385        -0.007679     -0.000000     -0.751461
      0.00051      4.43613     14.27522         0.013301     -0.000336      0.087134
      9.75437      5.91519     14.47829         0.028353     -0.000001     -0.010297
      9.74961      4.43605     17.82779         0.125712     -0.049751      0.169313
     12.99815      5.91519     17.45393         0.032386      0.000000      0.157578
      3.25111      7.39399      4.59186        -0.001755      0.000409     -3.597013
      6.50211      8.87278      4.59186        -0.001527      0.000492      2.682674
      6.50211      7.39399      7.84285         0.000198      0.005849      0.502961
      3.25111      8.87278      7.84285        -0.000801      0.001265     -0.724789
      3.25111      7.39399     11.09385         0.002266      0.008978      0.685608
      6.50211      8.87278     11.09385         0.001667     -0.008308     -0.724409
      6.50252      7.38619     14.29154        -0.011559      0.050648     -0.006060
      3.25045      8.87420     14.47322        -0.014029      0.006309      0.043034
      3.24398      7.39778     17.81311        -0.068755     -0.127335      0.375046
      6.50397      8.87341     17.44180        -0.041282      0.182717      0.104138
      3.25111     10.35158      4.59186        -0.001599      0.000469     -3.596764
      6.50211      0.00000      4.59186        -0.001539     -0.000005      2.682879
      6.50211     10.35158      7.84285        -0.000082      0.002721      0.507107
      3.25111      0.00000      7.84285        -0.000391     -0.000001     -0.722864
      3.25111     10.35158     11.09385        -0.000412      0.022583      0.706346
      6.50211      0.00000     11.09385        -0.000370     -0.000000     -0.785473
      6.50348     10.34801     14.26518        -0.010494      0.004899      0.060297
      3.25187      0.00000     14.47865        -0.005709     -0.000001      0.039941
      3.25524     10.35210     17.83096        -0.023377     -0.024007      0.228855
      6.50273     11.83038     17.44393        -0.018282      0.000001      0.118059
[...]
      6.50211      5.91519      9.11724        -0.000788      0.000000     -0.117915
      4.52550      4.43639      7.84285         0.407225      0.000733      0.048734
      8.47872      4.43639      7.84285        -0.409575      0.000425      0.048060
      3.25111      5.91519      9.81946        -0.001216     -0.000000     -0.083757
      3.25111      5.91519     12.36823         0.003897     -0.000000      0.017680
      7.77649      4.43639     11.09385        -0.506990      0.014362      0.093722
      5.22772      4.43639     11.09385         0.496153      0.014902      0.094157
      6.50159      5.91519     13.09655        -0.000062      0.000001      0.038357
      6.50372      5.91519     15.66579         0.007180      0.000000      0.229773
      4.55194      4.43643     14.37281         0.010622      0.003188      0.003195
      8.45203      4.43688     14.37144         0.013325      0.005407      0.006110
      3.23079      5.91519     16.33221         0.013835      0.000000     -0.014195
      3.29598      5.91519     18.90392        -0.077417      0.000000     -0.190759
      7.72642      4.42656     17.75727        -0.121713      0.154983      0.240955
      5.26802      4.41716     17.73167         0.254631      0.195637      0.246251
    total drift:                                0.024374     -0.000039     -0.368092

  FREE ENERGIE OF THE ION-ELECTRON SYSTEM (eV)
  free  energy   TOTEN  =     -2129.91344168 eV

  energy  without entropy=    -2129.91344168  energy(sigma->0) =    -2129.91344168

     |            E. Caldeweyher, S. Ehlert & S. Grimme          |
     |          Mulliken Center for Theoretical Chemistry        |
     |                    University of Bonn                     |

Rational (Becke-Johnson) damping: hse06-D4-ATM
  s6         1.0000
  s8         1.1953
  s9         1.0000
  a1         0.3866
  a2         5.1913
 alp        16.0000

Dispersion energy:      -1.4348719031631E+00 Eh