 vasp.6.4.2 20Jul23 (build Feb 22 2024 13:53:45) complex
 executed on              LinuxNV date 2024.08.30  13:50:49
 OpenACC runtime initialized ...    4 GPUs detected

 INCAR:
   SYSTEM = Oxide-Surface
   ISMEAR = 0
   SIGMA = 0.05
   EDIFF = 1E-5
   ALGO = Normal
   IBRION = -1
   NSW = 0
   ISYM = 0
   DIPOL = 0.5 0.5 0.5
   IDIPOL = 3
   LDIPOL = .TRUE.
   ISTART = 1
   LHFCALC = .TRUE.
   HFSCREEN = 0.2
   GGA = PE
   HFRCUT = -1
   ENCUT = 520
   PREC = Normal
   PRECFOCK = Normal
   LASPH = .TRUE.
   LREAL = Auto
   ISPIN = 1
   NELM = 200
   NELMIN = 8
   NCORE = 1
   KPAR = 1
   LWAVE = .FALSE.
   LCHARG = .FALSE.

 POTCAR:    PAW_PBE Ti_pv 07Sep2000
 POTCAR:    PAW_PBE O 08Apr2002
 POTCAR:    PAW_PBE Ti_pv 07Sep2000
   VRHFIN =Ti: d3 s1

   TITEL  = PAW_PBE Ti_pv 07Sep2000
   POMASS =   47.880; ZVAL   =   10.000    mass and valenz
   ENMAX  =  222.335; ENMIN  =  166.751 eV

   TITEL  = PAW_PBE O 08Apr2002
   POMASS =   16.000; ZVAL   =    6.000    mass and valenz
   ENMAX  =  400.000; ENMIN  =  300.000 eV

 Optimization of the real space projectors (new method)

 maximal supplied QI-value         = 15.12
 optimisation between [QCUT,QGAM] = [ 11.64, 23.28] = [ 37.95,151.78] Ry
 Optimized for a Real-space Cutoff    1.45 Angstroem

   l    n(q)    QCUT    max X(q) W(low)/X(q) W(high)/X(q)  e(spline)
   1     10    11.641     4.216    0.33E-04    0.72E-04    0.48E-07
   1     10    11.641     5.422    0.11E-03    0.20E-03    0.10E-06
   2      9    11.641    72.084    0.36E-03    0.27E-03    0.57E-06
   2      9    11.641    65.965    0.35E-03    0.27E-03    0.57E-06
   0     10    11.641    41.531    0.11E-03    0.93E-04    0.16E-06
   0     10    11.641    16.290    0.82E-04    0.72E-04    0.13E-06
 Optimization of the real space projectors (new method)

 maximal supplied QI-value         = 24.76
 optimisation between [QCUT,QGAM] = [ 11.64, 23.27] = [ 37.91,151.63] Ry
 Optimized for a Real-space Cutoff    1.04 Angstroem

   l    n(q)    QCUT    max X(q) W(low)/X(q) W(high)/X(q)  e(spline)
   0      7    11.635    20.381    0.14E-03    0.49E-03    0.18E-06
   0      7    11.635    15.268    0.16E-03    0.52E-03    0.19E-06
   1      7    11.635     5.964    0.30E-03    0.44E-03    0.22E-06
   1      7    11.635     5.382    0.27E-03    0.34E-03    0.19E-06
  PAW_PBE Ti_pv 07Sep2000               :
  PAW_PBE O 08Apr2002                   :

 POSCAR: Ti  O
  positions in direct lattice
 exchange correlation table for  LEXCH =        8
   RHO(1)=    0.500       N(1)  =     2000
   RHO(2)=  100.500       N(2)  =     4000

 ion  position               nearest neighbor table
   1  0.750  0.625  0.184-  82 1.95 142 1.95 141 1.95  81 1.95  84 1.98 163 1.98  31 2.96  11 2.96

   2  0.000  0.750  0.184-  83 1.95  84 1.95 103 1.95 104 1.95  85 1.98  32 2.96  12 2.96
   3  0.000  0.625  0.314-  85 1.95 145 1.95  86 1.95 146 1.95  87 1.98  88 1.98  33 2.96  13 2.96

[...]

  80  0.499  0.500  0.700- 234 1.83 239 1.95 179 1.95 240 1.95 180 1.95  50 2.96  70 2.96
  81  0.750  0.750  0.133-   1 1.95  11 1.95
  82  0.750  0.750  0.235-   1 1.95  11 1.95   4 1.98
  83  0.098  0.625  0.184-   2 1.95  32 1.95  41 1.98
  84  0.902  0.625  0.184-   2 1.95  32 1.95   1 1.98
  85  0.000  0.750  0.263-   3 1.95  13 1.95   2 1.98
  86  0.000  0.750  0.365-   3 1.95  13 1.95   6 1.98
  87  0.848  0.625  0.314-   4 1.95  34 1.95   3 1.98
  88  0.152  0.625  0.314-  44 1.95  74 1.95   3 1.98
  89  0.750  0.750  0.393-   5 1.95  15 1.95   4 1.98
  90  0.750  0.750  0.495-   5 1.95  15 1.95   8 2.11
  91  0.098  0.625  0.444-   6 1.95  36 1.95  45 1.98
  92  0.902  0.625  0.444-   6 1.95  36 1.95   5 1.98
  93  1.000  0.750  0.524-  17 1.89   7 1.90   6 2.00
  94  0.000  0.750  0.626-  10 1.81   7 2.02  17 2.02
  95  0.850  0.625  0.575-   7 1.95   8 1.97  38 1.97
  96  0.150  0.625  0.574-   7 1.95  48 1.97  78 1.97
  97  0.750  0.750  0.654-   8 1.86  19 2.10   9 2.10
  98  0.750  0.750  0.757-   9 1.83  19 1.83
  99  0.094  0.625  0.711-  40 1.95  10 1.95  49 2.02
 100  0.906  0.625  0.711-  40 1.94  10 1.95   9 2.03
 101  0.750  0.000  0.133-  21 1.95  11 1.95
 102  0.750  0.000  0.235-  21 1.95  11 1.95  14 1.98
 103  0.098  0.875  0.184-   2 1.95  12 1.95  51 1.98
 104  0.902  0.875  0.184-   2 1.95  12 1.95  11 1.98
 105  0.000  0.000  0.263-  23 1.95  13 1.95  12 1.98
 106  0.000  0.000  0.365-  23 1.95  13 1.95  16 1.98
 107  0.848  0.875  0.314-   4 1.95  14 1.95  13 1.98
 108  0.152  0.875  0.314-  44 1.95  54 1.95  13 1.98
 109  0.750  0.000  0.393-  25 1.95  15 1.95  14 1.98
 110  0.750  0.000  0.495-  25 1.95  15 1.95  18 2.11
 111  0.098  0.875  0.444-   6 1.95  16 1.95  55 1.98
 112  0.902  0.875  0.444-   6 1.95  16 1.95  15 1.98
 113  1.000  0.000  0.524-  27 1.90  17 1.90  16 2.00
 114  0.000  0.000  0.626-  20 1.81  27 2.02  17 2.02
 115  0.850  0.875  0.575-  17 1.95  18 1.97   8 1.98
 116  0.150  0.875  0.575-  17 1.95  58 1.97  48 1.97
 117  0.750  0.000  0.654-  18 1.86  29 2.10  19 2.10
 118  0.750  0.000  0.757-  29 1.83  19 1.83
 119  0.094  0.875  0.711-  10 1.95  20 1.95  59 2.03
 120  0.906  0.875  0.711-  10 1.94  20 1.95  19 2.03
 121  0.750  0.250  0.133-  21 1.95  31 1.95
 122  0.750  0.250  0.235-  21 1.95  31 1.95  24 1.98
 123  0.098  0.125  0.184-  12 1.95  22 1.95  61 1.98
 124  0.902  0.125  0.184-  12 1.95  22 1.95  21 1.98
 125  0.000  0.250  0.263-  23 1.95  33 1.95  22 1.98
 126  0.000  0.250  0.365-  23 1.95  33 1.95  26 1.98
 127  0.848  0.125  0.314-  14 1.95  24 1.95  23 1.98
 128  0.152  0.125  0.314-  54 1.95  64 1.95  23 1.98
 129  0.750  0.250  0.393-  25 1.95  35 1.95  24 1.98
 130  0.750  0.250  0.495-  25 1.95  35 1.95  28 2.11
 131  0.098  0.125  0.444-  16 1.95  26 1.95  65 1.98
 132  0.902  0.125  0.444-  16 1.95  26 1.95  25 1.98
 133  1.000  0.250  0.524-  27 1.89  37 1.90  26 2.00
 134  0.000  0.250  0.626-  30 1.81  37 2.02  27 2.02
 135  0.850  0.125  0.575-  27 1.95  18 1.97  28 1.98
 136  0.150  0.125  0.575-  27 1.95  58 1.97  68 1.97
 137  0.750  0.250  0.654-  28 1.86  29 2.10  39 2.10
 138  0.750  0.250  0.757-  39 1.83  29 1.83
 139  0.094  0.125  0.711-  30 1.95  20 1.95  69 2.03
[...]
 226  0.500  0.500  0.365-  73 1.95  43 1.95  76 1.98
 227  0.348  0.375  0.314-  74 1.95  64 1.95  73 1.98
 228  0.652  0.375  0.314-  34 1.95  24 1.95  73 1.98
 229  0.250  0.500  0.393-  75 1.95  45 1.95  74 1.98
 230  0.250  0.500  0.495-  75 1.95  45 1.95  78 2.10
 231  0.598  0.375  0.444-  76 1.95  66 1.95  35 1.98
 232  0.402  0.375  0.444-  76 1.95  66 1.95  75 1.98
 233  0.500  0.500  0.524-  47 1.90  77 1.90  76 2.00
 234  0.500  0.500  0.627-  80 1.83  77 2.01  47 2.01
 235  0.350  0.375  0.575-  77 1.95  78 1.97  68 1.97
 236  0.650  0.375  0.575-  77 1.95  28 1.97  38 1.97
 237  0.248  0.500  0.653-  78 1.86  79 2.10  49 2.10
 238  0.253  0.500  0.756-  49 1.84  79 1.84
 239  0.594  0.374  0.710-  70 1.94  80 1.95  39 2.02
 240  0.405  0.373  0.709-  70 1.93  80 1.95  79 2.03

IMPORTANT INFORMATION: All symmetrisations will be switched off!
NOSYMM: (Re-)initialisation of all symmetry stuff for point group C_1.

                                     Primitive cell

  volume of cell :    3846.0501

  direct lattice vectors                    reciprocal lattice vectors
    13.003980404  0.000000000  0.000000000     0.076899531  0.000000000  0.000000000
     0.000000000 11.830378115  0.000000000     0.000000000  0.084528152  0.000000000
     0.000000000  0.000000000 25.000000000     0.000000000  0.000000000  0.040000000

  length of vectors
    13.003980404 11.830378115 25.000000000     0.076899531  0.084528152  0.040000000

  position of ions in fractional coordinates (direct lattice)
     0.750009005  0.625000004  0.183674327
     0.000009005  0.750000004  0.183674327
     0.000009005  0.625000004  0.313714131
     0.750009005  0.750000004  0.313714131
     0.750009005  0.625000004  0.443753935
     0.000009005  0.750000004  0.443753935
     0.000039268  0.625021959  0.571008767
     0.750041367  0.749971392  0.579098488
     0.749740788  0.625029293  0.713111588
     0.999944200  0.750136611  0.698194134
     0.750009005  0.875000004  0.183674327
     0.000009005  0.000000004  0.183674327
     0.000009005  0.875000004  0.313714131
     0.750009005  0.000000004  0.313714131
     0.750009005  0.875000004  0.443753935
     0.000009005  0.000000004  0.443753935
     0.999929708  0.875024128  0.571049285
     0.749958663  0.000000007  0.579107830
     0.749825759  0.875046720  0.713182670
     0.000212581  0.000000005  0.698204043
     0.750009005  0.125000004  0.183674327
     0.000009005  0.250000004  0.183674327
     0.000009005  0.125000004  0.313714131
     0.750009005  0.250000004  0.313714131
     0.750009005  0.125000004  0.443753935
     0.000009005  0.250000004  0.443753935
     0.999929806  0.124975873  0.571049289
     0.750041514  0.250028642  0.579098486
     0.749825774  0.124953283  0.713182667
     0.999944204  0.249863411  0.698194132
     0.750009005  0.375000004  0.183674327
     0.000009005  0.500000004  0.183674327
     0.000009005  0.375000004  0.313714131
     0.750009005  0.500000004  0.313714131
     0.750009005  0.375000004  0.443753935
     0.000009005  0.500000004  0.443753935
     0.000039403  0.374978048  0.571008760
     0.750106312  0.500000004  0.579131674
     0.749740789  0.374970710  0.713111587
     0.999551305  0.500000007  0.698157090
     0.250009005  0.625000004  0.183674327
     0.500009005  0.750000004  0.183674327
     0.500009005  0.625000004  0.313714131
     0.250009005  0.750000004  0.313714131
     0.250009005  0.625000004  0.443753935
     0.500009005  0.750000004  0.443753935
     0.500040642  0.624340844  0.571661438
     0.249957923  0.750119640  0.578928957
     0.249460416  0.625320994  0.712524348
     0.500152263  0.750053206  0.697671829
     0.250009005  0.875000004  0.183674327
     0.500009005  0.000000004  0.183674327
     0.500009005  0.875000004  0.313714131
     0.250009005  0.000000004  0.313714131
     0.250009005  0.875000004  0.443753935
     0.500009005  0.000000004  0.443753935
     0.500114648  0.874698164  0.570607062
     0.250067388  0.000000017  0.579145980
     0.250326489  0.875043651  0.713238539
     0.500057072  0.999999996  0.697757384
[...]
     0.500009005  0.500000004  0.364689499
     0.348008553  0.375000004  0.313714131
     0.652009456  0.375000004  0.313714131
     0.250009005  0.500000004  0.392778567
     0.250009005  0.500000004  0.494729303
     0.598008553  0.375000004  0.443753935
     0.402009456  0.375000004  0.443753935
     0.499969004  0.499999989  0.523861948
     0.500132821  0.500000013  0.626631412
     0.350042281  0.375003251  0.574912535
     0.649957090  0.375040974  0.574857430
     0.248446292  0.500000007  0.653288580
     0.253459535  0.499999997  0.756156971
     0.594158300  0.374169263  0.710290904
     0.405108610  0.373374005  0.709266657

  ion indices of the primitive-cell ions
   primitive index   ion index
                 1           1
                 2           2
                 3           3
                 4           4
                 5           5
                 6           6
                 7           7
[...]
   0.180E-02 0.174E-01 0.300E+04   -.200E-02 -.171E-01 -.299E+04   0.436E-03 -.369E-04 -.419E+01   -.559E-04 -.251E-04 0.181E+00
   0.562E-01 0.200E-01 0.144E+04   -.586E-01 -.194E-01 -.143E+04   0.826E-03 -.721E-02 -.954E-01   -.442E-04 0.124E-04 0.170E+00
   0.522E-01 0.971E-01 0.143E+04   -.530E-01 -.961E-01 -.143E+04   0.537E-03 -.138E-03 0.240E+00   -.271E-04 -.384E-05 0.168E+00
   0.585E+00 0.331E+00 -.248E+02   -.591E+00 -.331E+00 0.256E+02   0.148E-02 -.339E-02 -.161E+00   -.313E-04 -.266E-04 0.872E-01
   0.237E+00 0.314E-02 -.123E+02   -.244E+00 0.380E-02 0.111E+02   0.208E-02 -.204E-02 0.395E+00   -.362E-04 0.812E-06 0.830E-01
   0.102E+01 0.250E-01 -.142E+04   -.100E+01 -.196E-01 0.142E+04   -.357E-02 -.648E-02 0.152E+00   -.861E-04 0.186E-04 -.251E-01
   -.154E+00 0.122E-01 -.146E+04   0.181E+00 0.497E-02 0.146E+04   -.683E-02 -.378E-02 -.262E+00   -.779E-04 0.110E-04 -.346E-01
   -.899E+00 0.726E+00 -.278E+04   0.107E+01 -.660E+00 0.278E+04   -.273E-01 0.147E-02 -.467E+00   -.358E-03 -.371E-04 -.167E+00
   -.500E+00 0.173E+01 -.285E+04   0.530E+00 -.173E+01 0.285E+04   0.327E-02 -.155E-01 0.125E+01   -.146E-03 0.138E-04 -.153E+00
   0.122E-01 0.165E-01 0.282E+04   -.124E-01 -.162E-01 -.282E+04   0.449E-03 -.128E-02 0.618E+00   -.756E-04 -.593E-04 0.182E+00
   0.156E-02 0.459E-05 0.300E+04   -.173E-02 -.156E-07 -.299E+04   0.506E-03 0.104E-05 -.421E+01   -.639E-04 -.693E-05 0.181E+00
   0.388E-01 0.188E-01 0.144E+04   -.406E-01 -.185E-01 -.143E+04   0.693E-03 0.713E-02 -.956E-01   -.312E-04 -.521E-05 0.170E+00
   -.706E-02 0.929E-06 0.143E+04   0.559E-02 0.220E-06 -.143E+04   0.777E-03 0.123E-05 0.242E+00   -.230E-04 -.158E-05 0.168E+00
   -.153E+00 0.319E+00 -.242E+02   0.152E+00 -.316E+00 0.251E+02   0.809E-03 0.296E-02 -.161E+00   -.246E-04 0.718E-05 0.871E-01
   0.977E-01 0.462E-05 -.125E+02   -.101E+00 -.467E-05 0.112E+02   0.109E-02 -.113E-05 0.385E+00   -.243E-04 0.146E-05 0.830E-01
   -.319E-01 0.401E-01 -.142E+04   0.482E-01 -.343E-01 0.142E+04   -.365E-02 0.997E-03 0.156E+00   -.820E-04 0.369E-05 -.251E-01
   -.730E+00 -.229E-04 -.146E+04   0.736E+00 0.164E-04 0.146E+04   0.319E-02 0.109E-05 -.249E+00   -.839E-04 0.592E-05 -.347E-01
   -.905E+00 0.298E+00 -.278E+04   0.912E+00 -.269E+00 0.278E+04   0.187E-01 -.789E-02 -.479E+00   -.188E-03 -.923E-04 -.167E+00
   0.345E-01 -.260E-04 -.285E+04   -.132E-01 0.190E-04 0.285E+04   0.155E-02 0.719E-06 0.126E+01   -.135E-03 0.655E-05 -.153E+00
   0.122E-01 -.165E-01 0.282E+04   -.124E-01 0.162E-01 -.282E+04   0.450E-03 0.129E-02 0.618E+00   -.780E-04 0.546E-04 0.182E+00
   0.180E-02 -.174E-01 0.300E+04   -.200E-02 0.171E-01 -.299E+04   0.436E-03 0.371E-04 -.419E+01   -.601E-04 0.255E-04 0.181E+00
   0.388E-01 -.188E-01 0.144E+04   -.406E-01 0.185E-01 -.143E+04   0.693E-03 -.713E-02 -.956E-01   -.299E-04 0.550E-05 0.170E+00
   0.522E-01 -.971E-01 0.143E+04   -.530E-01 0.961E-01 -.143E+04   0.537E-03 0.139E-03 0.240E+00   -.267E-04 0.470E-05 0.168E+00
   -.153E+00 -.319E+00 -.242E+02   0.152E+00 0.316E+00 0.251E+02   0.808E-03 -.295E-02 -.161E+00   -.311E-04 -.131E-04 0.871E-01
   0.237E+00 -.312E-02 -.123E+02   -.244E+00 -.381E-02 0.111E+02   0.208E-02 0.204E-02 0.395E+00   -.301E-04 -.926E-05 0.830E-01
   -.316E-01 -.402E-01 -.142E+04   0.479E-01 0.343E-01 0.142E+04   -.364E-02 -.996E-03 0.156E+00   -.811E-04 -.705E-05 -.251E-01
   -.154E+00 -.121E-01 -.146E+04   0.181E+00 -.507E-02 0.146E+04   -.683E-02 0.378E-02 -.262E+00   -.811E-04 -.158E-04 -.346E-01
   -.905E+00 -.298E+00 -.278E+04   0.912E+00 0.269E+00 0.278E+04   0.187E-01 0.789E-02 -.479E+00   -.186E-03 0.959E-04 -.167E+00
   -.500E+00 -.173E+01 -.285E+04   0.530E+00 0.173E+01 0.285E+04   0.327E-02 0.155E-01 0.125E+01   -.142E-03 -.110E-04 -.153E+00
   0.198E-01 -.166E-01 0.282E+04   -.197E-01 0.162E-01 -.282E+04   0.356E-03 -.123E-02 0.618E+00   -.765E-04 0.137E-04 0.182E+00
   0.202E-02 -.613E-05 0.300E+04   -.223E-02 0.182E-07 -.299E+04   0.518E-03 0.113E-05 -.421E+01   -.598E-04 0.511E-05 0.181E+00
   0.562E-01 -.200E-01 0.144E+04   -.586E-01 0.194E-01 -.143E+04   0.826E-03 0.721E-02 -.954E-01   -.461E-04 -.724E-05 0.170E+00
   0.111E+00 -.231E-05 0.143E+04   -.111E+00 -.193E-06 -.143E+04   0.399E-03 -.804E-06 0.242E+00   -.190E-04 0.318E-05 0.168E+00
   0.585E+00 -.331E+00 -.248E+02   -.591E+00 0.331E+00 0.256E+02   0.148E-02 0.339E-02 -.161E+00   -.341E-04 0.280E-04 0.872E-01
   0.342E+00 -.108E-04 -.122E+02   -.352E+00 0.576E-05 0.109E+02   0.311E-02 0.115E-05 0.385E+00   -.409E-04 0.385E-05 0.830E-01
   0.103E+01 -.250E-01 -.142E+04   -.100E+01 0.196E-01 0.142E+04   -.357E-02 0.648E-02 0.152E+00   -.849E-04 -.149E-04 -.251E-01
   0.388E+00 -.538E-04 -.146E+04   -.356E+00 0.530E-04 0.146E+04   -.897E-02 0.109E-05 -.262E+00   -.891E-04 -.160E-06 -.346E-01
   -.899E+00 -.726E+00 -.278E+04   0.107E+01 0.660E+00 0.278E+04   -.273E-01 -.147E-02 -.467E+00   -.362E-03 0.338E-04 -.167E+00
   -.558E+00 0.454E-05 -.285E+04   0.639E+00 -.802E-06 0.285E+04   -.322E-01 0.273E-05 0.121E+01   -.178E-03 -.521E-05 -.153E+00
   -.198E-01 0.164E-01 0.282E+04   0.197E-01 -.158E-01 -.282E+04   0.367E-03 0.119E-02 0.618E+00   0.571E-04 0.412E-05 0.182E+00
   -.174E-02 0.293E-01 0.300E+04   0.194E-02 -.285E-01 -.299E+04   0.330E-03 -.110E-03 -.419E+01   0.504E-04 -.647E-04 0.181E+00
   -.525E-01 0.121E+00 0.144E+04   0.548E-01 -.113E+00 -.143E+04   -.609E-04 -.874E-02 -.956E-01   0.368E-04 -.128E-05 0.170E+00
   -.555E-01 0.704E-01 0.143E+04   0.564E-01 -.688E-01 -.143E+04   0.124E-03 -.119E-03 0.241E+00   0.311E-04 -.140E-04 0.168E+00
   -.707E+00 0.160E+00 -.240E+02   0.713E+00 -.149E+00 0.248E+02   -.548E-03 -.462E-02 -.155E+00   0.179E-04 0.313E-07 0.871E-01
   -.201E+00 0.975E+00 -.128E+02   0.205E+00 -.101E+01 0.115E+02   -.874E-04 0.169E-01 0.379E+00   0.427E-04 -.376E-05 0.831E-01
   -.848E-01 0.586E+00 -.143E+04   0.678E-01 -.460E+00 0.143E+04   0.599E-03 -.564E-01 0.191E+00   0.766E-04 0.249E-04 -.254E-01
   -.674E+00 0.526E-01 -.146E+04   0.641E+00 -.327E-01 0.146E+04   0.113E-01 -.113E-01 -.262E+00   0.947E-04 0.116E-04 -.345E-01
   0.482E+01 0.405E+01 -.278E+04   -.487E+01 -.418E+01 0.278E+04   -.142E-01 0.172E-01 -.477E+00   0.416E-03 -.139E-04 -.167E+00
   -.153E+01 -.367E+01 -.285E+04   0.142E+01 0.391E+01 0.285E+04   0.420E-01 -.328E-01 0.132E+01   0.119E-03 -.245E-03 -.152E+00
   -.123E-01 0.163E-01 0.282E+04   0.124E-01 -.157E-01 -.282E+04   0.277E-03 -.133E-02 0.618E+00   0.766E-04 -.302E-04 0.182E+00
   -.147E-02 0.428E-06 0.300E+04   0.166E-02 0.127E-06 -.299E+04   0.411E-03 -.285E-06 -.421E+01   0.397E-04 0.105E-06 0.181E+00
   -.359E-01 0.116E+00 0.144E+04   0.377E-01 -.112E+00 -.143E+04   0.675E-04 0.619E-02 -.962E-01   0.338E-04 0.188E-04 0.170E+00
   0.414E-02 0.214E-05 0.143E+04   -.269E-02 0.145E-07 -.143E+04   0.651E-04 -.569E-06 0.243E+00   0.361E-04 -.157E-05 0.168E+00
   0.745E-01 0.836E-01 -.240E+02   -.723E-01 -.569E-01 0.248E+02   -.343E-03 0.741E-03 -.160E+00   0.230E-04 0.793E-05 0.871E-01
   -.638E-01 -.128E-04 -.104E+02   0.650E-01 0.109E-04 0.910E+01   0.555E-03 -.427E-06 0.366E+00   0.239E-04 0.319E-05 0.831E-01
   0.578E+00 -.238E+01 -.141E+04   -.589E+00 0.240E+01 0.141E+04   -.952E-03 0.157E-01 0.859E-01   0.820E-04 -.189E-04 -.246E-01
   -.144E+00 0.585E-04 -.146E+04   0.127E+00 -.609E-04 0.146E+04   0.852E-02 0.720E-06 -.261E+00   0.678E-04 0.289E-05 -.348E-01
   0.607E+00 0.304E+00 -.278E+04   -.609E+00 -.349E+00 0.279E+04   -.219E-01 -.130E-02 -.478E+00   0.188E-03 -.871E-04 -.167E+00
   0.944E+00 -.668E-05 -.285E+04   -.958E+00 -.941E-06 0.285E+04   -.665E-02 0.116E-05 0.120E+01   0.119E-03 0.713E-05 -.152E+00
[...]
   -.532E+02 -.495E-01 0.858E+03   0.574E+02 0.482E-01 -.858E+03   -.341E+01 0.357E-02 0.171E+00   0.246E-03 0.124E-05 0.102E+00
   0.531E+02 -.582E-01 0.858E+03   -.573E+02 0.571E-01 -.858E+03   0.341E+01 0.305E-02 0.168E+00   -.214E-03 0.676E-06 0.102E+00
   -.230E+00 -.117E-05 0.380E+03   0.233E+00 0.639E-06 -.385E+03   -.316E-02 0.118E-06 0.402E+01   0.110E-04 0.142E-05 0.755E-01
   -.105E+01 0.222E-05 -.424E+03   0.106E+01 -.284E-05 0.432E+03   0.161E-02 0.323E-06 -.690E+01   0.244E-04 0.151E-05 0.257E-01
   -.548E+02 -.534E+00 -.897E+01   0.599E+02 0.528E+00 0.865E+01   -.507E+01 0.159E-01 0.325E+00   0.155E-03 -.218E-05 0.513E-01
   0.545E+02 -.480E+00 -.881E+01   -.596E+02 0.472E+00 0.848E+01   0.505E+01 0.180E-01 0.329E+00   -.101E-03 -.726E-05 0.513E-01
   -.111E+00 0.458E-04 -.464E+03   0.907E-01 -.583E-04 0.457E+03   0.228E-01 0.106E-04 0.644E+01   0.364E-04 0.168E-05 0.104E-01
   -.146E+01 -.633E-04 -.122E+04   0.155E+01 0.667E-04 0.122E+04   -.698E-01 -.327E-05 0.208E+01   0.487E-04 -.115E-05 -.450E-01
   -.283E+02 0.386E-01 -.861E+03   0.314E+02 -.111E+00 0.860E+03   -.278E+01 0.720E-01 0.802E+00   -.436E-03 0.106E-04 -.175E-01
   0.275E+02 -.366E+00 -.860E+03   -.306E+02 0.313E+00 0.859E+03   0.279E+01 0.565E-01 0.924E+00   0.499E-03 -.763E-05 -.174E-01
   0.290E+01 -.253E-04 -.136E+04   -.320E+01 0.325E-04 0.136E+04   0.285E+00 0.652E-06 -.234E+01   0.177E-03 -.622E-05 -.615E-01
   -.859E+01 0.733E-04 -.203E+04   0.944E+01 -.754E-04 0.205E+04   -.832E+00 0.911E-05 -.201E+02   0.299E-03 -.678E-05 -.131E+00
   -.209E+02 -.200E+01 -.176E+04   0.274E+02 0.205E+01 0.176E+04   -.600E+01 0.942E-01 -.295E+01   0.282E-03 0.175E-03 -.999E-01
   0.217E+02 -.177E+01 -.175E+04   -.285E+02 0.171E+01 0.175E+04   0.634E+01 0.224E+00 -.256E+01   -.111E-03 0.181E-03 -.992E-01
   0.420E+00 -.759E-04 0.923E+02   -.483E-12 0.916E-12 0.375E-10   -.339E+00 0.750E-04 -.905E+02   0.193E-04 0.180E-04 0.851E+01

 POSITION                                       TOTAL-FORCE (eV/Angst)
      9.75310      7.39399      4.59186        -0.000043     -0.000568     -4.038608
      0.00012      8.87278      4.59186        -0.000226      0.000237      3.229479
      0.00012      7.39399      7.84285        -0.001961      0.000053      0.558638
      9.75310      8.87278      7.84285        -0.000703      0.000880     -0.808582
      9.75310      7.39399     11.09385        -0.004640     -0.000127      0.787899
      0.00012      8.87278     11.09385        -0.004910      0.004901     -0.827845
      0.00051      7.39425     14.27522         0.019152      0.001664      0.011733
      9.75352      8.87245     14.47746         0.018625      0.012979      0.157410
      9.74961      7.39433     17.82779         0.139611      0.058434      0.398023
     13.00325      8.87440     17.45485         0.032321     -0.000429     -0.050623
      9.75310     10.35158      4.59186        -0.000220      0.001227     -4.038671
      0.00012      0.00000      4.59186        -0.000223     -0.000002      3.228612
      0.00012     10.35158      7.84285        -0.001542      0.000753      0.559137
      9.75310      0.00000      7.84285        -0.001107      0.000001     -0.807078
      9.75310     10.35158     11.09385        -0.000888      0.004265      0.790446
      0.00012      0.00000     11.09385        -0.002220      0.000000     -0.826316
     13.00307     10.35187     14.27623         0.012489      0.001845      0.011645
      9.75245      0.00000     14.47770         0.009183      0.000000      0.171140
      9.75072     10.35213     17.82957         0.025550      0.028176      0.414612
      0.00276      0.00000     17.45510         0.020784     -0.000001     -0.056543
      9.75310      1.47880      4.59186        -0.000222     -0.001226     -4.038671
      0.00012      2.95759      4.59186        -0.000227     -0.000237      3.229481
      0.00012      1.47880      7.84285        -0.001542     -0.000754      0.559138
      9.75310      2.95759      7.84285        -0.000703     -0.000880     -0.808582
      9.75310      1.47880     11.09385        -0.000887     -0.004265      0.790443
      0.00012      2.95759     11.09385        -0.004911     -0.004901     -0.827848
     13.00307      1.47851     14.27623         0.012490     -0.001837      0.011641
      9.75353      2.95793     14.47746         0.018629     -0.012977      0.157412
      9.75072      1.47824     17.82957         0.025550     -0.028175      0.414613
     13.00325      2.95598     17.45485         0.032320      0.000426     -0.050626
      9.75310      4.43639      4.59186        -0.000041      0.000568     -4.038608
      0.00012      5.91519      4.59186        -0.000249     -0.000000      3.228649
      0.00012      4.43639      7.84285        -0.001961     -0.000051      0.558637
      9.75310      5.91519      7.84285        -0.000158     -0.000000     -0.807171
      9.75310      4.43639     11.09385        -0.004640      0.000126      0.787899
      0.00012      5.91519     11.09385        -0.007176     -0.000000     -0.830379
      0.00051      4.43613     14.27522         0.019153     -0.001670      0.011733
      9.75437      5.91519     14.47829         0.024976     -0.000000      0.150988
      9.74961      4.43605     17.82779         0.139612     -0.058437      0.398022
     12.99815      5.91519     17.45393         0.047485      0.000001     -0.045565
      3.25111      7.39399      4.59186        -0.000073     -0.000390     -4.040071
      6.50211      8.87278      4.59186         0.000177      0.000606      3.230261
      6.50211      7.39399      7.84285         0.001890      0.006187      0.558833
      3.25111      8.87278      7.84285         0.000647      0.001494     -0.814419
      3.25111      7.39399     11.09385         0.005075      0.009779      0.760763
      6.50211      8.87278     11.09385         0.003830     -0.013175     -0.798775
      6.50252      7.38619     14.29154        -0.016554      0.065336     -0.070678
      3.25045      8.87420     14.47322        -0.020462      0.009823      0.201343
      3.24398      7.39778     17.81311        -0.065305     -0.113466      0.597580
      6.50397      8.87341     17.44180        -0.059472      0.199660     -0.089446
      3.25111     10.35158      4.59186         0.000108      0.001433     -4.039686
      6.50211      0.00000      4.59186         0.000154      0.000000      3.229782
      6.50211     10.35158      7.84285         0.001486      0.003403      0.563325
      3.25111      0.00000      7.84285         0.001169     -0.000000     -0.810739
      3.25111     10.35158     11.09385         0.001479      0.025449      0.783915
      6.50211      0.00000     11.09385         0.001423      0.000001     -0.863164
      6.50348     10.34801     14.26518        -0.010960      0.020431     -0.002488
      3.25187      0.00000     14.47865        -0.009904      0.000001      0.198836
      3.25524     10.35210     17.83096        -0.020402     -0.040253      0.463826
      6.50273     11.83038     17.44393        -0.022790      0.000001     -0.046035
[...]
      6.50211      5.91519      9.11724        -0.000543      0.000000     -0.288574
      4.52550      4.43639      7.84285         0.295749      0.002767      0.058320
      8.47872      4.43639      7.84285        -0.297511      0.002430      0.057482
      3.25111      5.91519      9.81946        -0.001023      0.000001      0.063643
      3.25111      5.91519     12.36823         0.004470      0.000001     -0.246324
      7.77649      4.43639     11.09385        -0.727723      0.013974      0.102807
      5.22772      4.43639     11.09385         0.716410      0.014621      0.103492
      6.50159      5.91519     13.09655         0.004965      0.000001      0.234399
      6.50372      5.91519     15.66579         0.006490     -0.000002      0.246135
      4.55194      4.43643     14.37281        -0.068501      0.009376      0.022766
      8.45203      4.43688     14.37144         0.088189      0.011217      0.032344
      3.23079      5.91519     16.33221         0.025177      0.000002     -0.135564
      3.29598      5.91519     18.90392        -0.101820      0.000002     -0.806254
      7.72642      4.42656     17.75727        -0.385250      0.165850      0.122380
      5.26802      4.41716     17.73167         0.527889      0.208095      0.126233
    total drift:                                0.020262      0.000007     -0.008356

  FREE ENERGIE OF THE ION-ELECTRON SYSTEM (eV)
  free  energy   TOTEN  =     -2618.00177494 eV

  energy  without entropy=    -2618.00177494  energy(sigma->0) =    -2618.00177494

     |            E. Caldeweyher, S. Ehlert & S. Grimme          |
     |          Mulliken Center for Theoretical Chemistry        |
     |                    University of Bonn                     |

Rational (Becke-Johnson) damping: hse06-D4-ATM
  s6         1.0000
  s8         1.1953
  s9         1.0000
  a1         0.3866
  a2         5.1913
 alp        16.0000

Dispersion energy:      -1.4348719031631E+00 Eh