 vasp.6.3.0 20Jan22 (build Dec 25 2023 18:06:01) complex
 executed on        HPECrayEX_GCC date 2024.01.24  04:22:23

 INCAR:
   SYSTEM = MgO-rocksalt
   ISMEAR = 0
   SIGMA = 0.05
   EDIFF = 1E-8
   ALGO = ALL
   ISTART = 0
   IBRION = 5
   POTIM = 0.01
   NFREE = 2
   ISYM = 0
   DIPOL = 0.5 0.5 0.5
   IDIPOL = 3
   LDIPOL = .TRUE.
   GGA = RE
   AGGAC = 0.0
   LUSE_VDW = .TRUE.
   LASPH = .TRUE.
   ENCUT = 600
   PREC = Accurate
   LASPH = .TRUE.
   LREAL = .FALSE.
   ISPIN = 1
   NELM = 200
   NELMIN = 8
   NCORE = 8
   KPAR = 1
   LWAVE = .FALSE.
   LCHARG = .FALSE.

 POTCAR:    PAW_PBE C 08Apr2002
 POTCAR:    PAW_PBE O 08Apr2002
 POTCAR:    PAW_PBE H 15Jun2001
 POTCAR:    PAW_PBE Ti_pv 07Sep2000
 POTCAR:    PAW_PBE O 08Apr2002
|               ----> ADVICE to this user running VASP <----                  |
|     You have switched on vdW-DFT.                                           |
|     This routine was written and supplied by Jiri Klimes. We recommend      |
|     that you carefully read and cite the following publications:            |
|       J. Klimes, D.R. Bowler, A. Michelides                                 |
|          J. Phys.: Cond Matt. 22 022201 (2010)                              |
|       J. Klimes, D.R. Bowler, A. Michelides                                 |
|          Phys. Rev. B. 83, 195131 (2011)                                    |
|     and references therein.                                                 |

   TITEL  = PAW_PBE C 08Apr2002
   POMASS =   12.011; ZVAL   =    4.000    mass and valenz
   ENMAX  =  400.000; ENMIN  =  300.000 eV

[...]

   TITEL  = PAW_PBE H 15Jun2001
   POMASS =    1.000; ZVAL   =    1.000    mass and valenz
   ENMAX  =  250.000; ENMIN  =  200.000 eV

   TITEL  = PAW_PBE Ti_pv 07Sep2000
   POMASS =   47.880; ZVAL   =   10.000    mass and valenz
   ENMAX  =  222.335; ENMIN  =  166.751 eV

   TITEL  = PAW_PBE O 08Apr2002
   POMASS =   16.000; ZVAL   =    6.000    mass and valenz
   ENMAX  =  400.000; ENMIN  =  300.000 eV

  PAW_PBE C 08Apr2002                   :
  PAW_PBE O 08Apr2002                   :
  PAW_PBE H 15Jun2001                   :
  PAW_PBE Ti_pv 07Sep2000               :
  PAW_PBE O 08Apr2002                   :

 POSCAR:  C  O  H Ti  O
  positions in direct lattice
 exchange correlation table for  LEXCH =       40
   RHO(1)=    0.500       N(1)  =     2000
   RHO(2)=  100.500       N(2)  =     4000

 ion  position               nearest neighbor table
   1  0.499  0.583  0.816-   3 1.09   5 1.09   6 1.10   2 1.47
   2  0.530  0.496  0.785-   4 0.99   1 1.47  86 2.24
   3  0.417  0.591  0.813-   1 1.09
   4  0.604  0.489  0.787-   2 0.99
   5  0.520  0.557  0.849-   1 1.09
   6  0.537  0.663  0.808-   1 1.10
   7  0.750  0.625  0.285-  88 1.98 148 1.98 147 1.98  87 1.98  90 2.02 169 2.02  17 3.00  37 3.00

   8  0.000  0.750  0.285-  89 1.98  90 1.98 109 1.98 110 1.98  91 2.02  38 3.00  18 3.00
   9  0.000  0.625  0.393-  91 1.98 151 1.98  92 1.98 152 1.98  93 2.02  94 2.02  19 3.00  39 3.00

[...]

  87  0.750  0.750  0.243-   7 1.98  17 1.98
  88  0.750  0.750  0.327-   7 1.98  17 1.98  10 2.02
  89  0.098  0.625  0.285-   8 1.98  38 1.98  47 2.02
  90  0.902  0.625  0.285-   8 1.98  38 1.98   7 2.02
  91  0.000  0.750  0.351-   9 1.98  19 1.98   8 2.02
  92  0.000  0.750  0.434-   9 1.98  19 1.98  12 2.02
  93  0.848  0.625  0.393-  10 1.98  40 1.98   9 2.02
  94  0.152  0.625  0.393-  50 1.98  80 1.98   9 2.02
  95  0.750  0.750  0.458-  11 1.98  21 1.98  10 2.02
  96  0.750  0.750  0.542-  11 1.98  21 1.98  14 2.15
  97  0.098  0.625  0.500-  12 1.98  42 1.98  51 2.02
  98  0.902  0.625  0.500-  12 1.98  42 1.98  11 2.02
  99  0.000  0.750  0.566-  23 1.92  13 1.92  12 2.05
 100  1.000  0.750  0.651-  16 1.83  13 2.05  23 2.06
 101  0.850  0.625  0.608-  14 1.93  44 1.93  13 2.12
 102  0.150  0.625  0.608-  13 1.87  54 2.07  84 2.07
 103  0.753  0.751  0.673-  14 1.89  25 2.12  15 2.12
 104  0.749  0.749  0.757-  25 1.85  15 1.86
 105  0.094  0.625  0.721-  46 1.98  16 1.98  55 2.05
 106  0.906  0.624  0.721-  46 1.97  16 1.98  15 2.07
 107  0.750  0.000  0.243-  17 1.98  27 1.98
 108  0.750  0.000  0.327-  17 1.98  27 1.98  20 2.02
 109  0.098  0.875  0.285-   8 1.98  18 1.98  57 2.02
 110  0.902  0.875  0.285-   8 1.98  18 1.98  17 2.02
 111  0.000  0.000  0.351-  19 1.98  29 1.98  18 2.02
 112  0.000  0.000  0.434-  19 1.98  29 1.98  22 2.02
 113  0.848  0.875  0.393-  10 1.98  20 1.98  19 2.02
 114  0.152  0.875  0.393-  50 1.98  60 1.98  19 2.02
 115  0.750  0.000  0.458-  21 1.98  31 1.98  20 2.02
 116  0.750  0.000  0.542-  21 1.98  31 1.98  24 2.16
 117  0.098  0.875  0.500-  12 1.98  22 1.98  61 2.02
 118  0.902  0.875  0.500-  12 1.98  22 1.98  21 2.02
 119  0.000  1.000  0.566-  33 1.92  23 1.92  22 2.05
 120  1.000  1.000  0.651-  26 1.83  23 2.05  33 2.05
 121  0.849  0.875  0.608-  14 1.93  24 1.93  23 2.12
 122  0.150  0.875  0.608-  23 1.87  64 2.07  54 2.07
 123  0.751  0.000  0.673-  24 1.89  35 2.11  25 2.13
 124  0.750  1.000  0.758-  35 1.85  25 1.85
 125  0.094  0.875  0.721-  16 1.97  26 1.97  65 2.09
 126  0.907  0.875  0.721-  16 1.97  26 1.98  25 2.08
 127  0.750  0.250  0.243-  27 1.98  37 1.98
 128  0.750  0.250  0.327-  27 1.98  37 1.98  30 2.02
 129  0.098  0.125  0.285-  18 1.98  28 1.98  67 2.02
 130  0.902  0.125  0.285-  18 1.98  28 1.98  27 2.02
 131  0.000  0.250  0.351-  29 1.98  39 1.98  28 2.02
 132  0.000  0.250  0.434-  29 1.98  39 1.98  32 2.02
 133  0.848  0.125  0.393-  20 1.98  30 1.98  29 2.02
 134  0.152  0.125  0.393-  60 1.98  70 1.98  29 2.02
 135  0.750  0.250  0.458-  31 1.98  41 1.98  30 2.02
 136  0.750  0.250  0.542-  31 1.98  41 1.98  34 2.15
 137  0.098  0.125  0.500-  22 1.98  32 1.98  71 2.02
 138  0.902  0.125  0.500-  22 1.98  32 1.98  31 2.02
 139  0.000  0.250  0.566-  43 1.92  33 1.92  32 2.05
 140  1.000  0.250  0.651-  36 1.83  43 2.05  33 2.06
 141  0.849  0.125  0.608-  34 1.93  24 1.94  33 2.12
 142  0.150  0.125  0.608-  33 1.87  64 2.07  74 2.07
 143  0.752  0.250  0.673-  34 1.90  45 2.10  35 2.14
 144  0.750  0.250  0.757-  45 1.84  35 1.86
 145  0.094  0.125  0.721-  36 1.97  26 1.97  75 2.08
 146  0.907  0.125  0.721-  36 1.97  26 1.98  35 2.08
[...]
 232  0.500  0.500  0.434-  49 1.98  79 1.98  82 2.02
 233  0.348  0.375  0.393-  70 1.98  80 1.98  79 2.02
 234  0.652  0.375  0.393-  30 1.98  40 1.98  79 2.02
 235  0.250  0.500  0.458-  51 1.98  81 1.98  80 2.02
 236  0.250  0.500  0.542-  51 1.98  81 1.98  84 2.16
 237  0.598  0.375  0.500-  72 1.98  82 1.98  41 2.02
 238  0.402  0.375  0.500-  72 1.98  82 1.98  81 2.02
 239  0.501  0.500  0.567-  53 1.92  83 1.92  82 2.05
 240  0.500  0.500  0.651-  86 1.94  53 2.02  83 2.02
 241  0.349  0.375  0.609-  74 1.93  84 1.93  83 2.13
 242  0.651  0.375  0.608-  83 1.87  34 2.06  44 2.06
 243  0.250  0.500  0.673-  84 1.89  55 2.12  85 2.13
 244  0.252  0.500  0.757-  85 1.85  55 1.85
 245  0.596  0.372  0.718-  76 1.94  86 2.00  45 2.06
 246  0.406  0.374  0.720-  86 1.95  76 1.97  85 2.08

IMPORTANT INFORMATION: All symmetrisations will be switched off!
NOSYMM: (Re-)initialisation of all symmetry stuff for point group C_1.

                                     Primitive cell

  volume of cell :    4895.9617

  direct lattice vectors                    reciprocal lattice vectors
    13.251680751  0.000000000  0.000000000     0.075462126  0.000000000  0.000000000
     0.000000000 11.981436613  0.000000000     0.000000000  0.083462445  0.000000000
     0.000000000  0.000000000 30.836008487     0.000000000  0.000000000  0.032429619

  length of vectors
    13.251680751 11.981436613 30.836008487     0.075462126  0.083462445  0.032429619

  position of ions in fractional coordinates (direct lattice)
     0.499088084  0.583406909  0.816041535
     0.530152427  0.496215311  0.785367689
     0.417380677  0.591321905  0.813154543
     0.604205343  0.488685335  0.786602404
     0.519796241  0.557060339  0.848832968
     0.536599917  0.662671554  0.808232828
     0.750000000  0.625000000  0.285126523
     0.000000000  0.750000000  0.285126523
     0.000000000  0.625000000  0.392563261
     0.750000000  0.750000000  0.392563261
     0.750000000  0.625000000  0.500000000
     0.000000000  0.750000000  0.500000000
     0.009313992  0.625069963  0.605187222
     0.757500404  0.750190981  0.611671535
     0.750167707  0.624945081  0.721276369
     0.999822078  0.750450818  0.710070138
     0.750000000  0.875000000  0.285126523
     0.000000000  0.000000000  0.285126523
     0.000000000  0.875000000  0.392563261
     0.750000000  0.000000000  0.392563261
     0.750000000  0.875000000  0.500000000
     0.000000000  0.000000000  0.500000000
     0.009256438  0.875048545  0.605228936
     0.756824607  0.000033696  0.611939033
     0.749601470  0.874407100  0.722159583
     0.000423755  0.999864438  0.710043133
     0.750000000  0.125000000  0.285126523
     0.000000000  0.250000000  0.285126523
     0.000000000  0.125000000  0.392563261
     0.750000000  0.250000000  0.392563261
     0.750000000  0.125000000  0.500000000
     0.000000000  0.250000000  0.500000000
     0.009244630  0.124925163  0.605217530
     0.757246361  0.249832458  0.611566343
     0.749685153  0.123849936  0.722132914
     0.000256863  0.249339363  0.710052026
     0.750000000  0.375000000  0.285126523
     0.000000000  0.500000000  0.285126523
     0.000000000  0.375000000  0.392563261
     0.750000000  0.500000000  0.392563261
     0.750000000  0.375000000  0.500000000
     0.000000000  0.500000000  0.500000000
     0.009290212  0.374940456  0.605156739
     0.757844048  0.499987988  0.611716071
     0.751043996  0.373131597  0.721212771
     0.999774048  0.499963153  0.710009406
     0.250000000  0.625000000  0.285126523
     0.500000000  0.750000000  0.285126523
     0.500000000  0.625000000  0.392563261
     0.250000000  0.750000000  0.392563261
     0.250000000  0.625000000  0.500000000
     0.500000000  0.750000000  0.500000000
     0.509759465  0.622654528  0.606439873
     0.257436458  0.749964605  0.611801602
     0.248878760  0.625236015  0.721877854
     0.501395223  0.750134296  0.708760144
     0.250000000  0.875000000  0.285126523
     0.500000000  0.000000000  0.285126523
     0.500000000  0.875000000  0.392563261
     0.250000000  0.000000000  0.392563261
[...]
     0.500000000  0.500000000  0.434467643
     0.347509432  0.375000000  0.392563261
     0.652490568  0.375000000  0.392563261
     0.250000000  0.500000000  0.458095618
     0.250000000  0.500000000  0.541904382
     0.597509432  0.375000000  0.500000000
     0.402490568  0.375000000  0.500000000
     0.500650169  0.499872264  0.566591156
     0.500113252  0.500269675  0.651140674
     0.348692173  0.375054723  0.608508732
     0.650875318  0.375067546  0.608478130
     0.249552150  0.500348613  0.673106397
     0.251976977  0.500212515  0.757324869
     0.595703231  0.371606508  0.717585906
     0.406290861  0.373837834  0.719577552

  ion indices of the primitive-cell ions
   primitive index   ion index
                 1           1
                 2           2
                 3           3
                 4           4
                 5           5
[...]
      6.63446      5.98919     17.47141         0.001421      0.000799     -0.004524
      6.62734      5.99395     20.07858         0.000649     -0.000466     -0.000763
      4.62076      4.49369     18.76398         0.003937     -0.002649     -0.002316
      8.62519      4.49385     18.76304         0.000661     -0.000485      0.001057
      3.30699      5.99490     20.75591         0.004513     -0.001820      0.000309
      3.33912      5.99326     23.35288        -0.000458     -0.001156     -0.002092
      7.89407      4.45238     22.12749        -0.000360     -0.001892      0.001304
      5.38404      4.47911     22.18890         0.001718     -0.001738      0.000477
    total drift:                                0.001375     -0.001113      0.013026

  FREE ENERGIE OF THE ION-ELECTRON SYSTEM (eV)
  free  energy   TOTEN  =     -1593.65775230 eV

  energy  without entropy=    -1593.65775230  energy(sigma->0) =    -1593.65775230

 d Force =-0.1124269E-03[-0.143E-02, 0.120E-02]  d Energy =-0.1081405E-03-0.429E-05
 d Force =-0.7396704E+01[-0.740E+01,-0.739E+01]  d Ewald  =-0.7396666E+01-0.386E-04

 Finite differences progress:
  Degree of freedom:  18/ 18
  Displacement:        2/  2
  Total:              36/ 36

 SECOND DERIVATIVES (NOT SYMMETRIZED)
               1X          1Y          1Z          2X          2Y          2Z          3X          3Y          3Z          4X          4Y          4Z          5X          5Y          5Z          6X          6Y          6Z
  1X   -55.859010   -2.865716   -3.965991    8.704775   -0.565841    0.669097   29.858951   -0.884529    3.412226    0.653311   -2.854685   -2.565577    6.641898   -2.152071    5.835021   10.233454    9.098728   -2.820322
  1Y    -2.874049  -43.933464    7.760523   -3.161107   10.442250    4.501222   -1.818662    4.687132   -0.498120   -0.192884    0.631756    0.495009   -1.949531    7.077835   -7.224876    9.594146   20.863317   -5.407402
  1Z    -3.966734    7.767988  -46.918310   -1.853499    4.743519   10.261170    2.341006   -0.277253    4.908141   -0.256425    0.128992    0.138630    6.188037   -7.849847   24.480464   -2.641646   -5.167251    6.271627
  2X     8.707752   -3.164315   -1.845802  -51.658108    6.827949    0.034046    0.739085   -2.938494   -2.712290   40.483883   -1.206625    3.953265   -0.371973    0.408465    0.022319   -0.650426    0.268470    0.754177
  2Y    -0.567360   10.438000    4.746305    6.822709  -18.172354  -10.362690   -0.409533    0.720698    0.742602   -4.296806    2.690695    1.187766   -0.074557    0.021109    0.639149   -1.252186    2.694954    2.669643
  2Z     0.668127    4.499935   10.256526    0.037612  -10.361002  -20.635998   -0.288122    0.289572    0.188610    1.477603    1.761978    3.680146   -1.397848    3.426655    2.497222   -0.046566    0.882207    0.072862
  3X    29.867696   -1.823492    2.342272    0.738128   -0.411487   -0.274297  -32.016675    2.306150   -2.443486   -0.181656   -0.060675   -0.060086    0.453824    0.068501    0.085403    1.027114   -0.070489    0.227545
  3Y    -0.886055    4.687113   -0.278046   -2.942086    0.724509    0.289079    2.305465   -5.233324   -0.368268    0.006297    0.331752    0.311191   -0.964938   -0.033062   -0.164763    2.537601   -0.442769    0.249840
  3Z     3.406784   -0.501959    4.907732   -2.716874    0.742747    0.189060   -2.438732   -0.372194   -5.318122   -0.041435    0.335981    0.280217    2.732300   -0.163882    0.005868   -0.820762   -0.040116   -0.148869
  4X     0.658347   -0.190515   -0.259988   40.484756   -4.300756    1.484782   -0.182011    0.004676   -0.041975  -40.606492    4.302211   -2.414392   -0.034389    0.096624    0.077313   -0.078132    0.185551    0.123727
  4Y    -2.854590    0.631999    0.130110   -1.192229    2.691758    1.759848   -0.061407    0.330984    0.337413    4.294889   -3.805286   -1.899548    0.060985   -0.107813    0.000333   -0.080748   -0.012084   -0.068808
  4Z    -2.565629    0.492886    0.135064    3.949762    1.192709    3.676692   -0.058607    0.310132    0.277856   -2.409228   -1.899441   -4.435773   -0.086188   -0.030109    0.028590    0.055352    0.012721   -0.076297
  5X     6.639525   -1.948187    6.176074   -0.373224   -0.073235   -1.403829    0.453179   -0.966139    2.733362   -0.035866    0.061810   -0.087342   -6.273537    2.396524   -6.197381   -0.475426    0.581634   -1.354598
  5Y    -2.150633    7.078621   -7.840741    0.411205    0.020686    3.427653    0.068612   -0.032707   -0.163167    0.096037   -0.108326   -0.030020    2.398846   -7.619729    7.081968   -0.725615    0.647260   -2.352632
  5Z     5.838191   -7.230794   24.467866    0.025159    0.640874    2.498585    0.089502   -0.166627    0.002220    0.075603   -0.001429    0.028485   -6.206758    7.094545  -27.316070    0.266996   -0.369727    0.469627
  6X    10.232995    9.588369   -2.641841   -0.652489   -1.254622   -0.045243    1.028151    2.540772   -0.821726   -0.076182   -0.081206    0.054570   -0.475452   -0.724227    0.265832  -10.035084  -10.009167    3.072114
  6Y     9.104054   20.861321   -5.173323    0.272081    2.699820    0.880388   -0.069549   -0.442919   -0.042441    0.182811   -0.012783    0.011364    0.582737    0.643861   -0.370657  -10.020469  -23.684090    4.854383
  6Z    -2.821193   -5.405341    6.266383    0.753273    2.673984    0.070506    0.228862    0.248851   -0.154353    0.124196   -0.070360   -0.078731   -1.356161   -2.350455    0.466787    3.069857    4.846390   -6.575463

 Eigenvectors and eigenvalues of the dynamical matrix

   1 f  =  103.475956 THz   650.158607 2PiTHz 3451.586366 cm-1   427.941976 meV
             X         Y         Z           dx          dy          dz
      6.613756  6.990053 25.163464    -0.006262    0.001469    0.000750
      7.025411  5.945372 24.217605    -0.242544    0.027951   -0.008009
      5.530995  7.084886 25.074440     0.024233   -0.006041   -0.001334
      8.006736  5.855152 24.255678     0.961977   -0.102766    0.060001
      6.888174  6.674383 26.174621     0.000052   -0.001405   -0.003642
      7.110851  7.939757 24.922674    -0.001440   -0.008928   -0.001524
      9.938761  7.488398  8.792164            0           0           0
      0.000000  8.986077  8.792164            0           0           0
      0.000000  7.488398 12.105084            0           0           0
      9.938761  8.986077 12.105084            0           0           0
      9.938761  7.488398 15.418004            0           0           0
      0.000000  8.986077 15.418004            0           0           0
      0.123426  7.489236 18.661558            0           0           0
     10.038154  8.988366 18.861509            0           0           0
      9.940983  7.487740 22.241284            0           0           0
     13.249323  8.991479 21.895729            0           0           0
      9.938761 10.483757  8.792164            0           0           0
      0.000000  0.000000  8.792164            0           0           0
      0.000000 10.483757 12.105084            0           0           0
      9.938761  0.000000 12.105084            0           0           0
      9.938761 10.483757 15.418004            0           0           0
      0.000000  0.000000 15.418004            0           0           0
      0.122663 10.484339 18.662845            0           0           0
     10.029198  0.000404 18.869757            0           0           0
      9.933479 10.476653 22.268519            0           0           0
      0.005615 11.979812 21.894896            0           0           0
      9.938761  1.497680  8.792164            0           0           0
      0.000000  2.995359  8.792164            0           0           0
      0.000000  1.497680 12.105084            0           0           0
      9.938761  2.995359 12.105084            0           0           0
      9.938761  1.497680 15.418004            0           0           0
      0.000000  2.995359 15.418004            0           0           0
      0.122507  1.496783 18.662493            0           0           0
     10.034787  2.993352 18.858265            0           0           0
      9.934588  1.483900 22.267697            0           0           0
      0.003404  2.987444 21.895170            0           0           0
      9.938761  4.493039  8.792164            0           0           0
      0.000000  5.990718  8.792164            0           0           0
      0.000000  4.493039 12.105084            0           0           0
      9.938761  5.990718 12.105084            0           0           0
      9.938761  4.493039 15.418004            0           0           0
      0.000000  5.990718 15.418004            0           0           0
      0.123111  4.492325 18.660618            0           0           0
     10.042707  5.990574 18.862882            0           0           0
      9.952595  4.470653 22.239323            0           0           0
     13.248687  5.990277 21.893856            0           0           0
      3.312920  7.488398  8.792164            0           0           0
      6.625840  8.986077  8.792164            0           0           0
      6.625840  7.488398 12.105084            0           0           0
      3.312920  8.986077 12.105084            0           0           0
      3.312920  7.488398 15.418004            0           0           0
      6.625840  8.986077 15.418004            0           0           0
      6.755170  7.460296 18.700185            0           0           0
      3.411466  8.985653 18.865519            0           0           0
      3.298062  7.491226 22.259832            0           0           0
      6.644329  8.987687 21.855334            0           0           0
      3.312920 10.483757  8.792164            0           0           0
      6.625840  0.000000  8.792164            0           0           0
      6.625840 10.483757 12.105084            0           0           0
      3.312920  0.000000 12.105084            0           0           0
[...]
      6.625840  5.990718 13.397248            0           0           0
      4.605084  4.493039 12.105084            0           0           0
      8.646597  4.493039 12.105084            0           0           0
      3.312920  5.990718 14.125840            0           0           0
      3.312920  5.990718 16.710168            0           0           0
      7.918004  4.493039 15.418004            0           0           0
      5.333677  4.493039 15.418004            0           0           0
      6.634456  5.989188 17.471410            0           0           0
      6.627341  5.993949 20.078579            0           0           0
      4.620757  4.493694 18.763980            0           0           0
      8.625192  4.493848 18.763037            0           0           0
      3.306985  5.994895 20.755915            0           0           0
      3.339118  5.993265 23.352876            0           0           0
      7.894069  4.452380 22.127485            0           0           0
      5.384037  4.479114 22.188899            0           0           0

[...]

  18 f  =    1.831663 THz    11.508676 2PiTHz   61.097692 cm-1     7.575145 meV
             X         Y         Z           dx          dy          dz
      6.613756  6.990053 25.163464     0.633407    0.497002   -0.172462
      7.025411  5.945372 24.217605     0.134673    0.148862    0.005270
      5.530995  7.084886 25.074440     0.192846    0.277155   -0.033088
      8.006736  5.855152 24.255678     0.029064   -0.037689   -0.033850
      6.888174  6.674383 26.174621     0.160952    0.164968   -0.037051
      7.110851  7.939757 24.922674     0.303669    0.064542   -0.111058
      9.938761  7.488398  8.792164            0           0           0
      0.000000  8.986077  8.792164            0           0           0
      0.000000  7.488398 12.105084            0           0           0
      9.938761  8.986077 12.105084            0           0           0
      9.938761  7.488398 15.418004            0           0           0
      0.000000  8.986077 15.418004            0           0           0
      0.123426  7.489236 18.661558            0           0           0
     10.038154  8.988366 18.861509            0           0           0
      9.940983  7.487740 22.241284            0           0           0
     13.249323  8.991479 21.895729            0           0           0
      9.938761 10.483757  8.792164            0           0           0
      0.000000  0.000000  8.792164            0           0           0
      0.000000 10.483757 12.105084            0           0           0
      9.938761  0.000000 12.105084            0           0           0
      9.938761 10.483757 15.418004            0           0           0
      0.000000  0.000000 15.418004            0           0           0
      0.122663 10.484339 18.662845            0           0           0
     10.029198  0.000404 18.869757            0           0           0
      9.933479 10.476653 22.268519            0           0           0
      0.005615 11.979812 21.894896            0           0           0
      9.938761  1.497680  8.792164            0           0           0
      0.000000  2.995359  8.792164            0           0           0
      0.000000  1.497680 12.105084            0           0           0
      9.938761  2.995359 12.105084            0           0           0
      9.938761  1.497680 15.418004            0           0           0
      0.000000  2.995359 15.418004            0           0           0
      0.122507  1.496783 18.662493            0           0           0
     10.034787  2.993352 18.858265            0           0           0
      9.934588  1.483900 22.267697            0           0           0
      0.003404  2.987444 21.895170            0           0           0
      9.938761  4.493039  8.792164            0           0           0
      0.000000  5.990718  8.792164            0           0           0
      0.000000  4.493039 12.105084            0           0           0
      9.938761  5.990718 12.105084            0           0           0
      9.938761  4.493039 15.418004            0           0           0
      0.000000  5.990718 15.418004            0           0           0
      0.123111  4.492325 18.660618            0           0           0
     10.042707  5.990574 18.862882            0           0           0
      9.952595  4.470653 22.239323            0           0           0
     13.248687  5.990277 21.893856            0           0           0
      3.312920  7.488398  8.792164            0           0           0
      6.625840  8.986077  8.792164            0           0           0
      6.625840  7.488398 12.105084            0           0           0
      3.312920  8.986077 12.105084            0           0           0
      3.312920  7.488398 15.418004            0           0           0
      6.625840  8.986077 15.418004            0           0           0
      6.755170  7.460296 18.700185            0           0           0
      3.411466  8.985653 18.865519            0           0           0
      3.298062  7.491226 22.259832            0           0           0
      6.644329  8.987687 21.855334            0           0           0
      3.312920 10.483757  8.792164            0           0           0
      6.625840  0.000000  8.792164            0           0           0
      6.625840 10.483757 12.105084            0           0           0
      3.312920  0.000000 12.105084            0           0           0
[...]
      6.625840  5.990718 13.397248            0           0           0
      4.605084  4.493039 12.105084            0           0           0
      8.646597  4.493039 12.105084            0           0           0
      3.312920  5.990718 14.125840            0           0           0
      3.312920  5.990718 16.710168            0           0           0
      7.918004  4.493039 15.418004            0           0           0
      5.333677  4.493039 15.418004            0           0           0
      6.634456  5.989188 17.471410            0           0           0
      6.627341  5.993949 20.078579            0           0           0
      4.620757  4.493694 18.763980            0           0           0
      8.625192  4.493848 18.763037            0           0           0
      3.306985  5.994895 20.755915            0           0           0
      3.339118  5.993265 23.352876            0           0           0
      7.894069  4.452380 22.127485            0           0           0
      5.384037  4.479114 22.188899            0           0           0

 Finite differences POTIM=   1.0000000000000000E-002