 vasp.6.3.0 20Jan22 (build Mar 11 2022 13:48:16) complex

 executed on             LinuxIFC date 2024.01.22  00:03:18

 INCAR:
   SYSTEM = TiO2
   ISMEAR = 0
   SIGMA = 0.05
   EDIFF = 1E-5
   ALGO = ALL
   ISTART = 0
   IBRION = -1
   NSW = 0
   ISYM = 0
   ISIF = 2
   EDIFFG = -0.01
   DIPOL = 0.5 0.5 0.5
   IDIPOL = 3
   LDIPOL = .TRUE.
   GGA = RE
   AGGAC = 0.0
   LUSE_VDW = .TRUE.
   LASPH = .TRUE.
   ENCUT = 600
   PREC = Accurate
   LASPH = .TRUE.
   LREAL = .FALSE.
   ISPIN = 1
   NELM = 200
   NELMIN = 8
   NCORE = 2
   KPAR = 1
   LWAVE = .FALSE.
   LCHARG = .FALSE.

 POTCAR:    PAW_PBE C 08Apr2002
 POTCAR:    PAW_PBE O 08Apr2002
 POTCAR:    PAW_PBE H 15Jun2001
 POTCAR:    PAW_PBE Ti_pv 07Sep2000
 POTCAR:    PAW_PBE O 08Apr2002
|           W    W    AA    RRRRR   N    N  II  N    N   GGGG   !!!           |
|           W    W   A  A   R    R  NN   N  II  NN   N  G    G  !!!           |
|           W    W  A    A  R    R  N N  N  II  N N  N  G       !!!           |
|           W WW W  AAAAAA  RRRRR   N  N N  II  N  N N  G  GGG   !            |
|           WW  WW  A    A  R   R   N   NN  II  N   NN  G    G                |
|           W    W  A    A  R    R  N    N  II  N    N   GGGG   !!!           |
|     For optimal performance we recommend to set                             |
|       NCORE = 2 up to number-of-cores-per-socket                            |
|     This setting can greatly improve the performance of VASP for DFT.       |
|     The default, NCORE=1 might be grossly inefficient on modern             |
|     multi-core architectures or massively parallel machines. Do your        |
|     Unfortunately you need to use the default for GW and RPA                |
|     calculations (for HF NCORE is supported but not extensively tested      |
|     yet).                                                                   |

   TITEL  = PAW_PBE C 08Apr2002
   POMASS =   12.011; ZVAL   =    4.000    mass and valenz
   ENMAX  =  400.000; ENMIN  =  300.000 eV

[...]

   TITEL  = PAW_PBE H 15Jun2001
   POMASS =    1.000; ZVAL   =    1.000    mass and valenz
   ENMAX  =  250.000; ENMIN  =  200.000 eV

   TITEL  = PAW_PBE Ti_pv 07Sep2000
   POMASS =   47.880; ZVAL   =   10.000    mass and valenz
   ENMAX  =  222.335; ENMIN  =  166.751 eV

   TITEL  = PAW_PBE O 08Apr2002
   POMASS =   16.000; ZVAL   =    6.000    mass and valenz
   ENMAX  =  400.000; ENMIN  =  300.000 eV

  PAW_PBE C 08Apr2002                   :
  PAW_PBE O 08Apr2002                   :
  PAW_PBE H 15Jun2001                   :
  PAW_PBE Ti_pv 07Sep2000               :
  PAW_PBE O 08Apr2002                   :

 POSCAR:  C  O  H Ti  O
  positions in direct lattice
 exchange correlation table for  LEXCH =       40
   RHO(1)=    0.500       N(1)  =     2000
   RHO(2)=  100.500       N(2)  =     4000

 ion  position               nearest neighbor table
   1  0.509  0.590  0.809-   3 1.09   5 1.09   6 1.10   2 1.44
   2  0.539  0.499  0.780-   4 1.00   1 1.44  86 2.13
   3  0.426  0.598  0.807-   1 1.09
   4  0.615  0.494  0.779-   2 1.00
   5  0.532  0.567  0.843-   1 1.09
   6  0.548  0.668  0.800-   1 1.10
   7  0.750  0.625  0.287-  88 1.95 148 1.95 147 1.95  87 1.95  90 1.97 169 1.97  17 2.96  37 2.96

   8  0.000  0.750  0.287-  89 1.95  90 1.95 109 1.95 110 1.95  91 1.97  38 2.96  18 2.96
   9  0.000  0.625  0.394-  91 1.95  92 1.95 151 1.95 152 1.95  93 1.97  94 1.97  19 2.96  39 2.96

[...]

  87  0.750  0.750  0.246-   7 1.95  17 1.95
  88  0.750  0.750  0.329-   7 1.95  17 1.95  10 1.97
  89  0.098  0.625  0.287-   8 1.95  38 1.95  47 1.97
  90  0.902  0.625  0.287-   8 1.95  38 1.95   7 1.97
  91  0.000  0.750  0.352-   9 1.95  19 1.95   8 1.97
  92  0.000  0.750  0.435-   9 1.95  19 1.95  12 1.97
  93  0.848  0.625  0.394-  10 1.95  40 1.95   9 1.97
  94  0.152  0.625  0.394-  50 1.95  80 1.95   9 1.97
  95  0.750  0.750  0.458-  11 1.95  21 1.95  10 1.97
  96  0.750  0.750  0.542-  11 1.95  21 1.95  14 2.08
  97  0.098  0.625  0.500-  12 1.95  42 1.95  51 1.97
  98  0.902  0.625  0.500-  12 1.95  42 1.95  11 1.97
  99  0.000  0.750  0.565-  23 1.90  13 1.90  12 1.99
 100  0.999  0.750  0.649-  16 1.81  13 2.01  23 2.01
 101  0.850  0.625  0.606-  13 1.95  14 1.97  44 1.97
 102  0.150  0.625  0.607-  13 1.94  54 1.97  84 1.97
 103  0.754  0.751  0.671-  14 1.88  15 2.06  25 2.08
 104  0.748  0.749  0.755-  15 1.83  25 1.84
 105  0.094  0.625  0.719-  46 1.94  16 1.95  55 2.03
 106  0.906  0.624  0.719-  46 1.94  16 1.95  15 2.02
 107  0.750  0.000  0.246-  17 1.95  27 1.95
 108  0.750  0.000  0.329-  17 1.95  27 1.95  20 1.97
 109  0.098  0.875  0.287-   8 1.95  18 1.95  57 1.97
 110  0.902  0.875  0.287-   8 1.95  18 1.95  17 1.97
 111  0.000  0.000  0.352-  19 1.95  29 1.95  18 1.97
 112  0.000  0.000  0.435-  19 1.95  29 1.95  22 1.97
 113  0.848  0.875  0.394-  10 1.95  20 1.95  19 1.97
 114  0.152  0.875  0.394-  50 1.95  60 1.95  19 1.97
 115  0.750  0.000  0.458-  21 1.95  31 1.95  20 1.97
 116  0.750  0.000  0.542-  21 1.95  31 1.95  24 2.08
 117  0.098  0.875  0.500-  12 1.95  22 1.95  61 1.97
 118  0.902  0.875  0.500-  12 1.95  22 1.95  21 1.97
 119  0.000  1.000  0.565-  33 1.90  23 1.90  22 1.99
 120  1.000  1.000  0.649-  26 1.81  23 2.01  33 2.01
 121  0.850  0.875  0.607-  23 1.95  24 1.97  14 1.97
 122  0.150  0.875  0.607-  23 1.94  64 1.97  54 1.97
 123  0.750  1.000  0.671-  24 1.88  35 2.08  25 2.08
 124  0.750  1.000  0.755-  35 1.83  25 1.83
 125  0.094  0.874  0.718-  16 1.94  26 1.94  65 2.04
 126  0.906  0.875  0.719-  16 1.94  26 1.94  25 2.03
 127  0.750  0.250  0.246-  27 1.95  37 1.95
 128  0.750  0.250  0.329-  27 1.95  37 1.95  30 1.97
 129  0.098  0.125  0.287-  18 1.95  28 1.95  67 1.97
 130  0.902  0.125  0.287-  18 1.95  28 1.95  27 1.97
 131  0.000  0.250  0.352-  29 1.95  39 1.95  28 1.97
 132  0.000  0.250  0.435-  29 1.95  39 1.95  32 1.97
 133  0.848  0.125  0.394-  20 1.95  30 1.95  29 1.97
 134  0.152  0.125  0.394-  60 1.95  70 1.95  29 1.97
 135  0.750  0.250  0.458-  31 1.95  41 1.95  30 1.97
 136  0.750  0.250  0.542-  31 1.95  41 1.95  34 2.07
 137  0.098  0.125  0.500-  22 1.95  32 1.95  71 1.97
 138  0.902  0.125  0.500-  22 1.95  32 1.95  31 1.97
 139  0.000  0.250  0.565-  33 1.90  43 1.90  32 1.99
 140  0.999  0.250  0.649-  36 1.81  43 2.01  33 2.01
 141  0.850  0.125  0.607-  33 1.95  24 1.97  34 1.97
 142  0.150  0.125  0.607-  33 1.94  64 1.97  74 1.97
 143  0.753  0.250  0.671-  34 1.88  45 2.06  35 2.09
 144  0.749  0.250  0.755-  45 1.82  35 1.84
 145  0.094  0.125  0.718-  36 1.94  26 1.94  75 2.04
 146  0.906  0.125  0.719-  36 1.94  26 1.94  35 2.03
[...]
 232  0.500  0.500  0.435-  49 1.95  79 1.95  82 1.97
 233  0.348  0.375  0.394-  70 1.95  80 1.95  79 1.97
 234  0.652  0.375  0.394-  30 1.95  40 1.95  79 1.97
 235  0.250  0.500  0.458-  51 1.95  81 1.95  80 1.97
 236  0.250  0.500  0.542-  51 1.95  81 1.95  84 2.09
 237  0.598  0.375  0.500-  72 1.95  82 1.95  41 1.97
 238  0.402  0.375  0.500-  72 1.95  82 1.95  81 1.97
 239  0.500  0.500  0.565-  53 1.90  83 1.90  82 1.99
 240  0.499  0.500  0.649-  86 1.92  53 1.97  83 1.97
 241  0.349  0.375  0.607-  83 1.96  74 1.96  84 1.97
 242  0.651  0.375  0.607-  83 1.95  34 1.97  44 1.97
 243  0.250  0.500  0.671-  84 1.87  55 2.08  85 2.09
 244  0.252  0.500  0.755-  55 1.83  85 1.83
 245  0.596  0.371  0.714-  76 1.92  86 1.96  45 2.02
 246  0.406  0.374  0.718-  76 1.93  86 1.94  85 2.03

IMPORTANT INFORMATION: All symmetrisations will be switched off!
NOSYMM: (Re-)initialisation of all symmetry stuff for point group C_1.

                                     Primitive cell

  volume of cell :    4687.8040

  direct lattice vectors                    reciprocal lattice vectors
    12.981773603  0.000000000  0.000000000     0.077031077  0.000000000  0.000000000
     0.000000000 11.829932295  0.000000000     0.000000000  0.084531338  0.000000000
     0.000000000  0.000000000 30.524823105     0.000000000  0.000000000  0.032760223

  length of vectors
    12.981773603 11.829932295 30.524823105     0.077031077  0.084531338  0.032760223

  position of ions in fractional coordinates (direct lattice)
     0.509323832  0.589677647  0.809250740
     0.538596206  0.499107350  0.780092222
     0.426041441  0.598463715  0.807190591
     0.615098363  0.493656986  0.778916738
     0.532289055  0.567435226  0.842510209
     0.547777211  0.668367650  0.799594852
     0.750000000  0.625000000  0.287357103
     0.000000000  0.750000000  0.287357103
     0.000000000  0.625000000  0.393678552
     0.750000000  0.750000000  0.393678552
     0.750000000  0.625000000  0.500000000
     0.000000000  0.750000000  0.500000000
     0.000230512  0.625041005  0.604138564
     0.750316390  0.750097174  0.609660879
     0.750683810  0.625937627  0.718347941
     0.999767740  0.750175996  0.708205930
     0.750000000  0.875000000  0.287357103
     0.000000000  0.000000000  0.287357103
     0.000000000  0.875000000  0.393678552
     0.750000000  0.000000000  0.393678552
     0.750000000  0.875000000  0.500000000
     0.000000000  0.000000000  0.500000000
     0.000052633  0.875017729  0.604224012
     0.749771840  0.000000806  0.609959098
     0.749610064  0.875030891  0.719483890
     0.000111437  0.999876534  0.708176279
     0.750000000  0.125000000  0.287357103
     0.000000000  0.250000000  0.287357103
     0.000000000  0.125000000  0.393678552
     0.750000000  0.250000000  0.393678552
     0.750000000  0.125000000  0.500000000
     0.000000000  0.250000000  0.500000000
     0.000080241  0.124952416  0.604222948
     0.750086054  0.249844578  0.609632675
     0.749526347  0.124264281  0.719491264
     0.999961827  0.249644793  0.708201608
     0.750000000  0.375000000  0.287357103
     0.000000000  0.500000000  0.287357103
     0.000000000  0.375000000  0.393678552
     0.750000000  0.500000000  0.393678552
     0.750000000  0.375000000  0.500000000
     0.000000000  0.500000000  0.500000000
     0.000153750  0.374966858  0.604135210
     0.750708112  0.499961212  0.609855007
     0.751251178  0.373223052  0.718483979
     0.000806128  0.500010053  0.708113778
     0.250000000  0.625000000  0.287357103
     0.500000000  0.750000000  0.287357103
     0.500000000  0.625000000  0.393678552
     0.250000000  0.750000000  0.393678552
     0.250000000  0.625000000  0.500000000
     0.500000000  0.750000000  0.500000000
     0.500203885  0.622628243  0.605380367
     0.250332315  0.749933733  0.609963111
     0.250395968  0.625103818  0.719431043
     0.500271015  0.750133411  0.706850178
     0.250000000  0.875000000  0.287357103
     0.500000000  0.000000000  0.287357103
     0.500000000  0.875000000  0.393678552
     0.250000000  0.000000000  0.393678552
[...]
     0.500000000  0.500000000  0.435333986
     0.347946921  0.375000000  0.393678552
     0.652053079  0.375000000  0.393678552
     0.250000000  0.500000000  0.458344566
     0.250000000  0.500000000  0.541655434
     0.597946921  0.375000000  0.500000000
     0.402053079  0.375000000  0.500000000
     0.500261466  0.499835029  0.565307432
     0.499289177  0.500168597  0.649201628
     0.349497167  0.374940989  0.606917542
[...]
   6.49353359  7.36564996 18.47912863
   3.24975744  8.87166528 18.61901605
   3.25058376  7.39493584 21.96050532
   6.49440506  8.87402747 21.57647664
   3.24544340 10.35119076  8.77152475
   6.49088680  0.00000000  8.77152475
   6.49088680 10.35119076 12.01696815
   3.24544340  0.00000000 12.01696815
[...]
   6.49088680  5.91496615 13.28849290
   4.51696815  4.43622461 12.01696815
   8.46480545  4.43622461 12.01696815
   3.24544340  5.91496615 13.99088680
   3.24544340  5.91496615 16.53393630
   7.76241155  4.43622461 15.26241155
   5.21936205  4.43622461 15.26241155
   6.49428110  5.91301455 17.25590936
   6.48165906  5.91696064 19.81676485
   4.53709309  4.43552651 18.52605060
   8.44513846  4.43510380 18.53858548
   3.24023637  5.91766569 20.49264574
   3.26909195  5.91602179 23.04333440
   7.73938917  4.38994023 21.80403064
   5.27673352  4.42121937 21.90489462

--------------------------------------- Iteration      FINAL  ---------------------------------------

--------------------OUTCAR has been truncated-------------------------

[...]

--------------------OUTCAR has been truncated-------------------------

  FORCE on cell =-STRESS in cart. coord.  units (eV):
  Direction    XX          YY          ZZ          XY          YZ          ZX
  Alpha Z  4723.94982  4723.94982  4723.94982
  Ewald  979246.09228996726.80034************   -75.11451   133.12736   -75.77474
  Hartree************************************   -40.39798    77.56047   -48.37583
  E(xc)   -8882.25681 -8857.17671 -8883.04428    -0.04943     0.03741    -0.15008
  Local  ************************************   109.45812  -201.50821   121.15492
  n-local -5442.90429 -5363.02819 -5483.89757    -1.02382     1.76040    -0.62352
  augment  5308.16853  5285.52341  5313.89473     0.44210    -0.71766     0.05615
  Kinetic 28971.10795 28506.52947 29018.37889     6.48017    -9.86407     3.81843
  Fock        0.00000     0.00000     0.00000     0.00000     0.00000     0.00000
  Total     189.34512   163.60644   131.37127    -0.20535     0.39569     0.10534
  in kB      64.71355    55.91670    44.89950    -0.07018     0.13524     0.03600

 VOLUME and BASIS-vectors are now :
  energy-cutoff  :      600.00
  volume of cell :     4687.80
      direct lattice vectors                 reciprocal lattice vectors
    12.981773603  0.000000000  0.000000000     0.077031077  0.000000000  0.000000000
     0.000000000 11.829932295  0.000000000     0.000000000  0.084531338  0.000000000
     0.000000000  0.000000000 30.524823105     0.000000000  0.000000000  0.032760223

  length of vectors
    12.981773603 11.829932295 30.524823105     0.077031077  0.084531338  0.032760223

 FORCES acting on ions:
    Electron-Ion                     Ewald-Force                    Non-Local-Force
   0.384E+02 -.929E+02 -.163E+04   -.411E+02 0.983E+02 0.163E+04   0.256E+01 -.512E+01 -.462E+01
   0.223E+02 0.127E+03 -.253E+04   -.450E+02 -.153E+03 0.252E+04   0.226E+02 0.253E+02 0.949E+01
   0.583E+02 -.155E+02 -.398E+03   -.645E+02 0.161E+02 0.398E+03   0.614E+01 -.620E+00 0.298E+00
   -.699E+02 0.167E+02 -.431E+03   0.778E+02 -.174E+02 0.431E+03   -.772E+01 0.698E+00 0.320E+00
   -.114E+02 0.540E+01 -.391E+03   0.131E+02 -.683E+01 0.397E+03   -.160E+01 0.141E+01 -.564E+01
   -.191E+02 -.614E+02 -.397E+03   0.218E+02 0.665E+02 0.395E+03   -.270E+01 -.499E+01 0.144E+01
   -.204E+00 -.184E-01 0.381E+04   0.200E+00 0.186E-01 -.381E+04   0.122E-02 0.616E-05 0.419E+00
   -.601E-01 -.643E-01 0.399E+04   0.617E-01 0.645E-01 -.398E+04   -.299E-03 -.191E-04 -.369E+01
   -.240E+00 -.472E-01 0.195E+04   0.247E+00 0.471E-01 -.195E+04   -.104E-02 0.117E-03 -.426E-01
   -.452E+00 -.790E-01 0.194E+04   0.441E+00 0.794E-01 -.194E+04   0.251E-02 0.517E-04 0.200E+00
   -.107E+01 -.104E+00 0.181E+02   0.102E+01 0.856E-01 -.174E+02   0.908E-02 0.740E-03 -.112E+00
   -.113E+01 -.922E+00 0.254E+02   0.115E+01 0.927E+00 -.264E+02   -.583E-02 -.306E-02 0.314E+00
   -.567E+01 -.198E+01 -.187E+04   0.567E+01 0.199E+01 0.187E+04   -.327E-03 -.542E-02 0.100E+00
   -.836E+01 -.969E+01 -.191E+04   0.837E+01 0.970E+01 0.191E+04   -.879E-02 -.519E-02 -.113E+00
   -.103E+03 -.158E+02 -.372E+04   0.103E+03 0.156E+02 0.372E+04   0.178E+00 0.135E+00 -.505E-01
   -.573E+01 -.569E+01 -.379E+04   0.579E+01 0.569E+01 0.379E+04   -.652E-01 -.182E-01 0.900E+00
   -.211E+00 -.697E-01 0.381E+04   0.207E+00 0.700E-01 -.381E+04   0.123E-02 -.693E-05 0.419E+00
   -.575E-01 -.325E-01 0.399E+04   0.591E-01 0.326E-01 -.398E+04   -.313E-03 -.844E-05 -.369E+01
   -.208E+00 -.152E+00 0.195E+04   0.215E+00 0.152E+00 -.195E+04   -.100E-02 0.864E-04 -.427E-01
   -.530E+00 -.883E-01 0.194E+04   0.519E+00 0.880E-01 -.194E+04   0.231E-02 -.208E-04 0.200E+00
   -.229E+01 -.101E+01 0.166E+02   0.225E+01 0.103E+01 -.159E+02   0.679E-02 -.115E-02 -.113E+00
   -.812E+00 -.308E+00 0.239E+02   0.832E+00 0.308E+00 -.249E+02   -.525E-02 0.548E-05 0.311E+00
   -.336E+01 -.300E+01 -.187E+04   0.336E+01 0.300E+01 0.187E+04   0.900E-03 -.976E-02 0.104E+00
   -.523E+01 -.192E+01 -.193E+04   0.524E+01 0.191E+01 0.193E+04   -.167E-01 0.208E-02 -.124E+00
   -.310E+02 -.289E+02 -.377E+04   0.310E+02 0.288E+02 0.377E+04   0.545E-01 0.177E-01 -.198E+00
   -.504E+01 -.220E+01 -.380E+04   0.502E+01 0.220E+01 0.380E+04   0.245E-01 -.280E-02 0.940E+00
   -.206E+00 0.184E-01 0.381E+04   0.202E+00 -.187E-01 -.381E+04   0.122E-02 0.336E-04 0.419E+00
   -.604E-01 0.642E-01 0.399E+04   0.620E-01 -.644E-01 -.398E+04   -.327E-03 0.229E-04 -.369E+01
   -.210E+00 0.492E-01 0.195E+04   0.217E+00 -.492E-01 -.195E+04   -.109E-02 -.756E-04 -.427E-01
   -.417E+00 0.792E-01 0.194E+04   0.406E+00 -.797E-01 -.194E+04   0.241E-02 -.320E-04 0.200E+00
   -.215E+01 0.393E+00 0.160E+02   0.211E+01 -.429E+00 -.153E+02   0.797E-02 0.192E-02 -.112E+00
   -.113E+01 0.905E+00 0.248E+02   0.115E+01 -.910E+00 -.258E+02   -.616E-02 0.351E-02 0.315E+00
   -.225E+01 0.156E+01 -.187E+04   0.224E+01 -.157E+01 0.187E+04   0.304E-02 0.827E-02 0.107E+00
   -.760E+01 0.928E+01 -.191E+04   0.760E+01 -.928E+01 0.191E+04   -.696E-02 -.281E-02 -.124E+00
   -.226E+02 0.151E+02 -.377E+04   0.226E+02 -.151E+02 0.377E+04   0.506E-01 -.423E-02 -.212E+00
   -.474E+01 0.542E+01 -.380E+04   0.478E+01 -.541E+01 0.380E+04   -.522E-01 0.132E-01 0.903E+00
   -.199E+00 0.698E-01 0.381E+04   0.195E+00 -.700E-01 -.381E+04   0.120E-02 -.313E-04 0.419E+00
   -.630E-01 0.325E-01 0.399E+04   0.646E-01 -.326E-01 -.398E+04   -.332E-03 0.105E-04 -.369E+01
   -.242E+00 0.150E+00 0.195E+04   0.250E+00 -.150E+00 -.195E+04   -.111E-02 -.142E-03 -.426E-01
   -.343E+00 0.880E-01 0.194E+04   0.332E+00 -.877E-01 -.194E+04   0.223E-02 -.160E-04 0.200E+00
   -.894E+00 0.719E+00 0.176E+02   0.840E+00 -.693E+00 -.169E+02   0.984E-02 -.138E-02 -.111E+00
   -.124E+01 0.308E+00 0.263E+02   0.126E+01 -.308E+00 -.273E+02   -.697E-02 -.115E-04 0.312E+00
   -.528E+01 0.359E+01 -.187E+04   0.528E+01 -.360E+01 0.187E+04   -.642E-03 0.530E-02 0.101E+00
   -.883E+01 0.204E+01 -.190E+04   0.888E+01 -.204E+01 0.190E+04   -.554E-01 0.415E-02 -.116E+00
   -.863E+02 0.265E+02 -.373E+04   0.863E+02 -.263E+02 0.373E+04   0.109E+00 -.164E+00 -.584E-01
   -.757E+01 0.298E+01 -.379E+04   0.753E+01 -.298E+01 0.379E+04   0.370E-01 0.276E-02 0.850E+00
   0.205E+00 -.142E-01 0.381E+04   -.201E+00 0.142E-01 -.381E+04   -.120E-02 0.158E-04 0.419E+00
   0.592E-01 -.536E-01 0.399E+04   -.609E-01 0.539E-01 -.398E+04   0.311E-03 -.369E-04 -.369E+01
   0.218E+00 0.135E+00 0.195E+04   -.225E+00 -.124E+00 -.195E+04   0.902E-03 -.235E-02 -.445E-01
   0.474E+00 -.309E-01 0.194E+04   -.463E+00 0.311E-01 -.194E+04   -.239E-02 -.385E-05 0.195E+00
   0.185E+01 0.131E+00 0.156E+02   -.180E+01 -.145E+00 -.149E+02   -.119E-01 0.767E-03 -.121E+00
   0.953E+00 0.731E+00 0.306E+02   -.964E+00 -.815E+00 -.315E+02   -.136E-02 0.398E-01 0.233E+00
   0.304E+01 -.128E+02 -.185E+04   -.303E+01 0.129E+02 0.185E+04   0.476E-02 -.991E-01 0.714E-01
   0.144E+02 -.673E+01 -.192E+04   -.144E+02 0.672E+01 0.192E+04   -.138E-01 0.991E-02 -.112E+00
   0.666E+02 -.155E+02 -.374E+04   -.667E+02 0.155E+02 0.374E+04   0.569E-01 0.730E-02 -.211E+00
   0.238E+02 -.840E+02 -.370E+04   -.237E+02 0.842E+02 0.370E+04   -.175E+00 -.543E-01 0.113E+01
   0.212E+00 -.656E-01 0.381E+04   -.208E+00 0.659E-01 -.381E+04   -.124E-02 -.111E-04 0.419E+00
   0.567E-01 -.404E-01 0.399E+04   -.583E-01 0.405E-01 -.398E+04   0.306E-03 0.194E-06 -.369E+01
   0.188E+00 -.277E-01 0.195E+04   -.194E+00 0.275E-01 -.195E+04   0.839E-03 -.982E-03 -.455E-01
   0.549E+00 -.940E-01 0.194E+04   -.538E+00 0.940E-01 -.194E+04   -.239E-02 0.636E-04 0.195E+00
[...]
   -.529E+02 0.339E-01 0.117E+04   0.569E+02 -.346E-01 -.117E+04   -.345E+01 0.100E-02 0.156E+00
   0.531E+02 0.460E-01 0.117E+04   -.571E+02 -.465E-01 -.117E+04   0.346E+01 0.872E-03 0.165E+00
   0.493E+00 0.157E+00 0.516E+03   -.474E+00 -.158E+00 -.520E+03   -.260E-01 0.295E-02 0.409E+01
   0.226E+01 0.637E+00 -.512E+03   -.221E+01 -.636E+00 0.519E+03   -.636E-01 -.215E-02 -.676E+01
   -.546E+02 0.686E-01 0.159E+02   0.593E+02 -.709E-01 -.161E+02   -.490E+01 0.214E-01 0.222E+00
   0.556E+02 0.210E-01 0.153E+02   -.603E+02 -.268E-01 -.155E+02   0.495E+01 0.270E-01 0.214E+00
   0.501E+00 0.149E+01 -.610E+03   -.453E+00 -.156E+01 0.604E+03   -.464E-01 0.731E-01 0.657E+01
   0.111E+02 0.335E+01 -.160E+04   -.115E+02 -.324E+01 0.161E+04   0.377E+00 -.103E+00 -.237E+01
   -.241E+02 0.502E+01 -.112E+04   0.274E+02 -.516E+01 0.112E+04   -.320E+01 0.140E+00 0.101E+01
   0.269E+02 0.536E+01 -.112E+04   -.301E+02 -.540E+01 0.112E+04   0.309E+01 0.406E-01 0.610E+00
   0.217E+02 0.315E+01 -.180E+04   -.218E+02 -.322E+01 0.180E+04   0.516E-01 0.664E-01 -.193E+01
   0.605E+02 0.112E+02 -.272E+04   -.603E+02 -.113E+02 0.274E+04   -.139E+00 0.825E-01 -.201E+02
   -.529E+02 0.610E+02 -.222E+04   0.590E+02 -.609E+02 0.222E+04   -.587E+01 -.130E+00 -.699E+00
   0.708E+02 0.485E+02 -.229E+04   -.769E+02 -.484E+02 0.229E+04   0.598E+01 -.550E-01 -.303E+01
   -.168E+02 -.173E+02 0.824E+02   -.398E-12 -.445E-11 -.241E-10   0.168E+02 0.173E+02 -.825E+02

 POSITION                                       TOTAL-FORCE (eV/Angst)
      6.61193      6.97585     24.70224        -0.102011      0.310996      0.341150
      6.99193      5.90441     23.81218        -0.065144     -0.372885      0.141987
      5.53077      7.07979     24.63935        -0.102475      0.019435      0.045207
      7.98507      5.83993     23.77630         0.167586     -0.030390      0.118140
      6.91006      6.71272     25.71748         0.033605     -0.019630      0.154523
      7.11112      7.90674     24.40749         0.024491      0.109251      0.033895
      9.73633      7.39371      8.77152        -0.002948      0.000221     -3.661993
      0.00000      8.87245      8.77152         0.001329      0.000156      2.325847
      0.00000      7.39371     12.01697         0.005914      0.000019      0.533884
      9.73633      8.87245     12.01697        -0.008636      0.000481     -0.759157
      9.73633      7.39371     15.26241        -0.043680     -0.017391      0.576491
      0.00000      8.87245     15.26241         0.014714      0.002211     -0.700232
      0.00299      7.39419     18.44122         0.002772      0.000726     -0.009655
      9.74044      8.87360     18.60979        -0.005215     -0.000408     -0.019004
      9.74521      7.40480     21.92744         0.075107     -0.042264      0.018837
     12.97876      8.87453     21.61786        -0.004958     -0.010512      0.303087
      9.73633     10.35119      8.77152        -0.003005      0.000289     -3.662092
      0.00000      0.00000      8.77152         0.001302      0.000092      2.325608
      0.00000     10.35119     12.01697         0.005755     -0.000056      0.533977
      9.73633      0.00000     12.01697        -0.008828     -0.000321     -0.759642
      9.73633     10.35119     15.26241        -0.031460      0.026377      0.583654
      0.00000      0.00000     15.26241         0.015010     -0.000073     -0.694826
      0.00068     10.35140     18.44383         0.000998     -0.000489     -0.014031
      9.73337      0.00001     18.61889        -0.006285     -0.000680     -0.015955
      9.73127     10.35156     21.96212         0.012961     -0.005752      0.016236
      0.00145     11.82847     21.61696         0.002621     -0.003150      0.304183
      9.73633      1.47874      8.77152        -0.002992     -0.000283     -3.662300
      0.00000      2.95748      8.77152         0.001333     -0.000165      2.325658
      0.00000      1.47874     12.01697         0.005969     -0.000056      0.533884
      9.73633      2.95748     12.01697        -0.008397     -0.000448     -0.760261
      9.73633      1.47874     15.26241        -0.031161     -0.033615      0.578483
      0.00000      2.95748     15.26241         0.017371     -0.002251     -0.700185
      0.00104      1.47818     18.44380        -0.000225     -0.001239     -0.013795
      9.73745      2.95564     18.60893        -0.003162     -0.001281     -0.020080
      9.73018      1.47004     21.96234         0.011007      0.001413      0.016454
     12.98128      2.95328     21.61773        -0.007855      0.009095      0.303223
      9.73633      4.43622      8.77152        -0.002927     -0.000188     -3.662203
      0.00000      5.91497      8.77152         0.001335     -0.000059      2.325840
      0.00000      4.43622     12.01697         0.006162      0.000137      0.533758
      9.73633      5.91497     12.01697        -0.008379      0.000331     -0.759963
      9.73633      4.43622     15.26241        -0.043978      0.024614      0.572490
      0.00000      5.91497     15.26241         0.015846      0.000162     -0.704285
      0.00200      4.43583     18.44112         0.000786     -0.000532     -0.010207
      9.74552      5.91451     18.61572        -0.007162      0.000848     -0.018868
      9.75257      4.41520     21.93160         0.061165      0.047261      0.022002
      0.01046      5.91509     21.61505        -0.002347      0.002236      0.303873
      3.24544      7.39371      8.77152         0.002997     -0.000062     -3.659519
      6.49089      8.87245      8.77152        -0.001266      0.000251      2.333191
      6.49089      7.39371     12.01697        -0.005647      0.008268      0.560627
      3.24544      8.87245     12.01697         0.008461      0.000245     -0.742107
      3.24544      7.39371     15.26241         0.041416     -0.013268      0.629557
      6.49089      8.87245     15.26241        -0.012063     -0.044001     -0.575540
      6.49353      7.36565     18.47913         0.010207     -0.015478      0.003944
      3.24976      8.87167     18.61902        -0.002331      0.000501     -0.020764
      3.25058      7.39494     21.96051        -0.029991      0.002268     -0.007496
      6.49441      8.87403     21.57648        -0.019027      0.044493      0.248839
      3.24544     10.35119      8.77152         0.003040      0.000350     -3.659681
      6.49089      0.00000      8.77152        -0.001266      0.000048      2.332996
      6.49089     10.35119     12.01697        -0.005541     -0.001141      0.561225
      3.24544      0.00000     12.01697         0.008621      0.000109     -0.741588
[...]
      6.49089      5.91497     13.28849         0.002163     -0.000704     -0.014224
      4.51697      4.43622     12.01697         0.569839      0.000327      0.050896
      8.46481      4.43622     12.01697        -0.563142      0.000305      0.053239
      3.24544      5.91497     13.99089        -0.007243      0.001690     -0.222185
      3.24544      5.91497     16.53394        -0.018867     -0.001270      0.246633
      7.76241      4.43622     15.26241        -0.257913      0.019086      0.065125
      5.21936      4.43622     15.26241         0.289521      0.021114      0.066702
      6.49428      5.91301     17.25591         0.001480     -0.002328     -0.150661
      6.48166      5.91696     19.81676        -0.010731      0.002476      0.149904
      4.53709      4.43553     18.52605         0.109505     -0.004524     -0.021708
      8.44514      4.43510     18.53859        -0.110850      0.000437     -0.012379
      3.24024      5.91767     20.49265         0.002498     -0.002240     -0.002625
      3.26909      5.91602     23.04333         0.008823     -0.005547      0.718587
      7.73939      4.38994     21.80403         0.179239     -0.011324      0.035130
      5.27673      4.42122     21.90489        -0.190388      0.007984      0.140170
    total drift:                               -0.005883     -0.002495     -0.072491

  FREE ENERGIE OF THE ION-ELECTRON SYSTEM (eV)
  free  energy   TOTEN  =     -1589.41911586 eV

  energy  without entropy=    -1589.41911586  energy(sigma->0) =    -1589.41911586