 vasp.6.3.0 20Jan22 (build Apr  1 2022 16:44:48) complex
 executed on        HPECrayEX_GCC date 2022.11.13  00:58:33

 INCAR:
   SYSTEM = MgO-rocksalt
   ISMEAR = 0
   SIGMA = 0.05
   EDIFF = 1E-6
   ALGO = ALL
   ISTART = 0
   IBRION = -1
   NSW = 0
   ISYM = 0
   DIPOL = 0.5 0.5 0.5
   IDIPOL = 3
   LDIPOL = .TRUE.
   GGA = MK
   LUSE_VDW = .TRUE.
   PARAM1 = 0.1234
   PARAM2 = 0.711357
   ZAB_VDW = -1.8867
   AGGAC = 0.0
   ENCUT = 600
   PREC = Accurate
   LASPH = .TRUE.
   LREAL = .FALSE.
   ISPIN = 2
   MAGMOM = 1.0 0.0 0.0 0.0 0.0 0.0 0.0 0.0 0.0 0.0 0.0 0.0 0.0 0.0 0.0 0.0 0.0 0.0 0.0 0.0 0.0 0.0 0.0 0.0 0.0 0.0 0.0 0.0 0.0 0.0 0.0 0.0 0.0 0.0 0.0 0.0 0.0 0.0 0.0 0.0 0.0 0.0 0.0 0.0 0.0 0.0 0.0 0.0 0.0 0.0 0.0 0.0 0.0 0.0 0.0 0.0 0.0 0.0 0.0 0.0 0.0 0.0 0.0 0.0 0.0 0.0
   NELM = 200
   NELMIN = 8
   NCORE = 8
   KPAR = 1
   LWAVE = .FALSE.
   LCHARG = .FALSE.

 POTCAR:    PAW_PBE N 08Apr2002
 POTCAR:    PAW_PBE O 08Apr2002
 POTCAR:    PAW_PBE Mg_pv 13Apr2007
 POTCAR:    PAW_PBE O 08Apr2002
|               ----> ADVICE to this user running VASP <----                  |
|     You have switched on vdW-DFT.                                           |
|     This routine was written and supplied by Jiri Klimes. We recommend      |
|     that you carefully read and cite the following publications:            |
|       J. Klimes, D.R. Bowler, A. Michelides                                 |
|          J. Phys.: Cond Matt. 22 022201 (2010)                              |
|       J. Klimes, D.R. Bowler, A. Michelides                                 |
|          Phys. Rev. B. 83, 195131 (2011)                                    |
|     and references therein.                                                 |

   TITEL  = PAW_PBE N 08Apr2002
   POMASS =   14.001; ZVAL   =    5.000    mass and valenz
   ENMAX  =  400.000; ENMIN  =  300.000 eV

[...]

   TITEL  = PAW_PBE Mg_pv 13Apr2007
   POMASS =   24.305; ZVAL   =    8.000    mass and valenz
   ENMAX  =  403.929; ENMIN  =  302.947 eV

   TITEL  = PAW_PBE O 08Apr2002
   POMASS =   16.000; ZVAL   =    6.000    mass and valenz
   ENMAX  =  400.000; ENMIN  =  300.000 eV

  PAW_PBE N 08Apr2002                   :
  PAW_PBE O 08Apr2002                   :
  PAW_PBE Mg_pv 13Apr2007               :
  PAW_PBE O 08Apr2002                   :

 POSCAR:  N  O Mg  O
  positions in direct lattice
 exchange correlation table for  LEXCH =       43
   RHO(1)=    0.500       N(1)  =     2000
   RHO(2)=  100.500       N(2)  =     4000

 ion  position               nearest neighbor table
   1  0.496  0.750  0.770-   2 1.19
   2  0.627  0.750  0.788-   1 1.19
   3  0.000  0.750  0.350-  35 2.14  37 2.14  38 2.14  45 2.14  54 2.14
   4  0.250  0.000  0.350-  36 2.14  37 2.14  38 2.14  46 2.14  53 2.14
   5  0.000  0.000  0.450-  41 2.14  37 2.14  35 2.14  36 2.14  43 2.14  52 2.14
   6  0.250  0.750  0.450-  38 2.14  36 2.14  35 2.14  44 2.14  51 2.14  42 2.14
   7  0.000  0.750  0.550-  42 2.14  49 2.14  41 2.14  35 2.14  58 2.14  39 2.16
   8  0.250  0.000  0.550-  41 2.14  50 2.14  42 2.14  57 2.14  36 2.15  40 2.15
   9  0.000  0.000  0.649-  41 2.13  47 2.13  40 2.14  39 2.14  56 2.14
  10  0.249  0.750  0.650-  39 2.13  42 2.13  40 2.13  48 2.13  55 2.15
  11  0.000  0.250  0.350-  43 2.14  37 2.14  45 2.14  46 2.14  62 2.14
  12  0.250  0.500  0.350-  44 2.14  38 2.14  45 2.14  46 2.14  61 2.14
  13  0.000  0.500  0.450-  49 2.14  45 2.14  44 2.14  35 2.14  43 2.14  60 2.14
  14  0.250  0.250  0.450-  46 2.14  43 2.14  44 2.14  36 2.14  59 2.14  50 2.14
  15  0.000  0.250  0.550-  50 2.14  49 2.14  41 2.14  66 2.14  43 2.14  47 2.16
  16  0.250  0.500  0.550-  49 2.14  50 2.14  42 2.14  65 2.14  44 2.15  48 2.15
  17  0.000  0.500  0.649-  49 2.13  47 2.13  48 2.14  39 2.14  64 2.14
  18  0.250  0.250  0.649-  50 2.13  47 2.13  40 2.14  48 2.14  63 2.14
  19  0.500  0.750  0.350-  51 2.14  38 2.14  53 2.14  54 2.14  61 2.14
  20  0.750  0.000  0.350-  52 2.14  37 2.14  53 2.14  54 2.14  62 2.14
  21  0.500  0.000  0.450-  53 2.14  51 2.14  52 2.14  36 2.14  59 2.14  57 2.14
  22  0.750  0.750  0.450-  54 2.14  51 2.14  52 2.14  35 2.14  60 2.14  58 2.14
  23  0.500  0.750  0.550-  42 2.13  65 2.13  57 2.13  51 2.13  58 2.14  55 2.17
  24  0.750  0.000  0.550-  66 2.14  41 2.14  57 2.14  58 2.14  52 2.14  56 2.16
  25  0.500  0.001  0.650-  63 2.13  57 2.13  40 2.13  56 2.14  55 2.15
  26  0.752  0.750  0.649-  39 2.12  58 2.12  56 2.13  64 2.13  55 2.15
  27  0.500  0.250  0.350-  59 2.14  53 2.14  46 2.14  61 2.14  62 2.14
  28  0.750  0.500  0.350-  60 2.14  54 2.14  45 2.14  61 2.14  62 2.14
  29  0.500  0.500  0.450-  61 2.14  51 2.14  59 2.14  60 2.14  44 2.14  65 2.14
  30  0.750  0.250  0.450-  62 2.14  52 2.14  59 2.14  60 2.14  43 2.14  66 2.14
  31  0.500  0.250  0.550-  66 2.14  50 2.14  65 2.14  57 2.14  59 2.14  63 2.16
  32  0.750  0.500  0.550-  66 2.14  49 2.14  65 2.14  58 2.14  60 2.14  64 2.16
  33  0.500  0.499  0.650-  63 2.13  65 2.13  48 2.13  64 2.14  55 2.15
  34  0.750  0.250  0.649-  66 2.13  47 2.14  63 2.14  56 2.14  64 2.14
  35  0.000  0.750  0.450-   3 2.14   5 2.14   6 2.14  13 2.14  22 2.14   7 2.14
  36  0.250  0.000  0.450-   4 2.14   5 2.14   6 2.14  14 2.14  21 2.14   8 2.15
  37  0.000  0.000  0.350-   5 2.14   4 2.14   3 2.14  11 2.14  20 2.14
  38  0.250  0.750  0.350-   6 2.14   4 2.14   3 2.14  12 2.14  19 2.14
  39  0.000  0.750  0.651-  26 2.12  10 2.13   9 2.14  17 2.14   7 2.16
  40  0.250  1.000  0.651-  25 2.13  10 2.13   9 2.14  18 2.14   8 2.15
  41  0.000  0.000  0.550-   9 2.13   8 2.14   5 2.14  15 2.14  24 2.14   7 2.14
  42  0.250  0.750  0.550-  23 2.13  10 2.13   7 2.14  16 2.14   8 2.14   6 2.14
  43  0.000  0.250  0.450-  11 2.14   5 2.14  13 2.14  14 2.14  30 2.14  15 2.14
  44  0.250  0.500  0.450-  12 2.14   6 2.14  13 2.14  14 2.14  29 2.14  16 2.15
  45  0.000  0.500  0.350-  13 2.14  11 2.14  12 2.14   3 2.14  28 2.14
  46  0.250  0.250  0.350-  14 2.14  11 2.14  12 2.14   4 2.14  27 2.14
  47  0.000  0.250  0.651-   9 2.13  17 2.13  18 2.13  34 2.14  15 2.16
  48  0.250  0.500  0.651-  33 2.13  10 2.13  17 2.14  18 2.14  16 2.15
  49  0.000  0.500  0.550-  17 2.13  16 2.14  13 2.14  15 2.14  32 2.14   7 2.14
  50  0.250  0.250  0.550-  18 2.13  15 2.14  16 2.14   8 2.14  14 2.14  31 2.14
  51  0.500  0.750  0.450-  23 2.13  19 2.14  21 2.14  22 2.14   6 2.14  29 2.14
  52  0.750  0.000  0.450-  20 2.14   5 2.14  21 2.14  22 2.14  30 2.14  24 2.14
  53  0.500  0.000  0.350-  21 2.14  19 2.14  20 2.14   4 2.14  27 2.14
  54  0.750  0.750  0.350-  22 2.14  19 2.14  20 2.14   3 2.14  28 2.14
  55  0.501  0.750  0.651-  33 2.15  25 2.15  10 2.15  26 2.15  23 2.17
  56  0.750  1.000  0.651-  26 2.13  25 2.14   9 2.14  34 2.14  24 2.16
  57  0.500  1.000  0.550-  25 2.13  23 2.13  24 2.14   8 2.14  31 2.14  21 2.14
  58  0.750  0.750  0.550-  26 2.12  23 2.14  22 2.14  32 2.14  24 2.14   7 2.14
  59  0.500  0.250  0.450-  27 2.14  21 2.14  14 2.14  29 2.14  30 2.14  31 2.14
  60  0.750  0.500  0.450-  28 2.14  22 2.14  13 2.14  29 2.14  30 2.14  32 2.14
  61  0.500  0.500  0.350-  29 2.14  19 2.14  27 2.14  28 2.14  12 2.14
  62  0.750  0.250  0.350-  30 2.14  20 2.14  27 2.14  28 2.14  11 2.14
  63  0.500  0.250  0.651-  25 2.13  33 2.13  34 2.14  18 2.14  31 2.16
  64  0.750  0.500  0.651-  26 2.13  33 2.14  17 2.14  34 2.14  32 2.16
  65  0.500  0.500  0.550-  33 2.13  23 2.13  32 2.14  16 2.14  31 2.14  29 2.14
  66  0.750  0.250  0.550-  34 2.13  32 2.14  24 2.14  30 2.14  15 2.14  31 2.14

IMPORTANT INFORMATION: All symmetrisations will be switched off!
NOSYMM: (Re-)initialisation of all symmetry stuff for point group C_1.

                                     Primitive cell

  volume of cell :    1563.6717

  direct lattice vectors                    reciprocal lattice vectors
     8.546113626  0.000000000  0.000000000     0.117012252  0.000000000  0.000000000
     0.000000000  8.546113626  0.000000000     0.000000000  0.117012252  0.000000000
     0.000000000  0.000000000 21.409585219     0.000000000  0.000000000  0.046708051

  length of vectors
     8.546113626  8.546113626 21.409585219     0.117012252  0.117012252  0.046708051

  position of ions in fractional coordinates (direct lattice)
     0.495854260  0.749999789  0.769856014
     0.626908189  0.750000004  0.788196400
     0.000000000  0.750000000  0.350310383
     0.250000000  0.000000000  0.350310383
     0.000000000  0.000000000  0.450103461
     0.250000000  0.750000000  0.450103461
     0.000422533  0.750000001  0.550090899
     0.249894166  0.000037740  0.550321836
     0.000176701  0.000288942  0.649438187
     0.248980712  0.750000010  0.649682397
     0.000000000  0.250000000  0.350310383
     0.250000000  0.500000000  0.350310383
     0.000000000  0.500000000  0.450103461
     0.250000000  0.250000000  0.450103461
     0.000064213  0.250000005  0.550105863
     0.249894192  0.499962261  0.550321837
     0.000176699  0.499711066  0.649438240
     0.249755145  0.249999996  0.649437344
     0.500000000  0.750000000  0.350310383
     0.750000000  0.000000000  0.350310383
     0.500000000  0.000000000  0.450103461
     0.750000000  0.750000000  0.450103461
     0.500017219  0.749999976  0.549815726
     0.750045448  0.000158354  0.550268012
     0.499864033  0.001309613  0.649514492
     0.752336680  0.750000005  0.648962486
     0.500000000  0.250000000  0.350310383
     0.750000000  0.500000000  0.350310383
     0.500000000  0.500000000  0.450103461
     0.750000000  0.250000000  0.450103461
     0.499996866  0.250000028  0.550148935
     0.750045409  0.499841649  0.550268019
     0.499864042  0.498690395  0.649514607
     0.750234220  0.249999999  0.649438737
     0.000000000  0.750000000  0.450103461
     0.250000000  0.000000000  0.450103461
     0.000000000  0.000000000  0.350310383
     0.250000000  0.750000000  0.350310383
     0.000296412  0.750000012  0.650890835
     0.250222337  0.999777699  0.650926188
     0.000008543  0.000068334  0.549857998
     0.250365878  0.749999995  0.549986307
     0.000000000  0.250000000  0.450103461
     0.250000000  0.500000000  0.450103461
     0.000000000  0.500000000  0.350310383
     0.250000000  0.250000000  0.350310383
     0.000029794  0.249999994  0.651068882
     0.250222327  0.500222307  0.650926217
     0.000008545  0.499931669  0.549858003
     0.249958592  0.250000010  0.549909475
     0.500000000  0.750000000  0.450103461
     0.750000000  0.000000000  0.450103461
     0.500000000  0.000000000  0.350310383
     0.750000000  0.750000000  0.350310383
     0.500653025  0.750000005  0.651008359
     0.749845493  0.999647380  0.650940299
     0.500011647  0.999773554  0.550028952
     0.749932465  0.749999997  0.549940817
     0.500000000  0.250000000  0.450103461
     0.750000000  0.500000000  0.450103461
     0.500000000  0.500000000  0.350310383
     0.750000000  0.250000000  0.350310383
     0.500013822  0.249999991  0.651024438
     0.749845492  0.500352629  0.650940330
     0.500011646  0.500226449  0.550028965
     0.750033776  0.250000010  0.549903780

  ion indices of the primitive-cell ions
   primitive index   ion index
                 1           1
[...]
   0.00000000  6.40958522  7.50000000
   2.13652841  0.00000000  7.50000000
   0.00000000  0.00000000  9.63652841
   2.13652841  6.40958522  9.63652841
   0.00361102  6.40958522 11.77721799
   2.13562394  0.00032253 11.78216224
   0.00151011  0.00246933 13.90420221
   2.12781746  6.40958531 13.90943065
   0.00000000  2.13652841  7.50000000
   2.13652841  4.27305681  7.50000000
   0.00000000  4.27305681  9.63652841
   2.13652841  2.13652841  9.63652841
   0.00054877  2.13652845 11.77753836
   2.13562416  4.27273429 11.78216226
   0.00151009  4.27058755 13.90420335
   2.13443585  2.13652837 13.90418417
   4.27305681  6.40958522  7.50000000
   6.40958522  0.00000000  7.50000000
   4.27305681  0.00000000  9.63652841
   6.40958522  6.40958522  9.63652841
   4.27320397  6.40958502 11.77132665
   6.40997362  0.00135332 11.78100990
   4.27189482  0.01119211 13.90583586
   6.42955475  6.40958526 13.89401764
   4.27305681  2.13652841  7.50000000
   6.40958522  4.27305681  7.50000000
   4.27305681  4.27305681  9.63652841
   6.40958522  2.13652841  9.63652841
   4.27303003  2.13652865 11.77846052
   6.40997329  4.27170352 11.78101005
   4.27189490  4.26186478 13.90583833
   6.41158689  2.13652840 13.90421399
   0.00000000  6.40958522  9.63652841
   2.13652841  0.00000000  9.63652841
   0.00000000  0.00000000  7.50000000
   2.13652841  6.40958522  7.50000000
   0.00253317  6.40958532 13.93530279
   2.13842852  8.54421382 13.93605969
   0.00007301  0.00058399 11.77223167
   2.13965525  6.40958518 11.77497871
   0.00000000  2.13652841  9.63652841
   2.13652841  4.27305681  9.63652841
   0.00000000  4.27305681  7.50000000
   2.13652841  2.13652841  7.50000000
   0.00025462  2.13652835 13.93911471
   2.13842844  4.27495668 13.93606033
   0.00007303  4.27247285 11.77223177
   2.13617453  2.13652849 11.77333377
   4.27305681  6.40958522  9.63652841
   6.40958522  0.00000000  9.63652841
   4.27305681  0.00000000  7.50000000
   6.40958522  6.40958522  7.50000000
   4.27863764  6.40958526 13.93781895
   6.40826479  8.54310009 13.93636181
   4.27315635  8.54417839 11.77589173
   6.40900806  6.40958519 11.77400480
   4.27305681  2.13652841  9.63652841
   6.40958522  4.27305681  9.63652841
   4.27305681  4.27305681  7.50000000
   6.40958522  2.13652841  7.50000000
   4.27317494  2.13652833 13.93816319
   6.40826478  4.27607042 13.93636248
   4.27315634  4.27499207 11.77589199
   6.40987388  2.13652849 11.77321185

--------------------------------------- Iteration      FINAL  ---------------------------------------

--------------------OUTCAR has been truncated-------------------------

[...]

--------------------OUTCAR has been truncated-------------------------

  FORCE on cell =-STRESS in cart. coord.  units (eV):
  Direction    XX          YY          ZZ          XY          YZ          ZX
  Alpha Z   884.72509   884.72509   884.72509
  Ewald  153983.13472153653.86276************     0.00054     0.00038   111.12948
  Hartree164226.42145164093.01570************     0.00022     0.00022    47.22570
  E(xc)   -2500.89878 -2501.85268 -2502.08077     0.00000     0.00000     0.41331
  Local  ************************327293.22965    -0.00069    -0.00059  -150.58948
  n-local -2870.84154 -2867.68424 -2879.70902    -0.00001    -0.00001    -3.55404
  augment  1058.63209  1060.43908  1049.50162    -0.00000     0.00000    -0.02050
  Kinetic  7490.23308  7528.07771  7542.25891    -0.00007    -0.00001    -4.96927
  Fock        0.00000     0.00000     0.00000     0.00000     0.00000     0.00000
  Total     -51.20514   -50.61838   -17.81061    -0.00001    -0.00001    -0.36479
  in kB     -52.46607   -51.86486   -18.24919    -0.00001    -0.00001    -0.37377

 VOLUME and BASIS-vectors are now :
  energy-cutoff  :      600.00
  volume of cell :     1563.67
      direct lattice vectors                 reciprocal lattice vectors
     8.546113626  0.000000000  0.000000000     0.117012252  0.000000000  0.000000000
     0.000000000  8.546113626  0.000000000     0.000000000  0.117012252  0.000000000
     0.000000000  0.000000000 21.409585219     0.000000000  0.000000000  0.046708051

  length of vectors
     8.546113626  8.546113626 21.409585219     0.117012252  0.117012252  0.046708051

 FORCES acting on ions:
    Electron-Ion                     Ewald-Force                    Non-Local-Force
   0.245E+03 0.339E-03 -.119E+04   -.285E+03 -.408E-03 0.117E+04   0.407E+02 0.749E-04 0.118E+02
   -.232E+03 -.440E-03 -.149E+04   0.285E+03 0.521E-03 0.151E+04   -.538E+02 -.742E-04 -.196E+02
   -.103E+00 0.793E-05 0.202E+04   0.104E+00 -.517E-05 -.202E+04   -.121E-02 -.397E-05 -.673E+01
   0.195E+00 -.281E+00 0.202E+04   -.199E+00 0.284E+00 -.202E+04   0.259E-02 -.250E-02 -.674E+01
   -.401E+00 -.928E+00 0.702E+03   0.406E+00 0.948E+00 -.702E+03   -.389E-02 -.147E-01 0.358E+00
   0.127E+01 0.128E-04 0.703E+03   -.128E+01 -.141E-04 -.704E+03   0.879E-02 -.434E-06 0.417E+00
   -.222E+01 0.857E-04 -.610E+03   0.228E+01 -.954E-04 0.610E+03   -.683E-01 0.124E-05 -.296E+00
   0.403E+01 -.479E+01 -.613E+03   -.404E+01 0.480E+01 0.614E+03   0.216E-01 -.967E-02 -.426E+00
   -.703E+01 -.145E+02 -.194E+04   0.707E+01 0.146E+02 0.193E+04   -.365E-01 -.774E-01 0.598E+01
   0.309E+02 -.954E-05 -.191E+04   -.315E+02 0.819E-05 0.190E+04   0.641E+00 0.282E-05 0.606E+01
   -.951E-01 -.578E-05 0.202E+04   0.960E-01 0.511E-05 -.202E+04   -.637E-03 -.585E-06 -.674E+01
   0.195E+00 0.281E+00 0.202E+04   -.199E+00 -.284E+00 -.202E+04   0.259E-02 0.251E-02 -.674E+01
   -.401E+00 0.928E+00 0.702E+03   0.406E+00 -.948E+00 -.702E+03   -.389E-02 0.147E-01 0.358E+00
   0.533E+00 -.861E-05 0.701E+03   -.549E+00 0.123E-04 -.702E+03   0.123E-01 0.165E-05 0.373E+00
   -.107E+01 -.798E-04 -.619E+03   0.108E+01 0.890E-04 0.619E+03   -.177E-01 0.144E-05 -.242E+00
   0.403E+01 0.479E+01 -.613E+03   -.404E+01 -.480E+01 0.614E+03   0.216E-01 0.966E-02 -.426E+00
   -.703E+01 0.145E+02 -.194E+04   0.707E+01 -.146E+02 0.193E+04   -.365E-01 0.774E-01 0.598E+01
   0.105E+02 -.563E-05 -.195E+04   -.105E+02 0.697E-05 0.194E+04   0.695E-01 0.120E-05 0.599E+01
   0.108E+00 0.349E-05 0.202E+04   -.109E+00 -.289E-05 -.202E+04   0.481E-03 0.690E-06 -.671E+01
   -.198E+00 -.290E+00 0.202E+04   0.202E+00 0.294E+00 -.202E+04   -.249E-02 -.272E-02 -.674E+01
   0.466E+00 -.168E+01 0.703E+03   -.474E+00 0.170E+01 -.704E+03   0.526E-02 -.152E-01 0.432E+00
   -.133E+01 0.185E-04 0.704E+03   0.136E+01 -.202E-04 -.705E+03   -.201E-01 -.196E-05 0.418E+00
   0.263E+01 0.116E-04 -.597E+03   -.269E+01 -.225E-04 0.597E+03   0.530E-01 0.108E-04 0.362E+00
   -.435E+01 -.608E+01 -.609E+03   0.436E+01 0.613E+01 0.610E+03   -.149E-01 -.454E-01 -.392E+00
   0.903E+01 -.373E+02 -.190E+04   -.908E+01 0.379E+02 0.189E+04   0.450E-01 -.560E+00 0.601E+01
   -.361E+02 -.365E-04 -.187E+04   0.368E+02 0.357E-04 0.186E+04   -.741E+00 -.105E-05 0.615E+01
   0.975E-01 -.255E-05 0.202E+04   -.984E-01 0.283E-05 -.202E+04   0.611E-03 0.205E-05 -.673E+01
   -.198E+00 0.290E+00 0.202E+04   0.202E+00 -.294E+00 -.202E+04   -.250E-02 0.271E-02 -.674E+01
   0.466E+00 0.168E+01 0.703E+03   -.474E+00 -.170E+01 -.704E+03   0.526E-02 0.152E-01 0.432E+00
   -.582E+00 -.173E-04 0.702E+03   0.599E+00 0.185E-04 -.702E+03   -.129E-01 -.633E-05 0.378E+00
   0.137E+01 -.149E-04 -.612E+03   -.138E+01 0.225E-04 0.613E+03   0.519E-02 -.364E-05 -.291E+00
   -.435E+01 0.608E+01 -.609E+03   0.436E+01 -.613E+01 0.610E+03   -.149E-01 0.454E-01 -.392E+00
   0.903E+01 0.373E+02 -.190E+04   -.908E+01 -.379E+02 0.189E+04   0.449E-01 0.560E+00 0.601E+01
   -.110E+02 0.853E-05 -.194E+04   0.111E+02 -.110E-04 0.193E+04   -.634E-01 0.912E-08 0.599E+01
   -.268E+00 0.142E-04 0.527E+03   0.253E+00 -.213E-04 -.527E+03   0.182E-01 0.155E-05 -.339E-01
   0.561E+00 -.853E+00 0.526E+03   -.573E+00 0.865E+00 -.526E+03   0.181E-01 -.165E-01 -.112E+00
   -.749E-01 -.184E+00 0.152E+04   0.761E-01 0.189E+00 -.152E+04   -.171E-02 -.561E-02 0.362E+01
   0.180E+00 0.541E-05 0.152E+04   -.184E+00 -.273E-05 -.152E+04   0.665E-02 0.117E-05 0.363E+01
   -.976E+01 0.868E-05 -.146E+04   0.985E+01 -.887E-05 0.147E+04   -.907E-01 -.145E-05 -.498E+01
   0.155E+02 -.159E+02 -.146E+04   -.155E+02 0.159E+02 0.147E+04   -.183E-01 0.101E-01 -.501E+01
   -.118E+01 -.304E+01 -.457E+03   0.115E+01 0.304E+01 0.456E+03   0.226E-01 -.764E-02 0.203E+00
   0.389E+01 0.374E-04 -.453E+03   -.389E+01 -.346E-04 0.453E+03   -.147E-03 -.265E-05 0.148E+00
   -.253E+00 -.145E-04 0.526E+03   0.254E+00 0.196E-04 -.526E+03   -.163E-02 -.163E-05 -.766E-01
   0.561E+00 0.853E+00 0.526E+03   -.573E+00 -.865E+00 -.526E+03   0.181E-01 0.165E-01 -.112E+00
   -.749E-01 0.184E+00 0.152E+04   0.761E-01 -.189E+00 -.152E+04   -.171E-02 0.561E-02 0.362E+01
   0.117E+00 -.334E-05 0.152E+04   -.121E+00 0.268E-05 -.152E+04   0.553E-02 0.384E-07 0.362E+01
   -.284E+01 -.133E-04 -.148E+04   0.283E+01 0.157E-04 0.148E+04   0.138E-01 -.344E-06 -.491E+01
   0.155E+02 0.159E+02 -.146E+04   -.155E+02 -.159E+02 0.147E+04   -.183E-01 -.101E-01 -.501E+01
   -.118E+01 0.304E+01 -.457E+03   0.115E+01 -.304E+01 0.456E+03   0.226E-01 0.765E-02 0.203E+00
   0.206E+01 -.260E-04 -.458E+03   -.206E+01 0.267E-04 0.458E+03   0.841E-02 0.154E-06 0.211E+00
   0.361E+00 0.297E-05 0.529E+03   -.370E+00 -.278E-05 -.529E+03   0.124E-01 -.113E-05 0.374E-01
   -.608E+00 -.904E+00 0.527E+03   0.624E+00 0.912E+00 -.527E+03   -.227E-01 -.121E-01 -.945E-01
   0.774E-01 -.248E+00 0.152E+04   -.784E-01 0.252E+00 -.152E+04   0.143E-02 -.610E-02 0.363E+01
   -.184E+00 -.115E-05 0.152E+04   0.187E+00 -.330E-05 -.152E+04   -.544E-02 0.104E-05 0.363E+01
   0.136E+02 -.708E-04 -.138E+04   -.136E+02 0.739E-04 0.139E+04   0.390E-03 -.266E-05 -.437E+01
   -.169E+02 -.240E+02 -.145E+04   0.169E+02 0.240E+02 0.146E+04   0.250E-01 -.942E-02 -.500E+01
   0.152E+01 -.508E+01 -.451E+03   -.153E+01 0.510E+01 0.451E+03   0.120E-01 -.286E-01 0.188E+00
   -.426E+01 0.298E-04 -.446E+03   0.430E+01 -.326E-04 0.446E+03   -.409E-01 -.299E-08 0.325E+00
   0.293E+00 0.588E-06 0.526E+03   -.296E+00 0.156E-05 -.526E+03   0.357E-02 -.301E-06 -.407E-01
   -.608E+00 0.904E+00 0.527E+03   0.624E+00 -.912E+00 -.527E+03   -.227E-01 0.121E-01 -.945E-01
   0.774E-01 0.248E+00 0.152E+04   -.784E-01 -.252E+00 -.152E+04   0.143E-02 0.610E-02 0.363E+01
   -.119E+00 -.984E-06 0.152E+04   0.123E+00 0.326E-05 -.152E+04   -.547E-02 -.448E-06 0.362E+01
   0.326E+01 0.163E-04 -.147E+04   -.326E+01 -.184E-04 0.147E+04   0.119E-01 0.268E-05 -.494E+01
   -.169E+02 0.240E+02 -.145E+04   0.169E+02 -.240E+02 0.146E+04   0.250E-01 0.941E-02 -.500E+01
   0.152E+01 0.508E+01 -.451E+03   -.153E+01 -.510E+01 0.451E+03   0.120E-01 0.286E-01 0.188E+00
   -.231E+01 -.228E-04 -.457E+03   0.233E+01 0.274E-04 0.457E+03   -.207E-01 0.146E-05 0.205E+00
   0.132E+02 0.152E-04 0.215E+02   -.206E-12 0.186E-12 -.415E-11   -.132E+02 0.295E-05 -.215E+02

 POSITION                                       TOTAL-FORCE (eV/Angst)
      4.23763      6.40958     16.48230         0.577297      0.000005      0.065049
      5.35763      6.40959     16.87496        -0.604344      0.000006     -0.204158
      0.00000      6.40959      7.50000         0.000495     -0.000001      0.483145
      2.13653      0.00000      7.50000        -0.001033      0.000997      0.486096
      0.00000      0.00000      9.63653         0.000998      0.005071      0.012589
      2.13653      6.40959      9.63653        -0.003563     -0.000002      0.006780
      0.00361      6.40959     11.77722        -0.004706     -0.000009      0.009287
      2.13562      0.00032     11.78216         0.008162     -0.001659     -0.000178
      0.00151      0.00247     13.90420        -0.003506     -0.003154     -0.160620
      2.12782      6.40959     13.90943        -0.001176      0.000001     -0.141205
      0.00000      2.13653      7.50000         0.000290     -0.000002      0.486766
      2.13653      4.27306      7.50000        -0.001034     -0.000989      0.486106
      0.00000      4.27306      9.63653         0.001002     -0.005074      0.012590
      2.13653      2.13653      9.63653        -0.003773      0.000005      0.015280
      0.00055      2.13653     11.77754        -0.002452      0.000010      0.017600
      2.13562      4.27273     11.78216         0.008157      0.001654     -0.000176
      0.00151      4.27059     13.90420        -0.003503      0.003156     -0.160621
      2.13444      2.13653     13.90418         0.004962      0.000002     -0.162184
      4.27306      6.40959      7.50000        -0.000170      0.000001      0.479641
      6.40959      0.00000      7.50000         0.001019      0.001062      0.485203
      4.27306      0.00000      9.63653        -0.002508      0.007693      0.009322
      6.40959      6.40959      9.63653         0.010585     -0.000004      0.006462
      4.27320      6.40959     11.77133        -0.007596     -0.000000     -0.027304
      6.40997      0.00135     11.78101         0.001523     -0.000735      0.003595
      4.27189      0.01119     13.90584        -0.002822      0.004993     -0.138215
      6.42955      6.40959     13.89402         0.015837     -0.000002     -0.137792
      4.27306      2.13653      7.50000        -0.000202      0.000002      0.483094
      6.40959      4.27306      7.50000         0.001014     -0.001069      0.485195
      4.27306      4.27306      9.63653        -0.002508     -0.007695      0.009325
      6.40959      2.13653      9.63653         0.004564     -0.000005      0.011766
      4.27303      2.13653     11.77846        -0.002939      0.000004      0.013410
      6.40997      4.27170     11.78101         0.001528      0.000744      0.003601
      4.27189      4.26186     13.90584        -0.002828     -0.005000     -0.138209
      6.41159      2.13653     13.90421         0.001226     -0.000003     -0.162432
      0.00000      6.40959      9.63653         0.003494     -0.000006      0.030503
      2.13653      0.00000      9.63653         0.005882     -0.004805      0.028549
      0.00000      0.00000      7.50000        -0.000455     -0.001575     -0.250174
      2.13653      6.40959      7.50000         0.001896      0.000004     -0.248059
      0.00253      6.40959     13.93530        -0.001113     -0.000002     -0.135515
      2.13843      8.54421     13.93606        -0.007812      0.007150     -0.130544
      0.00007      0.00058     11.77223         0.000851     -0.009081      0.015312
      2.13966      6.40959     11.77498         0.003741     -0.000000      0.009396
      0.00000      2.13653      9.63653        -0.000693      0.000003      0.018246
      2.13653      4.27306      9.63653         0.005887      0.004798      0.028552
      0.00000      4.27306      7.50000        -0.000462      0.001576     -0.250172
      2.13653      2.13653      7.50000         0.001572     -0.000001     -0.250437
      0.00025      2.13653     13.93911        -0.000680      0.000002     -0.129662
      2.13843      4.27496     13.93606        -0.007809     -0.007151     -0.130538
      0.00007      4.27247     11.77223         0.000847      0.009082      0.015312
      2.13617      2.13653     11.77333         0.010318      0.000001      0.008052
      4.27306      6.40959      9.63653         0.003625     -0.000001      0.023498
      6.40959      0.00000      9.63653        -0.006718     -0.004066      0.028609
      4.27306      0.00000      7.50000         0.000427     -0.001708     -0.247710
      6.40959      6.40959      7.50000        -0.001499     -0.000004     -0.247333
      4.27864      6.40959     13.93782         0.006439      0.000000     -0.017648
      6.40826      8.54310     13.93636         0.004740      0.005720     -0.125240
      4.27316      8.54418     11.77589         0.001942     -0.006138     -0.000157
      6.40901      6.40959     11.77400        -0.007670     -0.000003      0.000641
      4.27306      2.13653      9.63653         0.001026      0.000002      0.034429
      6.40959      4.27306      9.63653        -0.006716      0.004066      0.028610
      4.27306      4.27306      7.50000         0.000428      0.001706     -0.247706
      6.40959      2.13653      7.50000        -0.001504      0.000002     -0.249831
      4.27317      2.13653     13.93816         0.003350      0.000000     -0.131744
      6.40826      4.27607     13.93636         0.004741     -0.005722     -0.125238
      4.27316      4.27499     11.77589         0.001938      0.006141     -0.000156
      6.40987      2.13653     11.77321        -0.008006      0.000006      0.009349
    total drift:                               -0.001590      0.000018     -0.004527

  FREE ENERGIE OF THE ION-ELECTRON SYSTEM (eV)
  free  energy   TOTEN  =      -273.56909764 eV

  energy  without entropy=     -273.56909764  energy(sigma->0) =     -273.56909764