 vasp.6.3.0 20Jan22 (build Apr  1 2022 16:44:48) complex
 executed on        HPECrayEX_GCC date 2022.10.08  14:40:13

 INCAR:
   SYSTEM = MgO-rocksalt
   ISMEAR = 0
   SIGMA = 0.05
   EDIFF = 1E-7
   ALGO = ALL
   ISTART = 0
   IBRION = 2
   NSW = 1000
   ISYM = 0
   ISIF = 2
   EDIFFG = -0.01
   DIPOL = 0.5 0.5 0.5
   IDIPOL = 3
   LDIPOL = .TRUE.
   GGA = MK
   LUSE_VDW = .TRUE.
   PARAM1 = 0.1234
   PARAM2 = 0.711357
   ZAB_VDW = -1.8867
   AGGAC = 0.0
   ENCUT = 600
   PREC = Accurate
   LASPH = .TRUE.
   LREAL = .FALSE.
   ISPIN = 1
   NELM = 200
   NELMIN = 8
   NCORE = 8
   KPAR = 1
   LWAVE = .FALSE.
   LCHARG = .FALSE.

 POTCAR:    PAW_PBE H 15Jun2001
 POTCAR:    PAW_PBE O 08Apr2002
 POTCAR:    PAW_PBE Mg_pv 13Apr2007
 POTCAR:    PAW_PBE O 08Apr2002
|               ----> ADVICE to this user running VASP <----                  |
|     You have switched on vdW-DFT.                                           |
|     This routine was written and supplied by Jiri Klimes. We recommend      |
|     that you carefully read and cite the following publications:            |
|       J. Klimes, D.R. Bowler, A. Michelides                                 |
|          J. Phys.: Cond Matt. 22 022201 (2010)                              |
|       J. Klimes, D.R. Bowler, A. Michelides                                 |
|          Phys. Rev. B. 83, 195131 (2011)                                    |
|     and references therein.                                                 |

   TITEL  = PAW_PBE H 15Jun2001
   POMASS =    1.000; ZVAL   =    1.000    mass and valenz
   ENMAX  =  250.000; ENMIN  =  200.000 eV

   TITEL  = PAW_PBE O 08Apr2002
   POMASS =   16.000; ZVAL   =    6.000    mass and valenz
   ENMAX  =  400.000; ENMIN  =  300.000 eV

   TITEL  = PAW_PBE Mg_pv 13Apr2007
   POMASS =   24.305; ZVAL   =    8.000    mass and valenz
   ENMAX  =  403.929; ENMIN  =  302.947 eV

   TITEL  = PAW_PBE O 08Apr2002
   POMASS =   16.000; ZVAL   =    6.000    mass and valenz
   ENMAX  =  400.000; ENMIN  =  300.000 eV

  PAW_PBE H 15Jun2001                   :
  PAW_PBE O 08Apr2002                   :
  PAW_PBE Mg_pv 13Apr2007               :
  PAW_PBE O 08Apr2002                   :

 POSCAR:  H  O Mg  O
  positions in direct lattice
 exchange correlation table for  LEXCH =       43
   RHO(1)=    0.500       N(1)  =     2000
   RHO(2)=  100.500       N(2)  =     4000

 ion  position               nearest neighbor table
   1  0.613  0.553  0.763-   3 0.97
   2  0.510  0.672  0.726-   3 0.97
   3  0.506  0.571  0.748-   1 0.97   2 0.97  19 2.21
   4  0.250  0.000  0.352-  36 2.11  38 2.11  39 2.11  46 2.11  55 2.11
   5  0.500  0.250  0.352-  37 2.11  38 2.11  39 2.11  47 2.11  54 2.11
   6  0.250  0.250  0.451-  38 2.11  37 2.11  36 2.11  44 2.11  53 2.11  42 2.12
   7  0.500  0.000  0.451-  39 2.11  37 2.11  36 2.11  45 2.11  52 2.11  43 2.12
   8  0.250  0.000  0.550-  42 2.11  43 2.11  50 2.11  59 2.11  36 2.12  40 2.14
   9  0.500  0.250  0.550-  42 2.11  43 2.11  51 2.11  58 2.11  37 2.12  41 2.14
  10  0.250  0.250  0.648-  42 2.10  41 2.11  40 2.11  48 2.11  57 2.11
  11  0.500  0.000  0.648-  43 2.10  41 2.11  40 2.11  49 2.11  56 2.11
  12  0.250  0.500  0.352-  44 2.11  38 2.11  46 2.11  47 2.11  63 2.11
  13  0.500  0.750  0.352-  45 2.11  39 2.11  46 2.11  47 2.11  62 2.11
  14  0.250  0.750  0.451-  46 2.11  44 2.11  45 2.11  36 2.11  61 2.11  50 2.12
  15  0.500  0.500  0.451-  47 2.11  44 2.11  45 2.11  37 2.11  60 2.11  51 2.12
  16  0.250  0.500  0.550-  42 2.11  50 2.11  51 2.11  67 2.11  44 2.12  48 2.14
  17  0.500  0.750  0.550-  43 2.11  50 2.11  51 2.11  66 2.11  45 2.12  49 2.14
  18  0.250  0.750  0.648-  50 2.10  48 2.11  49 2.11  40 2.11  65 2.11
  19  0.500  0.500  0.648-  51 2.10  48 2.11  49 2.11  41 2.11  64 2.11   3 2.21
  20  0.750  0.000  0.352-  52 2.11  39 2.11  54 2.11  55 2.11  62 2.11
  21  0.000  0.250  0.352-  53 2.11  38 2.11  54 2.11  55 2.11  63 2.11
  22  0.750  0.250  0.451-  54 2.11  52 2.11  53 2.11  37 2.11  60 2.11  58 2.12
  23  0.000  0.000  0.451-  55 2.11  52 2.11  53 2.11  36 2.11  61 2.11  59 2.12
  24  0.750  0.000  0.550-  43 2.11  58 2.11  59 2.11  66 2.11  52 2.12  56 2.14
  25  0.000  0.250  0.550-  42 2.11  58 2.11  59 2.11  67 2.11  53 2.12  57 2.14
  26  0.750  0.250  0.648-  58 2.10  56 2.11  57 2.11  41 2.11  64 2.11
  27  0.000  0.000  0.648-  59 2.10  56 2.11  57 2.11  40 2.11  65 2.11
  28  0.750  0.500  0.352-  60 2.11  54 2.11  47 2.11  62 2.11  63 2.11
  29  0.000  0.750  0.352-  61 2.11  55 2.11  46 2.11  62 2.11  63 2.11
  30  0.750  0.750  0.451-  62 2.11  52 2.11  60 2.11  61 2.11  45 2.11  66 2.12
  31  0.000  0.500  0.451-  63 2.11  53 2.11  60 2.11  61 2.11  44 2.11  67 2.12
  32  0.750  0.500  0.550-  51 2.11  58 2.11  66 2.11  67 2.11  60 2.12  64 2.14
  33  0.000  0.750  0.550-  50 2.11  59 2.11  66 2.11  67 2.11  61 2.12  65 2.14
  34  0.750  0.750  0.648-  66 2.10  56 2.11  64 2.11  65 2.11  49 2.11
  35  0.000  0.500  0.648-  67 2.10  57 2.11  64 2.11  65 2.11  48 2.11
  36  0.250  0.000  0.451-   4 2.11   6 2.11   7 2.11  14 2.11  23 2.11   8 2.12
  37  0.500  0.250  0.451-   5 2.11   6 2.11   7 2.11  15 2.11  22 2.11   9 2.12
  38  0.250  0.250  0.352-   6 2.11   5 2.11   4 2.11  12 2.11  21 2.11
  39  0.500  0.000  0.352-   7 2.11   5 2.11   4 2.11  13 2.11  20 2.11
  40  0.250  0.000  0.650-  10 2.11  11 2.11  18 2.11  27 2.11   8 2.14
  41  0.500  0.250  0.650-  10 2.11  11 2.11  19 2.11  26 2.11   9 2.14
  42  0.250  0.250  0.550-  10 2.10   9 2.11   8 2.11  16 2.11  25 2.11   6 2.12
  43  0.500  0.000  0.550-  11 2.10   9 2.11   8 2.11  17 2.11  24 2.11   7 2.12
  44  0.250  0.500  0.451-  12 2.11   6 2.11  14 2.11  15 2.11  31 2.11  16 2.12
  45  0.500  0.750  0.451-  13 2.11   7 2.11  14 2.11  15 2.11  30 2.11  17 2.12
  46  0.250  0.750  0.352-  14 2.11  12 2.11  13 2.11   4 2.11  29 2.11
  47  0.500  0.500  0.352-  15 2.11  12 2.11  13 2.11   5 2.11  28 2.11
  48  0.250  0.500  0.650-  10 2.11  18 2.11  19 2.11  35 2.11  16 2.14
  49  0.500  0.750  0.650-  11 2.11  18 2.11  19 2.11  34 2.11  17 2.14
  50  0.250  0.750  0.550-  18 2.10  16 2.11  17 2.11   8 2.11  33 2.11  14 2.12
  51  0.500  0.500  0.550-  19 2.10  16 2.11  17 2.11   9 2.11  32 2.11  15 2.12
  52  0.750  0.000  0.451-  20 2.11   7 2.11  22 2.11  23 2.11  30 2.11  24 2.12
  53  0.000  0.250  0.451-  21 2.11   6 2.11  22 2.11  23 2.11  31 2.11  25 2.12
  54  0.750  0.250  0.352-  22 2.11  20 2.11  21 2.11   5 2.11  28 2.11
  55  0.000  0.000  0.352-  23 2.11  20 2.11  21 2.11   4 2.11  29 2.11
  56  0.750  0.000  0.650-  11 2.11  26 2.11  27 2.11  34 2.11  24 2.14
  57  0.000  0.250  0.650-  10 2.11  26 2.11  27 2.11  35 2.11  25 2.14
  58  0.750  0.250  0.550-  26 2.10  24 2.11  25 2.11   9 2.11  32 2.11  22 2.12
  59  0.000  0.000  0.550-  27 2.10  24 2.11  25 2.11   8 2.11  33 2.11  23 2.12
  60  0.750  0.500  0.451-  28 2.11  22 2.11  15 2.11  30 2.11  31 2.11  32 2.12
  61  0.000  0.750  0.451-  29 2.11  23 2.11  14 2.11  30 2.11  31 2.11  33 2.12
  62  0.750  0.750  0.352-  30 2.11  20 2.11  28 2.11  29 2.11  13 2.11
  63  0.000  0.500  0.352-  31 2.11  21 2.11  28 2.11  29 2.11  12 2.11
  64  0.750  0.500  0.650-  19 2.11  26 2.11  34 2.11  35 2.11  32 2.14
  65  0.000  0.750  0.650-  18 2.11  27 2.11  34 2.11  35 2.11  33 2.14
  66  0.750  0.750  0.550-  34 2.10  24 2.11  32 2.11  33 2.11  17 2.11  30 2.12
  67  0.000  0.500  0.550-  35 2.10  25 2.11  32 2.11  33 2.11  16 2.11  31 2.12

IMPORTANT INFORMATION: All symmetrisations will be switched off!
NOSYMM: (Re-)initialisation of all symmetry stuff for point group C_1.

                                     Primitive cell

  volume of cell :    1519.6535

  direct lattice vectors                    reciprocal lattice vectors
     8.440582262  0.000000000  0.000000000     0.118475239  0.000000000  0.000000000
     0.000000000  8.440582262  0.000000000     0.000000000  0.118475239  0.000000000
     0.000000000  0.000000000 21.330436697     0.000000000  0.000000000  0.046881366

  length of vectors
     8.440582262  8.440582262 21.330436697     0.118475239  0.118475239  0.046881366

  position of ions in fractional coordinates (direct lattice)
     0.613096839  0.552671139  0.762602826
     0.509858747  0.671768558  0.725671301
     0.505600097  0.571167333  0.747865813
     0.250000000  0.000000000  0.351610242
     0.500000000  0.250000000  0.351610242
     0.250000000  0.250000000  0.450536747
     0.500000000  0.000000000  0.450536747
     0.250000000  0.000000000  0.549966382
     0.500000000  0.250000000  0.549966382
     0.250000000  0.250000000  0.648348359
     0.500000000  0.000000000  0.648348359
     0.250000000  0.500000000  0.351610242
     0.500000000  0.750000000  0.351610242
     0.250000000  0.750000000  0.450536747
     0.500000000  0.500000000  0.450536747
     0.250000000  0.500000000  0.549966382
     0.500000000  0.750000000  0.549966382
     0.250000000  0.750000000  0.648348359
     0.500000000  0.500000000  0.648348359
     0.750000000  0.000000000  0.351610242
     0.000000000  0.250000000  0.351610242
     0.750000000  0.250000000  0.450536747
     0.000000000  0.000000000  0.450536747
     0.750000000  0.000000000  0.549966382
     0.000000000  0.250000000  0.549966382
     0.750000000  0.250000000  0.648348359
     0.000000000  0.000000000  0.648348359
     0.750000000  0.500000000  0.351610242
     0.000000000  0.750000000  0.351610242
     0.750000000  0.750000000  0.450536747
     0.000000000  0.500000000  0.450536747
     0.750000000  0.500000000  0.549966382
     0.000000000  0.750000000  0.549966382
     0.750000000  0.750000000  0.648348359
     0.000000000  0.500000000  0.648348359
     0.250000000  0.000000000  0.450536747
     0.500000000  0.250000000  0.450536747
     0.250000000  0.250000000  0.351610242
     0.500000000  0.000000000  0.351610242
     0.250000000  0.000000000  0.650177506
     0.500000000  0.250000000  0.650177506
     0.250000000  0.250000000  0.549707339
     0.500000000  0.000000000  0.549707339
     0.250000000  0.500000000  0.450536747
     0.500000000  0.750000000  0.450536747
     0.250000000  0.750000000  0.351610242
     0.500000000  0.500000000  0.351610242
     0.250000000  0.500000000  0.650177506
     0.500000000  0.750000000  0.650177506
     0.250000000  0.750000000  0.549707339
     0.500000000  0.500000000  0.549707339
     0.750000000  0.000000000  0.450536747
     0.000000000  0.250000000  0.450536747
     0.750000000  0.250000000  0.351610242
     0.000000000  0.000000000  0.351610242
     0.750000000  0.000000000  0.650177506
     0.000000000  0.250000000  0.650177506
     0.750000000  0.250000000  0.549707339
     0.000000000  0.000000000  0.549707339
     0.750000000  0.500000000  0.450536747
     0.000000000  0.750000000  0.450536747
     0.750000000  0.750000000  0.351610242
     0.000000000  0.500000000  0.351610242
     0.750000000  0.500000000  0.650177506
     0.000000000  0.750000000  0.650177506
     0.750000000  0.750000000  0.549707339
     0.000000000  0.500000000  0.549707339

  ion indices of the primitive-cell ions
   primitive index   ion index
                 1           1
[...]
   4.22029113  4.22029113  9.61014557
   2.11014557  4.22029113 11.73102311
   4.22029113  6.33043670 11.73102311
   2.11014557  6.33043670 13.82955363
   4.22029113  4.22029113 13.82955363
   6.33043670  0.00000000  7.50000000
   0.00000000  2.11014557  7.50000000
   6.33043670  2.11014557  9.61014557
   0.00000000  0.00000000  9.61014557
   6.33043670  0.00000000 11.73102311
   0.00000000  2.11014557 11.73102311
   6.33043670  2.11014557 13.82955363
   0.00000000  0.00000000 13.82955363
   6.33043670  4.22029113  7.50000000
   0.00000000  6.33043670  7.50000000
   6.33043670  6.33043670  9.61014557
   0.00000000  4.22029113  9.61014557
   6.33043670  4.22029113 11.73102311
   0.00000000  6.33043670 11.73102311
   6.33043670  6.33043670 13.82955363
   0.00000000  4.22029113 13.82955363
   2.11014557  0.00000000  9.61014557
   4.22029113  2.11014557  9.61014557
   2.11014557  2.11014557  7.50000000
   4.22029113  0.00000000  7.50000000
   2.11014557  0.00000000 13.86857013
   4.22029113  2.11014557 13.86857013
   2.11014557  2.11014557 11.72549760
   4.22029113  0.00000000 11.72549760
   2.11014557  4.22029113  9.61014557
   4.22029113  6.33043670  9.61014557
   2.11014557  6.33043670  7.50000000
   4.22029113  4.22029113  7.50000000
   2.11014557  4.22029113 13.86857013
   4.22029113  6.33043670 13.86857013
   2.11014557  6.33043670 11.72549760
   4.22029113  4.22029113 11.72549760
   6.33043670  0.00000000  9.61014557
   0.00000000  2.11014557  9.61014557
   6.33043670  2.11014557  7.50000000
   0.00000000  0.00000000  7.50000000
   6.33043670  0.00000000 13.86857013
   0.00000000  2.11014557 13.86857013
   6.33043670  2.11014557 11.72549760
   0.00000000  0.00000000 11.72549760
   6.33043670  4.22029113  9.61014557
   0.00000000  6.33043670  9.61014557
   6.33043670  6.33043670  7.50000000
   0.00000000  4.22029113  7.50000000
   6.33043670  4.22029113 13.86857013
   0.00000000  6.33043670 13.86857013
   6.33043670  6.33043670 11.72549760
   0.00000000  4.22029113 11.72549760

--------------------------------------- Iteration      FINAL  ---------------------------------------

--------------------OUTCAR has been truncated-------------------------

[...]

--------------------OUTCAR has been truncated-------------------------

  FORCE on cell =-STRESS in cart. coord.  units (eV):
  Direction    XX          YY          ZZ          XY          YZ          ZX
  Alpha Z   899.39781   899.39781   899.39781
  Ewald  160653.23573160679.79806************   -10.10466   -23.76325    38.61568
  Hartree170886.59671170907.44460************    -2.19718     0.78686     8.33870
  E(xc)   -2492.53608 -2492.52444 -2492.59790    -0.03979    -0.24871     0.12711
  Local  ************************341410.00547     9.71511    12.72817   -36.77020
  n-local -2863.09494 -2862.82173 -2881.52866    -0.21255     0.26190     0.40314
  augment  1058.30746  1058.50216  1049.84872     0.16489     0.65723    -0.68414
  Kinetic  7453.07252  7455.76817  7498.08004     2.71371     9.62486   -10.26378
  Fock        0.00000     0.00000     0.00000     0.00000     0.00000     0.00000
  Total     -28.76842   -28.59653    -2.55372     0.03952     0.04705    -0.23348
  in kB     -30.33067   -30.14944    -2.69239     0.04167     0.04961    -0.24616

 VOLUME and BASIS-vectors are now :
  energy-cutoff  :      600.00
  volume of cell :     1519.65
      direct lattice vectors                 reciprocal lattice vectors
     8.440582262  0.000000000  0.000000000     0.118475239  0.000000000  0.000000000
     0.000000000  8.440582262  0.000000000     0.000000000  0.118475239  0.000000000
     0.000000000  0.000000000 21.330436697     0.000000000  0.000000000  0.046881366

  length of vectors
     8.440582262  8.440582262 21.330436697     0.118475239  0.118475239  0.046881366

 FORCES acting on ions:
    Electron-Ion                     Ewald-Force                    Non-Local-Force
   -.774E+02 0.146E+02 -.299E+03   0.847E+02 -.160E+02 0.302E+03   -.733E+01 0.138E+01 -.351E+01
   -.229E+01 -.678E+02 -.267E+03   0.243E+01 0.738E+02 0.263E+03   -.139E+00 -.599E+01 0.358E+01
   0.480E+02 0.272E+02 -.170E+04   -.850E+02 -.477E+02 0.171E+04   0.370E+02 0.205E+02 -.539E+01
   -.881E-01 0.944E-02 0.208E+04   0.915E-01 -.716E-02 -.208E+04   -.252E-02 -.160E-02 -.680E+01
   -.611E-03 -.237E-01 0.208E+04   0.232E-03 0.327E-01 -.208E+04   0.216E-03 -.678E-02 -.679E+01
   -.344E+00 -.980E-01 0.718E+03   0.357E+00 0.113E+00 -.718E+03   -.776E-02 -.868E-02 0.370E+00
   0.129E+00 -.848E-01 0.716E+03   -.140E+00 0.339E-01 -.717E+03   0.844E-02 0.371E-01 0.440E+00
   0.225E+01 -.632E+00 -.644E+03   -.220E+01 0.706E+00 0.645E+03   -.480E-01 -.774E-01 -.263E+00
   -.107E+00 0.356E+01 -.638E+03   0.639E-01 -.336E+01 0.639E+03   0.398E-01 -.195E+00 -.472E+00
   0.166E+02 0.185E+02 -.201E+04   -.170E+02 -.186E+02 0.200E+04   0.351E+00 0.345E-01 0.604E+01
   0.558E+00 -.105E+02 -.200E+04   -.624E+00 0.109E+02 0.200E+04   0.645E-01 -.418E+00 0.585E+01
   -.121E+00 -.712E-02 0.208E+04   0.129E+00 0.487E-02 -.208E+04   -.634E-02 0.158E-02 -.681E+01
   0.773E-02 0.198E-01 0.208E+04   -.863E-02 -.294E-01 -.208E+04   0.632E-03 0.722E-02 -.681E+01
   -.310E+00 0.474E-01 0.717E+03   0.423E+00 -.614E-01 -.717E+03   -.805E-01 0.849E-02 0.534E+00
   0.308E-01 0.141E+00 0.715E+03   -.800E-03 -.101E+00 -.715E+03   -.219E-01 -.306E-01 0.647E+00
   0.323E+01 0.826E+00 -.635E+03   -.300E+01 -.880E+00 0.636E+03   -.234E+00 0.545E-01 -.105E+01
   0.125E+00 -.285E+01 -.647E+03   -.196E+00 0.259E+01 0.646E+03   0.691E-01 0.257E+00 0.918E+00
   0.246E+02 -.217E+02 -.199E+04   -.256E+02 0.217E+02 0.198E+04   0.985E+00 -.164E-01 0.612E+01
   0.135E+01 0.299E+02 -.191E+04   -.168E+01 -.318E+02 0.191E+04   0.330E+00 0.192E+01 0.241E+01
   0.891E-01 0.186E-02 0.208E+04   -.915E-01 0.117E-02 -.208E+04   0.165E-02 -.221E-02 -.678E+01
   0.271E-02 0.107E-01 0.208E+04   -.119E-02 -.622E-02 -.208E+04   -.115E-02 -.320E-02 -.680E+01
   0.374E+00 -.177E+00 0.717E+03   -.368E+00 0.239E+00 -.718E+03   -.548E-02 -.436E-01 0.426E+00
   -.795E-01 -.127E+00 0.717E+03   0.109E+00 0.170E+00 -.717E+03   -.210E-01 -.307E-01 0.367E+00
   -.224E+01 -.867E+00 -.642E+03   0.219E+01 0.972E+00 0.643E+03   0.479E-01 -.109E+00 -.189E+00
   0.131E+00 0.273E+01 -.644E+03   -.904E-01 -.266E+01 0.644E+03   -.426E-01 -.665E-01 -.154E+00
   -.165E+02 0.178E+02 -.200E+04   0.169E+02 -.179E+02 0.200E+04   -.335E+00 0.164E+00 0.604E+01
   -.451E+00 -.402E+01 -.202E+04   0.503E+00 0.419E+01 0.202E+04   -.560E-01 -.166E+00 0.597E+01
   0.122E+00 0.105E-02 0.208E+04   -.129E+00 -.387E-02 -.208E+04   0.575E-02 0.203E-02 -.682E+01
   -.471E-02 -.123E-01 0.208E+04   0.701E-02 0.794E-02 -.208E+04   -.178E-02 0.307E-02 -.676E+01
   0.333E+00 0.122E+00 0.717E+03   -.419E+00 -.180E+00 -.717E+03   0.642E-01 0.412E-01 0.544E+00
   0.616E-03 0.168E+00 0.718E+03   -.188E-01 -.208E+00 -.718E+03   0.139E-01 0.287E-01 0.246E+00
   -.301E+01 0.107E+01 -.640E+03   0.277E+01 -.115E+01 0.641E+03   0.241E+00 0.824E-01 -.493E+00
   -.124E+00 -.295E+01 -.639E+03   0.193E+00 0.287E+01 0.639E+03   -.716E-01 0.787E-01 -.121E+00
   -.247E+02 -.210E+02 -.197E+04   0.257E+02 0.212E+02 0.197E+04   -.104E+01 -.210E+00 0.618E+01
   0.950E-01 0.485E+01 -.201E+04   0.632E-01 -.501E+01 0.200E+04   -.160E+00 0.156E+00 0.598E+01
   -.159E+00 0.140E+00 0.537E+03   0.144E+00 -.122E+00 -.537E+03   0.203E-01 -.270E-01 -.824E-01
   -.325E-01 -.785E-02 0.537E+03   0.148E-01 -.242E-01 -.537E+03   0.247E-01 0.423E-01 -.782E-01
   -.763E-01 -.394E-02 0.157E+04   0.768E-01 0.845E-02 -.157E+04   -.644E-03 -.626E-02 0.360E+01
   0.786E-02 0.366E-02 0.157E+04   -.114E-01 -.582E-02 -.157E+04   0.500E-02 0.306E-02 0.361E+01
   0.803E+01 -.559E+01 -.153E+04   -.778E+01 0.553E+01 0.153E+04   -.245E+00 0.626E-01 -.495E+01
   0.374E+00 0.268E+02 -.151E+04   -.369E+00 -.269E+02 0.151E+04   -.707E-02 0.642E-01 -.482E+01
   0.204E+01 0.227E+01 -.476E+03   -.204E+01 -.219E+01 0.475E+03   -.822E-03 -.719E-01 0.235E+00
   0.226E+00 -.225E+00 -.476E+03   -.238E+00 0.263E+00 0.476E+03   0.137E-01 -.373E-01 0.353E+00
   -.318E+00 -.102E+00 0.537E+03   0.244E+00 0.837E-01 -.537E+03   0.100E+00 0.282E-01 -.154E+00
   0.211E-01 -.632E-01 0.537E+03   -.330E-01 0.109E+00 -.536E+03   0.169E-01 -.603E-01 -.146E+00
   -.819E-01 0.220E-02 0.157E+04   0.918E-01 -.673E-02 -.157E+04   -.138E-01 0.630E-02 0.361E+01
   -.168E-02 -.791E-03 0.157E+04   0.291E-02 0.336E-02 -.157E+04   -.172E-02 -.367E-02 0.359E+01
   0.295E+02 0.792E+01 -.149E+04   -.291E+02 -.782E+01 0.150E+04   -.447E+00 -.988E-01 -.510E+01
   0.203E+01 -.370E+02 -.147E+04   -.211E+01 0.367E+02 0.147E+04   0.738E-01 0.296E+00 -.198E+01
   0.156E+01 -.246E+01 -.475E+03   -.164E+01 0.240E+01 0.474E+03   0.774E-01 0.615E-01 0.472E+00
   -.375E+00 -.303E+00 -.485E+03   0.339E+00 0.248E+00 0.486E+03   0.344E-01 0.469E-01 -.831E+00
   0.199E+00 0.101E+00 0.538E+03   -.208E+00 -.946E-01 -.538E+03   0.118E-01 -.123E-01 -.246E-01
   0.853E-01 0.203E+00 0.538E+03   -.938E-01 -.184E+00 -.538E+03   0.979E-02 -.281E-01 -.542E-01
   0.749E-01 -.138E-01 0.157E+04   -.762E-01 0.229E-01 -.157E+04   0.184E-02 -.127E-01 0.360E+01
   -.837E-02 -.295E-02 0.157E+04   0.112E-01 0.986E-02 -.157E+04   -.397E-02 -.960E-02 0.361E+01
   -.811E+01 -.647E+01 -.153E+04   0.788E+01 0.645E+01 0.153E+04   0.227E+00 0.174E-01 -.497E+01
   -.520E+00 0.636E+01 -.153E+04   0.531E+00 -.624E+01 0.154E+04   -.103E-01 -.118E+00 -.493E+01
   -.212E+01 0.185E+01 -.475E+03   0.214E+01 -.181E+01 0.475E+03   -.231E-01 -.447E-01 0.371E+00
   -.239E+00 -.994E+00 -.480E+03   0.256E+00 0.103E+01 0.479E+03   -.200E-01 -.355E-01 0.207E+00
   0.354E+00 -.518E-01 0.537E+03   -.296E+00 0.397E-01 -.536E+03   -.789E-01 0.191E-01 -.189E+00
   0.506E-01 -.225E+00 0.538E+03   -.710E-01 0.203E+00 -.538E+03   0.256E-01 0.329E-01 0.599E-01
   0.798E-01 0.116E-01 0.157E+04   -.908E-01 -.209E-01 -.157E+04   0.153E-01 0.130E-01 0.361E+01
   0.151E-02 0.413E-02 0.157E+04   -.315E-02 -.112E-01 -.157E+04   0.233E-02 0.979E-02 0.360E+01
   -.300E+02 0.935E+01 -.149E+04   0.293E+02 -.925E+01 0.150E+04   0.631E+00 -.958E-01 -.481E+01
   -.139E+01 -.698E+01 -.153E+04   0.145E+01 0.686E+01 0.153E+04   -.606E-01 0.116E+00 -.497E+01
   -.161E+01 -.202E+01 -.472E+03   0.171E+01 0.199E+01 0.471E+03   -.101E+00 0.343E-01 0.771E+00
   0.176E+00 0.116E+01 -.473E+03   -.137E+00 -.120E+01 0.473E+03   -.385E-01 0.324E-01 0.254E+00
   -.298E+02 -.177E+02 0.199E+02   0.265E-12 0.284E-13 -.102E-11   0.298E+02 0.177E+02 -.199E+02

 POSITION                                       TOTAL-FORCE (eV/Angst)
      5.10789      4.67665     16.45014        -0.002854      0.009202     -0.002162
      4.28793      5.68279     15.52284        -0.002139     -0.001790     -0.000253
      4.23135      4.81771     16.04755        -0.003060      0.002472     -0.000710
      2.11015      0.00000      7.50000         0.000809      0.000657      0.318560
      4.22029      2.11015      7.50000        -0.000213      0.002139      0.316631
      2.11015      2.11015      9.61015         0.005633      0.006116      0.026975
      4.22029      0.00000      9.61015        -0.002705     -0.013641      0.046032
      2.11389      0.00198     11.72883        -0.000945     -0.002898      0.000247
      4.22137      2.11628     11.73473        -0.002985      0.000130     -0.002184
      2.10483      2.10954     13.82759        -0.005012     -0.000158     -0.004310
      4.22214      0.01884     13.82726        -0.001695     -0.001944     -0.006965
      2.11015      4.22029      7.50000         0.001728     -0.000677      0.320251
      4.22029      6.33044      7.50000        -0.000320     -0.002307      0.321457
      2.11015      6.33044      9.61015         0.031052     -0.005385      0.025845
      4.22029      4.22029      9.61015         0.007904      0.009089      0.062659
      2.12005      4.21868     11.73761        -0.003760      0.000646     -0.002937
      4.22091      6.32151     11.73833        -0.001924      0.001928     -0.000207
      2.09244      6.33110     13.82181        -0.003138     -0.000822     -0.008065
      4.21029      4.16108     13.93786        -0.000894      0.006921     -0.006420
      6.33044      0.00000      7.50000        -0.000750      0.000800      0.314845
      0.00000      2.11015      7.50000         0.000309      0.001274      0.319801
      6.33044      2.11015      9.61015         0.001064      0.018731      0.023446
      0.00000      0.00000      9.61015         0.008646      0.011621      0.015702
      6.33093      0.00321     11.72631        -0.000010     -0.003114      0.003456
      0.00335      2.11239     11.72500        -0.001638      0.001714      0.001143
      6.34208      2.10680     13.82085         0.000258     -0.000841     -0.002598
      0.00506      0.00455     13.82323        -0.003011      0.000249     -0.002571
      6.33044      4.22029      7.50000        -0.001744     -0.000793      0.323233
      0.00000      6.33044      7.50000         0.000466     -0.001290      0.311134
      6.33044      6.33044      9.61015        -0.022334     -0.016732      0.023095
      0.00000      4.22029      9.61015        -0.004297     -0.010900      0.042396
      6.32378      4.21806     11.73911         0.001448      0.000907     -0.002578
      0.00470      6.32857     11.72221        -0.001723     -0.000634      0.006107
      6.35770      6.33680     13.80292        -0.003037     -0.000322     -0.006114
      0.00760      4.21702     13.81953        -0.001754     -0.002732     -0.008549
      2.11015      0.00000      9.61015         0.005328     -0.009512      0.040936
      4.22029      2.11015      9.61015         0.007000      0.010226      0.073081
      2.11015      2.11015      7.50000        -0.000227     -0.001773     -0.403774
      4.22029      0.00000      7.50000         0.001370      0.000883     -0.401917
      2.10706      0.00058     13.86404         0.000199     -0.000713      0.005892
      4.22463      2.09045     13.86280        -0.001523     -0.001879      0.002360
      2.11231      2.10710     11.72160         0.002842      0.002507      0.006286
      4.22298     -0.00551     11.72688         0.001660      0.000809     -0.002187
      2.11015      4.22029      9.61015         0.026098      0.009430      0.064301
      4.22029      6.33044      9.61015         0.004899     -0.014123      0.067469
      2.11015      6.33044      7.50000        -0.004001      0.001748     -0.401811
      4.22029      4.22029      7.50000        -0.000559     -0.001121     -0.406389
      2.09701      4.22117     13.84172        -0.004602     -0.002583      0.006606
      4.22621      6.37117     13.92729        -0.001137      0.000805     -0.000518
      2.11826      6.33318     11.72842        -0.004134      0.002511     -0.003432
      4.22415      4.22508     11.74577        -0.000815     -0.007969     -0.002284
      6.33044      0.00000      9.61015         0.002392     -0.005784      0.046025
      0.00000      2.11015      9.61015         0.001212     -0.008944      0.030277
      6.33044      2.11015      7.50000         0.000484     -0.003618     -0.403280
      0.00000      0.00000      7.50000        -0.001163     -0.002717     -0.400715
      6.34044      0.00043     13.86425        -0.005682     -0.001572      0.002785
      0.00223      2.10695     13.86188         0.000704      0.003376      0.005035
      6.33230      2.10926     11.72323        -0.005218     -0.000263      0.000872
      0.00140     -0.00134     11.72051        -0.002405     -0.003130     -0.003586
      6.33044      4.22029      9.61015        -0.021135      0.007024      0.059477
      0.00000      6.33044      9.61015         0.005183      0.010282      0.051747
      6.33044      6.33044      7.50000         0.004353      0.003658     -0.401062
      0.00000      4.22029      7.50000         0.000634      0.002734     -0.403688
      6.35038      4.22232     13.86863        -0.000844     -0.001687      0.002848
      0.00221      6.33469     13.86047         0.000759     -0.000375      0.003415
      6.32703      6.33143     11.72700         0.000734      0.005409     -0.004673
     -0.00074      4.22229     11.71727         0.000217     -0.001254      0.003513
    total drift:                                0.003911      0.001301     -0.015104

  FREE ENERGIE OF THE ION-ELECTRON SYSTEM (eV)
  free  energy   TOTEN  =      -277.95320961 eV

  energy  without entropy=     -277.95320961  energy(sigma->0) =     -277.95320961

 d Force = 0.1672322E-04[-0.283E-05, 0.363E-04]  d Energy = 0.1618890E-04 0.534E-06
 d Force = 0.8230855E+01[ 0.823E+01, 0.823E+01]  d Ewald  = 0.8230855E+01 0.168E-06

 reached required accuracy - stopping structural energy minimisation