 vasp.6.3.0 20Jan22 (build Apr  1 2022 16:44:48) complex
 executed on        HPECrayEX_GCC date 2023.02.21  23:06:02

 INCAR:
   SYSTEM = MgO-rocksalt
   ISMEAR = 0
   SIGMA = 0.05
   EDIFF = 1E-8
   ALGO = ALL
   ISTART = 0
   IBRION = 5
   POTIM = 0.01
   NFREE = 2
   ISYM = 0
   DIPOL = 0.5 0.5 0.5
   IDIPOL = 3
   LDIPOL = .TRUE.
   GGA = RE
   AGGAC = 0.0
   LUSE_VDW = .TRUE.
   LASPH = .TRUE.
   ENCUT = 520
   PREC = Accurate
   LASPH = .TRUE.
   LREAL = Auto
   ISPIN = 1
   NELM = 200
   NELMIN = 8
   NCORE = 8
   KPAR = 1
   LWAVE = .FALSE.
   LCHARG = .FALSE.

 POTCAR:    PAW_PBE C 08Apr2002
 POTCAR:    PAW_PBE O 08Apr2002
 POTCAR:    PAW_PBE H 15Jun2001
 POTCAR:    PAW_PBE Mg_pv 13Apr2007
 POTCAR:    PAW_PBE O 08Apr2002
|               ----> ADVICE to this user running VASP <----                  |
|     You have switched on vdW-DFT.                                           |
|     This routine was written and supplied by Jiri Klimes. We recommend      |
|     that you carefully read and cite the following publications:            |
|       J. Klimes, D.R. Bowler, A. Michelides                                 |
|          J. Phys.: Cond Matt. 22 022201 (2010)                              |
|       J. Klimes, D.R. Bowler, A. Michelides                                 |
|          Phys. Rev. B. 83, 195131 (2011)                                    |
|     and references therein.                                                 |

   TITEL  = PAW_PBE C 08Apr2002
   POMASS =   12.011; ZVAL   =    4.000    mass and valenz
   ENMAX  =  400.000; ENMIN  =  300.000 eV

[...]

   TITEL  = PAW_PBE H 15Jun2001
   POMASS =    1.000; ZVAL   =    1.000    mass and valenz
   ENMAX  =  250.000; ENMIN  =  200.000 eV

   TITEL  = PAW_PBE Mg_pv 13Apr2007
   POMASS =   24.305; ZVAL   =    8.000    mass and valenz
   ENMAX  =  403.929; ENMIN  =  302.947 eV

   TITEL  = PAW_PBE O 08Apr2002
   POMASS =   16.000; ZVAL   =    6.000    mass and valenz
   ENMAX  =  400.000; ENMIN  =  300.000 eV

 Optimization of the real space projectors (new method)

 maximal supplied QI-value         = 25.13
 optimisation between [QCUT,QGAM] = [ 11.56, 23.12] = [ 37.43,149.72] Ry
 Optimized for a Real-space Cutoff    1.04 Angstroem

   l    n(q)    QCUT    max X(q) W(low)/X(q) W(high)/X(q)  e(spline)
   0      7    11.561   115.676    0.20E-03    0.60E-03    0.21E-06
   0      7    11.561    87.132    0.20E-03    0.59E-03    0.21E-06
   1      7    11.561     4.429    0.23E-03    0.35E-03    0.15E-06
   1      7    11.561     2.733    0.18E-03    0.25E-03    0.12E-06
 Optimization of the real space projectors (new method)

[...]

   l    n(q)    QCUT    max X(q) W(low)/X(q) W(high)/X(q)  e(spline)
   1      8    11.527     2.974    0.44E-04    0.56E-04    0.12E-06
   1      8    11.527     4.279    0.12E-03    0.12E-03    0.26E-06
   0      9    11.527    16.381    0.46E-04    0.64E-04    0.78E-07
   0      9    11.527     5.611    0.26E-04    0.43E-04    0.55E-07
   2      8    11.527     4.652    0.22E-03    0.72E-04    0.47E-07
 Optimization of the real space projectors (new method)

 maximal supplied QI-value         = 24.76
 optimisation between [QCUT,QGAM] = [ 11.64, 23.27] = [ 37.91,151.63] Ry
 Optimized for a Real-space Cutoff    1.14 Angstroem

   l    n(q)    QCUT    max X(q) W(low)/X(q) W(high)/X(q)  e(spline)
   0      8    11.635    20.381    0.10E-03    0.33E-03    0.24E-06
   0      8    11.635    15.268    0.11E-03    0.35E-03    0.26E-06
   1      7    11.635     5.964    0.24E-03    0.31E-03    0.30E-06
   1      7    11.635     5.382    0.22E-03    0.25E-03    0.26E-06
|               ----> ADVICE to this user running VASP <----                  |
|     You enforced a specific xc type in the INCAR file but a different       |
|     type was found in the POTCAR file.                                      |
|     I HOPE YOU KNOW WHAT YOU ARE DOING!                                     |

  PAW_PBE C 08Apr2002                   :
  PAW_PBE O 08Apr2002                   :
  PAW_PBE H 15Jun2001                   :
  PAW_PBE Mg_pv 13Apr2007               :
  PAW_PBE O 08Apr2002                   :

 POSCAR:  C  O  H Mg  O
  positions in direct lattice
 exchange correlation table for  LEXCH =       40
   RHO(1)=    0.500       N(1)  =     2000
   RHO(2)=  100.500       N(2)  =     4000

 ion  position               nearest neighbor table
   1  0.522  0.558  0.802-  12 1.09  11 1.10   9 1.10   5 1.46
   2  0.317  0.397  0.802-  16 1.09  15 1.10  13 1.10   6 1.46
   3  0.479  0.192  0.802-  20 1.09  19 1.10  17 1.10   7 1.46
   4  0.683  0.353  0.802-  24 1.09  23 1.10  21 1.10   8 1.46
   5  0.506  0.491  0.761-  10 0.99   1 1.46
   6  0.384  0.381  0.761-  14 0.99   2 1.46
   7  0.494  0.259  0.761-  18 0.99   3 1.46
   8  0.616  0.369  0.761-  22 0.99   4 1.46
   9  0.520  0.539  0.851-   1 1.10
  10  0.551  0.454  0.765-   5 0.99
  11  0.579  0.584  0.791-   1 1.10
  12  0.476  0.601  0.793-   1 1.09
  13  0.336  0.395  0.851-   2 1.10
  14  0.421  0.426  0.765-   6 0.99
  15  0.291  0.454  0.791-   2 1.10
  16  0.274  0.351  0.793-   2 1.09
  17  0.480  0.211  0.851-   3 1.10
  18  0.449  0.296  0.765-   7 0.99
  19  0.422  0.166  0.791-   3 1.10
  20  0.525  0.149  0.793-   3 1.09
  21  0.664  0.355  0.851-   4 1.10
  22  0.579  0.324  0.765-   8 0.99
  23  0.709  0.296  0.791-   4 1.10
  24  0.726  0.399  0.793-   4 1.09
  25  0.000  0.375  0.350- 153 2.14 156 2.14 163 2.14 187 2.14 236 2.14
  26  0.125  0.000  0.350- 154 2.14 155 2.14 164 2.14 171 2.14 188 2.14
  27  0.000  0.000  0.450- 155 2.14 154 2.14 161 2.14 185 2.14 234 2.14 159 2.14
  28  0.125  0.375  0.450- 160 2.14 156 2.14 153 2.14 162 2.14 169 2.14 186 2.14
  29  0.000  0.375  0.550- 240 2.13 160 2.13 191 2.14 167 2.14 153 2.14 157 2.17
  30  0.125  1.000  0.550- 168 2.14 175 2.14 159 2.14 192 2.14 154 2.14 158 2.16
  31  0.000  1.000  0.649- 159 2.12 238 2.13 158 2.13 189 2.14 165 2.14
  32  0.125  0.375  0.649- 173 2.11 160 2.12 157 2.14 190 2.14 166 2.14
  33  0.000  0.125  0.350- 161 2.14 155 2.14 163 2.14 164 2.14 244 2.14
  34  0.125  0.250  0.350- 162 2.14 156 2.14 163 2.14 164 2.14 179 2.14
  35  0.000  0.250  0.450- 163 2.14 161 2.14 162 2.14 153 2.14 242 2.14 167 2.14
  36  0.125  0.125  0.450- 168 2.14 164 2.14 162 2.14 154 2.14 161 2.14 177 2.14
  37  1.000  0.125  0.550- 168 2.13 248 2.13 167 2.14 159 2.14 161 2.14 165 2.17
  38  0.125  0.250  0.550- 183 2.13 167 2.14 160 2.14 162 2.14 168 2.14 166 2.17
  39  1.000  0.250  0.649- 167 2.12 246 2.13 166 2.13 165 2.14 157 2.14
  40  0.125  0.125  0.649- 168 2.12 181 2.13 165 2.14 166 2.14 158 2.14
  41  0.250  0.375  0.350- 169 2.14 156 2.14 172 2.14 179 2.14 203 2.14
  42  0.375  0.000  0.350- 170 2.14 171 2.14 180 2.14 204 2.14 219 2.14
  43  0.250  0.000  0.450- 175 2.14 171 2.14 154 2.14 170 2.14 177 2.14 201 2.14
  44  0.375  0.375  0.450- 172 2.14 169 2.14 178 2.14 202 2.14 217 2.14 176 2.15
  45  0.251  0.375  0.550- 176 2.12 183 2.14 207 2.14 169 2.15 160 2.15 173 2.16
  46  0.375  1.000  0.550- 184 2.13 208 2.14 223 2.14 170 2.14 175 2.14 174 2.17
  47  0.250  1.000  0.649- 175 2.12 181 2.13 205 2.14 174 2.14 158 2.14
  48  0.374  0.375  0.653- 173 2.15 221 2.15 182 2.16 206 2.17 176 2.19
  49  0.250  0.125  0.350- 177 2.14 171 2.14 164 2.14 179 2.14 180 2.14
  50  0.375  0.250  0.350- 178 2.14 172 2.14 179 2.14 180 2.14 227 2.14
  51  0.250  0.250  0.450- 183 2.13 179 2.14 177 2.14 178 2.14 162 2.14 169 2.14
  52  0.375  0.125  0.450- 184 2.13 180 2.14 178 2.14 170 2.14 177 2.14 225 2.14
  53  0.250  0.125  0.550- 183 2.13 184 2.13 177 2.14 168 2.14 175 2.14 181 2.17
  54  0.376  0.251  0.551- 176 2.13 231 2.13 182 2.14 183 2.15 184 2.15 178 2.16
  55  0.250  0.250  0.648- 183 2.11 182 2.11 166 2.14 181 2.14 173 2.14
  56  0.375  0.125  0.648- 184 2.10 182 2.12 174 2.14 181 2.14 229 2.14
  57  0.000  0.875  0.350- 185 2.14 155 2.14 188 2.14 195 2.14 268 2.14
  58  0.125  0.500  0.350- 186 2.14 156 2.14 187 2.14 196 2.14 203 2.14
  59  0.000  0.500  0.450- 187 2.14 186 2.14 153 2.14 193 2.14 266 2.14 191 2.14
  60  0.125  0.875  0.450- 188 2.14 185 2.14 154 2.14 194 2.14 201 2.14 192 2.14
[...]
 266  0.875  0.500  0.450- 138 2.14 108 2.14  59 2.14 139 2.14 148 2.14 142 2.14
 267  0.750  0.500  0.350- 139 2.14 122 2.14 138 2.14 105 2.14 145 2.14
 268  0.875  0.875  0.350- 140 2.14 106 2.14 137 2.14  57 2.14 146 2.14
 269  0.750  0.875  0.651- 151 2.14 111 2.14 144 2.14 128 2.14 141 2.17
 270  0.875  0.500  0.651-  63 2.13 152 2.14 143 2.14 112 2.14 142 2.17
 271  0.750  0.500  0.550- 143 2.11 142 2.13 149 2.13 139 2.13 109 2.14 126 2.15
 272  0.875  0.875  0.550- 144 2.12  61 2.14 150 2.14 110 2.14 140 2.14 141 2.14
 273  0.750  0.625  0.450- 145 2.14 139 2.14 132 2.14 147 2.14 148 2.14 149 2.14
 274  0.875  0.750  0.450- 146 2.14 140 2.14  67 2.14 147 2.14 148 2.14 150 2.14
 275  0.750  0.750  0.350- 147 2.14 137 2.14 145 2.14 146 2.14 130 2.14
 276  0.875  0.625  0.350- 148 2.14 138 2.14 145 2.14 146 2.14  65 2.14
 277  0.751  0.626  0.651- 151 2.13 152 2.13 136 2.14 143 2.14 149 2.17
 278  0.875  0.750  0.651- 144 2.13  71 2.13 151 2.14 152 2.14 150 2.16
 279  0.750  0.750  0.550- 151 2.12 141 2.13 150 2.14 147 2.14 149 2.14 134 2.14
 280  0.875  0.625  0.550- 152 2.12  69 2.13 150 2.14 148 2.14 149 2.14 142 2.14

IMPORTANT INFORMATION: All symmetrisations will be switched off!
NOSYMM: (Re-)initialisation of all symmetry stuff for point group C_1.

                                     Primitive cell

  volume of cell :    6254.6868

  direct lattice vectors                    reciprocal lattice vectors
    17.092227251  0.000000000  0.000000000     0.058506126  0.000000000  0.000000000
     0.000000000 17.092227251  0.000000000     0.000000000  0.058506126  0.000000000
     0.000000000  0.000000000 21.409585219     0.000000000  0.000000000  0.046708051

  length of vectors
    17.092227251 17.092227251 21.409585219     0.058506126  0.058506126  0.046708051

  position of ions in fractional coordinates (direct lattice)
     0.521520804  0.557823483  0.802067252
     0.317445899  0.396756887  0.801969814
     0.478579712  0.192191054  0.802139532
     0.682643646  0.353460659  0.802034303
     0.506497901  0.491192476  0.761296975
     0.384094608  0.381396845  0.761290406
     0.493626527  0.258796817  0.761358504
     0.616019090  0.368638909  0.761305459
     0.520142874  0.539456551  0.851246259
     0.550803553  0.454079071  0.764657744
     0.578561783  0.584017780  0.791171692
     0.475511215  0.600782071  0.793106498
     0.335744873  0.395489766  0.851153881
     0.421289588  0.425629614  0.764626507
     0.291461699  0.453847363  0.790940849
     0.274377191  0.350858130  0.793074981
     0.479845338  0.210568061  0.851319187
     0.449319850  0.295895175  0.764704977
     0.421592733  0.165932701  0.791186238
     0.524633670  0.149255319  0.793264955
     0.664298445  0.354820836  0.851216279
     0.578919547  0.324340091  0.764606738
     0.708738386  0.296377906  0.791106238
     0.725664479  0.399401300  0.793106959
     0.000000000  0.375000000  0.350310383
     0.125000000  0.000000000  0.350310383
     0.000000000  0.000000000  0.450103461
[...]
 23X     0.027624    0.035974    0.034977   -0.007353    0.002261    0.006297    0.013643   -0.019671    0.012572    7.689845   -7.352259   -2.332955    0.098553   -0.130892   -0.007255    0.015393    0.012720   -0.000399    0.008080    0.056850   -0.006142    2.159205   -2.499751    0.558546   -0.000960   -0.001711   -0.006003   -0.136901    0.215854    0.011817   -0.006079   -0.006766   -0.000534   -0.002465   -0.011643   -0.007533   -0.000098   -0.000989   -0.000981   -0.026629   -0.012564   -0.002519    0.000326   -0.000831   -0.000715    0.002018    0.000446   -0.000506    0.003849   -0.000581   -0.004569   -0.004037   -0.020815   -0.001805   -0.003123    0.006764   -0.004689    0.001906    0.011689    0.003398    0.183088   -0.921080   -0.417277   -0.135576   -0.187701   -0.030825   -8.898246    9.090100    1.822640   -0.974061    1.745543    0.454682
 23Y    -0.005060   -0.011081   -0.013679    0.008566   -0.001321   -0.005223   -0.006434    0.019518   -0.013777   -7.723686   23.395156    5.043757   -0.031009    0.039023   -0.006472   -0.016899   -0.003438   -0.001567   -0.041907   -0.040047    0.002221   -0.750645   -0.006945   -0.411045    0.003204    0.000524   -0.000314    0.067735   -0.080962    0.013083    0.001557   -0.003322    0.003438   -0.002843    0.003511    0.002472   -0.000167    0.000574    0.000085    0.017298    0.007545    0.003236   -0.000741    0.001270    0.000847   -0.001147   -0.000917    0.000386   -0.001893   -0.001013    0.001183    0.007880   -0.000345    0.003929   -0.001524   -0.005971    0.003595    0.000364   -0.002746   -0.000437    0.095395   -0.051329    0.037566    0.111465   -0.001542   -0.072111    9.096273  -25.007420   -5.293169   -0.817478    1.836099    0.652535
 23Z     0.015002    0.022162    0.035381   -0.004530    0.001001    0.005499   -0.003190   -0.001246    0.005442   -2.425923    5.473223    6.130566    0.069397   -0.097417   -0.009989    0.010100    0.001242    0.000087    0.014307    0.012284    0.010709    1.658355   -2.170223   -0.107184    0.003416   -0.002888   -0.009833   -0.089472    0.146669    0.024203   -0.003586   -0.004696   -0.000008   -0.001846   -0.006812   -0.009208    0.000578    0.000051   -0.000971   -0.012154   -0.004476   -0.000296    0.000700   -0.000896   -0.000776    0.000596    0.000211   -0.001150   -0.002965    0.001734    0.001153   -0.008916    0.001343    0.000210    0.003451    0.000481    0.000007   -0.000879   -0.002986   -0.005495   -1.055901    2.585134    0.546522   -0.144665   -0.055524   -0.085340    1.821777   -5.287210   -6.319895    0.168755   -0.596677   -0.209534
 24X     0.013328    0.022233    0.011646   -0.006305    0.000306    0.005341    0.015723   -0.025618    0.026074   14.706586   11.390619   -3.107671    0.010457   -0.043787   -0.002292    0.010012   -0.010435   -0.000108    0.069117    0.089649   -0.012132    2.608210    1.900469    0.278883    0.002848   -0.000603   -0.003886   -0.004848    0.069550   -0.003671   -0.002768   -0.011556    0.002979   -0.005186   -0.003893   -0.002139   -0.000013    0.000473   -0.000935    0.000608    0.010114   -0.000810    0.001899   -0.001186   -0.000588    0.000274    0.000196   -0.000373    0.000516    0.000897   -0.003518   -0.020139    0.008328   -0.006071    0.003490    0.011552   -0.006819   -0.001391    0.003837    0.000170    0.427941    0.689155   -0.300915    0.173010   -0.368395    0.258920   -0.973810   -0.817430    0.167067  -17.037334  -12.907285    2.765172
 24Y     0.002297    0.005129    0.004741   -0.004385    0.000566    0.002082   -0.009493    0.001701   -0.001651   12.123383   18.125170   -3.384726    0.017923   -0.013068   -0.000714    0.008100   -0.000913    0.000429   -0.003192   -0.016216    0.009758   -0.553286   -0.810528    0.194595    0.000150   -0.000938    0.000777   -0.026781    0.018617    0.004713   -0.000242    0.002030   -0.000993    0.000919   -0.001171   -0.000868    0.000165   -0.000008    0.000106   -0.005125   -0.003003   -0.001257    0.000342   -0.000863   -0.000239    0.000149    0.000613   -0.000200   -0.002461    0.000449    0.001846   -0.003954    0.005376   -0.001265    0.002854   -0.002654    0.001821   -0.000857   -0.005267   -0.002690   -0.229140   -0.222890    0.065067   -0.176826   -0.059030   -0.106459    1.747535    1.835729   -0.597437  -12.916408  -18.859428    3.909815
 24Z    -0.002283   -0.003542   -0.000029   -0.002173    0.000039    0.002730    0.011623   -0.012464    0.028205   -3.822284   -4.006847    5.516752    0.010007   -0.007375    0.012132    0.006103   -0.001260    0.001271    0.048309    0.070893   -0.015798    2.123836    1.682037   -0.112347   -0.003771   -0.001338    0.002861   -0.017403    0.024555   -0.015788    0.000491    0.003395   -0.005460    0.002668    0.000098    0.000341    0.000728   -0.000458   -0.000152   -0.005939   -0.001007   -0.000716    0.000474   -0.000433   -0.001112    0.000358    0.000173   -0.000720    0.004498    0.001773   -0.007212   -0.009136    0.002256   -0.001630    0.002435    0.007471   -0.009172   -0.000855    0.002187    0.000342   -1.836475   -2.098279    0.365631    0.253095   -0.204794    0.233539    0.454742    0.652037   -0.209254    2.765596    3.909319   -5.778407

 Eigenvectors and eigenvalues of the dynamical matrix

   1 f  =  101.781516 THz   639.512128 2PiTHz 3395.065939 cm-1   420.934339 meV
             X         Y         Z           dx          dy          dz
      8.913952  9.534446 17.171927    -0.001946    0.006111    0.003323
      5.425857  6.781459 17.169841     0.006394    0.001968   -0.003533
      8.179993  3.284973 17.173475     0.002092   -0.006750    0.003762
     11.667900  6.041430 17.171222    -0.006539   -0.002096   -0.003456
      8.657177  8.395573 16.299052    -0.087958    0.074845   -0.007674
      6.565032  6.518922 16.298912     0.074732    0.087538    0.007604
      8.437177  4.423414 16.300370     0.094137   -0.079897   -0.008171
     10.529138  6.300860 16.299234    -0.082724   -0.097090    0.008212
      8.890400  9.220514 18.224829    -0.000490   -0.000472   -0.010370
      9.414459  7.761223 16.371005     0.354906   -0.297847    0.033822
      9.888909  9.982165 16.938658    -0.009262   -0.008548   -0.001453
      8.127546 10.268704 16.980081     0.011639   -0.014901    0.000051
      5.738628  6.759801 18.222852    -0.000432    0.000537    0.010729
      7.200777  7.274958 16.370336    -0.298014   -0.352884   -0.033096
      4.981730  7.757262 16.933716    -0.008830    0.009672    0.001491
      4.689717  5.996947 16.979406    -0.015229   -0.011892   -0.000081
      8.201626  3.599077 18.226391     0.000556    0.000424   -0.011551
      7.679877  5.057508 16.372016    -0.379177    0.318163    0.035753
      7.205959  2.836159 16.938969     0.010253    0.009388   -0.001581
      8.967158  2.551106 16.983474    -0.012718    0.016168    0.000049
     11.354340  6.064678 18.224187     0.000497   -0.000548    0.011185
      9.895024  5.543695 16.369913     0.328216    0.391215   -0.036512
     12.113918  5.065759 16.937256     0.009013   -0.009895    0.001471
     12.403222  6.826658 16.980091     0.016311    0.012709   -0.000051
      0.000000  6.409585  7.500000            0           0           0
      2.136528  0.000000  7.500000            0           0           0
      0.000000  0.000000  9.636528            0           0           0
      2.136528  6.409585  9.636528            0           0           0
      0.000020  6.409597 11.776256            0           0           0
      2.136039 17.091666 11.776908            0           0           0
      0.000067 17.090425 13.895003            0           0           0
      2.135689  6.409549 13.888140            0           0           0
      0.000000  2.136528  7.500000            0           0           0
      2.136528  4.273057  7.500000            0           0           0
      0.000000  4.273057  9.636528            0           0           0
      2.136528  2.136528  9.636528            0           0           0
     17.092195  2.135784 11.776863            0           0           0
      2.136065  4.273583 11.774935            0           0           0
     17.092133  4.271170 13.893709            0           0           0
      2.134543  2.133204 13.893034            0           0           0
      4.273057  6.409585  7.500000            0           0           0
      6.409585  0.000000  7.500000            0           0           0
      4.273057  0.000000  9.636528            0           0           0
      6.409585  6.409585  9.636528            0           0           0
      4.282313  6.408980 11.783589            0           0           0
      6.410027 17.091514 11.774540            0           0           0
      4.269648 17.090199 13.893010            0           0           0
      6.397076  6.407117 13.982182            0           0           0
      4.273057  2.136528  7.500000            0           0           0
      6.409585  4.273057  7.500000            0           0           0
      4.273057  4.273057  9.636528            0           0           0
      6.409585  2.136528  9.636528            0           0           0
      4.272742  2.136637 11.773183            0           0           0
      6.420326  4.284367 11.794299            0           0           0
      4.269192  4.267101 13.877602            0           0           0
      6.403206  2.132393 13.873859            0           0           0
      0.000000 14.955699  7.500000            0           0           0
      2.136528  8.546114  7.500000            0           0           0
      0.000000  8.546114  9.636528            0           0           0
      2.136528 14.955699  9.636528            0           0           0
[...]
     14.955699  8.546114  9.636528            0           0           0
     12.819170  8.546114  7.500000            0           0           0
     14.955699 14.955699  7.500000            0           0           0
     12.822374 14.955735 13.942153            0           0           0
     14.959914  8.550413 13.943702            0           0           0
     12.825937  8.549424 11.769813            0           0           0
     14.956781 14.955698 11.773142            0           0           0
     12.819170 10.682642  9.636528            0           0           0
     14.955699 12.819170  9.636528            0           0           0
     12.819170 12.819170  7.500000            0           0           0
     14.955699 10.682642  7.500000            0           0           0
     12.828376 10.692259 13.940061            0           0           0
     14.958906 12.822380 13.941594            0           0           0
     12.820954 12.821304 11.772442            0           0           0
     14.958122 10.684531 11.772598            0           0           0

[...]

  72 f  =    2.105641 THz    13.230130 2PiTHz   70.236611 cm-1     8.708226 meV
             X         Y         Z           dx          dy          dz
      8.913952  9.534446 17.171927    -0.040907    0.093094   -0.050388
      5.425857  6.781459 17.169841     0.177423    0.060420    0.107931
      8.179993  3.284973 17.173475     0.310831    0.081891    0.023297
     11.667900  6.041430 17.171222     0.341501    0.514113   -0.190060
      8.657177  8.395573 16.299052     0.050462    0.071773   -0.037690
      6.565032  6.518922 16.298912     0.129244    0.013051    0.042751
      8.437177  4.423414 16.300370     0.261781    0.103266    0.008706
     10.529138  6.300860 16.299234     0.201906    0.211095   -0.085437
      8.890400  9.220514 18.224829     0.006510    0.028323   -0.013670
      9.414459  7.761223 16.371005     0.026477    0.034074   -0.012933
      9.888909  9.982165 16.938658    -0.027032    0.054908   -0.024021
      8.127546 10.268704 16.980081    -0.034432    0.004061   -0.008831
      5.738628  6.759801 18.222852     0.075457    0.043881    0.024529
      7.200777  7.274958 16.370336     0.034220    0.003452   -0.007974
      4.981730  7.757262 16.933716     0.040229    0.009465    0.018461
      4.689717  5.996947 16.979406     0.051282    0.008270    0.067489
      8.201626  3.599077 18.226391     0.098712    0.024956    0.006206
      7.679877  5.057508 16.372016     0.062456    0.020895    0.015708
      7.205959  2.836159 16.938969     0.093480    0.009634    0.018711
      8.967158  2.551106 16.983474     0.097538    0.033988   -0.001204
     11.354340  6.064678 18.224187     0.134289    0.160473   -0.044507
      9.895024  5.543695 16.369913     0.086270    0.026699    0.020104
     12.113918  5.065759 16.937256     0.153545    0.171073   -0.042227
     12.403222  6.826658 16.980091     0.041529    0.189228   -0.104636
      0.000000  6.409585  7.500000            0           0           0
      2.136528  0.000000  7.500000            0           0           0
      0.000000  0.000000  9.636528            0           0           0
      2.136528  6.409585  9.636528            0           0           0
      0.000020  6.409597 11.776256            0           0           0
      2.136039 17.091666 11.776908            0           0           0
      0.000067 17.090425 13.895003            0           0           0
      2.135689  6.409549 13.888140            0           0           0
      0.000000  2.136528  7.500000            0           0           0
      2.136528  4.273057  7.500000            0           0           0
      0.000000  4.273057  9.636528            0           0           0
      2.136528  2.136528  9.636528            0           0           0
     17.092195  2.135784 11.776863            0           0           0
      2.136065  4.273583 11.774935            0           0           0
     17.092133  4.271170 13.893709            0           0           0
      2.134543  2.133204 13.893034            0           0           0
      4.273057  6.409585  7.500000            0           0           0
      6.409585  0.000000  7.500000            0           0           0
      4.273057  0.000000  9.636528            0           0           0
      6.409585  6.409585  9.636528            0           0           0
      4.282313  6.408980 11.783589            0           0           0
      6.410027 17.091514 11.774540            0           0           0
      4.269648 17.090199 13.893010            0           0           0
      6.397076  6.407117 13.982182            0           0           0
      4.273057  2.136528  7.500000            0           0           0
      6.409585  4.273057  7.500000            0           0           0
      4.273057  4.273057  9.636528            0           0           0
      6.409585  2.136528  9.636528            0           0           0
      4.272742  2.136637 11.773183            0           0           0
      6.420326  4.284367 11.794299            0           0           0
      4.269192  4.267101 13.877602            0           0           0
      6.403206  2.132393 13.873859            0           0           0
      0.000000 14.955699  7.500000            0           0           0
      2.136528  8.546114  7.500000            0           0           0
      0.000000  8.546114  9.636528            0           0           0
      2.136528 14.955699  9.636528            0           0           0
[...]
     14.955699  8.546114  9.636528            0           0           0
     12.819170  8.546114  7.500000            0           0           0
     14.955699 14.955699  7.500000            0           0           0
     12.822374 14.955735 13.942153            0           0           0
     14.959914  8.550413 13.943702            0           0           0
     12.825937  8.549424 11.769813            0           0           0
     14.956781 14.955698 11.773142            0           0           0
     12.819170 10.682642  9.636528            0           0           0
     14.955699 12.819170  9.636528            0           0           0
     12.819170 12.819170  7.500000            0           0           0
     14.955699 10.682642  7.500000            0           0           0
     12.828376 10.692259 13.940061            0           0           0
     14.958906 12.822380 13.941594            0           0           0
     12.820954 12.821304 11.772442            0           0           0
     14.958122 10.684531 11.772598            0           0           0

 Finite differences POTIM=   1.0000000000000000E-002