 vasp.6.3.0 20Jan22 (build Aug 21 2024 11:13:42) complex
 executed on        HPECrayEX_GCC date 2024.11.26  23:38:03

 INCAR:
   SYSTEM = TiO2
   ISMEAR = 0
   SIGMA = 0.05
   EDIFF = 1E-4
   ALGO = ALL
   ISTART = 0
   IBRION = -1
   NSW = 0
   ISYM = 0
   ISIF = 2
   EDIFFG = -0.01
   DIPOL = 0.5 0.5 0.5
   IDIPOL = 3
   LDIPOL = .TRUE.
   GGA = MK
   LUSE_VDW = .TRUE.
   PARAM1 = 0.1234
   PARAM2 = 0.711357
   ZAB_VDW = -1.8867
   AGGAC = 0.0
   ENCUT = 600
   PREC = Accurate
   LASPH = .TRUE.
   LREAL = .FALSE.
   ISPIN = 1
   NELM = 200
   NELMIN = 8
   NCORE = 16
   KPAR = 1
   LWAVE = .FALSE.
   LCHARG = .FALSE.

 POTCAR:    PAW_PBE H 15Jun2001
 POTCAR:    PAW_PBE O 08Apr2002
 POTCAR:    PAW_PBE Ti_pv 07Sep2000
 POTCAR:    PAW_PBE O 08Apr2002
|               ----> ADVICE to this user running VASP <----                  |
|     You have switched on vdW-DFT.                                           |
|     This routine was written and supplied by Jiri Klimes. We recommend      |
|     that you carefully read and cite the following publications:            |
|       J. Klimes, D.R. Bowler, A. Michelides                                 |
|          J. Phys.: Cond Matt. 22 022201 (2010)                              |
|       J. Klimes, D.R. Bowler, A. Michelides                                 |
|          Phys. Rev. B. 83, 195131 (2011)                                    |
|     and references therein.                                                 |

   TITEL  = PAW_PBE H 15Jun2001
   POMASS =    1.000; ZVAL   =    1.000    mass and valenz
   ENMAX  =  250.000; ENMIN  =  200.000 eV

   TITEL  = PAW_PBE O 08Apr2002
   POMASS =   16.000; ZVAL   =    6.000    mass and valenz
   ENMAX  =  400.000; ENMIN  =  300.000 eV

   TITEL  = PAW_PBE Ti_pv 07Sep2000
   POMASS =   47.880; ZVAL   =   10.000    mass and valenz
   ENMAX  =  222.335; ENMIN  =  166.751 eV

   TITEL  = PAW_PBE O 08Apr2002
   POMASS =   16.000; ZVAL   =    6.000    mass and valenz
   ENMAX  =  400.000; ENMIN  =  300.000 eV

  PAW_PBE H 15Jun2001                   :
  PAW_PBE O 08Apr2002                   :
  PAW_PBE Ti_pv 07Sep2000               :
  PAW_PBE O 08Apr2002                   :

 POSCAR:  H  O Ti  O
  positions in direct lattice
 exchange correlation table for  LEXCH =       43
   RHO(1)=    0.500       N(1)  =     2000
   RHO(2)=  100.500       N(2)  =     4000

 ion  position               nearest neighbor table
   1  0.689  0.568  0.807-   3 0.97
   2  0.689  0.432  0.807-   3 0.97
   3  0.630  0.500  0.807-   2 0.97   1 0.97  51 2.23
   4  0.815  0.833  0.271-  88 1.92  54 1.92  56 1.92  53 1.97  55 1.97  21 3.03   7 3.03   5 3.03

   5  0.598  0.667  0.306- 119 1.92  52 1.92  55 1.92  57 1.92  56 1.97  58 1.97  36 3.03   6 3.03
                             4 3.03  10 3.06
   6  0.315  0.667  0.271- 124 1.92  58 1.92  60 1.92  52 1.97  59 1.97  39 3.03   5 3.03   7 3.03

   7  0.098  0.833  0.306-  91 1.92  53 1.92  59 1.92  61 1.92  54 1.97  60 1.97  22 3.03   4 3.03
                             6 3.03   8 3.06
   8  0.951  0.833  0.414-  96 1.92  64 1.92  62 1.92  54 1.96  61 1.97  63 1.97  11 2.98   9 3.04
                            25 3.04   7 3.06
   9  0.732  0.666  0.446-  57 1.89 127 1.92  63 1.92  65 1.95  66 1.97  64 1.98  10 3.00   8 3.04
                            40 3.04  14 3.08
  10  0.450  0.666  0.413- 132 1.92  68 1.92  66 1.92  58 1.96  67 1.97  57 1.98   9 3.00  11 3.04
                            43 3.04   5 3.06
  11  0.231  0.833  0.447-  61 1.90  99 1.92  67 1.92  62 1.95  69 1.96  68 1.99   8 2.98  26 3.04
                            10 3.04  12 3.08
  12  0.091  0.834  0.557- 104 1.91  70 1.92  72 1.92  71 1.97  69 1.97  62 1.99  15 2.94  13 3.03
                            29 3.04  11 3.08
  13  0.870  0.666  0.585-  65 1.87 135 1.92  71 1.92  74 1.94  73 1.99  72 1.99  14 2.97  12 3.03
                            44 3.05  18 3.14
  14  0.590  0.667  0.555- 140 1.92  76 1.92  74 1.93  66 1.96  75 1.97  65 1.98  13 2.97  15 3.04
                            47 3.05   9 3.08
  15  0.369  0.833  0.587-  69 1.87 107 1.92  75 1.93  70 1.94  77 1.98  76 1.99  12 2.94  30 3.04
                            14 3.04
  16  0.236  0.833  0.703-  78 1.85  80 1.92 112 1.93  79 2.00  77 2.05  70 2.08  19 2.84  33 3.06
                            17 3.08
  17  0.004  0.666  0.725-  73 1.79  81 1.84 143 1.95  79 1.96  80 2.03  18 2.86  16 3.08  48 3.09

[...]

  20  0.815  0.167  0.271-  88 1.92  86 1.92 120 1.92  85 1.97  87 1.97  21 3.03  23 3.03  37 3.03

[...]

  36  0.815  0.500  0.271-  56 1.92 120 1.92 118 1.92 117 1.97 119 1.97  37 3.03   5 3.03  39 3.03

  37  0.598  0.333  0.306- 119 1.92 116 1.92  87 1.92 121 1.92 120 1.97 122 1.97  36 3.03  38 3.03
                            20 3.03  42 3.06
  38  0.315  0.333  0.271- 124 1.92 122 1.92  92 1.92 116 1.97 123 1.97  39 3.03  37 3.03  23 3.03

  39  0.098  0.500  0.306-  59 1.92 123 1.92 117 1.92 125 1.92 118 1.97 124 1.97   6 3.03  38 3.03
                            36 3.03  40 3.05
  40  0.952  0.500  0.413- 128 1.92  64 1.92 126 1.93 125 1.96 118 1.96 127 1.98  43 2.99   9 3.04
                            41 3.04  39 3.05
  41  0.732  0.334  0.446- 121 1.89 127 1.92  95 1.92 129 1.95 130 1.97 128 1.98  42 3.00  24 3.04
                            40 3.04  46 3.08
  42  0.450  0.334  0.413- 132 1.92 100 1.92 130 1.92 122 1.96 131 1.97 121 1.98  41 3.00  27 3.04
                            43 3.04  37 3.06
  43  0.231  0.500  0.448-  67 1.92 131 1.92 125 1.92 126 1.94 133 1.96 132 1.99  40 2.99  10 3.04
                            42 3.04  44 3.05
  44  0.094  0.500  0.557- 134 1.92 136 1.92  72 1.92 133 1.95 135 1.99 126 1.99  47 2.95  13 3.05
                            45 3.05  43 3.05
  45  0.870  0.334  0.585- 129 1.87 135 1.92 103 1.92 138 1.94 137 1.99 136 1.99  46 2.97  28 3.03
                            44 3.05  50 3.14
  46  0.590  0.333  0.555- 140 1.92 108 1.92 138 1.93 130 1.96 139 1.97 129 1.98  45 2.97  31 3.04
                            47 3.05  41 3.08
  47  0.371  0.500  0.590- 133 1.92 139 1.92  75 1.92 134 1.93 141 1.97 140 2.01  44 2.95  14 3.05
                            46 3.05  48 3.11
  48  0.239  0.500  0.703- 142 1.85  80 1.92 144 1.92 141 2.01 143 2.03 134 2.07  51 2.87  49 3.09
                            17 3.09  47 3.11
  49  0.004  0.334  0.725- 137 1.79 145 1.84 143 1.95 111 1.96 144 2.03  50 2.86  32 3.08  48 3.09

  50  0.733  0.334  0.699- 145 1.88 147 1.91 115 1.93 146 1.99 138 2.01 137 2.05  49 2.86  35 3.07
                            51 3.07  45 3.14
  51  0.510  0.500  0.732- 142 1.82 141 1.87  82 1.96 146 1.96 147 2.07   3 2.23  48 2.87  50 3.07
                            18 3.07
  52  0.494  0.667  0.242-   5 1.92   6 1.97
  53  0.994  0.833  0.242-   7 1.92   4 1.97
  54  0.919  0.833  0.336-   4 1.92   8 1.96   7 1.97
  55  0.636  0.833  0.300-  21 1.92   5 1.92   4 1.97
  56  0.778  0.667  0.277-  36 1.92   4 1.92   5 1.97
  57  0.628  0.667  0.383-   9 1.89   5 1.92  10 1.98
  58  0.419  0.667  0.336-   6 1.92  10 1.96   5 1.97
  59  0.136  0.667  0.300-  39 1.92   7 1.92   6 1.97
  60  0.278  0.833  0.277-  22 1.92   6 1.92   7 1.97
  61  0.128  0.833  0.383-  11 1.90   7 1.92   8 1.97
  62  0.055  0.834  0.478-   8 1.92  11 1.95  12 1.99
  63  0.770  0.833  0.441-  25 1.92   9 1.92   8 1.97
  64  0.913  0.667  0.419-   8 1.92  40 1.92   9 1.98
  65  0.767  0.666  0.523-  13 1.87   9 1.95  14 1.98
  66  0.555  0.666  0.478-  10 1.92  14 1.96   9 1.97
  67  0.270  0.667  0.442-  43 1.92  11 1.92  10 1.97
  68  0.412  0.833  0.419-  10 1.92  26 1.92  11 1.99
  69  0.267  0.833  0.524-  15 1.87  11 1.96  12 1.97
  70  0.198  0.833  0.620-  12 1.92  15 1.94  16 2.08
  71  0.909  0.833  0.582-  29 1.92  13 1.92  12 1.97
  72  0.054  0.667  0.561-  44 1.92  12 1.92  13 1.99
  73  0.914  0.668  0.663-  17 1.79  13 1.99  18 2.05
  74  0.699  0.669  0.619-  14 1.93  13 1.94  18 2.01
  75  0.410  0.667  0.584-  47 1.92  15 1.93  14 1.97
  76  0.552  0.833  0.560-  30 1.92  14 1.92  15 1.99
  77  0.413  0.835  0.664-  19 1.79  15 1.98  16 2.05
  78  0.350  0.833  0.760-  19 1.83  16 1.85
  79  0.056  0.833  0.734-  33 1.96  17 1.96  16 2.00
  80  0.196  0.666  0.704-  16 1.92  48 1.92  17 2.03
  81  0.845  0.661  0.759-  17 1.84  18 1.88
  82  0.559  0.669  0.734-  19 1.95  51 1.96  18 1.99
  83  0.696  0.834  0.701-  34 1.92  18 1.93  19 2.03
  84  0.494  0.000  0.242-  21 1.92  22 1.97
  85  0.994  0.167  0.242-  23 1.92  20 1.97
  86  0.919  0.167  0.336-  20 1.92  24 1.96  23 1.97
  87  0.636  0.167  0.300-  21 1.92  37 1.92  20 1.97
  88  0.778  0.000  0.277-   4 1.92  20 1.92  21 1.97
  89  0.628  0.000  0.383-  25 1.89  21 1.92  26 1.98
  90  0.419  0.000  0.336-  22 1.92  26 1.96  21 1.97
  91  0.136  0.000  0.300-   7 1.92  23 1.92  22 1.97
  92  0.278  0.167  0.277-  22 1.92  38 1.92  23 1.97
  93  0.128  0.167  0.383-  27 1.90  23 1.92  24 1.97
  94  0.055  0.166  0.478-  24 1.92  27 1.95  28 1.99
  95  0.770  0.167  0.441-  25 1.92  41 1.92  24 1.97
  96  0.913  0.000  0.419-  24 1.92   8 1.92  25 1.99
  97  0.766  0.000  0.524-  29 1.87  25 1.95  30 1.98
  98  0.555  0.000  0.478-  26 1.92  25 1.96  30 1.98
  99  0.270  0.000  0.442-  27 1.92  11 1.92  26 1.97
 100  0.412  0.167  0.419-  42 1.92  26 1.92  27 1.99
 101  0.267  0.167  0.524-  31 1.87  27 1.96  28 1.97
 102  0.198  0.167  0.620-  28 1.92  31 1.94  32 2.08
 103  0.909  0.167  0.582-  29 1.92  45 1.92  28 1.97
 104  0.054  0.000  0.561-  28 1.91  12 1.91  29 2.00
 105  0.914  1.000  0.664-  33 1.79  29 1.99  34 2.05
 106  0.698  0.000  0.619-  30 1.92  29 1.93  34 2.07
 107  0.409  0.000  0.583-  31 1.92  15 1.92  30 1.97
 108  0.552  0.167  0.560-  30 1.92  46 1.92  31 1.99
 109  0.413  0.165  0.664-  35 1.79  31 1.98  32 2.05
 110  0.350  0.167  0.760-  35 1.83  32 1.85
 111  0.056  0.167  0.734-  33 1.96  49 1.96  32 2.00
[...]
 133  0.268  0.500  0.525-  47 1.92  44 1.95  43 1.96
 134  0.198  0.500  0.621-  44 1.92  47 1.93  48 2.07
 135  0.910  0.500  0.582-  13 1.92  45 1.92  44 1.99
 136  0.054  0.333  0.561-  44 1.92  28 1.92  45 1.99
 137  0.914  0.332  0.663-  49 1.79  45 1.99  50 2.05
 138  0.699  0.331  0.619-  46 1.93  45 1.94  50 2.01
 139  0.410  0.333  0.584-  47 1.92  31 1.93  46 1.97
 140  0.553  0.500  0.561-  46 1.92  14 1.92  47 2.01
 141  0.415  0.500  0.668-  51 1.87  47 1.97  48 2.01
 142  0.348  0.500  0.763-  51 1.82  48 1.85
 143  0.056  0.500  0.734-  49 1.95  17 1.95  48 2.03
 144  0.196  0.334  0.704-  32 1.92  48 1.92  49 2.03
 145  0.845  0.339  0.759-  49 1.84  50 1.88
 146  0.559  0.331  0.734-  35 1.95  51 1.96  50 1.99
 147  0.693  0.500  0.697-  50 1.91  18 1.91  51 2.07

IMPORTANT INFORMATION: All symmetrisations will be switched off!
NOSYMM: (Re-)initialisation of all symmetry stuff for point group C_1.

                                     Primitive cell

  volume of cell :    2859.6974

  direct lattice vectors                    reciprocal lattice vectors
    10.250982430  0.000000000  0.000000000     0.097551626 -0.000000000  0.000000000
     0.000000000 11.253211329  0.000000000     0.000000000  0.088863523  0.000000000
[...]
  10.18979981  9.37767611  6.00000000
   9.42163298  9.37767611  8.31734428
   6.51573662  9.37767611  7.44461542
   7.97020496  7.50214089  6.87272885
   6.43691162  7.50214089  9.49091541
   4.29614176  7.50214089  8.31734428
   1.39024540  7.50214089  7.44461542
   2.84471375  9.37767611  6.87272885
[...]
   2.75220804  5.62660553 13.02053342
   2.03329200  5.62660546 15.39841410
   9.32724583  5.62660508 14.43727563
   0.55803563  3.75285298 13.89782538
   9.37341874  3.73800389 16.44338749
   7.16476205  3.72381186 15.33465632
   4.20190628  3.75269955 14.47315309
   5.67301139  5.62660528 13.91598121
   4.25364867  5.62660279 16.54817458
   3.57217966  5.62660699 18.90589203
   0.57166257  5.62660567 18.19814208
   2.00594546  3.75549819 17.44870248
   8.66176150  3.81525238 18.81338165
   5.72690665  3.72990691 18.18695852
   7.10386425  5.62660425 17.28553124

--------------------------------------- Iteration      FINAL  ---------------------------------------

--------------------OUTCAR has been truncated-------------------------

[...]

--------------------OUTCAR has been truncated-------------------------

  FORCE on cell =-STRESS in cart. coord.  units (eV):
  Direction    XX          YY          ZZ          XY          YZ          ZX
  Alpha Z  2785.22319  2785.22319  2785.22319
  Ewald  332945.09870326129.82761************    -0.00172    -0.00071 -2076.84622
  Hartree354837.96309350707.31174************    -0.00024     0.00009 -1358.46343
  E(xc)   -5205.54900 -5206.26262 -5205.16457    -0.00000    -0.00000    -0.42166
  Local  ************************696870.67813     0.00123     0.00047  3443.38969
  n-local -3320.27964 -3287.13791 -3333.12729     0.00018    -0.00000     1.07184
  augment  3154.07846  3149.64263  3143.90519     0.00001     0.00000    -2.14026
  Kinetic 17201.41585 17245.77345 17317.23029    -0.00004     0.00025   -22.01000
  Fock        0.00000     0.00000     0.00000     0.00000     0.00000     0.00000
  Total      18.22263    47.14813    32.30648    -0.00059     0.00011   -15.42004
  in kB      10.20943    26.41526    18.10006    -0.00033     0.00006    -8.63925

 VOLUME and BASIS-vectors are now :
  energy-cutoff  :      600.00
  volume of cell :     2859.70
      direct lattice vectors                 reciprocal lattice vectors
    10.250982430  0.000000000  0.000000000     0.097551626 -0.000000000  0.000000000
     0.000000000 11.253211329  0.000000000     0.000000000  0.088863523  0.000000000
     0.000000000  0.000000000 24.790090512     0.000000000  0.000000000  0.040338699

  length of vectors
    10.250982430 11.253211329 24.790090512     0.097551626  0.088863523  0.040338699

 FORCES acting on ions:
    Electron-Ion                     Ewald-Force                    Non-Local-Force
   -.520E+02 -.672E+02 -.312E+03   0.575E+02 0.745E+02 0.312E+03   -.511E+01 -.686E+01 0.276E-01
   -.520E+02 0.672E+02 -.312E+03   0.575E+02 -.746E+02 0.312E+03   -.511E+01 0.686E+01 0.275E-01
   0.967E+01 -.287E-02 -.189E+04   -.513E+02 0.459E-02 0.190E+04   0.410E+02 -.594E-03 -.843E+01
   0.422E+01 -.217E+00 0.300E+04   0.606E+00 0.219E+00 -.300E+04   -.965E+00 -.357E-03 -.311E+01
   0.494E+01 -.259E+00 0.246E+04   -.643E+01 0.261E+00 -.246E+04   -.173E+00 -.819E-03 -.107E+00
   0.457E+01 0.161E-01 0.300E+04   0.220E+00 -.190E-01 -.300E+04   -.962E+00 0.906E-03 -.311E+01
   0.347E+01 0.316E-01 0.246E+04   -.500E+01 -.379E-01 -.246E+04   -.166E+00 0.142E-02 -.111E+00
   0.419E+00 -.140E+00 0.112E+04   -.587E+00 0.134E+00 -.112E+04   0.183E+00 0.140E-02 0.411E-01
   0.922E+00 -.185E+01 0.708E+03   -.836E+00 0.184E+01 -.708E+03   -.765E-01 0.162E-01 -.128E+00
   0.303E+01 -.122E+00 0.112E+04   -.319E+01 0.122E+00 -.112E+04   0.166E+00 0.388E-02 0.183E-01
   -.477E+01 0.451E+00 0.697E+03   0.486E+01 -.454E+00 -.697E+03   -.744E-01 0.760E-03 -.121E+00
   -.489E+01 -.261E+01 -.694E+03   0.459E+01 0.260E+01 0.694E+03   0.316E+00 0.591E-02 0.129E+00
   -.115E+02 -.411E+01 -.103E+04   0.117E+02 0.415E+01 0.103E+04   -.141E+00 -.390E-01 -.229E+00
   0.444E+01 -.250E+01 -.662E+03   -.469E+01 0.249E+01 0.662E+03   0.263E+00 0.514E-02 0.801E-01
   0.232E+01 -.218E+01 -.107E+04   -.213E+01 0.218E+01 0.107E+04   -.162E+00 -.850E-02 -.282E+00
   0.306E+02 -.118E+02 -.247E+04   -.315E+02 0.118E+02 0.247E+04   0.942E+00 0.789E-02 0.145E-01
   -.816E+02 -.273E+02 -.282E+04   0.819E+02 0.272E+02 0.282E+04   -.213E+00 0.155E+00 0.657E+00
   -.112E+02 -.530E+02 -.237E+04   0.104E+02 0.531E+02 0.237E+04   0.789E+00 -.528E-01 0.129E+00
   -.492E+02 -.366E+02 -.282E+04   0.494E+02 0.365E+02 0.282E+04   -.164E+00 0.260E-01 0.686E+00
   0.422E+01 0.217E+00 0.300E+04   0.606E+00 -.219E+00 -.300E+04   -.965E+00 0.386E-03 -.311E+01
   0.482E+01 0.392E-05 0.246E+04   -.634E+01 0.296E-04 -.246E+04   -.167E+00 -.177E-05 -.113E+00
   0.441E+01 -.156E-03 0.300E+04   0.404E+00 0.186E-04 -.300E+04   -.964E+00 -.199E-04 -.311E+01
   0.347E+01 -.317E-01 0.246E+04   -.500E+01 0.380E-01 -.246E+04   -.166E+00 -.146E-02 -.111E+00
   0.419E+00 0.140E+00 0.112E+04   -.587E+00 -.134E+00 -.112E+04   0.183E+00 -.141E-02 0.411E-01
   -.151E+01 -.117E-03 0.703E+03   0.158E+01 0.120E-03 -.703E+03   -.545E-01 -.288E-05 -.129E+00
   0.260E+01 -.208E-04 0.112E+04   -.276E+01 0.505E-04 -.112E+04   0.173E+00 -.199E-05 0.294E-01
   -.477E+01 -.451E+00 0.697E+03   0.486E+01 0.454E+00 -.697E+03   -.744E-01 -.751E-03 -.121E+00
   -.489E+01 0.261E+01 -.694E+03   0.459E+01 -.260E+01 0.694E+03   0.316E+00 -.593E-02 0.129E+00
   -.806E+01 -.243E-05 -.106E+04   0.822E+01 0.158E-04 0.106E+04   -.130E+00 -.475E-05 -.248E+00
   -.928E-01 0.102E-03 -.683E+03   -.199E+00 -.856E-04 0.683E+03   0.301E+00 -.579E-05 0.145E+00
   0.232E+01 0.218E+01 -.107E+04   -.213E+01 -.218E+01 0.107E+04   -.162E+00 0.850E-02 -.282E+00
   0.306E+02 0.118E+02 -.247E+04   -.315E+02 -.118E+02 0.247E+04   0.942E+00 -.789E-02 0.145E-01
   -.680E+02 -.462E-04 -.283E+04   0.683E+02 -.131E-04 0.283E+04   -.228E+00 -.159E-04 0.659E+00
   0.114E+02 0.921E-04 -.246E+04   -.123E+02 -.291E-04 0.246E+04   0.874E+00 0.720E-05 0.633E-01
   -.492E+02 0.366E+02 -.282E+04   0.494E+02 -.365E+02 0.282E+04   -.164E+00 -.260E-01 0.686E+00
   0.416E+01 0.278E-05 0.300E+04   0.674E+00 -.203E-04 -.300E+04   -.966E+00 0.597E-05 -.311E+01
   0.494E+01 0.259E+00 0.246E+04   -.643E+01 -.261E+00 -.246E+04   -.173E+00 0.818E-03 -.107E+00
   0.457E+01 -.161E-01 0.300E+04   0.220E+00 0.190E-01 -.300E+04   -.962E+00 -.917E-03 -.311E+01
   0.257E+01 0.409E-04 0.246E+04   -.407E+01 -.169E-04 -.246E+04   -.181E+00 0.297E-05 -.108E+00
   0.273E+00 0.115E-03 0.112E+04   -.448E+00 -.906E-04 -.112E+04   0.182E+00 0.175E-04 0.730E-01
   0.921E+00 0.185E+01 0.708E+03   -.836E+00 -.184E+01 -.708E+03   -.765E-01 -.162E-01 -.128E+00
   0.303E+01 0.122E+00 0.112E+04   -.319E+01 -.122E+00 -.112E+04   0.166E+00 -.388E-02 0.183E-01
   -.707E+01 0.631E-05 0.683E+03   0.719E+01 -.122E-04 -.683E+03   -.964E-01 0.449E-05 -.308E-01
   -.359E+01 0.162E-03 -.697E+03   0.332E+01 -.161E-03 0.696E+03   0.267E+00 0.862E-05 0.132E+00
   -.115E+02 0.411E+01 -.103E+04   0.117E+02 -.415E+01 0.103E+04   -.141E+00 0.391E-01 -.229E+00
   0.444E+01 0.250E+01 -.662E+03   -.469E+01 -.249E+01 0.662E+03   0.263E+00 -.514E-02 0.801E-01
   0.174E+01 -.173E-03 -.110E+04   -.154E+01 0.177E-03 0.110E+04   -.173E+00 -.519E-05 -.136E+00
   0.456E+02 -.245E-03 -.246E+04   -.464E+02 0.205E-03 0.246E+04   0.751E+00 -.494E-05 0.700E-01
   -.816E+02 0.273E+02 -.282E+04   0.819E+02 -.272E+02 0.282E+04   -.213E+00 -.155E+00 0.657E+00
   -.112E+02 0.530E+02 -.237E+04   0.104E+02 -.531E+02 0.237E+04   0.789E+00 0.528E-01 0.129E+00
   0.439E+02 -.826E-03 -.276E+04   -.433E+02 0.725E-03 0.276E+04   -.567E+00 -.129E-04 0.275E+00
   -.332E+02 -.160E+00 0.203E+04   0.380E+02 0.160E+00 -.204E+04   -.650E+01 -.488E-03 0.170E+02
   -.337E+02 -.145E+00 0.203E+04   0.385E+02 0.144E+00 -.205E+04   -.650E+01 0.155E-02 0.169E+02
   0.835E+02 0.309E-01 0.122E+04   -.881E+02 -.390E-01 -.122E+04   0.336E+01 0.691E-02 -.420E+01
   0.755E+02 -.123E+00 0.149E+04   -.823E+02 0.126E+00 -.149E+04   0.693E+01 -.521E-02 -.242E+01
   -.877E+02 -.162E+00 0.172E+04   0.947E+02 0.161E+00 -.172E+04   -.647E+01 0.182E-02 -.216E+00
   -.738E+02 -.800E+00 0.938E+03   0.796E+02 0.837E+00 -.942E+03   -.568E+01 -.328E-01 0.395E+01
   0.844E+02 0.110E+00 0.122E+04   -.890E+02 -.935E-01 -.122E+04   0.332E+01 -.198E-01 -.404E+01
   0.746E+02 0.803E-01 0.149E+04   -.814E+02 -.874E-01 -.149E+04   0.695E+01 0.175E-01 -.244E+01
   -.877E+02 -.321E-01 0.172E+04   0.947E+02 0.337E-01 -.172E+04   -.644E+01 -.589E-02 -.219E+00
[...]
   0.926E+02 -.362E-04 -.963E+03   -.998E+02 0.434E-04 0.970E+03   0.695E+01 0.513E-07 -.691E+01
   0.686E+02 0.198E-03 -.633E+03   -.743E+02 -.200E-03 0.636E+03   0.548E+01 0.776E-05 -.273E+01
   -.833E+02 0.844E+00 -.411E+03   0.895E+02 -.863E+00 0.408E+03   -.593E+01 0.155E-01 0.235E+01
   -.784E+02 0.145E+02 -.113E+04   0.812E+02 -.150E+02 0.112E+04   -.257E+01 0.561E+00 0.910E+01
   0.847E+02 0.151E+02 -.924E+03   -.912E+02 -.157E+02 0.929E+03   0.632E+01 0.611E+00 -.533E+01
   0.806E+02 0.147E+01 -.647E+03   -.867E+02 -.152E+01 0.650E+03   0.584E+01 0.386E-01 -.282E+01
   -.726E+02 0.772E-04 -.411E+03   0.784E+02 -.728E-04 0.409E+03   -.558E+01 0.530E-05 0.195E+01
   -.600E+02 0.605E-03 -.115E+04   0.657E+02 -.636E-03 0.115E+04   -.542E+01 0.475E-04 0.630E+01
   0.112E+03 -.656E-03 -.202E+04   -.118E+03 0.699E-03 0.204E+04   0.602E+01 -.396E-04 -.207E+02
   0.409E+02 -.489E-03 -.178E+04   -.441E+02 0.516E-03 0.179E+04   0.305E+01 0.167E-05 -.719E+01
   -.517E+02 0.756E+01 -.147E+04   0.564E+02 -.744E+01 0.146E+04   -.452E+01 -.120E+00 0.260E+01
   0.375E+01 0.372E+02 -.201E+04   -.877E+01 -.369E+02 0.203E+04   0.496E+01 -.233E+00 -.188E+02
   0.823E+02 0.568E+02 -.173E+04   -.866E+02 -.568E+02 0.174E+04   0.419E+01 -.918E-01 -.660E+01
   -.588E+02 -.539E-03 -.133E+04   0.621E+02 0.558E-03 0.132E+04   -.307E+01 0.178E-06 0.517E+01
   -.333E+02 0.685E-04 0.724E+02   0.156E-12 0.150E-11 -.141E-10   0.333E+02 0.103E-03 -.725E+02

 POSITION                                       TOTAL-FORCE (eV/Angst)
      7.05788      6.39339     19.99423         0.381087      0.503403      0.020453
      7.05787      4.85984     19.99423         0.381918     -0.504505      0.020442
      6.46285      5.62660     20.00360        -0.678137      0.001129      0.113769
      8.35277      9.37768      6.72231         3.881257      0.001490      1.370496
      6.13317      7.50214      7.59504        -1.668607      0.001132     -2.002547
      3.22728      7.50214      6.72231         3.851032     -0.002034      1.349875
      1.00768      9.37768      7.59504        -1.704981     -0.004942     -2.006464
      9.74404      9.37891     10.25231         0.019805     -0.003190     -0.002798
      7.49860      7.49864     11.05855        -0.005497     -0.000649     -0.009302
      4.61100      7.50016     10.24801         0.015740      0.002071     -0.008231
      2.36301      9.37744     11.07230        -0.007032     -0.001831     -0.006675
      0.93593      9.37978     13.79874         0.012514     -0.000272      0.001969
      8.91709      7.49844     14.50936        -0.024250     -0.003155     -0.014660
      6.04317      7.50062     13.76945         0.011896     -0.001655      0.002582
      3.77817      9.37781     14.54729        -0.013795     -0.001684     -0.011020
      2.41416      9.37057     17.41649         0.030585     -0.001042      0.081179
      0.04528      7.49173     17.97724        -0.119197      0.012368      0.059112
      7.51802      7.49260     17.31685         0.003331      0.008026      0.042985
      5.20142      9.38785     17.98095        -0.145087      0.011202      0.080969
      8.35277      1.87554      6.72231         3.881312     -0.001306      1.370480
      6.13317      0.00000      7.59504        -1.691157      0.000031     -2.001313
      3.22728      0.00000      6.72231         3.874611     -0.000160      1.364232
      1.00768      1.87554      7.59504        -1.704993      0.004785     -2.006642
      9.74404      1.87430     10.25231         0.019784      0.003187     -0.002736
      7.49206     11.25321     11.06343        -0.003580     -0.000001     -0.007247
      4.61327      0.00000     10.25163         0.016498      0.000027     -0.007401
      2.36301      1.87578     11.07231        -0.007039      0.001857     -0.006696
      0.93593      1.87343     13.79874         0.012516      0.000237      0.001962
      8.90392     11.25321     14.52581        -0.016569      0.000008     -0.007526
      6.04922      0.00000     13.78520         0.012146      0.000010      0.008686
      3.77817      1.87540     14.54729        -0.013797      0.001684     -0.010995
      2.41416      1.88264     17.41649         0.030633      0.001076      0.081172
      0.06895     11.25321     17.97711        -0.149650     -0.000077      0.075800
      7.54871     11.25321     17.38509         0.023050      0.000069      0.091796
      5.20142      1.86536     17.98096        -0.145117     -0.011145      0.080865
      8.35277      5.62661      6.72231         3.891898     -0.000013      1.368030
      6.13317      3.75107      7.59504        -1.668671     -0.001185     -2.002557
      3.22728      3.75107      6.72231         3.851115      0.001944      1.349970
      1.00768      5.62661      7.59504        -1.681709      0.000026     -1.939732
      9.75673      5.62661     10.24849         0.018161      0.000041      0.002814
      7.49860      3.75457     11.05855        -0.005523      0.000663     -0.009314
      4.61100      3.75305     10.24801         0.015771     -0.002042     -0.008263
      2.36698      5.62661     11.09929        -0.005513     -0.000003      0.010492
      0.96306      5.62660     13.80542         0.015680      0.000008      0.016001
      8.91709      3.75477     14.50937        -0.024267      0.003221     -0.014666
      6.04317      3.75260     13.76945         0.011881      0.001647      0.002567
      3.79843      5.62661     14.62785        -0.008523     -0.000003      0.034856
      2.44790      5.62661     17.43052         0.022173     -0.000046      0.101986
      0.04529      3.76148     17.97724        -0.119545     -0.012398      0.058880
      7.51803      3.76061     17.31685         0.003386     -0.008028      0.043037
      5.22541      5.62660     18.14861        -0.134265     -0.000115      0.146197
      5.06431      7.50214      6.00000        -1.711262      0.000014      0.608753
     10.18980      9.37768      6.00000        -1.705487      0.000388      0.603008
      9.42163      9.37768      8.31734        -1.265638     -0.001231      0.026569
      6.51574      9.37768      7.44462         0.135623     -0.002602      0.040315
      7.97020      7.50214      6.87273         0.520465      0.000671     -1.162626
      6.43691      7.50214      9.49092         0.166169      0.004634      0.418004
      4.29614      7.50214      8.31734        -1.273510     -0.002992      0.028713
      1.39025      7.50214      7.44462         0.146904      0.010340      0.032941
      2.84471      9.37768      6.87273         0.531476     -0.004292     -1.164670
[...]
      2.75221      5.62661     13.02053         0.235756     -0.000008     -0.119458
      2.03329      5.62661     15.39841        -0.248673      0.000006      0.158149
      9.32725      5.62661     14.43728        -0.217376      0.000004      0.088797
      0.55804      3.75285     13.89783         0.220960     -0.003801     -0.088022
      9.37342      3.73800     16.44339         0.260738     -0.005875      0.008456
      7.16476      3.72381     15.33466        -0.221209     -0.015545      0.150201
      4.20191      3.75270     14.47315        -0.212892     -0.007511      0.094080
      5.67301      5.62661     13.91598         0.223664      0.000009     -0.082450
      4.25365      5.62660     16.54817         0.224317      0.000015     -0.116747
      3.57218      5.62661     18.90589        -0.079689      0.000002      0.250627
      0.57166      5.62661     18.19814        -0.153961      0.000028      0.152354
      2.00595      3.75550     17.44870         0.186272      0.000841     -0.108190
      8.66176      3.81525     18.81338        -0.056283      0.022054      0.291014
      5.72691      3.72991     18.18696        -0.157757     -0.002005      0.152006
      7.10386      5.62660     17.28553         0.167067      0.000018     -0.148475
    total drift:                                0.001304      0.000172     -0.075892

  FREE ENERGIE OF THE ION-ELECTRON SYSTEM (eV)
  free  energy   TOTEN  =     -1057.35225135 eV

  energy  without entropy=    -1057.35225135  energy(sigma->0) =    -1057.35225135