 vasp.6.4.2 20Jul23 (build Feb 22 2024 13:53:45) complex
 executed on              LinuxNV date 2024.08.27  19:01:41
 OpenACC runtime initialized ...    4 GPUs detected

 INCAR:
   SYSTEM = Oxide-Surface
   ISMEAR = 0
   SIGMA = 0.05
   EDIFF = 1E-5
   ALGO = Normal
   IBRION = -1
   NSW = 0
   ISYM = 0
   DIPOL = 0.5 0.5 0.5
   IDIPOL = 3
   LDIPOL = .TRUE.
   ISTART = 1
   GGA = MK
   LUSE_VDW = .TRUE.
   PARAM1 = 0.1234
   PARAM2 = 0.711357
   ZAB_VDW = -1.8867
   AGGAC = 0.0
   ENCUT = 1000
   PREC = Normal
   PRECFOCK = Normal
   LASPH = .TRUE.
   LREAL = Auto
   ISPIN = 1
   NELM = 200
   NELMIN = 8
   NCORE = 1
   KPAR = 1
   LWAVE = .FALSE.
   LCHARG = .FALSE.

 POTCAR:    PAW_PBE H_h 06Feb2004
 POTCAR:    PAW_PBE O_h 06Feb2004
 POTCAR:    PAW_PBE Mg_sv 12Apr2007
 POTCAR:    PAW_PBE O_h 06Feb2004
|               ----> ADVICE to this user running VASP <----                  |
|     You have switched on vdW-DFT.                                           |
|     This routine was written and supplied by Jiri Klimes. We recommend      |
|     that you carefully read and cite the following publications:            |
|       J. Klimes, D.R. Bowler, A. Michelides                                 |
|          J. Phys.: Cond Matt. 22 022201 (2010)                              |
|       J. Klimes, D.R. Bowler, A. Michelides                                 |
|          Phys. Rev. B. 83, 195131 (2011)                                    |
|     and references therein.                                                 |

   TITEL  = PAW_PBE H_h 06Feb2004
   POMASS =    1.000; ZVAL   =    1.000    mass and valenz
   ENMAX  =  700.000; ENMIN  =  350.000 eV

[...]

   TITEL  = PAW_PBE Mg_sv 12Apr2007
   POMASS =   24.305; ZVAL   =   10.000    mass and valenz
   ENMAX  =  495.223; ENMIN  =  371.417 eV

   TITEL  = PAW_PBE O_h 06Feb2004
   POMASS =   16.000; ZVAL   =    6.000    mass and valenz
   ENMAX  =  700.000; ENMIN  =  500.000 eV

 Optimization of the real space projectors (new method)

 maximal supplied QI-value         = 47.24
 optimisation between [QCUT,QGAM] = [ 16.06, 32.13] = [ 72.25,289.00] Ry
 Optimized for a Real-space Cutoff    0.82 Angstroem

   l    n(q)    QCUT    max X(q) W(low)/X(q) W(high)/X(q)  e(spline)
   0      8    16.063    34.671    0.37E-03    0.85E-03    0.24E-06
   0      8    16.063    17.046    0.36E-03    0.82E-03    0.23E-06
   1      7    16.063     1.978    0.22E-03    0.92E-04    0.15E-06
 Optimization of the real space projectors (new method)

[...]

   l    n(q)    QCUT    max X(q) W(low)/X(q) W(high)/X(q)  e(spline)
   0      9    16.140     8.730    0.14E-04    0.12E-04    0.27E-07
   0      9    16.140     8.910    0.19E-04    0.17E-04    0.41E-07
   1      9    16.140     2.513    0.16E-04    0.28E-04    0.54E-07
   1      9    16.140     3.341    0.27E-04    0.13E-03    0.17E-06
   2      9    16.140     3.683    0.18E-03    0.21E-03    0.81E-07
 Optimization of the real space projectors (new method)

 maximal supplied QI-value         = 34.20
 optimisation between [QCUT,QGAM] = [ 16.08, 32.15] = [ 72.37,289.48] Ry
 Optimized for a Real-space Cutoff    0.71 Angstroem

   l    n(q)    QCUT    max X(q) W(low)/X(q) W(high)/X(q)  e(spline)
   0      7    16.076   280.207    0.42E-03    0.69E-03    0.60E-07
   0      7    16.076   228.978    0.42E-03    0.69E-03    0.61E-07
   1      6    16.076    86.127    0.11E-03    0.66E-03    0.10E-06
   1      6    16.076    65.368    0.11E-03    0.65E-03    0.10E-06
|               ----> ADVICE to this user running VASP <----                  |
|     You enforced a specific xc type in the INCAR file but a different       |
|     type was found in the POTCAR file.                                      |
|     I HOPE YOU KNOW WHAT YOU ARE DOING!                                     |

  PAW_PBE H_h 06Feb2004                 :
  PAW_PBE O_h 06Feb2004                 :
  PAW_PBE Mg_sv 12Apr2007               :
  PAW_PBE O_h 06Feb2004                 :

 POSCAR:  H  O Mg  O
  positions in direct lattice
 exchange correlation table for  LEXCH =       43
   RHO(1)=    0.500       N(1)  =     2000
   RHO(2)=  100.500       N(2)  =     4000

 ion  position               nearest neighbor table
   1  0.617  0.554  0.761-   3 0.97
   2  0.510  0.673  0.712-   3 1.01
   3  0.508  0.572  0.744-   1 0.97   2 1.01
   4  0.000  0.750  0.239-
   5  0.250  0.000  0.239-
   6  0.000  0.000  0.364-
   7  0.250  0.750  0.364-
   8  0.000  0.750  0.488-
   9  0.250  0.000  0.488-
  10  0.000  0.000  0.612-
  11  0.248  0.750  0.612-
  12  0.000  0.250  0.239-
  13  0.250  0.500  0.239-
  14  0.000  0.500  0.364-
  15  0.250  0.250  0.364-
  16  0.000  0.250  0.488-
  17  0.251  0.500  0.489-
  18  0.001  0.500  0.612-
  19  0.249  0.250  0.612-
  20  0.500  0.750  0.239-
  21  0.750  0.000  0.239-
  22  0.500  0.000  0.364-
  23  0.750  0.750  0.364-
  24  0.500  0.749  0.489-
  25  0.750  0.000  0.488-
  26  0.500  0.002  0.612-
  27  0.753  0.751  0.611-
  28  0.500  0.250  0.239-
  29  0.750  0.500  0.239-
  30  0.500  0.500  0.364-
  31  0.750  0.250  0.364-
  32  0.500  0.251  0.489-
  33  0.749  0.500  0.489-
  34  0.498  0.494  0.618-
  35  0.751  0.250  0.612-
  36  0.000  0.750  0.364-
  37  0.250  0.000  0.364-
  38  0.000  0.000  0.239-
  39  0.250  0.750  0.239-
  40  1.000  0.750  0.615-
  41  0.249  1.000  0.615-
  42  1.000  1.000  0.488-
  43  0.251  0.750  0.488-
  44  0.000  0.250  0.364-
  45  0.250  0.500  0.364-
  46  0.000  0.500  0.239-
  47  0.250  0.250  0.239-
  48  1.000  0.250  0.615-
  49  0.248  0.500  0.613-
  50  1.000  0.500  0.488-
  51  0.250  0.250  0.488-
  52  0.500  0.750  0.364-
  53  0.750  0.000  0.364-
  54  0.500  0.000  0.239-
  55  0.750  0.750  0.239-
  56  0.500  0.754  0.618-
  57  0.751  1.000  0.615-
  58  0.500  0.999  0.488-
  59  0.749  0.750  0.488-
  60  0.500  0.250  0.364-
  61  0.750  0.500  0.364-
  62  0.500  0.500  0.239-
  63  0.750  0.250  0.239-
  64  0.500  0.248  0.615-
  65  0.752  0.500  0.615-
  66  0.500  0.501  0.489-
  67  0.750  0.250  0.488-

IMPORTANT INFORMATION: All symmetrisations will be switched off!
NOSYMM: (Re-)initialisation of all symmetry stuff for point group C_1.

                                     Primitive cell

  volume of cell :    1211.2538

  direct lattice vectors                    reciprocal lattice vectors
     8.440984654  0.000000000  0.000000000     0.118469591  0.000000000  0.000000000
     0.000000000  8.440984654  0.000000000     0.000000000  0.118469591  0.000000000
     0.000000000  0.000000000 17.000000000     0.000000000  0.000000000  0.058823529

  length of vectors
     8.440984654  8.440984654 17.000000000     0.118469591  0.118469591  0.058823529

  position of ions in fractional coordinates (direct lattice)
     0.616832100  0.554429713  0.760553841
     0.510014054  0.672845498  0.712302790
     0.507589782  0.572189385  0.744476833
     0.000084749  0.750056171  0.239446159
     0.250084749  0.000056171  0.239446159
     0.000084749  0.000056171  0.363578286
     0.250084749  0.750056171  0.363578286
     0.000292034  0.749824964  0.488119943
     0.250127698  0.000181851  0.488431874
     0.000158555  0.000466213  0.612094268
     0.247767905  0.749974041  0.611893376
     0.000084749  0.250056171  0.239446159
     0.250084749  0.500056171  0.239446159
     0.000084749  0.500056171  0.363578286
     0.250084749  0.250056171  0.363578286
     0.000116012  0.250196651  0.488268359
     0.250770752  0.499798843  0.488884857
     0.000510418  0.499570052  0.611813977
     0.249067721  0.249912005  0.612281031
     0.500084749  0.750056171  0.239446159
     0.750084749  0.000056171  0.239446159
     0.500084749  0.000056171  0.363578286
     0.750084749  0.750056171  0.363578286
     0.499810778  0.749036438  0.488828048
     0.749862546  0.000340508  0.488298782
     0.499761848  0.002048857  0.612169767
     0.752549470  0.750728058  0.610753521
     0.500084749  0.250056171  0.239446159
     0.750084749  0.500056171  0.239446159
     0.500084749  0.500056171  0.363578286
     0.750084749  0.250056171  0.363578286
     0.499866424  0.250603695  0.488721432
     0.749099841  0.499734903  0.488964189
     0.498205335  0.493574688  0.618100110
     0.750753975  0.249613073  0.611923847
     0.000084749  0.750056171  0.363578286
     0.250084749  0.000056171  0.363578286
     0.000084749  0.000056171  0.239446159
     0.250084749  0.750056171  0.239446159
     0.999857188  0.750394105  0.614566772
     0.249346556  0.999943829  0.614781797
     0.999915251  0.999830927  0.487959860
     0.250643896  0.750289407  0.488342652
     0.000084749  0.250056171  0.363578286
     0.250084749  0.500056171  0.363578286
     0.000084749  0.500056171  0.239446159
     0.250084749  0.250056171  0.239446159
     0.999828427  0.249634011  0.614770607
     0.248265660  0.500148340  0.613489608
     0.999666695  0.500164134  0.487824047
     0.249993932  0.249673109  0.488045416
     0.500084749  0.750056171  0.363578286
     0.750084749  0.000056171  0.363578286
     0.500084749  0.000056171  0.239446159
     0.750084749  0.750056171  0.239446159
     0.500208490  0.754444867  0.617976523
     0.750578969  0.999922121  0.614742452
     0.500080035  0.999350643  0.488242651
     0.749413318  0.750087637  0.488265164
     0.500084749  0.250056171  0.363578286
     0.750084749  0.500056171  0.363578286
     0.500084749  0.500056171  0.239446159
     0.750084749  0.250056171  0.239446159
     0.500099799  0.247787997  0.614504174
     0.751766757  0.500350148  0.615182713
     0.500235346  0.500508510  0.489332342
     0.749985949  0.249943297  0.488132887

  ion indices of the primitive-cell ions
   primitive index   ion index
                 1           1
                 2           2
                 3           3
                 4           4
                 5           5
                 6           6
                 7           7
                 8           8
                 9           9
                10          10
                11          11
                12          12
                13          13
                14          14
                15          15
                16          16
                17          17
                18          18
                19          19
                20          20
                21          21
                22          22
                23          23
                24          24
                25          25
                26          26
                27          27
                28          28
                29          29
                30          30
                31          31
                32          32
                33          33
                34          34
                35          35
                36          36
                37          37
                38          38
                39          39
                40          40
                41          41
                42          42
                43          43
                44          44
                45          45
                46          46
[...]
   6.33061989  2.10976754  8.29825908

--------------------------------------- Iteration      FINAL  ---------------------------------------

--------------------OUTCAR has been truncated-------------------------

[...]

--------------------OUTCAR has been truncated-------------------------

  FORCE on cell =-STRESS in cart. coord.  units (eV):
  Direction    XX          YY          ZZ          XY          YZ          ZX
  Alpha Z  1218.92042  1218.92042  1218.92042
  Ewald  109687.81428109704.63638************   -12.54541   -12.82965    33.56330
  Hartree126437.67156126457.03729************    -1.99876    10.06376     8.82208
  E(xc)   -3253.92022 -3253.96153 -3255.12809    -0.06401    -0.26029     0.11471
  Local  ************************245467.66447    10.58697    -8.35492   -33.60292
  n-local -5652.58973 -5653.36300 -5653.79387    -0.72961    -1.43500     1.38831
  augment   727.09037   727.21873   718.38343     0.06629     0.21322    -0.17720
  Kinetic 12678.19084 12685.46999 12706.54961     4.70754    12.62099   -10.05700
  Fock        0.00000     0.00000     0.00000     0.00000     0.00000     0.00000
  Total     -24.20532   -24.06990     0.30087     0.02300     0.01810     0.05129
  in kB     -32.01741   -31.83829     0.39798     0.03042     0.02394     0.06785

 VOLUME and BASIS-vectors are now :
  energy-cutoff  :     1000.00
  volume of cell :     1211.25
      direct lattice vectors                 reciprocal lattice vectors
     8.440984654  0.000000000  0.000000000     0.118469591  0.000000000  0.000000000
     0.000000000  8.440984654  0.000000000     0.000000000  0.118469591  0.000000000
     0.000000000  0.000000000 17.000000000     0.000000000  0.000000000  0.058823529

  length of vectors
     8.440984654  8.440984654 17.000000000     0.118469591  0.118469591  0.058823529

 FORCES acting on ions
    electron-ion (+dipol)            ewald-force                    non-local-force                 convergence-correction
   -.823E+02 0.152E+02 -.242E+03   0.901E+02 -.167E+02 0.245E+03   -.775E+01 0.146E+01 -.243E+01   -.311E-03 0.575E-04 -.984E-03
   0.641E+00 -.686E+02 -.232E+03   -.753E+00 0.746E+02 0.228E+03   0.102E+00 -.595E+01 0.374E+01   -.127E-04 -.139E-03 -.330E-03
   0.465E+02 0.221E+02 -.144E+04   -.851E+02 -.427E+02 0.145E+04   0.385E+02 0.206E+02 -.110E+02   -.906E-04 -.203E-03 -.341E-02
   -.597E-01 -.274E+00 0.245E+04   0.676E-01 0.269E+00 -.244E+04   -.584E-02 0.425E-02 -.882E+01   -.145E-04 -.514E-04 0.531E-02
   0.224E+00 -.171E+00 0.245E+04   -.219E+00 0.173E+00 -.244E+04   -.334E-02 -.968E-03 -.886E+01   0.216E-04 -.831E-05 0.536E-02
   -.194E+00 -.300E+00 0.836E+03   0.215E+00 0.343E+00 -.836E+03   -.178E-01 -.343E-01 0.551E+00   0.321E-05 0.254E-04 0.966E-02
   -.358E+00 0.987E-01 0.835E+03   0.456E+00 -.112E+00 -.836E+03   -.774E-01 0.825E-02 0.736E+00   -.260E-04 0.208E-04 0.956E-02
   -.477E+00 -.341E+01 -.769E+03   0.583E+00 0.334E+01 0.769E+03   -.103E+00 0.724E-01 -.147E+00   0.203E-04 0.588E-04 0.101E-01
   0.265E+01 -.843E+00 -.775E+03   -.258E+01 0.933E+00 0.775E+03   -.577E-01 -.883E-01 -.303E+00   -.790E-04 0.228E-04 0.101E-01
   -.103E+01 -.513E+01 -.240E+04   0.112E+01 0.533E+01 0.239E+04   -.915E-01 -.205E+00 0.745E+01   0.164E-04 -.931E-06 0.610E-02
   0.293E+02 -.266E+02 -.235E+04   -.305E+02 0.266E+02 0.234E+04   0.119E+01 -.226E-01 0.765E+01   0.123E-03 0.301E-05 0.617E-02
   -.489E-01 0.273E+00 0.245E+04   0.553E-01 -.268E+00 -.244E+04   -.458E-02 -.351E-02 -.886E+01   -.134E-04 0.420E-04 0.540E-02
   0.261E+00 0.174E+00 0.245E+04   -.249E+00 -.176E+00 -.244E+04   -.900E-02 0.158E-02 -.886E+01   0.413E-05 0.772E-05 0.526E-02
   -.382E-01 0.294E+00 0.836E+03   0.203E-02 -.342E+00 -.837E+03   0.264E-01 0.369E-01 0.425E+00   0.684E-05 -.303E-04 0.953E-02
   -.334E+00 -.135E+00 0.836E+03   0.329E+00 0.143E+00 -.836E+03   0.466E-02 -.449E-02 0.559E+00   -.467E-04 -.240E-04 0.955E-02
   0.201E-01 0.344E+01 -.775E+03   0.355E-01 -.336E+01 0.776E+03   -.536E-01 -.799E-01 -.157E+00   0.790E-05 -.690E-04 0.100E-01
   0.318E+01 0.797E+00 -.763E+03   -.290E+01 -.870E+00 0.764E+03   -.280E+00 0.740E-01 -.125E+01   -.971E-04 -.231E-04 0.984E-02
   -.838E+00 0.608E+01 -.238E+04   0.106E+01 -.627E+01 0.237E+04   -.225E+00 0.191E+00 0.749E+01   -.225E-04 0.702E-05 0.621E-02
   0.212E+02 0.232E+02 -.238E+04   -.216E+02 -.233E+02 0.237E+04   0.393E+00 0.598E-01 0.757E+01   -.490E-04 0.102E-04 0.614E-02
   0.616E-01 -.314E+00 0.245E+04   -.696E-01 0.301E+00 -.244E+04   0.651E-02 0.103E-01 -.887E+01   0.169E-04 -.138E-04 0.516E-02
   -.226E+00 -.182E+00 0.245E+04   0.221E+00 0.186E+00 -.244E+04   0.450E-02 -.219E-02 -.884E+01   -.318E-04 -.150E-04 0.532E-02
   0.200E+00 -.176E+00 0.835E+03   -.229E+00 0.121E+00 -.835E+03   0.202E-01 0.423E-01 0.612E+00   -.317E-06 0.782E-05 0.954E-02
   0.314E+00 0.235E+00 0.835E+03   -.413E+00 -.300E+00 -.836E+03   0.774E-01 0.497E-01 0.753E+00   0.285E-04 0.264E-04 0.955E-02
   0.448E+00 -.267E+01 -.776E+03   -.542E+00 0.238E+01 0.775E+03   0.929E-01 0.293E+00 0.113E+01   -.130E-04 0.101E-03 0.102E-01
   -.265E+01 -.136E+01 -.772E+03   0.259E+01 0.150E+01 0.773E+03   0.557E-01 -.133E+00 -.228E+00   0.778E-04 0.327E-04 0.100E-01
   0.128E+01 -.117E+02 -.237E+04   -.137E+01 0.122E+02 0.236E+04   0.842E-01 -.559E+00 0.733E+01   -.210E-04 -.231E-03 0.609E-02
   -.301E+02 -.269E+02 -.233E+04   0.315E+02 0.273E+02 0.233E+04   -.131E+01 -.317E+00 0.776E+01   -.956E-04 -.458E-05 0.619E-02
   0.491E-01 0.306E+00 0.245E+04   -.558E-01 -.295E+00 -.244E+04   0.556E-02 -.890E-02 -.885E+01   0.156E-04 0.211E-04 0.526E-02
   -.264E+00 0.186E+00 0.245E+04   0.251E+00 -.189E+00 -.244E+04   0.104E-01 0.255E-02 -.888E+01   0.246E-05 0.981E-05 0.521E-02
   0.438E-01 0.253E+00 0.833E+03   -.228E-01 -.218E+00 -.833E+03   -.195E-01 -.297E-01 0.885E+00   -.836E-05 -.162E-04 0.949E-02
   0.317E+00 -.288E+00 0.836E+03   -.320E+00 0.353E+00 -.836E+03   0.617E-04 -.497E-01 0.625E+00   0.445E-04 -.195E-04 0.956E-02
   -.397E-01 0.385E+01 -.766E+03   -.965E-02 -.361E+01 0.767E+03   0.489E-01 -.232E+00 -.623E+00   -.513E-05 -.752E-04 0.101E-01
   -.291E+01 0.132E+01 -.769E+03   0.262E+01 -.144E+01 0.770E+03   0.290E+00 0.115E+00 -.471E+00   0.982E-04 -.368E-04 0.101E-01
   0.488E+01 0.340E+02 -.225E+04   -.541E+01 -.364E+02 0.224E+04   0.524E+00 0.241E+01 0.327E+01   -.381E-04 0.123E-03 0.582E-02
   -.215E+02 0.228E+02 -.237E+04   0.218E+02 -.230E+02 0.237E+04   -.361E+00 0.242E+00 0.757E+01   0.566E-04 0.376E-04 0.614E-02
   0.120E-01 -.178E+00 0.501E+03   -.124E-01 0.158E+00 -.501E+03   -.122E-02 0.276E-01 0.590E-01   0.582E-05 0.115E-04 0.538E-02
   -.133E+00 0.538E-01 0.500E+03   0.139E+00 -.281E-01 -.500E+03   -.497E-02 -.354E-01 -.723E-01   -.270E-04 0.156E-04 0.538E-02
   -.364E-01 -.102E+00 0.148E+04   0.440E-01 0.110E+00 -.149E+04   -.101E-01 -.109E-01 0.270E+01   -.126E-05 -.616E-05 0.328E-02
   0.154E+00 -.175E+00 0.148E+04   -.141E+00 0.170E+00 -.149E+04   -.185E-01 0.670E-02 0.271E+01   0.118E-04 -.169E-04 0.319E-02
   -.213E+01 -.696E+01 -.146E+04   0.218E+01 0.686E+01 0.147E+04   -.537E-01 0.998E-01 -.475E+01   0.203E-04 -.332E-06 0.358E-02
   0.765E+01 -.510E+01 -.146E+04   -.744E+01 0.504E+01 0.147E+04   -.211E+00 0.586E-01 -.471E+01   -.489E-05 -.125E-04 0.358E-02
   -.366E+00 -.117E+01 -.461E+03   0.377E+00 0.120E+01 0.461E+03   -.117E-01 -.248E-01 0.204E+00   0.263E-05 0.156E-04 0.574E-02
   0.140E+01 -.224E+01 -.455E+03   -.148E+01 0.218E+01 0.455E+03   0.735E-01 0.597E-01 0.425E+00   -.192E-04 0.252E-04 0.578E-02
   0.281E-01 0.165E+00 0.501E+03   -.146E-01 -.138E+00 -.501E+03   -.188E-01 -.351E-01 -.586E-01   0.108E-05 -.132E-04 0.540E-02
   -.247E+00 -.569E-01 0.500E+03   0.183E+00 0.388E-01 -.499E+03   0.843E-01 0.242E-01 -.102E+00   -.306E-04 -.137E-04 0.537E-02
   -.305E-01 0.103E+00 0.148E+04   0.328E-01 -.111E+00 -.149E+04   -.339E-02 0.101E-01 0.270E+01   -.805E-05 0.935E-05 0.321E-02
   0.139E+00 0.174E+00 0.148E+04   -.137E+00 -.168E+00 -.149E+04   -.442E-02 -.831E-02 0.270E+01   0.179E-04 0.134E-04 0.324E-02
   -.721E+00 0.642E+01 -.147E+04   0.718E+00 -.632E+01 0.147E+04   0.160E-02 -.886E-01 -.472E+01   0.545E-05 -.170E-05 0.358E-02
   0.287E+02 0.709E+01 -.143E+04   -.283E+02 -.703E+01 0.143E+04   -.375E+00 -.624E-01 -.486E+01   0.359E-05 0.147E-04 0.373E-02
   0.138E+00 0.117E+01 -.454E+03   -.105E+00 -.120E+01 0.454E+03   -.341E-01 0.320E-01 0.254E+00   0.288E-05 -.115E-04 0.576E-02
   0.215E+01 0.222E+01 -.457E+03   -.214E+01 -.216E+01 0.457E+03   -.833E-02 -.522E-01 0.200E+00   -.411E-04 -.215E-04 0.574E-02
   -.271E-02 -.884E-01 0.500E+03   0.586E-02 0.150E+00 -.499E+03   -.368E-02 -.770E-01 -.901E-01   -.593E-05 0.264E-04 0.537E-02
   0.102E+00 0.319E-01 0.501E+03   -.959E-01 -.194E-01 -.501E+03   -.539E-02 -.188E-01 -.157E-01   0.239E-04 0.196E-04 0.538E-02
   0.376E-01 -.115E+00 0.148E+04   -.448E-01 0.113E+00 -.149E+04   0.891E-02 0.270E-02 0.271E+01   0.499E-05 -.594E-05 0.320E-02
   -.155E+00 -.170E+00 0.148E+04   0.142E+00 0.159E+00 -.149E+04   0.165E-01 0.139E-01 0.270E+01   -.155E-04 -.147E-04 0.315E-02
   0.340E+01 -.343E+02 -.140E+04   -.350E+01 0.341E+02 0.140E+04   0.993E-01 0.247E+00 -.195E+01   -.303E-04 0.263E-04 0.335E-02
   -.774E+01 -.655E+01 -.146E+04   0.751E+01 0.655E+01 0.147E+04   0.224E+00 -.234E-02 -.473E+01   0.700E-05 0.235E-06 0.355E-02
   0.412E+00 -.541E-01 -.457E+03   -.432E+00 0.883E-01 0.457E+03   0.227E-01 -.332E-01 0.317E+00   0.270E-05 -.151E-04 0.578E-02
   -.139E+01 -.175E+01 -.451E+03   0.146E+01 0.173E+01 0.451E+03   -.685E-01 0.250E-01 0.731E+00   0.154E-04 0.292E-04 0.578E-02
   -.493E-01 -.138E-01 0.500E+03   0.469E-01 -.213E-01 -.500E+03   0.345E-02 0.448E-01 -.353E-01   0.592E-06 -.179E-04 0.535E-02
   0.202E+00 -.132E-01 0.499E+03   -.118E+00 0.136E-02 -.499E+03   -.106E+00 0.164E-01 -.142E+00   0.381E-04 -.243E-04 0.535E-02
   0.325E-01 0.120E+00 0.148E+04   -.342E-01 -.117E+00 -.149E+04   0.174E-02 -.443E-02 0.270E+01   0.415E-05 -.663E-06 0.311E-02
   -.139E+00 0.168E+00 0.148E+04   0.137E+00 -.157E+00 -.149E+04   0.192E-02 -.151E-01 0.269E+01   -.221E-04 0.152E-04 0.322E-02
   0.842E+00 0.269E+02 -.144E+04   -.855E+00 -.270E+02 0.144E+04   0.120E-01 0.421E-01 -.462E+01   -.119E-04 -.465E-05 0.360E-02
   -.295E+02 0.947E+01 -.143E+04   0.289E+02 -.943E+01 0.143E+04   0.632E+00 -.502E-01 -.453E+01   0.220E-04 -.618E-05 0.356E-02
   -.275E+00 -.565E+00 -.467E+03   0.228E+00 0.503E+00 0.467E+03   0.507E-01 0.597E-01 -.720E+00   -.265E-05 0.652E-06 0.576E-02
   -.215E+01 0.174E+01 -.456E+03   0.214E+01 -.172E+01 0.456E+03   0.129E-01 -.239E-01 0.329E+00   0.405E-04 -.225E-04 0.575E-02
   -.314E+02 -.182E+02 0.328E+02   -.860E-12 -.711E-13 0.495E-11   0.314E+02 0.181E+02 -.333E+02   -.421E-03 -.333E-03 0.386E+00

 POSITION                                       TOTAL-FORCE (eV/Angst)
      5.20667      4.67993     12.92942         0.008331     -0.014383      0.035711
      4.30502      5.67948     12.10915        -0.010023     -0.018902      0.049519
      4.28456      4.82984     12.65611        -0.012040      0.012022     -0.106052
      0.00072      6.33121      4.07058         0.002427     -0.000923      0.300341
      2.11096      0.00047      4.07058         0.001779      0.000765      0.305725
      0.00072      0.00047      6.18083         0.002908      0.009267      0.030825
      2.11096      6.33121      6.18083         0.021129     -0.004716      0.035238
      0.00247      6.32926      8.29804         0.002519     -0.001212      0.035848
      2.11132      0.00153      8.30334         0.004598      0.001299      0.038226
      0.00134      0.00394     10.40560        -0.000829     -0.004775      0.040563
      2.09141      6.33052     10.40219        -0.013377      0.011198      0.027737
      0.00072      2.11072      4.07058         0.002115      0.001528      0.308316
      2.11096      4.22097      4.07058         0.003076     -0.000207      0.304852
      0.00072      4.22097      6.18083        -0.009412     -0.011140      0.055348
      2.11096      2.11072      6.18083        -0.000410      0.003401      0.040309
      0.00098      2.11191      8.30056         0.002255      0.000884      0.034375
      2.11675      4.21879      8.31104         0.002091      0.000248      0.038654
      0.00431      4.21686     10.40084        -0.000409      0.004993      0.041074
      2.10238      2.10950     10.40878         0.007276     -0.003413      0.040948
      4.22121      6.33121      4.07058        -0.001118     -0.002358      0.306464
      6.33145      0.00047      4.07058        -0.000503      0.001074      0.304279
      4.22121      0.00047      6.18083        -0.008337     -0.012245      0.057497
      6.33145      6.33121      6.18083        -0.021962     -0.015553      0.031822
      4.21890      6.32261      8.31008        -0.001430      0.004550      0.031268
      6.32958      0.00287      8.30108        -0.001704      0.003893      0.036908
      4.21848      0.01729     10.40689         0.000798     -0.001639      0.037488
      6.35226      6.33688     10.38281         0.015897      0.010704      0.021270
      4.22121      2.11072      4.07058        -0.000859      0.002779      0.303459
      6.33145      4.22097      4.07058        -0.001880     -0.000475      0.311055
      4.22121      4.22097      6.18083         0.001890      0.005311      0.073178
      6.33145      2.11072      6.18083        -0.002276      0.015855      0.036338
      4.21936      2.11534      8.30826        -0.000125     -0.000012      0.038611
      6.32314      4.21825      8.31239        -0.000163     -0.000778      0.034936
      4.20534      4.16626     10.50770        -0.000826     -0.005376      0.093973
      6.33710      2.10698     10.40271        -0.001866     -0.006551      0.034732
      0.00072      6.33121      6.18083        -0.001311      0.007277      0.067356
      2.11096      0.00047      6.18083         0.001291     -0.009683      0.055881
      0.00072      0.00047      4.07058        -0.002307     -0.002611     -0.417820
      2.11096      6.33121      4.07058        -0.004665      0.001122     -0.417518
      8.43978      6.33407     10.44764         0.002034     -0.002881     -0.084652
      2.10473      8.44051     10.45129        -0.002728      0.001237     -0.081014
      8.44027      8.43956      8.29532        -0.000730      0.000800      0.014662
      2.11568      6.33318      8.30183         0.000142      0.004161      0.002286
      0.00072      2.11072      6.18083        -0.004924     -0.008223      0.047744
      2.11096      4.22097      6.18083         0.020647      0.006249      0.078800
      0.00072      4.22097      4.07058        -0.000742      0.002169     -0.419626
      2.11096      2.11072      4.07058        -0.001401     -0.002277     -0.420051
      8.43954      2.10716     10.45110        -0.000740      0.004786     -0.086626
      2.09561      4.22174     10.42932        -0.004206     -0.002759     -0.079267
      8.43817      4.22188      8.29301        -0.001604      0.003216      0.010237
      2.11019      2.10749      8.29677        -0.000202      0.006886     -0.000404
      4.22121      6.33121      6.18083        -0.000223     -0.015320      0.075426
      6.33145      0.00047      6.18083         0.000694     -0.006243      0.061216
      4.22121      0.00047      4.07058         0.002006      0.000504     -0.417212
      6.33145      6.33121      4.07058         0.003385      0.002793     -0.419398
      4.22225      6.36826     10.50560         0.000182      0.007811     -0.070236
      6.33563      8.44033     10.45062         0.004450      0.000047     -0.079981
      4.22117      8.43550      8.30013         0.002728      0.001037      0.010323
      6.32579      6.33148      8.30051         0.003403      0.003560      0.002509
      4.22121      2.11072      6.18083         0.001321      0.009725      0.083819
      6.33145      4.22097      6.18083        -0.020953      0.004568      0.073166
      4.22121      4.22097      4.07058         0.000343     -0.001192     -0.419681
      6.33145      2.11072      4.07058         0.000027     -0.003867     -0.421810
      4.22133      2.09157     10.44657        -0.000298      0.004064     -0.077827
      6.34565      4.22345     10.45811         0.008133     -0.001403     -0.075872
      4.22248      4.22478      8.31865         0.004123     -0.002482     -0.002427
      6.33062      2.10977      8.29826         0.002585      0.001812     -0.002836
    total drift:                               -0.020704     -0.005185     -0.074044

  FREE ENERGIE OF THE ION-ELECTRON SYSTEM (eV)
  free  energy   TOTEN  =      -267.75509963 eV

  energy  without entropy=     -267.75509963  energy(sigma->0) =     -267.75509963