 vasp.6.3.0 20Jan22 (build Apr  1 2022 16:44:48) complex
 executed on        HPECrayEX_GCC date 2022.11.13  20:57:22

 INCAR:
   SYSTEM = MgO-rocksalt
   ISMEAR = 0
   SIGMA = 0.05
   EDIFF = 1E-6
   ALGO = ALL
   ISTART = 0
   IBRION = -1
   NSW = 0
   ISYM = 0
   DIPOL = 0.5 0.5 0.5
   IDIPOL = 3
   LDIPOL = .TRUE.
   LHFCALC = .TRUE.
   GGA = B5
   AEXX = 0.2
   AGGAX = 0.72
   AGGAC = 0.81
   ALDAC = 0.19
   IVDW = 1
   VDW_S6 = 1.05
   VDW_C6 = 0.63 0.70
   VDW_R0 = 1.243 1.342
   ENCUT = 600
   PREC = Accurate
   LASPH = .TRUE.
   LREAL = .FALSE.
   ISPIN = 2
   MAGMOM = 0.0 0.0 0.0 0.0 0.0 0.0 0.0 0.0 0.0 0.0 0.0 0.0 0.0 0.0 0.0 0.0 0.0 0.0 0.0 0.0 0.0 0.0 0.0 0.0 0.0 0.0 0.0 0.0 0.0 0.0 0.0 0.0 0.0 0.0 0.0 0.0 0.0 0.0 0.0 0.0 0.0 0.0 0.0 0.0 0.0 0.0 0.0 0.0 0.0 0.0 0.0 0.0 0.0 0.0 0.0 0.0 0.0 0.0 0.0 0.0 0.0 0.0 0.0 0.0
   NELM = 200
   NELMIN = 8
   NCORE = 8
   KPAR = 1
   LWAVE = .FALSE.
   LCHARG = .FALSE.

 POTCAR:    PAW_PBE Mg_pv 13Apr2007
 POTCAR:    PAW_PBE O 08Apr2002
 POTCAR:    PAW_PBE Mg_pv 13Apr2007
   VRHFIN =Mg: p6s2

   TITEL  = PAW_PBE Mg_pv 13Apr2007
   POMASS =   24.305; ZVAL   =    8.000    mass and valenz
   ENMAX  =  403.929; ENMIN  =  302.947 eV

   TITEL  = PAW_PBE O 08Apr2002
   POMASS =   16.000; ZVAL   =    6.000    mass and valenz
   ENMAX  =  400.000; ENMIN  =  300.000 eV

  PAW_PBE Mg_pv 13Apr2007               :
  PAW_PBE O 08Apr2002                   :

 POSCAR: Mg  O
  positions in direct lattice
 exchange correlation table for  LEXCH =       12
   RHO(1)=    0.500       N(1)  =     2000
   RHO(2)=  100.500       N(2)  =     4000

 ion  position               nearest neighbor table
   1  0.000  0.750  0.352-  33 2.11  35 2.11  36 2.11  43 2.11  52 2.11
   2  0.250  0.000  0.352-  34 2.11  35 2.11  36 2.11  44 2.11  51 2.11
   3  0.000  0.000  0.451-  35 2.11  34 2.11  33 2.11  41 2.11  50 2.11  39 2.12
   4  0.250  0.750  0.451-  36 2.11  34 2.11  33 2.11  42 2.11  49 2.11  40 2.12
   5  0.999  0.750  0.550-  56 2.11  47 2.11  39 2.11  40 2.11  33 2.13  37 2.15
   6  0.250  0.000  0.550-  39 2.11  48 2.11  40 2.11  55 2.11  34 2.13  38 2.15
   7  0.000  0.000  0.649-  38 2.11  45 2.11  39 2.11  37 2.11  54 2.11
   8  0.249  0.750  0.649-  53 2.10  37 2.10  40 2.11  38 2.11  46 2.11
   9  0.000  0.250  0.352-  41 2.11  35 2.11  43 2.11  44 2.11  60 2.11
  10  0.250  0.500  0.352-  42 2.11  36 2.11  43 2.11  44 2.11  59 2.11
  11  0.000  0.500  0.451-  43 2.11  41 2.11  42 2.11  33 2.11  58 2.11  47 2.12
  12  0.250  0.250  0.451-  44 2.11  41 2.11  42 2.11  34 2.11  57 2.11  48 2.12
  13  0.000  0.250  0.550-  39 2.11  48 2.11  64 2.11  47 2.11  41 2.13  45 2.15
  14  0.251  0.500  0.550-  63 2.11  40 2.11  48 2.11  47 2.11  42 2.13  46 2.15
  15  0.001  0.500  0.649-  62 2.10  46 2.10  47 2.11  45 2.11  37 2.11
  16  0.250  0.250  0.649-  38 2.11  45 2.11  48 2.11  61 2.11  46 2.11
  17  0.500  0.750  0.352-  49 2.11  36 2.11  51 2.11  52 2.11  59 2.11
  18  0.750  0.000  0.352-  50 2.11  35 2.11  51 2.11  52 2.11  60 2.11
  19  0.500  0.000  0.451-  51 2.11  49 2.11  50 2.11  34 2.11  57 2.11  55 2.12
  20  0.750  0.750  0.451-  52 2.11  49 2.11  50 2.11  33 2.11  58 2.11  56 2.13
  21  0.500  0.750  0.550-  63 2.11  56 2.11  55 2.11  40 2.11  49 2.12  53 2.13
  22  0.750  0.999  0.550-  56 2.11  55 2.11  39 2.11  64 2.11  50 2.13  54 2.15
  23  0.500  0.001  0.649-  53 2.10  61 2.10  55 2.11  38 2.11  54 2.11
  24  0.750  0.750  0.650-  54 2.11  37 2.11  53 2.13  62 2.13  56 2.14
  25  0.500  0.250  0.352-  57 2.11  51 2.11  44 2.11  59 2.11  60 2.11
  26  0.750  0.500  0.352-  58 2.11  52 2.11  43 2.11  59 2.11  60 2.11
  27  0.500  0.500  0.451-  59 2.11  49 2.11  57 2.11  58 2.11  42 2.11  63 2.13
  28  0.750  0.250  0.451-  60 2.11  50 2.11  57 2.11  58 2.11  41 2.11  64 2.12
  29  0.500  0.251  0.550-  63 2.11  64 2.11  48 2.11  55 2.11  57 2.13  61 2.15
  30  0.750  0.500  0.550-  63 2.11  56 2.11  47 2.11  64 2.11  58 2.12  62 2.13
  31  0.500  0.500  0.650-  46 2.11  61 2.11  53 2.13  62 2.13  63 2.14
  32  0.750  0.249  0.649-  62 2.10  54 2.10  64 2.11  45 2.11  61 2.11
  33  0.000  0.750  0.451-   1 2.11   3 2.11   4 2.11  11 2.11  20 2.11   5 2.13
  34  0.250  0.000  0.451-   2 2.11   3 2.11   4 2.11  12 2.11  19 2.11   6 2.13
  35  0.000  0.000  0.352-   3 2.11   2 2.11   1 2.11   9 2.11  18 2.11
  36  0.250  0.750  0.352-   4 2.11   2 2.11   1 2.11  10 2.11  17 2.11
  37  1.000  0.750  0.651-   8 2.10  24 2.11  15 2.11   7 2.11   5 2.15
  38  0.250  0.000  0.651-   7 2.11  16 2.11  23 2.11   8 2.11   6 2.15
  39  1.000  1.000  0.550-   6 2.11  13 2.11   5 2.11  22 2.11   7 2.11   3 2.12
  40  0.250  0.750  0.550-   8 2.11   6 2.11  14 2.11   5 2.11  21 2.11   4 2.12
  41  0.000  0.250  0.451-   9 2.11   3 2.11  11 2.11  12 2.11  28 2.11  13 2.13
  42  0.250  0.500  0.451-  10 2.11   4 2.11  11 2.11  12 2.11  27 2.11  14 2.13
  43  0.000  0.500  0.352-  11 2.11   9 2.11  10 2.11   1 2.11  26 2.11
  44  0.250  0.250  0.352-  12 2.11   9 2.11  10 2.11   2 2.11  25 2.11
  45  0.000  0.250  0.651-   7 2.11  16 2.11  15 2.11  32 2.11  13 2.15
  46  0.250  0.500  0.651-  15 2.10  31 2.11   8 2.11  16 2.11  14 2.15
  47  0.000  0.500  0.550-  15 2.11  13 2.11   5 2.11  14 2.11  30 2.11  11 2.12
  48  0.250  0.250  0.550-   6 2.11  13 2.11  29 2.11  14 2.11  16 2.11  12 2.12
  49  0.500  0.750  0.451-  17 2.11   4 2.11  19 2.11  20 2.11  27 2.11  21 2.12
  50  0.750  0.000  0.451-  18 2.11   3 2.11  19 2.11  20 2.11  28 2.11  22 2.13
  51  0.500  0.000  0.352-  19 2.11  17 2.11  18 2.11   2 2.11  25 2.11
  52  0.750  0.750  0.352-  20 2.11  17 2.11  18 2.11   1 2.11  26 2.11
  53  0.498  0.752  0.650-   8 2.10  23 2.10  24 2.13  31 2.13  21 2.13
  54  0.750  1.000  0.651-  32 2.10  24 2.11  23 2.11   7 2.11  22 2.15
  55  0.500  0.000  0.550-  23 2.11   6 2.11  22 2.11  29 2.11  21 2.11  19 2.12
  56  0.750  0.750  0.550-  22 2.11   5 2.11  21 2.11  30 2.11  20 2.13  24 2.14
  57  0.500  0.250  0.451-  25 2.11  19 2.11  12 2.11  27 2.11  28 2.11  29 2.13
  58  0.750  0.500  0.451-  26 2.11  20 2.11  11 2.11  27 2.11  28 2.11  30 2.12
  59  0.500  0.500  0.352-  27 2.11  17 2.11  25 2.11  26 2.11  10 2.11
  60  0.750  0.250  0.352-  28 2.11  18 2.11  25 2.11  26 2.11   9 2.11
  61  0.500  0.250  0.651-  23 2.10  31 2.11  32 2.11  16 2.11  29 2.15
  62  0.752  0.498  0.650-  32 2.10  15 2.10  24 2.13  31 2.13  30 2.13
  63  0.500  0.500  0.550-  14 2.11  29 2.11  21 2.11  30 2.11  27 2.13  31 2.14
  64  0.750  0.250  0.550-  32 2.11  13 2.11  29 2.11  22 2.11  30 2.11  28 2.12

IMPORTANT INFORMATION: All symmetrisations will be switched off!
NOSYMM: (Re-)initialisation of all symmetry stuff for point group C_1.

                                     Primitive cell

  volume of cell :    1519.8199

  direct lattice vectors                    reciprocal lattice vectors
     8.440984654  0.000000000  0.000000000     0.118469591  0.000000000  0.000000000
     0.000000000  8.440984654  0.000000000     0.000000000  0.118469591  0.000000000
     0.000000000  0.000000000 21.330738491     0.000000000  0.000000000  0.046880702

  length of vectors
     8.440984654  8.440984654 21.330738491     0.118469591  0.118469591  0.046880702

  position of ions in fractional coordinates (direct lattice)
     0.000000000  0.750000000  0.351605267
     0.250000000  0.000000000  0.351605267
     0.000000000  0.000000000  0.450535089
     0.250000000  0.750000000  0.450535089
     0.999466023  0.749938665  0.550299311
     0.249936072  0.000063917  0.550169433
     0.000006237  0.000006236  0.649012547
     0.248898599  0.750368068  0.648702868
     0.000000000  0.250000000  0.351605267
     0.250000000  0.500000000  0.351605267
     0.000000000  0.500000000  0.450535089
     0.250000000  0.250000000  0.450535089
     0.000063917  0.249936073  0.550169433
     0.250533984  0.500061353  0.550299286
     0.001101403  0.499631931  0.648702837
     0.249993773  0.249993772  0.649012541
     0.500000000  0.750000000  0.351605267
     0.750000000  0.000000000  0.351605267
     0.500000000  0.000000000  0.450535089
     0.750000000  0.750000000  0.450535089
     0.500146774  0.749853223  0.550010997
     0.749938664  0.999466022  0.550299311
     0.499631931  0.001101403  0.648702837
     0.749983055  0.749983055  0.650464770
     0.500000000  0.250000000  0.351605267
     0.750000000  0.500000000  0.351605267
     0.500000000  0.500000000  0.450535089
     0.750000000  0.250000000  0.450535089
     0.500061352  0.250533984  0.550299286
     0.749853226  0.500146774  0.550010996
     0.500016942  0.500016943  0.650464749
     0.750368069  0.248898600  0.648702868
     0.000000000  0.750000000  0.450535089
     0.250000000  0.000000000  0.450535089
     0.000000000  0.000000000  0.351605267
     0.250000000  0.750000000  0.351605267
     0.999804770  0.749767818  0.651226661
     0.249771223  0.000228785  0.651112302
     0.999967409  0.999967408  0.549990240
     0.249690345  0.750079102  0.549866138
     0.000000000  0.250000000  0.450535089
     0.250000000  0.500000000  0.450535089
     0.000000000  0.500000000  0.351605267
     0.250000000  0.250000000  0.351605267
     0.000228784  0.249771224  0.651112302
     0.250195236  0.500232181  0.651226637
     0.000309651  0.499920907  0.549866127
     0.250032590  0.250032589  0.549990230
     0.500000000  0.750000000  0.450535089
     0.750000000  0.000000000  0.450535089
     0.500000000  0.000000000  0.351605267
     0.750000000  0.750000000  0.351605267
     0.497872702  0.752127298  0.649889751
     0.749767816  0.999804770  0.651226661
     0.499920905  0.000309651  0.549866127
     0.749867470  0.749867470  0.550218223
     0.500000000  0.250000000  0.450535089
     0.750000000  0.500000000  0.450535089
     0.500000000  0.500000000  0.351605267
     0.750000000  0.250000000  0.351605267
     0.500232182  0.250195235  0.651226637
     0.752127299  0.497872702  0.649889751
     0.500132535  0.500132538  0.550218207
     0.750079103  0.249690346  0.549866138

  ion indices of the primitive-cell ions
   primitive index   ion index
                 1           1
                 2           2
                 3           3
                 4           4
                 5           5
                 6           6
                 7           7
                 8           8
                 9           9
                10          10
                11          11
                12          12
                13          13
                14          14
                15          15
                16          16
                17          17
                18          18
                19          19
                20          20
                21          21
                22          22
                23          23
                24          24
                25          25
                26          26
                27          27
                28          28
                29          29
                30          30
                31          31
                32          32
                33          33
                34          34
                35          35
[...]
   0.25000000  0.50000000  0.45053509
   0.00000000  0.50000000  0.35160527
   0.25000000  0.25000000  0.35160527
   0.00022878  0.24977122  0.65111230
   0.25019524  0.50023218  0.65122664
   0.00030965  0.49992091  0.54986613
   0.25003259  0.25003259  0.54999023
   0.50000000  0.75000000  0.45053509
   0.75000000  0.00000000  0.45053509
   0.50000000  0.00000000  0.35160527
   0.75000000  0.75000000  0.35160527
   0.49787270  0.75212730  0.64988975
   0.74976782  0.99980477  0.65122666
   0.49992091  0.00030965  0.54986613
   0.74986747  0.74986747  0.55021822
   0.50000000  0.25000000  0.45053509
   0.75000000  0.50000000  0.45053509
   0.50000000  0.50000000  0.35160527
   0.75000000  0.25000000  0.35160527
   0.50023218  0.25019524  0.65122664
   0.75212730  0.49787270  0.64988975
   0.50013253  0.50013254  0.55021821
   0.75007910  0.24969035  0.54986614

 position of ions in cartesian coordinates  (Angst):
   0.00000000  6.33073849  7.50000000
   2.11024616  0.00000000  7.50000000
   0.00000000  0.00000000  9.61024616
   2.11024616  6.33073849  9.61024616
   8.43647736  6.33022076 11.73829069
   2.10970655  0.00053952 11.73552031
   0.00005265  0.00005264 13.84391691
   2.10094925  6.33384535 13.83731124
   0.00000000  2.11024616  7.50000000
   2.11024616  4.22049233  7.50000000
   0.00000000  4.22049233  9.61024616
   2.11024616  2.11024616  9.61024616
   0.00053952  2.10970655 11.73552030
   2.11475351  4.22101020 11.73829017
   0.00929693  4.21738547 13.83731057
   2.11019360  2.11019359 13.84391680
   4.22049233  6.33073849  7.50000000
   6.33073849  0.00000000  7.50000000
   4.22049233  0.00000000  9.61024616
   6.33073849  6.33073849  9.61024616
   4.22173124  6.32949955 11.73214074
   6.33022075  8.43647735 11.73829069
   4.21738546  0.00929693 13.83731057
   6.33059545  6.33059546 13.87489390
   4.22049233  2.11024616  7.50000000
   6.33073849  4.22049233  7.50000000
   4.22049233  4.22049233  9.61024616
   6.33073849  2.11024616  9.61024616
   4.22101020  2.11475352 11.73829017
   6.32949957  4.22173125 11.73214073
   4.22063533  4.22063534 13.87489347
   6.33384536  2.10094926 13.83731124
   0.00000000  6.33073849  9.61024616
   2.11024616  0.00000000  9.61024616
   0.00000000  0.00000000  7.50000000
   2.11024616  6.33073849  7.50000000
   8.43933672  6.32877865 13.89114560
   2.10831506  0.00193117 13.88870625
   8.44070955  8.44070955 11.73169798
   2.10763237  6.33140619 11.72905080
   0.00000000  2.11024616  9.61024616
   2.11024616  4.22049233  9.61024616
   0.00000000  4.22049233  7.50000000
   2.11024616  2.11024616  7.50000000
   0.00193116  2.10831507 13.88870624
   2.11189415  4.22245217 13.89114509
   0.00261376  4.21982470 11.72905055
   2.11052125  2.11052125 11.73169777
   4.22049233  6.33073849  9.61024616
   6.33073849  0.00000000  9.61024616
   4.22049233  0.00000000  7.50000000
   6.33073849  6.33073849  7.50000000
   4.20253584  6.34869498 13.86262834
   6.32877863  8.43933672 13.89114560
   4.21982469  0.00261376 11.72905055
   6.32961980  6.32961981 11.73656103
   4.22049233  2.11024616  9.61024616
   6.33073849  4.22049233  9.61024616
   4.22049233  4.22049233  7.50000000
   6.33073849  2.11024616  7.50000000
   4.22245217  2.11189414 13.89114509
   6.34869499  4.20253584 13.86262834
   4.22161105  4.22161108 11.73656068
   6.33140619  2.10763238 11.72905080

--------------------------------------- Iteration      FINAL  ---------------------------------------

--------------------OUTCAR has been truncated-------------------------

[...]

--------------------OUTCAR has been truncated-------------------------

  DFT-D2 method for vdW energy calculation

  Parameters of vdW forcefield:
         C6(Jnm^6/mol)     R0(A)
   Mg       0.630          1.243
   O        0.700          1.342

  vdW correction parametrized for the method ^&þ      

  IVDW =   1
  VDW_RADIUS =    50.000 A
  VDW_S6 =     1.050
  VDW_SR =     1.000
  VDW_D =    20.000
  LVDW_EWALD = F

  Number of pair interactions contributing to vdW energy:  723308
  Edisp (eV):   -5.06423

 VOLUME and BASIS-vectors are now :
  energy-cutoff  :      600.00
  volume of cell :     1519.82
      direct lattice vectors                 reciprocal lattice vectors
     8.440984654  0.000000000  0.000000000     0.118469591  0.000000000  0.000000000
     0.000000000  8.440984654  0.000000000     0.000000000  0.118469591  0.000000000
     0.000000000  0.000000000 21.330738491     0.000000000  0.000000000  0.046880702

  length of vectors
     8.440984654  8.440984654 21.330738491     0.118469591  0.118469591  0.046880702

 FORCES acting on ions:
    Electron-Ion                     Ewald-Force                    Non-Local-Force
   0.346E-01 0.391E-02 0.207E+04   -.350E-01 -.197E-02 -.206E+04   0.342E-03 -.127E-02 -.640E+01
   -.429E-02 0.429E-02 0.207E+04   0.213E-02 -.213E-02 -.206E+04   0.145E-02 -.144E-02 -.639E+01
   0.247E+00 0.247E+00 0.682E+03   -.266E+00 -.266E+00 -.683E+03   0.126E-01 0.126E-01 0.499E+00
   0.763E-01 0.255E+00 0.683E+03   -.136E+00 -.269E+00 -.683E+03   0.374E-01 0.928E-02 0.427E+00
   0.107E+01 -.281E-01 -.691E+03   -.117E+01 -.129E-01 0.691E+03   0.873E-01 0.267E-01 -.545E-01
   0.197E-01 -.197E-01 -.689E+03   0.104E-01 -.104E-01 0.689E+03   -.188E-01 0.188E-01 -.843E-01
   0.103E+01 0.103E+01 -.205E+04   -.868E+00 -.868E+00 0.204E+04   -.132E+00 -.132E+00 0.536E+01
   -.100E+01 0.122E+01 -.205E+04   0.123E+01 -.107E+01 0.204E+04   -.138E+00 -.110E+00 0.539E+01
   0.429E-02 -.429E-02 0.207E+04   -.213E-02 0.213E-02 -.206E+04   -.145E-02 0.145E-02 -.639E+01
   -.346E-01 -.391E-02 0.207E+04   0.350E-01 0.198E-02 -.206E+04   -.346E-03 0.126E-02 -.640E+01
   -.763E-01 -.255E+00 0.683E+03   0.136E+00 0.269E+00 -.683E+03   -.374E-01 -.928E-02 0.427E+00
   -.247E+00 -.247E+00 0.682E+03   0.266E+00 0.266E+00 -.683E+03   -.126E-01 -.126E-01 0.499E+00
   -.197E-01 0.197E-01 -.689E+03   -.104E-01 0.104E-01 0.689E+03   0.188E-01 -.188E-01 -.843E-01
   -.107E+01 0.281E-01 -.691E+03   0.117E+01 0.129E-01 0.691E+03   -.873E-01 -.267E-01 -.545E-01
   0.100E+01 -.122E+01 -.205E+04   -.123E+01 0.107E+01 0.204E+04   0.138E+00 0.110E+00 0.539E+01
   -.103E+01 -.103E+01 -.205E+04   0.868E+00 0.868E+00 0.204E+04   0.132E+00 0.132E+00 0.536E+01
   -.372E-01 0.372E-01 0.207E+04   0.362E-01 -.362E-01 -.206E+04   0.546E-03 -.549E-03 -.638E+01
   0.390E-02 0.346E-01 0.207E+04   -.197E-02 -.350E-01 -.206E+04   -.126E-02 0.347E-03 -.640E+01
   -.255E+00 -.763E-01 0.683E+03   0.269E+00 0.136E+00 -.683E+03   -.929E-02 -.374E-01 0.427E+00
   -.107E+00 -.107E+00 0.681E+03   0.139E+00 0.139E+00 -.682E+03   -.216E-01 -.217E-01 0.522E+00
   -.137E+01 0.137E+01 -.687E+03   0.147E+01 -.147E+01 0.687E+03   -.923E-01 0.923E-01 -.467E+00
   -.281E-01 0.107E+01 -.691E+03   -.129E-01 -.117E+01 0.691E+03   0.267E-01 0.873E-01 -.545E-01
   -.122E+01 0.100E+01 -.205E+04   0.107E+01 -.123E+01 0.204E+04   0.110E+00 0.138E+00 0.539E+01
   0.522E+01 0.522E+01 -.206E+04   -.486E+01 -.486E+01 0.206E+04   -.340E+00 -.340E+00 0.582E+01
   -.392E-02 -.346E-01 0.207E+04   0.198E-02 0.350E-01 -.206E+04   0.127E-02 -.343E-03 -.640E+01
   0.372E-01 -.372E-01 0.207E+04   -.362E-01 0.362E-01 -.206E+04   -.544E-03 0.545E-03 -.638E+01
   0.107E+00 0.107E+00 0.681E+03   -.139E+00 -.139E+00 -.682E+03   0.216E-01 0.216E-01 0.522E+00
   0.255E+00 0.763E-01 0.683E+03   -.269E+00 -.136E+00 -.683E+03   0.928E-02 0.374E-01 0.427E+00
   0.281E-01 -.107E+01 -.691E+03   0.129E-01 0.117E+01 0.691E+03   -.267E-01 -.873E-01 -.545E-01
   0.137E+01 -.137E+01 -.687E+03   -.147E+01 0.147E+01 0.687E+03   0.923E-01 -.923E-01 -.467E+00
   -.522E+01 -.522E+01 -.206E+04   0.486E+01 0.486E+01 0.206E+04   0.340E+00 0.340E+00 0.582E+01
   0.122E+01 -.100E+01 -.205E+04   -.107E+01 0.123E+01 0.204E+04   -.110E+00 -.138E+00 0.539E+01
   0.149E+00 -.374E-01 0.511E+03   -.108E+00 0.323E-01 -.511E+03   -.489E-01 0.666E-02 -.139E+00
   0.245E-01 -.245E-01 0.512E+03   -.134E-01 0.134E-01 -.512E+03   -.139E-01 0.139E-01 -.979E-01
   0.306E-01 0.306E-01 0.155E+04   -.319E-01 -.319E-01 -.156E+04   0.170E-02 0.170E-02 0.312E+01
   0.290E-02 0.304E-01 0.155E+04   -.708E-02 -.318E-01 -.156E+04   0.516E-02 0.186E-02 0.313E+01
   0.180E+01 0.428E+00 -.156E+04   -.187E+01 -.483E+00 0.156E+04   0.538E-01 0.655E-01 -.436E+01
   -.303E+00 0.303E+00 -.156E+04   0.379E+00 -.379E+00 0.156E+04   -.858E-01 0.858E-01 -.453E+01
   0.506E+00 0.506E+00 -.512E+03   -.501E+00 -.501E+00 0.512E+03   -.847E-02 -.847E-02 0.311E+00
   -.107E+00 0.535E+00 -.510E+03   0.190E+00 -.538E+00 0.510E+03   -.979E-01 0.149E-02 0.305E+00
   -.245E-01 0.245E-01 0.512E+03   0.134E-01 -.134E-01 -.512E+03   0.139E-01 -.139E-01 -.979E-01
   -.148E+00 0.373E-01 0.511E+03   0.108E+00 -.323E-01 -.511E+03   0.489E-01 -.665E-02 -.139E+00
   -.289E-02 -.304E-01 0.155E+04   0.707E-02 0.319E-01 -.156E+04   -.516E-02 -.186E-02 0.313E+01
   -.306E-01 -.306E-01 0.155E+04   0.319E-01 0.319E-01 -.156E+04   -.170E-02 -.170E-02 0.312E+01
   0.303E+00 -.303E+00 -.156E+04   -.379E+00 0.379E+00 0.156E+04   0.858E-01 -.858E-01 -.453E+01
   -.180E+01 -.428E+00 -.156E+04   0.187E+01 0.483E+00 0.156E+04   -.538E-01 -.655E-01 -.436E+01
   0.107E+00 -.535E+00 -.510E+03   -.190E+00 0.538E+00 0.510E+03   0.979E-01 -.150E-02 0.305E+00
   -.506E+00 -.506E+00 -.512E+03   0.501E+00 0.501E+00 0.512E+03   0.847E-02 0.847E-02 0.311E+00
   -.175E+00 0.175E+00 0.512E+03   0.164E+00 -.164E+00 -.512E+03   0.125E-01 -.125E-01 -.606E-01
   -.374E-01 0.149E+00 0.511E+03   0.323E-01 -.108E+00 -.511E+03   0.666E-02 -.489E-01 -.139E+00
   -.304E-01 -.290E-02 0.155E+04   0.319E-01 0.707E-02 -.156E+04   -.186E-02 -.516E-02 0.313E+01
   -.987E-03 -.984E-03 0.155E+04   0.621E-02 0.621E-02 -.156E+04   -.651E-02 -.651E-02 0.313E+01
   -.430E+01 0.430E+01 -.155E+04   0.416E+01 -.416E+01 0.155E+04   0.308E+00 -.308E+00 -.365E+01
   0.428E+00 0.180E+01 -.156E+04   -.483E+00 -.187E+01 0.156E+04   0.655E-01 0.538E-01 -.436E+01
   -.535E+00 0.107E+00 -.510E+03   0.538E+00 -.190E+00 0.510E+03   -.150E-02 0.979E-01 0.305E+00
   0.405E+00 0.405E+00 -.519E+03   -.486E+00 -.486E+00 0.519E+03   0.934E-01 0.934E-01 -.142E+00
   0.373E-01 -.148E+00 0.511E+03   -.323E-01 0.108E+00 -.511E+03   -.665E-02 0.489E-01 -.139E+00
   0.175E+00 -.175E+00 0.512E+03   -.164E+00 0.164E+00 -.512E+03   -.125E-01 0.125E-01 -.606E-01
   0.978E-03 0.981E-03 0.155E+04   -.620E-02 -.620E-02 -.156E+04   0.651E-02 0.651E-02 0.313E+01
   0.304E-01 0.290E-02 0.155E+04   -.318E-01 -.708E-02 -.156E+04   0.186E-02 0.516E-02 0.313E+01
   -.428E+00 -.180E+01 -.156E+04   0.483E+00 0.187E+01 0.156E+04   -.655E-01 -.538E-01 -.436E+01
   0.430E+01 -.430E+01 -.155E+04   -.416E+01 0.416E+01 0.155E+04   -.308E+00 0.308E+00 -.365E+01
   -.405E+00 -.405E+00 -.519E+03   0.486E+00 0.486E+00 0.519E+03   -.934E-01 -.934E-01 -.142E+00
   0.535E+00 -.107E+00 -.510E+03   -.538E+00 0.190E+00 0.510E+03   0.150E-02 -.979E-01 0.305E+00
   -.431E-05 0.621E-05 0.147E+02   0.703E-12 -.205E-12 -.591E-11   -.161E-04 -.800E-05 -.129E+02

 POSITION                                       TOTAL-FORCE (eV/Angst)
      0.00000      6.33074      7.50000         0.000037      0.000506      0.469597
      2.11025      0.00000      7.50000        -0.000538      0.000539      0.466834
      0.00000      0.00000      9.61025        -0.005494     -0.005496      0.046871
      2.11025      6.33074      9.61025        -0.016947     -0.003890      0.056223
      8.43648      6.33022     11.73829        -0.004713     -0.011072     -0.006174
      2.10971      0.00054     11.73552         0.009035     -0.009032      0.013639
      0.00005      0.00005     13.84392         0.018676      0.018683     -0.115403
      2.10095      6.33385     13.83731         0.069105      0.022866     -0.109885
      0.00000      2.11025      7.50000         0.000540     -0.000537      0.466830
      2.11025      4.22049      7.50000        -0.000042     -0.000514      0.469600
      0.00000      4.22049      9.61025         0.016950      0.003884      0.056289
      2.11025      2.11025      9.61025         0.005489      0.005493      0.046803
      0.00054      2.10971     11.73552        -0.009029      0.009035      0.013649
      2.11475      4.22101     11.73829         0.004723      0.011079     -0.006152
      0.00930      4.21739     13.83731        -0.069105     -0.022853     -0.109873
      2.11019      2.11019     13.84392        -0.018687     -0.018683     -0.115428
      4.22049      6.33074      7.50000        -0.000339      0.000339      0.463648
      6.33074      0.00000      7.50000         0.000514      0.000039      0.469623
      4.22049      0.00000      9.61025         0.003882      0.016947      0.056289
      6.33074      6.33074      9.61025         0.007731      0.007734      0.053516
      4.22173      6.32950     11.73214         0.000045     -0.000044      0.090903
      6.33022      8.43648     11.73829        -0.011075     -0.004713     -0.006176
      4.21739      0.00930     13.83731        -0.022849     -0.069094     -0.109820
      6.33060      6.33060     13.87489        -0.012262     -0.012264     -0.417605
      4.22049      2.11025      7.50000        -0.000514     -0.000039      0.469618
      6.33074      4.22049      7.50000         0.000339     -0.000339      0.463643
      4.22049      4.22049      9.61025        -0.007734     -0.007731      0.053591
      6.33074      2.11025      9.61025        -0.003889     -0.016943      0.056224
      4.22101      2.11475     11.73829         0.011083      0.004719     -0.006150
      6.32950      4.22173     11.73214        -0.000046      0.000044      0.090913
      4.22064      4.22064     13.87489         0.012258      0.012262     -0.417615
      6.33385      2.10095     13.83731         0.022868      0.069110     -0.109813
      0.00000      6.33074      9.61025        -0.014980      0.002621      0.064588
      2.11025      0.00000      9.61025        -0.004732      0.004734      0.065561
      0.00000      0.00000      7.50000         0.000580      0.000575     -0.435070
      2.11025      6.33074      7.50000         0.001696      0.000637     -0.433996
      8.43934      6.32878     13.89115        -0.010624      0.020337     -0.060782
      2.10832      0.00193     13.88871        -0.021979      0.021988     -0.104274
      8.44071      8.44071     11.73170        -0.004853     -0.004849      0.043184
      2.10763      6.33141     11.72905        -0.028251     -0.000629      0.028278
      0.00000      2.11025      9.61025         0.004734     -0.004733      0.065564
      2.11025      4.22049      9.61025         0.014984     -0.002620      0.064589
      0.00000      4.22049      7.50000        -0.001698     -0.000635     -0.433986
      2.11025      2.11025      7.50000        -0.000581     -0.000578     -0.435071
      0.00193      2.10832     13.88871         0.021991     -0.021981     -0.104279
      2.11189      4.22245     13.89115         0.010617     -0.020314     -0.060799
      0.00261      4.21982     11.72905         0.028248      0.000627      0.028234
      2.11052      2.11052     11.73170         0.004847      0.004850      0.043232
      4.22049      6.33074      9.61025         0.003642     -0.003642      0.063869
      6.33074      0.00000      9.61025         0.002619     -0.014982      0.064591
      4.22049      0.00000      7.50000        -0.000638     -0.001705     -0.433986
      6.33074      6.33074      7.50000        -0.002190     -0.002189     -0.433540
      4.20254      6.34869     13.86263         0.212878     -0.212907      0.182301
      6.32878      8.43934     13.89115         0.020343     -0.010630     -0.060796
      4.21982      0.00261     11.72905         0.000631      0.028248      0.028228
      6.32962      6.32962     11.73656         0.026261      0.026260     -0.000255
      4.22049      2.11025      9.61025        -0.002618      0.014982      0.064592
      6.33074      4.22049      9.61025        -0.003642      0.003640      0.063875
      4.22049      4.22049      7.50000         0.002188      0.002192     -0.433550
      6.33074      2.11025      7.50000         0.000643      0.001699     -0.433990
      4.22245      2.11189     13.89115        -0.020322      0.010619     -0.060823
      6.34869      4.20254     13.86263        -0.212900      0.212879      0.182302
      4.22161      4.22161     11.73656        -0.026275     -0.026278     -0.000272
      6.33141      2.10763     11.72905        -0.000631     -0.028252      0.028272
    total drift:                                0.000012      0.000032      0.008855

  FREE ENERGIE OF THE ION-ELECTRON SYSTEM (eV)
  free  energy   TOTEN  =      -438.40598353 eV

  energy  without entropy=     -438.40598353  energy(sigma->0) =     -438.40598353