 vasp.6.3.0 20Jan22 (build Apr  1 2022 16:44:48) complex
 executed on        HPECrayEX_GCC date 2022.11.05  17:08:42

 INCAR:
   SYSTEM = MgO-rocksalt
   ISMEAR = 0
   SIGMA = 0.05
   EDIFF = 1E-7
   ALGO = ALL
   ISTART = 0
   IBRION = 2
   NSW = 1000
   ISYM = 0
   ISIF = 2
   EDIFFG = -0.01
   DIPOL = 0.5 0.5 0.5
   IDIPOL = 3
   LDIPOL = .TRUE.
   LHFCALC = .TRUE.
   GGA = PE
   IVDW = 13
   VDW_S8 = 1.2007
   VDW_A1 = 0.4009
   VDW_A2 = 5.0293
   ENCUT = 600
   PREC = Accurate
   LASPH = .TRUE.
   LREAL = .FALSE.
   ISPIN = 1
   NELM = 200
   NELMIN = 8
   NCORE = 8
   KPAR = 1
   LWAVE = .FALSE.
   LCHARG = .FALSE.

 POTCAR:    PAW_PBE C 08Apr2002
 POTCAR:    PAW_PBE O 08Apr2002
 POTCAR:    PAW_PBE H 15Jun2001
 POTCAR:    PAW_PBE Mg_pv 13Apr2007
 POTCAR:    PAW_PBE O 08Apr2002
 POTCAR:    PAW_PBE C 08Apr2002
   VRHFIN =C: s2p2

   TITEL  = PAW_PBE C 08Apr2002
   POMASS =   12.011; ZVAL   =    4.000    mass and valenz
   ENMAX  =  400.000; ENMIN  =  300.000 eV

[...]

   TITEL  = PAW_PBE H 15Jun2001
   POMASS =    1.000; ZVAL   =    1.000    mass and valenz
   ENMAX  =  250.000; ENMIN  =  200.000 eV

   TITEL  = PAW_PBE Mg_pv 13Apr2007
   POMASS =   24.305; ZVAL   =    8.000    mass and valenz
   ENMAX  =  403.929; ENMIN  =  302.947 eV

   TITEL  = PAW_PBE O 08Apr2002
   POMASS =   16.000; ZVAL   =    6.000    mass and valenz
   ENMAX  =  400.000; ENMIN  =  300.000 eV

  PAW_PBE C 08Apr2002                   :
  PAW_PBE O 08Apr2002                   :
  PAW_PBE H 15Jun2001                   :
  PAW_PBE Mg_pv 13Apr2007               :
  PAW_PBE O 08Apr2002                   :

 POSCAR:  C  O  H Mg  O
  positions in direct lattice
  velocities in cartesian coordinates
|           W    W    AA    RRRRR   N    N  II  N    N   GGGG   !!!           |
|           W    W   A  A   R    R  NN   N  II  NN   N  G    G  !!!           |
|           W    W  A    A  R    R  N N  N  II  N N  N  G       !!!           |
|           W WW W  AAAAAA  RRRRR   N  N N  II  N  N N  G  GGG   !            |
|           WW  WW  A    A  R   R   N   NN  II  N   NN  G    G                |
|           W    W  A    A  R    R  N    N  II  N    N   GGGG   !!!           |
|     Specifying the vdW parameters                                           |
|     VDW_S8 = 1.201                                                          |
|     VDW_A1 = 0.401                                                          |
|     VDW_A2 = 5.029                                                          |
|     in the INCAR file will overwrite the defaults for pbe0. Please make     |
|     sure that is what you intended.                                         |

 ion  position               nearest neighbor table
   1  0.421  0.624  0.795-   3 1.09   6 1.09   5 1.10   2 1.41
   2  0.418  0.497  0.752-   4 1.00   1 1.41  22 2.23
   3  0.526  0.610  0.825-   1 1.09
   4  0.321  0.502  0.724-   2 1.00
   5  0.429  0.741  0.772-   1 1.10
   6  0.315  0.623  0.825-   1 1.09
   7  0.250  0.000  0.353-  41 2.09  42 2.09  49 2.09  58 2.09  39 2.09
   8  0.500  0.250  0.353-  41 2.09  42 2.09  50 2.09  57 2.09  40 2.09
   9  0.250  0.250  0.451-  39 2.09  40 2.09  47 2.09  56 2.09  41 2.09  45 2.10
  10  0.500  0.000  0.451-  46 2.09  40 2.09  39 2.09  48 2.09  55 2.09  42 2.09
  11  0.250  0.000  0.549-  46 2.08  62 2.09  45 2.09  39 2.09  53 2.09  43 2.12
  12  0.500  0.251  0.550-  54 2.08  61 2.09  44 2.09  45 2.09  46 2.10  40 2.11
  13  0.250  0.247  0.647-  43 2.07  45 2.07  44 2.09  60 2.09  51 2.12
  14  0.500  0.001  0.647-  44 2.07  52 2.08  46 2.08  59 2.09  43 2.09
  15  0.250  0.500  0.353-  41 2.09  49 2.09  50 2.09  66 2.09  47 2.09
  16  0.500  0.750  0.353-  42 2.09  49 2.09  50 2.09  65 2.09  48 2.09
  17  0.250  0.750  0.451-  39 2.09  47 2.09  48 2.09  64 2.09  49 2.09  53 2.09
  18  0.500  0.500  0.451-  40 2.09  47 2.09  48 2.09  63 2.09  50 2.09  54 2.11
  19  0.251  0.500  0.550-  54 2.07  45 2.08  53 2.08  70 2.09  47 2.11  51 2.17
  20  0.500  0.749  0.550-  54 2.08  69 2.09  53 2.09  46 2.09  52 2.10  48 2.11
  21  0.249  0.753  0.646-  53 2.06  43 2.06  68 2.08  52 2.09  51 2.11
  22  0.506  0.500  0.653-  67 2.05  44 2.10  52 2.11  54 2.18  51 2.18   2 2.23
  23  0.750  0.000  0.353-  42 2.09  57 2.09  58 2.09  65 2.09  55 2.09
  24  0.000  0.250  0.353-  41 2.09  57 2.09  58 2.09  66 2.09  56 2.09
  25  0.750  0.250  0.451-  40 2.09  55 2.09  56 2.09  63 2.09  57 2.09  61 2.09
  26  0.000  0.000  0.451-  39 2.09  55 2.09  56 2.09  64 2.09  58 2.09  62 2.09
  27  0.750  0.000  0.549-  46 2.09  61 2.09  69 2.09  62 2.09  55 2.10  59 2.12
  28  1.000  0.250  0.550-  61 2.08  45 2.09  70 2.09  62 2.09  56 2.10  60 2.12
  29  0.750  0.249  0.647-  59 2.08  61 2.08  44 2.09  60 2.09  67 2.10
  30  1.000  0.000  0.647-  62 2.08  60 2.08  59 2.08  68 2.08  43 2.09
  31  0.750  0.500  0.353-  50 2.09  57 2.09  65 2.09  66 2.09  63 2.09
  32  0.000  0.750  0.353-  49 2.09  58 2.09  65 2.09  66 2.09  64 2.09
  33  0.750  0.750  0.451-  48 2.09  55 2.09  63 2.09  64 2.09  65 2.09  69 2.09
  34  0.000  0.500  0.451-  47 2.09  56 2.09  63 2.09  64 2.09  66 2.09  70 2.10
  35  0.749  0.500  0.550-  54 2.08  61 2.09  69 2.09  70 2.10  63 2.11  67 2.12
  36  1.000  0.750  0.549-  69 2.08  70 2.09  53 2.09  62 2.09  64 2.10  68 2.12
  37  0.750  0.751  0.647-  69 2.08  59 2.08  68 2.09  52 2.09  67 2.09
  38  0.998  0.500  0.647-  67 2.05  51 2.07  70 2.07  60 2.09  68 2.09
  39  0.250  0.000  0.451-   9 2.09  10 2.09  17 2.09  26 2.09   7 2.09  11 2.09
  40  0.500  0.250  0.451-   9 2.09  10 2.09  18 2.09  25 2.09   8 2.09  12 2.11
  41  0.250  0.250  0.353-   7 2.09   8 2.09  15 2.09  24 2.09   9 2.09
  42  0.500  0.000  0.353-   7 2.09   8 2.09  16 2.09  23 2.09  10 2.09
  43  0.250  0.000  0.649-  21 2.06  13 2.07  30 2.09  14 2.09  11 2.12
  44  0.500  0.249  0.648-  14 2.07  13 2.09  29 2.09  12 2.09  22 2.10
  45  0.250  0.251  0.550-  13 2.07  19 2.08  28 2.09  11 2.09  12 2.09   9 2.10
  46  0.500  1.000  0.549-  14 2.08  11 2.08  10 2.09  27 2.09  20 2.09  12 2.10
  47  0.250  0.500  0.451-   9 2.09  17 2.09  18 2.09  34 2.09  15 2.09  19 2.11
  48  0.500  0.750  0.451-  10 2.09  17 2.09  18 2.09  33 2.09  16 2.09  20 2.11
  49  0.250  0.750  0.353-   7 2.09  15 2.09  16 2.09  32 2.09  17 2.09
  50  0.500  0.500  0.353-   8 2.09  15 2.09  16 2.09  31 2.09  18 2.09
  51  0.245  0.501  0.652-  38 2.07  21 2.11  13 2.12  19 2.17  22 2.18
  52  0.500  0.752  0.649-  14 2.08  21 2.09  37 2.09  20 2.10  22 2.11
  53  0.250  0.750  0.549-  21 2.06  19 2.08  36 2.09  20 2.09  11 2.09  17 2.09
  54  0.500  0.500  0.550-  19 2.07  20 2.08  12 2.08  35 2.08  18 2.11  22 2.18
  55  0.750  0.000  0.451-  10 2.09  25 2.09  26 2.09  33 2.09  23 2.09  27 2.10
  56  0.000  0.250  0.451-   9 2.09  25 2.09  26 2.09  34 2.09  24 2.09  28 2.10
  57  0.750  0.250  0.353-   8 2.09  23 2.09  24 2.09  31 2.09  25 2.09
  58  0.000  0.000  0.353-   7 2.09  23 2.09  24 2.09  32 2.09  26 2.09
  59  0.750  0.000  0.649-  37 2.08  29 2.08  30 2.08  14 2.09  27 2.12
  60  0.000  0.250  0.649-  30 2.08  13 2.09  29 2.09  38 2.09  28 2.12
  61  0.750  0.250  0.549-  28 2.08  29 2.08  35 2.09  27 2.09  12 2.09  25 2.09
  62  0.000  0.000  0.549-  30 2.08  36 2.09  11 2.09  28 2.09  26 2.09  27 2.09
  63  0.750  0.500  0.451-  18 2.09  25 2.09  33 2.09  34 2.09  31 2.09  35 2.11
  64  0.000  0.750  0.451-  17 2.09  26 2.09  33 2.09  34 2.09  32 2.09  36 2.10
  65  0.750  0.750  0.353-  16 2.09  23 2.09  31 2.09  32 2.09  33 2.09
  66  0.000  0.500  0.353-  15 2.09  24 2.09  31 2.09  32 2.09  34 2.09
  67  0.752  0.500  0.650-  38 2.05  22 2.05  37 2.09  29 2.10  35 2.12
  68  0.000  0.751  0.649-  21 2.08  30 2.08  37 2.09  38 2.09  36 2.12
  69  0.750  0.750  0.549-  37 2.08  36 2.08  20 2.09  35 2.09  27 2.09  33 2.09
  70  0.001  0.500  0.549-  38 2.07  36 2.09  28 2.09  19 2.09  34 2.10  35 2.10

IMPORTANT INFORMATION: All symmetrisations will be switched off!
NOSYMM: (Re-)initialisation of all symmetry stuff for point group C_1.

                                     Primitive cell

  volume of cell :    1482.1129

  direct lattice vectors                    reciprocal lattice vectors
     8.349111827  0.000000000  0.000000000     0.119773219  0.000000000  0.000000000
     0.000000000  8.349111827  0.000000000     0.000000000  0.119773219  0.000000000
     0.000000000  0.000000000 21.261833870     0.000000000  0.000000000  0.047032632

  length of vectors
     8.349111827  8.349111827 21.261833870     0.119773219  0.119773219  0.047032632

  position of ions in fractional coordinates (direct lattice)
     0.420757077  0.624403509  0.795319542
     0.418060723  0.496867921  0.751554408
     0.526092842  0.609686567  0.824972658
     0.320542938  0.502374174  0.724494597
     0.429105617  0.740724487  0.771694089
     0.314560814  0.622706538  0.825436222
     0.250000000  0.000000000  0.352744737
     0.500000000  0.250000000  0.352744737
     0.250000000  0.250000000  0.450914912
     0.500000000  0.000000000  0.450914912
     0.250302013  0.000366236  0.549317433
     0.500240594  0.251156678  0.550022301
     0.250113402  0.247492944  0.646938269
     0.500472263  0.000615383  0.646779864
     0.250000000  0.500000000  0.352744737
     0.500000000  0.750000000  0.352744737
     0.250000000  0.750000000  0.450914912
     0.500000000  0.500000000  0.450914912
     0.251041075  0.499940541  0.549965059
     0.500314507  0.749035332  0.550026032
     0.249422515  0.753085439  0.646096033
     0.506402499  0.499555871  0.652692280
     0.750000000  0.000000000  0.352744737
     0.000000000  0.250000000  0.352744737
     0.750000000  0.250000000  0.450914912
     0.000000000  0.000000000  0.450914912
     0.749734658  0.000216505  0.549466124
     0.999799975  0.250239023  0.549610884
     0.749890166  0.249273292  0.647290265
     0.999547668  0.000307962  0.647060830
     0.750000000  0.500000000  0.352744737
     0.000000000  0.750000000  0.352744737
     0.750000000  0.750000000  0.450914912
     0.000000000  0.500000000  0.450914912
     0.749063399  0.499994516  0.549933043
     0.999632996  0.749978585  0.549488364
     0.750214287  0.751108663  0.647044921
     0.997544244  0.500059827  0.647054732
     0.250000000  0.000000000  0.450914912
     0.500000000  0.250000000  0.450914912
     0.250000000  0.250000000  0.352744737
     0.500000000  0.000000000  0.352744737
     0.249692854  0.000010288  0.649244727
     0.499907695  0.248524758  0.648313637
     0.249611625  0.250681789  0.549520366
     0.499826143  0.999919447  0.549049356
     0.250000000  0.500000000  0.450914912
     0.500000000  0.750000000  0.450914912
     0.250000000  0.750000000  0.352744737
     0.500000000  0.500000000  0.352744737
     0.244887467  0.500528166  0.651839904
     0.499778119  0.751919305  0.648997374
     0.249675422  0.749578717  0.549397655
     0.499550220  0.500256786  0.550307875
     0.750000000  0.000000000  0.450914912
     0.000000000  0.250000000  0.450914912
     0.750000000  0.250000000  0.352744737
     0.000000000  0.000000000  0.352744737
     0.750265860  0.000065337  0.649337754
     0.000062813  0.249511926  0.649446674
[...]
   0.00000000  4.17455591  9.58727796
   6.25401408  4.17451012 11.69258499
   8.34604767  6.26165507 11.68313030
   6.26362298  6.27109022 13.75736163
   8.32860845  4.17505541 13.75757021
   2.08727796  0.00000000  9.58727796
   4.17455591  2.08727796  9.58727796
   2.08727796  2.08727796  7.50000000
   4.17455591  0.00000000  7.50000000
   2.08471356  0.00008589 13.80413352
   4.17378525  2.07496099 13.78433685
   2.08403537  2.09297029 11.68381072
   4.17310436  8.34843928 11.67379619
   2.08727796  4.17455591  9.58727796
   4.17455591  6.26183387  9.58727796
   2.08727796  6.26183387  7.50000000
   4.17455591  4.17455591  7.50000000
   2.04459285  4.17896563 13.85931174
   4.17270341  6.27785836 13.79887435
   2.08456802  6.25831653 11.68120167
   4.17080065  4.17669985 11.70055461
   6.26183387  0.00000000  9.58727796
   0.00000000  2.08727796  9.58727796
   6.26183387  2.08727796  7.50000000
   0.00000000  0.00000000  7.50000000
   6.26405357  0.00054551 13.80611146
   0.00052443  2.08320297 13.80842728
   6.26529150  2.08865379 11.67935220
   0.00176674  0.00032432 11.67712180
   6.26183387  4.17455591  9.58727796
   0.00000000  6.26183387  9.58727796
   6.26183387  6.26183387  7.50000000
   0.00000000  4.17455591  7.50000000
   6.27918809  4.17740001 13.80983920
   0.00046174  6.26897136 13.80809900
   6.26409014  6.26203473 11.67960267
   0.00420235  4.17598206 11.68281324

--------------------------------------- Iteration      FINAL  ---------------------------------------

--------------------OUTCAR has been truncated-------------------------

[...]

--------------------OUTCAR has been truncated-------------------------

  FORCE on cell =-STRESS in cart. coord.  units (eV):
  Direction    XX          YY          ZZ          XY          YZ          ZX
  Alpha Z   942.23310   942.23310   942.23310
  Ewald  163044.95126163100.32013************    13.05928   138.58062    35.81706
  Hartree173473.97511173530.62127************     8.59947    79.36381     6.90891
  E(xc)   -1901.88453 -1901.92262 -1904.66205     0.00099     0.13370     0.15887
  Local  ************************346275.98219   -21.92941  -208.17863   -32.69016
  n-local  -749.93432  -748.41409  -772.57934     0.31298     1.48186    -0.37428
  augment   833.39504   833.56259   822.51524     0.01260    -0.88318    -0.64302
  Kinetic  7573.38695  7577.76733  7607.60000    -0.09198   -10.71230    -9.10959
  Fock    -2525.04199 -2524.73233 -2520.96614     0.01302     0.26469    -0.04152
  vdW        -9.29739    -9.29747    -6.58040    -0.00151    -0.00325     0.00781
  Total     -28.97628   -29.16975    -2.40562    -0.02456     0.04733     0.03409
  in kB     -31.32362   -31.53276    -2.60050    -0.02655     0.05116     0.03685

 VOLUME and BASIS-vectors are now :
  energy-cutoff  :      600.00
  volume of cell :     1482.11
      direct lattice vectors                 reciprocal lattice vectors
     8.349111827  0.000000000  0.000000000     0.119773219  0.000000000  0.000000000
     0.000000000  8.349111827  0.000000000     0.000000000  0.119773219  0.000000000
     0.000000000  0.000000000 21.261833870     0.000000000  0.000000000  0.047032632

  length of vectors
     8.349111827  8.349111827 21.261833870     0.119773219  0.119773219  0.047032632

 FORCES acting on ions:
    Electron-Ion                     Ewald-Force                    Non-Local-Force
   -.848E+01 -.936E+02 -.105E+04   0.900E+01 0.983E+02 0.105E+04   -.490E+00 -.435E+01 -.366E+01
   -.233E+02 0.136E+03 -.165E+04   0.481E+02 -.168E+03 0.164E+04   -.213E+02 0.278E+02 0.199E+01
   -.524E+02 -.134E+01 -.251E+03   0.574E+02 0.640E+00 0.254E+03   -.471E+01 0.669E+00 -.297E+01
   0.720E+02 0.418E+01 -.260E+03   -.783E+02 -.392E+01 0.256E+03   0.596E+01 -.250E+00 0.402E+01
   -.319E+01 -.624E+02 -.246E+03   0.349E+01 0.676E+02 0.243E+03   -.284E+00 -.491E+01 0.249E+01
   0.459E+02 -.719E+01 -.251E+03   -.504E+02 0.707E+01 0.254E+03   0.423E+01 0.109E+00 -.352E+01
   0.137E+00 -.976E-01 0.215E+04   -.132E+00 0.988E-01 -.214E+04   -.285E-02 -.792E-03 -.680E+01
   -.699E-01 -.343E-01 0.215E+04   0.729E-01 0.408E-01 -.214E+04   -.187E-02 -.428E-02 -.684E+01
   0.401E+00 0.430E-01 0.754E+03   -.389E+00 0.458E-01 -.754E+03   -.547E-02 -.564E-01 0.521E+00
   -.456E+00 -.419E+00 0.755E+03   0.494E+00 0.394E+00 -.756E+03   -.237E-01 0.160E-01 0.251E+00
   0.487E+01 -.185E+01 -.627E+03   -.480E+01 0.191E+01 0.627E+03   -.672E-01 -.547E-01 -.462E-01
   -.189E+01 0.469E+01 -.622E+03   0.196E+01 -.441E+01 0.623E+03   -.591E-01 -.253E+00 -.102E+01
   0.287E+02 0.320E+02 -.200E+04   -.287E+02 -.332E+02 0.199E+04   -.291E-01 0.105E+01 0.596E+01
   -.856E+01 -.908E+01 -.202E+04   0.875E+01 0.929E+01 0.201E+04   -.165E+00 -.186E+00 0.585E+01
   0.108E+00 0.981E-01 0.215E+04   -.987E-01 -.993E-01 -.214E+04   -.574E-02 0.779E-03 -.683E+01
   -.820E-01 0.335E-01 0.215E+04   0.854E-01 -.404E-01 -.214E+04   -.212E-02 0.462E-02 -.685E+01
   0.388E+00 -.593E-01 0.754E+03   -.344E+00 -.287E-01 -.755E+03   -.267E-01 0.562E-01 0.516E+00
   -.468E+00 0.399E+00 0.753E+03   0.436E+00 -.384E+00 -.753E+03   0.211E-01 -.103E-01 0.622E+00
   0.500E+01 0.193E+01 -.631E+03   -.472E+01 -.199E+01 0.630E+03   -.255E+00 0.535E-01 0.903E+00
   -.245E+01 -.467E+01 -.622E+03   0.255E+01 0.438E+01 0.623E+03   -.849E-01 0.257E+00 -.600E+00
   0.344E+02 -.330E+02 -.197E+04   -.346E+02 0.342E+02 0.196E+04   0.164E+00 -.103E+01 0.600E+01
   -.401E+02 0.124E+02 -.191E+04   0.422E+02 -.126E+02 0.190E+04   -.186E+01 0.171E+00 0.263E+01
   -.136E+00 -.860E-01 0.215E+04   0.131E+00 0.867E-01 -.214E+04   0.288E-02 -.401E-03 -.683E+01
   0.693E-01 -.511E-02 0.215E+04   -.723E-01 0.758E-02 -.214E+04   0.185E-02 -.153E-02 -.683E+01
   -.388E+00 -.265E-01 0.754E+03   0.377E+00 0.335E-01 -.754E+03   0.509E-02 -.360E-02 0.388E+00
   0.440E+00 -.421E+00 0.753E+03   -.479E+00 0.436E+00 -.753E+03   0.242E-01 -.882E-02 0.391E+00
   -.479E+01 -.132E+01 -.634E+03   0.471E+01 0.135E+01 0.634E+03   0.651E-01 -.287E-01 -.829E-01
   0.187E+01 0.347E+01 -.635E+03   -.195E+01 -.343E+01 0.636E+03   0.673E-01 -.382E-01 -.179E+00
   -.248E+02 0.209E+02 -.203E+04   0.248E+02 -.212E+02 0.202E+04   0.457E-01 0.320E+00 0.589E+01
   0.734E+01 -.456E+01 -.204E+04   -.753E+01 0.461E+01 0.203E+04   0.161E+00 -.424E-01 0.579E+01
   -.106E+00 0.860E-01 0.215E+04   0.978E-01 -.868E-01 -.214E+04   0.557E-02 0.484E-03 -.682E+01
   0.807E-01 0.463E-02 0.215E+04   -.844E-01 -.723E-02 -.214E+04   0.229E-02 0.162E-02 -.682E+01
   -.376E+00 0.167E-01 0.754E+03   0.326E+00 -.260E-01 -.755E+03   0.293E-01 0.495E-02 0.422E+00
   0.455E+00 0.421E+00 0.753E+03   -.420E+00 -.438E+00 -.753E+03   -.233E-01 0.103E-01 0.451E+00
   -.593E+01 0.136E+01 -.627E+03   0.568E+01 -.139E+01 0.627E+03   0.226E+00 0.277E-01 -.329E+00
   0.239E+01 -.348E+01 -.632E+03   -.250E+01 0.344E+01 0.632E+03   0.949E-01 0.377E-01 -.118E+00
   -.292E+02 -.215E+02 -.201E+04   0.294E+02 0.219E+02 0.201E+04   -.104E+00 -.306E+00 0.589E+01
   0.163E+02 0.487E+01 -.202E+04   -.168E+02 -.492E+01 0.201E+04   0.449E+00 0.450E-01 0.569E+01
   0.603E+00 -.281E+00 0.566E+03   -.578E+00 0.275E+00 -.566E+03   -.311E-01 0.614E-02 0.124E-01
   -.135E+00 -.684E-01 0.565E+03   0.153E+00 0.416E-02 -.564E+03   -.225E-01 0.743E-01 -.164E+00
   0.882E-01 -.144E-01 0.161E+04   -.838E-01 0.229E-01 -.162E+04   -.523E-02 -.103E-01 0.301E+01
   -.609E-01 -.685E-01 0.161E+04   0.675E-01 0.675E-01 -.162E+04   -.788E-02 0.122E-02 0.300E+01
   0.125E+02 -.711E+01 -.154E+04   -.124E+02 0.716E+01 0.155E+04   -.905E-01 -.377E-01 -.458E+01
   -.115E+02 0.352E+02 -.150E+04   0.115E+02 -.347E+02 0.151E+04   0.780E-01 -.432E+00 -.471E+01
   0.372E+01 0.269E+01 -.465E+03   -.364E+01 -.278E+01 0.464E+03   -.704E-01 0.736E-01 0.457E+00
   -.191E+01 -.122E+01 -.462E+03   0.195E+01 0.125E+01 0.462E+03   -.279E-01 -.272E-01 0.278E+00
   0.453E+00 0.289E+00 0.565E+03   -.497E+00 -.284E+00 -.565E+03   0.482E-01 -.527E-02 -.139E+00
   -.210E+00 0.587E-01 0.565E+03   0.223E+00 0.171E-01 -.565E+03   -.164E-01 -.876E-01 -.188E+00
   0.857E-01 0.139E-01 0.161E+04   -.777E-01 -.225E-01 -.162E+04   -.960E-02 0.104E-01 0.301E+01
   -.599E-01 0.691E-01 0.161E+04   0.590E-01 -.677E-01 -.162E+04   0.117E-02 -.169E-02 0.299E+01
   0.479E+02 0.823E+01 -.147E+04   -.478E+02 -.827E+01 0.147E+04   -.125E+00 0.372E-01 -.152E+01
   -.154E+02 -.372E+02 -.148E+04   0.153E+02 0.367E+02 0.149E+04   0.685E-01 0.456E+00 -.442E+01
   0.377E+01 -.273E+01 -.459E+03   -.371E+01 0.282E+01 0.458E+03   -.531E-01 -.731E-01 0.680E+00
   -.711E+00 0.126E+01 -.473E+03   0.757E+00 -.130E+01 0.473E+03   -.403E-01 0.326E-01 -.775E+00
   -.594E+00 -.217E+00 0.565E+03   0.570E+00 0.221E+00 -.565E+03   0.302E-01 -.534E-02 -.768E-01
   0.127E+00 0.561E-01 0.564E+03   -.145E+00 -.555E-01 -.564E+03   0.231E-01 0.223E-04 -.106E+00
   -.877E-01 -.134E-01 0.161E+04   0.833E-01 0.144E-01 -.162E+04   0.526E-02 -.124E-02 0.300E+01
   0.604E-01 -.713E-01 0.161E+04   -.670E-01 0.737E-01 -.162E+04   0.786E-02 -.285E-02 0.301E+01
   -.116E+02 -.459E+01 -.155E+04   0.115E+02 0.461E+01 0.156E+04   0.846E-01 -.147E-01 -.454E+01
   0.852E+01 0.114E+02 -.155E+04   -.846E+01 -.111E+02 0.155E+04   -.480E-01 -.195E+00 -.455E+01
   -.369E+01 0.302E+01 -.467E+03   0.360E+01 -.303E+01 0.467E+03   0.760E-01 0.755E-02 0.250E+00
   0.183E+01 -.116E+01 -.472E+03   -.186E+01 0.117E+01 0.472E+03   0.237E-01 -.886E-02 0.240E+00
   -.432E+00 0.213E+00 0.564E+03   0.470E+00 -.214E+00 -.564E+03   -.419E-01 0.230E-02 -.103E+00
   0.190E+00 -.641E-01 0.565E+03   -.197E+00 0.668E-01 -.565E+03   0.985E-02 -.364E-02 -.682E-01
   -.848E-01 0.133E-01 0.161E+04   0.769E-01 -.143E-01 -.162E+04   0.938E-02 0.118E-02 0.300E+01
   0.590E-01 0.717E-01 0.161E+04   -.583E-01 -.740E-01 -.162E+04   -.997E-03 0.273E-02 0.301E+01
   -.341E+02 0.497E+01 -.152E+04   0.342E+02 -.500E+01 0.153E+04   -.339E-01 0.171E-01 -.441E+01
   0.109E+02 -.116E+02 -.154E+04   -.108E+02 0.114E+02 0.155E+04   -.136E-01 0.201E+00 -.457E+01
   -.373E+01 -.305E+01 -.465E+03   0.366E+01 0.306E+01 0.465E+03   0.586E-01 -.944E-02 0.340E+00
   0.140E+01 0.118E+01 -.467E+03   -.144E+01 -.119E+01 0.466E+03   0.348E-01 0.104E-01 0.398E+00
   0.215E+02 -.232E+02 0.215E+02   0.135E-12 0.117E-12 -.199E-11   -.181E+02 0.191E+02 -.187E+02

 POSITION                                       TOTAL-FORCE (eV/Angst)
      3.60091      5.16605     16.90599         0.003904      0.008523      0.002592
      3.52413      4.11476     15.96443         0.005538     -0.007886     -0.001311
      4.51777      5.03340     17.48049         0.003273      0.000283      0.002038
      2.69458      4.18140     15.41402        -0.004555      0.002652     -0.001229
      3.64228      6.14406     16.41385        -0.000404      0.000129      0.001891
      2.75410      5.14155     17.59828        -0.000258      0.000201      0.004264
      2.08728      0.00000      7.50000         0.001281      0.000381      0.420706
      4.17456      2.08728      7.50000         0.000811      0.001504      0.429511
      2.08728      2.08728      9.58728         0.004823      0.023439      0.056687
      4.17456      0.00000      9.58728         0.010672     -0.006404      0.072913
      2.08918      0.00157     11.67960        -0.000617     -0.000047      0.002798
      4.17615      2.09498     11.69361        -0.000622      0.000261      0.001728
      2.08870      2.06480     13.75575        -0.000333      0.000868     -0.000884
      4.17837      0.00294     13.75125        -0.000442      0.000071     -0.000277
      2.08728      4.17456      7.50000         0.002100     -0.000187      0.429155
      4.17456      6.26183      7.50000         0.000883     -0.001477      0.431811
      2.08728      6.26183      9.58728         0.013171     -0.022781      0.053236
      4.17456      4.17456      9.58728        -0.007073      0.003300      0.098297
      2.09570      4.17292     11.69337         0.000477      0.000355      0.002599
      4.17657      6.25271     11.69457        -0.000591     -0.000003      0.001855
      2.08272      6.28444     13.73944         0.000280     -0.000726     -0.000626
      4.22926      4.16602     13.87289        -0.000383      0.000529     -0.003056
      6.26183      0.00000      7.50000        -0.001410      0.000263      0.428561
      0.00000      2.08728      7.50000        -0.000926      0.000756      0.427496
      6.26183      2.08728      9.58728        -0.005010      0.002757      0.060384
      0.00000      0.00000      9.58728        -0.010840      0.004079      0.047188
      6.25985      0.00057     11.68225        -0.000475     -0.000233      0.003428
      8.34752      2.08833     11.68608         0.000139     -0.000455      0.002231
      6.26047      2.07918     13.76152         0.000003     -0.000188     -0.000030
      8.34478      0.00074     13.75858        -0.000408      0.000064      0.000787
      6.26183      4.17456      7.50000        -0.002171     -0.000107      0.426289
      0.00000      6.26183      7.50000        -0.001045     -0.000617      0.424846
      6.26183      6.26183      9.58728        -0.015264     -0.003195      0.056685
      0.00000      4.17456      9.58728         0.008758     -0.004809      0.078195
      6.25465      4.17345     11.69127         0.000033     -0.000078      0.002875
      8.34630      6.26032     11.68394         0.000153      0.000414      0.002124
      6.26327      6.26888     13.75680        -0.000053      0.000317      0.000253
      8.32914      4.17297     13.75886         0.000613     -0.000109      0.000686
      2.08728      0.00000      9.58728        -0.011862      0.001359      0.066123
      4.17456      2.08728      9.58728        -0.009142      0.023703      0.079389
      2.08728      2.08728      7.50000        -0.001848     -0.003533     -0.563311
      4.17456      0.00000      7.50000        -0.002738      0.000513     -0.565643
      2.08410     -0.00198     13.80445         0.000457      0.000320     -0.001061
      4.17400      2.07080     13.78001        -0.000342      0.000448      0.002531
      2.08387      2.09222     11.68422        -0.000666     -0.000194     -0.001007
      4.17296      8.34652     11.67330        -0.000039      0.000173     -0.001765
      2.08728      4.17456      9.58728         0.013354     -0.001012      0.083926
      4.17456      6.26183      9.58728        -0.007163     -0.027750      0.074294
      2.08728      6.26183      7.50000        -0.003367      0.003727     -0.562855
      4.17456      4.17456      7.50000         0.000396     -0.000530     -0.567894
      2.04535      4.17721     13.86289         0.001649      0.000098     -0.000794
      4.17245      6.27560     13.80014        -0.000205     -0.000341      0.001900
      2.08480      6.25663     11.68237        -0.000756      0.000677     -0.000577
      4.17021      4.17559     11.70096        -0.000231      0.000194     -0.002442
      6.26183      0.00000      9.58728         0.011376     -0.002219      0.047403
      0.00000      2.08728      9.58728         0.009393      0.000550      0.057624
      6.26183      2.08728      7.50000         0.001742     -0.000386     -0.565616
      0.00000      0.00000      7.50000         0.002617     -0.000899     -0.562522
      6.26415     -0.00156     13.80626         0.000556      0.000579      0.001051
      0.00001      2.08152     13.80883        -0.000390      0.000024      0.000940
      6.26538      2.08753     11.67896         0.000038      0.000039     -0.001952
      0.00143     -0.00079     11.67802        -0.000059      0.000096     -0.001554
      6.26183      4.17456      9.58728        -0.011954      0.001463      0.088890
      0.00000      6.26183      9.58728         0.005278     -0.001467      0.059601
      6.26183      6.26183      7.50000         0.003172      0.000527     -0.565301
      0.00000      4.17456      7.50000        -0.000446      0.001013     -0.563590
      6.27987      4.17550     13.80870        -0.001309     -0.000037      0.001077
     -0.00008      6.26695     13.80859        -0.000527      0.000507      0.000631
      6.26377      6.26101     11.67982         0.000202      0.000209     -0.002110
      0.00447      4.17488     11.68332        -0.001217      0.000309     -0.002077
    total drift:                                0.003923     -0.005718      0.009325

  FREE ENERGIE OF THE ION-ELECTRON SYSTEM (eV)
  free  energy   TOTEN  =      -510.66506015 eV

  energy  without entropy=     -510.66506015  energy(sigma->0) =     -510.66506015

 d Force = 0.4590739E-05[ 0.466E-06, 0.872E-05]  d Energy = 0.4864306E-05-0.274E-06
 d Force =-0.4087637E-01[-0.409E-01,-0.409E-01]  d Ewald  =-0.4087679E-01 0.416E-06

 reached required accuracy - stopping structural energy minimisation