 vasp.6.3.0 20Jan22 (build Mar 11 2022 13:48:16) complex

 executed on             LinuxIFC date 2024.02.12  00:31:01

 INCAR:
   SYSTEM = Oxide-Surface
   ISMEAR = 0
   SIGMA = 0.05
   EDIFF = 1E-5
   ALGO = ALL
   ISTART = 0
   IBRION = -1
   NSW = 0
   ISYM = 2
   DIPOL = 0.5 0.5 0.5
   IDIPOL = 3
   LDIPOL = .TRUE.
   GGA = PE
   IVDW = 11
   ENCUT = 600
   PREC = Accurate
   LASPH = .TRUE.
   LREAL = .FALSE.
   ISPIN = 1
   NELM = 200
   NELMIN = 8
   NCORE = 19
   KPAR = 1
   LWAVE = .FALSE.
   LCHARG = .FALSE.

 POTCAR:    PAW_PBE Mg_pv 13Apr2007
 POTCAR:    PAW_PBE O 08Apr2002
 POTCAR:    PAW_PBE Mg_pv 13Apr2007
   VRHFIN =Mg: p6s2

   TITEL  = PAW_PBE Mg_pv 13Apr2007
   POMASS =   24.305; ZVAL   =    8.000    mass and valenz
   ENMAX  =  403.929; ENMIN  =  302.947 eV

   TITEL  = PAW_PBE O 08Apr2002
   POMASS =   16.000; ZVAL   =    6.000    mass and valenz
   ENMAX  =  400.000; ENMIN  =  300.000 eV

  PAW_PBE Mg_pv 13Apr2007               :
  PAW_PBE O 08Apr2002                   :

 POSCAR: Mg  O
  positions in direct lattice
 exchange correlation table for  LEXCH =        8
   RHO(1)=    0.500       N(1)  =     2000
   RHO(2)=  100.500       N(2)  =     4000

 ion  position               nearest neighbor table
   1  0.000  0.750  0.352-  33 2.11  35 2.11  36 2.11  43 2.11  52 2.11
   2  0.250  0.000  0.352-  34 2.11  35 2.11  36 2.11  44 2.11  51 2.11
   3  0.000  0.000  0.451-  35 2.11  34 2.11  33 2.11  41 2.11  50 2.11  39 2.12
   4  0.250  0.750  0.451-  36 2.11  34 2.11  33 2.11  42 2.11  49 2.11  40 2.12
   5  1.000  0.750  0.550-  47 2.11  56 2.11  39 2.11  40 2.11  33 2.12  37 2.15
   6  0.250  0.000  0.550-  48 2.11  55 2.11  40 2.11  39 2.11  34 2.12  38 2.15
   7  1.000  0.000  0.649-  45 2.11  54 2.11  39 2.11  38 2.11  37 2.11
   8  0.250  0.750  0.648-  40 2.10  37 2.11  38 2.11  46 2.11  53 2.11
   9  0.000  0.250  0.352-  41 2.11  35 2.11  43 2.11  44 2.11  60 2.11
  10  0.250  0.500  0.352-  42 2.11  36 2.11  43 2.11  44 2.11  59 2.11
  11  0.000  0.500  0.451-  43 2.11  41 2.11  42 2.11  33 2.11  58 2.11  47 2.12
  12  0.250  0.250  0.451-  44 2.11  41 2.11  42 2.11  34 2.11  57 2.11  48 2.12
  13  1.000  0.250  0.550-  64 2.11  48 2.11  47 2.11  39 2.11  41 2.12  45 2.15
  14  0.250  0.500  0.550-  63 2.11  48 2.11  40 2.11  47 2.11  42 2.13  46 2.15
  15  1.000  0.500  0.649-  62 2.10  46 2.10  47 2.11  45 2.11  37 2.11
  16  0.250  0.250  0.649-  48 2.11  61 2.11  45 2.11  38 2.11  46 2.11
  17  0.500  0.750  0.352-  49 2.11  36 2.11  51 2.11  52 2.11  59 2.11
  18  0.750  0.000  0.352-  50 2.11  35 2.11  51 2.11  52 2.11  60 2.11
  19  0.500  0.000  0.451-  51 2.11  49 2.11  50 2.11  34 2.11  57 2.11  55 2.12
  20  0.750  0.750  0.451-  52 2.11  49 2.11  50 2.11  33 2.11  58 2.11  56 2.12
  21  0.500  0.750  0.550-  63 2.11  56 2.11  40 2.11  55 2.11  49 2.13  53 2.15
  22  0.750  0.000  0.550-  64 2.11  55 2.11  56 2.11  39 2.11  50 2.12  54 2.15
  23  0.500  0.000  0.649-  61 2.10  53 2.11  55 2.11  54 2.11  38 2.11
  24  0.750  0.750  0.649-  56 2.10  62 2.11  37 2.11  54 2.11  53 2.11
  25  0.500  0.250  0.352-  57 2.11  51 2.11  44 2.11  59 2.11  60 2.11
  26  0.750  0.500  0.352-  58 2.11  52 2.11  43 2.11  59 2.11  60 2.11
  27  0.500  0.500  0.451-  59 2.11  49 2.11  57 2.11  58 2.11  42 2.11  63 2.13
  28  0.750  0.250  0.451-  60 2.11  50 2.11  57 2.11  58 2.11  41 2.11  64 2.12
  29  0.500  0.250  0.550-  63 2.11  64 2.11  48 2.11  55 2.12  57 2.13  61 2.14
  30  0.750  0.500  0.550-  63 2.11  64 2.11  56 2.11  47 2.11  58 2.13  62 2.14
  31  0.500  0.499  0.651-  61 2.11  62 2.12  46 2.12  53 2.12  63 2.15
  32  0.750  0.250  0.649-  64 2.11  61 2.11  62 2.11  45 2.11  54 2.11
  33  0.000  0.750  0.451-   1 2.11   3 2.11   4 2.11  11 2.11  20 2.11   5 2.12
  34  0.250  0.000  0.451-   2 2.11   3 2.11   4 2.11  12 2.11  19 2.11   6 2.12
  35  0.000  0.000  0.352-   3 2.11   2 2.11   1 2.11   9 2.11  18 2.11
  36  0.250  0.750  0.352-   4 2.11   2 2.11   1 2.11  10 2.11  17 2.11
  37  0.000  0.750  0.651-   8 2.11  24 2.11   7 2.11  15 2.11   5 2.15
  38  0.250  1.000  0.651-   8 2.11   7 2.11  16 2.11  23 2.11   6 2.15
  39  0.000  1.000  0.550-   7 2.11   5 2.11   6 2.11  22 2.11  13 2.11   3 2.12
  40  0.250  0.750  0.550-   8 2.10  21 2.11   5 2.11   6 2.11  14 2.11   4 2.12
  41  0.000  0.250  0.451-   9 2.11   3 2.11  11 2.11  12 2.11  28 2.11  13 2.12
  42  0.250  0.500  0.451-  10 2.11   4 2.11  11 2.11  12 2.11  27 2.11  14 2.13
  43  0.000  0.500  0.352-  11 2.11   9 2.11  10 2.11   1 2.11  26 2.11
  44  0.250  0.250  0.352-  12 2.11   9 2.11  10 2.11   2 2.11  25 2.11
  45  0.000  0.250  0.651-   7 2.11  16 2.11  15 2.11  32 2.11  13 2.15
  46  0.249  0.500  0.651-  15 2.10   8 2.11  16 2.11  31 2.12  14 2.15
  47  0.000  0.500  0.550-  15 2.11   5 2.11  13 2.11  14 2.11  30 2.11  11 2.12
  48  0.250  0.250  0.550-  16 2.11   6 2.11  13 2.11  14 2.11  29 2.11  12 2.12
  49  0.500  0.750  0.451-  17 2.11   4 2.11  19 2.11  20 2.11  27 2.11  21 2.13
  50  0.750  0.000  0.451-  18 2.11   3 2.11  19 2.11  20 2.11  28 2.11  22 2.12
  51  0.500  0.000  0.352-  19 2.11  17 2.11  18 2.11   2 2.11  25 2.11
  52  0.750  0.750  0.352-  20 2.11  17 2.11  18 2.11   1 2.11  26 2.11
  53  0.500  0.751  0.651-  23 2.11   8 2.11  24 2.11  31 2.12  21 2.15
  54  0.750  1.000  0.651-   7 2.11  24 2.11  32 2.11  23 2.11  22 2.15
  55  0.500  1.000  0.550-  23 2.11   6 2.11  22 2.11  21 2.11  29 2.12  19 2.12
  56  0.750  0.750  0.550-  24 2.10   5 2.11  21 2.11  22 2.11  30 2.11  20 2.12
  57  0.500  0.250  0.451-  25 2.11  19 2.11  12 2.11  27 2.11  28 2.11  29 2.13
  58  0.750  0.500  0.451-  26 2.11  20 2.11  11 2.11  27 2.11  28 2.11  30 2.13
  59  0.500  0.500  0.352-  27 2.11  17 2.11  25 2.11  26 2.11  10 2.11
  60  0.750  0.250  0.352-  28 2.11  18 2.11  25 2.11  26 2.11   9 2.11
  61  0.500  0.249  0.651-  23 2.10  16 2.11  32 2.11  31 2.11  29 2.14
  62  0.751  0.500  0.651-  15 2.10  24 2.11  32 2.11  31 2.12  30 2.14
  63  0.500  0.500  0.550-  21 2.11  14 2.11  30 2.11  29 2.11  27 2.13  31 2.15
  64  0.750  0.250  0.550-  32 2.11  22 2.11  13 2.11  30 2.11  29 2.11  28 2.12

  LATTYP: Found a simple tetragonal cell.
 ALAT       =     8.4409846542
 C/A-ratio  =     2.5270438657

  Lattice vectors:

 A1 = (   8.4409846542,   0.0000000000,   0.0000000000)
 A2 = (   0.0000000000,   8.4409846542,   0.0000000000)
 A3 = (   0.0000000000,   0.0000000000,  21.3307384906)

Analysis of symmetry for initial positions (statically):
 Subroutine PRICEL returns:
 Original cell was already a primitive cell.

 Routine SETGRP: Setting up the symmetry group for a
 simple tetragonal supercell.

 Subroutine GETGRP returns: Found  1 space group operations
 (whereof  1 operations were pure point group operations)
 out of a pool of 16 trial point group operations.

The static configuration has the point symmetry C_1 .

Analysis of symmetry for dynamics (positions and initial velocities):
 Subroutine PRICEL returns:
 Original cell was already a primitive cell.

[...]

The dynamic configuration has the point symmetry C_1 .

Analysis of constrained symmetry for selective dynamics:
 Subroutine PRICEL returns:
 Original cell was already a primitive cell.

 Routine SETGRP: Setting up the symmetry group for a
 simple tetragonal supercell.

 Subroutine GETGRP returns: Found  1 space group operations
 (whereof  1 operations were pure point group operations)
 out of a pool of 16 trial point group operations.

The constrained configuration has the point symmetry C_1 .

 Subroutine INISYM returns: Found  1 space group operations
 (whereof  1 operations are pure point group operations),
 and found     1 'primitive' translations

                                     Primitive cell

  volume of cell :    1519.8199

  direct lattice vectors                    reciprocal lattice vectors
     8.440984654  0.000000000  0.000000000     0.118469591  0.000000000  0.000000000
     0.000000000  8.440984654  0.000000000     0.000000000  0.118469591  0.000000000
     0.000000000  0.000000000 21.330738491     0.000000000  0.000000000  0.046880702

  length of vectors
     8.440984654  8.440984654 21.330738491     0.118469591  0.118469591  0.046880702

  position of ions in fractional coordinates (direct lattice)
     0.000000000  0.750000000  0.351605267
     0.250000000  0.000000000  0.351605267
     0.000000000  0.000000000  0.450535089
     0.250000000  0.750000000  0.450535089
     0.999954346  0.749943911  0.550033337
     0.250059217  0.000083621  0.550049328
     0.999974613  0.000078779  0.648776369
     0.249800109  0.750104580  0.648369797
     0.000000000  0.250000000  0.351605267
     0.250000000  0.500000000  0.351605267
     0.000000000  0.500000000  0.450535089
     0.250000000  0.250000000  0.450535089
     0.999992643  0.250071267  0.550081376
     0.250466599  0.499936424  0.550285804
     0.999910591  0.499944107  0.648595353
     0.250071256  0.249972791  0.648663217
     0.500000000  0.750000000  0.351605267
     0.750000000  0.000000000  0.351605267
     0.500000000  0.000000000  0.450535089
     0.750000000  0.750000000  0.450535089
     0.500019170  0.749513781  0.550294524
     0.749931195  0.000045804  0.550067803
     0.500000635  0.000284138  0.648599469
     0.750105583  0.749980305  0.648513915
     0.500000000  0.250000000  0.351605267
     0.750000000  0.500000000  0.351605267
     0.500000000  0.500000000  0.450535089
     0.750000000  0.250000000  0.450535089
     0.500014918  0.250394168  0.550308765
     0.749553765  0.499942387  0.550295926
     0.500181848  0.499312364  0.650965447
     0.749943309  0.249994221  0.648681965
     0.000000000  0.750000000  0.450535089
     0.250000000  0.000000000  0.450535089
     0.000000000  0.000000000  0.351605267
     0.250000000  0.750000000  0.351605267
     0.000012200  0.750130927  0.651051999
     0.249850447  0.999920408  0.651044229
     0.000002071  0.999970731  0.549879102
     0.249988900  0.750048197  0.549864299
     0.000000000  0.250000000  0.450535089
     0.250000000  0.500000000  0.450535089
     0.000000000  0.500000000  0.351605267
     0.250000000  0.250000000  0.351605267
     0.000021798  0.249888812  0.651053889
     0.249183234  0.500152064  0.651003323
     0.000044966  0.500042088  0.549823568
     0.249901523  0.249969111  0.549858607
     0.500000000  0.750000000  0.450535089
     0.750000000  0.000000000  0.450535089
     0.500000000  0.000000000  0.351605267
     0.750000000  0.750000000  0.351605267
     0.499910216  0.750845655  0.651282283
     0.750127192  0.999910415  0.651062982
     0.499988513  0.999825680  0.549826079
     0.749987876  0.750064282  0.549877255
     0.500000000  0.250000000  0.450535089
     0.750000000  0.500000000  0.450535089
     0.500000000  0.500000000  0.351605267
     0.750000000  0.250000000  0.351605267
     0.499985243  0.249093791  0.650645830
     0.750813028  0.500082222  0.650835349
     0.499974736  0.500084682  0.550243536
     0.750104413  0.249925398  0.549847355

  ion indices of the primitive-cell ions
   primitive index   ion index
                 1           1
                 2           2
                 3           3
[...]
   2.11024616  6.33073849  9.61024616
   8.44059929  6.33026504 11.73261728
   2.11074601  0.00070585 11.73295836
   8.44077037  0.00066497 13.83887907
   2.10855889  6.33162125 13.83020658
   0.00000000  2.11024616  7.50000000
   2.11024616  4.22049233  7.50000000
   0.00000000  4.22049233  9.61024616
   2.11024616  2.11024616  9.61024616
   8.44092255  2.11084773 11.73364199
   2.11418471  4.21995568 11.73800259
   8.44022996  4.22002054 13.83501787
   2.11084764  2.11001649 13.83646546
   4.22049233  6.33073849  7.50000000
   6.33073849  0.00000000  7.50000000
   4.22049233  0.00000000  9.61024616
   6.33073849  6.33073849  9.61024616
   4.22065414  6.32663433 11.73818858
   6.33015771  0.00038663 11.73335245
   4.22049769  0.00239840 13.83510567
   6.33162971  6.33057225 13.83328073
   4.22049233  2.11024616  7.50000000
   6.33073849  4.22049233  7.50000000
   4.22049233  4.22049233  9.61024616
   6.33073849  2.11024616  9.61024616
   4.22061825  2.11357333 11.73849236
   6.32697183  4.22000602 11.73821849
   4.22202730  4.21468800 13.88557373
   6.33025996  2.11019738 13.83686536
   0.00000000  6.33073849  9.61024616
   2.11024616  0.00000000  9.61024616
   0.00000000  0.00000000  7.50000000
   2.11024616  6.33073849  7.50000000
   0.00010298  6.33184364 13.88741994
   2.10898379  8.44031282 13.88725419
   0.00001748  8.44073759 11.72932734
   2.11015247  6.33114532 11.72901158
   0.00000000  2.11024616  9.61024616
   2.11024616  4.22049233  9.61024616
   0.00000000  4.22049233  7.50000000
   2.11024616  2.11024616  7.50000000
   0.00018400  2.10930763 13.88746024
   2.10335185  4.22177590 13.88638164
   0.00037956  4.22084759 11.72814275
   2.10941492  2.10998543 11.72889016
   4.22049233  6.33073849  9.61024616
   6.33073849  0.00000000  9.61024616
   4.22049233  0.00000000  7.50000000
   6.33073849  6.33073849  7.50000000
   4.21973446  6.33787666 13.89233205
   6.33181212  8.44022847 13.88765421
   4.22039536  8.43951322 11.72819632
   6.33063615  6.33128109 11.72928792
   4.22049233  2.11024616  9.61024616
   6.33073849  4.22049233  9.61024616
   4.22049233  4.22049233  7.50000000
   6.33073849  2.11024616  7.50000000
   4.22036776  2.10259687 13.87875605
   6.33760125  4.22118636 13.88279863
   4.22027908  4.22120712 11.73710097
   6.33161984  2.10961645 11.72865014

--------------------------------------- Iteration      FINAL  ---------------------------------------

--------------------OUTCAR has been truncated-------------------------

[...]

--------------------OUTCAR has been truncated-------------------------

         DFTD3 V3.0 Rev 1
 IVDW         = 11
 DF pbe
 parameters
 VDW_S6       =    1.0000
 VDW_S8       =    0.7220
 VDW_SR       =    1.2170
 rs18     =    1.0000
 alpha6   =   14.0000
 alpha8   =   16.0000
 k1-k3    =   16.0000    1.3333   -4.0000
 VDW_RADIUS   =   50.2022 A
 VDW_CNRADIUS =   21.1671 A
 Edisp (eV)   -9.23250

 E6    (eV) :    -4.2241
 E8    (eV) :    -5.0084
 % E8        : 54.25

  FORCE on cell =-STRESS in cart. coord.  units (eV):
  Direction    XX          YY          ZZ          XY          YZ          ZX
  Alpha Z   875.25928   875.25928   875.25928
  Ewald  161076.94741161077.00213************     0.01164     0.02004    -0.04654
  Hartree171136.12859171136.15807************     0.00725    -0.00555    -0.02290
  E(xc)   -2456.53411 -2456.53403 -2461.82724     0.00001    -0.00013    -0.00006
  Local  ************************342485.03180    -0.01879    -0.00639     0.06779
  n-local -2812.02349 -2812.02264 -2832.93903     0.00003    -0.00169    -0.00087
  augment  1047.86604  1047.86611  1038.52411     0.00008    -0.00148     0.00007
  Kinetic  7302.52396  7302.52298  7344.33040     0.00008     0.00468     0.00613
  Fock        0.00000     0.00000     0.00000     0.00000     0.00000     0.00000
  vdW       -11.85693   -11.85689    -7.12228    -0.00001    -0.00025     0.00004
  Total     -31.13960   -31.13831    -3.03331     0.00028     0.00921     0.00366
  in kB     -32.82703   -32.82566    -3.19768     0.00030     0.00971     0.00386

 VOLUME and BASIS-vectors are now :
  energy-cutoff  :      600.00
  volume of cell :     1519.82
      direct lattice vectors                 reciprocal lattice vectors
     8.440984654  0.000000000  0.000000000     0.118469591  0.000000000  0.000000000
     0.000000000  8.440984654  0.000000000     0.000000000  0.118469591  0.000000000
     0.000000000  0.000000000 21.330738491     0.000000000  0.000000000  0.046880702

  length of vectors
     8.440984654  8.440984654 21.330738491     0.118469591  0.118469591  0.046880702

 FORCES acting on ions:
    Electron-Ion                     Ewald-Force                    Non-Local-Force
   0.189E-02 0.847E-01 0.207E+04   -.211E-02 -.862E-01 -.206E+04   0.166E-03 0.102E-02 -.704E+01
   -.871E-01 0.382E-02 0.207E+04   0.888E-01 -.345E-02 -.206E+04   -.115E-02 -.252E-03 -.704E+01
   0.152E-01 -.174E-01 0.683E+03   -.175E-01 0.236E-01 -.684E+03   0.167E-02 -.438E-02 0.517E+00
   -.493E+00 0.475E+00 0.683E+03   0.517E+00 -.493E+00 -.683E+03   -.168E-01 0.124E-01 0.531E+00
   0.230E-02 0.136E+00 -.689E+03   -.809E-02 -.133E+00 0.689E+03   0.691E-02 0.352E-02 -.187E+00
   -.142E+00 0.106E+00 -.689E+03   0.138E+00 -.980E-01 0.689E+03   -.224E-02 -.123E-01 -.190E+00
   0.411E-02 0.814E-01 -.205E+04   -.117E-02 -.939E-01 0.204E+04   -.997E-03 0.282E-02 0.594E+01
   -.115E+01 0.768E+00 -.205E+04   0.107E+01 -.651E+00 0.204E+04   0.782E-01 -.965E-01 0.591E+01
   0.906E-03 -.846E-01 0.207E+04   -.944E-03 0.861E-01 -.206E+04   0.313E-04 -.108E-02 -.704E+01
   -.116E+00 -.363E-02 0.207E+04   0.119E+00 0.333E-02 -.206E+04   -.284E-02 0.219E-03 -.705E+01
   0.128E-01 0.173E-01 0.683E+03   -.107E-01 -.229E-01 -.683E+03   -.152E-02 0.395E-02 0.494E+00
   -.480E+00 -.476E+00 0.683E+03   0.491E+00 0.495E+00 -.684E+03   -.735E-02 -.132E-01 0.527E+00
   -.421E-01 -.130E+00 -.690E+03   0.428E-01 0.126E+00 0.690E+03   0.490E-03 -.276E-02 -.187E+00
   -.128E+01 -.143E+00 -.692E+03   0.141E+01 0.133E+00 0.692E+03   -.131E+00 0.133E-01 -.260E+00
   -.340E+00 -.783E-01 -.205E+04   0.371E+00 0.904E-01 0.204E+04   -.152E-01 -.285E-02 0.591E+01
   0.840E-01 -.633E+00 -.205E+04   -.277E+00 0.498E+00 0.204E+04   0.137E+00 0.106E+00 0.601E+01
   -.205E-02 0.113E+00 0.207E+04   0.222E-02 -.117E+00 -.206E+04   -.135E-03 0.283E-02 -.705E+01
   0.871E-01 0.481E-02 0.207E+04   -.888E-01 -.462E-02 -.206E+04   0.115E-02 -.132E-03 -.704E+01
   -.160E-01 -.504E-02 0.683E+03   0.180E-01 -.436E-02 -.683E+03   -.139E-02 0.690E-02 0.496E+00
   0.493E+00 0.472E+00 0.683E+03   -.518E+00 -.487E+00 -.683E+03   0.177E-01 0.101E-01 0.534E+00
   0.110E-01 0.136E+01 -.693E+03   -.502E-02 -.148E+01 0.693E+03   -.684E-02 0.126E+00 -.212E+00
   0.140E+00 0.149E+00 -.689E+03   -.136E+00 -.148E+00 0.690E+03   0.217E-02 -.564E-02 -.188E+00
   -.396E-02 0.120E+01 -.205E+04   0.240E-03 -.130E+01 0.204E+04   0.164E-02 0.463E-01 0.590E+01
   0.108E+01 0.359E+00 -.205E+04   -.988E+00 -.207E+00 0.204E+04   -.807E-01 -.114E+00 0.595E+01
   -.855E-03 -.114E+00 0.207E+04   0.913E-03 0.117E+00 -.206E+04   -.364E-04 -.261E-02 -.705E+01
   0.116E+00 -.481E-02 0.207E+04   -.120E+00 0.463E-02 -.206E+04   0.281E-02 0.158E-03 -.705E+01
   -.115E-01 -.211E-02 0.681E+03   0.105E-01 0.701E-02 -.682E+03   0.879E-03 -.402E-02 0.599E+00
   0.480E+00 -.473E+00 0.683E+03   -.490E+00 0.487E+00 -.684E+03   0.716E-02 -.986E-02 0.524E+00
   0.507E-01 -.124E+01 -.690E+03   -.515E-01 0.137E+01 0.691E+03   -.422E-03 -.131E+00 -.319E+00
   0.124E+01 -.181E+00 -.691E+03   -.138E+01 0.178E+00 0.691E+03   0.133E+00 0.669E-02 -.288E+00
   0.584E+00 -.204E+01 -.207E+04   -.606E+00 0.211E+01 0.206E+04   -.151E-02 0.125E-01 0.636E+01
   -.105E+00 -.273E+00 -.205E+04   0.298E+00 0.109E+00 0.204E+04   -.138E+00 0.121E+00 0.602E+01
   0.285E-03 0.201E+00 0.512E+03   0.177E-02 -.207E+00 -.512E+03   -.263E-02 0.832E-02 -.715E-01
   -.207E+00 0.311E-01 0.512E+03   0.213E+00 -.336E-01 -.512E+03   -.819E-02 0.289E-02 -.777E-01
   0.163E-02 0.109E-02 0.155E+04   -.191E-02 -.269E-03 -.156E+04   0.411E-03 -.117E-02 0.349E+01
   -.788E-01 0.760E-01 0.155E+04   0.822E-01 -.788E-01 -.156E+04   -.483E-02 0.387E-02 0.349E+01
   0.488E-01 0.764E-01 -.156E+04   -.396E-01 -.747E-01 0.156E+04   -.175E-01 -.147E-01 -.518E+01
   -.797E-01 0.247E-01 -.156E+04   0.863E-01 -.716E-01 0.156E+04   0.516E-02 0.728E-01 -.515E+01
   0.264E-01 -.426E-01 -.512E+03   -.254E-01 0.417E-01 0.512E+03   -.178E-02 0.369E-02 0.200E+00
   -.692E+00 0.577E+00 -.511E+03   0.685E+00 -.569E+00 0.510E+03   0.915E-02 -.139E-01 0.379E+00
   -.358E-02 -.199E+00 0.512E+03   0.314E-02 0.204E+00 -.512E+03   0.635E-03 -.720E-02 -.886E-01
   -.365E+00 -.293E-01 0.511E+03   0.345E+00 0.301E-01 -.511E+03   0.270E-01 -.637E-03 -.129E+00
   0.110E-02 -.114E-02 0.155E+04   -.988E-03 0.303E-03 -.156E+04   -.118E-03 0.120E-02 0.349E+01
   -.768E-01 -.762E-01 0.155E+04   0.788E-01 0.789E-01 -.156E+04   -.277E-02 -.376E-02 0.349E+01
   -.541E-01 -.777E-01 -.156E+04   0.690E-01 0.769E-01 0.156E+04   -.211E-01 0.139E-01 -.511E+01
   -.189E+01 -.180E+00 -.156E+04   0.182E+01 0.254E+00 0.156E+04   0.175E+00 -.108E+00 -.484E+01
   -.693E-01 0.348E-01 -.511E+03   0.751E-01 -.319E-01 0.510E+03   -.100E-01 -.626E-02 0.330E+00
   -.387E+00 -.564E+00 -.511E+03   0.376E+00 0.560E+00 0.511E+03   0.222E-01 0.900E-02 0.321E+00
   -.312E-02 0.359E+00 0.511E+03   0.277E-02 -.337E+00 -.511E+03   0.407E-03 -.295E-01 -.135E+00
   0.206E+00 0.349E-01 0.512E+03   -.212E+00 -.351E-01 -.512E+03   0.754E-02 -.311E-03 -.835E-01
   -.163E-02 0.334E-02 0.155E+04   0.191E-02 -.382E-02 -.156E+04   -.435E-03 0.647E-03 0.349E+01
   0.788E-01 0.756E-01 0.155E+04   -.823E-01 -.779E-01 -.156E+04   0.475E-02 0.326E-02 0.349E+01
   0.399E-01 0.226E+01 -.156E+04   -.678E-01 -.223E+01 0.156E+04   0.401E-01 -.149E+00 -.496E+01
   0.782E-01 0.122E+00 -.156E+04   -.842E-01 -.173E+00 0.156E+04   -.608E-02 0.755E-01 -.514E+01
   -.260E-01 0.279E+00 -.511E+03   0.250E-01 -.296E+00 0.510E+03   0.181E-02 0.301E-01 0.331E+00
   0.687E+00 0.484E+00 -.511E+03   -.681E+00 -.474E+00 0.511E+03   -.763E-02 -.178E-01 0.348E+00
   0.470E-02 -.366E+00 0.511E+03   -.473E-02 0.349E+00 -.511E+03   -.146E-03 0.219E-01 -.125E+00
   0.367E+00 -.369E-01 0.511E+03   -.348E+00 0.372E-01 -.511E+03   -.252E-01 -.178E-04 -.127E+00
   -.119E-02 -.299E-02 0.155E+04   0.103E-02 0.369E-02 -.156E+04   0.202E-03 -.968E-03 0.348E+01
   0.768E-01 -.756E-01 0.155E+04   -.788E-01 0.779E-01 -.156E+04   0.279E-02 -.326E-02 0.349E+01
   0.684E-01 -.151E+01 -.156E+04   -.817E-01 0.139E+01 0.156E+04   0.192E-01 0.230E+00 -.468E+01
   0.167E+01 -.206E+00 -.156E+04   -.158E+01 0.267E+00 0.156E+04   -.199E+00 -.874E-01 -.476E+01
   0.879E-01 -.347E+00 -.520E+03   -.909E-01 0.355E+00 0.520E+03   0.619E-02 -.198E-01 -.206E+00
   0.380E+00 -.469E+00 -.511E+03   -.368E+00 0.462E+00 0.511E+03   -.226E-01 0.148E-01 0.325E+00
   0.243E-01 -.105E+00 0.167E+02   0.178E-13 0.359E-12 0.341E-12   -.244E-01 0.104E+00 -.167E+02

 POSITION                                       TOTAL-FORCE (eV/Angst)
      0.00000      6.33074      7.50000        -0.000053     -0.000407      0.377701
      2.11025      0.00000      7.50000         0.000440      0.000124      0.378144
      0.00000      0.00000      9.61025        -0.000638      0.001754      0.093617
      2.11025      6.33074      9.61025         0.006616     -0.005042      0.094148
      8.44060      6.33027     11.73262         0.001065      0.005812      0.003664
      2.11075      0.00071     11.73296        -0.006390     -0.003837      0.000979
      8.44077      0.00066     13.83888         0.001890     -0.009339     -0.022396
      2.10856      6.33162     13.83021        -0.002950      0.020607      0.035558
      0.00000      2.11025      7.50000        -0.000005      0.000417      0.378847
      2.11025      4.22049      7.50000         0.000930     -0.000071      0.380182
      0.00000      4.22049      9.61025         0.000544     -0.001566      0.100708
      2.11025      2.11025      9.61025         0.003540      0.005623      0.093076
      8.44092      2.11085     11.73364         0.001157     -0.006378     -0.004202
      2.11418      4.21996     11.73800         0.001000      0.003134     -0.025528
      8.44023      4.22002     13.83502         0.016055      0.009005      0.000961
      2.11085      2.11002     13.83647        -0.055377     -0.028726     -0.033354
      4.22049      6.33074      7.50000         0.000029     -0.000875      0.380647
      6.33074      0.00000      7.50000        -0.000463      0.000067      0.378483
      4.22049      0.00000      9.61025         0.000526     -0.002424      0.100711
      6.33074      6.33074      9.61025        -0.007105     -0.004355      0.094095
      4.22065      6.32663     11.73819        -0.000858     -0.001173     -0.010804
      6.33016      0.00039     11.73335         0.006392     -0.003837     -0.000862
      4.22050      0.00240     13.83511        -0.002016     -0.054885      0.003761
      6.33163      6.33057     13.83328         0.008142      0.038792      0.007314
      4.22049      2.11025      7.50000         0.000022      0.000841      0.379705
      6.33074      4.22049      7.50000        -0.000904     -0.000014      0.379945
      4.22049      4.22049      9.61025        -0.000137      0.000870      0.109550
      6.33074      2.11025      9.61025        -0.003418      0.004404      0.092938
      4.22062      2.11357     11.73849        -0.001216      0.002959     -0.055583
      6.32697      4.22001     11.73822        -0.001638      0.003539     -0.039042
      4.22203      4.21469     13.88557        -0.023316      0.080291     -0.344439
      6.33026      2.11020     13.83687         0.055093     -0.041720     -0.041474
      0.00000      6.33074      9.61025        -0.000581      0.002516      0.074003
      2.11025      0.00000      9.61025        -0.002412      0.000419      0.073762
      0.00000      0.00000      7.50000         0.000135     -0.000342     -0.516109
      2.11025      6.33074      7.50000        -0.001391      0.001084     -0.517081
      0.00010      6.33184     13.88742        -0.008283     -0.012980     -0.026509
      2.10898      8.44031     13.88725         0.011726      0.025852     -0.021095
      0.00002      8.44074     11.72933        -0.000792      0.002897     -0.014822
      2.11015      6.33115     11.72901         0.002242     -0.005424     -0.009093
      0.00000      2.11025      9.61025         0.000188     -0.002183      0.073687
      2.11025      4.22049      9.61025         0.006406      0.000117      0.083467
      0.00000      4.22049      7.50000        -0.000007      0.000370     -0.517039
      2.11025      2.11025      7.50000        -0.000790     -0.001018     -0.517299
      0.00018      2.10931     13.88746        -0.006182      0.013049     -0.010770
      2.10335      4.22178     13.88638         0.104845     -0.032911      0.058693
      0.00038      4.22085     11.72814        -0.004179     -0.003350      0.005832
      2.10941      2.10999     11.72889         0.010862      0.004407      0.005484
      4.22049      6.33074      9.61025         0.000059     -0.007096      0.082219
      6.33074      0.00000      9.61025         0.002238     -0.000415      0.073919
      4.22049      0.00000      7.50000        -0.000156      0.000169     -0.517180
      6.33074      6.33074      7.50000         0.001325      0.000918     -0.517227
      4.21973      6.33788     13.89233         0.012236     -0.110493      0.017056
      6.33181      8.44023     13.88765        -0.012063      0.023802     -0.017964
      4.22040      8.43951     11.72820         0.000814      0.013781      0.006031
      6.33064      6.33128     11.72929        -0.002041     -0.008067     -0.004864
      4.22049      2.11025      9.61025        -0.000164      0.005156      0.087192
      6.33074      4.22049      9.61025        -0.005950      0.000280      0.085199
      4.22049      4.22049      7.50000         0.000048     -0.000268     -0.518831
      6.33074      2.11025      7.50000         0.000786     -0.000939     -0.517344
      4.22037      2.10260     13.87876         0.005938      0.107786      0.118502
      6.33760      4.22119     13.88280        -0.104074     -0.026924      0.087002
      4.22028      4.22121     11.73710         0.003194     -0.011067      0.014423
      6.33162      2.10962     11.72865        -0.010935      0.007285      0.009706
    total drift:                               -0.000063     -0.000413      0.006574

  FREE ENERGIE OF THE ION-ELECTRON SYSTEM (eV)
  free  energy   TOTEN  =      -381.39183638 eV

  energy  without entropy=     -381.39183638  energy(sigma->0) =     -381.39183638