 vasp.6.3.0 20Jan22 (build Apr  1 2022 16:44:48) complex
 executed on        HPECrayEX_GCC date 2022.10.25  01:51:21

 INCAR:
   SYSTEM = MgO-rocksalt
   ISMEAR = 0
   SIGMA = 0.05
   EDIFF = 1E-6
   ALGO = ALL
   ISTART = 0
   IBRION = -1
   NSW = 0
   ISYM = 0
   DIPOL = 0.5 0.5 0.5
   IDIPOL = 3
   LDIPOL = .TRUE.
   LHFCALC = .TRUE.
   GGA = B5
   AEXX = 0.2
   AGGAX = 0.72
   AGGAC = 0.81
   ALDAC = 0.19
   IVDW = 1
   VDW_S6 = 1.05
   VDW_C6 = 0.63 0.70
   VDW_R0 = 1.243 1.342
   ENCUT = 600
   PREC = Accurate
   LASPH = .TRUE.
   LREAL = .FALSE.
   ISPIN = 1
   NELM = 200
   NELMIN = 8
   NCORE = 8
   KPAR = 1
   LWAVE = .FALSE.
   LCHARG = .FALSE.

 POTCAR:    PAW_PBE Mg_pv 13Apr2007
 POTCAR:    PAW_PBE O 08Apr2002
 POTCAR:    PAW_PBE Mg_pv 13Apr2007
   VRHFIN =Mg: p6s2

   TITEL  = PAW_PBE Mg_pv 13Apr2007
   POMASS =   24.305; ZVAL   =    8.000    mass and valenz
   ENMAX  =  403.929; ENMIN  =  302.947 eV

   TITEL  = PAW_PBE O 08Apr2002
   POMASS =   16.000; ZVAL   =    6.000    mass and valenz
   ENMAX  =  400.000; ENMIN  =  300.000 eV

  PAW_PBE Mg_pv 13Apr2007               :
  PAW_PBE O 08Apr2002                   :

 POSCAR: Mg  O
  positions in direct lattice
 exchange correlation table for  LEXCH =       12
   RHO(1)=    0.500       N(1)  =     2000
   RHO(2)=  100.500       N(2)  =     4000

 ion  position               nearest neighbor table
   1  0.250  0.000  0.352-  33 2.11  35 2.11  36 2.11  43 2.11  52 2.11
   2  0.500  0.250  0.352-  34 2.11  35 2.11  36 2.11  44 2.11  51 2.11
   3  0.250  0.250  0.451-  35 2.11  34 2.11  33 2.11  41 2.11  50 2.11  39 2.11
   4  0.500  0.000  0.451-  36 2.11  34 2.11  33 2.11  42 2.11  49 2.11  40 2.11
   5  0.250  1.000  0.550-  47 2.11  39 2.11  40 2.11  56 2.11  33 2.12  37 2.14
   6  0.500  0.250  0.550-  48 2.11  39 2.11  55 2.11  40 2.11  34 2.12  38 2.14
   7  0.250  0.250  0.648-  39 2.10  54 2.11  45 2.11  37 2.11  38 2.11
   8  0.500  1.000  0.648-  40 2.10  46 2.11  38 2.11  37 2.11  53 2.11
   9  0.250  0.500  0.352-  41 2.11  35 2.11  43 2.11  44 2.11  60 2.11
  10  0.500  0.750  0.352-  42 2.11  36 2.11  43 2.11  44 2.11  59 2.11
  11  0.250  0.750  0.451-  43 2.11  41 2.11  42 2.11  33 2.11  58 2.11  47 2.11
  12  0.500  0.500  0.451-  44 2.11  41 2.11  42 2.11  34 2.11  57 2.11  48 2.12
  13  0.250  0.500  0.550-  48 2.11  47 2.11  39 2.11  64 2.11  41 2.12  45 2.13
  14  0.500  0.750  0.550-  48 2.11  47 2.11  63 2.11  40 2.11  42 2.12  46 2.14
  15  0.250  0.750  0.648-  47 2.10  62 2.11  45 2.11  37 2.11  46 2.11
  16  0.500  0.500  0.649-  45 2.11  46 2.11  48 2.11  38 2.11  61 2.11
  17  0.750  0.000  0.352-  49 2.11  36 2.11  51 2.11  52 2.11  59 2.11
  18  0.000  0.250  0.352-  50 2.11  35 2.11  51 2.11  52 2.11  60 2.11
  19  0.750  0.250  0.451-  51 2.11  49 2.11  50 2.11  34 2.11  57 2.11  55 2.12
  20  0.000  0.000  0.451-  52 2.11  49 2.11  50 2.11  33 2.11  58 2.11  56 2.12
  21  0.750  1.000  0.550-  63 2.11  55 2.11  40 2.11  56 2.11  49 2.12  53 2.14
  22  1.000  0.250  0.550-  55 2.11  39 2.11  64 2.11  56 2.11  50 2.12  54 2.14
  23  0.750  0.250  0.648-  55 2.10  54 2.11  53 2.11  61 2.11  38 2.11
  24  1.000  1.000  0.648-  56 2.10  37 2.11  53 2.11  62 2.11  54 2.11
  25  0.750  0.500  0.352-  57 2.11  51 2.11  44 2.11  59 2.11  60 2.11
  26  0.000  0.750  0.352-  58 2.11  52 2.11  43 2.11  59 2.11  60 2.11
  27  0.750  0.750  0.451-  59 2.11  49 2.11  57 2.11  58 2.11  42 2.11  63 2.12
  28  0.000  0.500  0.451-  60 2.11  50 2.11  57 2.11  58 2.11  41 2.11  64 2.11
  29  0.750  0.500  0.550-  48 2.11  63 2.11  55 2.11  64 2.11  57 2.12  61 2.13
  30  1.000  0.750  0.550-  64 2.11  63 2.11  47 2.11  56 2.11  58 2.12  62 2.14
  31  0.750  0.750  0.648-  63 2.10  62 2.11  53 2.11  61 2.11  46 2.11
  32  0.000  0.500  0.648-  64 2.10  45 2.11  61 2.11  54 2.11  62 2.11
  33  0.250  0.000  0.451-   1 2.11   3 2.11   4 2.11  11 2.11  20 2.11   5 2.12
  34  0.500  0.250  0.451-   2 2.11   3 2.11   4 2.11  12 2.11  19 2.11   6 2.12
  35  0.250  0.250  0.352-   3 2.11   2 2.11   1 2.11   9 2.11  18 2.11
  36  0.500  0.000  0.352-   4 2.11   2 2.11   1 2.11  10 2.11  17 2.11
  37  0.250  1.000  0.650-  24 2.11  15 2.11   7 2.11   8 2.11   5 2.14
  38  0.500  0.250  0.650-   8 2.11  23 2.11   7 2.11  16 2.11   6 2.14
  39  0.250  0.250  0.550-   7 2.10   5 2.11  22 2.11   6 2.11  13 2.11   3 2.11
  40  0.500  1.000  0.550-   8 2.10  21 2.11   5 2.11  14 2.11   6 2.11   4 2.11
  41  0.250  0.500  0.451-   9 2.11   3 2.11  11 2.11  12 2.11  28 2.11  13 2.12
  42  0.500  0.750  0.451-  10 2.11   4 2.11  11 2.11  12 2.11  27 2.11  14 2.12
  43  0.250  0.750  0.352-  11 2.11   9 2.11  10 2.11   1 2.11  26 2.11
  44  0.500  0.500  0.352-  12 2.11   9 2.11  10 2.11   2 2.11  25 2.11
  45  0.250  0.500  0.650-  32 2.11  15 2.11   7 2.11  16 2.11  13 2.13
  46  0.500  0.750  0.650-   8 2.11  31 2.11  15 2.11  16 2.11  14 2.14
  47  0.250  0.750  0.550-  15 2.10   5 2.11  30 2.11  14 2.11  13 2.11  11 2.11
  48  0.500  0.500  0.550-  29 2.11  14 2.11   6 2.11  13 2.11  16 2.11  12 2.12
  49  0.750  0.000  0.451-  17 2.11   4 2.11  19 2.11  20 2.11  27 2.11  21 2.12
  50  0.000  0.250  0.451-  18 2.11   3 2.11  19 2.11  20 2.11  28 2.11  22 2.12
  51  0.750  0.250  0.352-  19 2.11  17 2.11  18 2.11   2 2.11  25 2.11
  52  0.000  0.000  0.352-  20 2.11  17 2.11  18 2.11   1 2.11  26 2.11
  53  0.750  1.000  0.650-  31 2.11  23 2.11  24 2.11   8 2.11  21 2.14
  54  1.000  0.250  0.650-  23 2.11   7 2.11  24 2.11  32 2.11  22 2.14
  55  0.750  0.250  0.550-  23 2.10  21 2.11  22 2.11   6 2.11  29 2.11  19 2.12
  56  1.000  1.000  0.550-  24 2.10  21 2.11  22 2.11  30 2.11   5 2.11  20 2.12
  57  0.750  0.500  0.451-  25 2.11  19 2.11  12 2.11  27 2.11  28 2.11  29 2.12
  58  0.000  0.750  0.451-  26 2.11  20 2.11  11 2.11  27 2.11  28 2.11  30 2.12
  59  0.750  0.750  0.352-  27 2.11  17 2.11  25 2.11  26 2.11  10 2.11
  60  0.000  0.500  0.352-  28 2.11  18 2.11  25 2.11  26 2.11   9 2.11
  61  0.750  0.500  0.650-  32 2.11  31 2.11  23 2.11  16 2.11  29 2.13
  62  1.000  0.750  0.650-  31 2.11  15 2.11  24 2.11  32 2.11  30 2.14
  63  0.750  0.750  0.550-  31 2.10  21 2.11  30 2.11  14 2.11  29 2.11  27 2.12
  64  1.000  0.500  0.550-  32 2.10  30 2.11  22 2.11  29 2.11  13 2.11  28 2.11

IMPORTANT INFORMATION: All symmetrisations will be switched off!
NOSYMM: (Re-)initialisation of all symmetry stuff for point group C_1.

                                     Primitive cell

  volume of cell :    1519.6535

  direct lattice vectors                    reciprocal lattice vectors
     8.440582262  0.000000000  0.000000000     0.118475239  0.000000000  0.000000000
     0.000000000  8.440582262  0.000000000     0.000000000  0.118475239  0.000000000
     0.000000000  0.000000000 21.330436697     0.000000000  0.000000000  0.046881366

  length of vectors
     8.440582262  8.440582262 21.330436697     0.118475239  0.118475239  0.046881366

  position of ions in fractional coordinates (direct lattice)
     0.250000000  0.000000000  0.351610242
     0.500000000  0.250000000  0.351610242
     0.250000000  0.250000000  0.450536747
     0.500000000  0.000000000  0.450536747
     0.249992469  0.999974351  0.549929460
     0.499953957  0.250089597  0.550002066
     0.249718399  0.249966388  0.648217346
     0.499911900  0.999956252  0.648258541
     0.250000000  0.500000000  0.351610242
     0.500000000  0.750000000  0.351610242
     0.250000000  0.750000000  0.450536747
     0.500000000  0.500000000  0.450536747
     0.250070990  0.499977201  0.549983004
     0.499951848  0.749866243  0.550000826
     0.249721303  0.749962621  0.648221060
     0.499709817  0.500000008  0.648873437
     0.750000000  0.000000000  0.351610242
     0.000000000  0.250000000  0.351610242
     0.750000000  0.250000000  0.450536747
     0.000000000  0.000000000  0.450536747
     0.749931764  0.999975568  0.549928651
     0.999953056  0.250005689  0.549911292
     0.750073618  0.249869391  0.648228464
     0.999940077  0.999963903  0.648358219
     0.750000000  0.500000000  0.351610242
     0.000000000  0.750000000  0.351610242
     0.750000000  0.750000000  0.450536747
     0.000000000  0.500000000  0.450536747
     0.749835060  0.499979693  0.550019094
     0.999951162  0.749945988  0.549913211
     0.750058910  0.750071196  0.648232158
     0.000124614  0.499961864  0.648177818
     0.250000000  0.000000000  0.450536747
     0.500000000  0.250000000  0.450536747
     0.250000000  0.250000000  0.351610242
     0.500000000  0.000000000  0.351610242
     0.249872343  0.999964485  0.650211622
     0.499918929  0.249629145  0.650173162
     0.249920941  0.249878049  0.549678893
     0.499976020  0.999971687  0.549673579
     0.250000000  0.500000000  0.450536747
     0.500000000  0.750000000  0.450536747
     0.250000000  0.750000000  0.351610242
     0.500000000  0.500000000  0.351610242
     0.249623230  0.499965332  0.649926378
     0.499912247  0.750287668  0.650189558
     0.249922813  0.750076036  0.549680979
     0.499976959  0.499982139  0.549801874
     0.750000000  0.000000000  0.450536747
     0.000000000  0.250000000  0.450536747
     0.750000000  0.250000000  0.351610242
     0.000000000  0.000000000  0.351610242
     0.749981783  0.999966642  0.650219781
     0.999892264  0.249954198  0.650192382
     0.749988765  0.249894573  0.549693168
     0.999951079  0.999976164  0.549703375
     0.750000000  0.500000000  0.450536747
     0.000000000  0.750000000  0.450536747
     0.750000000  0.750000000  0.351610242
     0.000000000  0.500000000  0.351610242
     0.750154112  0.499973768  0.650085336
     0.999888522  0.749975860  0.650199081
     0.749983073  0.750062992  0.549695204
     0.999924450  0.499979830  0.549631154

  ion indices of the primitive-cell ions
   primitive index   ion index
                 1           1
                 2           2
                 3           3
                 4           4
                 5           5
                 6           6
                 7           7
                 8           8
                 9           9
                10          10
                11          11
                12          12
                13          13
                14          14
                15          15
                16          16
                17          17
                18          18
                19          19
                20          20
                21          21
                22          22
                23          23
                24          24
                25          25
                26          26
                27          27
                28          28
                29          29
                30          30
                31          31
                32          32
                33          33
                34          34
                35          35
                36          36
                37          37
                38          38
                39          39
                40          40
                41          41
                42          42
                43          43
                44          44
[...]
   0.50000000  0.75000000  0.45053675
   0.25000000  0.75000000  0.35161024
   0.50000000  0.50000000  0.35161024
   0.24962323  0.49996533  0.64992638
   0.49991225  0.75028767  0.65018956
   0.24992281  0.75007604  0.54968098
   0.49997696  0.49998214  0.54980187
   0.75000000  0.00000000  0.45053675
   0.00000000  0.25000000  0.45053675
   0.75000000  0.25000000  0.35161024
   0.00000000  0.00000000  0.35161024
   0.74998178  0.99996664  0.65021978
   0.99989226  0.24995420  0.65019238
   0.74998876  0.24989457  0.54969317
   0.99995108  0.99997616  0.54970338
   0.75000000  0.50000000  0.45053675
   0.00000000  0.75000000  0.45053675
   0.75000000  0.75000000  0.35161024
   0.00000000  0.50000000  0.35161024
   0.75015411  0.49997377  0.65008534
   0.99988852  0.74997586  0.65019908
   0.74998307  0.75006299  0.54969520
   0.99992445  0.49997983  0.54963115

 position of ions in cartesian coordinates  (Angst):
   2.11014557  0.00000000  7.50000000
   4.22029113  2.11014557  7.50000000
   2.11014557  2.11014557  9.61014557
   4.22029113  0.00000000  9.61014557
   2.11008200  8.44036577 11.73023553
   4.21990250  2.11090182 11.73178425
   2.10776869  2.10986186 13.82675906
   4.21954751  8.44021300 13.82763777
   2.11014557  4.22029113  7.50000000
   4.22029113  6.33043670  7.50000000
   2.11014557  6.33043670  9.61014557
   4.22029113  4.22029113  9.61014557
   2.11074476  4.22009869 11.73137765
   4.21988470  6.32930771 11.73175781
   2.10779320  6.33012120 13.82683828
   4.21784182  4.22029120 13.84075377
   6.33043670  0.00000000  7.50000000
   0.00000000  2.11014557  7.50000000
   6.33043670  2.11014557  9.61014557
   0.00000000  0.00000000  9.61014557
   6.32986075  8.44037604 11.73021827
   8.44018603  2.11019359 11.72984799
   6.33105807  2.10904315 13.82699622
   8.44007648  8.44027758 13.82976395
   6.33043670  4.22029113  7.50000000
   0.00000000  6.33043670  7.50000000
   6.33043670  6.33043670  9.61014557
   0.00000000  4.22029113  9.61014557
   6.32904450  4.22011973 11.73214748
   8.44017004  6.32998080 11.72988893
   6.33093393  6.33103763 13.82707501
   0.00105182  4.21996924 13.82591592
   2.11014557  0.00000000  9.61014557
   4.22029113  2.11014557  9.61014557
   2.11014557  2.11014557  7.50000000
   4.22029113  0.00000000  7.50000000
   2.10906807  8.44028250 13.86929785
   4.21960684  2.10701533 13.86847747
   2.10947826  2.10911623 11.72489083
   4.22008873  8.44034329 11.72477749
   2.11014557  4.22029113  9.61014557
   4.22029113  6.33043670  9.61014557
   2.11014557  6.33043670  7.50000000
   4.22029113  4.22029113  7.50000000
   2.10696541  4.21999852 13.86321346
   4.21955045  6.33286478 13.86882721
   2.10949406  6.33107849 11.72493533
   4.22009665  4.22014038 11.72751406
   6.33043670  0.00000000  9.61014557
   0.00000000  2.11014557  9.61014557
   6.33043670  2.11014557  7.50000000
   0.00000000  0.00000000  7.50000000
   6.33028294  8.44030070 13.86947188
   8.43967291  2.10975897 13.86888744
   6.33034186  2.10925570 11.72519533
   8.44016934  8.44038108 11.72541304
   6.33043670  4.22029113  9.61014557
   0.00000000  6.33043670  9.61014557
   6.33043670  6.33043670  7.50000000
   0.00000000  4.22029113  7.50000000
   6.33173749  4.22006972 13.86660412
   8.43964132  6.33023294 13.86903033
   6.33029382  6.33096838 11.72523875
   8.43994457  4.22012089 11.72387254

--------------------------------------- Iteration      FINAL  ---------------------------------------

--------------------OUTCAR has been truncated-------------------------

[...]

--------------------OUTCAR has been truncated-------------------------

  DFT-D2 method for vdW energy calculation

  Parameters of vdW forcefield:
         C6(Jnm^6/mol)     R0(A)
   Mg       0.630          1.243
   O        0.700          1.342

  vdW correction parametrized for the method Û¾ü      

  IVDW =   1
  VDW_RADIUS =    50.000 A
  VDW_S6 =     1.050
  VDW_SR =     1.000
  VDW_D =    20.000
  LVDW_EWALD = F

  Number of pair interactions contributing to vdW energy:  723269
  Edisp (eV):   -5.08150

 VOLUME and BASIS-vectors are now :
  energy-cutoff  :      600.00
  volume of cell :     1519.65
      direct lattice vectors                 reciprocal lattice vectors
     8.440582262  0.000000000  0.000000000     0.118475239  0.000000000  0.000000000
     0.000000000  8.440582262  0.000000000     0.000000000  0.118475239  0.000000000
     0.000000000  0.000000000 21.330436697     0.000000000  0.000000000  0.046881366

  length of vectors
     8.440582262  8.440582262 21.330436697     0.118475239  0.118475239  0.046881366

 FORCES acting on ions:
    Electron-Ion                     Ewald-Force                    Non-Local-Force
   -.354E-01 -.269E-03 0.207E+04   0.360E-01 0.228E-03 -.206E+04   -.358E-03 0.326E-04 -.639E+01
   -.104E-01 -.380E-01 0.207E+04   0.107E-01 0.386E-01 -.206E+04   -.166E-03 -.430E-03 -.639E+01
   -.227E+00 -.142E+00 0.685E+03   0.230E+00 0.138E+00 -.686E+03   -.209E-02 0.246E-02 0.402E+00
   -.221E-01 -.899E-02 0.685E+03   0.209E-01 0.792E-02 -.685E+03   0.698E-03 0.678E-03 0.392E+00
   -.972E-01 -.926E-02 -.690E+03   0.904E-01 0.961E-02 0.690E+03   0.219E-02 0.142E-04 -.202E+00
   -.945E-01 -.496E+00 -.691E+03   0.100E+00 0.525E+00 0.691E+03   -.373E-02 -.265E-01 -.241E+00
   -.824E+00 -.135E+00 -.206E+04   0.781E+00 0.554E-01 0.205E+04   0.470E-01 0.529E-01 0.557E+01
   0.239E-01 -.350E-01 -.206E+04   -.318E-01 0.395E-01 0.205E+04   0.611E-02 -.283E-02 0.552E+01
   -.548E-01 0.108E-03 0.207E+04   0.558E-01 -.168E-03 -.206E+04   -.666E-03 0.431E-04 -.639E+01
   -.104E-01 0.379E-01 0.207E+04   0.107E-01 -.386E-01 -.206E+04   -.165E-03 0.499E-03 -.639E+01
   -.219E+00 0.138E+00 0.685E+03   0.222E+00 -.137E+00 -.686E+03   -.209E-02 -.126E-02 0.403E+00
   -.719E-01 0.396E-02 0.684E+03   0.758E-01 -.480E-02 -.685E+03   -.259E-02 0.477E-03 0.427E+00
   -.655E+00 0.969E-02 -.689E+03   0.702E+00 -.945E-02 0.690E+03   -.384E-01 -.210E-03 -.282E+00
   -.931E-01 0.490E+00 -.691E+03   0.989E-01 -.518E+00 0.691E+03   -.368E-02 0.256E-01 -.233E+00
   -.763E+00 0.121E+00 -.206E+04   0.717E+00 -.409E-01 0.205E+04   0.483E-01 -.535E-01 0.557E+01
   -.612E+00 0.146E+00 -.206E+04   0.640E+00 -.142E+00 0.206E+04   -.160E-02 -.711E-02 0.567E+01
   0.352E-01 -.305E-03 0.207E+04   -.359E-01 0.272E-03 -.206E+04   0.467E-03 0.328E-04 -.639E+01
   0.101E-01 -.186E-01 0.207E+04   -.106E-01 0.188E-01 -.206E+04   0.307E-03 -.102E-03 -.639E+01
   0.219E+00 -.189E+00 0.685E+03   -.226E+00 0.192E+00 -.685E+03   0.456E-02 -.134E-02 0.404E+00
   0.151E-01 0.139E-03 0.685E+03   -.170E-01 -.117E-02 -.686E+03   0.113E-02 0.622E-03 0.402E+00
   0.842E-01 -.129E-01 -.690E+03   -.794E-01 0.131E-01 0.690E+03   -.819E-03 0.189E-03 -.199E+00
   0.103E+00 0.966E-01 -.690E+03   -.110E+00 -.116E+00 0.690E+03   0.434E-02 0.101E-01 -.189E+00
   0.759E+00 -.698E+00 -.206E+04   -.713E+00 0.662E+00 0.205E+04   -.466E-01 0.351E-01 0.555E+01
   -.102E-01 -.713E-02 -.206E+04   0.149E-01 0.642E-02 0.205E+04   -.443E-02 0.651E-03 0.555E+01
   0.546E-01 0.173E-03 0.207E+04   -.558E-01 -.225E-03 -.206E+04   0.814E-03 0.368E-04 -.639E+01
   0.100E-01 0.184E-01 0.207E+04   -.105E-01 -.187E-01 -.206E+04   0.316E-03 0.172E-03 -.639E+01
   0.211E+00 0.185E+00 0.685E+03   -.218E+00 -.190E+00 -.685E+03   0.468E-02 0.242E-02 0.405E+00
   0.612E-01 -.317E-02 0.685E+03   -.693E-01 0.223E-02 -.686E+03   0.514E-02 0.555E-03 0.384E+00
   0.640E+00 0.128E-01 -.690E+03   -.686E+00 -.125E-01 0.691E+03   0.375E-01 -.344E-03 -.278E+00
   0.103E+00 -.102E+00 -.690E+03   -.109E+00 0.122E+00 0.690E+03   0.421E-02 -.981E-02 -.189E+00
   0.697E+00 0.686E+00 -.206E+04   -.646E+00 -.649E+00 0.205E+04   -.485E-01 -.350E-01 0.555E+01
   0.803E+00 0.801E-03 -.206E+04   -.815E+00 0.916E-03 0.205E+04   -.150E-01 -.816E-03 0.554E+01
   -.796E-01 -.293E-02 0.514E+03   0.831E-01 0.434E-02 -.513E+03   -.435E-02 -.167E-02 -.867E-01
   -.384E-01 -.139E+00 0.513E+03   0.415E-01 0.132E+00 -.513E+03   -.363E-02 0.762E-02 -.948E-01
   -.347E-01 -.202E-01 0.155E+04   0.356E-01 0.203E-01 -.156E+04   -.114E-02 -.164E-04 0.313E+01
   -.538E-02 -.480E-03 0.155E+04   0.556E-02 0.522E-03 -.156E+04   -.223E-03 -.456E-04 0.313E+01
   -.241E+00 -.146E-01 -.156E+04   0.270E+00 0.147E-01 0.157E+04   -.289E-01 -.728E-04 -.445E+01
   -.504E-01 -.893E+00 -.156E+04   0.622E-01 0.870E+00 0.157E+04   -.156E-01 0.563E-01 -.437E+01
   -.358E+00 -.145E+00 -.512E+03   0.364E+00 0.144E+00 0.512E+03   -.455E-02 0.697E-02 0.286E+00
   0.135E-02 -.184E-01 -.512E+03   -.668E-03 0.198E-01 0.512E+03   -.184E-02 -.123E-02 0.278E+00
   -.200E+00 -.152E-02 0.513E+03   0.195E+00 0.255E-02 -.513E+03   0.588E-02 -.122E-02 -.881E-01
   -.383E-01 0.136E+00 0.513E+03   0.415E-01 -.127E+00 -.513E+03   -.378E-02 -.104E-01 -.948E-01
   -.340E-01 0.203E-01 0.155E+04   0.349E-01 -.203E-01 -.156E+04   -.115E-02 -.649E-04 0.313E+01
   -.967E-02 0.541E-03 0.155E+04   0.105E-01 -.517E-03 -.156E+04   -.100E-02 -.347E-04 0.313E+01
   -.910E+00 0.293E-01 -.156E+04   0.904E+00 -.312E-01 0.156E+04   0.324E-01 0.203E-02 -.431E+01
   -.480E-01 0.807E+00 -.156E+04   0.591E-01 -.779E+00 0.157E+04   -.147E-01 -.588E-01 -.437E+01
   -.337E+00 0.149E+00 -.512E+03   0.342E+00 -.150E+00 0.512E+03   -.331E-02 -.520E-02 0.287E+00
   -.186E+00 0.272E-01 -.515E+03   0.194E+00 -.298E-01 0.514E+03   -.109E-01 0.268E-02 0.144E+00
   0.728E-01 -.318E-02 0.514E+03   -.727E-01 0.449E-02 -.513E+03   0.822E-04 -.155E-02 -.865E-01
   0.303E-01 -.183E-01 0.514E+03   -.285E-01 0.209E-01 -.514E+03   -.213E-02 -.342E-02 -.798E-01
   0.349E-01 -.246E-01 0.155E+04   -.356E-01 0.252E-01 -.156E+04   0.970E-03 -.761E-03 0.313E+01
   0.547E-02 0.207E-03 0.155E+04   -.557E-02 -.165E-03 -.156E+04   0.111E-03 -.517E-04 0.313E+01
   0.227E+00 -.235E-01 -.156E+04   -.252E+00 0.249E-01 0.157E+04   0.240E-01 -.137E-02 -.445E+01
   0.125E+00 -.840E-01 -.156E+04   -.149E+00 0.790E-01 0.157E+04   0.280E-01 0.803E-02 -.444E+01
   0.351E+00 -.316E+00 -.512E+03   -.357E+00 0.322E+00 0.512E+03   0.430E-02 -.517E-03 0.283E+00
   0.239E-02 0.438E-02 -.513E+03   -.164E-02 -.472E-02 0.512E+03   -.847E-04 0.331E-03 0.237E+00
   0.193E+00 -.889E-03 0.513E+03   -.183E+00 0.178E-02 -.513E+03   -.119E-01 -.105E-02 -.998E-01
   0.298E-01 0.134E-01 0.514E+03   -.279E-01 -.136E-01 -.513E+03   -.228E-02 0.587E-03 -.798E-01
   0.342E-01 0.246E-01 0.155E+04   -.350E-01 -.252E-01 -.156E+04   0.972E-03 0.688E-03 0.313E+01
   0.979E-02 -.103E-03 0.155E+04   -.105E-01 0.124E-03 -.156E+04   0.826E-03 -.285E-04 0.313E+01
   0.771E+00 0.335E-01 -.156E+04   -.759E+00 -.346E-01 0.157E+04   -.329E-01 0.846E-03 -.437E+01
   0.128E+00 0.951E-01 -.156E+04   -.153E+00 -.930E-01 0.157E+04   0.296E-01 -.490E-02 -.445E+01
   0.331E+00 0.320E+00 -.512E+03   -.336E+00 -.327E+00 0.512E+03   0.331E-02 0.211E-02 0.283E+00
   0.197E+00 0.385E-02 -.511E+03   -.206E+00 -.507E-02 0.511E+03   0.112E-01 0.116E-02 0.296E+00
   0.427E-02 0.976E-02 0.160E+02   0.505E-13 -.101E-12 -.477E-11   -.585E-02 -.980E-02 -.140E+02

 POSITION                                       TOTAL-FORCE (eV/Angst)
      2.11015      0.00000      7.50000         0.000200      0.000007      0.465422
      4.22029      2.11015      7.50000         0.000114      0.000138      0.465688
      2.11015      2.11015      9.61015         0.001115     -0.000675      0.030627
      4.22029      0.00000      9.61015        -0.000350     -0.000286      0.033899
      2.11008      8.44037     11.73024        -0.004102      0.000335      0.005218
      4.21990      2.11090     11.73178         0.001616      0.000012     -0.001138
      2.10777      2.10986     13.82676         0.007789     -0.019759     -0.095400
      4.21955      8.44021     13.82764        -0.001086      0.001386     -0.086618
      2.11015      4.22029      7.50000         0.000276      0.000001      0.465090
      4.22029      6.33044      7.50000         0.000110     -0.000134      0.465678
      2.11015      6.33044      9.61015         0.001070      0.000051      0.030566
      4.22029      4.22029      9.61015         0.001026     -0.000278      0.035645
      2.11074      4.22010     11.73138         0.004034      0.000020     -0.014995
      4.21988      6.32931     11.73176         0.001622      0.000219     -0.001845
      2.10779      6.33012     13.82684         0.006098      0.020282     -0.095358
      4.21784      4.22029     13.84075         0.023690     -0.002944     -0.196652
      6.33044      0.00000      7.50000        -0.000163      0.000019      0.465380
      0.00000      2.11015      7.50000        -0.000104      0.000059      0.465039
      6.33044      2.11015      9.61015        -0.002338      0.000968      0.032090
      0.00000      0.00000      9.61015        -0.000505     -0.000308      0.032487
      6.32986      8.44038     11.73022         0.003686      0.000356      0.005124
      8.44019      2.11019     11.72985        -0.001924     -0.007519      0.002449
      6.33106      2.10904     13.82700        -0.004406      0.001301     -0.090481
      8.44008      8.44028     13.82976        -0.000123      0.000013     -0.107238
      6.33044      4.22029      7.50000        -0.000255      0.000001      0.465926
      0.00000      6.33044      7.50000        -0.000100     -0.000055      0.465040
      6.33044      6.33044      9.61015        -0.002377     -0.001523      0.032011
      0.00000      4.22029      9.61015        -0.002299     -0.000292      0.031085
      6.32904      4.22012     11.73215        -0.004106     -0.000021     -0.004659
      8.44017      6.32998     11.72989        -0.001877      0.007872      0.002693
      6.33093      6.33104     13.82708        -0.002131     -0.001359     -0.090370
      0.00105      4.21997     13.82592        -0.025652      0.000778     -0.086449
      2.11015      0.00000      9.61015        -0.001492     -0.000486      0.042138
      4.22029      2.11015      9.61015        -0.001017      0.002405      0.047255
      2.11015      2.11015      7.50000        -0.000350      0.000013     -0.434940
      4.22029      0.00000      7.50000        -0.000048      0.000003     -0.435197
      2.10907      8.44028     13.86930        -0.003570      0.000044     -0.028426
      4.21961      2.10702     13.86848        -0.006016      0.042494     -0.002008
      2.10948      2.10912     11.72489         0.001278      0.007992      0.009589
      4.22009      8.44034     11.72478        -0.001426      0.000055      0.012048
      2.11015      4.22029      9.61015         0.001980     -0.000340      0.047643
      4.22029      6.33044      9.61015        -0.001065     -0.003191      0.047126
      2.11015      6.33044      7.50000        -0.000355     -0.000016     -0.434923
      4.22029      4.22029      7.50000        -0.000307     -0.000003     -0.435532
      2.10697      4.22000     13.86321         0.031967      0.000381      0.029605
      4.21955      6.33286     13.86883        -0.005716     -0.040178     -0.003868
      2.10949      6.33108     11.72494         0.001361     -0.007625      0.009705
      4.22010      4.22014     11.72751        -0.003951      0.000410      0.008092
      6.33044      0.00000      9.61015         0.000296     -0.000445      0.042164
      0.00000      2.11015      9.61015        -0.000627     -0.001336      0.042673
      6.33044      2.11015      7.50000         0.000344     -0.000241     -0.435153
      0.00000      0.00000      7.50000         0.000062     -0.000004     -0.434806
      6.33028      8.44030     13.86947         0.002299     -0.000060     -0.028724
      8.43967      2.10976     13.86889         0.008111      0.004245     -0.026187
      6.33034      2.10926     11.72520        -0.001428      0.005429      0.007104
      8.44017      8.44038     11.72541         0.000724      0.000053      0.006125
      6.33044      4.22029      9.61015        -0.003724     -0.000292      0.047317
      0.00000      6.33044      9.61015        -0.000670      0.000544      0.042869
      6.33044      6.33044      7.50000         0.000352      0.000234     -0.435143
      0.00000      4.22029      7.50000         0.000291      0.000003     -0.434925
      6.33174      4.22007     13.86660        -0.026986     -0.000149      0.006022
      8.43964      6.33023     13.86903         0.008417     -0.003595     -0.027023
      6.33029      6.33097     11.72524        -0.001443     -0.005113      0.007186
      8.43994      4.22012     11.72387         0.004161      0.000107      0.016241
    total drift:                               -0.001857     -0.000847      0.020369

  FREE ENERGIE OF THE ION-ELECTRON SYSTEM (eV)
  free  energy   TOTEN  =      -438.45376917 eV

  energy  without entropy=     -438.45376917  energy(sigma->0) =     -438.45376917