 vasp.6.3.0 20Jan22 (build Apr  1 2022 16:44:48) complex
 executed on        HPECrayEX_GCC date 2023.03.02  02:08:15

 INCAR:
   SYSTEM = MgO-rocksalt
   ISMEAR = 0
   SIGMA = 0.05
   EDIFF = 1E-8
   ALGO = ALL
   ISTART = 0
   IBRION = 5
   POTIM = 0.01
   NFREE = 2
   ISYM = 0
   DIPOL = 0.5 0.5 0.5
   IDIPOL = 3
   LDIPOL = .TRUE.
   GGA = PE
   IVDW = 1
   VDW_C6 = 1.23 0.70 0.63 0.70
   VDW_R0 = 1.397 1.342 1.243 1.342
   ENCUT = 600
   PREC = Accurate
   LASPH = .TRUE.
   LREAL = .FALSE.
   ISPIN = 1
   NELM = 200
   NELMIN = 8
   NCORE = 8
   KPAR = 1
   LWAVE = .FALSE.
   LCHARG = .FALSE.

 POTCAR:    PAW_PBE N 08Apr2002
 POTCAR:    PAW_PBE O 08Apr2002
 POTCAR:    PAW_PBE Mg_pv 13Apr2007
 POTCAR:    PAW_PBE O 08Apr2002
 POTCAR:    PAW_PBE N 08Apr2002
   VRHFIN =N: s2p3

   TITEL  = PAW_PBE N 08Apr2002
   POMASS =   14.001; ZVAL   =    5.000    mass and valenz
   ENMAX  =  400.000; ENMIN  =  300.000 eV

[...]

   TITEL  = PAW_PBE Mg_pv 13Apr2007
   POMASS =   24.305; ZVAL   =    8.000    mass and valenz
   ENMAX  =  403.929; ENMIN  =  302.947 eV

   TITEL  = PAW_PBE O 08Apr2002
   POMASS =   16.000; ZVAL   =    6.000    mass and valenz
   ENMAX  =  400.000; ENMIN  =  300.000 eV

  PAW_PBE N 08Apr2002                   :
  PAW_PBE O 08Apr2002                   :
  PAW_PBE Mg_pv 13Apr2007               :
  PAW_PBE O 08Apr2002                   :

 POSCAR:  N  O Mg  O
  positions in direct lattice
 exchange correlation table for  LEXCH =        8
   RHO(1)=    0.500       N(1)  =     2000
   RHO(2)=  100.500       N(2)  =     4000

 ion  position               nearest neighbor table
   1  0.533  0.542  0.790-   2 1.14
   2  0.628  0.635  0.782-   1 1.14   3 1.20
   3  0.728  0.733  0.773-   2 1.20
   4  0.250  0.000  0.351-  36 2.12  38 2.12  39 2.12  46 2.12  55 2.12
   5  0.500  0.250  0.351-  37 2.12  38 2.12  39 2.12  47 2.12  54 2.12
   6  0.250  0.250  0.450-  38 2.12  37 2.12  36 2.12  44 2.12  53 2.12  42 2.12
   7  0.500  0.000  0.450-  39 2.12  37 2.12  36 2.12  45 2.12  52 2.12  43 2.12
   8  0.250  1.000  0.550-  59 2.12  50 2.12  43 2.12  42 2.12  36 2.13  40 2.15
   9  0.500  0.250  0.550-  58 2.12  42 2.12  43 2.12  51 2.12  37 2.13  41 2.14
  10  0.250  0.250  0.648-  42 2.11  57 2.12  40 2.12  48 2.12  41 2.12
  11  0.500  0.000  0.648-  43 2.10  41 2.11  40 2.12  56 2.12  49 2.12
  12  0.250  0.500  0.351-  44 2.12  38 2.12  46 2.12  47 2.12  63 2.12
  13  0.500  0.750  0.351-  45 2.12  39 2.12  46 2.12  47 2.12  62 2.12
  14  0.250  0.750  0.450-  46 2.12  44 2.12  45 2.12  36 2.12  61 2.12  50 2.12
  15  0.500  0.500  0.450-  47 2.12  44 2.12  45 2.12  37 2.12  60 2.12  51 2.12
  16  0.250  0.500  0.550-  50 2.12  42 2.12  67 2.12  51 2.12  44 2.13  48 2.14
  17  0.500  0.750  0.550-  66 2.11  43 2.12  51 2.12  50 2.12  45 2.13  49 2.16
  18  0.250  0.750  0.648-  50 2.11  65 2.11  49 2.12  40 2.12  48 2.12
  19  0.499  0.499  0.648-  51 2.10  41 2.11  48 2.11  64 2.12  49 2.13
  20  0.750  0.000  0.351-  52 2.12  39 2.12  54 2.12  55 2.12  62 2.12
  21  0.000  0.250  0.351-  53 2.12  38 2.12  54 2.12  55 2.12  63 2.12
  22  0.750  0.250  0.450-  54 2.12  52 2.12  53 2.12  37 2.12  60 2.12  58 2.12
  23  0.000  0.000  0.450-  55 2.12  52 2.12  53 2.12  36 2.12  61 2.12  59 2.12
  24  0.750  1.000  0.550-  66 2.12  59 2.12  43 2.12  58 2.12  52 2.13  56 2.14
  25  1.000  0.250  0.550-  59 2.12  58 2.12  67 2.12  42 2.12  53 2.13  57 2.15
  26  0.750  0.250  0.648-  58 2.11  56 2.11  64 2.12  57 2.12  41 2.12
  27  0.000  0.000  0.648-  59 2.11  57 2.12  40 2.12  56 2.12  65 2.12
  28  0.750  0.500  0.351-  60 2.12  54 2.12  47 2.12  62 2.12  63 2.12
  29  0.000  0.750  0.351-  61 2.12  55 2.12  46 2.12  62 2.12  63 2.12
  30  0.750  0.750  0.450-  62 2.12  52 2.12  60 2.12  61 2.12  45 2.12  66 2.13
  31  0.000  0.500  0.450-  63 2.12  53 2.12  60 2.12  61 2.12  44 2.12  67 2.12
  32  0.750  0.500  0.550-  66 2.11  67 2.12  51 2.12  58 2.12  60 2.13  64 2.16
  33  1.000  0.750  0.550-  66 2.12  59 2.12  67 2.12  50 2.12  61 2.13  65 2.14
  34  0.751  0.751  0.649-  65 2.11  56 2.11  66 2.12  64 2.13  49 2.13
  35  0.000  0.500  0.648-  67 2.11  48 2.11  57 2.12  65 2.12  64 2.12
  36  0.250  0.000  0.450-   4 2.12   6 2.12   7 2.12  14 2.12  23 2.12   8 2.13
  37  0.500  0.250  0.450-   5 2.12   6 2.12   7 2.12  15 2.12  22 2.12   9 2.13
  38  0.250  0.250  0.351-   6 2.12   5 2.12   4 2.12  12 2.12  21 2.12
  39  0.500  0.000  0.351-   7 2.12   5 2.12   4 2.12  13 2.12  20 2.12
  40  0.250  0.000  0.651-  10 2.12  27 2.12  11 2.12  18 2.12   8 2.15
  41  0.500  0.250  0.651-  19 2.11  11 2.11  10 2.12  26 2.12   9 2.14
  42  0.250  0.250  0.550-  10 2.11   8 2.12   9 2.12  16 2.12  25 2.12   6 2.12
  43  0.500  1.000  0.550-  11 2.10  17 2.12   8 2.12   9 2.12  24 2.12   7 2.12
  44  0.250  0.500  0.450-  12 2.12   6 2.12  14 2.12  15 2.12  31 2.12  16 2.13
  45  0.500  0.750  0.450-  13 2.12   7 2.12  14 2.12  15 2.12  30 2.12  17 2.13
  46  0.250  0.750  0.351-  14 2.12  12 2.12  13 2.12   4 2.12  29 2.12
  47  0.500  0.500  0.351-  15 2.12  12 2.12  13 2.12   5 2.12  28 2.12
  48  0.250  0.500  0.651-  19 2.11  35 2.11  10 2.12  18 2.12  16 2.14
  49  0.500  0.750  0.651-  18 2.12  11 2.12  19 2.13  34 2.13  17 2.16
  50  0.250  0.750  0.550-  18 2.11   8 2.12  16 2.12  17 2.12  33 2.12  14 2.12
  51  0.500  0.500  0.550-  19 2.10  32 2.12  17 2.12   9 2.12  16 2.12  15 2.12
  52  0.750  0.000  0.450-  20 2.12   7 2.12  22 2.12  23 2.12  30 2.12  24 2.13
  53  0.000  0.250  0.450-  21 2.12   6 2.12  22 2.12  23 2.12  31 2.12  25 2.13
  54  0.750  0.250  0.351-  22 2.12  20 2.12  21 2.12   5 2.12  28 2.12
  55  0.000  0.000  0.351-  23 2.12  20 2.12  21 2.12   4 2.12  29 2.12
  56  0.750  0.001  0.650-  26 2.11  34 2.11  27 2.12  11 2.12  24 2.14
  57  1.000  0.250  0.651-  10 2.12  27 2.12  35 2.12  26 2.12  25 2.15
  58  0.750  0.250  0.550-  26 2.11  25 2.12   9 2.12  32 2.12  24 2.12  22 2.12
  59  0.000  0.000  0.550-  27 2.11   8 2.12  25 2.12  24 2.12  33 2.12  23 2.12
  60  0.750  0.500  0.450-  28 2.12  22 2.12  15 2.12  30 2.12  31 2.12  32 2.13
  61  0.000  0.750  0.450-  29 2.12  23 2.12  14 2.12  30 2.12  31 2.12  33 2.13
  62  0.750  0.750  0.351-  30 2.12  20 2.12  28 2.12  29 2.12  13 2.12
  63  0.000  0.500  0.351-  31 2.12  21 2.12  28 2.12  29 2.12  12 2.12
  64  0.750  0.500  0.651-  26 2.12  35 2.12  19 2.12  34 2.13  32 2.16
  65  0.001  0.750  0.651-  18 2.11  34 2.11  27 2.12  35 2.12  33 2.14
  66  0.750  0.750  0.550-  32 2.11  17 2.11  33 2.12  24 2.12  34 2.12  30 2.13
  67  1.000  0.500  0.550-  35 2.11  32 2.12  25 2.12  16 2.12  33 2.12  31 2.12

IMPORTANT INFORMATION: All symmetrisations will be switched off!
NOSYMM: (Re-)initialisation of all symmetry stuff for point group C_1.

                                     Primitive cell

  volume of cell :    1530.6606

  direct lattice vectors                    reciprocal lattice vectors
     8.467142631  0.000000000  0.000000000     0.118103597  0.000000000  0.000000000
     0.000000000  8.467142631  0.000000000     0.000000000  0.118103597  0.000000000
     0.000000000  0.000000000 21.350356973     0.000000000  0.000000000  0.046837624

  length of vectors
     8.467142631  8.467142631 21.350356973     0.118103597  0.118103597  0.046837624

  position of ions in fractional coordinates (direct lattice)
     0.533179375  0.541802050  0.789593069
     0.628250653  0.635375738  0.781937557
     0.727929984  0.733477057  0.773026652
     0.250000000  0.000000000  0.351282183
     0.500000000  0.250000000  0.351282183
     0.250000000  0.250000000  0.450427394
     0.500000000  0.000000000  0.450427394
     0.250010213  0.999956189  0.550138734
     0.499965348  0.249880751  0.550105104
     0.249841294  0.249923128  0.648499332
     0.500020797  0.000191810  0.648394514
     0.250000000  0.500000000  0.351282183
     0.500000000  0.750000000  0.351282183
     0.250000000  0.750000000  0.450427394
     0.500000000  0.500000000  0.450427394
     0.249821706  0.500006617  0.550108346
     0.500279973  0.749934266  0.550372188
     0.249786271  0.749999105  0.648386682
     0.498786824  0.498870997  0.648350849
     0.750000000  0.000000000  0.351282183
     0.000000000  0.250000000  0.351282183
     0.750000000  0.250000000  0.450427394
     0.000000000  0.000000000  0.450427394
     0.750070671  0.999939846  0.550224188
     0.999907731  0.250062663  0.550144511
     0.749934144  0.249885494  0.648404796
     0.000153788  0.000235621  0.648453930
     0.750000000  0.500000000  0.351282183
     0.000000000  0.750000000  0.351282183
     0.750000000  0.750000000  0.450427394
     0.000000000  0.500000000  0.450427394
     0.749884397  0.500336331  0.550377636
     0.999882156  0.750104226  0.550224472
     0.751188383  0.751277678  0.649472066
     0.000090621  0.500093359  0.648432255
     0.250000000  0.000000000  0.450427394
     0.500000000  0.250000000  0.450427394
     0.250000000  0.250000000  0.351282183
     0.500000000  0.000000000  0.351282183
     0.250060842  0.000068993  0.650770118
     0.499806389  0.249745885  0.650543390
     0.249938927  0.249979964  0.549760911
     0.499977890  0.999838338  0.549817160
     0.250000000  0.500000000  0.450427394
     0.500000000  0.750000000  0.450427394
     0.250000000  0.750000000  0.351282183
     0.500000000  0.500000000  0.351282183
     0.249658505  0.499878164  0.650524386
     0.499724182  0.749770552  0.651324045
     0.250181404  0.750001235  0.549776928
     0.499984383  0.500023017  0.549857920
     0.750000000  0.000000000  0.450427394
     0.000000000  0.250000000  0.450427394
     0.750000000  0.250000000  0.351282183
     0.000000000  0.000000000  0.351282183
     0.750108445  0.000707719  0.650474636
     0.999996291  0.250136110  0.650771705
     0.749959557  0.250253696  0.549784132
     0.000077147  0.000116578  0.549789438
     0.750000000  0.500000000  0.450427394
     0.000000000  0.750000000  0.450427394
     0.750000000  0.750000000  0.351282183
     0.000000000  0.500000000  0.351282183
     0.749623492  0.499869813  0.651381221
     0.000603908  0.750178579  0.650500764
     0.749943557  0.749980530  0.550069838
     0.999770069  0.500024600  0.549834123

  ion indices of the primitive-cell ions
   primitive index   ion index
                 1           1
                 2           2
                 3           3
                 4           4
                 5           5
                 6           6
                 7           7
                 8           8
                 9           9
                10          10
                11          11
                12          12
                13          13
                14          14
                15          15
                16          16
                17          17
                18          18
                19          19
                20          20
                21          21
                22          22
                23          23
                24          24
                25          25
                26          26
                27          27
                28          28
                29          29
[...]
      2.11544      2.11613     13.84569         0.000351      0.000128     -0.003708
      4.23375      0.00162     13.84345         0.003283      0.000978     -0.002746
      2.11679      4.23357      7.50000        -0.000001      0.000293      0.391710
      4.23357      6.35036      7.50000         0.000640     -0.000194      0.395798
      2.11679      6.35036      9.61679         0.008108      0.002832      0.025648
      4.23357      4.23357      9.61679         0.006676      0.007062      0.023134
      2.11528      4.23363     11.74501        -0.000248      0.001535     -0.004859
      4.23594      6.34980     11.75064         0.000377     -0.000305     -0.006877
      2.11498      6.35035     13.84329        -0.001489     -0.001874     -0.004269
      4.22330      4.22401     13.84252         0.002613      0.002689     -0.005224
      6.35036      0.00000      7.50000        -0.000094     -0.000477      0.392646
      0.00000      2.11679      7.50000        -0.000323      0.000133      0.393833
      6.35036      2.11679      9.61679         0.002291      0.009201      0.025853
      0.00000      0.00000      9.61679         0.001337      0.001745      0.021363
      6.35096      8.46663     11.74748        -0.001682      0.000390     -0.004506
      8.46636      2.11732     11.74578         0.001386     -0.001330     -0.005650
      6.34980      2.11582     13.84367        -0.002025     -0.001570     -0.004244
      0.00130      0.00200     13.84472        -0.000466     -0.000712     -0.005157
      6.35036      4.23357      7.50000        -0.000190      0.000642      0.395881
      0.00000      6.35036      7.50000        -0.000493     -0.000105      0.392701
      6.35036      6.35036      9.61679        -0.004823     -0.004440      0.031923
      0.00000      4.23357      9.61679        -0.011832      0.000462      0.022499
      6.34938      4.23642     11.75076        -0.000256      0.000187     -0.006883
      8.46614      6.35124     11.74749         0.000492     -0.001618     -0.004314
      6.36042      6.36118     13.86646        -0.003459     -0.003096     -0.001053
      0.00077      4.23436     13.84426         0.000924      0.003018     -0.003389
      2.11679      0.00000      9.61679         0.001048      0.000929      0.054054
      4.23357      2.11679      9.61679        -0.001983     -0.001429      0.059313
      2.11679      2.11679      7.50000         0.000470      0.000496     -0.475284
      4.23357      0.00000      7.50000         0.000044      0.001391     -0.476047
      2.11730      0.00058     13.89417         0.000077      0.000004      0.004556
      4.23193      2.11463     13.88933        -0.001082      0.000107      0.001364
      2.11627      2.11662     11.73759         0.000317      0.000358      0.005692
      4.23338      8.46577     11.73879        -0.000738     -0.000710      0.004392
      2.11679      4.23357      9.61679        -0.002602     -0.001466      0.059785
      4.23357      6.35036      9.61679         0.006353     -0.002595      0.063708
      2.11679      6.35036      7.50000        -0.000896     -0.000539     -0.476043
      4.23357      4.23357      7.50000        -0.001712     -0.001640     -0.476288
      2.11389      4.23254     13.88893         0.000694     -0.000813      0.001887
      4.23124      6.34841     13.90600        -0.002965     -0.001261     -0.002122
      2.11832      6.35037     11.73793         0.001165      0.000487      0.006142
      4.23344      4.23377     11.73966        -0.000047      0.000040      0.008329
      6.35036      0.00000      9.61679         0.000284     -0.001752      0.064615
      0.00000      2.11679      9.61679         0.000161      0.002000      0.054654
      6.35036      2.11679      7.50000        -0.000532     -0.000927     -0.476046
      0.00000      0.00000      7.50000         0.000025      0.000056     -0.475795
      6.35128      0.00599     13.88787        -0.000125      0.001482      0.002429
      8.46711      2.11794     13.89421        -0.000176      0.000125      0.004725
      6.35001      2.11893     11.73809         0.000282      0.001165      0.006304
      0.00065      0.00099     11.73820         0.000368      0.000366     -0.000410
      6.35036      4.23357      9.61679        -0.003190      0.007165      0.063664
      0.00000      6.35036      9.61679        -0.002794      0.000629      0.064389
      6.35036      6.35036      7.50000         0.001104      0.001183     -0.477227
      0.00000      4.23357      7.50000         0.001419      0.000032     -0.476040
      6.34717      4.23247     13.90722        -0.000623     -0.002881     -0.002113
      0.00511      6.35187     13.88842         0.001614      0.000124      0.002824
      6.34988      6.35019     11.74419        -0.001081     -0.000766      0.005997
      8.46520      4.23378     11.73915        -0.000700     -0.000854      0.003446
    total drift:                               -0.000360      0.000889      0.014415

  FREE ENERGIE OF THE ION-ELECTRON SYSTEM (eV)
  free  energy   TOTEN  =      -397.25660264 eV

  energy  without entropy=     -397.25660264  energy(sigma->0) =     -397.25660264

 d Force =-0.4130045E-04[-0.105E-02, 0.969E-03]  d Energy =-0.2638941E-04-0.149E-04
 d Force =-0.2968345E+02[-0.297E+02,-0.297E+02]  d Ewald  =-0.2968323E+02-0.216E-03

 Finite differences progress:
  Degree of freedom:   9/  9
  Displacement:        2/  2
  Total:              18/ 18

 SECOND DERIVATIVES (NOT SYMMETRIZED)
               1X          1Y          1Z          2X          2Y          2Z          3X          3Y          3Z
  1X   -60.072537  -56.247401   11.788048   58.859522   52.444264  -11.178129    1.369535    3.959560   -0.862592
  1Y   -56.238160  -58.269016   11.597345   52.420573   57.180703  -10.970619    3.970912    1.239848   -0.867735
  1Z    11.774573   11.586744   -5.162858  -10.994849  -10.791154    7.474371   -0.744299   -0.749558   -2.354870
  2X    58.840484   52.435381  -11.009667  -97.349958  -85.056235   18.817003   37.937789   32.085202   -7.514748
  2Y    52.448923   57.180608  -10.810305  -85.055520  -94.664663   18.469972   32.069377   36.918579   -7.364503
  2Z   -11.171115  -10.965087    7.468355   18.795302   18.451574  -14.996718   -7.327522   -7.183974    7.055149
  3X     1.368915    3.972530   -0.744420   37.938514   32.065394   -7.336264  -39.249087  -35.875478    8.047541
  3Y     3.959124    1.242318   -0.752365   32.085763   36.920799   -7.189923  -35.870178  -38.150884    7.920511
  3Z    -0.861664   -0.867703   -2.353346   -7.504915   -7.351815    7.066585    8.035090    7.911345   -5.051494

 Eigenvectors and eigenvalues of the dynamical matrix

   1 f  =   70.089970 THz   440.388273 2PiTHz 2337.949758 cm-1   289.868696 meV
             X         Y         Z           dx          dy          dz
      4.514506  4.587515 16.858094     0.385352    0.379191   -0.079426
      5.319488  5.379817 16.694646    -0.565988   -0.557080    0.121897
      6.163487  6.210455 16.504395     0.166261    0.163699   -0.037818
      2.116786  0.000000  7.500000            0           0           0
      4.233571  2.116786  7.500000            0           0           0
      2.116786  2.116786  9.616786            0           0           0
      4.233571  0.000000  9.616786            0           0           0
      2.116872  8.466772 11.745658            0           0           0
      4.233278  2.115776 11.744940            0           0           0
      2.115442  2.116135 13.845692            0           0           0
      4.233747  0.001624 13.843454            0           0           0
      2.116786  4.233571  7.500000            0           0           0
      4.233571  6.350357  7.500000            0           0           0
      2.116786  6.350357  9.616786            0           0           0
      4.233571  4.233571  9.616786            0           0           0
      2.115276  4.233627 11.745010            0           0           0
      4.235942  6.349800 11.750643            0           0           0
      2.114976  6.350349 13.843287            0           0           0
      4.223299  4.224012 13.842522            0           0           0
      6.350357  0.000000  7.500000            0           0           0
      0.000000  2.116786  7.500000            0           0           0
      6.350357  2.116786  9.616786            0           0           0
      0.000000  0.000000  9.616786            0           0           0
      6.350955  8.466633 11.747483            0           0           0
      8.466361  2.117316 11.745782            0           0           0
      6.349799  2.115816 13.843674            0           0           0
      0.001302  0.001995 13.844723            0           0           0
      6.350357  4.233571  7.500000            0           0           0
      0.000000  6.350357  7.500000            0           0           0
      6.350357  6.350357  9.616786            0           0           0
      0.000000  4.233571  9.616786            0           0           0
      6.349378  4.236419 11.750759            0           0           0
      8.466145  6.351239 11.747489            0           0           0
      6.360419  6.361175 13.866460            0           0           0
      0.000767  4.234362 13.844260            0           0           0
      2.116786  0.000000  9.616786            0           0           0
      4.233571  2.116786  9.616786            0           0           0
      2.116786  2.116786  7.500000            0           0           0
      4.233571  0.000000  7.500000            0           0           0
      2.117301  0.000584 13.894174            0           0           0
      4.231932  2.114634 13.889334            0           0           0
      2.116269  2.116616 11.737592            0           0           0
      4.233384  8.465774 11.738793            0           0           0
      2.116786  4.233571  9.616786            0           0           0
      4.233571  6.350357  9.616786            0           0           0
      2.116786  6.350357  7.500000            0           0           0
      4.233571  4.233571  7.500000            0           0           0
      2.113894  4.232540 13.888928            0           0           0
      4.231236  6.348414 13.906001            0           0           0
      2.118322  6.350367 11.737934            0           0           0
      4.233439  4.233766 11.739663            0           0           0
      6.350357  0.000000  9.616786            0           0           0
      0.000000  2.116786  9.616786            0           0           0
      6.350357  2.116786  7.500000            0           0           0
      0.000000  0.000000  7.500000            0           0           0
      6.351275  0.005992 13.887866            0           0           0
      8.467111  2.117938 13.894208            0           0           0
      6.350015  2.118934 11.738087            0           0           0
      0.000653  0.000987 11.738201            0           0           0
      6.350357  4.233571  9.616786            0           0           0
      0.000000  6.350357  9.616786            0           0           0
      6.350357  6.350357  7.500000            0           0           0
      0.000000  4.233571  7.500000            0           0           0
      6.347169  4.232469 13.907222            0           0           0
      0.005113  6.351869 13.888424            0           0           0
      6.349879  6.350192 11.744187            0           0           0
      8.465196  4.233780 11.739155            0           0           0

[...]

   9 f  =    0.823379 THz     5.173445 2PiTHz   27.464980 cm-1     3.405222 meV
             X         Y         Z           dx          dy          dz
      4.514506  4.587515 16.858094     0.546799   -0.499835    0.003130
      5.319488  5.379817 16.694646     0.413436   -0.367248   -0.010159
      6.163487  6.210455 16.504395     0.292078   -0.243402   -0.026616
      2.116786  0.000000  7.500000            0           0           0
      4.233571  2.116786  7.500000            0           0           0
      2.116786  2.116786  9.616786            0           0           0
      4.233571  0.000000  9.616786            0           0           0
      2.116872  8.466772 11.745658            0           0           0
      4.233278  2.115776 11.744940            0           0           0
      2.115442  2.116135 13.845692            0           0           0
      4.233747  0.001624 13.843454            0           0           0
      2.116786  4.233571  7.500000            0           0           0
      4.233571  6.350357  7.500000            0           0           0
      2.116786  6.350357  9.616786            0           0           0
      4.233571  4.233571  9.616786            0           0           0
      2.115276  4.233627 11.745010            0           0           0
      4.235942  6.349800 11.750643            0           0           0
      2.114976  6.350349 13.843287            0           0           0
      4.223299  4.224012 13.842522            0           0           0
      6.350357  0.000000  7.500000            0           0           0
      0.000000  2.116786  7.500000            0           0           0
      6.350357  2.116786  9.616786            0           0           0
      0.000000  0.000000  9.616786            0           0           0
      6.350955  8.466633 11.747483            0           0           0
      8.466361  2.117316 11.745782            0           0           0
      6.349799  2.115816 13.843674            0           0           0
      0.001302  0.001995 13.844723            0           0           0
      6.350357  4.233571  7.500000            0           0           0
      0.000000  6.350357  7.500000            0           0           0
      6.350357  6.350357  9.616786            0           0           0
      0.000000  4.233571  9.616786            0           0           0
      6.349378  4.236419 11.750759            0           0           0
      8.466145  6.351239 11.747489            0           0           0
      6.360419  6.361175 13.866460            0           0           0
      0.000767  4.234362 13.844260            0           0           0
      2.116786  0.000000  9.616786            0           0           0
      4.233571  2.116786  9.616786            0           0           0
      2.116786  2.116786  7.500000            0           0           0
      4.233571  0.000000  7.500000            0           0           0
      2.117301  0.000584 13.894174            0           0           0
      4.231932  2.114634 13.889334            0           0           0
      2.116269  2.116616 11.737592            0           0           0
      4.233384  8.465774 11.738793            0           0           0
      2.116786  4.233571  9.616786            0           0           0
      4.233571  6.350357  9.616786            0           0           0
      2.116786  6.350357  7.500000            0           0           0
      4.233571  4.233571  7.500000            0           0           0
      2.113894  4.232540 13.888928            0           0           0
      4.231236  6.348414 13.906001            0           0           0
      2.118322  6.350367 11.737934            0           0           0
      4.233439  4.233766 11.739663            0           0           0
      6.350357  0.000000  9.616786            0           0           0
      0.000000  2.116786  9.616786            0           0           0
      6.350357  2.116786  7.500000            0           0           0
      0.000000  0.000000  7.500000            0           0           0
      6.351275  0.005992 13.887866            0           0           0
      8.467111  2.117938 13.894208            0           0           0
      6.350015  2.118934 11.738087            0           0           0
      0.000653  0.000987 11.738201            0           0           0
      6.350357  4.233571  9.616786            0           0           0
      0.000000  6.350357  9.616786            0           0           0
      6.350357  6.350357  7.500000            0           0           0
      0.000000  4.233571  7.500000            0           0           0
      6.347169  4.232469 13.907222            0           0           0
      0.005113  6.351869 13.888424            0           0           0
      6.349879  6.350192 11.744187            0           0           0
      8.465196  4.233780 11.739155            0           0           0

 Finite differences POTIM=   1.0000000000000000E-002