 vasp.6.3.0 20Jan22 (build Apr  1 2022 16:44:48) complex
 executed on        HPECrayEX_GCC date 2022.11.01  22:18:25

 INCAR:
   SYSTEM = MgO-rocksalt
   ISMEAR = 0
   SIGMA = 0.05
   EDIFF = 1E-9
   ALGO = ALL
   ISTART = 0
   IBRION = 2
   NSW = 1000
   ISYM = 0
   ISIF = 2
   EDIFFG = -0.01
   DIPOL = 0.5 0.5 0.5
   IDIPOL = 3
   LDIPOL = .TRUE.
   GGA = RE
   AGGAC = 0.0
   LUSE_VDW = .TRUE.
   LASPH = .TRUE.
   ENCUT = 600
   PREC = Accurate
   LASPH = .TRUE.
   LREAL = .FALSE.
   ISPIN = 2
   MAGMOM = 1.0 0.0 0.0 0.0 0.0 0.0 0.0 0.0 0.0 0.0 0.0 0.0 0.0 0.0 0.0 0.0 0.0 0.0 0.0 0.0 0.0 0.0 0.0 0.0 0.0 0.0 0.0 0.0 0.0 0.0 0.0 0.0 0.0 0.0 0.0 0.0 0.0 0.0 0.0 0.0 0.0 0.0 0.0 0.0 0.0 0.0 0.0 0.0 0.0 0.0 0.0 0.0 0.0 0.0 0.0 0.0 0.0 0.0 0.0 0.0 0.0 0.0 0.0 0.0 0.0 0.0
   NELM = 200
   NELMIN = 8
   NCORE = 8
   KPAR = 1
   LWAVE = .FALSE.
   LCHARG = .FALSE.

 POTCAR:    PAW_PBE N 08Apr2002
 POTCAR:    PAW_PBE O 08Apr2002
 POTCAR:    PAW_PBE Mg_pv 13Apr2007
 POTCAR:    PAW_PBE O 08Apr2002
|               ----> ADVICE to this user running VASP <----                  |
|     You have switched on vdW-DFT.                                           |
|     This routine was written and supplied by Jiri Klimes. We recommend      |
|     that you carefully read and cite the following publications:            |
|       J. Klimes, D.R. Bowler, A. Michelides                                 |
|          J. Phys.: Cond Matt. 22 022201 (2010)                              |
|       J. Klimes, D.R. Bowler, A. Michelides                                 |
|          Phys. Rev. B. 83, 195131 (2011)                                    |
|     and references therein.                                                 |

   TITEL  = PAW_PBE N 08Apr2002
   POMASS =   14.001; ZVAL   =    5.000    mass and valenz
   ENMAX  =  400.000; ENMIN  =  300.000 eV

[...]

   TITEL  = PAW_PBE Mg_pv 13Apr2007
   POMASS =   24.305; ZVAL   =    8.000    mass and valenz
   ENMAX  =  403.929; ENMIN  =  302.947 eV

   TITEL  = PAW_PBE O 08Apr2002
   POMASS =   16.000; ZVAL   =    6.000    mass and valenz
   ENMAX  =  400.000; ENMIN  =  300.000 eV

  PAW_PBE N 08Apr2002                   :
  PAW_PBE O 08Apr2002                   :
  PAW_PBE Mg_pv 13Apr2007               :
  PAW_PBE O 08Apr2002                   :

 POSCAR:  N  O Mg  O
  positions in direct lattice
 exchange correlation table for  LEXCH =       40
   RHO(1)=    0.500       N(1)  =     2000
   RHO(2)=  100.500       N(2)  =     4000

 ion  position               nearest neighbor table
   1  0.522  0.500  0.747-   2 1.19  33 2.09
   2  0.435  0.444  0.783-   1 1.19
   3  0.000  0.750  0.350-  35 2.14  37 2.14  38 2.14  45 2.14  54 2.14
   4  0.250  0.000  0.350-  36 2.14  37 2.14  38 2.14  46 2.14  53 2.14
   5  0.000  0.000  0.450-  37 2.14  36 2.14  35 2.14  43 2.14  52 2.14  41 2.14
   6  0.250  0.750  0.450-  38 2.14  36 2.14  35 2.14  44 2.14  51 2.14  42 2.14
   7  0.000  0.750  0.550-  41 2.14  42 2.14  49 2.14  58 2.14  35 2.15  39 2.16
   8  0.250  0.000  0.550-  41 2.14  42 2.14  50 2.14  57 2.14  36 2.15  40 2.16
   9  0.000  0.000  0.650-  41 2.13  40 2.14  39 2.14  47 2.14  56 2.14
  10  0.250  0.750  0.650-  42 2.13  40 2.14  39 2.14  48 2.14  55 2.14
  11  0.000  0.250  0.350-  43 2.14  37 2.14  45 2.14  46 2.14  62 2.14
  12  0.250  0.500  0.350-  44 2.14  38 2.14  45 2.14  46 2.14  61 2.14
  13  0.000  0.500  0.450-  45 2.14  43 2.14  44 2.14  35 2.14  60 2.14  49 2.14
  14  0.250  0.250  0.450-  46 2.14  43 2.14  44 2.14  36 2.14  59 2.14  50 2.14
  15  0.000  0.250  0.550-  41 2.14  49 2.14  50 2.14  66 2.14  43 2.15  47 2.16
  16  0.250  0.500  0.550-  42 2.14  49 2.14  50 2.14  65 2.14  44 2.15  48 2.16
  17  0.000  0.500  0.650-  49 2.13  47 2.14  48 2.14  39 2.14  64 2.14
  18  0.250  0.250  0.650-  50 2.13  47 2.14  48 2.14  40 2.14  63 2.14
  19  0.500  0.750  0.350-  51 2.14  38 2.14  53 2.14  54 2.14  61 2.14
  20  0.750  0.000  0.350-  52 2.14  37 2.14  53 2.14  54 2.14  62 2.14
  21  0.500  0.000  0.450-  53 2.14  51 2.14  52 2.14  36 2.14  59 2.14  57 2.14
  22  0.750  0.750  0.450-  54 2.14  51 2.14  52 2.14  35 2.14  60 2.14  58 2.14
  23  0.500  0.750  0.550-  42 2.14  57 2.14  58 2.14  65 2.14  51 2.15  55 2.16
  24  0.750  0.000  0.550-  41 2.14  57 2.14  58 2.14  66 2.14  52 2.15  56 2.16
  25  0.500  0.000  0.650-  57 2.13  55 2.14  56 2.14  40 2.14  63 2.14
  26  0.750  0.750  0.650-  58 2.13  55 2.14  56 2.14  39 2.14  64 2.14
  27  0.500  0.250  0.350-  59 2.14  53 2.14  46 2.14  61 2.14  62 2.14
  28  0.750  0.500  0.350-  60 2.14  54 2.14  45 2.14  61 2.14  62 2.14
  29  0.500  0.500  0.450-  61 2.14  51 2.14  59 2.14  60 2.14  44 2.14  65 2.14
  30  0.750  0.250  0.450-  62 2.14  52 2.14  59 2.14  60 2.14  43 2.14  66 2.14
  31  0.500  0.250  0.550-  50 2.14  57 2.14  65 2.14  66 2.14  59 2.15  63 2.16
  32  0.750  0.500  0.550-  49 2.14  58 2.14  65 2.14  66 2.14  60 2.15  64 2.16
  33  0.500  0.500  0.650-   1 2.09  65 2.13  55 2.14  63 2.14  64 2.14  48 2.14
  34  0.750  0.250  0.650-  66 2.13  56 2.14  63 2.14  64 2.14  47 2.14
  35  0.000  0.750  0.450-   3 2.14   5 2.14   6 2.14  13 2.14  22 2.14   7 2.15
  36  0.250  0.000  0.450-   4 2.14   5 2.14   6 2.14  14 2.14  21 2.14   8 2.15
  37  0.000  0.000  0.350-   5 2.14   4 2.14   3 2.14  11 2.14  20 2.14
  38  0.250  0.750  0.350-   6 2.14   4 2.14   3 2.14  12 2.14  19 2.14
  39  0.000  0.750  0.651-   9 2.14  10 2.14  17 2.14  26 2.14   7 2.16
  40  0.250  0.000  0.651-   9 2.14  10 2.14  18 2.14  25 2.14   8 2.16
  41  0.000  0.000  0.550-   9 2.13   8 2.14   7 2.14  15 2.14  24 2.14   5 2.14
  42  0.250  0.750  0.550-  10 2.13   8 2.14   7 2.14  16 2.14  23 2.14   6 2.14
  43  0.000  0.250  0.450-  11 2.14   5 2.14  13 2.14  14 2.14  30 2.14  15 2.15
  44  0.250  0.500  0.450-  12 2.14   6 2.14  13 2.14  14 2.14  29 2.14  16 2.15
  45  0.000  0.500  0.350-  13 2.14  11 2.14  12 2.14   3 2.14  28 2.14
  46  0.250  0.250  0.350-  14 2.14  11 2.14  12 2.14   4 2.14  27 2.14
  47  0.000  0.250  0.651-   9 2.14  17 2.14  18 2.14  34 2.14  15 2.16
  48  0.250  0.500  0.651-  10 2.14  17 2.14  18 2.14  33 2.14  16 2.16
  49  0.000  0.500  0.550-  17 2.13  15 2.14  16 2.14   7 2.14  32 2.14  13 2.14
  50  0.250  0.250  0.550-  18 2.13  15 2.14  16 2.14   8 2.14  31 2.14  14 2.14
  51  0.500  0.750  0.450-  19 2.14   6 2.14  21 2.14  22 2.14  29 2.14  23 2.15
  52  0.750  0.000  0.450-  20 2.14   5 2.14  21 2.14  22 2.14  30 2.14  24 2.15
  53  0.500  0.000  0.350-  21 2.14  19 2.14  20 2.14   4 2.14  27 2.14
  54  0.750  0.750  0.350-  22 2.14  19 2.14  20 2.14   3 2.14  28 2.14
  55  0.500  0.750  0.651-  10 2.14  25 2.14  26 2.14  33 2.14  23 2.16
  56  0.750  0.000  0.651-   9 2.14  25 2.14  26 2.14  34 2.14  24 2.16
  57  0.500  0.000  0.550-  25 2.13  23 2.14  24 2.14   8 2.14  31 2.14  21 2.14
  58  0.750  0.750  0.550-  26 2.13  23 2.14  24 2.14   7 2.14  32 2.14  22 2.14
  59  0.500  0.250  0.450-  27 2.14  21 2.14  14 2.14  29 2.14  30 2.14  31 2.15
  60  0.750  0.500  0.450-  28 2.14  22 2.14  13 2.14  29 2.14  30 2.14  32 2.15
  61  0.500  0.500  0.350-  29 2.14  19 2.14  27 2.14  28 2.14  12 2.14
  62  0.750  0.250  0.350-  30 2.14  20 2.14  27 2.14  28 2.14  11 2.14
  63  0.500  0.250  0.651-  18 2.14  25 2.14  33 2.14  34 2.14  31 2.16
  64  0.750  0.500  0.651-  17 2.14  26 2.14  33 2.14  34 2.14  32 2.16
  65  0.500  0.500  0.550-  33 2.13  23 2.14  31 2.14  32 2.14  16 2.14  29 2.14
  66  0.750  0.250  0.550-  34 2.13  24 2.14  31 2.14  32 2.14  15 2.14  30 2.14

IMPORTANT INFORMATION: All symmetrisations will be switched off!
NOSYMM: (Re-)initialisation of all symmetry stuff for point group C_1.

                                     Primitive cell

  volume of cell :    1563.6717

  direct lattice vectors                    reciprocal lattice vectors
     8.546113626  0.000000000  0.000000000     0.117012252  0.000000000  0.000000000
     0.000000000  8.546113626  0.000000000     0.000000000  0.117012252  0.000000000
     0.000000000  0.000000000 21.409585219     0.000000000  0.000000000  0.046708051

  length of vectors
     8.546113626  8.546113626 21.409585219     0.117012252  0.117012252  0.046708051

  position of ions in fractional coordinates (direct lattice)
     0.522086306  0.500000000  0.746706617
     0.434601350  0.443665263  0.783463618
     0.000000000  0.750000000  0.350310383
     0.250000000  0.000000000  0.350310383
     0.000000000  0.000000000  0.450103461
     0.250000000  0.750000000  0.450103461
     0.000000000  0.750000000  0.550423065
     0.250000000  0.000000000  0.550423065
     0.000000000  0.000000000  0.649678241
     0.250000000  0.750000000  0.649678241
     0.000000000  0.250000000  0.350310383
     0.250000000  0.500000000  0.350310383
     0.000000000  0.500000000  0.450103461
     0.250000000  0.250000000  0.450103461
     0.000000000  0.250000000  0.550423065
     0.250000000  0.500000000  0.550423065
     0.000000000  0.500000000  0.649678241
     0.250000000  0.250000000  0.649678241
     0.500000000  0.750000000  0.350310383
     0.750000000  0.000000000  0.350310383
     0.500000000  0.000000000  0.450103461
     0.750000000  0.750000000  0.450103461
     0.500000000  0.750000000  0.550423065
     0.750000000  0.000000000  0.550423065
     0.500000000  0.000000000  0.649678241
     0.750000000  0.750000000  0.649678241
     0.500000000  0.250000000  0.350310383
     0.750000000  0.500000000  0.350310383
     0.500000000  0.500000000  0.450103461
     0.750000000  0.250000000  0.450103461
     0.500000000  0.250000000  0.550423065
     0.750000000  0.500000000  0.550423065
     0.500000000  0.500000000  0.649678241
     0.750000000  0.250000000  0.649678241
     0.000000000  0.750000000  0.450103461
     0.250000000  0.000000000  0.450103461
     0.000000000  0.000000000  0.350310383
     0.250000000  0.750000000  0.350310383
     0.000000000  0.750000000  0.651489980
     0.250000000  0.000000000  0.651489980
     0.000000000  0.000000000  0.550159231
     0.250000000  0.750000000  0.550159231
     0.000000000  0.250000000  0.450103461
     0.250000000  0.500000000  0.450103461
     0.000000000  0.500000000  0.350310383
     0.250000000  0.250000000  0.350310383
     0.000000000  0.250000000  0.651489980
     0.250000000  0.500000000  0.651489980
     0.000000000  0.500000000  0.550159231
     0.250000000  0.250000000  0.550159231
     0.500000000  0.750000000  0.450103461
     0.750000000  0.000000000  0.450103461
     0.500000000  0.000000000  0.350310383
     0.750000000  0.750000000  0.350310383
     0.500000000  0.750000000  0.651489980
     0.750000000  0.000000000  0.651489980
     0.500000000  0.000000000  0.550159231
     0.750000000  0.750000000  0.550159231
     0.500000000  0.250000000  0.450103461
     0.750000000  0.500000000  0.450103461
     0.500000000  0.500000000  0.350310383
     0.750000000  0.250000000  0.350310383
     0.500000000  0.250000000  0.651489980
     0.750000000  0.500000000  0.651489980
     0.500000000  0.500000000  0.550159231
     0.750000000  0.250000000  0.550159231

  ion indices of the primitive-cell ions
   primitive index   ion index
                 1           1
[...]
   6.40958522  0.00000000  7.50000000
   4.27305681  0.00000000  9.63652841
   6.40958522  6.40958522  9.63652841
   4.27305681  6.40958522 11.78432951
   6.40958522  0.00000000 11.78432951
   4.27305681  0.00000000 13.90934166
   6.40958522  6.40958522 13.90934166
   4.27305681  2.13652841  7.50000000
   6.40958522  4.27305681  7.50000000
   4.27305681  4.27305681  9.63652841
   6.40958522  2.13652841  9.63652841
   4.27305681  2.13652841 11.78432951
   6.40958522  4.27305681 11.78432951
   4.27305681  4.27305681 13.90934166
   6.40958522  2.13652841 13.90934166
   0.00000000  6.40958522  9.63652841
   2.13652841  0.00000000  9.63652841
   0.00000000  0.00000000  7.50000000
   2.13652841  6.40958522  7.50000000
   0.00000000  6.40958522 13.94813025
   2.13652841  0.00000000 13.94813025
   0.00000000  0.00000000 11.77868095
   2.13652841  6.40958522 11.77868095
   0.00000000  2.13652841  9.63652841
   2.13652841  4.27305681  9.63652841
   0.00000000  4.27305681  7.50000000
   2.13652841  2.13652841  7.50000000
   0.00000000  2.13652841 13.94813025
   2.13652841  4.27305681 13.94813025
   0.00000000  4.27305681 11.77868095
   2.13652841  2.13652841 11.77868095
   4.27305681  6.40958522  9.63652841
   6.40958522  0.00000000  9.63652841
   4.27305681  0.00000000  7.50000000
   6.40958522  6.40958522  7.50000000
   4.27305681  6.40958522 13.94813025
   6.40958522  0.00000000 13.94813025
   4.27305681  0.00000000 11.77868095
   6.40958522  6.40958522 11.77868095
   4.27305681  2.13652841  9.63652841
   6.40958522  4.27305681  9.63652841
   4.27305681  4.27305681  7.50000000
   6.40958522  2.13652841  7.50000000
   4.27305681  2.13652841 13.94813025
   6.40958522  4.27305681 13.94813025
   4.27305681  4.27305681 11.77868095
   6.40958522  2.13652841 11.77868095

--------------------------------------- Iteration      FINAL  ---------------------------------------

--------------------OUTCAR has been truncated-------------------------

[...]

--------------------OUTCAR has been truncated-------------------------

  FORCE on cell =-STRESS in cart. coord.  units (eV):
  Direction    XX          YY          ZZ          XY          YZ          ZX
  Alpha Z   884.72509   884.72509   884.72509
  Ewald  153114.06840153105.66832************    92.25861  -125.98725  -132.44981
  Hartree163541.04942163537.31122************    41.34679   -48.90165   -51.60643
  E(xc)   -2570.32977 -2570.39146 -2572.16461     0.74719    -0.68739    -0.72511
  Local  ************************325817.88258  -133.01940   158.90250   167.53678
  n-local -2846.82713 -2846.45830 -2869.69706    -5.05573     1.44506     1.56965
  augment  1085.26045  1085.23380  1077.27836     0.53397     0.65617     0.66211
  Kinetic  7529.96326  7529.97042  7569.79228     3.09356    14.63265    15.14775
  Fock        0.00000     0.00000     0.00000     0.00000     0.00000     0.00000
  Total     -30.31201   -30.32076    -2.27496    -0.09500     0.06009     0.13494
  in kB     -31.05845   -31.06742    -2.33098    -0.09734     0.06157     0.13826

 VOLUME and BASIS-vectors are now :
  energy-cutoff  :      600.00
  volume of cell :     1563.67
      direct lattice vectors                 reciprocal lattice vectors
     8.546113626  0.000000000  0.000000000     0.117012252  0.000000000  0.000000000
     0.000000000  8.546113626  0.000000000     0.000000000  0.117012252  0.000000000
     0.000000000  0.000000000 21.409585219     0.000000000  0.000000000  0.046708051

  length of vectors
     8.546113626  8.546113626 21.409585219     0.117012252  0.117012252  0.046708051

 FORCES acting on ions:
    Electron-Ion                     Ewald-Force                    Non-Local-Force
   -.137E+03 -.131E+03 -.110E+04   0.159E+03 0.152E+03 0.107E+04   -.223E+02 -.213E+02 0.285E+02
   0.129E+03 0.123E+03 -.147E+04   -.159E+03 -.152E+03 0.151E+04   0.304E+02 0.290E+02 -.415E+02
   0.407E-01 -.153E+00 0.202E+04   -.408E-01 0.152E+00 -.201E+04   0.123E-03 0.823E-03 -.640E+01
   0.148E+00 0.327E-01 0.202E+04   -.148E+00 -.321E-01 -.201E+04   -.194E-03 -.447E-03 -.640E+01
   0.134E+00 0.148E+00 0.699E+03   -.140E+00 -.150E+00 -.699E+03   0.378E-02 0.101E-02 0.403E+00
   0.671E+00 -.642E+00 0.700E+03   -.672E+00 0.629E+00 -.700E+03   0.547E-03 0.939E-02 0.428E+00
   0.756E+00 -.320E+01 -.617E+03   -.770E+00 0.318E+01 0.617E+03   0.139E-01 0.138E-01 -.227E+00
   0.333E+01 0.611E+00 -.615E+03   -.330E+01 -.606E+00 0.616E+03   -.263E-01 -.519E-02 -.240E+00
   0.188E+01 0.185E+01 -.195E+04   -.188E+01 -.184E+01 0.194E+04   0.551E-03 -.113E-01 0.561E+01
   0.198E+02 -.222E+02 -.192E+04   -.199E+02 0.222E+02 0.191E+04   0.119E+00 -.911E-01 0.567E+01
   0.332E-01 0.153E+00 0.202E+04   -.329E-01 -.152E+00 -.201E+04   -.230E-03 -.696E-03 -.640E+01
   0.170E+00 -.326E-01 0.202E+04   -.169E+00 0.320E-01 -.201E+04   -.130E-02 0.452E-03 -.641E+01
   0.848E-01 -.160E+00 0.700E+03   -.853E-01 0.158E+00 -.700E+03   0.364E-03 0.104E-02 0.390E+00
   0.623E+00 0.640E+00 0.700E+03   -.615E+00 -.626E+00 -.701E+03   -.573E-02 -.973E-02 0.436E+00
   0.601E+00 0.324E+01 -.615E+03   -.600E+00 -.322E+01 0.616E+03   -.185E-03 -.164E-01 -.222E+00
   0.559E+01 -.641E+00 -.607E+03   -.548E+01 0.634E+00 0.608E+03   -.116E+00 0.542E-02 -.357E+00
   0.438E+01 -.204E+01 -.193E+04   -.436E+01 0.203E+01 0.192E+04   -.211E-01 0.807E-02 0.560E+01
   0.230E+02 0.233E+02 -.191E+04   -.231E+02 -.234E+02 0.191E+04   0.121E+00 0.109E+00 0.567E+01
   -.427E-01 -.175E+00 0.202E+04   0.420E-01 0.173E+00 -.201E+04   0.497E-03 0.201E-02 -.640E+01
   -.149E+00 0.401E-01 0.202E+04   0.148E+00 -.399E-01 -.201E+04   0.753E-03 -.936E-04 -.640E+01
   -.167E+00 0.930E-01 0.700E+03   0.162E+00 -.893E-01 -.700E+03   0.392E-02 -.256E-02 0.405E+00
   -.677E+00 -.687E+00 0.700E+03   0.665E+00 0.675E+00 -.700E+03   0.813E-02 0.883E-02 0.450E+00
   -.917E+00 -.556E+01 -.609E+03   0.924E+00 0.544E+01 0.609E+03   -.604E-02 0.117E+00 -.264E+00
   -.324E+01 0.769E+00 -.617E+03   0.323E+01 -.777E+00 0.617E+03   0.202E-01 0.830E-02 -.234E+00
   -.224E+01 0.413E+01 -.193E+04   0.224E+01 -.410E+01 0.192E+04   0.933E-02 -.323E-01 0.560E+01
   -.192E+02 -.194E+02 -.193E+04   0.194E+02 0.196E+02 0.192E+04   -.159E+00 -.141E+00 0.567E+01
   -.345E-01 0.175E+00 0.202E+04   0.338E-01 -.173E+00 -.201E+04   0.567E-03 -.182E-02 -.641E+01
   -.170E+00 -.409E-01 0.202E+04   0.168E+00 0.404E-01 -.201E+04   0.181E-02 0.396E-03 -.641E+01
   -.133E+00 -.103E+00 0.701E+03   0.124E+00 0.963E-01 -.701E+03   0.602E-02 0.459E-02 0.492E+00
   -.618E+00 0.678E+00 0.700E+03   0.604E+00 -.672E+00 -.700E+03   0.980E-02 -.442E-02 0.424E+00
   -.778E+00 0.561E+01 -.608E+03   0.767E+00 -.549E+01 0.608E+03   0.112E-01 -.120E+00 -.335E+00
   -.539E+01 -.805E+00 -.609E+03   0.529E+01 0.815E+00 0.609E+03   0.103E+00 -.940E-02 -.308E+00
   -.632E+01 -.567E+01 -.184E+04   0.624E+01 0.558E+01 0.183E+04   0.804E-01 0.840E-01 0.453E+01
   -.218E+02 0.199E+02 -.192E+04   0.219E+02 -.200E+02 0.191E+04   -.100E+00 0.100E+00 0.567E+01
   0.111E+00 -.461E+00 0.524E+03   -.980E-01 0.459E+00 -.524E+03   -.179E-01 0.342E-02 -.583E-01
   0.444E+00 0.831E-01 0.524E+03   -.438E+00 -.840E-01 -.524E+03   -.914E-02 0.124E-02 -.560E-01
   0.297E-01 0.294E-01 0.152E+04   -.293E-01 -.291E-01 -.152E+04   -.622E-03 -.409E-03 0.358E+01
   0.122E+00 -.121E+00 0.152E+04   -.121E+00 0.118E+00 -.152E+04   -.165E-02 0.292E-02 0.358E+01
   0.204E+01 -.837E+01 -.147E+04   -.205E+01 0.831E+01 0.148E+04   0.143E-01 0.641E-01 -.492E+01
   0.859E+01 0.246E+01 -.147E+04   -.854E+01 -.246E+01 0.148E+04   -.520E-01 -.346E-02 -.492E+01
   0.445E+00 0.414E+00 -.459E+03   -.449E+00 -.413E+00 0.459E+03   0.619E-02 -.141E-02 0.265E+00
   0.311E+01 -.324E+01 -.453E+03   -.312E+01 0.323E+01 0.453E+03   0.298E-02 0.865E-02 0.366E+00
   0.702E-01 0.459E+00 0.524E+03   -.674E-01 -.453E+00 -.524E+03   -.354E-02 -.816E-02 -.568E-01
   0.615E+00 -.832E-01 0.525E+03   -.632E+00 0.838E-01 -.525E+03   0.221E-01 -.684E-03 -.987E-01
   0.261E-01 -.294E-01 0.152E+04   -.253E-01 0.292E-01 -.152E+04   -.120E-02 0.279E-03 0.357E+01
   0.117E+00 0.121E+00 0.152E+04   -.115E+00 -.118E+00 -.152E+04   -.229E-02 -.290E-02 0.357E+01
   0.267E+01 0.853E+01 -.147E+04   -.268E+01 -.846E+01 0.148E+04   0.302E-02 -.642E-01 -.493E+01
   0.291E+02 -.336E+01 -.143E+04   -.288E+02 0.335E+01 0.144E+04   -.217E+00 0.334E-02 -.489E+01
   0.537E+00 -.446E+00 -.454E+03   -.537E+00 0.447E+00 0.454E+03   0.266E-02 0.367E-03 0.290E+00
   0.327E+01 0.325E+01 -.453E+03   -.326E+01 -.324E+01 0.452E+03   -.682E-02 -.150E-01 0.323E+00
   -.156E+00 -.638E+00 0.525E+03   0.160E+00 0.660E+00 -.525E+03   -.508E-02 -.286E-01 -.787E-01
   -.463E+00 0.124E+00 0.524E+03   0.471E+00 -.114E+00 -.524E+03   -.109E-01 -.131E-01 -.565E-01
   -.295E-01 0.248E-01 0.152E+04   0.296E-01 -.239E-01 -.152E+04   -.250E-04 -.125E-02 0.358E+01
   -.120E+00 -.124E+00 0.152E+04   0.120E+00 0.122E+00 -.152E+04   0.954E-03 0.213E-02 0.358E+01
   -.244E+01 -.280E+02 -.144E+04   0.244E+01 0.278E+02 0.145E+04   0.572E-02 0.175E+00 -.489E+01
   -.828E+01 0.186E+01 -.147E+04   0.822E+01 -.187E+01 0.148E+04   0.659E-01 0.100E-01 -.491E+01
   -.477E+00 0.566E+00 -.455E+03   0.470E+00 -.563E+00 0.454E+03   0.934E-02 -.316E-02 0.284E+00
   -.297E+01 -.309E+01 -.455E+03   0.296E+01 0.307E+01 0.455E+03   0.118E-01 0.196E-01 0.279E+00
   -.103E+00 0.635E+00 0.525E+03   0.109E+00 -.653E+00 -.525E+03   -.781E-02 0.234E-01 -.943E-01
   -.616E+00 -.139E+00 0.525E+03   0.645E+00 0.138E+00 -.525E+03   -.385E-01 0.153E-02 -.861E-01
   -.264E-01 -.248E-01 0.152E+04   0.260E-01 0.240E-01 -.152E+04   0.612E-03 0.104E-02 0.357E+01
   -.116E+00 0.124E+00 0.152E+04   0.115E+00 -.122E+00 -.152E+04   0.195E-02 -.248E-02 0.358E+01
   -.360E+01 0.291E+02 -.143E+04   0.359E+01 -.289E+02 0.144E+04   0.987E-02 -.207E+00 -.488E+01
   -.277E+02 -.219E+01 -.144E+04   0.275E+02 0.219E+01 0.145E+04   0.189E+00 0.518E-03 -.489E+01
   -.670E+00 -.594E+00 -.452E+03   0.666E+00 0.586E+00 0.452E+03   0.609E-02 0.808E-02 -.200E+00
   -.314E+01 0.313E+01 -.453E+03   0.313E+01 -.312E+01 0.453E+03   0.541E-02 -.777E-02 0.366E+00
   -.817E+01 -.774E+01 0.282E+02   -.153E-12 0.224E-12 -.466E-11   0.817E+01 0.774E+01 -.282E+02

 POSITION                                       TOTAL-FORCE (eV/Angst)
      4.32010      4.32891     16.43833         0.004267      0.004178     -0.000161
      3.71439      3.74997     17.26379         0.000235      0.001807     -0.004578
      0.00000      6.40959      7.50000         0.000073     -0.000312      0.323497
      2.13653      0.00000      7.50000         0.000132      0.000163      0.323371
      0.00000      0.00000      9.63653        -0.001905     -0.000508      0.016884
      2.13653      6.40959      9.63653        -0.000699     -0.003948      0.017760
     -0.00190      6.40882     11.78134         0.000776     -0.001005     -0.002809
      2.13628      0.00013     11.78114        -0.002234      0.000496     -0.002958
     -0.00187     -0.00025     13.90364         0.002001     -0.000513      0.000142
      2.13088      6.41222     13.89807         0.003262     -0.001778      0.002750
      0.00000      2.13653      7.50000         0.000134      0.000303      0.323590
      2.13653      4.27306      7.50000         0.000346     -0.000155      0.324664
      0.00000      4.27306      9.63653        -0.000150     -0.000428      0.025752
      2.13653      2.13653      9.63653         0.002354      0.004246      0.018570
     -0.00070      2.13670     11.78098         0.001089      0.000698     -0.002950
      2.13936      4.27290     11.78539        -0.002606     -0.001317     -0.000356
     -0.00107      4.27224     13.90248         0.001487      0.000347      0.003400
      2.13232      2.13396     13.90194         0.003082      0.000960      0.000749
      4.27306      6.40959      7.50000        -0.000147     -0.000518      0.323657
      6.40959      0.00000      7.50000        -0.000183      0.000103      0.323288
      4.27306      0.00000      9.63653        -0.001976      0.001146      0.024169
      6.40959      6.40959      9.63653        -0.003938     -0.003997      0.017467
      4.27191      6.40537     11.78401         0.001272      0.001287     -0.000003
      6.40728     -0.00106     11.78127         0.005276      0.000166     -0.001041
      4.27096      0.00033     13.90302         0.002010      0.000079      0.004349
      6.41035      6.41109     13.90512         0.000215      0.000678     -0.000491
      4.27306      2.13653      7.50000        -0.000143      0.000511      0.324377
      6.40959      4.27306      7.50000        -0.000384     -0.000162      0.324141
      4.27306      4.27306      9.63653        -0.002857     -0.002142      0.028637
      6.40959      2.13653      9.63653        -0.004405      0.001567      0.017942
      4.27195      2.14013     11.78529         0.000682     -0.000436      0.000688
      6.40479      4.27275     11.78424         0.003103     -0.000014     -0.002264
      4.27190      4.27283     13.94712         0.000135     -0.000525     -0.006300
      6.41116      2.13268     13.89805        -0.001118      0.000624      0.003287
      0.00000      6.40959      9.63653        -0.004578      0.000914      0.043502
      2.13653      0.00000      9.63653        -0.002400      0.000370      0.043097
      0.00000      0.00000      7.50000        -0.000172     -0.000118     -0.396241
      2.13653      6.40959      7.50000        -0.000460      0.000818     -0.396528
     -0.00193      6.41076     13.94411         0.000162      0.001456      0.004169
      2.13352     -0.00032     13.94307        -0.003528      0.001662      0.007396
     -0.00135     -0.00039     11.77521         0.002128      0.000155      0.004930
      2.13520      6.40972     11.77595         0.000184      0.000798      0.000231
      0.00000      2.13653      9.63653        -0.000696     -0.002198      0.042077
      2.13653      4.27306      9.63653         0.005182     -0.000130      0.050511
      0.00000      4.27306      7.50000        -0.000331      0.000079     -0.396861
      2.13653      2.13653      7.50000        -0.000628     -0.000808     -0.396928
     -0.00148      2.13422     13.94382         0.002217     -0.000849      0.002640
      2.12705      4.27385     13.94380         0.005053     -0.000907      0.004770
     -0.00139      4.27276     11.77528         0.002717      0.000460      0.003987
      2.13572      2.13634     11.77676        -0.000963     -0.001069      0.001347
      4.27306      6.40959      9.63653        -0.001086     -0.006720      0.049979
      6.40959      0.00000      9.63653        -0.002634     -0.003519      0.043739
      4.27306      0.00000      7.50000         0.000002     -0.000355     -0.396485
      6.40959      6.40959      7.50000         0.000274      0.000598     -0.396362
      4.26925      6.41716     13.94439         0.003369     -0.004927      0.001765
      6.40912     -0.00074     13.94382         0.003017     -0.000691      0.005403
      4.27189     -0.00059     11.77591         0.002119     -0.000346      0.000391
      6.40820      6.40887     11.77757        -0.001888      0.002133      0.002349
      4.27306      2.13653      9.63653        -0.001849      0.005309      0.051392
      6.40959      4.27306      9.63653        -0.009500      0.000542      0.048823
      4.27306      4.27306      7.50000         0.000173      0.000286     -0.397597
      6.40959      2.13653      7.50000         0.000553     -0.000705     -0.396596
      4.27255      2.12860     13.94483         0.000551      0.004658      0.003436
      6.41653      4.27050     13.94238        -0.005774      0.002342      0.006213
      4.27215      4.27299     11.78390         0.001405      0.000698      0.000916
      6.40901      2.13584     11.77579        -0.001808     -0.001541      0.001314
    total drift:                               -0.001071     -0.000110      0.009486

  FREE ENERGIE OF THE ION-ELECTRON SYSTEM (eV)
  free  energy   TOTEN  =      -235.86408499 eV

  energy  without entropy=     -235.86408499  energy(sigma->0) =     -235.86408499

 d Force = 0.1002298E-04[ 0.366E-05, 0.164E-04]  d Energy = 0.8442163E-05 0.158E-05
 d Force =-0.1318112E+01[-0.132E+01,-0.132E+01]  d Ewald  =-0.1318112E+01 0.555E-06

 Conjugate gradient step on ions:
 trial-energy change:   -0.000008  1 .order   -0.000010   -0.000016   -0.000004
  (g-gl).g = 0.136E-03      g.g   = 0.107E-03  gl.gl    = 0.874E-04
 g(Force)  = 0.107E-03   g(Stress)= 0.000E+00 ortho     =-0.630E-05
 gamma     =   1.55184
 trial     =   0.16849
 opt step  =   0.21697  (harmonic =   0.21697) maximal distance =0.00060081
 next E    =  -235.864087   (d E  =  -0.00001)

 reached required accuracy - stopping structural energy minimisation