 vasp.6.3.0 20Jan22 (build Apr  1 2022 16:44:48) complex
 executed on        HPECrayEX_GCC date 2022.11.13  02:34:50

 INCAR:
   SYSTEM = MgO-rocksalt
   ISMEAR = 0
   SIGMA = 0.05
   EDIFF = 1E-6
   ALGO = ALL
   ISTART = 0
   IBRION = -1
   NSW = 0
   ISYM = 0
   DIPOL = 0.5 0.5 0.5
   IDIPOL = 3
   LDIPOL = .TRUE.
   LHFCALC = .TRUE.
   GGA = PE
   IVDW = 13
   VDW_S8 = 1.2007
   VDW_A1 = 0.4009
   VDW_A2 = 5.0293
   ENCUT = 600
   PREC = Accurate
   LASPH = .TRUE.
   LREAL = .FALSE.
   ISPIN = 1
   NELM = 200
   NELMIN = 8
   NCORE = 8
   KPAR = 1
   LWAVE = .FALSE.
   LCHARG = .FALSE.

 POTCAR:    PAW_PBE C 08Apr2002
 POTCAR:    PAW_PBE H 15Jun2001
 POTCAR:    PAW_PBE Mg_pv 13Apr2007
 POTCAR:    PAW_PBE O 08Apr2002
 POTCAR:    PAW_PBE C 08Apr2002
   VRHFIN =C: s2p2

   TITEL  = PAW_PBE C 08Apr2002
   POMASS =   12.011; ZVAL   =    4.000    mass and valenz
   ENMAX  =  400.000; ENMIN  =  300.000 eV

   TITEL  = PAW_PBE H 15Jun2001
   POMASS =    1.000; ZVAL   =    1.000    mass and valenz
   ENMAX  =  250.000; ENMIN  =  200.000 eV

   TITEL  = PAW_PBE Mg_pv 13Apr2007
   POMASS =   24.305; ZVAL   =    8.000    mass and valenz
   ENMAX  =  403.929; ENMIN  =  302.947 eV

   TITEL  = PAW_PBE O 08Apr2002
   POMASS =   16.000; ZVAL   =    6.000    mass and valenz
   ENMAX  =  400.000; ENMIN  =  300.000 eV

  PAW_PBE C 08Apr2002                   :
  PAW_PBE H 15Jun2001                   :
  PAW_PBE Mg_pv 13Apr2007               :
  PAW_PBE O 08Apr2002                   :

 POSCAR:  C  H Mg  O
  positions in direct lattice
|           W    W    AA    RRRRR   N    N  II  N    N   GGGG   !!!           |
|           W    W   A  A   R    R  NN   N  II  NN   N  G    G  !!!           |
|           W    W  A    A  R    R  N N  N  II  N N  N  G       !!!           |
|           W WW W  AAAAAA  RRRRR   N  N N  II  N  N N  G  GGG   !            |
|           WW  WW  A    A  R   R   N   NN  II  N   NN  G    G                |
|           W    W  A    A  R    R  N    N  II  N    N   GGGG   !!!           |
|     Specifying the vdW parameters                                           |
|     VDW_S8 = 1.201                                                          |
|     VDW_A1 = 0.401                                                          |
|     VDW_A2 = 5.029                                                          |
|     in the INCAR file will overwrite the defaults for pbe0. Please make     |
|     sure that is what you intended.                                         |

 ion  position               nearest neighbor table
   1  0.449  0.490  0.797-   5 1.10   3 1.10   4 1.10   2 1.52
   2  0.301  0.408  0.822-   7 1.10   8 1.10   6 1.10   1 1.52
   3  0.419  0.598  0.770-   1 1.10
   4  0.517  0.410  0.766-   1 1.10
   5  0.529  0.526  0.835-   1 1.10
   6  0.221  0.375  0.783-   2 1.10
   7  0.234  0.486  0.854-   2 1.10
   8  0.330  0.300  0.848-   2 1.10
   9  0.250  0.000  0.352-  41 2.11  43 2.11  44 2.11  51 2.11  60 2.11
  10  0.500  0.250  0.352-  42 2.11  43 2.11  44 2.11  52 2.11  59 2.11
  11  0.250  0.250  0.451-  43 2.11  42 2.11  41 2.11  49 2.11  58 2.11  47 2.11
  12  0.500  0.000  0.451-  44 2.11  42 2.11  41 2.11  50 2.11  57 2.11  48 2.12
  13  0.250  0.000  0.550-  48 2.11  47 2.11  55 2.11  64 2.11  41 2.12  45 2.14
  14  0.500  0.250  0.550-  63 2.11  48 2.11  56 2.11  47 2.11  42 2.12  46 2.14
  15  0.250  0.250  0.648-  47 2.10  62 2.10  46 2.11  45 2.11  53 2.11
  16  0.500  0.000  0.649-  46 2.11  48 2.11  54 2.11  45 2.11  61 2.12
  17  0.250  0.500  0.352-  49 2.11  43 2.11  51 2.11  52 2.11  68 2.11
  18  0.500  0.750  0.352-  50 2.11  44 2.11  51 2.11  52 2.11  67 2.11
  19  0.250  0.750  0.451-  51 2.11  49 2.11  50 2.11  41 2.11  66 2.11  55 2.11
  20  0.500  0.500  0.451-  52 2.11  49 2.11  50 2.11  42 2.11  65 2.11  56 2.12
  21  0.250  0.500  0.550-  56 2.11  55 2.11  47 2.11  72 2.11  49 2.12  53 2.14
  22  0.500  0.750  0.550-  71 2.11  48 2.11  56 2.11  55 2.11  50 2.12  54 2.14
  23  0.250  0.750  0.648-  55 2.10  70 2.10  54 2.11  53 2.11  45 2.11
  24  0.500  0.500  0.649-  54 2.11  56 2.11  46 2.11  53 2.11  69 2.12
  25  0.750  0.000  0.352-  57 2.11  44 2.11  59 2.11  60 2.11  67 2.11
  26  0.000  0.250  0.352-  58 2.11  43 2.11  59 2.11  60 2.11  68 2.11
  27  0.750  0.250  0.451-  59 2.11  57 2.11  58 2.11  42 2.11  65 2.11  63 2.12
  28  0.000  0.000  0.451-  60 2.11  57 2.11  58 2.11  41 2.11  66 2.11  64 2.11
  29  0.750  0.000  0.550-  48 2.11  63 2.11  71 2.11  64 2.11  57 2.12  61 2.14
  30  1.000  0.250  0.550-  63 2.11  72 2.11  64 2.11  47 2.11  58 2.12  62 2.14
  31  0.750  0.250  0.649-  69 2.11  63 2.11  61 2.11  62 2.11  46 2.12
  32  0.000  0.000  0.648-  64 2.10  45 2.10  61 2.11  70 2.11  62 2.11
  33  0.750  0.500  0.352-  65 2.11  59 2.11  52 2.11  67 2.11  68 2.11
  34  0.000  0.750  0.352-  66 2.11  60 2.11  51 2.11  67 2.11  68 2.11
  35  0.750  0.750  0.451-  67 2.11  57 2.11  65 2.11  66 2.11  50 2.11  71 2.12
  36  0.000  0.500  0.451-  68 2.11  58 2.11  65 2.11  66 2.11  49 2.11  72 2.11
  37  0.750  0.500  0.550-  56 2.11  71 2.11  63 2.11  72 2.11  65 2.12  69 2.14
  38  1.000  0.750  0.550-  71 2.11  72 2.11  64 2.11  55 2.11  66 2.12  70 2.14
  39  0.750  0.750  0.649-  61 2.11  71 2.11  69 2.11  70 2.11  54 2.12
  40  0.000  0.500  0.648-  72 2.10  53 2.10  69 2.11  62 2.11  70 2.11
  41  0.250  0.000  0.451-   9 2.11  11 2.11  12 2.11  19 2.11  28 2.11  13 2.12
  42  0.500  0.250  0.451-  10 2.11  11 2.11  12 2.11  20 2.11  27 2.11  14 2.12
  43  0.250  0.250  0.352-  11 2.11  10 2.11   9 2.11  17 2.11  26 2.11
  44  0.500  0.000  0.352-  12 2.11  10 2.11   9 2.11  18 2.11  25 2.11
  45  0.249  0.000  0.650-  32 2.10  15 2.11  23 2.11  16 2.11  13 2.14
  46  0.500  0.250  0.650-  16 2.11  15 2.11  24 2.11  31 2.12  14 2.14
  47  0.250  0.250  0.550-  15 2.10  13 2.11  21 2.11  14 2.11  11 2.11  30 2.11
  48  0.500  0.000  0.550-  29 2.11  13 2.11  22 2.11  14 2.11  16 2.11  12 2.12
  49  0.250  0.500  0.451-  17 2.11  11 2.11  19 2.11  20 2.11  36 2.11  21 2.12
  50  0.500  0.750  0.451-  18 2.11  12 2.11  19 2.11  20 2.11  35 2.11  22 2.12
  51  0.250  0.750  0.352-  19 2.11  17 2.11  18 2.11   9 2.11  34 2.11
  52  0.500  0.500  0.352-  20 2.11  17 2.11  18 2.11  10 2.11  33 2.11
  53  0.249  0.500  0.650-  40 2.10  23 2.11  15 2.11  24 2.11  21 2.14
  54  0.500  0.750  0.650-  24 2.11  23 2.11  16 2.11  39 2.12  22 2.14
  55  0.250  0.750  0.550-  23 2.10  13 2.11  21 2.11  22 2.11  19 2.11  38 2.11
  56  0.500  0.500  0.550-  21 2.11  37 2.11  24 2.11  14 2.11  22 2.11  20 2.12
  57  0.750  0.000  0.451-  25 2.11  12 2.11  27 2.11  28 2.11  35 2.11  29 2.12
  58  0.000  0.250  0.451-  26 2.11  11 2.11  27 2.11  28 2.11  36 2.11  30 2.12
  59  0.750  0.250  0.352-  27 2.11  25 2.11  26 2.11  10 2.11  33 2.11
  60  0.000  0.000  0.352-  28 2.11  25 2.11  26 2.11   9 2.11  34 2.11
  61  0.750  0.000  0.650-  39 2.11  32 2.11  31 2.11  16 2.12  29 2.14
  62  0.001  0.250  0.650-  15 2.10  40 2.11  32 2.11  31 2.11  30 2.14
  63  0.750  0.250  0.550-  30 2.11  14 2.11  29 2.11  37 2.11  31 2.11  27 2.12
  64  1.000  0.000  0.550-  32 2.10  38 2.11  30 2.11  29 2.11  28 2.11  13 2.11
  65  0.750  0.500  0.451-  33 2.11  27 2.11  20 2.11  35 2.11  36 2.11  37 2.12
  66  0.000  0.750  0.451-  34 2.11  28 2.11  19 2.11  35 2.11  36 2.11  38 2.12
  67  0.750  0.750  0.352-  35 2.11  25 2.11  33 2.11  34 2.11  18 2.11
  68  0.000  0.500  0.352-  36 2.11  26 2.11  33 2.11  34 2.11  17 2.11
  69  0.750  0.500  0.650-  31 2.11  40 2.11  39 2.11  24 2.12  37 2.14
  70  0.001  0.750  0.650-  23 2.10  32 2.11  40 2.11  39 2.11  38 2.14
  71  0.750  0.750  0.550-  38 2.11  22 2.11  29 2.11  37 2.11  39 2.11  35 2.12
  72  1.000  0.500  0.550-  40 2.10  30 2.11  38 2.11  37 2.11  36 2.11  21 2.11

IMPORTANT INFORMATION: All symmetrisations will be switched off!
NOSYMM: (Re-)initialisation of all symmetry stuff for point group C_1.

                                     Primitive cell

  volume of cell :    1519.6535

  direct lattice vectors                    reciprocal lattice vectors
     8.440582262  0.000000000  0.000000000     0.118475239  0.000000000  0.000000000
     0.000000000  8.440582262  0.000000000     0.000000000  0.118475239  0.000000000
     0.000000000  0.000000000 21.330436697     0.000000000  0.000000000  0.046881366

  length of vectors
     8.440582262  8.440582262 21.330436697     0.118475239  0.118475239  0.046881366

  position of ions in fractional coordinates (direct lattice)
     0.448914102  0.490295406  0.797062243
     0.300689000  0.408294431  0.821795036
     0.419046797  0.597958639  0.770285256
     0.516794712  0.410097766  0.766253788
     0.528697764  0.526226937  0.835359284
     0.220561892  0.375304497  0.783117707
     0.233505174  0.485958356  0.853619750
     0.330421543  0.299554366  0.847777737
     0.250000000  0.000000000  0.351610242
     0.500000000  0.250000000  0.351610242
     0.250000000  0.250000000  0.450536747
     0.500000000  0.000000000  0.450536747
     0.250224690  0.000046991  0.549867504
     0.500231897  0.250027359  0.550102720
     0.249800584  0.250071873  0.647835510
     0.499714720  0.000158054  0.648745206
     0.250000000  0.500000000  0.351610242
     0.500000000  0.750000000  0.351610242
     0.250000000  0.750000000  0.450536747
     0.500000000  0.500000000  0.450536747
     0.250217395  0.500045624  0.549876756
     0.500231127  0.750037191  0.550100771
     0.249802018  0.750108527  0.647836743
     0.499710836  0.500159284  0.648725973
     0.750000000  0.000000000  0.351610242
     0.000000000  0.250000000  0.351610242
     0.750000000  0.250000000  0.450536747
     0.000000000  0.000000000  0.450536747
     0.749801425  0.000028354  0.550098713
     0.999777575  0.250051927  0.549880149
     0.750302333  0.250132189  0.648778965
     0.000223629  0.000091402  0.647853053
     0.750000000  0.500000000  0.351610242
     0.000000000  0.750000000  0.351610242
     0.750000000  0.750000000  0.450536747
     0.000000000  0.500000000  0.450536747
     0.749810072  0.500026670  0.550116489
     0.999779264  0.750047056  0.549881125
     0.750302344  0.750186134  0.648777644
     0.000226577  0.500090522  0.647866231
     0.250000000  0.000000000  0.450536747
     0.500000000  0.250000000  0.450536747
     0.250000000  0.250000000  0.351610242
     0.500000000  0.000000000  0.351610242
     0.249478678  0.000114183  0.650007073
     0.499723507  0.250037701  0.650331726
     0.250063939  0.250036691  0.549555343
     0.500019618  0.000028690  0.549810884
     0.250000000  0.500000000  0.450536747
     0.500000000  0.750000000  0.450536747
     0.250000000  0.750000000  0.351610242
     0.500000000  0.500000000  0.351610242
     0.249490791  0.500113809  0.650002894
     0.499723680  0.750049129  0.650330234
     0.250064611  0.750047921  0.549555938
     0.500010345  0.500026703  0.549820297
     0.750000000  0.000000000  0.450536747
     0.000000000  0.250000000  0.450536747
     0.750000000  0.250000000  0.351610242
     0.000000000  0.000000000  0.351610242
     0.750286863  0.000043360  0.650369162
     0.000536943  0.250108046  0.650057661
[...]
   2.11014557  2.11014557  9.61014557
   4.22029113  0.00000000  9.61014557
   2.11204208  0.00039663 11.72891398
   4.22224847  2.11037649 11.73393126
   2.10846238  2.11075222 13.81861434
   4.21788320  0.00133407 13.83801855
   2.11014557  4.22029113  7.50000000
   4.22029113  6.33043670  7.50000000
   2.11014557  6.33043670  9.61014557
   4.22029113  4.22029113  9.61014557
   2.11198050  4.22067622 11.72911134
   4.22224198  6.33075061 11.73388968
   2.10847448  6.33135273 13.81864063
   4.21785042  4.22163558 13.83760829
   6.33043670  0.00000000  7.50000000
   0.00000000  2.11014557  7.50000000
   6.33043670  2.11014557  9.61014557
   0.00000000  0.00000000  9.61014557
   6.32876061  0.00023932 11.73384577
   8.43870487  2.11058386 11.72918371
   6.33298857  2.11126132 13.83873864
   0.00188756  0.00077149 13.81898854
   6.33043670  4.22029113  7.50000000
   0.00000000  6.33043670  7.50000000
   6.33043670  6.33043670  9.61014557
   0.00000000  4.22029113  9.61014557
   6.32883359  4.22051624 11.73422494
   8.43871912  6.33083388 11.72920453
   6.33298865  6.33200777 13.83871046
   0.00191244  4.22105519 13.81926963
   2.11014557  0.00000000  9.61014557
   4.22029113  2.11014557  9.61014557
   2.11014557  2.11014557  7.50000000
   4.22029113  0.00000000  7.50000000
   2.10574530  0.00096377 13.86493472
   4.21795737  2.11046379 13.87185971
   2.11068524  2.11045526 11.72225546
   4.22045672  0.00024216 11.72770625
   2.11014557  4.22029113  9.61014557
   4.22029113  6.33043670  9.61014557
   2.11014557  6.33043670  7.50000000
   4.22029113  4.22029113  7.50000000
   2.10584755  4.22125175 13.86484559
   4.21795883  6.33085137 13.87182789
   2.11069092  6.33084118 11.72226815
   4.22037845  4.22051652 11.72790705
   6.33043670  0.00000000  9.61014557
   0.00000000  2.11014557  9.61014557
   6.33043670  2.11014557  7.50000000
   0.00000000  0.00000000  7.50000000
   6.33285799  0.00036598 13.87265825
   0.00453212  2.11105754 13.86601380
   6.33062819  2.11028411 11.72812985
   8.43997648  0.00040620 11.72258012
   6.33043670  4.22029113  9.61014557
   0.00000000  6.33043670  9.61014557
   6.33043670  6.33043670  7.50000000
   0.00000000  4.22029113  7.50000000
   6.33279779  4.22065336 13.87216245
   0.00453403  6.33148132 13.86602428
   6.33064015  6.33074158 11.72812348
   8.44003757  4.22068003 11.72243904

--------------------------------------- Iteration      FINAL  ---------------------------------------

--------------------OUTCAR has been truncated-------------------------

[...]

--------------------OUTCAR has been truncated-------------------------

 VOLUME and BASIS-vectors are now :
  energy-cutoff  :      600.00
  volume of cell :     1519.65
      direct lattice vectors                 reciprocal lattice vectors
     8.440582262  0.000000000  0.000000000     0.118475239  0.000000000  0.000000000
     0.000000000  8.440582262  0.000000000     0.000000000  0.118475239  0.000000000
     0.000000000  0.000000000 21.330436697     0.000000000  0.000000000  0.046881366

  length of vectors
     8.440582262  8.440582262 21.330436697     0.118475239  0.118475239  0.046881366

 FORCES acting on ions:
    Electron-Ion                     Ewald-Force                    Non-Local-Force
   -.608E+02 -.344E+02 -.896E+03   0.607E+02 0.345E+02 0.896E+03   0.166E+00 -.759E-01 -.122E+00
   0.612E+02 0.342E+02 -.841E+03   -.614E+02 -.343E+02 0.842E+03   0.364E-01 0.321E-01 0.203E-02
   0.613E+01 -.511E+02 -.227E+03   -.728E+01 0.555E+02 0.224E+03   0.118E+01 -.437E+01 0.271E+01
   -.367E+02 0.312E+02 -.227E+03   0.395E+02 -.345E+02 0.224E+03   -.275E+01 0.326E+01 0.305E+01
   -.419E+02 -.198E+02 -.229E+03   0.451E+02 0.213E+02 0.233E+03   -.325E+01 -.147E+01 -.389E+01
   0.422E+02 0.186E+02 -.206E+03   -.454E+02 -.198E+02 0.202E+03   0.326E+01 0.130E+01 0.391E+01
   0.365E+02 -.302E+02 -.208E+03   -.392E+02 0.333E+02 0.211E+03   0.275E+01 -.312E+01 -.326E+01
   -.581E+01 0.516E+02 -.208E+03   0.696E+01 -.560E+02 0.210E+03   -.117E+01 0.441E+01 -.266E+01
   0.410E-01 0.729E-01 0.208E+04   -.391E-01 -.728E-01 -.207E+04   -.126E-02 -.721E-04 -.677E+01
   -.275E+00 0.240E+00 0.208E+04   0.277E+00 -.239E+00 -.207E+04   -.137E-02 -.390E-03 -.677E+01
   0.183E+00 0.954E+00 0.727E+03   -.165E+00 -.950E+00 -.727E+03   -.111E-01 -.256E-02 0.388E+00
   -.104E+01 0.257E+00 0.724E+03   0.106E+01 -.256E+00 -.725E+03   -.988E-02 -.631E-03 0.456E+00
   0.166E+01 0.139E+01 -.622E+03   -.159E+01 -.139E+01 0.623E+03   -.630E-01 0.193E-02 -.232E+00
   -.376E+01 0.522E+01 -.619E+03   0.382E+01 -.522E+01 0.619E+03   -.488E-01 0.958E-03 -.251E+00
   0.144E+02 0.260E+02 -.194E+04   -.146E+02 -.260E+02 0.193E+04   0.108E+00 -.938E-02 0.592E+01
   -.826E+01 0.578E+01 -.198E+04   0.820E+01 -.577E+01 0.197E+04   0.566E-01 -.149E-01 0.603E+01
   0.610E-01 -.726E-01 0.208E+04   -.590E-01 0.727E-01 -.207E+04   -.133E-02 -.691E-04 -.677E+01
   -.268E+00 -.240E+00 0.208E+04   0.270E+00 0.239E+00 -.207E+04   -.139E-02 0.302E-03 -.677E+01
   0.170E+00 -.946E+00 0.726E+03   -.152E+00 0.945E+00 -.727E+03   -.109E-01 0.264E-03 0.385E+00
   -.117E+01 -.255E+00 0.726E+03   0.119E+01 0.256E+00 -.727E+03   -.101E-01 -.889E-03 0.455E+00
   0.340E+01 -.142E+01 -.612E+03   -.334E+01 0.143E+01 0.612E+03   -.507E-01 -.388E-02 -.292E+00
   -.336E+01 -.519E+01 -.621E+03   0.341E+01 0.520E+01 0.622E+03   -.445E-01 -.408E-02 -.261E+00
   0.136E+02 -.241E+02 -.196E+04   -.137E+02 0.240E+02 0.195E+04   0.121E+00 0.276E-01 0.595E+01
   -.200E+02 -.716E+01 -.191E+04   0.199E+02 0.722E+01 0.190E+04   0.685E-01 -.433E-01 0.574E+01
   -.393E-01 0.662E-01 0.208E+04   0.372E-01 -.661E-01 -.207E+04   0.133E-02 -.123E-04 -.677E+01
   0.273E+00 0.220E+00 0.208E+04   -.275E+00 -.220E+00 -.207E+04   0.125E-02 -.346E-03 -.677E+01
   -.133E+00 0.825E+00 0.724E+03   0.118E+00 -.821E+00 -.725E+03   0.915E-02 -.243E-02 0.463E+00
   0.994E+00 0.244E+00 0.724E+03   -.101E+01 -.243E+00 -.725E+03   0.110E-01 -.959E-03 0.397E+00
   -.146E+01 0.931E+00 -.629E+03   0.140E+01 -.929E+00 0.630E+03   0.487E-01 -.781E-03 -.227E+00
   0.350E+01 0.355E+01 -.622E+03   -.356E+01 -.353E+01 0.622E+03   0.623E-01 -.916E-02 -.215E+00
   -.143E+02 0.160E+02 -.197E+04   0.143E+02 -.160E+02 0.197E+04   -.566E-01 -.425E-01 0.603E+01
   0.854E+01 0.430E+01 -.198E+04   -.840E+01 -.433E+01 0.198E+04   -.120E+00 0.208E-01 0.591E+01
   -.591E-01 -.663E-01 0.208E+04   0.570E-01 0.663E-01 -.207E+04   0.140E-02 -.593E-04 -.677E+01
   0.267E+00 -.220E+00 0.208E+04   -.268E+00 0.219E+00 -.207E+04   0.127E-02 0.195E-03 -.677E+01
   -.119E+00 -.815E+00 0.724E+03   0.104E+00 0.813E+00 -.724E+03   0.900E-02 0.114E-02 0.462E+00
   0.112E+01 -.241E+00 0.726E+03   -.114E+01 0.244E+00 -.726E+03   0.113E-01 -.159E-02 0.385E+00
   -.311E+01 -.104E+01 -.622E+03   0.306E+01 0.105E+01 0.623E+03   0.386E-01 -.156E-02 -.274E+00
   0.307E+01 -.345E+01 -.624E+03   -.313E+01 0.344E+01 0.625E+03   0.608E-01 0.868E-02 -.230E+00
   -.126E+02 -.148E+02 -.198E+04   0.127E+02 0.147E+02 0.197E+04   -.527E-01 -.373E-02 0.600E+01
   0.170E+02 -.543E+01 -.196E+04   -.169E+02 0.545E+01 0.195E+04   -.125E+00 -.702E-02 0.593E+01
   0.102E+00 0.208E+00 0.544E+03   -.111E+00 -.211E+00 -.544E+03   0.102E-01 0.355E-02 -.771E-01
   -.817E+00 0.735E+00 0.544E+03   0.803E+00 -.735E+00 -.543E+03   0.169E-01 0.363E-03 -.117E+00
   0.384E-01 0.179E+00 0.156E+04   -.363E-01 -.178E+00 -.157E+04   -.246E-02 -.575E-03 0.303E+01
   -.198E+00 0.527E-01 0.156E+04   0.200E+00 -.528E-01 -.157E+04   -.248E-02 0.970E-04 0.303E+01
   0.530E+01 0.523E+01 -.150E+04   -.530E+01 -.523E+01 0.150E+04   0.423E-01 -.489E-02 -.434E+01
   -.118E+02 0.230E+02 -.147E+04   0.118E+02 -.229E+02 0.148E+04   0.357E-01 -.117E+00 -.427E+01
   0.186E+01 0.364E+01 -.456E+03   -.187E+01 -.363E+01 0.455E+03   0.919E-02 -.161E-01 0.366E+00
   -.228E+01 0.943E+00 -.464E+03   0.228E+01 -.948E+00 0.464E+03   0.109E-01 0.641E-02 0.212E+00
   0.226E+00 -.200E+00 0.545E+03   -.236E+00 0.199E+00 -.545E+03   0.122E-01 0.199E-02 -.831E-01
   -.784E+00 -.727E+00 0.543E+03   0.769E+00 0.724E+00 -.543E+03   0.171E-01 0.314E-02 -.118E+00
   0.369E-01 -.179E+00 0.156E+04   -.349E-01 0.178E+00 -.157E+04   -.242E-02 0.740E-03 0.303E+01
   -.210E+00 -.529E-01 0.156E+04   0.213E+00 0.529E-01 -.157E+04   -.255E-02 -.360E-05 0.302E+01
   0.185E+02 -.686E+01 -.146E+04   -.184E+02 0.686E+01 0.146E+04   -.894E-01 -.143E-03 -.449E+01
   -.919E+01 -.220E+02 -.148E+04   0.924E+01 0.220E+02 0.149E+04   -.386E-01 0.989E-01 -.428E+01
   0.176E+01 -.362E+01 -.458E+03   -.177E+01 0.360E+01 0.458E+03   0.756E-02 0.165E-01 0.357E+00
   -.316E+01 -.947E+00 -.456E+03   0.315E+01 0.946E+00 0.456E+03   0.131E-01 0.735E-04 0.204E+00
   -.670E-01 0.171E+00 0.542E+03   0.774E-01 -.172E+00 -.542E+03   -.122E-01 0.184E-02 -.114E+00
   0.785E+00 0.614E+00 0.544E+03   -.774E+00 -.614E+00 -.544E+03   -.127E-01 -.457E-03 -.791E-01
   -.371E-01 0.166E+00 0.156E+04   0.349E-01 -.166E+00 -.157E+04   0.266E-02 -.678E-03 0.303E+01
   0.197E+00 0.511E-01 0.156E+04   -.199E+00 -.513E-01 -.157E+04   0.236E-02 0.186E-03 0.303E+01
   -.545E+01 0.243E+01 -.151E+04   0.543E+01 -.242E+01 0.151E+04   0.401E-02 -.542E-03 -.422E+01
   0.114E+02 0.107E+02 -.150E+04   -.114E+02 -.107E+02 0.150E+04   -.328E-01 -.896E-02 -.432E+01
   -.169E+01 0.287E+01 -.464E+03   0.169E+01 -.286E+01 0.464E+03   -.561E-03 -.889E-02 0.211E+00
   0.211E+01 0.794E+00 -.464E+03   -.209E+01 -.796E+00 0.463E+03   -.180E-01 0.314E-02 0.372E+00
   -.188E+00 -.170E+00 0.543E+03   0.200E+00 0.169E+00 -.543E+03   -.144E-01 0.105E-02 -.121E+00
   0.751E+00 -.602E+00 0.543E+03   -.739E+00 0.597E+00 -.543E+03   -.131E-01 0.665E-02 -.804E-01
   -.356E-01 -.166E+00 0.156E+04   0.335E-01 0.165E+00 -.157E+04   0.261E-02 0.750E-03 0.303E+01
   0.209E+00 -.515E-01 0.156E+04   -.211E+00 0.515E-01 -.157E+04   0.240E-02 0.391E-05 0.303E+01
   -.163E+02 -.346E+01 -.149E+04   0.162E+02 0.351E+01 0.149E+04   0.712E-01 -.442E-01 -.431E+01
   0.819E+01 -.981E+01 -.150E+04   -.819E+01 0.979E+01 0.151E+04   -.386E-01 0.200E-01 -.435E+01
   -.157E+01 -.276E+01 -.466E+03   0.157E+01 0.275E+01 0.465E+03   -.435E-02 0.165E-01 0.209E+00
   0.291E+01 -.867E+00 -.459E+03   -.289E+01 0.872E+00 0.458E+03   -.247E-01 -.517E-02 0.347E+00
   -.181E+00 0.161E+00 0.169E+02   0.391E-12 -.568E-13 -.739E-11   0.176E+00 -.143E+00 -.144E+02

 POSITION                                       TOTAL-FORCE (eV/Angst)
      3.78910      4.13838     17.00169         0.122186      0.055831     -0.034579
      2.53799      3.44624     17.52925        -0.123225     -0.061297     -0.010645
      3.53700      5.04712     16.43052         0.086642     -0.260663      0.156500
      4.36205      3.46146     16.34453        -0.151452      0.177513      0.180962
      4.46252      4.44166     17.81858        -0.180756     -0.085245     -0.227476
      1.86167      3.16779     16.70424         0.195244      0.084503      0.237953
      1.97092      4.10177     18.20808         0.154693     -0.176897     -0.179153
      2.78895      2.52841     18.08347        -0.074818      0.256973     -0.155495
      2.11015      0.00000      7.50000         0.000476     -0.000002      0.585137
      4.22029      2.11015      7.50000         0.000492      0.000157      0.586537
      2.11015      2.11015      9.61015         0.005239      0.001364      0.040357
      4.22029      0.00000      9.61015         0.004676      0.000306      0.049007
      2.11204      0.00040     11.72891        -0.000943     -0.001288     -0.021260
      4.22225      2.11038     11.73393         0.001635      0.002025     -0.024389
      2.10846      2.11075     13.81861         0.007361      0.008714     -0.164318
      4.21788      0.00133     13.83802        -0.000251     -0.007987     -0.287720
      2.11015      4.22029      7.50000         0.000514      0.000003      0.585531
      4.22029      6.33044      7.50000         0.000496     -0.000156      0.586653
      2.11015      6.33044      9.61015         0.005134     -0.000104      0.041178
      4.22029      4.22029      9.61015         0.004809      0.000452      0.050758
      2.11198      4.22068     11.72911        -0.004336      0.000982     -0.006579
      4.22224      6.33075     11.73389         0.000202     -0.000372     -0.021613
      2.10847      6.33135     13.81864        -0.009190     -0.010938     -0.183999
      4.21785      4.22164     13.83761        -0.009932      0.010586     -0.173032
      6.33044      0.00000      7.50000        -0.000502     -0.000045      0.586313
      0.00000      2.11015      7.50000        -0.000450      0.000125      0.585020
      6.33044      2.11015      9.61015        -0.004392      0.001180      0.049156
      0.00000      0.00000      9.61015        -0.005005      0.000559      0.039219
      6.32876      0.00024     11.73385        -0.003846      0.000815     -0.027355
      8.43870      2.11058     11.72918         0.003638      0.003562     -0.022767
      6.33299      2.11126     13.83874         0.000130      0.004871     -0.295363
      0.00189      0.00077     13.81899         0.005525     -0.002591     -0.157350
      6.33044      4.22029      7.50000        -0.000537     -0.000001      0.586849
      0.00000      6.33044      7.50000        -0.000458     -0.000113      0.585202
      6.33044      6.33044      9.61015        -0.004314     -0.000621      0.049501
      0.00000      4.22029      9.61015        -0.005218      0.000893      0.042225
      6.32883      4.22052     11.73422        -0.001848      0.001526     -0.020466
      8.43872      6.33083     11.72920         0.003838     -0.004254     -0.019193
      6.33299      6.33201     13.83871        -0.008754     -0.023337     -0.271070
      0.00191      4.22106     13.81927         0.005060      0.007243     -0.167440
      2.11015      0.00000      9.61015         0.002973      0.001052      0.045987
      4.22029      2.11015      9.61015         0.005465      0.000068      0.056889
      2.11015      2.11015      7.50000        -0.000864     -0.000225     -0.413577
      4.22029      0.00000      7.50000        -0.000859      0.000009     -0.414312
      2.10575      0.00096     13.86493         0.049056     -0.002463     -0.033813
      4.21796      2.11046     13.87186         0.030014     -0.031698     -0.032800
      2.11069      2.11046     11.72226        -0.000044     -0.004024      0.012397
      4.22046      0.00024     11.72771         0.003943      0.001958      0.008059
      2.11015      4.22029      9.61015         0.003711      0.000537      0.044933
      4.22029      6.33044      9.61015         0.005563      0.000896      0.056483
      2.11015      6.33044      7.50000        -0.000843      0.000246     -0.413684
      4.22029      4.22029      7.50000        -0.000880     -0.000018     -0.414649
      2.10585      4.22125     13.86485         0.002293     -0.001620     -0.091279
      4.21796      6.33085     13.87183         0.009551      0.040027     -0.034933
      2.11069      6.33084     11.72227        -0.000663      0.004812      0.009260
      4.22038      4.22052     11.72791         0.005135     -0.000263      0.004270
      6.33044      0.00000      9.61015        -0.003919      0.000531      0.057289
      0.00000      2.11015      9.61015        -0.003865     -0.000309      0.046607
      6.33044      2.11015      7.50000         0.000931     -0.000252     -0.414373
      0.00000      0.00000      7.50000         0.000814      0.000042     -0.413443
      6.33286      0.00037     13.87266        -0.020398      0.009206     -0.018221
      0.00453      2.11106     13.86601        -0.042058     -0.002992     -0.029095
      6.33063      2.11028     11.72813        -0.002634     -0.002263      0.008802
      8.43998      0.00041     11.72258        -0.000584      0.001354      0.012321
      6.33044      4.22029      9.61015        -0.004752      0.000273      0.056742
      0.00000      6.33044      9.61015        -0.004025      0.002104      0.046243
      6.33044      6.33044      7.50000         0.000904      0.000247     -0.414469
      0.00000      4.22029      7.50000         0.000831     -0.000015     -0.413757
      6.33280      4.22065     13.87216        -0.000850     -0.005607     -0.039142
      0.00453      6.33148     13.86602        -0.044553      0.001730     -0.041537
      6.33064      6.33074     11.72812        -0.003914      0.003847      0.007722
      8.44004      4.22068     11.72244        -0.003244     -0.001460      0.006286
    total drift:                                0.000092      0.001543      0.000483

  FREE ENERGIE OF THE ION-ELECTRON SYSTEM (eV)
  free  energy   TOTEN  =      -520.36590266 eV

  energy  without entropy=     -520.36590266  energy(sigma->0) =     -520.36590266