 vasp.6.4.2 20Jul23 (build Feb 22 2024 13:53:45) complex
 executed on              LinuxNV date 2024.08.29  17:34:16
 OpenACC runtime initialized ...    4 GPUs detected

 INCAR:
   SYSTEM = Oxide-Surface
   ISMEAR = 0
   SIGMA = 0.05
   EDIFF = 1E-5
   ALGO = Normal
   IBRION = -1
   NSW = 0
   ISYM = 0
   DIPOL = 0.5 0.5 0.5
   IDIPOL = 3
   LDIPOL = .TRUE.
   ISTART = 1
   GGA = MK
   LUSE_VDW = .TRUE.
   PARAM1 = 0.1234
   PARAM2 = 0.711357
   ZAB_VDW = -1.8867
   AGGAC = 0.0
   ENCUT = 1000
   PREC = Normal
   PRECFOCK = Normal
   LASPH = .TRUE.
   LREAL = Auto
   ISPIN = 1
   NELM = 200
   NELMIN = 8
   NCORE = 1
   KPAR = 1
   LWAVE = .FALSE.
   LCHARG = .FALSE.

 POTCAR:    PAW_PBE C_h 06Feb2004
 POTCAR:    PAW_PBE O_h 06Feb2004
 POTCAR:    PAW_PBE Ti_sv 26Sep2005
 POTCAR:    PAW_PBE O_h 06Feb2004
|               ----> ADVICE to this user running VASP <----                  |
|     You have switched on vdW-DFT.                                           |
|     This routine was written and supplied by Jiri Klimes. We recommend      |
|     that you carefully read and cite the following publications:            |
|       J. Klimes, D.R. Bowler, A. Michelides                                 |
|          J. Phys.: Cond Matt. 22 022201 (2010)                              |
|       J. Klimes, D.R. Bowler, A. Michelides                                 |
|          Phys. Rev. B. 83, 195131 (2011)                                    |
|     and references therein.                                                 |

   TITEL  = PAW_PBE C_h 06Feb2004
   POMASS =   12.011; ZVAL   =    4.000    mass and valenz
   ENMAX  =  700.000; ENMIN  =  500.000 eV

[...]

   TITEL  = PAW_PBE Ti_sv 26Sep2005
   POMASS =   47.880; ZVAL   =   12.000    mass and valenz
   ENMAX  =  274.610; ENMIN  =  205.957 eV

   TITEL  = PAW_PBE O_h 06Feb2004
   POMASS =   16.000; ZVAL   =    6.000    mass and valenz
   ENMAX  =  700.000; ENMIN  =  500.000 eV

 Optimization of the real space projectors (new method)

 maximal supplied QI-value         = 34.20
 optimisation between [QCUT,QGAM] = [ 16.08, 32.15] = [ 72.37,289.48] Ry
 Optimized for a Real-space Cutoff    0.71 Angstroem

   l    n(q)    QCUT    max X(q) W(low)/X(q) W(high)/X(q)  e(spline)
   0      7    16.076   134.812    0.49E-03    0.92E-03    0.59E-07
   0      7    16.076    80.524    0.48E-03    0.91E-03    0.58E-07
   1      6    16.076    79.026    0.37E-03    0.58E-03    0.12E-06
   1      6    16.076    45.188    0.36E-03    0.56E-03    0.12E-06
 Optimization of the real space projectors (new method)

[...]

   l    n(q)    QCUT    max X(q) W(low)/X(q) W(high)/X(q)  e(spline)
   0     12    16.089    12.277    0.23E-04    0.54E-05    0.15E-06
   0     12    16.089    11.419    0.26E-04    0.82E-06    0.19E-06
   1     12    16.089     4.010    0.40E-04    0.12E-04    0.58E-06
   1     12    16.089     6.182    0.55E-05    0.28E-04    0.27E-06
   2     11    16.089    47.177    0.17E-03    0.26E-03    0.90E-06
   2     11    16.089    42.437    0.17E-03    0.25E-03    0.88E-06
 Optimization of the real space projectors (new method)

 maximal supplied QI-value         = 34.20
 optimisation between [QCUT,QGAM] = [ 16.08, 32.15] = [ 72.37,289.48] Ry
 Optimized for a Real-space Cutoff    0.71 Angstroem

   l    n(q)    QCUT    max X(q) W(low)/X(q) W(high)/X(q)  e(spline)
   0      7    16.076   280.207    0.42E-03    0.69E-03    0.60E-07
   0      7    16.076   228.978    0.42E-03    0.69E-03    0.61E-07
   1      6    16.076    86.127    0.11E-03    0.66E-03    0.10E-06
   1      6    16.076    65.368    0.11E-03    0.65E-03    0.10E-06
|               ----> ADVICE to this user running VASP <----                  |
|     You enforced a specific xc type in the INCAR file but a different       |
|     type was found in the POTCAR file.                                      |
|     I HOPE YOU KNOW WHAT YOU ARE DOING!                                     |

  PAW_PBE C_h 06Feb2004                 :
  PAW_PBE O_h 06Feb2004                 :
  PAW_PBE Ti_sv 26Sep2005               :
  PAW_PBE O_h 06Feb2004                 :

 POSCAR:  C  O Ti  O
  positions in direct lattice
 exchange correlation table for  LEXCH =       43
   RHO(1)=    0.500       N(1)  =     2000
   RHO(2)=  100.500       N(2)  =     4000

 ion  position               nearest neighbor table
   1  0.421  0.500  0.833-   2 1.17   3 1.19
   2  0.360  0.500  0.867-   1 1.17
   3  0.486  0.500  0.800-   1 1.19
   4  0.750  0.625  0.184-  85 1.95 145 1.95 144 1.95  84 1.95  87 1.98 166 1.98
   5  0.000  0.750  0.184-  86 1.95  87 1.95 106 1.95 107 1.95  88 1.98
   6  0.000  0.625  0.314-  88 1.95 148 1.95  89 1.95 149 1.95  90 1.98  91 1.98
   7  0.750  0.750  0.314-  90 1.95 110 1.95 171 1.95 191 1.95  92 1.98  85 1.98
   8  0.750  0.625  0.444-  92 1.95  93 1.95 152 1.95 153 1.95  95 1.98 174 1.98
   9  0.000  0.750  0.444-  94 1.95  95 1.95 114 1.95 115 1.95  89 1.98  96 2.00
  10  0.000  0.625  0.571- 156 1.90  96 1.90  99 1.95  98 1.95  97 2.02 157 2.02
  11  0.750  0.750  0.579- 100 1.86 179 1.97  98 1.97 199 1.97 118 1.98  93 2.11
  12  0.750  0.625  0.713- 161 1.83 101 1.83 182 2.02 103 2.03 160 2.10 100 2.10
  13  1.000  0.750  0.698-  97 1.81 123 1.94 122 1.95 103 1.95 102 1.95
  14  0.750  0.875  0.184-  85 1.95 105 1.95  84 1.95 104 1.95 107 1.98 186 1.98
  15  0.000  0.000  0.184- 126 1.95 127 1.95 106 1.95 107 1.95 108 1.98
  16  0.000  0.875  0.314-  88 1.95 108 1.95  89 1.95 109 1.95 110 1.98 111 1.98
  17  0.750  0.000  0.314- 130 1.95 211 1.95 191 1.95 110 1.95 112 1.98 105 1.98
  18  0.750  0.875  0.444-  92 1.95  93 1.95 112 1.95 113 1.95 115 1.98 194 1.98
  19  0.000  0.000  0.444- 134 1.95 135 1.95 114 1.95 115 1.95 109 1.98 116 2.00
  20  1.000  0.875  0.571-  96 1.89 116 1.90 118 1.95 119 1.95 117 2.02  97 2.02
  21  0.750  0.000  0.579- 120 1.86 199 1.97 219 1.97 138 1.97 118 1.97 113 2.11
  22  0.750  0.875  0.713- 121 1.83 101 1.83 202 2.02 123 2.03 100 2.10 120 2.10
  23  0.000  0.000  0.698- 117 1.81 122 1.95 142 1.95 123 1.95 143 1.95
  24  0.750  0.125  0.184- 105 1.95 125 1.95 124 1.95 104 1.95 127 1.98 206 1.98
  25  0.000  0.250  0.184- 126 1.95 127 1.95 146 1.95 147 1.95 128 1.98
  26  0.000  0.125  0.314- 108 1.95 128 1.95 109 1.95 129 1.95 130 1.98 131 1.98
  27  0.750  0.250  0.314- 130 1.95 150 1.95 211 1.95 231 1.95 132 1.98 125 1.98
  28  0.750  0.125  0.444- 112 1.95 113 1.95 132 1.95 133 1.95 135 1.98 214 1.98
  29  0.000  0.250  0.444- 134 1.95 135 1.95 154 1.95 155 1.95 129 1.98 136 2.00
  30  1.000  0.125  0.571- 136 1.89 116 1.90 138 1.95 139 1.95 117 2.02 137 2.02
  31  0.750  0.250  0.579- 140 1.86 239 1.97 158 1.97 219 1.97 138 1.98 133 2.11
  32  0.750  0.125  0.713- 121 1.83 141 1.83 222 2.02 143 2.03 140 2.10 120 2.10
  33  1.000  0.250  0.698- 137 1.81 143 1.94 142 1.95 163 1.95 162 1.95
  34  0.750  0.375  0.184- 145 1.95 125 1.95 144 1.95 124 1.95 147 1.98 226 1.98
  35  0.000  0.500  0.184- 146 1.95 147 1.95  86 1.95  87 1.95 148 1.98
  36  0.000  0.375  0.314- 148 1.95 128 1.95 149 1.95 129 1.95 150 1.98 151 1.98
  37  0.750  0.500  0.314- 150 1.95 231 1.95 171 1.95  90 1.95 145 1.98 152 1.98
  38  0.750  0.375  0.444- 152 1.95 153 1.95 132 1.95 133 1.95 155 1.98 234 1.98
  39  0.000  0.500  0.444- 154 1.95 155 1.95  94 1.95  95 1.95 149 1.98 156 2.00
  40  0.000  0.375  0.571- 156 1.90 136 1.90 159 1.95 158 1.95 137 2.02 157 2.02
  41  0.750  0.500  0.579- 160 1.86 179 1.97 239 1.97 158 1.97  98 1.97 153 2.11
  42  0.750  0.375  0.713- 161 1.83 141 1.83 242 2.02 163 2.03 160 2.10 140 2.10
  43  1.000  0.500  0.698- 157 1.81 103 1.94 163 1.94 102 1.95 162 1.95
  44  0.250  0.625  0.184- 165 1.95 225 1.95 224 1.95 164 1.95  86 1.98 167 1.98
  45  0.500  0.750  0.184- 166 1.95 167 1.95 186 1.95 187 1.95 168 1.98
  46  0.500  0.625  0.314- 168 1.95 228 1.95 169 1.95 229 1.95 170 1.98 171 1.98
  47  0.250  0.750  0.314-  91 1.95 111 1.95 170 1.95 190 1.95 172 1.98 165 1.98
  48  0.250  0.625  0.444- 172 1.95 173 1.95 232 1.95 233 1.95  94 1.98 175 1.98
  49  0.500  0.750  0.444- 174 1.95 175 1.95 194 1.95 195 1.95 169 1.98 176 2.00
  50  0.500  0.624  0.572- 236 1.90 176 1.91 179 1.95 178 1.95 177 2.01 237 2.01
  51  0.250  0.750  0.579- 180 1.86 198 1.97 119 1.97 178 1.97  99 1.97 173 2.10
  52  0.249  0.625  0.713- 181 1.83 241 1.84 102 2.02 183 2.03 180 2.09 240 2.10
  53  0.500  0.750  0.698- 177 1.80 183 1.93 182 1.94 203 1.95 202 1.95
  54  0.250  0.875  0.184- 165 1.95 185 1.95 164 1.95 184 1.95 106 1.98 187 1.98
  55  0.500  0.000  0.184- 206 1.95 207 1.95 186 1.95 187 1.95 188 1.98
  56  0.500  0.875  0.314- 168 1.95 188 1.95 169 1.95 189 1.95 190 1.98 191 1.98
  57  0.250  0.000  0.314- 131 1.95 210 1.95 190 1.95 111 1.95 192 1.98 185 1.98
  58  0.250  0.875  0.444- 172 1.95 173 1.95 192 1.95 193 1.95 114 1.98 195 1.98
  59  0.500  0.000  0.444- 214 1.95 215 1.95 194 1.95 195 1.95 189 1.98 196 1.99
  60  0.500  0.875  0.571- 176 1.89 196 1.89 199 1.95 198 1.95 177 2.01 197 2.02
[...]
 229  0.500  0.500  0.365-  76 1.95  46 1.95  79 1.98
 230  0.348  0.375  0.314-  77 1.95  67 1.95  76 1.98
 231  0.652  0.375  0.314-  37 1.95  27 1.95  76 1.98
 232  0.250  0.500  0.393-  78 1.95  48 1.95  77 1.98
 233  0.250  0.500  0.495-  78 1.95  48 1.95  81 2.10
 234  0.598  0.375  0.444-  79 1.95  69 1.95  38 1.98
 235  0.402  0.375  0.444-  79 1.95  69 1.95  78 1.98
 236  0.500  0.500  0.524-  50 1.90  80 1.90  79 2.00
 237  0.500  0.500  0.627-  83 1.83  80 2.01  50 2.01
 238  0.350  0.375  0.575-  80 1.95  81 1.97  71 1.97
 239  0.650  0.375  0.575-  80 1.95  31 1.97  41 1.97
 240  0.248  0.500  0.653-  81 1.86  82 2.10  52 2.10
 241  0.253  0.500  0.756-  52 1.84  82 1.84
 242  0.594  0.374  0.710-  73 1.94  83 1.95  42 2.02
 243  0.405  0.373  0.709-  73 1.93  83 1.95  82 2.03

IMPORTANT INFORMATION: All symmetrisations will be switched off!
NOSYMM: (Re-)initialisation of all symmetry stuff for point group C_1.

                                     Primitive cell

  volume of cell :    3846.0501

  direct lattice vectors                    reciprocal lattice vectors
    13.003980404  0.000000000  0.000000000     0.076899531  0.000000000  0.000000000
     0.000000000 11.830378115  0.000000000     0.000000000  0.084528152  0.000000000
     0.000000000  0.000000000 25.000000000     0.000000000  0.000000000  0.040000000

  length of vectors
    13.003980404 11.830378115 25.000000000     0.076899531  0.084528152  0.040000000

  position of ions in fractional coordinates (direct lattice)
     0.421233206  0.499999967  0.832858386
     0.360274704  0.499999961  0.867301041
     0.486270676  0.499999964  0.799637586
     0.750009005  0.625000004  0.183674327
     0.000009005  0.750000004  0.183674327
     0.000009005  0.625000004  0.313714131
     0.750009005  0.750000004  0.313714131
     0.750009005  0.625000004  0.443753935
     0.000009005  0.750000004  0.443753935
     0.000039268  0.625021959  0.571008767
     0.750041367  0.749971392  0.579098488
     0.749740788  0.625029293  0.713111588
     0.999944200  0.750136611  0.698194134
     0.750009005  0.875000004  0.183674327
     0.000009005  0.000000004  0.183674327
[...]
     0.000000000  0.000000000 25.000000000     0.000000000  0.000000000  0.040000000

  length of vectors
    13.003980404 11.830378115 25.000000000     0.076899531  0.084528152  0.040000000

 FORCES acting on ions
    electron-ion (+dipol)            ewald-force                    non-local-force                 convergence-correction
   -.215E+02 -.194E-04 -.973E+03   0.198E+02 0.189E-04 0.974E+03   0.151E+01 0.244E-05 -.102E+01   -.452E-03 0.649E-08 0.647E-03
   0.167E+03 0.167E-04 -.126E+04   -.210E+03 -.209E-04 0.130E+04   0.433E+02 0.504E-05 -.460E+02   -.261E-03 0.736E-07 0.170E-03
   -.203E+03 0.907E-05 -.168E+04   0.246E+03 -.121E-04 0.164E+04   -.433E+02 0.383E-05 0.368E+02   -.209E-03 -.208E-07 0.876E-03
   -.305E+01 -.137E+01 0.366E+04   0.305E+01 0.137E+01 -.367E+04   -.242E-02 -.128E-03 0.108E+01   -.810E-04 -.327E-04 0.685E-03
   0.186E+01 -.181E+01 0.388E+04   -.186E+01 0.181E+01 -.387E+04   -.164E-02 -.395E-04 -.550E+01   0.382E-04 -.917E-04 0.649E-03
   0.649E+00 -.382E+00 0.187E+04   -.652E+00 0.383E+00 -.187E+04   -.481E-03 -.452E-04 -.176E+00   -.880E-05 0.128E-04 -.365E-03
   -.892E+00 -.479E+00 0.186E+04   0.890E+00 0.479E+00 -.187E+04   -.631E-03 -.182E-03 0.328E+00   0.993E-05 0.367E-05 -.371E-03
   -.145E+01 -.519E+00 -.798E+01   0.143E+01 0.517E+00 0.897E+01   0.254E-02 0.372E-03 -.281E+00   0.210E-04 0.149E-04 -.466E-03
   0.112E+01 -.115E+01 0.909E+01   -.113E+01 0.115E+01 -.104E+02   0.150E-02 -.231E-02 0.568E+00   -.146E-04 0.255E-04 -.466E-03
   0.506E+01 -.325E+01 -.181E+04   -.506E+01 0.326E+01 0.181E+04   -.101E-01 -.421E-02 0.793E+00   -.502E-05 -.132E-05 -.352E-03
   -.971E+01 -.695E+01 -.186E+04   0.971E+01 0.694E+01 0.186E+04   0.120E-01 0.482E-02 -.105E+01   0.221E-04 0.221E-04 -.452E-03
   -.598E+02 -.241E+02 -.359E+04   0.598E+02 0.241E+02 0.359E+04   0.440E-01 -.341E-02 -.160E+01   -.704E-05 0.142E-04 0.133E-02
   0.113E+02 -.123E+02 -.369E+04   -.113E+02 0.123E+02 0.368E+04   0.276E-01 -.170E-01 0.272E+01   0.374E-04 -.533E-04 0.968E-03
   -.241E+01 -.134E+01 0.366E+04   0.241E+01 0.134E+01 -.367E+04   -.211E-02 -.137E-03 0.108E+01   -.603E-04 -.708E-04 0.804E-03
   0.152E+01 0.142E-04 0.388E+04   -.152E+01 -.467E-06 -.387E+04   -.156E-02 -.796E-06 -.550E+01   0.271E-04 -.169E-04 0.737E-03
   0.562E+00 -.382E+00 0.187E+04   -.565E+00 0.383E+00 -.187E+04   -.634E-03 -.419E-04 -.176E+00   -.892E-05 0.921E-05 -.330E-03
   -.898E+00 -.157E-05 0.186E+04   0.896E+00 0.249E-06 -.187E+04   -.447E-03 -.185E-06 0.328E+00   0.160E-04 0.155E-05 -.345E-03
   -.204E+01 -.518E+00 -.893E+01   0.203E+01 0.520E+00 0.992E+01   0.998E-03 -.325E-03 -.281E+00   0.229E-04 0.181E-04 -.463E-03
   0.839E+00 0.461E-05 0.799E+01   -.844E+00 -.539E-05 -.930E+01   0.140E-03 -.101E-05 0.567E+00   -.142E-04 0.876E-06 -.466E-03
   0.262E+01 -.312E+01 -.182E+04   -.263E+01 0.313E+01 0.182E+04   0.188E-01 -.618E-02 0.791E+00   -.579E-05 0.124E-04 -.378E-03
   -.760E+01 -.200E-04 -.187E+04   0.758E+01 0.209E-04 0.187E+04   0.855E-02 -.439E-06 -.104E+01   0.155E-04 -.389E-06 -.465E-03
   -.246E+02 -.172E+02 -.361E+04   0.245E+02 0.172E+02 0.361E+04   0.582E-01 0.767E-02 -.160E+01   -.334E-04 -.917E-05 0.128E-02
   0.734E+01 -.198E-04 -.369E+04   -.735E+01 0.215E-04 0.369E+04   0.189E-01 -.236E-06 0.274E+01   0.357E-04 -.726E-06 0.906E-03
   -.241E+01 0.134E+01 0.366E+04   0.241E+01 -.134E+01 -.367E+04   -.212E-02 0.137E-03 0.108E+01   -.586E-04 0.591E-04 0.796E-03
   0.186E+01 0.181E+01 0.388E+04   -.186E+01 -.181E+01 -.387E+04   -.164E-02 0.352E-04 -.550E+01   0.385E-04 0.934E-04 0.657E-03
   0.562E+00 0.382E+00 0.187E+04   -.565E+00 -.383E+00 -.187E+04   -.634E-03 0.392E-04 -.176E+00   -.100E-04 -.316E-06 -.321E-03
   -.892E+00 0.479E+00 0.186E+04   0.890E+00 -.479E+00 -.187E+04   -.631E-03 0.182E-03 0.328E+00   0.942E-05 -.786E-05 -.367E-03
   -.204E+01 0.518E+00 -.893E+01   0.203E+01 -.520E+00 0.992E+01   0.997E-03 0.324E-03 -.281E+00   0.234E-04 -.183E-04 -.463E-03
   0.112E+01 0.115E+01 0.909E+01   -.113E+01 -.115E+01 -.104E+02   0.150E-02 0.231E-02 0.568E+00   -.146E-04 -.264E-04 -.467E-03
   0.262E+01 0.312E+01 -.182E+04   -.263E+01 -.313E+01 0.182E+04   0.188E-01 0.618E-02 0.791E+00   -.571E-05 -.121E-04 -.378E-03
   -.971E+01 0.695E+01 -.186E+04   0.970E+01 -.694E+01 0.186E+04   0.120E-01 -.483E-02 -.105E+01   0.221E-04 -.228E-04 -.451E-03
   -.246E+02 0.172E+02 -.361E+04   0.245E+02 -.172E+02 0.361E+04   0.582E-01 -.767E-02 -.160E+01   -.334E-04 0.110E-04 0.128E-02
   0.113E+02 0.123E+02 -.369E+04   -.113E+02 -.123E+02 0.368E+04   0.276E-01 0.170E-01 0.272E+01   0.373E-04 0.538E-04 0.968E-03
   -.305E+01 0.137E+01 0.366E+04   0.305E+01 -.137E+01 -.367E+04   -.242E-02 0.126E-03 0.108E+01   -.799E-04 0.439E-04 0.690E-03
   0.222E+01 -.141E-04 0.388E+04   -.222E+01 0.484E-06 -.387E+04   -.174E-02 0.126E-06 -.550E+01   0.480E-04 0.163E-04 0.559E-03
   0.649E+00 0.382E+00 0.187E+04   -.652E+00 -.383E+00 -.187E+04   -.481E-03 0.479E-04 -.176E+00   -.741E-05 -.221E-04 -.358E-03
   -.887E+00 -.248E-05 0.186E+04   0.886E+00 -.220E-06 -.187E+04   -.865E-03 -.525E-06 0.328E+00   0.121E-04 0.265E-05 -.384E-03
   -.145E+01 0.519E+00 -.798E+01   0.143E+01 -.517E+00 0.897E+01   0.254E-02 -.374E-03 -.281E+00   0.217E-04 -.147E-04 -.468E-03
   0.137E+01 -.826E-05 0.102E+02   -.138E+01 0.833E-05 -.115E+02   0.282E-02 -.644E-06 0.567E+00   -.141E-04 0.652E-07 -.464E-03
   0.507E+01 0.325E+01 -.181E+04   -.506E+01 -.326E+01 0.181E+04   -.101E-01 0.421E-02 0.793E+00   -.467E-05 0.736E-06 -.352E-03
   -.123E+02 -.728E-04 -.185E+04   0.123E+02 0.708E-04 0.185E+04   0.118E-01 0.335E-06 -.106E+01   0.266E-04 0.979E-06 -.458E-03
   -.598E+02 0.241E+02 -.359E+04   0.598E+02 -.241E+02 0.359E+04   0.440E-01 0.341E-02 -.160E+01   -.696E-05 -.161E-04 0.134E-02
   0.169E+02 -.359E-05 -.368E+04   -.169E+02 0.345E-05 0.368E+04   -.226E-02 -.754E-06 0.270E+01   0.427E-04 0.164E-06 0.103E-02
   0.319E+01 -.198E+01 0.366E+04   -.319E+01 0.199E+01 -.366E+04   -.841E-03 -.987E-04 0.108E+01   0.805E-04 -.513E-04 0.537E-03
   -.196E+01 -.287E+01 0.388E+04   0.196E+01 0.287E+01 -.387E+04   -.150E-02 -.362E-03 -.550E+01   -.392E-04 -.101E-03 0.429E-03
   -.651E+00 -.368E+00 0.187E+04   0.654E+00 0.375E+00 -.187E+04   -.217E-02 -.196E-02 -.177E+00   0.916E-05 -.471E-05 -.392E-03
   0.893E+00 -.616E+00 0.186E+04   -.891E+00 0.617E+00 -.187E+04   -.189E-02 -.239E-03 0.332E+00   -.958E-05 0.543E-05 -.388E-03
   0.132E+01 -.913E+00 -.547E+01   -.130E+01 0.924E+00 0.641E+01   -.560E-02 -.267E-02 -.269E+00   -.201E-04 0.148E-04 -.468E-03
   -.109E+01 -.333E+00 0.121E+02   0.110E+01 0.304E+00 -.133E+02   -.343E-02 0.184E-01 0.534E+00   0.146E-04 0.209E-04 -.480E-03
   -.456E+01 -.789E+01 -.179E+04   0.457E+01 0.787E+01 0.179E+04   -.124E-02 0.262E-02 0.731E+00   0.487E-05 0.248E-05 -.359E-03
   0.910E+01 -.924E+01 -.185E+04   -.910E+01 0.925E+01 0.185E+04   0.460E-02 -.159E-01 -.103E+01   -.203E-04 0.179E-04 -.409E-03
   0.841E+02 -.430E+02 -.353E+04   -.840E+02 0.430E+02 0.353E+04   -.232E-01 -.289E-01 -.150E+01   0.298E-04 0.167E-04 0.146E-02
   -.201E+02 -.760E+02 -.362E+04   0.201E+02 0.759E+02 0.362E+04   0.425E-01 0.540E-01 0.281E+01   -.403E-04 0.133E-04 0.106E-02
   0.247E+01 -.190E+01 0.366E+04   -.247E+01 0.190E+01 -.367E+04   -.110E-02 -.885E-04 0.108E+01   0.617E-04 -.942E-04 0.692E-03
   -.157E+01 -.551E-07 0.388E+04   0.157E+01 -.533E-06 -.387E+04   -.161E-02 -.688E-06 -.550E+01   -.285E-04 0.101E-05 0.559E-03
   -.562E+00 -.368E+00 0.187E+04   0.565E+00 0.372E+00 -.187E+04   -.201E-02 -.121E-02 -.178E+00   0.865E-05 0.601E-05 -.361E-03
   0.898E+00 0.288E-05 0.186E+04   -.895E+00 -.956E-07 -.187E+04   -.204E-02 0.199E-07 0.331E+00   -.161E-04 -.293E-05 -.356E-03
   0.195E+01 -.100E+01 -.747E+01   -.194E+01 0.103E+01 0.844E+01   -.444E-02 -.528E-02 -.277E+00   -.239E-04 0.196E-04 -.464E-03
   -.802E+00 -.146E-04 0.135E+02   0.807E+00 0.149E-04 -.148E+02   -.247E-02 -.807E-06 0.530E+00   0.149E-04 -.125E-06 -.471E-03
   -.213E+01 -.100E+02 -.179E+04   0.214E+01 0.996E+01 0.179E+04   -.112E-01 0.255E-01 0.716E+00   0.621E-05 0.211E-04 -.356E-03
[...]
   -.632E+02 0.210E+00 0.934E+03   0.666E+02 -.212E+00 -.934E+03   -.293E+01 0.176E-02 0.181E+00   -.264E-04 0.472E-06 -.208E-03
   0.628E+02 0.171E+00 0.934E+03   -.662E+02 -.172E+00 -.934E+03   0.293E+01 0.120E-02 0.176E+00   0.307E-04 -.163E-05 -.200E-03
   0.438E+00 -.685E-06 0.427E+03   -.432E+00 0.717E-06 -.431E+03   -.778E-02 -.349E-06 0.365E+01   -.936E-05 0.235E-06 -.227E-03
   0.106E+01 0.269E-05 -.451E+03   -.104E+01 -.399E-05 0.457E+03   -.132E-01 0.392E-06 -.610E+01   -.121E-04 0.625E-06 -.195E-03
   -.670E+02 0.157E-01 0.421E+01   0.713E+02 -.205E-01 -.450E+01   -.479E+01 0.176E-01 0.371E+00   0.700E-05 -.869E-05 -.242E-03
   0.659E+02 0.124E+00 0.484E+01   -.702E+02 -.131E+00 -.513E+01   0.476E+01 0.203E-01 0.378E+00   0.537E-05 -.841E-05 -.242E-03
   -.135E+01 0.651E-04 -.471E+03   0.133E+01 -.743E-04 0.465E+03   0.943E-02 0.969E-05 0.555E+01   0.491E-05 0.699E-06 -.218E-03
   -.723E+01 -.787E-04 -.127E+04   0.734E+01 0.823E-04 0.127E+04   -.107E+00 -.390E-05 0.110E+01   -.294E-05 0.477E-06 -.304E-04
   -.305E+02 0.424E+01 -.902E+03   0.334E+02 -.429E+01 0.901E+03   -.290E+01 0.492E-01 0.778E+00   -.220E-04 -.121E-05 -.190E-03
   0.272E+02 0.301E+01 -.905E+03   -.301E+02 -.304E+01 0.904E+03   0.289E+01 0.319E-01 0.869E+00   0.196E-04 -.410E-05 -.204E-03
   0.235E+02 -.408E-04 -.144E+04   -.237E+02 0.412E-04 0.144E+04   0.203E+00 -.254E-06 -.110E+01   -.129E-04 0.857E-07 0.176E-03
   0.847E+02 0.682E-04 -.215E+04   -.846E+02 -.746E-04 0.217E+04   -.315E-01 0.777E-05 -.182E+02   0.156E-04 -.889E-06 0.102E-02
   -.757E+02 0.344E+02 -.185E+04   0.809E+02 -.343E+02 0.185E+04   -.521E+01 -.186E+00 -.304E+01   -.531E-05 -.871E-04 0.628E-03
   0.528E+02 0.476E+02 -.181E+04   -.581E+02 -.476E+02 0.181E+04   0.529E+01 -.693E-02 -.246E+01   -.399E-04 -.733E-04 0.674E-03
   -.225E+01 -.488E-04 0.971E+02   0.248E-11 -.176E-11 0.675E-10   0.228E+01 0.281E-05 -.975E+02   -.857E-03 0.680E-06 0.215E-01

 POSITION                                       TOTAL-FORCE (eV/Angst)
      5.47771      5.91519     20.82146        -0.178556      0.000002      0.248647
      4.68501      5.91519     21.68253         0.702641      0.000001     -0.729229
      6.32345      5.91519     19.99094        -0.509845      0.000001      0.435127
      9.75310      7.39399      4.59186        -0.000270      0.001049     -3.553829
      0.00012      8.87278      4.59186        -0.001499      0.000192      2.711706
      0.00012      7.39399      7.84285        -0.003733      0.000276      0.504536
      9.75310      8.87278      7.84285        -0.002649      0.000599     -0.711197
      9.75310      7.39399     11.09385        -0.010986     -0.001314      0.708757
      0.00012      8.87278     11.09385        -0.007960      0.003510     -0.745559
      0.00051      7.39425     14.27522        -0.003439      0.000218      0.098671
      9.75352      8.87245     14.47746         0.009868     -0.001802     -0.052941
      9.74961      7.39433     17.82779         0.002597      0.008711      0.095191
     13.00325      8.87440     17.45485        -0.001242      0.012400      0.137974
      9.75310     10.35158      4.59186        -0.000804      0.001042     -3.554979
      0.00012      0.00000      4.59186        -0.001719     -0.000004      2.711720
      0.00012     10.35158      7.84285        -0.003411      0.000250      0.504872
      9.75310      0.00000      7.84285        -0.002976      0.000000     -0.711367
      9.75310     10.35158     11.09385        -0.007179      0.001707      0.708591
      0.00012      0.00000     11.09385        -0.005708     -0.000001     -0.744315
     13.00307     10.35187     14.27623         0.007089     -0.000159      0.094560
      9.75245      0.00000     14.47770        -0.012838      0.000000     -0.048824
      9.75072     10.35213     17.82957         0.002742      0.008505      0.096185
      0.00276      0.00000     17.45510         0.013428      0.000001      0.130624
      9.75310      1.47880      4.59186        -0.000811     -0.001042     -3.554962
      0.00012      2.95759      4.59186        -0.001500     -0.000196      2.711766
      0.00012      1.47880      7.84285        -0.003411     -0.000251      0.504870
      9.75310      2.95759      7.84285        -0.002649     -0.000599     -0.711197
      9.75310      1.47880     11.09385        -0.007179     -0.001708      0.708588
      0.00012      2.95759     11.09385        -0.007961     -0.003511     -0.745561
     13.00307      1.47851     14.27623         0.007072      0.000160      0.094559
      9.75353      2.95793     14.47746         0.009851      0.001799     -0.052939
      9.75072      1.47824     17.82957         0.002740     -0.008504      0.096189
     13.00325      2.95598     17.45485        -0.001242     -0.012403      0.137973
      9.75310      4.43639      4.59186        -0.000278     -0.001050     -3.553832
      0.00012      5.91519      4.59186        -0.001261      0.000003      2.711587
      0.00012      4.43639      7.84285        -0.003733     -0.000274      0.504535
      9.75310      5.91519      7.84285        -0.002332     -0.000000     -0.710772
      9.75310      4.43639     11.09385        -0.010986      0.001313      0.708760
      0.00012      5.91519     11.09385        -0.010072     -0.000000     -0.747094
      0.00051      4.43613     14.27522        -0.003460     -0.000218      0.098673
      9.75437      5.91519     14.47829         0.002105     -0.000001     -0.054622
      9.74961      4.43605     17.82779         0.002598     -0.008711      0.095191
     12.99815      5.91519     17.45393        -0.009947     -0.000001      0.140627
      3.25111      7.39399      4.59186        -0.003134      0.000099     -3.557567
      6.50211      8.87278      4.59186        -0.002020      0.001265      2.717474
      6.50211      7.39399      7.84285         0.000780      0.004979      0.509323
      3.25111      8.87278      7.84285        -0.000039      0.001132     -0.719550
      3.25111      7.39399     11.09385         0.008015      0.008902      0.676245
      6.50211      8.87278     11.09385         0.003827     -0.010742     -0.702165
      6.50252      7.38619     14.29154         0.004516     -0.016053      0.083691
      3.25045      8.87420     14.47322         0.004622     -0.002566     -0.049553
      3.24398      7.39778     17.81311         0.000629      0.004778      0.100039
      6.50397      8.87341     17.44180         0.006521      0.007797      0.107373
      3.25111     10.35158      4.59186        -0.002662      0.000357     -3.556997
      6.50211      0.00000      4.59186        -0.001744     -0.000000      2.716712
      6.50211     10.35158      7.84285         0.000503      0.002076      0.512228
      3.25111      0.00000      7.84285         0.000289      0.000000     -0.717622
      3.25111     10.35158     11.09385         0.004272      0.021760      0.696537
      6.50211      0.00000     11.09385         0.001636     -0.000000     -0.771729
      6.50348     10.34801     14.26518         0.002118     -0.021694      0.092692
[...]
      6.50211      5.91519      9.11724        -0.001060      0.000000     -0.108740
      4.52550      4.43639      7.84285         0.418822      0.000652      0.049649
      8.47872      4.43639      7.84285        -0.421912      0.000340      0.048569
      3.25111      5.91519      9.81946        -0.002089      0.000000     -0.096463
      3.25111      5.91519     12.36823         0.001026     -0.000000      0.060671
      7.77649      4.43639     11.09385        -0.483626      0.012773      0.089411
      5.22772      4.43639     11.09385         0.469001      0.013364      0.090395
      6.50159      5.91519     13.09655        -0.002092      0.000001     -0.035640
      6.50372      5.91519     15.66579        -0.001493      0.000000     -0.055698
      4.55194      4.43643     14.37281        -0.022438     -0.001712      0.001994
      8.45203      4.43688     14.37144         0.026775     -0.001624     -0.000664
      3.23079      5.91519     16.33221        -0.001460      0.000000      0.094008
      3.29598      5.91519     18.90392        -0.003859      0.000001     -0.085057
      7.72642      4.42656     17.75727        -0.015686     -0.001345      0.008384
      5.26802      4.41716     17.73167         0.021356     -0.006254      0.006597
    total drift:                                0.032187     -0.000045     -0.387716

  FREE ENERGIE OF THE ION-ELECTRON SYSTEM (eV)
  free  energy   TOTEN  =     -1742.01663937 eV

  energy  without entropy=    -1742.01663937  energy(sigma->0) =    -1742.01663937