 vasp.6.3.0 20Jan22 (build Apr  1 2022 16:44:48) complex
 executed on        HPECrayEX_GCC date 2023.01.23  22:52:54

 INCAR:
   SYSTEM = MgO-rocksalt
   ISMEAR = 0
   SIGMA = 0.05
   EDIFF = 1E-8
   ALGO = ALL
   ISTART = 0
   IBRION = 5
   POTIM = 0.01
   NFREE = 2
   ISYM = 0
   DIPOL = 0.5 0.5 0.5
   IDIPOL = 3
   LDIPOL = .TRUE.
   GGA = MK
   LUSE_VDW = .TRUE.
   PARAM1 = 0.1234
   PARAM2 = 0.711357
   ZAB_VDW = -1.8867
   AGGAC = 0.0
   ENCUT = 600
   PREC = Accurate
   LASPH = .TRUE.
   LREAL = .FALSE.
   ISPIN = 1
   NELM = 200
   NELMIN = 8
   NCORE = 8
   KPAR = 1
   LWAVE = .FALSE.
   LCHARG = .FALSE.

 POTCAR:    PAW_PBE N 08Apr2002
 POTCAR:    PAW_PBE O 08Apr2002
 POTCAR:    PAW_PBE Mg_pv 13Apr2007
 POTCAR:    PAW_PBE O 08Apr2002
|               ----> ADVICE to this user running VASP <----                  |
|     You have switched on vdW-DFT.                                           |
|     This routine was written and supplied by Jiri Klimes. We recommend      |
|     that you carefully read and cite the following publications:            |
|       J. Klimes, D.R. Bowler, A. Michelides                                 |
|          J. Phys.: Cond Matt. 22 022201 (2010)                              |
|       J. Klimes, D.R. Bowler, A. Michelides                                 |
|          Phys. Rev. B. 83, 195131 (2011)                                    |
|     and references therein.                                                 |

   TITEL  = PAW_PBE N 08Apr2002
   POMASS =   14.001; ZVAL   =    5.000    mass and valenz
   ENMAX  =  400.000; ENMIN  =  300.000 eV

[...]

   TITEL  = PAW_PBE Mg_pv 13Apr2007
   POMASS =   24.305; ZVAL   =    8.000    mass and valenz
   ENMAX  =  403.929; ENMIN  =  302.947 eV

   TITEL  = PAW_PBE O 08Apr2002
   POMASS =   16.000; ZVAL   =    6.000    mass and valenz
   ENMAX  =  400.000; ENMIN  =  300.000 eV

  PAW_PBE N 08Apr2002                   :
  PAW_PBE O 08Apr2002                   :
  PAW_PBE Mg_pv 13Apr2007               :
  PAW_PBE O 08Apr2002                   :

 POSCAR:  N  O Mg  O
  positions in direct lattice
 exchange correlation table for  LEXCH =       43
   RHO(1)=    0.500       N(1)  =     2000
   RHO(2)=  100.500       N(2)  =     4000

 ion  position               nearest neighbor table
   1  0.547  0.547  0.752-   3 1.18
   2  0.704  0.704  0.752-   4 1.18
   3  0.521  0.521  0.805-   1 1.18
   4  0.731  0.731  0.805-   2 1.18
   5  0.250  0.000  0.352-  37 2.11  39 2.11  40 2.11  47 2.11  56 2.11
   6  0.500  0.250  0.352-  38 2.11  39 2.11  40 2.11  48 2.11  55 2.11
   7  0.250  0.250  0.451-  39 2.11  38 2.11  37 2.11  45 2.11  54 2.11  43 2.11
   8  0.500  0.000  0.451-  40 2.11  38 2.11  37 2.11  46 2.11  53 2.11  44 2.11
   9  0.250  0.000  0.550-  44 2.11  51 2.11  43 2.11  60 2.11  37 2.12  41 2.13
  10  0.500  0.250  0.550-  59 2.11  52 2.11  43 2.11  44 2.12  38 2.12  42 2.12
  11  0.250  0.250  0.648-  58 2.11  41 2.11  43 2.11  49 2.11  42 2.11
  12  0.500  0.002  0.648-  42 2.09  44 2.10  50 2.11  41 2.11  57 2.12
  13  0.250  0.500  0.352-  45 2.11  39 2.11  47 2.11  48 2.11  64 2.11
  14  0.500  0.750  0.352-  46 2.11  40 2.11  47 2.11  48 2.11  63 2.11
  15  0.250  0.750  0.451-  47 2.11  45 2.11  46 2.11  37 2.11  62 2.11  51 2.11
  16  0.500  0.500  0.451-  48 2.11  45 2.11  46 2.11  38 2.11  61 2.11  52 2.13
  17  0.250  0.500  0.550-  51 2.11  52 2.11  43 2.11  68 2.12  45 2.12  49 2.12
  18  0.501  0.750  0.550-  52 2.10  67 2.10  51 2.11  44 2.11  46 2.12  50 2.15
  19  0.249  0.750  0.648-  66 2.09  51 2.10  50 2.11  41 2.11  49 2.12
  20  0.498  0.498  0.650-  42 2.10  49 2.10  52 2.14  65 2.15  50 2.15
  21  0.750  0.000  0.352-  53 2.11  40 2.11  55 2.11  56 2.11  63 2.11
  22  0.000  0.250  0.352-  54 2.11  39 2.11  55 2.11  56 2.11  64 2.11
  23  0.750  0.250  0.451-  55 2.11  53 2.11  54 2.11  38 2.11  61 2.11  59 2.11
  24  0.000  0.000  0.451-  56 2.11  53 2.11  54 2.11  37 2.11  62 2.11  60 2.11
  25  0.750  1.000  0.550-  44 2.11  60 2.11  67 2.11  59 2.12  53 2.12  57 2.12
  26  0.000  0.250  0.550-  68 2.11  59 2.11  43 2.11  60 2.11  54 2.12  58 2.13
  27  0.750  0.249  0.648-  57 2.09  59 2.10  65 2.11  58 2.11  42 2.12
  28  0.001  0.001  0.648-  60 2.11  58 2.11  41 2.11  66 2.11  57 2.11
  29  0.750  0.500  0.352-  61 2.11  55 2.11  48 2.11  63 2.11  64 2.11
  30  0.000  0.750  0.352-  62 2.11  56 2.11  47 2.11  63 2.11  64 2.11
  31  0.750  0.750  0.451-  63 2.11  53 2.11  61 2.11  62 2.11  46 2.11  67 2.13
  32  0.000  0.500  0.451-  64 2.11  54 2.11  61 2.11  62 2.11  45 2.11  68 2.11
  33  0.750  0.501  0.550-  52 2.10  67 2.10  59 2.11  68 2.11  61 2.12  65 2.15
  34  1.000  0.750  0.550-  68 2.11  60 2.11  67 2.11  51 2.12  62 2.12  66 2.12
  35  0.753  0.753  0.650-  57 2.10  66 2.10  67 2.14  50 2.15  65 2.15
  36  0.002  0.500  0.648-  49 2.09  68 2.10  65 2.11  58 2.11  66 2.12
  37  0.250  0.000  0.451-   5 2.11   7 2.11   8 2.11  15 2.11  24 2.11   9 2.12
  38  0.500  0.250  0.451-   6 2.11   7 2.11   8 2.11  16 2.11  23 2.11  10 2.12
  39  0.250  0.250  0.352-   7 2.11   6 2.11   5 2.11  13 2.11  22 2.11
  40  0.500  0.000  0.352-   8 2.11   6 2.11   5 2.11  14 2.11  21 2.11
  41  0.250  0.000  0.650-  11 2.11  28 2.11  19 2.11  12 2.11   9 2.13
  42  0.500  0.249  0.650-  12 2.09  20 2.10  11 2.11  27 2.12  10 2.12
  43  0.250  0.250  0.549-  11 2.11  17 2.11  10 2.11  26 2.11   9 2.11   7 2.11
  44  0.500  1.000  0.550-  12 2.10  25 2.11   9 2.11  18 2.11   8 2.11  10 2.12
  45  0.250  0.500  0.451-  13 2.11   7 2.11  15 2.11  16 2.11  32 2.11  17 2.12
  46  0.500  0.750  0.451-  14 2.11   8 2.11  15 2.11  16 2.11  31 2.11  18 2.12
  47  0.250  0.750  0.352-  15 2.11  13 2.11  14 2.11   5 2.11  30 2.11
  48  0.500  0.500  0.352-  16 2.11  13 2.11  14 2.11   6 2.11  29 2.11
  49  0.249  0.500  0.650-  36 2.09  20 2.10  11 2.11  19 2.12  17 2.12
  50  0.498  0.752  0.651-  12 2.11  19 2.11  18 2.15  20 2.15  35 2.15
  51  0.251  0.750  0.550-  19 2.10  17 2.11   9 2.11  18 2.11  15 2.11  34 2.12
  52  0.500  0.500  0.550-  18 2.10  33 2.10  10 2.11  17 2.11  16 2.13  20 2.14
  53  0.750  0.000  0.451-  21 2.11   8 2.11  23 2.11  24 2.11  31 2.11  25 2.12
  54  0.000  0.250  0.451-  22 2.11   7 2.11  23 2.11  24 2.11  32 2.11  26 2.12
  55  0.750  0.250  0.352-  23 2.11  21 2.11  22 2.11   6 2.11  29 2.11
  56  0.000  0.000  0.352-  24 2.11  21 2.11  22 2.11   5 2.11  30 2.11
  57  0.750  0.001  0.650-  27 2.09  35 2.10  28 2.11  12 2.12  25 2.12
  58  0.000  0.250  0.650-  11 2.11  28 2.11  27 2.11  36 2.11  26 2.13
  59  0.750  0.251  0.550-  27 2.10  10 2.11  26 2.11  33 2.11  23 2.11  25 2.12
  60  0.000  0.000  0.549-  28 2.11  25 2.11  34 2.11  24 2.11  26 2.11   9 2.11
  61  0.750  0.500  0.451-  29 2.11  23 2.11  16 2.11  31 2.11  32 2.11  33 2.12
  62  0.000  0.750  0.451-  30 2.11  24 2.11  15 2.11  31 2.11  32 2.11  34 2.12
  63  0.750  0.750  0.352-  31 2.11  21 2.11  29 2.11  30 2.11  14 2.11
  64  0.000  0.500  0.352-  32 2.11  22 2.11  29 2.11  30 2.11  13 2.11
  65  0.752  0.498  0.651-  36 2.11  27 2.11  33 2.15  20 2.15  35 2.15
  66  0.001  0.750  0.650-  19 2.09  35 2.10  28 2.11  36 2.12  34 2.12
  67  0.750  0.750  0.550-  18 2.10  33 2.10  25 2.11  34 2.11  31 2.13  35 2.14
  68  1.000  0.500  0.550-  36 2.10  34 2.11  26 2.11  33 2.11  32 2.11  17 2.12

IMPORTANT INFORMATION: All symmetrisations will be switched off!
NOSYMM: (Re-)initialisation of all symmetry stuff for point group C_1.

                                     Primitive cell

  volume of cell :    1519.6535

  direct lattice vectors                    reciprocal lattice vectors
     8.440582262  0.000000000  0.000000000     0.118475239  0.000000000  0.000000000
     0.000000000  8.440582262  0.000000000     0.000000000  0.118475239  0.000000000
     0.000000000  0.000000000 21.330436697     0.000000000  0.000000000  0.046881366

  length of vectors
     8.440582262  8.440582262 21.330436697     0.118475239  0.118475239  0.046881366

  position of ions in fractional coordinates (direct lattice)
     0.547210717  0.547210748  0.751879047
     0.704204974  0.704205047  0.751665046
     0.520960276  0.520960389  0.805130115
     0.730955169  0.730955368  0.804842116
     0.250000000  0.000000000  0.351610242
     0.500000000  0.250000000  0.351610242
     0.250000000  0.250000000  0.450536747
     0.500000000  0.000000000  0.450536747
     0.250123140  0.000042312  0.549832809
     0.500076837  0.250425411  0.550025068
     0.249693950  0.249693954  0.648185561
     0.499778649  0.001698132  0.648118220
     0.250000000  0.500000000  0.351610242
     0.500000000  0.750000000  0.351610242
     0.250000000  0.750000000  0.450536747
     0.500000000  0.500000000  0.450536747
     0.250425408  0.500076836  0.550025070
     0.500597611  0.749538894  0.549881231
     0.248536358  0.750483762  0.648117132
     0.497640142  0.497640129  0.650465310
     0.750000000  0.000000000  0.351610242
     0.000000000  0.250000000  0.351610242
     0.750000000  0.250000000  0.450536747
     0.000000000  0.000000000  0.450536747
     0.750074899  0.999753167  0.550005782
     0.000042315  0.250123135  0.549832809
     0.750483773  0.248536347  0.648117132
     0.000528758  0.000528746  0.648164671
     0.750000000  0.500000000  0.351610242
     0.000000000  0.750000000  0.351610242
     0.750000000  0.750000000  0.450536747
     0.000000000  0.500000000  0.450536747
     0.749538900  0.500597606  0.549881233
     0.999753173  0.750074896  0.550005782
     0.752639934  0.752639925  0.650350380
     0.001698126  0.499778646  0.648118219
     0.250000000  0.000000000  0.450536747
     0.500000000  0.250000000  0.450536747
     0.250000000  0.250000000  0.351610242
     0.500000000  0.000000000  0.351610242
     0.249897112  0.000333727  0.649878627
     0.499893884  0.248776830  0.649602498
     0.250082663  0.250082667  0.549490913
     0.500115080  0.999568629  0.549595223
     0.250000000  0.500000000  0.450536747
     0.500000000  0.750000000  0.450536747
     0.250000000  0.750000000  0.351610242
     0.500000000  0.500000000  0.351610242
     0.248776835  0.499893875  0.649602501
     0.498116453  0.752136712  0.650536705
     0.250592778  0.750037903  0.549592650
     0.500404694  0.500404696  0.550225015
     0.750000000  0.000000000  0.450536747
     0.000000000  0.250000000  0.450536747
     0.750000000  0.250000000  0.351610242
     0.000000000  0.000000000  0.351610242
     0.750349736  0.001476348  0.649560533
     0.000333723  0.249897092  0.649878625
     0.750037905  0.250592766  0.549592648
     0.000072081  0.000072078  0.549477262
     0.750000000  0.500000000  0.450536747
     0.000000000  0.750000000  0.450536747
     0.750000000  0.750000000  0.351610242
     0.000000000  0.500000000  0.351610242
     0.752136717  0.498116445  0.650536696
     0.001476358  0.750349734  0.649560536
     0.749735243  0.749735243  0.550204895
     0.999568637  0.500115082  0.549595225

  ion indices of the primitive-cell ions
   primitive index   ion index
                 1           1
                 2           2
                 3           3
                 4           4
[...]
  1Z     9.066439    9.059607  -84.958446   -1.921008   -1.920118   -1.145898  -11.291808  -11.298526   77.737843    3.725777    3.726832    6.391036
  2X     0.687135   -1.350998   -1.914304  -10.323150   -5.086856   -9.267896    1.948375    2.871964   -1.595792    6.346743    4.012718   13.752208
  2Y    -1.354034    0.682581   -1.922402   -5.089640  -10.318672   -9.270457    2.871928    1.947821   -1.599488    4.013808    6.355343   13.745858
  2Z     1.914520    1.915797   -1.146409   -9.287150   -9.293776  -84.856457   -3.721333   -3.720299    6.434607   11.536125   11.531822   77.504349
  3X     6.256388    3.927915  -11.274553    1.950474    2.877010   -3.721038   -6.790376   -5.684311   15.288002   -0.962645   -1.472651   -0.196116
  3Y     3.926210    6.259875  -11.272094    2.873801    1.948325   -3.718532   -5.689764   -6.784122   15.292571   -1.476207   -0.965705   -0.194144
  3Z   -13.532659  -13.535317   77.732449   -1.602672   -1.602536    6.436002   15.308137   15.315872  -79.886615    0.181789    0.182094   -4.939420
  4X     1.965040    2.888604    3.731973    6.352698    4.014387   11.512675   -0.965008   -1.475979    0.184320   -6.900977   -5.797045  -15.532115
  4Y     2.890261    1.966282    3.727026    4.010412    6.350137   11.513214   -1.475693   -0.964787    0.183826   -5.794846   -6.903590  -15.530903
  4Z     1.606048    1.606954    6.395131   13.776008   13.775914   77.501054   -0.195507   -0.195154   -4.941469  -15.558775  -15.549596  -79.565922

 Eigenvectors and eigenvalues of the dynamical matrix

   1 f  =   54.026879 THz   339.460895 2PiTHz 1802.142715 cm-1   223.437119 meV
             X         Y         Z           dx          dy          dz
      4.618777  4.618777 16.037908    -0.073429   -0.073427    0.505603
      5.943900  5.943901 16.033344     0.074833    0.074844    0.503102
      4.397208  4.397209 17.173777     0.086206    0.086224   -0.469927
      6.169687  6.169689 17.167634    -0.087599   -0.087577   -0.467149
      2.110146  0.000000  7.500000            0           0           0
      4.220291  2.110146  7.500000            0           0           0
      2.110146  2.110146  9.610146            0           0           0
      4.220291  0.000000  9.610146            0           0           0
      2.111185  0.000357 11.728174            0           0           0
      4.220940  2.113736 11.732275            0           0           0
      2.107562  2.107562 13.826081            0           0           0
      4.218423  0.014333 13.824645            0           0           0
      2.110146  4.220291  7.500000            0           0           0
      4.220291  6.330437  7.500000            0           0           0
      2.110146  6.330437  9.610146            0           0           0
      4.220291  4.220291  9.610146            0           0           0
      2.113736  4.220940 11.732275            0           0           0
      4.225335  6.326545 11.729207            0           0           0
      2.097792  6.334520 13.824621            0           0           0
      4.200373  4.200372 13.874709            0           0           0
      6.330437  0.000000  7.500000            0           0           0
      0.000000  2.110146  7.500000            0           0           0
      6.330437  2.110146  9.610146            0           0           0
      0.000000  0.000000  9.610146            0           0           0
      6.331069  8.438499 11.731864            0           0           0
      0.000357  2.111185 11.728174            0           0           0
      6.334520  2.097791 13.824621            0           0           0
      0.004463  0.004463 13.825635            0           0           0
      6.330437  4.220291  7.500000            0           0           0
      0.000000  6.330437  7.500000            0           0           0
      6.330437  6.330437  9.610146            0           0           0
      0.000000  4.220291  9.610146            0           0           0
      6.326545  4.225335 11.729207            0           0           0
      8.438499  6.331069 11.731864            0           0           0
      6.352719  6.352719 13.872258            0           0           0
      0.014333  4.218423 13.824645            0           0           0
      2.110146  0.000000  9.610146            0           0           0
      4.220291  2.110146  9.610146            0           0           0
      2.110146  2.110146  7.500000            0           0           0
      4.220291  0.000000  7.500000            0           0           0
      2.109277  0.002817 13.862195            0           0           0
      4.219395  2.099821 13.856305            0           0           0
      2.110843  2.110843 11.720881            0           0           0
      4.221262  8.436941 11.723106            0           0           0
      2.110146  4.220291  9.610146            0           0           0
      4.220291  6.330437  9.610146            0           0           0
      2.110146  6.330437  7.500000            0           0           0
      4.220291  4.220291  7.500000            0           0           0
      2.099821  4.219395 13.856305            0           0           0
      4.204393  6.348472 13.876232            0           0           0
      2.115149  6.330757 11.723051            0           0           0
      4.223707  4.223707 11.736540            0           0           0
      6.330437  0.000000  9.610146            0           0           0
      0.000000  2.110146  9.610146            0           0           0
      6.330437  2.110146  7.500000            0           0           0
      0.000000  0.000000  7.500000            0           0           0
      6.333389  0.012461 13.855410            0           0           0
      0.002817  2.109277 13.862195            0           0           0
      6.330757  2.115149 11.723051            0           0           0
      0.000608  0.000608 11.720590            0           0           0
      6.330437  4.220291  9.610146            0           0           0
      0.000000  6.330437  9.610146            0           0           0
      6.330437  6.330437  7.500000            0           0           0
      0.000000  4.220291  7.500000            0           0           0
      6.348472  4.204393 13.876232            0           0           0
      0.012461  6.333389 13.855410            0           0           0
      6.328202  6.328202 11.736111            0           0           0
      8.436941  4.221262 11.723106            0           0           0

[...]

  11 f  =    1.402534 THz     8.812382 2PiTHz   46.783501 cm-1     5.800412 meV
             X         Y         Z           dx          dy          dz
      4.618777  4.618777 16.037908    -0.193817    0.196094    0.001546
      5.943900  5.943901 16.033344     0.198221   -0.196225    0.000094
      4.397208  4.397209 17.173777    -0.455446    0.459976    0.002085
      6.169687  6.169689 17.167634     0.463803   -0.460496   -0.000153
      2.110146  0.000000  7.500000            0           0           0
      4.220291  2.110146  7.500000            0           0           0
      2.110146  2.110146  9.610146            0           0           0
      4.220291  0.000000  9.610146            0           0           0
      2.111185  0.000357 11.728174            0           0           0
      4.220940  2.113736 11.732275            0           0           0
      2.107562  2.107562 13.826081            0           0           0
      4.218423  0.014333 13.824645            0           0           0
      2.110146  4.220291  7.500000            0           0           0
      4.220291  6.330437  7.500000            0           0           0
      2.110146  6.330437  9.610146            0           0           0
      4.220291  4.220291  9.610146            0           0           0
      2.113736  4.220940 11.732275            0           0           0
      4.225335  6.326545 11.729207            0           0           0
      2.097792  6.334520 13.824621            0           0           0
      4.200373  4.200372 13.874709            0           0           0
      6.330437  0.000000  7.500000            0           0           0
      0.000000  2.110146  7.500000            0           0           0
      6.330437  2.110146  9.610146            0           0           0
      0.000000  0.000000  9.610146            0           0           0
      6.331069  8.438499 11.731864            0           0           0
      0.000357  2.111185 11.728174            0           0           0
      6.334520  2.097791 13.824621            0           0           0
      0.004463  0.004463 13.825635            0           0           0
      6.330437  4.220291  7.500000            0           0           0
      0.000000  6.330437  7.500000            0           0           0
      6.330437  6.330437  9.610146            0           0           0
      0.000000  4.220291  9.610146            0           0           0
      6.326545  4.225335 11.729207            0           0           0
      8.438499  6.331069 11.731864            0           0           0
      6.352719  6.352719 13.872258            0           0           0
      0.014333  4.218423 13.824645            0           0           0
      2.110146  0.000000  9.610146            0           0           0
      4.220291  2.110146  9.610146            0           0           0
      2.110146  2.110146  7.500000            0           0           0
      4.220291  0.000000  7.500000            0           0           0
      2.109277  0.002817 13.862195            0           0           0
      4.219395  2.099821 13.856305            0           0           0
      2.110843  2.110843 11.720881            0           0           0
      4.221262  8.436941 11.723106            0           0           0
      2.110146  4.220291  9.610146            0           0           0
      4.220291  6.330437  9.610146            0           0           0
      2.110146  6.330437  7.500000            0           0           0
      4.220291  4.220291  7.500000            0           0           0
      2.099821  4.219395 13.856305            0           0           0
      4.204393  6.348472 13.876232            0           0           0
      2.115149  6.330757 11.723051            0           0           0
      4.223707  4.223707 11.736540            0           0           0
      6.330437  0.000000  9.610146            0           0           0
      0.000000  2.110146  9.610146            0           0           0
      6.330437  2.110146  7.500000            0           0           0
      0.000000  0.000000  7.500000            0           0           0
      6.333389  0.012461 13.855410            0           0           0
      0.002817  2.109277 13.862195            0           0           0
      6.330757  2.115149 11.723051            0           0           0
      0.000608  0.000608 11.720590            0           0           0
      6.330437  4.220291  9.610146            0           0           0
      0.000000  6.330437  9.610146            0           0           0
      6.330437  6.330437  7.500000            0           0           0
      0.000000  4.220291  7.500000            0           0           0
      6.348472  4.204393 13.876232            0           0           0
      0.012461  6.333389 13.855410            0           0           0
      6.328202  6.328202 11.736111            0           0           0
      8.436941  4.221262 11.723106            0           0           0

  12 f/i=    0.636484 THz     3.999147 2PiTHz   21.230821 cm-1     2.632285 meV
             X         Y         Z           dx          dy          dz
      4.618777  4.618777 16.037908     0.189932   -0.191958    0.000055
      5.943900  5.943901 16.033344     0.188136   -0.189933   -0.000053
      4.397208  4.397209 17.173777     0.463337   -0.466211   -0.000110
      6.169687  6.169689 17.167634     0.459526   -0.460879   -0.000177
      2.110146  0.000000  7.500000            0           0           0
      4.220291  2.110146  7.500000            0           0           0
      2.110146  2.110146  9.610146            0           0           0
      4.220291  0.000000  9.610146            0           0           0
      2.111185  0.000357 11.728174            0           0           0
      4.220940  2.113736 11.732275            0           0           0
      2.107562  2.107562 13.826081            0           0           0
      4.218423  0.014333 13.824645            0           0           0
      2.110146  4.220291  7.500000            0           0           0
      4.220291  6.330437  7.500000            0           0           0
      2.110146  6.330437  9.610146            0           0           0
      4.220291  4.220291  9.610146            0           0           0
      2.113736  4.220940 11.732275            0           0           0
      4.225335  6.326545 11.729207            0           0           0
      2.097792  6.334520 13.824621            0           0           0
      4.200373  4.200372 13.874709            0           0           0
      6.330437  0.000000  7.500000            0           0           0
      0.000000  2.110146  7.500000            0           0           0
      6.330437  2.110146  9.610146            0           0           0
      0.000000  0.000000  9.610146            0           0           0
      6.331069  8.438499 11.731864            0           0           0
      0.000357  2.111185 11.728174            0           0           0
      6.334520  2.097791 13.824621            0           0           0
      0.004463  0.004463 13.825635            0           0           0
      6.330437  4.220291  7.500000            0           0           0
      0.000000  6.330437  7.500000            0           0           0
      6.330437  6.330437  9.610146            0           0           0
      0.000000  4.220291  9.610146            0           0           0
      6.326545  4.225335 11.729207            0           0           0
      8.438499  6.331069 11.731864            0           0           0
      6.352719  6.352719 13.872258            0           0           0
      0.014333  4.218423 13.824645            0           0           0
      2.110146  0.000000  9.610146            0           0           0
      4.220291  2.110146  9.610146            0           0           0
      2.110146  2.110146  7.500000            0           0           0
      4.220291  0.000000  7.500000            0           0           0
      2.109277  0.002817 13.862195            0           0           0
      4.219395  2.099821 13.856305            0           0           0
      2.110843  2.110843 11.720881            0           0           0
      4.221262  8.436941 11.723106            0           0           0
      2.110146  4.220291  9.610146            0           0           0
      4.220291  6.330437  9.610146            0           0           0
      2.110146  6.330437  7.500000            0           0           0
      4.220291  4.220291  7.500000            0           0           0
      2.099821  4.219395 13.856305            0           0           0
      4.204393  6.348472 13.876232            0           0           0
      2.115149  6.330757 11.723051            0           0           0
      4.223707  4.223707 11.736540            0           0           0
      6.330437  0.000000  9.610146            0           0           0
      0.000000  2.110146  9.610146            0           0           0
      6.330437  2.110146  7.500000            0           0           0
      0.000000  0.000000  7.500000            0           0           0
      6.333389  0.012461 13.855410            0           0           0
      0.002817  2.109277 13.862195            0           0           0
      6.330757  2.115149 11.723051            0           0           0
      0.000608  0.000608 11.720590            0           0           0
      6.330437  4.220291  9.610146            0           0           0
      0.000000  6.330437  9.610146            0           0           0
      6.330437  6.330437  7.500000            0           0           0
      0.000000  4.220291  7.500000            0           0           0
      6.348472  4.204393 13.876232            0           0           0
      0.012461  6.333389 13.855410            0           0           0
      6.328202  6.328202 11.736111            0           0           0
      8.436941  4.221262 11.723106            0           0           0

 Finite differences POTIM=   1.0000000000000000E-002