 vasp.6.3.0 20Jan22 (build Apr  1 2022 16:44:48) complex
 executed on        HPECrayEX_GCC date 2023.02.26  11:41:25

 INCAR:
   SYSTEM = MgO-rocksalt
   ISMEAR = 0
   SIGMA = 0.05
   EDIFF = 1E-7
   ALGO = ALL
   ISTART = 0
   IBRION = 2
   NSW = 1000
   ISYM = 0
   ISIF = 2
   EDIFFG = -0.01
   DIPOL = 0.5 0.5 0.5
   IDIPOL = 3
   LDIPOL = .TRUE.
   GGA = MK
   LUSE_VDW = .TRUE.
   PARAM1 = 0.1234
   PARAM2 = 0.711357
   ZAB_VDW = -1.8867
   AGGAC = 0.0
   ENCUT = 600
   PREC = Accurate
   LASPH = .TRUE.
   LREAL = .FALSE.
   ISPIN = 1
   NELM = 200
   NELMIN = 8
   NCORE = 8
   KPAR = 1
   LWAVE = .FALSE.
   LCHARG = .FALSE.

 POTCAR:    PAW_PBE N 08Apr2002
 POTCAR:    PAW_PBE O 08Apr2002
 POTCAR:    PAW_PBE Mg_pv 13Apr2007
 POTCAR:    PAW_PBE O 08Apr2002
|               ----> ADVICE to this user running VASP <----                  |
|     You have switched on vdW-DFT.                                           |
|     This routine was written and supplied by Jiri Klimes. We recommend      |
|     that you carefully read and cite the following publications:            |
|       J. Klimes, D.R. Bowler, A. Michelides                                 |
|          J. Phys.: Cond Matt. 22 022201 (2010)                              |
|       J. Klimes, D.R. Bowler, A. Michelides                                 |
|          Phys. Rev. B. 83, 195131 (2011)                                    |
|     and references therein.                                                 |

   TITEL  = PAW_PBE N 08Apr2002
   POMASS =   14.001; ZVAL   =    5.000    mass and valenz
   ENMAX  =  400.000; ENMIN  =  300.000 eV

[...]

   TITEL  = PAW_PBE Mg_pv 13Apr2007
   POMASS =   24.305; ZVAL   =    8.000    mass and valenz
   ENMAX  =  403.929; ENMIN  =  302.947 eV

   TITEL  = PAW_PBE O 08Apr2002
   POMASS =   16.000; ZVAL   =    6.000    mass and valenz
   ENMAX  =  400.000; ENMIN  =  300.000 eV

  PAW_PBE N 08Apr2002                   :
  PAW_PBE O 08Apr2002                   :
  PAW_PBE Mg_pv 13Apr2007               :
  PAW_PBE O 08Apr2002                   :

 POSCAR:  N  O Mg  O
  positions in direct lattice
 exchange correlation table for  LEXCH =       43
   RHO(1)=    0.500       N(1)  =     2000
   RHO(2)=  100.500       N(2)  =     4000

 ion  position               nearest neighbor table
   1  0.493  0.520  0.766-   2 1.14
   2  0.471  0.594  0.810-   1 1.14   3 1.20
   3  0.448  0.673  0.855-   2 1.20
   4  0.250  0.000  0.352-  36 2.11  38 2.11  39 2.11  46 2.11  55 2.11
   5  0.500  0.250  0.352-  37 2.11  38 2.11  39 2.11  47 2.11  54 2.11
   6  0.250  0.250  0.451-  38 2.11  37 2.11  36 2.11  44 2.11  53 2.11  42 2.12
   7  0.500  0.000  0.451-  39 2.11  37 2.11  36 2.11  45 2.11  52 2.11  43 2.12
   8  0.250  0.000  0.550-  42 2.11  43 2.11  50 2.11  59 2.11  36 2.12  40 2.14
   9  0.500  0.250  0.550-  42 2.11  43 2.11  51 2.11  58 2.11  37 2.12  41 2.14
  10  0.250  0.250  0.648-  42 2.10  41 2.11  40 2.11  48 2.11  57 2.11
  11  0.500  0.000  0.648-  43 2.10  41 2.11  40 2.11  49 2.11  56 2.11
  12  0.250  0.500  0.352-  44 2.11  38 2.11  46 2.11  47 2.11  63 2.11
  13  0.500  0.750  0.352-  45 2.11  39 2.11  46 2.11  47 2.11  62 2.11
  14  0.250  0.750  0.451-  46 2.11  44 2.11  45 2.11  36 2.11  61 2.11  50 2.12
  15  0.500  0.500  0.451-  47 2.11  44 2.11  45 2.11  37 2.11  60 2.11  51 2.12
  16  0.250  0.500  0.550-  42 2.11  50 2.11  51 2.11  67 2.11  44 2.12  48 2.14
  17  0.500  0.750  0.550-  43 2.11  50 2.11  51 2.11  66 2.11  45 2.12  49 2.14
  18  0.250  0.750  0.648-  50 2.10  48 2.11  49 2.11  40 2.11  65 2.11
  19  0.500  0.500  0.648-  51 2.10  48 2.11  49 2.11  41 2.11  64 2.11
  20  0.750  0.000  0.352-  52 2.11  39 2.11  54 2.11  55 2.11  62 2.11
  21  0.000  0.250  0.352-  53 2.11  38 2.11  54 2.11  55 2.11  63 2.11
  22  0.750  0.250  0.451-  54 2.11  52 2.11  53 2.11  37 2.11  60 2.11  58 2.12
  23  0.000  0.000  0.451-  55 2.11  52 2.11  53 2.11  36 2.11  61 2.11  59 2.12
  24  0.750  0.000  0.550-  43 2.11  58 2.11  59 2.11  66 2.11  52 2.12  56 2.14
  25  0.000  0.250  0.550-  42 2.11  58 2.11  59 2.11  67 2.11  53 2.12  57 2.14
  26  0.750  0.250  0.648-  58 2.10  56 2.11  57 2.11  41 2.11  64 2.11
  27  0.000  0.000  0.648-  59 2.10  56 2.11  57 2.11  40 2.11  65 2.11
  28  0.750  0.500  0.352-  60 2.11  54 2.11  47 2.11  62 2.11  63 2.11
  29  0.000  0.750  0.352-  61 2.11  55 2.11  46 2.11  62 2.11  63 2.11
  30  0.750  0.750  0.451-  62 2.11  52 2.11  60 2.11  61 2.11  45 2.11  66 2.12
  31  0.000  0.500  0.451-  63 2.11  53 2.11  60 2.11  61 2.11  44 2.11  67 2.12
  32  0.750  0.500  0.550-  51 2.11  58 2.11  66 2.11  67 2.11  60 2.12  64 2.14
  33  0.000  0.750  0.550-  50 2.11  59 2.11  66 2.11  67 2.11  61 2.12  65 2.14
  34  0.750  0.750  0.648-  66 2.10  56 2.11  64 2.11  65 2.11  49 2.11
  35  0.000  0.500  0.648-  67 2.10  57 2.11  64 2.11  65 2.11  48 2.11
  36  0.250  0.000  0.451-   4 2.11   6 2.11   7 2.11  14 2.11  23 2.11   8 2.12
  37  0.500  0.250  0.451-   5 2.11   6 2.11   7 2.11  15 2.11  22 2.11   9 2.12
  38  0.250  0.250  0.352-   6 2.11   5 2.11   4 2.11  12 2.11  21 2.11
  39  0.500  0.000  0.352-   7 2.11   5 2.11   4 2.11  13 2.11  20 2.11
  40  0.250  0.000  0.650-  10 2.11  11 2.11  18 2.11  27 2.11   8 2.14
  41  0.500  0.250  0.650-  10 2.11  11 2.11  19 2.11  26 2.11   9 2.14
  42  0.250  0.250  0.550-  10 2.10   9 2.11   8 2.11  16 2.11  25 2.11   6 2.12
  43  0.500  0.000  0.550-  11 2.10   9 2.11   8 2.11  17 2.11  24 2.11   7 2.12
  44  0.250  0.500  0.451-  12 2.11   6 2.11  14 2.11  15 2.11  31 2.11  16 2.12
  45  0.500  0.750  0.451-  13 2.11   7 2.11  14 2.11  15 2.11  30 2.11  17 2.12
  46  0.250  0.750  0.352-  14 2.11  12 2.11  13 2.11   4 2.11  29 2.11
  47  0.500  0.500  0.352-  15 2.11  12 2.11  13 2.11   5 2.11  28 2.11
  48  0.250  0.500  0.650-  10 2.11  18 2.11  19 2.11  35 2.11  16 2.14
  49  0.500  0.750  0.650-  11 2.11  18 2.11  19 2.11  34 2.11  17 2.14
  50  0.250  0.750  0.550-  18 2.10  16 2.11  17 2.11   8 2.11  33 2.11  14 2.12
  51  0.500  0.500  0.550-  19 2.10  16 2.11  17 2.11   9 2.11  32 2.11  15 2.12
  52  0.750  0.000  0.451-  20 2.11   7 2.11  22 2.11  23 2.11  30 2.11  24 2.12
  53  0.000  0.250  0.451-  21 2.11   6 2.11  22 2.11  23 2.11  31 2.11  25 2.12
  54  0.750  0.250  0.352-  22 2.11  20 2.11  21 2.11   5 2.11  28 2.11
  55  0.000  0.000  0.352-  23 2.11  20 2.11  21 2.11   4 2.11  29 2.11
  56  0.750  0.000  0.650-  11 2.11  26 2.11  27 2.11  34 2.11  24 2.14
  57  0.000  0.250  0.650-  10 2.11  26 2.11  27 2.11  35 2.11  25 2.14
  58  0.750  0.250  0.550-  26 2.10  24 2.11  25 2.11   9 2.11  32 2.11  22 2.12
  59  0.000  0.000  0.550-  27 2.10  24 2.11  25 2.11   8 2.11  33 2.11  23 2.12
  60  0.750  0.500  0.451-  28 2.11  22 2.11  15 2.11  30 2.11  31 2.11  32 2.12
  61  0.000  0.750  0.451-  29 2.11  23 2.11  14 2.11  30 2.11  31 2.11  33 2.12
  62  0.750  0.750  0.352-  30 2.11  20 2.11  28 2.11  29 2.11  13 2.11
  63  0.000  0.500  0.352-  31 2.11  21 2.11  28 2.11  29 2.11  12 2.11
  64  0.750  0.500  0.650-  19 2.11  26 2.11  34 2.11  35 2.11  32 2.14
  65  0.000  0.750  0.650-  18 2.11  27 2.11  34 2.11  35 2.11  33 2.14
  66  0.750  0.750  0.550-  34 2.10  24 2.11  32 2.11  33 2.11  17 2.11  30 2.12
  67  0.000  0.500  0.550-  35 2.10  25 2.11  32 2.11  33 2.11  16 2.11  31 2.12

IMPORTANT INFORMATION: All symmetrisations will be switched off!
NOSYMM: (Re-)initialisation of all symmetry stuff for point group C_1.

                                     Primitive cell

  volume of cell :    1519.6535

  direct lattice vectors                    reciprocal lattice vectors
     8.440582262  0.000000000  0.000000000     0.118475239  0.000000000  0.000000000
     0.000000000  8.440582262  0.000000000     0.000000000  0.118475239  0.000000000
     0.000000000  0.000000000 21.330436697     0.000000000  0.000000000  0.046881366

  length of vectors
     8.440582262  8.440582262 21.330436697     0.118475239  0.118475239  0.046881366

  position of ions in fractional coordinates (direct lattice)
     0.493209839  0.519502491  0.765555258
     0.471080150  0.594060876  0.809517069
     0.447684838  0.672849724  0.855456522
     0.250000000  0.000000000  0.351610242
     0.500000000  0.250000000  0.351610242
     0.250000000  0.250000000  0.450536747
     0.500000000  0.000000000  0.450536747
     0.250000000  0.000000000  0.549966382
     0.500000000  0.250000000  0.549966382
     0.250000000  0.250000000  0.648348359
     0.500000000  0.000000000  0.648348359
     0.250000000  0.500000000  0.351610242
     0.500000000  0.750000000  0.351610242
     0.250000000  0.750000000  0.450536747
     0.500000000  0.500000000  0.450536747
     0.250000000  0.500000000  0.549966382
     0.500000000  0.750000000  0.549966382
     0.250000000  0.750000000  0.648348359
     0.500000000  0.500000000  0.648348359
     0.750000000  0.000000000  0.351610242
     0.000000000  0.250000000  0.351610242
     0.750000000  0.250000000  0.450536747
     0.000000000  0.000000000  0.450536747
     0.750000000  0.000000000  0.549966382
     0.000000000  0.250000000  0.549966382
     0.750000000  0.250000000  0.648348359
     0.000000000  0.000000000  0.648348359
     0.750000000  0.500000000  0.351610242
     0.000000000  0.750000000  0.351610242
     0.750000000  0.750000000  0.450536747
     0.000000000  0.500000000  0.450536747
     0.750000000  0.500000000  0.549966382
     0.000000000  0.750000000  0.549966382
     0.750000000  0.750000000  0.648348359
     0.000000000  0.500000000  0.648348359
     0.250000000  0.000000000  0.450536747
     0.500000000  0.250000000  0.450536747
     0.250000000  0.250000000  0.351610242
     0.500000000  0.000000000  0.351610242
     0.250000000  0.000000000  0.650177506
     0.500000000  0.250000000  0.650177506
     0.250000000  0.250000000  0.549707339
     0.500000000  0.000000000  0.549707339
     0.250000000  0.500000000  0.450536747
     0.500000000  0.750000000  0.450536747
     0.250000000  0.750000000  0.351610242
     0.500000000  0.500000000  0.351610242
     0.250000000  0.500000000  0.650177506
     0.500000000  0.750000000  0.650177506
     0.250000000  0.750000000  0.549707339
     0.500000000  0.500000000  0.549707339
     0.750000000  0.000000000  0.450536747
     0.000000000  0.250000000  0.450536747
     0.750000000  0.250000000  0.351610242
     0.000000000  0.000000000  0.351610242
     0.750000000  0.000000000  0.650177506
     0.000000000  0.250000000  0.650177506
     0.750000000  0.250000000  0.549707339
     0.000000000  0.000000000  0.549707339
     0.750000000  0.500000000  0.450536747
     0.000000000  0.750000000  0.450536747
     0.750000000  0.750000000  0.351610242
     0.000000000  0.500000000  0.351610242
     0.750000000  0.500000000  0.650177506
     0.000000000  0.750000000  0.650177506
     0.750000000  0.750000000  0.549707339
     0.000000000  0.500000000  0.549707339

  ion indices of the primitive-cell ions
   primitive index   ion index
                 1           1
                 2           2
                 3           3
                 4           4
                 5           5
                 6           6
[...]
   4.22029113  4.22029113  9.61014557
   2.11014557  4.22029113 11.73102311
   4.22029113  6.33043670 11.73102311
   2.11014557  6.33043670 13.82955363
   4.22029113  4.22029113 13.82955363
   6.33043670  0.00000000  7.50000000
   0.00000000  2.11014557  7.50000000
   6.33043670  2.11014557  9.61014557
   0.00000000  0.00000000  9.61014557
   6.33043670  0.00000000 11.73102311
   0.00000000  2.11014557 11.73102311
   6.33043670  2.11014557 13.82955363
   0.00000000  0.00000000 13.82955363
   6.33043670  4.22029113  7.50000000
   0.00000000  6.33043670  7.50000000
   6.33043670  6.33043670  9.61014557
   0.00000000  4.22029113  9.61014557
   6.33043670  4.22029113 11.73102311
   0.00000000  6.33043670 11.73102311
   6.33043670  6.33043670 13.82955363
   0.00000000  4.22029113 13.82955363
   2.11014557  0.00000000  9.61014557
   4.22029113  2.11014557  9.61014557
   2.11014557  2.11014557  7.50000000
   4.22029113  0.00000000  7.50000000
   2.11014557  0.00000000 13.86857013
   4.22029113  2.11014557 13.86857013
   2.11014557  2.11014557 11.72549760
   4.22029113  0.00000000 11.72549760
   2.11014557  4.22029113  9.61014557
   4.22029113  6.33043670  9.61014557
   2.11014557  6.33043670  7.50000000
   4.22029113  4.22029113  7.50000000
   2.11014557  4.22029113 13.86857013
   4.22029113  6.33043670 13.86857013
   2.11014557  6.33043670 11.72549760
   4.22029113  4.22029113 11.72549760
   6.33043670  0.00000000  9.61014557
   0.00000000  2.11014557  9.61014557
   6.33043670  2.11014557  7.50000000
   0.00000000  0.00000000  7.50000000
   6.33043670  0.00000000 13.86857013
   0.00000000  2.11014557 13.86857013
   6.33043670  2.11014557 11.72549760
   0.00000000  0.00000000 11.72549760
   6.33043670  4.22029113  9.61014557
   0.00000000  6.33043670  9.61014557
   6.33043670  6.33043670  7.50000000
   0.00000000  4.22029113  7.50000000
   6.33043670  4.22029113 13.86857013
   0.00000000  6.33043670 13.86857013
   6.33043670  6.33043670 11.72549760
   0.00000000  4.22029113 11.72549760

--------------------------------------- Iteration      FINAL  ---------------------------------------

--------------------OUTCAR has been truncated-------------------------

[...]

--------------------OUTCAR has been truncated-------------------------

  FORCE on cell =-STRESS in cart. coord.  units (eV):
  Direction    XX          YY          ZZ          XY          YZ          ZX
  Alpha Z   926.84838   926.84838   926.84838
  Ewald  154964.05306155213.29184************   -76.39157   384.17313  -115.01442
  Hartree165594.00937165714.43507************   -34.19801   174.64078   -52.64347
  E(xc)   -2528.84485 -2528.21713 -2527.58687    -0.20578     1.01893    -0.30313
  Local  ************************329705.81902   102.65400  -519.87128   156.08663
  n-local -2878.30263 -2879.80997 -2900.64305     0.48849    -2.43558     0.72535
  augment  1060.70709  1059.83650  1049.50317     0.28623    -1.36742     0.40541
  Kinetic  7652.84733  7630.48811  7639.24509     7.35052   -36.14411    10.75634
  Fock        0.00000     0.00000     0.00000     0.00000     0.00000     0.00000
  Total     -29.75116   -29.74928    -2.48543    -0.01612     0.01445     0.01272
  in kB     -31.36678   -31.36479    -2.62040    -0.01700     0.01523     0.01341

 VOLUME and BASIS-vectors are now :
  energy-cutoff  :      600.00
  volume of cell :     1519.65
      direct lattice vectors                 reciprocal lattice vectors
     8.440582262  0.000000000  0.000000000     0.118475239  0.000000000  0.000000000
     0.000000000  8.440582262  0.000000000     0.000000000  0.118475239  0.000000000
     0.000000000  0.000000000 21.330436697     0.000000000  0.000000000  0.046881366

  length of vectors
     8.440582262  8.440582262 21.330436697     0.118475239  0.118475239  0.046881366

 FORCES acting on ions:
    Electron-Ion                     Ewald-Force                    Non-Local-Force
   -.485E+02 0.163E+03 -.108E+04   0.567E+02 -.190E+03 0.104E+04   -.822E+01 0.276E+02 0.401E+02
   -.441E+01 0.146E+02 -.107E+04   0.427E+01 -.141E+02 0.107E+04   0.141E+00 -.555E+00 -.459E+00
   0.508E+02 -.170E+03 -.126E+04   -.617E+02 0.206E+03 0.131E+04   0.109E+02 -.367E+02 -.535E+02
   0.201E+00 -.145E+00 0.208E+04   -.199E+00 0.146E+00 -.207E+04   -.173E-02 -.589E-03 -.679E+01
   -.504E-01 0.157E+00 0.208E+04   0.505E-01 -.153E+00 -.207E+04   -.122E-03 -.321E-02 -.680E+01
   0.628E+00 0.534E+00 0.730E+03   -.614E+00 -.510E+00 -.730E+03   -.935E-02 -.167E-01 0.439E+00
   -.165E+00 -.509E+00 0.730E+03   0.169E+00 0.501E+00 -.730E+03   -.249E-02 0.556E-02 0.401E+00
   0.408E+01 -.206E+01 -.616E+03   -.405E+01 0.209E+01 0.616E+03   -.268E-01 -.298E-01 -.157E+00
   -.601E+00 0.514E+01 -.610E+03   0.607E+00 -.502E+01 0.611E+03   -.534E-02 -.120E+00 -.493E+00
   0.217E+02 0.215E+02 -.196E+04   -.217E+02 -.216E+02 0.195E+04   -.134E-01 0.457E-01 0.600E+01
   -.245E+01 -.113E+02 -.196E+04   0.246E+01 0.114E+02 0.195E+04   -.556E-02 -.131E+00 0.596E+01
   0.211E+00 0.146E+00 0.208E+04   -.206E+00 -.146E+00 -.207E+04   -.362E-02 0.516E-03 -.680E+01
   -.556E-01 -.158E+00 0.208E+04   0.558E-01 0.154E+00 -.207E+04   -.176E-03 0.341E-02 -.680E+01
   0.706E+00 -.539E+00 0.730E+03   -.676E+00 0.517E+00 -.731E+03   -.211E-01 0.154E-01 0.455E+00
   -.184E+00 0.509E+00 0.730E+03   0.184E+00 -.506E+00 -.731E+03   0.485E-03 -.278E-02 0.503E+00
   0.593E+01 0.215E+01 -.609E+03   -.580E+01 -.218E+01 0.609E+03   -.126E+00 0.291E-01 -.317E+00
   -.856E+00 -.520E+01 -.607E+03   0.868E+00 0.507E+01 0.607E+03   -.116E-01 0.121E+00 -.200E+00
   0.294E+02 -.235E+02 -.193E+04   -.295E+02 0.235E+02 0.193E+04   0.923E-01 -.501E-01 0.602E+01
   -.581E+01 0.178E+02 -.187E+04   0.585E+01 -.180E+02 0.187E+04   -.448E-01 0.165E+00 0.520E+01
   -.201E+00 -.140E+00 0.208E+04   0.199E+00 0.141E+00 -.207E+04   0.176E-02 -.460E-03 -.679E+01
   0.503E-01 0.148E+00 0.208E+04   -.505E-01 -.146E+00 -.207E+04   0.117E-03 -.147E-02 -.679E+01
   -.627E+00 0.515E+00 0.729E+03   0.613E+00 -.497E+00 -.730E+03   0.926E-02 -.127E-01 0.432E+00
   0.163E+00 -.432E+00 0.728E+03   -.167E+00 0.443E+00 -.729E+03   0.283E-02 -.821E-02 0.446E+00
   -.406E+01 -.183E+01 -.617E+03   0.403E+01 0.185E+01 0.618E+03   0.266E-01 -.231E-01 -.161E+00
   0.577E+00 0.335E+01 -.619E+03   -.583E+00 -.332E+01 0.619E+03   0.567E-02 -.260E-01 -.171E+00
   -.213E+02 0.199E+02 -.196E+04   0.212E+02 -.199E+02 0.196E+04   0.138E-01 0.143E-01 0.600E+01
   0.220E+01 -.555E+01 -.198E+04   -.220E+01 0.558E+01 0.197E+04   0.571E-02 -.271E-01 0.597E+01
   -.211E+00 0.140E+00 0.208E+04   0.206E+00 -.141E+00 -.207E+04   0.359E-02 0.453E-03 -.680E+01
   0.552E-01 -.148E+00 0.208E+04   -.556E-01 0.146E+00 -.207E+04   0.242E-03 0.144E-02 -.678E+01
   -.704E+00 -.520E+00 0.730E+03   0.673E+00 0.501E+00 -.730E+03   0.221E-01 0.125E-01 0.456E+00
   0.182E+00 0.436E+00 0.730E+03   -.181E+00 -.446E+00 -.730E+03   -.110E-02 0.762E-02 0.399E+00
   -.590E+01 0.190E+01 -.610E+03   0.577E+01 -.193E+01 0.610E+03   0.126E+00 0.226E-01 -.398E+00
   0.807E+00 -.338E+01 -.616E+03   -.820E+00 0.335E+01 0.616E+03   0.122E-01 0.272E-01 -.143E+00
   -.283E+02 -.214E+02 -.194E+04   0.284E+02 0.214E+02 0.194E+04   -.884E-01 -.149E-01 0.601E+01
   0.349E+01 0.594E+01 -.196E+04   -.353E+01 -.597E+01 0.196E+04   0.361E-01 0.274E-01 0.596E+01
   0.546E+00 -.320E+00 0.547E+03   -.534E+00 0.320E+00 -.547E+03   -.158E-01 -.685E-03 -.464E-01
   -.108E+00 0.506E+00 0.547E+03   0.109E+00 -.523E+00 -.547E+03   -.162E-02 0.209E-01 -.112E+00
   0.148E+00 0.114E+00 0.156E+04   -.146E+00 -.111E+00 -.157E+04   -.407E-02 -.507E-02 0.360E+01
   -.389E-01 -.112E+00 0.156E+04   0.394E-01 0.112E+00 -.157E+04   -.735E-03 -.940E-04 0.360E+01
   0.113E+02 -.740E+01 -.150E+04   -.112E+02 0.742E+01 0.150E+04   -.633E-01 -.219E-01 -.493E+01
   -.206E+01 0.263E+02 -.147E+04   0.206E+01 -.262E+02 0.148E+04   -.148E-02 -.179E+00 -.497E+01
   0.346E+01 0.313E+01 -.455E+03   -.344E+01 -.311E+01 0.455E+03   -.313E-01 -.211E-01 0.334E+00
   -.488E+00 -.159E+01 -.454E+03   0.490E+00 0.161E+01 0.454E+03   -.184E-02 -.236E-01 0.321E+00
   0.622E+00 0.326E+00 0.547E+03   -.641E+00 -.329E+00 -.547E+03   0.256E-01 0.382E-02 -.110E+00
   -.132E+00 -.517E+00 0.547E+03   0.133E+00 0.538E+00 -.547E+03   -.777E-03 -.283E-01 -.114E+00
   0.158E+00 -.115E+00 0.156E+04   -.153E+00 0.111E+00 -.157E+04   -.652E-02 0.521E-02 0.361E+01
   -.409E-01 0.113E+00 0.156E+04   0.410E-01 -.112E+00 -.157E+04   -.107E-04 -.229E-03 0.360E+01
   0.315E+02 0.899E+01 -.146E+04   -.313E+02 -.900E+01 0.146E+04   -.233E+00 0.901E-02 -.492E+01
   -.388E+01 -.305E+02 -.145E+04   0.389E+01 0.302E+02 0.145E+04   -.529E-02 0.270E+00 -.484E+01
   0.385E+01 -.319E+01 -.451E+03   -.384E+01 0.318E+01 0.450E+03   -.109E-01 0.186E-01 0.450E+00
   -.579E+00 0.167E+01 -.453E+03   0.585E+00 -.169E+01 0.453E+03   -.712E-02 0.264E-01 -.252E+00
   -.546E+00 -.300E+00 0.546E+03   0.535E+00 0.303E+00 -.546E+03   0.149E-01 -.438E-02 -.561E-01
   0.107E+00 0.440E+00 0.546E+03   -.109E+00 -.430E+00 -.546E+03   0.184E-02 -.144E-01 -.654E-01
   -.148E+00 0.112E+00 0.156E+04   0.145E+00 -.109E+00 -.157E+04   0.408E-02 -.445E-02 0.360E+01
   0.388E-01 -.103E+00 0.156E+04   -.393E-01 0.105E+00 -.157E+04   0.710E-03 -.230E-02 0.361E+01
   -.111E+02 -.613E+01 -.150E+04   0.110E+02 0.614E+01 0.150E+04   0.633E-01 -.125E-01 -.492E+01
   0.172E+01 0.852E+01 -.150E+04   -.172E+01 -.847E+01 0.151E+04   0.165E-02 -.587E-01 -.492E+01
   -.345E+01 0.305E+01 -.456E+03   0.342E+01 -.303E+01 0.455E+03   0.307E-01 -.260E-01 0.321E+00
   0.474E+00 -.126E+01 -.461E+03   -.475E+00 0.127E+01 0.461E+03   0.170E-02 -.101E-01 0.266E+00
   -.619E+00 0.302E+00 0.547E+03   0.637E+00 -.305E+00 -.547E+03   -.240E-01 0.476E-02 -.111E+00
   0.127E+00 -.440E+00 0.547E+03   -.125E+00 0.429E+00 -.547E+03   -.192E-02 0.159E-01 -.354E-01
   -.157E+00 -.112E+00 0.156E+04   0.153E+00 0.109E+00 -.157E+04   0.641E-02 0.448E-02 0.360E+01
   0.407E-01 0.103E+00 0.156E+04   -.408E-01 -.105E+00 -.157E+04   0.872E-04 0.234E-02 0.360E+01
   -.301E+02 0.731E+01 -.147E+04   0.299E+02 -.731E+01 0.147E+04   0.206E+00 0.657E-02 -.495E+01
   0.293E+01 -.883E+01 -.150E+04   -.294E+01 0.877E+01 0.150E+04   0.122E-01 0.562E-01 -.493E+01
   -.382E+01 -.311E+01 -.453E+03   0.381E+01 0.308E+01 0.452E+03   0.115E-01 0.246E-01 0.401E+00
   0.542E+00 0.128E+01 -.455E+03   -.547E+00 -.129E+01 0.455E+03   0.586E-02 0.799E-02 0.320E+00
   -.282E+01 0.949E+01 0.286E+02   -.254E-13 -.675E-13 -.711E-11   0.282E+01 -.949E+01 -.286E+02

 POSITION                                       TOTAL-FORCE (eV/Angst)
      4.16450      4.38470     16.33757         0.002358     -0.001627      0.007800
      3.97709      5.01461     17.26889        -0.000471      0.005269      0.006712
      3.77836      5.68116     18.24216         0.000285      0.000942     -0.007711
      2.11015      0.00000      7.50000         0.000725      0.000230      0.316311
      4.22029      2.11015      7.50000         0.000050      0.001033      0.319311
      2.11015      2.11015      9.61015         0.004623      0.007239      0.026288
      4.22029      0.00000      9.61015         0.000931     -0.001940      0.035527
      2.11069      0.00088     11.72837         0.002419      0.001706      0.001864
      4.22043      2.11362     11.73426         0.000363      0.001917     -0.002162
      2.11019      2.10937     13.82496         0.001757     -0.000123      0.000668
      4.22032      0.00274     13.82407        -0.000148      0.001586      0.000923
      2.11015      4.22029      7.50000         0.001176     -0.000143      0.319517
      4.22029      6.33044      7.50000         0.000046     -0.001068      0.319746
      2.11015      6.33044      9.61015         0.008529     -0.006484      0.023159
      4.22029      4.22029      9.61015         0.000076      0.000146      0.045416
      2.11416      4.21968     11.73378         0.002091     -0.001778     -0.002185
      4.22048      6.32628     11.73399         0.000440     -0.002383     -0.002113
      2.10739      6.33220     13.81747        -0.001025     -0.000094      0.000995
      4.22193      4.21406     13.87628         0.000644     -0.002371     -0.002939
      6.33044      0.00000      7.50000        -0.000726      0.000195      0.316989
      0.00000      2.11015      7.50000        -0.000077      0.000579      0.317807
      6.33044      2.11015      9.61015        -0.004575      0.005744      0.027629
      0.00000      0.00000      9.61015        -0.001128      0.003264      0.020372
      6.32978      0.00053     11.72886        -0.002412      0.001897      0.001363
     -0.00011      2.11083     11.72922        -0.000672      0.002162      0.000639
      6.33043      2.10967     13.82560        -0.001920      0.000722      0.000767
     -0.00028      0.00088     13.82771         0.000112     -0.000624     -0.005716
      6.33044      4.22029      7.50000        -0.001136     -0.000150      0.319387
      0.00000      6.33044      7.50000        -0.000079     -0.000593      0.315613
      6.33044      6.33044      9.61015        -0.009154     -0.005607      0.024206
      0.00000      4.22029      9.61015         0.000329     -0.002939      0.035349
      6.32655      4.21975     11.73399        -0.002046     -0.001710     -0.002252
     -0.00046      6.32993     11.72793        -0.000473     -0.002734      0.002248
      6.33227      6.33098     13.82106         0.000914     -0.000890      0.000760
     -0.00084      4.21971     13.82392        -0.000541      0.000088      0.000804
      2.11015      0.00000      9.61015        -0.004543     -0.000626      0.049575
      4.22029      2.11015      9.61015        -0.000531      0.004770      0.059386
      2.11015      2.11015      7.50000        -0.001155     -0.001420     -0.403099
      4.22029      0.00000      7.50000        -0.000213     -0.000011     -0.402793
      2.10843     -0.00057     13.86866        -0.002635     -0.000569      0.001220
      4.22014      2.10205     13.86218        -0.000369      0.000368      0.000360
      2.10936      2.10993     11.72445        -0.003738     -0.002658      0.002537
      4.22019     -0.00135     11.72374        -0.000347     -0.002985     -0.003084
      2.11015      4.22029      9.61015         0.005908      0.001425      0.057265
      4.22029      6.33044      9.61015        -0.000317     -0.006653      0.057009
      2.11015      6.33044      7.50000        -0.001853      0.001489     -0.402259
      4.22029      4.22029      7.50000        -0.000005     -0.000064     -0.404929
      2.10264      4.22165     13.86901         0.000036      0.000494      0.000424
      4.21949      6.33815     13.87497        -0.000132     -0.000132      0.000111
      2.11004      6.33089     11.72426        -0.001870      0.002410      0.000614
      4.22009      4.22098     11.73302        -0.001004      0.003282      0.004765
      6.33044      0.00000      9.61015         0.004314     -0.001543      0.049081
      0.00000      2.11015      9.61015         0.000577     -0.004195      0.048017
      6.33044      2.11015      7.50000         0.001148     -0.001245     -0.403339
      0.00000      0.00000      7.50000         0.000196     -0.000638     -0.401250
      6.33190     -0.00067     13.86921         0.002630     -0.000735      0.000723
      0.00015      2.10888     13.86918         0.000184     -0.002894     -0.000022
      6.33124      2.10957     11.72430         0.003544     -0.003099      0.002769
     -0.00001     -0.00019     11.72458         0.000376     -0.001560     -0.000292
      6.33044      4.22029      9.61015        -0.005494      0.001667      0.058223
      0.00000      6.33044      9.61015        -0.000354      0.004584      0.050732
      6.33044      6.33044      7.50000         0.001812      0.001281     -0.402598
      0.00000      4.22029      7.50000         0.000019      0.000672     -0.402791
      6.33785      4.22106     13.86575        -0.000193      0.000724      0.000320
      0.00006      6.33200     13.86870         0.000014      0.002347      0.001676
      6.33030      6.33099     11.72467         0.001880      0.003047      0.001258
      0.00032      4.22064     11.72362         0.000830      0.001007     -0.002699
    total drift:                                0.000271     -0.000798     -0.009760

  FREE ENERGIE OF THE ION-ELECTRON SYSTEM (eV)
  free  energy   TOTEN  =      -282.30437328 eV

  energy  without entropy=     -282.30437328  energy(sigma->0) =     -282.30437328

 d Force = 0.2424588E-07[-0.461E-07, 0.946E-07]  d Energy = 0.4791218E-07-0.237E-07
 d Force =-0.5617863E-01[-0.562E-01,-0.562E-01]  d Ewald  =-0.5617863E-01 0.202E-09

 reached required accuracy - stopping structural energy minimisation