 vasp.6.3.0 20Jan22 (build Mar 11 2022 13:48:16) complex

 executed on             LinuxIFC date 2023.12.26  18:08:52

 INCAR:
   SYSTEM = MgO-rocksalt
   ISMEAR = 0
   SIGMA = 0.05
   EDIFF = 1E-7
   ALGO = ALL
   ISTART = 0
   IBRION = -1
   NSW = 0
   ISYM = 2
   ISIF = 2
   EDIFFG = -0.01
   DIPOL = 0.5 0.5 0.5
   IDIPOL = 3
   LDIPOL = .TRUE.
   LHFCALC = .TRUE.
   GGA = PE
   IVDW = 13
   VDW_S8 = 1.2007
   VDW_A1 = 0.4009
   VDW_A2 = 5.0293
   ENCUT = 600
   PREC = Accurate
   LASPH = .TRUE.
   LREAL = .FALSE.
   ISPIN = 1
   NELM = 200
   NELMIN = 8
   NCORE = 8
   KPAR = 1
   LWAVE = .FALSE.
   LCHARG = .FALSE.

 POTCAR:    PAW_PBE C 08Apr2002
 POTCAR:    PAW_PBE O 08Apr2002
 POTCAR:    PAW_PBE Mg_pv 13Apr2007
 POTCAR:    PAW_PBE O 08Apr2002
|           W    W    AA    RRRRR   N    N  II  N    N   GGGG   !!!           |
|           W    W   A  A   R    R  NN   N  II  NN   N  G    G  !!!           |
|           W    W  A    A  R    R  N N  N  II  N N  N  G       !!!           |
|           W WW W  AAAAAA  RRRRR   N  N N  II  N  N N  G  GGG   !            |
|           WW  WW  A    A  R   R   N   NN  II  N   NN  G    G                |
|           W    W  A    A  R    R  N    N  II  N    N   GGGG   !!!           |
|     For optimal performance we recommend to set                             |
|       NCORE = 2 up to number-of-cores-per-socket                            |
|     This setting can greatly improve the performance of VASP for DFT.       |
|     The default, NCORE=1 might be grossly inefficient on modern             |
|     multi-core architectures or massively parallel machines. Do your        |
|     Unfortunately you need to use the default for GW and RPA                |
|     calculations (for HF NCORE is supported but not extensively tested      |
|     yet).                                                                   |

   TITEL  = PAW_PBE C 08Apr2002
   POMASS =   12.011; ZVAL   =    4.000    mass and valenz
   ENMAX  =  400.000; ENMIN  =  300.000 eV

[...]

   TITEL  = PAW_PBE Mg_pv 13Apr2007
   POMASS =   24.305; ZVAL   =    8.000    mass and valenz
   ENMAX  =  403.929; ENMIN  =  302.947 eV

   TITEL  = PAW_PBE O 08Apr2002
   POMASS =   16.000; ZVAL   =    6.000    mass and valenz
   ENMAX  =  400.000; ENMIN  =  300.000 eV

  PAW_PBE C 08Apr2002                   :
  PAW_PBE O 08Apr2002                   :
  PAW_PBE Mg_pv 13Apr2007               :
  PAW_PBE O 08Apr2002                   :

 POSCAR:  C  O Mg  O
  positions in direct lattice
  velocities in cartesian coordinates
|           W    W    AA    RRRRR   N    N  II  N    N   GGGG   !!!           |
|           W    W   A  A   R    R  NN   N  II  NN   N  G    G  !!!           |
|           W    W  A    A  R    R  N N  N  II  N N  N  G       !!!           |
|           W WW W  AAAAAA  RRRRR   N  N N  II  N  N N  G  GGG   !            |
|           WW  WW  A    A  R   R   N   NN  II  N   NN  G    G                |
|           W    W  A    A  R    R  N    N  II  N    N   GGGG   !!!           |
|     Specifying the vdW parameters                                           |
|     VDW_S8 = 1.201                                                          |
|     VDW_A1 = 0.401                                                          |
|     VDW_A2 = 5.029                                                          |
|     in the INCAR file will overwrite the defaults for pbe0. Please make     |
|     sure that is what you intended.                                         |

 ion  position               nearest neighbor table
   1  0.500  0.500  0.766-   2 1.13
   2  0.500  0.500  0.819-   1 1.13
   3  0.250  0.000  0.353-  37 2.09  38 2.09  45 2.09  54 2.09  35 2.09
   4  0.500  0.250  0.353-  37 2.09  38 2.09  46 2.09  53 2.09  36 2.09
   5  0.250  0.250  0.451-  35 2.09  36 2.09  43 2.09  52 2.09  37 2.09  41 2.09
   6  0.500  0.000  0.451-  35 2.09  36 2.09  44 2.09  51 2.09  38 2.09  42 2.09
   7  0.250  0.000  0.550-  42 2.09  41 2.09  49 2.09  58 2.09  35 2.10  39 2.12
   8  0.500  0.250  0.550-  50 2.08  41 2.09  57 2.09  42 2.09  36 2.10  40 2.12
   9  0.250  0.250  0.647-  41 2.08  39 2.09  56 2.09  47 2.09  40 2.09
  10  0.500  0.000  0.647-  40 2.08  48 2.08  42 2.08  39 2.09  55 2.09
  11  0.250  0.500  0.353-  37 2.09  45 2.09  46 2.09  62 2.09  43 2.09
  12  0.500  0.750  0.353-  38 2.09  45 2.09  46 2.09  61 2.09  44 2.09
  13  0.250  0.750  0.451-  35 2.09  43 2.09  44 2.09  60 2.09  45 2.09  49 2.09
  14  0.500  0.500  0.451-  36 2.09  43 2.09  44 2.09  59 2.09  46 2.09  50 2.10
  15  0.250  0.500  0.550-  50 2.08  49 2.09  41 2.09  66 2.09  43 2.10  47 2.12
  16  0.500  0.750  0.550-  50 2.08  49 2.09  65 2.09  42 2.09  44 2.10  48 2.12
  17  0.250  0.750  0.647-  49 2.08  39 2.09  64 2.09  47 2.09  48 2.09
  18  0.500  0.500  0.649-  40 2.10  47 2.10  48 2.10  63 2.10  50 2.12
  19  0.750  0.000  0.353-  38 2.09  53 2.09  54 2.09  61 2.09  51 2.09
  20  0.000  0.250  0.353-  37 2.09  53 2.09  54 2.09  62 2.09  52 2.09
  21  0.750  0.250  0.451-  36 2.09  51 2.09  52 2.09  59 2.09  53 2.09  57 2.09
  22  0.000  0.000  0.451-  35 2.09  51 2.09  52 2.09  60 2.09  54 2.09  58 2.09
  23  0.750  0.000  0.550-  42 2.09  57 2.09  65 2.09  58 2.09  51 2.10  55 2.12
  24  0.000  0.250  0.550-  66 2.09  57 2.09  41 2.09  58 2.09  52 2.10  56 2.12
  25  0.750  0.250  0.647-  57 2.08  56 2.09  55 2.09  40 2.09  63 2.09
  26  0.000  0.000  0.647-  58 2.08  55 2.09  56 2.09  39 2.09  64 2.09
  27  0.750  0.500  0.353-  46 2.09  53 2.09  61 2.09  62 2.09  59 2.09
  28  0.000  0.750  0.353-  45 2.09  54 2.09  61 2.09  62 2.09  60 2.09
  29  0.750  0.750  0.451-  44 2.09  51 2.09  59 2.09  60 2.09  61 2.09  65 2.09
  30  0.000  0.500  0.451-  43 2.09  52 2.09  59 2.09  60 2.09  62 2.09  66 2.09
  31  0.750  0.500  0.550-  50 2.08  57 2.09  65 2.09  66 2.09  59 2.10  63 2.12
  32  0.000  0.750  0.550-  66 2.09  65 2.09  49 2.09  58 2.09  60 2.10  64 2.12
  33  0.750  0.750  0.647-  65 2.08  64 2.09  55 2.09  48 2.09  63 2.09
  34  0.000  0.500  0.647-  47 2.08  63 2.08  66 2.08  64 2.09  56 2.09
  35  0.250  0.000  0.451-   5 2.09   6 2.09  13 2.09  22 2.09   3 2.09   7 2.10
  36  0.500  0.250  0.451-   5 2.09   6 2.09  14 2.09  21 2.09   4 2.09   8 2.10
  37  0.250  0.250  0.353-   3 2.09   4 2.09  11 2.09  20 2.09   5 2.09
  38  0.500  0.000  0.353-   3 2.09   4 2.09  12 2.09  19 2.09   6 2.09
  39  0.250  0.000  0.650-  26 2.09  17 2.09   9 2.09  10 2.09   7 2.12
  40  0.500  0.249  0.650-  10 2.08   9 2.09  25 2.09  18 2.10   8 2.12
  41  0.250  0.250  0.549-   9 2.08   8 2.09  15 2.09   7 2.09  24 2.09   5 2.09
  42  0.500  0.000  0.549-  10 2.08   7 2.09  23 2.09  16 2.09   8 2.09   6 2.09
  43  0.250  0.500  0.451-   5 2.09  13 2.09  14 2.09  30 2.09  11 2.09  15 2.10
  44  0.500  0.750  0.451-   6 2.09  13 2.09  14 2.09  29 2.09  12 2.09  16 2.10
  45  0.250  0.750  0.353-   3 2.09  11 2.09  12 2.09  28 2.09  13 2.09
  46  0.500  0.500  0.353-   4 2.09  11 2.09  12 2.09  27 2.09  14 2.09
  47  0.249  0.500  0.650-  34 2.08  17 2.09   9 2.09  18 2.10  15 2.12
  48  0.500  0.751  0.650-  10 2.08  17 2.09  33 2.09  18 2.10  16 2.12
  49  0.250  0.750  0.549-  17 2.08  16 2.09  15 2.09   7 2.09  32 2.09  13 2.09
  50  0.500  0.500  0.550-   8 2.08  15 2.08  16 2.08  31 2.08  14 2.10  18 2.12
  51  0.750  0.000  0.451-   6 2.09  21 2.09  22 2.09  29 2.09  19 2.09  23 2.10
  52  0.000  0.250  0.451-   5 2.09  21 2.09  22 2.09  30 2.09  20 2.09  24 2.10
  53  0.750  0.250  0.353-   4 2.09  19 2.09  20 2.09  27 2.09  21 2.09
  54  0.000  0.000  0.353-   3 2.09  19 2.09  20 2.09  28 2.09  22 2.09
  55  0.750  0.000  0.650-  26 2.09  25 2.09  33 2.09  10 2.09  23 2.12
  56  0.000  0.250  0.650-  26 2.09  25 2.09   9 2.09  34 2.09  24 2.12
  57  0.750  0.250  0.549-  25 2.08  31 2.09   8 2.09  23 2.09  24 2.09  21 2.09
  58  0.000  0.000  0.549-  26 2.08  23 2.09  24 2.09   7 2.09  32 2.09  22 2.09
  59  0.750  0.500  0.451-  14 2.09  21 2.09  29 2.09  30 2.09  27 2.09  31 2.10
  60  0.000  0.750  0.451-  13 2.09  22 2.09  29 2.09  30 2.09  28 2.09  32 2.10
  61  0.750  0.750  0.353-  12 2.09  19 2.09  27 2.09  28 2.09  29 2.09
  62  0.000  0.500  0.353-  11 2.09  20 2.09  27 2.09  28 2.09  30 2.09
  63  0.751  0.500  0.650-  34 2.08  33 2.09  25 2.09  18 2.10  31 2.12
  64  0.000  0.750  0.650-  26 2.09  17 2.09  33 2.09  34 2.09  32 2.12
  65  0.750  0.750  0.549-  33 2.08  31 2.09  16 2.09  32 2.09  23 2.09  29 2.09
  66  0.000  0.500  0.549-  34 2.08  32 2.09  24 2.09  31 2.09  15 2.09  30 2.09

  LATTYP: Found a simple tetragonal cell.
 ALAT       =     8.3491118266
 C/A-ratio  =     2.5465982863

  Lattice vectors:

 A1 = (   8.3491118266,   0.0000000000,   0.0000000000)
 A2 = (   0.0000000000,   8.3491118266,   0.0000000000)
 A3 = (   0.0000000000,   0.0000000000,  21.2618338699)

Analysis of symmetry for initial positions (statically):
 Subroutine PRICEL returns:
 Original cell was already a primitive cell.

 Routine SETGRP: Setting up the symmetry group for a
 simple tetragonal supercell.

 Subroutine GETGRP returns: Found  8 space group operations
 (whereof  8 operations were pure point group operations)
 out of a pool of 16 trial point group operations.

The static configuration has the point symmetry C_4v.

Analysis of symmetry for dynamics (positions and initial velocities):
 Subroutine PRICEL returns:
 Original cell was already a primitive cell.

[...]

The dynamic configuration has the point symmetry C_4v.

Analysis of constrained symmetry for selective dynamics:
 Subroutine PRICEL returns:
 Original cell was already a primitive cell.

 Routine SETGRP: Setting up the symmetry group for a
 simple tetragonal supercell.

 Subroutine GETGRP returns: Found  8 space group operations
 (whereof  8 operations were pure point group operations)
 out of a pool of 16 trial point group operations.

The constrained configuration has the point symmetry C_4v.

 Subroutine INISYM returns: Found  8 space group operations
 (whereof  8 operations are pure point group operations),
 and found     1 'primitive' translations

                                     Primitive cell

  volume of cell :    1482.1129

  direct lattice vectors                    reciprocal lattice vectors
     8.349111827  0.000000000  0.000000000     0.119773219  0.000000000  0.000000000
     0.000000000  8.349111827  0.000000000     0.000000000  0.119773219  0.000000000
     0.000000000  0.000000000 21.261833870     0.000000000  0.000000000  0.047032632

  length of vectors
     8.349111827  8.349111827 21.261833870     0.119773219  0.119773219  0.047032632

  position of ions in fractional coordinates (direct lattice)
     0.500000000  0.500000000  0.765950645
     0.500000000  0.500000000  0.819088148
     0.250000000  0.000000000  0.352744737
     0.500000000  0.250000000  0.352744737
     0.250000000  0.250000000  0.450914912
     0.500000000  0.000000000  0.450914912
     0.250126707  0.000000000  0.549606520
     0.500000000  0.250385208  0.549848982
     0.249782306  0.249782306  0.647054444
     0.500000000  0.000000000  0.647128461
     0.250000000  0.500000000  0.352744737
     0.500000000  0.750000000  0.352744737
[...]
   2.08727796  2.08727796  9.58727796
   4.17455591  0.00000000  9.58727796
   2.08833585  0.00000000 11.68564251
   4.17455591  2.09049410 11.69079771
   2.08546040  2.08546040 13.75756409
   4.17455591  0.00000000 13.75913783
   2.08727796  4.17455591  7.50000000
   4.17455591  6.26183387  7.50000000
   2.08727796  6.26183387  9.58727796
   4.17455591  4.17455591  9.58727796
   2.09049410  4.17455591 11.69079771
   4.17455591  6.25861772 11.69079771
   2.08546040  6.26365142 13.75756409
   4.17455591  4.17455591 13.80906190
   6.26183387  0.00000000  7.50000000
   0.00000000  2.08727796  7.50000000
   6.26183387  2.08727796  9.58727796
   0.00000000  0.00000000  9.58727796
   6.26077598  0.00000000 11.68564251
   0.00000000  2.08833585 11.68564251
   6.26365142  2.08546040 13.75756409
   0.00000000  0.00000000 13.75948028
   6.26183387  4.17455591  7.50000000
   0.00000000  6.26183387  7.50000000
   6.26183387  6.26183387  9.58727796
   0.00000000  4.17455591  9.58727796
   6.25861772  4.17455591 11.69079771
   0.00000000  6.26077598 11.68564251
   6.26365142  6.26365142 13.75756409
   0.00000000  4.17455591 13.75913783
   2.08727796  0.00000000  9.58727796
   4.17455591  2.08727796  9.58727796
   2.08727796  2.08727796  7.50000000
   4.17455591  0.00000000  7.50000000
   2.08541955  0.00000000 13.80987194
   4.17455591  2.07762739 13.81210630
   2.08732041  2.08732041 11.68122074
   4.17455591  0.00000000 11.67984707
   2.08727796  4.17455591  9.58727796
   4.17455591  6.26183387  9.58727796
   2.08727796  6.26183387  7.50000000
   4.17455591  4.17455591  7.50000000
   2.07762739  4.17455591 13.81210630
   4.17455591  6.27148443 13.81210630
   2.08732041  6.26179142 11.68122074
   4.17455591  4.17455591 11.69108697
   6.26183387  0.00000000  9.58727796
   0.00000000  2.08727796  9.58727796
   6.26183387  2.08727796  7.50000000
   0.00000000  0.00000000  7.50000000
   6.26369228  0.00000000 13.80987194
   0.00000000  2.08541955 13.80987194
   6.26179142  2.08732041 11.68122074
   0.00000000  0.00000000 11.67940333
   6.26183387  4.17455591  9.58727796
   0.00000000  6.26183387  9.58727796
   6.26183387  6.26183387  7.50000000
   0.00000000  4.17455591  7.50000000
   6.27148443  4.17455591 13.81210630
   0.00000000  6.26369228 13.80987194
   6.26179142  6.26179142 11.68122074
   0.00000000  4.17455591 11.67984707

--------------------------------------- Iteration      FINAL  ---------------------------------------

--------------------OUTCAR has been truncated-------------------------

[...]

--------------------OUTCAR has been truncated-------------------------

  FORCE on cell =-STRESS in cart. coord.  units (eV):
  Direction    XX          YY          ZZ          XY          YZ          ZX
  Alpha Z   931.06396   931.06396   931.06396
  Ewald  162499.44104162499.44104************     0.00000    -0.00000     0.00000
  Hartree172948.79464172948.79464************    -0.00000    -0.00000    -0.00000
  E(xc)   -1891.39762 -1891.39762 -1893.82430     0.00000    -0.00000     0.00000
  Local  ************************345321.86031    -0.00000     0.00000    -0.00000
  n-local  -728.61889  -728.91269  -762.14750     0.00001    -0.00000     0.00000
  augment   832.86849   832.86849   821.44662    -0.00000     0.00000    -0.00000
  Kinetic  7529.89661  7531.52004  7550.69666     0.00000     0.00001     0.00000
  Fock    -2519.15398 -2519.31534 -2518.42187    -0.00000     0.00000     0.00000
  vdW        -9.19946    -9.19947    -6.33140    -0.00000    -0.00000    -0.00000
  Total     -29.92074   -29.92074    -2.32717     0.00000     0.00000     0.00000
  in kB     -32.34459   -32.34459    -2.51569     0.00000     0.00000     0.00000

 VOLUME and BASIS-vectors are now :
  energy-cutoff  :      600.00
  volume of cell :     1482.11
      direct lattice vectors                 reciprocal lattice vectors
     8.349111827  0.000000000  0.000000000     0.119773219  0.000000000  0.000000000
     0.000000000  8.349111827  0.000000000     0.000000000  0.119773219  0.000000000
     0.000000000  0.000000000 21.261833870     0.000000000  0.000000000  0.047032632

  length of vectors
     8.349111827  8.349111827 21.261833870     0.119773219  0.119773219  0.047032632

 FORCES acting on ions:
    Electron-Ion                     Ewald-Force                    Non-Local-Force
   0.102E-12 0.817E-12 -.850E+03   0.311E-13 0.189E-13 0.822E+03   -.143E-22 0.728E-23 0.259E+02
   0.390E-12 0.545E-13 -.148E+04   -.247E-14 -.270E-14 0.154E+04   0.566E-24 -.239E-23 -.541E+02
   0.880E-01 -.374E-12 0.214E+04   -.857E-01 -.502E-13 -.213E+04   -.141E-02 0.419E-22 -.682E+01
   0.613E-12 0.690E-01 0.214E+04   -.841E-13 -.651E-01 -.213E+04   -.430E-22 -.252E-02 -.683E+01
   0.275E+00 0.275E+00 0.734E+03   -.254E+00 -.254E+00 -.735E+03   -.127E-01 -.127E-01 0.449E+00
   0.528E-12 -.118E-11 0.735E+03   0.176E-13 0.300E-11 -.735E+03   -.314E-23 -.713E-24 0.403E+00
   0.283E+01 -.929E-12 -.659E+03   -.280E+01 0.307E-11 0.660E+03   -.287E-01 0.188E-22 -.138E+00
   -.251E-12 0.350E+01 -.654E+03   0.199E-10 -.337E+01 0.655E+03   0.334E-22 -.110E+00 -.253E+00
   0.175E+02 0.175E+02 -.204E+04   -.176E+02 -.176E+02 0.203E+04   0.785E-01 0.785E-01 0.585E+01
   0.590E-12 -.101E-11 -.205E+04   -.357E-13 0.319E-11 0.204E+04   0.187E-22 0.161E-22 0.577E+01
   0.690E-01 -.123E-12 0.214E+04   -.651E-01 -.116E-11 -.213E+04   -.252E-02 0.749E-22 -.683E+01
   0.625E-12 -.690E-01 0.214E+04   0.227E-12 0.651E-01 -.213E+04   -.109E-21 0.252E-02 -.683E+01
   0.275E+00 -.275E+00 0.734E+03   -.254E+00 0.254E+00 -.735E+03   -.127E-01 0.127E-01 0.449E+00
   -.184E-12 0.817E-12 0.734E+03   0.455E-11 -.108E-10 -.735E+03   0.109E-22 0.130E-22 0.529E+00
   0.350E+01 -.860E-12 -.654E+03   -.337E+01 0.319E-11 0.655E+03   -.110E+00 -.214E-22 -.253E+00
   -.250E-12 -.350E+01 -.654E+03   0.231E-10 0.337E+01 0.655E+03   0.401E-22 0.110E+00 -.253E+00
   0.175E+02 -.175E+02 -.204E+04   -.176E+02 0.176E+02 0.203E+04   0.785E-01 -.785E-01 0.585E+01
   -.116E-12 -.118E-11 -.198E+04   0.172E-10 0.286E-11 0.197E+04   0.111E-22 -.178E-22 0.414E+01
   -.880E-01 -.402E-12 0.214E+04   0.857E-01 -.367E-14 -.213E+04   0.141E-02 -.350E-22 -.682E+01
   -.462E-13 0.880E-01 0.214E+04   0.868E-12 -.857E-01 -.213E+04   -.398E-22 -.141E-02 -.682E+01
   -.275E+00 0.275E+00 0.734E+03   0.254E+00 -.254E+00 -.735E+03   0.127E-01 -.127E-01 0.449E+00
   -.789E-13 -.885E-13 0.734E+03   -.161E-11 0.833E-13 -.734E+03   0.667E-23 -.439E-23 0.415E+00
   -.283E+01 -.104E-11 -.659E+03   0.280E+01 0.307E-11 0.660E+03   0.287E-01 0.160E-23 -.138E+00
   -.870E-12 0.283E+01 -.659E+03   0.304E-11 -.280E+01 0.660E+03   0.281E-22 -.287E-01 -.138E+00
   -.175E+02 0.175E+02 -.204E+04   0.176E+02 -.176E+02 0.203E+04   -.785E-01 0.785E-01 0.585E+01
   -.644E-13 -.340E-13 -.206E+04   -.165E-11 -.194E-11 0.205E+04   -.259E-22 0.367E-23 0.578E+01
   -.690E-01 0.568E-11 0.214E+04   0.651E-01 0.410E-12 -.213E+04   0.252E-02 0.142E-21 -.683E+01
   -.547E-13 -.880E-01 0.214E+04   0.111E-11 0.857E-01 -.213E+04   0.460E-22 0.141E-02 -.682E+01
   -.275E+00 -.275E+00 0.734E+03   0.254E+00 0.254E+00 -.735E+03   0.127E-01 0.127E-01 0.449E+00
   -.850E-12 0.722E-12 0.735E+03   0.167E-10 0.172E-11 -.735E+03   0.754E-23 -.964E-24 0.403E+00
   -.350E+01 -.570E-11 -.654E+03   0.337E+01 0.304E-11 0.655E+03   0.110E+00 -.104E-22 -.253E+00
   -.869E-12 -.283E+01 -.659E+03   0.318E-11 0.280E+01 0.660E+03   -.413E-22 0.287E-01 -.138E+00
   -.175E+02 -.175E+02 -.204E+04   0.176E+02 0.176E+02 0.203E+04   -.785E-01 -.785E-01 0.585E+01
   -.901E-12 -.102E-12 -.205E+04   0.317E-11 0.117E-12 0.204E+04   0.145E-23 -.379E-22 0.577E+01
   0.307E+00 0.502E-13 0.550E+03   -.303E+00 0.629E-12 -.550E+03   -.530E-02 -.330E-22 -.799E-01
   0.110E-12 0.192E+00 0.550E+03   0.614E-12 -.214E+00 -.550E+03   0.996E-23 0.255E-01 -.127E+00
   0.582E-01 0.582E-01 0.160E+04   -.552E-01 -.552E-01 -.161E+04   -.367E-02 -.367E-02 0.300E+01
   0.306E-12 -.408E-12 0.160E+04   0.119E-12 0.141E-12 -.161E+04   0.454E-23 -.139E-23 0.300E+01
   0.732E+01 -.735E-12 -.156E+04   -.725E+01 -.484E-12 0.157E+04   -.648E-01 -.583E-23 -.453E+01
   0.207E-12 0.228E+02 -.153E+04   0.156E-11 -.225E+02 0.154E+04   0.460E-23 -.278E+00 -.451E+01
   0.236E+01 0.236E+01 -.486E+03   -.235E+01 -.235E+01 0.485E+03   -.142E-01 -.142E-01 0.359E+00
   0.238E-12 -.490E-11 -.486E+03   0.973E-11 0.940E-11 0.486E+03   -.796E-24 -.123E-22 0.309E+00
   0.192E+00 0.650E-12 0.550E+03   -.214E+00 -.231E-12 -.550E+03   0.255E-01 -.167E-23 -.127E+00
   0.123E-12 -.192E+00 0.550E+03   -.275E-12 0.214E+00 -.550E+03   -.152E-23 -.255E-01 -.127E+00
   0.582E-01 -.582E-01 0.160E+04   -.552E-01 0.552E-01 -.161E+04   -.367E-02 0.367E-02 0.300E+01
   0.275E-12 0.926E-12 0.160E+04   0.115E-13 -.151E-12 -.161E+04   0.695E-23 -.269E-23 0.300E+01
   0.228E+02 -.817E-13 -.153E+04   -.225E+02 0.537E-12 0.154E+04   -.278E+00 -.603E-23 -.451E+01
   0.187E-12 -.228E+02 -.153E+04   0.258E-11 0.225E+02 0.154E+04   -.148E-22 0.278E+00 -.451E+01
   0.236E+01 -.236E+01 -.486E+03   -.235E+01 0.235E+01 0.485E+03   -.142E-01 0.142E-01 0.359E+00
   -.474E-11 -.409E-11 -.488E+03   0.983E-11 0.190E-10 0.488E+03   -.159E-22 -.179E-22 -.185E+00
   -.307E+00 0.596E-13 0.550E+03   0.303E+00 0.617E-12 -.550E+03   0.530E-02 0.550E-23 -.799E-01
   -.194E-12 0.307E+00 0.550E+03   0.226E-11 -.303E+00 -.550E+03   0.151E-22 -.530E-02 -.799E-01
   -.582E-01 0.582E-01 0.160E+04   0.552E-01 -.552E-01 -.161E+04   0.367E-02 -.367E-02 0.300E+01
   0.172E-13 0.470E-12 0.160E+04   0.406E-12 0.419E-14 -.161E+04   -.338E-23 0.747E-23 0.301E+01
   -.732E+01 -.722E-12 -.156E+04   0.725E+01 -.527E-12 0.157E+04   0.648E-01 0.104E-22 -.453E+01
   -.161E-12 0.732E+01 -.156E+04   -.472E-12 -.725E+01 0.157E+04   0.966E-23 -.648E-01 -.453E+01
   -.236E+01 0.236E+01 -.486E+03   0.235E+01 -.235E+01 0.485E+03   0.142E-01 -.142E-01 0.359E+00
   -.763E-13 -.870E-12 -.490E+03   0.183E-11 0.966E-11 0.490E+03   0.383E-23 -.719E-23 0.296E+00
   -.192E+00 0.892E-11 0.550E+03   0.214E+00 -.291E-12 -.550E+03   -.255E-01 0.769E-23 -.127E+00
   -.192E-12 -.307E+00 0.550E+03   0.147E-11 0.303E+00 -.550E+03   0.604E-22 0.530E-02 -.799E-01
   -.582E-01 -.582E-01 0.160E+04   0.552E-01 0.552E-01 -.161E+04   0.367E-02 0.367E-02 0.300E+01
   -.166E-13 0.899E-12 0.160E+04   0.338E-12 -.236E-12 -.161E+04   0.235E-23 0.194E-22 0.300E+01
   -.228E+02 0.411E-11 -.153E+04   0.225E+02 0.505E-12 0.154E+04   0.278E+00 0.185E-23 -.451E+01
   -.161E-12 -.732E+01 -.156E+04   0.555E-12 0.725E+01 0.157E+04   -.127E-22 0.648E-01 -.453E+01
   -.236E+01 -.236E+01 -.486E+03   0.235E+01 0.235E+01 0.485E+03   0.142E-01 0.142E-01 0.359E+00
   -.499E-11 -.487E-12 -.486E+03   0.190E-10 0.142E-12 0.486E+03   -.512E-22 0.339E-23 0.309E+00
   0.111E-11 -.194E-10 0.572E+02   0.103E-12 -.151E-12 0.557E-11   -.156E-16 -.711E-16 -.468E+02

 POSITION                                       TOTAL-FORCE (eV/Angst)
      4.17456      4.17456     16.28552        -0.000000      0.000000      0.007457
      4.17456      4.17456     17.41532        -0.000000     -0.000000     -0.002283
      2.08728      0.00000      7.50000         0.000627      0.000000      0.426177
      4.17456      2.08728      7.50000        -0.000000      0.000954      0.428264
      2.08728      2.08728      9.58728         0.006122      0.006122      0.058180
      4.17456      0.00000      9.58728        -0.000000     -0.000000      0.064928
      2.08834      0.00000     11.68564        -0.003687      0.000000      0.000845
      4.17456      2.09049     11.69080        -0.000000      0.008194      0.002612
      2.08546      2.08546     13.75756         0.003789      0.003789      0.000705
      4.17456      0.00000     13.75914        -0.000000      0.000000      0.005032
      2.08728      4.17456      7.50000         0.000954     -0.000000      0.428264
      4.17456      6.26183      7.50000        -0.000000     -0.000954      0.428264
      2.08728      6.26183      9.58728         0.006122     -0.006122      0.058180
      4.17456      4.17456      9.58728        -0.000000      0.000000      0.084190
      2.09049      4.17456     11.69080         0.008194     -0.000000      0.002612
      4.17456      6.25862     11.69080        -0.000000     -0.008194      0.002612
      2.08546      6.26365     13.75756         0.003789     -0.003789      0.000705
      4.17456      4.17456     13.80906        -0.000000      0.000000     -0.003253
      6.26183      0.00000      7.50000        -0.000627      0.000000      0.426177
      0.00000      2.08728      7.50000        -0.000000      0.000627      0.426177
      6.26183      2.08728      9.58728        -0.006122      0.006122      0.058180
      0.00000      0.00000      9.58728        -0.000000      0.000000      0.053160
      6.26078      0.00000     11.68564         0.003687     -0.000000      0.000845
      0.00000      2.08834     11.68564        -0.000000     -0.003687      0.000845
      6.26365      2.08546     13.75756        -0.003789      0.003789      0.000705
      0.00000      0.00000     13.75948        -0.000000      0.000000      0.006940
      6.26183      4.17456      7.50000        -0.000954      0.000000      0.428264
      0.00000      6.26183      7.50000        -0.000000     -0.000627      0.426177
      6.26183      6.26183      9.58728        -0.006122     -0.006122      0.058180
      0.00000      4.17456      9.58728        -0.000000      0.000000      0.064928
      6.25862      4.17456     11.69080        -0.008194     -0.000000      0.002612
      0.00000      6.26078     11.68564        -0.000000      0.003687      0.000845
      6.26365      6.26365     13.75756        -0.003789     -0.003789      0.000705
      0.00000      4.17456     13.75914        -0.000000     -0.000000      0.005032
      2.08728      0.00000      9.58728        -0.002044      0.000000      0.064735
      4.17456      2.08728      9.58728        -0.000000      0.008087      0.075911
      2.08728      2.08728      7.50000        -0.001272     -0.001272     -0.564556
      4.17456      0.00000      7.50000        -0.000000     -0.000000     -0.564691
      2.08542      0.00000     13.80987        -0.002581      0.000000      0.003028
      4.17456      2.07763     13.81211        -0.000000     -0.004783     -0.001807
      2.08732      2.08732     11.68122        -0.003626     -0.003626     -0.000483
      4.17456      0.00000     11.67985        -0.000000      0.000000     -0.001555
      2.08728      4.17456      9.58728         0.008087      0.000000      0.075911
      4.17456      6.26183      9.58728        -0.000000     -0.008087      0.075911
      2.08728      6.26183      7.50000        -0.001272      0.001272     -0.564556
      4.17456      4.17456      7.50000        -0.000000      0.000000     -0.566296
      2.07763      4.17456     13.81211        -0.004783      0.000000     -0.001807
      4.17456      6.27148     13.81211        -0.000000      0.004783     -0.001807
      2.08732      6.26179     11.68122        -0.003626      0.003626     -0.000483
      4.17456      4.17456     11.69109        -0.000000      0.000000     -0.004559
      6.26183      0.00000      9.58728         0.002044     -0.000000      0.064735
      0.00000      2.08728      9.58728        -0.000000     -0.002044      0.064735
      6.26183      2.08728      7.50000         0.001272     -0.001272     -0.564556
      0.00000      0.00000      7.50000        -0.000000      0.000000     -0.563522
      6.26369      0.00000     13.80987         0.002581      0.000000      0.003028
      0.00000      2.08542     13.80987        -0.000000     -0.002581      0.003028
      6.26179      2.08732     11.68122         0.003626     -0.003626     -0.000483
      0.00000      0.00000     11.67940        -0.000000      0.000000      0.006290
      6.26183      4.17456      9.58728        -0.008087     -0.000000      0.075911
      0.00000      6.26183      9.58728        -0.000000      0.002044      0.064735
      6.26183      6.26183      7.50000         0.001272      0.001272     -0.564556
      0.00000      4.17456      7.50000        -0.000000      0.000000     -0.564691
      6.27148      4.17456     13.81211         0.004783     -0.000000     -0.001807
      0.00000      6.26369     13.80987        -0.000000      0.002581      0.003028
      6.26179      6.26179     11.68122         0.003626      0.003626     -0.000483
      0.00000      4.17456     11.67985        -0.000000      0.000000     -0.001555
    total drift:                                0.000000     -0.000000      0.008808

  FREE ENERGIE OF THE ION-ELECTRON SYSTEM (eV)
  free  energy   TOTEN  =      -491.84538959 eV

  energy  without entropy=     -491.84538959  energy(sigma->0) =     -491.84538959