 vasp.6.3.0 20Jan22 (build Apr  1 2022 16:44:48) gamma-only
 executed on        HPECrayEX_GCC date 2023.03.12  01:32:19

 INCAR:
   SYSTEM = MgO-rocksalt
   ISMEAR = 0
   SIGMA = 0.05
   EDIFF = 1E-6
   ALGO = ALL
   ISTART = 0
   IBRION = -1
   NSW = 0
   ISYM = 0
   DIPOL = 0.5 0.5 0.5
   IDIPOL = 3
   LDIPOL = .TRUE.
   LHFCALC = .TRUE.
   GGA = B5
   AEXX = 0.2
   AGGAX = 0.72
   AGGAC = 0.81
   ALDAC = 0.19
   IVDW = 1
   VDW_S6 = 1.05
   VDW_C6 = 1.75 0.70 0.14 0.63 0.70
   VDW_R0 = 1.452 1.342 1.001 1.243 1.342
   ENCUT = 520
   PREC = Accurate
   LASPH = .TRUE.
   LREAL = Auto
   ISPIN = 1
   NELM = 200
   NELMIN = 8
   NCORE = 8
   KPAR = 1
   LWAVE = .FALSE.
   LCHARG = .FALSE.

 POTCAR:    PAW_PBE C 08Apr2002
 POTCAR:    PAW_PBE O 08Apr2002
 POTCAR:    PAW_PBE H 15Jun2001
 POTCAR:    PAW_PBE Mg_pv 13Apr2007
 POTCAR:    PAW_PBE O 08Apr2002
 POTCAR:    PAW_PBE C 08Apr2002
   VRHFIN =C: s2p2

   TITEL  = PAW_PBE C 08Apr2002
   POMASS =   12.011; ZVAL   =    4.000    mass and valenz
   ENMAX  =  400.000; ENMIN  =  300.000 eV

[...]

   TITEL  = PAW_PBE H 15Jun2001
   POMASS =    1.000; ZVAL   =    1.000    mass and valenz
   ENMAX  =  250.000; ENMIN  =  200.000 eV

   TITEL  = PAW_PBE Mg_pv 13Apr2007
   POMASS =   24.305; ZVAL   =    8.000    mass and valenz
   ENMAX  =  403.929; ENMIN  =  302.947 eV

   TITEL  = PAW_PBE O 08Apr2002
   POMASS =   16.000; ZVAL   =    6.000    mass and valenz
   ENMAX  =  400.000; ENMIN  =  300.000 eV

 Optimization of the real space projectors (new method)

 maximal supplied QI-value         = 25.13
 optimisation between [QCUT,QGAM] = [ 11.56, 23.12] = [ 37.43,149.72] Ry
 Optimized for a Real-space Cutoff    1.04 Angstroem

   l    n(q)    QCUT    max X(q) W(low)/X(q) W(high)/X(q)  e(spline)
   0      7    11.561   115.676    0.20E-03    0.60E-03    0.21E-06
   0      7    11.561    87.132    0.20E-03    0.59E-03    0.21E-06
   1      7    11.561     4.429    0.23E-03    0.35E-03    0.15E-06
   1      7    11.561     2.733    0.18E-03    0.25E-03    0.12E-06
 Optimization of the real space projectors (new method)

[...]

   l    n(q)    QCUT    max X(q) W(low)/X(q) W(high)/X(q)  e(spline)
   1      8    11.527     2.974    0.44E-04    0.56E-04    0.12E-06
   1      8    11.527     4.279    0.12E-03    0.12E-03    0.26E-06
   0      9    11.527    16.381    0.46E-04    0.64E-04    0.78E-07
   0      9    11.527     5.611    0.26E-04    0.43E-04    0.55E-07
   2      8    11.527     4.652    0.22E-03    0.72E-04    0.47E-07
 Optimization of the real space projectors (new method)

 maximal supplied QI-value         = 24.76
 optimisation between [QCUT,QGAM] = [ 11.64, 23.27] = [ 37.91,151.63] Ry
 Optimized for a Real-space Cutoff    1.14 Angstroem

   l    n(q)    QCUT    max X(q) W(low)/X(q) W(high)/X(q)  e(spline)
   0      8    11.635    20.381    0.10E-03    0.33E-03    0.24E-06
   0      8    11.635    15.268    0.11E-03    0.35E-03    0.26E-06
   1      7    11.635     5.964    0.24E-03    0.31E-03    0.30E-06
   1      7    11.635     5.382    0.22E-03    0.25E-03    0.26E-06
|               ----> ADVICE to this user running VASP <----                  |
|     You enforced a specific xc type in the INCAR file but a different       |
|     type was found in the POTCAR file.                                      |
|     I HOPE YOU KNOW WHAT YOU ARE DOING!                                     |

  PAW_PBE C 08Apr2002                   :
  PAW_PBE O 08Apr2002                   :
  PAW_PBE H 15Jun2001                   :
  PAW_PBE Mg_pv 13Apr2007               :
  PAW_PBE O 08Apr2002                   :

 POSCAR:  C  O  H Mg  O
  positions in direct lattice
 exchange correlation table for  LEXCH =       12
   RHO(1)=    0.500       N(1)  =     2000
   RHO(2)=  100.500       N(2)  =     4000

 ion  position               nearest neighbor table
   1  0.529  0.556  0.792-  11 1.09   9 1.09  12 1.10   5 1.43
   2  0.319  0.400  0.792-  13 1.09  16 1.09  15 1.10   6 1.43
   3  0.474  0.193  0.793-  17 1.09  20 1.09  19 1.10   7 1.43
   4  0.682  0.345  0.791-  23 1.09  21 1.09  24 1.10   8 1.43
   5  0.508  0.488  0.754-  10 0.99   1 1.43 144 2.23
   6  0.387  0.382  0.754-  14 0.98   2 1.43  55 2.22
   7  0.492  0.260  0.754-  18 0.99   3 1.43 120 2.22
   8  0.614  0.366  0.754-  22 0.99   4 1.43 103 2.22
   9  0.520  0.543  0.841-   1 1.09
  10  0.552  0.449  0.756-   5 0.99
  11  0.590  0.573  0.783-   1 1.09
  12  0.489  0.605  0.777-   1 1.10
  13  0.332  0.391  0.842-   2 1.09
  14  0.425  0.426  0.757-   6 0.98
  15  0.300  0.462  0.785-   2 1.10
  16  0.270  0.361  0.778-   2 1.09
  17  0.484  0.206  0.842-   3 1.09
  18  0.448  0.299  0.756-   7 0.99
  19  0.412  0.174  0.785-   3 1.10
  20  0.513  0.145  0.778-   3 1.09
  21  0.669  0.354  0.841-   4 1.09
  22  0.575  0.322  0.756-   8 0.99
  23  0.699  0.284  0.783-   4 1.09
  24  0.731  0.384  0.776-   4 1.10
  25  0.125  0.000  0.352- 155 2.10 156 2.10 172 2.10 195 2.10 153 2.10
  26  0.250  0.125  0.352- 155 2.10 156 2.10 164 2.10 171 2.10 154 2.10
  27  0.125  0.125  0.451- 153 2.10 154 2.10 161 2.10 170 2.10 155 2.10 159 2.10
  28  0.250  0.000  0.451- 153 2.10 154 2.10 169 2.10 194 2.10 156 2.10 160 2.10
  29  0.125  0.000  0.550- 159 2.10 160 2.10 199 2.10 176 2.10 153 2.11 157 2.13
  30  0.250  0.125  0.550- 168 2.10 175 2.10 160 2.10 159 2.10 154 2.11 158 2.14
  31  0.125  0.125  0.647- 159 2.09 158 2.10 165 2.10 174 2.10 157 2.10
  32  0.250  1.000  0.647- 160 2.09 158 2.09 173 2.10 198 2.10 157 2.10
  33  0.125  0.250  0.352- 155 2.10 163 2.10 164 2.10 180 2.10 161 2.10
  34  0.250  0.375  0.352- 163 2.10 164 2.10 179 2.10 188 2.10 162 2.10
  35  0.125  0.375  0.451- 161 2.10 162 2.10 178 2.10 185 2.10 163 2.10 167 2.10
  36  0.250  0.250  0.451- 168 2.10 161 2.10 162 2.10 154 2.10 177 2.10 164 2.10
  37  0.125  0.250  0.550- 168 2.09 184 2.10 167 2.10 159 2.10 161 2.11 165 2.14
  38  0.250  0.375  0.550- 183 2.08 168 2.10 192 2.10 162 2.11 167 2.11 166 2.13
  39  0.125  0.375  0.647- 167 2.08 166 2.08 182 2.10 189 2.10 165 2.10
  40  0.250  0.250  0.646- 168 2.07 181 2.08 165 2.10 158 2.11 166 2.11
  41  0.375  0.000  0.352- 156 2.10 171 2.10 211 2.10 236 2.10 169 2.10
  42  0.000  0.125  0.352- 155 2.10 172 2.10 180 2.10 235 2.10 170 2.10
  43  0.375  0.125  0.451- 175 2.10 169 2.10 154 2.10 177 2.10 234 2.10 171 2.10
  44  0.000  0.000  0.451- 153 2.10 170 2.10 210 2.10 233 2.10 172 2.10 176 2.11
  45  0.375  1.000  0.550- 175 2.09 215 2.10 240 2.10 160 2.10 169 2.11 173 2.14
  46  0.000  0.125  0.550- 159 2.10 239 2.10 184 2.10 176 2.10 170 2.11 174 2.13
  47  0.375  0.125  0.646- 175 2.07 181 2.08 173 2.10 158 2.11 238 2.11
  48  0.000  1.000  0.647- 176 2.09 157 2.10 237 2.10 174 2.10 214 2.10
  49  0.375  0.250  0.352- 164 2.10 171 2.10 179 2.10 244 2.10 177 2.10
  50  0.000  0.375  0.352- 163 2.10 180 2.10 204 2.10 243 2.10 178 2.10
  51  0.375  0.375  0.451- 162 2.10 177 2.10 201 2.10 242 2.10 179 2.10 183 2.11
  52  0.000  0.250  0.451- 161 2.10 170 2.10 178 2.10 241 2.10 180 2.10 184 2.11
  53  0.376  0.251  0.550- 248 2.09 183 2.09 181 2.10 168 2.12 177 2.12 175 2.12
  54  0.000  0.375  0.550- 167 2.10 247 2.10 184 2.10 208 2.10 178 2.11 182 2.13
  55  0.375  0.375  0.650- 246 2.11 166 2.11 181 2.12 205 2.13 183 2.15   6 2.22
  56  0.000  0.250  0.647- 184 2.08 165 2.10 245 2.10 174 2.10 182 2.10
  57  0.125  0.500  0.352- 163 2.10 187 2.10 188 2.10 204 2.10 185 2.10
  58  0.250  0.625  0.352- 187 2.10 188 2.10 196 2.10 203 2.10 186 2.10
  59  0.125  0.625  0.451- 185 2.10 186 2.10 193 2.10 202 2.10 187 2.10 191 2.10
  60  0.250  0.500  0.451- 192 2.10 185 2.10 186 2.10 162 2.10 201 2.10 188 2.10
[...]
 266  0.500  0.625  0.451-  75 2.10 123 2.10 140 2.10 148 2.10 138 2.10 142 2.11
 267  0.875  0.625  0.352-  74 2.10 122 2.10 137 2.10 145 2.10 139 2.10
 268  0.500  0.500  0.352-  73 2.10 114 2.10 121 2.10 138 2.10 140 2.10
 269  0.875  0.500  0.650-  80 2.10 143 2.10 128 2.10 119 2.10 141 2.14
 270  0.500  0.626  0.650- 152 2.08  79 2.11 127 2.11 144 2.12 142 2.13
 271  0.875  0.625  0.549- 143 2.09  78 2.10 149 2.10 126 2.10 141 2.10 139 2.10
 272  0.500  0.500  0.550- 142 2.09 125 2.09  77 2.09 118 2.11 140 2.11 144 2.15
 273  0.875  0.750  0.451-  84 2.10 132 2.10 139 2.10 147 2.10 145 2.10 149 2.11
 274  0.500  0.875  0.451-  83 2.10 108 2.10 131 2.10 148 2.10 146 2.10 150 2.11
 275  0.875  0.875  0.352-  82 2.10 105 2.10 130 2.10 145 2.10 147 2.10
 276  0.500  0.750  0.352-  81 2.10 129 2.10 138 2.10 146 2.10 148 2.10
 277  0.875  0.750  0.650-  88 2.10 151 2.10 143 2.10 136 2.10 149 2.13
 278  0.500  0.875  0.650- 152 2.10 112 2.10 135 2.10  87 2.10 150 2.13
 279  0.875  0.875  0.549- 151 2.09  86 2.10 109 2.10 149 2.10 134 2.10 147 2.10
 280  0.500  0.750  0.549- 152 2.08 150 2.10 133 2.10  85 2.10 148 2.10 142 2.11

IMPORTANT INFORMATION: All symmetrisations will be switched off!
NOSYMM: (Re-)initialisation of all symmetry stuff for point group C_1.

                                     Primitive cell

  volume of cell :    6019.7037

  direct lattice vectors                    reciprocal lattice vectors
    16.809723990  0.000000000  0.000000000     0.059489377  0.000000000  0.000000000
     0.000000000 16.809723990  0.000000000     0.000000000  0.059489377  0.000000000
     0.000000000  0.000000000 21.303646496     0.000000000  0.000000000  0.046940321

  length of vectors
    16.809723990 16.809723990 21.303646496     0.059489377  0.059489377  0.046940321

  position of ions in fractional coordinates (direct lattice)
     0.528644266  0.555761295  0.791592200
     0.318725297  0.400332018  0.792395264
     0.474155106  0.192985503  0.792603898
     0.681700139  0.345353957  0.791262003
     0.508219302  0.487960659  0.754329224
     0.386669207  0.382320837  0.754273536
     0.492090115  0.260425014  0.754190084
     0.613823707  0.365932888  0.754151193
     0.520221729  0.543391636  0.841325693
     0.552299245  0.448590522  0.756306569
     0.589909385  0.573327904  0.782782465
     0.489422714  0.604580085  0.776643117
     0.332181432  0.391287712  0.841916916
     0.425311889  0.426015498  0.756585682
     0.300326956  0.462064699  0.784679118
     0.270493073  0.361291581  0.777514217
     0.483523957  0.206401475  0.841875094
     0.447794029  0.299329291  0.756407626
     0.412386472  0.174249197  0.785099236
     0.513224848  0.144519586  0.777524237
     0.669453423  0.354155190  0.841115012
     0.574509366  0.321926360  0.756016691
     0.698915312  0.284046495  0.782734307
     0.730636418  0.384285650  0.776191852
     0.125000000  0.000000000  0.352052406
     0.250000000  0.125000000  0.352052406
     0.125000000  0.125000000  0.450684135
     0.250000000  0.000000000  0.450684135
     0.125003413  0.000000379  0.549715161
     0.249990511  0.125000175  0.549503587
     0.124989808  0.124927480  0.647393958
     0.249935399  0.999975596  0.647377790
     0.125000000  0.250000000  0.352052406
     0.250000000  0.375000000  0.352052406
     0.125000000  0.375000000  0.450684135
     0.250000000  0.250000000  0.450684135
     0.124965802  0.250018432  0.549560624
     0.250466641  0.374977988  0.549789275
[...]
   6.30364650  0.00000000  7.50000000
   0.00000000  2.10121550  7.50000000
   6.30364650  2.10121550  9.60121550
   0.00000000  0.00000000  9.60121550
   6.30385856 16.80884609 11.70756076
   0.00008575  2.10093919 11.71087631
   6.29977093  2.09918665 13.76855648
   0.00004562 16.80930455 13.79241631
   6.30364650  4.20243100  7.50000000
   0.00000000  6.30364650  7.50000000
   6.30364650  6.30364650  9.60121550
   0.00000000  4.20243100  9.60121550
   6.31243023  4.21221789 11.71983829
   0.00008424  6.30366897 11.70841299
   6.29629761  6.30071131 13.85757168
   0.00002206  4.20131107 13.79157406
   2.10121550  8.40486199  7.50000000
   4.20243100 10.50607749  7.50000000
   2.10121550 10.50607749  9.60121550
   4.20243100  8.40486199  9.60121550
[...]
   8.40486199 10.50607749  9.60121550
  14.70850849 10.50607749  7.50000000
   8.40486199  8.40486199  7.50000000
  14.71097699  8.40748220 13.84391492
   8.40454815 10.52706749 13.84272495
  14.71008884 10.50729648 11.70614671
   8.40541408  8.41300265 11.71186091
  14.70850849 12.60729299  9.60121550
   8.40486199 14.70850849  9.60121550
  14.70850849 14.70850849  7.50000000
   8.40486199 12.60729299  7.50000000
  14.71024175 12.60890569 13.84214313
   8.40488582 14.70841366 13.84280895
  14.70902817 14.70856217 11.70603695
   8.40491951 12.61091597 11.70408924

--------------------------------------- Iteration      FINAL  ---------------------------------------

--------------------OUTCAR has been truncated-------------------------

[...]

--------------------OUTCAR has been truncated-------------------------

  DFT-D2 method for vdW energy calculation

  Parameters of vdW forcefield:
         C6(Jnm^6/mol)     R0(A)
   C        1.750          1.452
   O        0.700          1.342
   H        0.140          1.001
   Mg       0.630          1.243
   O        0.700          1.342

  vdW correction parametrized for the method þ      

  IVDW =   1
  VDW_RADIUS =    50.000 A
  VDW_S6 =     1.050
  VDW_SR =     1.000
  VDW_D =    20.000
  LVDW_EWALD = F

  Number of pair interactions contributing to vdW energy: 3449964
  Edisp (eV):  -22.04935

 VOLUME and BASIS-vectors are now :
  energy-cutoff  :      520.00
  volume of cell :     6019.70
      direct lattice vectors                 reciprocal lattice vectors
    16.809723990  0.000000000  0.000000000     0.059489377  0.000000000  0.000000000
     0.000000000 16.809723990  0.000000000     0.000000000  0.059489377  0.000000000
     0.000000000  0.000000000 21.303646496     0.000000000  0.000000000  0.046940321

  length of vectors
    16.809723990 16.809723990 21.303646496     0.059489377  0.059489377  0.046940321

 FORCES acting on ions:
    Electron-Ion                     Ewald-Force                    Non-Local-Force
   -.402E+02 -.196E+03 -.104E+04   0.412E+02 0.202E+03 0.105E+04   -.140E+01 -.543E+01 -.331E+01
   0.195E+03 -.364E+02 -.104E+04   -.201E+03 0.375E+02 0.104E+04   0.558E+01 -.979E+00 -.337E+01
   0.367E+02 0.195E+03 -.104E+04   -.377E+02 -.201E+03 0.104E+04   0.975E+00 0.543E+01 -.350E+01
   -.196E+03 0.403E+02 -.104E+04   0.202E+03 -.412E+02 0.105E+04   -.549E+01 0.142E+01 -.324E+01
   0.412E+02 -.102E+03 -.157E+04   -.723E+02 0.977E+02 0.155E+04   0.279E+02 0.363E+01 0.169E+02
   0.103E+03 0.373E+02 -.157E+04   -.997E+02 -.682E+02 0.155E+04   -.337E+01 0.274E+02 0.175E+02
   -.362E+02 0.103E+03 -.157E+04   0.665E+02 -.985E+02 0.155E+04   -.271E+02 -.359E+01 0.176E+02
   -.102E+03 -.418E+02 -.157E+04   0.977E+02 0.728E+02 0.156E+04   0.359E+01 -.279E+02 0.167E+02
   0.271E+01 -.188E+02 -.260E+03   -.348E+01 0.177E+02 0.266E+03   0.760E+00 0.104E+01 -.564E+01
   -.585E+02 0.229E+02 -.271E+03   0.640E+02 -.280E+02 0.271E+03   -.556E+01 0.512E+01 -.153E+00
   -.658E+02 -.479E+02 -.247E+03   0.716E+02 0.496E+02 0.246E+03   -.551E+01 -.164E+01 0.100E+01
   0.329E+02 -.748E+02 -.246E+03   -.361E+02 0.790E+02 0.245E+03   0.338E+01 -.431E+01 0.174E+01
   0.179E+02 0.370E+01 -.259E+03   -.167E+02 -.454E+01 0.265E+03   -.114E+01 0.804E+00 -.560E+01
   -.236E+02 -.603E+02 -.271E+03   0.293E+02 0.665E+02 0.272E+03   -.535E+01 -.585E+01 -.214E+00
   0.484E+02 -.651E+02 -.247E+03   -.501E+02 0.706E+02 0.246E+03   0.167E+01 -.540E+01 0.857E+00
   0.749E+02 0.336E+02 -.245E+03   -.794E+02 -.371E+02 0.244E+03   0.442E+01 0.347E+01 0.178E+01
   -.409E+01 0.178E+02 -.260E+03   0.500E+01 -.166E+02 0.266E+03   -.849E+00 -.115E+01 -.567E+01
   0.596E+02 -.223E+02 -.271E+03   -.652E+02 0.275E+02 0.271E+03   0.565E+01 -.512E+01 -.183E+00
   0.650E+02 0.486E+02 -.247E+03   -.704E+02 -.503E+02 0.246E+03   0.537E+01 0.169E+01 0.829E+00
   -.334E+02 0.749E+02 -.245E+03   0.368E+02 -.792E+02 0.244E+03   -.342E+01 0.436E+01 0.178E+01
   -.190E+02 -.306E+01 -.260E+03   0.180E+02 0.385E+01 0.266E+03   0.102E+01 -.787E+00 -.559E+01
   0.230E+02 0.584E+02 -.271E+03   -.282E+02 -.640E+02 0.271E+03   0.515E+01 0.559E+01 -.136E+00
   -.478E+02 0.660E+02 -.248E+03   0.495E+02 -.719E+02 0.247E+03   -.162E+01 0.555E+01 0.973E+00
   -.750E+02 -.326E+02 -.247E+03   0.792E+02 0.358E+02 0.245E+03   -.433E+01 -.336E+01 0.176E+01
   0.577E+01 0.583E+01 0.211E+04   -.576E+01 -.582E+01 -.210E+04   -.732E-02 -.710E-02 -.639E+01
   0.972E+01 0.967E+01 0.211E+04   -.969E+01 -.964E+01 -.211E+04   -.220E-01 -.222E-01 -.640E+01
   0.121E+02 0.136E+02 0.732E+03   -.121E+02 -.136E+02 -.733E+03   -.159E-01 -.125E-01 0.434E+00
   0.138E+02 0.122E+02 0.732E+03   -.137E+02 -.122E+02 -.733E+03   -.128E-01 -.155E-01 0.431E+00
   0.161E+02 0.162E+02 -.658E+03   -.161E+02 -.161E+02 0.658E+03   -.212E-01 -.230E-01 -.150E+00
   0.372E+02 0.364E+02 -.623E+03   -.371E+02 -.363E+02 0.623E+03   -.752E-01 -.845E-01 0.123E-01
   0.407E+02 0.390E+02 -.203E+04   -.406E+02 -.389E+02 0.203E+04   -.119E+00 -.221E-01 0.550E+01
   0.409E+02 0.416E+02 -.203E+04   -.409E+02 -.415E+02 0.203E+04   -.349E-01 -.126E+00 0.550E+01
   0.781E+01 0.582E+01 0.211E+04   -.778E+01 -.581E+01 -.211E+04   -.214E-01 -.961E-02 -.640E+01
   0.117E+02 -.110E+00 0.212E+04   -.116E+02 0.111E+00 -.211E+04   -.398E-01 -.162E-03 -.644E+01
   0.154E+02 -.874E-01 0.743E+03   -.153E+02 0.878E-01 -.743E+03   -.605E-01 -.637E-03 0.378E+00
   0.205E+02 0.122E+02 0.755E+03   -.204E+02 -.122E+02 -.755E+03   -.754E-01 -.405E-01 0.279E+00
   0.328E+02 0.186E+02 -.632E+03   -.326E+02 -.186E+02 0.632E+03   -.156E+00 -.295E-01 -.999E-02
   0.581E+02 0.926E-01 -.585E+03   -.575E+02 -.952E-01 0.585E+03   -.522E+00 0.337E-02 -.202E+00
   0.796E+02 0.151E+01 -.200E+04   -.792E+02 -.150E+01 0.199E+04   -.422E+00 -.730E-02 0.551E+01
   0.121E+03 0.685E+02 -.194E+04   -.120E+03 -.685E+02 0.193E+04   -.636E+00 0.250E-01 0.559E+01
   0.593E+01 0.792E+01 0.211E+04   -.591E+01 -.789E+01 -.211E+04   -.995E-02 -.202E-01 -.640E+01
   -.546E-01 0.766E+01 0.211E+04   0.548E-01 -.765E+01 -.210E+04   -.131E-03 -.769E-02 -.639E+01
   0.125E+02 0.204E+02 0.755E+03   -.125E+02 -.203E+02 -.755E+03   -.421E-01 -.779E-01 0.285E+00
   -.763E-01 0.830E+01 0.723E+03   0.765E-01 -.829E+01 -.723E+03   -.173E-03 -.478E-02 0.441E+00
   0.189E+02 0.334E+02 -.631E+03   -.188E+02 -.333E+02 0.631E+03   -.282E-01 -.135E+00 -.171E-01
   -.332E+00 0.199E+02 -.654E+03   0.335E+00 -.199E+02 0.654E+03   -.282E-02 -.418E-02 -.136E+00
   0.726E+02 0.121E+03 -.193E+04   -.727E+02 -.120E+03 0.192E+04   0.537E-01 -.514E+00 0.564E+01
   -.258E+00 0.194E+02 -.205E+04   0.259E+00 -.194E+02 0.204E+04   -.894E-03 0.517E-02 0.550E+01
   0.793E+01 0.777E+01 0.212E+04   -.790E+01 -.773E+01 -.211E+04   -.266E-01 -.277E-01 -.646E+01
   -.536E-01 -.823E-01 0.211E+04   0.535E-01 0.831E-01 -.210E+04   0.193E-04 -.972E-03 -.639E+01
   0.153E+02 -.318E+00 0.775E+03   -.152E+02 0.325E+00 -.775E+03   -.857E-01 -.471E-02 0.288E+00
   -.164E+00 0.872E+01 0.734E+03   0.167E+00 -.872E+01 -.734E+03   -.206E-02 -.219E-02 0.454E+00
   0.405E+02 0.394E+02 -.553E+03   -.400E+02 -.390E+02 0.554E+03   -.416E+00 -.430E+00 -.786E+00
   -.214E+00 -.196E+00 -.640E+03   0.214E+00 0.200E+00 0.640E+03   -.432E-04 -.254E-02 -.633E-01
   0.132E+03 0.498E+01 -.173E+04   -.132E+03 -.502E+01 0.173E+04   -.272E+00 0.394E-01 0.294E+01
   -.132E+01 0.230E+02 -.203E+04   0.132E+01 -.231E+02 0.202E+04   -.892E-03 0.281E-01 0.551E+01
   0.778E+01 -.594E+01 0.211E+04   -.775E+01 0.592E+01 -.211E+04   -.208E-01 0.893E-02 -.640E+01
   0.964E+01 -.967E+01 0.211E+04   -.960E+01 0.964E+01 -.211E+04   -.225E-01 0.215E-01 -.640E+01
   0.120E+02 -.137E+02 0.732E+03   -.120E+02 0.137E+02 -.733E+03   -.169E-01 0.129E-01 0.429E+00
   0.203E+02 -.125E+02 0.754E+03   -.202E+02 0.125E+02 -.755E+03   -.824E-01 0.413E-01 0.291E+00
[...]
   -.512E+01 -.619E+01 0.158E+04   0.511E+01 0.618E+01 -.159E+04   0.158E-01 0.149E-01 0.314E+01
   0.405E-01 -.625E+01 0.159E+04   -.406E-01 0.622E+01 -.160E+04   0.183E-03 0.389E-01 0.305E+01
   -.469E+02 -.262E+02 -.154E+04   0.468E+02 0.261E+02 0.154E+04   0.771E-01 0.788E-01 -.464E+01
   0.517E+01 -.113E+03 -.144E+04   -.516E+01 0.113E+03 0.145E+04   -.146E-01 0.427E+00 -.459E+01
   -.173E+02 -.180E+02 -.480E+03   0.172E+02 0.179E+02 0.479E+03   0.456E-01 0.428E-01 0.309E+00
   0.251E+00 -.307E+02 -.400E+03   -.243E+00 0.303E+02 0.401E+03   -.824E-02 0.303E+00 -.382E+00
   -.703E+01 -.692E+01 0.544E+03   0.702E+01 0.691E+01 -.544E+03   0.136E-01 0.123E-01 -.329E-01
   0.545E-01 0.185E+00 0.552E+03   -.548E-01 -.186E+00 -.552E+03   0.338E-03 0.172E-02 -.238E-01
   -.403E+01 0.623E-01 0.158E+04   0.403E+01 -.627E-01 -.159E+04   0.672E-02 0.491E-03 0.315E+01
   0.376E-01 -.608E+01 0.159E+04   -.380E-01 0.606E+01 -.159E+04   0.490E-03 0.301E-01 0.313E+01
   -.186E+02 -.182E+02 -.156E+04   0.185E+02 0.181E+02 0.156E+04   0.377E-01 0.372E-01 -.461E+01
   0.143E+00 0.475E+00 -.154E+04   -.144E+00 -.479E+00 0.155E+04   0.550E-03 0.410E-02 -.462E+01
   -.996E+01 0.173E+00 -.491E+03   0.995E+01 -.173E+00 0.490E+03   0.108E-01 0.598E-03 0.331E+00
   0.412E+00 -.249E+02 -.462E+03   -.414E+00 0.246E+02 0.462E+03   0.130E-02 0.214E+00 0.390E+00
   -.457E+00 0.242E-01 0.336E+02   0.102E-11 -.118E-11 -.118E-10   0.344E+00 0.180E-01 -.314E+02

 POSITION                                       TOTAL-FORCE (eV/Angst)
      8.88636      9.34219     16.86380        -0.451556      0.462520     -0.198535
      5.35768      6.72947     16.88091        -0.170655      0.078858     -0.155950
      7.97042      3.24403     16.88535        -0.031021     -0.430829     -0.344099
     11.45919      5.80530     16.85677         0.404203      0.521181     -0.066250
      8.54303      8.20248     16.06996         0.339471     -0.347882      0.033395
      6.49980      6.42671     16.06878        -0.087864     -0.157299      0.027373
      8.27190      4.37767     16.06700        -0.191236      0.297417      0.028417
     10.31821      6.15123     16.06617        -0.299241     -0.259932      0.019115
      8.74478      9.13426     17.92331         0.008625     -0.048932      0.126469
      9.28400      7.54068     16.11209        -0.278423      0.190900     -0.029144
      9.91621      9.63748     16.67612         0.138329     -0.003967     -0.007717
      8.22706     10.16282     16.54533         0.255215     -0.261216      0.152475
      5.58388      6.57744     17.93590         0.032468     -0.018530      0.099793
      7.14938      7.16120     16.11803         0.109337      0.130640      0.023666
      5.04841      7.76718     16.71653         0.035450     -0.095099      0.031046
      4.54691      6.07321     16.56389         0.090280      0.057075      0.037689
      8.12790      3.46955     17.93501         0.035581      0.076831      0.239195
      7.52729      5.03164     16.11424         0.196318     -0.124052     -0.015765
      6.93210      2.92908     16.72548         0.126302      0.065260      0.040699
      8.62717      2.42933     16.56410        -0.138226      0.169425      0.102349
     11.25333      5.95325     17.91882        -0.027018     -0.023805      0.040547
      9.65734      5.41149     16.10591         0.128814      0.221018     -0.026497
     11.74857      4.77474     16.67509         0.006711     -0.196548     -0.029605
     12.28180      6.45974     16.53572        -0.251313     -0.244325      0.137131
      2.10122      0.00000      7.50000         0.002873      0.002248      0.396794
      4.20243      2.10122      7.50000         0.007305      0.007578      0.403876
      2.10122      2.10122      9.60122         0.004123      0.004122      0.007560
      4.20243      0.00000      9.60122         0.003902      0.003483      0.008607
      2.10127      0.00001     11.71094        -0.002538     -0.002721     -0.001050
      4.20227      2.10122     11.70643        -0.003450     -0.003978     -0.006519
      2.10104      2.10000     13.79185        -0.007057     -0.006604      0.027162
      4.20135     16.80931     13.79151        -0.005697     -0.007296      0.029925
      2.10122      4.20243      7.50000         0.007220      0.003289      0.402334
      4.20243      6.30365      7.50000         0.012932     -0.000217      0.416316
      2.10122      6.30365      9.60122         0.026705     -0.000111      0.015949
      4.20243      4.20243      9.60122         0.033939      0.015755      0.028007
      2.10064      4.20274     11.70765        -0.003654     -0.001271     -0.001913
      4.21028      6.30328     11.71252        -0.009256      0.001240     -0.002108
      2.09982      6.30392     13.78381        -0.003464     -0.000093      0.034089
      4.20077      4.19826     13.77056        -0.009492     -0.006663      0.040146
      6.30365      0.00000      7.50000         0.002967      0.006504      0.401969
      0.00000      2.10122      7.50000         0.000122      0.003005      0.397279
      6.30365      2.10122      9.60122         0.016194      0.035521      0.027505
      0.00000      0.00000      9.60122         0.000111      0.001785      0.013284
      6.30386     16.80885     11.70756        -0.000792     -0.003669     -0.001546
      0.00009      2.10094     11.71088        -0.000185     -0.003783     -0.001370
      6.29977      2.09919     13.76856        -0.005511     -0.010482      0.045250
      0.00005     16.80930     13.79242         0.000073     -0.004832      0.036037
      6.30365      4.20243      7.50000         0.008580      0.009103      0.424125
      0.00000      6.30365      7.50000         0.000052     -0.000184      0.399037
      6.30365      6.30365      9.60122         0.041055      0.001986      0.082984
      0.00000      4.20243      9.60122         0.000814      0.000436      0.003449
      6.31243      4.21222     11.71984        -0.004432     -0.008795     -0.003026
      0.00008      6.30367     11.70841        -0.000262      0.001099      0.003630
      6.29630      6.30071     13.85757        -0.007903      0.001855      0.008427
      0.00002      4.20131     13.79157        -0.000048     -0.000807      0.031638
      2.10122      8.40486      7.50000         0.007254     -0.003051      0.401866
      4.20243     10.50608      7.50000         0.007519     -0.006797      0.404164
      2.10122     10.50608      9.60122         0.004404     -0.003603      0.007733
      4.20243      8.40486      9.60122         0.037114     -0.016186      0.029929
[...]
      8.40486     10.50608      9.60122         0.000404      0.029462      0.029831
     14.70851     10.50608      7.50000         0.005190      0.004843     -0.488716
      8.40486      8.40486      7.50000         0.000150      0.012835     -0.521080
     14.71098      8.40748     13.84391         0.003204      0.003343     -0.017087
      8.40455     10.52707     13.84272         0.000498      0.000152     -0.016770
     14.71009     10.50730     11.70615         0.004810      0.001928     -0.012952
      8.40541      8.41300     11.71186        -0.000572     -0.010817      0.012110
     14.70851     12.60729      9.60122         0.005372      0.004375      0.055359
      8.40486     14.70851      9.60122         0.000185      0.001262      0.044156
     14.70851     14.70851      7.50000         0.002204      0.000128     -0.485381
      8.40486     12.60729      7.50000         0.000199      0.009914     -0.493811
     14.71024     12.60891     13.84214         0.002931      0.003300     -0.008892
      8.40489     14.70841     13.84281         0.000134      0.000774     -0.012561
     14.70903     14.70856     11.70604         0.001473      0.000030     -0.006989
      8.40492     12.61092     11.70409         0.000148      0.000768     -0.010856
    total drift:                               -0.019660     -0.000437     -0.070202

  FREE ENERGIE OF THE ION-ELECTRON SYSTEM (eV)
  free  energy   TOTEN  =     -1900.15335750 eV

  energy  without entropy=    -1900.15335750  energy(sigma->0) =    -1900.15335750