 vasp.6.4.2 20Jul23 (build Feb 22 2024 13:53:45) complex
 executed on              LinuxNV date 2024.08.27  18:21:18
 OpenACC runtime initialized ...    4 GPUs detected

 INCAR:
   SYSTEM = Oxide-Surface
   ISMEAR = 0
   SIGMA = 0.05
   EDIFF = 1E-5
   ALGO = Normal
   IBRION = -1
   NSW = 0
   ISYM = 0
   DIPOL = 0.5 0.5 0.5
   IDIPOL = 3
   LDIPOL = .TRUE.
   ISTART = 1
   METAGGA = SCAN
   LUSE_VDW = .TRUE.
   BPARAM = 15.7
   CPARAM = 0.0093
   ENCUT = 1000
   PREC = Normal
   PRECFOCK = Normal
   LASPH = .TRUE.
   LREAL = Auto
   ISPIN = 1
   NELM = 200
   NELMIN = 8
   NCORE = 1
   KPAR = 1
   LWAVE = .FALSE.
   LCHARG = .FALSE.

 POTCAR:    PAW_PBE Mg_sv 12Apr2007
 POTCAR:    PAW_PBE O_h 06Feb2004
|               ----> ADVICE to this user running VASP <----                  |
|     You have switched on vdW-DFT.                                           |
|     This routine was written and supplied by Jiri Klimes. We recommend      |
|     that you carefully read and cite the following publications:            |
|       J. Klimes, D.R. Bowler, A. Michelides                                 |
|          J. Phys.: Cond Matt. 22 022201 (2010)                              |
|       J. Klimes, D.R. Bowler, A. Michelides                                 |
|          Phys. Rev. B. 83, 195131 (2011)                                    |
|     and references therein.                                                 |

   TITEL  = PAW_PBE Mg_sv 12Apr2007
   POMASS =   24.305; ZVAL   =   10.000    mass and valenz
   ENMAX  =  495.223; ENMIN  =  371.417 eV

   TITEL  = PAW_PBE O_h 06Feb2004
   POMASS =   16.000; ZVAL   =    6.000    mass and valenz
   ENMAX  =  700.000; ENMIN  =  500.000 eV

 Optimization of the real space projectors (new method)

 maximal supplied QI-value         = 22.11
 optimisation between [QCUT,QGAM] = [ 16.14, 32.28] = [ 72.95,291.79] Ry
 Optimized for a Real-space Cutoff    0.98 Angstroem

   l    n(q)    QCUT    max X(q) W(low)/X(q) W(high)/X(q)  e(spline)
   0      9    16.140     8.730    0.14E-04    0.12E-04    0.27E-07
   0      9    16.140     8.910    0.19E-04    0.17E-04    0.41E-07
   1      9    16.140     2.513    0.16E-04    0.28E-04    0.54E-07
   1      9    16.140     3.341    0.27E-04    0.13E-03    0.17E-06
   2      9    16.140     3.683    0.18E-03    0.21E-03    0.81E-07
 Optimization of the real space projectors (new method)

 maximal supplied QI-value         = 34.20
 optimisation between [QCUT,QGAM] = [ 16.08, 32.15] = [ 72.37,289.48] Ry
 Optimized for a Real-space Cutoff    0.71 Angstroem

   l    n(q)    QCUT    max X(q) W(low)/X(q) W(high)/X(q)  e(spline)
   0      7    16.076   280.207    0.42E-03    0.69E-03    0.60E-07
   0      7    16.076   228.978    0.42E-03    0.69E-03    0.61E-07
   1      6    16.076    86.127    0.11E-03    0.66E-03    0.10E-06
   1      6    16.076    65.368    0.11E-03    0.65E-03    0.10E-06
  PAW_PBE Mg_sv 12Apr2007               :
  PAW_PBE O_h 06Feb2004                 :

 POSCAR: Mg  O
  positions in direct lattice

 METAGGA = SCAN                                        LMAXTAU =  6    LMIXTAU =  F

 ion  position               nearest neighbor table
   1  0.000  0.750  0.252-
   2  0.250  0.000  0.252-
   3  0.000  0.000  0.376-
   4  0.250  0.750  0.376-
   5  1.000  0.750  0.499-
   6  0.252  0.001  0.502-
   7  0.000  0.003  0.624-
   8  0.237  0.750  0.623-  37 2.00
   9  0.000  0.250  0.252-
  10  0.250  0.500  0.252-
  11  0.000  0.500  0.376-
  12  0.250  0.250  0.376-
  13  0.000  0.250  0.500-
  14  0.252  0.500  0.502-
  15  0.000  0.498  0.624-
  16  0.248  0.250  0.625-
  17  0.500  0.750  0.252-
  18  0.750  0.000  0.252-
  19  0.500  0.000  0.376-
  20  0.750  0.750  0.376-
  21  0.500  0.750  0.498-
  22  0.748  0.001  0.502-
  23  0.500  0.011  0.636-  61 2.02
  24  0.763  0.750  0.623-  37 2.00
  25  0.500  0.250  0.252-
  26  0.750  0.500  0.252-
  27  0.500  0.500  0.376-
  28  0.750  0.250  0.376-
  29  0.500  0.250  0.502-
  30  0.748  0.500  0.502-
  31  0.500  0.489  0.636-  61 2.02
  32  0.752  0.250  0.625-
  33  0.000  0.750  0.376-
  34  0.250  0.000  0.376-
  35  0.000  0.000  0.252-
  36  0.250  0.750  0.252-
  37  0.000  0.750  0.626-   8 2.00  24 2.00
  38  0.248  0.999  0.626-
  39  0.000  1.000  0.500-
  40  0.252  0.750  0.501-
  41  0.000  0.250  0.376-
  42  0.250  0.500  0.376-
  43  0.000  0.500  0.252-
  44  0.250  0.250  0.252-
  45  0.000  0.250  0.626-
  46  0.248  0.502  0.626-
  47  0.000  0.501  0.500-
  48  0.251  0.250  0.501-
  49  0.500  0.750  0.376-
  50  0.750  0.000  0.376-
  51  0.500  0.000  0.252-
  52  0.750  0.750  0.252-
  53  0.500  0.750  0.633-
  54  0.752  0.999  0.626-
  55  0.500  0.998  0.502-
  56  0.748  0.750  0.501-
  57  0.500  0.250  0.376-
  58  0.750  0.500  0.376-
  59  0.500  0.500  0.252-
  60  0.750  0.250  0.252-
  61  0.500  0.250  0.628-  23 2.02  31 2.02
  62  0.752  0.502  0.626-
  63  0.500  0.503  0.502-
  64  0.749  0.250  0.501-

IMPORTANT INFORMATION: All symmetrisations will be switched off!
NOSYMM: (Re-)initialisation of all symmetry stuff for point group C_1.

                                     Primitive cell

  volume of cell :    1211.2538

  direct lattice vectors                    reciprocal lattice vectors
     8.440984654  0.000000000  0.000000000     0.118469591  0.000000000  0.000000000
     0.000000000  8.440984654  0.000000000     0.000000000  0.118469591  0.000000000
     0.000000000  0.000000000 17.000000000     0.000000000  0.000000000  0.058823529

  length of vectors
     8.440984654  8.440984654 17.000000000     0.118469591  0.118469591  0.058823529

  position of ions in fractional coordinates (direct lattice)
     0.000000012  0.750271483  0.251856836
     0.250000012  0.000271483  0.251856836
     0.000000012  0.000271483  0.375988963
     0.250000012  0.750271483  0.375988963
     0.999999988  0.750271429  0.499368462
     0.252039891  0.001028111  0.501782346
     0.000000034  0.002582678  0.624444171
     0.237174200  0.750271417  0.622958809
     0.000000012  0.250271483  0.251856836
     0.250000012  0.500271483  0.251856836
     0.000000012  0.500271483  0.375988963
     0.250000012  0.250271483  0.375988963
     0.000000025  0.250271481  0.500321386
     0.252039913  0.499514860  0.501782439
     0.000000033  0.497960304  0.624444240
     0.247666331  0.250271551  0.624926941
     0.500000012  0.750271483  0.251856836
     0.750000012  0.000271483  0.251856836
     0.500000012  0.000271483  0.375988963
     0.750000012  0.750271483  0.375988963
     0.500000031  0.750271498  0.497974947
     0.747960134  0.001028090  0.501782397
     0.500000002  0.011479476  0.636458488
     0.762825859  0.750271422  0.622958927
     0.500000012  0.250271483  0.251856836
     0.750000012  0.500271483  0.251856836
     0.500000012  0.500271483  0.375988963
     0.750000012  0.250271483  0.375988963
     0.500000005  0.250271518  0.502223723
     0.747960113  0.499514886  0.501782491
     0.500000001  0.489064058  0.636458884
     0.752333702  0.250271549  0.624926893
     0.000000012  0.750271483  0.375988963
     0.250000012  0.000271483  0.375988963
     0.000000012  0.000271483  0.251856836
     0.250000012  0.750271483  0.251856836
     0.000000034  0.750271519  0.625525054
     0.248158668  0.998774097  0.625931889
     0.000000015  0.999728517  0.499971061
     0.252314560  0.750271518  0.501128046
     0.000000012  0.250271483  0.375988963
     0.250000012  0.500271483  0.375988963
     0.000000012  0.500271483  0.251856836
     0.250000012  0.250271483  0.251856836
     0.000000017  0.250271467  0.626441503
     0.248158646  0.501768877  0.625931815
     0.000000014  0.500814411  0.499971054
     0.250533599  0.250271460  0.500674415
     0.500000012  0.750271483  0.375988963
     0.750000012  0.000271483  0.375988963
     0.500000012  0.000271483  0.251856836
     0.750000012  0.750271483  0.251856836
     0.499999972  0.750272301  0.632609027
     0.751841373  0.998774078  0.625931895
     0.500000008  0.997971315  0.502167211
     0.747685467  0.750271518  0.501128092
     0.500000012  0.250271483  0.375988963
     0.750000012  0.500271483  0.375988963
     0.500000012  0.500271483  0.251856836
     0.750000012  0.250271483  0.251856836
     0.500000019  0.250271401  0.628355073
     0.751841390  0.501768901  0.625931830
     0.500000009  0.502571702  0.502167205
     0.749466433  0.250271458  0.500674433

  ion indices of the primitive-cell ions
   primitive index   ion index
                 1           1
                 2           2
                 3           3
                 4           4
                 5           5
                 6           6
                 7           7
                 8           8
                 9           9
                10          10
                11          11
                12          12
                13          13
                14          14
                15          15
                16          16
                17          17
                18          18
                19          19
                20          20
                21          21
                22          22
                23          23
                24          24
                25          25
                26          26
                27          27
                28          28
                29          29
                30          30
                31          31
                32          32
                33          33
                34          34
                35          35
                36          36
                37          37
                38          38
                39          39
                40          40
                41          41
                42          42
                43          43
                44          44
                45          45
                46          46
                47          47
                48          48
                49          49
                50          50
                51          51
                52          52
                53          53
                54          54
                55          55
                56          56
                57          57
                58          58
                59          59
                60          60
                61          61
                62          62
                63          63
                64          64

 KPOINTS: pymatgen v2020.8.13 with grid density =

Automatic generation of k-mesh.
 Grid dimensions read from file:
 generate k-points for:    2    2    1

 Generating k-lattice:

  Cartesian coordinates                     Fractional coordinates (reciprocal lattice)
     0.059234796  0.000000000  0.000000000     0.500000000  0.000000000  0.000000000
     0.000000000  0.059234796  0.000000000     0.000000000  0.500000000  0.000000000
     0.000000000  0.000000000  0.058823529     0.000000000  0.000000000  1.000000000

  Length of vectors
     0.059234796  0.059234796  0.058823529

  Shift w.r.t. Gamma in fractional coordinates (k-lattice)
[...]
   0.00000012  4.22736676  8.49950792
   2.11475027  2.11253755  8.51146506
   4.22049243  6.33303007  6.39181237
   6.33073860  0.00229158  6.39181237
   4.22049243  0.00229158  4.28156621
   6.33073860  6.33303007  4.28156621
   4.22049209  6.33303698 10.75435346
   6.34628149  8.43063666 10.64084222
   4.22049239  8.42386055  8.53684259
   6.31120156  6.33303037  8.51917757
   4.22049243  2.11253775  6.39181237
   6.33073860  4.22278391  6.39181237
   4.22049243  4.22278391  4.28156621
   6.33073860  2.11253775  4.28156621
   4.22049249  2.11253705 10.68203623
   6.34628164  4.23542359 10.64084111
   4.22049240  4.24220002  8.53684248
   6.32623466  2.11253754  8.51146535

--------------------------------------- Iteration      FINAL  ---------------------------------------

--------------------OUTCAR has been truncated-------------------------

[...]

--------------------OUTCAR has been truncated-------------------------

  FORCE on cell =-STRESS in cart. coord.  units (eV):
  Direction    XX          YY          ZZ          XY          YZ          ZX
  Alpha Z  1191.54525  1191.54525  1191.54525
  Ewald  111577.52009111600.82496************    -0.00000     0.00054    -0.00004
  Hartree128258.89921128276.43727************     0.00000     0.00192     0.00016
  E(xc)   -3446.00772 -3446.02785 -3445.81839    -0.00001     0.00128     0.00010
  Local  ************************249589.51528    -0.00000    -0.02603    -0.00080
  n-local -5545.79418 -5545.66700 -5545.48384    -0.00000     0.00434    -0.00018
  augment   823.26775   823.15092   815.27667     0.00001    -0.05565    -0.00058
  Kinetic 12505.00254 12504.35056 12511.62170     0.00001     0.04000     0.00158
  Fock        0.00000     0.00000     0.00000     0.00000     0.00000     0.00000
  Total     -44.85745   -45.39171   -13.38037     0.00001    -0.03362     0.00024
  in kB     -59.33487   -60.04157   -17.69878     0.00001    -0.04447     0.00032

 VOLUME and BASIS-vectors are now :
  energy-cutoff  :     1000.00
  volume of cell :     1211.25
      direct lattice vectors                 reciprocal lattice vectors
     8.440984654  0.000000000  0.000000000     0.118469591  0.000000000  0.000000000
     0.000000000  8.440984654  0.000000000     0.000000000  0.118469591  0.000000000
     0.000000000  0.000000000 17.000000000     0.000000000  0.000000000  0.058823529

  length of vectors
     8.440984654  8.440984654 17.000000000     0.118469591  0.118469591  0.058823529

 FORCES acting on ions
    electron-ion (+dipol)            ewald-force                    non-local-force                 convergence-correction
   0.227E-04 -.727E-02 0.245E+04   -.210E-04 -.315E-04 -.244E+04   0.329E-04 0.597E-01 -.948E+01   0.497E-05 0.618E-05 -.840E-03
   -.899E+00 -.372E+00 0.245E+04   0.914E+00 0.385E+00 -.244E+04   -.118E-01 0.432E-01 -.961E+01   -.128E-04 0.209E-04 -.820E-03
   0.874E-04 -.981E+00 0.812E+03   -.102E-03 0.102E+01 -.812E+03   0.124E-04 -.215E-01 0.440E+00   0.302E-05 0.302E-04 -.969E-03
   -.177E+01 0.272E-02 0.806E+03   0.177E+01 -.193E-03 -.807E+03   0.250E-03 0.339E-02 0.697E+00   0.216E-04 0.497E-07 -.943E-03
   -.137E-04 0.783E-02 -.786E+03   -.623E-04 -.108E-04 0.785E+03   0.321E-03 -.219E-01 0.706E+00   0.227E-05 -.104E-04 -.583E-03
   -.158E+02 0.511E+01 -.823E+03   0.172E+02 -.556E+01 0.824E+03   -.125E+01 0.211E+00 -.883E+00   0.694E-04 -.408E-04 -.585E-03
   0.280E-03 0.179E+01 -.243E+04   0.628E-05 -.964E+00 0.242E+04   -.190E-04 -.931E+00 0.874E+01   -.213E-05 -.384E-04 -.416E-03
   -.738E+02 -.472E-02 -.241E+04   0.743E+02 0.656E-04 0.240E+04   0.967E+00 0.324E-01 0.837E+01   -.265E-04 0.848E-05 -.432E-03
   0.695E-05 -.733E-02 0.245E+04   -.218E-04 0.324E-04 -.244E+04   0.251E-04 0.595E-01 -.950E+01   0.635E-05 0.526E-05 -.818E-03
   -.899E+00 0.358E+00 0.245E+04   0.914E+00 -.385E+00 -.244E+04   -.117E-01 0.742E-01 -.961E+01   -.153E-04 -.608E-05 -.813E-03
   0.871E-04 0.985E+00 0.812E+03   -.104E-03 -.102E+01 -.812E+03   0.314E-04 0.314E-01 0.442E+00   0.527E-05 -.235E-04 -.960E-03
   -.539E+01 0.184E-02 0.807E+03   0.561E+01 0.196E-03 -.808E+03   -.168E+00 0.285E-02 0.863E+00   -.447E-05 0.660E-05 -.965E-03
   0.501E-04 0.635E-02 -.802E+03   -.621E-04 0.901E-04 0.801E+03   0.616E-04 -.490E-01 0.472E+00   0.137E-05 0.122E-04 -.649E-03
   -.158E+02 -.510E+01 -.823E+03   0.172E+02 0.556E+01 0.824E+03   -.127E+01 -.269E+00 -.874E+00   0.658E-04 0.379E-04 -.593E-03
   0.271E-03 -.176E+01 -.243E+04   -.375E-05 0.964E+00 0.242E+04   -.309E-04 0.767E+00 0.872E+01   0.261E-05 0.350E-04 -.431E-03
   -.552E+01 0.381E-02 -.242E+04   0.360E+01 0.196E-04 0.241E+04   0.168E+01 -.297E-01 0.910E+01   -.368E-04 -.291E-06 -.448E-03
   -.240E-04 -.722E-02 0.245E+04   0.213E-04 -.388E-04 -.244E+04   -.454E-04 0.596E-01 -.948E+01   -.665E-05 0.709E-05 -.833E-03
   0.899E+00 -.372E+00 0.245E+04   -.914E+00 0.385E+00 -.244E+04   0.118E-01 0.432E-01 -.961E+01   0.149E-04 0.186E-04 -.824E-03
   -.929E-04 -.459E+01 0.799E+03   0.105E-03 0.485E+01 -.799E+03   -.465E-04 -.189E+00 0.640E+00   -.609E-05 0.702E-05 -.908E-03
   0.177E+01 0.272E-02 0.806E+03   -.177E+01 -.195E-03 -.807E+03   -.220E-03 0.338E-02 0.697E+00   -.194E-04 0.509E-06 -.934E-03
   -.784E-04 -.800E-02 -.848E+03   0.815E-04 -.632E-03 0.849E+03   0.352E-03 0.684E-01 0.207E+00   0.157E-05 0.412E-05 -.597E-03
   0.158E+02 0.511E+01 -.823E+03   -.172E+02 -.556E+01 0.824E+03   0.125E+01 0.211E+00 -.883E+00   -.695E-04 -.411E-04 -.583E-03
   0.262E-03 0.654E+02 -.248E+04   0.357E-04 -.674E+02 0.247E+04   -.510E-03 0.319E+00 0.100E+02   0.103E-05 -.463E-04 -.446E-03
   0.738E+02 -.471E-02 -.241E+04   -.743E+02 0.584E-04 0.240E+04   -.967E+00 0.324E-01 0.837E+01   0.251E-04 0.994E-05 -.440E-03
   -.762E-05 -.720E-02 0.245E+04   0.219E-04 0.386E-04 -.244E+04   -.228E-04 0.587E-01 -.962E+01   -.555E-05 0.370E-05 -.800E-03
   0.899E+00 0.358E+00 0.245E+04   -.914E+00 -.385E+00 -.244E+04   0.117E-01 0.742E-01 -.961E+01   0.147E-04 -.521E-05 -.811E-03
   -.978E-04 0.459E+01 0.799E+03   0.109E-03 -.485E+01 -.799E+03   0.439E-05 0.193E+00 0.643E+00   -.315E-05 -.380E-06 -.905E-03
   0.539E+01 0.183E-02 0.807E+03   -.561E+01 0.201E-03 -.808E+03   0.168E+00 0.286E-02 0.863E+00   0.340E-05 0.802E-05 -.957E-03
   -.309E-04 -.455E-02 -.829E+03   0.681E-04 0.714E-03 0.828E+03   -.179E-03 0.298E-01 0.104E+01   -.339E-05 0.347E-05 -.686E-03
   0.158E+02 -.510E+01 -.823E+03   -.172E+02 0.556E+01 0.824E+03   0.127E+01 -.269E+00 -.873E+00   -.657E-04 0.383E-04 -.592E-03
   0.255E-03 -.654E+02 -.248E+04   0.338E-04 0.674E+02 0.247E+04   -.447E-03 -.311E+00 0.998E+01   -.219E-05 0.631E-04 -.469E-03
   0.552E+01 0.379E-02 -.242E+04   -.360E+01 0.396E-04 0.241E+04   -.168E+01 -.296E-01 0.910E+01   0.379E-04 -.613E-05 -.435E-03
   -.290E-03 0.500E-02 0.489E+03   -.432E-04 -.482E-04 -.490E+03   0.542E-03 -.898E-02 0.201E+00   0.168E-05 -.202E-05 -.431E-03
   -.228E+01 -.397E+00 0.481E+03   0.223E+01 0.384E+00 -.481E+03   0.529E-01 0.108E-01 -.278E+00   0.164E-04 0.940E-05 -.400E-03
   0.671E-04 -.128E+00 0.148E+04   -.132E-04 0.139E+00 -.149E+04   -.104E-03 -.146E-01 0.250E+01   0.237E-05 0.873E-05 -.535E-03
   -.395E+00 -.109E-02 0.148E+04   0.401E+00 -.224E-04 -.149E+04   -.837E-02 0.269E-02 0.252E+01   -.967E-05 -.275E-06 -.536E-03
   0.437E-04 0.490E-02 -.148E+04   0.502E-04 0.914E-04 0.148E+04   -.747E-04 -.139E-01 -.364E+01   0.318E-05 0.185E-04 -.792E-04
   -.179E+02 0.837E+01 -.147E+04   0.190E+02 -.100E+02 0.147E+04   -.126E+01 0.215E+01 -.236E+01   0.280E-04 -.392E-04 -.132E-03
   0.354E-03 -.897E+00 -.476E+03   -.449E-04 0.707E+00 0.476E+03   -.464E-03 0.265E+00 0.756E+00   0.786E-06 -.207E-04 -.232E-03
   -.132E+02 -.288E-02 -.489E+03   0.143E+02 -.151E-03 0.489E+03   -.151E+01 0.158E-02 -.133E+00   0.404E-04 -.441E-05 -.232E-03
   -.276E-04 0.427E-02 0.487E+03   -.559E-04 0.687E-04 -.487E+03   0.134E-03 -.811E-02 0.147E+00   0.412E-05 0.650E-05 -.424E-03
   -.228E+01 0.406E+00 0.481E+03   0.223E+01 -.384E+00 -.481E+03   0.531E-01 -.289E-01 -.278E+00   0.960E-05 -.513E-05 -.399E-03
   0.640E-04 0.126E+00 0.148E+04   -.134E-04 -.139E+00 -.149E+04   -.858E-04 0.155E-01 0.250E+01   0.349E-05 -.877E-05 -.537E-03
   -.649E+00 -.123E-02 0.148E+04   0.678E+00 0.225E-04 -.148E+04   -.363E-01 0.277E-02 0.247E+01   -.273E-04 -.343E-05 -.528E-03
   0.184E-03 0.461E-02 -.148E+04   -.237E-04 -.438E-04 0.148E+04   -.297E-03 -.133E-01 -.355E+01   -.122E-05 -.504E-06 -.940E-04
   -.178E+02 -.837E+01 -.147E+04   0.190E+02 0.100E+02 0.147E+04   -.126E+01 -.216E+01 -.235E+01   0.221E-04 0.357E-04 -.132E-03
   0.361E-03 0.906E+00 -.476E+03   -.474E-04 -.707E+00 0.476E+03   -.493E-03 -.288E+00 0.758E+00   0.164E-05 0.318E-04 -.240E-03
   -.582E+01 0.391E-02 -.481E+03   0.578E+01 0.162E-03 0.480E+03   0.115E-01 -.906E-02 0.105E+01   0.248E-04 0.623E-05 -.262E-03
   0.293E-03 0.514E-02 0.489E+03   0.475E-04 -.106E-03 -.489E+03   -.540E-03 -.907E-02 0.111E+00   -.254E-05 0.688E-06 -.359E-03
   0.228E+01 -.397E+00 0.481E+03   -.223E+01 0.384E+00 -.481E+03   -.529E-01 0.108E-01 -.278E+00   -.148E-04 0.703E-05 -.398E-03
   -.636E-04 -.382E+00 0.148E+04   0.133E-04 0.415E+00 -.148E+04   0.915E-04 -.425E-01 0.248E+01   -.394E-05 -.278E-05 -.499E-03
   0.395E+00 -.110E-02 0.148E+04   -.401E+00 -.226E-04 -.149E+04   0.837E-02 0.269E-02 0.252E+01   0.109E-04 0.128E-05 -.529E-03
   0.186E-03 0.410E-02 -.147E+04   0.740E-04 -.132E-02 0.148E+04   -.438E-03 -.602E-02 -.178E+01   -.839E-06 0.167E-04 -.959E-04
   0.179E+02 0.837E+01 -.147E+04   -.190E+02 -.100E+02 0.147E+04   0.125E+01 0.215E+01 -.236E+01   -.251E-04 -.324E-04 -.124E-03
   -.369E-03 0.477E+01 -.527E+03   0.465E-04 -.592E+01 0.529E+03   0.562E-03 0.161E+01 -.219E+01   -.196E-05 -.501E-04 -.228E-03
   0.132E+02 -.287E-02 -.489E+03   -.143E+02 -.151E-03 0.489E+03   0.151E+01 0.157E-02 -.134E+00   -.425E-04 -.479E-05 -.233E-03
   0.258E-04 0.352E-02 0.477E+03   0.556E-04 0.954E-04 -.477E+03   -.129E-03 -.709E-02 -.200E+00   -.303E-05 0.412E-05 -.386E-03
   0.228E+01 0.406E+00 0.481E+03   -.223E+01 -.384E+00 -.481E+03   -.530E-01 -.288E-01 -.278E+00   -.116E-04 -.416E-05 -.393E-03
   -.683E-04 0.381E+00 0.148E+04   0.135E-04 -.415E+00 -.148E+04   0.881E-04 0.434E-01 0.248E+01   -.278E-05 0.217E-05 -.491E-03
   0.649E+00 -.123E-02 0.148E+04   -.678E+00 0.228E-04 -.148E+04   0.363E-01 0.276E-02 0.247E+01   0.262E-04 -.283E-05 -.524E-03
   -.660E-04 -.745E-02 -.146E+04   0.226E-04 0.148E-02 0.146E+04   0.914E-04 0.260E-02 -.764E+00   0.153E-05 -.349E-05 -.166E-03
   0.179E+02 -.837E+01 -.147E+04   -.190E+02 0.100E+02 0.147E+04   0.126E+01 -.216E+01 -.235E+01   -.212E-04 0.309E-04 -.132E-03
   -.380E-03 -.477E+01 -.527E+03   0.524E-04 0.592E+01 0.529E+03   0.563E-03 -.162E+01 -.219E+01   -.737E-06 0.476E-04 -.239E-03
   0.582E+01 0.390E-02 -.481E+03   -.578E+01 0.179E-03 0.480E+03   -.115E-01 -.907E-02 0.105E+01   -.225E-04 0.457E-05 -.262E-03
   0.317E-02 0.469E-01 0.243E+00   0.433E-12 -.124E-12 0.142E-11   -.338E-02 0.115E+00 -.100E+01   0.718E-05 0.155E-03 -.327E-01

 POSITION                                       TOTAL-FORCE (eV/Angst)
      0.00000      6.33303      4.28157         0.000043      0.049894      0.449441
      2.11025      0.00229      4.28157         0.003279      0.053116      0.470221
      0.00000      0.00229      6.39181         0.000004      0.013795      0.020619
      2.11025      6.33303      6.39181        -0.006280      0.003382      0.038958
      8.44098      6.33303      8.48926         0.000250     -0.016657     -0.173285
      2.12746      0.00868      8.53030         0.182002     -0.241568     -0.060315
      0.00000      0.02180     10.61555         0.000268     -0.111292     -0.296610
      2.00198      6.33303     10.59030         1.499670      0.025243     -0.034114
      0.00000      2.11254      4.28157         0.000020      0.049659      0.453260
      2.11025      4.22278      4.28157         0.003358      0.044608      0.470710
      0.00000      4.22278      6.39181         0.000023     -0.004630      0.021518
      2.11025      2.11254      6.39181         0.050113      0.002352     -0.005679
      0.00000      2.11254      8.50546         0.000054     -0.045058     -0.139499
      2.12747      4.21640      8.53030         0.159754      0.188597     -0.053214
      0.00000      4.20328     10.61555         0.000242     -0.032839     -0.310801
      2.09055      2.11254     10.62376        -0.243804     -0.028396     -0.506035
      4.22049      6.33303      4.28157        -0.000052      0.049821      0.450651
      6.33074      0.00229      4.28157        -0.003287      0.053096      0.470379
      4.22049      0.00229      6.39181        -0.000037      0.066643      0.100627
      6.33074      6.33303      6.39181         0.006292      0.003371      0.039055
      4.22049      6.33303      8.46557         0.000360      0.057275      1.175063
      6.31352      0.00868      8.53030        -0.181944     -0.241609     -0.060257
      4.22049      0.09690     10.81979        -0.000208     -1.646882     -1.276275
      6.43900      6.33303     10.59030        -1.499648      0.025184     -0.034149
      4.22049      2.11254      4.28157        -0.000011      0.048987      0.476651
      6.33074      4.22278      4.28157        -0.003321      0.044631      0.470631
      4.22049      4.22278      6.39181         0.000015     -0.062389      0.101073
      6.33074      2.11254      6.39181        -0.050105      0.002364     -0.005732
      4.22049      2.11254      8.53780        -0.000142      0.023430     -0.073226
      6.31352      4.21640      8.53030        -0.159654      0.188646     -0.053120
      4.22049      4.12818     10.81980        -0.000157      1.650254     -1.286540
      6.35044      2.11254     10.62376         0.243504     -0.028349     -0.505972
      0.00000      6.33303      6.39181         0.000249     -0.008042      0.008316
      2.11025      0.00229      6.39181         0.007681     -0.005597      0.046814
      0.00000      0.00229      4.28157        -0.000042     -0.007723     -0.309389
      2.11025      6.33303      4.28157        -0.001880     -0.002305     -0.306957
      0.00000      6.33303     10.63393        -0.000086     -0.012409      0.055392
      2.09470      8.43064     10.64084        -0.090711      0.505518      0.321590
      0.00000      8.43869      8.49951        -0.000204      0.073437      0.185558
      2.12978      6.33303      8.51918        -0.453847      0.002637     -0.228200
      0.00000      2.11254      6.39181         0.000064     -0.007652      0.057855
      2.11025      4.22278      6.39181         0.007600     -0.010774      0.046562
      0.00000      4.22278      4.28157        -0.000028     -0.000718     -0.309414
      2.11025      2.11254      4.28157        -0.008456     -0.002310     -0.317910
      0.00000      2.11254     10.64951        -0.000180     -0.012326      0.033068
      2.09470      4.23542     10.64084        -0.095063     -0.516199      0.327149
      0.00000      4.22737      8.49951        -0.000226     -0.090621      0.186505
      2.11475      2.11254      8.51147        -0.029044     -0.007545      0.189479
      4.22049      6.33303      6.39181        -0.000220     -0.008412     -0.113000
      6.33074      0.00229      6.39181        -0.007675     -0.005610      0.047016
      4.22049      0.00229      4.28157         0.000043     -0.014278     -0.313029
      6.33074      6.33303      4.28157         0.001883     -0.002315     -0.306917
      4.22049      6.33304     10.75435        -0.000062     -0.008067     -0.001533
      6.34628      8.43064     10.64084         0.090397      0.505489      0.321436
      4.22049      8.42386      8.53684         0.000295      0.488073     -0.120190
      6.31120      6.33303      8.51918         0.453908      0.002634     -0.228337
      4.22049      2.11254      6.39181        -0.000054     -0.007177      0.095289
      6.33074      4.22278      6.39181        -0.007575     -0.010773      0.046779
      4.22049      4.22278      4.28157         0.000032      0.005858     -0.313166
      6.33074      2.11254      4.28157         0.008459     -0.002314     -0.317906
      4.22049      2.11254     10.68204         0.000088     -0.000997      0.484529
      6.34628      4.23542     10.64084         0.094722     -0.516178      0.326818
      4.22049      4.24220      8.53684         0.000291     -0.500437     -0.117698
      6.32623      2.11254      8.51147         0.029037     -0.007547      0.189459
    total drift:                               -0.000202      0.162475     -0.794448

  FREE ENERGIE OF THE ION-ELECTRON SYSTEM (eV)
  free  energy   TOTEN  =      -530.57995256 eV

  energy  without entropy=     -530.57995256  energy(sigma->0) =     -530.57995256