 vasp.6.3.0 20Jan22 (build Apr  1 2022 16:44:48) complex
 executed on        HPECrayEX_GCC date 2022.11.03  12:18:49

 INCAR:
   SYSTEM = MgO-rocksalt
   ISMEAR = 0
   SIGMA = 0.05
   EDIFF = 1E-7
   ALGO = ALL
   ISTART = 0
   IBRION = 2
   NSW = 1000
   ISYM = 0
   ISIF = 2
   EDIFFG = -0.01
   DIPOL = 0.5 0.5 0.5
   IDIPOL = 3
   LDIPOL = .TRUE.
   GGA = MK
   LUSE_VDW = .TRUE.
   PARAM1 = 0.1234
   PARAM2 = 0.711357
   ZAB_VDW = -1.8867
   AGGAC = 0.0
   ENCUT = 600
   PREC = Accurate
   LASPH = .TRUE.
   LREAL = .FALSE.
   ISPIN = 1
   NELM = 200
   NELMIN = 8
   NCORE = 8
   KPAR = 1
   LWAVE = .FALSE.
   LCHARG = .FALSE.

 POTCAR:    PAW_PBE C 08Apr2002
 POTCAR:    PAW_PBE H 15Jun2001
 POTCAR:    PAW_PBE Mg_pv 13Apr2007
 POTCAR:    PAW_PBE O 08Apr2002
|               ----> ADVICE to this user running VASP <----                  |
|     You have switched on vdW-DFT.                                           |
|     This routine was written and supplied by Jiri Klimes. We recommend      |
|     that you carefully read and cite the following publications:            |
|       J. Klimes, D.R. Bowler, A. Michelides                                 |
|          J. Phys.: Cond Matt. 22 022201 (2010)                              |
|       J. Klimes, D.R. Bowler, A. Michelides                                 |
|          Phys. Rev. B. 83, 195131 (2011)                                    |
|     and references therein.                                                 |

   TITEL  = PAW_PBE C 08Apr2002
   POMASS =   12.011; ZVAL   =    4.000    mass and valenz
   ENMAX  =  400.000; ENMIN  =  300.000 eV

   TITEL  = PAW_PBE H 15Jun2001
   POMASS =    1.000; ZVAL   =    1.000    mass and valenz
   ENMAX  =  250.000; ENMIN  =  200.000 eV

   TITEL  = PAW_PBE Mg_pv 13Apr2007
   POMASS =   24.305; ZVAL   =    8.000    mass and valenz
   ENMAX  =  403.929; ENMIN  =  302.947 eV

   TITEL  = PAW_PBE O 08Apr2002
   POMASS =   16.000; ZVAL   =    6.000    mass and valenz
   ENMAX  =  400.000; ENMIN  =  300.000 eV

  PAW_PBE C 08Apr2002                   :
  PAW_PBE H 15Jun2001                   :
  PAW_PBE Mg_pv 13Apr2007               :
  PAW_PBE O 08Apr2002                   :

 POSCAR:  C  H Mg  O
  positions in direct lattice
 exchange correlation table for  LEXCH =       43
   RHO(1)=    0.500       N(1)  =     2000
   RHO(2)=  100.500       N(2)  =     4000

 ion  position               nearest neighbor table
   1  0.500  0.500  0.797-   5 1.10   6 1.10   8 1.10   7 1.10
   2  0.000  0.500  0.797-   9 1.10  10 1.10  12 1.10  11 1.10
   3  0.500  0.000  0.797-  13 1.10  14 1.10  16 1.10  15 1.10
   4  0.000  0.000  0.797-  17 1.10  18 1.10  20 1.10  19 1.10
   5  0.500  0.606  0.827-   1 1.10
   6  0.500  0.394  0.827-   1 1.10
   7  0.607  0.500  0.768-   1 1.10
   8  0.393  0.500  0.768-   1 1.10
   9  0.894  0.500  0.827-   2 1.10
  10  0.106  0.500  0.827-   2 1.10
  11  0.000  0.607  0.768-   2 1.10
  12  0.000  0.393  0.768-   2 1.10
  13  0.394  0.000  0.827-   3 1.10
  14  0.606  0.000  0.827-   3 1.10
  15  0.500  0.107  0.768-   3 1.10
  16  0.500  0.893  0.768-   3 1.10
  17  0.000  0.106  0.827-   4 1.10
  18  0.000  0.894  0.827-   4 1.10
  19  0.107  0.000  0.768-   4 1.10
  20  0.893  0.000  0.768-   4 1.10
  21  0.250  0.000  0.352-  53 2.11  55 2.11  56 2.11  63 2.11  72 2.11
  22  0.500  0.250  0.352-  54 2.11  55 2.11  56 2.11  64 2.11  71 2.11
  23  0.250  0.250  0.451-  55 2.11  54 2.11  53 2.11  61 2.11  70 2.11  59 2.12
  24  0.500  0.000  0.451-  56 2.11  54 2.11  53 2.11  62 2.11  69 2.11  60 2.11
  25  0.250  0.000  0.550-  60 2.11  59 2.11  67 2.11  76 2.11  53 2.12  57 2.14
  26  0.500  0.250  0.550-  68 2.11  60 2.11  75 2.11  59 2.11  54 2.12  58 2.13
  27  0.250  0.250  0.648-  59 2.10  57 2.11  58 2.11  74 2.11  65 2.11
  28  0.500  0.000  0.648-  60 2.10  58 2.11  66 2.11  57 2.11  73 2.11
  29  0.250  0.500  0.352-  61 2.11  55 2.11  63 2.11  64 2.11  80 2.11
  30  0.500  0.750  0.352-  62 2.11  56 2.11  63 2.11  64 2.11  79 2.11
  31  0.250  0.750  0.451-  63 2.11  61 2.11  62 2.11  53 2.11  78 2.11  67 2.12
  32  0.500  0.500  0.451-  64 2.11  61 2.11  62 2.11  54 2.11  77 2.11  68 2.12
  33  0.250  0.500  0.550-  68 2.11  67 2.11  59 2.11  84 2.11  61 2.12  65 2.14
  34  0.500  0.750  0.550-  68 2.11  60 2.11  83 2.11  67 2.11  62 2.12  66 2.13
  35  0.250  0.750  0.648-  67 2.10  57 2.11  66 2.11  82 2.11  65 2.11
  36  0.500  0.500  0.649-  58 2.11  66 2.11  68 2.11  65 2.11  81 2.11
  37  0.750  0.000  0.352-  69 2.11  56 2.11  71 2.11  72 2.11  79 2.11
  38  0.000  0.250  0.352-  70 2.11  55 2.11  71 2.11  72 2.11  80 2.11
  39  0.750  0.250  0.451-  71 2.11  69 2.11  70 2.11  54 2.11  77 2.11  75 2.12
  40  0.000  0.000  0.451-  72 2.11  69 2.11  70 2.11  53 2.11  78 2.11  76 2.12
  41  0.750  0.000  0.550-  60 2.11  75 2.11  83 2.11  76 2.11  69 2.12  73 2.14
  42  1.000  0.250  0.550-  75 2.11  59 2.11  76 2.11  84 2.11  70 2.12  74 2.14
  43  0.750  0.250  0.648-  75 2.10  73 2.11  58 2.11  74 2.11  81 2.11
  44  1.000  0.000  0.648-  76 2.10  73 2.11  57 2.11  74 2.11  82 2.11
  45  0.750  0.500  0.352-  77 2.11  71 2.11  64 2.11  79 2.11  80 2.11
  46  0.000  0.750  0.352-  78 2.11  72 2.11  63 2.11  79 2.11  80 2.11
  47  0.750  0.750  0.451-  79 2.11  69 2.11  77 2.11  78 2.11  62 2.11  83 2.12
  48  0.000  0.500  0.451-  80 2.11  70 2.11  77 2.11  78 2.11  61 2.11  84 2.12
  49  0.750  0.500  0.550-  68 2.11  75 2.11  83 2.11  84 2.11  77 2.12  81 2.14
  50  1.000  0.750  0.550-  83 2.11  67 2.11  76 2.11  84 2.11  78 2.12  82 2.14
  51  0.750  0.750  0.648-  83 2.10  73 2.11  66 2.11  82 2.11  81 2.11
  52  1.000  0.500  0.648-  84 2.10  65 2.11  81 2.11  74 2.11  82 2.11
  53  0.250  0.000  0.451-  21 2.11  23 2.11  24 2.11  31 2.11  40 2.11  25 2.12
  54  0.500  0.250  0.451-  22 2.11  23 2.11  24 2.11  32 2.11  39 2.11  26 2.12
  55  0.250  0.250  0.352-  23 2.11  22 2.11  21 2.11  29 2.11  38 2.11
  56  0.500  0.000  0.352-  24 2.11  22 2.11  21 2.11  30 2.11  37 2.11
  57  0.250  0.000  0.650-  27 2.11  35 2.11  44 2.11  28 2.11  25 2.14
  58  0.500  0.250  0.650-  28 2.11  43 2.11  27 2.11  36 2.11  26 2.13
  59  0.250  0.250  0.550-  27 2.10  42 2.11  33 2.11  25 2.11  26 2.11  23 2.12
  60  0.500  0.000  0.550-  28 2.10  25 2.11  41 2.11  34 2.11  26 2.11  24 2.11
[...]
  70  0.000  0.250  0.451-  38 2.11  23 2.11  39 2.11  40 2.11  48 2.11  42 2.12
  71  0.750  0.250  0.352-  39 2.11  37 2.11  38 2.11  22 2.11  45 2.11
  72  0.000  0.000  0.352-  40 2.11  37 2.11  38 2.11  21 2.11  46 2.11
  73  0.750  0.000  0.650-  43 2.11  51 2.11  44 2.11  28 2.11  41 2.14
  74  1.000  0.250  0.650-  44 2.11  52 2.11  27 2.11  43 2.11  42 2.14
  75  0.750  0.250  0.550-  43 2.10  42 2.11  49 2.11  41 2.11  26 2.11  39 2.12
  76  1.000  0.000  0.550-  44 2.10  42 2.11  50 2.11  25 2.11  41 2.11  40 2.12
  77  0.750  0.500  0.451-  45 2.11  39 2.11  32 2.11  47 2.11  48 2.11  49 2.12
  78  0.000  0.750  0.451-  46 2.11  40 2.11  31 2.11  47 2.11  48 2.11  50 2.12
  79  0.750  0.750  0.352-  47 2.11  37 2.11  45 2.11  46 2.11  30 2.11
  80  0.000  0.500  0.352-  48 2.11  38 2.11  45 2.11  46 2.11  29 2.11
  81  0.750  0.500  0.650-  52 2.11  51 2.11  43 2.11  36 2.11  49 2.14
  82  1.000  0.750  0.650-  44 2.11  52 2.11  51 2.11  35 2.11  50 2.14
  83  0.750  0.750  0.550-  51 2.10  50 2.11  49 2.11  41 2.11  34 2.11  47 2.12
  84  1.000  0.500  0.550-  52 2.10  42 2.11  50 2.11  49 2.11  33 2.11  48 2.12

IMPORTANT INFORMATION: All symmetrisations will be switched off!
NOSYMM: (Re-)initialisation of all symmetry stuff for point group C_1.

                                     Primitive cell

  volume of cell :    1519.6535

  direct lattice vectors                    reciprocal lattice vectors
     8.440582262  0.000000000  0.000000000     0.118475239  0.000000000  0.000000000
     0.000000000  8.440582262  0.000000000     0.000000000  0.118475239  0.000000000
     0.000000000  0.000000000 21.330436697     0.000000000  0.000000000  0.046881366

  length of vectors
     8.440582262  8.440582262 21.330436697     0.118475239  0.118475239  0.046881366

  position of ions in fractional coordinates (direct lattice)
     0.500000043  0.500000039  0.797447370
     0.000000033  0.500000029  0.797447370
     0.500000033  0.000000029  0.797447370
     0.000000043  0.000000039  0.797447370
     0.500000077  0.606464350  0.826971269
     0.500000031  0.393535593  0.826971251
     0.607143184  0.500000005  0.768077853
     0.392856886  0.500000051  0.768077864
     0.893535723  0.500000063  0.826971269
     0.106464479  0.500000017  0.826971251
     0.000000067  0.607143171  0.768077853
     0.000000022  0.392856872  0.768077864
     0.393535723  0.000000063  0.826971269
     0.606464479  0.000000017  0.826971251
     0.500000067  0.107143171  0.768077853
     0.500000022  0.892856872  0.768077864
     0.000000077  0.106464350  0.826971269
     0.000000031  0.893535593  0.826971251
     0.107143184  0.000000005  0.768077853
     0.892856886  0.000000051  0.768077864
     0.250000000  0.000000000  0.351610242
     0.500000000  0.250000000  0.351610242
     0.250000000  0.250000000  0.450536747
     0.500000000  0.000000000  0.450536747
     0.250020383  0.000000002  0.549964511
     0.499999995  0.250059851  0.550024624
     0.250059453  0.249849588  0.648270450
     0.499999989  0.000000005  0.648330813
     0.250000000  0.500000000  0.351610242
     0.500000000  0.750000000  0.351610242
     0.250000000  0.750000000  0.450536747
     0.500000000  0.500000000  0.450536747
     0.250073483  0.500000003  0.550017913
     0.499999994  0.749940154  0.550024627
     0.250059451  0.750150420  0.648270445
     0.499999985  0.500000002  0.648823829
     0.750000000  0.000000000  0.351610242
     0.000000000  0.250000000  0.351610242
     0.750000000  0.250000000  0.450536747
     0.000000000  0.000000000  0.450536747
     0.749979604  0.000000004  0.549964510
     0.999999993  0.249994039  0.549974874
     0.749940525  0.249849582  0.648270453
     0.999999988  0.000000003  0.648413763
     0.750000000  0.500000000  0.351610242
     0.000000000  0.750000000  0.351610242
     0.750000000  0.750000000  0.450536747
     0.000000000  0.500000000  0.450536747
     0.749926503  0.500000000  0.550017911
     0.999999993  0.750005964  0.549974872
     0.749940526  0.750150423  0.648270447
     0.999999993  0.500000001  0.648293177
     0.250000000  0.000000000  0.450536747
     0.500000000  0.250000000  0.450536747
     0.250000000  0.250000000  0.351610242
     0.500000000  0.000000000  0.351610242
     0.249967574  0.000000004  0.650232023
     0.499999992  0.249790432  0.650054103
     0.249935855  0.250001082  0.549704381
     0.499999991  0.000000000  0.549674093
[...]
     0.000000000  0.250000000  0.450536747
     0.750000000  0.250000000  0.351610242
     0.000000000  0.000000000  0.351610242
     0.750032406  0.000000003  0.650232024
     0.999999991  0.249978599  0.650229220
     0.750064135  0.250001085  0.549704379
     0.999999996  0.000000003  0.549734307
     0.750000000  0.500000000  0.450536747
     0.000000000  0.750000000  0.450536747
[...]
   6.33043670  6.33043670  7.50000000
   0.00000000  4.22029113  7.50000000
   6.33261837  4.22029116 13.87113220
   8.44058213  6.33061739 13.86967324
   6.33097801  6.33042756 11.72543451
   8.44058220  4.22029114 11.72558028

--------------------------------------- Iteration      FINAL  ---------------------------------------

--------------------OUTCAR has been truncated-------------------------

[...]

--------------------OUTCAR has been truncated-------------------------

  FORCE on cell =-STRESS in cart. coord.  units (eV):
  Direction    XX          YY          ZZ          XY          YZ          ZX
  Alpha Z   976.13934   976.13934   976.13934
  Ewald  151862.67671151862.57027************    -0.00000     0.00002    -0.00003
  Hartree162444.48917162444.41725************     0.00000     0.00001    -0.00002
  E(xc)   -2565.28153 -2565.28178 -2565.60632    -0.00000     0.00000    -0.00000
  Local  ************************324015.25926    -0.00000    -0.00004     0.00004
  n-local -2895.78968 -2895.79022 -2914.98368     0.00000     0.00000    -0.00000
  augment  1052.13684  1052.13675  1042.96505     0.00000    -0.00000     0.00000
  Kinetic  7710.26434  7710.27346  7749.01853    -0.00000    -0.00000     0.00000
  Fock        0.00000     0.00000     0.00000     0.00000     0.00000     0.00000
  Total     -29.96909   -29.96463    -2.52802    -0.00000     0.00000     0.00000
  in kB     -31.59654   -31.59184    -2.66530    -0.00000     0.00000     0.00000

 VOLUME and BASIS-vectors are now :
  energy-cutoff  :      600.00
  volume of cell :     1519.65
      direct lattice vectors                 reciprocal lattice vectors
     8.440582262  0.000000000  0.000000000     0.118475239  0.000000000  0.000000000
     0.000000000  8.440582262  0.000000000     0.000000000  0.118475239  0.000000000
     0.000000000  0.000000000 21.330436697     0.000000000  0.000000000  0.046881366

  length of vectors
     8.440582262  8.440582262 21.330436697     0.118475239  0.118475239  0.046881366

 FORCES acting on ions:
    Electron-Ion                     Ewald-Force                    Non-Local-Force
   -.474E-05 -.188E-05 -.923E+03   0.570E-05 0.119E-05 0.923E+03   0.882E-06 -.476E-06 -.833E-02
   0.566E-06 0.262E-05 -.923E+03   0.164E-07 -.240E-05 0.923E+03   0.761E-06 -.397E-06 -.124E-01
   0.354E-05 0.506E-05 -.923E+03   -.315E-05 -.512E-05 0.923E+03   0.823E-06 -.152E-06 -.953E-02
   -.516E-05 -.569E-06 -.923E+03   0.517E-05 0.303E-06 0.923E+03   -.389E-06 -.220E-06 -.113E-01
   -.133E-04 -.373E+02 -.234E+03   0.148E-04 0.419E+02 0.238E+03   -.152E-05 -.455E+01 -.318E+01
   0.372E-05 0.373E+02 -.234E+03   -.422E-05 -.419E+02 0.238E+03   0.450E-06 0.455E+01 -.318E+01
   -.374E+02 -.473E-06 -.227E+03   0.420E+02 0.359E-06 0.224E+03   -.460E+01 0.151E-06 0.309E+01
   0.374E+02 -.154E-04 -.227E+03   -.420E+02 0.170E-04 0.224E+03   0.460E+01 -.173E-05 0.309E+01
   0.373E+02 -.113E-04 -.234E+03   -.419E+02 0.127E-04 0.238E+03   0.455E+01 -.138E-05 -.318E+01
   -.373E+02 0.584E-05 -.234E+03   0.419E+02 -.641E-05 0.238E+03   -.455E+01 0.627E-06 -.318E+01
   -.156E-05 -.374E+02 -.227E+03   0.172E-05 0.420E+02 0.224E+03   -.277E-06 -.459E+01 0.309E+01
   0.131E-04 0.374E+02 -.227E+03   -.147E-04 -.420E+02 0.224E+03   0.155E-05 0.459E+01 0.309E+01
   0.373E+02 -.118E-04 -.234E+03   -.419E+02 0.133E-04 0.238E+03   0.455E+01 -.144E-05 -.318E+01
   -.373E+02 0.586E-05 -.234E+03   0.419E+02 -.638E-05 0.238E+03   -.455E+01 0.612E-06 -.318E+01
   0.999E-07 -.374E+02 -.227E+03   -.271E-08 0.420E+02 0.224E+03   -.198E-06 -.459E+01 0.309E+01
   0.155E-04 0.374E+02 -.227E+03   -.173E-04 -.420E+02 0.224E+03   0.172E-05 0.459E+01 0.309E+01
   -.134E-04 -.373E+02 -.234E+03   0.148E-04 0.419E+02 0.238E+03   -.147E-05 -.455E+01 -.318E+01
   0.414E-05 0.373E+02 -.234E+03   -.464E-05 -.419E+02 0.238E+03   0.593E-06 0.455E+01 -.318E+01
   -.374E+02 -.320E-06 -.227E+03   0.420E+02 0.338E-06 0.224E+03   -.459E+01 0.514E-07 0.309E+01
   0.374E+02 -.153E-04 -.227E+03   -.420E+02 0.171E-04 0.224E+03   0.459E+01 -.181E-05 0.309E+01
   -.258E-02 0.265E-05 0.210E+04   0.259E-02 -.274E-05 -.210E+04   -.664E-05 0.879E-07 -.679E+01
   0.671E-06 -.113E-01 0.210E+04   -.579E-06 0.117E-01 -.210E+04   -.517E-07 -.315E-03 -.679E+01
   -.798E-02 -.545E-01 0.785E+03   0.860E-02 0.577E-01 -.785E+03   -.443E-03 -.226E-02 0.457E+00
   0.375E-05 0.149E-04 0.784E+03   -.349E-05 -.149E-04 -.785E+03   -.720E-07 -.190E-07 0.431E+00
   -.360E-01 0.178E-04 -.526E+03   0.344E-01 -.177E-04 0.526E+03   0.110E-02 0.565E-06 -.265E+00
   0.400E-05 0.594E-01 -.526E+03   -.260E-05 -.561E-01 0.526E+03   -.189E-05 -.553E-02 -.267E+00
   -.394E-01 0.109E-01 -.184E+04   0.409E-01 -.141E-01 0.183E+04   0.966E-03 0.357E-02 0.599E+01
   -.141E-04 0.155E-04 -.182E+04   0.154E-04 -.149E-04 0.181E+04   0.239E-07 -.179E-05 0.589E+01
   0.464E-03 -.271E-05 0.210E+04   -.284E-03 0.283E-05 -.210E+04   -.147E-03 -.821E-07 -.680E+01
   0.817E-06 0.113E-01 0.210E+04   -.697E-06 -.117E-01 -.210E+04   -.150E-06 0.315E-03 -.679E+01
   -.798E-02 0.545E-01 0.785E+03   0.859E-02 -.577E-01 -.785E+03   -.443E-03 0.226E-02 0.457E+00
   0.237E-05 -.164E-04 0.784E+03   -.199E-05 0.164E-04 -.785E+03   -.277E-07 -.181E-07 0.446E+00
   0.132E+00 -.226E-04 -.526E+03   -.132E+00 0.241E-04 0.526E+03   -.299E-02 -.885E-06 -.264E+00
   -.974E-05 -.594E-01 -.526E+03   0.887E-05 0.561E-01 0.526E+03   0.636E-06 0.553E-02 -.267E+00
   -.394E-01 -.109E-01 -.184E+04   0.409E-01 0.141E-01 0.183E+04   0.963E-03 -.357E-02 0.599E+01
   -.305E-05 -.434E-04 -.182E+04   0.142E-06 0.396E-04 0.181E+04   0.248E-05 0.337E-05 0.589E+01
   0.258E-02 0.253E-05 0.210E+04   -.259E-02 -.260E-05 -.210E+04   0.669E-05 0.418E-07 -.679E+01
   -.751E-06 -.143E-01 0.210E+04   0.631E-06 0.146E-01 -.210E+04   0.929E-07 -.198E-03 -.679E+01
   0.798E-02 -.545E-01 0.785E+03   -.860E-02 0.577E-01 -.785E+03   0.443E-03 -.226E-02 0.457E+00
   -.256E-05 0.138E-04 0.784E+03   0.179E-05 -.139E-04 -.785E+03   0.452E-06 0.319E-07 0.432E+00
   0.360E-01 0.251E-04 -.526E+03   -.344E-01 -.231E-04 0.526E+03   -.110E-02 -.183E-05 -.265E+00
   -.143E-04 -.742E-01 -.526E+03   0.109E-04 0.776E-01 0.526E+03   0.254E-05 -.280E-02 -.268E+00
   0.394E-01 0.109E-01 -.184E+04   -.409E-01 -.142E-01 0.183E+04   -.961E-03 0.356E-02 0.599E+01
   0.209E-04 0.302E-04 -.182E+04   -.225E-04 -.294E-04 0.181E+04   0.923E-06 -.165E-05 0.590E+01
   -.464E-03 -.267E-05 0.210E+04   0.284E-03 0.271E-05 -.210E+04   0.147E-03 -.723E-07 -.680E+01
   -.908E-06 0.143E-01 0.210E+04   0.790E-06 -.146E-01 -.210E+04   0.142E-06 0.198E-03 -.679E+01
   0.798E-02 0.545E-01 0.785E+03   -.860E-02 -.577E-01 -.785E+03   0.443E-03 0.226E-02 0.457E+00
   -.638E-05 -.170E-04 0.784E+03   0.574E-05 0.177E-04 -.785E+03   0.502E-06 -.141E-06 0.439E+00
   -.132E+00 -.458E-04 -.526E+03   0.132E+00 0.432E-04 0.526E+03   0.299E-02 0.322E-05 -.264E+00
   -.148E-04 0.742E-01 -.526E+03   0.137E-04 -.776E-01 0.526E+03   0.125E-05 0.280E-02 -.268E+00
   0.394E-01 -.109E-01 -.184E+04   -.409E-01 0.141E-01 0.183E+04   -.963E-03 -.357E-02 0.599E+01
   -.133E-04 -.451E-04 -.182E+04   0.151E-04 0.442E-04 0.181E+04   -.190E-05 0.171E-05 0.590E+01
   -.981E-02 0.839E-05 0.588E+03   0.101E-01 -.771E-05 -.588E+03   -.469E-03 -.391E-06 -.799E-01
   0.235E-05 -.273E-01 0.588E+03   -.225E-05 0.250E-01 -.588E+03   -.500E-06 0.305E-02 -.823E-01
   -.104E-02 -.971E-02 0.158E+04   0.112E-02 0.101E-01 -.158E+04   -.118E-03 -.534E-03 0.360E+01
   0.500E-06 0.203E-05 0.158E+04   -.412E-06 -.204E-05 -.158E+04   -.872E-07 0.796E-07 0.360E+01
   -.500E+00 -.245E-05 -.139E+04   0.519E+00 0.144E-05 0.139E+04   -.190E-01 0.193E-05 -.497E+01
   0.188E-04 -.336E+00 -.139E+04   -.194E-04 0.354E+00 0.139E+04   0.151E-05 -.207E-01 -.498E+01
   -.586E-02 -.191E-01 -.389E+03   0.430E-02 0.164E-01 0.388E+03   0.231E-02 0.265E-02 0.375E+00
   0.923E-05 0.313E-04 -.389E+03   -.102E-04 -.317E-04 0.389E+03   0.654E-06 0.245E-06 0.217E+00
[...]
   0.104E-02 -.971E-02 0.158E+04   -.112E-02 0.101E-01 -.158E+04   0.118E-03 -.534E-03 0.360E+01
   -.391E-06 0.203E-05 0.158E+04   0.377E-06 -.216E-05 -.158E+04   0.106E-06 0.113E-06 0.360E+01
   0.500E+00 0.208E-04 -.139E+04   -.519E+00 -.208E-04 0.139E+04   0.189E-01 0.363E-06 -.497E+01
   -.427E-05 0.388E+00 -.139E+04   0.283E-05 -.403E+00 0.139E+04   0.138E-05 0.164E-01 -.496E+01
   0.587E-02 -.191E-01 -.389E+03   -.430E-02 0.164E-01 0.388E+03   -.231E-02 0.265E-02 0.375E+00
   0.612E-05 0.154E-04 -.389E+03   -.656E-05 -.155E-04 0.389E+03   0.108E-05 -.105E-05 0.203E+00
   -.133E-01 -.976E-05 0.588E+03   0.153E-01 0.100E-04 -.588E+03   -.253E-02 -.326E-06 -.872E-01
   -.555E-05 0.482E-01 0.588E+03   0.503E-05 -.479E-01 -.588E+03   0.270E-06 -.412E-03 -.805E-01
   0.104E-02 0.971E-02 0.158E+04   -.112E-02 -.101E-01 -.158E+04   0.118E-03 0.535E-03 0.360E+01
   -.644E-06 -.226E-05 0.158E+04   0.610E-06 0.227E-05 -.158E+04   0.503E-07 -.119E-06 0.360E+01
   -.566E+00 -.472E-04 -.139E+04   0.580E+00 0.499E-04 0.140E+04   -.934E-02 -.515E-06 -.498E+01
   0.909E-05 -.388E+00 -.139E+04   -.837E-05 0.403E+00 0.139E+04   -.130E-05 -.164E-01 -.496E+01
   0.586E-02 0.191E-01 -.389E+03   -.429E-02 -.164E-01 0.388E+03   -.231E-02 -.265E-02 0.375E+00
   -.200E-04 -.373E-04 -.390E+03   0.208E-04 0.401E-04 0.389E+03   -.920E-06 -.172E-05 0.208E+00
   -.520E-05 0.408E-05 0.154E+02   0.213E-12 0.171E-12 -.227E-11   0.131E-04 0.105E-05 -.154E+02

 POSITION                                       TOTAL-FORCE (eV/Angst)
      4.22029      4.22029     17.01025         0.000002     -0.000001      0.004187
      0.00000      4.22029     17.01037         0.000001     -0.000000      0.003741
      4.22029      0.00000     17.01038         0.000001     -0.000000      0.003089
      0.00000      0.00000     17.01035        -0.000000     -0.000001      0.003427
      4.22029      5.11945     17.64057        -0.000000      0.001317      0.002593
      4.22029      3.32114     17.64057        -0.000000     -0.001316      0.002592
      5.12479      4.22029     16.38313         0.002406     -0.000000     -0.000853
      3.31579      4.22029     16.38313        -0.002408     -0.000000     -0.000854
      7.54145      4.22029     17.64076        -0.001055     -0.000000      0.001090
      0.89913      4.22029     17.64076         0.001053     -0.000000      0.001088
      0.00000      5.12458     16.38298        -0.000000      0.004489      0.000866
      0.00000      3.31600     16.38298        -0.000000     -0.004489      0.000866
      3.32114      0.00000     17.64075        -0.000762     -0.000000      0.001466
      5.11945      0.00000     17.64075         0.000761      0.000000      0.001465
      4.22029      0.90427     16.38295        -0.000000      0.004213      0.000768
      4.22029      7.53631     16.38295        -0.000000     -0.004213      0.000769
      0.00000      0.89915     17.64071        -0.000000      0.000882      0.001599
      0.00000      7.54143     17.64071        -0.000000     -0.000881      0.001598
      0.90434      0.00000     16.38301         0.003862      0.000000      0.000411
      7.53624      0.00000     16.38301        -0.003862     -0.000000      0.000411
      2.11015      0.00000      7.50000         0.000019     -0.000000      0.317705
      4.22029      2.11015      7.50000        -0.000000      0.000109      0.317806
      2.11015      2.11015      9.61015         0.000171      0.000890      0.026917
      4.22029      0.00000      9.61015         0.000000     -0.000000      0.033007
      2.11014     -0.00000     11.73141        -0.000513      0.000001     -0.001368
      4.22029      2.11043     11.73174        -0.000001     -0.002197     -0.002098
      2.10994      2.11001     13.82229         0.002435      0.000334     -0.001629
      4.22029      0.00000     13.83411         0.000001     -0.000001      0.005692
      2.11015      4.22029      7.50000         0.000020     -0.000000      0.317976
      4.22029      6.33044      7.50000        -0.000000     -0.000109      0.317806
      2.11015      6.33044      9.61015         0.000171     -0.000890      0.026916
      4.22029      4.22029      9.61015         0.000000     -0.000000      0.033310
      2.11045      4.22029     11.73221        -0.003085      0.000001     -0.005036
      4.22029      6.33015     11.73174        -0.000000      0.002197     -0.002098
      2.10994      6.33057     13.82229         0.002433     -0.000332     -0.001629
      4.22029      4.22029     13.83561        -0.000001     -0.000000      0.002532
      6.33044      0.00000      7.50000        -0.000019     -0.000000      0.317705
      0.00000      2.11015      7.50000        -0.000000      0.000055      0.317751
      6.33044      2.11015      9.61015        -0.000171      0.000890      0.026916
      0.00000      0.00000      9.61015        -0.000000     -0.000000      0.032694
      6.33045      0.00000     11.73141         0.000514      0.000000     -0.001367
      8.44058      2.11021     11.73146        -0.000001      0.000542     -0.001437
      6.33064      2.11001     13.82229        -0.002431      0.000331     -0.001630
      8.44058      0.00000     13.83469        -0.000001     -0.000001      0.000016
      6.33044      4.22029      7.50000        -0.000020     -0.000000      0.317977
      0.00000      6.33044      7.50000        -0.000000     -0.000055      0.317751
      6.33044      6.33044      9.61015        -0.000171     -0.000890      0.026917
      0.00000      4.22029      9.61015        -0.000000      0.000000      0.034781
      6.33013      4.22029     11.73221         0.003086      0.000001     -0.005037
      8.44058      6.33037     11.73146         0.000000     -0.000543     -0.001438
      6.33064      6.33057     13.82229        -0.002433     -0.000331     -0.001628
      8.44058      4.22029     13.83526        -0.000000      0.000001     -0.000344
      2.11015      0.00000      9.61015        -0.000137      0.000000      0.055061
      4.22029      2.11015      9.61015        -0.000000      0.000801      0.055931
      2.11015      2.11015      7.50000        -0.000033     -0.000145     -0.402611
      4.22029      0.00000      7.50000        -0.000000      0.000000     -0.402884
      2.11013     -0.00000     13.86903        -0.000307      0.000001     -0.001617
      4.22029      2.11025     13.86958         0.000001     -0.002622     -0.004188
      2.11014      2.11025     11.72517         0.000749     -0.000069     -0.003008
      4.22029      0.00000     11.72548        -0.000000     -0.000000      0.006115
[...]
      0.00000      2.11015      9.61015        -0.000000      0.000155      0.055196
      6.33044      2.11015      7.50000         0.000033     -0.000145     -0.402611
      0.00000      0.00000      7.50000        -0.000000     -0.000000     -0.402868
      6.33045      0.00000     13.86903         0.000306      0.000000     -0.001618
      8.44058      2.10992     13.86894        -0.000000      0.002128      0.000923
      6.33044      2.11025     11.72517        -0.000749     -0.000069     -0.003007
      8.44058      0.00000     11.72559         0.000001     -0.000001      0.004165
      6.33044      4.22029      9.61015        -0.000558     -0.000000      0.056800
      0.00000      6.33044      9.61015        -0.000000     -0.000155      0.055196
      6.33044      6.33044      7.50000         0.000033      0.000145     -0.402611
      0.00000      4.22029      7.50000        -0.000000     -0.000000     -0.402991
      6.33016      4.22029     13.87026         0.004707      0.000002     -0.005939
      8.44058      6.33066     13.86894        -0.000001     -0.002129      0.000921
      6.33044      6.33033     11.72517        -0.000747      0.000069     -0.003005
     -0.00000      4.22029     11.72614        -0.000000      0.000001      0.003478
    total drift:                                0.000008      0.000005     -0.012661

  FREE ENERGIE OF THE ION-ELECTRON SYSTEM (eV)
  free  energy   TOTEN  =      -356.04457055 eV

  energy  without entropy=     -356.04457055  energy(sigma->0) =     -356.04457055

 d Force = 0.4941893E-04[ 0.349E-04, 0.639E-04]  d Energy = 0.4941980E-04-0.866E-09
 d Force =-0.1190244E+01[-0.119E+01,-0.119E+01]  d Ewald  =-0.1190244E+01 0.752E-08

 Conjugate gradient step on ions:
 trial-energy change:   -0.000049  1 .order   -0.000049   -0.000064   -0.000035
  (g-gl).g = 0.974E-04      g.g   = 0.953E-04  gl.gl    = 0.526E-03
 g(Force)  = 0.953E-04   g(Stress)= 0.000E+00 ortho     =-0.680E-05
 gamma     =   0.18519
 trial     =   0.67934
 opt step  =   1.49804  (harmonic =   1.49804) maximal distance =0.00145886
 next E    =  -356.044592   (d E  =  -0.00007)

 reached required accuracy - stopping structural energy minimisation