 vasp.6.4.2 20Jul23 (build Feb 22 2024 13:53:45) complex
 executed on              LinuxNV date 2024.08.28  21:40:05
 OpenACC runtime initialized ...    4 GPUs detected

 INCAR:
   SYSTEM = Oxide-Surface
   ISMEAR = 0
   SIGMA = 0.05
   EDIFF = 1E-5
   ALGO = Normal
   IBRION = -1
   NSW = 0
   ISYM = 0
   DIPOL = 0.5 0.5 0.5
   IDIPOL = 3
   LDIPOL = .TRUE.
   ISTART = 1
   LHFCALC = .TRUE.
   GGA = PE
   IVDW = 21
   VDW_SR = 0.96
   HFRCUT = -1
   ENCUT = 520
   PREC = Normal
   PRECFOCK = Normal
   LASPH = .TRUE.
   LREAL = Auto
   ISPIN = 1
   NELM = 200
   NELMIN = 8
   NCORE = 1
   KPAR = 1
   LWAVE = .FALSE.
   LCHARG = .FALSE.

 POTCAR:    PAW_PBE H 15Jun2001
 POTCAR:    PAW_PBE O 08Apr2002
 POTCAR:    PAW_PBE Ti_pv 07Sep2000
 POTCAR:    PAW_PBE O 08Apr2002
 POTCAR:    PAW_PBE H 15Jun2001
   VRHFIN =H: ultrasoft test

   TITEL  = PAW_PBE H 15Jun2001
   POMASS =    1.000; ZVAL   =    1.000    mass and valenz
   ENMAX  =  250.000; ENMIN  =  200.000 eV

   TITEL  = PAW_PBE O 08Apr2002
   POMASS =   16.000; ZVAL   =    6.000    mass and valenz
   ENMAX  =  400.000; ENMIN  =  300.000 eV

   TITEL  = PAW_PBE Ti_pv 07Sep2000
   POMASS =   47.880; ZVAL   =   10.000    mass and valenz
   ENMAX  =  222.335; ENMIN  =  166.751 eV

   TITEL  = PAW_PBE O 08Apr2002
   POMASS =   16.000; ZVAL   =    6.000    mass and valenz
   ENMAX  =  400.000; ENMIN  =  300.000 eV

 Optimization of the real space projectors (new method)

 maximal supplied QI-value         = 34.20
 optimisation between [QCUT,QGAM] = [ 11.63, 23.26] = [ 37.87,151.49] Ry
 Optimized for a Real-space Cutoff    1.14 Angstroem

   l    n(q)    QCUT    max X(q) W(low)/X(q) W(high)/X(q)  e(spline)
   0      8    11.629    19.460    0.27E-03    0.65E-03    0.17E-06
   0      8    11.629    12.209    0.25E-03    0.62E-03    0.16E-06
   1      7    11.629     4.655    0.29E-03    0.85E-04    0.19E-06
 Optimization of the real space projectors (new method)

[...]

   l    n(q)    QCUT    max X(q) W(low)/X(q) W(high)/X(q)  e(spline)
   1     10    11.641     4.216    0.33E-04    0.72E-04    0.48E-07
   1     10    11.641     5.422    0.11E-03    0.20E-03    0.10E-06
   2      9    11.641    72.084    0.36E-03    0.27E-03    0.57E-06
   2      9    11.641    65.965    0.35E-03    0.27E-03    0.57E-06
   0     10    11.641    41.531    0.11E-03    0.93E-04    0.16E-06
   0     10    11.641    16.290    0.82E-04    0.72E-04    0.13E-06
 Optimization of the real space projectors (new method)

 maximal supplied QI-value         = 24.76
 optimisation between [QCUT,QGAM] = [ 11.64, 23.27] = [ 37.91,151.63] Ry
 Optimized for a Real-space Cutoff    1.04 Angstroem

   l    n(q)    QCUT    max X(q) W(low)/X(q) W(high)/X(q)  e(spline)
   0      7    11.635    20.381    0.14E-03    0.49E-03    0.18E-06
   0      7    11.635    15.268    0.16E-03    0.52E-03    0.19E-06
   1      7    11.635     5.964    0.30E-03    0.44E-03    0.22E-06
   1      7    11.635     5.382    0.27E-03    0.34E-03    0.19E-06
  PAW_PBE H 15Jun2001                   :
  PAW_PBE O 08Apr2002                   :
  PAW_PBE Ti_pv 07Sep2000               :
  PAW_PBE O 08Apr2002                   :

 POSCAR:  H  O Ti  O
  positions in direct lattice
 exchange correlation table for  LEXCH =        8
   RHO(1)=    0.500       N(1)  =     2000
   RHO(2)=  100.500       N(2)  =     4000

 ion  position               nearest neighbor table
   1  0.694  0.516  0.780-   3 0.98
   2  0.689  0.651  0.782-   3 0.98
   3  0.632  0.582  0.782-   2 0.98   1 0.98  51 2.30
   4  0.808  0.916  0.247-  56 1.94  54 1.94  88 1.94  55 1.99  53 1.99   5 3.05   7 3.05  21 3.05

   5  0.592  0.749  0.282-  52 1.94  55 1.94  57 1.94 119 1.94  56 1.99  58 1.99   4 3.05   6 3.05
                            36 3.05  10 3.08
   6  0.308  0.749  0.247-  60 1.94  58 1.94 124 1.94  59 1.99  52 1.99   7 3.05   5 3.05  39 3.05

   7  0.092  0.916  0.282-  53 1.94  59 1.94  61 1.94  91 1.94  60 1.99  54 1.99   6 3.05   4 3.05
                            22 3.05   8 3.08
   8  0.945  0.916  0.390-  62 1.92  96 1.93  64 1.94  54 1.98  63 1.98  61 2.00  11 2.99   9 3.04
                            25 3.05   7 3.08
   9  0.727  0.749  0.421-  57 1.89 127 1.93  63 1.94  65 1.96  66 1.99  64 2.00  10 3.01   8 3.04
                            40 3.05  14 3.10
  10  0.444  0.749  0.390-  66 1.93 132 1.93  68 1.93  58 1.97  67 1.99  57 2.00   9 3.01  11 3.05
                            43 3.05   5 3.08
  11  0.226  0.916  0.422-  61 1.90  99 1.94  67 1.94  62 1.97  69 1.97  68 2.01   8 2.99  26 3.05
                            10 3.05  12 3.11
  12  0.086  0.916  0.532-  70 1.92 104 1.93  72 1.94  71 1.97  69 2.01  62 2.01  15 2.95  13 3.04
                            29 3.05  11 3.11
  13  0.865  0.749  0.560-  65 1.86 135 1.93  71 1.94  74 1.95  72 2.01  73 2.01  14 2.98  12 3.04
                            44 3.05  18 3.17
  14  0.584  0.749  0.531- 140 1.93  74 1.93  76 1.93  66 1.97  75 1.98  65 2.02  13 2.98  15 3.05
                            47 3.06   9 3.10
  15  0.364  0.916  0.562-  69 1.86 107 1.94  75 1.94  70 1.95  77 2.00  76 2.02  12 2.95  30 3.05
                            14 3.05
  16  0.231  0.915  0.678-  78 1.86  80 1.93 112 1.94  79 2.00  77 2.10  70 2.10  19 2.85  33 3.07
                            17 3.09
  17  0.000  0.749  0.700-  73 1.78  81 1.84 143 1.97  79 1.98  80 2.07  18 2.86  16 3.09  48 3.10

[...]

  20  0.808  0.249  0.247-  88 1.94 120 1.94  86 1.94  87 1.99  85 1.99  37 3.05  21 3.05  23 3.05

[...]

  36  0.808  0.583  0.247- 120 1.94 118 1.94  56 1.94 119 1.99 117 1.99  37 3.05  39 3.05   5 3.05

  37  0.592  0.416  0.282- 116 1.94  87 1.94 119 1.94 121 1.94 120 1.99 122 1.99  20 3.05  36 3.05
                            38 3.05  42 3.08
  38  0.308  0.416  0.247-  92 1.94 124 1.94 122 1.94 123 1.99 116 1.99  39 3.05  23 3.05  37 3.05

  39  0.092  0.583  0.282- 117 1.94 123 1.94 125 1.94  59 1.94 124 1.99 118 1.99  38 3.05  36 3.05
                             6 3.05  40 3.07
  40  0.946  0.583  0.389- 126 1.93  64 1.93 128 1.94 118 1.97 125 1.98 127 2.00  43 2.99  41 3.05
                             9 3.05  39 3.07
  41  0.727  0.417  0.421- 121 1.89 127 1.93  95 1.94 129 1.96 130 1.99 128 2.00  42 3.01  24 3.04
                            40 3.05  46 3.10
  42  0.444  0.416  0.389- 130 1.93 132 1.93 100 1.93 122 1.97 131 1.99 121 2.01  41 3.01  27 3.05
                            43 3.05  37 3.08
  43  0.226  0.583  0.423- 125 1.92 131 1.94  67 1.94 126 1.96 133 1.97 132 2.01  40 2.99  42 3.05
                            10 3.05  44 3.07
  44  0.089  0.583  0.533- 134 1.92  72 1.93 136 1.93 133 1.98 135 2.00 126 2.01  47 2.96  45 3.05
                            13 3.05  43 3.07
  45  0.865  0.417  0.560- 129 1.86 135 1.93 103 1.94 138 1.95 136 2.01 137 2.01  46 2.98  28 3.04
                            44 3.05  50 3.16
  46  0.584  0.416  0.531- 140 1.93 138 1.93 108 1.93 130 1.97 139 1.98 129 2.02  45 2.98  31 3.05
                            47 3.06  41 3.10
  47  0.366  0.583  0.565- 133 1.92  75 1.94 139 1.94 134 1.94 141 2.00 140 2.03  44 2.96  46 3.06
                            14 3.06  48 3.14
  48  0.234  0.583  0.678- 142 1.86 144 1.93  80 1.93 143 2.03 141 2.05 134 2.10  51 2.87  17 3.10
                            49 3.10  47 3.14
  49  1.000  0.417  0.700- 137 1.78 145 1.84 143 1.97 111 1.98 144 2.07  50 2.86  32 3.09  48 3.10

  50  0.729  0.417  0.673- 145 1.90 147 1.92 115 1.94 146 1.99 138 2.03 137 2.10  49 2.86  35 3.08
                            51 3.08  45 3.16
  51  0.505  0.583  0.707- 142 1.82 141 1.86 146 1.98  82 1.98 147 2.11   3 2.30  48 2.87  50 3.08
                            18 3.08
  52  0.488  0.749  0.218-   5 1.94   6 1.99
  53  0.988  0.916  0.218-   7 1.94   4 1.99
  54  0.911  0.916  0.312-   4 1.94   8 1.98   7 1.99
  55  0.627  0.916  0.277-   5 1.94  21 1.94   4 1.99
  56  0.772  0.749  0.253-   4 1.94  36 1.94   5 1.99
  57  0.624  0.749  0.359-   9 1.89   5 1.94  10 2.00
  58  0.411  0.749  0.312-   6 1.94  10 1.97   5 1.99
  59  0.127  0.749  0.277-   7 1.94  39 1.94   6 1.99
  60  0.272  0.916  0.253-   6 1.94  22 1.94   7 1.99
  61  0.124  0.916  0.359-  11 1.90   7 1.94   8 2.00
  62  0.049  0.916  0.453-   8 1.92  11 1.97  12 2.01
  63  0.764  0.916  0.417-  25 1.94   9 1.94   8 1.98
  64  0.910  0.749  0.394-  40 1.93   8 1.94   9 2.00
  65  0.764  0.749  0.498-  13 1.86   9 1.96  14 2.02
  66  0.549  0.749  0.453-  10 1.93  14 1.97   9 1.99
  67  0.264  0.749  0.418-  43 1.94  11 1.94  10 1.99
  68  0.409  0.916  0.394-  10 1.93  26 1.93  11 2.01
  69  0.264  0.916  0.499-  15 1.86  11 1.97  12 2.01
  70  0.193  0.916  0.595-  12 1.92  15 1.95  16 2.10
  71  0.904  0.916  0.557-  29 1.94  13 1.94  12 1.97
  72  0.052  0.749  0.535-  44 1.93  12 1.94  13 2.01
  73  0.914  0.751  0.638-  17 1.78  13 2.01  18 2.10
  74  0.694  0.752  0.594-  14 1.93  13 1.95  18 2.03
  75  0.405  0.749  0.560-  47 1.94  15 1.94  14 1.98
  76  0.549  0.916  0.535-  30 1.93  14 1.93  15 2.02
  77  0.413  0.917  0.639-  19 1.78  15 2.00  16 2.10
  78  0.347  0.916  0.735-  19 1.84  16 1.86
  79  0.052  0.916  0.709-  33 1.98  17 1.98  16 2.00
  80  0.195  0.749  0.678-  16 1.93  48 1.93  17 2.07
  81  0.841  0.744  0.734-  17 1.84  18 1.89
  82  0.554  0.751  0.708-  19 1.97  51 1.98  18 1.99
  83  0.695  0.917  0.676-  34 1.93  18 1.94  19 2.06
  84  0.488  0.083  0.218-  21 1.94  22 1.99
  85  0.988  0.249  0.218-  23 1.94  20 1.99
  86  0.911  0.249  0.312-  20 1.94  24 1.98  23 1.99
  87  0.627  0.249  0.277-  21 1.94  37 1.94  20 1.99
  88  0.772  0.083  0.253-  20 1.94   4 1.94  21 1.99
  89  0.624  0.083  0.359-  25 1.89  21 1.94  26 2.00
  90  0.411  0.083  0.312-  22 1.94  26 1.98  21 1.99
  91  0.127  0.083  0.277-  23 1.94   7 1.94  22 1.99
  92  0.272  0.249  0.253-  22 1.94  38 1.94  23 1.99
  93  0.124  0.249  0.359-  27 1.90  23 1.94  24 2.00
  94  0.049  0.249  0.453-  24 1.92  27 1.97  28 2.01
  95  0.764  0.249  0.417-  25 1.94  41 1.94  24 1.98
  96  0.909  0.083  0.394-   8 1.93  24 1.93  25 2.00
  97  0.764  0.083  0.499-  29 1.86  25 1.97  30 2.01
  98  0.549  0.083  0.453-  26 1.92  25 1.98  30 2.00
  99  0.264  0.083  0.418-  27 1.94  11 1.94  26 1.99
 100  0.409  0.249  0.394-  42 1.93  26 1.93  27 2.01
 101  0.264  0.250  0.499-  31 1.86  27 1.97  28 2.01
 102  0.193  0.250  0.595-  28 1.92  31 1.95  32 2.10
 103  0.904  0.249  0.557-  29 1.94  45 1.94  28 1.97
 104  0.051  0.083  0.536-  12 1.93  28 1.93  29 2.03
 105  0.913  0.083  0.639-  33 1.78  29 2.01  34 2.09
 106  0.693  0.083  0.594-  30 1.92  29 1.94  34 2.09
 107  0.404  0.083  0.559-  15 1.94  31 1.94  30 1.98
 108  0.549  0.249  0.535-  30 1.93  46 1.93  31 2.02
 109  0.412  0.248  0.639-  35 1.78  31 2.00  32 2.10
 110  0.347  0.250  0.735-  35 1.84  32 1.86
 111  0.052  0.250  0.709-  33 1.98  49 1.98  32 2.00
[...]
 133  0.266  0.583  0.501-  47 1.92  43 1.97  44 1.98
 134  0.193  0.583  0.596-  44 1.92  47 1.94  48 2.10
 135  0.904  0.583  0.558-  45 1.93  13 1.93  44 2.00
 136  0.052  0.416  0.535-  44 1.93  28 1.94  45 2.01
 137  0.914  0.415  0.638-  49 1.78  45 2.01  50 2.10
 138  0.694  0.414  0.594-  46 1.93  45 1.95  50 2.03
[...]
     0.000000000  0.000000000 25.000000000     0.000000000  0.000000000  0.040000000

  length of vectors
    10.273755933 11.368810418 25.000000000     0.097335386  0.087959950  0.040000000

 FORCES acting on ions
    electron-ion (+dipol)            ewald-force                    non-local-force                 convergence-correction
   -.531E+02 0.637E+02 -.306E+03   0.580E+02 -.698E+02 0.306E+03   -.503E+01 0.618E+01 0.433E+00   0.221E-03 0.234E-04 -.116E-01
   -.494E+02 -.676E+02 -.308E+03   0.540E+02 0.741E+02 0.308E+03   -.466E+01 -.652E+01 0.838E-01   0.218E-03 -.123E-04 -.116E-01
   0.142E+02 0.229E+01 -.186E+04   -.555E+02 -.403E+01 0.188E+04   0.360E+02 0.152E+01 -.917E+01   0.142E-02 0.109E-03 -.703E-01
   0.701E+01 -.264E+00 0.297E+04   -.153E+01 0.268E+00 -.297E+04   -.132E+01 0.633E-02 -.371E+01   -.291E-05 0.789E-07 0.970E-01
   0.473E+01 -.339E+00 0.243E+04   -.656E+01 0.344E+00 -.244E+04   0.245E-01 -.602E-02 0.591E-01   0.216E-03 0.148E-04 0.868E-01
   0.716E+01 -.484E-01 0.297E+04   -.172E+01 0.470E-01 -.297E+04   -.131E+01 -.932E-02 -.370E+01   -.730E-04 0.220E-04 0.971E-01
   0.297E+01 -.333E-01 0.243E+04   -.486E+01 0.270E-01 -.244E+04   0.367E-01 0.131E-01 0.467E-01   0.142E-03 0.158E-04 0.868E-01
   -.234E+00 -.236E+00 0.111E+04   0.431E-01 0.239E+00 -.111E+04   0.150E+00 0.101E-02 -.158E-01   -.196E-03 0.507E-04 0.458E-01
   0.160E+01 -.228E+01 0.705E+03   -.157E+01 0.225E+01 -.705E+03   -.355E-01 0.349E-01 -.860E-01   0.229E-03 0.825E-04 0.306E-01
   0.200E+01 -.444E+00 0.111E+04   -.217E+01 0.429E+00 -.111E+04   0.150E+00 -.332E-02 -.348E-01   -.237E-03 0.778E-04 0.458E-01
   -.643E+01 0.231E+00 0.694E+03   0.644E+01 -.234E+00 -.694E+03   0.436E-01 0.158E-01 -.545E-01   0.854E-04 0.712E-04 0.304E-01
   -.598E+01 -.236E+01 -.690E+03   0.566E+01 0.236E+01 0.690E+03   0.270E+00 -.209E-01 0.533E-01   -.266E-03 0.117E-03 -.232E-01
   -.141E+02 -.506E+01 -.103E+04   0.142E+02 0.510E+01 0.103E+04   0.166E-01 -.527E-02 -.118E+00   0.330E-04 0.170E-03 -.372E-01
   0.297E+01 -.237E+01 -.658E+03   -.324E+01 0.236E+01 0.658E+03   0.264E+00 0.204E-01 0.347E-01   -.213E-03 0.183E-03 -.227E-01
   -.121E+01 -.208E+01 -.106E+04   0.129E+01 0.210E+01 0.106E+04   0.139E-01 -.251E-01 -.167E+00   -.215E-03 0.163E-03 -.381E-01
   0.287E+02 -.128E+02 -.245E+04   -.295E+02 0.128E+02 0.245E+04   0.854E+00 0.190E-01 -.324E+00   -.881E-04 0.133E-03 -.867E-01
   -.923E+02 -.284E+02 -.280E+04   0.920E+02 0.282E+02 0.280E+04   0.424E+00 0.196E+00 0.107E+01   -.102E-02 -.257E-04 -.934E-01
   -.110E+02 -.548E+02 -.235E+04   0.102E+02 0.548E+02 0.235E+04   0.749E+00 0.100E-01 -.171E+00   0.622E-03 0.437E-03 -.845E-01
   -.588E+02 -.349E+02 -.280E+04   0.584E+02 0.349E+02 0.280E+04   0.468E+00 0.213E-01 0.110E+01   -.152E-03 0.310E-03 -.941E-01
   0.701E+01 0.273E+00 0.297E+04   -.153E+01 -.278E+00 -.297E+04   -.131E+01 -.886E-02 -.370E+01   -.129E-04 0.365E-05 0.970E-01
   0.463E+01 0.210E-01 0.243E+04   -.651E+01 -.216E-01 -.244E+04   0.342E-01 0.670E-02 0.460E-01   0.206E-03 -.286E-05 0.868E-01
   0.701E+01 0.105E-01 0.297E+04   -.154E+01 -.108E-01 -.297E+04   -.132E+01 0.295E-02 -.370E+01   -.660E-04 -.116E-04 0.971E-01
   0.298E+01 0.688E-01 0.243E+04   -.487E+01 -.647E-01 -.244E+04   0.351E-01 -.560E-02 0.559E-01   0.136E-03 -.242E-04 0.868E-01
   -.353E+00 0.114E+00 0.111E+04   0.166E+00 -.125E+00 -.111E+04   0.153E+00 0.631E-02 -.120E-01   -.201E-03 -.559E-04 0.458E-01
   -.204E+01 0.797E-02 0.700E+03   0.202E+01 -.112E-01 -.700E+03   0.401E-01 -.104E-02 -.851E-01   0.188E-03 -.432E-05 0.306E-01
   0.205E+01 -.340E-01 0.111E+04   -.223E+01 0.316E-01 -.111E+04   0.139E+00 -.919E-03 -.403E-01   -.221E-03 -.543E-05 0.458E-01
   -.635E+01 -.800E-01 0.694E+03   0.636E+01 0.836E-01 -.694E+03   0.322E-01 0.108E-01 -.933E-01   0.887E-04 -.790E-04 0.304E-01
   -.619E+01 0.229E+01 -.690E+03   0.587E+01 -.229E+01 0.690E+03   0.277E+00 0.322E-01 0.522E-01   -.264E-03 -.132E-03 -.232E-01
   -.117E+02 0.351E-01 -.105E+04   0.117E+02 -.351E-01 0.105E+04   0.818E-01 0.972E-02 -.122E+00   -.147E-03 -.166E-04 -.375E-01
   -.915E+00 0.100E-01 -.679E+03   0.602E+00 -.116E-01 0.679E+03   0.275E+00 0.216E-01 0.939E-01   -.134E-03 -.123E-04 -.228E-01
   -.110E+01 0.204E+01 -.106E+04   0.119E+01 -.206E+01 0.106E+04   0.117E-01 0.318E-01 -.156E+00   -.217E-03 -.176E-03 -.381E-01
   0.290E+02 0.124E+02 -.245E+04   -.299E+02 -.124E+02 0.245E+04   0.868E+00 -.405E-01 -.315E+00   -.900E-04 -.175E-03 -.867E-01
   -.767E+02 -.163E+00 -.281E+04   0.763E+02 0.160E+00 0.281E+04   0.410E+00 -.434E-02 0.105E+01   -.983E-03 -.453E-04 -.938E-01
   0.107E+02 0.680E-01 -.244E+04   -.115E+02 -.645E-01 0.244E+04   0.807E+00 -.196E-02 -.277E+00   0.318E-03 -.436E-04 -.858E-01
   -.591E+02 0.353E+02 -.280E+04   0.587E+02 -.353E+02 0.280E+04   0.452E+00 -.157E-01 0.110E+01   -.159E-03 -.354E-03 -.941E-01
   0.699E+01 -.337E-02 0.297E+04   -.150E+01 0.399E-02 -.297E+04   -.132E+01 0.278E-02 -.370E+01   -.203E-04 -.371E-05 0.970E-01
   0.472E+01 0.349E+00 0.243E+04   -.656E+01 -.355E+00 -.244E+04   0.256E-01 0.130E-01 0.499E-01   0.213E-03 -.119E-04 0.868E-01
   0.717E+01 0.402E-01 0.297E+04   -.173E+01 -.383E-01 -.297E+04   -.132E+01 0.662E-02 -.371E+01   -.468E-04 -.100E-04 0.971E-01
   0.196E+01 0.118E-01 0.243E+04   -.380E+01 -.121E-01 -.244E+04   0.193E-01 0.677E-02 0.521E-01   0.139E-03 0.749E-05 0.868E-01
   0.572E+00 -.623E-01 0.111E+04   -.739E+00 0.615E-01 -.111E+04   0.116E+00 -.130E-02 0.408E-01   -.193E-03 0.525E-05 0.459E-01
   0.182E+01 0.225E+01 0.705E+03   -.179E+01 -.222E+01 -.705E+03   -.356E-02 -.301E-01 -.800E-01   0.223E-03 -.796E-04 0.306E-01
   0.188E+01 0.342E+00 0.111E+04   -.205E+01 -.331E+00 -.111E+04   0.141E+00 -.115E-01 -.438E-01   -.229E-03 -.722E-04 0.458E-01
   -.922E+01 0.746E-01 0.679E+03   0.923E+01 -.724E-01 -.679E+03   0.254E-01 0.117E-01 -.697E-02   0.436E-04 0.752E-05 0.298E-01
   -.305E+01 -.360E-01 -.692E+03   0.283E+01 0.350E-01 0.692E+03   0.153E+00 -.586E-02 0.905E-01   -.265E-03 0.153E-04 -.233E-01
   -.139E+02 0.490E+01 -.103E+04   0.140E+02 -.494E+01 0.103E+04   0.386E-01 0.247E-02 -.991E-01   0.386E-04 -.153E-03 -.372E-01
   0.293E+01 0.238E+01 -.657E+03   -.320E+01 -.237E+01 0.657E+03   0.254E+00 -.984E-02 0.527E-01   -.222E-03 -.171E-03 -.227E-01
   -.186E+01 0.182E+00 -.109E+04   0.194E+01 -.178E+00 0.109E+04   0.102E-01 -.156E-01 -.564E-01   -.322E-03 0.135E-04 -.399E-01
   0.442E+02 0.311E-01 -.244E+04   -.448E+02 -.293E-01 0.244E+04   0.605E+00 -.898E-02 -.198E+00   -.249E-03 0.413E-04 -.867E-01
   -.922E+02 0.287E+02 -.280E+04   0.918E+02 -.285E+02 0.280E+04   0.435E+00 -.170E+00 0.109E+01   -.100E-02 0.756E-04 -.934E-01
   -.116E+02 0.552E+02 -.235E+04   0.109E+02 -.552E+02 0.235E+04   0.761E+00 -.111E-01 -.160E+00   0.602E-03 -.394E-03 -.845E-01
   0.280E+02 -.579E+00 -.275E+04   -.279E+02 0.568E+00 0.275E+04   0.511E-01 0.136E-01 0.735E+00   -.997E-03 0.507E-04 -.972E-01
   -.316E+02 -.183E+00 0.201E+04   0.369E+02 0.184E+00 -.202E+04   -.630E+01 -.370E-02 0.164E+02   -.277E-03 0.104E-05 0.633E-01
   -.320E+02 -.168E+00 0.201E+04   0.373E+02 0.167E+00 -.202E+04   -.631E+01 0.182E-02 0.164E+02   -.341E-03 -.426E-05 0.633E-01
   0.813E+02 0.257E-01 0.121E+04   -.862E+02 -.502E-01 -.121E+04   0.358E+01 0.220E-01 -.411E+01   -.202E-03 0.151E-04 0.461E-01
   0.744E+02 -.162E+00 0.148E+04   -.819E+02 0.166E+00 -.147E+04   0.700E+01 0.456E-03 -.250E+01   0.285E-03 0.470E-05 0.534E-01
   -.859E+02 -.201E+00 0.171E+04   0.935E+02 0.202E+00 -.171E+04   -.646E+01 0.249E-02 -.245E+00   0.131E-03 -.397E-05 0.575E-01
   -.684E+02 -.884E+00 0.935E+03   0.742E+02 0.916E+00 -.939E+03   -.523E+01 -.268E-01 0.406E+01   0.141E-03 0.304E-04 0.354E-01
   0.822E+02 0.269E-01 0.121E+04   -.871E+02 -.183E-01 -.121E+04   0.354E+01 -.107E-01 -.393E+01   -.212E-03 0.232E-04 0.461E-01
   0.733E+02 -.759E-02 0.148E+04   -.808E+02 0.373E-03 -.147E+04   0.701E+01 0.164E-01 -.251E+01   0.251E-03 0.141E-04 0.534E-01
   -.860E+02 -.667E-01 0.171E+04   0.936E+02 0.699E-01 -.171E+04   -.644E+01 -.727E-02 -.250E+00   0.939E-04 -.243E-05 0.576E-01
[...]
   0.872E+02 -.444E-01 -.959E+03   -.945E+02 0.550E-01 0.967E+03   0.649E+01 -.282E-02 -.705E+01   -.267E-03 0.137E-04 -.324E-01
   0.684E+02 -.173E+00 -.633E+03   -.747E+02 0.189E+00 0.637E+03   0.556E+01 -.149E-01 -.297E+01   0.226E-04 0.120E-04 -.215E-01
   -.826E+02 0.137E+01 -.401E+03   0.893E+02 -.145E+01 0.398E+03   -.599E+01 0.754E-01 0.261E+01   0.112E-04 -.490E-04 -.148E-01
   -.704E+02 0.154E+02 -.111E+04   0.730E+02 -.161E+02 0.110E+04   -.237E+01 0.586E+00 0.917E+01   0.138E-03 -.957E-04 -.427E-01
   0.802E+02 0.158E+02 -.917E+03   -.868E+02 -.166E+02 0.923E+03   0.585E+01 0.686E+00 -.523E+01   -.410E-04 -.200E-03 -.316E-01
   0.805E+02 0.203E+01 -.649E+03   -.872E+02 -.216E+01 0.653E+03   0.593E+01 0.112E+00 -.317E+01   -.147E-03 -.111E-03 -.220E-01
   -.719E+02 -.608E-01 -.403E+03   0.783E+02 0.668E-01 0.401E+03   -.569E+01 -.115E-01 0.211E+01   -.163E-05 0.785E-05 -.151E-01
   -.534E+02 -.457E+00 -.114E+04   0.589E+02 0.498E+00 0.113E+04   -.486E+01 -.456E-01 0.661E+01   -.185E-04 0.168E-04 -.440E-01
   0.109E+03 0.277E-02 -.201E+04   -.116E+03 -.117E-01 0.203E+04   0.585E+01 0.134E-01 -.199E+02   0.260E-03 0.393E-04 -.657E-01
   0.407E+02 -.137E-01 -.177E+04   -.446E+02 0.225E-01 0.178E+04   0.344E+01 -.162E-01 -.698E+01   -.709E-03 0.325E-04 -.588E-01
   -.491E+02 0.817E+01 -.145E+04   0.541E+02 -.806E+01 0.145E+04   -.447E+01 -.985E-01 0.293E+01   -.298E-03 -.370E-05 -.523E-01
   0.337E+01 0.391E+02 -.199E+04   -.873E+01 -.388E+02 0.201E+04   0.480E+01 -.246E+00 -.181E+02   0.460E-03 0.205E-03 -.637E-01
   0.835E+02 0.555E+02 -.172E+04   -.885E+02 -.555E+02 0.173E+04   0.448E+01 0.544E-02 -.645E+01   0.977E-04 -.361E-03 -.589E-01
   -.562E+02 -.306E+00 -.132E+04   0.597E+02 0.301E+00 0.131E+04   -.320E+01 -.381E-02 0.503E+01   0.395E-03 0.207E-04 -.508E-01
   -.436E+02 -.154E+01 0.802E+02   -.384E-12 0.174E-11 -.523E-11   0.383E+02 0.140E+01 -.705E+02   -.316E-02 0.126E-03 0.139E+00

 POSITION                                       TOTAL-FORCE (eV/Angst)
      7.12620      5.86719     19.49735        -0.310981      0.312602      0.021682
      7.07834      7.40329     19.54031        -0.287267     -0.338055      0.000071
      6.49504      6.61614     19.55688         0.463517      0.026105     -0.226079
      8.29939     10.41358      6.17860         4.314995      0.010809      2.132373
      6.08041      8.51877      7.05919        -1.861483      0.000671     -2.088024
      3.16252      8.51877      6.17860         4.273046     -0.004723      2.107015
      0.94354     10.41358      7.05919        -1.906500      0.000763     -2.091052
      9.70823     10.41653      9.74251        -0.031420      0.006362     -0.030864
      7.46699      8.51530     10.53688        -0.003637     -0.008495      0.005236
      4.56332      8.51729      9.73765        -0.027582     -0.009404     -0.015352
      2.31709     10.41383     10.55258         0.012880      0.003639      0.006797
      0.88600     10.41929     13.30855        -0.028535      0.006440     -0.036064
      8.89080      8.51622     14.00205        -0.000297      0.002520      0.016770
      6.00380      8.51968     13.27519        -0.026957     -0.004420     -0.026641
      3.73988     10.41619     14.04341         0.022852      0.003433      0.024857
      2.37439     10.40804     16.94761         0.077762     -0.011549      0.142272
      0.00080      8.51036     17.49226        -0.196387     -0.028143     -0.161354
      7.48737      8.50941     16.84011         0.028205     -0.018772      0.099861
      5.17150     10.42543     17.49800        -0.248683     -0.008520     -0.151160
      8.29939      2.83437      6.17860         4.308331     -0.007427      2.131285
      6.08041      0.93957      7.05919        -1.891419     -0.001025     -2.085879
      3.16252      0.93957      6.17860         4.308238     -0.004050      2.125432
      0.94354      2.83437      7.05919        -1.903369      0.000682     -2.089717
      9.70793      2.83400      9.74246        -0.030713     -0.008460     -0.026786
      7.45859      0.94078     10.54238        -0.000182     -0.003963      0.000362
      4.56525      0.94027      9.74200        -0.023342     -0.003680     -0.024070
      2.31721      2.83557     10.55224         0.009858     -0.001110      0.003710
      0.88573      2.83383     13.30815        -0.026251     -0.005127     -0.034481
      8.87573      0.94206     14.02068         0.005747     -0.000855      0.015759
      6.01072      0.94145     13.29279        -0.032397      0.000343     -0.037340
      3.73962      2.83538     14.04328         0.021338     -0.003552      0.023755
      2.37419      2.84586     16.94741         0.076607      0.012447      0.142808
      0.02814      0.94277     17.49234        -0.239035     -0.003973     -0.135520
      7.52107      0.94159     16.91601         0.066883     -0.000584      0.135099
      5.17113      2.82595     17.49748        -0.247057      0.010143     -0.152293
      8.29939      6.62397      6.17860         4.323557     -0.003299      2.123542
      6.08041      4.72917      7.05919        -1.862626      0.001713     -2.088848
      3.16252      4.72917      6.17860         4.278083      0.008546      2.105968
      0.94354      6.62397      7.05919        -1.869512     -0.000696     -2.031395
      9.72353      6.62543      9.73659        -0.034845     -0.001847     -0.039464
      7.46737      4.73521     10.53664        -0.002728      0.009470      0.007319
      4.56309      4.73221      9.73742        -0.023179      0.007932     -0.021160
      2.32131      6.62471     10.58159         0.019069      0.000800     -0.012288
      0.91630      6.62697     13.31408        -0.025785     -0.003087     -0.032449
      8.89170      4.73694     14.00116        -0.000446     -0.003623      0.017063
      6.00310      4.73197     13.27426        -0.022813      0.008849     -0.025856
      3.76120      6.62596     14.12670         0.030760     -0.001847      0.011687
      2.40893      6.62656     16.96081         0.057226     -0.002547      0.124410
     10.27296      4.74371     17.49310        -0.193198      0.032884     -0.166575
      7.48577      4.74301     16.83609         0.025122      0.014766      0.096240
      5.19016      6.62568     17.66659        -0.144413     -0.002442      0.020750
      5.01582      8.51877      5.44312        -2.104858     -0.002245      1.597817
     10.15269     10.41358      5.44312        -2.111848      0.001200      1.590963
      9.36399     10.41358      7.79467        -0.823787      0.001862     -0.319508
      6.44609     10.41358      6.91407         0.712456      0.002736     -0.169327
      7.93372      8.51877      6.32372         0.030716      0.002165     -1.070918
      6.41366      8.51877      8.96550        -0.302680      0.002511      0.612797
      4.22711      8.51877      7.79467        -0.838575     -0.003072     -0.294929
      1.30921      8.51877      6.91407         0.716852      0.012233     -0.176609
      2.79684     10.41358      6.32372         0.038081     -0.004422     -1.073351
[...]
      2.72817      6.62525     12.51382        -0.275171     -0.002875      0.169524
      1.98527      6.62686     14.90732         0.269631      0.003589     -0.249022
      9.29033      6.62630     13.95045         0.240277     -0.000459     -0.101577
      0.52926      4.73423     13.38365        -0.271060      0.006355      0.098322
      9.38611      4.71719     15.95241        -0.133453      0.013765      0.334402
      7.13042      4.70139     14.84234         0.235375      0.026121     -0.193352
      4.15814      4.73323     13.99082         0.248643      0.002453     -0.118551
      5.65798      6.62575     13.40584        -0.252838     -0.006049      0.088272
      4.24724      6.62769     16.06170        -0.227702     -0.009298      0.242840
      3.54223      6.62603     18.44083         0.240307      0.004174     -0.713795
      0.52923      6.62674     17.72076         0.154481     -0.008282     -0.198256
      1.99958      4.73727     16.95421        -0.270341     -0.005194      0.124568
      8.63898      4.80105     18.34066         0.225239     -0.032344     -0.663934
      5.69352      4.71342     17.70097         0.192665     -0.028787     -0.189781
      7.11547      6.62677     16.79316        -0.218273     -0.008481      0.157798
    total drift:                               -0.043277      0.012681      0.104847

  FREE ENERGIE OF THE ION-ELECTRON SYSTEM (eV)
  free  energy   TOTEN  =     -1710.78450526 eV

  energy  without entropy=    -1710.78450526  energy(sigma->0) =    -1710.78450526