 vasp.6.3.0 20Jan22 (build Aug 21 2024 11:13:42) complex
 executed on        HPECrayEX_GCC date 2024.08.27  19:20:06

 INCAR:
   SYSTEM = MgO-rocksalt
   ISMEAR = 0
   SIGMA = 0.05
   EDIFF = 1E-6
   ALGO = ALL
   ISTART = 0
   IBRION = -1
   NSW = 0
   ISYM = 0
   DIPOL = 0.5 0.5 0.5
   IDIPOL = 3
   LDIPOL = .TRUE.
   LHFCALC = .TRUE.
   GGA = PE
   IVDW = 13
   VDW_S8 = 1.2007
   VDW_A1 = 0.4009
   VDW_A2 = 5.0293
   ENCUT = 600
   PREC = Accurate
   LASPH = .TRUE.
   LREAL = .FALSE.
   ISPIN = 1
   NELM = 200
   NELMIN = 8
   NCORE = 8
   KPAR = 1
   LWAVE = .FALSE.
   LCHARG = .FALSE.

 POTCAR:    PAW_PBE Mg_pv 13Apr2007
 POTCAR:    PAW_PBE O 08Apr2002
 POTCAR:    PAW_PBE Mg_pv 13Apr2007
   VRHFIN =Mg: p6s2

   TITEL  = PAW_PBE Mg_pv 13Apr2007
   POMASS =   24.305; ZVAL   =    8.000    mass and valenz
   ENMAX  =  403.929; ENMIN  =  302.947 eV

   TITEL  = PAW_PBE O 08Apr2002
   POMASS =   16.000; ZVAL   =    6.000    mass and valenz
   ENMAX  =  400.000; ENMIN  =  300.000 eV

  PAW_PBE Mg_pv 13Apr2007               :
  PAW_PBE O 08Apr2002                   :

 POSCAR: Mg  O
  positions in direct lattice
|           W    W    AA    RRRRR   N    N  II  N    N   GGGG   !!!           |
|           W    W   A  A   R    R  NN   N  II  NN   N  G    G  !!!           |
|           W    W  A    A  R    R  N N  N  II  N N  N  G       !!!           |
|           W WW W  AAAAAA  RRRRR   N  N N  II  N  N N  G  GGG   !            |
|           WW  WW  A    A  R   R   N   NN  II  N   NN  G    G                |
|           W    W  A    A  R    R  N    N  II  N    N   GGGG   !!!           |
|     Specifying the vdW parameters                                           |
|     VDW_S8 = 1.201                                                          |
|     VDW_A1 = 0.401                                                          |
|     VDW_A2 = 5.029                                                          |
|     in the INCAR file will overwrite the defaults for pbe0. Please make     |
|     sure that is what you intended.                                         |

 ion  position               nearest neighbor table
   1  0.000  0.750  0.352-  33 2.11  35 2.11  36 2.11  43 2.11  52 2.11
   2  0.250  0.000  0.352-  34 2.11  35 2.11  36 2.11  44 2.11  51 2.11
   3  0.000  0.000  0.451-  35 2.11  34 2.11  33 2.11  41 2.11  50 2.11  39 2.12
   4  0.250  0.750  0.451-  36 2.11  34 2.11  33 2.11  42 2.11  49 2.11  40 2.12
   5  1.000  0.750  0.550-  56 2.11  47 2.11  39 2.11  40 2.11  33 2.12  37 2.15
   6  0.250  0.000  0.550-  55 2.11  40 2.11  48 2.11  39 2.11  34 2.12  38 2.15
   7  0.000  0.000  0.648-  39 2.10  38 2.11  54 2.11  37 2.11  45 2.11
   8  0.250  0.750  0.648-  40 2.10  37 2.11  53 2.11  46 2.11  38 2.11
   9  0.000  0.250  0.352-  41 2.11  35 2.11  43 2.11  44 2.11  60 2.11
  10  0.250  0.500  0.352-  42 2.11  36 2.11  43 2.11  44 2.11  59 2.11
  11  0.000  0.500  0.451-  43 2.11  41 2.11  42 2.11  33 2.11  58 2.11  47 2.12
  12  0.250  0.250  0.451-  44 2.11  41 2.11  42 2.11  34 2.11  57 2.11  48 2.12
  13  1.000  0.250  0.550-  64 2.11  47 2.11  39 2.11  48 2.11  41 2.12  45 2.15
  14  0.250  0.500  0.550-  63 2.11  48 2.11  40 2.11  47 2.11  42 2.12  46 2.15
  15  0.000  0.500  0.648-  47 2.10  46 2.11  62 2.11  45 2.11  37 2.11
  16  0.250  0.250  0.648-  48 2.10  45 2.11  61 2.11  38 2.11  46 2.11
  17  0.500  0.750  0.352-  49 2.11  36 2.11  51 2.11  52 2.11  59 2.11
  18  0.750  0.000  0.352-  50 2.11  35 2.11  51 2.11  52 2.11  60 2.11
  19  0.500  0.000  0.451-  51 2.11  49 2.11  50 2.11  34 2.11  57 2.11  55 2.12
  20  0.750  0.750  0.451-  52 2.11  49 2.11  50 2.11  33 2.11  58 2.11  56 2.12
  21  0.500  0.750  0.550-  56 2.11  63 2.11  55 2.11  40 2.11  49 2.13  53 2.15
  22  0.750  0.000  0.550-  55 2.11  64 2.11  56 2.11  39 2.11  50 2.13  54 2.15
  23  0.500  0.001  0.649-  61 2.11  53 2.11  38 2.11  54 2.12  55 2.12
  24  0.750  0.751  0.649-  54 2.11  62 2.11  37 2.11  53 2.12  56 2.12
  25  0.500  0.250  0.352-  57 2.11  51 2.11  44 2.11  59 2.11  60 2.11
  26  0.750  0.500  0.352-  58 2.11  52 2.11  43 2.11  59 2.11  60 2.11
  27  0.500  0.500  0.451-  59 2.11  49 2.11  57 2.11  58 2.11  42 2.11  63 2.12
  28  0.750  0.250  0.451-  60 2.11  50 2.11  57 2.11  58 2.11  41 2.11  64 2.12
  29  0.500  0.250  0.550-  64 2.11  63 2.11  55 2.11  48 2.11  57 2.13  61 2.15
  30  0.750  0.500  0.550-  63 2.11  56 2.11  64 2.11  47 2.11  58 2.13  62 2.15
  31  0.500  0.501  0.649-  53 2.11  61 2.11  46 2.11  62 2.12  63 2.12
  32  0.750  0.251  0.649-  62 2.11  54 2.11  45 2.11  61 2.12  64 2.12
  33  0.000  0.750  0.451-   1 2.11   3 2.11   4 2.11  11 2.11  20 2.11   5 2.12
  34  0.250  0.000  0.451-   2 2.11   3 2.11   4 2.11  12 2.11  19 2.11   6 2.12
  35  0.000  0.000  0.352-   3 2.11   2 2.11   1 2.11   9 2.11  18 2.11
  36  0.250  0.750  0.352-   4 2.11   2 2.11   1 2.11  10 2.11  17 2.11
  37  0.001  0.750  0.651-   8 2.11   7 2.11  15 2.11  24 2.11   5 2.15
  38  0.249  0.000  0.651-   7 2.11  16 2.11   8 2.11  23 2.11   6 2.15
  39  1.000  0.000  0.550-   7 2.10  13 2.11   5 2.11  22 2.11   6 2.11   3 2.12
  40  0.250  0.750  0.550-   8 2.10   6 2.11  14 2.11  21 2.11   5 2.11   4 2.12
  41  0.000  0.250  0.451-   9 2.11   3 2.11  11 2.11  12 2.11  28 2.11  13 2.12
  42  0.250  0.500  0.451-  10 2.11   4 2.11  11 2.11  12 2.11  27 2.11  14 2.12
  43  0.000  0.500  0.352-  11 2.11   9 2.11  10 2.11   1 2.11  26 2.11
  44  0.250  0.250  0.352-  12 2.11   9 2.11  10 2.11   2 2.11  25 2.11
  45  0.001  0.250  0.651-  16 2.11  15 2.11   7 2.11  32 2.11  13 2.15
  46  0.249  0.500  0.651-  15 2.11   8 2.11  16 2.11  31 2.11  14 2.15
  47  1.000  0.500  0.550-  15 2.10   5 2.11  13 2.11  30 2.11  14 2.11  11 2.12
  48  0.250  0.250  0.550-  16 2.10   6 2.11  14 2.11  29 2.11  13 2.11  12 2.12
  49  0.500  0.750  0.451-  17 2.11   4 2.11  19 2.11  20 2.11  27 2.11  21 2.13
  50  0.750  0.000  0.451-  18 2.11   3 2.11  19 2.11  20 2.11  28 2.11  22 2.13
  51  0.500  0.000  0.352-  19 2.11  17 2.11  18 2.11   2 2.11  25 2.11
  52  0.750  0.750  0.352-  20 2.11  17 2.11  18 2.11   1 2.11  26 2.11
  53  0.500  0.750  0.651-   8 2.11  31 2.11  23 2.11  24 2.12  21 2.15
  54  0.750  0.000  0.651-  24 2.11   7 2.11  32 2.11  23 2.12  22 2.15
  55  0.500  0.000  0.550-  22 2.11   6 2.11  21 2.11  29 2.11  23 2.12  19 2.12
  56  0.750  0.750  0.550-  21 2.11   5 2.11  30 2.11  22 2.11  24 2.12  20 2.12
  57  0.500  0.250  0.451-  25 2.11  19 2.11  12 2.11  27 2.11  28 2.11  29 2.13
  58  0.750  0.500  0.451-  26 2.11  20 2.11  11 2.11  27 2.11  28 2.11  30 2.13
  59  0.500  0.500  0.352-  27 2.11  17 2.11  25 2.11  26 2.11  10 2.11
  60  0.750  0.250  0.352-  28 2.11  18 2.11  25 2.11  26 2.11   9 2.11
  61  0.500  0.250  0.651-  16 2.11  23 2.11  31 2.11  32 2.12  29 2.15
  62  0.750  0.500  0.651-  32 2.11  15 2.11  24 2.11  31 2.12  30 2.15
  63  0.500  0.500  0.550-  30 2.11  14 2.11  29 2.11  21 2.11  31 2.12  27 2.12
  64  0.750  0.250  0.550-  29 2.11  13 2.11  22 2.11  30 2.11  32 2.12  28 2.12

IMPORTANT INFORMATION: All symmetrisations will be switched off!
NOSYMM: (Re-)initialisation of all symmetry stuff for point group C_1.

                                     Primitive cell

  volume of cell :    1519.8199

  direct lattice vectors                    reciprocal lattice vectors
     8.440984654  0.000000000  0.000000000     0.118469591  0.000000000  0.000000000
     0.000000000  8.440984654  0.000000000     0.000000000  0.118469591  0.000000000
     0.000000000  0.000000000 21.330738491     0.000000000  0.000000000  0.046880702

  length of vectors
     8.440984654  8.440984654 21.330738491     0.118469591  0.118469591  0.046880702

  position of ions in fractional coordinates (direct lattice)
     0.000000000  0.750000000  0.351605267
     0.250000000  0.000000000  0.351605267
     0.000000000  0.000000000  0.450535089
     0.250000000  0.750000000  0.450535089
     0.999835129  0.750167077  0.550083385
     0.250132997  0.000181724  0.550072802
     0.000099849  0.000335666  0.648440958
     0.249867582  0.750310305  0.648424451
     0.000000000  0.250000000  0.351605267
     0.250000000  0.500000000  0.351605267
     0.000000000  0.500000000  0.450535089
     0.250000000  0.250000000  0.450535089
     0.999835226  0.250201077  0.550083778
     0.250145338  0.500182231  0.550069492
     0.000110371  0.500337423  0.648436087
     0.249867243  0.250351611  0.648424686
     0.500000000  0.750000000  0.351605267
     0.750000000  0.000000000  0.351605267
     0.500000000  0.000000000  0.450535089
     0.750000000  0.750000000  0.450535089
     0.500198817  0.750206788  0.550283044
     0.749781363  0.000222660  0.550291264
     0.499687321  0.000543323  0.649261292
     0.750233724  0.750535558  0.649309461
     0.500000000  0.250000000  0.351605267
     0.750000000  0.500000000  0.351605267
     0.500000000  0.500000000  0.450535089
     0.750000000  0.250000000  0.450535089
     0.500198756  0.250238114  0.550283584
     0.749773200  0.500221794  0.550284807
     0.499677713  0.500545028  0.649283781
     0.750233280  0.250550413  0.649309929
     0.000000000  0.750000000  0.450535089
     0.250000000  0.000000000  0.450535089
     0.000000000  0.000000000  0.351605267
     0.250000000  0.750000000  0.351605267
     0.000510852  0.750389798  0.650806738
     0.249441857  0.000387340  0.650735577
     0.999901573  0.000186798  0.549799584
     0.250055055  0.750189924  0.549792876
     0.000000000  0.250000000  0.450535089
     0.250000000  0.500000000  0.450535089
     0.000000000  0.500000000  0.351605267
     0.250000000  0.250000000  0.351605267
     0.000511198  0.250392239  0.650807820
     0.249443187  0.500388743  0.650733295
     0.999899343  0.500186069  0.549807694
     0.250055253  0.250179260  0.549793858
     0.500000000  0.750000000  0.450535089
     0.750000000  0.000000000  0.450535089
     0.500000000  0.000000000  0.351605267
     0.750000000  0.750000000  0.351605267
     0.499671077  0.750406080  0.650994824
     0.750241535  0.000412774  0.650991113
     0.499994468  0.000212142  0.550033471
     0.749993981  0.750211421  0.550040891
     0.500000000  0.250000000  0.450535089
     0.750000000  0.500000000  0.450535089
     0.500000000  0.500000000  0.351605267
     0.750000000  0.250000000  0.351605267
     0.499670325  0.250412997  0.650996074
     0.750239036  0.500414114  0.650995932
     0.499999865  0.500212082  0.550026094
     0.749993748  0.250213015  0.550041623

  ion indices of the primitive-cell ions
   primitive index   ion index
                 1           1
                 2           2
                 3           3
                 4           4
                 5           5
                 6           6
                 7           7
                 8           8
                 9           9
                10          10
                11          11
                12          12
                13          13
                14          14
                15          15
                16          16
                17          17
                18          18
                19          19
                20          20
[...]
   0.74977320  0.50022179  0.55028481
   0.49967771  0.50054503  0.64928378
   0.75023328  0.25055041  0.64930993
   0.00000000  0.75000000  0.45053509
   0.25000000  0.00000000  0.45053509
   0.00000000  0.00000000  0.35160527
   0.25000000  0.75000000  0.35160527
   0.00051085  0.75038980  0.65080674
   0.24944186  0.00038734  0.65073558
   0.99990157  0.00018680  0.54979958
   0.25005505  0.75018992  0.54979288
   0.00000000  0.25000000  0.45053509
   0.25000000  0.50000000  0.45053509
   0.00000000  0.50000000  0.35160527
   0.25000000  0.25000000  0.35160527
   0.00051120  0.25039224  0.65080782
   0.24944319  0.50038874  0.65073330
   0.99989934  0.50018607  0.54980769
   0.25005525  0.25017926  0.54979386
   0.50000000  0.75000000  0.45053509
   0.75000000  0.00000000  0.45053509
   0.50000000  0.00000000  0.35160527
   0.75000000  0.75000000  0.35160527
   0.49967108  0.75040608  0.65099482
   0.75024153  0.00041277  0.65099111
   0.49999447  0.00021214  0.55003347
   0.74999398  0.75021142  0.55004089
   0.50000000  0.25000000  0.45053509
   0.75000000  0.50000000  0.45053509
   0.50000000  0.50000000  0.35160527
   0.75000000  0.25000000  0.35160527
   0.49967033  0.25041300  0.65099607
   0.75023904  0.50041411  0.65099593
   0.49999986  0.50021208  0.55002609
   0.74999375  0.25021302  0.55004162

 position of ions in cartesian coordinates  (Angst):
   0.00000000  6.33073849  7.50000000
   2.11024616  0.00000000  7.50000000
   0.00000000  0.00000000  9.61024616
   2.11024616  6.33073849  9.61024616
   8.43959298  6.33214878 11.73368483
   2.11136879  0.00153393 11.73345908
   0.00084283  0.00283336 13.83172449
   2.10912843  6.33335777 13.83137239
   0.00000000  2.11024616  7.50000000
   2.11024616  4.22049233  7.50000000
   0.00000000  4.22049233  9.61024616
   2.11024616  2.11024616  9.61024616
   8.43959380  2.11194345 11.73369322
   2.11147296  4.22203054 11.73338849
   0.00093164  4.22334051 13.83162060
   2.10912556  2.11321411 13.83137740
   4.22049233  6.33073849  7.50000000
   6.33073849  0.00000000  7.50000000
   4.22049233  0.00000000  9.61024616
   6.33073849  6.33073849  9.61024616
   4.22217054  6.33248398 11.73794371
   6.32889298  0.00187947 11.73811905
   4.21785301  0.00458618 13.84922282
   6.33271135  6.33525913 13.85025031
   4.22049233  2.11024616  7.50000000
   6.33073849  4.22049233  7.50000000
   4.22049233  4.22049233  9.61024616
   6.33073849  2.11024616  9.61024616
   4.22217003  2.11225608 11.73795522
   6.32882408  4.22236449 11.73798131
   4.21777191  4.22509290 13.84970255
   6.33270760  2.11489220 13.85026030
   0.00000000  6.33073849  9.61024616
   2.11024616  0.00000000  9.61024616
   0.00000000  0.00000000  7.50000000
   2.11024616  6.33073849  7.50000000
   0.00431210  6.33402877 13.88218834
   2.10553489  0.00326953 13.88067041
   8.44015383  0.00157676 11.72763114
   2.11071088  6.33234164 11.72748807
   0.00000000  2.11024616  9.61024616
   2.11024616  4.22049233  9.61024616
   0.00000000  4.22049233  7.50000000
   2.11024616  2.11024616  7.50000000
   0.00431502  2.11355705 13.88221141
   2.10554612  4.22377370 13.88062175
   8.44013501  4.22206293 11.72780414
   2.11071255  2.11175930 11.72750901
   4.22049233  6.33073849  9.61024616
   6.33073849  0.00000000  9.61024616
   4.22049233  0.00000000  7.50000000
   6.33073849  6.33073849  7.50000000
   4.21771590  6.33416620 13.88620036
   6.33277728  0.00348422 13.88612120
   4.22044563  0.00179069 11.73262013
   6.33068769  6.33252310 11.73277841
   4.22049233  2.11024616  9.61024616
   6.33073849  4.22049233  9.61024616
   4.22049233  4.22049233  7.50000000
   6.33073849  2.11024616  7.50000000
   4.21770955  2.11373227 13.88622702
   6.33275619  4.22398786 13.88622398
   4.22049119  4.22228250 11.73246277
   6.33068572  2.11204422 11.73279402

--------------------------------------- Iteration      FINAL  ---------------------------------------

--------------------OUTCAR has been truncated-------------------------

[...]

--------------------OUTCAR has been truncated-------------------------

 VOLUME and BASIS-vectors are now :
  energy-cutoff  :      600.00
  volume of cell :     1519.82
      direct lattice vectors                 reciprocal lattice vectors
     8.440984654  0.000000000  0.000000000     0.118469591  0.000000000  0.000000000
     0.000000000  8.440984654  0.000000000     0.000000000  0.118469591  0.000000000
     0.000000000  0.000000000 21.330738491     0.000000000  0.000000000  0.046880702

  length of vectors
     8.440984654  8.440984654 21.330738491     0.118469591  0.118469591  0.046880702

 FORCES acting on ions:
    Electron-Ion                     Ewald-Force                    Non-Local-Force
   0.116E+00 -.225E-02 0.207E+04   -.118E+00 0.279E-02 -.206E+04   0.138E-02 -.362E-03 -.677E+01
   -.106E+00 0.144E-03 0.207E+04   0.107E+00 0.240E-03 -.206E+04   -.119E-02 -.268E-03 -.677E+01
   0.501E+00 0.177E-01 0.684E+03   -.522E+00 -.995E-02 -.684E+03   0.129E-01 -.452E-02 0.445E+00
   -.458E+00 0.645E-02 0.684E+03   0.475E+00 0.263E-02 -.684E+03   -.106E-01 -.535E-02 0.444E+00
   0.868E+00 -.453E-01 -.689E+03   -.932E+00 0.480E-01 0.689E+03   0.541E-01 0.203E-03 -.190E+00
   -.770E+00 0.173E-01 -.688E+03   0.828E+00 -.161E-01 0.689E+03   -.498E-01 -.310E-03 -.207E+00
   0.117E+01 -.192E+00 -.205E+04   -.103E+01 0.179E+00 0.204E+04   -.114E+00 0.147E-01 0.573E+01
   -.107E+01 -.286E+00 -.205E+04   0.938E+00 0.275E+00 0.204E+04   0.106E+00 0.155E-01 0.573E+01
   0.116E+00 0.326E-02 0.207E+04   -.118E+00 -.302E-02 -.206E+04   0.138E-02 -.184E-03 -.677E+01
   -.104E+00 0.834E-03 0.207E+04   0.106E+00 -.444E-03 -.206E+04   -.118E-02 -.271E-03 -.677E+01
   0.495E+00 0.199E-01 0.684E+03   -.516E+00 -.122E-01 -.684E+03   0.129E-01 -.449E-02 0.450E+00
   -.458E+00 0.312E-01 0.684E+03   0.475E+00 -.251E-01 -.684E+03   -.106E-01 -.354E-02 0.445E+00
   0.868E+00 0.813E-01 -.689E+03   -.932E+00 -.820E-01 0.689E+03   0.540E-01 -.675E-03 -.190E+00
   -.760E+00 0.223E-01 -.688E+03   0.821E+00 -.210E-01 0.689E+03   -.526E-01 -.361E-03 -.204E+00
   0.122E+01 -.186E+00 -.205E+04   -.109E+01 0.172E+00 0.204E+04   -.113E+00 0.144E-01 0.573E+01
   -.107E+01 -.112E+00 -.205E+04   0.938E+00 0.959E-01 0.204E+04   0.106E+00 0.141E-01 0.573E+01
   -.115E+00 -.359E-02 0.207E+04   0.118E+00 0.426E-02 -.206E+04   -.149E-02 -.451E-03 -.677E+01
   0.105E+00 0.472E-03 0.207E+04   -.107E+00 0.827E-05 -.206E+04   0.138E-02 -.332E-03 -.677E+01
   -.513E+00 0.160E-01 0.682E+03   0.529E+00 -.660E-02 -.683E+03   -.978E-02 -.542E-02 0.505E+00
   0.464E+00 -.115E-02 0.682E+03   -.478E+00 0.119E-01 -.683E+03   0.889E-02 -.620E-02 0.507E+00
   -.899E+00 -.805E-01 -.691E+03   0.954E+00 0.825E-01 0.692E+03   -.471E-01 -.480E-04 -.210E+00
   0.801E+00 -.262E-01 -.692E+03   -.850E+00 0.284E-01 0.692E+03   0.427E-01 -.154E-02 -.216E+00
   -.745E+00 0.312E+00 -.206E+04   0.672E+00 -.300E+00 0.205E+04   0.631E-01 -.216E-01 0.585E+01
   0.698E+00 0.264E+00 -.206E+04   -.625E+00 -.254E+00 0.205E+04   -.619E-01 -.188E-01 0.585E+01
   -.115E+00 0.510E-02 0.207E+04   0.118E+00 -.482E-02 -.206E+04   -.148E-02 -.211E-03 -.677E+01
   0.104E+00 0.103E-02 0.207E+04   -.106E+00 -.560E-03 -.206E+04   0.136E-02 -.329E-03 -.677E+01
   -.507E+00 0.189E-01 0.682E+03   0.523E+00 -.948E-02 -.683E+03   -.987E-02 -.539E-02 0.504E+00
   0.464E+00 0.362E-01 0.682E+03   -.478E+00 -.282E-01 -.683E+03   0.889E-02 -.459E-02 0.507E+00
   -.899E+00 0.256E-01 -.691E+03   0.953E+00 -.235E-01 0.692E+03   -.471E-01 -.290E-02 -.210E+00
   0.792E+00 -.245E-01 -.691E+03   -.844E+00 0.268E-01 0.692E+03   0.457E-01 -.148E-02 -.213E+00
   -.790E+00 0.318E+00 -.206E+04   0.722E+00 -.306E+00 0.205E+04   0.612E-01 -.219E-01 0.585E+01
   0.697E+00 0.331E+00 -.206E+04   -.625E+00 -.319E+00 0.205E+04   -.618E-01 -.221E-01 0.585E+01
   0.361E+00 0.487E-02 0.512E+03   -.354E+00 -.126E-01 -.512E+03   -.824E-02 0.879E-02 -.974E-01
   -.331E+00 0.129E-01 0.512E+03   0.325E+00 -.223E-01 -.512E+03   0.691E-02 0.106E-01 -.962E-01
   0.872E-01 -.496E-03 0.155E+04   -.894E-01 0.253E-03 -.156E+04   0.265E-02 0.310E-03 0.303E+01
   -.789E-01 -.256E-02 0.155E+04   0.808E-01 0.255E-02 -.156E+04   -.235E-02 0.305E-04 0.303E+01
   0.104E+01 0.102E+00 -.156E+04   -.102E+01 -.107E+00 0.156E+04   -.615E-01 0.714E-03 -.445E+01
   -.100E+01 0.144E+00 -.156E+04   0.972E+00 -.152E+00 0.156E+04   0.658E-01 0.438E-02 -.444E+01
   0.630E+00 -.106E-01 -.510E+03   -.625E+00 0.931E-02 0.510E+03   -.313E-02 0.143E-02 0.317E+00
   -.571E+00 -.327E-01 -.510E+03   0.568E+00 0.344E-01 0.510E+03   0.213E-02 -.225E-02 0.317E+00
   0.361E+00 0.240E-01 0.512E+03   -.353E+00 -.352E-01 -.512E+03   -.824E-02 0.127E-01 -.975E-01
   -.318E+00 0.155E-01 0.512E+03   0.313E+00 -.248E-01 -.512E+03   0.629E-02 0.106E-01 -.937E-01
   0.867E-01 -.511E-04 0.155E+04   -.889E-01 -.192E-03 -.156E+04   0.267E-02 0.313E-03 0.303E+01
   -.789E-01 0.204E-02 0.155E+04   0.809E-01 -.251E-02 -.156E+04   -.235E-02 0.580E-03 0.303E+01
   0.104E+01 0.171E+00 -.156E+04   -.102E+01 -.180E+00 0.156E+04   -.615E-01 0.592E-02 -.445E+01
   -.997E+00 0.148E+00 -.156E+04   0.967E+00 -.157E+00 0.156E+04   0.672E-01 0.475E-02 -.444E+01
   0.629E+00 -.842E-02 -.510E+03   -.624E+00 0.722E-02 0.510E+03   -.204E-02 0.142E-02 0.316E+00
   -.571E+00 0.129E-01 -.510E+03   0.568E+00 -.177E-01 0.510E+03   0.214E-02 0.583E-02 0.317E+00
   -.363E+00 -.454E-03 0.511E+03   0.352E+00 -.103E-01 -.511E+03   0.127E-01 0.122E-01 -.132E+00
   0.329E+00 0.183E-01 0.511E+03   -.317E+00 -.299E-01 -.511E+03   -.146E-01 0.131E-01 -.135E+00
   -.869E-01 -.700E-03 0.155E+04   0.894E-01 0.392E-03 -.156E+04   -.296E-02 0.392E-03 0.303E+01
   0.787E-01 -.325E-02 0.155E+04   -.808E-01 0.316E-02 -.156E+04   0.256E-02 0.130E-03 0.303E+01
   -.870E+00 -.342E+00 -.156E+04   0.895E+00 0.387E+00 0.156E+04   -.985E-03 -.395E-01 -.430E+01
   0.797E+00 -.293E+00 -.156E+04   -.818E+00 0.333E+00 0.156E+04   -.157E-02 -.356E-01 -.429E+01
   -.620E+00 0.185E-01 -.514E+03   0.608E+00 -.183E-01 0.514E+03   0.123E-01 0.211E-03 0.182E+00
   0.559E+00 -.646E-02 -.514E+03   -.547E+00 0.862E-02 0.514E+03   -.122E-01 -.194E-02 0.174E+00
   -.363E+00 0.389E-01 0.511E+03   0.352E+00 -.513E-01 -.511E+03   0.127E-01 0.139E-01 -.133E+00
   0.317E+00 0.200E-01 0.511E+03   -.305E+00 -.315E-01 -.511E+03   -.137E-01 0.130E-01 -.133E+00
   -.864E-01 -.219E-03 0.155E+04   0.889E-01 -.920E-04 -.156E+04   -.297E-02 0.393E-03 0.303E+01
   0.787E-01 0.233E-02 0.155E+04   -.808E-01 -.286E-02 -.156E+04   0.256E-02 0.652E-03 0.303E+01
   -.871E+00 -.267E+00 -.156E+04   0.895E+00 0.304E+00 0.156E+04   -.843E-03 -.321E-01 -.430E+01
   0.790E+00 -.289E+00 -.156E+04   -.809E+00 0.329E+00 0.156E+04   -.293E-02 -.355E-01 -.429E+01
   -.621E+00 0.217E-01 -.514E+03   0.610E+00 -.215E-01 0.514E+03   0.102E-01 0.132E-03 0.177E+00
   0.559E+00 0.445E-01 -.514E+03   -.547E+00 -.468E-01 0.514E+03   -.122E-01 0.278E-02 0.174E+00
   0.192E-01 0.115E+00 0.181E+02   -.454E-12 -.961E-13 0.318E-11   -.176E-01 -.963E-01 -.154E+02

 POSITION                                       TOTAL-FORCE (eV/Angst)
      0.00000      6.33074      7.50000        -0.000519      0.000017      0.586214
      2.11025      0.00000      7.50000         0.000460     -0.000032      0.586217
      0.00000      0.00000      9.61025        -0.006233      0.002362      0.057797
      2.11025      6.33074      9.61025         0.005185      0.002728      0.056699
      8.43959      6.33215     11.73368        -0.003282      0.002631      0.011602
      2.11137      0.00153     11.73346         0.001740      0.000707      0.011792
      0.00084      0.00283     13.83172         0.013135      0.002407     -0.160441
      2.10913      6.33336     13.83137        -0.014157      0.005227     -0.159404
      0.00000      2.11025      7.50000        -0.000523     -0.000079      0.586215
      2.11025      4.22049      7.50000         0.000451     -0.000029      0.585967
      0.00000      4.22049      9.61025        -0.006200      0.002353      0.056911
      2.11025      2.11025      9.61025         0.005192      0.001907      0.056746
      8.43959      2.11194     11.73369        -0.003261     -0.001471      0.011617
      2.11147      4.22203     11.73339         0.001599      0.000661      0.011310
      0.00093      4.22334     13.83162         0.011037      0.002272     -0.158799
      2.10913      2.11321     13.83138        -0.014138      0.000030     -0.159338
      4.22049      6.33074      7.50000         0.000583      0.000041      0.587606
      6.33074      0.00000      7.50000        -0.000521     -0.000009      0.587844
      4.22049      0.00000      9.61025         0.004258      0.002996      0.065998
      6.33074      6.33074      9.61025        -0.003933      0.003385      0.066076
      4.22217      6.33248     11.73794         0.001768      0.001705      0.000993
      6.32889      0.00188     11.73812        -0.000592      0.000312      0.000669
      4.21785      0.00459     13.84922        -0.001795     -0.011506     -0.275990
      6.33271      6.33526     13.85025         0.002759     -0.010935     -0.280723
      4.22049      2.11025      7.50000         0.000587     -0.000065      0.587615
      6.33074      4.22049      7.50000        -0.000516     -0.000012      0.587619
      4.22049      4.22049      9.61025         0.004298      0.002978      0.064877
      6.33074      2.11025      9.61025        -0.003945      0.002580      0.066075
      4.22217      2.11226     11.73796         0.001735     -0.001151      0.000967
      6.32882      4.22236     11.73798        -0.000715      0.000403      0.002274
      4.21777      4.22509     13.84970         0.000240     -0.011602     -0.278920
      6.33271      2.11489     13.85026         0.002794     -0.011671     -0.280669
      0.00000      6.33074      9.61025        -0.002635      0.002489      0.062674
      2.11025      0.00000      9.61025         0.002247      0.003061      0.062033
      0.00000      0.00000      7.50000         0.000916      0.000012     -0.413380
      2.11025      6.33074      7.50000        -0.000802     -0.000087     -0.413263
      0.00431      6.33403     13.88219        -0.051164     -0.004377     -0.120030
      2.10553      0.00327     13.88067         0.052073     -0.003621     -0.113282
      8.44015      0.00158     11.72763         0.001974      0.000301      0.012385
      2.11071      6.33234     11.72749        -0.001408     -0.001090      0.011897
      0.00000      2.11025      9.61025        -0.002633      0.003694      0.062703
      2.11025      4.22049      9.61025         0.001934      0.003027      0.062544
      0.00000      4.22049      7.50000         0.000926      0.000016     -0.413258
      2.11025      2.11025      7.50000        -0.000798      0.000105     -0.413264
      0.00432      2.11356     13.88221        -0.051213     -0.003187     -0.120127
      2.10555      4.22377     13.88062         0.052398     -0.003617     -0.112844
      8.44014      4.22206     11.72780         0.002625      0.000339      0.010332
      2.11071      2.11176     11.72751        -0.001410      0.001893      0.011726
      4.22049      6.33074      9.61025         0.004098      0.003567      0.071149
      6.33074      0.00000      9.61025        -0.004642      0.003784      0.070960
      4.22049      0.00000      7.50000        -0.001033      0.000045     -0.414261
      6.33074      6.33074      7.50000         0.000902     -0.000047     -0.414261
      4.21772      6.33417     13.88620         0.025389     -0.001690     -0.082648
      6.33278      0.00348     13.88612        -0.024009     -0.001250     -0.081203
      4.22045      0.00179     11.73262         0.001609      0.000281      0.009106
      6.33069      6.33252     11.73278        -0.002296     -0.000222      0.010173
      4.22049      2.11025      9.61025         0.004096      0.003966      0.071190
      6.33074      4.22049      9.61025        -0.004274      0.003743      0.071105
      4.22049      4.22049      7.50000        -0.001028      0.000042     -0.414137
      6.33074      2.11025      7.50000         0.000899      0.000130     -0.414259
      4.21771      2.11373     13.88623         0.025466     -0.000272     -0.082776
      6.33276      4.22399     13.88622        -0.024110     -0.001309     -0.081658
      4.22049      4.22228     11.73246         0.000709      0.000249      0.011168
      6.33069      2.11204     11.73279        -0.002299      0.000887      0.010088
    total drift:                               -0.000387      0.006952     -0.001478

  FREE ENERGIE OF THE ION-ELECTRON SYSTEM (eV)
  free  energy   TOTEN  =      -471.46015274 eV

  energy  without entropy=     -471.46015274  energy(sigma->0) =     -471.46015274