 vasp.6.3.0 20Jan22 (build Apr  1 2022 16:44:48) complex
 executed on        HPECrayEX_GCC date 2023.01.23  21:53:26

 INCAR:
   SYSTEM = MgO-rocksalt
   ISMEAR = 0
   SIGMA = 0.05
   EDIFF = 1E-8
   ALGO = ALL
   ISTART = 0
   IBRION = 5
   POTIM = 0.01
   NFREE = 2
   ISYM = 0
   DIPOL = 0.5 0.5 0.5
   IDIPOL = 3
   LDIPOL = .TRUE.
   GGA = PE
   IVDW = 1
   VDW_C6 = 1.75 0.70 0.63 0.70
   VDW_R0 = 1.452 1.342 1.243 1.342
   ENCUT = 600
   PREC = Accurate
   LASPH = .TRUE.
   LREAL = .FALSE.
   ISPIN = 1
   NELM = 200
   NELMIN = 8
   NCORE = 8
   KPAR = 1
   LWAVE = .FALSE.
   LCHARG = .FALSE.

 POTCAR:    PAW_PBE C 08Apr2002
 POTCAR:    PAW_PBE O 08Apr2002
 POTCAR:    PAW_PBE Mg_pv 13Apr2007
 POTCAR:    PAW_PBE O 08Apr2002
 POTCAR:    PAW_PBE C 08Apr2002
   VRHFIN =C: s2p2

   TITEL  = PAW_PBE C 08Apr2002
   POMASS =   12.011; ZVAL   =    4.000    mass and valenz
   ENMAX  =  400.000; ENMIN  =  300.000 eV

[...]

   TITEL  = PAW_PBE Mg_pv 13Apr2007
   POMASS =   24.305; ZVAL   =    8.000    mass and valenz
   ENMAX  =  403.929; ENMIN  =  302.947 eV

   TITEL  = PAW_PBE O 08Apr2002
   POMASS =   16.000; ZVAL   =    6.000    mass and valenz
   ENMAX  =  400.000; ENMIN  =  300.000 eV

  PAW_PBE C 08Apr2002                   :
  PAW_PBE O 08Apr2002                   :
  PAW_PBE Mg_pv 13Apr2007               :
  PAW_PBE O 08Apr2002                   :

 POSCAR:  C  O Mg  O
  positions in direct lattice
 exchange correlation table for  LEXCH =        8
   RHO(1)=    0.500       N(1)  =     2000
   RHO(2)=  100.500       N(2)  =     4000

 ion  position               nearest neighbor table
   1  0.500  0.500  0.764-   2 1.14
   2  0.500  0.500  0.818-   1 1.14
   3  0.250  0.000  0.351-  35 2.12  37 2.12  38 2.12  45 2.12  54 2.12
   4  0.500  0.250  0.351-  36 2.12  37 2.12  38 2.12  46 2.12  53 2.12
   5  0.250  0.250  0.450-  37 2.12  36 2.12  35 2.12  43 2.12  52 2.12  41 2.12
   6  0.500  0.000  0.450-  38 2.12  36 2.12  35 2.12  44 2.12  51 2.12  42 2.12
   7  0.250  0.000  0.550-  42 2.12  41 2.12  49 2.12  58 2.12  35 2.13  39 2.15
   8  0.500  0.251  0.550-  50 2.11  41 2.12  57 2.12  42 2.12  36 2.13  40 2.15
   9  0.250  0.250  0.648-  41 2.10  39 2.11  56 2.11  47 2.12  40 2.12
  10  0.500  0.000  0.648-  42 2.10  40 2.11  48 2.11  39 2.12  55 2.12
  11  0.250  0.500  0.351-  43 2.12  37 2.12  45 2.12  46 2.12  62 2.12
  12  0.500  0.750  0.351-  44 2.12  38 2.12  45 2.12  46 2.12  61 2.12
  13  0.250  0.750  0.450-  45 2.12  43 2.12  44 2.12  35 2.12  60 2.12  49 2.12
  14  0.500  0.500  0.450-  46 2.12  43 2.12  44 2.12  36 2.12  59 2.12  50 2.13
  15  0.251  0.500  0.550-  50 2.11  49 2.12  41 2.12  66 2.12  43 2.13  47 2.15
  16  0.500  0.749  0.550-  50 2.11  49 2.12  65 2.12  42 2.12  44 2.13  48 2.15
  17  0.250  0.750  0.648-  49 2.10  39 2.11  64 2.11  47 2.12  48 2.12
  18  0.500  0.500  0.651-  40 2.13  47 2.13  48 2.13  63 2.13  50 2.15
  19  0.750  0.000  0.351-  51 2.12  38 2.12  53 2.12  54 2.12  61 2.12
  20  0.000  0.250  0.351-  52 2.12  37 2.12  53 2.12  54 2.12  62 2.12
  21  0.750  0.250  0.450-  53 2.12  51 2.12  52 2.12  36 2.12  59 2.12  57 2.12
  22  0.000  0.000  0.450-  54 2.12  51 2.12  52 2.12  35 2.12  60 2.12  58 2.12
  23  0.750  0.000  0.550-  42 2.12  57 2.12  65 2.12  58 2.12  51 2.13  55 2.15
  24  0.000  0.250  0.550-  66 2.12  57 2.12  41 2.12  58 2.12  52 2.13  56 2.15
  25  0.750  0.250  0.648-  57 2.10  56 2.11  55 2.11  40 2.12  63 2.12
  26  0.000  0.000  0.648-  58 2.11  55 2.11  56 2.11  39 2.11  64 2.11
  27  0.750  0.500  0.351-  59 2.12  53 2.12  46 2.12  61 2.12  62 2.12
  28  0.000  0.750  0.351-  60 2.12  54 2.12  45 2.12  61 2.12  62 2.12
  29  0.750  0.750  0.450-  61 2.12  51 2.12  59 2.12  60 2.12  44 2.12  65 2.12
  30  0.000  0.500  0.450-  62 2.12  52 2.12  59 2.12  60 2.12  43 2.12  66 2.12
  31  0.749  0.500  0.550-  50 2.11  57 2.12  65 2.12  66 2.12  59 2.13  63 2.15
  32  0.000  0.750  0.550-  66 2.12  65 2.12  49 2.12  58 2.12  60 2.13  64 2.15
  33  0.750  0.750  0.648-  65 2.10  64 2.11  55 2.11  48 2.12  63 2.12
  34  0.000  0.500  0.648-  66 2.10  63 2.11  47 2.11  64 2.12  56 2.12
  35  0.250  0.000  0.450-   3 2.12   5 2.12   6 2.12  13 2.12  22 2.12   7 2.13
  36  0.500  0.250  0.450-   4 2.12   5 2.12   6 2.12  14 2.12  21 2.12   8 2.13
  37  0.250  0.250  0.351-   5 2.12   4 2.12   3 2.12  11 2.12  20 2.12
  38  0.500  0.000  0.351-   6 2.12   4 2.12   3 2.12  12 2.12  19 2.12
  39  0.250  0.000  0.651-   9 2.11  17 2.11  26 2.11  10 2.12   7 2.15
  40  0.500  0.249  0.651-  10 2.11   9 2.12  25 2.12  18 2.13   8 2.15
  41  0.250  0.250  0.550-   9 2.10   7 2.12  24 2.12  15 2.12   8 2.12   5 2.12
  42  0.500  0.000  0.550-  10 2.10   7 2.12  23 2.12   6 2.12  16 2.12   8 2.12
  43  0.250  0.500  0.450-  11 2.12   5 2.12  13 2.12  14 2.12  30 2.12  15 2.13
  44  0.500  0.750  0.450-  12 2.12   6 2.12  13 2.12  14 2.12  29 2.12  16 2.13
  45  0.250  0.750  0.351-  13 2.12  11 2.12  12 2.12   3 2.12  28 2.12
  46  0.500  0.500  0.351-  14 2.12  11 2.12  12 2.12   4 2.12  27 2.12
  47  0.249  0.500  0.651-  34 2.11  17 2.12   9 2.12  18 2.13  15 2.15
  48  0.500  0.751  0.651-  10 2.11  17 2.12  33 2.12  18 2.13  16 2.15
  49  0.250  0.750  0.550-  17 2.10   7 2.12  32 2.12  15 2.12  16 2.12  13 2.12
  50  0.500  0.500  0.550-   8 2.11  15 2.11  16 2.11  31 2.11  14 2.13  18 2.15
  51  0.750  0.000  0.450-  19 2.12   6 2.12  21 2.12  22 2.12  29 2.12  23 2.13
  52  0.000  0.250  0.450-  20 2.12   5 2.12  21 2.12  22 2.12  30 2.12  24 2.13
  53  0.750  0.250  0.351-  21 2.12  19 2.12  20 2.12   4 2.12  27 2.12
  54  0.000  0.000  0.351-  22 2.12  19 2.12  20 2.12   3 2.12  28 2.12
  55  0.750  0.000  0.651-  25 2.11  33 2.11  26 2.11  10 2.12  23 2.15
  56  0.000  0.250  0.651-   9 2.11  25 2.11  26 2.11  34 2.12  24 2.15
  57  0.750  0.250  0.550-  25 2.10  24 2.12  23 2.12   8 2.12  31 2.12  21 2.12
  58  0.000  0.000  0.550-  26 2.11  23 2.12  24 2.12   7 2.12  32 2.12  22 2.12
  59  0.750  0.500  0.450-  27 2.12  21 2.12  14 2.12  29 2.12  30 2.12  31 2.13
  60  0.000  0.750  0.450-  28 2.12  22 2.12  13 2.12  29 2.12  30 2.12  32 2.13
  61  0.750  0.750  0.351-  29 2.12  19 2.12  27 2.12  28 2.12  12 2.12
  62  0.000  0.500  0.351-  30 2.12  20 2.12  27 2.12  28 2.12  11 2.12
  63  0.751  0.500  0.651-  34 2.11  33 2.12  25 2.12  18 2.13  31 2.15
  64  0.000  0.750  0.651-  17 2.11  33 2.11  26 2.11  34 2.12  32 2.15
  65  0.750  0.750  0.550-  33 2.10  32 2.12  23 2.12  16 2.12  31 2.12  29 2.12
  66  0.000  0.500  0.550-  34 2.10  32 2.12  24 2.12  30 2.12  15 2.12  31 2.12

IMPORTANT INFORMATION: All symmetrisations will be switched off!
NOSYMM: (Re-)initialisation of all symmetry stuff for point group C_1.

                                     Primitive cell

  volume of cell :    1530.6606

  direct lattice vectors                    reciprocal lattice vectors
     8.467142631  0.000000000  0.000000000     0.118103597  0.000000000  0.000000000
     0.000000000  8.467142631  0.000000000     0.000000000  0.118103597  0.000000000
     0.000000000  0.000000000 21.350356973     0.000000000  0.000000000  0.046837624

  length of vectors
     8.467142631  8.467142631 21.350356973     0.118103597  0.118103597  0.046837624

  position of ions in fractional coordinates (direct lattice)
     0.500000000  0.500000000  0.764079771
     0.500000000  0.500000000  0.817635679
     0.250000000  0.000000000  0.351282183
     0.500000000  0.250000000  0.351282183
     0.250000000  0.250000000  0.450427394
     0.500000000  0.000000000  0.450427394
     0.250130675  0.000000000  0.550051025
     0.500000000  0.250549374  0.550337361
     0.249664725  0.249664725  0.648233062
     0.500000000  0.000000000  0.648327315
     0.250000000  0.500000000  0.351282183
     0.500000000  0.750000000  0.351282183
     0.250000000  0.750000000  0.450427394
     0.500000000  0.500000000  0.450427394
     0.250549374  0.500000000  0.550337361
     0.500000000  0.749450626  0.550337361
     0.249664725  0.750335275  0.648233062
     0.500000000  0.500000000  0.651025884
     0.750000000  0.000000000  0.351282183
     0.000000000  0.250000000  0.351282183
     0.750000000  0.250000000  0.450427394
     0.000000000  0.000000000  0.450427394
     0.749869325  0.000000000  0.550051025
     0.000000000  0.250130675  0.550051025
     0.750335275  0.249664725  0.648233062
     0.000000000  0.000000000  0.648316240
     0.750000000  0.500000000  0.351282183
     0.000000000  0.750000000  0.351282183
     0.750000000  0.750000000  0.450427394
     0.000000000  0.500000000  0.450427394
     0.749450626  0.500000000  0.550337361
     0.000000000  0.749869325  0.550051025
     0.750335275  0.750335275  0.648233062
     0.000000000  0.500000000  0.648327315
     0.250000000  0.000000000  0.450427394
     0.500000000  0.250000000  0.450427394
     0.250000000  0.250000000  0.351282183
     0.500000000  0.000000000  0.351282183
     0.249675969  0.000000000  0.650693757
     0.500000000  0.248616374  0.650874873
     0.249995626  0.249995626  0.549815020
     0.500000000  0.000000000  0.549743658
     0.250000000  0.500000000  0.450427394
     0.500000000  0.750000000  0.450427394
     0.250000000  0.750000000  0.351282183
     0.500000000  0.500000000  0.351282183
     0.248616374  0.500000000  0.650874873
     0.500000000  0.751383626  0.650874873
     0.249995626  0.750004374  0.549815020
     0.500000000  0.500000000  0.550361408
     0.750000000  0.000000000  0.450427394
     0.000000000  0.250000000  0.450427394
     0.750000000  0.250000000  0.351282183
     0.000000000  0.000000000  0.351282183
     0.750324031  0.000000000  0.650693757
     0.000000000  0.249675969  0.650693757
     0.750004374  0.249995626  0.549815020
     0.000000000  0.000000000  0.549710877
     0.750000000  0.500000000  0.450427394
     0.000000000  0.750000000  0.450427394
     0.750000000  0.750000000  0.351282183
     0.000000000  0.500000000  0.351282183
     0.751383626  0.500000000  0.650874873
     0.000000000  0.750324031  0.650693757
     0.750004374  0.750004374  0.549815020
     0.000000000  0.500000000  0.549743658

  ion indices of the primitive-cell ions
   primitive index   ion index
                 1           1
                 2           2
                 3           3
                 4           4
                 5           5
                 6           6
                 7           7
                 8           8
                 9           9
                10          10
                11          11
                12          12
                13          13
                14          14
                15          15
                16          16
                17          17
                18          18
                19          19
                20          20
                21          21
                22          22
                23          23
                24          24
                25          25
                26          26
                27          27
                28          28
                29          29
                30          30
                31          31
[...]
      2.114042  0.000000 13.892544            0           0           0
      4.233571  2.105070 13.896411            0           0           0
      2.116749  2.116749 11.738747            0           0           0
      4.233571  0.000000 11.737223            0           0           0
      2.116786  4.233571  9.616786            0           0           0
      4.233571  6.350357  9.616786            0           0           0
      2.116786  6.350357  7.500000            0           0           0
      4.233571  4.233571  7.500000            0           0           0
      2.105070  4.233571 13.896411            0           0           0
      4.233571  6.362072 13.896411            0           0           0
      2.116749  6.350394 11.738747            0           0           0
      4.233571  4.233571 11.750413            0           0           0
      6.350357  0.000000  9.616786            0           0           0
      0.000000  2.116786  9.616786            0           0           0
      6.350357  2.116786  7.500000            0           0           0
      0.000000  0.000000  7.500000            0           0           0
      6.353101  0.000000 13.892544            0           0           0
      0.000000  2.114042 13.892544            0           0           0
      6.350394  2.116749 11.738747            0           0           0
      0.000000  0.000000 11.736523            0           0           0
      6.350357  4.233571  9.616786            0           0           0
      0.000000  6.350357  9.616786            0           0           0
      6.350357  6.350357  7.500000            0           0           0
      0.000000  4.233571  7.500000            0           0           0
      6.362072  4.233571 13.896411            0           0           0
      0.000000  6.353101 13.892544            0           0           0
      6.350394  6.350394 11.738747            0           0           0
      0.000000  4.233571 11.737223            0           0           0

[...]

   4 f  =    3.431567 THz    21.561172 2PiTHz  114.464757 cm-1    14.191815 meV
             X         Y         Z           dx          dy          dz
      4.233571  4.233571 16.313376    -0.000937    0.002544    0.653388
      4.233571  4.233571 17.456814    -0.003449    0.005229    0.756993
      2.116786  0.000000  7.500000            0           0           0
      4.233571  2.116786  7.500000            0           0           0
      2.116786  2.116786  9.616786            0           0           0
      4.233571  0.000000  9.616786            0           0           0
      2.117892  0.000000 11.743786            0           0           0
      4.233571  2.121437 11.749899            0           0           0
      2.113947  2.113947 13.840007            0           0           0
      4.233571  0.000000 13.842020            0           0           0
      2.116786  4.233571  7.500000            0           0           0
      4.233571  6.350357  7.500000            0           0           0
      2.116786  6.350357  9.616786            0           0           0
      4.233571  4.233571  9.616786            0           0           0
      2.121437  4.233571 11.749899            0           0           0
      4.233571  6.345705 11.749899            0           0           0
      2.113947  6.353196 13.840007            0           0           0
      4.233571  4.233571 13.899635            0           0           0
      6.350357  0.000000  7.500000            0           0           0
      0.000000  2.116786  7.500000            0           0           0
      6.350357  2.116786  9.616786            0           0           0
      0.000000  0.000000  9.616786            0           0           0
      6.349251  0.000000 11.743786            0           0           0
      0.000000  2.117892 11.743786            0           0           0
      6.353196  2.113947 13.840007            0           0           0
      0.000000  0.000000 13.841783            0           0           0
      6.350357  4.233571  7.500000            0           0           0
      0.000000  6.350357  7.500000            0           0           0
      6.350357  6.350357  9.616786            0           0           0
      0.000000  4.233571  9.616786            0           0           0
      6.345705  4.233571 11.749899            0           0           0
      0.000000  6.349251 11.743786            0           0           0
      6.353196  6.353196 13.840007            0           0           0
      0.000000  4.233571 13.842020            0           0           0
      2.116786  0.000000  9.616786            0           0           0
      4.233571  2.116786  9.616786            0           0           0
      2.116786  2.116786  7.500000            0           0           0
      4.233571  0.000000  7.500000            0           0           0
      2.114042  0.000000 13.892544            0           0           0
      4.233571  2.105070 13.896411            0           0           0
      2.116749  2.116749 11.738747            0           0           0
      4.233571  0.000000 11.737223            0           0           0
      2.116786  4.233571  9.616786            0           0           0
      4.233571  6.350357  9.616786            0           0           0
      2.116786  6.350357  7.500000            0           0           0
      4.233571  4.233571  7.500000            0           0           0
      2.105070  4.233571 13.896411            0           0           0
      4.233571  6.362072 13.896411            0           0           0
      2.116749  6.350394 11.738747            0           0           0
      4.233571  4.233571 11.750413            0           0           0
      6.350357  0.000000  9.616786            0           0           0
      0.000000  2.116786  9.616786            0           0           0
      6.350357  2.116786  7.500000            0           0           0
      0.000000  0.000000  7.500000            0           0           0
      6.353101  0.000000 13.892544            0           0           0
      0.000000  2.114042 13.892544            0           0           0
      6.350394  2.116749 11.738747            0           0           0
      0.000000  0.000000 11.736523            0           0           0
      6.350357  4.233571  9.616786            0           0           0
      0.000000  6.350357  9.616786            0           0           0
      6.350357  6.350357  7.500000            0           0           0
      0.000000  4.233571  7.500000            0           0           0
      6.362072  4.233571 13.896411            0           0           0
      0.000000  6.353101 13.892544            0           0           0
      6.350394  6.350394 11.738747            0           0           0
      0.000000  4.233571 11.737223            0           0           0

   5 f/i=    0.877510 THz     5.513560 2PiTHz   29.270596 cm-1     3.629090 meV
             X         Y         Z           dx          dy          dz
      4.233571  4.233571 16.313376    -0.263063    0.257487   -0.004334
      4.233571  4.233571 17.456814    -0.664341    0.650466   -0.004970
      2.116786  0.000000  7.500000            0           0           0
      4.233571  2.116786  7.500000            0           0           0
      2.116786  2.116786  9.616786            0           0           0
      4.233571  0.000000  9.616786            0           0           0
      2.117892  0.000000 11.743786            0           0           0
      4.233571  2.121437 11.749899            0           0           0
      2.113947  2.113947 13.840007            0           0           0
      4.233571  0.000000 13.842020            0           0           0
      2.116786  4.233571  7.500000            0           0           0
      4.233571  6.350357  7.500000            0           0           0
      2.116786  6.350357  9.616786            0           0           0
      4.233571  4.233571  9.616786            0           0           0
      2.121437  4.233571 11.749899            0           0           0
      4.233571  6.345705 11.749899            0           0           0
      2.113947  6.353196 13.840007            0           0           0
      4.233571  4.233571 13.899635            0           0           0
      6.350357  0.000000  7.500000            0           0           0
      0.000000  2.116786  7.500000            0           0           0
      6.350357  2.116786  9.616786            0           0           0
      0.000000  0.000000  9.616786            0           0           0
      6.349251  0.000000 11.743786            0           0           0
      0.000000  2.117892 11.743786            0           0           0
      6.353196  2.113947 13.840007            0           0           0
      0.000000  0.000000 13.841783            0           0           0
      6.350357  4.233571  7.500000            0           0           0
      0.000000  6.350357  7.500000            0           0           0
      6.350357  6.350357  9.616786            0           0           0
      0.000000  4.233571  9.616786            0           0           0
      6.345705  4.233571 11.749899            0           0           0
      0.000000  6.349251 11.743786            0           0           0
      6.353196  6.353196 13.840007            0           0           0
      0.000000  4.233571 13.842020            0           0           0
      2.116786  0.000000  9.616786            0           0           0
      4.233571  2.116786  9.616786            0           0           0
      2.116786  2.116786  7.500000            0           0           0
      4.233571  0.000000  7.500000            0           0           0
      2.114042  0.000000 13.892544            0           0           0
      4.233571  2.105070 13.896411            0           0           0
      2.116749  2.116749 11.738747            0           0           0
      4.233571  0.000000 11.737223            0           0           0
      2.116786  4.233571  9.616786            0           0           0
      4.233571  6.350357  9.616786            0           0           0
      2.116786  6.350357  7.500000            0           0           0
      4.233571  4.233571  7.500000            0           0           0
      2.105070  4.233571 13.896411            0           0           0
      4.233571  6.362072 13.896411            0           0           0
      2.116749  6.350394 11.738747            0           0           0
      4.233571  4.233571 11.750413            0           0           0
      6.350357  0.000000  9.616786            0           0           0
      0.000000  2.116786  9.616786            0           0           0
      6.350357  2.116786  7.500000            0           0           0
      0.000000  0.000000  7.500000            0           0           0
      6.353101  0.000000 13.892544            0           0           0
      0.000000  2.114042 13.892544            0           0           0
      6.350394  2.116749 11.738747            0           0           0
      0.000000  0.000000 11.736523            0           0           0
      6.350357  4.233571  9.616786            0           0           0
      0.000000  6.350357  9.616786            0           0           0
      6.350357  6.350357  7.500000            0           0           0
      0.000000  4.233571  7.500000            0           0           0
      6.362072  4.233571 13.896411            0           0           0
      0.000000  6.353101 13.892544            0           0           0
      6.350394  6.350394 11.738747            0           0           0
      0.000000  4.233571 11.737223            0           0           0

   6 f/i=    0.923130 THz     5.800194 2PiTHz   30.792287 cm-1     3.817755 meV
             X         Y         Z           dx          dy          dz
      4.233571  4.233571 16.313376     0.257971    0.264444   -0.001106
      4.233571  4.233571 17.456814     0.650297    0.663801   -0.001237
      2.116786  0.000000  7.500000            0           0           0
      4.233571  2.116786  7.500000            0           0           0
      2.116786  2.116786  9.616786            0           0           0
      4.233571  0.000000  9.616786            0           0           0
      2.117892  0.000000 11.743786            0           0           0
      4.233571  2.121437 11.749899            0           0           0
      2.113947  2.113947 13.840007            0           0           0
      4.233571  0.000000 13.842020            0           0           0
      2.116786  4.233571  7.500000            0           0           0
      4.233571  6.350357  7.500000            0           0           0
      2.116786  6.350357  9.616786            0           0           0
      4.233571  4.233571  9.616786            0           0           0
      2.121437  4.233571 11.749899            0           0           0
      4.233571  6.345705 11.749899            0           0           0
      2.113947  6.353196 13.840007            0           0           0
      4.233571  4.233571 13.899635            0           0           0
      6.350357  0.000000  7.500000            0           0           0
      0.000000  2.116786  7.500000            0           0           0
      6.350357  2.116786  9.616786            0           0           0
      0.000000  0.000000  9.616786            0           0           0
      6.349251  0.000000 11.743786            0           0           0
      0.000000  2.117892 11.743786            0           0           0
      6.353196  2.113947 13.840007            0           0           0
      0.000000  0.000000 13.841783            0           0           0
      6.350357  4.233571  7.500000            0           0           0
      0.000000  6.350357  7.500000            0           0           0
      6.350357  6.350357  9.616786            0           0           0
      0.000000  4.233571  9.616786            0           0           0
      6.345705  4.233571 11.749899            0           0           0
      0.000000  6.349251 11.743786            0           0           0
      6.353196  6.353196 13.840007            0           0           0
      0.000000  4.233571 13.842020            0           0           0
      2.116786  0.000000  9.616786            0           0           0
      4.233571  2.116786  9.616786            0           0           0
      2.116786  2.116786  7.500000            0           0           0
      4.233571  0.000000  7.500000            0           0           0
      2.114042  0.000000 13.892544            0           0           0
      4.233571  2.105070 13.896411            0           0           0
      2.116749  2.116749 11.738747            0           0           0
      4.233571  0.000000 11.737223            0           0           0
      2.116786  4.233571  9.616786            0           0           0
      4.233571  6.350357  9.616786            0           0           0
      2.116786  6.350357  7.500000            0           0           0
      4.233571  4.233571  7.500000            0           0           0
      2.105070  4.233571 13.896411            0           0           0
      4.233571  6.362072 13.896411            0           0           0
      2.116749  6.350394 11.738747            0           0           0
      4.233571  4.233571 11.750413            0           0           0
      6.350357  0.000000  9.616786            0           0           0
      0.000000  2.116786  9.616786            0           0           0
      6.350357  2.116786  7.500000            0           0           0
      0.000000  0.000000  7.500000            0           0           0
      6.353101  0.000000 13.892544            0           0           0
      0.000000  2.114042 13.892544            0           0           0
      6.350394  2.116749 11.738747            0           0           0
      0.000000  0.000000 11.736523            0           0           0
      6.350357  4.233571  9.616786            0           0           0
      0.000000  6.350357  9.616786            0           0           0
      6.350357  6.350357  7.500000            0           0           0
      0.000000  4.233571  7.500000            0           0           0
      6.362072  4.233571 13.896411            0           0           0
      0.000000  6.353101 13.892544            0           0           0
      6.350394  6.350394 11.738747            0           0           0
      0.000000  4.233571 11.737223            0           0           0

 Finite differences POTIM=   1.0000000000000000E-002