 vasp.6.3.0 20Jan22 (build Mar 11 2022 13:48:16) complex

 executed on             LinuxIFC date 2023.12.26  18:03:27

 INCAR:
   SYSTEM = MgO-rocksalt
   ISMEAR = 0
   SIGMA = 0.05
   EDIFF = 1E-6
   ALGO = ALL
   ISTART = 0
   IBRION = -1
   NSW = 0
   ISYM = 2
   ISIF = 2
   EDIFFG = -0.01
   DIPOL = 0.5 0.5 0.5
   IDIPOL = 3
   LDIPOL = .TRUE.
   GGA = PE
   IVDW = 1
   VDW_C6 = 1.75 0.70 0.63 0.70
   VDW_R0 = 1.452 1.342 1.243 1.342
   ENCUT = 600
   PREC = Accurate
   LASPH = .TRUE.
   LREAL = .FALSE.
   ISPIN = 1
   NELM = 200
   NELMIN = 8
   NCORE = 2
   KPAR = 1
   LWAVE = .FALSE.
   LCHARG = .FALSE.

 POTCAR:    PAW_PBE C 08Apr2002
 POTCAR:    PAW_PBE O 08Apr2002
 POTCAR:    PAW_PBE Mg_pv 13Apr2007
 POTCAR:    PAW_PBE O 08Apr2002
|           W    W    AA    RRRRR   N    N  II  N    N   GGGG   !!!           |
|           W    W   A  A   R    R  NN   N  II  NN   N  G    G  !!!           |
|           W    W  A    A  R    R  N N  N  II  N N  N  G       !!!           |
|           W WW W  AAAAAA  RRRRR   N  N N  II  N  N N  G  GGG   !            |
|           WW  WW  A    A  R   R   N   NN  II  N   NN  G    G                |
|           W    W  A    A  R    R  N    N  II  N    N   GGGG   !!!           |
|     For optimal performance we recommend to set                             |
|       NCORE = 2 up to number-of-cores-per-socket                            |
|     This setting can greatly improve the performance of VASP for DFT.       |
|     The default, NCORE=1 might be grossly inefficient on modern             |
|     multi-core architectures or massively parallel machines. Do your        |
|     Unfortunately you need to use the default for GW and RPA                |
|     calculations (for HF NCORE is supported but not extensively tested      |
|     yet).                                                                   |

   TITEL  = PAW_PBE C 08Apr2002
   POMASS =   12.011; ZVAL   =    4.000    mass and valenz
   ENMAX  =  400.000; ENMIN  =  300.000 eV

[...]

   TITEL  = PAW_PBE Mg_pv 13Apr2007
   POMASS =   24.305; ZVAL   =    8.000    mass and valenz
   ENMAX  =  403.929; ENMIN  =  302.947 eV

   TITEL  = PAW_PBE O 08Apr2002
   POMASS =   16.000; ZVAL   =    6.000    mass and valenz
   ENMAX  =  400.000; ENMIN  =  300.000 eV

  PAW_PBE C 08Apr2002                   :
  PAW_PBE O 08Apr2002                   :
  PAW_PBE Mg_pv 13Apr2007               :
  PAW_PBE O 08Apr2002                   :

 POSCAR:  C  O Mg  O
  positions in direct lattice
  velocities in cartesian coordinates
 exchange correlation table for  LEXCH =        8
   RHO(1)=    0.500       N(1)  =     2000
   RHO(2)=  100.500       N(2)  =     4000

 ion  position               nearest neighbor table
   1  0.500  0.500  0.764-   2 1.14
   2  0.500  0.500  0.818-   1 1.14
   3  0.250  0.000  0.351-  35 2.12  37 2.12  38 2.12  45 2.12  54 2.12
   4  0.500  0.250  0.351-  36 2.12  37 2.12  38 2.12  46 2.12  53 2.12
   5  0.250  0.250  0.450-  37 2.12  36 2.12  35 2.12  43 2.12  52 2.12  41 2.12
   6  0.500  0.000  0.450-  38 2.12  36 2.12  35 2.12  44 2.12  51 2.12  42 2.12
   7  0.250  0.000  0.550-  42 2.12  41 2.12  49 2.12  58 2.12  35 2.13  39 2.15
   8  0.500  0.251  0.550-  50 2.11  41 2.12  57 2.12  42 2.12  36 2.13  40 2.15
   9  0.250  0.250  0.648-  41 2.10  39 2.11  56 2.11  47 2.12  40 2.12
  10  0.500  0.000  0.648-  42 2.10  40 2.11  48 2.11  39 2.12  55 2.12
  11  0.250  0.500  0.351-  43 2.12  37 2.12  45 2.12  46 2.12  62 2.12
  12  0.500  0.750  0.351-  44 2.12  38 2.12  45 2.12  46 2.12  61 2.12
  13  0.250  0.750  0.450-  45 2.12  43 2.12  44 2.12  35 2.12  60 2.12  49 2.12
  14  0.500  0.500  0.450-  46 2.12  43 2.12  44 2.12  36 2.12  59 2.12  50 2.13
  15  0.251  0.500  0.550-  50 2.11  49 2.12  41 2.12  66 2.12  43 2.13  47 2.15
  16  0.500  0.749  0.550-  50 2.11  49 2.12  65 2.12  42 2.12  44 2.13  48 2.15
  17  0.250  0.750  0.648-  49 2.10  39 2.11  64 2.11  47 2.12  48 2.12
  18  0.500  0.500  0.651-  40 2.13  47 2.13  48 2.13  63 2.13  50 2.15
  19  0.750  0.000  0.351-  51 2.12  38 2.12  53 2.12  54 2.12  61 2.12
  20  0.000  0.250  0.351-  52 2.12  37 2.12  53 2.12  54 2.12  62 2.12
  21  0.750  0.250  0.450-  53 2.12  51 2.12  52 2.12  36 2.12  59 2.12  57 2.12
  22  0.000  0.000  0.450-  54 2.12  51 2.12  52 2.12  35 2.12  60 2.12  58 2.12
  23  0.750  0.000  0.550-  42 2.12  57 2.12  65 2.12  58 2.12  51 2.13  55 2.15
  24  0.000  0.250  0.550-  66 2.12  57 2.12  41 2.12  58 2.12  52 2.13  56 2.15
  25  0.750  0.250  0.648-  57 2.10  56 2.11  55 2.11  40 2.12  63 2.12
  26  0.000  0.000  0.648-  58 2.11  55 2.11  56 2.11  39 2.11  64 2.11
  27  0.750  0.500  0.351-  59 2.12  53 2.12  46 2.12  61 2.12  62 2.12
  28  0.000  0.750  0.351-  60 2.12  54 2.12  45 2.12  61 2.12  62 2.12
  29  0.750  0.750  0.450-  61 2.12  51 2.12  59 2.12  60 2.12  44 2.12  65 2.12
  30  0.000  0.500  0.450-  62 2.12  52 2.12  59 2.12  60 2.12  43 2.12  66 2.12
  31  0.749  0.500  0.550-  50 2.11  57 2.12  65 2.12  66 2.12  59 2.13  63 2.15
  32  0.000  0.750  0.550-  66 2.12  65 2.12  49 2.12  58 2.12  60 2.13  64 2.15
  33  0.750  0.750  0.648-  65 2.10  64 2.11  55 2.11  48 2.12  63 2.12
  34  0.000  0.500  0.648-  66 2.10  63 2.11  47 2.11  64 2.12  56 2.12
  35  0.250  0.000  0.450-   3 2.12   5 2.12   6 2.12  13 2.12  22 2.12   7 2.13
  36  0.500  0.250  0.450-   4 2.12   5 2.12   6 2.12  14 2.12  21 2.12   8 2.13
  37  0.250  0.250  0.351-   5 2.12   4 2.12   3 2.12  11 2.12  20 2.12
  38  0.500  0.000  0.351-   6 2.12   4 2.12   3 2.12  12 2.12  19 2.12
  39  0.250  0.000  0.651-   9 2.11  17 2.11  26 2.11  10 2.12   7 2.15
  40  0.500  0.249  0.651-  10 2.11   9 2.12  25 2.12  18 2.13   8 2.15
  41  0.250  0.250  0.550-   9 2.10   7 2.12  24 2.12  15 2.12   8 2.12   5 2.12
  42  0.500  0.000  0.550-  10 2.10   7 2.12  23 2.12   6 2.12  16 2.12   8 2.12
  43  0.250  0.500  0.450-  11 2.12   5 2.12  13 2.12  14 2.12  30 2.12  15 2.13
  44  0.500  0.750  0.450-  12 2.12   6 2.12  13 2.12  14 2.12  29 2.12  16 2.13
  45  0.250  0.750  0.351-  13 2.12  11 2.12  12 2.12   3 2.12  28 2.12
  46  0.500  0.500  0.351-  14 2.12  11 2.12  12 2.12   4 2.12  27 2.12
  47  0.249  0.500  0.651-  34 2.11  17 2.12   9 2.12  18 2.13  15 2.15
  48  0.500  0.751  0.651-  10 2.11  17 2.12  33 2.12  18 2.13  16 2.15
  49  0.250  0.750  0.550-  17 2.10   7 2.12  32 2.12  15 2.12  16 2.12  13 2.12
  50  0.500  0.500  0.550-   8 2.11  15 2.11  16 2.11  31 2.11  14 2.13  18 2.15
  51  0.750  0.000  0.450-  19 2.12   6 2.12  21 2.12  22 2.12  29 2.12  23 2.13
  52  0.000  0.250  0.450-  20 2.12   5 2.12  21 2.12  22 2.12  30 2.12  24 2.13
  53  0.750  0.250  0.351-  21 2.12  19 2.12  20 2.12   4 2.12  27 2.12
  54  0.000  0.000  0.351-  22 2.12  19 2.12  20 2.12   3 2.12  28 2.12
  55  0.750  0.000  0.651-  25 2.11  33 2.11  26 2.11  10 2.12  23 2.15
  56  0.000  0.250  0.651-   9 2.11  25 2.11  26 2.11  34 2.12  24 2.15
  57  0.750  0.250  0.550-  25 2.10  24 2.12  23 2.12   8 2.12  31 2.12  21 2.12
  58  0.000  0.000  0.550-  26 2.11  23 2.12  24 2.12   7 2.12  32 2.12  22 2.12
  59  0.750  0.500  0.450-  27 2.12  21 2.12  14 2.12  29 2.12  30 2.12  31 2.13
  60  0.000  0.750  0.450-  28 2.12  22 2.12  13 2.12  29 2.12  30 2.12  32 2.13
  61  0.750  0.750  0.351-  29 2.12  19 2.12  27 2.12  28 2.12  12 2.12
  62  0.000  0.500  0.351-  30 2.12  20 2.12  27 2.12  28 2.12  11 2.12
  63  0.751  0.500  0.651-  34 2.11  33 2.12  25 2.12  18 2.13  31 2.15
  64  0.000  0.750  0.651-  17 2.11  33 2.11  26 2.11  34 2.12  32 2.15
  65  0.750  0.750  0.550-  33 2.10  32 2.12  23 2.12  16 2.12  31 2.12  29 2.12
  66  0.000  0.500  0.550-  34 2.10  32 2.12  24 2.12  30 2.12  15 2.12  31 2.12

  LATTYP: Found a simple tetragonal cell.
 ALAT       =     8.4671426306
 C/A-ratio  =     2.5215539532

  Lattice vectors:

 A1 = (   8.4671426306,   0.0000000000,   0.0000000000)
 A2 = (   0.0000000000,   8.4671426306,   0.0000000000)
 A3 = (   0.0000000000,   0.0000000000,  21.3503569730)

Analysis of symmetry for initial positions (statically):
 Subroutine PRICEL returns:
 Original cell was already a primitive cell.

 Routine SETGRP: Setting up the symmetry group for a
 simple tetragonal supercell.

 Subroutine GETGRP returns: Found  8 space group operations
 (whereof  8 operations were pure point group operations)
 out of a pool of 16 trial point group operations.

The static configuration has the point symmetry C_4v.

Analysis of symmetry for dynamics (positions and initial velocities):
 Subroutine PRICEL returns:
 Original cell was already a primitive cell.

[...]

The dynamic configuration has the point symmetry C_4v.

Analysis of constrained symmetry for selective dynamics:
 Subroutine PRICEL returns:
 Original cell was already a primitive cell.

 Routine SETGRP: Setting up the symmetry group for a
 simple tetragonal supercell.

 Subroutine GETGRP returns: Found  8 space group operations
 (whereof  8 operations were pure point group operations)
 out of a pool of 16 trial point group operations.

The constrained configuration has the point symmetry C_4v.

 Subroutine INISYM returns: Found  8 space group operations
 (whereof  8 operations are pure point group operations),
 and found     1 'primitive' translations

                                     Primitive cell

  volume of cell :    1530.6606

  direct lattice vectors                    reciprocal lattice vectors
     8.467142631  0.000000000  0.000000000     0.118103597  0.000000000  0.000000000
     0.000000000  8.467142631  0.000000000     0.000000000  0.118103597  0.000000000
     0.000000000  0.000000000 21.350356973     0.000000000  0.000000000  0.046837624

  length of vectors
     8.467142631  8.467142631 21.350356973     0.118103597  0.118103597  0.046837624

  position of ions in fractional coordinates (direct lattice)
     0.500000000  0.500000000  0.764079771
     0.500000000  0.500000000  0.817635679
     0.250000000  0.000000000  0.351282183
     0.500000000  0.250000000  0.351282183
     0.250000000  0.250000000  0.450427394
     0.500000000  0.000000000  0.450427394
     0.250130675  0.000000000  0.550051025
     0.500000000  0.250549374  0.550337361
     0.249664725  0.249664725  0.648233062
     0.500000000  0.000000000  0.648327315
     0.250000000  0.500000000  0.351282183
     0.500000000  0.750000000  0.351282183
     0.250000000  0.750000000  0.450427394
     0.500000000  0.500000000  0.450427394
     0.250549374  0.500000000  0.550337361
     0.500000000  0.749450626  0.550337361
     0.249664725  0.750335275  0.648233062
     0.500000000  0.500000000  0.651025884
     0.750000000  0.000000000  0.351282183
     0.000000000  0.250000000  0.351282183
     0.750000000  0.250000000  0.450427394
     0.000000000  0.000000000  0.450427394
     0.749869325  0.000000000  0.550051025
     0.000000000  0.250130675  0.550051025
     0.750335275  0.249664725  0.648233062
     0.000000000  0.000000000  0.648316240
     0.750000000  0.500000000  0.351282183
     0.000000000  0.750000000  0.351282183
     0.750000000  0.750000000  0.450427394
     0.000000000  0.500000000  0.450427394
     0.749450626  0.500000000  0.550337361
[...]
   4.23357132  4.23357132 13.89963502
   6.35035697  0.00000000  7.50000000
   0.00000000  2.11678566  7.50000000
   6.35035697  2.11678566  9.61678566
   0.00000000  0.00000000  9.61678566
   6.34925053  0.00000000 11.74378574
   0.00000000  2.11789210 11.74378574
   6.35319579  2.11394684 13.84000727
   0.00000000  0.00000000 13.84178315
   6.35035697  4.23357132  7.50000000
   0.00000000  6.35035697  7.50000000
   6.35035697  6.35035697  9.61678566
   0.00000000  4.23357132  9.61678566
   6.34570535  4.23357132 11.74989911
   0.00000000  6.34925053 11.74378574
   6.35319579  6.35319579 13.84000727
   0.00000000  4.23357132 13.84201961
   2.11678566  0.00000000  9.61678566
   4.23357132  2.11678566  9.61678566
   2.11678566  2.11678566  7.50000000
   4.23357132  0.00000000  7.50000000
   2.11404204  0.00000000 13.89254400
   4.23357132  2.10507030 13.89641088
   2.11674862  2.11674862 11.73874694
   4.23357132  0.00000000 11.73722335
   2.11678566  4.23357132  9.61678566
   4.23357132  6.35035697  9.61678566
   2.11678566  6.35035697  7.50000000
   4.23357132  4.23357132  7.50000000
   2.10507030  4.23357132 13.89641088
   4.23357132  6.36207233 13.89641088
   2.11674862  6.35039401 11.73874694
   4.23357132  4.23357132 11.75041252
   6.35035697  0.00000000  9.61678566
   0.00000000  2.11678566  9.61678566
   6.35035697  2.11678566  7.50000000
   0.00000000  0.00000000  7.50000000
   6.35310059  0.00000000 13.89254400
   0.00000000  2.11404204 13.89254400
   6.35039401  2.11674862 11.73874694
   0.00000000  0.00000000 11.73652345
   6.35035697  4.23357132  9.61678566
   0.00000000  6.35035697  9.61678566
   6.35035697  6.35035697  7.50000000
   0.00000000  4.23357132  7.50000000
   6.36207233  4.23357132 13.89641088
   0.00000000  6.35310059 13.89254400
   6.35039401  6.35039401 11.73874694
   0.00000000  4.23357132 11.73722335

--------------------------------------- Iteration      FINAL  ---------------------------------------

--------------------OUTCAR has been truncated-------------------------

[...]

--------------------OUTCAR has been truncated-------------------------

  DFT-D2 method for vdW energy calculation

  Parameters of vdW forcefield:
         C6(Jnm^6/mol)     R0(A)
   C        1.750          1.452
   O        0.700          1.342
   Mg       0.630          1.243
   O        0.700          1.342

  vdW correction parametrized for the method pbe

  IVDW =   1
  VDW_RADIUS =    50.000 A
  VDW_S6 =     0.750
  VDW_SR =     1.000
  VDW_D =    20.000
  LVDW_EWALD = F

  Number of pair interactions contributing to vdW energy:  763730
  Edisp (eV):   -3.65586

  FORCE on cell =-STRESS in cart. coord.  units (eV):
  Direction    XX          YY          ZZ          XY          YZ          ZX
  Alpha Z   901.53356   901.53356   901.53356
  Ewald  156713.02684156713.02684************     0.00000     0.00000     0.00000
  Hartree167138.28653167138.28653************    -0.00000    -0.00000    -0.00000
  E(xc)   -2499.85258 -2499.85258 -2503.68331     0.00000     0.00000    -0.00000
  Local  ************************333340.86761    -0.00000    -0.00000    -0.00000
  n-local -2831.15787 -2831.98426 -2861.94934     0.00000    -0.00000     0.00000
  augment  1054.07963  1054.07963  1044.53426     0.00000    -0.00000    -0.00000
  Kinetic  7489.40962  7492.04334  7514.10690    -0.00001     0.00001     0.00000
  Fock        0.00000     0.00000     0.00000     0.00000     0.00000     0.00000
  vdW        -5.31234    -5.31234    -4.41433     0.00000    -0.00000    -0.00000
  Total     -29.01135   -29.01135    -2.77757     0.00000     0.00000     0.00000
  in kB     -30.36684   -30.36684    -2.90735     0.00000     0.00000     0.00000

 VOLUME and BASIS-vectors are now :
  energy-cutoff  :      600.00
  volume of cell :     1530.66
      direct lattice vectors                 reciprocal lattice vectors
     8.467142631  0.000000000  0.000000000     0.118103597  0.000000000  0.000000000
     0.000000000  8.467142631  0.000000000     0.000000000  0.118103597  0.000000000
     0.000000000  0.000000000 21.350356973     0.000000000  0.000000000  0.046837624

  length of vectors
     8.467142631  8.467142631 21.350356973     0.118103597  0.118103597  0.046837624

 FORCES acting on ions:
    Electron-Ion                     Ewald-Force                    Non-Local-Force
   0.922E-13 0.132E-11 -.834E+03   -.741E-14 0.224E-14 0.807E+03   0.587E-23 -.638E-23 0.267E+02
   0.411E-12 -.177E-11 -.145E+04   -.598E-14 0.424E-14 0.151E+04   -.232E-24 0.205E-23 -.602E+02
   0.715E-01 -.356E-12 0.206E+04   -.702E-01 0.123E-12 -.206E+04   -.910E-03 -.333E-22 -.702E+01
   0.675E-12 0.676E-01 0.206E+04   0.155E-12 -.633E-01 -.206E+04   -.288E-22 -.329E-02 -.703E+01
   0.221E+00 0.221E+00 0.711E+03   -.202E+00 -.202E+00 -.711E+03   -.128E-01 -.128E-01 0.507E+00
   0.612E-12 0.115E-11 0.711E+03   0.151E-10 -.149E-10 -.711E+03   0.362E-22 0.776E-23 0.447E+00
   0.257E+01 -.181E-12 -.636E+03   -.254E+01 -.146E-11 0.636E+03   -.286E-01 0.139E-22 -.246E+00
   0.619E-12 0.383E+01 -.631E+03   0.143E-11 -.372E+01 0.632E+03   -.925E-23 -.123E+00 -.328E+00
   0.176E+02 0.176E+02 -.197E+04   -.177E+02 -.177E+02 0.196E+04   0.138E+00 0.138E+00 0.612E+01
   0.685E-12 0.705E-12 -.198E+04   0.490E-12 -.432E-12 0.197E+04   -.218E-22 0.800E-25 0.604E+01
   0.676E-01 -.134E-13 0.206E+04   -.633E-01 -.168E-10 -.206E+04   -.329E-02 0.520E-22 -.703E+01
   0.672E-12 -.676E-01 0.206E+04   -.297E-11 0.633E-01 -.206E+04   -.107E-22 0.329E-02 -.703E+01
   0.221E+00 -.221E+00 0.711E+03   -.202E+00 0.202E+00 -.711E+03   -.128E-01 0.128E-01 0.507E+00
   0.639E-12 -.591E-12 0.710E+03   0.165E-10 0.245E-13 -.711E+03   -.179E-22 0.239E-22 0.618E+00
   0.383E+01 0.940E-12 -.631E+03   -.372E+01 -.252E-13 0.632E+03   -.123E+00 0.456E-22 -.328E+00
   0.604E-12 -.383E+01 -.631E+03   0.299E-11 0.372E+01 0.632E+03   -.209E-22 0.123E+00 -.328E+00
   0.176E+02 -.176E+02 -.197E+04   -.177E+02 0.177E+02 0.196E+04   0.138E+00 -.138E+00 0.612E+01
   0.696E-12 0.153E-11 -.190E+04   0.543E-13 0.720E-14 0.190E+04   0.119E-22 -.276E-22 0.377E+01
   -.715E-01 -.342E-12 0.206E+04   0.702E-01 0.281E-13 -.206E+04   0.910E-03 -.869E-22 -.702E+01
   -.482E-13 0.715E-01 0.206E+04   0.202E-10 -.702E-01 -.206E+04   -.455E-22 -.910E-03 -.702E+01
   -.221E+00 0.221E+00 0.711E+03   0.202E+00 -.202E+00 -.711E+03   0.128E-01 -.128E-01 0.507E+00
   -.769E-13 0.151E-12 0.710E+03   -.120E-11 -.149E-10 -.710E+03   -.432E-23 0.867E-23 0.457E+00
   -.257E+01 -.144E-12 -.636E+03   0.254E+01 -.151E-11 0.636E+03   0.286E-01 0.885E-23 -.246E+00
   -.632E-13 0.257E+01 -.636E+03   -.148E-11 -.254E+01 0.636E+03   0.258E-22 -.286E-01 -.246E+00
   -.176E+02 0.176E+02 -.197E+04   0.177E+02 -.177E+02 0.196E+04   -.138E+00 0.138E+00 0.612E+01
   -.279E-13 -.879E-12 -.199E+04   -.147E-13 0.557E-13 0.198E+04   0.149E-22 -.726E-23 0.606E+01
   -.676E-01 -.577E-12 0.206E+04   0.633E-01 -.168E-10 -.206E+04   0.329E-02 -.336E-22 -.703E+01
   -.466E-13 -.715E-01 0.206E+04   0.169E-10 0.702E-01 -.206E+04   -.149E-22 0.910E-03 -.702E+01
   -.221E+00 -.221E+00 0.711E+03   0.202E+00 0.202E+00 -.711E+03   0.128E-01 0.128E-01 0.507E+00
   -.653E-13 0.608E-12 0.711E+03   0.221E-12 0.430E-13 -.711E+03   -.233E-23 0.129E-22 0.447E+00
   -.383E+01 -.151E-11 -.631E+03   0.372E+01 -.573E-13 0.632E+03   0.123E+00 0.432E-22 -.328E+00
   -.661E-13 -.257E+01 -.636E+03   0.289E-13 0.254E+01 0.636E+03   -.414E-23 0.286E-01 -.246E+00
   -.176E+02 -.176E+02 -.197E+04   0.177E+02 0.177E+02 0.196E+04   -.138E+00 -.138E+00 0.612E+01
   -.293E-13 0.604E-12 -.198E+04   -.319E-13 -.249E-13 0.197E+04   0.228E-22 0.387E-22 0.604E+01
   0.235E+00 -.132E-12 0.532E+03   -.232E+00 -.520E-13 -.532E+03   -.480E-02 -.561E-23 -.686E-01
   0.290E-12 0.223E+00 0.532E+03   -.141E-12 -.255E+00 -.532E+03   0.656E-23 0.424E-01 -.123E+00
   0.510E-01 0.510E-01 0.155E+04   -.483E-01 -.483E-01 -.155E+04   -.380E-02 -.380E-02 0.349E+01
   0.350E-12 -.698E-12 0.155E+04   -.855E-11 0.834E-11 -.155E+04   0.129E-22 0.693E-22 0.349E+01
   0.706E+01 -.685E-12 -.151E+04   -.698E+01 -.232E-12 0.152E+04   -.776E-01 0.644E-24 -.514E+01
   0.310E-12 0.236E+02 -.148E+04   -.549E-13 -.232E+02 0.149E+04   0.470E-22 -.357E+00 -.513E+01
   0.229E+01 0.229E+01 -.468E+03   -.229E+01 -.229E+01 0.468E+03   0.631E-03 0.631E-03 0.432E+00
   0.284E-12 0.272E-12 -.468E+03   -.811E-12 0.832E-12 0.468E+03   0.490E-23 0.994E-24 0.368E+00
   0.223E+00 0.178E-12 0.532E+03   -.255E+00 0.828E-11 -.532E+03   0.424E-01 -.157E-23 -.123E+00
   0.287E-12 -.223E+00 0.532E+03   0.647E-12 0.255E+00 -.532E+03   -.657E-23 -.424E-01 -.123E+00
   0.510E-01 -.510E-01 0.155E+04   -.483E-01 0.483E-01 -.155E+04   -.380E-02 0.380E-02 0.349E+01
   0.318E-12 -.145E-11 0.155E+04   -.948E-11 -.396E-13 -.155E+04   -.866E-23 -.965E-24 0.349E+01
   0.236E+02 -.423E-12 -.148E+04   -.232E+02 -.211E-13 0.149E+04   -.357E+00 0.289E-22 -.513E+01
   0.311E-12 -.236E+02 -.148E+04   -.758E-14 0.232E+02 0.149E+04   -.124E-23 0.357E+00 -.513E+01
   0.229E+01 -.229E+01 -.468E+03   -.229E+01 0.229E+01 0.468E+03   0.631E-03 -.631E-03 0.432E+00
   0.265E-12 -.732E-12 -.471E+03   0.823E-11 -.141E-13 0.471E+03   0.641E-24 -.539E-24 -.247E+00
   -.235E+00 -.839E-13 0.532E+03   0.232E+00 -.546E-13 -.532E+03   0.480E-02 0.101E-22 -.686E-01
   -.493E-13 0.235E+00 0.532E+03   -.935E-11 -.232E+00 -.532E+03   0.167E-23 -.480E-02 -.686E-01
   -.510E-01 0.510E-01 0.155E+04   0.483E-01 -.483E-01 -.155E+04   0.380E-02 -.380E-02 0.349E+01
   -.298E-13 0.980E-12 0.155E+04   0.908E-12 0.838E-11 -.155E+04   0.153E-23 -.122E-24 0.350E+01
   -.706E+01 -.577E-12 -.151E+04   0.698E+01 -.220E-12 0.152E+04   0.776E-01 0.165E-22 -.514E+01
   -.230E-13 0.706E+01 -.151E+04   -.121E-12 -.698E+01 0.152E+04   0.234E-22 -.776E-01 -.514E+01
   -.229E+01 0.229E+01 -.468E+03   0.229E+01 -.229E+01 0.468E+03   -.631E-03 0.631E-03 0.432E+00
   -.477E-13 0.691E-12 -.473E+03   0.142E-13 -.576E-13 0.472E+03   0.582E-23 0.204E-22 0.333E+00
   -.223E+00 0.530E-11 0.532E+03   0.255E+00 0.838E-11 -.532E+03   -.424E-01 -.836E-23 -.123E+00
   -.482E-13 -.235E+00 0.532E+03   -.861E-11 0.232E+00 -.532E+03   -.729E-23 0.480E-02 -.686E-01
   -.510E-01 -.510E-01 0.155E+04   0.483E-01 0.483E-01 -.155E+04   0.380E-02 0.380E-02 0.349E+01
   -.322E-13 0.124E-11 0.155E+04   -.166E-12 -.246E-12 -.155E+04   -.912E-23 0.104E-22 0.349E+01
   -.236E+02 -.461E-11 -.148E+04   0.232E+02 -.498E-13 0.149E+04   0.357E+00 0.127E-22 -.513E+01
   -.299E-13 -.706E+01 -.151E+04   0.148E-13 0.698E+01 0.152E+04   -.420E-23 0.776E-01 -.514E+01
   -.229E+01 -.229E+01 -.468E+03   0.229E+01 0.229E+01 0.468E+03   -.631E-03 -.631E-03 0.432E+00
   -.517E-13 -.604E-13 -.468E+03   -.214E-13 0.213E-13 0.468E+03   0.846E-23 0.311E-23 0.368E+00
   0.192E-10 -.297E-11 0.530E+02   0.892E-13 -.416E-12 -.796E-12   -.513E-16 -.514E-16 -.530E+02

 POSITION                                       TOTAL-FORCE (eV/Angst)
      4.23357      4.23357     16.31338        -0.000000     -0.000000     -0.001601
      4.23357      4.23357     17.45681        -0.000000     -0.000000     -0.002175
      2.11679      0.00000      7.50000         0.000380     -0.000000      0.392568
      4.23357      2.11679      7.50000        -0.000000      0.000963      0.394095
      2.11679      2.11679      9.61679         0.005437      0.005437      0.020373
      4.23357      0.00000      9.61679        -0.000000     -0.000000      0.030299
      2.11789      0.00000     11.74379        -0.002328     -0.000000      0.002684
      4.23357      2.12144     11.74990        -0.000000     -0.005707     -0.002673
      2.11395      2.11395     13.84001         0.001830      0.001830      0.003097
      4.23357      0.00000     13.84202        -0.000000      0.000000     -0.000884
      2.11679      4.23357      7.50000         0.000963     -0.000000      0.394095
      4.23357      6.35036      7.50000        -0.000000     -0.000963      0.394095
      2.11679      6.35036      9.61679         0.005437     -0.005437      0.020373
      4.23357      4.23357      9.61679        -0.000000     -0.000000      0.039182
      2.12144      4.23357     11.74990        -0.005707     -0.000000     -0.002673
      4.23357      6.34571     11.74990        -0.000000      0.005707     -0.002673
      2.11395      6.35320     13.84001         0.001830     -0.001830      0.003097
      4.23357      4.23357     13.89964        -0.000000     -0.000000     -0.004321
      6.35036      0.00000      7.50000        -0.000380     -0.000000      0.392568
      0.00000      2.11679      7.50000        -0.000000      0.000380      0.392568
      6.35036      2.11679      9.61679        -0.005437      0.005437      0.020373
      0.00000      0.00000      9.61679        -0.000000     -0.000000      0.016884
      6.34925      0.00000     11.74379         0.002328     -0.000000      0.002684
      0.00000      2.11789     11.74379        -0.000000     -0.002328      0.002684
      6.35320      2.11395     13.84001        -0.001830      0.001830      0.003097
      0.00000      0.00000     13.84178        -0.000000      0.000000      0.001486
      6.35036      4.23357      7.50000        -0.000963      0.000000      0.394095
      0.00000      6.35036      7.50000        -0.000000     -0.000380      0.392568
      6.35036      6.35036      9.61679        -0.005437     -0.005437      0.020373
      0.00000      4.23357      9.61679        -0.000000     -0.000000      0.030299
      6.34571      4.23357     11.74990         0.005707      0.000000     -0.002673
      0.00000      6.34925     11.74379        -0.000000      0.002328      0.002684
      6.35320      6.35320     13.84001        -0.001830     -0.001830      0.003097
      0.00000      4.23357     13.84202        -0.000000      0.000000     -0.000884
      2.11679      0.00000      9.61679        -0.001463      0.000000      0.052135
      4.23357      2.11679      9.61679        -0.000000      0.010762      0.065812
      2.11679      2.11679      7.50000        -0.001069     -0.001069     -0.476162
      4.23357      0.00000      7.50000        -0.000000     -0.000000     -0.476187
      2.11404      0.00000     13.89254         0.003503     -0.000000      0.003369
      4.23357      2.10507     13.89641        -0.000000      0.001766     -0.003397
      2.11675      2.11675     11.73875         0.002945      0.002945     -0.000257
      4.23357      0.00000     11.73722        -0.000000     -0.000000     -0.001090
      2.11679      4.23357      9.61679         0.010762     -0.000000      0.065812
      4.23357      6.35036      9.61679        -0.000000     -0.010762      0.065812
      2.11679      6.35036      7.50000        -0.001069      0.001069     -0.476162
      4.23357      4.23357      7.50000        -0.000000      0.000000     -0.477760
      2.10507      4.23357     13.89641         0.001766      0.000000     -0.003397
      4.23357      6.36207     13.89641        -0.000000     -0.001766     -0.003397
      2.11675      6.35039     11.73875         0.002945     -0.002945     -0.000257
      4.23357      4.23357     11.75041        -0.000000     -0.000000     -0.005698
      6.35036      0.00000      9.61679         0.001463     -0.000000      0.052135
      0.00000      2.11679      9.61679        -0.000000     -0.001463      0.052135
      6.35036      2.11679      7.50000         0.001069     -0.001069     -0.476162
      0.00000      0.00000      7.50000        -0.000000     -0.000000     -0.475521
      6.35310      0.00000     13.89254        -0.003503      0.000000      0.003369
      0.00000      2.11404     13.89254        -0.000000      0.003503      0.003369
      6.35039      2.11675     11.73875        -0.002945      0.002945     -0.000257
      0.00000      0.00000     11.73652        -0.000000     -0.000000     -0.001327
      6.35036      4.23357      9.61679        -0.010762     -0.000000      0.065812
      0.00000      6.35036      9.61679        -0.000000      0.001463      0.052135
      6.35036      6.35036      7.50000         0.001069      0.001069     -0.476162
      0.00000      4.23357      7.50000        -0.000000     -0.000000     -0.476187
      6.36207      4.23357     13.89641        -0.001766      0.000000     -0.003397
      0.00000      6.35310     13.89254        -0.000000     -0.003503      0.003369
      6.35039      6.35039     11.73875        -0.002945     -0.002945     -0.000257
      0.00000      4.23357     11.73722        -0.000000      0.000000     -0.001090
    total drift:                                0.000000     -0.000000      0.019893

  FREE ENERGIE OF THE ION-ELECTRON SYSTEM (eV)
  free  energy   TOTEN  =      -390.67585416 eV

  energy  without entropy=     -390.67585416  energy(sigma->0) =     -390.67585416