 vasp.6.3.0 20Jan22 (build Apr  1 2022 16:44:48) complex
 executed on        HPECrayEX_GCC date 2022.10.26  05:57:42

 INCAR:
   SYSTEM = MgO-rocksalt
   ISMEAR = 0
   SIGMA = 0.05
   EDIFF = 1E-7
   ALGO = ALL
   ISTART = 0
   IBRION = 2
   NSW = 1000
   ISYM = 0
   ISIF = 2
   EDIFFG = -0.01
   DIPOL = 0.5 0.5 0.5
   IDIPOL = 3
   LDIPOL = .TRUE.
   GGA = RE
   IVDW = 13
   VDW_S8 = 1.7468
   VDW_A1 = 0.5363
   VDW_A2 = 3.0726
   ENCUT = 600
   PREC = Accurate
   LASPH = .TRUE.
   LREAL = .FALSE.
   ISPIN = 1
   NELM = 200
   NELMIN = 8
   NCORE = 8
   KPAR = 1
   LWAVE = .FALSE.
   LCHARG = .FALSE.

 POTCAR:    PAW_PBE C 08Apr2002
 POTCAR:    PAW_PBE O 08Apr2002
 POTCAR:    PAW_PBE Mg_pv 13Apr2007
 POTCAR:    PAW_PBE O 08Apr2002
 POTCAR:    PAW_PBE C 08Apr2002
   VRHFIN =C: s2p2

   TITEL  = PAW_PBE C 08Apr2002
   POMASS =   12.011; ZVAL   =    4.000    mass and valenz
   ENMAX  =  400.000; ENMIN  =  300.000 eV

[...]

   TITEL  = PAW_PBE Mg_pv 13Apr2007
   POMASS =   24.305; ZVAL   =    8.000    mass and valenz
   ENMAX  =  403.929; ENMIN  =  302.947 eV

   TITEL  = PAW_PBE O 08Apr2002
   POMASS =   16.000; ZVAL   =    6.000    mass and valenz
   ENMAX  =  400.000; ENMIN  =  300.000 eV

  PAW_PBE C 08Apr2002                   :
  PAW_PBE O 08Apr2002                   :
  PAW_PBE Mg_pv 13Apr2007               :
  PAW_PBE O 08Apr2002                   :

 POSCAR:  C  O Mg  O
  positions in direct lattice
|           W    W    AA    RRRRR   N    N  II  N    N   GGGG   !!!           |
|           W    W   A  A   R    R  NN   N  II  NN   N  G    G  !!!           |
|           W    W  A    A  R    R  N N  N  II  N N  N  G       !!!           |
|           W WW W  AAAAAA  RRRRR   N  N N  II  N  N N  G  GGG   !            |
|           WW  WW  A    A  R   R   N   NN  II  N   NN  G    G                |
|           W    W  A    A  R    R  N    N  II  N    N   GGGG   !!!           |
|     Specifying the vdW parameters                                           |
|     VDW_S8 = 1.747                                                          |
|     VDW_A1 = 0.536                                                          |
|     VDW_A2 = 3.073                                                          |
|     in the INCAR file will overwrite the defaults for revpbe. Please        |
|     make sure that is what you intended.                                    |

 ion  position               nearest neighbor table
   1  0.625  0.625  0.766-   2 1.18   3 1.18
   2  0.526  0.526  0.766-   1 1.18
   3  0.724  0.724  0.766-   1 1.18
   4  0.000  0.750  0.352-  36 2.11  38 2.11  39 2.11  46 2.11  55 2.11
   5  0.250  0.000  0.352-  37 2.11  38 2.11  39 2.11  47 2.11  54 2.11
   6  0.000  0.000  0.451-  38 2.11  37 2.11  36 2.11  44 2.11  53 2.11  42 2.12
   7  0.250  0.750  0.451-  39 2.11  37 2.11  36 2.11  45 2.11  52 2.11  43 2.12
   8  0.000  0.750  0.550-  42 2.11  43 2.11  50 2.11  59 2.11  36 2.13  40 2.15
   9  0.250  0.000  0.550-  42 2.11  43 2.11  51 2.11  58 2.11  37 2.13  41 2.15
  10  0.000  0.000  0.649-  40 2.11  41 2.11  48 2.11  57 2.11  42 2.11
  11  0.250  0.750  0.649-  40 2.11  41 2.11  49 2.11  56 2.11  43 2.11
  12  0.000  0.250  0.352-  44 2.11  38 2.11  46 2.11  47 2.11  63 2.11
  13  0.250  0.500  0.352-  45 2.11  39 2.11  46 2.11  47 2.11  62 2.11
  14  0.000  0.500  0.451-  46 2.11  44 2.11  45 2.11  36 2.11  61 2.11  50 2.12
  15  0.250  0.250  0.451-  47 2.11  44 2.11  45 2.11  37 2.11  60 2.11  51 2.12
  16  0.000  0.250  0.550-  42 2.11  50 2.11  51 2.11  67 2.11  44 2.13  48 2.15
  17  0.250  0.500  0.550-  43 2.11  50 2.11  51 2.11  66 2.11  45 2.13  49 2.15
  18  0.000  0.500  0.649-  40 2.11  48 2.11  49 2.11  65 2.11  50 2.11
  19  0.250  0.250  0.649-  41 2.11  48 2.11  49 2.11  64 2.11  51 2.11
  20  0.500  0.750  0.352-  52 2.11  39 2.11  54 2.11  55 2.11  62 2.11
  21  0.750  0.000  0.352-  53 2.11  38 2.11  54 2.11  55 2.11  63 2.11
  22  0.500  0.000  0.451-  54 2.11  52 2.11  53 2.11  37 2.11  60 2.11  58 2.12
  23  0.750  0.750  0.451-  55 2.11  52 2.11  53 2.11  36 2.11  61 2.11  59 2.12
  24  0.500  0.750  0.550-  43 2.11  58 2.11  59 2.11  66 2.11  52 2.13  56 2.15
  25  0.750  0.000  0.550-  42 2.11  58 2.11  59 2.11  67 2.11  53 2.13  57 2.15
  26  0.500  0.000  0.649-  41 2.11  56 2.11  57 2.11  64 2.11  58 2.11
  27  0.750  0.750  0.649-  40 2.11  56 2.11  57 2.11  65 2.11  59 2.11
  28  0.500  0.250  0.352-  60 2.11  54 2.11  47 2.11  62 2.11  63 2.11
  29  0.750  0.500  0.352-  61 2.11  55 2.11  46 2.11  62 2.11  63 2.11
  30  0.500  0.500  0.451-  62 2.11  52 2.11  60 2.11  61 2.11  45 2.11  66 2.12
  31  0.750  0.250  0.451-  63 2.11  53 2.11  60 2.11  61 2.11  44 2.11  67 2.12
  32  0.500  0.250  0.550-  51 2.11  58 2.11  66 2.11  67 2.11  60 2.13  64 2.15
  33  0.750  0.500  0.550-  50 2.11  59 2.11  66 2.11  67 2.11  61 2.13  65 2.15
  34  0.500  0.500  0.649-  49 2.11  56 2.11  64 2.11  65 2.11  66 2.11
  35  0.750  0.250  0.649-  48 2.11  57 2.11  64 2.11  65 2.11  67 2.11
  36  0.000  0.750  0.451-   4 2.11   6 2.11   7 2.11  14 2.11  23 2.11   8 2.13
  37  0.250  0.000  0.451-   5 2.11   6 2.11   7 2.11  15 2.11  22 2.11   9 2.13
  38  0.000  0.000  0.352-   6 2.11   5 2.11   4 2.11  12 2.11  21 2.11
  39  0.250  0.750  0.352-   7 2.11   5 2.11   4 2.11  13 2.11  20 2.11
  40  0.000  0.750  0.651-  10 2.11  11 2.11  18 2.11  27 2.11   8 2.15
  41  0.250  0.000  0.651-  10 2.11  11 2.11  19 2.11  26 2.11   9 2.15
  42  0.000  0.000  0.550-   8 2.11   9 2.11  16 2.11  25 2.11  10 2.11   6 2.12
  43  0.250  0.750  0.550-   8 2.11   9 2.11  17 2.11  24 2.11  11 2.11   7 2.12
  44  0.000  0.250  0.451-  12 2.11   6 2.11  14 2.11  15 2.11  31 2.11  16 2.13
  45  0.250  0.500  0.451-  13 2.11   7 2.11  14 2.11  15 2.11  30 2.11  17 2.13
  46  0.000  0.500  0.352-  14 2.11  12 2.11  13 2.11   4 2.11  29 2.11
  47  0.250  0.250  0.352-  15 2.11  12 2.11  13 2.11   5 2.11  28 2.11
  48  0.000  0.250  0.651-  10 2.11  18 2.11  19 2.11  35 2.11  16 2.15
  49  0.250  0.500  0.651-  11 2.11  18 2.11  19 2.11  34 2.11  17 2.15
  50  0.000  0.500  0.550-   8 2.11  16 2.11  17 2.11  33 2.11  18 2.11  14 2.12
  51  0.250  0.250  0.550-   9 2.11  16 2.11  17 2.11  32 2.11  19 2.11  15 2.12
  52  0.500  0.750  0.451-  20 2.11   7 2.11  22 2.11  23 2.11  30 2.11  24 2.13
  53  0.750  0.000  0.451-  21 2.11   6 2.11  22 2.11  23 2.11  31 2.11  25 2.13
  54  0.500  0.000  0.352-  22 2.11  20 2.11  21 2.11   5 2.11  28 2.11
  55  0.750  0.750  0.352-  23 2.11  20 2.11  21 2.11   4 2.11  29 2.11
  56  0.500  0.750  0.651-  11 2.11  26 2.11  27 2.11  34 2.11  24 2.15
  57  0.750  0.000  0.651-  10 2.11  26 2.11  27 2.11  35 2.11  25 2.15
  58  0.500  0.000  0.550-   9 2.11  24 2.11  25 2.11  32 2.11  26 2.11  22 2.12
  59  0.750  0.750  0.550-   8 2.11  24 2.11  25 2.11  33 2.11  27 2.11  23 2.12
  60  0.500  0.250  0.451-  28 2.11  22 2.11  15 2.11  30 2.11  31 2.11  32 2.13
  61  0.750  0.500  0.451-  29 2.11  23 2.11  14 2.11  30 2.11  31 2.11  33 2.13
  62  0.500  0.500  0.352-  30 2.11  20 2.11  28 2.11  29 2.11  13 2.11
  63  0.750  0.250  0.352-  31 2.11  21 2.11  28 2.11  29 2.11  12 2.11
  64  0.500  0.250  0.651-  19 2.11  26 2.11  34 2.11  35 2.11  32 2.15
  65  0.750  0.500  0.651-  18 2.11  27 2.11  34 2.11  35 2.11  33 2.15
  66  0.500  0.500  0.550-  17 2.11  24 2.11  32 2.11  33 2.11  34 2.11  30 2.12
  67  0.750  0.250  0.550-  16 2.11  25 2.11  32 2.11  33 2.11  35 2.11  31 2.12

IMPORTANT INFORMATION: All symmetrisations will be switched off!
NOSYMM: (Re-)initialisation of all symmetry stuff for point group C_1.

                                     Primitive cell

  volume of cell :    1519.8199

  direct lattice vectors                    reciprocal lattice vectors
     8.440984654  0.000000000  0.000000000     0.118469591  0.000000000  0.000000000
     0.000000000  8.440984654  0.000000000     0.000000000  0.118469591  0.000000000
     0.000000000  0.000000000 21.330738491     0.000000000  0.000000000  0.046880702

  length of vectors
     8.440984654  8.440984654 21.330738491     0.118469591  0.118469591  0.046880702

  position of ions in fractional coordinates (direct lattice)
     0.625000000  0.625000000  0.766063119
     0.526196365  0.526196367  0.766063117
     0.723804090  0.723804081  0.766063123
     0.000000000  0.750000000  0.351605267
     0.250000000  0.000000000  0.351605267
     0.000000000  0.000000000  0.450535089
     0.250000000  0.750000000  0.450535089
     0.000000000  0.750000000  0.550171424
     0.250000000  0.000000000  0.550171424
     0.000000000  0.000000000  0.648861363
     0.250000000  0.750000000  0.648861363
     0.000000000  0.250000000  0.351605267
     0.250000000  0.500000000  0.351605267
     0.000000000  0.500000000  0.450535089
     0.250000000  0.250000000  0.450535089
     0.000000000  0.250000000  0.550171424
     0.250000000  0.500000000  0.550171424
     0.000000000  0.500000000  0.648861363
     0.250000000  0.250000000  0.648861363
     0.500000000  0.750000000  0.351605267
     0.750000000  0.000000000  0.351605267
     0.500000000  0.000000000  0.450535089
     0.750000000  0.750000000  0.450535089
     0.500000000  0.750000000  0.550171424
     0.750000000  0.000000000  0.550171424
     0.500000000  0.000000000  0.648861363
     0.750000000  0.750000000  0.648861363
     0.500000000  0.250000000  0.351605267
     0.750000000  0.500000000  0.351605267
     0.500000000  0.500000000  0.450535089
     0.750000000  0.250000000  0.450535089
     0.500000000  0.250000000  0.550171424
     0.750000000  0.500000000  0.550171424
     0.500000000  0.500000000  0.648861363
     0.750000000  0.250000000  0.648861363
     0.000000000  0.750000000  0.450535089
     0.250000000  0.000000000  0.450535089
     0.000000000  0.000000000  0.351605267
     0.250000000  0.750000000  0.351605267
     0.000000000  0.750000000  0.651006323
     0.250000000  0.000000000  0.651006323
     0.000000000  0.000000000  0.549890244
     0.250000000  0.750000000  0.549890244
     0.000000000  0.250000000  0.450535089
     0.250000000  0.500000000  0.450535089
     0.000000000  0.500000000  0.351605267
     0.250000000  0.250000000  0.351605267
     0.000000000  0.250000000  0.651006323
     0.250000000  0.500000000  0.651006323
     0.000000000  0.500000000  0.549890244
     0.250000000  0.250000000  0.549890244
     0.500000000  0.750000000  0.450535089
     0.750000000  0.000000000  0.450535089
     0.500000000  0.000000000  0.351605267
     0.750000000  0.750000000  0.351605267
     0.500000000  0.750000000  0.651006323
     0.750000000  0.000000000  0.651006323
     0.500000000  0.000000000  0.549890244
     0.750000000  0.750000000  0.549890244
     0.500000000  0.250000000  0.450535089
     0.750000000  0.500000000  0.450535089
     0.500000000  0.500000000  0.351605267
     0.750000000  0.250000000  0.351605267
     0.500000000  0.250000000  0.651006323
     0.750000000  0.500000000  0.651006323
     0.500000000  0.500000000  0.549890244
     0.750000000  0.250000000  0.549890244

  ion indices of the primitive-cell ions
   primitive index   ion index
                 1           1
                 2           2
[...]
   4.22049233  2.11024616  7.50000000
   6.33073849  4.22049233  7.50000000
   4.22049233  4.22049233  9.61024616
   6.33073849  2.11024616  9.61024616
   4.22049233  2.11024616 11.73556278
   6.33073849  4.22049233 11.73556278
   4.22049233  4.22049233 13.84069205
   6.33073849  2.11024616 13.84069205
   0.00000000  6.33073849  9.61024616
   2.11024616  0.00000000  9.61024616
   0.00000000  0.00000000  7.50000000
   2.11024616  6.33073849  7.50000000
   0.00000000  6.33073849 13.88644563
   2.11024616  0.00000000 13.88644563
   0.00000000  0.00000000 11.72956500
   2.11024616  6.33073849 11.72956500
   0.00000000  2.11024616  9.61024616
   2.11024616  4.22049233  9.61024616
   0.00000000  4.22049233  7.50000000
   2.11024616  2.11024616  7.50000000
   0.00000000  2.11024616 13.88644563
   2.11024616  4.22049233 13.88644563
   0.00000000  4.22049233 11.72956500
   2.11024616  2.11024616 11.72956500
   4.22049233  6.33073849  9.61024616
   6.33073849  0.00000000  9.61024616
   4.22049233  0.00000000  7.50000000
   6.33073849  6.33073849  7.50000000
   4.22049233  6.33073849 13.88644563
   6.33073849  0.00000000 13.88644563
   4.22049233  0.00000000 11.72956500
   6.33073849  6.33073849 11.72956500
   4.22049233  2.11024616  9.61024616
   6.33073849  4.22049233  9.61024616
   4.22049233  4.22049233  7.50000000
   6.33073849  2.11024616  7.50000000
   4.22049233  2.11024616 13.88644563
   6.33073849  4.22049233 13.88644563
   4.22049233  4.22049233 11.72956500
   6.33073849  2.11024616 11.72956500

--------------------------------------- Iteration      FINAL  ---------------------------------------

--------------------OUTCAR has been truncated-------------------------

[...]

--------------------OUTCAR has been truncated-------------------------

  FORCE on cell =-STRESS in cart. coord.  units (eV):
  Direction    XX          YY          ZZ          XY          YZ          ZX
  Alpha Z   926.92928   926.92928   926.92928
  Ewald  157974.00566157974.00577************   384.42009    -0.00181    -0.00180
  Hartree168435.19652168435.19658************   173.16416    -0.00107    -0.00107
  E(xc)   -2539.91361 -2539.91361 -2548.96951     1.31706    -0.00000    -0.00000
  Local  ************************335777.58946  -521.28807     0.00277     0.00276
  n-local -2845.66899 -2845.66899 -2863.76159    -2.83846    -0.00001    -0.00001
  augment  1058.51094  1058.51094  1050.25071    -1.38081     0.00001     0.00001
  Kinetic  7621.81893  7621.81893  7692.17086   -33.01939     0.00014     0.00014
  Fock        0.00000     0.00000     0.00000     0.00000     0.00000     0.00000
  vdW       -21.85057   -21.85060   -17.11126    -0.01058    -0.00000    -0.00000
  Total     -26.19087   -26.19090    -1.87108     0.36400     0.00002     0.00002
  in kB     -27.61013   -27.61015    -1.97247     0.38372     0.00002     0.00003

 VOLUME and BASIS-vectors are now :
  energy-cutoff  :      600.00
  volume of cell :     1519.82
      direct lattice vectors                 reciprocal lattice vectors
     8.440984654  0.000000000  0.000000000     0.118469591  0.000000000  0.000000000
     0.000000000  8.440984654  0.000000000     0.000000000  0.118469591  0.000000000
     0.000000000  0.000000000 21.330738491     0.000000000  0.000000000  0.046880702

  length of vectors
     8.440984654  8.440984654 21.330738491     0.118469591  0.118469591  0.046880702

 FORCES acting on ions:
    Electron-Ion                     Ewald-Force                    Non-Local-Force
   0.222E-01 0.222E-01 -.103E+04   -.281E-01 -.281E-01 0.103E+04   0.350E-03 0.349E-03 0.355E+00
   0.188E+03 0.188E+03 -.156E+04   -.232E+03 -.232E+03 0.156E+04   0.442E+02 0.442E+02 -.272E+01
   -.188E+03 -.188E+03 -.156E+04   0.232E+03 0.232E+03 0.156E+04   -.442E+02 -.442E+02 -.272E+01
   -.218E+00 -.194E+00 0.209E+04   0.218E+00 0.194E+00 -.209E+04   0.163E-03 0.906E-04 -.715E+01
   0.193E+00 -.193E+00 0.209E+04   -.193E+00 0.193E+00 -.209E+04   -.345E-03 0.345E-03 -.717E+01
   -.924E+00 -.924E+00 0.739E+03   0.945E+00 0.945E+00 -.740E+03   -.153E-01 -.153E-01 0.501E+00
   0.931E+00 -.951E+00 0.741E+03   -.884E+00 0.967E+00 -.741E+03   -.332E-01 -.115E-01 0.522E+00
   -.653E+01 -.388E+01 -.598E+03   0.653E+01 0.388E+01 0.599E+03   0.390E-02 -.246E-02 -.407E+00
   0.375E+01 -.375E+01 -.610E+03   -.376E+01 0.376E+01 0.611E+03   0.387E-02 -.389E-02 -.167E+00
   -.194E+02 -.194E+02 -.197E+04   0.194E+02 0.194E+02 0.196E+04   -.630E-02 -.630E-02 0.614E+01
   0.253E+02 -.210E+02 -.195E+04   -.256E+02 0.210E+02 0.194E+04   0.274E+00 -.387E-03 0.615E+01
   -.193E+00 0.193E+00 0.209E+04   0.193E+00 -.193E+00 -.209E+04   0.345E-03 -.345E-03 -.717E+01
   0.218E+00 0.194E+00 0.209E+04   -.218E+00 -.194E+00 -.209E+04   -.163E-03 -.906E-04 -.715E+01
   -.932E+00 0.951E+00 0.741E+03   0.884E+00 -.967E+00 -.741E+03   0.332E-01 0.115E-01 0.522E+00
   0.924E+00 0.924E+00 0.739E+03   -.945E+00 -.945E+00 -.740E+03   0.153E-01 0.153E-01 0.501E+00
   -.375E+01 0.375E+01 -.610E+03   0.376E+01 -.376E+01 0.611E+03   -.389E-02 0.387E-02 -.167E+00
   0.653E+01 0.388E+01 -.598E+03   -.653E+01 -.388E+01 0.599E+03   -.391E-02 0.248E-02 -.407E+00
   -.253E+02 0.210E+02 -.195E+04   0.256E+02 -.210E+02 0.194E+04   -.274E+00 0.460E-03 0.615E+01
   0.194E+02 0.194E+02 -.197E+04   -.194E+02 -.194E+02 0.196E+04   0.624E-02 0.624E-02 0.614E+01
   0.222E+00 -.222E+00 0.209E+04   -.221E+00 0.221E+00 -.209E+04   -.118E-02 0.118E-02 -.717E+01
   -.194E+00 -.218E+00 0.209E+04   0.194E+00 0.218E+00 -.209E+04   0.907E-04 0.163E-03 -.715E+01
   0.951E+00 -.932E+00 0.741E+03   -.967E+00 0.884E+00 -.741E+03   0.115E-01 0.332E-01 0.522E+00
   -.951E+00 -.951E+00 0.743E+03   0.927E+00 0.927E+00 -.743E+03   0.192E-01 0.192E-01 0.582E+00
   0.670E+01 -.670E+01 -.593E+03   -.669E+01 0.669E+01 0.593E+03   -.113E-01 0.114E-01 0.499E-01
   -.388E+01 -.653E+01 -.598E+03   0.388E+01 0.653E+01 0.599E+03   -.246E-02 0.390E-02 -.407E+00
   0.210E+02 -.253E+02 -.195E+04   -.210E+02 0.256E+02 0.194E+04   0.457E-03 -.274E+00 0.615E+01
   -.348E+02 -.348E+02 -.185E+04   0.353E+02 0.353E+02 0.184E+04   -.457E+00 -.457E+00 0.591E+01
   0.194E+00 0.218E+00 0.209E+04   -.194E+00 -.218E+00 -.209E+04   -.906E-04 -.163E-03 -.715E+01
   -.222E+00 0.222E+00 0.209E+04   0.221E+00 -.221E+00 -.209E+04   0.118E-02 -.118E-02 -.717E+01
   0.952E+00 0.951E+00 0.743E+03   -.927E+00 -.927E+00 -.743E+03   -.192E-01 -.192E-01 0.582E+00
   -.951E+00 0.931E+00 0.741E+03   0.967E+00 -.884E+00 -.741E+03   -.115E-01 -.332E-01 0.522E+00
   0.388E+01 0.653E+01 -.598E+03   -.388E+01 -.653E+01 0.599E+03   0.248E-02 -.391E-02 -.407E+00
   -.670E+01 0.670E+01 -.593E+03   0.669E+01 -.669E+01 0.593E+03   0.114E-01 -.113E-01 0.499E-01
   0.348E+02 0.348E+02 -.185E+04   -.353E+02 -.353E+02 0.184E+04   0.457E+00 0.457E+00 0.591E+01
   -.210E+02 0.253E+02 -.195E+04   0.210E+02 -.256E+02 0.194E+04   -.386E-03 0.274E+00 0.615E+01
   -.751E+00 -.602E+00 0.555E+03   0.744E+00 0.599E+00 -.555E+03   0.859E-02 0.324E-02 -.781E-01
   0.602E+00 -.602E+00 0.554E+03   -.606E+00 0.606E+00 -.554E+03   0.590E-02 -.590E-02 -.116E+00
   -.157E+00 -.157E+00 0.157E+04   0.158E+00 0.158E+00 -.158E+04   -.266E-02 -.266E-02 0.341E+01
   0.152E+00 -.157E+00 0.157E+04   -.149E+00 0.159E+00 -.158E+04   -.415E-02 -.292E-02 0.341E+01
   -.290E+02 -.111E+02 -.147E+04   0.291E+02 0.111E+02 0.148E+04   -.517E-01 0.182E-01 -.504E+01
   0.988E+01 -.988E+01 -.150E+04   -.985E+01 0.985E+01 0.150E+04   -.357E-01 0.356E-01 -.494E+01
   -.372E+01 -.372E+01 -.451E+03   0.371E+01 0.371E+01 0.451E+03   0.152E-01 0.152E-01 0.224E+00
   0.364E+01 -.384E+01 -.446E+03   -.366E+01 0.383E+01 0.445E+03   0.160E-01 0.104E-01 0.287E+00
   -.602E+00 0.602E+00 0.554E+03   0.606E+00 -.606E+00 -.554E+03   -.590E-02 0.590E-02 -.116E+00
   0.751E+00 0.602E+00 0.555E+03   -.744E+00 -.599E+00 -.555E+03   -.858E-02 -.323E-02 -.781E-01
   -.152E+00 0.157E+00 0.157E+04   0.149E+00 -.159E+00 -.158E+04   0.415E-02 0.292E-02 0.341E+01
   0.157E+00 0.157E+00 0.157E+04   -.158E+00 -.158E+00 -.158E+04   0.266E-02 0.266E-02 0.341E+01
   -.988E+01 0.988E+01 -.150E+04   0.985E+01 -.985E+01 0.150E+04   0.356E-01 -.357E-01 -.494E+01
   0.290E+02 0.111E+02 -.147E+04   -.291E+02 -.111E+02 0.148E+04   0.515E-01 -.182E-01 -.504E+01
   -.365E+01 0.384E+01 -.446E+03   0.366E+01 -.383E+01 0.445E+03   -.160E-01 -.104E-01 0.287E+00
   0.372E+01 0.372E+01 -.451E+03   -.371E+01 -.371E+01 0.451E+03   -.152E-01 -.152E-01 0.224E+00
   0.815E+00 -.815E+00 0.556E+03   -.836E+00 0.836E+00 -.556E+03   0.293E-01 -.293E-01 -.149E+00
   -.602E+00 -.751E+00 0.555E+03   0.599E+00 0.744E+00 -.555E+03   0.324E-02 0.859E-02 -.781E-01
   0.157E+00 -.152E+00 0.157E+04   -.159E+00 0.149E+00 -.158E+04   0.292E-02 0.415E-02 0.341E+01
   -.156E+00 -.156E+00 0.157E+04   0.152E+00 0.152E+00 -.158E+04   0.582E-02 0.582E-02 0.341E+01
   0.361E+02 -.361E+02 -.143E+04   -.360E+02 0.360E+02 0.143E+04   -.944E-01 0.947E-01 -.459E+01
   -.111E+02 -.290E+02 -.147E+04   0.111E+02 0.291E+02 0.148E+04   0.182E-01 -.517E-01 -.504E+01
   0.384E+01 -.364E+01 -.446E+03   -.384E+01 0.366E+01 0.445E+03   -.104E-01 -.160E-01 0.287E+00
   -.386E+01 -.386E+01 -.436E+03   0.389E+01 0.389E+01 0.436E+03   -.365E-01 -.365E-01 0.254E+00
   0.602E+00 0.751E+00 0.555E+03   -.599E+00 -.744E+00 -.555E+03   -.323E-02 -.858E-02 -.781E-01
   -.815E+00 0.815E+00 0.556E+03   0.836E+00 -.836E+00 -.556E+03   -.293E-01 0.293E-01 -.149E+00
   0.156E+00 0.156E+00 0.157E+04   -.152E+00 -.152E+00 -.158E+04   -.582E-02 -.582E-02 0.341E+01
   -.157E+00 0.152E+00 0.157E+04   0.159E+00 -.149E+00 -.158E+04   -.292E-02 -.415E-02 0.341E+01
   0.111E+02 0.290E+02 -.147E+04   -.111E+02 -.291E+02 0.148E+04   -.182E-01 0.515E-01 -.504E+01
   -.361E+02 0.361E+02 -.143E+04   0.360E+02 -.360E+02 0.143E+04   0.947E-01 -.944E-01 -.459E+01
   0.386E+01 0.386E+01 -.436E+03   -.389E+01 -.389E+01 0.436E+03   0.365E-01 0.365E-01 0.254E+00
   -.384E+01 0.364E+01 -.446E+03   0.383E+01 -.366E+01 0.445E+03   0.104E-01 0.160E-01 0.287E+00
   0.389E-02 0.388E-02 0.220E+02   -.615E-12 -.959E-13 0.455E-12   -.389E-02 -.388E-02 -.220E+02

 POSITION                                       TOTAL-FORCE (eV/Angst)
      5.27564      5.27564     16.45220        -0.005558     -0.005558      0.004317
      4.44117      4.44117     16.48214         0.003153      0.003153     -0.000307
      6.11005      6.11005     16.48213         0.002362      0.002362     -0.000053
      0.00000      6.33074      7.50000        -0.000015     -0.000059      0.336580
      2.11025      0.00000      7.50000         0.000095     -0.000095      0.339836
      0.00000      0.00000      9.61025         0.005433      0.005433      0.077900
      2.11025      6.33074      9.61025         0.013617      0.003762      0.080689
      0.00144      6.33129     11.73478        -0.000507      0.001272     -0.001579
      2.11077     -0.00052     11.73501        -0.000100      0.000106     -0.004561
      0.00169      0.00169     13.84027        -0.002378     -0.002378     -0.001650
      2.10880      6.32896     13.83842        -0.003029      0.000034     -0.000147
      0.00000      2.11025      7.50000        -0.000095      0.000095      0.339836
      2.11025      4.22049      7.50000         0.000015      0.000059      0.336580
      0.00000      4.22049      9.61025        -0.013615     -0.003762      0.080692
      2.11025      2.11025      9.61025        -0.005431     -0.005431      0.077903
     -0.00052      2.11077     11.73501         0.000106     -0.000099     -0.004560
      2.10881      4.21994     11.73478         0.000500     -0.001280     -0.001562
      0.00145      4.22227     13.83842         0.003051     -0.000058     -0.000172
      2.10856      2.10856     13.84027         0.002398      0.002398     -0.001640
      4.22049      6.33074      7.50000         0.000350     -0.000350      0.340788
      6.33074      0.00000      7.50000        -0.000059     -0.000015      0.336580
      4.22049      0.00000      9.61025        -0.003762     -0.013615      0.080692
      6.33074      6.33074      9.61025        -0.004957     -0.004957      0.083676
      4.22277      6.32846     11.73895        -0.000356      0.000361     -0.000653
      6.33129      0.00144     11.73478         0.001273     -0.000507     -0.001580
      4.22227      0.00145     13.83842        -0.000059      0.003052     -0.000171
      6.34693      6.34693     13.84609         0.002661      0.002659     -0.000036
      4.22049      2.11025      7.50000         0.000059      0.000015      0.336580
      6.33074      4.22049      7.50000        -0.000350      0.000350      0.340788
      4.22049      4.22049      9.61025         0.004957      0.004957      0.083676
      6.33074      2.11025      9.61025         0.003762      0.013617      0.080689
      4.21994      2.10881     11.73478        -0.001281      0.000502     -0.001561
      6.32846      4.22277     11.73895         0.000362     -0.000355     -0.000652
      4.20430      4.20430     13.84610        -0.002658     -0.002658      0.000198
      6.32896      2.10880     13.83842         0.000035     -0.003028     -0.000146
      0.00000      6.33074      9.61025         0.001674      0.000617      0.086511
      2.11025      0.00000      9.61025         0.001702     -0.001701      0.075030
      0.00000      0.00000      7.50000        -0.000751     -0.000751     -0.500466
      2.11025      6.33074      7.50000        -0.001196     -0.000832     -0.500661
      0.00558      6.33223     13.87628         0.000585      0.000445     -0.001351
      2.11167     -0.00142     13.88755        -0.002888      0.002878     -0.002392
      0.00097      0.00097     11.72834         0.001135      0.001135      0.000123
      2.11366      6.33058     11.72929        -0.000602      0.001085      0.000655
      0.00000      2.11025      9.61025        -0.001702      0.001702      0.075030
      2.11025      4.22049      9.61025        -0.001672     -0.000615      0.086511
      0.00000      4.22049      7.50000         0.001196      0.000832     -0.500661
      2.11025      2.11025      7.50000         0.000751      0.000751     -0.500466
     -0.00142      2.11167     13.88755         0.002878     -0.002888     -0.002392
      2.10467      4.21900     13.87628        -0.000632     -0.000444     -0.001394
     -0.00341      4.22065     11.72929         0.000600     -0.001083      0.000656
      2.10928      2.10928     11.72834        -0.001138     -0.001138      0.000118
      4.22049      6.33074      9.61025         0.007764     -0.007763      0.084071
      6.33074      0.00000      9.61025         0.000617      0.001674      0.086511
      4.22049      0.00000      7.50000         0.000832      0.001196     -0.500661
      6.33074      6.33074      7.50000         0.001707      0.001707     -0.501043
      4.22320      6.32804     13.90361         0.000949     -0.000877      0.002079
      6.33223      0.00558     13.87628         0.000446      0.000586     -0.001351
      4.22065     -0.00341     11.72929        -0.001082      0.000599      0.000656
      6.33049      6.33049     11.73277        -0.000848     -0.000847      0.003857
      4.22049      2.11025      9.61025        -0.000615     -0.001672      0.086511
      6.33074      4.22049      9.61025        -0.007763      0.007764      0.084071
      4.22049      4.22049      7.50000        -0.001707     -0.001707     -0.501043
      6.33074      2.11025      7.50000        -0.000832     -0.001196     -0.500661
      4.21900      2.10467     13.87628        -0.000444     -0.000632     -0.001394
      6.32804      4.22320     13.90361        -0.000878      0.000949      0.002078
      4.22074      4.22074     11.73277         0.000849      0.000849      0.003844
      6.33058      2.11366     11.72929         0.001085     -0.000603      0.000654
    total drift:                                0.000002      0.000002     -0.001013

  FREE ENERGIE OF THE ION-ELECTRON SYSTEM (eV)
  free  energy   TOTEN  =      -394.04788545 eV

  energy  without entropy=     -394.04788545  energy(sigma->0) =     -394.04788545

 d Force = 0.2315224E-05[ 0.117E-05, 0.346E-05]  d Energy = 0.2334187E-05-0.190E-07
 d Force =-0.9552905E-01[-0.955E-01,-0.955E-01]  d Ewald  =-0.9552905E-01-0.586E-09

 Conjugate gradient step on ions:
 trial-energy change:   -0.000002  1 .order   -0.000002   -0.000003   -0.000001
  (g-gl).g = 0.134E-05      g.g   = 0.249E-04  gl.gl    = 0.855E-04
 g(Force)  = 0.249E-04   g(Stress)= 0.000E+00 ortho     = 0.327E-05
 gamma     =   0.01565
 trial     =   0.13835
 opt step  =   0.20933  (harmonic =   0.20933) maximal distance =0.00007939
 next E    =  -394.047886   (d E  =  -0.00000)

 reached required accuracy - stopping structural energy minimisation