 vasp.6.3.0 20Jan22 (build Apr  1 2022 16:44:48) complex
 executed on        HPECrayEX_GCC date 2022.09.24  12:35:25

 INCAR:
   SYSTEM = MgO-rocksalt
   ISMEAR = 0
   SIGMA = 0.05
   EDIFF = 1E-7
   ALGO = ALL
   ISTART = 0
   IBRION = 2
   NSW = 1000
   ISYM = 2
   ISIF = 3
   EDIFFG = -0.005
   GGA = RE
   LUSE_VDW = .TRUE.
   AGGAC = 0.0
   ENCUT = 600
   PREC = Normal
   LASPH = .TRUE.
   LREAL = .FALSE.
   ISPIN = 1
   NELM = 200
   NELMIN = 8
   NCORE = 4
   KPAR = 2
   LWAVE = .FALSE.
   LCHARG = .FALSE.

 POTCAR:    PAW_PBE Mg_pv 13Apr2007
 POTCAR:    PAW_PBE O 08Apr2002
|               ----> ADVICE to this user running VASP <----                  |
|     You have switched on vdW-DFT.                                           |
|     This routine was written and supplied by Jiri Klimes. We recommend      |
|     that you carefully read and cite the following publications:            |
|       J. Klimes, D.R. Bowler, A. Michelides                                 |
|          J. Phys.: Cond Matt. 22 022201 (2010)                              |
|       J. Klimes, D.R. Bowler, A. Michelides                                 |
|          Phys. Rev. B. 83, 195131 (2011)                                    |
|     and references therein.                                                 |

   TITEL  = PAW_PBE Mg_pv 13Apr2007
   POMASS =   24.305; ZVAL   =    8.000    mass and valenz
   ENMAX  =  403.929; ENMIN  =  302.947 eV

   TITEL  = PAW_PBE O 08Apr2002
   POMASS =   16.000; ZVAL   =    6.000    mass and valenz
   ENMAX  =  400.000; ENMIN  =  300.000 eV

  PAW_PBE Mg_pv 13Apr2007               :
  PAW_PBE O 08Apr2002                   :

 POSCAR: Mg4 O4
  positions in direct lattice
  velocities in cartesian coordinates
 exchange correlation table for  LEXCH =       40
   RHO(1)=    0.500       N(1)  =     2000
   RHO(2)=  100.500       N(2)  =     4000

 ion  position               nearest neighbor table
   1  0.000  0.000  0.000-   5 2.14   7 2.14   8 2.14   7 2.14   8 2.14   5 2.14
   2  0.000  0.500  0.500-   6 2.14   7 2.14   8 2.14   8 2.14   7 2.14   6 2.14
   3  0.500  0.000  0.500-   5 2.14   6 2.14   7 2.14   5 2.14   6 2.14   7 2.14
   4  0.500  0.500  0.000-   5 2.14   6 2.14   8 2.14   6 2.14   5 2.14   8 2.14
   5  0.500  0.000  0.000-   1 2.14   3 2.14   4 2.14   3 2.14   4 2.14   1 2.14
   6  0.500  0.500  0.500-   2 2.14   3 2.14   4 2.14   4 2.14   3 2.14   2 2.14
   7  0.000  0.000  0.500-   1 2.14   2 2.14   3 2.14   1 2.14   2 2.14   3 2.14
   8  0.000  0.500  0.000-   1 2.14   2 2.14   4 2.14   2 2.14   1 2.14   4 2.14

  LATTYP: Found a simple cubic cell.
 ALAT       =     4.2730568129

  Lattice vectors:

 A1 = (   4.2730568129,  -0.0000000000,   0.0000000000)
 A2 = (  -0.0000000000,   4.2730568129,   0.0000000000)
 A3 = (   0.0000000000,  -0.0000000000,   4.2730568129)

Analysis of symmetry for initial positions (statically):
 Subroutine PRICEL returns following result:

  LATTYP: Found a face centered cubic cell.
 ALAT       =     4.2730568129

[...]

   4 primitive cells build up your supercell.

 Routine SETGRP: Setting up the symmetry group for a
 simple cubic supercell.

 Subroutine GETGRP returns: Found 48 space group operations
 (whereof 48 operations were pure point group operations)
 out of a pool of 48 trial point group operations.

The static configuration has the point symmetry O_h .

Analysis of symmetry for dynamics (positions and initial velocities):
 Subroutine PRICEL returns following result:

  LATTYP: Found a face centered cubic cell.
 ALAT       =     4.2730568129

  Lattice vectors:

 A1 = (   2.1365284064,  -2.1365284064,   0.0000000000)
 A2 = (   2.1365284064,   0.0000000000,   2.1365284064)
 A3 = (   0.0000000000,  -2.1365284064,   2.1365284064)

   4 primitive cells build up your supercell.

 Routine SETGRP: Setting up the symmetry group for a
 simple cubic supercell.

 Subroutine GETGRP returns: Found 48 space group operations
 (whereof 48 operations were pure point group operations)
 out of a pool of 48 trial point group operations.

The dynamic configuration has the point symmetry O_h .

 Subroutine INISYM returns: Found 48 space group operations
 (whereof 48 operations are pure point group operations),
 and found     4 'primitive' translations

                                     Primitive cell

  volume of cell :      19.5055

  direct lattice vectors                    reciprocal lattice vectors
     2.136528406 -2.136528406  0.000000000     0.234024504 -0.234024504 -0.234024504
     2.136528406  0.000000000  2.136528406     0.234024504  0.234024504  0.234024504
     0.000000000 -2.136528406  2.136528406    -0.234024504 -0.234024504  0.234024504

  length of vectors
     3.021507449  3.021507449  3.021507449     0.405342331  0.405342331  0.405342331

  position of ions in fractional coordinates (direct lattice)
     0.000000000  0.000000000  0.000000000
     0.500000000  0.500000000  0.500000000

  ion indices of the primitive-cell ions
   primitive index   ion index
                 1           1
                 2           5

 KPOINTS: pymatgen v2020.8.13 with grid density =

Automatic generation of k-mesh.
 Grid dimensions read from file:
 generate k-points for:    8    8    8

 Generating k-lattice:

  Cartesian coordinates                     Fractional coordinates (reciprocal lattice)
     0.029253063  0.000000000  0.000000000     0.125000000  0.000000000  0.000000000
     0.000000000  0.029253063  0.000000000     0.000000000  0.125000000  0.000000000
    -0.000000000 -0.000000000  0.029253063     0.000000000  0.000000000  0.125000000

  Length of vectors
     0.029253063  0.029253063  0.029253063

  Shift w.r.t. Gamma in fractional coordinates (k-lattice)
     0.000000000  0.000000000  0.000000000

 Subroutine IBZKPT returns following result:

 Found     35 irreducible k-points:

 Following reciprocal coordinates:
            Coordinates               Weight
  0.000000  0.000000  0.000000      1.000000
  0.125000  0.000000  0.000000      6.000000
  0.250000  0.000000  0.000000      6.000000
  0.375000  0.000000  0.000000      6.000000
  0.500000  0.000000  0.000000      3.000000
  0.125000  0.125000  0.000000     12.000000
  0.250000  0.125000  0.000000     24.000000
  0.375000  0.125000  0.000000     24.000000
  0.500000  0.125000  0.000000     12.000000
  0.250000  0.250000  0.000000     12.000000
  0.375000  0.250000  0.000000     24.000000
  0.500000  0.250000  0.000000     12.000000
  0.375000  0.375000  0.000000     12.000000
  0.500000  0.375000  0.000000     12.000000
  0.500000  0.500000  0.000000      3.000000
  0.125000  0.125000  0.125000      8.000000
  0.250000  0.125000  0.125000     24.000000
  0.375000  0.125000  0.125000     24.000000
  0.500000  0.125000  0.125000     12.000000
  0.250000  0.250000  0.125000     24.000000
  0.375000  0.250000  0.125000     48.000000
  0.500000  0.250000  0.125000     24.000000
  0.375000  0.375000  0.125000     24.000000
  0.500000  0.375000  0.125000     24.000000
  0.500000  0.500000  0.125000      6.000000
  0.250000  0.250000  0.250000      8.000000
  0.375000  0.250000  0.250000     24.000000
  0.500000  0.250000  0.250000     12.000000
  0.375000  0.375000  0.250000     24.000000
  0.500000  0.375000  0.250000     24.000000
  0.500000  0.500000  0.250000      6.000000
  0.375000  0.375000  0.375000      8.000000
  0.500000  0.375000  0.375000     12.000000
  0.500000  0.500000  0.375000      6.000000
  0.500000  0.500000  0.500000      1.000000

 Following cartesian coordinates:
            Coordinates               Weight
  0.000000  0.000000  0.000000      1.000000
  0.029253  0.000000  0.000000      6.000000
  0.058506  0.000000  0.000000      6.000000
  0.087759  0.000000  0.000000      6.000000
  0.117012  0.000000  0.000000      3.000000
  0.029253  0.029253  0.000000     12.000000
  0.058506  0.029253  0.000000     24.000000
  0.087759  0.029253  0.000000     24.000000
  0.117012  0.029253  0.000000     12.000000
  0.058506  0.058506  0.000000     12.000000
  0.087759  0.058506  0.000000     24.000000
  0.117012  0.058506  0.000000     12.000000
  0.087759  0.087759  0.000000     12.000000
  0.117012  0.087759  0.000000     12.000000
  0.117012  0.117012  0.000000      3.000000
  0.029253  0.029253  0.029253      8.000000
  0.058506  0.029253  0.029253     24.000000
  0.087759  0.029253  0.029253     24.000000
  0.117012  0.029253  0.029253     12.000000
  0.058506  0.058506  0.029253     24.000000
  0.087759  0.058506  0.029253     48.000000
  0.117012  0.058506  0.029253     24.000000
  0.087759  0.087759  0.029253     24.000000
  0.117012  0.087759  0.029253     24.000000
  0.117012  0.117012  0.029253      6.000000
  0.058506  0.058506  0.058506      8.000000
  0.087759  0.058506  0.058506     24.000000
  0.117012  0.058506  0.058506     12.000000
  0.087759  0.087759  0.058506     24.000000
  0.117012  0.087759  0.058506     24.000000
  0.117012  0.117012  0.058506      6.000000
  0.087759  0.087759  0.087759      8.000000
  0.117012  0.087759  0.087759     12.000000
  0.117012  0.117012  0.087759      6.000000
  0.117012  0.117012  0.117012      1.000000

 SYSTEM =  MgO-rocksalt
 POSCAR =  Mg4 O4

  energy-cutoff  :      600.00
  volume of cell :       78.02
      direct lattice vectors                 reciprocal lattice vectors
     4.273056813 -0.000000000  0.000000000     0.234024504  0.000000000  0.000000000
    -0.000000000  4.273056813  0.000000000     0.000000000  0.234024504  0.000000000
     0.000000000 -0.000000000  4.273056813    -0.000000000 -0.000000000  0.234024504

[...]

 k-points in units of 2pi/SCALE and weight: pymatgen v2020.8.13 with grid density =
   0.00000000  0.00000000  0.00000000       0.002
   0.02925306  0.00000000  0.00000000       0.012
   0.05850613  0.00000000  0.00000000       0.012
   0.08775919  0.00000000  0.00000000       0.012
   0.11701225  0.00000000  0.00000000       0.006
   0.02925306  0.02925306  0.00000000       0.023
   0.05850613  0.02925306  0.00000000       0.047
   0.08775919  0.02925306  0.00000000       0.047
   0.11701225  0.02925306  0.00000000       0.023
   0.05850613  0.05850613  0.00000000       0.023
   0.08775919  0.05850613  0.00000000       0.047
   0.11701225  0.05850613  0.00000000       0.023
   0.08775919  0.08775919  0.00000000       0.023
   0.11701225  0.08775919  0.00000000       0.023
   0.11701225  0.11701225  0.00000000       0.006
   0.02925306  0.02925306  0.02925306       0.016
   0.05850613  0.02925306  0.02925306       0.047
   0.08775919  0.02925306  0.02925306       0.047
   0.11701225  0.02925306  0.02925306       0.023
   0.05850613  0.05850613  0.02925306       0.047
   0.08775919  0.05850613  0.02925306       0.094
   0.11701225  0.05850613  0.02925306       0.047
   0.08775919  0.08775919  0.02925306       0.047
   0.11701225  0.08775919  0.02925306       0.047
   0.11701225  0.11701225  0.02925306       0.012
   0.05850613  0.05850613  0.05850613       0.016
   0.08775919  0.05850613  0.05850613       0.047
   0.11701225  0.05850613  0.05850613       0.023
   0.08775919  0.08775919  0.05850613       0.047
   0.11701225  0.08775919  0.05850613       0.047
   0.11701225  0.11701225  0.05850613       0.012
   0.08775919  0.08775919  0.08775919       0.016
   0.11701225  0.08775919  0.08775919       0.023
   0.11701225  0.11701225  0.08775919       0.012
   0.11701225  0.11701225  0.11701225       0.002

 k-points in reciprocal lattice and weights: pymatgen v2020.8.13 with grid density =
   0.00000000  0.00000000  0.00000000       0.002
   0.12500000  0.00000000  0.00000000       0.012
   0.25000000  0.00000000  0.00000000       0.012
   0.37500000  0.00000000  0.00000000       0.012
   0.50000000  0.00000000  0.00000000       0.006
   0.12500000  0.12500000  0.00000000       0.023
   0.25000000  0.12500000  0.00000000       0.047
   0.37500000  0.12500000  0.00000000       0.047
   0.50000000  0.12500000  0.00000000       0.023
   0.25000000  0.25000000  0.00000000       0.023
   0.37500000  0.25000000  0.00000000       0.047
   0.50000000  0.25000000  0.00000000       0.023
   0.37500000  0.37500000  0.00000000       0.023
   0.50000000  0.37500000  0.00000000       0.023
   0.50000000  0.50000000  0.00000000       0.006
   0.12500000  0.12500000  0.12500000       0.016
   0.25000000  0.12500000  0.12500000       0.047
   0.37500000  0.12500000  0.12500000       0.047
   0.50000000  0.12500000  0.12500000       0.023
   0.25000000  0.25000000  0.12500000       0.047
   0.37500000  0.25000000  0.12500000       0.094
   0.50000000  0.25000000  0.12500000       0.047
   0.37500000  0.37500000  0.12500000       0.047
   0.50000000  0.37500000  0.12500000       0.047
   0.50000000  0.50000000  0.12500000       0.012
   0.25000000  0.25000000  0.25000000       0.016
   0.37500000  0.25000000  0.25000000       0.047
   0.50000000  0.25000000  0.25000000       0.023
   0.37500000  0.37500000  0.25000000       0.047
   0.50000000  0.37500000  0.25000000       0.047
   0.50000000  0.50000000  0.25000000       0.012
   0.37500000  0.37500000  0.37500000       0.016
   0.50000000  0.37500000  0.37500000       0.023
   0.50000000  0.50000000  0.37500000       0.012
   0.50000000  0.50000000  0.50000000       0.002

 position of ions in fractional coordinates (direct lattice)
   0.00000000  0.00000000  0.00000000
   0.00000000  0.50000000  0.50000000
   0.50000000  0.00000000  0.50000000
   0.50000000  0.50000000  0.00000000
   0.50000000  0.00000000  0.00000000
   0.50000000  0.50000000  0.50000000
   0.00000000  0.00000000  0.50000000
   0.00000000  0.50000000  0.00000000

 position of ions in cartesian coordinates  (Angst):
   0.00000000  0.00000000  0.00000000
   0.00000000  2.13652841  2.13652841
   2.13652841  0.00000000  2.13652841
   2.13652841  2.13652841  0.00000000
   2.13652841  0.00000000  0.00000000
   2.13652841  2.13652841  2.13652841
   0.00000000  0.00000000  2.13652841
   0.00000000  2.13652841  0.00000000

--------------------------------------- Iteration      FINAL  ---------------------------------------

--------------------OUTCAR has been truncated-------------------------

[...]

--------------------OUTCAR has been truncated-------------------------

  FORCE on cell =-STRESS in cart. coord.  units (eV):
  Direction    XX          YY          ZZ          XY          YZ          ZX
  Alpha Z   266.39917   266.39917   266.39917
  Ewald   -1265.06485 -1265.06485 -1265.06485    -0.00000     0.00000     0.00000
  Hartree   418.98366   418.98366   418.98366    -0.00000    -0.00000    -0.00000
  E(xc)    -315.77463  -315.77463  -315.77463    -0.00000    -0.00000     0.00000
  Local     195.29239   195.29239   195.29239    -0.00000    -0.00000    -0.00000
  n-local  -352.02777  -353.54184  -353.49924     0.17575     0.15627     0.09805
  augment   134.38707   134.38707   134.38707    -0.00000     0.00000    -0.00000
  Kinetic   912.11957   920.66351   923.55018    -2.77187    -2.68239    -1.66086
  Fock        0.00000     0.00000     0.00000     0.00000     0.00000     0.00000
  Total      -0.02239    -0.02239    -0.02239     0.00000    -0.00000     0.00000
  in kB      -0.45987    -0.45987    -0.45987     0.00000    -0.00000     0.00000

 VOLUME and BASIS-vectors are now :
  energy-cutoff  :      600.00
  volume of cell :       78.02
      direct lattice vectors                 reciprocal lattice vectors
     4.273056813 -0.000000000  0.000000000     0.234024504  0.000000000  0.000000000
    -0.000000000  4.273056813  0.000000000     0.000000000  0.234024504  0.000000000
     0.000000000 -0.000000000  4.273056813    -0.000000000 -0.000000000  0.234024504

  length of vectors
     4.273056813  4.273056813  4.273056813     0.234024504  0.234024504  0.234024504

 FORCES acting on ions:
    Electron-Ion                     Ewald-Force                    Non-Local-Force
   -.351E-13 -.309E-13 -.310E-13   -.935E-14 -.155E-13 -.870E-14   0.000E+00 -.103E-24 -.268E-25
   -.348E-13 0.402E-12 0.399E-12   -.991E-14 0.128E-14 0.135E-14   0.620E-24 -.775E-24 -.535E-24
   0.406E-12 -.347E-13 0.293E-11   0.451E-14 -.136E-13 0.143E-14   0.414E-24 0.000E+00 0.206E-24
   0.402E-12 0.964E-12 -.356E-12   0.395E-14 0.321E-14 -.347E-14   -.124E-23 -.827E-24 -.868E-24
   0.182E-12 -.254E-13 -.159E-11   0.284E-14 0.316E-14 0.122E-14   0.517E-25 0.129E-24 0.214E-24
   0.179E-12 0.137E-12 0.728E-12   0.256E-14 0.852E-14 0.506E-14   0.388E-25 -.969E-26 -.121E-24
   -.232E-13 -.185E-13 0.172E-12   0.259E-14 0.339E-14 0.506E-14   -.103E-24 0.103E-24 0.206E-26
   -.231E-13 0.179E-12 -.170E-13   0.231E-14 0.875E-14 -.232E-14   0.155E-24 0.000E+00 -.282E-24
   0.107E-11 0.160E-11 0.229E-11   -.500E-15 -.788E-15 -.375E-15   -.646E-25 -.148E-23 -.141E-23

 POSITION                                       TOTAL-FORCE (eV/Angst)
      0.00000      0.00000      0.00000         0.000000     -0.000000     -0.000000
      0.00000      2.13653      2.13653         0.000000     -0.000000      0.000000
      2.13653      0.00000      2.13653         0.000000     -0.000000     -0.000000
      2.13653      2.13653      0.00000        -0.000000      0.000000     -0.000000
      2.13653      0.00000      0.00000        -0.000000      0.000000      0.000000
      2.13653      2.13653      2.13653         0.000000      0.000000      0.000000
      0.00000      0.00000      2.13653        -0.000000     -0.000000      0.000000
      0.00000      2.13653      0.00000        -0.000000     -0.000000      0.000000
    total drift:                                0.000000      0.000000      0.000000

  FREE ENERGIE OF THE ION-ELECTRON SYSTEM (eV)
  free  energy   TOTEN  =       -29.51443715 eV

  energy  without entropy=      -29.51443715  energy(sigma->0) =      -29.51443715

 reached required accuracy - stopping structural energy minimisation