 vasp.6.4.2 20Jul23 (build Feb 22 2024 13:53:45) complex
 executed on              LinuxNV date 2024.08.27  14:05:29
 OpenACC runtime initialized ...    4 GPUs detected

 INCAR:
   SYSTEM = Oxide-Surface
   ISMEAR = 0
   SIGMA = 0.05
   EDIFF = 1E-5
   ALGO = Normal
   IBRION = -1
   NSW = 0
   ISYM = 0
   DIPOL = 0.5 0.5 0.5
   IDIPOL = 3
   LDIPOL = .TRUE.
   ISTART = 1
   GGA = PE
   IVDW = 11
   ENCUT = 1000
   PREC = Normal
   PRECFOCK = Normal
   LASPH = .TRUE.
   LREAL = Auto
   ISPIN = 1
   NELM = 200
   NELMIN = 8
   NCORE = 1
   KPAR = 1
   LWAVE = .FALSE.
   LCHARG = .FALSE.

 POTCAR:    PAW_PBE C_h 06Feb2004
 POTCAR:    PAW_PBE H_h 06Feb2004
 POTCAR:    PAW_PBE Mg_sv 12Apr2007
 POTCAR:    PAW_PBE O_h 06Feb2004
 POTCAR:    PAW_PBE C_h 06Feb2004
   VRHFIN =C: s2p2

   TITEL  = PAW_PBE C_h 06Feb2004
   POMASS =   12.011; ZVAL   =    4.000    mass and valenz
   ENMAX  =  700.000; ENMIN  =  500.000 eV

[...]

   TITEL  = PAW_PBE Mg_sv 12Apr2007
   POMASS =   24.305; ZVAL   =   10.000    mass and valenz
   ENMAX  =  495.223; ENMIN  =  371.417 eV

   TITEL  = PAW_PBE O_h 06Feb2004
   POMASS =   16.000; ZVAL   =    6.000    mass and valenz
   ENMAX  =  700.000; ENMIN  =  500.000 eV

 Optimization of the real space projectors (new method)

 maximal supplied QI-value         = 34.20
 optimisation between [QCUT,QGAM] = [ 16.08, 32.15] = [ 72.37,289.48] Ry
 Optimized for a Real-space Cutoff    0.71 Angstroem

   l    n(q)    QCUT    max X(q) W(low)/X(q) W(high)/X(q)  e(spline)
   0      7    16.076   134.812    0.49E-03    0.92E-03    0.59E-07
   0      7    16.076    80.524    0.48E-03    0.91E-03    0.58E-07
   1      6    16.076    79.026    0.37E-03    0.58E-03    0.12E-06
   1      6    16.076    45.188    0.36E-03    0.56E-03    0.12E-06
 Optimization of the real space projectors (new method)

[...]

   l    n(q)    QCUT    max X(q) W(low)/X(q) W(high)/X(q)  e(spline)
   0      9    16.140     8.730    0.14E-04    0.12E-04    0.27E-07
   0      9    16.140     8.910    0.19E-04    0.17E-04    0.41E-07
   1      9    16.140     2.513    0.16E-04    0.28E-04    0.54E-07
   1      9    16.140     3.341    0.27E-04    0.13E-03    0.17E-06
   2      9    16.140     3.683    0.18E-03    0.21E-03    0.81E-07
 Optimization of the real space projectors (new method)

 maximal supplied QI-value         = 34.20
 optimisation between [QCUT,QGAM] = [ 16.08, 32.15] = [ 72.37,289.48] Ry
 Optimized for a Real-space Cutoff    0.71 Angstroem

   l    n(q)    QCUT    max X(q) W(low)/X(q) W(high)/X(q)  e(spline)
   0      7    16.076   280.207    0.42E-03    0.69E-03    0.60E-07
   0      7    16.076   228.978    0.42E-03    0.69E-03    0.61E-07
   1      6    16.076    86.127    0.11E-03    0.66E-03    0.10E-06
   1      6    16.076    65.368    0.11E-03    0.65E-03    0.10E-06
  PAW_PBE C_h 06Feb2004                 :
  PAW_PBE H_h 06Feb2004                 :
  PAW_PBE Mg_sv 12Apr2007               :
  PAW_PBE O_h 06Feb2004                 :

 POSCAR:  C  H Mg  O
  positions in direct lattice
 exchange correlation table for  LEXCH =        8
   RHO(1)=    0.500       N(1)  =     2000
   RHO(2)=  100.500       N(2)  =     4000

 ion  position               nearest neighbor table
   1  0.504  0.498  0.743-   5 1.10   3 1.10   4 1.10   2 1.53
   2  0.675  0.499  0.774-   6 1.10   8 1.10   7 1.10   1 1.53
   3  0.482  0.392  0.707-   1 1.10
   4  0.479  0.604  0.708-   1 1.10
   5  0.418  0.495  0.792-   1 1.10
   6  0.759  0.502  0.724-   2 1.10
   7  0.701  0.394  0.809-   2 1.10
   8  0.698  0.604  0.811-   2 1.10
   9  0.000  0.750  0.189-
  10  0.250  0.000  0.189-
  11  0.000  0.000  0.313-
  12  0.250  0.750  0.313-
  13  1.000  0.750  0.438-
  14  0.250  1.000  0.438-
  15  1.000  1.000  0.562-
  16  0.250  0.750  0.562-
  17  0.000  0.250  0.189-
  18  0.250  0.500  0.189-
  19  0.000  0.500  0.313-
  20  0.250  0.250  0.313-
  21  1.000  0.250  0.438-
  22  0.250  0.500  0.439-
  23  0.000  0.500  0.562-
  24  0.250  0.250  0.562-
  25  0.500  0.750  0.189-
  26  0.750  0.000  0.189-
  27  0.500  0.000  0.313-
  28  0.750  0.750  0.313-
  29  0.500  0.750  0.439-
  30  0.750  1.000  0.438-
  31  0.500  1.000  0.562-
  32  0.750  0.750  0.562-
  33  0.500  0.250  0.189-
  34  0.750  0.500  0.189-
  35  0.500  0.500  0.313-
  36  0.750  0.250  0.313-
  37  0.500  0.250  0.439-
  38  0.750  0.500  0.439-
  39  0.500  0.500  0.563-
  40  0.750  0.250  0.562-
  41  0.000  0.750  0.313-
  42  0.250  0.000  0.313-
  43  0.000  0.000  0.189-
  44  0.250  0.750  0.189-
  45  1.000  0.750  0.565-
  46  0.250  1.000  0.565-
  47  1.000  1.000  0.438-
  48  0.250  0.750  0.438-
  49  0.000  0.250  0.313-
  50  0.250  0.500  0.313-
  51  0.000  0.500  0.189-
  52  0.250  0.250  0.189-
  53  1.000  0.250  0.565-
  54  0.250  0.500  0.565-
  55  1.000  0.500  0.438-
  56  0.250  0.250  0.438-
  57  0.500  0.750  0.313-
  58  0.750  0.000  0.313-
  59  0.500  0.000  0.189-
  60  0.750  0.750  0.189-
  61  0.500  0.750  0.565-
  62  0.750  1.000  0.565-
  63  0.500  1.000  0.438-
  64  0.750  0.750  0.438-
  65  0.500  0.250  0.313-
  66  0.750  0.500  0.313-
  67  0.500  0.500  0.189-
  68  0.750  0.250  0.189-
  69  0.500  0.250  0.565-
  70  0.750  0.500  0.565-
  71  0.500  0.500  0.438-
  72  0.750  0.250  0.438-

IMPORTANT INFORMATION: All symmetrisations will be switched off!
NOSYMM: (Re-)initialisation of all symmetry stuff for point group C_1.

                                     Primitive cell

  volume of cell :    1211.2538

  direct lattice vectors                    reciprocal lattice vectors
     8.440984654  0.000000000  0.000000000     0.118469591  0.000000000  0.000000000
     0.000000000  8.440984654  0.000000000     0.000000000  0.118469591  0.000000000
     0.000000000  0.000000000 17.000000000     0.000000000  0.000000000  0.058823529

  length of vectors
     8.440984654  8.440984654 17.000000000     0.118469591  0.118469591  0.058823529

  position of ions in fractional coordinates (direct lattice)
     0.504442512  0.497603211  0.743410718
     0.675427142  0.499371115  0.773615542
     0.481946286  0.392260978  0.706770344
     0.478809683  0.604144071  0.708156302
     0.417859844  0.495031697  0.791753827
     0.759160533  0.502033602  0.724065079
     0.701478841  0.393602621  0.809133108
     0.698200527  0.603760305  0.810658094
     0.000007636  0.750031286  0.189341906
     0.250007636  0.000031286  0.189341906
     0.000007636  0.000031286  0.313474033
     0.250007636  0.750031286  0.313474033
     0.999976970  0.749963850  0.438457003
     0.249986644  0.999964140  0.438470494
     0.999992364  0.999910906  0.562348157
     0.249873245  0.749845785  0.562202626
     0.000007636  0.250031286  0.189341906
     0.250007636  0.500031286  0.189341906
     0.000007636  0.500031286  0.313474033
     0.250007636  0.250031286  0.313474033
     0.999977352  0.249980617  0.438453686
     0.250127274  0.499963970  0.438535724
     0.000145226  0.499923750  0.562114841
     0.249869118  0.249973003  0.562195641
     0.500007636  0.750031286  0.189341906
     0.750007636  0.000031286  0.189341906
     0.500007636  0.000031286  0.313474033
     0.750007636  0.750031286  0.313474033
     0.499991240  0.749815526  0.438527908
     0.749986537  0.999961265  0.438479227
     0.499961494  0.999896839  0.562145227
     0.750043134  0.749924142  0.562250345
     0.500007636  0.250031286  0.189341906
     0.750007636  0.500031286  0.189341906
     0.500007636  0.500031286  0.313474033
     0.750007636  0.250031286  0.313474033
     0.499993003  0.250082768  0.438527210
     0.749860656  0.499960669  0.438562571
     0.499843564  0.499898967  0.563085918
     0.750058171  0.249889399  0.562241868
     0.000007636  0.750031286  0.313474033
     0.250007636  0.000031286  0.313474033
     0.000007636  0.000031286  0.189341906
     0.250007636  0.750031286  0.189341906
     0.999943344  0.749886766  0.565046454
     0.249946089  0.999912111  0.565050657
     0.999971036  0.999968714  0.438179888
     0.249965036  0.750040437  0.438149594
     0.000007636  0.250031286  0.313474033
     0.250007636  0.500031286  0.313474033
     0.000007636  0.500031286  0.189341906
     0.250007636  0.250031286  0.189341906
     0.999945875  0.249945679  0.565037155
     0.249719068  0.499911441  0.564728513
     0.999971089  0.499970067  0.438088058
     0.249956936  0.249888775  0.438144915
     0.500007636  0.750031286  0.313474033
     0.750007636  0.000031286  0.313474033
     0.500007636  0.000031286  0.189341906
     0.750007636  0.750031286  0.189341906
     0.499989702  0.750219279  0.564996442
     0.750006699  0.999909280  0.565084458
     0.499996442  0.999947314  0.438110544
     0.750005020  0.750030779  0.438172055
     0.500007636  0.250031286  0.313474033
     0.750007636  0.500031286  0.313474033
     0.500007636  0.500031286  0.189341906
     0.750007636  0.250031286  0.189341906
     0.499997048  0.249555778  0.564962164
     0.750207288  0.499910047  0.564892284
     0.500015401  0.499961148  0.438334676
     0.750015257  0.249893599  0.438167343

  ion indices of the primitive-cell ions
   primitive index   ion index
                 1           1
                 2           2
                 3           3
                 4           4
                 5           5
                 6           6
                 7           7
                 8           8
                 9           9
                10          10
                11          11
                12          12
                13          13
                14          14
                15          15
                16          16
                17          17
                18          18
                19          19
                20          20
                21          21
                22          22
                23          23
                24          24
                25          25
                26          26
                27          27
                28          28
                29          29
                30          30
                31          31
                32          32
                33          33
                34          34
                35          35
                36          36
                37          37
                38          38
                39          39
                40          40
                41          41
                42          42
                43          43
                44          44
                45          45
                46          46
                47          47
                48          48
                49          49
                50          50
                51          51
                52          52
                53          53
                54          54
                55          55
                56          56
                57          57
                58          58
                59          59
                60          60
                61          61
                62          62
                63          63
                64          64
                65          65
[...]
  vdW       -12.25931   -12.25422    -8.12233    -0.00024    -0.00167    -0.00398
  Total     -28.09408   -27.98111    -0.19548     0.00621     0.07166     0.01923
  in kB     -37.16124   -37.01182    -0.25857     0.00821     0.09478     0.02544

 VOLUME and BASIS-vectors are now :
  energy-cutoff  :     1000.00
  volume of cell :     1211.25
      direct lattice vectors                 reciprocal lattice vectors
     8.440984654  0.000000000  0.000000000     0.118469591  0.000000000  0.000000000
     0.000000000  8.440984654  0.000000000     0.000000000  0.118469591  0.000000000
     0.000000000  0.000000000 17.000000000     0.000000000  0.000000000  0.058823529

  length of vectors
     8.440984654  8.440984654 17.000000000     0.118469591  0.118469591  0.058823529

 FORCES acting on ions
    electron-ion (+dipol)            ewald-force                    non-local-force                 convergence-correction
   0.681E+02 0.731E+00 -.664E+03   -.689E+02 -.760E+00 0.664E+03   0.861E+00 0.723E-01 0.114E+00   -.800E-05 -.219E-06 0.194E-04
   -.683E+02 -.720E+00 -.561E+03   0.696E+02 0.746E+00 0.561E+03   -.146E+01 -.139E-01 0.922E-02   -.101E-04 -.292E-06 0.109E-04
   0.181E+02 0.467E+02 -.183E+03   -.191E+02 -.512E+02 0.180E+03   0.970E+00 0.444E+01 0.300E+01   0.502E-06 0.438E-05 0.115E-04
   0.195E+02 -.471E+02 -.183E+03   -.206E+02 0.515E+02 0.180E+03   0.110E+01 -.448E+01 0.288E+01   0.615E-06 -.448E-05 0.113E-04
   0.456E+02 0.122E+01 -.151E+03   -.492E+02 -.133E+01 0.155E+03   0.365E+01 0.108E+00 -.405E+01   0.230E-05 0.494E-07 -.612E-06
   -.448E+02 -.126E+01 -.155E+03   0.484E+02 0.137E+01 0.151E+03   -.352E+01 -.110E+00 0.422E+01   -.133E-06 -.249E-07 0.642E-05
   -.195E+02 0.464E+02 -.124E+03   0.207E+02 -.507E+02 0.127E+03   -.113E+01 0.441E+01 -.300E+01   -.857E-06 -.142E-05 0.251E-05
   -.181E+02 -.459E+02 -.123E+03   0.191E+02 0.502E+02 0.126E+03   -.989E+00 -.435E+01 -.313E+01   -.886E-06 0.135E-05 0.251E-05
   -.926E+00 -.163E+01 0.243E+04   0.926E+00 0.163E+01 -.242E+04   0.299E-03 0.105E-02 -.917E+01   -.529E-05 -.130E-04 0.743E-04
   0.992E+00 0.169E-01 0.243E+04   -.993E+00 -.172E-01 -.242E+04   0.107E-02 0.323E-03 -.917E+01   0.922E-05 0.165E-05 0.733E-04
   -.512E+00 0.204E-01 0.829E+03   0.511E+00 -.232E-01 -.830E+03   0.439E-03 0.161E-02 0.688E+00   -.194E-05 0.104E-05 -.143E-03
   0.969E+00 -.136E+01 0.830E+03   -.967E+00 0.136E+01 -.831E+03   -.160E-02 0.241E-02 0.663E+00   0.592E-05 -.979E-05 -.147E-03
   -.202E+01 -.523E+01 -.761E+03   0.202E+01 0.522E+01 0.761E+03   0.214E-02 0.698E-02 -.319E+00   -.263E-05 -.139E-04 -.276E-03
   0.355E+01 0.758E-01 -.764E+03   -.355E+01 -.764E-01 0.764E+03   -.285E-02 0.227E-03 -.323E+00   0.138E-04 0.324E-05 -.270E-03
   -.575E+01 0.123E+00 -.236E+04   0.576E+01 -.121E+00 0.235E+04   -.272E-02 0.152E-02 0.776E+01   -.351E-05 0.195E-05 -.649E-04
   0.212E+02 -.247E+02 -.234E+04   -.213E+02 0.247E+02 0.233E+04   0.703E-01 0.260E-01 0.781E+01   0.224E-04 -.222E-04 -.535E-04
   -.926E+00 0.163E+01 0.243E+04   0.926E+00 -.163E+01 -.242E+04   0.397E-03 -.609E-03 -.917E+01   -.485E-05 0.131E-04 0.745E-04
   0.128E+01 -.177E-01 0.243E+04   -.128E+01 0.176E-01 -.242E+04   0.168E-03 0.199E-03 -.917E+01   0.307E-05 -.146E-05 0.790E-04
   -.612E+00 -.316E-01 0.831E+03   0.609E+00 0.290E-01 -.831E+03   0.289E-02 0.154E-02 0.638E+00   -.163E-05 -.985E-06 -.147E-03
   0.962E+00 0.136E+01 0.830E+03   -.960E+00 -.136E+01 -.831E+03   -.106E-02 0.241E-02 0.662E+00   0.691E-05 0.966E-05 -.145E-03
   -.203E+01 0.525E+01 -.761E+03   0.203E+01 -.525E+01 0.761E+03   0.211E-02 -.774E-02 -.322E+00   -.275E-05 0.140E-04 -.276E-03
   0.534E+01 -.722E-01 -.752E+03   -.531E+01 0.728E-01 0.753E+03   -.380E-01 -.616E-03 -.532E+00   0.502E-05 -.344E-05 -.275E-03
   -.141E+02 -.112E+00 -.233E+04   0.142E+02 0.114E+00 0.232E+04   -.115E+00 -.105E-02 0.780E+01   -.970E-05 -.217E-05 -.552E-04
   0.215E+02 0.248E+02 -.234E+04   -.216E+02 -.247E+02 0.233E+04   0.792E-01 -.271E-01 0.782E+01   0.226E-04 0.221E-04 -.559E-04
   0.932E+00 -.192E+01 0.243E+04   -.932E+00 0.192E+01 -.242E+04   -.117E-03 0.198E-02 -.917E+01   0.600E-05 -.752E-05 0.799E-04
   -.995E+00 0.170E-01 0.243E+04   0.996E+00 -.171E-01 -.242E+04   -.934E-03 0.230E-03 -.917E+01   -.915E-05 0.771E-06 0.721E-04
   0.507E+00 0.194E-01 0.830E+03   -.508E+00 -.238E-01 -.831E+03   0.531E-03 0.280E-02 0.651E+00   0.192E-05 0.197E-05 -.143E-03
   -.970E+00 -.146E+01 0.831E+03   0.966E+00 0.146E+01 -.831E+03   0.340E-02 0.522E-02 0.673E+00   -.655E-05 -.972E-05 -.153E-03
   0.204E+01 -.703E+01 -.752E+03   -.204E+01 0.699E+01 0.753E+03   -.183E-02 0.382E-01 -.376E+00   0.221E-05 -.607E-05 -.268E-03
   -.354E+01 0.813E-01 -.761E+03   0.354E+01 -.819E-01 0.762E+03   0.232E-03 0.250E-03 -.320E+00   -.123E-04 0.344E-05 -.273E-03
   0.582E+01 0.404E+00 -.234E+04   -.583E+01 -.402E+00 0.233E+04   0.422E-02 0.541E-06 0.776E+01   0.164E-05 0.214E-05 -.634E-04
   -.215E+02 -.336E+02 -.232E+04   0.215E+02 0.336E+02 0.231E+04   -.643E-01 -.505E-01 0.782E+01   -.215E-04 -.294E-04 -.482E-04
   0.932E+00 0.192E+01 0.243E+04   -.932E+00 -.192E+01 -.242E+04   -.223E-03 -.143E-02 -.917E+01   0.528E-05 0.755E-05 0.808E-04
   -.129E+01 -.177E-01 0.242E+04   0.129E+01 0.175E-01 -.241E+04   -.882E-04 0.307E-03 -.917E+01   -.404E-05 -.112E-05 0.811E-04
   0.610E+00 -.189E-01 0.832E+03   -.607E+00 0.158E-01 -.832E+03   -.253E-02 0.169E-02 0.711E+00   0.231E-05 -.190E-05 -.148E-03
   -.962E+00 0.146E+01 0.831E+03   0.959E+00 -.146E+01 -.831E+03   0.275E-02 -.207E-03 0.672E+00   -.725E-05 0.975E-05 -.150E-03
   0.205E+01 0.699E+01 -.752E+03   -.205E+01 -.696E+01 0.753E+03   -.198E-02 -.380E-01 -.384E+00   0.191E-05 0.583E-05 -.268E-03
   -.539E+01 -.819E-01 -.748E+03   0.535E+01 0.831E-01 0.748E+03   0.411E-01 -.100E-02 -.449E+00   -.530E-05 -.326E-05 -.267E-03
   0.149E+02 -.636E+00 -.225E+04   -.150E+02 0.652E+00 0.224E+04   0.984E-01 -.122E-01 0.752E+01   0.864E-05 -.217E-05 -.335E-04
   -.218E+02 0.336E+02 -.232E+04   0.219E+02 -.337E+02 0.231E+04   -.742E-01 0.504E-01 0.782E+01   -.216E-04 0.292E-04 -.508E-04
   -.337E+00 -.859E+00 0.497E+03   0.340E+00 0.854E+00 -.497E+03   -.375E-02 0.528E-02 -.949E-01   -.231E-05 -.699E-05 -.809E-04
   0.565E+00 0.583E-02 0.497E+03   -.558E+00 -.156E-02 -.497E+03   -.917E-02 -.570E-02 -.101E+00   0.495E-05 0.992E-06 -.792E-04
   -.477E+00 0.995E-02 0.147E+04   0.477E+00 -.984E-02 -.147E+04   -.300E-03 -.235E-03 0.260E+01   -.212E-05 0.288E-06 0.353E-04
   0.680E+00 -.984E+00 0.147E+04   -.680E+00 0.983E+00 -.147E+04   0.112E-03 0.537E-03 0.260E+01   0.206E-05 -.353E-05 0.381E-04
   -.591E+01 -.117E+02 -.144E+04   0.591E+01 0.117E+02 0.144E+04   -.108E-02 0.173E-01 -.465E+01   -.388E-05 -.131E-04 -.499E-04
   0.727E+01 0.148E+00 -.144E+04   -.725E+01 -.152E+00 0.145E+04   -.195E-01 0.540E-02 -.464E+01   0.109E-04 0.110E-05 -.581E-04
   -.984E+00 0.272E-01 -.454E+03   0.984E+00 -.251E-01 0.454E+03   -.221E-03 -.285E-02 0.254E+00   -.737E-06 0.101E-05 -.147E-03
   0.262E+01 -.337E+01 -.449E+03   -.261E+01 0.335E+01 0.449E+03   -.455E-02 0.207E-01 0.258E+00   0.473E-05 -.497E-05 -.144E-03
   -.338E+00 0.846E+00 0.497E+03   0.341E+00 -.834E+00 -.497E+03   -.366E-02 -.154E-01 -.952E-01   -.245E-05 0.699E-05 -.801E-04
   0.638E+00 -.231E-01 0.498E+03   -.650E+00 0.272E-01 -.497E+03   0.164E-01 -.543E-02 -.106E+00   0.375E-05 -.891E-06 -.793E-04
   -.637E+00 -.979E-02 0.147E+04   0.636E+00 0.990E-02 -.147E+04   0.120E-02 -.234E-03 0.260E+01   -.103E-05 -.355E-06 0.418E-04
   0.681E+00 0.984E+00 0.147E+04   -.681E+00 -.983E+00 -.147E+04   0.212E-03 -.149E-02 0.260E+01   0.236E-05 0.346E-05 0.378E-04
   -.593E+01 0.117E+02 -.144E+04   0.593E+01 -.117E+02 0.144E+04   -.142E-02 -.132E-01 -.465E+01   -.384E-05 0.133E-04 -.499E-04
   0.210E+02 -.163E+00 -.142E+04   -.209E+02 0.160E+00 0.142E+04   -.122E+00 0.774E-04 -.476E+01   0.949E-05 -.968E-06 -.405E-04
   -.143E+01 -.474E-01 -.447E+03   0.144E+01 0.473E-01 0.447E+03   -.113E-01 0.855E-03 0.271E+00   -.128E-05 -.108E-05 -.145E-03
   0.262E+01 0.337E+01 -.449E+03   -.261E+01 -.335E+01 0.449E+03   -.271E-02 -.182E-01 0.259E+00   0.495E-05 0.486E-05 -.144E-03
   0.331E+00 -.935E+00 0.498E+03   -.330E+00 0.951E+00 -.497E+03   -.393E-03 -.211E-01 -.103E+00   0.255E-05 -.578E-05 -.798E-04
   -.569E+00 0.599E-02 0.497E+03   0.565E+00 -.153E-02 -.497E+03   0.542E-02 -.593E-02 -.996E-01   -.475E-05 0.862E-06 -.813E-04
   0.479E+00 0.111E-01 0.147E+04   -.479E+00 -.110E-01 -.147E+04   0.161E-03 -.228E-03 0.260E+01   0.153E-05 0.658E-06 0.374E-04
   -.683E+00 -.115E+01 0.147E+04   0.684E+00 0.114E+01 -.147E+04   -.380E-03 0.200E-02 0.260E+01   -.239E-05 -.363E-05 0.422E-04
   0.603E+01 -.259E+02 -.141E+04   -.603E+01 0.258E+02 0.142E+04   -.250E-02 0.114E+00 -.465E+01   0.285E-05 -.124E-04 -.393E-04
   -.733E+01 0.163E+00 -.144E+04   0.731E+01 -.167E+00 0.144E+04   0.167E-01 0.617E-02 -.465E+01   -.955E-05 0.110E-05 -.511E-04
   0.975E+00 0.654E-01 -.449E+03   -.978E+00 -.683E-01 0.449E+03   0.317E-02 0.445E-02 0.290E+00   -.339E-06 0.136E-05 -.144E-03
   -.262E+01 -.384E+01 -.447E+03   0.262E+01 0.383E+01 0.447E+03   0.368E-02 0.110E-01 0.262E+00   -.445E-05 -.618E-05 -.144E-03
   0.332E+00 0.910E+00 0.498E+03   -.332E+00 -.915E+00 -.497E+03   -.233E-03 0.726E-02 -.102E+00   0.247E-05 0.563E-05 -.790E-04
   -.641E+00 -.247E-01 0.498E+03   0.655E+00 0.290E-01 -.498E+03   -.183E-01 -.570E-02 -.111E+00   -.403E-05 -.101E-05 -.802E-04
   0.642E+00 -.106E-01 0.147E+04   -.641E+00 0.108E-01 -.147E+04   -.133E-02 -.398E-03 0.260E+01   0.191E-05 -.661E-06 0.457E-04
   -.684E+00 0.115E+01 0.147E+04   0.685E+00 -.114E+01 -.147E+04   -.456E-03 -.299E-02 0.260E+01   -.249E-05 0.371E-05 0.418E-04
   0.606E+01 0.261E+02 -.141E+04   -.606E+01 -.260E+02 0.142E+04   -.178E-02 -.107E+00 -.464E+01   0.287E-05 0.124E-04 -.400E-04
   -.216E+02 -.174E+00 -.139E+04   0.215E+02 0.170E+00 0.140E+04   0.915E-01 0.607E-02 -.470E+01   -.811E-05 -.970E-06 -.336E-04
   0.145E+01 -.259E-01 -.443E+03   -.146E+01 0.229E-01 0.443E+03   0.935E-02 0.353E-02 0.930E-01   0.142E-05 -.124E-05 -.143E-03
   -.262E+01 0.385E+01 -.447E+03   0.262E+01 -.384E+01 0.447E+03   0.229E-02 -.677E-02 0.263E+00   -.452E-05 0.603E-05 -.144E-03
   0.588E+00 -.107E-01 0.242E+02   -.423E-12 -.249E-13 0.853E-12   -.571E+00 0.648E-01 -.243E+02   -.170E-04 -.142E-05 -.494E-02

 POSITION                                       TOTAL-FORCE (eV/Angst)
      4.25799      4.20026     12.63798         0.102215      0.041749      0.064278
      5.70127      4.21518     13.15146        -0.093905      0.010985     -0.003367
      4.06810      3.31107     12.01510        -0.000813     -0.009433      0.010894
      4.04163      5.09957     12.03866        -0.000868      0.002391      0.009573
      3.52715      4.17855     13.45982         0.019340      0.000722     -0.040416
      6.40806      4.23766     12.30911        -0.005413     -0.000867     -0.002006
      5.92117      3.32239     13.75526         0.000432      0.030482     -0.027508
      5.89350      5.09633     13.78119         0.004756     -0.031636     -0.029704
      0.00006      6.33100      3.21881        -0.000317     -0.001047      0.392676
      2.11031      0.00026      3.21881        -0.000448     -0.000665      0.393427
      0.00006      0.00026      5.32906        -0.000709     -0.001878      0.102884
      2.11031      6.33100      5.32906         0.000426     -0.001874      0.095692
      8.44079      6.33043      7.45377        -0.000479     -0.002680     -0.005655
      2.11013      8.44068      7.45400         0.000475     -0.001083     -0.006890
      8.44092      8.44023      9.55992        -0.001297      0.002532     -0.041614
      2.10918      6.32944      9.55744        -0.000564     -0.006221     -0.038386
      0.00006      2.11051      3.21881        -0.000342     -0.000370      0.392712
      2.11031      4.22076      3.21881        -0.000292     -0.000631      0.393496
      0.00006      4.22076      5.32906        -0.001305     -0.001834      0.106769
      2.11031      2.11051      5.32906         0.000326     -0.000839      0.095551
      8.44079      2.11008      7.45371        -0.000345      0.000156     -0.005348
      2.11132      4.22019      7.45511        -0.000421     -0.000802     -0.000205
      0.00123      4.21985      9.55595         0.001558     -0.000243     -0.031253
      2.10914      2.11002      9.55733        -0.002701      0.005939     -0.036931
      4.22056      6.33100      3.21881        -0.000103     -0.001228      0.393439
      6.33080      0.00026      3.21881        -0.000024     -0.000640      0.393463
      4.22056      0.00026      5.32906        -0.000741     -0.002321      0.106564
      6.33080      6.33100      5.32906        -0.001491     -0.002678      0.095832
      4.22042      6.32918      7.45497        -0.000300     -0.000853     -0.002122
      6.33062      8.44066      7.45415        -0.000959     -0.001017     -0.006016
      4.22017      8.44011      9.55647         0.002212      0.001254     -0.031830
      6.33110      6.33010      9.55826        -0.001492     -0.000318     -0.035266
      4.22056      2.11051      3.21881        -0.000073     -0.000210      0.393357
      6.33080      4.22076      3.21881        -0.000222     -0.000664      0.392422
      4.22056      4.22076      5.32906         0.000149     -0.002084      0.110546
      6.33080      2.11051      5.32906        -0.001345     -0.000128      0.095617
      4.22043      2.11094      7.45496        -0.000320      0.000330     -0.003090
      6.32956      4.22016      7.45556        -0.000584     -0.000540     -0.003143
      4.21917      4.21964      9.57246        -0.001467      0.004023     -0.065690
      6.33123      2.10931      9.55811        -0.000411      0.001635     -0.036028
      0.00006      6.33100      5.32906        -0.001132      0.000276      0.072133
      2.11031      0.00026      5.32906        -0.002356     -0.002191      0.071316
      0.00006      0.00026      3.21881        -0.000332     -0.000878     -0.525063
      2.11031      6.33100      3.21881        -0.000270     -0.000846     -0.526446
      8.44051      6.32978      9.60579        -0.001817      0.001416      0.015541
      2.10979      8.44024      9.60586         0.000372      0.001241      0.016630
      8.44074      8.44072      7.44906         0.000092     -0.001515     -0.000808
      2.10995      6.33108      7.44854         0.001155     -0.000691     -0.017956
      0.00006      2.11051      5.32906        -0.001111     -0.004534      0.071832
      2.11031      4.22076      5.32906         0.003299     -0.002112      0.074700
      0.00006      4.22076      3.21881        -0.000027     -0.000878     -0.524795
      2.11031      2.11051      3.21881        -0.000247     -0.001275     -0.526466
      8.44053      2.10979      9.60563        -0.001323     -0.001825      0.017112
      2.10787      4.21974      9.60038        -0.004746     -0.003134      0.005131
      8.44074      4.22024      7.44750        -0.002336     -0.000025     -0.005597
      2.10988      2.10931      7.44846         0.002243      0.000655     -0.017533
      4.22056      6.33100      5.32906        -0.000346     -0.005557      0.074970
      6.33080      0.00026      5.32906         0.000952     -0.002236      0.072342
      4.22056      0.00026      3.21881        -0.000227     -0.000878     -0.525600
      6.33080      6.33100      3.21881        -0.000389     -0.000546     -0.526424
      4.22041      6.33259      9.60494        -0.001217      0.008842      0.016976
      6.33080      8.44022      9.60644        -0.000357      0.001350      0.013964
      4.22046      8.44054      7.44788        -0.000046      0.000853     -0.001880
      6.33078      6.33100      7.44892        -0.001302     -0.003042     -0.016784
      4.22056      2.11051      5.32906        -0.000314      0.000585      0.075217
      6.33080      4.22076      5.32906        -0.004354     -0.002166      0.075316
      4.22056      4.22076      3.21881        -0.000533     -0.000916     -0.525959
      6.33080      2.11051      3.21881        -0.000407     -0.001584     -0.526386
      4.22047      2.10650      9.60436        -0.001284     -0.009919      0.019754
      6.33249      4.21973      9.60317         0.007275      0.001015      0.010144
      4.22062      4.22016      7.45169         0.001280     -0.000264     -0.005648
      6.33087      2.10935      7.44884        -0.002333      0.003363     -0.016459
    total drift:                                0.017484      0.054028     -0.085594

  FREE ENERGIE OF THE ION-ELECTRON SYSTEM (eV)
  free  energy   TOTEN  =      -422.85762985 eV

  energy  without entropy=     -422.85762985  energy(sigma->0) =     -422.85762985