 vasp.6.3.0 20Jan22 (build Apr  1 2022 16:44:48) complex
 executed on        HPECrayEX_GCC date 2023.03.11  23:26:44

 INCAR:
   SYSTEM = MgO-rocksalt
   ISMEAR = 0
   SIGMA = 0.05
   EDIFF = 1E-6
   ALGO = ALL
   ISTART = 0
   IBRION = -1
   NSW = 0
   ISYM = 0
   DIPOL = 0.5 0.5 0.5
   IDIPOL = 3
   LDIPOL = .TRUE.
   LHFCALC = .TRUE.
   GGA = B5
   AEXX = 0.2
   AGGAX = 0.72
   AGGAC = 0.81
   ALDAC = 0.19
   IVDW = 1
   VDW_S6 = 1.05
   VDW_C6 = 0.63 0.70
   VDW_R0 = 1.243 1.342
   ENCUT = 600
   PREC = Accurate
   LASPH = .TRUE.
   LREAL = .FALSE.
   ISPIN = 1
   NELM = 200
   NELMIN = 8
   NCORE = 8
   KPAR = 1
   LWAVE = .FALSE.
   LCHARG = .FALSE.

 POTCAR:    PAW_PBE Mg_pv 13Apr2007
 POTCAR:    PAW_PBE O 08Apr2002
 POTCAR:    PAW_PBE Mg_pv 13Apr2007
   VRHFIN =Mg: p6s2

   TITEL  = PAW_PBE Mg_pv 13Apr2007
   POMASS =   24.305; ZVAL   =    8.000    mass and valenz
   ENMAX  =  403.929; ENMIN  =  302.947 eV

   TITEL  = PAW_PBE O 08Apr2002
   POMASS =   16.000; ZVAL   =    6.000    mass and valenz
   ENMAX  =  400.000; ENMIN  =  300.000 eV

  PAW_PBE Mg_pv 13Apr2007               :
  PAW_PBE O 08Apr2002                   :

 POSCAR: Mg  O
  positions in direct lattice
 exchange correlation table for  LEXCH =       12
   RHO(1)=    0.500       N(1)  =     2000
   RHO(2)=  100.500       N(2)  =     4000

 ion  position               nearest neighbor table
   1  0.000  0.750  0.352-  33 2.11  35 2.11  36 2.11  43 2.11  52 2.11
   2  0.250  0.000  0.352-  34 2.11  35 2.11  36 2.11  44 2.11  51 2.11
   3  0.000  0.000  0.451-  35 2.11  34 2.11  33 2.11  41 2.11  50 2.11  39 2.12
   4  0.250  0.750  0.451-  36 2.11  34 2.11  33 2.11  42 2.11  49 2.11  40 2.12
   5  1.000  0.750  0.550-  56 2.11  39 2.11  47 2.11  40 2.11  33 2.13  37 2.14
   6  0.250  1.000  0.550-  39 2.11  48 2.11  55 2.11  40 2.11  34 2.13  38 2.15
   7  0.000  0.000  0.649-  54 2.11  37 2.11  39 2.11  45 2.11  38 2.11
   8  0.250  0.750  0.649-  37 2.11  40 2.11  46 2.11  53 2.11  38 2.11
   9  0.000  0.250  0.352-  41 2.11  35 2.11  43 2.11  44 2.11  60 2.11
  10  0.250  0.500  0.352-  42 2.11  36 2.11  43 2.11  44 2.11  59 2.11
  11  0.000  0.500  0.451-  43 2.11  41 2.11  42 2.11  33 2.11  58 2.11  47 2.12
  12  0.250  0.250  0.451-  44 2.11  41 2.11  42 2.11  34 2.11  57 2.11  48 2.12
  13  0.000  0.250  0.550-  39 2.11  47 2.11  48 2.11  64 2.11  41 2.13  45 2.15
  14  0.250  0.500  0.550-  47 2.11  48 2.11  40 2.11  63 2.11  42 2.12  46 2.15
  15  0.000  0.500  0.649-  46 2.11  47 2.11  37 2.11  45 2.11  62 2.12
  16  0.250  0.250  0.649-  46 2.11  61 2.11  45 2.11  38 2.11  48 2.11
  17  0.500  0.750  0.352-  49 2.11  36 2.11  51 2.11  52 2.11  59 2.11
  18  0.750  0.000  0.352-  50 2.11  35 2.11  51 2.11  52 2.11  60 2.11
  19  0.500  0.000  0.451-  51 2.11  49 2.11  50 2.11  34 2.11  57 2.11  55 2.12
  20  0.750  0.750  0.451-  52 2.11  49 2.11  50 2.11  33 2.11  58 2.11  56 2.12
  21  0.500  0.750  0.550-  56 2.11  55 2.11  63 2.11  40 2.11  49 2.13  53 2.16
  22  0.750  1.000  0.550-  56 2.11  39 2.11  55 2.11  64 2.11  50 2.13  54 2.14
  23  0.500  0.000  0.649-  61 2.11  55 2.11  54 2.11  38 2.11  53 2.11
  24  0.751  0.751  0.650-  37 2.11  54 2.11  62 2.12  53 2.12  56 2.12
  25  0.500  0.250  0.352-  57 2.11  51 2.11  44 2.11  59 2.11  60 2.11
  26  0.750  0.500  0.352-  58 2.11  52 2.11  43 2.11  59 2.11  60 2.11
  27  0.500  0.500  0.451-  59 2.11  49 2.11  57 2.11  58 2.11  42 2.11  63 2.12
  28  0.750  0.250  0.451-  60 2.11  50 2.11  57 2.11  58 2.11  41 2.11  64 2.12
  29  0.500  0.250  0.550-  55 2.11  48 2.11  64 2.11  63 2.11  57 2.12  61 2.15
  30  0.750  0.500  0.550-  56 2.11  47 2.11  63 2.11  64 2.11  58 2.13  62 2.16
  31  0.499  0.499  0.648-  63 2.10  46 2.10  61 2.10  62 2.12  53 2.12
  32  0.750  0.250  0.649-  54 2.11  64 2.11  61 2.11  62 2.11  45 2.11
  33  0.000  0.750  0.451-   1 2.11   3 2.11   4 2.11  11 2.11  20 2.11   5 2.13
  34  0.250  0.000  0.451-   2 2.11   3 2.11   4 2.11  12 2.11  19 2.11   6 2.13
  35  0.000  0.000  0.352-   3 2.11   2 2.11   1 2.11   9 2.11  18 2.11
  36  0.250  0.750  0.352-   4 2.11   2 2.11   1 2.11  10 2.11  17 2.11
  37  0.000  0.750  0.651-   8 2.11  24 2.11  15 2.11   7 2.11   5 2.14
  38  0.250  1.000  0.651-  16 2.11   7 2.11  23 2.11   8 2.11   6 2.15
  39  0.000  0.000  0.550-   6 2.11  13 2.11  22 2.11   7 2.11   5 2.11   3 2.12
  40  0.250  0.750  0.550-   8 2.11   6 2.11  21 2.11  14 2.11   5 2.11   4 2.12
  41  0.000  0.250  0.451-   9 2.11   3 2.11  11 2.11  12 2.11  28 2.11  13 2.13
  42  0.250  0.500  0.451-  10 2.11   4 2.11  11 2.11  12 2.11  27 2.11  14 2.12
  43  0.000  0.500  0.352-  11 2.11   9 2.11  10 2.11   1 2.11  26 2.11
  44  0.250  0.250  0.352-  12 2.11   9 2.11  10 2.11   2 2.11  25 2.11
  45  1.000  0.250  0.651-  16 2.11   7 2.11  15 2.11  32 2.11  13 2.15
  46  0.250  0.500  0.651-  31 2.10  15 2.11  16 2.11   8 2.11  14 2.15
  47  1.000  0.500  0.550-  30 2.11  15 2.11  13 2.11  14 2.11   5 2.11  11 2.12
  48  0.250  0.250  0.550-   6 2.11  13 2.11  29 2.11  14 2.11  16 2.11  12 2.12
  49  0.500  0.750  0.451-  17 2.11   4 2.11  19 2.11  20 2.11  27 2.11  21 2.13
  50  0.750  0.000  0.451-  18 2.11   3 2.11  19 2.11  20 2.11  28 2.11  22 2.13
  51  0.500  0.000  0.352-  19 2.11  17 2.11  18 2.11   2 2.11  25 2.11
  52  0.750  0.750  0.352-  20 2.11  17 2.11  18 2.11   1 2.11  26 2.11
  53  0.500  0.750  0.651-   8 2.11  23 2.11  31 2.12  24 2.12  21 2.16
  54  0.750  0.001  0.651-  32 2.11  24 2.11  23 2.11   7 2.11  22 2.14
  55  0.500  1.000  0.550-  23 2.11  21 2.11  29 2.11   6 2.11  22 2.11  19 2.12
  56  0.750  0.750  0.550-  30 2.11  21 2.11   5 2.11  22 2.11  24 2.12  20 2.12
  57  0.500  0.250  0.451-  25 2.11  19 2.11  12 2.11  27 2.11  28 2.11  29 2.12
  58  0.750  0.500  0.451-  26 2.11  20 2.11  11 2.11  27 2.11  28 2.11  30 2.13
  59  0.500  0.500  0.352-  27 2.11  17 2.11  25 2.11  26 2.11  10 2.11
  60  0.750  0.250  0.352-  28 2.11  18 2.11  25 2.11  26 2.11   9 2.11
  61  0.500  0.250  0.651-  31 2.10  23 2.11  16 2.11  32 2.11  29 2.15
  62  0.750  0.500  0.651-  32 2.11  15 2.12  31 2.12  24 2.12  30 2.16
  63  0.500  0.500  0.550-  31 2.10  30 2.11  21 2.11  29 2.11  14 2.11  27 2.12
  64  0.750  0.250  0.550-  32 2.11  13 2.11  30 2.11  29 2.11  22 2.11  28 2.12

IMPORTANT INFORMATION: All symmetrisations will be switched off!
NOSYMM: (Re-)initialisation of all symmetry stuff for point group C_1.

                                     Primitive cell

  volume of cell :    1519.8199

  direct lattice vectors                    reciprocal lattice vectors
     8.440984654  0.000000000  0.000000000     0.118469591  0.000000000  0.000000000
     0.000000000  8.440984654  0.000000000     0.000000000  0.118469591  0.000000000
     0.000000000  0.000000000 21.330738491     0.000000000  0.000000000  0.046880702

  length of vectors
     8.440984654  8.440984654 21.330738491     0.118469591  0.118469591  0.046880702

  position of ions in fractional coordinates (direct lattice)
     0.000000000  0.750000000  0.351605267
     0.250000000  0.000000000  0.351605267
     0.000000000  0.000000000  0.450535089
     0.250000000  0.750000000  0.450535089
     0.999952972  0.750069933  0.550182699
     0.249960180  0.999999612  0.550158547
     0.000071767  0.000081746  0.648822182
     0.249898085  0.749854229  0.648747211
     0.000000000  0.250000000  0.351605267
     0.250000000  0.500000000  0.351605267
     0.000000000  0.500000000  0.450535089
     0.250000000  0.250000000  0.450535089
     0.000003654  0.249979963  0.550161251
     0.249748591  0.499976608  0.550096481
     0.000002192  0.500168966  0.648801089
     0.249937473  0.249969046  0.648946383
     0.500000000  0.750000000  0.351605267
     0.750000000  0.000000000  0.351605267
     0.500000000  0.000000000  0.450535089
     0.750000000  0.750000000  0.450535089
     0.500260010  0.749982125  0.550295780
     0.750090200  0.999950935  0.550181221
     0.500174938  0.000063538  0.648739290
     0.751039523  0.750995909  0.649603103
     0.500000000  0.250000000  0.351605267
     0.750000000  0.500000000  0.351605267
     0.500000000  0.500000000  0.450535089
     0.750000000  0.250000000  0.450535089
     0.499969996  0.249784160  0.550090882
     0.749966853  0.500263841  0.550296262
     0.498939953  0.498985897  0.648486242
     0.749869906  0.249927386  0.648747568
     0.000000000  0.750000000  0.450535089
     0.250000000  0.000000000  0.450535089
     0.000000000  0.000000000  0.351605267
     0.250000000  0.750000000  0.351605267
     0.000499353  0.750094498  0.650694193
     0.250109797  0.999979088  0.651114683
     0.000136884  0.000132227  0.549867764
     0.250236395  0.750027713  0.549854657
     0.000000000  0.250000000  0.450535089
     0.250000000  0.500000000  0.450535089
     0.000000000  0.500000000  0.351605267
     0.250000000  0.250000000  0.351605267
     0.999972823  0.250117149  0.651102115
     0.249721265  0.499887596  0.650744450
     0.999777560  0.499924314  0.549903838
     0.249958822  0.249941630  0.549902197
     0.500000000  0.750000000  0.450535089
     0.750000000  0.000000000  0.450535089
     0.500000000  0.000000000  0.351605267
     0.750000000  0.750000000  0.351605267
     0.499900511  0.749702745  0.651434291
     0.750092168  0.000531548  0.650666996
     0.499920717  0.999831546  0.549889159
     0.749925806  0.749919682  0.550086402
     0.500000000  0.250000000  0.450535089
     0.750000000  0.500000000  0.450535089
     0.500000000  0.500000000  0.351605267
     0.750000000  0.250000000  0.351605267
     0.499862115  0.249746378  0.650807382
     0.749521345  0.499934182  0.651493469
     0.499981670  0.499983828  0.549886888
     0.750005706  0.250251695  0.549858885

  ion indices of the primitive-cell ions
   primitive index   ion index
                 1           1
                 2           2
                 3           3
                 4           4
                 5           5
                 6           6
                 7           7
                 8           8
                 9           9
                10          10
                11          11
                12          12
                13          13
                14          14
                15          15
                16          16
                17          17
                18          18
                19          19
                20          20
                21          21
                22          22
                23          23
                24          24
                25          25
                26          26
                27          27
                28          28
                29          29
                30          30
                31          31
                32          32
                33          33
                34          34
                35          35
                36          36
                37          37
                38          38
                39          39
                40          40
                41          41
                42          42
                43          43
                44          44
[...]
   0.25000000  0.50000000  0.45053509
   0.00000000  0.50000000  0.35160527
   0.25000000  0.25000000  0.35160527
   0.99997282  0.25011715  0.65110211
   0.24972126  0.49988760  0.65074445
   0.99977756  0.49992431  0.54990384
   0.24995882  0.24994163  0.54990220
   0.50000000  0.75000000  0.45053509
   0.75000000  0.00000000  0.45053509
   0.50000000  0.00000000  0.35160527
   0.75000000  0.75000000  0.35160527
   0.49990051  0.74970275  0.65143429
   0.75009217  0.00053155  0.65066700
   0.49992072  0.99983155  0.54988916
   0.74992581  0.74991968  0.55008640
   0.50000000  0.25000000  0.45053509
   0.75000000  0.50000000  0.45053509
   0.50000000  0.50000000  0.35160527
   0.75000000  0.25000000  0.35160527
   0.49986211  0.24974638  0.65080738
   0.74952135  0.49993418  0.65149347
   0.49998167  0.49998383  0.54988689
   0.75000571  0.25025169  0.54985888

 position of ions in cartesian coordinates  (Angst):
   0.00000000  6.33073849  7.50000000
   2.11024616  0.00000000  7.50000000
   0.00000000  0.00000000  9.61024616
   2.11024616  6.33073849  9.61024616
   8.44058770  6.33132879 11.73580328
   2.10991005  8.44098138 11.73528809
   0.00060578  0.00069001 13.83985629
   2.10938590  6.32950804 13.83825711
   0.00000000  2.11024616  7.50000000
   2.11024616  4.22049233  7.50000000
   0.00000000  4.22049233  9.61024616
   2.11024616  2.11024616  9.61024616
   0.00003084  2.11007703 11.73534578
   2.10812402  4.22029488 11.73396418
   0.00001851  4.22191857 13.83940637
   2.10971837  2.10998488 13.84250560
   4.22049233  6.33073849  7.50000000
   6.33073849  0.00000000  7.50000000
   4.22049233  0.00000000  9.61024616
   6.33073849  6.33073849  9.61024616
   4.22268707  6.33058760 11.73821538
   6.33149987  8.44057049 11.73577174
   4.22196898  0.00053632 13.83808815
   6.33951309  6.33914494 13.85651391
   4.22049233  2.11024616  7.50000000
   6.33073849  4.22049233  7.50000000
   4.22049233  4.22049233  9.61024616
   6.33073849  2.11024616  9.61024616
   4.22023907  2.10842426 11.73384475
   6.33045870  4.22271940 11.73822565
   4.21154449  4.21193230 13.83269045
   6.32964037  2.10963323 13.83826472
   0.00000000  6.33073849  9.61024616
   2.11024616  0.00000000  9.61024616
   0.00000000  0.00000000  7.50000000
   2.11024616  6.33073849  7.50000000
   0.00421503  6.33153615 13.87978768
   2.11117296  8.44080814 13.88875702
   0.00115543  0.00111613 11.72908549
   2.11224157  6.33097241 11.72880589
   0.00000000  2.11024616  9.61024616
   2.11024616  4.22049233  9.61024616
   0.00000000  4.22049233  7.50000000
   2.11024616  2.11024616  7.50000000
   8.44075525  2.11123502 13.88848895
   2.10789336  4.21954353 13.88085968
   8.43910704  4.21985346 11.72985496
   2.10989858  2.10975346 11.72981997
   4.22049233  6.33073849  9.61024616
   6.33073849  0.00000000  9.61024616
   4.22049233  0.00000000  7.50000000
   6.33073849  6.33073849  7.50000000
   4.21965254  6.32822937 13.89557450
   6.33151648  0.00448679 13.87920754
   4.21982310  8.43956274 11.72954185
   6.33011222  6.33006053 11.73374919
   4.22049233  2.11024616  9.61024616
   6.33073849  4.22049233  9.61024616
   4.22049233  4.22049233  7.50000000
   6.33073849  2.11024616  7.50000000
   4.21932844  2.10810534 13.88220207
   6.32669817  4.21993676 13.89683681
   4.22033761  4.22035582 11.72949341
   6.33078666  2.11237071 11.72889608

--------------------------------------- Iteration      FINAL  ---------------------------------------

--------------------OUTCAR has been truncated-------------------------

[...]

--------------------OUTCAR has been truncated-------------------------

  DFT-D2 method for vdW energy calculation

  Parameters of vdW forcefield:
         C6(Jnm^6/mol)     R0(A)
   Mg       0.630          1.243
   O        0.700          1.342

  vdW correction parametrized for the method á¿ü      

  IVDW =   1
  VDW_RADIUS =    50.000 A
  VDW_S6 =     1.050
  VDW_SR =     1.000
  VDW_D =    20.000
  LVDW_EWALD = F

  Number of pair interactions contributing to vdW energy:  723328
  Edisp (eV):   -5.06701

 VOLUME and BASIS-vectors are now :
  energy-cutoff  :      600.00
  volume of cell :     1519.82
      direct lattice vectors                 reciprocal lattice vectors
     8.440984654  0.000000000  0.000000000     0.118469591  0.000000000  0.000000000
     0.000000000  8.440984654  0.000000000     0.000000000  0.118469591  0.000000000
     0.000000000  0.000000000 21.330738491     0.000000000  0.000000000  0.046880702

  length of vectors
     8.440984654  8.440984654 21.330738491     0.118469591  0.118469591  0.046880702

 FORCES acting on ions:
    Electron-Ion                     Ewald-Force                    Non-Local-Force
   0.699E-01 0.219E-01 0.207E+04   -.712E-01 -.227E-01 -.206E+04   0.871E-03 0.497E-03 -.639E+01
   -.178E-01 0.509E-01 0.207E+04   0.188E-01 -.517E-01 -.206E+04   -.647E-03 0.511E-03 -.640E+01
   0.242E+00 0.229E+00 0.683E+03   -.228E+00 -.216E+00 -.684E+03   -.947E-02 -.867E-02 0.456E+00
   -.127E+00 0.334E-01 0.683E+03   0.162E+00 -.200E-01 -.683E+03   -.223E-01 -.879E-02 0.437E+00
   0.649E+00 0.314E+00 -.689E+03   -.703E+00 -.316E+00 0.689E+03   0.443E-01 -.163E-02 -.216E+00
   -.301E+00 0.323E+00 -.691E+03   0.306E+00 -.318E+00 0.691E+03   0.352E-02 -.527E-02 -.121E+00
   -.269E+00 -.251E+00 -.205E+04   0.393E+00 0.374E+00 0.204E+04   -.787E-01 -.789E-01 0.535E+01
   -.142E+01 -.364E+00 -.205E+04   0.152E+01 0.417E+00 0.204E+04   -.462E-01 -.279E-01 0.527E+01
   0.518E-01 -.222E-01 0.207E+04   -.526E-01 0.231E-01 -.206E+04   0.481E-03 -.579E-03 -.640E+01
   -.186E-01 -.504E-01 0.207E+04   0.190E-01 0.511E-01 -.206E+04   -.220E-03 -.472E-03 -.639E+01
   0.326E+00 -.216E+00 0.683E+03   -.365E+00 0.205E+00 -.683E+03   0.245E-01 0.715E-02 0.464E+00
   -.131E-01 -.454E-01 0.683E+03   0.919E-03 0.312E-01 -.684E+03   0.806E-02 0.946E-02 0.455E+00
   0.347E+00 -.315E+00 -.691E+03   -.342E+00 0.323E+00 0.691E+03   -.584E-02 -.366E-03 -.124E+00
   -.201E+00 -.321E+00 -.688E+03   0.195E+00 0.310E+00 0.689E+03   0.145E-01 0.763E-02 -.185E+00
   0.177E+01 0.157E+00 -.205E+04   -.177E+01 -.282E+00 0.204E+04   -.319E-01 0.770E-01 0.531E+01
   0.374E+00 0.411E+00 -.205E+04   -.424E+00 -.473E+00 0.205E+04   0.294E-01 0.368E-01 0.534E+01
   -.678E-01 0.209E-01 0.207E+04   0.697E-01 -.218E-01 -.206E+04   -.126E-02 0.627E-03 -.640E+01
   0.174E-01 0.689E-01 0.207E+04   -.183E-01 -.702E-01 -.206E+04   0.563E-03 0.897E-03 -.639E+01
   -.228E+00 0.342E+00 0.683E+03   0.217E+00 -.378E+00 -.683E+03   0.789E-02 0.225E-01 0.458E+00
   0.116E+00 0.125E+00 0.682E+03   -.139E+00 -.149E+00 -.682E+03   0.156E-01 0.160E-01 0.500E+00
   -.789E+00 0.367E+00 -.693E+03   0.842E+00 -.361E+00 0.694E+03   -.472E-01 -.117E-01 -.131E+00
   0.298E+00 0.638E+00 -.689E+03   -.298E+00 -.691E+00 0.689E+03   -.467E-02 0.447E-01 -.227E+00
   0.153E+00 0.168E+01 -.205E+04   -.279E+00 -.169E+01 0.204E+04   0.771E-01 -.186E-01 0.530E+01
   0.283E+01 0.264E+01 -.206E+04   -.294E+01 -.276E+01 0.205E+04   -.102E-01 -.247E-02 0.540E+01
   -.512E-01 -.230E-01 0.207E+04   0.520E-01 0.233E-01 -.206E+04   -.441E-03 -.199E-03 -.639E+01
   0.161E-01 -.670E-01 0.207E+04   -.173E-01 0.688E-01 -.206E+04   0.751E-03 -.129E-02 -.640E+01
   -.322E+00 -.333E+00 0.683E+03   0.344E+00 0.356E+00 -.683E+03   -.153E-01 -.151E-01 0.453E+00
   -.122E-02 -.131E+00 0.683E+03   0.125E-01 0.167E+00 -.683E+03   -.737E-02 -.228E-01 0.439E+00
   -.344E+00 -.247E+00 -.688E+03   0.331E+00 0.239E+00 0.689E+03   0.938E-02 0.154E-01 -.166E+00
   0.313E+00 -.766E+00 -.694E+03   -.306E+00 0.821E+00 0.694E+03   -.126E-01 -.479E-01 -.111E+00
   -.263E+01 -.280E+01 -.205E+04   0.271E+01 0.285E+01 0.204E+04   0.227E-01 0.427E-01 0.524E+01
   -.329E+00 -.141E+01 -.205E+04   0.367E+00 0.150E+01 0.204E+04   -.213E-01 -.375E-01 0.527E+01
   0.255E+00 0.858E-01 0.512E+03   -.252E+00 -.895E-01 -.511E+03   -.467E-02 0.420E-02 -.900E-01
   -.744E-01 0.136E+00 0.512E+03   0.770E-01 -.141E+00 -.512E+03   -.283E-02 0.562E-02 -.111E+00
   0.407E-01 0.391E-01 0.155E+04   -.397E-01 -.383E-01 -.156E+04   -.123E-02 -.105E-02 0.313E+01
   -.192E-01 0.105E-01 0.155E+04   0.222E-01 -.930E-02 -.156E+04   -.377E-02 -.154E-02 0.313E+01
   0.140E+00 0.339E+00 -.156E+04   -.225E-01 -.373E+00 0.156E+04   -.139E+00 0.410E-01 -.442E+01
   -.302E+00 0.372E+00 -.156E+04   0.363E+00 -.413E+00 0.156E+04   -.716E-01 0.410E-01 -.464E+01
   0.213E+00 0.205E+00 -.512E+03   -.213E+00 -.205E+00 0.511E+03   -.900E-02 -.827E-02 0.262E+00
   -.439E+00 -.762E-01 -.511E+03   0.473E+00 0.800E-01 0.511E+03   -.468E-01 -.716E-02 0.283E+00
   0.141E+00 -.869E-01 0.512E+03   -.146E+00 0.879E-01 -.512E+03   0.547E-02 -.980E-03 -.109E+00
   -.929E-01 -.132E+00 0.512E+03   0.109E+00 0.138E+00 -.512E+03   -.193E-01 -.687E-02 -.813E-01
   0.515E-01 -.388E-01 0.155E+04   -.547E-01 0.379E-01 -.156E+04   0.391E-02 0.113E-02 0.313E+01
   -.650E-02 -.109E-01 0.155E+04   0.556E-02 0.972E-02 -.156E+04   0.119E-02 0.154E-02 0.313E+01
   0.372E+00 -.286E+00 -.156E+04   -.409E+00 0.333E+00 0.156E+04   0.369E-01 -.553E-01 -.463E+01
   0.359E+00 -.414E+00 -.156E+04   -.422E+00 0.453E+00 0.156E+04   0.541E-01 -.406E-01 -.456E+01
   0.723E+00 -.176E+00 -.512E+03   -.743E+00 0.165E+00 0.512E+03   0.268E-01 0.199E-01 0.270E+00
   0.665E-01 0.429E-01 -.512E+03   -.560E-01 -.354E-01 0.512E+03   -.100E-01 -.522E-02 0.198E+00
   -.225E+00 0.737E-01 0.511E+03   0.208E+00 -.720E-01 -.511E+03   0.211E-01 -.236E-02 -.142E+00
   0.728E-01 0.250E+00 0.512E+03   -.782E-01 -.246E+00 -.511E+03   0.622E-02 -.438E-02 -.895E-01
   -.404E-01 0.519E-01 0.155E+04   0.393E-01 -.550E-01 -.156E+04   0.132E-02 0.385E-02 0.313E+01
   0.176E-01 0.201E-01 0.155E+04   -.211E-01 -.236E-01 -.156E+04   0.436E-02 0.434E-02 0.312E+01
   -.160E+01 0.892E+00 -.156E+04   0.172E+01 -.106E+01 0.157E+04   -.101E+00 0.185E+00 -.472E+01
   0.368E+00 0.225E+00 -.156E+04   -.413E+00 -.117E+00 0.156E+04   0.529E-01 -.131E+00 -.442E+01
   -.185E+00 0.721E+00 -.512E+03   0.175E+00 -.744E+00 0.511E+03   0.195E-01 0.289E-01 0.279E+00
   0.482E+00 0.494E+00 -.516E+03   -.499E+00 -.506E+00 0.515E+03   0.298E-01 0.251E-01 0.924E-01
   -.137E+00 -.106E+00 0.512E+03   0.142E+00 0.119E+00 -.512E+03   -.662E-02 -.156E-01 -.824E-01
   0.568E-01 -.222E+00 0.511E+03   -.547E-01 0.204E+00 -.511E+03   -.273E-02 0.209E-01 -.143E+00
   -.497E-01 -.503E-01 0.155E+04   0.535E-01 0.539E-01 -.156E+04   -.469E-02 -.448E-02 0.312E+01
   0.601E-02 -.215E-01 0.155E+04   -.508E-02 0.246E-01 -.156E+04   -.118E-02 -.375E-02 0.313E+01
   -.426E+00 0.341E+00 -.156E+04   0.471E+00 -.400E+00 0.156E+04   -.463E-01 0.517E-01 -.459E+01
   0.720E+00 -.153E+01 -.156E+04   -.898E+00 0.165E+01 0.157E+04   0.202E+00 -.933E-01 -.473E+01
   -.742E+00 -.756E+00 -.511E+03   0.746E+00 0.766E+00 0.511E+03   -.109E-01 -.155E-01 0.343E+00
   -.110E+00 -.449E+00 -.511E+03   0.114E+00 0.475E+00 0.511E+03   -.606E-02 -.384E-01 0.286E+00
   0.849E-01 0.123E-01 0.191E+02   0.156E-12 0.355E-14 -.318E-11   -.776E-01 -.106E-01 -.168E+02

 POSITION                                       TOTAL-FORCE (eV/Angst)
      0.00000      6.33074      7.50000        -0.000311     -0.000235      0.465913
      2.11025      0.00000      7.50000         0.000275     -0.000240      0.468200
      0.00000      0.00000      9.61025         0.003434      0.003143      0.041679
      2.11025      6.33074      9.61025         0.009975      0.003487      0.048659
      8.44059      6.33133     11.73580        -0.004432     -0.004044      0.011066
      2.10991      8.44098     11.73529         0.007904     -0.000872      0.030581
      0.00061      0.00069     13.83986         0.034963      0.034438     -0.091648
      2.10939      6.32951     13.83826         0.048089      0.020302     -0.056921
      0.00000      2.11025      7.50000        -0.000234      0.000230      0.468043
      2.11025      4.22049      7.50000         0.000148      0.000219      0.465953
      0.00000      4.22049      9.61025        -0.011244     -0.002544      0.044726
      2.11025      2.11025      9.61025        -0.003089     -0.003648      0.044222
      0.00003      2.11008     11.73535        -0.001473      0.007028      0.029777
      2.10812      4.22029     11.73396         0.008445     -0.002186      0.021230
      0.00002      4.22192     13.83941        -0.027126     -0.037213     -0.071374
      2.10972      2.10998     13.84251        -0.016187     -0.020542     -0.098578
      4.22049      6.33074      7.50000         0.000434     -0.000280      0.469959
      6.33074      0.00000      7.50000        -0.000270     -0.000326      0.465891
      4.22049      0.00000      9.61025        -0.002792     -0.010402      0.045052
      6.33074      6.33074      9.61025        -0.005533     -0.005657      0.052058
      4.22269      6.33059     11.73822         0.001422     -0.005583      0.038310
      6.33150      8.44057     11.73577        -0.005129     -0.003862      0.011454
      4.22197      0.00054     13.83809        -0.038509     -0.028247     -0.061537
      6.33951      6.33914     13.85651        -0.115142     -0.107495     -0.174161
      4.22049      2.11025      7.50000         0.000225      0.000115      0.466077
      6.33074      4.22049      7.50000        -0.000338      0.000427      0.469966
      4.22049      4.22049      9.61025         0.005462      0.005634      0.049879
      6.33074      2.11025      9.61025         0.003023      0.010049      0.048651
      4.22024      2.10842     11.73384        -0.002463      0.007393      0.022919
      6.33046      4.22272     11.73823        -0.006446      0.001822      0.038027
      4.21154      4.21193     13.83269         0.093614      0.092331     -0.005378
      6.32964      2.10963     13.83826         0.013611      0.045544     -0.054732
      0.00000      6.33074      9.61025        -0.001778      0.001044      0.069980
      2.11025      0.00000      9.61025        -0.000602      0.001810      0.059252
      0.00000      0.00000      7.50000        -0.000426     -0.000376     -0.434297
      2.11025      6.33074      7.50000        -0.001270     -0.000538     -0.434813
      0.00422      6.33154     13.87979        -0.041150      0.012051     -0.053844
      2.11117      8.44081     13.88876        -0.019766      0.005844     -0.136960
      0.00116      0.00112     11.72909        -0.009980     -0.009443      0.029280
      2.11224      6.33097     11.72881        -0.020078     -0.004544      0.030442
      0.00000      2.11025      9.61025         0.001719     -0.000053      0.060235
      2.11025      4.22049      9.61025        -0.005463     -0.002249      0.063842
      0.00000      4.22049      7.50000         0.001296      0.000372     -0.434802
      2.11025      2.11025      7.50000         0.000409      0.000511     -0.434333
      8.44076      2.11124     13.88849         0.004456     -0.015317     -0.132983
      2.10789      4.21954     13.88086        -0.002204     -0.007238     -0.096055
      8.43911      4.21985     11.72985         0.010956      0.011930      0.023866
      2.10990      2.10975     11.72982        -0.000704      0.001804      0.016936
      4.22049      6.33074      9.61025         0.006570     -0.000959      0.062530
      6.33074      0.00000      9.61025         0.001655     -0.001646      0.070011
      4.22049      0.00000      7.50000         0.000435      0.001282     -0.434868
      6.33074      6.33074      7.50000         0.001470      0.001459     -0.435576
      4.21965      6.32823     13.89557         0.011832      0.038035     -0.169490
      6.33152      0.00449     13.87921         0.015309     -0.041996     -0.052782
      4.21982      8.43956     11.72954         0.012051      0.010065      0.023071
      6.33011      6.33006     11.73375         0.017447      0.016602      0.014059
      4.22049      2.11025      9.61025        -0.002131     -0.004301      0.062760
      6.33074      4.22049      9.61025        -0.001043      0.006471      0.062342
      4.22049      4.22049      7.50000        -0.001591     -0.001529     -0.435257
      6.33074      2.11025      7.50000        -0.000422     -0.001261     -0.434754
      4.21933      2.10811     13.88220        -0.007838     -0.001159     -0.106546
      6.32670      4.21994     13.89684         0.051885      0.011194     -0.174827
      4.22034      4.22036     11.72949        -0.008346     -0.008233      0.018606
      6.33079      2.11237     11.72890        -0.003001     -0.018417      0.031009
    total drift:                                0.000442      0.000732     -0.001552

  FREE ENERGIE OF THE ION-ELECTRON SYSTEM (eV)
  free  energy   TOTEN  =      -438.43030346 eV

  energy  without entropy=     -438.43030346  energy(sigma->0) =     -438.43030346