 vasp.6.3.0 20Jan22 (build Mar 11 2022 13:48:16) complex

 executed on             LinuxIFC date 2024.08.21  17:47:27

 INCAR:
   SYSTEM = MgO-rocksalt
   ISMEAR = 0
   SIGMA = 0.05
   EDIFF = 1E-7
   ALGO = Normal
   ISTART = 0
   IBRION = 2
   NSW = 1000
   ISYM = 2
   ISIF = 3
   EDIFFG = -0.005
   METAGGA = R2SCAN
   LUSE_VDW = .TRUE.
   BPARAM = 11.95
   CPARAM = 0.0093
   LASPH = .TRUE.
   ENCUT = 600
   PREC = Accurate
   LASPH = .TRUE.
   LREAL = .FALSE.
   ISPIN = 1
   NELM = 200
   NELMIN = 8
   NCORE = 8
   KPAR = 1
   LWAVE = .FALSE.
   LCHARG = .FALSE.

 POTCAR:    PAW_PBE Ti_pv 07Sep2000
 POTCAR:    PAW_PBE O 08Apr2002
|           W    W    AA    RRRRR   N    N  II  N    N   GGGG   !!!           |
|           W    W   A  A   R    R  NN   N  II  NN   N  G    G  !!!           |
|           W    W  A    A  R    R  N N  N  II  N N  N  G       !!!           |
|           W WW W  AAAAAA  RRRRR   N  N N  II  N  N N  G  GGG   !            |
|           WW  WW  A    A  R   R   N   NN  II  N   NN  G    G                |
|           W    W  A    A  R    R  N    N  II  N    N   GGGG   !!!           |
|     For optimal performance we recommend to set                             |
|       NCORE = 2 up to number-of-cores-per-socket                            |
|     This setting can greatly improve the performance of VASP for DFT.       |
|     The default, NCORE=1 might be grossly inefficient on modern             |
|     multi-core architectures or massively parallel machines. Do your        |
|     Unfortunately you need to use the default for GW and RPA                |
|     calculations (for HF NCORE is supported but not extensively tested      |
|     yet).                                                                   |

   TITEL  = PAW_PBE Ti_pv 07Sep2000
   POMASS =   47.880; ZVAL   =   10.000    mass and valenz
   ENMAX  =  222.335; ENMIN  =  166.751 eV

   TITEL  = PAW_PBE O 08Apr2002
   POMASS =   16.000; ZVAL   =    6.000    mass and valenz
   ENMAX  =  400.000; ENMIN  =  300.000 eV

  PAW_PBE Ti_pv 07Sep2000               :
  PAW_PBE O 08Apr2002                   :

 POSCAR: Ti4 O8
  positions in direct lattice
  velocities in cartesian coordinates

 METAGGA = R2SCA    LMAXTAU =  6    LMIXTAU =  F

 ion  position               nearest neighbor table
   1  0.500  0.500  0.500-   5 1.93   7 1.93   5 1.93   7 1.93   6 1.99  12 1.99   4 3.04   4 3.04
                             2 3.04   2 3.04
   2  0.500  0.000  0.750-   8 1.93   8 1.93   6 1.93   6 1.93   7 1.99   9 1.99   3 3.04   3 3.04
                             1 3.04   1 3.04
   3  0.000  0.000  0.000-   9 1.93  11 1.93   9 1.93  11 1.93  10 1.99   8 1.99   2 3.04   2 3.04
                             4 3.04   4 3.04
   4  0.000  0.500  0.250-  12 1.93  12 1.93  10 1.93  10 1.93  11 1.99   5 1.99   1 3.04   1 3.04
                             3 3.04   3 3.04
   5  0.000  0.500  0.458-   1 1.93   1 1.93   4 1.99
   6  0.500  0.500  0.708-   2 1.93   2 1.93   1 1.99
   7  0.500  0.000  0.542-   1 1.93   1 1.93   2 1.99
   8  0.000  0.000  0.792-   2 1.93   2 1.93   3 1.99
   9  0.500  0.000  0.958-   3 1.93   3 1.93   2 1.99
  10  0.000  0.000  0.208-   4 1.93   4 1.93   3 1.99
  11  0.000  0.500  0.042-   3 1.93   3 1.93   4 1.99
  12  0.500  0.500  0.292-   4 1.93   4 1.93   1 1.99

  LATTYP: Found a simple tetragonal cell.
 ALAT       =     3.7852366948
 C/A-ratio  =     2.5180437024

  Lattice vectors:

 A1 = (   3.7852366948,   0.0000000000,   0.0000000000)
 A2 = (   0.0000000000,   3.7852366948,   0.0000000000)
 A3 = (   0.0000000000,   0.0000000000,   9.5313914214)

Analysis of symmetry for initial positions (statically):
 Subroutine PRICEL returns following result:

  LATTYP: Found a body centered tetragonal cell.
 ALAT       =     3.7852366948
 C/A-ratio  =     2.5180437024

[...]

   2 primitive cells build up your supercell.

 Routine SETGRP: Setting up the symmetry group for a
 simple tetragonal supercell.

 Subroutine GETGRP returns: Found 16 space group operations
 (whereof  8 operations were pure point group operations)
 out of a pool of 16 trial point group operations.

The static configuration has the point symmetry D_2d.
 The point group associated with its full space group is D_4h.

Analysis of symmetry for dynamics (positions and initial velocities):
 Subroutine PRICEL returns following result:

  LATTYP: Found a body centered tetragonal cell.
 ALAT       =     3.7852366948
 C/A-ratio  =     2.5180437024

  Lattice vectors:

 A1 = (  -1.8926183474,   1.8926183474,   4.7656957107)
 A2 = (   1.8926183474,  -1.8926183474,   4.7656957107)
 A3 = (   1.8926183474,   1.8926183474,  -4.7656957107)

   2 primitive cells build up your supercell.

 Routine SETGRP: Setting up the symmetry group for a
 simple tetragonal supercell.

 Subroutine GETGRP returns: Found 16 space group operations
 (whereof  8 operations were pure point group operations)
 out of a pool of 16 trial point group operations.

The dynamic configuration has the point symmetry D_2d.
 The point group associated with its full space group is D_4h.

 Subroutine INISYM returns: Found 16 space group operations
 (whereof  8 operations are pure point group operations),
 and found     2 'primitive' translations

                                     Primitive cell

  volume of cell :      68.2830

  direct lattice vectors                    reciprocal lattice vectors
    -1.892618347  1.892618347  4.765695711    -0.000000000  0.264184272  0.104916476
     1.892618347 -1.892618347  4.765695711     0.264184272 -0.000000000  0.104916476
     1.892618347  1.892618347 -4.765695711     0.264184272  0.264184272  0.000000000

  length of vectors
     5.465881816  5.465881816  5.465881816     0.284254809  0.284254809  0.373612980

  position of ions in fractional coordinates (direct lattice)
     1.000000000  0.000000000  0.000000000
     0.750000000  0.250000000  0.500000000
     0.958285138  0.458285138  0.500000000
     0.208285138  0.208285138  0.000000000
     0.541714862  0.041714862  0.500000000
     0.791714862  0.791714862  0.000000000

  ion indices of the primitive-cell ions
   primitive index   ion index
                 1           1
                 2           2
                 3           5
                 4           6
                 5           7
                 6          12

 KPOINTS: pymatgen v2020.8.13 with grid density =

Automatic generation of k-mesh.
 Grid dimensions read from file:
 generate k-points for:    6    6    2

 Generating k-lattice:

  Cartesian coordinates                     Fractional coordinates (reciprocal lattice)
     0.044030712 -0.000000000  0.000000000     0.166666667 -0.000000000  0.000000000
     0.000000000  0.044030712  0.000000000     0.000000000  0.166666667  0.000000000
    -0.000000000 -0.000000000  0.052458238    -0.000000000 -0.000000000  0.500000000

  Length of vectors
     0.044030712  0.044030712  0.052458238

  Shift w.r.t. Gamma in fractional coordinates (k-lattice)
     0.000000000  0.000000000  0.000000000

 Subroutine IBZKPT returns following result:

 Found     20 irreducible k-points:

 Following reciprocal coordinates:
            Coordinates               Weight
  0.000000  0.000000  0.000000      1.000000
  0.166667  0.000000  0.000000      4.000000
  0.333333  0.000000  0.000000      4.000000
  0.500000  0.000000  0.000000      2.000000
  0.166667  0.166667  0.000000      4.000000
  0.333333  0.166667  0.000000      8.000000
  0.500000  0.166667  0.000000      4.000000
  0.333333  0.333333  0.000000      4.000000
  0.500000  0.333333  0.000000      4.000000
  0.500000  0.500000  0.000000      1.000000
 -0.000000  0.000000  0.500000      1.000000
  0.166667  0.000000  0.500000      4.000000
  0.333333  0.000000  0.500000      4.000000
  0.500000  0.000000  0.500000      2.000000
  0.166667  0.166667  0.500000      4.000000
  0.333333  0.166667  0.500000      8.000000
  0.500000  0.166667  0.500000      4.000000
  0.333333  0.333333  0.500000      4.000000
  0.500000  0.333333  0.500000      4.000000
  0.500000  0.500000  0.500000      1.000000

 Following cartesian coordinates:
            Coordinates               Weight
  0.000000  0.000000  0.000000      1.000000
  0.044031 -0.000000  0.000000      4.000000
  0.088061 -0.000000  0.000000      4.000000
  0.132092 -0.000000  0.000000      2.000000
  0.044031  0.044031  0.000000      4.000000
  0.088061  0.044031  0.000000      8.000000
  0.132092  0.044031  0.000000      4.000000
  0.088061  0.088061  0.000000      4.000000
  0.132092  0.088061  0.000000      4.000000
  0.132092  0.132092  0.000000      1.000000
 -0.000000 -0.000000  0.052458      1.000000
  0.044031 -0.000000  0.052458      4.000000
  0.088061 -0.000000  0.052458      4.000000
  0.132092 -0.000000  0.052458      2.000000
  0.044031  0.044031  0.052458      4.000000
  0.088061  0.044031  0.052458      8.000000
  0.132092  0.044031  0.052458      4.000000
  0.088061  0.088061  0.052458      4.000000
  0.132092  0.088061  0.052458      4.000000
  0.132092  0.132092  0.052458      1.000000

 SYSTEM =  MgO-rocksalt
 POSCAR =  Ti4 O8

  energy-cutoff  :      600.00
  volume of cell :      136.57
      direct lattice vectors                 reciprocal lattice vectors
     3.785236695  0.000000000  0.000000000     0.264184272 -0.000000000  0.000000000
     0.000000000  3.785236695  0.000000000     0.000000000  0.264184272  0.000000000
     0.000000000  0.000000000  9.531391421    -0.000000000 -0.000000000  0.104916476

[...]

 k-points in units of 2pi/SCALE and weight: pymatgen v2020.8.13 with grid density =
   0.00000000  0.00000000  0.00000000       0.014
   0.04403071 -0.00000000  0.00000000       0.056
   0.08806142 -0.00000000  0.00000000       0.056
   0.13209214 -0.00000000  0.00000000       0.028
   0.04403071  0.04403071  0.00000000       0.056
   0.08806142  0.04403071  0.00000000       0.111
   0.13209214  0.04403071  0.00000000       0.056
   0.08806142  0.08806142  0.00000000       0.056
   0.13209214  0.08806142  0.00000000       0.056
   0.13209214  0.13209214  0.00000000       0.014
  -0.00000000 -0.00000000  0.05245824       0.014
   0.04403071 -0.00000000  0.05245824       0.056
   0.08806142 -0.00000000  0.05245824       0.056
   0.13209214 -0.00000000  0.05245824       0.028
   0.04403071  0.04403071  0.05245824       0.056
   0.08806142  0.04403071  0.05245824       0.111
   0.13209214  0.04403071  0.05245824       0.056
   0.08806142  0.08806142  0.05245824       0.056
   0.13209214  0.08806142  0.05245824       0.056
   0.13209214  0.13209214  0.05245824       0.014

 k-points in reciprocal lattice and weights: pymatgen v2020.8.13 with grid density =
   0.00000000  0.00000000  0.00000000       0.014
   0.16666667  0.00000000  0.00000000       0.056
   0.33333333  0.00000000  0.00000000       0.056
   0.50000000  0.00000000  0.00000000       0.028
   0.16666667  0.16666667  0.00000000       0.056
   0.33333333  0.16666667  0.00000000       0.111
   0.50000000  0.16666667  0.00000000       0.056
   0.33333333  0.33333333  0.00000000       0.056
   0.50000000  0.33333333  0.00000000       0.056
   0.50000000  0.50000000  0.00000000       0.014
  -0.00000000  0.00000000  0.50000000       0.014
   0.16666667  0.00000000  0.50000000       0.056
   0.33333333  0.00000000  0.50000000       0.056
   0.50000000  0.00000000  0.50000000       0.028
   0.16666667  0.16666667  0.50000000       0.056
   0.33333333  0.16666667  0.50000000       0.111
   0.50000000  0.16666667  0.50000000       0.056
   0.33333333  0.33333333  0.50000000       0.056
   0.50000000  0.33333333  0.50000000       0.056
   0.50000000  0.50000000  0.50000000       0.014

 position of ions in fractional coordinates (direct lattice)
   0.50000000  0.50000000  0.50000000
   0.50000000  0.00000000  0.75000000
   0.00000000  0.00000000  0.00000000
   0.00000000  0.50000000  0.25000000
   0.00000000  0.50000000  0.45828514
   0.50000000  0.50000000  0.70828514
   0.50000000  0.00000000  0.54171486
   0.00000000  0.00000000  0.79171486
   0.50000000  0.00000000  0.95828514
   0.00000000  0.00000000  0.20828514
   0.00000000  0.50000000  0.04171486
   0.50000000  0.50000000  0.29171486

 position of ions in cartesian coordinates  (Angst):
   1.89261835  1.89261835  4.76569571
   1.89261835  0.00000000  7.14854357
   0.00000000  0.00000000  0.00000000
   0.00000000  1.89261835  2.38284786
   0.00000000  1.89261835  4.36809503
   1.89261835  1.89261835  6.75094289
   1.89261835  0.00000000  5.16329639
   0.00000000  0.00000000  7.54614424
   1.89261835  0.00000000  9.13379074
   0.00000000  0.00000000  1.98524718
   0.00000000  1.89261835  0.39760068
   1.89261835  1.89261835  2.78044853

--------------------------------------- Iteration      FINAL  ---------------------------------------

--------------------OUTCAR has been truncated-------------------------

[...]

--------------------OUTCAR has been truncated-------------------------

  FORCE on cell =-STRESS in cart. coord.  units (eV):
  Direction    XX          YY          ZZ          XY          YZ          ZX
  Alpha Z   400.46833   400.46833   400.46833
  Ewald   -2003.46324 -2003.46324 -1412.91080     0.00000    -0.00000    -0.00000
  Hartree   567.40656   567.40656   930.57154    -0.00000    -0.00000    -0.00000
  E(xc)    -457.36132  -456.86060  -457.11923    -0.03813     0.00000    -0.00000
  Local      43.68076    43.68076  -902.58747    -0.00000    -0.00000    -0.00000
  n-local  -259.71288  -254.06259  -259.24411    -0.01168    -0.00000     0.00000
  augment   275.90108   275.90108   275.43081     0.00000    -0.00000     0.00000
  Kinetic  1422.80662  1437.23925  1425.38627    -1.21595     0.00000    -0.00000
  Fock        0.00000     0.00000     0.00000     0.00000     0.00000     0.00000
  Total       0.01773     0.01773    -0.00467     0.00000     0.00000     0.00000
  in kB       0.20800     0.20800    -0.05476     0.00000     0.00000     0.00000

 VOLUME and BASIS-vectors are now :
  energy-cutoff  :      600.00
  volume of cell :      136.57
      direct lattice vectors                 reciprocal lattice vectors
     3.785236695  0.000000000  0.000000000     0.264184272 -0.000000000  0.000000000
     0.000000000  3.785236695  0.000000000     0.000000000  0.264184272  0.000000000
     0.000000000  0.000000000  9.531391421    -0.000000000 -0.000000000  0.104916476

  length of vectors
     3.785236695  3.785236695  9.531391421     0.264184272  0.264184272  0.104916476

 FORCES acting on ions
    electron-ion (+dipol)            ewald-force                    non-local-force                 convergence-correction
   0.127E-12 -.186E-11 -.267E-12   -.132E-12 0.119E-12 0.171E-12   -.605E-23 0.192E-24 -.127E-16   0.881E-13 0.115E-12 0.176E-13
   0.156E-12 0.237E-12 0.821E-13   0.148E-12 -.109E-12 -.117E-12   -.407E-23 -.147E-23 0.390E-17   -.313E-12 0.111E-12 -.310E-12
   0.203E-13 -.271E-12 -.378E-12   -.133E-12 0.118E-12 0.142E-12   -.525E-23 -.441E-24 0.428E-17   0.379E-12 0.990E-13 0.166E-13
   0.168E-13 0.372E-12 0.215E-12   0.148E-12 -.108E-12 -.242E-12   0.940E-23 -.106E-23 0.131E-17   -.416E-13 0.109E-12 0.308E-12
   0.148E-13 0.249E-12 -.870E+02   0.161E-12 0.292E-13 0.943E+02   -.405E-22 0.682E-23 -.721E+01   -.519E-13 0.713E-13 -.201E-03
   0.123E-12 0.607E-12 -.870E+02   0.325E-13 0.139E-12 0.943E+02   0.147E-21 -.695E-23 -.721E+01   -.135E-12 -.223E-13 -.201E-03
   0.130E-12 -.160E-12 0.870E+02   -.332E-13 -.148E-12 -.943E+02   -.252E-21 0.216E-22 0.721E+01   0.616E-13 -.118E-13 0.201E-03
   0.339E-13 -.665E-13 0.870E+02   -.189E-12 -.250E-13 -.943E+02   0.314E-22 0.174E-22 0.721E+01   0.284E-12 0.101E-12 0.201E-03
   0.658E-13 0.759E-13 -.870E+02   0.167E-12 0.268E-13 0.943E+02   -.140E-22 0.174E-22 -.721E+01   -.267E-12 0.920E-13 -.201E-03
   0.678E-14 0.151E-12 -.870E+02   0.330E-13 0.137E-12 0.943E+02   0.233E-21 0.965E-23 -.721E+01   -.195E-13 -.224E-13 -.201E-03
   0.445E-14 -.158E-13 0.870E+02   -.328E-13 -.150E-12 -.943E+02   -.262E-21 -.590E-23 0.721E+01   0.150E-12 0.309E-14 0.201E-03
   0.862E-13 -.111E-11 0.870E+02   -.183E-12 -.269E-13 -.943E+02   -.435E-23 -.419E-23 0.721E+01   0.819E-13 0.975E-13 0.201E-03
   0.785E-12 -.179E-11 0.748E-13   -.130E-13 0.228E-14 0.000E+00   -.167E-21 0.531E-22 -.888E-15   0.217E-12 0.743E-12 0.229E-12

 POSITION                                       TOTAL-FORCE (eV/Angst)
      1.89262      1.89262      4.76570         0.000000      0.000000     -0.000000
      1.89262      0.00000      7.14854        -0.000000     -0.000000     -0.000000
      0.00000      0.00000      0.00000         0.000000      0.000000     -0.000000
      0.00000      1.89262      2.38285        -0.000000     -0.000000     -0.000000
      0.00000      1.89262      4.36810        -0.000000      0.000000     -0.001141
      1.89262      1.89262      6.75094         0.000000      0.000000     -0.001141
      1.89262      0.00000      5.16330        -0.000000     -0.000000      0.001141
      0.00000      0.00000      7.54614         0.000000     -0.000000      0.001141
      1.89262      0.00000      9.13379        -0.000000      0.000000     -0.001141
      0.00000      0.00000      1.98525        -0.000000      0.000000     -0.001141
      0.00000      1.89262      0.39760         0.000000     -0.000000      0.001141
      1.89262      1.89262      2.78045         0.000000     -0.000000      0.001141
    total drift:                                0.000000     -0.000000      0.000000

  FREE ENERGIE OF THE ION-ELECTRON SYSTEM (eV)
  free  energy   TOTEN  =      -136.88823094 eV

  energy  without entropy=     -136.88823094  energy(sigma->0) =     -136.88823094

 reached required accuracy - stopping structural energy minimisation