 vasp.6.3.0 20Jan22 (build Apr  1 2022 16:44:48) gamma-only
 executed on        HPECrayEX_GCC date 2023.02.22  15:52:16

 INCAR:
   SYSTEM = MgO-rocksalt
   ISMEAR = 0
   SIGMA = 0.05
   EDIFF = 1E-6
   ALGO = ALL
   ISTART = 0
   NSW = 0
   ISYM = 0
   ISIF = 2
   EDIFFG = -0.01
   DIPOL = 0.5 0.5 0.5
   IDIPOL = 3
   LDIPOL = .TRUE.
   GGA = MK
   LUSE_VDW = .TRUE.
   PARAM1 = 0.1234
   PARAM2 = 0.711357
   ZAB_VDW = -1.8867
   AGGAC = 0.0
   ENCUT = 520
   PREC = Accurate
   LASPH = .TRUE.
   LREAL = Auto
   ISPIN = 1
   NELM = 200
   NELMIN = 8
   NCORE = 8
   KPAR = 1
   LWAVE = .FALSE.
   LCHARG = .FALSE.

 POTCAR:    PAW_PBE Mg_pv 13Apr2007
 POTCAR:    PAW_PBE O 08Apr2002
|               ----> ADVICE to this user running VASP <----                  |
|     You have switched on vdW-DFT.                                           |
|     This routine was written and supplied by Jiri Klimes. We recommend      |
|     that you carefully read and cite the following publications:            |
|       J. Klimes, D.R. Bowler, A. Michelides                                 |
|          J. Phys.: Cond Matt. 22 022201 (2010)                              |
|       J. Klimes, D.R. Bowler, A. Michelides                                 |
|          Phys. Rev. B. 83, 195131 (2011)                                    |
|     and references therein.                                                 |

   TITEL  = PAW_PBE Mg_pv 13Apr2007
   POMASS =   24.305; ZVAL   =    8.000    mass and valenz
   ENMAX  =  403.929; ENMIN  =  302.947 eV

   TITEL  = PAW_PBE O 08Apr2002
   POMASS =   16.000; ZVAL   =    6.000    mass and valenz
   ENMAX  =  400.000; ENMIN  =  300.000 eV

 Optimization of the real space projectors (new method)

 maximal supplied QI-value         = 18.90
 optimisation between [QCUT,QGAM] = [ 11.53, 23.24] = [ 37.21,151.29] Ry
 Optimized for a Real-space Cutoff    1.28 Angstroem

   l    n(q)    QCUT    max X(q) W(low)/X(q) W(high)/X(q)  e(spline)
   1      8    11.527     2.974    0.44E-04    0.56E-04    0.12E-06
   1      8    11.527     4.279    0.12E-03    0.12E-03    0.26E-06
   0      9    11.527    16.381    0.46E-04    0.64E-04    0.78E-07
   0      9    11.527     5.611    0.26E-04    0.43E-04    0.55E-07
   2      8    11.527     4.652    0.22E-03    0.72E-04    0.47E-07
 Optimization of the real space projectors (new method)

 maximal supplied QI-value         = 24.76
 optimisation between [QCUT,QGAM] = [ 11.64, 23.27] = [ 37.91,151.63] Ry
 Optimized for a Real-space Cutoff    1.14 Angstroem

   l    n(q)    QCUT    max X(q) W(low)/X(q) W(high)/X(q)  e(spline)
   0      8    11.635    20.381    0.10E-03    0.33E-03    0.24E-06
   0      8    11.635    15.268    0.11E-03    0.35E-03    0.26E-06
   1      7    11.635     5.964    0.24E-03    0.31E-03    0.30E-06
   1      7    11.635     5.382    0.22E-03    0.25E-03    0.26E-06
|               ----> ADVICE to this user running VASP <----                  |
|     You enforced a specific xc type in the INCAR file but a different       |
|     type was found in the POTCAR file.                                      |
|     I HOPE YOU KNOW WHAT YOU ARE DOING!                                     |

  PAW_PBE Mg_pv 13Apr2007               :
  PAW_PBE O 08Apr2002                   :

 POSCAR: Mg  O
  positions in direct lattice
  velocities in cartesian coordinates
 exchange correlation table for  LEXCH =       43
   RHO(1)=    0.500       N(1)  =     2000
   RHO(2)=  100.500       N(2)  =     4000

 ion  position               nearest neighbor table
   1  0.125  0.000  0.352- 129 2.11 131 2.11 132 2.11 148 2.11 171 2.11
   2  0.250  0.125  0.352- 130 2.11 131 2.11 132 2.11 140 2.11 147 2.11
   3  0.125  0.125  0.451- 131 2.11 130 2.11 129 2.11 137 2.11 146 2.11 135 2.11
   4  0.250  0.000  0.451- 132 2.11 130 2.11 129 2.11 145 2.11 170 2.11 136 2.11
   5  0.125  1.000  0.550- 152 2.11 136 2.11 175 2.11 135 2.11 129 2.12 133 2.13
   6  0.250  0.125  0.550- 144 2.11 151 2.11 135 2.11 136 2.11 130 2.12 134 2.13
   7  0.125  0.125  0.648- 135 2.10 141 2.11 134 2.11 133 2.11 150 2.11
   8  0.250  0.000  0.648- 136 2.10 149 2.11 133 2.11 134 2.11 174 2.11
   9  0.125  0.250  0.352- 137 2.11 131 2.11 139 2.11 140 2.11 156 2.11
  10  0.250  0.375  0.352- 138 2.11 139 2.11 140 2.11 155 2.11 164 2.11
  11  0.125  0.375  0.451- 139 2.11 138 2.11 137 2.11 154 2.11 161 2.11 143 2.11
  12  0.250  0.250  0.451- 140 2.11 137 2.11 138 2.11 130 2.11 153 2.11 144 2.11
  13  0.125  0.250  0.550- 144 2.11 143 2.11 135 2.11 160 2.11 137 2.12 141 2.13
  14  0.250  0.375  0.550- 144 2.11 143 2.11 159 2.11 168 2.11 138 2.12 142 2.13
  15  0.125  0.375  0.648- 143 2.10 142 2.11 141 2.11 158 2.11 165 2.11
  16  0.250  0.250  0.648- 144 2.10 134 2.11 141 2.11 142 2.11 157 2.11
  17  0.375  0.000  0.352- 145 2.11 132 2.11 147 2.11 187 2.11 212 2.11
  18  0.000  0.125  0.352- 146 2.11 131 2.11 148 2.11 156 2.11 211 2.11
  19  0.375  0.125  0.451- 147 2.11 145 2.11 130 2.11 153 2.11 210 2.11 151 2.11
  20  0.000  0.000  0.451- 148 2.11 146 2.11 129 2.11 186 2.11 209 2.11 152 2.11
  21  0.375  1.000  0.550- 216 2.11 136 2.11 191 2.11 151 2.11 145 2.12 149 2.13
  22  1.000  0.125  0.550- 152 2.11 160 2.11 215 2.11 135 2.11 146 2.12 150 2.13
  23  0.375  0.125  0.648- 151 2.10 157 2.11 134 2.11 149 2.11 214 2.11
  24  1.000  0.000  0.648- 152 2.10 213 2.11 133 2.11 190 2.11 150 2.11
  25  0.375  0.250  0.352- 153 2.11 147 2.11 140 2.11 155 2.11 220 2.11
  26  0.000  0.375  0.352- 154 2.11 139 2.11 156 2.11 180 2.11 219 2.11
  27  0.375  0.375  0.451- 155 2.11 153 2.11 138 2.11 177 2.11 218 2.11 159 2.11
  28  0.000  0.250  0.451- 156 2.11 146 2.11 154 2.11 137 2.11 217 2.11 160 2.11
  29  0.375  0.250  0.550- 144 2.11 151 2.11 159 2.11 224 2.11 153 2.12 157 2.13
  30  0.000  0.375  0.550- 184 2.11 160 2.11 143 2.11 223 2.11 154 2.12 158 2.13
  31  0.375  0.375  0.648- 159 2.10 142 2.11 157 2.11 222 2.11 181 2.11
  32  0.000  0.250  0.648- 160 2.10 150 2.11 158 2.11 141 2.11 221 2.11
  33  0.125  0.500  0.352- 161 2.11 139 2.11 163 2.11 164 2.11 180 2.11
  34  0.250  0.625  0.352- 162 2.11 163 2.11 164 2.11 172 2.11 179 2.11
  35  0.125  0.625  0.451- 163 2.11 162 2.11 161 2.11 169 2.11 178 2.11 167 2.11
  36  0.250  0.500  0.451- 164 2.11 161 2.11 162 2.11 138 2.11 177 2.11 168 2.11
  37  0.125  0.500  0.550- 184 2.11 168 2.11 167 2.11 143 2.11 161 2.12 165 2.13
  38  0.250  0.625  0.550- 176 2.11 167 2.11 183 2.11 168 2.11 162 2.12 166 2.13
  39  0.125  0.625  0.648- 167 2.10 173 2.11 166 2.11 165 2.11 182 2.11
  40  0.250  0.500  0.648- 168 2.10 165 2.11 181 2.11 166 2.11 142 2.11
  41  0.125  0.750  0.352- 169 2.11 163 2.11 171 2.11 172 2.11 188 2.11
  42  0.250  0.875  0.352- 170 2.11 132 2.11 171 2.11 172 2.11 187 2.11
  43  0.125  0.875  0.451- 171 2.11 169 2.11 170 2.11 129 2.11 186 2.11 175 2.11
  44  0.250  0.750  0.451- 172 2.11 169 2.11 170 2.11 162 2.11 185 2.11 176 2.11
  45  0.125  0.750  0.550- 176 2.11 167 2.11 175 2.11 192 2.11 169 2.12 173 2.13
  46  0.250  0.875  0.550- 176 2.11 191 2.11 175 2.11 136 2.11 170 2.12 174 2.13
  47  0.125  0.875  0.648- 175 2.10 174 2.11 173 2.11 190 2.11 133 2.11
  48  0.250  0.750  0.648- 176 2.10 189 2.11 174 2.11 166 2.11 173 2.11
  49  0.375  0.500  0.352- 177 2.11 164 2.11 155 2.11 179 2.11 244 2.11
  50  0.000  0.625  0.352- 178 2.11 163 2.11 180 2.11 188 2.11 243 2.11
  51  0.375  0.625  0.451- 179 2.11 177 2.11 162 2.11 185 2.11 242 2.11 183 2.11
  52  0.000  0.500  0.451- 180 2.11 161 2.11 178 2.11 154 2.11 241 2.11 184 2.11
  53  0.375  0.500  0.550- 248 2.11 168 2.11 159 2.11 183 2.11 177 2.12 181 2.13
  54  1.000  0.625  0.550- 184 2.11 192 2.11 167 2.11 247 2.11 178 2.12 182 2.13
  55  0.375  0.625  0.648- 183 2.10 189 2.11 166 2.11 181 2.11 246 2.11
  56  0.000  0.500  0.648- 184 2.10 182 2.11 165 2.11 245 2.11 158 2.11
  57  0.375  0.750  0.352- 185 2.11 179 2.11 172 2.11 187 2.11 252 2.11
  58  0.000  0.875  0.352- 186 2.11 171 2.11 148 2.11 188 2.11 251 2.11
  59  0.375  0.875  0.451- 187 2.11 170 2.11 185 2.11 145 2.11 250 2.11 191 2.11
  60  0.000  0.750  0.451- 188 2.11 178 2.11 186 2.11 169 2.11 249 2.11 192 2.11
[...]
 242  0.500  0.625  0.451- 114 2.11  99 2.11  51 2.11 116 2.11 124 2.11 118 2.12
 243  0.875  0.625  0.352- 115 2.11  98 2.11 113 2.11  50 2.11 121 2.11
 244  0.500  0.500  0.352- 116 2.11  90 2.11  97 2.11 114 2.11  49 2.11
 245  0.875  0.500  0.650- 104 2.11 119 2.11  95 2.11  56 2.11 117 2.13
 246  0.500  0.625  0.650- 128 2.11  55 2.11 103 2.11 120 2.11 118 2.13
 247  0.875  0.625  0.549- 119 2.10 102 2.11 125 2.11 117 2.11  54 2.11 115 2.11
 248  0.500  0.500  0.550- 120 2.10  53 2.11  94 2.11 101 2.11 118 2.11 116 2.11
 249  0.875  0.750  0.451- 121 2.11 108 2.11 115 2.11  60 2.11 123 2.11 125 2.12
 250  0.500  0.875  0.451- 122 2.11  84 2.11 107 2.11  59 2.11 124 2.11 126 2.12
 251  0.875  0.875  0.352- 123 2.11  81 2.11 106 2.11 121 2.11  58 2.11
 252  0.500  0.750  0.352- 124 2.11 105 2.11 114 2.11 122 2.11  57 2.11
 253  0.875  0.750  0.650- 119 2.11 127 2.11  64 2.11 112 2.11 125 2.13
 254  0.500  0.875  0.650- 128 2.11 111 2.11  63 2.11  88 2.11 126 2.13
 255  0.875  0.875  0.549- 127 2.10 125 2.11 110 2.11  62 2.11  85 2.11 123 2.11
 256  0.500  0.750  0.549- 128 2.10 118 2.11 126 2.11 109 2.11  61 2.11 124 2.11

IMPORTANT INFORMATION: All symmetrisations will be switched off!
NOSYMM: (Re-)initialisation of all symmetry stuff for point group C_1.

                                     Primitive cell

  volume of cell :    6078.6138

  direct lattice vectors                    reciprocal lattice vectors
    16.881164524  0.000000000  0.000000000     0.059237619  0.000000000  0.000000000
     0.000000000 16.881164524  0.000000000     0.000000000  0.059237619  0.000000000
     0.000000000  0.000000000 21.330436697     0.000000000  0.000000000  0.046881366

  length of vectors
    16.881164524 16.881164524 21.330436697     0.059237619  0.059237619  0.046881366

  position of ions in fractional coordinates (direct lattice)
     0.125000000  0.000000000  0.351610242
     0.250000000  0.125000000  0.351610242
     0.125000000  0.125000000  0.450536747
     0.250000000  0.000000000  0.450536747
     0.124994574  0.999999996  0.549774218
     0.249999995  0.125006246  0.549771918
     0.125005941  0.125005957  0.647900030
     0.249999990  0.000000016  0.647898180
     0.125000000  0.250000000  0.351610242
     0.250000000  0.375000000  0.351610242
     0.125000000  0.375000000  0.450536747
     0.250000000  0.250000000  0.450536747
     0.125006241  0.250000006  0.549771913
     0.250000000  0.374993761  0.549771903
     0.125005944  0.374994055  0.647900028
     0.249999983  0.249999992  0.647896441
     0.375000000  0.000000000  0.351610242
     0.000000000  0.125000000  0.351610242
     0.375000000  0.125000000  0.450536747
     0.000000000  0.000000000  0.450536747
     0.375005425  0.999999994  0.549774221
     0.999999991  0.124994588  0.549774219
     0.374994045  0.125005952  0.647900030
     0.999999997  0.000000013  0.647895508
     0.375000000  0.250000000  0.351610242
     0.000000000  0.375000000  0.351610242
     0.375000000  0.375000000  0.450536747
[...]
   6.33052829  8.44058231 11.72692439
  16.88116444 10.55063653 11.72692409
   6.33033647 10.55082814 13.81999071
   0.00000002  8.44058233 13.81989409
   6.33043670 12.66087339  7.50000000
   0.00000000 14.77101896  7.50000000
   6.33043670 14.77101896  9.61014557
   0.00000000 12.66087339  9.61014557
[...]
   8.44058226 10.55072783  9.61014557
  14.77101896 10.55072783  7.50000000
   8.44058226  8.44058226  7.50000000
  14.77066123  8.44058242 13.86089703
   8.44058242 10.55108578 13.86089748
  14.77092293 10.55082352 11.72061904
   8.44058223  8.44058233 11.72151843
  14.77101896 12.66087339  9.61014557
   8.44058226 14.77101896  9.61014557
  14.77101896 14.77101896  7.50000000
   8.44058226 12.66087339  7.50000000
  14.77103728 12.66087319 13.86087679
   8.44058260 14.77066101 13.86089811
  14.77092314 14.77092309 11.72061894
   8.44058244 12.66087310 11.72067050

--------------------------------------- Iteration      FINAL  ---------------------------------------

--------------------OUTCAR has been truncated-------------------------

[...]

--------------------OUTCAR has been truncated-------------------------

  FORCE on cell =-STRESS in cart. coord.  units (eV):
  Direction    XX          YY          ZZ          XY          YZ          ZX
  Alpha Z  3501.42050  3501.42050  3501.42050
  Ewald  647337.50673647337.50673************     0.00000     0.00002     0.00002
  Hartree687455.05330687455.05325************    -0.00000     0.00002     0.00000
  E(xc)   -9824.44520 -9824.44520 -9824.71564    -0.00000    -0.00000     0.00000
  Local  ************************************     0.00001    -0.00006    -0.00001
  n-local-11319.45527-11319.45530-11394.66880     0.00000    -0.00001     0.00000
  augment  4204.48823  4204.48823  4167.68515    -0.00000     0.00001    -0.00000
  Kinetic 29214.10466 29214.10473 29369.98924    -0.00001     0.00002    -0.00003
  Fock        0.00000     0.00000     0.00000     0.00000     0.00000     0.00000
  Total    -108.46927  -108.46920     4.53412    -0.00000    -0.00001    -0.00001
  in kB     -28.58991   -28.58989     1.19509    -0.00000    -0.00000    -0.00000

 VOLUME and BASIS-vectors are now :
  energy-cutoff  :      520.00
  volume of cell :     6078.61
      direct lattice vectors                 reciprocal lattice vectors
    16.881164524  0.000000000  0.000000000     0.059237619  0.000000000  0.000000000
     0.000000000 16.881164524  0.000000000     0.000000000  0.059237619  0.000000000
     0.000000000  0.000000000 21.330436697     0.000000000  0.000000000  0.046881366

  length of vectors
    16.881164524 16.881164524 21.330436697     0.059237619  0.059237619  0.046881366

 FORCES acting on ions:
    Electron-Ion                     Ewald-Force                    Non-Local-Force
   0.642E-02 0.128E-04 0.207E+04   -.642E-02 -.115E-04 -.206E+04   0.738E-04 0.725E-06 -.679E+01
   -.320E-04 0.481E-02 0.207E+04   0.284E-04 -.446E-02 -.206E+04   -.146E-06 -.143E-03 -.679E+01
   0.267E-01 0.269E-01 0.687E+03   -.255E-01 -.256E-01 -.687E+03   -.902E-03 -.901E-03 0.381E+00
   -.891E-04 0.387E-04 0.687E+03   0.845E-04 -.352E-04 -.687E+03   0.546E-05 -.328E-05 0.378E+00
   0.189E-01 0.371E-04 -.691E+03   -.106E-01 -.336E-04 0.691E+03   -.506E-02 -.301E-05 -.260E+00
   -.153E-03 0.805E-01 -.691E+03   0.144E-03 -.832E-01 0.691E+03   0.572E-05 0.533E-03 -.257E+00
   0.790E-01 0.792E-01 -.206E+04   -.755E-01 -.757E-01 0.205E+04   -.363E-02 -.364E-02 0.599E+01
   -.994E-04 0.208E-03 -.206E+04   0.929E-04 -.208E-03 0.205E+04   0.103E-05 -.545E-05 0.599E+01
   0.478E-02 0.701E-05 0.207E+04   -.442E-02 -.552E-05 -.206E+04   -.148E-03 0.122E-06 -.679E+01
   -.186E-04 -.480E-02 0.207E+04   0.225E-04 0.445E-02 -.206E+04   0.391E-05 0.144E-03 -.679E+01
   0.268E-01 -.268E-01 0.687E+03   -.255E-01 0.255E-01 -.687E+03   -.897E-03 0.895E-03 0.381E+00
   -.719E-04 0.819E-05 0.687E+03   0.686E-04 -.944E-05 -.687E+03   0.317E-05 0.440E-05 0.388E+00
   0.803E-01 -.750E-04 -.691E+03   -.830E-01 0.685E-04 0.691E+03   0.542E-03 0.669E-05 -.257E+00
   -.117E-03 -.804E-01 -.691E+03   0.115E-03 0.830E-01 0.691E+03   0.435E-05 -.541E-03 -.257E+00
   0.789E-01 -.791E-01 -.206E+04   -.755E-01 0.756E-01 0.205E+04   -.362E-02 0.363E-02 0.599E+01
   -.221E-03 -.137E-03 -.206E+04   0.213E-03 0.142E-03 0.205E+04   0.263E-05 0.605E-05 0.599E+01
   -.645E-02 0.507E-05 0.207E+04   0.646E-02 -.768E-05 -.206E+04   -.708E-04 -.139E-05 -.679E+01
   -.136E-07 0.645E-02 0.207E+04   0.170E-05 -.645E-02 -.206E+04   0.811E-06 0.689E-04 -.679E+01
   -.268E-01 0.269E-01 0.687E+03   0.255E-01 -.256E-01 -.687E+03   0.895E-03 -.900E-03 0.381E+00
   0.160E-05 0.278E-04 0.686E+03   0.293E-05 -.290E-04 -.687E+03   0.761E-06 0.625E-06 0.398E+00
   -.190E-01 0.116E-03 -.691E+03   0.107E-01 -.105E-03 0.691E+03   0.506E-02 -.977E-05 -.260E+00
   -.931E-04 0.192E-01 -.691E+03   0.934E-04 -.109E-01 0.691E+03   0.206E-05 -.507E-02 -.260E+00
   -.791E-01 0.791E-01 -.206E+04   0.756E-01 -.756E-01 0.205E+04   0.363E-02 -.363E-02 0.599E+01
   -.393E-04 0.973E-04 -.206E+04   0.419E-04 -.989E-04 0.205E+04   -.667E-05 -.613E-06 0.600E+01
   -.482E-02 0.187E-04 0.207E+04   0.446E-02 -.117E-04 -.206E+04   0.142E-03 -.222E-05 -.679E+01
   -.282E-05 -.644E-02 0.207E+04   -.261E-05 0.645E-02 -.206E+04   0.781E-05 -.742E-04 -.679E+01
   -.268E-01 -.268E-01 0.687E+03   0.255E-01 0.255E-01 -.687E+03   0.901E-03 0.901E-03 0.381E+00
   0.148E-04 -.211E-04 0.687E+03   -.927E-05 0.173E-04 -.687E+03   -.185E-05 0.270E-05 0.378E+00
   -.803E-01 0.189E-05 -.691E+03   0.830E-01 -.415E-05 0.691E+03   -.538E-03 0.739E-05 -.257E+00
   0.850E-04 -.190E-01 -.691E+03   -.798E-04 0.108E-01 0.691E+03   -.498E-05 0.506E-02 -.260E+00
   -.789E-01 -.789E-01 -.206E+04   0.754E-01 0.755E-01 0.205E+04   0.362E-02 0.363E-02 0.599E+01
   0.401E-04 -.244E-03 -.206E+04   -.391E-04 0.233E-03 0.205E+04   -.185E-05 0.176E-04 0.599E+01
   0.642E-02 -.912E-05 0.207E+04   -.643E-02 0.115E-04 -.206E+04   0.745E-04 -.278E-05 -.679E+01
   -.172E-04 0.478E-02 0.207E+04   0.195E-04 -.443E-02 -.206E+04   0.876E-06 -.140E-03 -.679E+01
   0.268E-01 0.268E-01 0.687E+03   -.255E-01 -.255E-01 -.687E+03   -.899E-03 -.893E-03 0.381E+00
   -.600E-04 -.299E-04 0.687E+03   0.564E-04 0.245E-04 -.687E+03   0.425E-05 0.152E-05 0.378E+00
   0.190E-01 0.339E-04 -.691E+03   -.107E-01 -.298E-04 0.691E+03   -.506E-02 -.227E-05 -.260E+00
   -.637E-04 0.804E-01 -.691E+03   0.645E-04 -.830E-01 0.691E+03   0.552E-05 0.539E-03 -.257E+00
   0.789E-01 0.789E-01 -.206E+04   -.754E-01 -.754E-01 0.205E+04   -.363E-02 -.362E-02 0.599E+01
   -.544E-04 0.214E-04 -.206E+04   0.579E-04 -.168E-04 0.205E+04   0.255E-05 -.867E-06 0.599E+01
   0.477E-02 -.442E-05 0.207E+04   -.442E-02 0.601E-05 -.206E+04   -.142E-03 0.390E-05 -.679E+01
   -.193E-04 -.479E-02 0.207E+04   0.242E-04 0.444E-02 -.206E+04   -.587E-05 0.141E-03 -.679E+01
   0.267E-01 -.268E-01 0.687E+03   -.254E-01 0.255E-01 -.687E+03   -.898E-03 0.897E-03 0.381E+00
   -.388E-04 -.266E-04 0.687E+03   0.368E-04 0.268E-04 -.687E+03   0.123E-05 -.370E-05 0.388E+00
   0.803E-01 -.637E-04 -.691E+03   -.829E-01 0.655E-04 0.691E+03   0.537E-03 -.885E-06 -.257E+00
   -.679E-04 -.805E-01 -.691E+03   0.625E-04 0.831E-01 0.691E+03   0.773E-05 -.541E-03 -.257E+00
   0.789E-01 -.790E-01 -.206E+04   -.754E-01 0.756E-01 0.205E+04   -.363E-02 0.363E-02 0.599E+01
   0.443E-04 -.776E-04 -.206E+04   -.455E-04 0.766E-04 0.205E+04   0.142E-05 0.539E-05 0.599E+01
   -.645E-02 -.148E-04 0.207E+04   0.645E-02 0.892E-05 -.206E+04   -.704E-04 0.462E-05 -.679E+01
   -.441E-06 0.643E-02 0.207E+04   0.581E-05 -.644E-02 -.206E+04   -.511E-05 0.731E-04 -.679E+01
   -.268E-01 0.268E-01 0.687E+03   0.255E-01 -.255E-01 -.687E+03   0.896E-03 -.901E-03 0.381E+00
   -.472E-06 -.219E-04 0.686E+03   0.272E-05 0.205E-04 -.687E+03   -.119E-05 0.159E-05 0.398E+00
   -.189E-01 -.394E-04 -.691E+03   0.106E-01 0.360E-04 0.691E+03   0.506E-02 -.558E-06 -.260E+00
   -.199E-04 0.190E-01 -.691E+03   0.206E-04 -.107E-01 0.691E+03   -.144E-05 -.506E-02 -.260E+00
   -.789E-01 0.791E-01 -.206E+04   0.754E-01 -.756E-01 0.205E+04   0.362E-02 -.364E-02 0.599E+01
   0.343E-04 0.895E-04 -.206E+04   -.375E-04 -.807E-04 0.205E+04   -.126E-05 -.730E-05 0.600E+01
   -.481E-02 -.872E-05 0.207E+04   0.445E-02 0.107E-04 -.206E+04   0.144E-03 0.442E-07 -.679E+01
   -.894E-05 -.643E-02 0.207E+04   0.658E-05 0.644E-02 -.206E+04   0.243E-05 -.713E-04 -.679E+01
   -.268E-01 -.268E-01 0.687E+03   0.255E-01 0.255E-01 -.687E+03   0.903E-03 0.903E-03 0.381E+00
   -.209E-04 -.936E-05 0.687E+03   0.183E-04 0.101E-04 -.687E+03   0.653E-05 -.406E-05 0.378E+00
[...]
   -.419E-02 0.419E-02 0.155E+04   0.401E-02 -.402E-02 -.156E+04   0.350E-02 -.350E-02 0.361E+01
   -.214E-05 -.927E-06 0.155E+04   -.150E-05 0.254E-05 -.156E+04   0.700E-06 -.295E-05 0.360E+01
   -.120E+00 0.109E-03 -.156E+04   0.120E+00 -.116E-03 0.157E+04   0.126E-03 0.853E-06 -.502E+01
   0.226E-04 0.120E+00 -.156E+04   -.253E-04 -.121E+00 0.157E+04   -.263E-05 -.130E-03 -.502E+01
   -.509E-01 0.508E-01 -.512E+03   0.507E-01 -.505E-01 0.512E+03   0.154E-02 -.153E-02 0.279E+00
   -.168E-04 -.992E-05 -.513E+03   0.124E-04 0.128E-04 0.512E+03   -.872E-06 -.346E-05 0.288E+00
   -.147E-01 -.121E-04 0.514E+03   0.159E-01 0.929E-05 -.514E+03   0.492E-03 -.248E-05 -.651E-01
   0.213E-04 -.264E-01 0.514E+03   -.228E-04 0.230E-01 -.514E+03   -.539E-05 0.310E-02 -.624E-01
   -.419E-02 -.421E-02 0.155E+04   0.401E-02 0.402E-02 -.156E+04   0.350E-02 0.351E-02 0.361E+01
   0.133E-04 -.141E-05 0.155E+04   -.871E-05 0.815E-05 -.156E+04   0.459E-06 -.274E-05 0.361E+01
   -.163E-01 -.104E-03 -.156E+04   0.192E-01 0.113E-03 0.157E+04   -.231E-02 -.151E-05 -.502E+01
   0.135E-03 -.120E+00 -.156E+04   -.144E-03 0.121E+00 0.157E+04   -.180E-05 0.130E-03 -.502E+01
   -.508E-01 -.509E-01 -.512E+03   0.506E-01 0.507E-01 0.512E+03   0.153E-02 0.153E-02 0.279E+00
   0.105E-03 -.157E-03 -.512E+03   -.100E-03 0.162E-03 0.512E+03   -.223E-05 0.612E-05 0.281E+00
   0.315E-04 -.428E-05 0.599E+02   -.439E-12 0.212E-11 0.236E-10   -.243E-04 -.557E-05 -.601E+02

 POSITION                                       TOTAL-FORCE (eV/Angst)
      2.11015      0.00000      7.50000         0.000070      0.000002      0.317898
      4.22029      2.11015      7.50000        -0.000004      0.000207      0.318311
      2.11015      2.11015      9.61015         0.000382      0.000383      0.011512
      4.22029      0.00000      9.61015         0.000001      0.000000      0.011956
      2.11005     16.88116     11.72692         0.003146      0.000001      0.006049
      4.22029      2.11025     11.72688        -0.000003     -0.002085      0.005487
      2.11025      2.11025     13.81999        -0.000122     -0.000135      0.035955
      4.22029      0.00000     13.81995        -0.000006     -0.000005      0.035516
      2.11015      4.22029      7.50000         0.000206      0.000002      0.318319
      4.22029      6.33044      7.50000         0.000008     -0.000212      0.318318
      2.11015      6.33044      9.61015         0.000383     -0.000387      0.011508
      4.22029      4.22029      9.61015        -0.000000      0.000003      0.012055
      2.11025      4.22029     11.72687        -0.002081      0.000000      0.005481
      4.22029      6.33033     11.72687         0.000002      0.002078      0.005493
      2.11025      6.33034     13.81999        -0.000126      0.000124      0.035957
      4.22029      4.22029     13.81991        -0.000005      0.000011      0.037435
      6.33044      0.00000      7.50000        -0.000068     -0.000004      0.317898
      0.00000      2.11015      7.50000         0.000002      0.000062      0.317898
      6.33044      2.11015      9.61015        -0.000388      0.000384      0.011512
      0.00000      0.00000      9.61015         0.000005     -0.000001      0.011123
      6.33053     16.88116     11.72692        -0.003146      0.000001      0.006054
     16.88116      2.11005     11.72692         0.000002      0.003140      0.006047
      6.33034      2.11025     13.81999         0.000133     -0.000131      0.035950
     16.88116      0.00000     13.81989        -0.000004     -0.000002      0.038894
      6.33044      4.22029      7.50000        -0.000213      0.000005      0.318315
      0.00000      6.33044      7.50000         0.000002     -0.000065      0.317896
      6.33044      6.33044      9.61015        -0.000386     -0.000380      0.011508
      0.00000      4.22029      9.61015         0.000004     -0.000001      0.011957
      6.33033      4.22029     11.72687         0.002087      0.000005      0.005488
      0.00000      6.33053     11.72692         0.000000     -0.003145      0.006058
      6.33034      6.33034     13.81999         0.000128      0.000130      0.035949
      0.00000      4.22029     13.81995        -0.000001      0.000007      0.035511
      2.11015      8.44058      7.50000         0.000064     -0.000000      0.317903
      4.22029     10.55073      7.50000         0.000003      0.000211      0.318314
      2.11015     10.55073      9.61015         0.000383      0.000385      0.011510
      4.22029      8.44058      9.61015         0.000001     -0.000004      0.011958
      2.11005      8.44058     11.72692         0.003138      0.000002      0.006046
      4.22029     10.55083     11.72687         0.000006     -0.002076      0.005493
      2.11025     10.55083     13.81999        -0.000131     -0.000123      0.035954
      4.22029      8.44058     13.81995         0.000006      0.000004      0.035516
      2.11015     12.66087      7.50000         0.000208      0.000006      0.318322
      4.22029     14.77102      7.50000        -0.000001     -0.000207      0.318321
      2.11015     14.77102      9.61015         0.000381     -0.000382      0.011504
      4.22029     12.66087      9.61015        -0.000001     -0.000003      0.012054
      2.11025     12.66087     11.72687        -0.002084      0.000001      0.005491
      4.22029     14.77091     11.72687         0.000002      0.002081      0.005502
      2.11025     14.77092     13.81999        -0.000121      0.000124      0.035959
      4.22029     12.66087     13.81991         0.000000      0.000004      0.037433
      6.33044      8.44058      7.50000        -0.000069     -0.000001      0.317898
      0.00000     10.55073      7.50000         0.000000      0.000066      0.317896
      6.33044     10.55073      9.61015        -0.000382      0.000384      0.011519
      0.00000      8.44058      9.61015         0.000001      0.000000      0.011121
      6.33053      8.44058     11.72692        -0.003144     -0.000004      0.006050
     16.88116     10.55064     11.72692        -0.000001      0.003141      0.006054
      6.33034     10.55083     13.81999         0.000124     -0.000138      0.035955
      0.00000      8.44058     13.81989        -0.000005      0.000001      0.038904
      6.33044     12.66087      7.50000        -0.000214      0.000002      0.318309
      0.00000     14.77102      7.50000         0.000000     -0.000065      0.317893
      6.33044     14.77102      9.61015        -0.000384     -0.000381      0.011505
      0.00000     12.66087      9.61015         0.000004     -0.000003      0.011956
[...]
      8.44058     10.55073      9.61015         0.000001      0.000278      0.036326
     14.77102     10.55073      7.50000         0.003323     -0.003326     -0.402588
      8.44058      8.44058      7.50000        -0.000003     -0.000001     -0.406566
     14.77066      8.44058     13.86090         0.000809     -0.000006     -0.000791
      8.44058     10.55109     13.86090        -0.000005     -0.000812     -0.000790
     14.77092     10.55082     11.72062         0.001314     -0.001305     -0.002656
      8.44058      8.44058     11.72152        -0.000005     -0.000001      0.000060
     14.77102     12.66087      9.61015         0.001642     -0.000005      0.035115
      8.44058     14.77102      9.61015        -0.000007     -0.000269      0.036322
     14.77102     14.77102      7.50000         0.003325      0.003318     -0.402587
      8.44058     12.66087      7.50000         0.000005      0.000004     -0.403438
     14.77104     12.66087     13.86088         0.000542      0.000008     -0.003255
      8.44058     14.77066     13.86090        -0.000011      0.000811     -0.000804
     14.77092     14.77092     11.72062         0.001311      0.001303     -0.002658
      8.44058     12.66087     11.72067         0.000003      0.000010     -0.000156
    total drift:                                0.000007     -0.000010     -0.152833

  FREE ENERGIE OF THE ION-ELECTRON SYSTEM (eV)
  free  energy   TOTEN  =     -1059.17962718 eV

  energy  without entropy=    -1059.17962718  energy(sigma->0) =    -1059.17962718