 vasp.6.3.0 20Jan22 (build Apr  1 2022 16:44:48) complex
 executed on        HPECrayEX_GCC date 2023.02.07  22:56:43

 INCAR:
   SYSTEM = MgO-rocksalt
   ISMEAR = 0
   SIGMA = 0.05
   EDIFF = 1E-7
   ALGO = ALL
   ISTART = 0
   IBRION = 5
   POTIM = 0.01
   NFREE = 2
   ISYM = 0
   DIPOL = 0.5 0.5 0.5
   IDIPOL = 3
   LDIPOL = .TRUE.
   GGA = MK
   LUSE_VDW = .TRUE.
   PARAM1 = 0.1234
   PARAM2 = 0.711357
   ZAB_VDW = -1.8867
   AGGAC = 0.0
   ENCUT = 600
   PREC = Accurate
   LASPH = .TRUE.
   LREAL = .FALSE.
   ISPIN = 1
   NELM = 200
   NELMIN = 8
   NCORE = 8
   KPAR = 1
   LWAVE = .FALSE.
   LCHARG = .FALSE.

 POTCAR:    PAW_PBE C 08Apr2002
 POTCAR:    PAW_PBE H 15Jun2001
 POTCAR:    PAW_PBE Mg_pv 13Apr2007
 POTCAR:    PAW_PBE O 08Apr2002
|               ----> ADVICE to this user running VASP <----                  |
|     You have switched on vdW-DFT.                                           |
|     This routine was written and supplied by Jiri Klimes. We recommend      |
|     that you carefully read and cite the following publications:            |
|       J. Klimes, D.R. Bowler, A. Michelides                                 |
|          J. Phys.: Cond Matt. 22 022201 (2010)                              |
|       J. Klimes, D.R. Bowler, A. Michelides                                 |
|          Phys. Rev. B. 83, 195131 (2011)                                    |
|     and references therein.                                                 |

   TITEL  = PAW_PBE C 08Apr2002
   POMASS =   12.011; ZVAL   =    4.000    mass and valenz
   ENMAX  =  400.000; ENMIN  =  300.000 eV

   TITEL  = PAW_PBE H 15Jun2001
   POMASS =    1.000; ZVAL   =    1.000    mass and valenz
   ENMAX  =  250.000; ENMIN  =  200.000 eV

   TITEL  = PAW_PBE Mg_pv 13Apr2007
   POMASS =   24.305; ZVAL   =    8.000    mass and valenz
   ENMAX  =  403.929; ENMIN  =  302.947 eV

   TITEL  = PAW_PBE O 08Apr2002
   POMASS =   16.000; ZVAL   =    6.000    mass and valenz
   ENMAX  =  400.000; ENMIN  =  300.000 eV

  PAW_PBE C 08Apr2002                   :
  PAW_PBE H 15Jun2001                   :
  PAW_PBE Mg_pv 13Apr2007               :
  PAW_PBE O 08Apr2002                   :

 POSCAR:  C  H Mg  O
  positions in direct lattice
 exchange correlation table for  LEXCH =       43
   RHO(1)=    0.500       N(1)  =     2000
   RHO(2)=  100.500       N(2)  =     4000

 ion  position               nearest neighbor table
   1  0.449  0.490  0.797-  11 1.10   9 1.10  10 1.10   2 1.52
   2  0.301  0.408  0.822-  13 1.10  14 1.10  12 1.10   1 1.52
   3  0.449  0.990  0.797-  17 1.10  15 1.10  16 1.10   4 1.52
   4  0.301  0.908  0.822-  19 1.10  20 1.10  18 1.10   3 1.52
   5  0.797  0.740  0.797-  23 1.10  22 1.10  21 1.10   6 1.52
   6  0.945  0.658  0.822-  26 1.10  25 1.10  24 1.10   5 1.52
   7  0.797  0.240  0.797-  29 1.10  28 1.10  27 1.10   8 1.52
   8  0.945  0.158  0.822-  32 1.10  31 1.10  30 1.10   7 1.52
   9  0.419  0.598  0.770-   1 1.10
  10  0.517  0.410  0.766-   1 1.10
  11  0.529  0.526  0.835-   1 1.10
  12  0.221  0.375  0.783-   2 1.10
  13  0.234  0.486  0.854-   2 1.10
  14  0.330  0.300  0.848-   2 1.10
  15  0.419  0.098  0.770-   3 1.10
  16  0.517  0.910  0.766-   3 1.10
  17  0.529  0.026  0.835-   3 1.10
  18  0.221  0.875  0.783-   4 1.10
  19  0.234  0.986  0.854-   4 1.10
  20  0.330  0.800  0.848-   4 1.10
  21  0.729  0.660  0.766-   5 1.10
  22  0.827  0.848  0.770-   5 1.10
  23  0.717  0.776  0.835-   5 1.10
  24  0.026  0.626  0.783-   6 1.10
  25  0.916  0.549  0.848-   6 1.10
  26  0.012  0.736  0.854-   6 1.10
  27  0.729  0.160  0.766-   7 1.10
  28  0.827  0.348  0.770-   7 1.10
  29  0.717  0.276  0.835-   7 1.10
  30  0.026  0.126  0.783-   8 1.10
  31  0.916  0.049  0.848-   8 1.10
  32  0.012  0.236  0.854-   8 1.10
  33  0.250  0.000  0.352-  65 2.11  67 2.11  68 2.11  75 2.11  84 2.11
  34  0.500  0.250  0.352-  66 2.11  67 2.11  68 2.11  76 2.11  83 2.11
  35  0.250  0.250  0.451-  67 2.11  66 2.11  65 2.11  73 2.11  82 2.11  71 2.11
  36  0.500  0.000  0.451-  68 2.11  66 2.11  65 2.11  74 2.11  81 2.11  72 2.12
  37  0.250  0.000  0.550-  72 2.11  71 2.11  79 2.11  88 2.11  65 2.12  69 2.14
  38  0.500  0.250  0.550-  87 2.11  72 2.11  80 2.11  71 2.11  66 2.12  70 2.14
  39  0.250  0.250  0.648-  71 2.10  86 2.10  70 2.11  69 2.11  77 2.11
  40  0.500  0.000  0.649-  70 2.11  72 2.11  78 2.11  69 2.11  85 2.12
  41  0.250  0.500  0.352-  73 2.11  67 2.11  75 2.11  76 2.11  92 2.11
  42  0.500  0.750  0.352-  74 2.11  68 2.11  75 2.11  76 2.11  91 2.11
  43  0.250  0.750  0.451-  75 2.11  73 2.11  74 2.11  65 2.11  90 2.11  79 2.11
  44  0.500  0.500  0.451-  76 2.11  73 2.11  74 2.11  66 2.11  89 2.11  80 2.12
  45  0.250  0.500  0.550-  80 2.11  79 2.11  71 2.11  96 2.11  73 2.12  77 2.14
  46  0.500  0.750  0.550-  95 2.11  72 2.11  80 2.11  79 2.11  74 2.12  78 2.14
  47  0.250  0.750  0.648-  79 2.10  94 2.10  78 2.11  77 2.11  69 2.11
  48  0.500  0.500  0.649-  78 2.11  80 2.11  70 2.11  77 2.11  93 2.12
  49  0.750  0.000  0.352-  81 2.11  68 2.11  83 2.11  84 2.11  91 2.11
  50  0.000  0.250  0.352-  82 2.11  67 2.11  83 2.11  84 2.11  92 2.11
  51  0.750  0.250  0.451-  83 2.11  81 2.11  82 2.11  66 2.11  89 2.11  87 2.12
  52  0.000  0.000  0.451-  84 2.11  81 2.11  82 2.11  65 2.11  90 2.11  88 2.11
  53  0.750  0.000  0.550-  72 2.11  87 2.11  95 2.11  88 2.11  81 2.12  85 2.14
  54  1.000  0.250  0.550-  87 2.11  96 2.11  88 2.11  71 2.11  82 2.12  86 2.14
  55  0.750  0.250  0.649-  93 2.11  87 2.11  85 2.11  86 2.11  70 2.12
  56  0.000  0.000  0.648-  88 2.10  69 2.10  85 2.11  94 2.11  86 2.11
  57  0.750  0.500  0.352-  89 2.11  83 2.11  76 2.11  91 2.11  92 2.11
  58  0.000  0.750  0.352-  90 2.11  84 2.11  75 2.11  91 2.11  92 2.11
  59  0.750  0.750  0.451-  91 2.11  81 2.11  89 2.11  90 2.11  74 2.11  95 2.12
  60  0.000  0.500  0.451-  92 2.11  82 2.11  89 2.11  90 2.11  73 2.11  96 2.11
[...]
  82  0.000  0.250  0.451-  50 2.11  35 2.11  51 2.11  52 2.11  60 2.11  54 2.12
  83  0.750  0.250  0.352-  51 2.11  49 2.11  50 2.11  34 2.11  57 2.11
  84  0.000  0.000  0.352-  52 2.11  49 2.11  50 2.11  33 2.11  58 2.11
  85  0.750  0.000  0.650-  63 2.11  56 2.11  55 2.11  40 2.12  53 2.14
  86  0.001  0.250  0.650-  39 2.10  64 2.11  56 2.11  55 2.11  54 2.14
  87  0.750  0.250  0.550-  54 2.11  38 2.11  53 2.11  61 2.11  55 2.11  51 2.12
  88  1.000  0.000  0.550-  56 2.10  62 2.11  54 2.11  53 2.11  52 2.11  37 2.11
  89  0.750  0.500  0.451-  57 2.11  51 2.11  44 2.11  59 2.11  60 2.11  61 2.12
  90  0.000  0.750  0.451-  58 2.11  52 2.11  43 2.11  59 2.11  60 2.11  62 2.12
  91  0.750  0.750  0.352-  59 2.11  49 2.11  57 2.11  58 2.11  42 2.11
  92  0.000  0.500  0.352-  60 2.11  50 2.11  57 2.11  58 2.11  41 2.11
  93  0.750  0.500  0.650-  55 2.11  64 2.11  63 2.11  48 2.12  61 2.14
  94  0.001  0.750  0.650-  47 2.10  56 2.11  64 2.11  63 2.11  62 2.14
  95  0.750  0.750  0.550-  62 2.11  46 2.11  53 2.11  61 2.11  63 2.11  59 2.12
  96  1.000  0.500  0.550-  64 2.10  54 2.11  62 2.11  61 2.11  60 2.11  45 2.11

IMPORTANT INFORMATION: All symmetrisations will be switched off!
NOSYMM: (Re-)initialisation of all symmetry stuff for point group C_1.

                                     Primitive cell

  volume of cell :    1519.6535

  direct lattice vectors                    reciprocal lattice vectors
     8.440582262  0.000000000  0.000000000     0.118475239  0.000000000  0.000000000
     0.000000000  8.440582262  0.000000000     0.000000000  0.118475239  0.000000000
     0.000000000  0.000000000 21.330436697     0.000000000  0.000000000  0.046881366

  length of vectors
     8.440582262  8.440582262 21.330436697     0.118475239  0.118475239  0.046881366

  position of ions in fractional coordinates (direct lattice)
     0.448914102  0.490295406  0.797062243
     0.300689000  0.408294431  0.821795036
     0.448918967  0.990294861  0.797064532
     0.300687713  0.908293474  0.821793225
     0.797259545  0.740320509  0.796977330
     0.945450276  0.658331356  0.821749963
     0.797257156  0.240321630  0.796976263
     0.945447027  0.158334339  0.821749602
     0.419046797  0.597958639  0.770285256
     0.516794712  0.410097766  0.766253788
     0.528697764  0.526226937  0.835359284
     0.220561892  0.375304497  0.783117707
     0.233505174  0.485958356  0.853619750
     0.330421543  0.299554366  0.847777737
     0.419031730  0.097972955  0.770301391
     0.516794067  0.910068254  0.766266997
     0.528725504  0.026247452  0.835353626
     0.220533801  0.875287280  0.783127477
     0.233505697  0.985992124  0.853603474
     0.330439084  0.799539557  0.847760728
     0.729453203  0.660174439  0.766135563
     0.827162502  0.848096999  0.770272185
     0.717342424  0.776179123  0.835241549
     0.025830566  0.625703542  0.783108597
     0.915676976  0.549368405  0.847575832
     0.012363955  0.735916243  0.853695052
     0.729444281  0.160180731  0.766133040
     0.827162193  0.348097052  0.770269375
     0.717340297  0.276172909  0.835242034
     0.025832318  0.125710547  0.783109596
     0.915677095  0.049375336  0.847578313
     0.012367371  0.235906847  0.853696846
     0.250000000  0.000000000  0.351610242
     0.500000000  0.250000000  0.351610242
     0.250000000  0.250000000  0.450536747
     0.500000000  0.000000000  0.450536747
     0.250224690  0.000046991  0.549867504
     0.500231897  0.250027359  0.550102720
     0.249800584  0.250071873  0.647835510
     0.499714720  0.000158054  0.648745206
     0.250000000  0.500000000  0.351610242
     0.500000000  0.750000000  0.351610242
     0.250000000  0.750000000  0.450536747
     0.500000000  0.500000000  0.450536747
     0.250217395  0.500045624  0.549876756
     0.500231127  0.750037191  0.550100771
     0.249802018  0.750108527  0.647836743
     0.499710836  0.500159284  0.648725973
     0.750000000  0.000000000  0.351610242
     0.000000000  0.250000000  0.351610242
     0.750000000  0.250000000  0.450536747
     0.000000000  0.000000000  0.450536747
     0.749801425  0.000028354  0.550098713
     0.999777575  0.250051927  0.549880149
     0.750302333  0.250132189  0.648778965
     0.000223629  0.000091402  0.647853053
     0.750000000  0.500000000  0.351610242
     0.000000000  0.750000000  0.351610242
     0.750000000  0.750000000  0.450536747
     0.000000000  0.500000000  0.450536747
[...]
     0.000000000  0.250000000  0.450536747
     0.750000000  0.250000000  0.351610242
     0.000000000  0.000000000  0.351610242
     0.750286863  0.000043360  0.650369162
     0.000536943  0.250108046  0.650057661
     0.750022687  0.250016414  0.549830742
     0.999928229  0.000048124  0.549570564
     0.750000000  0.500000000  0.450536747
     0.000000000  0.750000000  0.450536747
     0.750000000  0.750000000  0.351610242
     0.000000000  0.500000000  0.351610242
     0.750279731  0.500042915  0.650345919
     0.000537170  0.750123762  0.650058153
     0.750024104  0.750036121  0.549830444
     0.999935467  0.500046075  0.549563950

  ion indices of the primitive-cell ions
   primitive index   ion index
                 1           1
                 2           2
[...]
 31Z    -0.001115   -0.003352    0.000790    0.019606    0.007621    0.006463    0.003768   -0.006714    0.003528    0.014721    0.009375   -0.004437    0.002897    0.013246   -0.069901   -0.031306   -0.001977    0.001847   -0.199857   -0.845529    0.603573   -2.898928   -9.732645   10.038676    0.003499    0.000151    0.002737   -0.000291   -0.001538   -0.005116   -0.000484    0.004851   -0.002142   -0.005536    0.005732    0.000978   -0.005173   -0.008452   -0.012109   -0.003023   -0.002838   -0.000493   -0.003417    0.004350   -0.003076    0.008781    0.003448    0.004244    0.011289   -0.003215   -0.005558   -0.012078    0.004410    0.017961   -0.003082   -0.012278   -0.016988    0.004970   -0.001842   -0.000504   -0.005371   -0.033939    0.009970    0.012436    0.018743    0.080726    0.008662    0.014810   -0.009357    0.008794   -0.002079   -0.003252    0.009192   -0.017843    0.002611   -0.007555    0.010031   -0.017766   -0.041364    0.002377   -0.001643    0.210391   -0.067173   -0.019894    0.019025    0.041009   -0.059974   -0.516232   -1.884420    1.111310    2.986439   10.956942  -10.719456    0.411163    1.563142   -0.974897
 32X     0.020262    0.005514    0.012039    0.047888    0.049643   -0.024737    0.012005    0.000340    0.005700   -0.011278   -0.002859   -0.020993    0.008107    0.015206   -0.005643   -0.016831   -0.025756    0.025467    1.435317    1.509938    1.629157   10.023091    7.222978    7.353379   -0.004216   -0.004539    0.000088   -0.002924    0.003921   -0.003877   -0.003137   -0.002916   -0.002360    0.016047    0.019183   -0.017819    0.002589    0.001311   -0.005124    0.032682    0.001235    0.003642   -0.006886    0.006562   -0.007099    0.000047   -0.003509   -0.001904   -0.001783   -0.002001    0.008874    0.005616    0.003015    0.003234    0.002853   -0.011754    0.010917   -0.001298    0.008249    0.005610   -0.005558   -0.000271   -0.000033    0.005472    0.004715   -0.006043   -0.003730   -0.006294    0.006338    0.002563    0.003545   -0.007996    0.012114   -0.005750   -0.007030   -0.000310    0.006721   -0.002063    0.354094   -0.320417    0.179720   -0.115391   -0.002776   -0.037944   -0.064740    0.051493   -0.061045   -0.887295   -1.142440   -1.092403    0.424539    0.428101    0.410060  -11.289027   -7.848838   -8.344965
 32Y     0.001875    0.024526   -0.002760    0.088024    0.002695   -0.028608   -0.010217   -0.013471   -0.007900   -0.015283    0.018192    0.048572    0.002489   -0.004930    0.052939    0.012983    0.013297   -0.013042   -0.823211   -0.967961   -1.017414    7.289978   12.985024    8.977423    0.004672    0.006192   -0.000940   -0.000403   -0.009952   -0.000362    0.000324    0.000971    0.005420    0.027445    0.001859   -0.001478    0.011585    0.012935    0.008498   -0.025333    0.013382   -0.011748    0.005020    0.001799    0.005060    0.004354    0.001846   -0.007155   -0.007520    0.004839    0.003784    0.002366   -0.010584   -0.019686   -0.000801    0.013039   -0.012113    0.003618   -0.008172   -0.008281   -0.001182    0.023433   -0.006803    0.002783    0.014488   -0.036294   -0.005947   -0.009057    0.000895    0.001542    0.001335   -0.000017   -0.017601    0.015714    0.009873    0.007279   -0.015102    0.008950   -0.305548    0.067002   -0.159331    0.068233   -0.069478    0.008191    0.074616   -0.057187    0.031904    0.342223    0.497975    0.346498    1.120641    1.473606    1.565498   -7.850345  -14.018269   -9.735219
 32Z    -0.004410    0.002806    0.030763    0.059135    0.023121   -0.064368    0.001606    0.007633   -0.009583   -0.004391    0.004913    0.026270    0.003102   -0.007773   -0.003109   -0.018668   -0.004077    0.002941    0.530817    0.558648    0.701269    7.319086    8.854244   13.210046    0.006762    0.006619   -0.004218    0.006108    0.000138   -0.009666    0.017003    0.010785   -0.002792   -0.019099   -0.017066    0.070231   -0.010294   -0.012772   -0.013868   -0.021440    0.008586   -0.016816   -0.007906    0.006043    0.004911    0.002831   -0.007013    0.001519    0.000040   -0.002761    0.003774   -0.001565   -0.009771   -0.005719    0.005783    0.008264   -0.013531   -0.001031   -0.005008   -0.011845   -0.001986   -0.005939   -0.001453   -0.007095    0.005151    0.006817    0.002429    0.007214   -0.006855    0.001671   -0.012985    0.008542    0.016795   -0.005943   -0.017922   -0.002112    0.008603    0.000064    0.162091   -0.147192   -0.035091   -0.026068    0.019702    0.005154   -0.018383   -0.035904   -0.074714    1.143792    1.391000    1.412469   -0.792505   -0.894679   -0.975726   -8.346180   -9.735815  -14.215479

 Eigenvectors and eigenvalues of the dynamical matrix

   1 f  =   90.438533 THz   568.242063 2PiTHz 3016.704750 cm-1   374.023552 meV
             X         Y         Z           dx          dy          dz
      3.789096  4.138379 17.001686     0.006405   -0.009059    0.005484
      2.537990  3.446243 17.529247     0.008582   -0.019430   -0.003511
      3.789137  8.358665 17.001735    -0.008772    0.010291   -0.008744
      2.537979  7.666526 17.529208    -0.011203    0.022413    0.000593
      6.729335  6.248736 16.999874    -0.055562   -0.078988    0.033013
      7.980151  5.556700 17.528286    -0.092484   -0.160500    0.014174
      6.729315  2.028454 16.999852     0.057039    0.078201   -0.036492
      7.980123  1.336434 17.528278     0.093460    0.160002   -0.017807
      3.536999  5.047119 16.430521    -0.007378    0.026673   -0.016718
      4.362048  3.461464 16.344528    -0.006860    0.008772    0.008895
      4.462517  4.441662 17.818578    -0.007440   -0.004317   -0.010492
      1.861671  3.167788 16.704243     0.006289    0.001004    0.008463
      1.970920  4.101771 18.208082    -0.023865    0.026667    0.028597
      2.788950  2.528413 18.083469    -0.011947    0.041255   -0.025709
      3.536872  0.826949 16.430865     0.009325   -0.033751    0.020872
      4.362043  7.681506 16.344810     0.006909   -0.008923   -0.009374
      4.462751  0.221544 17.818458     0.013670    0.007257    0.018137
      1.861434  7.387934 16.704451    -0.001550    0.001243   -0.002583
      1.970924  8.322348 18.207735     0.025296   -0.028412   -0.030769
      2.789098  6.748579 18.083107     0.014941   -0.052162    0.032135
      6.157010  5.572257 16.342006     0.076516    0.091181    0.093426
      6.981733  7.158432 16.430242     0.061591    0.217939   -0.135575
      6.054788  6.551404 17.816067     0.056661   -0.032440   -0.071555
      0.218025  5.281302 16.704048     0.035837   -0.029536   -0.051315
      7.728847  4.636989 18.079163     0.104574    0.374691   -0.228721
      0.104359  6.211562 18.209688     0.183491    0.215833    0.232172
      6.156934  1.352019 16.341952    -0.074138   -0.088486   -0.091087
      6.981731  2.938142 16.430182    -0.062339   -0.220904    0.137118
      6.054770  2.331060 17.816077    -0.063397    0.035437    0.079721
      0.218040  1.061070 16.704070    -0.041436    0.031793    0.058028
      7.728848  0.416757 18.079216    -0.105696   -0.378976    0.231008
      0.104388  1.991191 18.209727    -0.180233   -0.212054   -0.228589
      2.110146  0.000000  7.500000            0           0           0
      4.220291  2.110146  7.500000            0           0           0
      2.110146  2.110146  9.610146            0           0           0
      4.220291  0.000000  9.610146            0           0           0
      2.112042  0.000397 11.728914            0           0           0
      4.222248  2.110376 11.733931            0           0           0
      2.108462  2.110752 13.818614            0           0           0
      4.217883  0.001334 13.838019            0           0           0
      2.110146  4.220291  7.500000            0           0           0
      4.220291  6.330437  7.500000            0           0           0
      2.110146  6.330437  9.610146            0           0           0
      4.220291  4.220291  9.610146            0           0           0
      2.111981  4.220676 11.729111            0           0           0
      4.222242  6.330751 11.733890            0           0           0
      2.108474  6.331353 13.818641            0           0           0
      4.217850  4.221636 13.837608            0           0           0
      6.330437  0.000000  7.500000            0           0           0
      0.000000  2.110146  7.500000            0           0           0
      6.330437  2.110146  9.610146            0           0           0
      0.000000  0.000000  9.610146            0           0           0
      6.328761  0.000239 11.733846            0           0           0
      8.438705  2.110584 11.729184            0           0           0
      6.332989  2.111261 13.838739            0           0           0
      0.001888  0.000771 13.818989            0           0           0
      6.330437  4.220291  7.500000            0           0           0
      0.000000  6.330437  7.500000            0           0           0
      6.330437  6.330437  9.610146            0           0           0
      0.000000  4.220291  9.610146            0           0           0
[...]
      0.000000  2.110146  9.610146            0           0           0
      6.330437  2.110146  7.500000            0           0           0
      0.000000  0.000000  7.500000            0           0           0
      6.332858  0.000366 13.872658            0           0           0
      0.004532  2.111058 13.866014            0           0           0
      6.330628  2.110284 11.728130            0           0           0
      8.439976  0.000406 11.722580            0           0           0
      6.330437  4.220291  9.610146            0           0           0
      0.000000  6.330437  9.610146            0           0           0
      6.330437  6.330437  7.500000            0           0           0
      0.000000  4.220291  7.500000            0           0           0
      6.332798  4.220653 13.872162            0           0           0
      0.004534  6.331481 13.866024            0           0           0
      6.330640  6.330742 11.728123            0           0           0
      8.440038  4.220680 11.722439            0           0           0

[...]

  96 f  =    0.593445 THz     3.728725 2PiTHz   19.795193 cm-1     2.454290 meV
             X         Y         Z           dx          dy          dz
      3.789096  4.138379 17.001686    -0.298990   -0.120394    0.035630
      2.537990  3.446243 17.529247    -0.305134   -0.145642   -0.010313
      3.789137  8.358665 17.001735    -0.276350   -0.121648    0.028333
      2.537979  7.666526 17.529208    -0.295158   -0.121058   -0.013708
      6.729335  6.248736 16.999874    -0.280750   -0.111034   -0.040044
      7.980151  5.556700 17.528286    -0.291328   -0.100529   -0.001916
      6.729315  2.028454 16.999852    -0.281022   -0.088151   -0.039179
      7.980123  1.336434 17.528278    -0.309019   -0.111652   -0.004584
      3.536999  5.047119 16.430521    -0.086110   -0.033778    0.012288
      4.362048  3.461464 16.344528    -0.079714   -0.029390    0.010616
      4.462517  4.441662 17.818578    -0.094086   -0.036155    0.017362
      1.861671  3.167788 16.704243    -0.080272   -0.042792   -0.009295
      1.970920  4.101771 18.208082    -0.096775   -0.046749   -0.005725
      2.788950  2.528413 18.083469    -0.088944   -0.042720   -0.003783
      3.536872  0.826949 16.430865    -0.074835   -0.032915    0.009955
      4.362043  7.681506 16.344810    -0.077470   -0.033389    0.008529
      4.462751  0.221544 17.818458    -0.085267   -0.039834    0.014627
      1.861434  7.387934 16.704451    -0.079038   -0.032711   -0.009908
      1.970924  8.322348 18.207735    -0.090145   -0.035895   -0.007179
      2.789098  6.748579 18.083107    -0.090996   -0.036499   -0.003950
      6.157010  5.572257 16.342006    -0.074062   -0.032956   -0.016438
      6.981733  7.158432 16.430242    -0.077541   -0.030517   -0.008303
      6.054788  6.551404 17.816067    -0.088417   -0.032975   -0.017473
      0.218025  5.281302 16.704048    -0.075974   -0.027288    0.005587
      7.728847  4.636989 18.079163    -0.086880   -0.029560   -0.002820
      0.104359  6.211562 18.209688    -0.091379   -0.027699    0.004335
      6.156934  1.352019 16.341952    -0.079431   -0.021614   -0.016456
      6.981731  2.938142 16.430182    -0.071188   -0.025424   -0.007508
      6.054770  2.331060 17.816077    -0.086124   -0.022170   -0.016804
      0.218040  1.061070 16.704070    -0.082942   -0.033865    0.004427
      7.728848  0.416757 18.079216    -0.098485   -0.031935   -0.005164
      0.104388  1.991191 18.209727    -0.091893   -0.036049    0.004681
      2.110146  0.000000  7.500000            0           0           0
      4.220291  2.110146  7.500000            0           0           0
      2.110146  2.110146  9.610146            0           0           0
      4.220291  0.000000  9.610146            0           0           0
      2.112042  0.000397 11.728914            0           0           0
      4.222248  2.110376 11.733931            0           0           0
      2.108462  2.110752 13.818614            0           0           0
      4.217883  0.001334 13.838019            0           0           0
      2.110146  4.220291  7.500000            0           0           0
      4.220291  6.330437  7.500000            0           0           0
      2.110146  6.330437  9.610146            0           0           0
      4.220291  4.220291  9.610146            0           0           0
      2.111981  4.220676 11.729111            0           0           0
      4.222242  6.330751 11.733890            0           0           0
      2.108474  6.331353 13.818641            0           0           0
      4.217850  4.221636 13.837608            0           0           0
      6.330437  0.000000  7.500000            0           0           0
      0.000000  2.110146  7.500000            0           0           0
      6.330437  2.110146  9.610146            0           0           0
      0.000000  0.000000  9.610146            0           0           0
      6.328761  0.000239 11.733846            0           0           0
      8.438705  2.110584 11.729184            0           0           0
      6.332989  2.111261 13.838739            0           0           0
      0.001888  0.000771 13.818989            0           0           0
      6.330437  4.220291  7.500000            0           0           0
      0.000000  6.330437  7.500000            0           0           0
      6.330437  6.330437  9.610146            0           0           0
      0.000000  4.220291  9.610146            0           0           0
[...]
      0.000000  2.110146  9.610146            0           0           0
      6.330437  2.110146  7.500000            0           0           0
      0.000000  0.000000  7.500000            0           0           0
      6.332858  0.000366 13.872658            0           0           0
      0.004532  2.111058 13.866014            0           0           0
      6.330628  2.110284 11.728130            0           0           0
      8.439976  0.000406 11.722580            0           0           0
      6.330437  4.220291  9.610146            0           0           0
      0.000000  6.330437  9.610146            0           0           0
      6.330437  6.330437  7.500000            0           0           0
      0.000000  4.220291  7.500000            0           0           0
      6.332798  4.220653 13.872162            0           0           0
      0.004534  6.331481 13.866024            0           0           0
      6.330640  6.330742 11.728123            0           0           0
      8.440038  4.220680 11.722439            0           0           0

 Finite differences POTIM=   1.0000000000000000E-002