 vasp.6.3.0 20Jan22 (build Dec 25 2023 18:06:01) gamma-only
 executed on        HPECrayEX_GCC date 2024.11.24  20:38:45

 INCAR:
   SYSTEM = MgO-rocksalt
   ISMEAR = 0
   SIGMA = 0.05
   EDIFF = 1E-6
   ALGO = ALL
   ISTART = 0
   IBRION = -1
   NSW = 0
   ISYM = 0
   DIPOL = 0.5 0.5 0.5
   IDIPOL = 3
   LDIPOL = .TRUE.
   LHFCALC = .TRUE.
   GGA = PE
   IVDW = 13
   VDW_S8 = 1.2007
   VDW_A1 = 0.4009
   VDW_A2 = 5.0293
   ENCUT = 520
   PREC = Accurate
   LASPH = .TRUE.
   LREAL = Auto
   ISPIN = 1
   NELM = 200
   NELMIN = 8
   NCORE = 8
   KPAR = 1
   LWAVE = .FALSE.
   LCHARG = .FALSE.

 POTCAR:    PAW_PBE H 15Jun2001
 POTCAR:    PAW_PBE O 08Apr2002
 POTCAR:    PAW_PBE Mg_pv 13Apr2007
 POTCAR:    PAW_PBE O 08Apr2002
 POTCAR:    PAW_PBE H 15Jun2001
   VRHFIN =H: ultrasoft test

   TITEL  = PAW_PBE H 15Jun2001
   POMASS =    1.000; ZVAL   =    1.000    mass and valenz
   ENMAX  =  250.000; ENMIN  =  200.000 eV

   TITEL  = PAW_PBE O 08Apr2002
   POMASS =   16.000; ZVAL   =    6.000    mass and valenz
   ENMAX  =  400.000; ENMIN  =  300.000 eV

   TITEL  = PAW_PBE Mg_pv 13Apr2007
   POMASS =   24.305; ZVAL   =    8.000    mass and valenz
   ENMAX  =  403.929; ENMIN  =  302.947 eV

   TITEL  = PAW_PBE O 08Apr2002
   POMASS =   16.000; ZVAL   =    6.000    mass and valenz
   ENMAX  =  400.000; ENMIN  =  300.000 eV

 Optimization of the real space projectors (new method)

 maximal supplied QI-value         = 34.20
 optimisation between [QCUT,QGAM] = [ 11.63, 23.26] = [ 37.87,151.49] Ry
 Optimized for a Real-space Cutoff    1.21 Angstroem

   l    n(q)    QCUT    max X(q) W(low)/X(q) W(high)/X(q)  e(spline)
   0      8    11.629    19.460    0.17E-03    0.34E-03    0.21E-06
   0      8    11.629    12.209    0.16E-03    0.33E-03    0.21E-06
   1      8    11.629     4.655    0.18E-03    0.16E-03    0.26E-06
 Optimization of the real space projectors (new method)

[...]

   l    n(q)    QCUT    max X(q) W(low)/X(q) W(high)/X(q)  e(spline)
   1      8    11.527     2.974    0.44E-04    0.56E-04    0.12E-06
   1      8    11.527     4.279    0.12E-03    0.12E-03    0.26E-06
   0      9    11.527    16.381    0.46E-04    0.64E-04    0.78E-07
   0      9    11.527     5.611    0.26E-04    0.43E-04    0.55E-07
   2      8    11.527     4.652    0.22E-03    0.72E-04    0.47E-07
 Optimization of the real space projectors (new method)

 maximal supplied QI-value         = 24.76
 optimisation between [QCUT,QGAM] = [ 11.64, 23.27] = [ 37.91,151.63] Ry
 Optimized for a Real-space Cutoff    1.14 Angstroem

   l    n(q)    QCUT    max X(q) W(low)/X(q) W(high)/X(q)  e(spline)
   0      8    11.635    20.381    0.10E-03    0.33E-03    0.24E-06
   0      8    11.635    15.268    0.11E-03    0.35E-03    0.26E-06
   1      7    11.635     5.964    0.24E-03    0.31E-03    0.30E-06
   1      7    11.635     5.382    0.22E-03    0.25E-03    0.26E-06
  PAW_PBE H 15Jun2001                   :
  PAW_PBE O 08Apr2002                   :
  PAW_PBE Mg_pv 13Apr2007               :
  PAW_PBE O 08Apr2002                   :

 POSCAR:  H  O Mg  O
  positions in direct lattice
  velocities in cartesian coordinates
|           W    W    AA    RRRRR   N    N  II  N    N   GGGG   !!!           |
|           W    W   A  A   R    R  NN   N  II  NN   N  G    G  !!!           |
|           W    W  A    A  R    R  N N  N  II  N N  N  G       !!!           |
|           W WW W  AAAAAA  RRRRR   N  N N  II  N  N N  G  GGG   !            |
|           WW  WW  A    A  R   R   N   NN  II  N   NN  G    G                |
|           W    W  A    A  R    R  N    N  II  N    N   GGGG   !!!           |
|     Specifying the vdW parameters                                           |
|     VDW_S8 = 1.201                                                          |
|     VDW_A1 = 0.401                                                          |
|     VDW_A2 = 5.029                                                          |
|     in the INCAR file will overwrite the defaults for pbe0. Please make     |
|     sure that is what you intended.                                         |

 ion  position               nearest neighbor table
   1  0.455  0.451  0.762-  12 1.03
   2  0.356  0.373  0.787-   9 0.97
   3  0.581  0.331  0.764-  10 1.00
   4  0.674  0.343  0.767-  10 0.97
   5  0.451  0.316  0.761-  11 1.12   9 1.35
   6  0.489  0.228  0.785-  11 0.97
   7  0.618  0.494  0.708- 242 0.98
   8  0.471  0.544  0.771-  12 0.97
   9  0.398  0.377  0.756-   2 0.97   5 1.35  36 2.12
  10  0.626  0.369  0.755-   4 0.97   3 1.00  84 2.17
  11  0.499  0.272  0.757-   6 0.97   5 1.12  91 2.18
  12  0.495  0.496  0.754-   8 0.97   1 1.03 115 2.15
  13  0.000  0.375  0.352- 141 2.11 144 2.11 151 2.11 175 2.11 224 2.11
  14  0.125  0.000  0.352- 142 2.11 143 2.11 152 2.11 159 2.11 176 2.11
  15  0.000  0.000  0.451- 143 2.11 142 2.11 149 2.11 173 2.11 222 2.11 147 2.12
  16  0.125  0.375  0.451- 144 2.11 141 2.11 150 2.11 157 2.11 174 2.11 148 2.12
  17  0.000  0.375  0.550- 148 2.10 155 2.11 179 2.12 228 2.12 141 2.12 145 2.15
  18  0.125  0.000  0.550- 156 2.11 163 2.11 180 2.11 147 2.11 142 2.12 146 2.15
  19  0.000  1.000  0.649- 146 2.10 153 2.11 226 2.11 147 2.11 177 2.11
  20  0.125  0.375  0.649- 161 2.08 148 2.11 154 2.11 145 2.11 178 2.12
  21  0.000  0.125  0.352- 149 2.11 143 2.11 151 2.11 152 2.11 232 2.11
  22  0.125  0.250  0.352- 150 2.11 144 2.11 151 2.11 152 2.11 167 2.11
  23  0.000  0.250  0.451- 151 2.11 149 2.11 150 2.11 141 2.11 230 2.11 155 2.12
  24  0.125  0.125  0.451- 152 2.11 149 2.11 150 2.11 142 2.11 165 2.11 156 2.12
  25  0.000  0.125  0.550- 156 2.10 147 2.11 155 2.11 236 2.11 149 2.12 153 2.15
  26  0.125  0.250  0.550- 171 2.10 148 2.11 156 2.11 155 2.12 150 2.12 154 2.15
  27  0.001  0.250  0.649- 154 2.10 153 2.11 155 2.11 234 2.11 145 2.12
  28  0.125  0.125  0.649- 169 2.10 154 2.11 156 2.11 146 2.11 153 2.11
  29  0.250  0.375  0.352- 157 2.11 144 2.11 160 2.11 167 2.11 191 2.11
  30  0.375  0.000  0.352- 158 2.11 159 2.11 168 2.11 192 2.11 207 2.11
  31  0.250  0.000  0.451- 159 2.11 158 2.11 142 2.11 165 2.11 189 2.11 163 2.12
  32  0.375  0.375  0.451- 160 2.11 157 2.11 166 2.11 190 2.11 205 2.11 164 2.12
  33  0.251  0.375  0.551- 164 2.09 171 2.11 195 2.12 148 2.14 157 2.14 161 2.14
  34  0.375  0.000  0.550- 172 2.10 211 2.11 163 2.11 196 2.12 158 2.12 162 2.15
  35  0.250  0.000  0.649- 169 2.10 162 2.11 163 2.11 146 2.11 193 2.11
  36  0.374  0.374  0.659-   9 2.12 161 2.13 170 2.13 209 2.17 194 2.18
  37  0.250  0.125  0.352- 165 2.11 159 2.11 152 2.11 167 2.11 168 2.11
  38  0.375  0.250  0.352- 166 2.11 160 2.11 167 2.11 168 2.11 215 2.11
  39  0.250  0.250  0.451- 167 2.11 157 2.11 165 2.11 166 2.11 150 2.11 171 2.11
  40  0.375  0.125  0.451- 168 2.11 165 2.11 166 2.11 158 2.11 213 2.11 172 2.11
  41  0.250  0.125  0.550- 171 2.10 172 2.10 156 2.12 163 2.12 165 2.12 169 2.15
  42  0.376  0.251  0.551- 164 2.10 170 2.10 219 2.10 171 2.13 172 2.14 166 2.15
  43  0.250  0.250  0.648- 170 2.08 171 2.11 161 2.11 169 2.12 154 2.12
  44  0.375  0.125  0.648- 170 2.08 172 2.10 217 2.12 169 2.12 162 2.12
  45  0.000  0.875  0.352- 173 2.11 143 2.11 176 2.11 183 2.11 256 2.11
  46  0.125  0.500  0.352- 174 2.11 144 2.11 175 2.11 184 2.11 191 2.11
  47  0.000  0.500  0.451- 175 2.11 174 2.11 141 2.11 181 2.11 254 2.11 179 2.12
  48  0.125  0.875  0.451- 176 2.11 173 2.11 142 2.11 182 2.11 189 2.11 180 2.12
  49  0.000  0.875  0.550- 180 2.11 147 2.11 187 2.11 260 2.11 173 2.12 177 2.15
  50  0.125  0.500  0.550- 195 2.09 148 2.11 179 2.11 188 2.12 174 2.12 178 2.15
  51  0.001  0.500  0.649- 178 2.09 258 2.10 179 2.11 145 2.11 185 2.12
  52  0.125  0.875  0.649- 146 2.10 193 2.11 186 2.11 180 2.11 177 2.11
  53  0.000  0.625  0.352- 181 2.11 175 2.11 183 2.11 184 2.11 264 2.11
  54  0.125  0.750  0.352- 182 2.11 176 2.11 183 2.11 184 2.11 199 2.11
  55  0.000  0.750  0.451- 183 2.11 181 2.11 182 2.11 173 2.11 262 2.11 187 2.12
  56  0.125  0.625  0.451- 184 2.11 181 2.11 182 2.11 174 2.11 197 2.11 188 2.12
  57  0.000  0.625  0.550- 188 2.10 187 2.11 179 2.11 268 2.12 181 2.12 185 2.15
  58  0.125  0.750  0.550- 203 2.11 180 2.11 188 2.11 187 2.11 182 2.12 186 2.15
  59  0.000  0.750  0.649- 186 2.10 177 2.10 187 2.11 185 2.11 266 2.11
  60  0.125  0.625  0.649- 201 2.09 178 2.11 188 2.11 185 2.11 186 2.11
[...]
 254  0.875  0.500  0.451- 126 2.11  96 2.11  47 2.11 127 2.11 136 2.11 130 2.12
 255  0.750  0.500  0.352- 127 2.11 110 2.11 126 2.11  93 2.11 133 2.11
 256  0.875  0.875  0.352- 128 2.11  94 2.11 125 2.11  45 2.11 134 2.11
 257  0.750  0.875  0.651- 139 2.09  99 2.11 132 2.11 116 2.12 129 2.15
 258  0.876  0.500  0.651- 131 2.04  51 2.10 140 2.12 100 2.13 130 2.16
 259  0.748  0.500  0.552- 131 2.08 114 2.10 137 2.11  97 2.12 130 2.15 127 2.16
 260  0.875  0.875  0.550- 138 2.10 129 2.11 132 2.11  49 2.11  98 2.11 128 2.12
 261  0.750  0.625  0.451- 133 2.11 127 2.11 120 2.11 135 2.11 136 2.11 137 2.13
 262  0.875  0.750  0.451- 134 2.11 128 2.11  55 2.11 135 2.11 136 2.11 138 2.12
 263  0.750  0.750  0.352- 135 2.11 125 2.11 133 2.11 134 2.11 118 2.11
 264  0.875  0.625  0.352- 136 2.11 126 2.11 133 2.11 134 2.11  53 2.11
 265  0.750  0.625  0.652- 131 2.12 124 2.12 139 2.13 140 2.13 137 2.15
 266  0.875  0.750  0.651- 140 2.10 139 2.10 132 2.11  59 2.11 138 2.15
 267  0.750  0.750  0.550- 137 2.10 139 2.11 122 2.11 138 2.12 129 2.12 135 2.12
 268  0.875  0.625  0.550- 137 2.10 140 2.11 130 2.11 138 2.12  57 2.12 136 2.12

IMPORTANT INFORMATION: All symmetrisations will be switched off!
NOSYMM: (Re-)initialisation of all symmetry stuff for point group C_1.

                                     Primitive cell

  volume of cell :    6079.2794

  direct lattice vectors                    reciprocal lattice vectors
    16.881969308  0.000000000  0.000000000     0.059234796  0.000000000  0.000000000
     0.000000000 16.881969308  0.000000000     0.000000000  0.059234796  0.000000000
     0.000000000  0.000000000 21.330738491     0.000000000  0.000000000  0.046880702

  length of vectors
    16.881969308 16.881969308 21.330738491     0.059234796  0.059234796  0.046880702

  position of ions in fractional coordinates (direct lattice)
     0.454952297  0.450679083  0.761650957
     0.355532226  0.372815326  0.786579602
     0.581354248  0.331303927  0.763804079
     0.674247474  0.342842760  0.767260901
     0.450504221  0.316371457  0.761263871
     0.488953074  0.228366438  0.785323628
     0.617854620  0.493860564  0.708485981
     0.470725556  0.543685030  0.770815212
     0.398289219  0.376585777  0.756438141
     0.625682443  0.369307491  0.754800651
     0.499441554  0.272002590  0.756970706
     0.494895823  0.495937885  0.754258061
     0.000000000  0.375000000  0.351605267
     0.125000000  0.000000000  0.351605267
     0.000000000  0.000000000  0.450535089
     0.125000000  0.375000000  0.450535089
     0.000473976  0.374839352  0.550038770
     0.125122728  0.000110445  0.550026380
     0.000271183  0.999976755  0.648669490
     0.125276386  0.374687369  0.648673277
     0.000000000  0.125000000  0.351605267
     0.125000000  0.250000000  0.351605267
     0.000000000  0.250000000  0.450535089
[...]
   2.11624988  4.22133530 11.73247414
   0.00887349  4.21258531 13.83557815
   2.11380447  2.10855875 13.83595273
   4.22049233  6.33073849  7.50000000
   6.33073849  0.00000000  7.50000000
   4.22049233  0.00000000  9.61024616
   6.33073849  6.33073849  9.61024616
   4.24096502  6.32712181 11.74996161
   6.33068818  0.00491597 11.73209805
   4.21853681  0.00296996 13.83593377
   6.31927706  6.31621333 14.05327333
   4.22049233  2.11024616  7.50000000
   6.33073849  4.22049233  7.50000000
   4.22049233  4.22049233  9.61024616
   6.33073849  2.11024616  9.61024616
   4.22522201  2.11533367 11.73223801
   6.34538704  4.24062877 11.76101764
   4.22461022  4.21886870 13.83157321
   6.32713645  2.11341128 13.82886400
   0.00000000 14.77172314  7.50000000
   2.11024616  8.44098465  7.50000000
   0.00000000  8.44098465  9.61024616
   2.11024616 14.77172314  9.61024616
   0.00239630 14.77372090 11.73219952
   2.11429003  8.43723843 11.73059479
   0.01507147  8.44157921 13.83752452
   2.11024377 14.77569251 13.83666830
   0.00000000 10.55123082  7.50000000
   2.11024616 12.66147698  7.50000000
   0.00000000 12.66147698  9.61024616
   2.11024616 10.55123082  9.61024616
   0.00625321 10.55297297 11.73287093
   2.11098733 12.66360800 11.73196628
   0.00701195 12.66864877 13.83655462
   2.11126955 10.55624881 13.83545653
[...]
  14.77172314  8.44098465  9.61024616
  12.66147698  8.44098465  7.50000000
  14.77172314 14.77172314  7.50000000
  12.66847310 14.77321712 13.88441682
  14.79696011  8.44689501 13.88881145
  12.63336716  8.44598375 11.76522190
  14.77178463 14.76904302 11.72718678
  12.66147698 10.55123082  9.61024616
  14.77172314 12.66147698  9.61024616
  12.66147698 12.66147698  7.50000000
  14.77172314 10.55123082  7.50000000
  12.66281943 10.55243016 13.89791811
  14.77469291 12.66454659 13.88417903
  12.65837932 12.65770827 11.73100929
  14.76781333 10.54785846 11.73114508

--------------------------------------- Iteration      FINAL  ---------------------------------------

--------------------OUTCAR has been truncated-------------------------

[...]

--------------------OUTCAR has been truncated-------------------------

 VOLUME and BASIS-vectors are now :
  energy-cutoff  :      520.00
  volume of cell :     6079.28
      direct lattice vectors                 reciprocal lattice vectors
    16.881969308  0.000000000  0.000000000     0.059234796  0.000000000  0.000000000
     0.000000000 16.881969308  0.000000000     0.000000000  0.059234796  0.000000000
     0.000000000  0.000000000 21.330738491     0.000000000  0.000000000  0.046880702

  length of vectors
    16.881969308 16.881969308 21.330738491     0.059234796  0.059234796  0.046880702

 FORCES acting on ions:
    Electron-Ion                     Ewald-Force                    Non-Local-Force
   0.394E+02 0.149E+02 -.286E+03   -.431E+02 -.195E+02 0.287E+03   0.388E+01 0.464E+01 -.905E+00
   0.885E+02 0.537E+01 -.308E+03   -.944E+02 -.585E+01 0.313E+03   0.595E+01 0.489E+00 -.526E+01
   0.217E+02 0.445E+02 -.288E+03   -.271E+02 -.488E+02 0.289E+03   0.545E+01 0.442E+01 -.130E+01
   -.959E+02 0.403E+02 -.290E+03   0.103E+03 -.438E+02 0.293E+03   -.694E+01 0.355E+01 -.218E+01
   0.310E+02 0.426E+01 -.280E+03   -.331E+02 -.229E+01 0.281E+03   0.219E+01 -.199E+01 -.283E+00
   0.154E+02 0.902E+02 -.305E+03   -.167E+02 -.963E+02 0.310E+03   0.138E+01 0.616E+01 -.498E+01
   -.108E+02 -.123E+02 -.344E+03   0.924E+01 0.110E+02 0.351E+03   0.151E+01 0.134E+01 -.753E+01
   0.364E+02 -.954E+02 -.295E+03   -.396E+02 0.102E+03 0.298E+03   0.325E+01 -.679E+01 -.292E+01
   0.156E+03 -.140E+02 -.165E+04   -.136E+03 0.204E+02 0.162E+04   -.174E+02 -.559E+01 0.184E+02
   -.154E+03 -.510E+02 -.166E+04   0.145E+03 0.898E+02 0.165E+04   0.726E+01 -.339E+02 0.951E+01
   -.316E+02 0.163E+03 -.164E+04   0.515E+02 -.149E+03 0.162E+04   -.174E+02 -.123E+02 0.189E+02
   -.547E+02 -.155E+03 -.166E+04   0.899E+02 0.145E+03 0.165E+04   -.308E+02 0.942E+01 0.105E+02
   0.663E+00 -.431E+00 0.208E+04   -.530E+00 0.372E+00 -.207E+04   -.897E-01 0.393E-01 -.676E+01
   0.316E+01 0.321E+01 0.208E+04   -.311E+01 -.316E+01 -.207E+04   -.379E-01 -.362E-01 -.678E+01
   -.120E+00 0.471E+01 0.703E+03   0.187E+00 -.467E+01 -.703E+03   -.425E-01 -.277E-01 0.446E+00
   0.846E+01 0.255E+00 0.713E+03   -.813E+01 -.304E+00 -.714E+03   -.205E+00 0.309E-01 0.372E+00
   0.347E+01 -.988E+00 -.657E+03   -.298E+01 0.843E+00 0.657E+03   -.438E+00 0.128E+00 -.923E-01
   0.910E+01 0.924E+01 -.667E+03   -.896E+01 -.909E+01 0.667E+03   -.130E+00 -.127E+00 -.112E+00
   -.273E+00 0.108E+02 -.204E+04   0.419E+00 -.107E+02 0.203E+04   -.127E+00 -.817E-01 0.571E+01
   0.522E+02 -.267E+00 -.201E+04   -.512E+02 0.464E-01 0.201E+04   -.911E+00 0.194E+00 0.569E+01
   0.608E-02 0.402E+01 0.208E+04   0.602E-01 -.400E+01 -.207E+04   -.447E-01 -.724E-02 -.677E+01
   0.445E+01 0.302E+01 0.208E+04   -.433E+01 -.302E+01 -.207E+04   -.800E-01 -.119E-02 -.680E+01
   -.144E+00 0.394E+01 0.709E+03   0.300E+00 -.398E+01 -.709E+03   -.998E-01 0.298E-01 0.457E+00
   0.638E+01 0.720E+01 0.708E+03   -.625E+01 -.714E+01 -.708E+03   -.815E-01 -.371E-01 0.408E+00
   -.993E-01 0.104E+02 -.664E+03   0.274E+00 -.104E+02 0.664E+03   -.152E+00 0.100E-01 -.956E-01
   0.215E+02 0.105E+02 -.652E+03   -.210E+02 -.104E+02 0.652E+03   -.460E+00 -.756E-01 -.118E+00
   0.109E+01 0.117E+02 -.203E+04   -.610E+00 -.119E+02 0.202E+04   -.421E+00 0.165E+00 0.573E+01
   0.251E+02 0.231E+02 -.203E+04   -.247E+02 -.229E+02 0.202E+04   -.374E+00 -.165E+00 0.571E+01
   0.644E+01 -.128E-01 0.209E+04   -.638E+01 -.518E-01 -.208E+04   -.418E-01 0.429E-01 -.690E+01
   0.306E+01 0.453E+01 0.208E+04   -.307E+01 -.442E+01 -.207E+04   0.792E-02 -.736E-01 -.680E+01
   0.723E+01 0.648E+01 0.708E+03   -.719E+01 -.636E+01 -.708E+03   -.297E-01 -.785E-01 0.412E+00
   0.693E+01 -.237E+00 0.734E+03   -.697E+01 0.109E-01 -.734E+03   0.441E-01 0.143E+00 -.328E-01
   0.389E+02 0.851E+00 -.628E+03   -.379E+02 -.105E+01 0.629E+03   -.908E+00 0.170E+00 -.495E+00
   0.104E+02 0.217E+02 -.652E+03   -.103E+02 -.212E+02 0.652E+03   -.255E-01 -.427E+00 -.981E-01
   0.227E+02 0.253E+02 -.203E+04   -.225E+02 -.249E+02 0.202E+04   -.120E+00 -.361E+00 0.571E+01
   0.138E+03 0.213E+01 -.183E+04   -.138E+03 -.293E+01 0.183E+04   -.197E-01 0.704E+00 -.121E+00
   0.528E+01 0.528E+01 0.208E+04   -.522E+01 -.521E+01 -.207E+04   -.431E-01 -.496E-01 -.681E+01
   0.420E+01 0.416E+01 0.209E+04   -.422E+01 -.416E+01 -.208E+04   0.149E-01 -.591E-03 -.694E+01
   0.108E+02 0.658E+01 0.720E+03   -.106E+02 -.645E+01 -.720E+03   -.166E+00 -.814E-01 0.264E+00
   0.682E+01 0.107E+02 0.720E+03   -.674E+01 -.104E+02 -.721E+03   -.503E-01 -.177E+00 0.258E+00
   0.228E+02 0.230E+02 -.646E+03   -.226E+02 -.227E+02 0.646E+03   -.258E+00 -.294E+00 -.126E+00
   0.271E+02 0.269E+02 -.603E+03   -.266E+02 -.261E+02 0.605E+03   -.454E+00 -.679E+00 -.142E+01
   0.876E+02 0.461E+02 -.198E+04   -.866E+02 -.460E+02 0.197E+04   -.923E+00 -.165E+00 0.576E+01
   0.455E+02 0.883E+02 -.197E+04   -.455E+02 -.872E+02 0.197E+04   -.412E-01 -.987E+00 0.576E+01
   0.342E+00 0.389E+00 0.208E+04   -.284E+00 -.339E+00 -.207E+04   -.386E-01 -.331E-01 -.676E+01
   0.483E+01 -.318E+01 0.208E+04   -.472E+01 0.311E+01 -.207E+04   -.756E-01 0.423E-01 -.680E+01
   0.195E+01 -.487E+01 0.709E+03   -.163E+01 0.482E+01 -.709E+03   -.212E+00 0.297E-01 0.477E+00
   0.461E+01 -.181E-01 0.703E+03   -.456E+01 0.719E-01 -.703E+03   -.308E-01 -.350E-01 0.445E+00
   0.104E+01 0.108E+01 -.670E+03   -.893E+00 -.951E+00 0.670E+03   -.130E+00 -.114E+00 -.102E+00
   0.233E+02 -.104E+02 -.651E+03   -.228E+02 0.102E+02 0.651E+03   -.482E+00 0.204E+00 -.512E-01
   0.142E+01 -.126E+02 -.203E+04   -.960E+00 0.125E+02 0.202E+04   -.409E+00 0.606E-01 0.569E+01
   0.106E+02 -.322E+00 -.204E+04   -.105E+02 0.432E+00 0.203E+04   -.887E-01 -.955E-01 0.571E+01
   0.106E+01 -.397E+01 0.208E+04   -.942E+00 0.397E+01 -.207E+04   -.801E-01 0.113E-02 -.675E+01
   0.348E+01 -.306E+01 0.208E+04   -.342E+01 0.306E+01 -.207E+04   -.354E-01 -.517E-02 -.677E+01
   0.129E+01 -.378E+01 0.703E+03   -.117E+01 0.382E+01 -.703E+03   -.751E-01 -.311E-01 0.465E+00
   0.767E+01 -.742E+01 0.709E+03   -.757E+01 0.736E+01 -.709E+03   -.672E-01 0.379E-01 0.418E+00
   0.512E+01 -.105E+02 -.664E+03   -.465E+01 0.105E+02 0.664E+03   -.416E+00 -.249E-01 -.115E+00
   0.103E+02 -.928E+01 -.666E+03   -.101E+02 0.928E+01 0.666E+03   -.126E+00 -.133E-02 -.109E+00
   0.258E+01 -.986E+01 -.204E+04   -.218E+01 0.100E+02 0.203E+04   -.356E+00 -.139E+00 0.571E+01
   0.270E+02 -.224E+02 -.203E+04   -.265E+02 0.223E+02 0.202E+04   -.374E+00 0.728E-01 0.571E+01
[...]
   -.460E+01 -.333E+01 0.156E+04   0.464E+01 0.328E+01 -.157E+04   -.501E-01 0.612E-01 0.318E+01
   -.189E+01 0.579E+00 0.156E+04   0.192E+01 -.533E+00 -.156E+04   -.274E-01 -.514E-01 0.305E+01
   -.115E+02 -.971E+00 -.155E+04   0.114E+02 0.124E+01 0.155E+04   0.105E+00 -.238E+00 -.445E+01
   -.372E+02 -.147E+02 -.153E+04   0.386E+02 0.146E+02 0.154E+04   -.125E+01 0.152E+00 -.439E+01
   -.164E+02 -.141E+02 -.484E+03   0.168E+02 0.139E+02 0.483E+03   -.292E+00 0.163E+00 0.753E+00
   -.513E+01 0.815E+00 -.496E+03   0.518E+01 -.699E+00 0.496E+03   -.428E-01 -.102E+00 0.229E+00
   -.581E+01 -.582E+01 0.530E+03   0.595E+01 0.596E+01 -.530E+03   -.169E+00 -.181E+00 0.363E-01
   -.222E+01 -.220E+01 0.527E+03   0.228E+01 0.226E+01 -.527E+03   -.784E-01 -.774E-01 -.221E-01
   -.306E+01 -.192E+01 0.156E+04   0.308E+01 0.198E+01 -.156E+04   -.248E-01 -.737E-01 0.310E+01
   -.193E+01 -.308E+01 0.156E+04   0.200E+01 0.310E+01 -.156E+04   -.760E-01 -.286E-01 0.310E+01
   -.310E+02 -.316E+02 -.153E+04   0.310E+02 0.316E+02 0.153E+04   -.650E-02 -.220E-01 -.447E+01
   -.112E+02 -.112E+02 -.155E+04   0.114E+02 0.114E+02 0.155E+04   -.234E+00 -.228E+00 -.443E+01
   -.929E+01 -.722E+01 -.489E+03   0.937E+01 0.741E+01 0.489E+03   -.703E-01 -.164E+00 0.298E+00
   -.731E+01 -.944E+01 -.489E+03   0.751E+01 0.953E+01 0.489E+03   -.179E+00 -.765E-01 0.301E+00
   0.550E+02 0.411E+02 0.263E+02   -.568E-12 -.341E-12 -.118E-10   -.457E+02 -.342E+02 -.245E+02

 POSITION                                       TOTAL-FORCE (eV/Angst)
      7.68049      7.60835     16.24658         0.304807      0.276416     -0.130100
      6.00208      6.29386     16.77832         0.366775      0.038400     -0.363359
      9.81440      5.59306     16.29251         0.305204      0.324925     -0.140038
     11.38263      5.78786     16.36624        -0.414969      0.263048     -0.138247
      7.60540      5.34097     16.23832         0.196834     -0.105357     -0.112836
      8.25449      3.85528     16.75153         0.102081      0.373574     -0.333537
     10.43060      8.33734     15.11253         0.064008      0.052033     -0.430009
      7.94677      9.17847     16.44206         0.236014     -0.405599     -0.184053
      6.72391      6.35751     16.13538        -0.219694     -0.127109      0.270613
     10.56275      6.23464     16.10046         0.059343     -0.600403      0.111927
      8.43156      4.59194     16.14674        -0.379623     -0.096095      0.287519
      8.35482      8.37241     16.08888        -0.578301      0.063702      0.130911
      0.00000      6.33074      7.50000         0.029477     -0.013660      0.582924
      2.11025      0.00000      7.50000         0.012680      0.012038      0.589481
      0.00000      0.00000      9.61025         0.016916      0.010324      0.044411
      2.11025      6.33074      9.61025         0.089369     -0.012390      0.088765
      0.00800      6.32803     11.73273         0.007113     -0.001378      0.011362
      2.11232      0.00186     11.73247         0.002687      0.002145      0.011192
      0.00458     16.88158     13.83660         0.002452      0.001558     -0.195825
      2.11491      6.32546     13.83668         0.016607     -0.003319     -0.194423
      0.00000      2.11025      7.50000         0.014873      0.002624      0.587580
      2.11025      4.22049      7.50000         0.026567      0.000846      0.598399
      0.00000      4.22049      9.61025         0.040798     -0.011224      0.042697
      2.11025      2.11025      9.61025         0.031856      0.014446      0.058338
      0.00385      2.10887     11.73198         0.003106     -0.000017      0.011041
      2.11625      4.22134     11.73247         0.008690      0.000506      0.011720
      0.00887      4.21259     13.83558         0.007197     -0.002075     -0.196617
      2.11380      2.10856     13.83595         0.007524      0.003369     -0.196753
      4.22049      6.33074      7.50000         0.014515     -0.015123      0.625882
      6.33074      0.00000      7.50000        -0.002361      0.024109      0.596839
      4.22049      0.00000      9.61025         0.011356      0.030422      0.057032
      6.33074      6.33074      9.61025         0.002008     -0.059507      0.190412
      4.24097      6.32712     11.74996         0.014296     -0.003113      0.015725
      6.33069      0.00492     11.73210        -0.000484      0.007477      0.011061
      4.21854      0.00297     13.83593         0.001899      0.006846     -0.196348
      6.31928      6.31621     14.05327         0.014773     -0.011955     -0.012635
      4.22049      2.11025      7.50000         0.014756      0.016944      0.603271
      6.33074      4.22049      7.50000        -0.004669      0.000821      0.638526
      4.22049      4.22049      9.61025         0.076855      0.035721      0.121273
      6.33074      2.11025      9.61025         0.022634      0.081995      0.119059
      4.22522      2.11533     11.73224         0.002716      0.004424      0.011566
      6.34539      4.24063     11.76102         0.007281      0.010196      0.031208
      4.22461      4.21887     13.83157         0.012112      0.002045     -0.197539
      6.32714      2.11341     13.82886        -0.002715      0.014628     -0.200636
      0.00000     14.77172      7.50000         0.012915      0.011063      0.583412
      2.11025      8.44098      7.50000         0.025177     -0.014625      0.596950
      0.00000      8.44098      9.61025         0.075904     -0.011156      0.034795
      2.11025     14.77172      9.61025         0.011869      0.013745      0.045732
      0.00240     14.77372     11.73220         0.002622      0.002106      0.010608
      2.11429      8.43724     11.73059         0.009072     -0.002480      0.010613
      0.01507      8.44158     13.83752         0.004569     -0.000902     -0.194136
      2.11024     14.77569     13.83667         0.001735      0.002245     -0.196143
      0.00000     10.55123      7.50000         0.026589      0.000027      0.578671
      2.11025     12.66148      7.50000         0.012031      0.001874      0.585924
      0.00000     12.66148      9.61025         0.027796      0.011702      0.038845
      2.11025     10.55123      9.61025         0.023260     -0.013956      0.048487
      0.00625     10.55297     11.73287         0.006768     -0.000552      0.011280
      2.11099     12.66361     11.73197         0.002191     -0.000500      0.010565
      0.00701     12.66865     13.83655         0.005339      0.001605     -0.195202
      2.11127     10.55625     13.83546         0.006962     -0.002419     -0.195843
[...]
     14.77172      8.44098      9.61025        -0.099454      0.022481      0.142632
     12.66148      8.44098      7.50000        -0.017349      0.020549     -0.367928
     14.77172     14.77172      7.50000        -0.006916     -0.014981     -0.407430
     12.66847     14.77322     13.88442         0.004402     -0.004344     -0.126529
     14.79696      8.44690     13.88881        -0.034504      0.005095     -0.124430
     12.63337      8.44598     11.76522        -0.003757      0.003257      0.023118
     14.77178     14.76904     11.72719        -0.001780     -0.001707      0.014870
     12.66148     10.55123      9.61025        -0.061145     -0.067090      0.157708
     14.77172     12.66148      9.61025        -0.028216     -0.029382      0.077093
     12.66148     12.66148      7.50000        -0.008320     -0.024735     -0.393693
     14.77172     10.55123      7.50000        -0.023280     -0.011778     -0.391557
     12.66282     10.55243     13.89792         0.001120      0.001236     -0.131270
     14.77469     12.66455     13.88418        -0.004697     -0.006232     -0.127858
     12.65838     12.65771     11.73101        -0.001818     -0.004772      0.017493
     14.76781     10.54786     11.73115        -0.006006     -0.000410      0.017689
    total drift:                               -0.006370     -0.004514      0.050843

  FREE ENERGIE OF THE ION-ELECTRON SYSTEM (eV)
  free  energy   TOTEN  =     -1961.66371979 eV

  energy  without entropy=    -1961.66371979  energy(sigma->0) =    -1961.66371979