 vasp.6.3.0 20Jan22 (build Apr  1 2022 16:44:48) complex
 executed on        HPECrayEX_GCC date 2023.01.23  22:14:38

 INCAR:
   SYSTEM = MgO-rocksalt
   ISMEAR = 0
   SIGMA = 0.05
   EDIFF = 1E-8
   ALGO = ALL
   ISTART = 0
   IBRION = 5
   POTIM = 0.01
   NFREE = 2
   ISYM = 0
   DIPOL = 0.5 0.5 0.5
   IDIPOL = 3
   LDIPOL = .TRUE.
   GGA = PE
   IVDW = 1
   VDW_C6 = 1.75 0.70 0.14 0.63 0.70
   VDW_R0 = 1.452 1.342 1.001 1.243 1.342
   ENCUT = 600
   PREC = Accurate
   LASPH = .TRUE.
   LREAL = .FALSE.
   ISPIN = 1
   NELM = 200
   NELMIN = 8
   NCORE = 8
   KPAR = 1
   LWAVE = .FALSE.
   LCHARG = .FALSE.

 POTCAR:    PAW_PBE C 08Apr2002
 POTCAR:    PAW_PBE O 08Apr2002
 POTCAR:    PAW_PBE H 15Jun2001
 POTCAR:    PAW_PBE Mg_pv 13Apr2007
 POTCAR:    PAW_PBE O 08Apr2002
 POTCAR:    PAW_PBE C 08Apr2002
   VRHFIN =C: s2p2

   TITEL  = PAW_PBE C 08Apr2002
   POMASS =   12.011; ZVAL   =    4.000    mass and valenz
   ENMAX  =  400.000; ENMIN  =  300.000 eV

[...]

   TITEL  = PAW_PBE H 15Jun2001
   POMASS =    1.000; ZVAL   =    1.000    mass and valenz
   ENMAX  =  250.000; ENMIN  =  200.000 eV

   TITEL  = PAW_PBE Mg_pv 13Apr2007
   POMASS =   24.305; ZVAL   =    8.000    mass and valenz
   ENMAX  =  403.929; ENMIN  =  302.947 eV

   TITEL  = PAW_PBE O 08Apr2002
   POMASS =   16.000; ZVAL   =    6.000    mass and valenz
   ENMAX  =  400.000; ENMIN  =  300.000 eV

  PAW_PBE C 08Apr2002                   :
  PAW_PBE O 08Apr2002                   :
  PAW_PBE H 15Jun2001                   :
  PAW_PBE Mg_pv 13Apr2007               :
  PAW_PBE O 08Apr2002                   :

 POSCAR:  C  O  H Mg  O
  positions in direct lattice
 exchange correlation table for  LEXCH =        8
   RHO(1)=    0.500       N(1)  =     2000
   RHO(2)=  100.500       N(2)  =     4000

 ion  position               nearest neighbor table
   1  0.500  0.443  0.790-   3 1.10   5 1.11   6 1.11   2 1.43
   2  0.500  0.277  0.778-   4 1.00   1 1.43
   3  0.500  0.462  0.841-   1 1.10
   4  0.500  0.262  0.732-   2 1.00
   5  0.607  0.502  0.771-   1 1.11
   6  0.393  0.502  0.771-   1 1.11
   7  0.250  0.000  0.351-  39 2.12  41 2.12  42 2.12  49 2.12  58 2.12
   8  0.500  0.250  0.351-  40 2.12  41 2.12  42 2.12  50 2.12  57 2.12
   9  0.250  0.250  0.450-  41 2.12  40 2.12  39 2.12  47 2.12  56 2.12  45 2.13
  10  0.500  0.000  0.450-  42 2.12  40 2.12  39 2.12  48 2.12  55 2.12  46 2.12
  11  0.250  0.000  0.550-  62 2.12  45 2.12  46 2.12  53 2.12  39 2.13  43 2.14
  12  0.500  0.250  0.550-  45 2.11  61 2.11  54 2.11  46 2.11  40 2.13  44 2.17
  13  0.248  0.250  0.649-  60 2.10  45 2.11  43 2.11  51 2.12  44 2.14
  14  0.500  0.998  0.649-  52 2.09  46 2.11  59 2.12  43 2.12  44 2.14
  15  0.250  0.500  0.351-  47 2.12  41 2.12  49 2.12  50 2.12  66 2.12
  16  0.500  0.750  0.351-  48 2.12  42 2.12  49 2.12  50 2.12  65 2.12
  17  0.250  0.750  0.450-  49 2.12  47 2.12  48 2.12  39 2.12  64 2.12  53 2.12
  18  0.500  0.500  0.450-  50 2.12  47 2.12  48 2.12  40 2.12  63 2.12  54 2.13
  19  0.250  0.500  0.550-  45 2.12  70 2.12  53 2.12  54 2.12  47 2.13  51 2.14
  20  0.500  0.750  0.550-  53 2.12  69 2.12  46 2.12  54 2.12  48 2.13  52 2.14
  21  0.249  0.750  0.649-  53 2.11  68 2.11  43 2.11  51 2.12  52 2.12
  22  0.500  0.503  0.649-  52 2.09  54 2.11  67 2.12  51 2.12  44 2.15
  23  0.750  0.000  0.351-  55 2.12  42 2.12  57 2.12  58 2.12  65 2.12
  24  0.000  0.250  0.351-  56 2.12  41 2.12  57 2.12  58 2.12  66 2.12
  25  0.750  0.250  0.450-  57 2.12  55 2.12  56 2.12  40 2.12  63 2.12  61 2.13
  26  0.000  0.000  0.450-  58 2.12  55 2.12  56 2.12  39 2.12  64 2.12  62 2.12
  27  0.750  0.000  0.550-  62 2.12  61 2.12  46 2.12  69 2.12  55 2.13  59 2.14
  28  0.000  0.250  0.550-  62 2.12  70 2.12  45 2.12  61 2.12  56 2.13  60 2.14
  29  0.752  0.250  0.649-  60 2.10  61 2.11  59 2.11  67 2.12  44 2.14
  30  0.000  1.000  0.649-  62 2.11  68 2.11  59 2.12  43 2.12  60 2.12
  31  0.750  0.500  0.351-  63 2.12  57 2.12  50 2.12  65 2.12  66 2.12
  32  0.000  0.750  0.351-  64 2.12  58 2.12  49 2.12  65 2.12  66 2.12
  33  0.750  0.750  0.450-  65 2.12  55 2.12  63 2.12  64 2.12  48 2.12  69 2.12
  34  0.000  0.500  0.450-  66 2.12  56 2.12  63 2.12  64 2.12  47 2.12  70 2.12
  35  0.750  0.500  0.550-  61 2.12  70 2.12  69 2.12  54 2.12  63 2.13  67 2.14
  36  0.000  0.750  0.550-  62 2.12  53 2.12  69 2.12  70 2.12  64 2.13  68 2.14
  37  0.751  0.750  0.649-  69 2.11  68 2.11  59 2.11  67 2.12  52 2.12
  38  1.000  0.500  0.649-  70 2.11  68 2.11  67 2.12  51 2.12  60 2.12
  39  0.250  0.000  0.450-   7 2.12   9 2.12  10 2.12  17 2.12  26 2.12  11 2.13
  40  0.500  0.250  0.450-   8 2.12   9 2.12  10 2.12  18 2.12  25 2.12  12 2.13
  41  0.250  0.250  0.351-   9 2.12   8 2.12   7 2.12  15 2.12  24 2.12
  42  0.500  0.000  0.351-  10 2.12   8 2.12   7 2.12  16 2.12  23 2.12
  43  0.250  0.000  0.650-  13 2.11  21 2.11  14 2.12  30 2.12  11 2.14
  44  0.500  0.250  0.652-  14 2.14  29 2.14  13 2.14  22 2.15  12 2.17
  45  0.250  0.250  0.550-  13 2.11  12 2.11  19 2.12  11 2.12  28 2.12   9 2.13
  46  0.500  0.001  0.550-  14 2.11  12 2.11  11 2.12  27 2.12  20 2.12  10 2.12
  47  0.250  0.500  0.450-  15 2.12   9 2.12  17 2.12  18 2.12  34 2.12  19 2.13
  48  0.500  0.750  0.450-  16 2.12  10 2.12  17 2.12  18 2.12  33 2.12  20 2.13
  49  0.250  0.750  0.351-  17 2.12  15 2.12  16 2.12   7 2.12  32 2.12
  50  0.500  0.500  0.351-  18 2.12  15 2.12  16 2.12   8 2.12  31 2.12
  51  0.250  0.500  0.651-  38 2.12  22 2.12  13 2.12  21 2.12  19 2.14
  52  0.500  0.750  0.650-  22 2.09  14 2.09  21 2.12  37 2.12  20 2.14
  53  0.250  0.750  0.550-  21 2.11  20 2.12  19 2.12  36 2.12  11 2.12  17 2.12
  54  0.500  0.500  0.550-  22 2.11  12 2.11  19 2.12  35 2.12  20 2.12  18 2.13
  55  0.750  0.000  0.450-  23 2.12  10 2.12  25 2.12  26 2.12  33 2.12  27 2.13
  56  0.000  0.250  0.450-  24 2.12   9 2.12  25 2.12  26 2.12  34 2.12  28 2.13
  57  0.750  0.250  0.351-  25 2.12  23 2.12  24 2.12   8 2.12  31 2.12
  58  0.000  0.000  0.351-  26 2.12  23 2.12  24 2.12   7 2.12  32 2.12
  59  0.750  0.000  0.650-  29 2.11  37 2.11  14 2.12  30 2.12  27 2.14
  60  0.000  0.250  0.650-  13 2.10  29 2.10  30 2.12  38 2.12  28 2.14
  61  0.750  0.250  0.550-  29 2.11  12 2.11  35 2.12  27 2.12  28 2.12  25 2.13
  62  0.000  0.000  0.550-  30 2.11  28 2.12  11 2.12  27 2.12  36 2.12  26 2.12
  63  0.750  0.500  0.450-  31 2.12  25 2.12  18 2.12  33 2.12  34 2.12  35 2.13
  64  0.000  0.750  0.450-  32 2.12  26 2.12  17 2.12  33 2.12  34 2.12  36 2.13
  65  0.750  0.750  0.351-  33 2.12  23 2.12  31 2.12  32 2.12  16 2.12
  66  0.000  0.500  0.351-  34 2.12  24 2.12  31 2.12  32 2.12  15 2.12
  67  0.750  0.500  0.651-  38 2.12  22 2.12  29 2.12  37 2.12  35 2.14
  68  0.000  0.750  0.651-  21 2.11  37 2.11  30 2.11  38 2.11  36 2.14
  69  0.750  0.750  0.550-  37 2.11  20 2.12  35 2.12  36 2.12  27 2.12  33 2.12
  70  0.000  0.500  0.550-  38 2.11  28 2.12  19 2.12  35 2.12  36 2.12  34 2.12

IMPORTANT INFORMATION: All symmetrisations will be switched off!
NOSYMM: (Re-)initialisation of all symmetry stuff for point group C_1.

                                     Primitive cell

  volume of cell :    1530.6606

  direct lattice vectors                    reciprocal lattice vectors
     8.467142631  0.000000000  0.000000000     0.118103597  0.000000000  0.000000000
     0.000000000  8.467142631  0.000000000     0.000000000  0.118103597  0.000000000
     0.000000000  0.000000000 21.350356973     0.000000000  0.000000000  0.046837624

  length of vectors
     8.467142631  8.467142631 21.350356973     0.118103597  0.118103597  0.046837624

  position of ions in fractional coordinates (direct lattice)
     0.500008528  0.442811238  0.789963205
     0.499998388  0.277053578  0.778392399
     0.499999119  0.461514427  0.840893130
     0.499999705  0.262460587  0.731855014
     0.606594014  0.501547589  0.770644098
     0.393396995  0.501551373  0.770642808
     0.250000000  0.000000000  0.351282183
     0.500000000  0.250000000  0.351282183
     0.250000000  0.250000000  0.450427394
     0.500000000  0.000000000  0.450427394
     0.249964764  0.000103943  0.550210473
     0.500000013  0.250138470  0.550111617
     0.247597848  0.249703690  0.648900299
     0.500000032  0.997643372  0.648608803
     0.250000000  0.500000000  0.351282183
     0.500000000  0.750000000  0.351282183
     0.250000000  0.750000000  0.450427394
     0.500000000  0.500000000  0.450427394
     0.249934161  0.499954919  0.550269800
     0.500000022  0.750149179  0.550016067
     0.249426732  0.750347777  0.648525466
     0.500000179  0.503438886  0.648721349
     0.750000000  0.000000000  0.351282183
     0.000000000  0.250000000  0.351282183
     0.750000000  0.250000000  0.450427394
     0.000000000  0.000000000  0.450427394
     0.750035290  0.000103918  0.550210466
     0.000000051  0.249990522  0.550104389
     0.752402216  0.249703736  0.648900218
     0.000000027  0.999614871  0.648653615
     0.750000000  0.500000000  0.351282183
     0.000000000  0.750000000  0.351282183
     0.750000000  0.750000000  0.450427394
     0.000000000  0.500000000  0.450427394
     0.750065903  0.499954940  0.550269797
     0.000000027  0.750034659  0.550079269
     0.750573312  0.750347718  0.648525471
     0.999999980  0.500399716  0.648586306
     0.250000000  0.000000000  0.450427394
     0.500000000  0.250000000  0.450427394
     0.250000000  0.250000000  0.351282183
     0.500000000  0.000000000  0.351282183
     0.250114915  0.000086456  0.650344163
     0.500000050  0.249944945  0.651875569
     0.250460693  0.250082886  0.550010585
     0.500000019  0.000559136  0.549917948
     0.250000000  0.500000000  0.450427394
     0.500000000  0.750000000  0.450427394
     0.250000000  0.750000000  0.351282183
     0.500000000  0.500000000  0.351282183
     0.249984110  0.499958207  0.650575978
     0.500000000  0.750361752  0.650316494
     0.250088141  0.749973154  0.549737378
     0.500000021  0.499680357  0.550031638
     0.750000000  0.000000000  0.450427394
     0.000000000  0.250000000  0.450427394
     0.750000000  0.250000000  0.351282183
     0.000000000  0.000000000  0.351282183
     0.749885143  0.000086445  0.650344146
     0.000000048  0.249977219  0.650423646
     0.749539362  0.250082885  0.550010571
     0.000000029  0.000099556  0.549739765
     0.750000000  0.500000000  0.450427394
     0.000000000  0.750000000  0.450427394
     0.750000000  0.750000000  0.351282183
     0.000000000  0.500000000  0.351282183
     0.750016029  0.499958202  0.650575913
     0.000000043  0.750029438  0.650509501
     0.749911909  0.749973147  0.549737375
     0.000000034  0.499904715  0.549757805

  ion indices of the primitive-cell ions
   primitive index   ion index
                 1           1
                 2           2
                 3           3
                 4           4
                 5           5
                 6           6
                 7           7
                 8           8
                 9           9
                10          10
                11          11
                12          12
                13          13
[...]
  5Z    -6.718764   -3.336011    7.924040    0.585837    0.339755   -0.642675   -2.502642   -1.083698    0.967787    0.124296    0.005655   -0.021354    7.436711    3.631217   -7.718258    1.075960    0.440936   -0.531963
  6X    19.541382   -6.893334    6.969233   -0.746911   -0.522036   -0.451987   -0.047355    0.094468   -0.083687   -0.073734   -0.027766    0.131107    1.890676   -0.835810    1.076261  -20.761576    8.227786   -7.430654
  6Y    -6.676171    7.348737   -3.208821   -2.527083    3.248542   -0.556752    0.182889   -0.244627    0.006893    0.045570   -0.125653   -0.374131    0.835187   -0.693678    0.441380    8.220587   -9.577589    3.624282
  6Z     6.705921   -3.328846    7.921524   -0.585579    0.338765   -0.642687    2.502479   -1.083571    0.967953   -0.124307    0.005620   -0.021166   -1.075721    0.441102   -0.531756   -7.424488    3.624148   -7.715519

 Eigenvectors and eigenvalues of the dynamical matrix

   1 f  =   94.202014 THz   591.888711 2PiTHz 3142.240959 cm-1   389.588051 meV
             X         Y         Z           dx          dy          dz
      4.233644  3.749346 16.865996    -0.000081   -0.016064   -0.024962
      4.233558  2.345852 16.618956     0.000007   -0.040435   -0.248016
      4.233564  3.907708 17.953369     0.000000    0.025991    0.104466
      4.233569  2.222291 15.625366    -0.000002    0.142943    0.949110
      5.136118  4.246675 16.453527     0.028684    0.024934   -0.011870
      3.330948  4.246707 16.453499    -0.028355    0.024775   -0.011730
      2.116786  0.000000  7.500000            0           0           0
      4.233571  2.116786  7.500000            0           0           0
      2.116786  2.116786  9.616786            0           0           0
      4.233571  0.000000  9.616786            0           0           0
      2.116487  0.000880 11.747190            0           0           0
      4.233571  2.117958 11.745079            0           0           0
      2.096446  2.114277 13.854253            0           0           0
      4.233572  8.447189 13.848029            0           0           0
      2.116786  4.233571  7.500000            0           0           0
      4.233571  6.350357  7.500000            0           0           0
      2.116786  6.350357  9.616786            0           0           0
      4.233571  4.233571  9.616786            0           0           0
      2.116228  4.233190 11.748457            0           0           0
      4.233572  6.351620 11.743039            0           0           0
      2.111932  6.353302 13.846250            0           0           0
      4.233573  4.262689 13.850432            0           0           0
      6.350357  0.000000  7.500000            0           0           0
      0.000000  2.116786  7.500000            0           0           0
      6.350357  2.116786  9.616786            0           0           0
      0.000000  0.000000  9.616786            0           0           0
      6.350656  0.000880 11.747190            0           0           0
      0.000000  2.116705 11.744925            0           0           0
      6.370697  2.114277 13.854251            0           0           0
      0.000000  8.463882 13.848986            0           0           0
      6.350357  4.233571  7.500000            0           0           0
      0.000000  6.350357  7.500000            0           0           0
      6.350357  6.350357  9.616786            0           0           0
      0.000000  4.233571  9.616786            0           0           0
      6.350915  4.233190 11.748457            0           0           0
      0.000000  6.350650 11.744389            0           0           0
      6.355211  6.353301 13.846250            0           0           0
      8.467142  4.236956 13.847549            0           0           0
      2.116786  0.000000  9.616786            0           0           0
      4.233571  2.116786  9.616786            0           0           0
      2.116786  2.116786  7.500000            0           0           0
      4.233571  0.000000  7.500000            0           0           0
      2.117759  0.000732 13.885080            0           0           0
      4.233572  2.116320 13.917776            0           0           0
      2.120686  2.117487 11.742922            0           0           0
      4.233571  0.004734 11.740944            0           0           0
      2.116786  4.233571  9.616786            0           0           0
      4.233571  6.350357  9.616786            0           0           0
      2.116786  6.350357  7.500000            0           0           0
      4.233571  4.233571  7.500000            0           0           0
      2.116651  4.233217 13.890029            0           0           0
      4.233571  6.353420 13.884489            0           0           0
      2.117532  6.350130 11.737089            0           0           0
      4.233571  4.230865 11.743372            0           0           0
      6.350357  0.000000  9.616786            0           0           0
      0.000000  2.116786  9.616786            0           0           0
      6.350357  2.116786  7.500000            0           0           0
      0.000000  0.000000  7.500000            0           0           0
      6.349384  0.000732 13.885080            0           0           0
      0.000000  2.116593 13.886777            0           0           0
      6.346457  2.117487 11.742922            0           0           0
      0.000000  0.000843 11.737140            0           0           0
      6.350357  4.233571  9.616786            0           0           0
      0.000000  6.350357  9.616786            0           0           0
      6.350357  6.350357  7.500000            0           0           0
      0.000000  4.233571  7.500000            0           0           0
      6.350493  4.233217 13.890028            0           0           0
      0.000000  6.350606 13.888610            0           0           0
      6.349611  6.350130 11.737089            0           0           0
      0.000000  4.232765 11.737525            0           0           0

[...]

  17 f  =    1.405219 THz     8.829253 2PiTHz   46.873068 cm-1     5.811517 meV
             X         Y         Z           dx          dy          dz
      4.233644  3.749346 16.865996     0.011218    0.594214   -0.334017
      4.233558  2.345852 16.618956    -0.004473    0.618088    0.001718
      4.233564  3.907708 17.953369     0.001809    0.246570   -0.107355
      4.233569  2.222291 15.625366    -0.000520    0.081915    0.010033
      5.136118  4.246675 16.453527     0.006810    0.139218   -0.127959
      3.330948  4.246707 16.453499     0.004152    0.145287   -0.130760
      2.116786  0.000000  7.500000            0           0           0
      4.233571  2.116786  7.500000            0           0           0
      2.116786  2.116786  9.616786            0           0           0
      4.233571  0.000000  9.616786            0           0           0
      2.116487  0.000880 11.747190            0           0           0
      4.233571  2.117958 11.745079            0           0           0
      2.096446  2.114277 13.854253            0           0           0
      4.233572  8.447189 13.848029            0           0           0
      2.116786  4.233571  7.500000            0           0           0
      4.233571  6.350357  7.500000            0           0           0
      2.116786  6.350357  9.616786            0           0           0
      4.233571  4.233571  9.616786            0           0           0
      2.116228  4.233190 11.748457            0           0           0
      4.233572  6.351620 11.743039            0           0           0
      2.111932  6.353302 13.846250            0           0           0
      4.233573  4.262689 13.850432            0           0           0
      6.350357  0.000000  7.500000            0           0           0
      0.000000  2.116786  7.500000            0           0           0
      6.350357  2.116786  9.616786            0           0           0
      0.000000  0.000000  9.616786            0           0           0
      6.350656  0.000880 11.747190            0           0           0
      0.000000  2.116705 11.744925            0           0           0
      6.370697  2.114277 13.854251            0           0           0
      0.000000  8.463882 13.848986            0           0           0
      6.350357  4.233571  7.500000            0           0           0
      0.000000  6.350357  7.500000            0           0           0
      6.350357  6.350357  9.616786            0           0           0
      0.000000  4.233571  9.616786            0           0           0
      6.350915  4.233190 11.748457            0           0           0
      0.000000  6.350650 11.744389            0           0           0
      6.355211  6.353301 13.846250            0           0           0
      8.467142  4.236956 13.847549            0           0           0
      2.116786  0.000000  9.616786            0           0           0
      4.233571  2.116786  9.616786            0           0           0
      2.116786  2.116786  7.500000            0           0           0
      4.233571  0.000000  7.500000            0           0           0
      2.117759  0.000732 13.885080            0           0           0
      4.233572  2.116320 13.917776            0           0           0
      2.120686  2.117487 11.742922            0           0           0
      4.233571  0.004734 11.740944            0           0           0
      2.116786  4.233571  9.616786            0           0           0
      4.233571  6.350357  9.616786            0           0           0
      2.116786  6.350357  7.500000            0           0           0
      4.233571  4.233571  7.500000            0           0           0
      2.116651  4.233217 13.890029            0           0           0
      4.233571  6.353420 13.884489            0           0           0
      2.117532  6.350130 11.737089            0           0           0
      4.233571  4.230865 11.743372            0           0           0
      6.350357  0.000000  9.616786            0           0           0
      0.000000  2.116786  9.616786            0           0           0
      6.350357  2.116786  7.500000            0           0           0
      0.000000  0.000000  7.500000            0           0           0
      6.349384  0.000732 13.885080            0           0           0
      0.000000  2.116593 13.886777            0           0           0
      6.346457  2.117487 11.742922            0           0           0
      0.000000  0.000843 11.737140            0           0           0
      6.350357  4.233571  9.616786            0           0           0
      0.000000  6.350357  9.616786            0           0           0
      6.350357  6.350357  7.500000            0           0           0
      0.000000  4.233571  7.500000            0           0           0
      6.350493  4.233217 13.890028            0           0           0
      0.000000  6.350606 13.888610            0           0           0
      6.349611  6.350130 11.737089            0           0           0
      0.000000  4.232765 11.737525            0           0           0

  18 f/i=    1.317185 THz     8.276118 2PiTHz   43.936566 cm-1     5.447437 meV
             X         Y         Z           dx          dy          dz
      4.233644  3.749346 16.865996    -0.263297   -0.001324    0.000350
      4.233558  2.345852 16.618956    -0.928826   -0.001329   -0.000692
      4.233564  3.907708 17.953369    -0.144228   -0.000608    0.000138
      4.233569  2.222291 15.625366    -0.109426   -0.000110   -0.000205
      5.136118  4.246675 16.453527     0.016486   -0.111427    0.070736
      3.330948  4.246707 16.453499     0.016425    0.110775   -0.070313
      2.116786  0.000000  7.500000            0           0           0
      4.233571  2.116786  7.500000            0           0           0
      2.116786  2.116786  9.616786            0           0           0
      4.233571  0.000000  9.616786            0           0           0
      2.116487  0.000880 11.747190            0           0           0
      4.233571  2.117958 11.745079            0           0           0
      2.096446  2.114277 13.854253            0           0           0
      4.233572  8.447189 13.848029            0           0           0
      2.116786  4.233571  7.500000            0           0           0
      4.233571  6.350357  7.500000            0           0           0
      2.116786  6.350357  9.616786            0           0           0
      4.233571  4.233571  9.616786            0           0           0
      2.116228  4.233190 11.748457            0           0           0
      4.233572  6.351620 11.743039            0           0           0
      2.111932  6.353302 13.846250            0           0           0
      4.233573  4.262689 13.850432            0           0           0
      6.350357  0.000000  7.500000            0           0           0
      0.000000  2.116786  7.500000            0           0           0
      6.350357  2.116786  9.616786            0           0           0
      0.000000  0.000000  9.616786            0           0           0
      6.350656  0.000880 11.747190            0           0           0
      0.000000  2.116705 11.744925            0           0           0
      6.370697  2.114277 13.854251            0           0           0
      0.000000  8.463882 13.848986            0           0           0
      6.350357  4.233571  7.500000            0           0           0
      0.000000  6.350357  7.500000            0           0           0
      6.350357  6.350357  9.616786            0           0           0
      0.000000  4.233571  9.616786            0           0           0
      6.350915  4.233190 11.748457            0           0           0
      0.000000  6.350650 11.744389            0           0           0
      6.355211  6.353301 13.846250            0           0           0
      8.467142  4.236956 13.847549            0           0           0
      2.116786  0.000000  9.616786            0           0           0
      4.233571  2.116786  9.616786            0           0           0
      2.116786  2.116786  7.500000            0           0           0
      4.233571  0.000000  7.500000            0           0           0
      2.117759  0.000732 13.885080            0           0           0
      4.233572  2.116320 13.917776            0           0           0
      2.120686  2.117487 11.742922            0           0           0
      4.233571  0.004734 11.740944            0           0           0
      2.116786  4.233571  9.616786            0           0           0
      4.233571  6.350357  9.616786            0           0           0
      2.116786  6.350357  7.500000            0           0           0
      4.233571  4.233571  7.500000            0           0           0
      2.116651  4.233217 13.890029            0           0           0
      4.233571  6.353420 13.884489            0           0           0
      2.117532  6.350130 11.737089            0           0           0
      4.233571  4.230865 11.743372            0           0           0
      6.350357  0.000000  9.616786            0           0           0
      0.000000  2.116786  9.616786            0           0           0
      6.350357  2.116786  7.500000            0           0           0
      0.000000  0.000000  7.500000            0           0           0
      6.349384  0.000732 13.885080            0           0           0
      0.000000  2.116593 13.886777            0           0           0
      6.346457  2.117487 11.742922            0           0           0
      0.000000  0.000843 11.737140            0           0           0
      6.350357  4.233571  9.616786            0           0           0
      0.000000  6.350357  9.616786            0           0           0
      6.350357  6.350357  7.500000            0           0           0
      0.000000  4.233571  7.500000            0           0           0
      6.350493  4.233217 13.890028            0           0           0
      0.000000  6.350606 13.888610            0           0           0
      6.349611  6.350130 11.737089            0           0           0
      0.000000  4.232765 11.737525            0           0           0

 Finite differences POTIM=   1.0000000000000000E-002