 vasp.6.3.0 20Jan22 (build Apr  1 2022 16:44:48) gamma-only
 executed on        HPECrayEX_GCC date 2023.03.12  06:24:15

 INCAR:
   SYSTEM = MgO-rocksalt
   ISMEAR = 0
   SIGMA = 0.05
   EDIFF = 1E-6
   ALGO = ALL
   ISTART = 0
   IBRION = -1
   NSW = 0
   ISYM = 0
   DIPOL = 0.5 0.5 0.5
   IDIPOL = 3
   LDIPOL = .TRUE.
   LHFCALC = .TRUE.
   GGA = B5
   AEXX = 0.2
   AGGAX = 0.72
   AGGAC = 0.81
   ALDAC = 0.19
   IVDW = 1
   VDW_S6 = 1.05
   VDW_C6 = 0.63 0.70
   VDW_R0 = 1.243 1.342
   ENCUT = 520
   PREC = Accurate
   LASPH = .TRUE.
   LREAL = Auto
   ISPIN = 1
   NELM = 200
   NELMIN = 8
   NCORE = 8
   KPAR = 1
   LWAVE = .FALSE.
   LCHARG = .FALSE.

 POTCAR:    PAW_PBE Mg_pv 13Apr2007
 POTCAR:    PAW_PBE O 08Apr2002
 POTCAR:    PAW_PBE Mg_pv 13Apr2007
   VRHFIN =Mg: p6s2

   TITEL  = PAW_PBE Mg_pv 13Apr2007
   POMASS =   24.305; ZVAL   =    8.000    mass and valenz
   ENMAX  =  403.929; ENMIN  =  302.947 eV

   TITEL  = PAW_PBE O 08Apr2002
   POMASS =   16.000; ZVAL   =    6.000    mass and valenz
   ENMAX  =  400.000; ENMIN  =  300.000 eV

 Optimization of the real space projectors (new method)

 maximal supplied QI-value         = 18.90
 optimisation between [QCUT,QGAM] = [ 11.53, 23.24] = [ 37.21,151.29] Ry
 Optimized for a Real-space Cutoff    1.28 Angstroem

   l    n(q)    QCUT    max X(q) W(low)/X(q) W(high)/X(q)  e(spline)
   1      8    11.527     2.974    0.44E-04    0.56E-04    0.12E-06
   1      8    11.527     4.279    0.12E-03    0.12E-03    0.26E-06
   0      9    11.527    16.381    0.46E-04    0.64E-04    0.78E-07
   0      9    11.527     5.611    0.26E-04    0.43E-04    0.55E-07
   2      8    11.527     4.652    0.22E-03    0.72E-04    0.47E-07
 Optimization of the real space projectors (new method)

 maximal supplied QI-value         = 24.76
 optimisation between [QCUT,QGAM] = [ 11.64, 23.27] = [ 37.91,151.63] Ry
 Optimized for a Real-space Cutoff    1.14 Angstroem

   l    n(q)    QCUT    max X(q) W(low)/X(q) W(high)/X(q)  e(spline)
   0      8    11.635    20.381    0.10E-03    0.33E-03    0.24E-06
   0      8    11.635    15.268    0.11E-03    0.35E-03    0.26E-06
   1      7    11.635     5.964    0.24E-03    0.31E-03    0.30E-06
   1      7    11.635     5.382    0.22E-03    0.25E-03    0.26E-06
|               ----> ADVICE to this user running VASP <----                  |
|     You enforced a specific xc type in the INCAR file but a different       |
|     type was found in the POTCAR file.                                      |
|     I HOPE YOU KNOW WHAT YOU ARE DOING!                                     |

  PAW_PBE Mg_pv 13Apr2007               :
  PAW_PBE O 08Apr2002                   :

 POSCAR: Mg  O
  positions in direct lattice
 exchange correlation table for  LEXCH =       12
   RHO(1)=    0.500       N(1)  =     2000
   RHO(2)=  100.500       N(2)  =     4000

 ion  position               nearest neighbor table
   1  0.000  0.375  0.352- 129 2.11 132 2.11 139 2.11 163 2.11 212 2.11
   2  0.125  0.000  0.352- 130 2.11 131 2.11 140 2.11 147 2.11 164 2.11
   3  0.000  0.000  0.451- 135 2.11 131 2.11 130 2.11 137 2.11 161 2.11 210 2.11
   4  0.125  0.375  0.451- 132 2.11 129 2.11 138 2.11 145 2.11 162 2.11 136 2.11
   5  0.000  0.375  0.550- 216 2.11 136 2.11 143 2.11 167 2.11 129 2.11 133 2.15
   6  0.125  1.000  0.550- 151 2.11 144 2.11 135 2.11 168 2.11 130 2.11 134 2.15
   7  0.000  1.000  0.648- 135 2.10 214 2.11 134 2.11 165 2.11 141 2.11
   8  0.125  0.375  0.648- 136 2.10 149 2.10 133 2.11 142 2.11 166 2.11
   9  0.000  0.125  0.352- 137 2.11 131 2.11 139 2.11 140 2.11 220 2.11
  10  0.125  0.250  0.352- 138 2.11 132 2.11 139 2.11 140 2.11 155 2.11
  11  0.000  0.250  0.451- 143 2.11 139 2.11 138 2.11 129 2.11 137 2.11 218 2.11
  12  0.125  0.125  0.451- 144 2.11 140 2.11 138 2.11 130 2.11 137 2.11 153 2.11
  13  0.000  0.125  0.550- 224 2.11 144 2.11 135 2.11 143 2.11 137 2.11 141 2.15
  14  0.125  0.250  0.550- 159 2.10 143 2.11 136 2.11 144 2.11 138 2.11 142 2.15
  15  0.000  0.250  0.648- 143 2.10 142 2.11 222 2.11 141 2.11 133 2.11
  16  0.125  0.125  0.648- 144 2.10 157 2.11 141 2.11 142 2.11 134 2.11
  17  0.250  0.375  0.352- 145 2.11 132 2.11 148 2.11 155 2.11 179 2.11
  18  0.375  0.000  0.352- 146 2.11 147 2.11 156 2.11 180 2.11 195 2.11
  19  0.250  0.000  0.451- 151 2.11 147 2.11 130 2.11 146 2.11 153 2.11 177 2.11
  20  0.375  0.375  0.451- 148 2.11 145 2.11 154 2.11 178 2.11 193 2.11 152 2.12
  21  0.250  0.375  0.550- 152 2.09 159 2.11 183 2.11 136 2.12 145 2.12 149 2.17
  22  0.375  1.000  0.550- 160 2.10 199 2.11 184 2.11 151 2.11 146 2.11 150 2.15
  23  0.250  1.000  0.648- 151 2.10 157 2.10 181 2.11 150 2.11 134 2.11
  24  0.376  0.374  0.650- 197 2.10 158 2.12 149 2.14 182 2.14 152 2.15
  25  0.250  0.125  0.352- 153 2.11 147 2.11 140 2.11 155 2.11 156 2.11
  26  0.375  0.250  0.352- 154 2.11 148 2.11 155 2.11 156 2.11 203 2.11
  27  0.250  0.250  0.451- 159 2.11 155 2.11 153 2.11 154 2.11 138 2.11 145 2.11
  28  0.375  0.125  0.451- 160 2.11 156 2.11 154 2.11 146 2.11 153 2.11 201 2.11
  29  0.250  0.125  0.550- 159 2.11 160 2.11 144 2.11 153 2.11 151 2.11 157 2.15
  30  0.375  0.250  0.550- 152 2.10 207 2.10 158 2.12 160 2.12 159 2.12 154 2.12
  31  0.250  0.250  0.647- 159 2.09 158 2.09 142 2.11 157 2.11 149 2.12
  32  0.375  0.125  0.647- 160 2.08 158 2.09 150 2.11 157 2.11 205 2.12
  33  0.000  0.875  0.352- 161 2.11 131 2.11 164 2.11 171 2.11 244 2.11
  34  0.125  0.500  0.352- 162 2.11 132 2.11 163 2.11 172 2.11 179 2.11
  35  0.000  0.500  0.451- 167 2.11 163 2.11 129 2.11 162 2.11 169 2.11 242 2.11
  36  0.125  0.875  0.451- 168 2.11 164 2.11 130 2.11 161 2.11 170 2.11 177 2.11
  37  0.000  0.875  0.550- 168 2.11 135 2.11 248 2.11 175 2.11 161 2.11 165 2.14
  38  0.125  0.500  0.550- 183 2.10 167 2.11 136 2.11 176 2.11 162 2.11 166 2.15
  39  1.000  0.500  0.648- 167 2.10 246 2.11 166 2.11 173 2.11 133 2.11
  40  0.125  0.875  0.648- 168 2.10 174 2.11 134 2.11 165 2.11 181 2.11
  41  0.000  0.625  0.352- 169 2.11 163 2.11 171 2.11 172 2.11 252 2.11
  42  0.125  0.750  0.352- 170 2.11 164 2.11 171 2.11 172 2.11 187 2.11
  43  0.000  0.750  0.451- 175 2.11 171 2.11 170 2.11 161 2.11 169 2.11 250 2.11
  44  0.125  0.625  0.451- 176 2.11 172 2.11 170 2.11 162 2.11 169 2.11 185 2.11
  45  0.000  0.625  0.550- 256 2.11 176 2.11 175 2.11 167 2.11 169 2.11 173 2.15
  46  0.125  0.750  0.550- 191 2.11 176 2.11 168 2.11 175 2.11 170 2.11 174 2.15
  47  0.000  0.750  0.648- 175 2.10 254 2.11 174 2.11 165 2.11 173 2.11
  48  0.125  0.625  0.648- 176 2.10 189 2.11 173 2.11 166 2.11 174 2.11
  49  0.250  0.875  0.352- 177 2.11 164 2.11 147 2.11 180 2.11 187 2.11
  50  0.375  0.500  0.352- 178 2.11 148 2.11 179 2.11 188 2.11 227 2.11
  51  0.250  0.500  0.451- 183 2.11 179 2.11 178 2.11 145 2.11 162 2.11 185 2.11
  52  0.375  0.875  0.451- 184 2.11 180 2.11 146 2.11 177 2.11 186 2.11 225 2.11
  53  0.250  0.875  0.550- 151 2.11 191 2.11 168 2.11 184 2.11 177 2.11 181 2.15
  54  0.375  0.500  0.550- 231 2.10 152 2.10 182 2.12 183 2.12 178 2.12 192 2.12
  55  0.250  0.500  0.647- 183 2.08 182 2.09 166 2.11 189 2.11 149 2.12
  56  0.375  0.875  0.648- 184 2.10 150 2.11 190 2.11 181 2.11 229 2.11
  57  0.250  0.625  0.352- 185 2.11 179 2.11 172 2.11 187 2.11 188 2.11
  58  0.375  0.750  0.352- 186 2.11 180 2.11 187 2.11 188 2.11 235 2.11
  59  0.250  0.750  0.451- 191 2.11 187 2.11 185 2.11 186 2.11 170 2.11 177 2.11
  60  0.375  0.625  0.451- 192 2.11 188 2.11 186 2.11 178 2.11 185 2.11 233 2.11
[...]
 242  0.875  0.500  0.451- 114 2.11  84 2.11  35 2.11 115 2.11 124 2.11 118 2.11
 243  0.750  0.500  0.352- 115 2.11  98 2.11 114 2.11  81 2.11 121 2.11
 244  0.875  0.875  0.352- 116 2.11  82 2.11 113 2.11  33 2.11 122 2.11
 245  0.750  0.875  0.650- 127 2.11  87 2.11 120 2.11 104 2.11 117 2.15
 246  0.875  0.500  0.650-  39 2.11 128 2.11 119 2.11  88 2.11 118 2.15
 247  0.750  0.500  0.549- 119 2.09 118 2.10 115 2.11 125 2.11  85 2.11 102 2.12
 248  0.875  0.875  0.549- 120 2.10 116 2.11 126 2.11  37 2.11  86 2.11 117 2.11
 249  0.750  0.625  0.451- 121 2.11 115 2.11 108 2.11 123 2.11 124 2.11 125 2.11
 250  0.875  0.750  0.451- 122 2.11 116 2.11  43 2.11 123 2.11 124 2.11 126 2.11
 251  0.750  0.750  0.352- 123 2.11 113 2.11 121 2.11 122 2.11 106 2.11
 252  0.875  0.625  0.352- 124 2.11 114 2.11 121 2.11 122 2.11  41 2.11
 253  0.750  0.625  0.650- 128 2.11 127 2.11 112 2.11 119 2.11 125 2.15
 254  0.875  0.750  0.650-  47 2.11 120 2.11 127 2.11 128 2.11 126 2.14
 255  0.750  0.750  0.549- 127 2.10 123 2.11 117 2.11 126 2.11 110 2.11 125 2.11
 256  0.875  0.625  0.549- 128 2.10  45 2.11 124 2.11 126 2.11 125 2.11 118 2.11

IMPORTANT INFORMATION: All symmetrisations will be switched off!
NOSYMM: (Re-)initialisation of all symmetry stuff for point group C_1.

                                     Primitive cell

  volume of cell :    6079.2794

  direct lattice vectors                    reciprocal lattice vectors
    16.881969308  0.000000000  0.000000000     0.059234796  0.000000000  0.000000000
     0.000000000 16.881969308  0.000000000     0.000000000  0.059234796  0.000000000
     0.000000000  0.000000000 21.330738491     0.000000000  0.000000000  0.046880702

  length of vectors
    16.881969308 16.881969308 21.330738491     0.059234796  0.059234796  0.046880702

  position of ions in fractional coordinates (direct lattice)
     0.000000000  0.375000000  0.351605267
     0.125000000  0.000000000  0.351605267
     0.000000000  0.000000000  0.450535089
     0.125000000  0.375000000  0.450535089
     0.000000982  0.375008808  0.549650017
     0.124979125  0.999971962  0.549639455
     0.000024196  0.999918175  0.647814712
     0.124854050  0.375012226  0.647727005
     0.000000000  0.125000000  0.351605267
     0.125000000  0.250000000  0.351605267
     0.000000000  0.250000000  0.450535089
     0.125000000  0.125000000  0.450535089
     0.000007519  0.124951633  0.549634787
     0.124999479  0.250005894  0.549601661
     0.000035253  0.249878615  0.647774160
     0.124942638  0.124855602  0.647740073
     0.250000000  0.375000000  0.351605267
     0.375000000  0.000000000  0.351605267
     0.250000000  0.000000000  0.450535089
     0.375000000  0.375000000  0.450535089
     0.250397715  0.374968612  0.549844286
     0.375027219  0.999959975  0.549567073
     0.249869216  0.999922175  0.647722095
     0.375518346  0.374463124  0.650352315
     0.250000000  0.125000000  0.351605267
     0.375000000  0.250000000  0.351605267
     0.250000000  0.250000000  0.450535089
     0.375000000  0.125000000  0.450535089
     0.249973748  0.125000472  0.549537312
     0.375449977  0.250370471  0.550145253
     0.249933049  0.249712943  0.647326075
     0.374723605  0.124929126  0.646996268
     0.000000000  0.875000000  0.351605267
     0.125000000  0.500000000  0.351605267
     0.000000000  0.500000000  0.450535089
     0.125000000  0.875000000  0.450535089
     0.000028405  0.875017534  0.549650074
     0.124939569  0.500010681  0.549568033
     0.999992591  0.500142740  0.647764058
     0.124935338  0.875009165  0.647807953
     0.000000000  0.625000000  0.351605267
     0.125000000  0.750000000  0.351605267
[...]
   2.10922597  8.44116497 11.72269200
  16.88184423  8.44339439 13.81728572
   2.10915454 14.77187786 13.81822203
   0.00000000 10.55123082  7.50000000
   2.11024616 12.66147698  7.50000000
   0.00000000 12.66147698  9.61024616
   2.11024616 10.55123082  9.61024616
   0.00027224 10.55220708 11.72411471
   2.11018379 12.66226519 11.72448766
   0.00014711 12.66321108 13.81814825
   2.10890165 10.55398168 13.81721681
   4.22049233 14.77172314  7.50000000
   6.33073849  8.44098465  7.50000000
   4.22049233  8.44098465  9.61024616
   6.33073849 14.77172314  9.61024616
   4.21978696 14.77183293 11.72401955
   6.33678999  8.43347475 11.73413804
   4.21880037  8.44671782 13.80006844
   6.32893794 14.77170903 13.81735504
   4.22049233 10.55123082  7.50000000
   6.33073849 12.66147698  7.50000000
   4.22049233 12.66147698  9.61024616
   6.33073849 10.55123082  9.61024616
[...]
  14.77172314  8.44098465  9.61024616
  12.66147698  8.44098465  7.50000000
  14.77172314 14.77172314  7.50000000
  12.66384110 14.77185866 13.86948536
  14.77480582  8.44433514 13.87050845
  12.66812748  8.44209748 11.71778984
  14.77278613 14.77164484 11.71921900
  12.66147698 10.55123082  9.61024616
  14.77172314 12.66147698  9.61024616
  12.66147698 12.66147698  7.50000000
  14.77172314 10.55123082  7.50000000
  12.66903950 10.55861742 13.86931473
  14.77454102 12.66397709 13.86956136
  12.66303113 12.66300371 11.71890209
  14.77372764 10.55268286 11.71890424

--------------------------------------- Iteration      FINAL  ---------------------------------------

--------------------OUTCAR has been truncated-------------------------

[...]

--------------------OUTCAR has been truncated-------------------------

  DFT-D2 method for vdW energy calculation

  Parameters of vdW forcefield:
         C6(Jnm^6/mol)     R0(A)
   Mg       0.630          1.243
   O        0.700          1.342

  vdW correction parametrized for the method ç|ý      

  IVDW =   1
  VDW_RADIUS =    50.000 A
  VDW_S6 =     1.050
  VDW_SR =     1.000
  VDW_D =    20.000
  LVDW_EWALD = F

  Number of pair interactions contributing to vdW energy: 2859866
  Edisp (eV):  -20.34087

 VOLUME and BASIS-vectors are now :
  energy-cutoff  :      520.00
  volume of cell :     6079.28
      direct lattice vectors                 reciprocal lattice vectors
    16.881969308  0.000000000  0.000000000     0.059234796  0.000000000  0.000000000
     0.000000000 16.881969308  0.000000000     0.000000000  0.059234796  0.000000000
     0.000000000  0.000000000 21.330738491     0.000000000  0.000000000  0.046880702

  length of vectors
    16.881969308 16.881969308 21.330738491     0.059234796  0.059234796  0.046880702

 FORCES acting on ions:
    Electron-Ion                     Ewald-Force                    Non-Local-Force
   0.194E-01 -.477E-02 0.207E+04   -.197E-01 0.559E-02 -.206E+04   0.227E-03 -.566E-03 -.639E+01
   -.241E+00 -.255E+00 0.207E+04   0.232E+00 0.245E+00 -.206E+04   0.623E-02 0.678E-02 -.640E+01
   0.500E-01 -.309E+00 0.687E+03   -.497E-01 0.296E+00 -.688E+03   -.220E-03 0.895E-02 0.317E+00
   -.128E+01 0.632E-01 0.686E+03   0.130E+01 -.637E-01 -.686E+03   -.552E-02 -.101E-03 0.332E+00
   -.243E-01 -.566E-02 -.691E+03   0.240E-01 -.217E-02 0.692E+03   0.196E-02 0.540E-02 -.165E+00
   -.423E+00 -.509E+00 -.691E+03   0.407E+00 0.489E+00 0.691E+03   0.867E-02 0.127E-01 -.158E+00
   0.934E-02 -.759E+00 -.205E+04   -.981E-02 0.746E+00 0.205E+04   0.513E-03 0.138E-01 0.532E+01
   0.136E+00 -.581E-01 -.205E+04   -.885E-01 0.757E-01 0.205E+04   -.775E-01 -.112E-01 0.519E+01
   0.139E-01 -.373E+00 0.207E+04   -.140E-01 0.362E+00 -.206E+04   0.479E-04 0.795E-02 -.640E+01
   -.492E+00 -.390E+00 0.207E+04   0.483E+00 0.384E+00 -.206E+04   0.673E-02 0.464E-02 -.639E+01
   -.317E-01 -.633E+00 0.687E+03   0.360E-01 0.615E+00 -.687E+03   -.241E-02 0.124E-01 0.316E+00
   -.520E+00 -.762E+00 0.687E+03   0.485E+00 0.737E+00 -.688E+03   0.241E-01 0.174E-01 0.295E+00
   -.689E-02 -.110E+01 -.691E+03   0.104E-01 0.107E+01 0.691E+03   -.167E-02 0.273E-01 -.162E+00
   -.215E+00 -.136E+01 -.691E+03   0.194E+00 0.136E+01 0.691E+03   -.180E-01 -.177E-02 -.144E+00
   0.862E-01 -.109E+01 -.205E+04   -.947E-01 0.105E+01 0.205E+04   0.294E-02 0.389E-01 0.529E+01
   0.658E-01 -.107E+01 -.205E+04   -.591E-01 0.108E+01 0.205E+04   -.252E-01 -.808E-02 0.529E+01
   -.967E+00 0.540E-02 0.207E+04   0.953E+00 -.498E-02 -.206E+04   0.931E-02 -.392E-03 -.640E+01
   -.410E+00 -.485E+00 0.207E+04   0.403E+00 0.474E+00 -.206E+04   0.464E-02 0.758E-02 -.639E+01
   -.700E+00 -.541E+00 0.687E+03   0.673E+00 0.504E+00 -.688E+03   0.182E-01 0.250E-01 0.290E+00
   -.292E+01 0.627E-02 0.683E+03   0.287E+01 -.140E-01 -.683E+03   0.347E-01 0.447E-02 0.474E+00
   -.160E+01 0.312E-01 -.698E+03   0.172E+01 -.588E-01 0.697E+03   -.197E+00 0.249E-01 0.172E+00
   -.123E+01 -.167E-01 -.690E+03   0.122E+01 -.223E-01 0.691E+03   -.501E-02 -.316E-02 -.141E+00
   -.111E+01 0.944E-01 -.205E+04   0.113E+01 -.821E-01 0.205E+04   -.165E-01 -.299E-01 0.528E+01
   0.266E+01 -.211E+01 -.208E+04   -.371E+01 0.197E+01 0.207E+04   0.539E+00 0.177E+00 0.612E+01
   -.638E+00 -.656E+00 0.207E+04   0.626E+00 0.645E+00 -.206E+04   0.784E-02 0.801E-02 -.638E+01
   -.740E+00 -.734E+00 0.207E+04   0.733E+00 0.726E+00 -.206E+04   0.519E-02 0.578E-02 -.639E+01
   -.248E+01 -.135E+01 0.686E+03   0.246E+01 0.136E+01 -.686E+03   0.151E-01 -.814E-02 0.329E+00
   -.139E+01 -.255E+01 0.686E+03   0.141E+01 0.253E+01 -.687E+03   -.797E-02 0.163E-01 0.309E+00
   -.129E+01 -.152E+01 -.689E+03   0.116E+01 0.141E+01 0.689E+03   0.812E-01 0.641E-01 -.844E-01
   -.245E+01 -.226E+01 -.694E+03   0.257E+01 0.238E+01 0.694E+03   -.165E+00 -.175E+00 -.310E+00
   0.129E+01 -.328E+01 -.205E+04   -.158E+01 0.310E+01 0.204E+04   0.842E-01 0.146E+00 0.527E+01
   -.317E+01 0.103E+01 -.205E+04   0.302E+01 -.129E+01 0.204E+04   0.126E+00 0.624E-01 0.524E+01
   0.197E-01 0.959E-02 0.207E+04   -.199E-01 -.104E-01 -.206E+04   0.122E-03 0.579E-03 -.640E+01
   -.487E+00 0.378E+00 0.207E+04   0.477E+00 -.371E+00 -.206E+04   0.702E-02 -.541E-02 -.639E+01
   0.905E-01 0.615E+00 0.687E+03   -.933E-01 -.594E+00 -.687E+03   0.143E-02 -.145E-01 0.325E+00
   -.283E+00 0.393E-01 0.687E+03   0.273E+00 -.415E-01 -.688E+03   0.739E-02 0.107E-02 0.301E+00
   0.105E+00 0.292E-01 -.691E+03   -.110E+00 -.371E-01 0.691E+03   0.187E-02 0.383E-02 -.169E+00
   -.188E+00 0.135E+01 -.690E+03   0.151E+00 -.134E+01 0.691E+03   0.222E-03 -.164E-02 -.141E+00
   -.135E+00 0.112E+01 -.205E+04   0.144E+00 -.108E+01 0.205E+04   -.145E-02 -.382E-01 0.530E+01
   -.770E+00 -.267E-01 -.205E+04   0.758E+00 0.173E-01 0.205E+04   0.138E-01 0.614E-02 0.530E+01
   0.214E-01 0.369E+00 0.207E+04   -.217E-01 -.357E+00 -.206E+04   0.176E-03 -.808E-02 -.640E+01
   -.255E+00 0.267E+00 0.207E+04   0.246E+00 -.259E+00 -.206E+04   0.595E-02 -.612E-02 -.640E+01
   0.388E-01 0.331E+00 0.687E+03   -.383E-01 -.318E+00 -.688E+03   -.207E-03 -.878E-02 0.304E+00
   -.537E+00 0.664E+00 0.687E+03   0.504E+00 -.634E+00 -.688E+03   0.223E-01 -.200E-01 0.297E+00
   0.426E-01 0.106E+01 -.691E+03   -.455E-01 -.102E+01 0.691E+03   0.197E-02 -.334E-01 -.168E+00
   -.486E+00 0.549E+00 -.691E+03   0.459E+00 -.534E+00 0.691E+03   0.156E-01 -.103E-01 -.162E+00
   -.635E-01 0.767E+00 -.205E+04   0.607E-01 -.755E+00 0.205E+04   0.494E-02 -.141E-01 0.531E+01
   0.456E-01 0.108E+01 -.205E+04   -.266E-01 -.110E+01 0.205E+04   -.325E-01 0.194E-01 0.529E+01
   -.384E+00 0.274E-01 0.207E+04   0.373E+00 -.287E-01 -.206E+04   0.753E-02 0.842E-03 -.640E+01
   -.761E+00 0.694E+00 0.207E+04   0.753E+00 -.685E+00 -.206E+04   0.567E-02 -.637E-02 -.639E+01
   -.250E+01 0.129E+01 0.686E+03   0.248E+01 -.130E+01 -.687E+03   0.184E-01 0.451E-02 0.299E+00
   -.684E+00 0.127E+00 0.687E+03   0.665E+00 -.135E+00 -.687E+03   0.125E-01 0.453E-02 0.308E+00
   -.114E+01 0.114E+00 -.691E+03   0.111E+01 -.114E+00 0.691E+03   0.272E-01 -.151E-02 -.157E+00
   -.242E+01 0.212E+01 -.693E+03   0.253E+01 -.222E+01 0.694E+03   -.159E+00 0.159E+00 -.335E+00
   0.933E+00 0.346E+01 -.204E+04   -.116E+01 -.333E+01 0.204E+04   0.487E-01 -.117E+00 0.521E+01
   -.110E+01 0.490E-02 -.205E+04   0.107E+01 -.622E-02 0.205E+04   0.357E-01 0.487E-03 0.529E+01
   -.669E+00 0.624E+00 0.207E+04   0.657E+00 -.612E+00 -.206E+04   0.760E-02 -.860E-02 -.639E+01
   -.417E+00 0.524E+00 0.207E+04   0.410E+00 -.515E+00 -.206E+04   0.475E-02 -.666E-02 -.640E+01
   -.782E+00 0.586E+00 0.687E+03   0.759E+00 -.550E+00 -.688E+03   0.153E-01 -.237E-01 0.302E+00
   -.142E+01 0.241E+01 0.686E+03   0.144E+01 -.239E+01 -.686E+03   -.925E-02 -.196E-01 0.327E+00
[...]
   0.675E+00 0.404E+00 0.155E+04   -.667E+00 -.401E+00 -.156E+04   -.989E-02 -.300E-02 0.313E+01
   0.178E+00 0.649E-02 0.156E+04   -.174E+00 -.723E-02 -.156E+04   -.205E-02 0.417E-02 0.312E+01
   0.725E+00 0.713E-01 -.156E+04   -.742E+00 -.766E-01 0.157E+04   0.151E-01 0.865E-02 -.483E+01
   0.101E+01 0.105E+01 -.156E+04   -.103E+01 -.110E+01 0.157E+04   -.134E-01 0.393E-01 -.491E+01
   0.347E+01 0.218E+01 -.510E+03   -.354E+01 -.215E+01 0.510E+03   -.147E-01 -.445E-01 0.461E+00
   0.434E+00 -.135E-01 -.512E+03   -.434E+00 0.132E-01 0.512E+03   -.184E-02 0.175E-02 0.181E+00
   0.994E+00 0.974E+00 0.515E+03   -.989E+00 -.961E+00 -.515E+03   -.731E-02 -.184E-01 -.318E-01
   0.292E+00 0.282E+00 0.515E+03   -.292E+00 -.277E+00 -.515E+03   0.212E-02 -.555E-02 -.931E-01
   0.332E+00 0.280E+00 0.155E+04   -.325E+00 -.272E+00 -.156E+04   -.899E-02 -.928E-02 0.312E+01
   0.287E+00 0.328E+00 0.155E+04   -.280E+00 -.320E+00 -.156E+04   -.547E-02 -.127E-01 0.313E+01
   0.114E+01 0.110E+01 -.156E+04   -.112E+01 -.107E+01 0.157E+04   -.666E-01 -.842E-01 -.497E+01
   0.610E+00 0.533E+00 -.156E+04   -.622E+00 -.554E+00 0.157E+04   0.445E-02 0.136E-01 -.483E+01
   0.855E+00 0.643E+00 -.512E+03   -.864E+00 -.648E+00 0.512E+03   0.102E-02 -.893E-02 0.179E+00
   0.609E+00 0.913E+00 -.512E+03   -.600E+00 -.925E+00 0.512E+03   -.221E-01 0.689E-03 0.177E+00
   -.360E-01 -.104E+00 0.807E+02   0.297E-11 -.544E-13 -.446E-10   0.332E-01 0.641E-01 -.711E+02

 POSITION                                       TOTAL-FORCE (eV/Angst)
      0.00000      6.33074      7.50000        -0.000056      0.000232      0.466000
      2.11025      0.00000      7.50000        -0.002023     -0.002175      0.469140
      0.00000      0.00000      9.61025         0.000052     -0.002975      0.013987
      2.11025      6.33074      9.61025         0.006777     -0.000156      0.018158
      0.00002      6.33089     11.72444         0.001707     -0.001918      0.074381
      2.10989     16.88150     11.72422        -0.005646     -0.005965      0.061618
      0.00041     16.88059     13.81837         0.000054      0.001876      0.018957
      2.10778      6.33094     13.81650        -0.034540      0.005487      0.078649
      0.00000      2.11025      7.50000        -0.000016     -0.002456      0.468821
      2.11025      4.22049      7.50000        -0.002032     -0.001359      0.467384
      0.00000      4.22049      9.61025         0.001562     -0.004497      0.011909
      2.11025      2.11025      9.61025        -0.008896     -0.005933      0.010266
      0.00013      2.10943     11.72412         0.001493     -0.001871      0.066551
      2.11024      4.22059     11.72341        -0.036991     -0.006592      0.069383
      0.00060      4.21844     13.81750        -0.004878      0.002692      0.032886
      2.10928      2.10781     13.81677        -0.019433      0.000107      0.029011
      4.22049      6.33074      7.50000        -0.003091      0.000063      0.467498
      6.33074      0.00000      7.50000        -0.001516     -0.002372      0.467003
      4.22049      0.00000      9.61025        -0.006554     -0.008927      0.010028
      6.33074      6.33074      9.61025        -0.005587     -0.002197      0.000580
      4.22721      6.33021     11.72858        -0.086398      0.000093      0.033901
      6.33120     16.88129     11.72267        -0.011852     -0.039077      0.070263
      4.21828     16.88066     13.81639         0.003624     -0.018389      0.032796
      6.33949      6.32167     13.87250        -0.423743      0.054427     -0.519311
      4.22049      2.11025      7.50000        -0.002626     -0.002420      0.465345
      6.33074      4.22049      7.50000        -0.002023     -0.001939      0.464444
      4.22049      4.22049      9.61025         0.001505      0.004517      0.008559
      6.33074      2.11025      9.61025         0.004320      0.000599      0.003867
      4.22005      2.11025     11.72204        -0.039819     -0.037963      0.049581
      6.33833      4.22675     11.73500        -0.058569     -0.058738     -0.089679
      4.21936      4.21565     13.80794        -0.183953     -0.017930      0.085678
      6.32607      2.10905     13.80091        -0.019785     -0.175819      0.132318
      0.00000     14.77172      7.50000        -0.000046     -0.000148      0.469545
      2.11025      8.44098      7.50000        -0.002223      0.001802      0.467073
      0.00000      8.44098      9.61025        -0.001138      0.005641      0.010948
      2.11025     14.77172      9.61025        -0.002248     -0.000507      0.013595
      0.00048     14.77202     11.72444        -0.003164     -0.003743      0.061802
      2.10923      8.44116     11.72269        -0.032600      0.008248      0.072049
     16.88184      8.44339     13.81729         0.006428     -0.003720      0.034581
      2.10915     14.77188     13.81822         0.002355     -0.002045      0.019723
      0.00000     10.55123      7.50000        -0.000069      0.002798      0.468969
      2.11025     12.66148      7.50000        -0.001827      0.002134      0.469586
      0.00000     12.66148      9.61025         0.000271      0.003388      0.015769
      2.11025     10.55123      9.61025        -0.007685      0.007865      0.011981
      0.00027     10.55221     11.72411        -0.000691      0.005653      0.066955
      2.11018     12.66227     11.72449        -0.009130      0.003385      0.061970
      0.00015     12.66321     13.81815         0.002426     -0.002736      0.019118
      2.10890     10.55398     13.81722        -0.015325     -0.001712      0.029499
      4.22049     14.77172      7.50000        -0.002465     -0.000338      0.469400
      6.33074      8.44098      7.50000        -0.002069      0.002345      0.464029
      4.22049      8.44098      9.61025        -0.000985     -0.002851      0.004419
      6.33074     14.77172      9.61025        -0.004818     -0.002321      0.012066
      4.21979     14.77183     11.72402        -0.001208     -0.001143      0.066100
      6.33679      8.43347     11.73414        -0.058434      0.065245     -0.081905
      4.21880      8.44672     13.80007        -0.164485      0.001117      0.144357
      6.32894     14.77171     13.81736         0.001740     -0.000434      0.032824
      4.22049     10.55123      7.50000        -0.002552      0.003127      0.465524
      6.33074     12.66148      7.50000        -0.001658      0.002261      0.467826
      4.22049     12.66148      9.61025        -0.005329      0.009315      0.011428
      6.33074     10.55123      9.61025         0.004626      0.000796      0.010378
[...]
     14.77172      8.44098      9.61025         0.000879     -0.002955      0.011706
     12.66148      8.44098      7.50000        -0.003217     -0.000820     -0.435337
     14.77172     14.77172      7.50000         0.001551      0.003652     -0.437149
     12.66384     14.77186     13.86949         0.000810      0.004181     -0.147753
     14.77481      8.44434     13.87051        -0.028954     -0.007059     -0.173732
     12.66813      8.44210     11.71779        -0.083604     -0.022941      0.041796
     14.77279     14.77164     11.71922        -0.002766      0.001878     -0.005921
     12.66148     10.55123      9.61025        -0.002779     -0.007382      0.017727
     14.77172     12.66148      9.61025         0.002297     -0.001755      0.008233
     12.66148     12.66148      7.50000        -0.002910     -0.002943     -0.437378
     14.77172     10.55123      7.50000         0.000403     -0.006244     -0.435193
     12.66904     10.55862     13.86931        -0.052008     -0.062869     -0.180705
     14.77454     12.66398     13.86956        -0.007641     -0.006000     -0.144281
     12.66303     12.66300     11.71890        -0.008028     -0.015863     -0.008510
     14.77373     10.55268     11.71890        -0.016811     -0.011396     -0.008732
    total drift:                                0.000284     -0.024780     -0.085192

  FREE ENERGIE OF THE ION-ELECTRON SYSTEM (eV)
  free  energy   TOTEN  =     -1753.70892536 eV

  energy  without entropy=    -1753.70892536  energy(sigma->0) =    -1753.70892536