 vasp.6.4.2 20Jul23 (build Feb 22 2024 13:53:45) complex
 executed on              LinuxNV date 2024.08.27  14:36:35
 OpenACC runtime initialized ...    4 GPUs detected

 INCAR:
   SYSTEM = Oxide-Surface
   ISMEAR = 0
   SIGMA = 0.05
   EDIFF = 1E-5
   ALGO = Normal
   IBRION = -1
   NSW = 0
   ISYM = 0
   DIPOL = 0.5 0.5 0.5
   IDIPOL = 3
   LDIPOL = .TRUE.
   ISTART = 0
   LHFCALC = .FALSE.
   GGA = PE
   HFRCUT = -1
   ENCUT = 520
   PREC = Normal
   PRECFOCK = Normal
   LASPH = .TRUE.
   LREAL = Auto
   ISPIN = 1
   NELM = 200
   NELMIN = 8
   NCORE = 1
   KPAR = 1
   LWAVE = .TRUE.
   LCHARG = .FALSE.

 POTCAR:    PAW_PBE Mg_pv 13Apr2007
 POTCAR:    PAW_PBE O 08Apr2002
 POTCAR:    PAW_PBE Mg_pv 13Apr2007
   VRHFIN =Mg: p6s2

   TITEL  = PAW_PBE Mg_pv 13Apr2007
   POMASS =   24.305; ZVAL   =    8.000    mass and valenz
   ENMAX  =  403.929; ENMIN  =  302.947 eV

   TITEL  = PAW_PBE O 08Apr2002
   POMASS =   16.000; ZVAL   =    6.000    mass and valenz
   ENMAX  =  400.000; ENMIN  =  300.000 eV

 Optimization of the real space projectors (new method)

 maximal supplied QI-value         = 18.90
 optimisation between [QCUT,QGAM] = [ 11.53, 23.24] = [ 37.21,151.29] Ry
 Optimized for a Real-space Cutoff    1.21 Angstroem

   l    n(q)    QCUT    max X(q) W(low)/X(q) W(high)/X(q)  e(spline)
   1      8    11.527     2.974    0.16E-03    0.13E-03    0.98E-07
   1      8    11.527     4.279    0.42E-03    0.30E-03    0.22E-06
   0      8    11.527    16.381    0.13E-03    0.20E-03    0.72E-07
   0      8    11.527     5.611    0.88E-04    0.13E-03    0.50E-07
   2      7    11.527     4.652    0.25E-03    0.73E-04    0.51E-07
 Optimization of the real space projectors (new method)

 maximal supplied QI-value         = 24.76
 optimisation between [QCUT,QGAM] = [ 11.64, 23.27] = [ 37.91,151.63] Ry
 Optimized for a Real-space Cutoff    1.04 Angstroem

   l    n(q)    QCUT    max X(q) W(low)/X(q) W(high)/X(q)  e(spline)
   0      7    11.635    20.381    0.14E-03    0.49E-03    0.18E-06
   0      7    11.635    15.268    0.16E-03    0.52E-03    0.19E-06
   1      7    11.635     5.964    0.30E-03    0.44E-03    0.22E-06
   1      7    11.635     5.382    0.27E-03    0.34E-03    0.19E-06
  PAW_PBE Mg_pv 13Apr2007               :
  PAW_PBE O 08Apr2002                   :

 POSCAR: Mg  O
  positions in direct lattice
 exchange correlation table for  LEXCH =        8
   RHO(1)=    0.500       N(1)  =     2000
   RHO(2)=  100.500       N(2)  =     4000

 ion  position               nearest neighbor table
   1  0.000  0.750  0.189-  35 2.11  36 2.11  43 2.11  52 2.11  33 2.11
   2  0.250  0.000  0.189-  35 2.11  36 2.11  44 2.11  51 2.11  34 2.11
   3  0.000  0.000  0.313-  33 2.11  34 2.11  41 2.11  50 2.11  35 2.11  39 2.12
   4  0.250  0.750  0.313-  33 2.11  34 2.11  42 2.11  49 2.11  36 2.11  40 2.12
   5  1.000  0.750  0.438-  56 2.11  40 2.11  47 2.11  39 2.11  33 2.12  37 2.15
   6  0.250  1.000  0.438-  40 2.11  48 2.11  55 2.11  39 2.11  34 2.12  38 2.15
   7  1.000  1.000  0.562-  38 2.11  54 2.11  39 2.11  37 2.11  45 2.11
   8  0.250  0.750  0.562-  40 2.11  46 2.11  37 2.11  38 2.11  53 2.11
   9  0.000  0.250  0.189-  35 2.11  43 2.11  44 2.11  60 2.11  41 2.11
  10  0.250  0.500  0.189-  36 2.11  43 2.11  44 2.11  59 2.11  42 2.11
  11  0.000  0.500  0.313-  33 2.11  41 2.11  42 2.11  58 2.11  43 2.11  47 2.12
  12  0.250  0.250  0.313-  34 2.11  41 2.11  42 2.11  57 2.11  44 2.11  48 2.12
  13  1.000  0.250  0.438-  64 2.11  48 2.11  47 2.11  39 2.11  41 2.12  45 2.15
  14  0.250  0.500  0.439-  63 2.11  48 2.11  40 2.11  47 2.11  42 2.13  46 2.15
  15  0.000  0.500  0.562-  46 2.11  47 2.11  62 2.11  37 2.11  45 2.11
  16  0.250  0.250  0.562-  48 2.11  45 2.11  46 2.11  38 2.11  61 2.11
  17  0.500  0.750  0.189-  36 2.11  51 2.11  52 2.11  59 2.11  49 2.11
  18  0.750  0.000  0.189-  35 2.11  51 2.11  52 2.11  60 2.11  50 2.11
  19  0.500  0.000  0.313-  34 2.11  49 2.11  50 2.11  57 2.11  51 2.11  55 2.12
  20  0.750  0.750  0.313-  33 2.11  49 2.11  50 2.11  58 2.11  52 2.11  56 2.12
  21  0.500  0.750  0.439-  63 2.11  56 2.11  40 2.11  55 2.11  49 2.13  53 2.15
  22  0.750  1.000  0.438-  56 2.11  64 2.11  39 2.11  55 2.11  50 2.13  54 2.15
  23  0.500  1.000  0.562-  61 2.11  53 2.11  55 2.11  38 2.11  54 2.11
  24  0.750  0.750  0.562-  56 2.11  37 2.11  54 2.11  62 2.11  53 2.11
  25  0.500  0.250  0.189-  44 2.11  51 2.11  59 2.11  60 2.11  57 2.11
  26  0.750  0.500  0.189-  43 2.11  52 2.11  59 2.11  60 2.11  58 2.11
  27  0.500  0.500  0.313-  42 2.11  49 2.11  57 2.11  58 2.11  59 2.11  63 2.12
  28  0.750  0.250  0.313-  41 2.11  50 2.11  57 2.11  58 2.11  60 2.11  64 2.12
  29  0.500  0.250  0.439-  63 2.11  64 2.11  48 2.11  55 2.11  57 2.13  61 2.15
  30  0.750  0.500  0.439-  63 2.11  64 2.11  56 2.11  47 2.11  58 2.13  62 2.15
  31  0.500  0.500  0.563-  46 2.11  53 2.11  61 2.11  62 2.11  63 2.12
  32  0.750  0.250  0.562-  64 2.11  45 2.11  54 2.11  62 2.11  61 2.11
  33  0.000  0.750  0.313-   3 2.11   4 2.11  11 2.11  20 2.11   1 2.11   5 2.12
  34  0.250  0.000  0.313-   3 2.11   4 2.11  12 2.11  19 2.11   2 2.11   6 2.12
  35  0.000  0.000  0.189-   1 2.11   2 2.11   9 2.11  18 2.11   3 2.11
  36  0.250  0.750  0.189-   1 2.11   2 2.11  10 2.11  17 2.11   4 2.11
  37  1.000  0.750  0.565-  24 2.11   8 2.11  15 2.11   7 2.11   5 2.15
  38  0.250  1.000  0.565-   7 2.11  23 2.11  16 2.11   8 2.11   6 2.15
  39  1.000  1.000  0.438-  22 2.11   5 2.11  13 2.11   6 2.11   7 2.11   3 2.12
  40  0.250  0.750  0.438-   8 2.11   6 2.11   5 2.11  21 2.11  14 2.11   4 2.12
  41  0.000  0.250  0.313-   3 2.11  11 2.11  12 2.11  28 2.11   9 2.11  13 2.12
  42  0.250  0.500  0.313-   4 2.11  11 2.11  12 2.11  27 2.11  10 2.11  14 2.13
  43  0.000  0.500  0.189-   1 2.11   9 2.11  10 2.11  26 2.11  11 2.11
  44  0.250  0.250  0.189-   2 2.11   9 2.11  10 2.11  25 2.11  12 2.11
  45  1.000  0.250  0.565-  32 2.11  16 2.11  15 2.11   7 2.11  13 2.15
  46  0.250  0.500  0.565-  15 2.11   8 2.11  16 2.11  31 2.11  14 2.15
  47  1.000  0.500  0.438-  15 2.11  13 2.11   5 2.11  30 2.11  14 2.11  11 2.12
  48  0.250  0.250  0.438-  16 2.11   6 2.11  13 2.11  29 2.11  14 2.11  12 2.12
  49  0.500  0.750  0.313-   4 2.11  19 2.11  20 2.11  27 2.11  17 2.11  21 2.13
  50  0.750  0.000  0.313-   3 2.11  19 2.11  20 2.11  28 2.11  18 2.11  22 2.13
  51  0.500  0.000  0.189-   2 2.11  17 2.11  18 2.11  25 2.11  19 2.11
  52  0.750  0.750  0.189-   1 2.11  17 2.11  18 2.11  26 2.11  20 2.11
  53  0.500  0.750  0.565-  23 2.11  24 2.11   8 2.11  31 2.11  21 2.15
  54  0.750  1.000  0.565-  32 2.11   7 2.11  24 2.11  23 2.11  22 2.15
  55  0.500  1.000  0.438-  23 2.11  22 2.11   6 2.11  21 2.11  29 2.11  19 2.12
  56  0.750  0.750  0.438-  24 2.11  22 2.11   5 2.11  21 2.11  30 2.11  20 2.12
  57  0.500  0.250  0.313-  12 2.11  19 2.11  27 2.11  28 2.11  25 2.11  29 2.13
  58  0.750  0.500  0.313-  11 2.11  20 2.11  27 2.11  28 2.11  26 2.11  30 2.13
  59  0.500  0.500  0.189-  10 2.11  17 2.11  25 2.11  26 2.11  27 2.11
  60  0.750  0.250  0.189-   9 2.11  18 2.11  25 2.11  26 2.11  28 2.11
  61  0.500  0.250  0.565-  23 2.11  32 2.11  16 2.11  31 2.11  29 2.15
  62  0.750  0.500  0.565-  15 2.11  24 2.11  32 2.11  31 2.11  30 2.15
  63  0.500  0.500  0.438-  30 2.11  21 2.11  29 2.11  14 2.11  31 2.12  27 2.12
  64  0.750  0.250  0.438-  32 2.11  22 2.11  13 2.11  29 2.11  30 2.11  28 2.12

IMPORTANT INFORMATION: All symmetrisations will be switched off!
NOSYMM: (Re-)initialisation of all symmetry stuff for point group C_1.

                                     Primitive cell

  volume of cell :    1211.2538

  direct lattice vectors                    reciprocal lattice vectors
     8.440984654  0.000000000  0.000000000     0.118469591  0.000000000  0.000000000
     0.000000000  8.440984654  0.000000000     0.000000000  0.118469591  0.000000000
     0.000000000  0.000000000 17.000000000     0.000000000  0.000000000  0.058823529

  length of vectors
     8.440984654  8.440984654 17.000000000     0.118469591  0.118469591  0.058823529

  position of ions in fractional coordinates (direct lattice)
     0.000007636  0.750031286  0.189341906
     0.250007636  0.000031286  0.189341906
     0.000007636  0.000031286  0.313474033
     0.250007636  0.750031286  0.313474033
     0.999976970  0.749963850  0.438457003
     0.249986644  0.999964140  0.438470494
     0.999992364  0.999910906  0.562348157
     0.249873245  0.749845785  0.562202626
     0.000007636  0.250031286  0.189341906
     0.250007636  0.500031286  0.189341906
     0.000007636  0.500031286  0.313474033
     0.250007636  0.250031286  0.313474033
     0.999977352  0.249980617  0.438453686
     0.250127274  0.499963970  0.438535724
     0.000145226  0.499923750  0.562114841
     0.249869118  0.249973003  0.562195641
     0.500007636  0.750031286  0.189341906
     0.750007636  0.000031286  0.189341906
     0.500007636  0.000031286  0.313474033
     0.750007636  0.750031286  0.313474033
     0.499991240  0.749815526  0.438527908
     0.749986537  0.999961265  0.438479227
     0.499961494  0.999896839  0.562145227
     0.750043134  0.749924142  0.562250345
     0.500007636  0.250031286  0.189341906
     0.750007636  0.500031286  0.189341906
     0.500007636  0.500031286  0.313474033
     0.750007636  0.250031286  0.313474033
     0.499993003  0.250082768  0.438527210
     0.749860656  0.499960669  0.438562571
     0.499843564  0.499898967  0.563085918
     0.750058171  0.249889399  0.562241868
     0.000007636  0.750031286  0.313474033
     0.250007636  0.000031286  0.313474033
     0.000007636  0.000031286  0.189341906
     0.250007636  0.750031286  0.189341906
     0.999943344  0.749886766  0.565046454
     0.249946089  0.999912111  0.565050657
     0.999971036  0.999968714  0.438179888
     0.249965036  0.750040437  0.438149594
     0.000007636  0.250031286  0.313474033
     0.250007636  0.500031286  0.313474033
     0.000007636  0.500031286  0.189341906
     0.250007636  0.250031286  0.189341906
     0.999945875  0.249945679  0.565037155
     0.249719068  0.499911441  0.564728513
     0.999971089  0.499970067  0.438088058
     0.249956936  0.249888775  0.438144915
     0.500007636  0.750031286  0.313474033
     0.750007636  0.000031286  0.313474033
     0.500007636  0.000031286  0.189341906
     0.750007636  0.750031286  0.189341906
     0.499989702  0.750219279  0.564996442
     0.750006699  0.999909280  0.565084458
     0.499996442  0.999947314  0.438110544
     0.750005020  0.750030779  0.438172055
     0.500007636  0.250031286  0.313474033
     0.750007636  0.500031286  0.313474033
     0.500007636  0.500031286  0.189341906
     0.750007636  0.250031286  0.189341906
     0.499997048  0.249555778  0.564962164
     0.750207288  0.499910047  0.564892284
     0.500015401  0.499961148  0.438334676
     0.750015257  0.249893599  0.438167343

  ion indices of the primitive-cell ions
   primitive index   ion index
                 1           1
                 2           2
                 3           3
                 4           4
                 5           5
                 6           6
                 7           7
[...]
   4.22055678  4.22075641  3.21881240
   6.33080294  2.11051025  3.21881240
   4.22046741  2.10649649  9.60435679
   6.33248821  4.21973303  9.60316883
   4.22062233  4.22016438  7.45168948
   6.33086727  2.10934804  7.44884483

--------------------------------------- Iteration      FINAL  ---------------------------------------

--------------------OUTCAR has been truncated-------------------------

[...]

--------------------OUTCAR has been truncated-------------------------

  FORCE on cell =-STRESS in cart. coord.  units (eV):
  Direction    XX          YY          ZZ          XY          YZ          ZX
  Alpha Z  1098.23100  1098.23100  1098.23100
  Ewald   86221.67726 86221.69802************     0.00012    -0.38449    -0.10821
  Hartree 96856.30986 96856.32239-90441.48804     0.00007    -0.22126    -0.06122
  E(xc)   -2456.52781 -2456.52779 -2461.78610    -0.00000    -0.00094    -0.00027
  Local  ************************193129.12421    -0.00019     0.60872     0.16979
  n-local -2809.65952 -2809.68393 -2830.50928     0.00049    -0.00278    -0.00687
  augment  1047.57219  1047.57220  1038.10585     0.00001    -0.00266    -0.00081
  Kinetic  7300.92983  7300.92915  7342.74920     0.00000     0.08057     0.02420
  Fock        0.00000     0.00000     0.00000     0.00000     0.00000     0.00000
  Total     -16.11772   -16.14245     7.19743     0.00050     0.07716     0.01661
  in kB     -21.31961   -21.35232     9.52034     0.00066     0.10206     0.02197

 VOLUME and BASIS-vectors are now :
  energy-cutoff  :      520.00
  volume of cell :     1211.25
      direct lattice vectors                 reciprocal lattice vectors
     8.440984654  0.000000000  0.000000000     0.118469591  0.000000000  0.000000000
     0.000000000  8.440984654  0.000000000     0.000000000  0.118469591  0.000000000
     0.000000000  0.000000000 17.000000000     0.000000000  0.000000000  0.058823529

  length of vectors
     8.440984654  8.440984654 17.000000000     0.118469591  0.118469591  0.058823529

 FORCES acting on ions
    electron-ion (+dipol)            ewald-force                    non-local-force                 convergence-correction
   0.870E-02 0.173E-01 0.172E+04   -.906E-02 -.173E-01 -.171E+04   0.289E-03 0.106E-03 -.707E+01   0.204E-04 0.307E-04 -.428E-03
   -.246E-01 0.876E-03 0.172E+04   0.245E-01 -.110E-02 -.171E+04   0.141E-03 0.329E-03 -.707E+01   -.113E-04 0.399E-04 -.316E-03
   0.195E-01 0.118E-02 0.567E+03   -.216E-01 -.359E-02 -.568E+03   0.145E-02 0.152E-02 0.497E+00   -.498E-04 0.110E-03 0.686E-03
   -.158E+00 0.124E+00 0.567E+03   0.160E+00 -.126E+00 -.568E+03   -.143E-02 0.794E-03 0.494E+00   0.228E-03 0.112E-03 0.398E-03
   0.766E-01 -.986E-01 -.575E+03   -.842E-01 0.110E+00 0.575E+03   0.623E-02 -.769E-02 -.245E+00   -.981E-04 0.325E-03 -.154E-03
   -.360E-01 0.968E-02 -.575E+03   0.311E-01 -.989E-02 0.575E+03   0.353E-02 0.169E-03 -.257E+00   -.107E-03 0.682E-04 -.235E-03
   -.349E-01 -.109E-01 -.171E+04   0.379E-01 0.119E-01 0.170E+04   -.363E-02 0.211E-03 0.597E+01   0.351E-04 -.854E-04 0.230E-02
   -.459E+00 -.141E+00 -.171E+04   0.423E+00 0.207E+00 0.170E+04   0.369E-01 -.423E-01 0.599E+01   -.377E-04 0.129E-03 0.257E-02
   0.866E-02 -.177E-01 0.172E+04   -.898E-02 0.173E-01 -.171E+04   0.286E-03 0.504E-03 -.707E+01   -.116E-04 -.254E-04 -.333E-03
   -.438E-01 -.130E-02 0.172E+04   0.447E-01 0.119E-02 -.171E+04   -.659E-03 0.308E-03 -.707E+01   0.211E-04 -.439E-04 -.387E-03
   0.472E-01 -.153E-01 0.567E+03   -.509E-01 0.131E-01 -.568E+03   0.278E-02 0.155E-02 0.474E+00   -.177E-03 -.117E-03 0.390E-03
   -.167E+00 -.137E+00 0.567E+03   0.169E+00 0.134E+00 -.568E+03   -.960E-03 0.260E-02 0.492E+00   -.510E-04 -.107E-03 0.441E-03
   0.714E-01 0.115E+00 -.575E+03   -.789E-01 -.126E+00 0.575E+03   0.620E-02 0.728E-02 -.246E+00   -.510E-04 -.317E-03 -.315E-03
   -.540E+00 -.334E-02 -.574E+03   0.587E+00 0.364E-02 0.575E+03   -.444E-01 -.741E-04 -.325E+00   0.212E-03 -.821E-04 -.233E-03
   0.588E+00 0.266E-01 -.171E+04   -.599E+00 -.243E-01 0.170E+04   -.102E-01 -.227E-02 0.596E+01   -.154E-03 0.827E-04 0.261E-02
   -.488E+00 0.127E+00 -.171E+04   0.449E+00 -.190E+00 0.170E+04   0.399E-01 0.417E-01 0.599E+01   0.853E-04 -.123E-03 0.249E-02
   -.893E-02 0.364E-01 0.172E+04   0.917E-02 -.373E-01 -.171E+04   -.101E-03 0.919E-03 -.707E+01   -.263E-04 0.108E-04 -.211E-03
   0.245E-01 0.899E-03 0.172E+04   -.245E-01 -.117E-02 -.171E+04   0.431E-04 0.327E-03 -.707E+01   -.196E-05 0.829E-04 -.268E-03
   -.259E-01 -.498E-02 0.567E+03   0.262E-01 0.144E-02 -.568E+03   -.324E-03 0.247E-02 0.476E+00   0.605E-04 -.171E-03 0.592E-03
   0.155E+00 0.151E+00 0.567E+03   -.159E+00 -.155E+00 -.567E+03   0.266E-02 0.242E-02 0.496E+00   -.235E-03 -.509E-05 0.518E-03
   -.674E-01 0.411E+00 -.575E+03   0.753E-01 -.447E+00 0.576E+03   -.628E-02 0.370E-01 -.281E+00   0.980E-04 0.116E-04 -.397E-03
   0.502E-01 0.119E-01 -.575E+03   -.431E-01 -.121E-01 0.575E+03   -.551E-02 0.229E-03 -.252E+00   0.959E-04 0.292E-04 -.316E-03
   0.505E-01 0.200E-01 -.171E+04   -.545E-01 -.143E-01 0.170E+04   0.406E-02 -.459E-02 0.593E+01   -.395E-04 0.369E-04 0.244E-02
   0.393E+00 0.297E+00 -.171E+04   -.356E+00 -.261E+00 0.170E+04   -.351E-01 -.287E-01 0.598E+01   0.499E-04 -.578E-04 0.248E-02
   -.888E-02 -.371E-01 0.172E+04   0.908E-02 0.376E-01 -.171E+04   -.114E-03 -.234E-03 -.707E+01   0.225E-04 -.267E-05 -.371E-03
   0.437E-01 -.137E-02 0.172E+04   -.447E-01 0.129E-02 -.171E+04   0.794E-03 0.320E-03 -.707E+01   -.785E-05 -.863E-04 -.229E-03
   -.507E-01 -.414E-02 0.566E+03   0.534E-01 0.134E-02 -.567E+03   -.210E-02 0.163E-02 0.525E+00   0.174E-03 0.163E-03 0.554E-03
   0.164E+00 -.163E+00 0.567E+03   -.168E+00 0.162E+00 -.567E+03   0.211E-02 0.110E-02 0.495E+00   0.501E-04 0.262E-04 0.464E-03
   -.631E-01 -.437E+00 -.575E+03   0.710E-01 0.475E+00 0.576E+03   -.630E-02 -.369E-01 -.290E+00   0.577E-04 0.107E-05 -.199E-03
   0.512E+00 -.745E-02 -.575E+03   -.560E+00 0.824E-02 0.576E+03   0.454E-01 -.350E-03 -.321E+00   -.214E-03 -.372E-04 -.279E-03
   -.394E+00 0.617E-01 -.171E+04   0.416E+00 -.553E-01 0.170E+04   -.528E-02 -.553E-02 0.611E+01   0.151E-03 -.554E-04 0.229E-02
   0.423E+00 -.313E+00 -.171E+04   -.384E+00 0.280E+00 0.170E+04   -.376E-01 0.282E-01 0.598E+01   -.862E-04 0.702E-04 0.245E-02
   0.270E-01 0.134E-01 0.425E+03   -.260E-01 -.131E-01 -.425E+03   -.121E-02 -.341E-02 -.146E+00   -.396E-04 0.741E-04 0.106E-02
   -.477E-01 -.131E-02 0.425E+03   0.519E-01 0.475E-02 -.425E+03   -.581E-02 -.773E-02 -.152E+00   0.106E-04 -.154E-04 0.105E-02
   0.532E-02 0.127E-02 0.129E+04   -.550E-02 -.118E-02 -.130E+04   0.352E-03 0.291E-03 0.344E+01   0.144E-04 0.197E-04 -.286E-03
   -.255E-01 0.201E-01 0.129E+04   0.259E-01 -.200E-01 -.130E+04   -.575E-03 0.280E-03 0.344E+01   0.259E-04 0.110E-04 -.280E-03
   0.463E-01 -.103E+00 -.130E+04   -.633E-01 0.112E+00 0.130E+04   0.231E-01 -.564E-02 -.509E+01   -.176E-04 0.520E-04 0.201E-02
   -.970E-01 0.482E-03 -.130E+04   0.118E+00 -.274E-02 0.130E+04   -.233E-01 0.631E-02 -.510E+01   -.920E-05 -.314E-05 0.199E-02
   -.752E-05 0.146E-02 -.426E+03   -.211E-03 0.280E-03 0.426E+03   0.140E-02 -.245E-02 0.211E+00   -.220E-04 0.245E-04 0.825E-04
   -.226E+00 0.839E-01 -.426E+03   0.229E+00 -.837E-01 0.426E+03   -.280E-02 -.570E-02 0.254E+00   0.343E-04 0.715E-04 0.209E-03
   0.265E-01 -.215E-01 0.425E+03   -.255E-01 0.270E-01 -.425E+03   -.116E-02 -.107E-01 -.146E+00   -.488E-04 -.640E-04 0.105E-02
   -.165E+00 -.955E-02 0.425E+03   0.157E+00 0.128E-01 -.425E+03   0.112E-01 -.738E-02 -.155E+00   0.716E-04 -.549E-05 0.999E-03
   0.766E-02 -.110E-02 0.129E+04   -.806E-02 0.121E-02 -.130E+04   0.727E-03 0.368E-03 0.344E+01   -.332E-04 -.420E-04 -.287E-03
   -.262E-01 -.199E-01 0.129E+04   0.266E-01 0.199E-01 -.130E+04   -.459E-03 0.339E-03 0.344E+01   0.577E-05 -.335E-05 -.315E-03
   0.383E-01 0.102E+00 -.130E+04   -.541E-01 -.114E+00 0.130E+04   0.255E-01 0.166E-01 -.508E+01   -.172E-04 -.584E-04 0.194E-02
   -.735E+00 0.238E-01 -.130E+04   0.720E+00 -.259E-01 0.130E+04   0.500E-01 0.455E-02 -.493E+01   0.535E-04 -.567E-05 0.199E-02
   0.150E+00 -.164E-01 -.425E+03   -.155E+00 0.166E-01 0.425E+03   0.720E-02 -.268E-03 0.272E+00   -.658E-04 -.251E-04 0.166E-03
   -.246E+00 -.863E-01 -.426E+03   0.249E+00 0.853E-01 0.426E+03   -.278E-02 0.573E-02 0.254E+00   0.132E-04 -.630E-04 0.182E-03
   -.316E-01 0.128E+00 0.425E+03   0.330E-01 -.115E+00 -.425E+03   -.179E-02 -.212E-01 -.156E+00   0.458E-04 0.174E-04 0.107E-02
   0.457E-01 -.125E-02 0.425E+03   -.477E-01 0.481E-02 -.425E+03   0.309E-02 -.791E-02 -.154E+00   -.130E-04 -.106E-04 0.108E-02
   -.530E-02 0.710E-03 0.129E+04   0.555E-02 -.621E-03 -.130E+04   -.229E-03 0.337E-03 0.344E+01   -.719E-05 0.330E-05 -.268E-03
   0.256E-01 0.224E-01 0.129E+04   -.260E-01 -.225E-01 -.130E+04   0.681E-03 0.616E-03 0.344E+01   -.251E-04 -.113E-04 -.239E-03
   0.204E-01 0.658E+00 -.130E+04   -.122E-01 -.631E+00 0.130E+04   -.144E-01 -.696E-01 -.499E+01   0.581E-05 -.140E-04 0.196E-02
   0.815E-01 0.269E-02 -.130E+04   -.100E+00 -.508E-02 0.130E+04   0.214E-01 0.750E-02 -.510E+01   0.129E-04 -.303E-05 0.195E-02
   -.771E-02 0.126E-01 -.426E+03   0.703E-02 -.147E-01 0.425E+03   -.608E-04 0.215E-02 0.266E+00   0.413E-04 -.592E-05 0.977E-04
   0.223E+00 0.216E+00 -.426E+03   -.227E+00 -.221E+00 0.426E+03   0.380E-02 0.101E-02 0.243E+00   -.411E-04 0.287E-04 0.142E-03
   -.309E-01 -.145E+00 0.425E+03   0.321E-01 0.140E+00 -.425E+03   -.164E-02 0.393E-02 -.155E+00   0.508E-04 0.103E-06 0.105E-02
   0.163E+00 -.105E-01 0.425E+03   -.154E+00 0.139E-01 -.424E+03   -.126E-01 -.764E-02 -.163E+00   -.723E-04 -.122E-04 0.103E-02
   -.764E-02 -.252E-03 0.129E+04   0.810E-02 0.432E-03 -.130E+04   -.547E-03 0.199E-03 0.344E+01   0.910E-05 -.106E-04 -.233E-03
   0.263E-01 -.222E-01 0.129E+04   -.267E-01 0.225E-01 -.130E+04   0.574E-03 -.180E-04 0.344E+01   0.393E-05 0.222E-04 -.282E-03
   0.236E-01 -.697E+00 -.130E+04   -.145E-01 0.662E+00 0.130E+04   -.156E-01 0.788E-01 -.498E+01   0.138E-04 0.251E-04 0.195E-02
   0.578E+00 0.242E-01 -.130E+04   -.551E+00 -.269E-01 0.130E+04   -.561E-01 0.378E-02 -.497E+01   -.510E-04 -.949E-05 0.202E-02
   -.134E+00 0.220E-01 -.429E+03   0.140E+00 -.257E-01 0.428E+03   -.980E-02 0.332E-02 0.544E-01   0.586E-04 0.175E-05 0.154E-03
   0.243E+00 -.215E+00 -.426E+03   -.248E+00 0.218E+00 0.426E+03   0.399E-02 0.311E-03 0.243E+00   -.162E-04 -.264E-04 0.135E-03
   0.117E-01 0.213E-02 0.185E+02   -.710E-12 0.260E-12 -.676E-11   -.514E-02 -.101E-01 -.190E+02   -.546E-05 -.242E-04 0.422E-01

 POSITION                                       TOTAL-FORCE (eV/Angst)
      0.00006      6.33100      3.21881        -0.000150      0.000331      0.309698
      2.11031      0.00026      3.21881        -0.000060      0.000270      0.309960
      0.00006      0.00026      5.32906        -0.000713     -0.000656      0.044976
      2.11031      6.33100      5.32906         0.000541     -0.000794      0.044453
      8.44079      6.33043      7.45377        -0.001556      0.003861      0.056508
      2.11013      8.44068      7.45400        -0.001575      0.000150      0.057913
      8.44092      8.44023      9.55992        -0.000711      0.001271      0.055893
      2.10918      6.32944      9.55744         0.000957      0.023553      0.063598
      0.00006      2.11051      3.21881        -0.000147      0.000227      0.309747
      2.11031      4.22076      3.21881         0.000153      0.000281      0.309788
      0.00006      4.22076      5.32906        -0.001177     -0.000642      0.045248
      2.11031      2.11051      5.32906         0.000437     -0.000723      0.044347
      8.44079      2.11008      7.45371        -0.001429     -0.004283      0.056711
      2.11132      4.22019      7.45511         0.002555      0.000272      0.038650
      0.00123      4.21985      9.55595        -0.021265      0.000166      0.076436
      2.10914      2.11002      9.55733         0.001020     -0.021548      0.063595
      4.22056      6.33100      3.21881         0.000009      0.000110      0.310053
      6.33080      0.00026      3.21881        -0.000078      0.000266      0.310051
      4.22056      0.00026      5.32906        -0.000067     -0.001114      0.046702
      6.33080      6.33100      5.32906        -0.001417     -0.001449      0.045916
      4.22042      6.32918      7.45497         0.001610      0.001060      0.054020
      6.33062      8.44066      7.45415         0.001545      0.000227      0.057839
      4.22017      8.44011      9.55647        -0.000138      0.001232      0.081993
      6.33110      6.33010      9.55826         0.001639      0.007376      0.063100
      4.22056      2.11051      3.21881         0.000008      0.000422      0.309972
      6.33080      4.22076      3.21881        -0.000281      0.000281      0.310249
      4.22056      4.22076      5.32906         0.000675     -0.000889      0.050244
      6.33080      2.11051      5.32906        -0.001272     -0.000167      0.045758
      4.22043      2.11094      7.45496         0.001536      0.000987      0.053607
      6.32956      4.22016      7.45556        -0.003157      0.000520      0.048763
      4.21917      4.21964      9.57246         0.017064      0.000937     -0.053083
      6.33123      2.10931      9.55811         0.000993     -0.005058      0.063314
      0.00006      6.33100      5.32906        -0.000308     -0.002873      0.043043
      2.11031      0.00026      5.32906        -0.001669     -0.004190      0.042418
      0.00006      0.00026      3.21881         0.000076      0.000525     -0.570830
      2.11031      6.33100      3.21881        -0.000199      0.000523     -0.570847
      8.44051      6.32978      9.60579         0.006041      0.003399      0.037403
      2.10979      8.44024      9.60586        -0.002144      0.004172      0.035461
      8.44074      8.44072      7.44906         0.001060     -0.000561      0.014401
      2.10995      6.33108      7.44854         0.000075     -0.005258      0.016340
      0.00006      2.11051      5.32906        -0.000299     -0.005165      0.042699
      2.11031      4.22076      5.32906         0.002954     -0.004065      0.047079
      0.00006      4.22076      3.21881         0.000189      0.000561     -0.570826
      2.11031      2.11051      3.21881        -0.000146      0.000553     -0.570847
      8.44053      2.10979      9.60563         0.009598      0.005154      0.037743
      2.10787      4.21974      9.60038         0.035576      0.002574      0.085493
      8.44074      4.22024      7.44750         0.002254      0.000010      0.020271
      2.10988      2.10931      7.44846         0.000694      0.004809      0.016290
      4.22056      6.33100      5.32906        -0.000465     -0.007688      0.046091
      6.33080      0.00026      5.32906         0.000941     -0.004231      0.042481
      4.22056      0.00026      3.21881        -0.000089      0.000555     -0.570920
      6.33080      6.33100      3.21881         0.000181      0.000625     -0.570988
      4.22041      6.33259      9.60494        -0.006336     -0.041543      0.061842
      6.33080      8.44022      9.60644         0.002545      0.005231      0.027510
      4.22046      8.44054      7.44788        -0.000804      0.000178      0.019200
      6.33078      6.33100      7.44892        -0.000413     -0.003665      0.014450
      4.22056      2.11051      5.32906        -0.000432     -0.001056      0.046326
      6.33080      4.22076      5.32906        -0.003355     -0.004126      0.047067
      4.22056      4.22076      3.21881        -0.000187      0.000493     -0.571207
      6.33080      2.11051      3.21881         0.000134      0.000445     -0.571000
      4.22047      2.10650      9.60436        -0.006683      0.043889      0.063962
      6.33249      4.21973      9.60317        -0.030005      0.001193      0.068996
      4.22062      4.22016      7.45169        -0.003367     -0.000333     -0.009449
      6.33087      2.10935      7.44884        -0.000966      0.003384      0.014330
    total drift:                                0.006571     -0.008016     -0.516312

  FREE ENERGIE OF THE ION-ELECTRON SYSTEM (eV)
  free  energy   TOTEN  =      -372.08195676 eV

  energy  without entropy=     -372.08195676  energy(sigma->0) =     -372.08195676

 writing wavefunctions

     |            E. Caldeweyher, S. Ehlert & S. Grimme          |
     |          Mulliken Center for Theoretical Chemistry        |
     |                    University of Bonn                     |

Rational (Becke-Johnson) damping: hse06-D4-ATM
  s6         1.0000
  s8         1.1953
  s9         1.0000
  a1         0.3866
  a2         5.1913
 alp        16.0000

Dispersion energy:      -2.6842636522346E-01 Eh