 vasp.6.4.2 20Jul23 (build Feb 22 2024 13:53:45) complex
 executed on              LinuxNV date 2024.08.27  14:37:35
 OpenACC runtime initialized ...    4 GPUs detected

 INCAR:
   SYSTEM = Oxide-Surface
   ISMEAR = 0
   SIGMA = 0.05
   EDIFF = 1E-5
   ALGO = Normal
   IBRION = -1
   NSW = 0
   ISYM = 0
   DIPOL = 0.5 0.5 0.5
   IDIPOL = 3
   LDIPOL = .TRUE.
   ISTART = 1
   LHFCALC = .TRUE.
   HFSCREEN = 0.2
   GGA = PE
   HFRCUT = -1
   ENCUT = 520
   PREC = Normal
   PRECFOCK = Normal
   LASPH = .TRUE.
   LREAL = Auto
   ISPIN = 1
   NELM = 200
   NELMIN = 8
   NCORE = 1
   KPAR = 1
   LWAVE = .FALSE.
   LCHARG = .FALSE.

 POTCAR:    PAW_PBE Mg_pv 13Apr2007
 POTCAR:    PAW_PBE O 08Apr2002
 POTCAR:    PAW_PBE Mg_pv 13Apr2007
   VRHFIN =Mg: p6s2

   TITEL  = PAW_PBE Mg_pv 13Apr2007
   POMASS =   24.305; ZVAL   =    8.000    mass and valenz
   ENMAX  =  403.929; ENMIN  =  302.947 eV

   TITEL  = PAW_PBE O 08Apr2002
   POMASS =   16.000; ZVAL   =    6.000    mass and valenz
   ENMAX  =  400.000; ENMIN  =  300.000 eV

 Optimization of the real space projectors (new method)

 maximal supplied QI-value         = 18.90
 optimisation between [QCUT,QGAM] = [ 11.53, 23.24] = [ 37.21,151.29] Ry
 Optimized for a Real-space Cutoff    1.21 Angstroem

   l    n(q)    QCUT    max X(q) W(low)/X(q) W(high)/X(q)  e(spline)
   1      8    11.527     2.974    0.16E-03    0.13E-03    0.98E-07
   1      8    11.527     4.279    0.42E-03    0.30E-03    0.22E-06
   0      8    11.527    16.381    0.13E-03    0.20E-03    0.72E-07
   0      8    11.527     5.611    0.88E-04    0.13E-03    0.50E-07
   2      7    11.527     4.652    0.25E-03    0.73E-04    0.51E-07
 Optimization of the real space projectors (new method)

 maximal supplied QI-value         = 24.76
 optimisation between [QCUT,QGAM] = [ 11.64, 23.27] = [ 37.91,151.63] Ry
 Optimized for a Real-space Cutoff    1.04 Angstroem

   l    n(q)    QCUT    max X(q) W(low)/X(q) W(high)/X(q)  e(spline)
   0      7    11.635    20.381    0.14E-03    0.49E-03    0.18E-06
   0      7    11.635    15.268    0.16E-03    0.52E-03    0.19E-06
   1      7    11.635     5.964    0.30E-03    0.44E-03    0.22E-06
   1      7    11.635     5.382    0.27E-03    0.34E-03    0.19E-06
  PAW_PBE Mg_pv 13Apr2007               :
  PAW_PBE O 08Apr2002                   :

 POSCAR: Mg  O
  positions in direct lattice
 exchange correlation table for  LEXCH =        8
   RHO(1)=    0.500       N(1)  =     2000
   RHO(2)=  100.500       N(2)  =     4000

 ion  position               nearest neighbor table
   1  0.000  0.750  0.189-  35 2.11  36 2.11  43 2.11  52 2.11  33 2.11
   2  0.250  0.000  0.189-  35 2.11  36 2.11  44 2.11  51 2.11  34 2.11
   3  0.000  0.000  0.313-  33 2.11  34 2.11  41 2.11  50 2.11  35 2.11  39 2.12
   4  0.250  0.750  0.313-  33 2.11  34 2.11  42 2.11  49 2.11  36 2.11  40 2.12
   5  1.000  0.750  0.438-  56 2.11  40 2.11  47 2.11  39 2.11  33 2.12  37 2.15
   6  0.250  1.000  0.438-  40 2.11  48 2.11  55 2.11  39 2.11  34 2.12  38 2.15
   7  1.000  1.000  0.562-  38 2.11  54 2.11  39 2.11  37 2.11  45 2.11
   8  0.250  0.750  0.562-  40 2.11  46 2.11  37 2.11  38 2.11  53 2.11
   9  0.000  0.250  0.189-  35 2.11  43 2.11  44 2.11  60 2.11  41 2.11
  10  0.250  0.500  0.189-  36 2.11  43 2.11  44 2.11  59 2.11  42 2.11
  11  0.000  0.500  0.313-  33 2.11  41 2.11  42 2.11  58 2.11  43 2.11  47 2.12
  12  0.250  0.250  0.313-  34 2.11  41 2.11  42 2.11  57 2.11  44 2.11  48 2.12
  13  1.000  0.250  0.438-  64 2.11  48 2.11  47 2.11  39 2.11  41 2.12  45 2.15
  14  0.250  0.500  0.439-  63 2.11  48 2.11  40 2.11  47 2.11  42 2.13  46 2.15
  15  0.000  0.500  0.562-  46 2.11  47 2.11  62 2.11  37 2.11  45 2.11
  16  0.250  0.250  0.562-  48 2.11  45 2.11  46 2.11  38 2.11  61 2.11
  17  0.500  0.750  0.189-  36 2.11  51 2.11  52 2.11  59 2.11  49 2.11
  18  0.750  0.000  0.189-  35 2.11  51 2.11  52 2.11  60 2.11  50 2.11
  19  0.500  0.000  0.313-  34 2.11  49 2.11  50 2.11  57 2.11  51 2.11  55 2.12
  20  0.750  0.750  0.313-  33 2.11  49 2.11  50 2.11  58 2.11  52 2.11  56 2.12
  21  0.500  0.750  0.439-  63 2.11  56 2.11  40 2.11  55 2.11  49 2.13  53 2.15
  22  0.750  1.000  0.438-  56 2.11  64 2.11  39 2.11  55 2.11  50 2.13  54 2.15
  23  0.500  1.000  0.562-  61 2.11  53 2.11  55 2.11  38 2.11  54 2.11
  24  0.750  0.750  0.562-  56 2.11  37 2.11  54 2.11  62 2.11  53 2.11
  25  0.500  0.250  0.189-  44 2.11  51 2.11  59 2.11  60 2.11  57 2.11
  26  0.750  0.500  0.189-  43 2.11  52 2.11  59 2.11  60 2.11  58 2.11
  27  0.500  0.500  0.313-  42 2.11  49 2.11  57 2.11  58 2.11  59 2.11  63 2.12
  28  0.750  0.250  0.313-  41 2.11  50 2.11  57 2.11  58 2.11  60 2.11  64 2.12
  29  0.500  0.250  0.439-  63 2.11  64 2.11  48 2.11  55 2.11  57 2.13  61 2.15
  30  0.750  0.500  0.439-  63 2.11  64 2.11  56 2.11  47 2.11  58 2.13  62 2.15
  31  0.500  0.500  0.563-  46 2.11  53 2.11  61 2.11  62 2.11  63 2.12
  32  0.750  0.250  0.562-  64 2.11  45 2.11  54 2.11  62 2.11  61 2.11
  33  0.000  0.750  0.313-   3 2.11   4 2.11  11 2.11  20 2.11   1 2.11   5 2.12
  34  0.250  0.000  0.313-   3 2.11   4 2.11  12 2.11  19 2.11   2 2.11   6 2.12
  35  0.000  0.000  0.189-   1 2.11   2 2.11   9 2.11  18 2.11   3 2.11
  36  0.250  0.750  0.189-   1 2.11   2 2.11  10 2.11  17 2.11   4 2.11
  37  1.000  0.750  0.565-  24 2.11   8 2.11  15 2.11   7 2.11   5 2.15
  38  0.250  1.000  0.565-   7 2.11  23 2.11  16 2.11   8 2.11   6 2.15
  39  1.000  1.000  0.438-  22 2.11   5 2.11  13 2.11   6 2.11   7 2.11   3 2.12
  40  0.250  0.750  0.438-   8 2.11   6 2.11   5 2.11  21 2.11  14 2.11   4 2.12
  41  0.000  0.250  0.313-   3 2.11  11 2.11  12 2.11  28 2.11   9 2.11  13 2.12
  42  0.250  0.500  0.313-   4 2.11  11 2.11  12 2.11  27 2.11  10 2.11  14 2.13
  43  0.000  0.500  0.189-   1 2.11   9 2.11  10 2.11  26 2.11  11 2.11
  44  0.250  0.250  0.189-   2 2.11   9 2.11  10 2.11  25 2.11  12 2.11
  45  1.000  0.250  0.565-  32 2.11  16 2.11  15 2.11   7 2.11  13 2.15
  46  0.250  0.500  0.565-  15 2.11   8 2.11  16 2.11  31 2.11  14 2.15
  47  1.000  0.500  0.438-  15 2.11  13 2.11   5 2.11  30 2.11  14 2.11  11 2.12
  48  0.250  0.250  0.438-  16 2.11   6 2.11  13 2.11  29 2.11  14 2.11  12 2.12
  49  0.500  0.750  0.313-   4 2.11  19 2.11  20 2.11  27 2.11  17 2.11  21 2.13
  50  0.750  0.000  0.313-   3 2.11  19 2.11  20 2.11  28 2.11  18 2.11  22 2.13
  51  0.500  0.000  0.189-   2 2.11  17 2.11  18 2.11  25 2.11  19 2.11
  52  0.750  0.750  0.189-   1 2.11  17 2.11  18 2.11  26 2.11  20 2.11
  53  0.500  0.750  0.565-  23 2.11  24 2.11   8 2.11  31 2.11  21 2.15
  54  0.750  1.000  0.565-  32 2.11   7 2.11  24 2.11  23 2.11  22 2.15
  55  0.500  1.000  0.438-  23 2.11  22 2.11   6 2.11  21 2.11  29 2.11  19 2.12
  56  0.750  0.750  0.438-  24 2.11  22 2.11   5 2.11  21 2.11  30 2.11  20 2.12
  57  0.500  0.250  0.313-  12 2.11  19 2.11  27 2.11  28 2.11  25 2.11  29 2.13
  58  0.750  0.500  0.313-  11 2.11  20 2.11  27 2.11  28 2.11  26 2.11  30 2.13
  59  0.500  0.500  0.189-  10 2.11  17 2.11  25 2.11  26 2.11  27 2.11
  60  0.750  0.250  0.189-   9 2.11  18 2.11  25 2.11  26 2.11  28 2.11
  61  0.500  0.250  0.565-  23 2.11  32 2.11  16 2.11  31 2.11  29 2.15
  62  0.750  0.500  0.565-  15 2.11  24 2.11  32 2.11  31 2.11  30 2.15
  63  0.500  0.500  0.438-  30 2.11  21 2.11  29 2.11  14 2.11  31 2.12  27 2.12
  64  0.750  0.250  0.438-  32 2.11  22 2.11  13 2.11  29 2.11  30 2.11  28 2.12

IMPORTANT INFORMATION: All symmetrisations will be switched off!
NOSYMM: (Re-)initialisation of all symmetry stuff for point group C_1.

                                     Primitive cell

  volume of cell :    1211.2538

  direct lattice vectors                    reciprocal lattice vectors
     8.440984654  0.000000000  0.000000000     0.118469591  0.000000000  0.000000000
     0.000000000  8.440984654  0.000000000     0.000000000  0.118469591  0.000000000
     0.000000000  0.000000000 17.000000000     0.000000000  0.000000000  0.058823529

  length of vectors
     8.440984654  8.440984654 17.000000000     0.118469591  0.118469591  0.058823529

  position of ions in fractional coordinates (direct lattice)
     0.000007636  0.750031286  0.189341906
     0.250007636  0.000031286  0.189341906
     0.000007636  0.000031286  0.313474033
     0.250007636  0.750031286  0.313474033
     0.999976970  0.749963850  0.438457003
     0.249986644  0.999964140  0.438470494
     0.999992364  0.999910906  0.562348157
     0.249873245  0.749845785  0.562202626
     0.000007636  0.250031286  0.189341906
     0.250007636  0.500031286  0.189341906
     0.000007636  0.500031286  0.313474033
     0.250007636  0.250031286  0.313474033
     0.999977352  0.249980617  0.438453686
     0.250127274  0.499963970  0.438535724
     0.000145226  0.499923750  0.562114841
     0.249869118  0.249973003  0.562195641
     0.500007636  0.750031286  0.189341906
     0.750007636  0.000031286  0.189341906
     0.500007636  0.000031286  0.313474033
     0.750007636  0.750031286  0.313474033
     0.499991240  0.749815526  0.438527908
     0.749986537  0.999961265  0.438479227
     0.499961494  0.999896839  0.562145227
     0.750043134  0.749924142  0.562250345
     0.500007636  0.250031286  0.189341906
     0.750007636  0.500031286  0.189341906
     0.500007636  0.500031286  0.313474033
     0.750007636  0.250031286  0.313474033
     0.499993003  0.250082768  0.438527210
     0.749860656  0.499960669  0.438562571
     0.499843564  0.499898967  0.563085918
     0.750058171  0.249889399  0.562241868
     0.000007636  0.750031286  0.313474033
     0.250007636  0.000031286  0.313474033
     0.000007636  0.000031286  0.189341906
     0.250007636  0.750031286  0.189341906
     0.999943344  0.749886766  0.565046454
     0.249946089  0.999912111  0.565050657
     0.999971036  0.999968714  0.438179888
     0.249965036  0.750040437  0.438149594
     0.000007636  0.250031286  0.313474033
     0.250007636  0.500031286  0.313474033
     0.000007636  0.500031286  0.189341906
     0.250007636  0.250031286  0.189341906
     0.999945875  0.249945679  0.565037155
     0.249719068  0.499911441  0.564728513
     0.999971089  0.499970067  0.438088058
     0.249956936  0.249888775  0.438144915
     0.500007636  0.750031286  0.313474033
     0.750007636  0.000031286  0.313474033
     0.500007636  0.000031286  0.189341906
     0.750007636  0.750031286  0.189341906
     0.499989702  0.750219279  0.564996442
     0.750006699  0.999909280  0.565084458
     0.499996442  0.999947314  0.438110544
     0.750005020  0.750030779  0.438172055
     0.500007636  0.250031286  0.313474033
     0.750007636  0.500031286  0.313474033
     0.500007636  0.500031286  0.189341906
     0.750007636  0.250031286  0.189341906
     0.499997048  0.249555778  0.564962164
     0.750207288  0.499910047  0.564892284
     0.500015401  0.499961148  0.438334676
     0.750015257  0.249893599  0.438167343

  ion indices of the primitive-cell ions
   primitive index   ion index
                 1           1
                 2           2
                 3           3
                 4           4
                 5           5
                 6           6
[...]
   6.33122951  2.10931258  9.55811175
   0.00006445  6.33100257  5.32905857
   2.11031062  0.00026408  5.32905857
   0.00006445  0.00026408  3.21881240
   2.11031062  6.33100257  3.21881240
   8.44050642  6.32978268  9.60578971
   2.10979110  8.44024278  9.60586117
   8.44074017  8.44072057  7.44905809
   2.10995103  6.33107982  7.44854310
   0.00006445  2.11051025  5.32905857
   2.11031062  4.22075641  5.32905857
   0.00006445  4.22075641  3.21881240
   2.11031062  2.11051025  3.21881240
   8.44052779  2.10978764  9.60563163
   2.10787482  4.21974480  9.60038472
   8.44074062  4.22023966  7.44749699
   2.10988266  2.10930731  7.44846355
   4.22055678  6.33100257  5.32905857
   6.33080294  0.00026408  5.32905857
   4.22055678  0.00026408  3.21881240
   6.33080294  6.33100257  3.21881240
   4.22040540  6.33258942  9.60493951
   6.33079504  8.44021889  9.60643579
   4.22046230  8.44053993  7.44787926
   6.33078086  6.33099830  7.44892493
   4.22055678  2.11051025  5.32905857
   6.33080294  4.22075641  5.32905857
   4.22055678  4.22075641  3.21881240
   6.33080294  2.11051025  3.21881240
   4.22046741  2.10649649  9.60435679
   6.33248821  4.21973303  9.60316883
   4.22062233  4.22016438  7.45168948
   6.33086727  2.10934804  7.44884483

--------------------------------------- Iteration      FINAL  ---------------------------------------

--------------------OUTCAR has been truncated-------------------------

[...]

--------------------OUTCAR has been truncated-------------------------

 VOLUME and BASIS-vectors are now :
  energy-cutoff  :      520.00
  volume of cell :     1211.25
      direct lattice vectors                 reciprocal lattice vectors
     8.440984654  0.000000000  0.000000000     0.118469591  0.000000000  0.000000000
     0.000000000  8.440984654  0.000000000     0.000000000  0.118469591  0.000000000
     0.000000000  0.000000000 17.000000000     0.000000000  0.000000000  0.058823529

  length of vectors
     8.440984654  8.440984654 17.000000000     0.118469591  0.118469591  0.058823529

 FORCES acting on ions
    electron-ion (+dipol)            ewald-force                    non-local-force                 convergence-correction
   0.870E-02 0.173E-01 0.172E+04   -.906E-02 -.173E-01 -.171E+04   0.240E-03 0.386E-04 -.685E+01   0.956E-05 -.123E-04 -.166E+00
   -.245E-01 0.931E-03 0.172E+04   0.245E-01 -.110E-02 -.171E+04   0.395E-04 0.162E-03 -.685E+01   -.478E-05 0.163E-04 -.166E+00
   0.193E-01 0.109E-02 0.567E+03   -.216E-01 -.359E-02 -.568E+03   0.141E-02 0.151E-02 0.466E+00   0.446E-05 0.578E-05 -.109E+00
   -.158E+00 0.124E+00 0.567E+03   0.160E+00 -.126E+00 -.568E+03   -.120E-02 0.719E-03 0.462E+00   0.351E-05 0.711E-05 -.109E+00
   0.758E-01 -.982E-01 -.575E+03   -.842E-01 0.110E+00 0.575E+03   0.596E-02 -.682E-02 -.214E+00   -.152E-04 0.112E-04 -.101E-01
   -.355E-01 0.975E-02 -.575E+03   0.311E-01 -.989E-02 0.575E+03   0.267E-02 0.913E-04 -.225E+00   -.196E-05 0.919E-05 -.101E-01
   -.352E-01 -.108E-01 -.171E+04   0.379E-01 0.119E-01 0.170E+04   -.306E-02 0.268E-03 0.575E+01   -.814E-05 -.205E-05 0.936E-01
   -.462E+00 -.137E+00 -.171E+04   0.423E+00 0.207E+00 0.170E+04   0.354E-01 -.393E-01 0.578E+01   0.669E-05 0.288E-04 0.934E-01
   0.862E-02 -.176E-01 0.172E+04   -.898E-02 0.173E-01 -.171E+04   0.240E-03 0.287E-03 -.685E+01   0.115E-04 -.119E-06 -.166E+00
   -.439E-01 -.132E-02 0.172E+04   0.447E-01 0.119E-02 -.171E+04   -.521E-03 0.150E-03 -.685E+01   -.823E-05 0.153E-05 -.166E+00
   0.467E-01 -.156E-01 0.567E+03   -.509E-01 0.131E-01 -.568E+03   0.264E-02 0.155E-02 0.443E+00   0.638E-06 -.708E-05 -.109E+00
   -.167E+00 -.138E+00 0.567E+03   0.169E+00 0.134E+00 -.568E+03   -.776E-03 0.266E-02 0.461E+00   -.506E-06 -.661E-05 -.109E+00
   0.707E-01 0.114E+00 -.575E+03   -.789E-01 -.126E+00 0.575E+03   0.592E-02 0.634E-02 -.215E+00   -.126E-04 -.791E-05 -.101E-01
   -.538E+00 -.338E-02 -.574E+03   0.587E+00 0.364E-02 0.575E+03   -.406E-01 -.134E-03 -.293E+00   -.155E-04 -.168E-04 -.100E-01
   0.588E+00 0.269E-01 -.171E+04   -.599E+00 -.243E-01 0.170E+04   -.108E-01 -.194E-02 0.575E+01   -.197E-04 -.164E-04 0.933E-01
   -.491E+00 0.123E+00 -.171E+04   0.449E+00 -.190E+00 0.170E+04   0.384E-01 0.391E-01 0.578E+01   0.771E-05 -.173E-04 0.934E-01
   -.892E-02 0.365E-01 0.172E+04   0.917E-02 -.373E-01 -.171E+04   -.140E-03 0.613E-03 -.685E+01   -.860E-06 -.700E-05 -.166E+00
   0.244E-01 0.996E-03 0.172E+04   -.245E-01 -.117E-02 -.171E+04   0.753E-04 0.166E-03 -.685E+01   -.731E-05 0.139E-04 -.166E+00
   -.258E-01 -.543E-02 0.567E+03   0.262E-01 0.144E-02 -.568E+03   -.283E-03 0.239E-02 0.446E+00   -.474E-05 -.145E-05 -.109E+00
   0.155E+00 0.151E+00 0.567E+03   -.159E+00 -.155E+00 -.567E+03   0.241E-02 0.225E-02 0.465E+00   0.165E-06 0.116E-04 -.109E+00
   -.666E-01 0.410E+00 -.575E+03   0.753E-01 -.447E+00 0.576E+03   -.602E-02 0.334E-01 -.250E+00   0.432E-05 0.326E-04 -.100E-01
   0.499E-01 0.120E-01 -.575E+03   -.431E-01 -.121E-01 0.575E+03   -.465E-02 0.119E-03 -.221E+00   0.640E-05 0.381E-05 -.101E-01
   0.506E-01 0.206E-01 -.171E+04   -.545E-01 -.143E-01 0.170E+04   0.360E-02 -.415E-02 0.572E+01   -.945E-05 -.207E-05 0.934E-01
   0.396E+00 0.300E+00 -.171E+04   -.356E+00 -.261E+00 0.170E+04   -.335E-01 -.274E-01 0.576E+01   0.957E-05 0.151E-04 0.935E-01
   -.882E-02 -.372E-01 0.172E+04   0.908E-02 0.376E-01 -.171E+04   -.148E-03 -.224E-03 -.685E+01   0.392E-05 -.427E-05 -.166E+00
   0.438E-01 -.143E-02 0.172E+04   -.447E-01 0.129E-02 -.171E+04   0.606E-03 0.158E-03 -.685E+01   -.213E-05 -.200E-05 -.166E+00
   -.503E-01 -.423E-02 0.567E+03   0.534E-01 0.134E-02 -.567E+03   -.197E-02 0.166E-02 0.493E+00   -.110E-04 -.989E-05 -.109E+00
   0.164E+00 -.164E+00 0.567E+03   -.168E+00 0.162E+00 -.567E+03   0.192E-02 0.126E-02 0.464E+00   0.146E-05 -.122E-04 -.109E+00
   -.623E-01 -.437E+00 -.575E+03   0.710E-01 0.475E+00 0.576E+03   -.606E-02 -.335E-01 -.258E+00   0.878E-05 -.306E-04 -.100E-01
   0.510E+00 -.743E-02 -.575E+03   -.560E+00 0.824E-02 0.576E+03   0.415E-01 -.409E-03 -.287E+00   0.148E-04 -.192E-04 -.995E-02
   -.393E+00 0.623E-01 -.171E+04   0.416E+00 -.553E-01 0.170E+04   -.471E-02 -.562E-02 0.590E+01   0.357E-05 -.165E-04 0.942E-01
   0.426E+00 -.316E+00 -.171E+04   -.384E+00 0.280E+00 0.170E+04   -.360E-01 0.274E-01 0.577E+01   0.898E-05 0.206E-05 0.935E-01
   0.270E-01 0.132E-01 0.425E+03   -.260E-01 -.131E-01 -.425E+03   -.104E-02 -.397E-02 -.151E+00   -.393E-05 0.103E-04 -.854E-01
   -.472E-01 -.118E-02 0.425E+03   0.519E-01 0.475E-02 -.425E+03   -.553E-02 -.820E-02 -.156E+00   0.278E-06 0.555E-05 -.854E-01
   0.532E-02 0.127E-02 0.129E+04   -.550E-02 -.118E-02 -.130E+04   0.373E-03 0.472E-03 0.307E+01   0.432E-05 0.104E-04 -.127E+00
   -.255E-01 0.201E-01 0.129E+04   0.259E-01 -.200E-01 -.130E+04   -.447E-03 0.457E-03 0.307E+01   0.174E-05 -.837E-05 -.127E+00
   0.451E-01 -.103E+00 -.130E+04   -.633E-01 0.112E+00 0.130E+04   0.210E-01 -.356E-02 -.465E+01   -.462E-05 -.155E-04 0.703E-01
   -.957E-01 0.438E-03 -.130E+04   0.118E+00 -.274E-02 0.130E+04   -.216E-01 0.690E-02 -.466E+01   0.365E-04 0.945E-05 0.703E-01
   -.232E-03 0.158E-02 -.426E+03   -.211E-03 0.280E-03 0.426E+03   0.119E-02 -.245E-02 0.200E+00   -.419E-05 0.327E-05 -.131E-01
   -.225E+00 0.842E-01 -.426E+03   0.229E+00 -.837E-01 0.426E+03   -.297E-02 -.471E-02 0.239E+00   -.315E-05 0.189E-04 -.131E-01
   0.265E-01 -.211E-01 0.425E+03   -.255E-01 0.270E-01 -.425E+03   -.100E-02 -.112E-01 -.151E+00   -.414E-05 -.256E-05 -.854E-01
   -.166E+00 -.944E-02 0.425E+03   0.157E+00 0.128E-01 -.425E+03   0.108E-01 -.786E-02 -.159E+00   0.546E-06 -.679E-05 -.854E-01
   0.761E-02 -.116E-02 0.129E+04   -.806E-02 0.121E-02 -.130E+04   0.698E-03 0.539E-03 0.307E+01   0.114E-04 -.473E-05 -.127E+00
   -.262E-01 -.199E-01 0.129E+04   0.266E-01 0.199E-01 -.130E+04   -.369E-03 0.533E-03 0.307E+01   -.141E-05 0.427E-05 -.127E+00
   0.371E-01 0.102E+00 -.130E+04   -.541E-01 -.114E+00 0.130E+04   0.245E-01 0.160E-01 -.465E+01   -.425E-05 0.294E-04 0.703E-01
   -.739E+00 0.238E-01 -.130E+04   0.720E+00 -.259E-01 0.130E+04   0.483E-01 0.477E-02 -.451E+01   -.472E-04 -.205E-04 0.701E-01
   0.149E+00 -.165E-01 -.425E+03   -.155E+00 0.166E-01 0.425E+03   0.642E-02 -.425E-03 0.254E+00   -.473E-05 -.454E-05 -.132E-01
   -.246E+00 -.866E-01 -.426E+03   0.249E+00 0.853E-01 0.426E+03   -.302E-02 0.427E-02 0.239E+00   -.316E-05 -.997E-05 -.132E-01
   -.315E-01 0.130E+00 0.425E+03   0.330E-01 -.115E+00 -.425E+03   -.159E-02 -.210E-01 -.160E+00   0.370E-05 0.117E-04 -.855E-01
   0.453E-01 -.110E-02 0.425E+03   -.477E-01 0.481E-02 -.425E+03   0.316E-02 -.836E-02 -.158E+00   0.383E-05 -.106E-05 -.854E-01
   -.530E-02 0.694E-03 0.129E+04   0.555E-02 -.621E-03 -.130E+04   -.156E-03 0.502E-03 0.307E+01   0.313E-05 0.933E-05 -.127E+00
   0.256E-01 0.224E-01 0.129E+04   -.260E-01 -.225E-01 -.130E+04   0.657E-03 0.766E-03 0.307E+01   -.349E-05 -.622E-05 -.127E+00
   0.214E-01 0.664E+00 -.130E+04   -.122E-01 -.631E+00 0.130E+04   -.135E-01 -.660E-01 -.456E+01   -.400E-05 0.621E-04 0.703E-01
   0.804E-01 0.266E-02 -.130E+04   -.100E+00 -.508E-02 0.130E+04   0.202E-01 0.836E-02 -.467E+01   -.241E-04 0.733E-05 0.703E-01
   -.756E-02 0.125E-01 -.426E+03   0.703E-02 -.147E-01 0.425E+03   -.147E-03 0.157E-02 0.248E+00   -.239E-05 0.537E-05 -.132E-01
   0.222E+00 0.216E+00 -.426E+03   -.227E+00 -.221E+00 0.426E+03   0.366E-02 0.130E-02 0.229E+00   0.166E-04 0.180E-04 -.131E-01
   -.307E-01 -.146E+00 0.425E+03   0.321E-01 0.140E+00 -.425E+03   -.145E-02 0.300E-02 -.159E+00   -.323E-06 -.483E-05 -.855E-01
   0.164E+00 -.104E-01 0.425E+03   -.154E+00 0.139E-01 -.424E+03   -.120E-01 -.810E-02 -.166E+00   0.982E-05 -.704E-05 -.855E-01
   -.760E-02 -.274E-03 0.129E+04   0.810E-02 0.432E-03 -.130E+04   -.444E-03 0.409E-03 0.307E+01   -.476E-05 -.548E-05 -.127E+00
   0.263E-01 -.222E-01 0.129E+04   -.267E-01 0.225E-01 -.130E+04   0.583E-03 0.209E-03 0.307E+01   -.615E-05 -.150E-05 -.127E+00
   0.246E-01 -.703E+00 -.130E+04   -.145E-01 0.662E+00 0.130E+04   -.145E-01 0.729E-01 -.455E+01   -.470E-05 -.477E-04 0.703E-01
   0.582E+00 0.242E-01 -.130E+04   -.551E+00 -.269E-01 0.130E+04   -.531E-01 0.352E-02 -.455E+01   0.453E-04 -.214E-04 0.702E-01
   -.133E+00 0.219E-01 -.429E+03   0.140E+00 -.257E-01 0.428E+03   -.888E-02 0.281E-02 0.497E-01   0.146E-05 -.495E-05 -.130E-01
   0.243E+00 -.215E+00 -.426E+03   -.248E+00 0.218E+00 0.426E+03   0.393E-02 -.596E-03 0.229E+00   0.124E-04 -.834E-05 -.132E-01
   0.125E-01 0.281E-02 0.239E+02   -.710E-12 0.260E-12 -.676E-11   -.359E-02 -.142E-01 -.187E+02   0.425E-05 -.887E-05 -.278E+01

 POSITION                                       TOTAL-FORCE (eV/Angst)
      0.00006      6.33100      3.21881        -0.000105      0.000525      0.545277
      2.11031      0.00026      3.21881         0.000009      0.000482      0.545541
      0.00006      0.00026      5.32906        -0.000711     -0.000577      0.047590
      2.11031      6.33100      5.32906         0.000559     -0.000629      0.047046
      8.44079      6.33043      7.45377        -0.001738      0.003879      0.060074
      2.11013      8.44068      7.45400        -0.001471      0.000113      0.061691
      8.44092      8.44023      9.55992        -0.000835      0.000979     -0.124204
      2.10918      6.32944      9.55744        -0.000159      0.024232     -0.118251
      0.00006      2.11051      3.21881        -0.000104      0.000452      0.545313
      2.11031      4.22076      3.21881         0.000176      0.000492      0.545387
      0.00006      4.22076      5.32906        -0.001224     -0.000561      0.048167
      2.11031      2.11051      5.32906         0.000451     -0.000740      0.046959
      8.44079      2.11008      7.45371        -0.001645     -0.004325      0.060265
      2.11132      4.22019      7.45511         0.003034      0.000251      0.043882
      0.00123      4.21985      9.55595        -0.021055      0.000044     -0.105383
      2.10914      2.11002      9.55733        -0.000030     -0.022788     -0.118320
      4.22056      6.33100      3.21881         0.000062      0.000351      0.545620
      6.33080      0.00026      3.21881        -0.000049      0.000481      0.545647
      4.22056      0.00026      5.32906        -0.000047     -0.001072      0.049657
      6.33080      6.33100      5.32906        -0.001416     -0.001335      0.048507
      4.22042      6.32918      7.45497         0.001778      0.000642      0.058506
      6.33062      8.44066      7.45415         0.001443      0.000167      0.061709
      4.22017      8.44011      9.55647        -0.000217      0.001048     -0.098877
      6.33110      6.33010      9.55826         0.002415      0.008060     -0.118126
      4.22056      2.11051      3.21881         0.000063      0.000600      0.545556
      6.33080      4.22076      3.21881        -0.000206      0.000490      0.545844
      4.22056      4.22076      5.32906         0.000764     -0.000821      0.052162
      6.33080      2.11051      5.32906        -0.001264     -0.000144      0.048346
      4.22043      2.11094      7.45496         0.001709      0.001083      0.058284
      6.32956      4.22016      7.45556        -0.003711      0.000450      0.053893
      4.21917      4.21964      9.57246         0.016994      0.000838     -0.233848
      6.33123      2.10931      9.55811         0.001809     -0.006086     -0.118026
      0.00006      6.33100      5.32906        -0.000320     -0.002922      0.031535
      2.11031      0.00026      5.32906        -0.001871     -0.004435      0.030815
      0.00006      0.00026      3.21881         0.000107      0.000634     -0.479672
      2.11031      6.33100      3.21881        -0.000181      0.000622     -0.479711
      8.44051      6.32978      9.60579         0.006520      0.003497     -0.110779
      2.10979      8.44024      9.60586        -0.002834      0.004424     -0.112932
      8.44074      8.44072      7.44906         0.001074     -0.000615      0.020877
      2.10995      6.33108      7.44854        -0.000087     -0.005233      0.023488
      0.00006      2.11051      5.32906        -0.000305     -0.005582      0.031174
      2.11031      4.22076      5.32906         0.003387     -0.004309      0.035450
      0.00006      4.22076      3.21881         0.000220      0.000653     -0.479724
      2.11031      2.11051      3.21881        -0.000150      0.000641     -0.479711
      8.44053      2.10979      9.60563         0.010307      0.005547     -0.110379
      2.10787      4.21974      9.60038         0.037008      0.002716     -0.059636
      8.44074      4.22024      7.44750         0.002384     -0.000014      0.027404
      2.10988      2.10931      7.44846         0.000507      0.004733      0.023433
      4.22056      6.33100      5.32906        -0.000483     -0.008390      0.034422
      6.33080      0.00026      5.32906         0.001121     -0.004476      0.030834
      4.22056      0.00026      3.21881        -0.000077      0.000646     -0.479826
      6.33080      6.33100      3.21881         0.000195      0.000720     -0.479858
      4.22041      6.33259      9.60494        -0.006724     -0.043417     -0.084294
      6.33080      8.44022      9.60644         0.003184      0.005547     -0.121385
      4.22046      8.44054      7.44788        -0.000832      0.000167      0.026161
      6.33078      6.33100      7.44892        -0.000272     -0.003516      0.021315
      4.22056      2.11051      5.32906        -0.000438     -0.000892      0.034650
      6.33080      4.22076      5.32906        -0.003782     -0.004378      0.035291
      4.22056      4.22076      3.21881        -0.000168      0.000608     -0.480062
      6.33080      2.11051      3.21881         0.000169      0.000538     -0.479857
      4.22047      2.10650      9.60436        -0.007099      0.045724     -0.082134
      6.33249      4.21973      9.60317        -0.031488      0.001238     -0.077063
      4.22062      4.22016      7.45169        -0.003564     -0.000267     -0.006917
      6.33087      2.10935      7.44884        -0.000789      0.003212      0.021203
    total drift:                                0.006318     -0.010676     -0.384960

  FREE ENERGIE OF THE ION-ELECTRON SYSTEM (eV)
  free  energy   TOTEN  =      -445.95027466 eV

  energy  without entropy=     -445.95027466  energy(sigma->0) =     -445.95027466

     |            E. Caldeweyher, S. Ehlert & S. Grimme          |
     |          Mulliken Center for Theoretical Chemistry        |
     |                    University of Bonn                     |

Rational (Becke-Johnson) damping: hse06-D4-ATM
  s6         1.0000
  s8         1.1953
  s9         1.0000
  a1         0.3866
  a2         5.1913
 alp        16.0000

Dispersion energy:      -2.6842636522346E-01 Eh