 vasp.6.3.0 20Jan22 (build Apr  1 2022 16:44:48) complex
 executed on        HPECrayEX_GCC date 2023.01.23  22:52:08

 INCAR:
   SYSTEM = MgO-rocksalt
   ISMEAR = 0
   SIGMA = 0.05
   EDIFF = 1E-8
   ALGO = ALL
   ISTART = 0
   IBRION = 5
   POTIM = 0.01
   NFREE = 2
   ISYM = 0
   DIPOL = 0.5 0.5 0.5
   IDIPOL = 3
   LDIPOL = .TRUE.
   GGA = RE
   AGGAC = 0.0
   LUSE_VDW = .TRUE.
   LASPH = .TRUE.
   ENCUT = 600
   PREC = Accurate
   LASPH = .TRUE.
   LREAL = .FALSE.
   ISPIN = 1
   NELM = 200
   NELMIN = 8
   NCORE = 8
   KPAR = 1
   LWAVE = .FALSE.
   LCHARG = .FALSE.

 POTCAR:    PAW_PBE N 08Apr2002
 POTCAR:    PAW_PBE O 08Apr2002
 POTCAR:    PAW_PBE Mg_pv 13Apr2007
 POTCAR:    PAW_PBE O 08Apr2002
|               ----> ADVICE to this user running VASP <----                  |
|     You have switched on vdW-DFT.                                           |
|     This routine was written and supplied by Jiri Klimes. We recommend      |
|     that you carefully read and cite the following publications:            |
|       J. Klimes, D.R. Bowler, A. Michelides                                 |
|          J. Phys.: Cond Matt. 22 022201 (2010)                              |
|       J. Klimes, D.R. Bowler, A. Michelides                                 |
|          Phys. Rev. B. 83, 195131 (2011)                                    |
|     and references therein.                                                 |

   TITEL  = PAW_PBE N 08Apr2002
   POMASS =   14.001; ZVAL   =    5.000    mass and valenz
   ENMAX  =  400.000; ENMIN  =  300.000 eV

[...]

   TITEL  = PAW_PBE Mg_pv 13Apr2007
   POMASS =   24.305; ZVAL   =    8.000    mass and valenz
   ENMAX  =  403.929; ENMIN  =  302.947 eV

   TITEL  = PAW_PBE O 08Apr2002
   POMASS =   16.000; ZVAL   =    6.000    mass and valenz
   ENMAX  =  400.000; ENMIN  =  300.000 eV

  PAW_PBE N 08Apr2002                   :
  PAW_PBE O 08Apr2002                   :
  PAW_PBE Mg_pv 13Apr2007               :
  PAW_PBE O 08Apr2002                   :

 POSCAR:  N  O Mg  O
  positions in direct lattice
 exchange correlation table for  LEXCH =       40
   RHO(1)=    0.500       N(1)  =     2000
   RHO(2)=  100.500       N(2)  =     4000

 ion  position               nearest neighbor table
   1  0.546  0.546  0.757-   3 1.18
   2  0.707  0.707  0.756-   4 1.18
   3  0.520  0.520  0.810-   1 1.18
   4  0.734  0.734  0.809-   2 1.18
   5  0.000  0.750  0.350-  37 2.14  39 2.14  40 2.14  47 2.14  56 2.14
   6  0.250  0.000  0.350-  38 2.14  39 2.14  40 2.14  48 2.14  55 2.14
   7  0.000  0.000  0.450-  39 2.14  38 2.14  37 2.14  45 2.14  54 2.14  43 2.14
   8  0.250  0.750  0.450-  40 2.14  38 2.14  37 2.14  46 2.14  53 2.14  44 2.14
   9  1.000  0.750  0.550-  60 2.14  51 2.14  43 2.14  44 2.14  37 2.15  41 2.15
  10  0.250  0.000  0.550-  59 2.14  43 2.14  44 2.14  52 2.14  38 2.14  42 2.16
  11  0.001  0.001  0.649-  43 2.13  42 2.13  49 2.13  58 2.14  41 2.14
  12  0.249  0.751  0.649-  41 2.11  44 2.12  57 2.13  42 2.14  50 2.14
  13  0.000  0.250  0.350-  45 2.14  39 2.14  47 2.14  48 2.14  64 2.14
  14  0.250  0.500  0.350-  46 2.14  40 2.14  47 2.14  48 2.14  63 2.14
  15  0.000  0.500  0.450-  47 2.14  45 2.14  46 2.14  37 2.14  62 2.14  51 2.14
  16  0.250  0.250  0.450-  48 2.14  45 2.14  46 2.14  38 2.14  61 2.14  52 2.14
  17  0.000  0.250  0.550-  51 2.14  43 2.14  68 2.14  52 2.14  45 2.14  49 2.16
  18  0.251  0.500  0.550-  67 2.14  44 2.14  52 2.14  51 2.14  46 2.15  50 2.15
  19  0.002  0.500  0.649-  50 2.11  51 2.12  66 2.13  49 2.14  41 2.14
  20  0.250  0.250  0.649-  52 2.13  42 2.13  49 2.13  50 2.14  65 2.14
  21  0.500  0.750  0.350-  53 2.14  40 2.14  55 2.14  56 2.14  63 2.14
  22  0.750  0.000  0.350-  54 2.14  39 2.14  55 2.14  56 2.14  64 2.14
  23  0.500  0.000  0.450-  55 2.14  53 2.14  54 2.14  38 2.14  61 2.14  59 2.14
  24  0.750  0.750  0.450-  56 2.14  53 2.14  54 2.14  37 2.14  62 2.14  60 2.15
  25  0.501  0.750  0.550-  67 2.13  60 2.13  44 2.14  59 2.14  53 2.15  57 2.17
  26  0.750  1.000  0.550-  60 2.14  59 2.14  43 2.14  68 2.14  54 2.15  58 2.15
  27  0.500  0.002  0.649-  65 2.11  59 2.12  57 2.13  42 2.14  58 2.14
  28  0.753  0.753  0.652-  58 2.13  41 2.13  60 2.17  57 2.17  66 2.17
  29  0.500  0.250  0.350-  61 2.14  55 2.14  48 2.14  63 2.14  64 2.14
  30  0.750  0.500  0.350-  62 2.14  56 2.14  47 2.14  63 2.14  64 2.14
  31  0.500  0.500  0.450-  63 2.14  53 2.14  61 2.14  62 2.14  46 2.14  67 2.15
  32  0.750  0.250  0.450-  64 2.14  54 2.14  61 2.14  62 2.14  45 2.14  68 2.14
  33  0.500  0.251  0.550-  67 2.14  68 2.14  52 2.14  59 2.14  61 2.15  65 2.15
  34  0.750  0.501  0.550-  67 2.13  60 2.13  68 2.14  51 2.14  62 2.15  66 2.17
  35  0.498  0.498  0.652-  65 2.13  50 2.13  67 2.17  66 2.17  57 2.17
  36  0.751  0.249  0.649-  58 2.11  68 2.12  66 2.13  49 2.14  65 2.14
  37  0.000  0.750  0.450-   5 2.14   7 2.14   8 2.14  15 2.14  24 2.14   9 2.15
  38  0.250  0.000  0.450-   6 2.14   7 2.14   8 2.14  16 2.14  23 2.14  10 2.14
  39  0.000  0.000  0.350-   7 2.14   6 2.14   5 2.14  13 2.14  22 2.14
  40  0.250  0.750  0.350-   8 2.14   6 2.14   5 2.14  14 2.14  21 2.14
  41  0.001  0.750  0.651-  12 2.11  28 2.13  11 2.14  19 2.14   9 2.15
  42  0.250  0.000  0.651-  11 2.13  20 2.13  27 2.14  12 2.14  10 2.16
  43  0.000  0.000  0.550-  11 2.13  10 2.14  17 2.14   7 2.14   9 2.14  26 2.14
  44  0.250  0.750  0.550-  12 2.12  18 2.14  10 2.14  25 2.14   8 2.14   9 2.14
  45  0.000  0.250  0.450-  13 2.14   7 2.14  15 2.14  16 2.14  32 2.14  17 2.14
  46  0.250  0.500  0.450-  14 2.14   8 2.14  15 2.14  16 2.14  31 2.14  18 2.15
  47  0.000  0.500  0.350-  15 2.14  13 2.14  14 2.14   5 2.14  30 2.14
  48  0.250  0.250  0.350-  16 2.14  13 2.14  14 2.14   6 2.14  29 2.14
  49  0.000  0.250  0.651-  11 2.13  20 2.13  19 2.14  36 2.14  17 2.16
  50  0.249  0.500  0.651-  19 2.11  35 2.13  20 2.14  12 2.14  18 2.15
  51  1.000  0.500  0.550-  19 2.12  17 2.14   9 2.14  34 2.14  15 2.14  18 2.14
  52  0.250  0.250  0.550-  20 2.13  33 2.14  18 2.14  10 2.14  17 2.14  16 2.14
  53  0.500  0.750  0.450-  21 2.14   8 2.14  23 2.14  24 2.14  31 2.14  25 2.15
  54  0.750  0.000  0.450-  22 2.14   7 2.14  23 2.14  24 2.14  32 2.14  26 2.15
  55  0.500  0.000  0.350-  23 2.14  21 2.14  22 2.14   6 2.14  29 2.14
  56  0.750  0.750  0.350-  24 2.14  21 2.14  22 2.14   5 2.14  30 2.14
  57  0.498  0.752  0.652-  27 2.13  12 2.13  25 2.17  35 2.17  28 2.17
  58  0.750  0.001  0.651-  36 2.11  28 2.13  11 2.14  27 2.14  26 2.15
  59  0.500  1.000  0.550-  27 2.12  10 2.14  26 2.14  25 2.14  23 2.14  33 2.14
  60  0.750  0.750  0.551-  34 2.13  25 2.13  26 2.14   9 2.14  24 2.15  28 2.17
  61  0.500  0.250  0.450-  29 2.14  23 2.14  16 2.14  31 2.14  32 2.14  33 2.15
  62  0.750  0.500  0.450-  30 2.14  24 2.14  15 2.14  31 2.14  32 2.14  34 2.15
  63  0.500  0.500  0.350-  31 2.14  21 2.14  29 2.14  30 2.14  14 2.14
  64  0.750  0.250  0.350-  32 2.14  22 2.14  29 2.14  30 2.14  13 2.14
  65  0.500  0.249  0.651-  27 2.11  35 2.13  20 2.14  36 2.14  33 2.15
  66  0.752  0.498  0.652-  19 2.13  36 2.13  34 2.17  35 2.17  28 2.17
  67  0.500  0.500  0.551-  34 2.13  25 2.13  33 2.14  18 2.14  31 2.15  35 2.17
  68  0.750  0.250  0.550-  36 2.12  33 2.14  17 2.14  34 2.14  32 2.14  26 2.14

IMPORTANT INFORMATION: All symmetrisations will be switched off!
NOSYMM: (Re-)initialisation of all symmetry stuff for point group C_1.

                                     Primitive cell

  volume of cell :    1563.6717

  direct lattice vectors                    reciprocal lattice vectors
     8.546113626  0.000000000  0.000000000     0.117012252  0.000000000  0.000000000
     0.000000000  8.546113626  0.000000000     0.000000000  0.117012252  0.000000000
     0.000000000  0.000000000 21.409585219     0.000000000  0.000000000  0.046708051

  length of vectors
     8.546113626  8.546113626 21.409585219     0.117012252  0.117012252  0.046708051

  position of ions in fractional coordinates (direct lattice)
     0.546243915  0.546243915  0.756787421
     0.706614210  0.706614222  0.756306563
     0.519932206  0.519932223  0.810024028
     0.734028198  0.734028240  0.809367406
     0.000000000  0.750000000  0.350310383
     0.250000000  0.000000000  0.350310383
     0.000000000  0.000000000  0.450103461
     0.250000000  0.750000000  0.450103461
     0.999674252  0.750051947  0.550437484
     0.250084252  0.000063431  0.550220237
     0.000610343  0.000610344  0.649381764
     0.248533863  0.750610463  0.649234544
     0.000000000  0.250000000  0.350310383
     0.250000000  0.500000000  0.350310383
     0.000000000  0.500000000  0.450103461
     0.250000000  0.250000000  0.450103461
     0.000063429  0.250084255  0.550220236
     0.250544462  0.500073023  0.550469990
     0.001705900  0.499619075  0.649233676
     0.249650879  0.249650881  0.649419949
     0.500000000  0.750000000  0.350310383
     0.750000000  0.000000000  0.350310383
     0.500000000  0.000000000  0.450103461
     0.750000000  0.750000000  0.450103461
     0.500604685  0.749503550  0.550330800
     0.750051946  0.999674252  0.550437483
     0.499619072  0.001705907  0.649233675
     0.752516077  0.752516079  0.651819518
     0.500000000  0.250000000  0.350310383
     0.750000000  0.500000000  0.350310383
     0.500000000  0.500000000  0.450103461
     0.750000000  0.250000000  0.450103461
     0.500073021  0.250544464  0.550469990
     0.749503547  0.500604688  0.550330800
     0.497887102  0.497887100  0.652030816
     0.750610463  0.248533868  0.649234543
     0.000000000  0.750000000  0.450103461
     0.250000000  0.000000000  0.450103461
     0.000000000  0.000000000  0.350310383
     0.250000000  0.750000000  0.350310383
     0.001397713  0.750355047  0.650879985
     0.249826297  0.000411573  0.651167066
     0.000074825  0.000074824  0.549905667
     0.250479047  0.750048529  0.550004386
     0.000000000  0.250000000  0.450103461
     0.250000000  0.500000000  0.450103461
     0.000000000  0.500000000  0.350310383
     0.250000000  0.250000000  0.350310383
     0.000411568  0.249826300  0.651167065
     0.248925468  0.499890982  0.650964099
     0.999692605  0.500065754  0.550007403
     0.250083176  0.250083176  0.549928201
     0.500000000  0.750000000  0.450103461
     0.750000000  0.000000000  0.450103461
     0.500000000  0.000000000  0.350310383
     0.750000000  0.750000000  0.350310383
     0.498103301  0.752177901  0.651593367
     0.750355046  0.001397714  0.650879984
     0.500065751  0.999692607  0.550007403
     0.749781762  0.749781764  0.550618747
     0.500000000  0.250000000  0.450103461
     0.750000000  0.500000000  0.450103461
     0.500000000  0.500000000  0.350310383
     0.750000000  0.250000000  0.350310383
     0.499890982  0.248925470  0.650964098
     0.752177900  0.498103302  0.651593364
     0.500368842  0.500368844  0.550648800
     0.750048529  0.250479050  0.550004385

  ion indices of the primitive-cell ions
   primitive index   ion index
                 1           1
                 2           2
                 3           3
                 4           4
                 5           5
                 6           6
[...]
  1Z     9.387038    9.379396  -80.206874   -1.969824   -1.969025   -1.578263  -11.203949  -11.210678   74.341496    3.508869    3.509503    6.138001
  2X     0.705147   -1.025516   -1.975084   -9.534258   -5.021629   -9.859005    1.602334    2.400911   -1.092257    6.088518    4.082973   13.735810
  2Y    -1.031311    0.700498   -1.971543   -5.016173   -9.531576   -9.861989    2.397177    1.599284   -1.087038    4.086936    6.088527   13.730443
  2Z     1.950363    1.952814   -1.570126   -9.869387   -9.881474  -80.009992   -3.493335   -3.490759    6.221497   11.734223   11.723450   73.910246
  3X     5.877000    3.887581  -11.179618    1.599140    2.396738   -3.493889   -6.172318   -5.246112   14.711700   -0.915745   -1.366899    0.094976
  3Y     3.884708    5.878947  -11.179174    2.397854    1.599874   -3.493523   -5.245058   -6.171623   14.712772   -1.367902   -0.916725    0.097521
  3Z   -13.232942  -13.233307   74.341428   -1.087004   -1.087195    6.214373   14.731878   14.741438  -76.039532   -0.121900   -0.121654   -5.048579
  4X     1.632757    2.429633    3.517212    6.093488    4.084990   11.709831   -0.914774   -1.366830   -0.127305   -6.407614   -5.486366  -15.236078
  4Y     2.427550    1.630200    3.506118    4.089729    6.094692   11.707462   -1.371572   -0.919986   -0.121389   -5.476916   -6.414659  -15.240200
  4Z     1.102668    1.103167    6.134885   13.761277   13.765426   73.911950    0.091705    0.092254   -5.052487  -15.256287  -15.240656  -75.507584

 Eigenvectors and eigenvalues of the dynamical matrix

   1 f  =   52.911796 THz   332.454621 2PiTHz 1764.947545 cm-1   218.825508 meV
             X         Y         Z           dx          dy          dz
      4.668263  4.668263 16.202505    -0.078200   -0.078211    0.502513
      6.038805  6.038805 16.192210     0.082211    0.082231    0.501706
      4.443400  4.443400 17.342278     0.087768    0.087792   -0.468621
      6.273088  6.273089 17.328220    -0.091651   -0.091597   -0.467133
      0.000000  6.409585  7.500000            0           0           0
      2.136528  0.000000  7.500000            0           0           0
      0.000000  0.000000  9.636528            0           0           0
      2.136528  6.409585  9.636528            0           0           0
      8.543330  6.410029 11.784638            0           0           0
      2.137248  0.000542 11.779987            0           0           0
      0.005216  0.005216 13.902994            0           0           0
      2.123999  6.414802 13.899842            0           0           0
      0.000000  2.136528  7.500000            0           0           0
      2.136528  4.273057  7.500000            0           0           0
      0.000000  4.273057  9.636528            0           0           0
      2.136528  2.136528  9.636528            0           0           0
      0.000542  2.137248 11.779987            0           0           0
      2.141181  4.273681 11.785334            0           0           0
      0.014579  4.269801 13.899824            0           0           0
      2.133545  2.133545 13.903812            0           0           0
      4.273057  6.409585  7.500000            0           0           0
      6.409585  0.000000  7.500000            0           0           0
      4.273057  0.000000  9.636528            0           0           0
      6.409585  6.409585  9.636528            0           0           0
      4.278225  6.405342 11.782354            0           0           0
      6.410029  8.543330 11.784638            0           0           0
      4.269801  0.014579 13.899824            0           0           0
      6.431088  6.431088 13.955186            0           0           0
      4.273057  2.136528  7.500000            0           0           0
      6.409585  4.273057  7.500000            0           0           0
      4.273057  4.273057  9.636528            0           0           0
      6.409585  2.136528  9.636528            0           0           0
      4.273681  2.141181 11.785334            0           0           0
      6.405342  4.278225 11.782354            0           0           0
      4.255000  4.255000 13.959709            0           0           0
      6.414802  2.123999 13.899842            0           0           0
      0.000000  6.409585  9.636528            0           0           0
      2.136528  0.000000  9.636528            0           0           0
      0.000000  0.000000  7.500000            0           0           0
      2.136528  6.409585  7.500000            0           0           0
      0.011945  6.412619 13.935071            0           0           0
      2.135044  0.003517 13.941217            0           0           0
      0.000639  0.000639 11.773252            0           0           0
      2.140622  6.410000 11.775366            0           0           0
      0.000000  2.136528  9.636528            0           0           0
      2.136528  4.273057  9.636528            0           0           0
      0.000000  4.273057  7.500000            0           0           0
      2.136528  2.136528  7.500000            0           0           0
      0.003517  2.135044 13.941217            0           0           0
      2.127345  4.272125 13.936871            0           0           0
      8.543487  4.273619 11.775430            0           0           0
      2.137239  2.137239 11.773735            0           0           0
      4.273057  6.409585  9.636528            0           0           0
      6.409585  0.000000  9.636528            0           0           0
      4.273057  0.000000  7.500000            0           0           0
      6.409585  6.409585  7.500000            0           0           0
      4.256847  6.428198 13.950344            0           0           0
      6.412619  0.011945 13.935070            0           0           0
      4.273619  8.543487 11.775430            0           0           0
      6.407720  6.407720 11.788519            0           0           0
      4.273057  2.136528  9.636528            0           0           0
      6.409585  4.273057  9.636528            0           0           0
      4.273057  4.273057  7.500000            0           0           0
      6.409585  2.136528  7.500000            0           0           0
      4.272125  2.127345 13.936871            0           0           0
      6.428198  4.256847 13.950344            0           0           0
      4.276209  4.276209 11.789162            0           0           0
      6.410000  2.140622 11.775366            0           0           0

[...]

  11 f  =    1.288355 THz     8.094971 2PiTHz   42.974883 cm-1     5.328204 meV
             X         Y         Z           dx          dy          dz
      4.668263  4.668263 16.202505    -0.193575    0.205502    0.002906
      6.038805  6.038805 16.192210     0.197805   -0.185877   -0.000181
      4.443400  4.443400 17.342278    -0.462563    0.479084    0.003870
      6.273088  6.273089 17.328220     0.457074   -0.440674   -0.001001
      0.000000  6.409585  7.500000            0           0           0
      2.136528  0.000000  7.500000            0           0           0
      0.000000  0.000000  9.636528            0           0           0
      2.136528  6.409585  9.636528            0           0           0
      8.543330  6.410029 11.784638            0           0           0
      2.137248  0.000542 11.779987            0           0           0
      0.005216  0.005216 13.902994            0           0           0
      2.123999  6.414802 13.899842            0           0           0
      0.000000  2.136528  7.500000            0           0           0
      2.136528  4.273057  7.500000            0           0           0
      0.000000  4.273057  9.636528            0           0           0
      2.136528  2.136528  9.636528            0           0           0
      0.000542  2.137248 11.779987            0           0           0
      2.141181  4.273681 11.785334            0           0           0
      0.014579  4.269801 13.899824            0           0           0
      2.133545  2.133545 13.903812            0           0           0
      4.273057  6.409585  7.500000            0           0           0
      6.409585  0.000000  7.500000            0           0           0
      4.273057  0.000000  9.636528            0           0           0
      6.409585  6.409585  9.636528            0           0           0
      4.278225  6.405342 11.782354            0           0           0
      6.410029  8.543330 11.784638            0           0           0
      4.269801  0.014579 13.899824            0           0           0
      6.431088  6.431088 13.955186            0           0           0
      4.273057  2.136528  7.500000            0           0           0
      6.409585  4.273057  7.500000            0           0           0
      4.273057  4.273057  9.636528            0           0           0
      6.409585  2.136528  9.636528            0           0           0
      4.273681  2.141181 11.785334            0           0           0
      6.405342  4.278225 11.782354            0           0           0
      4.255000  4.255000 13.959709            0           0           0
      6.414802  2.123999 13.899842            0           0           0
      0.000000  6.409585  9.636528            0           0           0
      2.136528  0.000000  9.636528            0           0           0
      0.000000  0.000000  7.500000            0           0           0
      2.136528  6.409585  7.500000            0           0           0
      0.011945  6.412619 13.935071            0           0           0
      2.135044  0.003517 13.941217            0           0           0
      0.000639  0.000639 11.773252            0           0           0
      2.140622  6.410000 11.775366            0           0           0
      0.000000  2.136528  9.636528            0           0           0
      2.136528  4.273057  9.636528            0           0           0
      0.000000  4.273057  7.500000            0           0           0
      2.136528  2.136528  7.500000            0           0           0
      0.003517  2.135044 13.941217            0           0           0
      2.127345  4.272125 13.936871            0           0           0
      8.543487  4.273619 11.775430            0           0           0
      2.137239  2.137239 11.773735            0           0           0
      4.273057  6.409585  9.636528            0           0           0
      6.409585  0.000000  9.636528            0           0           0
      4.273057  0.000000  7.500000            0           0           0
      6.409585  6.409585  7.500000            0           0           0
      4.256847  6.428198 13.950344            0           0           0
      6.412619  0.011945 13.935070            0           0           0
      4.273619  8.543487 11.775430            0           0           0
      6.407720  6.407720 11.788519            0           0           0
      4.273057  2.136528  9.636528            0           0           0
      6.409585  4.273057  9.636528            0           0           0
      4.273057  4.273057  7.500000            0           0           0
      6.409585  2.136528  7.500000            0           0           0
      4.272125  2.127345 13.936871            0           0           0
      6.428198  4.256847 13.950344            0           0           0
      4.276209  4.276209 11.789162            0           0           0
      6.410000  2.140622 11.775366            0           0           0

  12 f/i=    0.752592 THz     4.728673 2PiTHz   25.103754 cm-1     3.112467 meV
             X         Y         Z           dx          dy          dz
      4.668263  4.668263 16.202505     0.183538   -0.178888    0.000877
      6.038805  6.038805 16.192210     0.192508   -0.188308   -0.001053
      4.443400  4.443400 17.342278     0.456715   -0.450188    0.001209
      6.273088  6.273089 17.328220     0.478274   -0.470939   -0.001733
      0.000000  6.409585  7.500000            0           0           0
      2.136528  0.000000  7.500000            0           0           0
      0.000000  0.000000  9.636528            0           0           0
      2.136528  6.409585  9.636528            0           0           0
      8.543330  6.410029 11.784638            0           0           0
      2.137248  0.000542 11.779987            0           0           0
      0.005216  0.005216 13.902994            0           0           0
      2.123999  6.414802 13.899842            0           0           0
      0.000000  2.136528  7.500000            0           0           0
      2.136528  4.273057  7.500000            0           0           0
      0.000000  4.273057  9.636528            0           0           0
      2.136528  2.136528  9.636528            0           0           0
      0.000542  2.137248 11.779987            0           0           0
      2.141181  4.273681 11.785334            0           0           0
      0.014579  4.269801 13.899824            0           0           0
      2.133545  2.133545 13.903812            0           0           0
      4.273057  6.409585  7.500000            0           0           0
      6.409585  0.000000  7.500000            0           0           0
      4.273057  0.000000  9.636528            0           0           0
      6.409585  6.409585  9.636528            0           0           0
      4.278225  6.405342 11.782354            0           0           0
      6.410029  8.543330 11.784638            0           0           0
      4.269801  0.014579 13.899824            0           0           0
      6.431088  6.431088 13.955186            0           0           0
      4.273057  2.136528  7.500000            0           0           0
      6.409585  4.273057  7.500000            0           0           0
      4.273057  4.273057  9.636528            0           0           0
      6.409585  2.136528  9.636528            0           0           0
      4.273681  2.141181 11.785334            0           0           0
      6.405342  4.278225 11.782354            0           0           0
      4.255000  4.255000 13.959709            0           0           0
      6.414802  2.123999 13.899842            0           0           0
      0.000000  6.409585  9.636528            0           0           0
      2.136528  0.000000  9.636528            0           0           0
      0.000000  0.000000  7.500000            0           0           0
      2.136528  6.409585  7.500000            0           0           0
      0.011945  6.412619 13.935071            0           0           0
      2.135044  0.003517 13.941217            0           0           0
      0.000639  0.000639 11.773252            0           0           0
      2.140622  6.410000 11.775366            0           0           0
      0.000000  2.136528  9.636528            0           0           0
      2.136528  4.273057  9.636528            0           0           0
      0.000000  4.273057  7.500000            0           0           0
      2.136528  2.136528  7.500000            0           0           0
      0.003517  2.135044 13.941217            0           0           0
      2.127345  4.272125 13.936871            0           0           0
      8.543487  4.273619 11.775430            0           0           0
      2.137239  2.137239 11.773735            0           0           0
      4.273057  6.409585  9.636528            0           0           0
      6.409585  0.000000  9.636528            0           0           0
      4.273057  0.000000  7.500000            0           0           0
      6.409585  6.409585  7.500000            0           0           0
      4.256847  6.428198 13.950344            0           0           0
      6.412619  0.011945 13.935070            0           0           0
      4.273619  8.543487 11.775430            0           0           0
      6.407720  6.407720 11.788519            0           0           0
      4.273057  2.136528  9.636528            0           0           0
      6.409585  4.273057  9.636528            0           0           0
      4.273057  4.273057  7.500000            0           0           0
      6.409585  2.136528  7.500000            0           0           0
      4.272125  2.127345 13.936871            0           0           0
      6.428198  4.256847 13.950344            0           0           0
      4.276209  4.276209 11.789162            0           0           0
      6.410000  2.140622 11.775366            0           0           0

 Finite differences POTIM=   1.0000000000000000E-002