 vasp.6.4.2 20Jul23 (build Feb 22 2024 13:53:45) complex
 executed on              LinuxNV date 2024.08.27  17:45:59
 OpenACC runtime initialized ...    4 GPUs detected

 INCAR:
   SYSTEM = Oxide-Surface
   ISMEAR = 0
   SIGMA = 0.05
   EDIFF = 1E-5
   ALGO = Normal
   IBRION = -1
   NSW = 0
   ISYM = 0
   DIPOL = 0.5 0.5 0.5
   IDIPOL = 3
   LDIPOL = .TRUE.
   ISTART = 1
   GGA = PE
   IVDW = 263
   ENCUT = 1000
   PREC = Normal
   PRECFOCK = Normal
   LASPH = .TRUE.
   LREAL = Auto
   ISPIN = 1
   NELM = 200
   NELMIN = 8
   NCORE = 1
   KPAR = 1
   LWAVE = .FALSE.
   LCHARG = .FALSE.

 POTCAR:    PAW_PBE C_h 06Feb2004
 POTCAR:    PAW_PBE O_h 06Feb2004
 POTCAR:    PAW_PBE Mg_sv 12Apr2007
 POTCAR:    PAW_PBE O_h 06Feb2004
 POTCAR:    PAW_PBE C_h 06Feb2004
   VRHFIN =C: s2p2

   TITEL  = PAW_PBE C_h 06Feb2004
   POMASS =   12.011; ZVAL   =    4.000    mass and valenz
   ENMAX  =  700.000; ENMIN  =  500.000 eV

[...]

   TITEL  = PAW_PBE Mg_sv 12Apr2007
   POMASS =   24.305; ZVAL   =   10.000    mass and valenz
   ENMAX  =  495.223; ENMIN  =  371.417 eV

   TITEL  = PAW_PBE O_h 06Feb2004
   POMASS =   16.000; ZVAL   =    6.000    mass and valenz
   ENMAX  =  700.000; ENMIN  =  500.000 eV

 Optimization of the real space projectors (new method)

 maximal supplied QI-value         = 34.20
 optimisation between [QCUT,QGAM] = [ 16.08, 32.15] = [ 72.37,289.48] Ry
 Optimized for a Real-space Cutoff    0.71 Angstroem

   l    n(q)    QCUT    max X(q) W(low)/X(q) W(high)/X(q)  e(spline)
   0      7    16.076   134.812    0.49E-03    0.92E-03    0.59E-07
   0      7    16.076    80.524    0.48E-03    0.91E-03    0.58E-07
   1      6    16.076    79.026    0.37E-03    0.58E-03    0.12E-06
   1      6    16.076    45.188    0.36E-03    0.56E-03    0.12E-06
 Optimization of the real space projectors (new method)

[...]

   l    n(q)    QCUT    max X(q) W(low)/X(q) W(high)/X(q)  e(spline)
   0      9    16.140     8.730    0.14E-04    0.12E-04    0.27E-07
   0      9    16.140     8.910    0.19E-04    0.17E-04    0.41E-07
   1      9    16.140     2.513    0.16E-04    0.28E-04    0.54E-07
   1      9    16.140     3.341    0.27E-04    0.13E-03    0.17E-06
   2      9    16.140     3.683    0.18E-03    0.21E-03    0.81E-07
 Optimization of the real space projectors (new method)

 maximal supplied QI-value         = 34.20
 optimisation between [QCUT,QGAM] = [ 16.08, 32.15] = [ 72.37,289.48] Ry
 Optimized for a Real-space Cutoff    0.71 Angstroem

   l    n(q)    QCUT    max X(q) W(low)/X(q) W(high)/X(q)  e(spline)
   0      7    16.076   280.207    0.42E-03    0.69E-03    0.60E-07
   0      7    16.076   228.978    0.42E-03    0.69E-03    0.61E-07
   1      6    16.076    86.127    0.11E-03    0.66E-03    0.10E-06
   1      6    16.076    65.368    0.11E-03    0.65E-03    0.10E-06
  PAW_PBE C_h 06Feb2004                 :
  PAW_PBE O_h 06Feb2004                 :
  PAW_PBE Mg_sv 12Apr2007               :
  PAW_PBE O_h 06Feb2004                 :

 POSCAR:  C  O Mg  O
  positions in direct lattice
 exchange correlation table for  LEXCH =        8
   RHO(1)=    0.500       N(1)  =     2000
   RHO(2)=  100.500       N(2)  =     4000

 ion  position               nearest neighbor table
   1  0.500  0.750  0.719-   3 1.26   2 1.26  56 1.47
   2  0.500  0.887  0.748-   1 1.26
   3  0.500  0.613  0.748-   1 1.26
   4  0.000  0.750  0.252-
   5  0.250  0.000  0.252-
   6  0.000  0.000  0.376-
   7  0.250  0.750  0.376-
   8  1.000  0.750  0.499-
   9  0.252  0.001  0.502-
  10  0.000  0.003  0.624-
  11  0.237  0.750  0.623-  40 2.00
  12  0.000  0.250  0.252-
  13  0.250  0.500  0.252-
  14  0.000  0.500  0.376-
  15  0.250  0.250  0.376-
  16  0.000  0.250  0.500-
  17  0.252  0.500  0.502-
  18  0.000  0.498  0.624-
  19  0.248  0.250  0.625-
  20  0.500  0.750  0.252-
  21  0.750  0.000  0.252-
  22  0.500  0.000  0.376-
  23  0.750  0.750  0.376-
  24  0.500  0.750  0.498-
  25  0.748  0.001  0.502-
  26  0.500  0.011  0.636-  64 2.02
  27  0.763  0.750  0.623-  40 2.00
  28  0.500  0.250  0.252-
  29  0.750  0.500  0.252-
  30  0.500  0.500  0.376-
  31  0.750  0.250  0.376-
  32  0.500  0.250  0.502-
  33  0.748  0.500  0.502-
  34  0.500  0.489  0.636-  64 2.02
  35  0.752  0.250  0.625-
  36  0.000  0.750  0.376-
  37  0.250  0.000  0.376-
  38  0.000  0.000  0.252-
  39  0.250  0.750  0.252-
  40  0.000  0.750  0.626-  11 2.00  27 2.00
  41  0.248  0.999  0.626-
  42  0.000  1.000  0.500-
  43  0.252  0.750  0.501-
  44  0.000  0.250  0.376-
  45  0.250  0.500  0.376-
  46  0.000  0.500  0.252-
  47  0.250  0.250  0.252-
  48  0.000  0.250  0.626-
  49  0.248  0.502  0.626-
  50  0.000  0.501  0.500-
  51  0.251  0.250  0.501-
  52  0.500  0.750  0.376-
  53  0.750  0.000  0.376-
  54  0.500  0.000  0.252-
  55  0.750  0.750  0.252-
  56  0.500  0.750  0.633-   1 1.47
  57  0.752  0.999  0.626-
  58  0.500  0.998  0.502-
  59  0.748  0.750  0.501-
  60  0.500  0.250  0.376-
  61  0.750  0.500  0.376-
  62  0.500  0.500  0.252-
  63  0.750  0.250  0.252-
  64  0.500  0.250  0.628-  26 2.02  34 2.02
  65  0.752  0.502  0.626-
  66  0.500  0.503  0.502-
  67  0.749  0.250  0.501-

IMPORTANT INFORMATION: All symmetrisations will be switched off!
NOSYMM: (Re-)initialisation of all symmetry stuff for point group C_1.

                                     Primitive cell

  volume of cell :    1211.2538

  direct lattice vectors                    reciprocal lattice vectors
     8.440984654  0.000000000  0.000000000     0.118469591  0.000000000  0.000000000
     0.000000000  8.440984654  0.000000000     0.000000000  0.118469591  0.000000000
     0.000000000  0.000000000 17.000000000     0.000000000  0.000000000  0.058823529

  length of vectors
     8.440984654  8.440984654 17.000000000     0.118469591  0.118469591  0.058823529

  position of ions in fractional coordinates (direct lattice)
     0.500000012  0.750264058  0.719050453
     0.500000066  0.887195294  0.748143164
     0.500000015  0.613356952  0.748141716
     0.000000012  0.750271483  0.251856836
     0.250000012  0.000271483  0.251856836
     0.000000012  0.000271483  0.375988963
     0.250000012  0.750271483  0.375988963
     0.999999988  0.750271429  0.499368462
     0.252039891  0.001028111  0.501782346
     0.000000034  0.002582678  0.624444171
     0.237174200  0.750271417  0.622958809
     0.000000012  0.250271483  0.251856836
     0.250000012  0.500271483  0.251856836
     0.000000012  0.500271483  0.375988963
     0.250000012  0.250271483  0.375988963
     0.000000025  0.250271481  0.500321386
     0.252039913  0.499514860  0.501782439
     0.000000033  0.497960304  0.624444240
     0.247666331  0.250271551  0.624926941
     0.500000012  0.750271483  0.251856836
     0.750000012  0.000271483  0.251856836
     0.500000012  0.000271483  0.375988963
     0.750000012  0.750271483  0.375988963
     0.500000031  0.750271498  0.497974947
     0.747960134  0.001028090  0.501782397
     0.500000002  0.011479476  0.636458488
     0.762825859  0.750271422  0.622958927
     0.500000012  0.250271483  0.251856836
     0.750000012  0.500271483  0.251856836
     0.500000012  0.500271483  0.375988963
     0.750000012  0.250271483  0.375988963
     0.500000005  0.250271518  0.502223723
     0.747960113  0.499514886  0.501782491
     0.500000001  0.489064058  0.636458884
     0.752333702  0.250271549  0.624926893
     0.000000012  0.750271483  0.375988963
     0.250000012  0.000271483  0.375988963
     0.000000012  0.000271483  0.251856836
     0.250000012  0.750271483  0.251856836
     0.000000034  0.750271519  0.625525054
     0.248158668  0.998774097  0.625931889
     0.000000015  0.999728517  0.499971061
     0.252314560  0.750271518  0.501128046
     0.000000012  0.250271483  0.375988963
     0.250000012  0.500271483  0.375988963
     0.000000012  0.500271483  0.251856836
     0.250000012  0.250271483  0.251856836
     0.000000017  0.250271467  0.626441503
     0.248158646  0.501768877  0.625931815
     0.000000014  0.500814411  0.499971054
     0.250533599  0.250271460  0.500674415
     0.500000012  0.750271483  0.375988963
     0.750000012  0.000271483  0.375988963
     0.500000012  0.000271483  0.251856836
     0.750000012  0.750271483  0.251856836
     0.499999972  0.750272301  0.632609027
     0.751841373  0.998774078  0.625931895
     0.500000008  0.997971315  0.502167211
     0.747685467  0.750271518  0.501128092
     0.500000012  0.250271483  0.375988963
     0.750000012  0.500271483  0.375988963
     0.500000012  0.500271483  0.251856836
     0.750000012  0.250271483  0.251856836
     0.500000019  0.250271401  0.628355073
     0.751841390  0.501768901  0.625931830
     0.500000009  0.502571702  0.502167205
     0.749466433  0.250271458  0.500674433

  ion indices of the primitive-cell ions
   primitive index   ion index
                 1           1
                 2           2
                 3           3
                 4           4
                 5           5
                 6           6
                 7           7
                 8           8
                 9           9
                10          10
                11          11
                12          12
                13          13
                14          14
                15          15
                16          16
                17          17
                18          18
                19          19
                20          20
                21          21
                22          22
                23          23
                24          24
                25          25
                26          26
                27          27
                28          28
                29          29
                30          30
                31          31
                32          32
                33          33
                34          34
                35          35
                36          36
                37          37
                38          38
                39          39
                40          40
                41          41
                42          42
                43          43
                44          44
                45          45
                46          46
                47          47
                48          48
                49          49
                50          50
                51          51
                52          52
                53          53
                54          54
                55          55
                56          56
                57          57
                58          58
                59          59
                60          60
                61          61
                62          62
                63          63
                64          64
                65          65
                66          66
                67          67

 KPOINTS: pymatgen v2020.8.13 with grid density =

Automatic generation of k-mesh.
 Grid dimensions read from file:
 generate k-points for:    2    2    1

 Generating k-lattice:

  Cartesian coordinates                     Fractional coordinates (reciprocal lattice)
[...]

  vdW correction parametrized for the method pbe

  IVDW = 263
  VDW_RADIUS =    50.000 A
  VDW_SR =     0.830
  VDW_D =     6.000
  SCSRAD =   120.000 A
  LVDWSCS = T
  LSCSGRAD = T
  LSCALER0 = T
  ITIM =  1
  Edisp (eV):  -17.72060

  FORCE on cell =-STRESS in cart. coord.  units (eV):
  Direction    XX          YY          ZZ          XY          YZ          ZX
  Alpha Z  1248.31882  1248.31882  1248.31882
  Ewald  107229.64142108137.04893************     0.00010    -0.02651    -0.00000
  Hartree124315.34723124851.33859************     0.00005    -0.00069    -0.00003
  E(xc)   -3303.07086 -3301.39084 -3307.63904     0.00000    -0.00006     0.00000
  Local  ************************241008.27335    -0.00014     0.02183     0.00004
  n-local -5645.47596 -5642.49473 -5646.67329     0.00000     0.00697     0.00000
  augment   725.22212   725.08619   716.88189     0.00000     0.00120     0.00000
  Kinetic 12943.43805 12898.48082 12950.34562    -0.00001     0.00074    -0.00000
  Fock        0.00000     0.00000     0.00000     0.00000     0.00000     0.00000
  vdW       -22.91208   -22.89404   -16.24568     0.00023    -0.00002    -0.00000
  Total     -34.04765   -37.12877    -8.80781     0.00023     0.00346    -0.00000
  in kB     -45.03629   -49.11182   -11.65047     0.00030     0.00458    -0.00000

 VOLUME and BASIS-vectors are now :
  energy-cutoff  :     1000.00
  volume of cell :     1211.25
      direct lattice vectors                 reciprocal lattice vectors
     8.440984654  0.000000000  0.000000000     0.118469591  0.000000000  0.000000000
     0.000000000  8.440984654  0.000000000     0.000000000  0.118469591  0.000000000
     0.000000000  0.000000000 17.000000000     0.000000000  0.000000000  0.058823529

  length of vectors
     8.440984654  8.440984654 17.000000000     0.118469591  0.118469591  0.058823529

 FORCES acting on ions
    electron-ion (+dipol)            ewald-force                    non-local-force                 convergence-correction
   0.120E-03 -.542E-01 -.969E+03   -.119E-03 0.585E-01 0.976E+03   -.176E-05 0.229E-02 -.658E+01   -.357E-06 0.119E-06 0.307E-03
   -.530E-04 -.215E+03 -.155E+04   0.723E-04 0.256E+03 0.158E+04   -.201E-04 -.419E+02 -.272E+02   -.528E-06 0.490E-04 0.561E-03
   0.523E-04 0.215E+03 -.155E+04   -.511E-04 -.256E+03 0.158E+04   -.126E-05 0.419E+02 -.272E+02   -.151E-06 -.489E-04 0.562E-03
   0.204E-04 0.212E-03 0.245E+04   -.208E-04 -.334E-04 -.244E+04   0.895E-06 -.306E-02 -.904E+01   -.691E-06 0.873E-06 -.441E-04
   0.581E+00 -.145E+01 0.245E+04   -.571E+00 0.149E+01 -.244E+04   -.842E-02 -.317E-01 -.921E+01   0.169E-04 -.149E-04 -.387E-04
   0.983E-04 -.338E+01 0.863E+03   -.101E-03 0.356E+01 -.863E+03   0.334E-05 -.142E+00 0.237E+00   -.154E-05 -.215E-05 -.144E-02
   0.306E+01 -.840E-04 0.863E+03   -.311E+01 -.164E-03 -.865E+03   0.286E-01 -.121E-02 0.109E+01   0.126E-04 -.840E-06 -.144E-02
   0.472E-04 0.191E-03 -.692E+03   -.562E-04 0.545E-04 0.692E+03   0.791E-05 -.152E-02 0.968E-01   0.895E-06 0.634E-07 -.137E-02
   0.336E+01 -.919E+01 -.717E+03   -.262E+01 0.948E+01 0.719E+03   -.744E+00 -.289E+00 -.164E+01   0.708E-05 -.278E-05 -.132E-02
   -.221E-05 -.228E+02 -.235E+04   0.848E-05 0.238E+02 0.234E+04   -.672E-05 -.974E+00 0.793E+01   0.548E-06 0.282E-05 0.193E-03
   0.521E+02 -.717E-03 -.223E+04   -.593E+02 0.116E-02 0.222E+04   0.717E+01 -.102E-02 0.892E+01   0.190E-04 -.978E-06 0.112E-03
   0.211E-04 0.139E-03 0.245E+04   -.216E-04 0.344E-04 -.244E+04   0.268E-06 -.305E-02 -.918E+01   0.196E-06 -.332E-06 -.233E-04
   0.581E+00 0.145E+01 0.245E+04   -.571E+00 -.149E+01 -.244E+04   -.842E-02 0.280E-01 -.921E+01   0.153E-04 0.151E-04 -.379E-04
   0.994E-04 0.338E+01 0.863E+03   -.104E-03 -.356E+01 -.863E+03   0.400E-05 0.137E+00 0.238E+00   0.156E-06 0.199E-05 -.144E-02
   -.198E+01 -.423E-03 0.859E+03   0.208E+01 0.171E-03 -.859E+03   -.766E-01 -.120E-02 0.618E+00   0.540E-05 0.255E-06 -.143E-02
   0.629E-04 0.172E-03 -.721E+03   -.615E-04 0.424E-04 0.721E+03   -.365E-05 -.255E-02 -.233E+00   0.189E-05 0.366E-07 -.134E-02
   0.336E+01 0.919E+01 -.717E+03   -.262E+01 -.948E+01 0.719E+03   -.745E+00 0.286E+00 -.164E+01   0.628E-05 0.318E-05 -.132E-02
   0.128E-04 0.228E+02 -.235E+04   -.682E-05 -.238E+02 0.234E+04   -.735E-05 0.973E+00 0.793E+01   0.172E-05 -.239E-05 0.193E-03
   0.372E+02 -.800E-03 -.233E+04   -.383E+02 0.405E-04 0.232E+04   0.105E+01 0.138E-02 0.808E+01   -.303E-04 0.727E-06 0.168E-03
   -.203E-04 0.220E-03 0.245E+04   0.211E-04 -.406E-04 -.244E+04   -.382E-06 -.306E-02 -.896E+01   0.141E-06 0.115E-05 -.351E-04
   -.581E+00 -.145E+01 0.245E+04   0.571E+00 0.149E+01 -.244E+04   0.842E-02 -.317E-01 -.921E+01   -.159E-04 -.167E-04 -.390E-04
   -.100E-03 -.841E+01 0.857E+03   0.104E-03 0.874E+01 -.858E+03   -.228E-05 -.246E+00 0.872E+00   -.512E-06 -.107E-04 -.144E-02
   -.306E+01 -.838E-04 0.863E+03   0.311E+01 -.166E-03 -.865E+03   -.286E-01 -.121E-02 0.109E+01   -.102E-04 0.149E-05 -.144E-02
   -.728E-04 0.490E-03 -.706E+03   0.818E-04 -.288E-03 0.700E+03   -.746E-05 -.215E-02 0.618E+01   -.136E-05 0.619E-06 -.134E-02
   -.336E+01 -.919E+01 -.717E+03   0.262E+01 0.948E+01 0.719E+03   0.744E+00 -.289E+00 -.164E+01   -.670E-05 -.362E-05 -.132E-02
   0.586E-05 -.973E+02 -.222E+04   -.118E-04 0.101E+03 0.221E+04   0.717E-05 -.411E+01 0.178E+01   -.993E-06 -.215E-04 0.218E-03
   -.521E+02 -.697E-03 -.223E+04   0.593E+02 0.114E-02 0.222E+04   -.717E+01 -.102E-02 0.892E+01   -.191E-04 -.665E-06 0.112E-03
   -.210E-04 0.132E-03 0.245E+04   0.217E-04 0.407E-04 -.244E+04   0.279E-06 -.305E-02 -.921E+01   -.824E-06 -.214E-05 -.394E-04
   -.581E+00 0.145E+01 0.245E+04   0.571E+00 -.149E+01 -.244E+04   0.842E-02 0.280E-01 -.921E+01   -.152E-04 0.154E-04 -.387E-04
   -.102E-03 0.841E+01 0.857E+03   0.108E-03 -.874E+01 -.858E+03   -.237E-05 0.241E+00 0.872E+00   -.222E-05 0.109E-04 -.144E-02
   0.198E+01 -.427E-03 0.859E+03   -.208E+01 0.177E-03 -.859E+03   0.766E-01 -.120E-02 0.618E+00   -.380E-05 -.136E-06 -.144E-02
   -.679E-04 -.411E-03 -.724E+03   0.655E-04 0.571E-03 0.725E+03   0.484E-05 -.118E-02 -.665E+00   -.207E-05 -.473E-06 -.132E-02
   -.336E+01 0.919E+01 -.717E+03   0.262E+01 -.948E+01 0.719E+03   0.745E+00 0.286E+00 -.164E+01   -.675E-05 0.391E-05 -.132E-02
   -.207E-04 0.973E+02 -.222E+04   0.145E-04 -.101E+03 0.221E+04   0.687E-05 0.411E+01 0.178E+01   -.686E-06 0.216E-04 0.217E-03
   -.372E+02 -.828E-03 -.233E+04   0.383E+02 0.683E-04 0.232E+04   -.105E+01 0.138E-02 0.808E+01   0.295E-04 -.680E-06 0.170E-03
   0.446E-04 0.128E-04 0.521E+03   -.429E-04 -.370E-04 -.522E+03   -.112E-05 0.166E-02 0.327E+00   -.777E-06 0.171E-06 -.101E-02
   0.145E+00 -.218E+01 0.514E+03   -.287E+00 0.230E+01 -.513E+03   0.178E+00 -.165E+00 -.294E+00   0.735E-05 -.449E-05 -.101E-02
   0.117E-04 -.690E+00 0.149E+04   -.130E-04 0.732E+00 -.149E+04   0.597E-06 -.542E-01 0.261E+01   0.610E-06 -.138E-04 -.755E-04
   0.555E+00 0.132E-03 0.148E+04   -.560E+00 -.235E-04 -.149E+04   0.691E-02 0.190E-02 0.270E+01   0.632E-05 0.450E-06 -.784E-04
   -.475E-04 0.565E-04 -.142E+04   0.491E-04 0.176E-03 0.143E+04   -.386E-05 -.374E-02 -.479E+01   0.141E-05 -.133E-05 0.955E-04
   0.342E+02 -.268E+02 -.139E+04   -.334E+02 0.270E+02 0.139E+04   -.863E+00 -.925E-01 -.480E+01   -.242E-04 0.622E-05 0.665E-04
   0.421E-04 -.611E+01 -.424E+03   -.435E-04 0.619E+01 0.424E+03   0.139E-05 -.790E-01 0.826E-01   -.119E-06 0.198E-05 -.913E-03
   0.117E+01 0.216E-03 -.418E+03   -.145E+01 -.388E-04 0.417E+03   0.279E+00 0.149E-02 0.843E+00   0.970E-05 -.494E-06 -.902E-03
   0.542E-04 -.108E-03 0.517E+03   -.557E-04 0.585E-04 -.516E+03   0.741E-06 0.169E-02 -.846E-01   0.624E-06 0.488E-06 -.101E-02
   0.145E+00 0.218E+01 0.514E+03   -.287E+00 -.230E+01 -.513E+03   0.178E+00 0.168E+00 -.294E+00   0.618E-05 0.492E-05 -.101E-02
   0.121E-04 0.690E+00 0.149E+04   -.133E-04 -.732E+00 -.149E+04   0.412E-06 0.563E-01 0.261E+01   0.630E-06 0.132E-04 -.750E-04
   0.155E+00 0.798E-04 0.148E+04   -.143E+00 0.237E-04 -.149E+04   -.151E-01 0.191E-02 0.258E+01   0.126E-04 -.863E-06 -.723E-04
   0.186E-04 -.357E-03 -.144E+04   -.213E-04 -.488E-04 0.144E+04   0.136E-05 -.176E-02 -.465E+01   0.983E-06 0.823E-06 0.113E-03
   0.342E+02 0.268E+02 -.139E+04   -.334E+02 -.270E+02 0.139E+04   -.861E+00 0.910E-01 -.480E+01   -.259E-04 -.595E-05 0.640E-04
   0.446E-04 0.611E+01 -.424E+03   -.466E-04 -.619E+01 0.424E+03   -.548E-06 0.794E-01 0.830E-01   0.206E-05 -.206E-05 -.913E-03
   0.229E+01 -.899E-05 -.426E+03   -.240E+01 0.110E-03 0.426E+03   0.121E+00 0.119E-02 0.342E+00   -.130E-05 0.397E-06 -.913E-03
   -.474E-04 0.551E-04 0.526E+03   0.472E-04 -.822E-04 -.527E+03   0.179E-05 0.167E-02 0.458E+00   -.975E-06 0.117E-05 -.102E-02
   -.145E+00 -.218E+01 0.514E+03   0.287E+00 0.230E+01 -.513E+03   -.178E+00 -.165E+00 -.294E+00   -.618E-05 -.620E-05 -.101E-02
   -.116E-04 -.109E+01 0.148E+04   0.131E-04 0.115E+01 -.149E+04   -.110E-05 -.763E-01 0.265E+01   -.731E-06 -.866E-05 -.799E-04
   -.555E+00 0.132E-03 0.148E+04   0.560E+00 -.237E-04 -.149E+04   -.691E-02 0.190E-02 0.270E+01   -.649E-05 0.592E-06 -.794E-04
   0.931E-05 -.467E-02 -.116E+04   -.903E-05 0.709E-02 0.113E+04   0.193E-05 -.370E-02 0.238E+02   -.919E-06 0.537E-07 0.556E-04
   -.342E+02 -.268E+02 -.139E+04   0.334E+02 0.270E+02 0.139E+04   0.863E+00 -.925E-01 -.480E+01   0.241E-04 0.735E-05 0.646E-04
   -.441E-04 -.700E+01 -.451E+03   0.441E-04 0.739E+01 0.453E+03   0.975E-06 -.387E+00 -.171E+01   -.522E-06 -.679E-05 -.911E-03
   -.117E+01 0.217E-03 -.418E+03   0.145E+01 -.395E-04 0.417E+03   -.279E+00 0.149E-02 0.843E+00   -.921E-05 0.496E-06 -.903E-03
   -.535E-04 -.118E-03 0.510E+03   0.554E-04 0.757E-04 -.510E+03   -.761E-07 0.169E-02 -.199E+00   -.168E-05 -.872E-06 -.101E-02
   -.145E+00 0.218E+01 0.514E+03   0.287E+00 -.230E+01 -.513E+03   -.178E+00 0.168E+00 -.294E+00   -.459E-05 0.519E-05 -.101E-02
   -.124E-04 0.109E+01 0.148E+04   0.134E-04 -.115E+01 -.149E+04   -.841E-06 0.783E-01 0.265E+01   -.531E-06 0.891E-05 -.796E-04
   -.155E+00 0.790E-04 0.148E+04   0.143E+00 0.240E-04 -.149E+04   0.151E-01 0.191E-02 0.258E+01   -.123E-04 -.578E-06 -.730E-04
   -.176E-04 -.209E-02 -.139E+04   0.196E-04 0.172E-02 0.139E+04   -.188E-05 -.346E-02 -.372E+01   -.447E-06 -.318E-06 0.643E-04
   -.342E+02 0.268E+02 -.139E+04   0.334E+02 -.270E+02 0.139E+04   0.861E+00 0.910E-01 -.480E+01   0.255E-04 -.587E-05 0.665E-04
   -.505E-04 0.700E+01 -.451E+03   0.510E-04 -.739E+01 0.453E+03   0.179E-05 0.385E+00 -.171E+01   -.159E-05 0.676E-05 -.911E-03
   -.229E+01 -.254E-04 -.426E+03   0.240E+01 0.128E-03 0.426E+03   -.121E+00 0.119E-02 0.342E+00   0.150E-05 -.113E-05 -.913E-03
   0.339E-04 -.725E-02 0.654E+02   0.000E+00 0.199E-12 0.165E-11   -.361E-04 -.285E-01 -.654E+02   -.142E-05 -.998E-06 -.350E-01

 POSITION                                       TOTAL-FORCE (eV/Angst)
      4.22049      6.33297     12.22386        -0.000005      0.007121      0.216763
      4.22049      7.48880     12.71843         0.000000     -0.477890     -0.279922
      4.22049      5.17734     12.71841         0.000001      0.464203     -0.274899
      0.00000      6.33303      4.28157        -0.000002     -0.002353      0.504689
      2.11025      0.00229      4.28157         0.007334      0.004493      0.536946
      0.00000      0.00229      6.39181        -0.000008      0.045421      0.141019
      2.11025      6.33303      6.39181        -0.023499     -0.000944      0.057332
      8.44098      6.33303      8.48926        -0.000014     -0.000772     -0.031223
      2.12746      0.00868      8.53030         0.005450     -0.005020     -0.053567
      0.00000      0.02180     10.61555         0.000027      0.006249     -0.177803
      2.00198      6.33303     10.59030        -0.051259     -0.000072     -0.149610
      0.00000      2.11254      4.28157        -0.000004     -0.002355      0.530862
      2.11025      4.22278      4.28157         0.007340     -0.006728      0.536967
      0.00000      4.22278      6.39181        -0.000011     -0.048670      0.141024
      2.11025      2.11254      6.39181         0.017308     -0.000909      0.133953
      0.00000      2.11254      8.50546         0.000008     -0.001821     -0.037331
      2.12747      4.21640      8.53030         0.004123      0.003309     -0.052246
      0.00000      4.20328     10.61555         0.000025     -0.006272     -0.179763
      2.09055      2.11254     10.62376        -0.016832      0.001179     -0.153363
      4.22049      6.33303      4.28157        -0.000002     -0.002337      0.491920
      6.33074      0.00229      4.28157        -0.007337      0.004519      0.536955
      4.22049      0.00229      6.39181         0.000009      0.087239      0.143949
      6.33074      6.33303      6.39181         0.023506     -0.000927      0.057329
      4.22049      6.33303      8.46557         0.000003     -0.001406     -0.046111
      6.31352      0.00868      8.53030        -0.005449     -0.005011     -0.053591
      4.22049      0.09690     10.81979        -0.000020      0.012084     -0.101235
      6.43900      6.33303     10.59030         0.051261     -0.000072     -0.149608
      4.22049      2.11254      4.28157         0.000008     -0.002337      0.528416
      6.33074      4.22278      4.28157        -0.007334     -0.006716      0.536976
      4.22049      4.22278      6.39181         0.000006     -0.090484      0.143948
      6.33074      2.11254      6.39181        -0.017310     -0.000894      0.133954
      4.22049      2.11254      8.53780        -0.000007     -0.000452     -0.036603
      6.31352      4.21640      8.53030        -0.004121      0.003296     -0.052270
      4.22049      4.12818     10.81980        -0.000021     -0.008346     -0.103050
      6.35044      2.11254     10.62376         0.016832      0.001179     -0.153354
      0.00000      6.33303      6.39181         0.000001      0.002170      0.050369
      2.11025      0.00229      6.39181         0.034744     -0.037676      0.063855
      0.00000      0.00229      4.28157         0.000000     -0.011338     -0.476783
      2.11025      6.33303      4.28157         0.002605      0.002540     -0.456197
      0.00000      6.33303     10.63393         0.000004     -0.002977     -0.027119
      2.09470      8.43064     10.64084        -0.013576      0.011849     -0.024875
      0.00000      8.43869      8.49951         0.000001     -0.004559      0.006460
      2.12978      6.33303      8.51918        -0.001659      0.002199      0.006893
      0.00000      2.11254      6.39181        -0.000001      0.002178      0.019434
      2.11025      4.22278      6.39181         0.034742      0.042471      0.063866
      0.00000      4.22278      4.28157        -0.000001      0.014128     -0.476786
      2.11025      2.11254      4.28157        -0.003170      0.002542     -0.482696
      0.00000      2.11254     10.64951         0.000004     -0.001632     -0.022007
      2.09470      4.23542     10.64084        -0.011224     -0.012574     -0.024873
      0.00000      4.22737      8.49951         0.000001      0.005793      0.006686
      2.11475      2.11254      8.51147         0.005806      0.001827      0.015798
      4.22049      6.33303      6.39181        -0.000002      0.002175     -0.037078
      6.33074      0.00229      6.39181        -0.034746     -0.037674      0.063858
      4.22049      0.00229      4.28157        -0.000001     -0.016885     -0.468171
      6.33074      6.33303      4.28157        -0.002605      0.002541     -0.456199
      4.22049      6.33304     10.75435        -0.000003     -0.000743      0.181209
      6.34628      8.43064     10.64084         0.013576      0.011845     -0.024881
      4.22049      8.42386      8.53684        -0.000001      0.001853     -0.000357
      6.31120      6.33303      8.51918         0.001658      0.002200      0.006890
      4.22049      2.11254      6.39181         0.000001      0.002183      0.106526
      6.33074      4.22278      6.39181        -0.034742      0.042471      0.063870
      4.22049      4.22278      4.28157        -0.000002      0.019676     -0.468176
      6.33074      2.11254      4.28157         0.003168      0.002543     -0.482696
      4.22049      2.11254     10.68204         0.000001     -0.003296     -0.003769
      6.34628      4.23542     10.64084         0.011224     -0.012571     -0.024880
      4.22049      4.24220      8.53684        -0.000001     -0.002588     -0.001423
      6.32623      2.11254      8.51147        -0.005808      0.001828      0.015798
    total drift:                               -0.000004     -0.035744      0.010919

  FREE ENERGIE OF THE ION-ELECTRON SYSTEM (eV)
  free  energy   TOTEN  =      -413.84486726 eV

  energy  without entropy=     -413.84486726  energy(sigma->0) =     -413.84486726