 vasp.6.3.0 20Jan22 (build Mar 11 2022 13:48:16) complex

 executed on             LinuxIFC date 2024.02.12  07:11:10

 INCAR:
   SYSTEM = Oxide-Surface
   ISMEAR = 0
   SIGMA = 0.05
   EDIFF = 1E-5
   ALGO = ALL
   ISTART = 0
   IBRION = -1
   NSW = 0
   ISYM = 2
   DIPOL = 0.5 0.5 0.5
   IDIPOL = 3
   LDIPOL = .TRUE.
   GGA = PE
   IVDW = 263
   ENCUT = 600
   PREC = Accurate
   LASPH = .TRUE.
   LREAL = .FALSE.
   ISPIN = 1
   NELM = 200
   NELMIN = 8
   NCORE = 19
   KPAR = 1
   LWAVE = .FALSE.
   LCHARG = .FALSE.

 POTCAR:    PAW_PBE Mg_pv 13Apr2007
 POTCAR:    PAW_PBE O 08Apr2002
 POTCAR:    PAW_PBE Mg_pv 13Apr2007
   VRHFIN =Mg: p6s2

   TITEL  = PAW_PBE Mg_pv 13Apr2007
   POMASS =   24.305; ZVAL   =    8.000    mass and valenz
   ENMAX  =  403.929; ENMIN  =  302.947 eV

   TITEL  = PAW_PBE O 08Apr2002
   POMASS =   16.000; ZVAL   =    6.000    mass and valenz
   ENMAX  =  400.000; ENMIN  =  300.000 eV

  PAW_PBE Mg_pv 13Apr2007               :
  PAW_PBE O 08Apr2002                   :

 POSCAR: Mg  O
  positions in direct lattice
 exchange correlation table for  LEXCH =        8
   RHO(1)=    0.500       N(1)  =     2000
   RHO(2)=  100.500       N(2)  =     4000

 ion  position               nearest neighbor table
   1  0.000  0.750  0.352-  33 2.11  35 2.11  36 2.11  43 2.11  52 2.11
   2  0.250  0.000  0.352-  34 2.11  35 2.11  36 2.11  44 2.11  51 2.11
   3  0.000  0.000  0.451-  35 2.11  34 2.11  33 2.11  41 2.11  50 2.11  39 2.12
   4  0.250  0.750  0.451-  36 2.11  34 2.11  33 2.11  42 2.11  49 2.11  40 2.12
   5  0.000  0.750  0.550-  47 2.11  39 2.11  56 2.11  40 2.11  33 2.12  37 2.14
   6  0.250  1.000  0.550-  48 2.11  39 2.11  55 2.11  40 2.11  34 2.12  38 2.15
   7  0.000  0.000  0.649-  45 2.11  38 2.11  37 2.11  54 2.11  39 2.11
   8  0.250  0.750  0.649-  37 2.10  40 2.11  46 2.11  38 2.11  53 2.12
   9  0.000  0.250  0.352-  41 2.11  35 2.11  43 2.11  44 2.11  60 2.11
  10  0.250  0.500  0.352-  42 2.11  36 2.11  43 2.11  44 2.11  59 2.11
  11  0.000  0.500  0.451-  43 2.11  41 2.11  42 2.11  33 2.11  58 2.11  47 2.12
  12  0.250  0.250  0.451-  44 2.11  41 2.11  42 2.11  34 2.11  57 2.11  48 2.12
  13  1.000  0.250  0.550-  48 2.11  39 2.11  64 2.11  47 2.11  41 2.12  45 2.15
  14  0.250  0.500  0.550-  40 2.11  48 2.11  63 2.11  47 2.11  42 2.12  46 2.14
  15  0.000  0.500  0.649-  46 2.10  47 2.11  37 2.11  45 2.11  62 2.12
  16  0.250  0.250  0.649-  38 2.11  45 2.11  61 2.11  46 2.11  48 2.11
  17  0.500  0.750  0.352-  49 2.11  36 2.11  51 2.11  52 2.11  59 2.11
  18  0.750  0.000  0.352-  50 2.11  35 2.11  51 2.11  52 2.11  60 2.11
  19  0.500  0.000  0.451-  51 2.11  49 2.11  50 2.11  34 2.11  57 2.11  55 2.12
  20  0.750  0.750  0.451-  52 2.11  49 2.11  50 2.11  33 2.11  58 2.11  56 2.12
  21  0.500  0.750  0.550-  63 2.11  56 2.11  40 2.11  55 2.11  49 2.13  53 2.16
  22  0.750  0.000  0.550-  55 2.11  39 2.11  56 2.11  64 2.11  50 2.12  54 2.14
  23  0.500  0.000  0.649-  61 2.10  55 2.11  54 2.11  38 2.11  53 2.12
  24  0.752  0.752  0.649-  54 2.10  37 2.10  56 2.11  53 2.12  62 2.12
  25  0.500  0.250  0.352-  57 2.11  51 2.11  44 2.11  59 2.11  60 2.11
  26  0.750  0.500  0.352-  58 2.11  52 2.11  43 2.11  59 2.11  60 2.11
  27  0.500  0.500  0.451-  59 2.11  49 2.11  57 2.11  58 2.11  42 2.11  63 2.12
  28  0.750  0.250  0.451-  60 2.11  50 2.11  57 2.11  58 2.11  41 2.11  64 2.12
  29  0.500  0.250  0.550-  64 2.11  48 2.11  63 2.11  55 2.11  57 2.12  61 2.14
  30  0.750  0.500  0.550-  63 2.11  56 2.11  64 2.11  47 2.11  58 2.13  62 2.16
  31  0.498  0.498  0.649-  61 2.10  46 2.10  63 2.11  53 2.12  62 2.12
  32  0.750  0.250  0.649-  54 2.10  64 2.11  61 2.11  45 2.11  62 2.12
  33  0.000  0.750  0.451-   1 2.11   3 2.11   4 2.11  11 2.11  20 2.11   5 2.12
  34  0.250  0.000  0.451-   2 2.11   3 2.11   4 2.11  12 2.11  19 2.11   6 2.12
  35  0.000  0.000  0.352-   3 2.11   2 2.11   1 2.11   9 2.11  18 2.11
  36  0.250  0.750  0.352-   4 2.11   2 2.11   1 2.11  10 2.11  17 2.11
  37  0.001  0.750  0.651-  24 2.10   8 2.10  15 2.11   7 2.11   5 2.14
  38  0.250  1.000  0.651-   7 2.11  16 2.11   8 2.11  23 2.11   6 2.15
  39  0.000  0.000  0.550-  13 2.11   6 2.11   5 2.11  22 2.11   7 2.11   3 2.12
  40  0.250  0.750  0.550-  21 2.11   8 2.11   6 2.11  14 2.11   5 2.11   4 2.12
  41  0.000  0.250  0.451-   9 2.11   3 2.11  11 2.11  12 2.11  28 2.11  13 2.12
  42  0.250  0.500  0.451-  10 2.11   4 2.11  11 2.11  12 2.11  27 2.11  14 2.12
  43  0.000  0.500  0.352-  11 2.11   9 2.11  10 2.11   1 2.11  26 2.11
  44  0.250  0.250  0.352-  12 2.11   9 2.11  10 2.11   2 2.11  25 2.11
  45  1.000  0.250  0.651-   7 2.11  16 2.11  32 2.11  15 2.11  13 2.15
  46  0.249  0.500  0.651-  31 2.10  15 2.10   8 2.11  16 2.11  14 2.14
  47  1.000  0.500  0.550-  30 2.11  15 2.11  13 2.11   5 2.11  14 2.11  11 2.12
  48  0.250  0.250  0.550-   6 2.11  13 2.11  14 2.11  29 2.11  16 2.11  12 2.12
  49  0.500  0.750  0.451-  17 2.11   4 2.11  19 2.11  20 2.11  27 2.11  21 2.13
  50  0.750  0.000  0.451-  18 2.11   3 2.11  19 2.11  20 2.11  28 2.11  22 2.12
  51  0.500  0.000  0.352-  19 2.11  17 2.11  18 2.11   2 2.11  25 2.11
  52  0.750  0.750  0.352-  20 2.11  17 2.11  18 2.11   1 2.11  26 2.11
  53  0.500  0.750  0.652-   8 2.12  23 2.12  31 2.12  24 2.12  21 2.16
  54  0.750  0.001  0.651-  24 2.10  32 2.10  23 2.11   7 2.11  22 2.14
  55  0.500  1.000  0.550-  21 2.11  23 2.11   6 2.11  22 2.11  29 2.11  19 2.12
  56  0.750  0.750  0.550-  30 2.11  21 2.11   5 2.11  22 2.11  24 2.11  20 2.12
  57  0.500  0.250  0.451-  25 2.11  19 2.11  12 2.11  27 2.11  28 2.11  29 2.12
  58  0.750  0.500  0.451-  26 2.11  20 2.11  11 2.11  27 2.11  28 2.11  30 2.13
  59  0.500  0.500  0.352-  27 2.11  17 2.11  25 2.11  26 2.11  10 2.11
  60  0.750  0.250  0.352-  28 2.11  18 2.11  25 2.11  26 2.11   9 2.11
  61  0.500  0.249  0.651-  31 2.10  23 2.10  32 2.11  16 2.11  29 2.14
  62  0.750  0.500  0.652-  32 2.12  15 2.12  31 2.12  24 2.12  30 2.16
  63  0.500  0.500  0.550-  30 2.11  21 2.11  14 2.11  29 2.11  31 2.11  27 2.12
  64  0.750  0.250  0.550-  30 2.11  32 2.11  13 2.11  29 2.11  22 2.11  28 2.12

  LATTYP: Found a simple tetragonal cell.
 ALAT       =     8.4409846542
 C/A-ratio  =     2.5270438657

  Lattice vectors:

 A1 = (   8.4409846542,   0.0000000000,   0.0000000000)
 A2 = (   0.0000000000,   8.4409846542,   0.0000000000)
 A3 = (   0.0000000000,   0.0000000000,  21.3307384906)

Analysis of symmetry for initial positions (statically):
 Subroutine PRICEL returns:
 Original cell was already a primitive cell.

 Routine SETGRP: Setting up the symmetry group for a
 simple tetragonal supercell.

 Subroutine GETGRP returns: Found  4 space group operations
 (whereof  2 operations were pure point group operations)
 out of a pool of 16 trial point group operations.

The static configuration has the point symmetry C_1h.
 The point group associated with its full space group is C_2v.

Analysis of symmetry for dynamics (positions and initial velocities):
 Subroutine PRICEL returns:
 Original cell was already a primitive cell.

[...]

The dynamic configuration has the point symmetry C_1h.
 The point group associated with its full space group is C_2v.

Analysis of constrained symmetry for selective dynamics:
 Subroutine PRICEL returns:
 Original cell was already a primitive cell.

 Routine SETGRP: Setting up the symmetry group for a
 simple tetragonal supercell.

 Subroutine GETGRP returns: Found  4 space group operations
 (whereof  2 operations were pure point group operations)
 out of a pool of 16 trial point group operations.

The constrained configuration has the point symmetry C_1h.
 The point group associated with its full space group is C_2v.

 Subroutine INISYM returns: Found  4 space group operations
 (whereof  2 operations are pure point group operations),
 and found     1 'primitive' translations

                                     Primitive cell

  volume of cell :    1519.8199

  direct lattice vectors                    reciprocal lattice vectors
     8.440984654  0.000000000  0.000000000     0.118469591  0.000000000  0.000000000
     0.000000000  8.440984654  0.000000000     0.000000000  0.118469591  0.000000000
     0.000000000  0.000000000 21.330738491     0.000000000  0.000000000  0.046880702

  length of vectors
     8.440984654  8.440984654 21.330738491     0.118469591  0.118469591  0.046880702

  position of ions in fractional coordinates (direct lattice)
     0.000000000  0.750000000  0.351605267
     0.250000000  0.000000000  0.351605267
     0.000000000  0.000000000  0.450535089
     0.250000000  0.750000000  0.450535089
     0.000170472  0.750065529  0.550134920
     0.250061573  0.999938530  0.550145492
     0.000200186  0.000200186  0.648841524
     0.249828182  0.749789003  0.648754906
     0.000000000  0.250000000  0.351605267
     0.250000000  0.500000000  0.351605267
     0.000000000  0.500000000  0.450535089
     0.250000000  0.250000000  0.450535089
     0.999938525  0.250061567  0.550145489
     0.249829706  0.499934572  0.550134937
     0.000171958  0.500211139  0.648754903
     0.249799949  0.249799949  0.648841577
     0.500000000  0.750000000  0.351605267
     0.750000000  0.000000000  0.351605267
     0.500000000  0.000000000  0.450535089
     0.750000000  0.750000000  0.450535089
     0.500270350  0.749729670  0.550330173
     0.750065521  0.000170473  0.550134923
     0.500211148  0.000171955  0.648754900
     0.751918702  0.751918715  0.649114650
     0.500000000  0.250000000  0.351605267
     0.750000000  0.500000000  0.351605267
     0.500000000  0.500000000  0.450535089
     0.750000000  0.250000000  0.450535089
     0.499934575  0.249829699  0.550134936
     0.749729660  0.500270350  0.550330171
     0.498081444  0.498081442  0.649114742
     0.749788996  0.249828183  0.648754905
     0.000000000  0.750000000  0.450535089
     0.250000000  0.000000000  0.450535089
     0.000000000  0.000000000  0.351605267
     0.250000000  0.750000000  0.351605267
     0.000660961  0.750176837  0.650529582
     0.250168661  0.999831464  0.651058193
     0.000114890  0.000114892  0.549832723
     0.250404141  0.749981448  0.549877119
     0.000000000  0.250000000  0.450535089
     0.250000000  0.500000000  0.450535089
     0.000000000  0.500000000  0.351605267
     0.250000000  0.250000000  0.351605267
     0.999831464  0.250168659  0.651058194
     0.249339233  0.499823327  0.650529652
     0.999595943  0.500018646  0.549877121
     0.249885200  0.249885199  0.549832736
     0.500000000  0.750000000  0.450535089
     0.750000000  0.000000000  0.450535089
     0.500000000  0.000000000  0.351605267
     0.750000000  0.750000000  0.351605267
     0.500320192  0.749679842  0.651810825
     0.750176827  0.000660961  0.650529580
     0.500018644  0.999595957  0.549877121
     0.749970659  0.749970656  0.550040631
     0.500000000  0.250000000  0.450535089
     0.750000000  0.500000000  0.450535089
     0.500000000  0.500000000  0.351605267
     0.750000000  0.250000000  0.351605267
     0.499823327  0.249339232  0.650529649
     0.749679851  0.500320189  0.651810830
     0.500029444  0.500029444  0.550040659
[...]
   O          22.249          3.318          5.834          2.774          3.408          1.084
   O          22.313          3.320          5.843          2.787          3.456          1.085
   O          20.862          3.285          5.661          2.308          1.962          1.054
   O          20.860          3.285          5.661          2.309          1.964          1.054
   O          20.886          3.286          5.664          2.302          1.946          1.055
   O          20.887          3.286          5.664          2.302          1.948          1.055
   O          22.320          3.320          5.844          2.771          3.397          1.085
   O          22.320          3.320          5.844          2.771          3.396          1.085
   O          22.313          3.320          5.843          2.787          3.456          1.085
   O          22.249          3.318          5.834          2.774          3.408          1.084
   O          20.860          3.285          5.661          2.309          1.964          1.054
   O          20.862          3.285          5.661          2.308          1.962          1.054
   O          20.889          3.286          5.664          2.299          1.940          1.055
   O          20.887          3.286          5.664          2.302          1.948          1.055
   O          22.320          3.320          5.844          2.771          3.397          1.085
   O          22.319          3.320          5.844          2.771          3.397          1.085
   O          22.401          3.322          5.854          2.802          3.513          1.087
   O          22.249          3.318          5.834          2.774          3.408          1.084
   O          20.860          3.285          5.661          2.309          1.964          1.054
   O          20.866          3.285          5.662          2.315          1.980          1.054
   O          20.887          3.286          5.664          2.302          1.948          1.055
   O          20.889          3.286          5.664          2.299          1.940          1.055
   O          22.319          3.320          5.844          2.771          3.397          1.085
   O          22.320          3.320          5.844          2.771          3.397          1.085
   O          22.249          3.318          5.834          2.774          3.408          1.084
   O          22.401          3.322          5.854          2.802          3.513          1.087
   O          20.866          3.285          5.662          2.315          1.980          1.054
   O          20.860          3.285          5.661          2.309          1.964          1.054

  vdW correction parametrized for the method pbe

  IVDW = 263
  VDW_RADIUS =    50.000 A
  VDW_SR =     0.830
  VDW_D =     6.000
  SCSRAD =   120.000 A
  LVDWSCS = T
  LSCSGRAD = T
  LSCALER0 = T
  ITIM =  1
  Edisp (eV):  -17.71065

  FORCE on cell =-STRESS in cart. coord.  units (eV):
  Direction    XX          YY          ZZ          XY          YZ          ZX
  Alpha Z   875.25928   875.25928   875.25928
  Ewald  161090.35397161090.35396************    -0.18501     0.00023     0.00023
  Hartree171148.73841171148.73841************    -0.12936     0.00005     0.00005
  E(xc)   -2456.53899 -2456.53899 -2461.83046    -0.00027    -0.00000    -0.00000
  Local  ************************342511.04165     0.31846    -0.00024    -0.00024
  n-local -2811.79778 -2812.18310 -2832.91140    -0.00196    -0.00000     0.00001
  augment  1047.84921  1047.84922  1038.52685    -0.00236    -0.00000    -0.00000
  Kinetic  7301.90512  7303.12580  7344.41098     0.00120    -0.00002    -0.00002
  Fock        0.00000     0.00000     0.00000     0.00000     0.00000     0.00000
  vdW       -23.28865   -23.41382   -16.10504    -0.00011     0.00000    -0.00000
  Total     -42.57859   -42.57859   -11.96401     0.00058     0.00000    -0.00000
  in kB     -44.88588   -44.88588   -12.61233     0.00061     0.00000    -0.00000

 VOLUME and BASIS-vectors are now :
  energy-cutoff  :      600.00
  volume of cell :     1519.82
      direct lattice vectors                 reciprocal lattice vectors
     8.440984654  0.000000000  0.000000000     0.118469591  0.000000000  0.000000000
     0.000000000  8.440984654  0.000000000     0.000000000  0.118469591  0.000000000
     0.000000000  0.000000000 21.330738491     0.000000000  0.000000000  0.046880702

  length of vectors
     8.440984654  8.440984654 21.330738491     0.118469591  0.118469591  0.046880702

 FORCES acting on ions:
    Electron-Ion                     Ewald-Force                    Non-Local-Force
   0.683E-01 0.555E-01 0.207E+04   -.689E-01 -.562E-01 -.206E+04   0.608E-03 0.626E-03 -.704E+01
   -.553E-01 0.556E-01 0.207E+04   0.567E-01 -.567E-01 -.206E+04   -.877E-03 0.877E-03 -.705E+01
   0.181E+00 0.181E+00 0.683E+03   -.166E+00 -.166E+00 -.684E+03   -.112E-01 -.112E-01 0.514E+00
   -.341E+00 0.162E+00 0.683E+03   0.389E+00 -.152E+00 -.683E+03   -.328E-01 -.738E-02 0.522E+00
   0.625E+00 0.458E+00 -.688E+03   -.662E+00 -.468E+00 0.688E+03   0.286E-01 0.684E-02 -.296E+00
   -.443E+00 0.443E+00 -.690E+03   0.453E+00 -.453E+00 0.690E+03   -.596E-02 0.596E-02 -.189E+00
   -.500E+00 -.500E+00 -.205E+04   0.640E+00 0.640E+00 0.205E+04   -.104E+00 -.104E+00 0.606E+01
   -.305E+01 -.329E+00 -.205E+04   0.316E+01 0.465E+00 0.204E+04   -.289E-01 -.978E-01 0.597E+01
   0.556E-01 -.553E-01 0.207E+04   -.566E-01 0.567E-01 -.206E+04   0.877E-03 -.877E-03 -.705E+01
   -.679E-01 -.552E-01 0.207E+04   0.689E-01 0.562E-01 -.206E+04   -.608E-03 -.626E-03 -.704E+01
   0.342E+00 -.162E+00 0.683E+03   -.389E+00 0.152E+00 -.683E+03   0.328E-01 0.738E-02 0.522E+00
   -.181E+00 -.181E+00 0.683E+03   0.166E+00 0.166E+00 -.684E+03   0.112E-01 0.112E-01 0.514E+00
   0.443E+00 -.443E+00 -.690E+03   -.453E+00 0.453E+00 0.690E+03   0.596E-02 -.596E-02 -.189E+00
   -.625E+00 -.458E+00 -.688E+03   0.662E+00 0.467E+00 0.688E+03   -.286E-01 -.684E-02 -.296E+00
   0.305E+01 0.329E+00 -.205E+04   -.316E+01 -.465E+00 0.204E+04   0.289E-01 0.978E-01 0.597E+01
   0.500E+00 0.500E+00 -.205E+04   -.640E+00 -.640E+00 0.205E+04   0.104E+00 0.104E+00 0.606E+01
   -.643E-01 0.646E-01 0.207E+04   0.666E-01 -.666E-01 -.206E+04   -.159E-02 0.159E-02 -.706E+01
   0.555E-01 0.683E-01 0.207E+04   -.562E-01 -.689E-01 -.206E+04   0.626E-03 0.608E-03 -.704E+01
   -.162E+00 0.342E+00 0.683E+03   0.152E+00 -.389E+00 -.683E+03   0.738E-02 0.328E-01 0.522E+00
   0.337E+00 0.337E+00 0.682E+03   -.362E+00 -.362E+00 -.683E+03   0.190E-01 0.190E-01 0.564E+00
   -.914E+00 0.915E+00 -.695E+03   0.945E+00 -.945E+00 0.696E+03   -.263E-01 0.263E-01 -.169E+00
   0.458E+00 0.625E+00 -.688E+03   -.467E+00 -.662E+00 0.688E+03   0.684E-02 0.286E-01 -.296E+00
   0.329E+00 0.305E+01 -.205E+04   -.465E+00 -.316E+01 0.204E+04   0.978E-01 0.289E-01 0.597E+01
   0.515E+01 0.515E+01 -.205E+04   -.531E+01 -.531E+01 0.205E+04   -.353E-01 -.353E-01 0.599E+01
   -.552E-01 -.679E-01 0.207E+04   0.562E-01 0.689E-01 -.206E+04   -.626E-03 -.608E-03 -.704E+01
   0.646E-01 -.643E-01 0.207E+04   -.666E-01 0.666E-01 -.206E+04   0.159E-02 -.159E-02 -.706E+01
   -.337E+00 -.337E+00 0.682E+03   0.362E+00 0.362E+00 -.683E+03   -.190E-01 -.190E-01 0.564E+00
   0.162E+00 -.341E+00 0.683E+03   -.152E+00 0.389E+00 -.683E+03   -.738E-02 -.328E-01 0.522E+00
   -.458E+00 -.625E+00 -.688E+03   0.467E+00 0.662E+00 0.688E+03   -.684E-02 -.286E-01 -.296E+00
   0.915E+00 -.914E+00 -.695E+03   -.945E+00 0.945E+00 0.696E+03   0.263E-01 -.263E-01 -.169E+00
   -.515E+01 -.515E+01 -.205E+04   0.531E+01 0.531E+01 0.205E+04   0.353E-01 0.353E-01 0.599E+01
   -.329E+00 -.305E+01 -.205E+04   0.465E+00 0.316E+01 0.204E+04   -.978E-01 -.289E-01 0.597E+01
   0.265E+00 0.173E+00 0.512E+03   -.275E+00 -.178E+00 -.512E+03   0.139E-01 0.712E-02 -.782E-01
   -.166E+00 0.168E+00 0.512E+03   0.166E+00 -.166E+00 -.512E+03   0.209E-02 -.209E-02 -.105E+00
   0.376E-01 0.376E-01 0.155E+04   -.357E-01 -.357E-01 -.156E+04   -.133E-02 -.133E-02 0.349E+01
   -.541E-01 0.375E-01 0.155E+04   0.586E-01 -.354E-01 -.156E+04   -.500E-02 -.161E-02 0.349E+01
   -.168E+00 0.632E+00 -.156E+04   0.305E+00 -.710E+00 0.156E+04   -.159E+00 0.101E+00 -.483E+01
   -.514E+00 0.514E+00 -.156E+04   0.606E+00 -.605E+00 0.156E+04   -.117E+00 0.117E+00 -.505E+01
   -.264E-01 -.264E-01 -.511E+03   0.264E-01 0.264E-01 0.511E+03   -.363E-02 -.363E-02 0.258E+00
   -.105E+01 -.374E-01 -.512E+03   0.109E+01 0.438E-01 0.511E+03   -.721E-01 -.108E-01 0.291E+00
   0.168E+00 -.166E+00 0.512E+03   -.166E+00 0.166E+00 -.512E+03   -.209E-02 0.209E-02 -.105E+00
   -.263E+00 -.172E+00 0.512E+03   0.275E+00 0.178E+00 -.512E+03   -.139E-01 -.712E-02 -.782E-01
   0.559E-01 -.356E-01 0.155E+04   -.586E-01 0.354E-01 -.156E+04   0.500E-02 0.161E-02 0.349E+01
   -.358E-01 -.358E-01 0.155E+04   0.357E-01 0.357E-01 -.156E+04   0.133E-02 0.133E-02 0.349E+01
   0.514E+00 -.514E+00 -.156E+04   -.605E+00 0.606E+00 0.156E+04   0.117E+00 -.117E+00 -.505E+01
   0.168E+00 -.632E+00 -.156E+04   -.306E+00 0.710E+00 0.156E+04   0.159E+00 -.101E+00 -.483E+01
   0.105E+01 0.382E-01 -.512E+03   -.109E+01 -.438E-01 0.511E+03   0.721E-01 0.108E-01 0.291E+00
   0.273E-01 0.273E-01 -.511E+03   -.264E-01 -.264E-01 0.511E+03   0.363E-02 0.363E-02 0.258E+00
   -.211E+00 0.213E+00 0.511E+03   0.195E+00 -.195E+00 -.511E+03   0.231E-01 -.231E-01 -.156E+00
   0.173E+00 0.265E+00 0.512E+03   -.178E+00 -.275E+00 -.512E+03   0.712E-02 0.139E-01 -.782E-01
   -.356E-01 0.559E-01 0.155E+04   0.354E-01 -.586E-01 -.156E+04   0.161E-02 0.500E-02 0.349E+01
   0.531E-01 0.531E-01 0.155E+04   -.569E-01 -.569E-01 -.156E+04   0.662E-02 0.662E-02 0.349E+01
   -.212E+01 0.212E+01 -.156E+04   0.239E+01 -.239E+01 0.157E+04   -.303E+00 0.303E+00 -.525E+01
   0.632E+00 -.168E+00 -.156E+04   -.710E+00 0.305E+00 0.156E+04   0.101E+00 -.159E+00 -.483E+01
   0.383E-01 0.105E+01 -.512E+03   -.438E-01 -.109E+01 0.511E+03   0.108E-01 0.721E-01 0.291E+00
   0.115E+01 0.115E+01 -.514E+03   -.117E+01 -.117E+01 0.514E+03   0.382E-01 0.382E-01 0.205E+00
   -.172E+00 -.263E+00 0.512E+03   0.178E+00 0.275E+00 -.512E+03   -.712E-02 -.139E-01 -.782E-01
   0.213E+00 -.211E+00 0.511E+03   -.195E+00 0.195E+00 -.511E+03   -.231E-01 0.231E-01 -.156E+00
   -.513E-01 -.513E-01 0.155E+04   0.569E-01 0.569E-01 -.156E+04   -.662E-02 -.662E-02 0.349E+01
   0.375E-01 -.541E-01 0.155E+04   -.354E-01 0.586E-01 -.156E+04   -.161E-02 -.500E-02 0.349E+01
   -.632E+00 0.168E+00 -.156E+04   0.710E+00 -.306E+00 0.156E+04   -.101E+00 0.159E+00 -.483E+01
   0.212E+01 -.212E+01 -.156E+04   -.239E+01 0.239E+01 0.157E+04   0.303E+00 -.303E+00 -.525E+01
   -.115E+01 -.115E+01 -.514E+03   0.117E+01 0.117E+01 0.514E+03   -.382E-01 -.382E-01 0.205E+00
   -.374E-01 -.105E+01 -.512E+03   0.439E-01 0.109E+01 0.511E+03   -.108E-01 -.721E-01 0.291E+00
   0.232E-01 0.230E-01 0.168E+02   -.117E-12 -.125E-12 0.512E-11   -.191E-16 -.971E-16 -.168E+02

 POSITION                                       TOTAL-FORCE (eV/Angst)
      0.00000      6.33074      7.50000        -0.000458     -0.000357      0.513790
      2.11025      0.00000      7.50000         0.000474     -0.000474      0.516272
      0.00000      0.00000      9.61025         0.004236      0.004236      0.113895
      2.11025      6.33074      9.61025         0.013567      0.002393      0.119382
      0.00144      6.33129     11.73478        -0.008296     -0.002226     -0.071179
      2.11077      8.44047     11.73501         0.004075     -0.004075     -0.043467
      0.00169      0.00169     13.84027         0.036557      0.036557     -0.203264
      2.10880      6.32896     13.83842         0.076730      0.037426     -0.159071
      0.00000      2.11025      7.50000        -0.000474      0.000474      0.516272
      2.11025      4.22049      7.50000         0.000458      0.000357      0.513790
      0.00000      4.22049      9.61025        -0.013567     -0.002393      0.119382
      2.11025      2.11025      9.61025        -0.004236     -0.004236      0.113895
      8.44047      2.11077     11.73501        -0.004075      0.004075     -0.043467
      2.10881      4.21994     11.73478         0.008296      0.002226     -0.071179
      0.00145      4.22227     13.83842        -0.076730     -0.037426     -0.159071
      2.10856      2.10856     13.84027        -0.036557     -0.036557     -0.203264
      4.22049      6.33074      7.50000         0.000610     -0.000610      0.518638
      6.33074      0.00000      7.50000        -0.000357     -0.000458      0.513790
      4.22049      0.00000      9.61025        -0.002393     -0.013567      0.119382
      6.33074      6.33074      9.61025        -0.005728     -0.005728      0.126308
      4.22277      6.32846     11.73895         0.003923     -0.003923     -0.004272
      6.33129      0.00144     11.73478        -0.002226     -0.008296     -0.071179
      4.22227      0.00145     13.83842        -0.037426     -0.076730     -0.159071
      6.34693      6.34693     13.84609        -0.192847     -0.192847     -0.183374
      4.22049      2.11025      7.50000         0.000357      0.000458      0.513790
      6.33074      4.22049      7.50000        -0.000610      0.000610      0.518638
      4.22049      4.22049      9.61025         0.005728      0.005728      0.126308
      6.33074      2.11025      9.61025         0.002393      0.013567      0.119382
      4.21994      2.10881     11.73478         0.002226      0.008296     -0.071179
      6.32846      4.22277     11.73895        -0.003923      0.003923     -0.004272
      4.20430      4.20430     13.84610         0.192847      0.192847     -0.183374
      6.32896      2.10880     13.83842         0.037426      0.076730     -0.159071
      0.00000      6.33074      9.61025         0.002930      0.001783      0.068410
      2.11025      0.00000      9.61025         0.000705     -0.000705      0.060611
      0.00000      0.00000      7.50000        -0.000377     -0.000377     -0.473093
      2.11025      6.33074      7.50000        -0.001362     -0.000449     -0.473690
      0.00558      6.33223     13.87628        -0.021317      0.023721      0.042943
      2.11167      8.43956     13.88755        -0.026054      0.026054     -0.036886
      0.00097      0.00097     11.72834        -0.004160     -0.004160      0.023646
      2.11366      6.33058     11.72929        -0.026286     -0.004796      0.015163
      0.00000      2.11025      9.61025        -0.000705      0.000705      0.060611
      2.11025      4.22049      9.61025        -0.002930     -0.001783      0.068410
      0.00000      4.22049      7.50000         0.001362      0.000449     -0.473690
      2.11025      2.11025      7.50000         0.000377      0.000377     -0.473093
      8.43956      2.11167     13.88755         0.026054     -0.026054     -0.036886
      2.10467      4.21900     13.87628         0.021317     -0.023721      0.042943
      8.43757      4.22065     11.72929         0.026286      0.004796      0.015163
      2.10928      2.10928     11.72834         0.004160      0.004160      0.023646
      4.22049      6.33074      9.61025         0.005762     -0.005762      0.064459
      6.33074      0.00000      9.61025         0.001783      0.002930      0.068410
      4.22049      0.00000      7.50000         0.000449      0.001362     -0.473690
      6.33074      6.33074      7.50000         0.001867      0.001867     -0.474438
      4.22320      6.32804     13.90361        -0.031378      0.031378     -0.117417
      6.33223      0.00558     13.87628         0.023721     -0.021317      0.042943
      4.22065      8.43757     11.72929         0.004796      0.026286      0.015163
      6.33049      6.33049     11.73277         0.020828      0.020828      0.000883
      4.22049      2.11025      9.61025        -0.001783     -0.002930      0.068410
      6.33074      4.22049      9.61025        -0.005762      0.005762      0.064459
      4.22049      4.22049      7.50000        -0.001867     -0.001867     -0.474438
      6.33074      2.11025      7.50000        -0.000449     -0.001362     -0.473690
      4.21900      2.10467     13.87628        -0.023721      0.021317      0.042943
      6.32804      4.22320     13.90361         0.031378     -0.031378     -0.117417
      4.22074      4.22074     11.73277        -0.020828     -0.020828      0.000883
      6.33058      2.11366     11.72929        -0.004796     -0.026286      0.015163
    total drift:                                0.023172      0.022951     -0.000589

  FREE ENERGIE OF THE ION-ELECTRON SYSTEM (eV)
  free  energy   TOTEN  =      -389.86960140 eV

  energy  without entropy=     -389.86960140  energy(sigma->0) =     -389.86960140