 vasp.6.4.2 20Jul23 (build Feb 22 2024 13:53:45) complex
 executed on              LinuxNV date 2024.08.27  14:47:42
 OpenACC runtime initialized ...    4 GPUs detected

 INCAR:
   SYSTEM = Oxide-Surface
   ISMEAR = 0
   SIGMA = 0.05
   EDIFF = 1E-5
   ALGO = Normal
   IBRION = -1
   NSW = 0
   ISYM = 0
   DIPOL = 0.5 0.5 0.5
   IDIPOL = 3
   LDIPOL = .TRUE.
   ISTART = 1
   LHFCALC = .TRUE.
   GGA = PE
   IVDW = 21
   VDW_SR = 0.96
   HFRCUT = -1
   ENCUT = 520
   PREC = Normal
   PRECFOCK = Normal
   LASPH = .TRUE.
   LREAL = Auto
   ISPIN = 1
   NELM = 200
   NELMIN = 8
   NCORE = 1
   KPAR = 1
   LWAVE = .FALSE.
   LCHARG = .FALSE.

 POTCAR:    PAW_PBE Mg_pv 13Apr2007
 POTCAR:    PAW_PBE O 08Apr2002
 POTCAR:    PAW_PBE Mg_pv 13Apr2007
   VRHFIN =Mg: p6s2

   TITEL  = PAW_PBE Mg_pv 13Apr2007
   POMASS =   24.305; ZVAL   =    8.000    mass and valenz
   ENMAX  =  403.929; ENMIN  =  302.947 eV

   TITEL  = PAW_PBE O 08Apr2002
   POMASS =   16.000; ZVAL   =    6.000    mass and valenz
   ENMAX  =  400.000; ENMIN  =  300.000 eV

 Optimization of the real space projectors (new method)

 maximal supplied QI-value         = 18.90
 optimisation between [QCUT,QGAM] = [ 11.53, 23.24] = [ 37.21,151.29] Ry
 Optimized for a Real-space Cutoff    1.21 Angstroem

   l    n(q)    QCUT    max X(q) W(low)/X(q) W(high)/X(q)  e(spline)
   1      8    11.527     2.974    0.16E-03    0.13E-03    0.98E-07
   1      8    11.527     4.279    0.42E-03    0.30E-03    0.22E-06
   0      8    11.527    16.381    0.13E-03    0.20E-03    0.72E-07
   0      8    11.527     5.611    0.88E-04    0.13E-03    0.50E-07
   2      7    11.527     4.652    0.25E-03    0.73E-04    0.51E-07
 Optimization of the real space projectors (new method)

 maximal supplied QI-value         = 24.76
 optimisation between [QCUT,QGAM] = [ 11.64, 23.27] = [ 37.91,151.63] Ry
 Optimized for a Real-space Cutoff    1.04 Angstroem

   l    n(q)    QCUT    max X(q) W(low)/X(q) W(high)/X(q)  e(spline)
   0      7    11.635    20.381    0.14E-03    0.49E-03    0.18E-06
   0      7    11.635    15.268    0.16E-03    0.52E-03    0.19E-06
   1      7    11.635     5.964    0.30E-03    0.44E-03    0.22E-06
   1      7    11.635     5.382    0.27E-03    0.34E-03    0.19E-06
  PAW_PBE Mg_pv 13Apr2007               :
  PAW_PBE O 08Apr2002                   :

 POSCAR: Mg  O
  positions in direct lattice
 exchange correlation table for  LEXCH =        8
   RHO(1)=    0.500       N(1)  =     2000
   RHO(2)=  100.500       N(2)  =     4000

 ion  position               nearest neighbor table
   1  0.000  0.750  0.189-  35 2.11  36 2.11  43 2.11  52 2.11  33 2.11
   2  0.250  0.000  0.189-  35 2.11  36 2.11  44 2.11  51 2.11  34 2.11
   3  0.000  0.000  0.313-  33 2.11  34 2.11  41 2.11  50 2.11  35 2.11  39 2.12
   4  0.250  0.750  0.313-  33 2.11  34 2.11  42 2.11  49 2.11  36 2.11  40 2.12
   5  1.000  0.750  0.438-  56 2.11  40 2.11  47 2.11  39 2.11  33 2.12  37 2.15
   6  0.250  1.000  0.438-  40 2.11  48 2.11  55 2.11  39 2.11  34 2.12  38 2.15
   7  1.000  1.000  0.562-  38 2.11  54 2.11  39 2.11  37 2.11  45 2.11
   8  0.250  0.750  0.562-  40 2.11  46 2.11  37 2.11  38 2.11  53 2.11
   9  0.000  0.250  0.189-  35 2.11  43 2.11  44 2.11  60 2.11  41 2.11
  10  0.250  0.500  0.189-  36 2.11  43 2.11  44 2.11  59 2.11  42 2.11
  11  0.000  0.500  0.313-  33 2.11  41 2.11  42 2.11  58 2.11  43 2.11  47 2.12
  12  0.250  0.250  0.313-  34 2.11  41 2.11  42 2.11  57 2.11  44 2.11  48 2.12
  13  1.000  0.250  0.438-  64 2.11  48 2.11  47 2.11  39 2.11  41 2.12  45 2.15
  14  0.250  0.500  0.439-  63 2.11  48 2.11  40 2.11  47 2.11  42 2.13  46 2.15
  15  0.000  0.500  0.562-  46 2.11  47 2.11  62 2.11  37 2.11  45 2.11
  16  0.250  0.250  0.562-  48 2.11  45 2.11  46 2.11  38 2.11  61 2.11
  17  0.500  0.750  0.189-  36 2.11  51 2.11  52 2.11  59 2.11  49 2.11
  18  0.750  0.000  0.189-  35 2.11  51 2.11  52 2.11  60 2.11  50 2.11
  19  0.500  0.000  0.313-  34 2.11  49 2.11  50 2.11  57 2.11  51 2.11  55 2.12
  20  0.750  0.750  0.313-  33 2.11  49 2.11  50 2.11  58 2.11  52 2.11  56 2.12
  21  0.500  0.750  0.439-  63 2.11  56 2.11  40 2.11  55 2.11  49 2.13  53 2.15
  22  0.750  1.000  0.438-  56 2.11  64 2.11  39 2.11  55 2.11  50 2.13  54 2.15
  23  0.500  1.000  0.562-  61 2.11  53 2.11  55 2.11  38 2.11  54 2.11
  24  0.750  0.750  0.562-  56 2.11  37 2.11  54 2.11  62 2.11  53 2.11
  25  0.500  0.250  0.189-  44 2.11  51 2.11  59 2.11  60 2.11  57 2.11
  26  0.750  0.500  0.189-  43 2.11  52 2.11  59 2.11  60 2.11  58 2.11
  27  0.500  0.500  0.313-  42 2.11  49 2.11  57 2.11  58 2.11  59 2.11  63 2.12
  28  0.750  0.250  0.313-  41 2.11  50 2.11  57 2.11  58 2.11  60 2.11  64 2.12
  29  0.500  0.250  0.439-  63 2.11  64 2.11  48 2.11  55 2.11  57 2.13  61 2.15
  30  0.750  0.500  0.439-  63 2.11  64 2.11  56 2.11  47 2.11  58 2.13  62 2.15
  31  0.500  0.500  0.563-  46 2.11  53 2.11  61 2.11  62 2.11  63 2.12
  32  0.750  0.250  0.562-  64 2.11  45 2.11  54 2.11  62 2.11  61 2.11
  33  0.000  0.750  0.313-   3 2.11   4 2.11  11 2.11  20 2.11   1 2.11   5 2.12
  34  0.250  0.000  0.313-   3 2.11   4 2.11  12 2.11  19 2.11   2 2.11   6 2.12
  35  0.000  0.000  0.189-   1 2.11   2 2.11   9 2.11  18 2.11   3 2.11
  36  0.250  0.750  0.189-   1 2.11   2 2.11  10 2.11  17 2.11   4 2.11
  37  1.000  0.750  0.565-  24 2.11   8 2.11  15 2.11   7 2.11   5 2.15
  38  0.250  1.000  0.565-   7 2.11  23 2.11  16 2.11   8 2.11   6 2.15
  39  1.000  1.000  0.438-  22 2.11   5 2.11  13 2.11   6 2.11   7 2.11   3 2.12
  40  0.250  0.750  0.438-   8 2.11   6 2.11   5 2.11  21 2.11  14 2.11   4 2.12
  41  0.000  0.250  0.313-   3 2.11  11 2.11  12 2.11  28 2.11   9 2.11  13 2.12
  42  0.250  0.500  0.313-   4 2.11  11 2.11  12 2.11  27 2.11  10 2.11  14 2.13
  43  0.000  0.500  0.189-   1 2.11   9 2.11  10 2.11  26 2.11  11 2.11
  44  0.250  0.250  0.189-   2 2.11   9 2.11  10 2.11  25 2.11  12 2.11
  45  1.000  0.250  0.565-  32 2.11  16 2.11  15 2.11   7 2.11  13 2.15
  46  0.250  0.500  0.565-  15 2.11   8 2.11  16 2.11  31 2.11  14 2.15
  47  1.000  0.500  0.438-  15 2.11  13 2.11   5 2.11  30 2.11  14 2.11  11 2.12
  48  0.250  0.250  0.438-  16 2.11   6 2.11  13 2.11  29 2.11  14 2.11  12 2.12
  49  0.500  0.750  0.313-   4 2.11  19 2.11  20 2.11  27 2.11  17 2.11  21 2.13
  50  0.750  0.000  0.313-   3 2.11  19 2.11  20 2.11  28 2.11  18 2.11  22 2.13
  51  0.500  0.000  0.189-   2 2.11  17 2.11  18 2.11  25 2.11  19 2.11
  52  0.750  0.750  0.189-   1 2.11  17 2.11  18 2.11  26 2.11  20 2.11
  53  0.500  0.750  0.565-  23 2.11  24 2.11   8 2.11  31 2.11  21 2.15
  54  0.750  1.000  0.565-  32 2.11   7 2.11  24 2.11  23 2.11  22 2.15
  55  0.500  1.000  0.438-  23 2.11  22 2.11   6 2.11  21 2.11  29 2.11  19 2.12
  56  0.750  0.750  0.438-  24 2.11  22 2.11   5 2.11  21 2.11  30 2.11  20 2.12
  57  0.500  0.250  0.313-  12 2.11  19 2.11  27 2.11  28 2.11  25 2.11  29 2.13
  58  0.750  0.500  0.313-  11 2.11  20 2.11  27 2.11  28 2.11  26 2.11  30 2.13
  59  0.500  0.500  0.189-  10 2.11  17 2.11  25 2.11  26 2.11  27 2.11
  60  0.750  0.250  0.189-   9 2.11  18 2.11  25 2.11  26 2.11  28 2.11
  61  0.500  0.250  0.565-  23 2.11  32 2.11  16 2.11  31 2.11  29 2.15
  62  0.750  0.500  0.565-  15 2.11  24 2.11  32 2.11  31 2.11  30 2.15
  63  0.500  0.500  0.438-  30 2.11  21 2.11  29 2.11  14 2.11  31 2.12  27 2.12
  64  0.750  0.250  0.438-  32 2.11  22 2.11  13 2.11  29 2.11  30 2.11  28 2.12

IMPORTANT INFORMATION: All symmetrisations will be switched off!
NOSYMM: (Re-)initialisation of all symmetry stuff for point group C_1.

                                     Primitive cell

  volume of cell :    1211.2538

  direct lattice vectors                    reciprocal lattice vectors
     8.440984654  0.000000000  0.000000000     0.118469591  0.000000000  0.000000000
     0.000000000  8.440984654  0.000000000     0.000000000  0.118469591  0.000000000
     0.000000000  0.000000000 17.000000000     0.000000000  0.000000000  0.058823529

  length of vectors
     8.440984654  8.440984654 17.000000000     0.118469591  0.118469591  0.058823529

  position of ions in fractional coordinates (direct lattice)
     0.000007636  0.750031286  0.189341906
     0.250007636  0.000031286  0.189341906
     0.000007636  0.000031286  0.313474033
     0.250007636  0.750031286  0.313474033
     0.999976970  0.749963850  0.438457003
     0.249986644  0.999964140  0.438470494
     0.999992364  0.999910906  0.562348157
     0.249873245  0.749845785  0.562202626
     0.000007636  0.250031286  0.189341906
     0.250007636  0.500031286  0.189341906
     0.000007636  0.500031286  0.313474033
     0.250007636  0.250031286  0.313474033
     0.999977352  0.249980617  0.438453686
     0.250127274  0.499963970  0.438535724
     0.000145226  0.499923750  0.562114841
     0.249869118  0.249973003  0.562195641
     0.500007636  0.750031286  0.189341906
     0.750007636  0.000031286  0.189341906
     0.500007636  0.000031286  0.313474033
     0.750007636  0.750031286  0.313474033
     0.499991240  0.749815526  0.438527908
     0.749986537  0.999961265  0.438479227
     0.499961494  0.999896839  0.562145227
     0.750043134  0.749924142  0.562250345
     0.500007636  0.250031286  0.189341906
     0.750007636  0.500031286  0.189341906
     0.500007636  0.500031286  0.313474033
     0.750007636  0.250031286  0.313474033
     0.499993003  0.250082768  0.438527210
     0.749860656  0.499960669  0.438562571
     0.499843564  0.499898967  0.563085918
     0.750058171  0.249889399  0.562241868
     0.000007636  0.750031286  0.313474033
     0.250007636  0.000031286  0.313474033
     0.000007636  0.000031286  0.189341906
     0.250007636  0.750031286  0.189341906
     0.999943344  0.749886766  0.565046454
     0.249946089  0.999912111  0.565050657
     0.999971036  0.999968714  0.438179888
     0.249965036  0.750040437  0.438149594
     0.000007636  0.250031286  0.313474033
     0.250007636  0.500031286  0.313474033
     0.000007636  0.500031286  0.189341906
     0.250007636  0.250031286  0.189341906
     0.999945875  0.249945679  0.565037155
     0.249719068  0.499911441  0.564728513
     0.999971089  0.499970067  0.438088058
     0.249956936  0.249888775  0.438144915
     0.500007636  0.750031286  0.313474033
     0.750007636  0.000031286  0.313474033
     0.500007636  0.000031286  0.189341906
     0.750007636  0.750031286  0.189341906
     0.499989702  0.750219279  0.564996442
     0.750006699  0.999909280  0.565084458
     0.499996442  0.999947314  0.438110544
     0.750005020  0.750030779  0.438172055
     0.500007636  0.250031286  0.313474033
     0.750007636  0.500031286  0.313474033
     0.500007636  0.500031286  0.189341906
     0.750007636  0.250031286  0.189341906
     0.499997048  0.249555778  0.564962164
     0.750207288  0.499910047  0.564892284
     0.500015401  0.499961148  0.438334676
     0.750015257  0.249893599  0.438167343

  ion indices of the primitive-cell ions
   primitive index   ion index
                 1           1
                 2           2
                 3           3
                 4           4
                 5           5
                 6           6
[...]
   O         196.201          4.870         19.151          3.54639235
   O         196.133          4.870         19.147          3.54578193
   O         187.740          4.835         18.733          3.46908299
   O         189.099          4.840         18.801          3.48161250
   O         243.752          5.050         21.345          3.95285168
   O         243.611          5.049         21.339          3.95170501
   O         237.329          5.027         21.062          3.90042665
   O         237.237          5.027         21.058          3.89966753
   O         196.131          4.870         19.147          3.54575858
   O         196.122          4.870         19.147          3.54567750
   O         188.418          4.837         18.767          3.47534282
   O         187.557          4.834         18.724          3.46738885
   O         243.641          5.049         21.341          3.95194869
   O         243.466          5.049         21.333          3.95053089
   O         237.329          5.027         21.062          3.90042133
   O         237.301          5.027         21.061          3.90019263
   O         196.157          4.870         19.148          3.54599783
   O         196.127          4.870         19.147          3.54572519
   O         188.356          4.837         18.764          3.47476592
   O         188.483          4.838         18.770          3.47593727
   O         242.327          5.045         21.283          3.94127840
   O         243.484          5.049         21.334          3.95067887

  vdW correction parametrized for the method @þ>    þ

  IVDW =  21
  VDW_RADIUS =    50.000 A
  VDW_IDAMPF =  0
  VDW_S6 =     1.000
  VDW_SR =     0.960
  VDW_D =    20.000
  LVDW_ONECELL = F F F
  LVDW_SAMETYPE T T
  LVDW_EWALD = F

  Number of pair interactions contributing to vdW energy:  892039
  Edisp (eV):   -3.87863

 VOLUME and BASIS-vectors are now :
  energy-cutoff  :      520.00
  volume of cell :     1211.25
      direct lattice vectors                 reciprocal lattice vectors
     8.440984654  0.000000000  0.000000000     0.118469591  0.000000000  0.000000000
     0.000000000  8.440984654  0.000000000     0.000000000  0.118469591  0.000000000
     0.000000000  0.000000000 17.000000000     0.000000000  0.000000000  0.058823529

  length of vectors
     8.440984654  8.440984654 17.000000000     0.118469591  0.118469591  0.058823529

 FORCES acting on ions
    electron-ion (+dipol)            ewald-force                    non-local-force                 convergence-correction
   0.869E-02 0.173E-01 0.172E+04   -.906E-02 -.173E-01 -.171E+04   0.198E-03 -.115E-03 -.678E+01   0.120E-04 -.118E-04 -.155E+00
   -.245E-01 0.927E-03 0.172E+04   0.245E-01 -.110E-02 -.171E+04   -.748E-05 0.738E-05 -.678E+01   -.455E-05 0.118E-04 -.155E+00
   0.193E-01 0.109E-02 0.567E+03   -.216E-01 -.359E-02 -.568E+03   0.137E-02 0.144E-02 0.457E+00   -.651E-06 0.113E-04 -.107E+00
   -.158E+00 0.125E+00 0.567E+03   0.160E+00 -.126E+00 -.568E+03   -.121E-02 0.636E-03 0.454E+00   -.134E-04 0.918E-06 -.107E+00
   0.758E-01 -.982E-01 -.575E+03   -.842E-01 0.110E+00 0.575E+03   0.594E-02 -.670E-02 -.206E+00   -.436E-05 -.750E-05 -.163E-01
   -.355E-01 0.975E-02 -.575E+03   0.311E-01 -.989E-02 0.575E+03   0.266E-02 0.151E-03 -.217E+00   0.446E-05 0.184E-05 -.163E-01
   -.352E-01 -.109E-01 -.171E+04   0.379E-01 0.119E-01 0.170E+04   -.301E-02 0.571E-03 0.570E+01   -.505E-05 -.974E-06 0.823E-01
   -.462E+00 -.137E+00 -.171E+04   0.423E+00 0.207E+00 0.170E+04   0.355E-01 -.382E-01 0.572E+01   -.956E-06 0.307E-04 0.821E-01
   0.861E-02 -.176E-01 0.172E+04   -.898E-02 0.173E-01 -.171E+04   0.198E-03 0.125E-03 -.678E+01   0.978E-05 -.131E-05 -.155E+00
   -.439E-01 -.132E-02 0.172E+04   0.447E-01 0.119E-02 -.171E+04   -.551E-03 -.636E-05 -.678E+01   -.858E-05 0.113E-05 -.155E+00
   0.467E-01 -.156E-01 0.567E+03   -.509E-01 0.131E-01 -.568E+03   0.259E-02 0.145E-02 0.435E+00   0.695E-05 -.714E-05 -.107E+00
   -.167E+00 -.138E+00 0.567E+03   0.169E+00 0.134E+00 -.568E+03   -.798E-03 0.256E-02 0.453E+00   -.133E-04 -.173E-04 -.107E+00
   0.706E-01 0.114E+00 -.575E+03   -.789E-01 -.126E+00 0.575E+03   0.593E-02 0.630E-02 -.207E+00   -.137E-05 0.789E-06 -.163E-01
   -.538E+00 -.340E-02 -.574E+03   0.587E+00 0.364E-02 0.575E+03   -.405E-01 -.890E-04 -.285E+00   -.439E-04 -.122E-04 -.163E-01
   0.588E+00 0.269E-01 -.171E+04   -.599E+00 -.243E-01 0.170E+04   -.114E-01 -.171E-02 0.569E+01   -.181E-04 -.124E-04 0.821E-01
   -.491E+00 0.123E+00 -.171E+04   0.449E+00 -.190E+00 0.170E+04   0.384E-01 0.386E-01 0.572E+01   0.405E-06 -.235E-04 0.821E-01
   -.892E-02 0.365E-01 0.172E+04   0.917E-02 -.373E-01 -.171E+04   -.180E-03 0.444E-03 -.678E+01   -.218E-06 -.786E-05 -.155E+00
   0.244E-01 0.989E-03 0.172E+04   -.245E-01 -.117E-02 -.171E+04   0.343E-04 0.106E-04 -.678E+01   -.745E-05 0.128E-04 -.155E+00
   -.259E-01 -.545E-02 0.567E+03   0.262E-01 0.144E-02 -.568E+03   -.292E-03 0.232E-02 0.437E+00   0.792E-05 0.143E-04 -.107E+00
   0.155E+00 0.151E+00 0.567E+03   -.159E+00 -.155E+00 -.567E+03   0.238E-02 0.216E-02 0.456E+00   0.103E-04 0.412E-05 -.107E+00
   -.666E-01 0.410E+00 -.575E+03   0.753E-01 -.447E+00 0.576E+03   -.598E-02 0.336E-01 -.242E+00   -.386E-05 0.496E-04 -.163E-01
   0.499E-01 0.120E-01 -.575E+03   -.431E-01 -.121E-01 0.575E+03   -.457E-02 0.197E-03 -.213E+00   -.136E-05 -.213E-05 -.163E-01
   0.506E-01 0.205E-01 -.171E+04   -.545E-01 -.143E-01 0.170E+04   0.370E-02 -.378E-02 0.567E+01   -.809E-05 -.132E-05 0.821E-01
   0.396E+00 0.300E+00 -.171E+04   -.356E+00 -.261E+00 0.170E+04   -.333E-01 -.269E-01 0.571E+01   0.147E-04 0.234E-04 0.822E-01
   -.882E-02 -.372E-01 0.172E+04   0.908E-02 0.376E-01 -.171E+04   -.187E-03 -.373E-03 -.678E+01   0.882E-06 -.510E-05 -.155E+00
   0.439E-01 -.143E-02 0.172E+04   -.447E-01 0.129E-02 -.171E+04   0.553E-03 0.212E-05 -.678E+01   -.317E-05 -.490E-06 -.155E+00
   -.503E-01 -.425E-02 0.567E+03   0.534E-01 0.134E-02 -.567E+03   -.197E-02 0.159E-02 0.484E+00   -.137E-05 0.310E-05 -.107E+00
   0.164E+00 -.164E+00 0.567E+03   -.168E+00 0.162E+00 -.567E+03   0.191E-02 0.119E-02 0.455E+00   0.101E-04 -.146E-04 -.107E+00
   -.623E-01 -.437E+00 -.575E+03   0.710E-01 0.475E+00 0.576E+03   -.602E-02 -.334E-01 -.250E+00   -.365E-05 -.542E-04 -.163E-01
   0.510E+00 -.745E-02 -.575E+03   -.560E+00 0.824E-02 0.576E+03   0.415E-01 -.314E-03 -.279E+00   0.499E-04 -.748E-05 -.163E-01
   -.393E+00 0.623E-01 -.171E+04   0.416E+00 -.553E-01 0.170E+04   -.410E-02 -.536E-02 0.584E+01   -.147E-05 -.126E-04 0.829E-01
   0.426E+00 -.316E+00 -.171E+04   -.384E+00 0.280E+00 0.170E+04   -.358E-01 0.274E-01 0.571E+01   0.163E-04 -.119E-04 0.822E-01
   0.270E-01 0.132E-01 0.425E+03   -.260E-01 -.131E-01 -.425E+03   -.102E-02 -.408E-02 -.147E+00   0.292E-05 0.445E-05 -.832E-01
   -.471E-01 -.119E-02 0.425E+03   0.519E-01 0.475E-02 -.425E+03   -.545E-02 -.825E-02 -.152E+00   -.502E-05 0.949E-05 -.831E-01
   0.532E-02 0.128E-02 0.129E+04   -.550E-02 -.118E-02 -.130E+04   0.367E-03 0.466E-03 0.300E+01   0.125E-05 0.917E-05 -.119E+00
   -.254E-01 0.201E-01 0.129E+04   0.259E-01 -.200E-01 -.130E+04   -.439E-03 0.445E-03 0.300E+01   -.232E-05 -.494E-05 -.119E+00
   0.451E-01 -.103E+00 -.130E+04   -.633E-01 0.112E+00 0.130E+04   0.207E-01 -.325E-02 -.456E+01   -.335E-05 -.816E-05 0.620E-01
   -.957E-01 0.431E-03 -.130E+04   0.118E+00 -.274E-02 0.130E+04   -.212E-01 0.704E-02 -.457E+01   0.163E-04 0.997E-05 0.620E-01
   -.245E-03 0.157E-02 -.426E+03   -.211E-03 0.280E-03 0.426E+03   0.117E-02 -.242E-02 0.202E+00   -.433E-05 0.391E-05 -.171E-01
   -.225E+00 0.842E-01 -.426E+03   0.229E+00 -.837E-01 0.426E+03   -.295E-02 -.458E-02 0.241E+00   -.778E-05 0.180E-04 -.172E-01
   0.264E-01 -.210E-01 0.425E+03   -.255E-01 0.270E-01 -.425E+03   -.987E-03 -.112E-01 -.148E+00   0.459E-05 -.828E-05 -.832E-01
   -.166E+00 -.944E-02 0.425E+03   0.157E+00 0.128E-01 -.425E+03   0.106E-01 -.792E-02 -.156E+00   -.950E-05 -.373E-05 -.832E-01
   0.760E-02 -.113E-02 0.129E+04   -.806E-02 0.121E-02 -.130E+04   0.690E-03 0.524E-03 0.300E+01   0.120E-04 -.724E-05 -.119E+00
   -.262E-01 -.199E-01 0.129E+04   0.266E-01 0.199E-01 -.130E+04   -.364E-03 0.524E-03 0.300E+01   0.174E-05 0.824E-06 -.119E+00
   0.371E-01 0.102E+00 -.130E+04   -.541E-01 -.114E+00 0.130E+04   0.243E-01 0.160E-01 -.456E+01   -.156E-05 0.128E-04 0.621E-01
   -.739E+00 0.238E-01 -.130E+04   0.720E+00 -.259E-01 0.130E+04   0.479E-01 0.486E-02 -.442E+01   -.436E-04 -.112E-04 0.618E-01
   0.149E+00 -.165E-01 -.425E+03   -.155E+00 0.166E-01 0.425E+03   0.631E-02 -.421E-03 0.255E+00   -.947E-05 -.242E-05 -.172E-01
   -.246E+00 -.866E-01 -.426E+03   0.249E+00 0.853E-01 0.426E+03   -.300E-02 0.416E-02 0.241E+00   -.389E-05 -.137E-04 -.171E-01
   -.315E-01 0.130E+00 0.425E+03   0.330E-01 -.115E+00 -.425E+03   -.157E-02 -.208E-01 -.157E+00   0.211E-05 0.947E-05 -.832E-01
   0.453E-01 -.111E-02 0.425E+03   -.477E-01 0.481E-02 -.425E+03   0.313E-02 -.840E-02 -.154E+00   0.256E-05 0.898E-05 -.832E-01
   -.530E-02 0.700E-03 0.129E+04   0.555E-02 -.621E-03 -.130E+04   -.155E-03 0.491E-03 0.300E+01   0.186E-05 0.115E-04 -.119E+00
   0.256E-01 0.224E-01 0.129E+04   -.260E-01 -.225E-01 -.130E+04   0.643E-03 0.753E-03 0.300E+01   -.385E-05 -.347E-05 -.119E+00
   0.214E-01 0.664E+00 -.130E+04   -.122E-01 -.631E+00 0.130E+04   -.133E-01 -.652E-01 -.447E+01   -.572E-05 0.572E-04 0.620E-01
   0.804E-01 0.264E-02 -.130E+04   -.100E+00 -.508E-02 0.130E+04   0.199E-01 0.853E-02 -.458E+01   -.158E-04 0.951E-05 0.621E-01
   -.756E-02 0.125E-01 -.426E+03   0.703E-02 -.147E-01 0.425E+03   -.150E-03 0.154E-02 0.250E+00   0.132E-05 0.985E-05 -.172E-01
   0.222E+00 0.216E+00 -.426E+03   -.227E+00 -.221E+00 0.426E+03   0.363E-02 0.133E-02 0.231E+00   0.138E-04 0.161E-04 -.171E-01
   -.307E-01 -.146E+00 0.425E+03   0.321E-01 0.140E+00 -.425E+03   -.143E-02 0.278E-02 -.156E+00   0.113E-05 -.159E-04 -.832E-01
   0.164E+00 -.104E-01 0.425E+03   -.154E+00 0.139E-01 -.424E+03   -.118E-01 -.815E-02 -.162E+00   0.952E-05 -.322E-05 -.832E-01
   -.760E-02 -.260E-03 0.129E+04   0.810E-02 0.432E-03 -.130E+04   -.436E-03 0.399E-03 0.300E+01   -.637E-05 -.855E-05 -.119E+00
   0.263E-01 -.222E-01 0.129E+04   -.267E-01 0.225E-01 -.130E+04   0.569E-03 0.207E-03 0.300E+01   -.263E-05 -.345E-05 -.119E+00
   0.246E-01 -.703E+00 -.130E+04   -.145E-01 0.662E+00 0.130E+04   -.143E-01 0.720E-01 -.446E+01   -.821E-05 -.554E-04 0.620E-01
   0.582E+00 0.241E-01 -.130E+04   -.551E+00 -.269E-01 0.130E+04   -.525E-01 0.357E-02 -.446E+01   0.543E-04 -.917E-05 0.620E-01
   -.133E+00 0.219E-01 -.429E+03   0.140E+00 -.257E-01 0.428E+03   -.872E-02 0.276E-02 0.524E-01   0.280E-05 -.176E-05 -.170E-01
   0.243E+00 -.215E+00 -.426E+03   -.248E+00 0.218E+00 0.426E+03   0.390E-02 -.630E-03 0.231E+00   0.150E-04 -.155E-04 -.171E-01
   0.124E-01 0.245E-02 0.237E+02   -.710E-12 0.260E-12 -.676E-11   -.281E-02 -.131E-01 -.183E+02   0.859E-05 -.306E-04 -.283E+01

 POSITION                                       TOTAL-FORCE (eV/Angst)
      0.00006      6.33100      3.21881        -0.000157      0.000337      0.556140
      2.11031      0.00026      3.21881        -0.000045      0.000295      0.556402
      0.00006      0.00026      5.32906        -0.000753     -0.000658      0.045634
      2.11031      6.33100      5.32906         0.000535     -0.000726      0.045276
      8.44079      6.33043      7.45377        -0.001728      0.003878      0.052562
      2.11013      8.44068      7.45400        -0.001430      0.000165      0.054059
      8.44092      8.44023      9.55992        -0.000836      0.001256     -0.134600
      2.10918      6.32944      9.55744         0.000213      0.024678     -0.127907
      0.00006      2.11051      3.21881        -0.000157      0.000265      0.556171
      2.11031      4.22076      3.21881         0.000114      0.000304      0.556223
      0.00006      4.22076      5.32906        -0.001260     -0.000659      0.046498
      2.11031      2.11051      5.32906         0.000427     -0.000826      0.045185
      8.44079      2.11008      7.45371        -0.001597     -0.004282      0.052764
      2.11132      4.22019      7.45511         0.002713      0.000273      0.036067
      0.00123      4.21985      9.55595        -0.021417      0.000197     -0.114617
      2.10914      2.11002      9.55733         0.000229     -0.022695     -0.127984
      4.22056      6.33100      3.21881         0.000009      0.000174      0.556464
      6.33080      0.00026      3.21881        -0.000101      0.000293      0.556507
      4.22056      0.00026      5.32906        -0.000067     -0.001139      0.047997
      6.33080      6.33100      5.32906        -0.001444     -0.001428      0.046699
      4.22042      6.32918      7.45497         0.001766      0.001154      0.050823
      6.33062      8.44066      7.45415         0.001437      0.000246      0.054035
      4.22017      8.44011      9.55647        -0.000078      0.001316     -0.108247
      6.33110      6.33010      9.55826         0.002356      0.008197     -0.128099
      4.22056      2.11051      3.21881         0.000009      0.000406      0.556394
      6.33080      4.22076      3.21881        -0.000248      0.000302      0.556677
      4.22056      4.22076      5.32906         0.000737     -0.000898      0.050162
      6.33080      2.11051      5.32906        -0.001283     -0.000215      0.046615
      4.22043      2.11094      7.45496         0.001687      0.000919      0.050537
      6.32956      4.22016      7.45556        -0.003376      0.000529      0.046154
      4.21917      4.21964      9.57246         0.017382      0.001034     -0.248357
      6.33123      2.10931      9.55811         0.001737     -0.005905     -0.127947
      0.00006      6.33100      5.32906        -0.000370     -0.002985      0.041635
      2.11031      0.00026      5.32906        -0.001872     -0.004515      0.040955
      0.00006      0.00026      3.21881         0.000084      0.000590     -0.453185
      2.11031      6.33100      3.21881        -0.000169      0.000555     -0.453176
      8.44051      6.32978      9.60579         0.006579      0.003558     -0.137143
      2.10979      8.44024      9.60586        -0.002782      0.004510     -0.139294
      8.44074      8.44072      7.44906         0.001070     -0.000627      0.019247
      2.10995      6.33108      7.44854        -0.000019     -0.005306      0.022189
      0.00006      2.11051      5.32906        -0.000358     -0.005662      0.041298
      2.11031      4.22076      5.32906         0.003338     -0.004378      0.045627
      0.00006      4.22076      3.21881         0.000195      0.000614     -0.453219
      2.11031      2.11051      3.21881        -0.000141      0.000618     -0.453167
      8.44053      2.10979      9.60563         0.010378      0.005662     -0.136755
      2.10787      4.21974      9.60038         0.037108      0.002790     -0.085543
      8.44074      4.22024      7.44750         0.002392     -0.000008      0.026227
      2.10988      2.10931      7.44846         0.000588      0.004835      0.022131
      4.22056      6.33100      5.32906        -0.000477     -0.008385      0.044495
      6.33080      0.00026      5.32906         0.001078     -0.004557      0.040957
      4.22056      0.00026      3.21881        -0.000085      0.000601     -0.453335
      6.33080      6.33100      3.21881         0.000157      0.000658     -0.453323
      4.22041      6.33259      9.60494        -0.006721     -0.043503     -0.110473
      6.33080      8.44022      9.60644         0.003184      0.005630     -0.147784
      4.22046      8.44054      7.44788        -0.000816      0.000186      0.024862
      6.33078      6.33100      7.44892        -0.000335     -0.003571      0.019937
      4.22056      2.11051      5.32906        -0.000434     -0.001028      0.044727
      6.33080      4.22076      5.32906        -0.003775     -0.004446      0.045399
      4.22056      4.22076      3.21881        -0.000183      0.000564     -0.453569
      6.33080      2.11051      3.21881         0.000129      0.000512     -0.453322
      4.22047      2.10650      9.60436        -0.007091      0.045938     -0.108296
      6.33249      4.21973      9.60317        -0.031580      0.001324     -0.103120
      4.22062      4.22016      7.45169        -0.003585     -0.000258     -0.009087
      6.33087      2.10935      7.44884        -0.000863      0.003297      0.019816
    total drift:                                0.006829     -0.009429     -0.509724

  FREE ENERGIE OF THE ION-ELECTRON SYSTEM (eV)
  free  energy   TOTEN  =      -467.39431093 eV

  energy  without entropy=     -467.39431093  energy(sigma->0) =     -467.39431093