 vasp.6.3.0 20Jan22 (build Apr  1 2022 16:44:48) complex
 executed on        HPECrayEX_GCC date 2022.11.13  15:39:19

 INCAR:
   SYSTEM = MgO-rocksalt
   ISMEAR = 0
   SIGMA = 0.05
   EDIFF = 1E-6
   ALGO = ALL
   ISTART = 0
   IBRION = -1
   NSW = 0
   ISYM = 0
   DIPOL = 0.5 0.5 0.5
   IDIPOL = 3
   LDIPOL = .TRUE.
   LHFCALC = .TRUE.
   GGA = B5
   AEXX = 0.2
   AGGAX = 0.72
   AGGAC = 0.81
   ALDAC = 0.19
   IVDW = 1
   VDW_S6 = 1.05
   VDW_C6 = 1.23 0.70 0.63 0.70
   VDW_R0 = 1.397 1.342 1.243 1.342
   ENCUT = 600
   PREC = Accurate
   LASPH = .TRUE.
   LREAL = .FALSE.
   ISPIN = 2
   MAGMOM = 1.0 0.0 0.0 0.0 0.0 0.0 0.0 0.0 0.0 0.0 0.0 0.0 0.0 0.0 0.0 0.0 0.0 0.0 0.0 0.0 0.0 0.0 0.0 0.0 0.0 0.0 0.0 0.0 0.0 0.0 0.0 0.0 0.0 0.0 0.0 0.0 0.0 0.0 0.0 0.0 0.0 0.0 0.0 0.0 0.0 0.0 0.0 0.0 0.0 0.0 0.0 0.0 0.0 0.0 0.0 0.0 0.0 0.0 0.0 0.0 0.0 0.0 0.0 0.0 0.0 0.0
   NELM = 200
   NELMIN = 8
   NCORE = 8
   KPAR = 1
   LWAVE = .FALSE.
   LCHARG = .FALSE.

 POTCAR:    PAW_PBE N 08Apr2002
 POTCAR:    PAW_PBE O 08Apr2002
 POTCAR:    PAW_PBE Mg_pv 13Apr2007
 POTCAR:    PAW_PBE O 08Apr2002
 POTCAR:    PAW_PBE N 08Apr2002
   VRHFIN =N: s2p3

   TITEL  = PAW_PBE N 08Apr2002
   POMASS =   14.001; ZVAL   =    5.000    mass and valenz
   ENMAX  =  400.000; ENMIN  =  300.000 eV

[...]

   TITEL  = PAW_PBE Mg_pv 13Apr2007
   POMASS =   24.305; ZVAL   =    8.000    mass and valenz
   ENMAX  =  403.929; ENMIN  =  302.947 eV

   TITEL  = PAW_PBE O 08Apr2002
   POMASS =   16.000; ZVAL   =    6.000    mass and valenz
   ENMAX  =  400.000; ENMIN  =  300.000 eV

  PAW_PBE N 08Apr2002                   :
  PAW_PBE O 08Apr2002                   :
  PAW_PBE Mg_pv 13Apr2007               :
  PAW_PBE O 08Apr2002                   :

 POSCAR:  N  O Mg  O
  positions in direct lattice
 exchange correlation table for  LEXCH =       12
   RHO(1)=    0.500       N(1)  =     2000
   RHO(2)=  100.500       N(2)  =     4000

 ion  position               nearest neighbor table
   1  0.506  0.507  0.768-   2 1.18
   2  0.435  0.439  0.806-   1 1.18
   3  0.000  0.750  0.350-  35 2.14  37 2.14  38 2.14  45 2.14  54 2.14
   4  0.250  0.000  0.350-  36 2.14  37 2.14  38 2.14  46 2.14  53 2.14
   5  0.000  0.000  0.450-  37 2.14  36 2.14  35 2.14  43 2.14  52 2.14  41 2.14
   6  0.250  0.750  0.450-  38 2.14  36 2.14  35 2.14  44 2.14  51 2.14  42 2.14
   7  1.000  0.750  0.550-  58 2.14  49 2.14  41 2.14  42 2.14  35 2.14  39 2.16
   8  0.250  0.000  0.550-  57 2.14  50 2.14  42 2.14  41 2.14  36 2.14  40 2.16
   9  1.000  1.000  0.649-  41 2.13  47 2.13  39 2.14  56 2.14  40 2.14
  10  0.249  0.750  0.649-  42 2.12  39 2.13  40 2.13  48 2.14  55 2.14
  11  0.000  0.250  0.350-  43 2.14  37 2.14  45 2.14  46 2.14  62 2.14
  12  0.250  0.500  0.350-  44 2.14  38 2.14  45 2.14  46 2.14  61 2.14
  13  0.000  0.500  0.450-  45 2.14  43 2.14  44 2.14  35 2.14  60 2.14  49 2.14
  14  0.250  0.250  0.450-  46 2.14  43 2.14  44 2.14  36 2.14  59 2.14  50 2.14
  15  1.000  0.250  0.550-  49 2.14  66 2.14  50 2.14  41 2.14  43 2.14  47 2.16
  16  0.250  0.500  0.550-  65 2.13  50 2.14  42 2.14  49 2.14  44 2.15  48 2.16
  17  1.000  0.500  0.649-  49 2.13  48 2.13  64 2.13  47 2.14  39 2.14
  18  0.250  0.250  0.649-  50 2.13  47 2.13  40 2.13  48 2.14  63 2.14
  19  0.500  0.750  0.350-  51 2.14  38 2.14  53 2.14  54 2.14  61 2.14
  20  0.750  0.000  0.350-  52 2.14  37 2.14  53 2.14  54 2.14  62 2.14
  21  0.500  0.000  0.450-  53 2.14  51 2.14  52 2.14  36 2.14  59 2.14  57 2.14
  22  0.750  0.750  0.450-  54 2.14  51 2.14  52 2.14  35 2.14  60 2.14  58 2.14
  23  0.500  0.750  0.550-  65 2.13  58 2.14  42 2.14  57 2.14  51 2.15  55 2.16
  24  0.750  1.000  0.550-  57 2.14  58 2.14  66 2.14  41 2.14  52 2.14  56 2.16
  25  0.500  0.000  0.649-  57 2.13  63 2.13  55 2.13  40 2.14  56 2.14
  26  0.750  0.750  0.649-  58 2.13  39 2.13  56 2.13  64 2.14  55 2.14
  27  0.500  0.250  0.350-  59 2.14  53 2.14  46 2.14  61 2.14  62 2.14
  28  0.750  0.500  0.350-  60 2.14  54 2.14  45 2.14  61 2.14  62 2.14
  29  0.500  0.500  0.450-  61 2.14  51 2.14  59 2.14  60 2.14  44 2.14  65 2.15
  30  0.750  0.250  0.450-  62 2.14  52 2.14  59 2.14  60 2.14  43 2.14  66 2.14
  31  0.500  0.250  0.550-  65 2.13  50 2.14  66 2.14  57 2.14  59 2.15  63 2.16
  32  0.749  0.500  0.550-  65 2.13  58 2.14  66 2.14  49 2.14  60 2.15  64 2.16
  33  0.500  0.500  0.651-  63 2.14  55 2.14  64 2.14  48 2.14  65 2.16
  34  0.750  0.250  0.649-  66 2.12  56 2.13  47 2.13  64 2.14  63 2.14
  35  0.000  0.750  0.450-   3 2.14   5 2.14   6 2.14  13 2.14  22 2.14   7 2.14
  36  0.250  0.000  0.450-   4 2.14   5 2.14   6 2.14  14 2.14  21 2.14   8 2.14
  37  0.000  0.000  0.350-   5 2.14   4 2.14   3 2.14  11 2.14  20 2.14
  38  0.250  0.750  0.350-   6 2.14   4 2.14   3 2.14  12 2.14  19 2.14
  39  1.000  0.750  0.651-  10 2.13  26 2.13   9 2.14  17 2.14   7 2.16
  40  0.250  1.000  0.651-  10 2.13  18 2.13   9 2.14  25 2.14   8 2.16
  41  1.000  1.000  0.550-   9 2.13   7 2.14  15 2.14  24 2.14   8 2.14   5 2.14
  42  0.250  0.750  0.550-  10 2.12   8 2.14  23 2.14  16 2.14   7 2.14   6 2.14
  43  0.000  0.250  0.450-  11 2.14   5 2.14  13 2.14  14 2.14  30 2.14  15 2.14
  44  0.250  0.500  0.450-  12 2.14   6 2.14  13 2.14  14 2.14  29 2.14  16 2.15
  45  0.000  0.500  0.350-  13 2.14  11 2.14  12 2.14   3 2.14  28 2.14
  46  0.250  0.250  0.350-  14 2.14  11 2.14  12 2.14   4 2.14  27 2.14
  47  1.000  0.250  0.651-  34 2.13  18 2.13   9 2.13  17 2.14  15 2.16
  48  0.249  0.500  0.651-  17 2.13  10 2.14  18 2.14  33 2.14  16 2.16
  49  1.000  0.500  0.550-  17 2.13   7 2.14  15 2.14  13 2.14  32 2.14  16 2.14
  50  0.250  0.250  0.550-  18 2.13   8 2.14  31 2.14  15 2.14  16 2.14  14 2.14
  51  0.500  0.750  0.450-  19 2.14   6 2.14  21 2.14  22 2.14  29 2.14  23 2.15
  52  0.750  0.000  0.450-  20 2.14   5 2.14  21 2.14  22 2.14  30 2.14  24 2.14
  53  0.500  0.000  0.350-  21 2.14  19 2.14  20 2.14   4 2.14  27 2.14
  54  0.750  0.750  0.350-  22 2.14  19 2.14  20 2.14   3 2.14  28 2.14
  55  0.500  0.751  0.651-  25 2.13  10 2.14  26 2.14  33 2.14  23 2.16
  56  0.750  1.000  0.651-  34 2.13  26 2.13   9 2.14  25 2.14  24 2.16
  57  0.500  1.000  0.550-  25 2.13  24 2.14   8 2.14  21 2.14  23 2.14  31 2.14
  58  0.750  0.750  0.550-  26 2.13   7 2.14  32 2.14  24 2.14  23 2.14  22 2.14
  59  0.500  0.250  0.450-  27 2.14  21 2.14  14 2.14  29 2.14  30 2.14  31 2.15
  60  0.750  0.500  0.450-  28 2.14  22 2.14  13 2.14  29 2.14  30 2.14  32 2.15
  61  0.500  0.500  0.350-  29 2.14  19 2.14  27 2.14  28 2.14  12 2.14
  62  0.750  0.250  0.350-  30 2.14  20 2.14  27 2.14  28 2.14  11 2.14
  63  0.500  0.249  0.651-  25 2.13  34 2.14  18 2.14  33 2.14  31 2.16
  64  0.751  0.500  0.651-  17 2.13  34 2.14  26 2.14  33 2.14  32 2.16
  65  0.500  0.500  0.550-  23 2.13  32 2.13  16 2.13  31 2.13  29 2.15  33 2.16
  66  0.750  0.250  0.550-  34 2.12  15 2.14  24 2.14  32 2.14  31 2.14  30 2.14

IMPORTANT INFORMATION: All symmetrisations will be switched off!
NOSYMM: (Re-)initialisation of all symmetry stuff for point group C_1.

                                     Primitive cell

  volume of cell :    1563.6717

  direct lattice vectors                    reciprocal lattice vectors
     8.546113626  0.000000000  0.000000000     0.117012252  0.000000000  0.000000000
     0.000000000  8.546113626  0.000000000     0.000000000  0.117012252  0.000000000
     0.000000000  0.000000000 21.409585219     0.000000000  0.000000000  0.046708051

  length of vectors
     8.546113626  8.546113626 21.409585219     0.117012252  0.117012252  0.046708051

  position of ions in fractional coordinates (direct lattice)
     0.505504930  0.506535341  0.767802462
     0.434629167  0.438792042  0.806358039
     0.000000000  0.750000000  0.350310383
     0.250000000  0.000000000  0.350310383
     0.000000000  0.000000000  0.450103461
     0.250000000  0.750000000  0.450103461
     0.999777631  0.749910594  0.550283253
     0.249971119  0.000015227  0.550274028
     0.999781575  0.999971220  0.649411925
     0.249338808  0.750308740  0.649151796
     0.000000000  0.250000000  0.350310383
     0.250000000  0.500000000  0.350310383
     0.000000000  0.500000000  0.450103461
     0.250000000  0.250000000  0.450103461
     0.999918261  0.250019997  0.550266638
     0.250331750  0.499981938  0.550472612
     0.999874310  0.499904983  0.649357970
     0.249507856  0.249699583  0.649332594
     0.500000000  0.750000000  0.350310383
     0.750000000  0.000000000  0.350310383
     0.500000000  0.000000000  0.450103461
     0.750000000  0.750000000  0.450103461
     0.499865941  0.749506971  0.550408366
     0.749730659  0.999876518  0.550280291
     0.499754707  0.000038043  0.649383043
     0.750089024  0.750175859  0.649481259
     0.500000000  0.250000000  0.350310383
     0.750000000  0.500000000  0.350310383
     0.500000000  0.500000000  0.450103461
     0.750000000  0.250000000  0.450103461
     0.499870241  0.250421669  0.550468042
     0.749438637  0.499963660  0.550419049
     0.499865062  0.499973559  0.651442911
     0.750184658  0.249550051  0.649151018
     0.000000000  0.750000000  0.450103461
     0.250000000  0.000000000  0.450103461
     0.000000000  0.000000000  0.350310383
     0.250000000  0.750000000  0.350310383
     0.999773682  0.750136884  0.651302257
     0.249648559  0.999963139  0.651253398
     0.999842006  0.999954318  0.549997255
     0.249844454  0.750015334  0.550031584
     0.000000000  0.250000000  0.450103461
     0.250000000  0.500000000  0.450103461
     0.000000000  0.500000000  0.350310383
     0.250000000  0.250000000  0.350310383
     0.999826544  0.249729415  0.651288610
     0.248890369  0.500093390  0.651287636
     0.999837750  0.499965699  0.550000320
     0.249905354  0.249977895  0.550069543
     0.500000000  0.750000000  0.450103461
     0.750000000  0.000000000  0.450103461
     0.500000000  0.000000000  0.350310383
     0.750000000  0.750000000  0.350310383
     0.499554904  0.750885787  0.651315072
     0.749945215  0.999913163  0.651288673
     0.499863593  0.999930419  0.550029609
     0.749837440  0.749916541  0.550107237
     0.500000000  0.250000000  0.450103461
     0.750000000  0.500000000  0.450103461
     0.500000000  0.500000000  0.350310383
     0.750000000  0.250000000  0.350310383
     0.499941187  0.249072422  0.651335826
     0.750813191  0.499700454  0.651221304
     0.499893836  0.499992585  0.550403206
     0.749932780  0.249919384  0.550024179

  ion indices of the primitive-cell ions
   primitive index   ion index
                 1           1
                 2           2
                 3           3
                 4           4
                 5           5
                 6           6
                 7           7
                 8           8
                 9           9
                10          10
                11          11
                12          12
                13          13
                14          14
                15          15
                16          16
                17          17
                18          18
                19          19
                20          20
[...]
   0.49986359  0.99993042  0.55002961
   0.74983744  0.74991654  0.55010724
   0.50000000  0.25000000  0.45010346
   0.75000000  0.50000000  0.45010346
   0.50000000  0.50000000  0.35031038
   0.75000000  0.25000000  0.35031038
   0.49994119  0.24907242  0.65133583
   0.75081319  0.49970045  0.65122130
   0.49989384  0.49999259  0.55040321
   0.74993278  0.24991938  0.55002418

 position of ions in cartesian coordinates  (Angst):
   4.32010257  4.32890858 16.43833225
   3.71439025  3.74996665 17.26379116
   0.00000000  6.40958522  7.50000000
   2.13652841  0.00000000  7.50000000
   0.00000000  0.00000000  9.63652841
   2.13652841  6.40958522  9.63652841
   8.54421324  6.40882114 11.78133620
   2.13628159  0.00013013 11.78113870
   8.54424694  8.54586767 13.90363995
   2.13087778  6.41222374 13.89807069
   0.00000000  2.13652841  7.50000000
   2.13652841  4.27305681  7.50000000
   0.00000000  4.27305681  9.63652841
   2.13652841  2.13652841  9.63652841
   8.54541507  2.13669931 11.78098048
   2.13936358  4.27290245 11.78539029
   8.54503947  4.27224479 13.90248480
   2.13232249  2.13396101 13.90194150
   4.27305681  6.40958522  7.50000000
   6.40958522  0.00000000  7.50000000
   4.27305681  0.00000000  9.63652841
   6.40958522  6.40958522  9.63652841
   4.27191113  6.40537174 11.78401482
   6.40728340  8.54505833 11.78127278
   4.27096051  0.00032512 13.90302159
   6.41034603  6.41108813 13.90512437
   4.27305681  2.13652841  7.50000000
   6.40958522  4.27305681  7.50000000
   4.27305681  4.27305681  9.63652841
   6.40958522  2.13652841  9.63652841
   4.27194788  2.14013204 11.78529246
   6.40478774  4.27274625 11.78424354
   4.27190362  4.27283085 13.94712252
   6.41116333  2.13268310 13.89805405
   0.00000000  6.40958522  9.63652841
   2.13652841  0.00000000  9.63652841
   0.00000000  0.00000000  7.50000000
   2.13652841  6.40958522  7.50000000
   8.54417949  6.41075504 13.94411117
   2.13352495  8.54579861 13.94306512
   8.54476339  8.54572322 11.77521310
   2.13519910  6.40971626 11.77594808
   0.00000000  2.13652841  9.63652841
   2.13652841  4.27305681  9.63652841
   0.00000000  4.27305681  7.50000000
   2.13652841  2.13652841  7.50000000
   8.54463125  2.13421595 13.94381900
   2.12704537  4.27385493 13.94379815
   8.54472702  4.27276368 11.77527872
   2.13571955  2.13633950 11.77676076
   4.27305681  6.40958522  9.63652841
   6.40958522  0.00000000  9.63652841
   4.27305681  0.00000000  7.50000000
   6.40958522  6.40958522  7.50000000
   4.26925297  6.41715526 13.94438555
   6.40911702  8.54537151 13.94382034
   4.27189106  8.54551898 11.77590578
   6.40819597  6.40887197 11.77756778
   4.27305681  2.13652841  9.63652841
   6.40958522  4.27305681  9.63652841
   4.27305681  4.27305681  7.50000000
   6.40958522  2.13652841  7.50000000
   4.27255419  2.12860122 13.94482987
   6.41653485  4.27049686 13.94237800
   4.27214953  4.27299344 11.78390434
   6.40901075  2.13583945 11.77578954

--------------------------------------- Iteration      FINAL  ---------------------------------------

--------------------OUTCAR has been truncated-------------------------

[...]

--------------------OUTCAR has been truncated-------------------------

  DFT-D2 method for vdW energy calculation

  Parameters of vdW forcefield:
         C6(Jnm^6/mol)     R0(A)
   N        1.230          1.397
   O        0.700          1.342
   Mg       0.630          1.243
   O        0.700          1.342

  vdW correction parametrized for the method        üÒ5

  IVDW =   1
  VDW_RADIUS =    50.000 A
  VDW_S6 =     1.050
  VDW_SR =     1.000
  VDW_D =    20.000
  LVDW_EWALD = F

  Number of pair interactions contributing to vdW energy:  749116
  Edisp (eV):   -4.92614

 VOLUME and BASIS-vectors are now :
  energy-cutoff  :      600.00
  volume of cell :     1563.67
      direct lattice vectors                 reciprocal lattice vectors
     8.546113626  0.000000000  0.000000000     0.117012252  0.000000000  0.000000000
     0.000000000  8.546113626  0.000000000     0.000000000  0.117012252  0.000000000
     0.000000000  0.000000000 21.409585219     0.000000000  0.000000000  0.046708051

  length of vectors
     8.546113626  8.546113626 21.409585219     0.117012252  0.117012252  0.046708051

 FORCES acting on ions:
    Electron-Ion                     Ewald-Force                    Non-Local-Force
   -.137E+03 -.131E+03 -.110E+04   0.159E+03 0.152E+03 0.107E+04   -.212E+02 -.203E+02 0.275E+02
   0.129E+03 0.123E+03 -.147E+04   -.159E+03 -.152E+03 0.151E+04   0.280E+02 0.267E+02 -.380E+02
   0.404E-01 -.153E+00 0.202E+04   -.408E-01 0.152E+00 -.201E+04   0.226E-03 0.927E-03 -.633E+01
   0.149E+00 0.325E-01 0.202E+04   -.148E+00 -.321E-01 -.201E+04   -.381E-03 -.326E-03 -.633E+01
   0.132E+00 0.146E+00 0.699E+03   -.140E+00 -.150E+00 -.699E+03   0.474E-02 0.217E-02 0.384E+00
   0.671E+00 -.644E+00 0.700E+03   -.672E+00 0.629E+00 -.700E+03   0.619E-03 0.967E-02 0.400E+00
   0.749E+00 -.321E+01 -.617E+03   -.770E+00 0.318E+01 0.617E+03   0.182E-01 0.237E-01 -.176E+00
   0.335E+01 0.603E+00 -.615E+03   -.330E+01 -.606E+00 0.616E+03   -.370E-01 0.697E-03 -.191E+00
   0.188E+01 0.185E+01 -.195E+04   -.188E+01 -.184E+01 0.194E+04   0.846E-03 -.104E-01 0.557E+01
   0.199E+02 -.221E+02 -.192E+04   -.199E+02 0.222E+02 0.191E+04   0.746E-01 -.958E-01 0.564E+01
   0.331E-01 0.153E+00 0.202E+04   -.329E-01 -.152E+00 -.201E+04   -.193E-03 -.838E-03 -.633E+01
   0.171E+00 -.325E-01 0.202E+04   -.169E+00 0.320E-01 -.201E+04   -.150E-02 0.346E-03 -.634E+01
   0.843E-01 -.158E+00 0.700E+03   -.853E-01 0.158E+00 -.700E+03   0.561E-03 -.248E-03 0.359E+00
   0.625E+00 0.642E+00 0.700E+03   -.615E+00 -.626E+00 -.701E+03   -.643E-02 -.100E-01 0.415E+00
   0.593E+00 0.326E+01 -.615E+03   -.600E+00 -.322E+01 0.616E+03   0.504E-02 -.259E-01 -.173E+00
   0.559E+01 -.633E+00 -.607E+03   -.548E+01 0.634E+00 0.608E+03   -.106E+00 -.819E-04 -.295E+00
   0.433E+01 -.204E+01 -.193E+04   -.436E+01 0.203E+01 0.192E+04   0.210E-01 0.758E-02 0.558E+01
   0.229E+02 0.233E+02 -.191E+04   -.231E+02 -.234E+02 0.191E+04   0.121E+00 0.112E+00 0.563E+01
   -.424E-01 -.176E+00 0.202E+04   0.420E-01 0.173E+00 -.201E+04   0.256E-03 0.208E-02 -.634E+01
   -.149E+00 0.398E-01 0.202E+04   0.148E+00 -.399E-01 -.201E+04   0.788E-03 0.678E-04 -.633E+01
   -.166E+00 0.930E-01 0.700E+03   0.162E+00 -.893E-01 -.700E+03   0.272E-02 -.233E-02 0.372E+00
   -.678E+00 -.689E+00 0.699E+03   0.665E+00 0.675E+00 -.700E+03   0.818E-02 0.873E-02 0.419E+00
   -.909E+00 -.555E+01 -.609E+03   0.924E+00 0.544E+01 0.609E+03   -.109E-01 0.102E+00 -.281E+00
   -.326E+01 0.761E+00 -.617E+03   0.323E+01 -.777E+00 0.617E+03   0.315E-01 0.133E-01 -.184E+00
   -.224E+01 0.406E+01 -.193E+04   0.224E+01 -.410E+01 0.192E+04   0.911E-02 0.158E-01 0.557E+01
   -.193E+02 -.194E+02 -.193E+04   0.194E+02 0.196E+02 0.192E+04   -.114E+00 -.102E+00 0.563E+01
   -.344E-01 0.175E+00 0.202E+04   0.338E-01 -.173E+00 -.201E+04   0.425E-03 -.200E-02 -.634E+01
   -.171E+00 -.406E-01 0.202E+04   0.168E+00 0.404E-01 -.201E+04   0.187E-02 0.173E-03 -.634E+01
   -.133E+00 -.103E+00 0.701E+03   0.124E+00 0.963E-01 -.701E+03   0.540E-02 0.398E-02 0.467E+00
   -.621E+00 0.678E+00 0.700E+03   0.604E+00 -.672E+00 -.700E+03   0.104E-01 -.406E-02 0.397E+00
   -.771E+00 0.560E+01 -.608E+03   0.767E+00 -.549E+01 0.608E+03   0.612E-02 -.108E+00 -.277E+00
   -.539E+01 -.796E+00 -.609E+03   0.529E+01 0.815E+00 0.609E+03   0.914E-01 -.147E-01 -.314E+00
   -.624E+01 -.558E+01 -.184E+04   0.624E+01 0.558E+01 0.183E+04   0.152E-01 0.138E-01 0.467E+01
   -.217E+02 0.199E+02 -.192E+04   0.219E+02 -.200E+02 0.191E+04   -.102E+00 0.638E-01 0.564E+01
   0.111E+00 -.464E+00 0.524E+03   -.980E-01 0.459E+00 -.524E+03   -.156E-01 0.616E-02 -.766E-01
   0.447E+00 0.813E-01 0.524E+03   -.438E+00 -.840E-01 -.524E+03   -.118E-01 0.331E-02 -.717E-01
   0.294E-01 0.290E-01 0.152E+04   -.293E-01 -.291E-01 -.152E+04   -.199E-03 0.455E-04 0.315E+01
   0.122E+00 -.121E+00 0.152E+04   -.121E+00 0.118E+00 -.152E+04   -.181E-02 0.300E-02 0.315E+01
   0.203E+01 -.838E+01 -.147E+04   -.205E+01 0.831E+01 0.148E+04   0.261E-01 0.701E-01 -.438E+01
   0.860E+01 0.245E+01 -.147E+04   -.854E+01 -.246E+01 0.148E+04   -.624E-01 0.993E-02 -.438E+01
   0.442E+00 0.412E+00 -.459E+03   -.449E+00 -.413E+00 0.459E+03   0.800E-02 0.146E-02 0.287E+00
   0.312E+01 -.324E+01 -.453E+03   -.312E+01 0.323E+01 0.453E+03   -.124E-01 0.778E-02 0.370E+00
   0.686E-01 0.461E+00 0.524E+03   -.674E-01 -.453E+00 -.524E+03   -.119E-02 -.105E-01 -.720E-01
   0.613E+00 -.818E-01 0.525E+03   -.632E+00 0.838E-01 -.525E+03   0.222E-01 -.245E-02 -.113E+00
   0.259E-01 -.291E-01 0.152E+04   -.253E-01 0.292E-01 -.152E+04   -.776E-03 -.154E-03 0.315E+01
   0.117E+00 0.121E+00 0.152E+04   -.115E+00 -.118E+00 -.152E+04   -.252E-02 -.298E-02 0.315E+01
   0.266E+01 0.853E+01 -.147E+04   -.268E+01 -.846E+01 0.148E+04   0.141E-01 -.708E-01 -.439E+01
   0.290E+02 -.336E+01 -.143E+04   -.288E+02 0.335E+01 0.144E+04   -.153E+00 0.229E-03 -.427E+01
   0.525E+00 -.444E+00 -.454E+03   -.537E+00 0.447E+00 0.454E+03   0.189E-01 -.226E-02 0.300E+00
   0.327E+01 0.325E+01 -.453E+03   -.326E+01 -.324E+01 0.452E+03   -.734E-02 -.134E-01 0.343E+00
   -.155E+00 -.636E+00 0.525E+03   0.160E+00 0.660E+00 -.525E+03   -.590E-02 -.280E-01 -.982E-01
   -.465E+00 0.124E+00 0.524E+03   0.471E+00 -.114E+00 -.524E+03   -.645E-02 -.112E-01 -.750E-01
   -.293E-01 0.246E-01 0.152E+04   0.296E-01 -.239E-01 -.152E+04   -.339E-03 -.841E-03 0.315E+01
   -.121E+00 -.124E+00 0.152E+04   0.120E+00 0.122E+00 -.152E+04   0.117E-02 0.218E-02 0.315E+01
   -.242E+01 -.280E+02 -.144E+04   0.244E+01 0.278E+02 0.145E+04   -.231E-01 0.136E+00 -.430E+01
   -.829E+01 0.184E+01 -.147E+04   0.822E+01 -.187E+01 0.148E+04   0.746E-01 0.240E-01 -.437E+01
   -.476E+00 0.552E+00 -.455E+03   0.470E+00 -.563E+00 0.454E+03   0.644E-02 0.157E-01 0.291E+00
   -.298E+01 -.310E+01 -.455E+03   0.296E+01 0.307E+01 0.455E+03   0.233E-01 0.278E-01 0.283E+00
   -.102E+00 0.632E+00 0.525E+03   0.109E+00 -.653E+00 -.525E+03   -.874E-02 0.239E-01 -.110E+00
   -.614E+00 -.138E+00 0.525E+03   0.645E+00 0.138E+00 -.525E+03   -.367E-01 -.873E-04 -.104E+00
   -.263E-01 -.246E-01 0.152E+04   0.260E-01 0.240E-01 -.152E+04   0.347E-03 0.739E-03 0.315E+01
   -.116E+00 0.124E+00 0.152E+04   0.115E+00 -.122E+00 -.152E+04   0.226E-02 -.254E-02 0.315E+01
   -.360E+01 0.291E+02 -.143E+04   0.359E+01 -.289E+02 0.144E+04   0.823E-02 -.140E+00 -.427E+01
   -.276E+02 -.216E+01 -.144E+04   0.275E+02 0.219E+01 0.145E+04   0.150E+00 -.296E-01 -.430E+01
   -.660E+00 -.583E+00 -.452E+03   0.666E+00 0.586E+00 0.452E+03   -.716E-02 -.665E-02 -.154E+00
   -.314E+01 0.314E+01 -.453E+03   0.313E+01 -.312E+01 0.453E+03   0.629E-02 -.196E-01 0.371E+00
   -.865E+01 -.821E+01 0.285E+02   0.298E-12 0.746E-13 0.142E-11   0.680E+01 0.645E+01 -.240E+02

 POSITION                                       TOTAL-FORCE (eV/Angst)
      4.32010      4.32891     16.43833        -1.076969     -1.031547      1.492463
      3.71439      3.74997     17.26379         1.073256      1.027580     -1.463619
      0.00000      6.40959      7.50000        -0.000057     -0.000430      0.628339
      2.13653      0.00000      7.50000         0.000239      0.000127      0.627956
      0.00000      0.00000      9.63653        -0.002418     -0.000987      0.014724
      2.13653      6.40959      9.63653        -0.000764     -0.004240      0.017280
      8.54421      6.40882     11.78134        -0.001056     -0.005467     -0.018036
      2.13628      0.00013     11.78114         0.003226     -0.001911     -0.016999
      8.54425      8.54587     13.90364         0.001942     -0.000511     -0.286781
      2.13088      6.41222     13.89807         0.013493      0.002959     -0.289677
      0.00000      2.13653      7.50000         0.000062      0.000414      0.628142
      2.13653      4.27306      7.50000         0.000546     -0.000070      0.630032
      0.00000      4.27306      9.63653        -0.000306      0.000060      0.027461
      2.13653      2.13653      9.63653         0.002757      0.004602      0.015813
      8.54542      2.13670     11.78098        -0.001198      0.005196     -0.017774
      2.13936      4.27290     11.78539        -0.001749      0.000819     -0.012075
      8.54504      4.27224     13.90248        -0.012022      0.000364     -0.290090
      2.13232      2.13396     13.90194         0.001313     -0.001263     -0.289049
      4.27306      6.40959      7.50000        -0.000085     -0.000712      0.628806
      6.40959      0.00000      7.50000        -0.000342     -0.000009      0.628303
      4.27306      0.00000      9.63653        -0.001626      0.001093      0.026012
      6.40959      6.40959      9.63653        -0.004162     -0.004154      0.017216
      4.27191      6.40537     11.78401         0.003223      0.002836      0.006335
      6.40728      8.54506     11.78127         0.000191     -0.001784     -0.015780
      4.27096      0.00033     13.90302         0.001890     -0.014810     -0.289621
      6.41035      6.41109     13.90512        -0.011584     -0.009169     -0.293193
      4.27306      2.13653      7.50000        -0.000098      0.000702      0.629746
      6.40959      4.27306      7.50000        -0.000573     -0.000081      0.629226
      4.27306      4.27306      9.63653        -0.002717     -0.001960      0.025286
      6.40959      2.13653      9.63653        -0.004818      0.001522      0.017392
      4.27195      2.14013     11.78529         0.002408     -0.000421     -0.010990
      6.40479      4.27275     11.78424         0.003793      0.002319      0.002495
      4.27190      4.27283     13.94712         0.012779      0.014136     -0.373727
      6.41116      2.13268     13.89805         0.003130      0.008938     -0.289556
      0.00000      6.40959      9.63653        -0.004602      0.002114      0.031731
      2.13653      0.00000      9.63653        -0.003781      0.001102      0.032449
      0.00000      0.00000      7.50000        -0.000054      0.000015     -0.274611
      2.13653      6.40959      7.50000        -0.000591      0.001005     -0.275112
      8.54418      6.41076     13.94411         0.004756      0.007158     -0.133934
      2.13352      8.54580     13.94307        -0.009980      0.005628     -0.132167
      8.54476      8.54572     11.77521         0.003024      0.001047      0.027526
      2.13520      6.40972     11.77595        -0.005361      0.000980      0.022425
      0.00000      2.13653      9.63653        -0.000090     -0.003406      0.031607
      2.13653      4.27306      9.63653         0.006447     -0.000774      0.037502
      0.00000      4.27306      7.50000        -0.000265     -0.000034     -0.275448
      2.13653      2.13653      7.50000        -0.000809     -0.000979     -0.275263
      8.54463      2.13422     13.94382         0.005750     -0.006757     -0.137032
      2.12705      4.27385     13.94380         0.019112     -0.004173     -0.103051
      8.54473      4.27276     11.77528         0.009113     -0.000480      0.022475
      2.13572      2.13634     11.77676        -0.002064     -0.001828      0.026223
      4.27306      6.40959      9.63653        -0.001538     -0.007952      0.036649
      6.40959      0.00000      9.63653        -0.001513     -0.003423      0.031999
      4.27306      0.00000      7.50000        -0.000095     -0.000280     -0.275120
      6.40959      6.40959      7.50000         0.000409      0.000722     -0.275058
      4.26925      6.41716     13.94439        -0.000716     -0.015805     -0.117334
      6.40912      8.54537     13.94382         0.009694      0.004430     -0.132464
      4.27189      8.54552     11.77591         0.001534      0.006765      0.017692
      6.40820      6.40887     11.77757         0.004127      0.007230      0.017723
      4.27306      2.13653      9.63653        -0.002534      0.006771      0.038316
      6.40959      4.27306      9.63653        -0.010728      0.000113      0.035533
      4.27306      4.27306      7.50000         0.000118      0.000240     -0.276196
      6.40959      2.13653      7.50000         0.000765     -0.000830     -0.275152
      4.27255      2.12860     13.94483        -0.002002      0.020063     -0.104573
      6.41653      4.27050     13.94238        -0.015787     -0.002402     -0.111741
      4.27215      4.27299     11.78390        -0.002972     -0.004044      0.004426
      6.40901      2.13584     11.77579        -0.001069     -0.006355      0.023924
    total drift:                               -0.001676     -0.000755      0.008924

  FREE ENERGIE OF THE ION-ELECTRON SYSTEM (eV)
  free  energy   TOTEN  =      -453.22852627 eV

  energy  without entropy=     -453.22852627  energy(sigma->0) =     -453.22852627