 vasp.6.3.0 20Jan22 (build Mar 11 2022 13:48:16) complex

 executed on             LinuxIFC date 2024.01.22  12:43:57

 INCAR:
   SYSTEM = TiO2
   ISMEAR = 0
   SIGMA = 0.05
   EDIFF = 1E-5
   ALGO = ALL
   ISTART = 0
   IBRION = -1
   NSW = 0
   ISYM = 0
   ISIF = 2
   EDIFFG = -0.01
   DIPOL = 0.5 0.5 0.5
   IDIPOL = 3
   LDIPOL = .TRUE.
   GGA = PE
   IVDW = 21
   LDAU = .TRUE.
   LDAUTYPE = 2
   LDAUL = -1 -1 2 -1
   LDAUU = 0.0 0.0 4.2 0.0
   LDAUPRINT = 1
   LMAXMIX = 4
   ENCUT = 600
   PREC = Accurate
   LASPH = .TRUE.
   LREAL = .FALSE.
   ISPIN = 1
   NELM = 200
   NELMIN = 8
   NCORE = 2
   KPAR = 1
   LWAVE = .FALSE.
   LCHARG = .FALSE.

 POTCAR:    PAW_PBE N 08Apr2002
 POTCAR:    PAW_PBE H 15Jun2001
 POTCAR:    PAW_PBE Ti_pv 07Sep2000
 POTCAR:    PAW_PBE O 08Apr2002
|           W    W    AA    RRRRR   N    N  II  N    N   GGGG   !!!           |
|           W    W   A  A   R    R  NN   N  II  NN   N  G    G  !!!           |
|           W    W  A    A  R    R  N N  N  II  N N  N  G       !!!           |
|           W WW W  AAAAAA  RRRRR   N  N N  II  N  N N  G  GGG   !            |
|           WW  WW  A    A  R   R   N   NN  II  N   NN  G    G                |
|           W    W  A    A  R    R  N    N  II  N    N   GGGG   !!!           |
|     For optimal performance we recommend to set                             |
|       NCORE = 2 up to number-of-cores-per-socket                            |
|     This setting can greatly improve the performance of VASP for DFT.       |
|     The default, NCORE=1 might be grossly inefficient on modern             |
|     multi-core architectures or massively parallel machines. Do your        |
|     Unfortunately you need to use the default for GW and RPA                |
|     calculations (for HF NCORE is supported but not extensively tested      |
|     yet).                                                                   |

   TITEL  = PAW_PBE N 08Apr2002
   POMASS =   14.001; ZVAL   =    5.000    mass and valenz
   ENMAX  =  400.000; ENMIN  =  300.000 eV

   TITEL  = PAW_PBE H 15Jun2001
   POMASS =    1.000; ZVAL   =    1.000    mass and valenz
   ENMAX  =  250.000; ENMIN  =  200.000 eV

   TITEL  = PAW_PBE Ti_pv 07Sep2000
   POMASS =   47.880; ZVAL   =   10.000    mass and valenz
   ENMAX  =  222.335; ENMIN  =  166.751 eV

   TITEL  = PAW_PBE O 08Apr2002
   POMASS =   16.000; ZVAL   =    6.000    mass and valenz
   ENMAX  =  400.000; ENMIN  =  300.000 eV

  PAW_PBE N 08Apr2002                   :
  PAW_PBE H 15Jun2001                   :
  PAW_PBE Ti_pv 07Sep2000               :
  PAW_PBE O 08Apr2002                   :

 POSCAR:  N  H Ti  O
  positions in direct lattice
 exchange correlation table for  LEXCH =        8
   RHO(1)=    0.500       N(1)  =     2000
   RHO(2)=  100.500       N(2)  =     4000

 ion  position               nearest neighbor table
   1  0.611  0.500  0.777-   2 1.02   4 1.02   3 1.02  52 2.26
   2  0.549  0.500  0.805-   1 1.02
   3  0.670  0.428  0.779-   1 1.02
   4  0.670  0.572  0.779-   1 1.02
   5  0.807  0.833  0.295-  55 1.93  89 1.93  57 1.93  56 1.99  54 1.99  22 3.04   6 3.04   8 3.04

   6  0.591  0.667  0.327-  58 1.93  53 1.93 120 1.93  56 1.93  59 1.99  57 1.99   7 3.04  37 3.04
                             5 3.04  11 3.07
   7  0.307  0.667  0.295-  59 1.93 125 1.93  61 1.93  60 1.99  53 1.99  40 3.04   6 3.04   8 3.04

   8  0.091  0.833  0.327-  62 1.93  54 1.93  92 1.93  60 1.93  61 1.99  55 1.99  23 3.04   7 3.04
                             5 3.04   9 3.07
   9  0.944  0.833  0.422-  63 1.92  97 1.93  65 1.93  55 1.97  64 1.98  62 1.99  12 3.00  26 3.04
                            10 3.04   8 3.07
  10  0.727  0.666  0.451-  58 1.90 128 1.93  64 1.94  66 1.95  67 1.98  65 1.99  11 3.01   9 3.04
                            41 3.05  15 3.09
  11  0.444  0.666  0.422-  67 1.93 133 1.93  69 1.93  59 1.97  68 1.98  58 1.99  10 3.01  12 3.04
                            44 3.05   6 3.07
  12  0.226  0.833  0.452-  62 1.90  68 1.94 100 1.94  70 1.96  63 1.97  69 1.99   9 3.00  27 3.04
                            11 3.04  13 3.09
  13  0.086  0.833  0.550-  71 1.93 105 1.93  73 1.93  72 1.97  63 1.99  70 1.99  16 2.96  14 3.04
                            30 3.04  12 3.09
  14  0.866  0.666  0.576-  66 1.87 136 1.93  72 1.94  75 1.95  74 1.99  73 2.00  15 2.98  13 3.04
                            45 3.05  19 3.15
  15  0.584  0.666  0.549- 141 1.93  77 1.93  75 1.94  67 1.97  76 1.97  66 2.00  14 2.98  16 3.04
                            48 3.05  10 3.09
  16  0.365  0.833  0.576-  70 1.87 108 1.94  76 1.94  71 1.95  78 1.98  77 2.00  13 2.96  15 3.04
                            31 3.04
  17  0.232  0.833  0.679-  79 1.86  81 1.93 113 1.94  80 2.00  71 2.07  78 2.08  20 2.85  34 3.06
                            18 3.08
  18  0.002  0.666  0.700-  74 1.78  82 1.83 144 1.96  80 1.98  81 2.04  19 2.86  17 3.08  49 3.09

[...]

  21  0.807  0.167  0.295-  87 1.93  89 1.93 121 1.93  88 1.99  86 1.99  22 3.04  38 3.04  24 3.04

[...]

  37  0.807  0.500  0.295- 119 1.93  57 1.93 121 1.93 120 1.99 118 1.99  38 3.04   6 3.04  40 3.04

  38  0.591  0.333  0.327- 122 1.93 117 1.93 120 1.93  88 1.93 123 1.99 121 1.99  39 3.04  37 3.04
                            21 3.04  43 3.07
  39  0.307  0.333  0.295- 123 1.93 125 1.93  93 1.93 124 1.99 117 1.99  40 3.04  38 3.04  24 3.04

  40  0.091  0.500  0.327- 126 1.93 118 1.93 124 1.93  60 1.93 125 1.99 119 1.99   7 3.04  39 3.04
                            37 3.04  41 3.06
  41  0.946  0.500  0.422- 127 1.93 129 1.93  65 1.93 119 1.97 126 1.97 128 1.99  44 3.00  10 3.05
                            42 3.05  40 3.06
  42  0.727  0.334  0.451- 122 1.90 128 1.93  96 1.94 130 1.95 131 1.98 129 1.99  43 3.01  25 3.04
                            41 3.05  47 3.09
  43  0.444  0.334  0.422- 131 1.93 133 1.93 101 1.93 123 1.97 132 1.98 122 1.99  42 3.01  28 3.04
                            44 3.05  38 3.07
  44  0.226  0.500  0.453- 126 1.93  68 1.94 132 1.94 134 1.96 127 1.96 133 2.00  41 3.00  43 3.05
                            11 3.05  45 3.06
  45  0.088  0.500  0.550- 135 1.92 137 1.93  73 1.93 134 1.97 136 2.00 127 2.00  48 2.97  14 3.05
                            46 3.05  44 3.06
  46  0.866  0.334  0.576- 130 1.87 136 1.93 104 1.94 139 1.95 138 1.99 137 2.00  47 2.98  29 3.04
                            45 3.05  51 3.15
  47  0.584  0.334  0.549- 141 1.93 109 1.93 139 1.94 131 1.97 140 1.97 130 2.00  46 2.98  32 3.04
                            48 3.05  42 3.09
  48  0.366  0.500  0.579- 134 1.93  76 1.94 140 1.94 135 1.94 142 1.96 141 2.01  45 2.97  47 3.05
                            15 3.05  49 3.11
  49  0.235  0.500  0.680- 143 1.85 145 1.94  81 1.94 142 2.02 144 2.03 135 2.08  52 2.88  18 3.09
                            50 3.09  48 3.11
  50  0.002  0.334  0.700- 138 1.78 146 1.83 144 1.96 112 1.98 145 2.04  51 2.86  33 3.08  49 3.09

  51  0.730  0.333  0.677- 146 1.88 148 1.93 116 1.94 147 1.99 139 2.03 138 2.08  50 2.86  36 3.07
                            52 3.07  46 3.15
  52  0.507  0.500  0.705- 143 1.83 142 1.89 147 1.98  83 1.98 148 2.05   1 2.26  49 2.88  51 3.07
                            19 3.07
  53  0.487  0.667  0.269-   6 1.93   7 1.99
  54  0.987  0.833  0.269-   8 1.93   5 1.99
  55  0.911  0.833  0.353-   5 1.93   9 1.97   8 1.99
  56  0.627  0.833  0.321-  22 1.93   6 1.93   5 1.99
  57  0.771  0.667  0.300-  37 1.93   5 1.93   6 1.99
  58  0.623  0.667  0.395-  10 1.90   6 1.93  11 1.99
  59  0.411  0.667  0.353-   7 1.93  11 1.97   6 1.99
  60  0.127  0.667  0.321-  40 1.93   8 1.93   7 1.99
  61  0.271  0.833  0.300-  23 1.93   7 1.93   8 1.99
  62  0.123  0.833  0.395-  12 1.90   8 1.93   9 1.99
  63  0.049  0.834  0.480-   9 1.92  12 1.97  13 1.99
  64  0.764  0.833  0.447-  26 1.94  10 1.94   9 1.98
  65  0.909  0.667  0.427-   9 1.93  41 1.93  10 1.99
  66  0.763  0.666  0.520-  14 1.87  10 1.95  15 2.00
  67  0.549  0.666  0.480-  11 1.93  15 1.97  10 1.98
  68  0.264  0.667  0.448-  44 1.94  12 1.94  11 1.98
  69  0.408  0.833  0.427-  27 1.93  11 1.93  12 1.99
  70  0.263  0.833  0.521-  16 1.87  12 1.96  13 1.99
  71  0.193  0.833  0.606-  13 1.93  16 1.95  17 2.07
  72  0.904  0.833  0.573-  30 1.94  14 1.94  13 1.97
  73  0.050  0.667  0.553-  13 1.93  45 1.93  14 2.00
  74  0.913  0.667  0.645-  18 1.78  14 1.99  19 2.08
  75  0.694  0.668  0.606-  15 1.94  14 1.95  19 2.03
  76  0.404  0.667  0.574-  16 1.94  48 1.94  15 1.97
  77  0.549  0.833  0.553-  31 1.93  15 1.93  16 2.00
  78  0.411  0.836  0.645-  20 1.78  16 1.98  17 2.08
  79  0.348  0.833  0.731-  20 1.83  17 1.86
  80  0.053  0.833  0.707-  34 1.97  18 1.98  17 2.00
  81  0.195  0.666  0.681-  17 1.93  49 1.94  18 2.04
  82  0.844  0.664  0.730-  18 1.83  19 1.88
  83  0.554  0.669  0.706-  20 1.96  52 1.98  19 1.99
  84  0.695  0.834  0.679-  35 1.93  19 1.94  20 2.04
  85  0.487  0.000  0.269-  22 1.93  23 1.99
  86  0.987  0.167  0.269-  24 1.93  21 1.99
  87  0.911  0.167  0.353-  21 1.93  25 1.97  24 1.99
  88  0.627  0.167  0.321-  22 1.93  38 1.93  21 1.99
  89  0.771  0.000  0.300-   5 1.93  21 1.93  22 1.99
  90  0.623  0.000  0.395-  26 1.90  22 1.93  27 1.99
  91  0.411  0.000  0.353-  23 1.93  27 1.97  22 1.99
  92  0.127  0.000  0.321-   8 1.93  24 1.93  23 1.99
  93  0.271  0.167  0.300-  23 1.93  39 1.93  24 1.99
  94  0.123  0.167  0.395-  28 1.90  24 1.93  25 1.99
  95  0.049  0.166  0.480-  25 1.92  28 1.97  29 1.99
  96  0.764  0.167  0.447-  26 1.94  42 1.94  25 1.98
  97  0.908  1.000  0.427-  25 1.93   9 1.93  26 1.99
  98  0.763  1.000  0.520-  30 1.87  26 1.96  31 2.00
  99  0.549  1.000  0.480-  27 1.92  26 1.98  31 1.98
 100  0.264  0.000  0.448-  12 1.94  28 1.94  27 1.98
 101  0.408  0.167  0.427-  27 1.93  43 1.93  28 1.99
 102  0.263  0.167  0.521-  32 1.87  28 1.96  29 1.99
 103  0.193  0.167  0.606-  29 1.93  32 1.95  33 2.07
 104  0.904  0.167  0.573-  30 1.94  46 1.94  29 1.97
 105  0.050  1.000  0.553-  13 1.93  29 1.93  30 2.01
 106  0.913  1.000  0.645-  34 1.79  30 1.99  35 2.07
 107  0.693  1.000  0.606-  31 1.93  30 1.95  35 2.08
 108  0.403  1.000  0.573-  16 1.94  32 1.94  31 1.97
 109  0.549  0.167  0.553-  31 1.93  47 1.93  32 2.00
 110  0.411  0.164  0.645-  36 1.78  32 1.98  33 2.08
 111  0.348  0.167  0.731-  36 1.83  33 1.86
 112  0.053  0.167  0.707-  34 1.97  50 1.98  33 2.00
[...]
 134  0.264  0.500  0.522-  48 1.93  44 1.96  45 1.97
 135  0.192  0.500  0.607-  45 1.92  48 1.94  49 2.08
 136  0.904  0.500  0.573-  14 1.93  46 1.93  45 2.00
 137  0.050  0.333  0.553-  29 1.93  45 1.93  46 2.00
 138  0.913  0.333  0.645-  50 1.78  46 1.99  51 2.08
 139  0.694  0.332  0.606-  47 1.94  46 1.95  51 2.03
 140  0.404  0.333  0.574-  32 1.94  48 1.94  47 1.97
 141  0.550  0.500  0.554-  47 1.93  15 1.93  48 2.01
 142  0.411  0.500  0.648-  52 1.89  48 1.96  49 2.02
 143  0.345  0.500  0.733-  52 1.83  49 1.85
 144  0.052  0.500  0.708-  18 1.96  50 1.96  49 2.03
 145  0.195  0.334  0.681-  33 1.93  49 1.94  50 2.04
 146  0.844  0.336  0.730-  50 1.83  51 1.88
 147  0.554  0.331  0.706-  36 1.96  52 1.98  51 1.99
 148  0.693  0.500  0.678-  19 1.93  51 1.93  52 2.05

[...]
   O          54.655          3.936         10.108          1.87176579
   O          56.586          3.959         10.284          1.90453528
   O          56.389          3.956         10.267          1.90122962
   O          57.370          3.968         10.356          1.91768826
   O          38.279          3.709          8.459          1.56644046
   O          55.442          3.945         10.180          1.88518976
   O          58.482          3.980         10.455          1.93618184
   O          39.538          3.729          8.597          1.59199924
   O          54.032          3.928         10.050          1.86106174
   O          56.668          3.960         10.292          1.90592303

  vdW correction parametrized for the method pbe

  IVDW =  21
  VDW_RADIUS =    50.000 A
  VDW_IDAMPF =  0
  VDW_S6 =     1.000
  VDW_SR =     0.950
  VDW_D =    20.000
  LVDW_ONECELL = F F F
  LVDW_SAMETYPE T T T T
  LVDW_EWALD = F

  Number of pair interactions contributing to vdW energy: 1767118
  Edisp (eV):  -18.32518

  FORCE on cell =-STRESS in cart. coord.  units (eV):
  Direction    XX          YY          ZZ          XY          YZ          ZX
  Alpha Z  2451.58867  2451.58867  2451.58867
  Ewald  489720.94277482940.78583************     0.01363    -0.00171 -1995.05126
  Hartree510693.25447506651.01892************     0.00285    -0.00064 -1290.96876
  E(xc)   -5179.19418 -5183.22841 -5189.60042     0.00001    -0.00001    -1.62042
  Local  ************************************    -0.01223     0.00192  3278.38425
  n-local -3122.89050 -3106.98257 -3154.89847    -0.00046     0.00000     2.56486
  augment  3158.25081  3155.76111  3146.93167    -0.00005     0.00002    -0.22195
  Kinetic 17104.10643 17215.57362 17265.69151    -0.00062     0.00083     6.13958
  Fock        0.00000     0.00000     0.00000     0.00000     0.00000     0.00000
  vdW       -21.37076   -26.91450   -21.90057     0.00000    -0.00000    -0.59525
  Total      82.41130   109.34160    93.18657     0.00314     0.00040    -1.36896
  in kB      40.63656    53.91574    45.94979     0.00155     0.00020    -0.67503

 VOLUME and BASIS-vectors are now :
  energy-cutoff  :      600.00
  volume of cell :     3249.23
      direct lattice vectors                 reciprocal lattice vectors
    10.254981746  0.000000000  0.000000000     0.097513582 -0.000000000  0.000000000
     0.000000000 11.356579900  0.000000000     0.000000000  0.088054679  0.000000000
     0.000000000  0.000000000 27.899598656     0.000000000  0.000000000  0.035842810

  length of vectors
    10.254981746 11.356579900 27.899598656     0.097513582  0.088054679  0.035842810

 FORCES acting on ions:
    Electron-Ion                     Ewald-Force                    Non-Local-Force
   -.163E+02 0.564E-02 -.177E+04   0.695E+01 -.102E-01 0.175E+04   0.929E+01 -.146E-02 0.174E+02
   0.429E+02 0.418E-02 -.375E+03   -.479E+02 -.443E-02 0.381E+03   0.483E+01 0.551E-03 -.566E+01
   -.423E+02 0.551E+02 -.358E+03   0.469E+02 -.612E+02 0.358E+03   -.444E+01 0.598E+01 -.346E+00
   -.424E+02 -.551E+02 -.358E+03   0.469E+02 0.612E+02 0.358E+03   -.444E+01 -.598E+01 -.346E+00
   0.652E+01 -.102E-01 0.339E+04   -.133E+01 0.902E-02 -.338E+04   -.156E+01 0.263E-03 -.432E+01
   0.412E+01 -.131E+00 0.278E+04   -.583E+01 0.132E+00 -.279E+04   0.749E-01 -.520E-03 0.126E+00
   0.656E+01 0.142E+00 0.339E+04   -.140E+01 -.149E+00 -.338E+04   -.155E+01 0.213E-02 -.432E+01
   0.297E+01 0.106E+00 0.278E+04   -.471E+01 -.115E+00 -.279E+04   0.827E-01 0.230E-02 0.125E+00
   0.924E-02 0.147E+00 0.127E+04   -.170E+00 -.147E+00 -.127E+04   0.113E+00 -.344E-02 -.127E+00
   0.123E+01 -.159E+01 0.804E+03   -.117E+01 0.158E+01 -.804E+03   0.429E-01 0.391E-01 0.240E-01
   0.161E+01 -.268E+00 0.127E+04   -.177E+01 0.263E+00 -.127E+04   0.121E+00 0.242E-01 -.131E+00
   -.325E+01 0.107E+00 0.798E+03   0.331E+01 -.107E+00 -.798E+03   0.932E-01 0.407E-02 0.169E-01
   -.591E+01 -.239E+01 -.781E+03   0.565E+01 0.239E+01 0.781E+03   0.233E+00 0.190E-02 -.128E-02
   -.753E+01 -.428E+01 -.118E+04   0.768E+01 0.430E+01 0.118E+04   0.165E+00 0.217E-01 0.709E-01
   0.884E+00 -.169E+01 -.757E+03   -.111E+01 0.169E+01 0.757E+03   0.232E+00 0.183E-01 0.660E-02
   0.265E+01 -.100E+01 -.120E+04   -.248E+01 0.101E+01 0.120E+04   0.157E+00 -.179E-01 0.843E-02
   0.287E+02 -.107E+02 -.280E+04   -.296E+02 0.107E+02 0.280E+04   0.701E+00 0.330E-01 -.599E+00
   -.838E+02 -.215E+02 -.319E+04   0.840E+02 0.214E+02 0.319E+04   0.104E+01 0.173E+00 0.160E+01
   -.925E+01 -.398E+02 -.272E+04   0.846E+01 0.398E+02 0.272E+04   0.721E+00 0.551E-02 -.391E+00
   -.577E+02 -.339E+02 -.318E+04   0.578E+02 0.339E+02 0.318E+04   0.109E+01 0.805E-01 0.155E+01
   0.652E+01 0.102E-01 0.339E+04   -.133E+01 -.901E-02 -.338E+04   -.156E+01 -.268E-03 -.432E+01
   0.409E+01 -.151E-04 0.278E+04   -.582E+01 0.972E-05 -.279E+04   0.799E-01 -.294E-05 0.124E+00
   0.645E+01 -.476E-06 0.339E+04   -.127E+01 0.483E-05 -.338E+04   -.156E+01 0.390E-05 -.432E+01
   0.297E+01 -.106E+00 0.278E+04   -.471E+01 0.115E+00 -.279E+04   0.827E-01 -.231E-02 0.125E+00
   0.924E-02 -.147E+00 0.127E+04   -.170E+00 0.147E+00 -.127E+04   0.113E+00 0.343E-02 -.127E+00
   -.835E+00 -.248E-04 0.801E+03   0.882E+00 0.258E-04 -.801E+03   0.895E-01 -.910E-06 0.248E-01
   0.165E+01 -.219E-04 0.127E+04   -.182E+01 0.327E-04 -.127E+04   0.109E+00 -.851E-06 -.142E+00
   -.325E+01 -.107E+00 0.798E+03   0.331E+01 0.107E+00 -.798E+03   0.932E-01 -.407E-02 0.169E-01
   -.591E+01 0.239E+01 -.781E+03   0.565E+01 -.239E+01 0.781E+03   0.233E+00 -.191E-02 -.128E-02
   -.632E+01 -.264E-04 -.120E+04   0.649E+01 0.241E-04 0.120E+04   0.215E+00 -.995E-06 0.691E-01
   -.401E+01 0.140E-04 -.772E+03   0.374E+01 -.518E-05 0.772E+03   0.254E+00 0.578E-06 0.535E-01
   0.265E+01 0.100E+01 -.120E+04   -.248E+01 -.101E+01 0.120E+04   0.157E+00 0.179E-01 0.843E-02
   0.287E+02 0.107E+02 -.280E+04   -.296E+02 -.107E+02 0.280E+04   0.701E+00 -.330E-01 -.599E+00
   -.733E+02 -.127E-03 -.321E+04   0.735E+02 0.125E-03 0.321E+04   0.102E+01 0.354E-05 0.159E+01
   0.124E+02 -.194E-03 -.279E+04   -.132E+02 0.154E-03 0.279E+04   0.636E+00 0.550E-05 -.559E+00
   -.577E+02 0.339E+02 -.318E+04   0.578E+02 -.339E+02 0.318E+04   0.109E+01 -.805E-01 0.155E+01
   0.651E+01 -.437E-05 0.339E+04   -.130E+01 -.542E-05 -.338E+04   -.156E+01 0.387E-06 -.432E+01
   0.412E+01 0.131E+00 0.278E+04   -.583E+01 -.132E+00 -.279E+04   0.749E-01 0.521E-03 0.126E+00
   0.656E+01 -.142E+00 0.339E+04   -.140E+01 0.149E+00 -.338E+04   -.155E+01 -.213E-02 -.432E+01
   0.215E+01 -.749E-05 0.278E+04   -.385E+01 -.435E-05 -.279E+04   0.698E-01 0.280E-05 0.117E+00
   0.133E+01 0.186E-04 0.127E+04   -.149E+01 -.264E-04 -.127E+04   0.486E-01 0.475E-05 -.607E-01
   0.123E+01 0.159E+01 0.804E+03   -.117E+01 -.158E+01 -.804E+03   0.429E-01 -.391E-01 0.240E-01
   0.161E+01 0.268E+00 0.127E+04   -.177E+01 -.263E+00 -.127E+04   0.121E+00 -.242E-01 -.131E+00
   -.645E+01 0.360E-05 0.781E+03   0.652E+01 -.168E-04 -.781E+03   0.935E-01 -.117E-05 0.149E-01
   -.294E+01 0.179E-04 -.783E+03   0.271E+01 -.263E-04 0.783E+03   0.498E-01 0.467E-05 0.174E-01
   -.753E+01 0.428E+01 -.118E+04   0.768E+01 -.430E+01 0.118E+04   0.165E+00 -.217E-01 0.709E-01
   0.884E+00 0.169E+01 -.757E+03   -.111E+01 -.169E+01 0.757E+03   0.232E+00 -.183E-01 0.660E-02
   0.161E+01 0.598E-04 -.124E+04   -.145E+01 -.513E-04 0.124E+04   0.108E+00 -.358E-05 -.111E+00
   0.469E+02 0.328E-03 -.280E+04   -.475E+02 -.308E-03 0.280E+04   0.259E+00 -.147E-05 -.460E+00
   -.838E+02 0.215E+02 -.319E+04   0.840E+02 -.214E+02 0.319E+04   0.104E+01 -.173E+00 0.160E+01
   -.924E+01 0.398E+02 -.272E+04   0.846E+01 -.398E+02 0.272E+04   0.721E+00 -.552E-02 -.391E+00
   0.177E+02 0.361E-02 -.314E+04   -.171E+02 -.344E-02 0.314E+04   0.331E+00 -.807E-04 0.698E-01
   -.332E+02 -.206E-01 0.229E+04   0.384E+02 0.200E-01 -.230E+04   -.690E+01 0.101E-02 0.178E+02
   -.335E+02 -.139E-01 0.229E+04   0.387E+02 0.116E-01 -.230E+04   -.689E+01 0.300E-02 0.178E+02
   0.833E+02 0.101E+00 0.139E+04   -.883E+02 -.101E+00 -.139E+04   0.393E+01 -.182E-02 -.428E+01
   0.758E+02 0.534E-02 0.169E+04   -.831E+02 -.537E-02 -.169E+04   0.749E+01 0.126E-03 -.267E+01
   -.875E+02 -.390E-01 0.195E+04   0.949E+02 0.366E-01 -.195E+04   -.694E+01 0.475E-02 -.288E+00
   -.729E+02 -.789E+00 0.106E+04   0.788E+02 0.846E+00 -.107E+04   -.584E+01 -.531E-01 0.415E+01
   0.840E+02 0.431E-01 0.139E+04   -.890E+02 -.213E-01 -.139E+04   0.391E+01 -.224E-01 -.417E+01
   0.750E+02 0.133E+00 0.169E+04   -.823E+02 -.145E+00 -.169E+04   0.751E+01 0.244E-01 -.269E+01
[...]
   0.892E+02 0.548E-04 -.108E+04   -.963E+02 -.580E-04 0.109E+04   0.695E+01 -.250E-05 -.724E+01
   0.726E+02 0.108E-03 -.716E+03   -.788E+02 -.114E-03 0.719E+03   0.603E+01 0.830E-06 -.295E+01
   -.839E+02 0.473E+00 -.461E+03   0.905E+02 -.434E+00 0.458E+03   -.640E+01 -.424E-01 0.276E+01
   -.702E+02 0.995E+01 -.129E+04   0.725E+02 -.103E+02 0.128E+04   -.260E+01 0.340E+00 0.927E+01
   0.829E+02 0.931E+01 -.105E+04   -.896E+02 -.966E+01 0.105E+04   0.642E+01 0.349E+00 -.562E+01
   0.821E+02 0.201E+00 -.728E+03   -.888E+02 -.174E+00 0.731E+03   0.648E+01 -.364E-01 -.307E+01
   -.751E+02 0.166E-04 -.466E+03   0.813E+02 -.131E-04 0.464E+03   -.606E+01 -.357E-05 0.234E+01
   -.648E+02 0.167E-03 -.132E+04   0.709E+02 -.153E-03 0.131E+04   -.601E+01 -.488E-05 0.562E+01
   0.108E+03 0.798E-03 -.227E+04   -.115E+03 -.741E-03 0.230E+04   0.596E+01 -.736E-04 -.209E+02
   0.479E+02 0.301E-03 -.201E+04   -.518E+02 -.289E-03 0.202E+04   0.376E+01 -.291E-04 -.744E+01
   -.538E+02 0.667E+01 -.167E+04   0.589E+02 -.644E+01 0.167E+04   -.514E+01 -.216E+00 0.280E+01
   0.117E+02 0.306E+02 -.227E+04   -.174E+02 -.304E+02 0.229E+04   0.539E+01 -.169E+00 -.201E+02
   0.803E+02 0.460E+02 -.196E+04   -.856E+02 -.456E+02 0.196E+04   0.510E+01 -.404E+00 -.650E+01
   -.713E+02 0.106E-02 -.157E+04   0.758E+02 -.107E-02 0.157E+04   -.446E+01 -.295E-04 0.445E+01
   -.159E+02 0.367E-02 0.598E+02   -.426E-13 0.271E-11 -.500E-11   0.159E+02 -.369E-02 -.598E+02

 POSITION                                       TOTAL-FORCE (eV/Angst)
      6.27015      5.67835     21.67516        -0.044409     -0.005966      0.052518
      5.62744      5.67829     22.46172        -0.152335      0.000296      0.176554
      6.87575      4.86193     21.74543         0.139484     -0.179898      0.014710
      6.87572      6.49460     21.74542         0.143309      0.185463      0.015452
      8.27721      9.46382      8.23277         3.664952     -0.000908      0.945594
      6.06281      7.57105      9.11232        -1.635561      0.000160     -1.801132
      3.14972      7.57105      8.23277         3.640164     -0.005635      0.934982
      0.93532      9.46382      9.11232        -1.659984     -0.006898     -1.803566
      9.68574      9.46410     11.78433        -0.056391     -0.003119     -0.149914
      7.45113      7.56679     12.59383         0.089913      0.018948      0.184927
      4.55352      7.56799     11.78125        -0.039698      0.014560     -0.124871
      2.31711      9.46310     12.60153         0.138846      0.003870      0.184292
      0.87740      9.46482     15.33528        -0.045421     -0.004133     -0.205714
      8.87608      7.56556     16.05643         0.283358      0.027787      0.330864
      5.99374      7.56773     15.31759        -0.013624      0.011098     -0.141711
      3.73860      9.46387     16.07789         0.297961     -0.004243      0.335813
      2.37607      9.45752     18.95543        -0.181274      0.016922     -0.527807
      0.02211      7.56007     19.51672         1.086346      0.025548      0.775172
      7.48912      7.56922     18.88910        -0.111145      0.023805     -0.446043
      5.16964      9.47831     19.50972         1.081477     -0.000791      0.738722
      8.27721      1.89276      8.23277         3.664954      0.000906      0.945661
      6.06281      0.00000      9.11232        -1.649755     -0.000008     -1.804539
      3.14972      0.00000      8.23277         3.656307      0.000009      0.940544
      0.93532      1.89276      9.11232        -1.659973      0.006903     -1.803613
      9.68574      1.89248     11.78433        -0.056393      0.003123     -0.149908
      7.44773     11.35658     12.59560         0.121657      0.000000      0.194808
      4.55586     11.35658     11.78386        -0.061680      0.000010     -0.147648
      2.31711      1.89348     12.60153         0.138839     -0.003871      0.184310
      0.87740      1.89176     15.33528        -0.045410      0.004121     -0.205737
      8.86551      0.00000     16.06865         0.338933     -0.000003      0.334538
      5.99959      0.00000     15.32526        -0.040773      0.000010     -0.184526
      3.73860      1.89271     16.07789         0.297968      0.004237      0.335767
      2.37607      1.89906     18.95543        -0.181306     -0.016958     -0.527808
      0.04168      0.00000     19.51874         1.069947      0.000002      0.768531
      7.51837      0.00000     18.93885        -0.199751     -0.000033     -0.522101
      5.16964      1.87827     19.50972         1.081484      0.000708      0.738698
      8.27721      5.67829      8.23277         3.677007     -0.000009      0.945408
      6.06281      3.78553      9.11232        -1.635570     -0.000145     -1.801106
      3.14972      3.78553      8.23277         3.640201      0.005632      0.935058
      0.93532      5.67829      9.11232        -1.633451     -0.000009     -1.741233
      9.69911      5.67829     11.78051        -0.114375     -0.000003     -0.115047
      7.45113      3.78979     12.59384         0.089929     -0.018939      0.184937
      4.55352      3.78859     11.78125        -0.039714     -0.014547     -0.124869
      2.31944      5.67829     12.63105         0.156266     -0.000014      0.058813
      0.90547      5.67829     15.34285        -0.182653     -0.000004     -0.185523
      8.87608      3.79102     16.05643         0.283358     -0.027789      0.330833
      5.99374      3.78885     15.31759        -0.013621     -0.011103     -0.141720
      3.75516      5.67829     16.16601         0.247067      0.000005      0.096344
      2.41255      5.67829     18.97568        -0.298768      0.000018     -0.468551
      0.02211      3.79651     19.51672         1.086410     -0.025547      0.775168
      7.48912      3.78736     18.88911        -0.111150     -0.023769     -0.446121
      5.20307      5.67829     19.68075         0.845819      0.000092      0.412240
      4.99460      7.57105      7.50000        -1.728082      0.000347      0.295597
     10.12209      9.46382      7.50000        -1.726007      0.000718      0.292237
      9.34542      9.46382      9.84509        -1.089049     -0.001856      0.036258
      6.43232      9.46382      8.96555         0.193846      0.000099      0.011284
      7.90770      7.57105      8.37954         0.445853      0.002346     -1.200837
      6.39199      7.57105     11.01817         0.056652      0.003914      0.197939
      4.21792      7.57105      9.84509        -1.095859     -0.000549      0.031114
      1.30483      7.57105      8.96555         0.203200      0.012759      0.002794
[...]
      2.70776      5.67829     14.55024         0.208864      0.000004     -0.184482
      1.97255      5.67829     16.93864        -0.209085     -0.000006      0.489896
      9.27101      5.67829     15.98384        -0.175460     -0.000005      0.091088
      0.51461      3.78674     15.42439         0.174371     -0.003034     -0.094767
      9.35870      3.78067     17.98666        -0.298498     -0.008314     -0.687216
      7.11449      3.77128     16.89606        -0.233460     -0.008134      0.331999
      4.14597      3.78600     16.01439        -0.221571     -0.010370      0.103277
      5.63725      5.67829     15.44864         0.135737      0.000000     -0.061216
      4.21983      5.67829     18.07100         0.024496      0.000010     -0.304673
      3.54082      5.67829     20.44788        -0.343084     -0.000016      1.091157
      0.53555      5.67829     19.73968        -0.132964     -0.000017      0.300912
      1.99501      3.78832     18.99087         0.024279      0.011264     -0.065909
      8.65318      3.81959     20.36620        -0.322115      0.009993      1.046054
      5.67657      3.75696     19.70424        -0.205154     -0.009916      0.243626
      7.10324      5.67829     18.90600         0.015040     -0.000037     -0.119933
    total drift:                               -0.000274     -0.000026      0.073227

  FREE ENERGIE OF THE ION-ELECTRON SYSTEM (eV)
  free  energy   TOTEN  =     -1163.39686794 eV

  energy  without entropy=    -1163.39686794  energy(sigma->0) =    -1163.39686794