 vasp.6.3.0 20Jan22 (build Apr  1 2022 16:44:48) complex
 executed on        HPECrayEX_GCC date 2022.11.13  12:17:58

 INCAR:
   SYSTEM = MgO-rocksalt
   ISMEAR = 0
   SIGMA = 0.05
   EDIFF = 1E-6
   ALGO = ALL
   ISTART = 0
   IBRION = -1
   NSW = 0
   ISYM = 0
   DIPOL = 0.5 0.5 0.5
   IDIPOL = 3
   LDIPOL = .TRUE.
   LHFCALC = .TRUE.
   GGA = B5
   AEXX = 0.2
   AGGAX = 0.72
   AGGAC = 0.81
   ALDAC = 0.19
   IVDW = 1
   VDW_S6 = 1.05
   VDW_C6 = 1.23 0.70 0.63 0.70
   VDW_R0 = 1.397 1.342 1.243 1.342
   ENCUT = 600
   PREC = Accurate
   LASPH = .TRUE.
   LREAL = .FALSE.
   ISPIN = 2
   MAGMOM = 1.0 0.0 0.0 0.0 0.0 0.0 0.0 0.0 0.0 0.0 0.0 0.0 0.0 0.0 0.0 0.0 0.0 0.0 0.0 0.0 0.0 0.0 0.0 0.0 0.0 0.0 0.0 0.0 0.0 0.0 0.0 0.0 0.0 0.0 0.0 0.0 0.0 0.0 0.0 0.0 0.0 0.0 0.0 0.0 0.0 0.0 0.0 0.0 0.0 0.0 0.0 0.0 0.0 0.0 0.0 0.0 0.0 0.0 0.0 0.0 0.0 0.0 0.0 0.0 0.0 0.0
   NELM = 200
   NELMIN = 8
   NCORE = 8
   KPAR = 1
   LWAVE = .FALSE.
   LCHARG = .FALSE.

 POTCAR:    PAW_PBE N 08Apr2002
 POTCAR:    PAW_PBE O 08Apr2002
 POTCAR:    PAW_PBE Mg_pv 13Apr2007
 POTCAR:    PAW_PBE O 08Apr2002
 POTCAR:    PAW_PBE N 08Apr2002
   VRHFIN =N: s2p3

   TITEL  = PAW_PBE N 08Apr2002
   POMASS =   14.001; ZVAL   =    5.000    mass and valenz
   ENMAX  =  400.000; ENMIN  =  300.000 eV

[...]

   TITEL  = PAW_PBE Mg_pv 13Apr2007
   POMASS =   24.305; ZVAL   =    8.000    mass and valenz
   ENMAX  =  403.929; ENMIN  =  302.947 eV

   TITEL  = PAW_PBE O 08Apr2002
   POMASS =   16.000; ZVAL   =    6.000    mass and valenz
   ENMAX  =  400.000; ENMIN  =  300.000 eV

  PAW_PBE N 08Apr2002                   :
  PAW_PBE O 08Apr2002                   :
  PAW_PBE Mg_pv 13Apr2007               :
  PAW_PBE O 08Apr2002                   :

 POSCAR:  N  O Mg  O
  positions in direct lattice
 exchange correlation table for  LEXCH =       12
   RHO(1)=    0.500       N(1)  =     2000
   RHO(2)=  100.500       N(2)  =     4000

 ion  position               nearest neighbor table
   1  0.500  0.500  0.760-   2 1.18
   2  0.500  0.500  0.816-   1 1.18
   3  0.000  0.750  0.352-  35 2.11  37 2.11  38 2.11  45 2.11  54 2.11
   4  0.250  0.000  0.352-  36 2.11  37 2.11  38 2.11  46 2.11  53 2.11
   5  0.000  0.000  0.451-  37 2.11  36 2.11  35 2.11  43 2.11  52 2.11  41 2.12
   6  0.250  0.750  0.451-  38 2.11  36 2.11  35 2.11  44 2.11  51 2.11  42 2.12
   7  1.000  0.750  0.550-  58 2.11  49 2.11  42 2.11  41 2.11  35 2.12  39 2.15
   8  0.250  0.000  0.550-  50 2.11  57 2.11  42 2.11  41 2.11  36 2.12  40 2.15
   9  0.000  0.000  0.649-  47 2.11  39 2.11  40 2.11  56 2.11  41 2.11
  10  0.250  0.750  0.648-  42 2.11  39 2.11  40 2.11  48 2.11  55 2.11
  11  0.000  0.250  0.352-  43 2.11  37 2.11  45 2.11  46 2.11  62 2.11
  12  0.250  0.500  0.352-  44 2.11  38 2.11  45 2.11  46 2.11  61 2.11
  13  0.000  0.500  0.451-  45 2.11  43 2.11  44 2.11  35 2.11  60 2.11  49 2.12
  14  0.250  0.250  0.451-  46 2.11  43 2.11  44 2.11  36 2.11  59 2.11  50 2.12
  15  0.000  0.250  0.550-  50 2.11  49 2.11  66 2.11  41 2.11  43 2.12  47 2.15
  16  0.250  0.500  0.550-  65 2.11  50 2.11  42 2.11  49 2.11  44 2.12  48 2.14
  17  0.000  0.500  0.649-  48 2.10  64 2.10  49 2.11  47 2.11  39 2.11
  18  0.250  0.250  0.649-  50 2.11  47 2.11  40 2.11  48 2.11  63 2.11
  19  0.500  0.750  0.352-  51 2.11  38 2.11  53 2.11  54 2.11  61 2.11
  20  0.750  0.000  0.352-  52 2.11  37 2.11  53 2.11  54 2.11  62 2.11
  21  0.500  0.000  0.451-  53 2.11  51 2.11  52 2.11  36 2.11  59 2.11  57 2.12
  22  0.750  0.750  0.451-  54 2.11  51 2.11  52 2.11  35 2.11  60 2.11  58 2.12
  23  0.500  0.750  0.550-  65 2.11  58 2.11  42 2.11  57 2.11  51 2.12  55 2.14
  24  0.750  1.000  0.550-  58 2.11  57 2.11  66 2.11  41 2.11  52 2.12  56 2.15
  25  0.500  0.000  0.649-  63 2.10  55 2.10  57 2.11  40 2.11  56 2.11
  26  0.750  0.750  0.649-  58 2.11  39 2.11  56 2.11  64 2.11  55 2.11
  27  0.500  0.250  0.352-  59 2.11  53 2.11  46 2.11  61 2.11  62 2.11
  28  0.750  0.500  0.352-  60 2.11  54 2.11  45 2.11  61 2.11  62 2.11
  29  0.500  0.500  0.451-  61 2.11  51 2.11  59 2.11  60 2.11  44 2.11  65 2.12
  30  0.750  0.250  0.451-  62 2.11  52 2.11  59 2.11  60 2.11  43 2.11  66 2.12
  31  0.500  0.250  0.550-  65 2.11  50 2.11  66 2.11  57 2.11  59 2.12  63 2.14
  32  0.750  0.500  0.550-  65 2.11  58 2.11  66 2.11  49 2.11  60 2.12  64 2.14
  33  0.500  0.500  0.650-  63 2.12  55 2.12  48 2.12  64 2.12  65 2.14
  34  0.750  0.250  0.648-  66 2.11  47 2.11  56 2.11  64 2.11  63 2.11
  35  0.000  0.750  0.451-   3 2.11   5 2.11   6 2.11  13 2.11  22 2.11   7 2.12
  36  0.250  0.000  0.451-   4 2.11   5 2.11   6 2.11  14 2.11  21 2.11   8 2.12
  37  0.000  0.000  0.352-   5 2.11   4 2.11   3 2.11  11 2.11  20 2.11
  38  0.250  0.750  0.352-   6 2.11   4 2.11   3 2.11  12 2.11  19 2.11
  39  1.000  0.750  0.651-  10 2.11   9 2.11  26 2.11  17 2.11   7 2.15
  40  0.250  0.000  0.651-  10 2.11   9 2.11  18 2.11  25 2.11   8 2.15
  41  0.000  0.000  0.550-   9 2.11  15 2.11   7 2.11   8 2.11  24 2.11   5 2.12
  42  0.250  0.750  0.550-  10 2.11   8 2.11   7 2.11  23 2.11  16 2.11   6 2.12
  43  0.000  0.250  0.451-  11 2.11   5 2.11  13 2.11  14 2.11  30 2.11  15 2.12
  44  0.250  0.500  0.451-  12 2.11   6 2.11  13 2.11  14 2.11  29 2.11  16 2.12
  45  0.000  0.500  0.352-  13 2.11  11 2.11  12 2.11   3 2.11  28 2.11
  46  0.250  0.250  0.352-  14 2.11  11 2.11  12 2.11   4 2.11  27 2.11
  47  0.000  0.250  0.651-  34 2.11   9 2.11  18 2.11  17 2.11  15 2.15
  48  0.249  0.500  0.651-  17 2.10  10 2.11  18 2.11  33 2.12  16 2.14
  49  0.000  0.500  0.550-  17 2.11  15 2.11   7 2.11  16 2.11  32 2.11  13 2.12
  50  0.250  0.250  0.550-  18 2.11   8 2.11  15 2.11  31 2.11  16 2.11  14 2.12
  51  0.500  0.750  0.451-  19 2.11   6 2.11  21 2.11  22 2.11  29 2.11  23 2.12
  52  0.750  0.000  0.451-  20 2.11   5 2.11  21 2.11  22 2.11  30 2.11  24 2.12
  53  0.500  0.000  0.352-  21 2.11  19 2.11  20 2.11   4 2.11  27 2.11
  54  0.750  0.750  0.352-  22 2.11  19 2.11  20 2.11   3 2.11  28 2.11
  55  0.500  0.751  0.651-  25 2.10  10 2.11  26 2.11  33 2.12  23 2.14
  56  0.750  1.000  0.651-  34 2.11   9 2.11  26 2.11  25 2.11  24 2.15
  57  0.500  0.000  0.550-  25 2.11   8 2.11  24 2.11  31 2.11  23 2.11  21 2.12
  58  0.750  0.750  0.550-  26 2.11  24 2.11   7 2.11  23 2.11  32 2.11  22 2.12
  59  0.500  0.250  0.451-  27 2.11  21 2.11  14 2.11  29 2.11  30 2.11  31 2.12
  60  0.750  0.500  0.451-  28 2.11  22 2.11  13 2.11  29 2.11  30 2.11  32 2.12
  61  0.500  0.500  0.352-  29 2.11  19 2.11  27 2.11  28 2.11  12 2.11
  62  0.750  0.250  0.352-  30 2.11  20 2.11  27 2.11  28 2.11  11 2.11
  63  0.500  0.249  0.651-  25 2.10  34 2.11  18 2.11  33 2.12  31 2.14
  64  0.751  0.500  0.651-  17 2.10  34 2.11  26 2.11  33 2.12  32 2.14
  65  0.500  0.500  0.550-  31 2.11  23 2.11  16 2.11  32 2.11  29 2.12  33 2.14
  66  0.750  0.250  0.550-  34 2.11  24 2.11  15 2.11  31 2.11  32 2.11  30 2.12

IMPORTANT INFORMATION: All symmetrisations will be switched off!
NOSYMM: (Re-)initialisation of all symmetry stuff for point group C_1.

                                     Primitive cell

  volume of cell :    1519.8199

  direct lattice vectors                    reciprocal lattice vectors
     8.440984654  0.000000000  0.000000000     0.118469591  0.000000000  0.000000000
     0.000000000  8.440984654  0.000000000     0.000000000  0.118469591  0.000000000
     0.000000000  0.000000000 21.330738491     0.000000000  0.000000000  0.046880702

  length of vectors
     8.440984654  8.440984654 21.330738491     0.118469591  0.118469591  0.046880702

  position of ions in fractional coordinates (direct lattice)
     0.499999943  0.499999960  0.760462606
     0.500000000  0.500000045  0.815589443
     0.000000000  0.750000000  0.351605267
     0.250000000  0.000000000  0.351605267
     0.000000000  0.000000000  0.450535089
     0.250000000  0.750000000  0.450535089
     0.999869420  0.749968659  0.550055605
     0.250031397  0.000130579  0.550055771
     0.000000004  0.000000002  0.648688975
     0.249696259  0.750302794  0.648459147
     0.000000000  0.250000000  0.351605267
     0.250000000  0.500000000  0.351605267
     0.000000000  0.500000000  0.450535089
     0.250000000  0.250000000  0.450535089
     0.000130579  0.250031338  0.550055600
     0.250383007  0.500065194  0.550066471
     0.000000006  0.499999997  0.648591030
     0.250110168  0.250111108  0.648735081
     0.500000000  0.750000000  0.351605267
     0.750000000  0.000000000  0.351605267
     0.500000000  0.000000000  0.450535089
     0.750000000  0.750000000  0.450535089
     0.499934800  0.749616776  0.550066468
     0.749968605  0.999869419  0.550055775
     0.499999996  0.000000003  0.648591739
     0.749889836  0.749888892  0.648735093
     0.500000000  0.250000000  0.351605267
     0.750000000  0.500000000  0.351605267
     0.500000000  0.500000000  0.450535089
     0.750000000  0.250000000  0.450535089
     0.500065202  0.250383222  0.550066454
     0.749616994  0.499934804  0.550066485
     0.499999994  0.499999991  0.650449680
     0.750303737  0.249697198  0.648459147
     0.000000000  0.750000000  0.450535089
     0.250000000  0.000000000  0.450535089
     0.000000000  0.000000000  0.351605267
     0.250000000  0.750000000  0.351605267
     0.999868283  0.750109674  0.650841088
     0.249890597  0.000131723  0.650841325
     0.000000004  0.000000002  0.549757968
     0.249886272  0.750114279  0.549749567
     0.000000000  0.250000000  0.450535089
     0.250000000  0.500000000  0.450535089
     0.000000000  0.500000000  0.351605267
     0.250000000  0.250000000  0.351605267
     0.000131720  0.249890321  0.650841086
     0.249078740  0.500381635  0.650618737
     0.000000006  0.499999997  0.549739280
     0.250070002  0.250069445  0.549829634
     0.500000000  0.750000000  0.450535089
     0.750000000  0.000000000  0.450535089
     0.500000000  0.000000000  0.351605267
     0.750000000  0.750000000  0.351605267
     0.499618329  0.750920169  0.650620212
     0.750109402  0.999868276  0.650841326
     0.499999997  0.000000006  0.549739836
     0.749930004  0.749930555  0.549829642
     0.500000000  0.250000000  0.450535089
     0.750000000  0.500000000  0.450535089
     0.500000000  0.500000000  0.351605267
     0.750000000  0.250000000  0.351605267
     0.500381666  0.249079826  0.650620227
     0.750921257  0.499618358  0.650618722
     0.499999994  0.499999993  0.550097845
     0.750113726  0.249885717  0.549749567

  ion indices of the primitive-cell ions
   primitive index   ion index
                 1           1
                 2           2
                 3           3
                 4           4
                 5           5
                 6           6
                 7           7
                 8           8
                 9           9
                10          10
                11          11
                12          12
                13          13
                14          14
                15          15
                16          16
                17          17
                18          18
                19          19
                20          20
[...]
   0.50000000  0.00000001  0.54973984
   0.74993000  0.74993055  0.54982964
   0.50000000  0.25000000  0.45053509
   0.75000000  0.50000000  0.45053509
   0.50000000  0.50000000  0.35160527
   0.75000000  0.25000000  0.35160527
   0.50038167  0.24907983  0.65062023
   0.75092126  0.49961836  0.65061872
   0.49999999  0.49999999  0.55009785
   0.75011373  0.24988572  0.54974957

 position of ions in cartesian coordinates  (Angst):
   4.22049184  4.22049199 16.22122898
   4.22049233  4.22049271 17.39712513
   0.00000000  6.33073849  7.50000000
   2.11024616  0.00000000  7.50000000
   0.00000000  0.00000000  9.61024616
   2.11024616  6.33073849  9.61024616
   8.43988243  6.33047394 11.73309226
   2.11051119  0.00110221 11.73309581
   0.00000003  0.00000001 13.83701489
   2.10768229  6.33329437 13.83211250
   0.00000000  2.11024616  7.50000000
   2.11024616  4.22049233  7.50000000
   0.00000000  4.22049233  9.61024616
   2.11024616  2.11024616  9.61024616
   0.00110222  2.11051069 11.73309216
   2.11347912  4.22104263 11.73332406
   0.00000005  4.22049230 13.83492564
   2.11117609  2.11118402 13.83799836
   4.22049233  6.33073849  7.50000000
   6.33073849  0.00000000  7.50000000
   4.22049233  0.00000000  9.61024616
   6.33073849  6.33073849  9.61024616
   4.21994197  6.32750370 11.73332397
   6.33047349  8.43988243 11.73309588
   4.22049229  0.00000003 13.83494077
   6.32980860  6.32980063 13.83799863
   4.22049233  2.11024616  7.50000000
   6.33073849  4.22049233  7.50000000
   4.22049233  4.22049233  9.61024616
   6.33073849  2.11024616  9.61024616
   4.22104270  2.11348093 11.73332369
   6.32750555  4.21994201 11.73332434
   4.22049228  4.22049225 13.87457202
   6.33330233  2.10769022 13.83211249
   0.00000000  6.33073849  9.61024616
   2.11024616  0.00000000  9.61024616
   0.00000000  0.00000000  7.50000000
   2.11024616  6.33073849  7.50000000
   8.43987283  6.33166425 13.88292105
   2.10932269  0.00111187 13.88292610
   0.00000004  0.00000002 11.72674345
   2.10928618  6.33170312 11.72656424
   0.00000000  2.11024616  9.61024616
   2.11024616  4.22049233  9.61024616
   0.00000000  4.22049233  7.50000000
   2.11024616  2.11024616  7.50000000
   0.00111185  2.10932037 13.88292100
   2.10246982  4.22371370 13.87817814
   0.00000005  4.22049230 11.72634481
   2.11083705  2.11083234 11.72827214
   4.22049233  6.33073849  9.61024616
   6.33073849  0.00000000  9.61024616
   4.22049233  0.00000000  7.50000000
   6.33073849  6.33073849  7.50000000
   4.21727065  6.33850562 13.87820960
   6.33166196  8.43987277 13.88292612
   4.22049230  0.00000005 11.72635669
   6.33014765  6.33015231 11.72827231
   4.22049233  2.11024616  9.61024616
   6.33073849  4.22049233  9.61024616
   4.22049233  4.22049233  7.50000000
   6.33073849  2.11024616  7.50000000
   4.22371397  2.10247899 13.87820992
   6.33851480  4.21727089 13.87817782
   4.22049228  4.22049227 11.73399328
   6.33169845  2.10928150 11.72656424

--------------------------------------- Iteration      FINAL  ---------------------------------------

--------------------OUTCAR has been truncated-------------------------

[...]

--------------------OUTCAR has been truncated-------------------------

  DFT-D2 method for vdW energy calculation

  Parameters of vdW forcefield:
         C6(Jnm^6/mol)     R0(A)
   N        1.230          1.397
   O        0.700          1.342
   Mg       0.630          1.243
   O        0.700          1.342

  vdW correction parametrized for the method        ¬ßú

  IVDW =   1
  VDW_RADIUS =    50.000 A
  VDW_S6 =     1.050
  VDW_SR =     1.000
  VDW_D =    20.000
  LVDW_EWALD = F

  Number of pair interactions contributing to vdW energy:  768270
  Edisp (eV):   -5.16824

 VOLUME and BASIS-vectors are now :
  energy-cutoff  :      600.00
  volume of cell :     1519.82
      direct lattice vectors                 reciprocal lattice vectors
     8.440984654  0.000000000  0.000000000     0.118469591  0.000000000  0.000000000
     0.000000000  8.440984654  0.000000000     0.000000000  0.118469591  0.000000000
     0.000000000  0.000000000 21.330738491     0.000000000  0.000000000  0.046880702

  length of vectors
     8.440984654  8.440984654 21.330738491     0.118469591  0.118469591  0.046880702

 FORCES acting on ions:
    Electron-Ion                     Ewald-Force                    Non-Local-Force
   0.110E-03 0.163E-03 -.110E+04   -.125E-03 -.184E-03 0.106E+04   0.157E-04 0.268E-04 0.392E+02
   -.103E-03 -.149E-03 -.152E+04   0.130E-03 0.190E-03 0.158E+04   -.209E-04 -.365E-04 -.545E+02
   0.686E-02 -.205E+00 0.208E+04   -.734E-02 0.206E+00 -.207E+04   0.346E-03 -.717E-03 -.639E+01
   0.204E+00 -.685E-02 0.208E+04   -.205E+00 0.733E-02 -.207E+04   0.756E-03 -.346E-03 -.639E+01
   0.123E-04 0.121E-04 0.718E+03   -.118E-04 -.121E-04 -.718E+03   -.426E-06 0.695E-06 0.425E+00
   0.915E+00 -.916E+00 0.719E+03   -.926E+00 0.926E+00 -.720E+03   0.668E-02 -.650E-02 0.420E+00
   0.206E+00 -.359E+01 -.638E+03   -.209E+00 0.355E+01 0.638E+03   0.436E-02 0.261E-01 -.894E-01
   0.359E+01 -.206E+00 -.638E+03   -.355E+01 0.209E+00 0.638E+03   -.250E-01 -.436E-02 -.886E-01
   0.929E-05 0.110E-04 -.200E+04   -.122E-04 -.649E-05 0.200E+04   -.231E-05 -.176E-05 0.534E+01
   0.227E+02 -.227E+02 -.197E+04   -.227E+02 0.227E+02 0.197E+04   0.433E-01 -.382E-01 0.545E+01
   -.685E-02 0.205E+00 0.208E+04   0.733E-02 -.206E+00 -.207E+04   -.348E-03 0.715E-03 -.639E+01
   0.228E+00 0.809E-02 0.208E+04   -.228E+00 -.807E-02 -.207E+04   -.354E-03 -.134E-04 -.639E+01
   0.211E-04 -.906E-05 0.719E+03   -.227E-04 0.115E-04 -.720E+03   0.925E-06 -.170E-05 0.390E+00
   0.920E+00 0.921E+00 0.719E+03   -.920E+00 -.920E+00 -.720E+03   0.543E-03 0.367E-03 0.446E+00
   -.206E+00 0.359E+01 -.638E+03   0.209E+00 -.355E+01 0.638E+03   -.436E-02 -.261E-01 -.894E-01
   0.610E+01 0.242E+00 -.627E+03   -.601E+01 -.250E+00 0.628E+03   -.834E-01 0.659E-02 -.198E+00
   0.268E-04 -.131E-05 -.199E+04   -.252E-04 -.283E-07 0.198E+04   -.991E-06 0.169E-05 0.539E+01
   0.225E+02 0.225E+02 -.198E+04   -.226E+02 -.226E+02 0.197E+04   0.916E-01 0.865E-01 0.545E+01
   -.809E-02 -.229E+00 0.208E+04   0.807E-02 0.228E+00 -.207E+04   0.114E-04 0.392E-03 -.639E+01
   -.204E+00 0.686E-02 0.208E+04   0.205E+00 -.734E-02 -.207E+04   -.753E-03 0.347E-03 -.639E+01
   -.104E-04 0.227E-04 0.719E+03   0.124E-04 -.237E-04 -.720E+03   -.828E-06 0.680E-06 0.392E+00
   -.920E+00 -.921E+00 0.719E+03   0.920E+00 0.920E+00 -.720E+03   -.544E-03 -.367E-03 0.446E+00
   -.242E+00 -.610E+01 -.627E+03   0.250E+00 0.601E+01 0.628E+03   -.660E-02 0.849E-01 -.192E+00
   -.359E+01 0.207E+00 -.638E+03   0.355E+01 -.209E+00 0.638E+03   0.250E-01 0.436E-02 -.886E-01
   -.745E-05 0.199E-04 -.199E+04   0.121E-04 -.170E-04 0.198E+04   0.101E-05 -.133E-05 0.539E+01
   -.225E+02 -.225E+02 -.198E+04   0.226E+02 0.226E+02 0.197E+04   -.916E-01 -.865E-01 0.545E+01
   0.809E-02 0.229E+00 0.208E+04   -.807E-02 -.228E+00 -.207E+04   -.119E-04 -.393E-03 -.639E+01
   -.228E+00 -.809E-02 0.208E+04   0.228E+00 0.807E-02 -.207E+04   0.353E-03 0.109E-04 -.639E+01
   -.222E-04 -.219E-04 0.721E+03   0.230E-04 0.232E-04 -.721E+03   0.144E-06 -.617E-06 0.492E+00
   -.915E+00 0.916E+00 0.719E+03   0.926E+00 -.926E+00 -.720E+03   -.668E-02 0.650E-02 0.420E+00
   0.242E+00 0.610E+01 -.627E+03   -.250E+00 -.601E+01 0.628E+03   0.660E-02 -.849E-01 -.192E+00
   -.610E+01 -.242E+00 -.627E+03   0.601E+01 0.250E+00 0.628E+03   0.834E-01 -.659E-02 -.198E+00
   -.292E-04 -.233E-04 -.189E+04   0.280E-04 0.214E-04 0.188E+04   0.193E-05 0.146E-05 0.460E+01
   -.227E+02 0.227E+02 -.197E+04   0.227E+02 -.227E+02 0.197E+04   -.433E-01 0.382E-01 0.545E+01
   0.373E-01 -.608E+00 0.538E+03   -.264E-01 0.604E+00 -.538E+03   -.132E-01 0.531E-02 -.990E-01
   0.607E+00 -.372E-01 0.538E+03   -.603E+00 0.264E-01 -.538E+03   -.489E-02 0.132E-01 -.988E-01
   0.311E-05 0.362E-06 0.156E+04   -.214E-05 -.216E-05 -.157E+04   0.381E-07 -.171E-06 0.312E+01
   0.163E+00 -.163E+00 0.156E+04   -.164E+00 0.164E+00 -.157E+04   0.594E-03 -.510E-03 0.313E+01
   0.258E+00 -.894E+01 -.152E+04   -.286E+00 0.890E+01 0.152E+04   0.271E-01 0.482E-01 -.453E+01
   0.894E+01 -.258E+00 -.152E+04   -.890E+01 0.286E+00 0.152E+04   -.446E-01 -.271E-01 -.453E+01
   0.114E-04 0.159E-04 -.475E+03   -.141E-04 -.135E-04 0.475E+03   -.127E-05 -.525E-06 0.278E+00
   0.364E+01 -.364E+01 -.468E+03   -.363E+01 0.363E+01 0.468E+03   -.594E-02 0.795E-02 0.311E+00
   -.372E-01 0.608E+00 0.538E+03   0.264E-01 -.604E+00 -.538E+03   0.132E-01 -.531E-02 -.990E-01
   0.781E+00 0.586E-01 0.540E+03   -.808E+00 -.601E-01 -.540E+03   0.313E-01 0.159E-02 -.963E-01
   0.384E-05 -.141E-05 0.156E+04   -.312E-05 0.214E-05 -.157E+04   -.466E-07 -.378E-06 0.313E+01
   0.162E+00 0.162E+00 0.156E+04   -.163E+00 -.163E+00 -.157E+04   0.108E-02 0.998E-03 0.313E+01
   -.258E+00 0.894E+01 -.152E+04   0.286E+00 -.890E+01 0.152E+04   -.271E-01 -.482E-01 -.453E+01
   0.306E+02 0.275E+00 -.148E+04   -.304E+02 -.299E+00 0.149E+04   -.164E+00 0.175E-01 -.443E+01
   0.163E-04 -.897E-05 -.470E+03   -.178E-04 0.942E-05 0.469E+03   0.803E-07 0.713E-07 0.251E+00
   0.357E+01 0.357E+01 -.470E+03   -.355E+01 -.355E+01 0.469E+03   -.242E-01 -.262E-01 0.249E+00
   -.586E-01 -.782E+00 0.540E+03   0.601E-01 0.808E+00 -.540E+03   -.159E-02 -.309E-01 -.958E-01
   -.607E+00 0.373E-01 0.538E+03   0.603E+00 -.264E-01 -.538E+03   0.489E-02 -.132E-01 -.988E-01
   -.662E-06 0.367E-05 0.156E+04   0.216E-05 -.318E-05 -.157E+04   -.566E-06 -.389E-06 0.313E+01
   -.162E+00 -.162E+00 0.156E+04   0.163E+00 0.163E+00 -.157E+04   -.108E-02 -.998E-03 0.313E+01
   -.275E+00 -.306E+02 -.148E+04   0.299E+00 0.304E+02 0.149E+04   -.174E-01 0.162E+00 -.442E+01
   -.894E+01 0.258E+00 -.152E+04   0.890E+01 -.286E+00 0.152E+04   0.446E-01 0.271E-01 -.453E+01
   -.124E-04 0.211E-04 -.470E+03   0.181E-04 -.215E-04 0.469E+03   0.921E-06 0.159E-06 0.254E+00
   -.357E+01 -.357E+01 -.470E+03   0.355E+01 0.355E+01 0.469E+03   0.242E-01 0.262E-01 0.249E+00
   0.586E-01 0.782E+00 0.540E+03   -.601E-01 -.808E+00 -.540E+03   0.159E-02 0.309E-01 -.958E-01
   -.781E+00 -.586E-01 0.540E+03   0.808E+00 0.601E-01 -.540E+03   -.313E-01 -.159E-02 -.963E-01
   -.295E-05 -.279E-05 0.156E+04   0.313E-05 0.316E-05 -.157E+04   0.608E-07 -.352E-06 0.313E+01
   -.163E+00 0.163E+00 0.156E+04   0.164E+00 -.164E+00 -.157E+04   -.593E-03 0.509E-03 0.313E+01
   0.275E+00 0.306E+02 -.148E+04   -.299E+00 -.304E+02 0.149E+04   0.174E-01 -.162E+00 -.442E+01
   -.306E+02 -.275E+00 -.148E+04   0.304E+02 0.299E+00 0.149E+04   0.164E+00 -.175E-01 -.443E+01
   -.158E-04 -.190E-04 -.466E+03   0.190E-04 0.188E-04 0.466E+03   -.306E-06 -.488E-06 -.182E+00
   -.364E+01 0.364E+01 -.468E+03   0.363E+01 -.363E+01 0.468E+03   0.594E-02 -.795E-02 0.311E+00
   0.144E-04 0.252E-04 0.374E+02   0.799E-14 0.101E-12 0.909E-12   -.460E-05 -.174E-04 -.314E+02

 POSITION                                       TOTAL-FORCE (eV/Angst)
      4.22049      4.22049     16.22123         0.000001      0.000008      2.108373
      4.22049      4.22049     17.39713         0.000003     -0.000000     -1.941907
      0.00000      6.33074      7.50000        -0.000098      0.000265      0.466792
      2.11025      0.00000      7.50000        -0.000283      0.000099      0.466789
      0.00000      0.00000      9.61025         0.000000      0.000001      0.035781
      2.11025      6.33074      9.61025        -0.003361      0.003277      0.038022
      8.43988      6.33047     11.73309         0.001734     -0.007933      0.014636
      2.11051      0.00110     11.73310         0.007478     -0.001733      0.014313
      0.00000      0.00000     13.83701        -0.000006      0.000003     -0.092555
      2.10768      6.33329     13.83211        -0.006583      0.004877     -0.119703
      0.00000      2.11025      7.50000         0.000098     -0.000265      0.466790
      2.11025      4.22049      7.50000         0.000044      0.000009      0.466032
      0.00000      4.22049      9.61025        -0.000001      0.000001      0.046794
      2.11025      2.11025      9.61025         0.000353      0.000436      0.037469
      0.00110      2.11051     11.73309        -0.001737      0.007930      0.014637
      2.11348      4.22104     11.73332        -0.004455     -0.000951      0.040101
      0.00000      4.22049     13.83493         0.000001      0.000000     -0.109849
      2.11118      2.11118     13.83800        -0.009467     -0.007765     -0.117187
      4.22049      6.33074      7.50000        -0.000009     -0.000063      0.465983
      6.33074      0.00000      7.50000         0.000283     -0.000098      0.466787
      4.22049      0.00000      9.61025         0.000001     -0.000000      0.046441
      6.33074      6.33074      9.61025        -0.000355     -0.000438      0.037470
      4.21994      6.32750     11.73332         0.000957      0.003868      0.038803
      6.33047      8.43988     11.73310        -0.007481      0.001735      0.014323
      4.22049      0.00000     13.83494         0.000006      0.000002     -0.110144
      6.32981      6.32980     13.83800         0.009465      0.007769     -0.117190
      4.22049      2.11025      7.50000         0.000009      0.000062      0.465982
      6.33074      4.22049      7.50000        -0.000045     -0.000009      0.466027
      4.22049      4.22049      9.61025         0.000001      0.000001      0.044302
      6.33074      2.11025      9.61025         0.003358     -0.003279      0.038023
      4.22104      2.11348     11.73332        -0.000953     -0.003868      0.038803
      6.32751      4.21994     11.73332         0.004454      0.000951      0.040102
      4.22049      4.22049     13.87457         0.000001     -0.000001     -0.236079
      6.33330      2.10769     13.83211         0.006584     -0.004884     -0.119712
      0.00000      6.33074      9.61025        -0.004162      0.001768      0.052098
      2.11025      0.00000      9.61025        -0.001628      0.004161      0.052173
      0.00000      0.00000      7.50000         0.000001     -0.000002     -0.435415
      2.11025      6.33074      7.50000         0.000201     -0.000175     -0.434627
      8.43987      6.33166     13.88292         0.002500      0.007087     -0.088906
      2.10932      0.00111     13.88293        -0.005925     -0.002500     -0.088658
      0.00000      0.00000     11.72674        -0.000004      0.000002      0.044993
      2.10929      6.33170     11.72656        -0.002017      0.002677      0.033728
      0.00000      2.11025      9.61025         0.004160     -0.001771      0.052099
      2.11025      4.22049      9.61025         0.009338      0.000256      0.054948
      0.00000      4.22049      7.50000         0.000001      0.000000     -0.434762
      2.11025      2.11025      7.50000         0.000378      0.000351     -0.434690
      0.00111      2.10932     13.88292        -0.002502     -0.007090     -0.088911
      2.10247      4.22371     13.87818         0.011781     -0.004340     -0.066620
      0.00000      4.22049     11.72634        -0.000002      0.000000      0.027990
      2.11084      2.11083     11.72827        -0.004766     -0.005421      0.032147
      4.22049      6.33074      9.61025        -0.000253     -0.009190      0.055103
      6.33074      0.00000      9.61025         0.001625     -0.004161      0.052174
      4.22049      0.00000      7.50000         0.000001     -0.000000     -0.434732
      6.33074      6.33074      7.50000        -0.000378     -0.000351     -0.434688
      4.21727      6.33851     13.87821         0.004364     -0.012638     -0.062715
      6.33166      8.43987     13.88293         0.005924      0.002502     -0.088671
      4.22049      0.00000     11.72636         0.000007     -0.000000      0.029048
      6.33015      6.33015     11.72827         0.004763      0.005424      0.032149
      4.22049      2.11025      9.61025         0.000257      0.009189      0.055102
      6.33074      4.22049      9.61025        -0.009338     -0.000254      0.054950
      4.22049      4.22049      7.50000         0.000000     -0.000000     -0.434381
      6.33074      2.11025      7.50000        -0.000203      0.000175     -0.434626
      4.22371      2.10248     13.87821        -0.004361      0.012638     -0.062715
      6.33851      4.21727     13.87818        -0.011781      0.004341     -0.066623
      4.22049      4.22049     11.73399         0.000003     -0.000001      0.014059
      6.33170      2.10928     11.72656         0.002017     -0.002682      0.033732
    total drift:                                0.000009      0.000005      0.002689

  FREE ENERGIE OF THE ION-ELECTRON SYSTEM (eV)
  free  energy   TOTEN  =      -454.44412012 eV

  energy  without entropy=     -454.44412012  energy(sigma->0) =     -454.44412012