 vasp.6.3.0 20Jan22 (build Apr  1 2022 16:44:48) complex
 executed on        HPECrayEX_GCC date 2023.02.23  12:08:57

 INCAR:
   SYSTEM = MgO-rocksalt
   ISMEAR = 0
   SIGMA = 0.05
   EDIFF = 1E-6
   ALGO = ALL
   ISTART = 0
   IBRION = -1
   NSW = 0
   ISYM = 0
   DIPOL = 0.5 0.5 0.5
   IDIPOL = 3
   LDIPOL = .TRUE.
   LHFCALC = .TRUE.
   GGA = B5
   AEXX = 0.2
   AGGAX = 0.72
   AGGAC = 0.81
   ALDAC = 0.19
   IVDW = 1
   VDW_S6 = 1.05
   VDW_C6 = 0.63 0.70
   VDW_R0 = 1.243 1.342
   ENCUT = 600
   PREC = Accurate
   LASPH = .TRUE.
   LREAL = .FALSE.
   ISPIN = 1
   NELM = 200
   NELMIN = 8
   NCORE = 8
   KPAR = 1
   LWAVE = .FALSE.
   LCHARG = .FALSE.

 POTCAR:    PAW_PBE Mg_pv 13Apr2007
 POTCAR:    PAW_PBE O 08Apr2002
 POTCAR:    PAW_PBE Mg_pv 13Apr2007
   VRHFIN =Mg: p6s2

   TITEL  = PAW_PBE Mg_pv 13Apr2007
   POMASS =   24.305; ZVAL   =    8.000    mass and valenz
   ENMAX  =  403.929; ENMIN  =  302.947 eV

   TITEL  = PAW_PBE O 08Apr2002
   POMASS =   16.000; ZVAL   =    6.000    mass and valenz
   ENMAX  =  400.000; ENMIN  =  300.000 eV

  PAW_PBE Mg_pv 13Apr2007               :
  PAW_PBE O 08Apr2002                   :

 POSCAR: Mg  O
  positions in direct lattice
 exchange correlation table for  LEXCH =       12
   RHO(1)=    0.500       N(1)  =     2000
   RHO(2)=  100.500       N(2)  =     4000

 ion  position               nearest neighbor table
   1  0.000  0.750  0.350-  33 2.14  35 2.14  36 2.14  43 2.14  52 2.14
   2  0.250  0.000  0.350-  34 2.14  35 2.14  36 2.14  44 2.14  51 2.14
   3  0.000  0.000  0.450-  35 2.14  34 2.14  33 2.14  41 2.14  50 2.14  39 2.14
   4  0.250  0.750  0.450-  36 2.14  34 2.14  33 2.14  42 2.14  49 2.14  40 2.14
   5  1.000  0.750  0.550-  47 2.13  40 2.14  56 2.14  39 2.14  33 2.14  37 2.17
   6  0.250  1.000  0.550-  55 2.13  40 2.14  48 2.14  39 2.14  34 2.14  38 2.17
   7  1.000  1.000  0.649-  39 2.12  54 2.13  38 2.13  37 2.13  45 2.13
   8  0.250  0.750  0.649-  40 2.11  37 2.13  38 2.13  46 2.14  53 2.14
   9  0.000  0.250  0.350-  41 2.14  35 2.14  43 2.14  44 2.14  60 2.14
  10  0.250  0.500  0.350-  42 2.14  36 2.14  43 2.14  44 2.14  59 2.14
  11  0.000  0.500  0.450-  43 2.14  41 2.14  42 2.14  33 2.14  58 2.14  47 2.14
  12  0.250  0.250  0.450-  44 2.14  41 2.14  42 2.14  34 2.14  57 2.14  48 2.14
  13  1.000  0.250  0.550-  47 2.13  48 2.14  64 2.14  39 2.14  41 2.14  45 2.17
  14  0.252  0.500  0.551-  63 2.12  40 2.14  48 2.14  47 2.15  42 2.16  46 2.16
  15  0.000  0.500  0.649-  62 2.11  46 2.11  47 2.12  45 2.14  37 2.14
  16  0.250  0.249  0.649-  48 2.11  38 2.13  45 2.13  61 2.14  46 2.14
  17  0.500  0.750  0.350-  49 2.14  36 2.14  51 2.14  52 2.14  59 2.14
  18  0.750  0.000  0.350-  50 2.14  35 2.14  51 2.14  52 2.14  60 2.14
  19  0.500  0.000  0.450-  51 2.14  49 2.14  50 2.14  34 2.14  57 2.14  55 2.14
  20  0.750  0.750  0.450-  52 2.14  49 2.14  50 2.14  33 2.14  58 2.14  56 2.14
  21  0.500  0.748  0.551-  63 2.12  40 2.14  56 2.14  55 2.15  49 2.16  53 2.16
  22  0.750  1.000  0.550-  55 2.13  56 2.14  64 2.14  39 2.14  50 2.14  54 2.17
  23  0.500  0.000  0.649-  61 2.11  53 2.11  55 2.12  54 2.14  38 2.14
  24  0.750  0.750  0.649-  56 2.11  37 2.13  54 2.13  62 2.14  53 2.14
  25  0.500  0.250  0.350-  57 2.14  51 2.14  44 2.14  59 2.14  60 2.14
  26  0.750  0.500  0.350-  58 2.14  52 2.14  43 2.14  59 2.14  60 2.14
  27  0.500  0.500  0.450-  59 2.14  49 2.14  57 2.14  58 2.14  42 2.14  63 2.16
  28  0.750  0.250  0.450-  60 2.14  50 2.14  57 2.14  58 2.14  41 2.14  64 2.14
  29  0.500  0.251  0.551-  63 2.12  48 2.14  64 2.14  55 2.15  57 2.16  61 2.16
  30  0.748  0.500  0.551-  63 2.12  56 2.14  64 2.14  47 2.15  58 2.16  62 2.16
  31  0.500  0.499  0.657-  61 2.16  62 2.16  46 2.16  53 2.17
  32  0.750  0.249  0.649-  64 2.11  54 2.13  45 2.13  61 2.14  62 2.14
  33  0.000  0.750  0.450-   1 2.14   3 2.14   4 2.14  11 2.14  20 2.14   5 2.14
  34  0.250  0.000  0.450-   2 2.14   3 2.14   4 2.14  12 2.14  19 2.14   6 2.14
  35  0.000  0.000  0.350-   3 2.14   2 2.14   1 2.14   9 2.14  18 2.14
  36  0.250  0.750  0.350-   4 2.14   2 2.14   1 2.14  10 2.14  17 2.14
  37  1.000  0.751  0.651-   7 2.13  24 2.13   8 2.13  15 2.14   5 2.17
  38  0.249  1.000  0.651-   7 2.13  16 2.13   8 2.13  23 2.14   6 2.17
  39  1.000  1.000  0.550-   7 2.12   3 2.14   5 2.14   6 2.14  22 2.14  13 2.14
  40  0.250  0.750  0.550-   8 2.11   6 2.14   5 2.14  21 2.14  14 2.14   4 2.14
  41  0.000  0.250  0.450-   9 2.14   3 2.14  11 2.14  12 2.14  28 2.14  13 2.14
  42  0.250  0.500  0.450-  10 2.14   4 2.14  11 2.14  12 2.14  27 2.14  14 2.16
  43  0.000  0.500  0.350-  11 2.14   9 2.14  10 2.14   1 2.14  26 2.14
  44  0.250  0.250  0.350-  12 2.14   9 2.14  10 2.14   2 2.14  25 2.14
  45  1.000  0.249  0.652-   7 2.13  32 2.13  16 2.13  15 2.14  13 2.17
  46  0.247  0.500  0.652-  15 2.11  16 2.14   8 2.14  14 2.16  31 2.16
  47  0.000  0.500  0.550-  15 2.12   5 2.13  13 2.13  11 2.14  14 2.15  30 2.15
  48  0.250  0.250  0.550-  16 2.11  13 2.14   6 2.14  14 2.14  29 2.14  12 2.14
  49  0.500  0.750  0.450-  17 2.14   4 2.14  19 2.14  20 2.14  27 2.14  21 2.16
  50  0.750  0.000  0.450-  18 2.14   3 2.14  19 2.14  20 2.14  28 2.14  22 2.14
  51  0.500  0.000  0.350-  19 2.14  17 2.14  18 2.14   2 2.14  25 2.14
  52  0.750  0.750  0.350-  20 2.14  17 2.14  18 2.14   1 2.14  26 2.14
  53  0.500  0.753  0.652-  23 2.11  24 2.14   8 2.14  21 2.16  31 2.17
  54  0.751  1.000  0.651-   7 2.13  32 2.13  24 2.13  23 2.14  22 2.17
  55  0.500  1.000  0.550-  23 2.12   6 2.13  22 2.13  19 2.14  21 2.15  29 2.15
  56  0.750  0.750  0.550-  24 2.11  22 2.14   5 2.14  21 2.14  30 2.14  20 2.14
  57  0.500  0.250  0.450-  25 2.14  19 2.14  12 2.14  27 2.14  28 2.14  29 2.16
  58  0.750  0.500  0.450-  26 2.14  20 2.14  11 2.14  27 2.14  28 2.14  30 2.16
  59  0.500  0.500  0.350-  27 2.14  17 2.14  25 2.14  26 2.14  10 2.14
  60  0.750  0.250  0.350-  28 2.14  18 2.14  25 2.14  26 2.14   9 2.14
  61  0.500  0.247  0.652-  23 2.11  32 2.14  16 2.14  29 2.16  31 2.16
  62  0.753  0.500  0.652-  15 2.11  32 2.14  24 2.14  30 2.16  31 2.16
  63  0.500  0.500  0.551-  21 2.12  14 2.12  30 2.12  29 2.12  27 2.16
  64  0.750  0.250  0.550-  32 2.11  13 2.14  22 2.14  30 2.14  29 2.14  28 2.14

IMPORTANT INFORMATION: All symmetrisations will be switched off!
NOSYMM: (Re-)initialisation of all symmetry stuff for point group C_1.

                                     Primitive cell

  volume of cell :    1563.6717

  direct lattice vectors                    reciprocal lattice vectors
     8.546113626  0.000000000  0.000000000     0.117012252  0.000000000  0.000000000
     0.000000000  8.546113626  0.000000000     0.000000000  0.117012252  0.000000000
     0.000000000  0.000000000 21.409585219     0.000000000  0.000000000  0.046708051

  length of vectors
     8.546113626  8.546113626 21.409585219     0.117012252  0.117012252  0.046708051

  position of ions in fractional coordinates (direct lattice)
     0.000000000  0.750000000  0.350310383
     0.250000000  0.000000000  0.350310383
     0.000000000  0.000000000  0.450103461
     0.250000000  0.750000000  0.450103461
     0.999999994  0.749572080  0.550067146
     0.250346608  0.999895963  0.550056130
     0.999999977  0.999862841  0.649015149
     0.249566527  0.750200457  0.648710131
     0.000000000  0.250000000  0.350310383
     0.250000000  0.500000000  0.350310383
     0.000000000  0.500000000  0.450103461
     0.250000000  0.250000000  0.450103461
     0.999999997  0.250270776  0.550043815
     0.251563977  0.499923985  0.550844194
     0.000000001  0.499860487  0.648873855
     0.249636081  0.249418926  0.648627018
     0.500000000  0.750000000  0.350310383
     0.750000000  0.000000000  0.350310383
     0.500000000  0.000000000  0.450103461
     0.750000000  0.750000000  0.450103461
     0.499999980  0.748360126  0.550869814
     0.749653357  0.999895958  0.550056137
     0.499999982  0.000005749  0.648869585
     0.750433446  0.750200476  0.648710096
     0.500000000  0.250000000  0.350310383
     0.750000000  0.500000000  0.350310383
     0.500000000  0.500000000  0.450103461
     0.750000000  0.250000000  0.450103461
     0.499999975  0.251481772  0.550816110
     0.748436019  0.499923987  0.550844225
     0.500000068  0.499401210  0.656816073
     0.750363897  0.249418900  0.648626989
     0.000000000  0.750000000  0.450103461
     0.250000000  0.000000000  0.450103461
     0.000000000  0.000000000  0.350310383
     0.250000000  0.750000000  0.350310383
     0.999999977  0.750549427  0.651475631
     0.249306243  0.999880692  0.651487381
     0.999999987  0.999914735  0.549906447
     0.249922324  0.750020047  0.550127284
     0.000000000  0.250000000  0.450103461
     0.250000000  0.500000000  0.450103461
     0.000000000  0.500000000  0.350310383
     0.250000000  0.250000000  0.350310383
     0.999999977  0.249179206  0.651501110
     0.247270654  0.499790350  0.651715755
     0.000000015  0.499926640  0.549953063
     0.249867204  0.249803207  0.550081319
     0.500000000  0.750000000  0.450103461
     0.750000000  0.000000000  0.450103461
     0.500000000  0.000000000  0.350310383
     0.750000000  0.750000000  0.350310383
     0.500000009  0.752699916  0.651860442
     0.750693715  0.999880691  0.651487379
     0.499999979  0.999883941  0.549952545
     0.750077648  0.750020060  0.550127276
     0.500000000  0.250000000  0.450103461
     0.750000000  0.500000000  0.450103461
     0.500000000  0.500000000  0.350310383
     0.750000000  0.250000000  0.350310383
     0.500000000  0.247176585  0.651592885
     0.752729396  0.499790355  0.651715722
     0.499999989  0.499961269  0.550842886
     0.750132768  0.249803194  0.550081315

  ion indices of the primitive-cell ions
   primitive index   ion index
                 1           1
                 2           2
                 3           3
                 4           4
                 5           5
                 6           6
                 7           7
                 8           8
                 9           9
                10          10
                11          11
                12          12
                13          13
                14          14
                15          15
                16          16
                17          17
                18          18
                19          19
                20          20
                21          21
                22          22
                23          23
                24          24
                25          25
                26          26
                27          27
                28          28
                29          29
                30          30
                31          31
                32          32
                33          33
                34          34
                35          35
                36          36
                37          37
                38          38
                39          39
                40          40
                41          41
                42          42
                43          43
                44          44
                45          45
[...]
   0.25000000  0.50000000  0.45010346
   0.00000000  0.50000000  0.35031038
   0.25000000  0.25000000  0.35031038
   0.99999998  0.24917921  0.65150111
   0.24727065  0.49979035  0.65171576
   0.00000001  0.49992664  0.54995306
   0.24986720  0.24980321  0.55008132
   0.50000000  0.75000000  0.45010346
   0.75000000  0.00000000  0.45010346
   0.50000000  0.00000000  0.35031038
   0.75000000  0.75000000  0.35031038
   0.50000001  0.75269992  0.65186044
   0.75069371  0.99988069  0.65148738
   0.49999998  0.99988394  0.54995255
   0.75007765  0.75002006  0.55012728
   0.50000000  0.25000000  0.45010346
   0.75000000  0.50000000  0.45010346
   0.50000000  0.50000000  0.35031038
   0.75000000  0.25000000  0.35031038
   0.50000000  0.24717658  0.65159288
   0.75272940  0.49979035  0.65171572
   0.49999999  0.49996127  0.55084289
   0.75013277  0.24980319  0.55008132

 position of ions in cartesian coordinates  (Angst):
   0.00000000  6.40958522  7.50000000
   2.13652841  0.00000000  7.50000000
   0.00000000  0.00000000  9.63652841
   2.13652841  6.40958522  9.63652841
   8.54611357  6.40592817 11.77670944
   2.13949056  8.54522452 11.77647359
   8.54611343  8.54494145 13.89514513
   2.13282390  6.41129835 13.88861482
   0.00000000  2.13652841  7.50000000
   2.13652841  4.27305681  7.50000000
   0.00000000  4.27305681  9.63652841
   2.13652841  2.13652841  9.63652841
   8.54611360  2.13884249 11.77620994
   2.14989433  4.27240718 11.79334571
   0.00000001  4.27186452 13.89212009
   2.13341831  2.13156248 13.88683541
   4.27305681  6.40958522  7.50000000
   6.40958522  0.00000000  7.50000000
   4.27305681  0.00000000  9.63652841
   6.40958522  6.40958522  9.63652841
   4.27305664  6.39557067 11.79389423
   6.40662277  8.54522447 11.77647373
   4.27305666  0.00004913 13.89202868
   6.41328950  6.41129851 13.88861408
   4.27305681  2.13652841  7.50000000
   6.40958522  4.27305681  7.50000000
   4.27305681  4.27305681  9.63652841
   6.40958522  2.13652841  9.63652841
   4.27305660  2.14919180 11.79274444
   6.39621926  4.27240720 11.79334639
   4.27305739  4.26793949 14.06215968
   6.41269513  2.13156226 13.88683480
   0.00000000  6.40958522  9.63652841
   2.13652841  0.00000000  9.63652841
   0.00000000  0.00000000  7.50000000
   2.13652841  6.40958522  7.50000000
   8.54611343  6.41428068 13.94782304
   2.13059948  8.54509400 13.94807461
   8.54611351  8.54538494 11.77326893
   2.13586458  6.40975655 11.77799696
   0.00000000  2.13652841  9.63652841
   2.13652841  4.27305681  9.63652841
   0.00000000  4.27305681  7.50000000
   2.13652841  2.13652841  7.50000000
   8.54611343  2.12951381 13.94836854
   2.11320310  4.27126512 13.95296400
   0.00000013  4.27242987 11.77426696
   2.13539352  2.13484659 11.77701288
   4.27305681  6.40958522  9.63652841
   6.40958522  0.00000000  9.63652841
   4.27305681  0.00000000  7.50000000
   6.40958522  6.40958522  7.50000000
   4.27305689  6.43265901 13.95606168
   6.41551379  8.54509400 13.94807456
   4.27305663  8.54512177 11.77425588
   6.41024881  6.40975665 11.77799679
   4.27305681  2.13652841  9.63652841
   6.40958522  4.27305681  9.63652841
   4.27305681  4.27305681  7.50000000
   6.40958522  2.13652841  7.50000000
   4.27305681  2.11239918 13.95033340
   6.43291095  4.27126516 13.95296329
   4.27305672  4.27272582 11.79331771
   6.41071987  2.13484648 11.77701279

--------------------------------------- Iteration      FINAL  ---------------------------------------

--------------------OUTCAR has been truncated-------------------------

[...]

--------------------OUTCAR has been truncated-------------------------

  DFT-D2 method for vdW energy calculation

  Parameters of vdW forcefield:
         C6(Jnm^6/mol)     R0(A)
   Mg       0.630          1.243
   O        0.700          1.342

  vdW correction parametrized for the method ´ü      

  IVDW =   1
  VDW_RADIUS =    50.000 A
  VDW_S6 =     1.050
  VDW_SR =     1.000
  VDW_D =    20.000
  LVDW_EWALD = F

  Number of pair interactions contributing to vdW energy:  705150
  Edisp (eV):   -4.82847

 VOLUME and BASIS-vectors are now :
  energy-cutoff  :      600.00
  volume of cell :     1563.67
      direct lattice vectors                 reciprocal lattice vectors
     8.546113626  0.000000000  0.000000000     0.117012252  0.000000000  0.000000000
     0.000000000  8.546113626  0.000000000     0.000000000  0.117012252  0.000000000
     0.000000000  0.000000000 21.409585219     0.000000000  0.000000000  0.046708051

  length of vectors
     8.546113626  8.546113626 21.409585219     0.117012252  0.117012252  0.046708051

 FORCES acting on ions:
    Electron-Ion                     Ewald-Force                    Non-Local-Force
   -.315E-04 0.295E+00 0.201E+04   -.210E-05 -.303E+00 -.200E+04   0.331E-04 0.547E-02 -.632E+01
   -.295E+00 0.231E-01 0.201E+04   0.303E+00 -.237E-01 -.200E+04   -.539E-02 0.397E-03 -.632E+01
   0.768E-05 0.791E-01 0.666E+03   -.245E-05 -.827E-01 -.667E+03   0.114E-04 0.211E-02 0.326E+00
   -.152E+01 0.151E+01 0.664E+03   0.159E+01 -.158E+01 -.665E+03   -.424E-01 0.418E-01 0.460E+00
   -.769E-05 0.105E+01 -.665E+03   0.290E-04 -.105E+01 0.665E+03   -.342E-04 0.283E-01 -.152E+00
   -.105E+01 0.207E+00 -.665E+03   0.105E+01 -.215E+00 0.665E+03   -.282E-01 0.611E-02 -.146E+00
   -.357E-04 0.507E-01 -.199E+04   0.452E-04 -.339E-01 0.198E+04   -.163E-04 -.115E-01 0.534E+01
   -.334E+01 0.307E+01 -.199E+04   0.289E+01 -.258E+01 0.198E+04   0.342E+00 -.360E+00 0.548E+01
   -.998E-05 -.295E+00 0.201E+04   -.304E-05 0.303E+00 -.200E+04   -.216E-05 -.523E-02 -.632E+01
   -.324E+00 -.238E-01 0.201E+04   0.335E+00 0.241E-01 -.200E+04   -.777E-02 -.162E-03 -.635E+01
   0.877E-05 -.955E-01 0.664E+03   -.339E-04 0.926E-01 -.665E+03   0.155E-04 0.175E-02 0.341E+00
   -.151E+01 -.152E+01 0.664E+03   0.156E+01 0.158E+01 -.665E+03   -.369E-01 -.372E-01 0.448E+00
   0.102E-04 -.105E+01 -.665E+03   0.467E-05 0.105E+01 0.665E+03   -.305E-04 -.288E-01 -.137E+00
   -.416E+01 -.218E+00 -.675E+03   0.460E+01 0.227E+00 0.675E+03   -.399E+00 -.676E-02 -.265E+00
   -.102E-03 -.344E-01 -.199E+04   0.104E-03 0.136E-01 0.198E+04   -.115E-04 0.139E-01 0.527E+01
   -.276E+01 -.301E+01 -.198E+04   0.224E+01 0.252E+01 0.198E+04   0.380E+00 0.364E+00 0.548E+01
   0.240E-04 0.324E+00 0.201E+04   0.207E-05 -.336E+00 -.200E+04   -.106E-04 0.785E-02 -.635E+01
   0.295E+00 0.231E-01 0.201E+04   -.303E+00 -.237E-01 -.200E+04   0.537E-02 0.420E-03 -.632E+01
   -.187E-04 0.101E+00 0.664E+03   0.281E-05 -.112E+00 -.665E+03   0.185E-04 0.691E-02 0.340E+00
   0.152E+01 0.151E+01 0.664E+03   -.159E+01 -.158E+01 -.665E+03   0.424E-01 0.418E-01 0.460E+00
   0.487E-04 0.424E+01 -.676E+03   -.455E-04 -.467E+01 0.676E+03   -.785E-05 0.398E+00 -.251E+00
   0.105E+01 0.207E+00 -.665E+03   -.105E+01 -.215E+00 0.665E+03   0.282E-01 0.611E-02 -.146E+00
   0.685E-04 0.431E+00 -.199E+04   -.570E-04 -.480E+00 0.198E+04   -.807E-05 0.272E-01 0.527E+01
   0.334E+01 0.307E+01 -.199E+04   -.289E+01 -.258E+01 0.198E+04   -.342E+00 -.360E+00 0.548E+01
   0.169E-04 -.325E+00 0.201E+04   0.302E-05 0.336E+00 -.200E+04   -.645E-05 -.760E-02 -.635E+01
   0.324E+00 -.238E-01 0.201E+04   -.335E+00 0.241E-01 -.200E+04   0.775E-02 -.181E-03 -.635E+01
   -.202E-04 -.122E+00 0.660E+03   0.322E-04 0.126E+00 -.661E+03   0.939E-05 -.312E-02 0.524E+00
   0.151E+01 -.152E+01 0.664E+03   -.156E+01 0.158E+01 -.665E+03   0.369E-01 -.371E-01 0.448E+00
   0.215E-04 -.413E+01 -.674E+03   -.141E-04 0.456E+01 0.674E+03   -.154E-05 -.396E+00 -.273E+00
   0.416E+01 -.218E+00 -.675E+03   -.460E+01 0.227E+00 0.675E+03   0.399E+00 -.676E-02 -.265E+00
   0.146E-03 -.153E+01 -.205E+04   -.138E-03 0.149E+01 0.204E+04   -.139E-04 0.709E-01 0.640E+01
   0.276E+01 -.301E+01 -.198E+04   -.224E+01 0.252E+01 0.198E+04   -.380E+00 0.364E+00 0.548E+01
   0.674E-05 0.788E+00 0.499E+03   -.222E-05 -.790E+00 -.499E+03   0.861E-05 0.228E-02 -.181E-01
   -.793E+00 0.695E-01 0.499E+03   0.798E+00 -.638E-01 -.499E+03   -.716E-02 -.684E-02 -.182E-01
   0.467E-04 0.164E-01 0.151E+04   -.885E-06 -.164E-01 -.151E+04   0.528E-05 0.258E-04 0.316E+01
   -.240E+00 0.239E+00 0.151E+04   0.250E+00 -.249E+00 -.151E+04   -.127E-01 0.120E-01 0.315E+01
   -.175E-04 0.116E+01 -.152E+04   0.385E-04 -.119E+01 0.152E+04   -.881E-05 -.150E-01 -.481E+01
   -.117E+01 0.239E+00 -.152E+04   0.121E+01 -.270E+00 0.152E+04   0.747E-02 0.321E-01 -.482E+01
   -.131E-04 0.700E-01 -.494E+03   0.114E-04 -.679E-01 0.494E+03   -.488E-05 -.213E-02 0.174E+00
   -.224E+01 0.218E+01 -.494E+03   0.219E+01 -.213E+01 0.494E+03   0.654E-01 -.682E-01 0.529E+00
   -.370E-05 -.801E+00 0.499E+03   -.865E-05 0.810E+00 -.499E+03   0.875E-05 -.116E-01 -.175E-01
   -.893E+00 -.857E-01 0.496E+03   0.842E+00 0.895E-01 -.496E+03   0.570E-01 -.434E-02 -.174E+00
   -.300E-04 -.162E-01 0.151E+04   -.357E-05 0.164E-01 -.151E+04   0.227E-04 -.297E-03 0.315E+01
   -.238E+00 -.239E+00 0.151E+04   0.247E+00 0.249E+00 -.151E+04   -.117E-01 -.124E-01 0.315E+01
   -.325E-04 -.117E+01 -.152E+04   0.400E-04 0.121E+01 0.152E+04   -.796E-05 0.926E-02 -.483E+01
   -.694E+01 -.244E+00 -.151E+04   0.672E+01 0.254E+00 0.152E+04   0.472E+00 -.972E-02 -.396E+01
   0.544E-05 -.733E-01 -.492E+03   -.448E-05 0.709E-01 0.492E+03   0.311E-05 0.246E-02 0.477E+00
   -.210E+01 -.216E+01 -.494E+03   0.204E+01 0.211E+01 0.493E+03   0.717E-01 0.701E-01 0.543E+00
   -.176E-04 0.891E+00 0.496E+03   0.468E-05 -.837E+00 -.495E+03   -.102E-05 -.616E-01 -.182E+00
   0.793E+00 0.694E-01 0.499E+03   -.798E+00 -.638E-01 -.499E+03   0.716E-02 -.683E-02 -.182E-01
   -.462E-04 0.186E-01 0.151E+04   0.825E-06 -.194E-01 -.151E+04   0.401E-05 0.102E-02 0.315E+01
   0.240E+00 0.239E+00 0.151E+04   -.250E+00 -.249E+00 -.151E+04   0.127E-01 0.120E-01 0.315E+01
   0.684E-04 0.742E+01 -.151E+04   -.824E-04 -.724E+01 0.152E+04   0.124E-04 -.449E+00 -.401E+01
   0.117E+01 0.239E+00 -.152E+04   -.121E+01 -.270E+00 0.152E+04   -.747E-02 0.321E-01 -.482E+01
   0.205E-04 0.231E+00 -.492E+03   -.218E-04 -.237E+00 0.492E+03   0.634E-05 0.885E-02 0.476E+00
   0.224E+01 0.218E+01 -.494E+03   -.219E+01 -.213E+01 0.494E+03   -.653E-01 -.682E-01 0.529E+00
   -.164E-04 -.899E+00 0.496E+03   0.115E-04 0.852E+00 -.496E+03   0.329E-05 0.526E-01 -.166E+00
   0.893E+00 -.857E-01 0.496E+03   -.842E+00 0.895E-01 -.496E+03   -.570E-01 -.434E-02 -.174E+00
   0.194E-04 -.186E-01 0.151E+04   0.354E-05 0.196E-01 -.151E+04   -.132E-04 -.127E-02 0.313E+01
   0.238E+00 -.239E+00 0.151E+04   -.247E+00 0.249E+00 -.151E+04   0.117E-01 -.124E-01 0.315E+01
   0.582E-04 -.654E+01 -.151E+04   -.526E-04 0.629E+01 0.151E+04   0.111E-04 0.497E+00 -.393E+01
   0.694E+01 -.243E+00 -.151E+04   -.672E+01 0.254E+00 0.152E+04   -.472E+00 -.973E-02 -.396E+01
   0.281E-04 -.317E+00 -.520E+03   -.159E-04 0.325E+00 0.521E+03   -.214E-05 -.105E-01 -.105E+01
   0.210E+01 -.216E+01 -.494E+03   -.204E+01 0.211E+01 0.493E+03   -.717E-01 0.701E-01 0.543E+00
   -.756E-06 -.189E+00 0.151E+02   -.330E-12 0.462E-12 -.364E-11   -.561E-04 0.173E+00 -.132E+02

 POSITION                                       TOTAL-FORCE (eV/Angst)
      0.00000      6.40959      7.50000         0.000007     -0.002210      0.628109
      2.13653      0.00000      7.50000         0.002164     -0.000154      0.627901
      0.00000      0.00000      9.63653         0.000019     -0.001147      0.016916
      2.13653      6.40959      9.63653         0.018702     -0.018805      0.014347
      8.54611      6.40593     11.77671        -0.000011      0.025277      0.027216
      2.13949      8.54522     11.77647        -0.025066     -0.001249      0.028879
      8.54611      8.54494     13.89515        -0.000007      0.003993     -0.175583
      2.13282      6.41130     13.88861        -0.074027      0.090228     -0.149879
      0.00000      2.13653      7.50000        -0.000011      0.002142      0.628332
      2.13653      4.27306      7.50000         0.002952      0.000079      0.635647
      0.00000      4.27306      9.63653        -0.000009     -0.000904      0.037221
      2.13653      2.13653      9.63653         0.016525      0.016324      0.012578
      8.54611      2.13884     11.77621        -0.000014     -0.025143      0.030154
      2.14989      4.27241     11.79335         0.001946      0.001729     -0.047160
      0.00000      4.27186     13.89212        -0.000011     -0.005219     -0.127353
      2.13342      2.13156     13.88684        -0.098674     -0.085101     -0.148116
      4.27306      6.40959      7.50000         0.000016     -0.002980      0.636408
      6.40959      0.00000      7.50000        -0.002185     -0.000142      0.628211
      4.27306      0.00000      9.63653         0.000007     -0.003040      0.037299
      6.40959      6.40959      9.63653        -0.018713     -0.018838      0.014311
      4.27306      6.39557     11.79389        -0.000002     -0.001941     -0.040938
      6.40662      8.54522     11.77647         0.025058     -0.001251      0.028897
      4.27306      0.00005     13.89203         0.000004     -0.018582     -0.126074
      6.41329      6.41130     13.88861         0.074029      0.090224     -0.149990
      4.27306      2.13653      7.50000         0.000013      0.002956      0.635182
      6.40959      4.27306      7.50000        -0.002968      0.000062      0.635683
      4.27306      4.27306      9.63653         0.000022      0.001191      0.034194
      6.40959      2.13653      9.63653        -0.016542      0.016351      0.012547
      4.27306      2.14919     11.79274         0.000005      0.001570     -0.052336
      6.39622      4.27241     11.79335        -0.001940      0.001731     -0.047154
      4.27306      4.26794     14.06216        -0.000003      0.033276     -1.142584
      6.41270      2.13156     13.88683         0.098676     -0.085093     -0.148002
      0.00000      6.40959      9.63653         0.000016      0.001703      0.031077
      2.13653      0.00000      9.63653        -0.003125     -0.002085      0.029800
      0.00000      0.00000      7.50000         0.000049      0.000038     -0.270209
      2.13653      6.40959      7.50000        -0.004157      0.003979     -0.273964
      8.54611      6.41428     13.94782         0.000013     -0.050263     -0.268687
      2.13060      8.54509     13.94807         0.048732      0.005129     -0.273594
      8.54611      8.54538     11.77327        -0.000005     -0.000248     -0.024763
      2.13586      6.40976     11.77800         0.023684     -0.026155      0.011946
      0.00000      2.13653      9.63653         0.000000     -0.004415      0.028748
      2.13653      4.27306      9.63653         0.013924     -0.001171      0.050772
      0.00000      4.27306      7.50000        -0.000008     -0.000093     -0.274725
      2.13653      2.13653      7.50000        -0.003828     -0.004130     -0.273791
      8.54611      2.12951     13.94837        -0.000000      0.048844     -0.278068
      2.11320      4.27127     13.95296         0.332191     -0.000806     -0.034174
      0.00000      4.27243     11.77427         0.000006      0.000483      0.037039
      2.13539      2.13485     11.77701         0.028374      0.026727      0.015677
      4.27306      6.40959      9.63653        -0.000015     -0.015297      0.050326
      6.40959      0.00000      9.63653         0.003128     -0.002091      0.029820
      4.27306      0.00000      7.50000        -0.000036      0.000316     -0.274784
      6.40959      6.40959      7.50000         0.004165      0.003934     -0.273953
      4.27306      6.43266     13.95606         0.000001     -0.339948     -0.051515
      6.41551      8.54509     13.94807        -0.048747      0.005150     -0.273578
      4.27306      8.54512     11.77426         0.000007      0.004103      0.036628
      6.41025      6.40976     11.77800        -0.023690     -0.026144      0.011965
      4.27306      2.13653      9.63653        -0.000002      0.012652      0.051066
      6.40959      4.27306      9.63653        -0.013919     -0.001180      0.050755
      4.27306      4.27306      7.50000         0.000010     -0.000444     -0.280342
      6.40959      2.13653      7.50000         0.003818     -0.004074     -0.273738
      4.27306      2.11240     13.95033         0.000020      0.328821     -0.019823
      6.43291      4.27127     13.95296        -0.332197     -0.000812     -0.034168
      4.27306      4.27273     11.79332         0.000010     -0.004569      0.007695
      6.41072      2.13485     11.77701        -0.028380      0.026714      0.015698
    total drift:                               -0.000064     -0.000268      0.002284

  FREE ENERGIE OF THE ION-ELECTRON SYSTEM (eV)
  free  energy   TOTEN  =      -437.05054633 eV

  energy  without entropy=     -437.05054633  energy(sigma->0) =     -437.05054633