 vasp.6.4.2 20Jul23 (build Feb 22 2024 13:53:45) complex
 executed on              LinuxNV date 2024.08.27  15:53:55
 OpenACC runtime initialized ...    4 GPUs detected

 INCAR:
   SYSTEM = Oxide-Surface
   ISMEAR = 0
   SIGMA = 0.05
   EDIFF = 1E-5
   ALGO = Normal
   IBRION = -1
   NSW = 0
   ISYM = 0
   DIPOL = 0.5 0.5 0.5
   IDIPOL = 3
   LDIPOL = .TRUE.
   ISTART = 1
   METAGGA = R2SCAN
   ENCUT = 1000
   PREC = Normal
   PRECFOCK = Normal
   LASPH = .TRUE.
   LREAL = Auto
   ISPIN = 1
   NELM = 200
   NELMIN = 8
   NCORE = 1
   KPAR = 1
   LWAVE = .FALSE.
   LCHARG = .FALSE.

 POTCAR:    PAW_PBE C_h 06Feb2004
 POTCAR:    PAW_PBE O_h 06Feb2004
 POTCAR:    PAW_PBE Mg_sv 12Apr2007
 POTCAR:    PAW_PBE O_h 06Feb2004
 POTCAR:    PAW_PBE C_h 06Feb2004
   VRHFIN =C: s2p2

   TITEL  = PAW_PBE C_h 06Feb2004
   POMASS =   12.011; ZVAL   =    4.000    mass and valenz
   ENMAX  =  700.000; ENMIN  =  500.000 eV

[...]

   TITEL  = PAW_PBE Mg_sv 12Apr2007
   POMASS =   24.305; ZVAL   =   10.000    mass and valenz
   ENMAX  =  495.223; ENMIN  =  371.417 eV

   TITEL  = PAW_PBE O_h 06Feb2004
   POMASS =   16.000; ZVAL   =    6.000    mass and valenz
   ENMAX  =  700.000; ENMIN  =  500.000 eV

 Optimization of the real space projectors (new method)

 maximal supplied QI-value         = 34.20
 optimisation between [QCUT,QGAM] = [ 16.08, 32.15] = [ 72.37,289.48] Ry
 Optimized for a Real-space Cutoff    0.71 Angstroem

   l    n(q)    QCUT    max X(q) W(low)/X(q) W(high)/X(q)  e(spline)
   0      7    16.076   134.812    0.49E-03    0.92E-03    0.59E-07
   0      7    16.076    80.524    0.48E-03    0.91E-03    0.58E-07
   1      6    16.076    79.026    0.37E-03    0.58E-03    0.12E-06
   1      6    16.076    45.188    0.36E-03    0.56E-03    0.12E-06
 Optimization of the real space projectors (new method)

[...]

   l    n(q)    QCUT    max X(q) W(low)/X(q) W(high)/X(q)  e(spline)
   0      9    16.140     8.730    0.14E-04    0.12E-04    0.27E-07
   0      9    16.140     8.910    0.19E-04    0.17E-04    0.41E-07
   1      9    16.140     2.513    0.16E-04    0.28E-04    0.54E-07
   1      9    16.140     3.341    0.27E-04    0.13E-03    0.17E-06
   2      9    16.140     3.683    0.18E-03    0.21E-03    0.81E-07
 Optimization of the real space projectors (new method)

 maximal supplied QI-value         = 34.20
 optimisation between [QCUT,QGAM] = [ 16.08, 32.15] = [ 72.37,289.48] Ry
 Optimized for a Real-space Cutoff    0.71 Angstroem

   l    n(q)    QCUT    max X(q) W(low)/X(q) W(high)/X(q)  e(spline)
   0      7    16.076   280.207    0.42E-03    0.69E-03    0.60E-07
   0      7    16.076   228.978    0.42E-03    0.69E-03    0.61E-07
   1      6    16.076    86.127    0.11E-03    0.66E-03    0.10E-06
   1      6    16.076    65.368    0.11E-03    0.65E-03    0.10E-06
  PAW_PBE C_h 06Feb2004                 :
  PAW_PBE O_h 06Feb2004                 :
  PAW_PBE Mg_sv 12Apr2007               :
  PAW_PBE O_h 06Feb2004                 :

 POSCAR:  C  O Mg  O
  positions in direct lattice

 METAGGA = R2SCAN                                      LMAXTAU =  6    LMIXTAU =  F

 ion  position               nearest neighbor table
   1  0.624  0.624  0.726-   2 1.15
   2  0.624  0.624  0.793-   1 1.15
   3  0.124  0.874  0.207-
   4  0.374  0.124  0.207-
   5  0.124  0.124  0.331-
   6  0.374  0.874  0.331-
   7  0.124  0.874  0.456-
   8  0.374  0.124  0.456-
   9  0.124  0.124  0.580-
  10  0.374  0.875  0.579-
  11  0.124  0.374  0.207-
  12  0.374  0.624  0.207-
  13  0.124  0.624  0.331-
  14  0.374  0.374  0.331-
  15  0.124  0.374  0.456-
  16  0.375  0.624  0.456-
  17  0.124  0.624  0.580-
  18  0.374  0.374  0.579-
  19  0.624  0.874  0.207-
  20  0.874  0.124  0.207-
  21  0.624  0.124  0.331-
  22  0.874  0.874  0.331-
  23  0.624  0.874  0.456-
  24  0.874  0.124  0.456-
  25  0.624  0.124  0.580-
  26  0.875  0.875  0.579-
  27  0.624  0.374  0.207-
  28  0.874  0.624  0.207-
  29  0.624  0.624  0.331-
  30  0.874  0.374  0.331-
  31  0.624  0.375  0.456-
  32  0.874  0.624  0.456-
  33  0.624  0.624  0.582-
  34  0.875  0.374  0.579-
  35  0.124  0.874  0.331-
  36  0.374  0.124  0.331-
  37  0.124  0.124  0.207-
  38  0.374  0.874  0.207-
  39  0.124  0.875  0.583-
  40  0.374  0.124  0.583-
  41  0.124  0.124  0.456-
  42  0.374  0.874  0.456-
  43  0.124  0.374  0.331-
  44  0.374  0.624  0.331-
  45  0.124  0.624  0.207-
  46  0.374  0.374  0.207-
  47  0.124  0.374  0.583-
  48  0.373  0.624  0.582-
  49  0.124  0.624  0.456-
  50  0.374  0.374  0.456-
  51  0.624  0.874  0.331-
  52  0.874  0.124  0.331-
  53  0.624  0.124  0.207-
  54  0.874  0.874  0.207-
  55  0.624  0.876  0.582-
  56  0.875  0.124  0.583-
  57  0.624  0.124  0.456-
  58  0.874  0.874  0.456-
  59  0.624  0.374  0.331-
  60  0.874  0.624  0.331-
  61  0.624  0.624  0.207-
  62  0.874  0.374  0.207-
  63  0.624  0.373  0.582-
  64  0.876  0.624  0.582-
  65  0.624  0.624  0.456-
  66  0.874  0.374  0.456-

IMPORTANT INFORMATION: All symmetrisations will be switched off!
NOSYMM: (Re-)initialisation of all symmetry stuff for point group C_1.

                                     Primitive cell

  volume of cell :    1211.2538

  direct lattice vectors                    reciprocal lattice vectors
     8.440984654  0.000000000  0.000000000     0.118469591  0.000000000  0.000000000
     0.000000000  8.440984654  0.000000000     0.000000000  0.118469591  0.000000000
     0.000000000  0.000000000 17.000000000     0.000000000  0.000000000  0.058823529

  length of vectors
     8.440984654  8.440984654 17.000000000     0.118469591  0.118469591  0.058823529

  position of ions in fractional coordinates (direct lattice)
     0.624411355  0.624411355  0.725657141
     0.624411355  0.624411355  0.793117130
     0.124411355  0.874411355  0.206882870
     0.374411355  0.124411355  0.206882870
     0.124411355  0.124411355  0.331014998
     0.374411355  0.874411355  0.331014998
     0.124411355  0.874350623  0.455922972
     0.374472087  0.124411355  0.455922972
     0.124411355  0.124411355  0.579719137
     0.374269682  0.874553028  0.579498600
     0.124411355  0.374411355  0.206882870
     0.374411355  0.624411355  0.206882870
     0.124411355  0.624411355  0.331014998
     0.374411355  0.374411355  0.331014998
     0.124411355  0.374472087  0.455922972
     0.374789734  0.624411355  0.456093975
     0.124411355  0.624411355  0.579555984
     0.374269682  0.374269682  0.579498600
     0.624411355  0.874411355  0.206882870
     0.874411355  0.124411355  0.206882870
     0.624411355  0.124411355  0.331014998
     0.874411355  0.874411355  0.331014998
     0.624411355  0.874032976  0.456093975
     0.874350623  0.124411355  0.455922972
     0.624411355  0.124411355  0.579555984
     0.874553028  0.874553028  0.579498600
     0.624411355  0.374411355  0.206882870
     0.874411355  0.624411355  0.206882870
     0.624411355  0.624411355  0.331014998
     0.874411355  0.374411355  0.331014998
     0.624411355  0.374789734  0.456093975
     0.874032976  0.624411355  0.456093975
     0.624411355  0.624411355  0.582067590
     0.874553028  0.374269682  0.579498600
     0.124411355  0.874411355  0.331014998
     0.374411355  0.124411355  0.331014998
     0.124411355  0.124411355  0.206882870
     0.374411355  0.874411355  0.206882870
     0.124411355  0.874629888  0.582522179
     0.374192822  0.124411355  0.582522179
     0.124411355  0.124411355  0.455579988
     0.374357125  0.874465584  0.455641750
     0.124411355  0.374411355  0.331014998
     0.374411355  0.624411355  0.331014998
     0.124411355  0.624411355  0.206882870
     0.374411355  0.374411355  0.206882870
     0.124411355  0.374192822  0.582522179
     0.373234064  0.624411355  0.582401242
     0.124411355  0.624411355  0.455520732
     0.374357125  0.374357125  0.455641750
     0.624411355  0.874411355  0.331014998
     0.874411355  0.124411355  0.331014998
     0.624411355  0.124411355  0.206882870
     0.874411355  0.874411355  0.206882870
     0.624411355  0.875588645  0.582401242
     0.874629888  0.124411355  0.582522179
     0.624411355  0.124411355  0.455520732
     0.874465584  0.874465584  0.455641750
     0.624411355  0.374411355  0.331014998
     0.874411355  0.624411355  0.331014998
     0.624411355  0.624411355  0.206882870
     0.874411355  0.374411355  0.206882870
     0.624411355  0.373234064  0.582401242
     0.875588645  0.624411355  0.582401242
     0.624411355  0.624411355  0.456108822
     0.874465584  0.374357125  0.455641750

  ion indices of the primitive-cell ions
   primitive index   ion index
                 1           1
                 2           2
                 3           3
                 4           4
                 5           5
                 6           6
                 7           7
                 8           8
                 9           9
                10          10
                11          11
                12          12
                13          13
                14          14
                15          15
                16          16
                17          17
                18          18
                19          19
                20          20
                21          21
                22          22
                23          23
                24          24
                25          25
                26          26
                27          27
                28          28
                29          29
                30          30
                31          31
                32          32
                33          33
                34          34
                35          35
                36          36
                37          37
                38          38
                39          39
                40          40
                41          41
                42          42
                43          43
                44          44
                45          45
                46          46
                47          47
                48          48
                49          49
                50          50
                51          51
                52          52
                53          53
                54          54
                55          55
                56          56
                57          57
                58          58
                59          59
                60          60
                61          61
                62          62
                63          63
                64          64
                65          65
                66          66

 KPOINTS: pymatgen v2020.8.13 with grid density =

Automatic generation of k-mesh.
 Grid dimensions read from file:
 generate k-points for:    2    2    1

 Generating k-lattice:

  Cartesian coordinates                     Fractional coordinates (reciprocal lattice)
     0.059234796  0.000000000  0.000000000     0.500000000  0.000000000  0.000000000
     0.000000000  0.059234796  0.000000000     0.000000000  0.500000000  0.000000000
     0.000000000  0.000000000  0.058823529     0.000000000  0.000000000  1.000000000

  Length of vectors
[...]

[...]

--------------------OUTCAR has been truncated-------------------------

  FORCE on cell =-STRESS in cart. coord.  units (eV):
  Direction    XX          YY          ZZ          XY          YZ          ZX
  Alpha Z  1227.42868  1227.42868  1227.42868
  Ewald  107190.75749107190.75749************    -0.00000    -0.00000    -0.00000
  Hartree124210.92906124210.92905************    -0.00221     0.00222     0.00222
  E(xc)   -3492.14172 -3492.14172 -3493.05458    -0.00464     0.00366     0.00366
  Local  ************************240411.71889     0.00361    -0.00389    -0.00389
  n-local -5515.53239 -5515.53239 -5521.03189    -0.02027     0.00857     0.00864
  augment   834.74905   834.74905   825.05966    -0.00340     0.00366     0.00361
  Kinetic 12728.05331 12728.05331 12720.65520     0.00321    -0.00480    -0.00480
  Fock        0.00000     0.00000     0.00000     0.00000     0.00000     0.00000
  Total     -35.84039   -35.84040   -10.57649    -0.02370     0.00942     0.00944
  in kB     -47.40763   -47.40763   -13.98998    -0.03135     0.01246     0.01248

 VOLUME and BASIS-vectors are now :
  energy-cutoff  :     1000.00
  volume of cell :     1211.25
      direct lattice vectors                 reciprocal lattice vectors
     8.440984654  0.000000000  0.000000000     0.118469591  0.000000000  0.000000000
     0.000000000  8.440984654  0.000000000     0.000000000  0.118469591  0.000000000
     0.000000000  0.000000000 17.000000000     0.000000000  0.000000000  0.058823529

  length of vectors
     8.440984654  8.440984654 17.000000000     0.118469591  0.118469591  0.058823529

 FORCES acting on ions
    electron-ion (+dipol)            ewald-force                    non-local-force                 convergence-correction
   0.165E-02 0.165E-02 -.642E+03   0.167E-13 0.355E-14 0.616E+03   0.392E-01 0.392E-01 0.269E+02   -.118E-05 -.970E-06 0.296E-03
   -.480E-03 -.471E-03 -.998E+03   0.155E-14 0.866E-14 0.105E+04   0.244E-02 0.245E-02 -.538E+02   -.389E-05 -.783E-05 0.612E-03
   -.269E-02 -.996E+00 0.244E+04   -.178E-13 0.993E+00 -.243E+04   0.166E-01 0.913E-02 -.953E+01   0.546E-05 0.444E-04 -.131E-02
   0.994E+00 -.270E-02 0.244E+04   -.993E+00 -.213E-13 -.243E+04   0.740E-02 0.166E-01 -.953E+01   -.485E-04 0.890E-06 -.131E-02
   0.835E-03 0.835E-03 0.827E+03   -.355E-14 0.746E-13 -.827E+03   -.215E-01 -.215E-01 0.652E+00   -.261E-05 -.328E-05 -.104E-03
   0.737E+00 -.731E+00 0.828E+03   -.728E+00 0.728E+00 -.828E+03   -.283E-01 -.200E-01 0.684E+00   -.182E-04 0.787E-05 -.100E-03
   0.146E-02 -.352E+01 -.777E+03   0.107E-13 0.351E+01 0.777E+03   -.210E-01 -.823E-02 -.148E+00   -.112E-04 0.349E-04 0.192E-03
   0.353E+01 0.186E-02 -.777E+03   -.351E+01 0.817E-13 0.777E+03   -.504E-01 -.228E-01 -.146E+00   -.457E-04 -.340E-05 0.194E-03
   0.187E-02 0.187E-02 -.238E+04   0.426E-13 0.000E+00 0.238E+04   -.218E-01 -.218E-01 0.803E+01   0.922E-06 -.258E-06 -.239E-04
   0.226E+02 -.226E+02 -.236E+04   -.227E+02 0.227E+02 0.235E+04   0.884E-01 -.135E+00 0.810E+01   -.140E-03 0.139E-03 -.333E-04
   -.270E-02 0.994E+00 0.244E+04   0.302E-13 -.993E+00 -.243E+04   0.166E-01 0.740E-02 -.953E+01   0.198E-05 -.480E-04 -.131E-02
   0.131E+01 -.270E-02 0.244E+04   -.130E+01 0.222E-13 -.243E+04   0.377E-02 0.165E-01 -.953E+01   -.549E-04 -.252E-05 -.119E-02
   0.979E-03 0.750E-03 0.828E+03   -.107E-12 0.000E+00 -.828E+03   -.217E-01 -.215E-01 0.600E+00   0.158E-05 0.406E-06 -.934E-04
   0.737E+00 0.737E+00 0.828E+03   -.728E+00 -.728E+00 -.828E+03   -.283E-01 -.283E-01 0.684E+00   -.147E-04 -.132E-04 -.102E-03
   0.186E-02 0.353E+01 -.777E+03   0.853E-13 -.351E+01 0.777E+03   -.228E-01 -.504E-01 -.146E+00   -.427E-05 -.469E-04 0.191E-03
   0.486E+01 0.161E-02 -.768E+03   -.476E+01 -.497E-13 0.769E+03   -.122E+00 -.225E-01 -.281E+00   -.438E-04 -.549E-05 0.632E-04
   0.101E-02 0.164E-02 -.237E+04   -.142E-13 -.426E-13 0.236E+04   -.129E-01 -.188E-01 0.801E+01   -.283E-05 0.197E-05 -.529E-04
   0.226E+02 0.226E+02 -.236E+04   -.227E+02 -.227E+02 0.235E+04   0.941E-01 0.941E-01 0.810E+01   -.140E-03 -.144E-03 -.495E-04
   -.271E-02 -.131E+01 0.244E+04   -.168E-12 0.130E+01 -.243E+04   0.166E-01 0.127E-01 -.953E+01   -.936E-05 0.511E-04 -.118E-02
   -.996E+00 -.269E-02 0.244E+04   0.993E+00 -.302E-13 -.243E+04   0.913E-02 0.166E-01 -.953E+01   0.443E-04 0.656E-05 -.131E-02
   0.750E-03 0.979E-03 0.828E+03   -.185E-12 0.107E-13 -.828E+03   -.215E-01 -.217E-01 0.600E+00   -.484E-06 0.227E-05 -.967E-04
   -.730E+00 -.730E+00 0.828E+03   0.728E+00 0.728E+00 -.828E+03   -.200E-01 -.200E-01 0.684E+00   0.138E-04 0.111E-04 -.949E-04
   -.265E-04 -.486E+01 -.768E+03   0.959E-13 0.476E+01 0.769E+03   -.980E-02 0.775E-01 -.298E+00   -.162E-05 0.357E-04 0.668E-04
   -.352E+01 0.146E-02 -.777E+03   0.351E+01 0.568E-13 0.777E+03   -.822E-02 -.210E-01 -.148E+00   0.345E-04 -.103E-04 0.194E-03
   0.164E-02 0.101E-02 -.237E+04   -.121E-12 -.355E-14 0.236E+04   -.188E-01 -.129E-01 0.801E+01   -.314E-06 -.658E-07 -.583E-04
   -.226E+02 -.226E+02 -.236E+04   0.227E+02 0.227E+02 0.235E+04   -.140E+00 -.140E+00 0.809E+01   0.141E-03 0.140E-03 -.491E-04
   -.270E-02 0.131E+01 0.244E+04   -.117E-12 -.130E+01 -.243E+04   0.165E-01 0.377E-02 -.953E+01   -.298E-05 -.552E-04 -.119E-02
   -.131E+01 -.270E-02 0.244E+04   0.130E+01 -.551E-13 -.243E+04   0.127E-01 0.167E-01 -.953E+01   0.508E-04 -.109E-04 -.118E-02
   0.609E-03 0.609E-03 0.827E+03   -.114E-12 -.178E-13 -.828E+03   -.210E-01 -.210E-01 0.792E+00   -.563E-05 -.615E-05 -.724E-04
   -.731E+00 0.737E+00 0.828E+03   0.728E+00 -.728E+00 -.828E+03   -.200E-01 -.283E-01 0.684E+00   0.958E-05 -.160E-04 -.994E-04
   0.161E-02 0.486E+01 -.768E+03   -.171E-12 -.476E+01 0.769E+03   -.225E-01 -.122E+00 -.281E+00   -.695E-05 -.468E-04 0.646E-04
   -.486E+01 -.260E-04 -.768E+03   0.476E+01 -.284E-13 0.769E+03   0.775E-01 -.980E-02 -.298E+00   0.350E-04 -.745E-06 0.674E-04
   -.443E-02 -.443E-02 -.227E+04   -.142E-13 -.391E-13 0.226E+04   0.135E-01 0.135E-01 0.526E+01   0.958E-06 -.193E-06 -.221E-03
   -.226E+02 0.226E+02 -.236E+04   0.227E+02 -.227E+02 0.235E+04   -.135E+00 0.884E-01 0.810E+01   0.142E-03 -.138E-03 -.329E-04
   0.296E-02 -.488E+00 0.495E+03   0.622E-14 0.481E+00 -.495E+03   -.787E-02 0.114E-01 -.622E-01   0.137E-06 0.106E-04 0.154E-03
   0.490E+00 0.298E-02 0.495E+03   -.481E+00 -.115E-13 -.495E+03   -.848E-02 -.789E-02 -.623E-01   -.121E-04 0.150E-05 0.153E-03
   0.196E-02 0.196E-02 0.148E+04   0.799E-14 -.129E-13 -.148E+04   -.483E-02 -.483E-02 0.235E+01   -.151E-05 -.180E-05 -.492E-03
   0.687E+00 -.689E+00 0.148E+04   -.685E+00 0.685E+00 -.148E+04   -.288E-02 0.364E-02 0.235E+01   -.339E-04 0.268E-04 -.420E-03
   0.322E-02 -.721E+01 -.146E+04   -.128E-12 0.716E+01 0.146E+04   -.696E-02 0.515E-01 -.448E+01   -.121E-05 0.568E-04 0.512E-04
   0.721E+01 0.306E-02 -.146E+04   -.716E+01 -.115E-13 0.146E+04   -.615E-01 -.787E-02 -.449E+01   -.559E-04 0.500E-06 0.476E-04
   0.268E-02 0.268E-02 -.462E+03   0.355E-13 -.142E-13 0.462E+03   -.913E-02 -.914E-02 0.298E+00   0.156E-07 -.185E-06 0.349E-03
   0.250E+01 -.250E+01 -.457E+03   -.249E+01 0.249E+01 0.457E+03   -.124E-01 -.286E-02 0.361E+00   -.370E-04 0.366E-04 0.298E-03
   0.297E-02 0.490E+00 0.495E+03   -.497E-13 -.481E+00 -.495E+03   -.789E-02 -.849E-02 -.623E-01   0.571E-06 -.111E-04 0.155E-03
   0.508E+00 0.291E-02 0.496E+03   -.542E+00 -.195E-13 -.495E+03   0.457E-01 -.782E-02 -.738E-01   -.356E-05 -.346E-06 0.148E-03
   0.196E-02 0.194E-02 0.148E+04   -.147E-13 -.546E-13 -.148E+04   -.485E-02 -.483E-02 0.235E+01   0.522E-05 0.181E-05 -.423E-03
   0.687E+00 0.687E+00 0.148E+04   -.685E+00 -.685E+00 -.148E+04   -.290E-02 -.289E-02 0.235E+01   -.271E-04 -.255E-04 -.419E-03
   0.306E-02 0.721E+01 -.146E+04   -.121E-12 -.716E+01 0.146E+04   -.787E-02 -.615E-01 -.449E+01   -.242E-05 -.576E-04 0.506E-04
   0.233E+02 0.238E-02 -.143E+04   -.229E+02 -.799E-14 0.143E+04   -.396E+00 -.610E-02 -.455E+01   -.156E-03 0.870E-06 0.238E-04
   0.186E-02 0.291E-02 -.457E+03   0.995E-13 -.213E-13 0.457E+03   -.710E-02 -.978E-02 0.314E+00   -.880E-06 -.482E-06 0.303E-03
   0.250E+01 0.250E+01 -.457E+03   -.249E+01 -.249E+01 0.457E+03   -.130E-01 -.130E-01 0.361E+00   -.391E-04 -.393E-04 0.297E-03
   0.290E-02 -.506E+00 0.496E+03   0.409E-13 0.542E+00 -.495E+03   -.780E-02 -.428E-01 -.736E-01   -.398E-06 0.284E-05 0.146E-03
   -.488E+00 0.296E-02 0.495E+03   0.481E+00 -.142E-13 -.495E+03   0.114E-01 -.786E-02 -.622E-01   0.120E-04 -.408E-06 0.153E-03
   0.194E-02 0.196E-02 0.148E+04   0.103E-12 0.444E-15 -.148E+04   -.483E-02 -.485E-02 0.235E+01   0.171E-05 0.517E-05 -.425E-03
   -.689E+00 -.689E+00 0.148E+04   0.685E+00 0.685E+00 -.148E+04   0.362E-02 0.362E-02 0.235E+01   0.339E-04 0.322E-04 -.421E-03
   0.284E-02 -.233E+02 -.143E+04   0.160E-13 0.229E+02 0.143E+04   -.409E-02 0.392E+00 -.455E+01   -.247E-05 0.157E-03 0.220E-04
   -.721E+01 0.322E-02 -.146E+04   0.716E+01 0.426E-13 0.146E+04   0.515E-01 -.695E-02 -.448E+01   0.558E-04 -.277E-05 0.488E-04
   0.291E-02 0.186E-02 -.457E+03   0.142E-13 0.782E-13 0.457E+03   -.978E-02 -.710E-02 0.314E+00   -.818E-06 -.784E-06 0.308E-03
   -.250E+01 -.250E+01 -.457E+03   0.249E+01 0.249E+01 0.457E+03   -.932E-03 -.933E-03 0.360E+00   0.380E-04 0.364E-04 0.298E-03
   0.291E-02 0.508E+00 0.496E+03   0.107E-12 -.542E+00 -.495E+03   -.782E-02 0.457E-01 -.738E-01   -.600E-06 -.284E-05 0.147E-03
   -.506E+00 0.290E-02 0.496E+03   0.542E+00 0.426E-13 -.495E+03   -.428E-01 -.780E-02 -.736E-01   0.333E-05 -.810E-06 0.145E-03
   0.196E-02 0.196E-02 0.147E+04   0.702E-13 -.488E-14 -.148E+04   -.484E-02 -.484E-02 0.236E+01   -.500E-05 -.496E-05 -.354E-03
   -.689E+00 0.687E+00 0.148E+04   0.685E+00 -.685E+00 -.148E+04   0.364E-02 -.288E-02 0.235E+01   0.268E-04 -.336E-04 -.421E-03
   0.238E-02 0.233E+02 -.143E+04   0.000E+00 -.229E+02 0.143E+04   -.611E-02 -.396E+00 -.455E+01   0.308E-05 -.158E-03 0.213E-04
   -.233E+02 0.284E-02 -.143E+04   0.229E+02 -.142E-13 0.143E+04   0.392E+00 -.409E-02 -.455E+01   0.155E-03 0.109E-05 0.277E-04
   0.358E-02 0.358E-02 -.458E+03   0.121E-12 0.284E-13 0.458E+03   -.777E-02 -.777E-02 -.165E+00   0.251E-06 0.941E-06 0.213E-03
   -.250E+01 0.250E+01 -.457E+03   0.249E+01 -.249E+01 0.457E+03   -.286E-02 -.124E-01 0.361E+00   0.373E-04 -.364E-04 0.297E-03
   0.691E-01 0.691E-01 0.543E+02   -.579E-12 0.114E-12 0.136E-11   -.498E+00 -.498E+00 -.534E+02   -.846E-04 -.897E-04 -.883E-02

 POSITION                                       TOTAL-FORCE (eV/Angst)
      5.27065      5.27065     12.33617         0.047341      0.047340      2.337625
      5.27065      5.27065     13.48299         0.008597      0.008609     -2.404343
      1.05015      7.38089      3.51701         0.020396      0.013376      0.522278
      3.16040      1.05015      3.51701         0.013950      0.020394      0.522260
      1.05015      1.05015      5.62725        -0.014141     -0.014143      0.045219
      3.16040      7.38089      5.62725        -0.012924     -0.016133      0.042163
      1.05015      7.38038      7.75069        -0.013090     -0.020955      0.055678
      3.16091      1.05015      7.75069        -0.018148     -0.014428      0.057260
      1.05015      1.05015      9.85523        -0.013440     -0.013440     -0.126200
      3.15920      7.38209      9.85148        -0.027997      0.000393     -0.163931
      1.05015      3.16040      3.51701         0.020394      0.013949      0.522259
      3.16040      5.27065      3.51701         0.015169      0.020327      0.522195
      1.05015      5.27065      5.62725        -0.014176     -0.014216      0.053949
      3.16040      3.16040      5.62725        -0.012891     -0.012890      0.042213
      1.05015      3.16091      7.75069        -0.014428     -0.018149      0.057258
      3.16359      5.27065      7.75360        -0.009920     -0.014398      0.073737
      1.05015      5.27065      9.85245        -0.005419     -0.010637     -0.156454
      3.15920      3.15920      9.85148        -0.023248     -0.023247     -0.159074
      5.27065      7.38089      3.51701         0.020430      0.012082      0.522093
      7.38089      1.05015      3.51701         0.013378      0.020395      0.522278
      5.27065      1.05015      5.62725        -0.014221     -0.014183      0.053956
      7.38089      7.38089      5.62725        -0.016102     -0.016104      0.042067
      5.27065      7.37770      7.75360        -0.003330     -0.015989      0.059244
      7.38038      1.05015      7.75069        -0.020956     -0.013091      0.055680
      5.27065      1.05015      9.85245        -0.010643     -0.005413     -0.156468
      7.38209      7.38209      9.85148        -0.003453     -0.003456     -0.167534
      5.27065      3.16040      3.51701         0.020331      0.015169      0.522195
      7.38089      5.27065      3.51701         0.012085      0.020439      0.522093
      5.27065      5.27065      5.62725        -0.013863     -0.013864      0.061090
      7.38089      3.16040      5.62725        -0.016133     -0.012923      0.042162
      5.27065      3.16359      7.75360        -0.014396     -0.009921      0.073734
      7.37770      5.27065      7.75360        -0.015991     -0.003328      0.059238
      5.27065      5.27065      9.89515         0.015531      0.015530      0.001544
      7.38209      3.15920      9.85148         0.000392     -0.027997     -0.163933
      1.05015      7.38089      5.62725         0.001307      0.011236      0.047162
      3.16040      1.05015      5.62725         0.006591      0.001299      0.047124
      1.05015      1.05015      3.51701         0.003367      0.003366     -0.405495
      3.16040      7.38089      3.51701         0.004671      0.006144     -0.411701
      1.05015      7.38274      9.90288         0.002479      0.002676     -0.141224
      3.15856      1.05015      9.90288         0.001444      0.001400     -0.142680
      1.05015      1.05015      7.74486        -0.000197     -0.000198      0.012160
      3.15994      7.38135      7.74591         0.002977     -0.004634      0.013576
      1.05015      3.16040      5.62725         0.001300      0.006590      0.047124
      3.16040      5.27065      5.62725         0.018562      0.001310      0.054647
      1.05015      5.27065      3.51701         0.003355      0.003362     -0.405013
      3.16040      3.16040      3.51701         0.004651      0.004653     -0.411727
      1.05015      3.15856      9.90288         0.001399      0.001442     -0.142677
      3.15046      5.27065      9.90082        -0.007207      0.002458     -0.139254
      1.05015      5.27065      7.74385         0.001034     -0.000614      0.008803
      3.15994      3.15994      7.74591         0.002842      0.002842      0.013691
      5.27065      7.38089      5.62725         0.001311     -0.000718      0.054673
      7.38089      1.05015      5.62725         0.011236      0.001307      0.047162
      5.27065      1.05015      3.51701         0.003362      0.003354     -0.405012
      7.38089      7.38089      3.51701         0.006139      0.006136     -0.411715
      5.27065      7.39083      9.90082         0.004995      0.015887     -0.133964
      7.38274      1.05015      9.90288         0.002675      0.002478     -0.141227
      5.27065      1.05015      7.74385        -0.000614      0.001035      0.008804
      7.38135      7.38135      7.74591        -0.002552     -0.002554      0.012527
      5.27065      3.16040      5.62725         0.001309      0.018562      0.054647
      7.38089      5.27065      5.62725        -0.000718      0.001311      0.054675
      5.27065      5.27065      3.51701         0.003348      0.003347     -0.405145
      7.38089      3.16040      3.51701         0.006144      0.004670     -0.411701
      5.27065      3.15046      9.90082         0.002457     -0.007211     -0.139255
      7.39083      5.27065      9.90082         0.015886      0.004993     -0.133974
      5.27065      5.27065      7.75385         0.002000      0.001999     -0.002121
      7.38135      3.15994      7.74591        -0.004635      0.002975      0.013575
    total drift:                               -0.429166     -0.429132      0.898107

  FREE ENERGIE OF THE ION-ELECTRON SYSTEM (eV)
  free  energy   TOTEN  =      -524.01258582 eV

  energy  without entropy=     -524.01258582  energy(sigma->0) =     -524.01258582

     |            E. Caldeweyher, S. Ehlert & S. Grimme          |
     |          Mulliken Center for Theoretical Chemistry        |
     |                    University of Bonn                     |

Rational (Becke-Johnson) damping: r2scan-D4-ATM
  s6         1.0000
  s8         0.6019
  s9         1.0000
  a1         0.5156
  a2         5.7734
 alp        16.0000

Dispersion energy:      -1.1499222651164E-01 Eh