 vasp.6.3.0 20Jan22 (build Apr  1 2022 16:44:48) complex
 executed on        HPECrayEX_GCC date 2022.11.13  00:23:21

 INCAR:
   SYSTEM = MgO-rocksalt
   ISMEAR = 0
   SIGMA = 0.05
   EDIFF = 1E-6
   ALGO = ALL
   ISTART = 0
   IBRION = -1
   NSW = 0
   ISYM = 0
   DIPOL = 0.5 0.5 0.5
   IDIPOL = 3
   LDIPOL = .TRUE.
   GGA = RE
   AGGAC = 0.0
   LUSE_VDW = .TRUE.
   LASPH = .TRUE.
   ENCUT = 600
   PREC = Accurate
   LASPH = .TRUE.
   LREAL = .FALSE.
   ISPIN = 1
   NELM = 200
   NELMIN = 8
   NCORE = 8
   KPAR = 1
   LWAVE = .FALSE.
   LCHARG = .FALSE.

 POTCAR:    PAW_PBE C 08Apr2002
 POTCAR:    PAW_PBE O 08Apr2002
 POTCAR:    PAW_PBE H 15Jun2001
 POTCAR:    PAW_PBE Mg_pv 13Apr2007
 POTCAR:    PAW_PBE O 08Apr2002
|               ----> ADVICE to this user running VASP <----                  |
|     You have switched on vdW-DFT.                                           |
|     This routine was written and supplied by Jiri Klimes. We recommend      |
|     that you carefully read and cite the following publications:            |
|       J. Klimes, D.R. Bowler, A. Michelides                                 |
|          J. Phys.: Cond Matt. 22 022201 (2010)                              |
|       J. Klimes, D.R. Bowler, A. Michelides                                 |
|          Phys. Rev. B. 83, 195131 (2011)                                    |
|     and references therein.                                                 |

   TITEL  = PAW_PBE C 08Apr2002
   POMASS =   12.011; ZVAL   =    4.000    mass and valenz
   ENMAX  =  400.000; ENMIN  =  300.000 eV

[...]

   TITEL  = PAW_PBE H 15Jun2001
   POMASS =    1.000; ZVAL   =    1.000    mass and valenz
   ENMAX  =  250.000; ENMIN  =  200.000 eV

   TITEL  = PAW_PBE Mg_pv 13Apr2007
   POMASS =   24.305; ZVAL   =    8.000    mass and valenz
   ENMAX  =  403.929; ENMIN  =  302.947 eV

   TITEL  = PAW_PBE O 08Apr2002
   POMASS =   16.000; ZVAL   =    6.000    mass and valenz
   ENMAX  =  400.000; ENMIN  =  300.000 eV

  PAW_PBE C 08Apr2002                   :
  PAW_PBE O 08Apr2002                   :
  PAW_PBE H 15Jun2001                   :
  PAW_PBE Mg_pv 13Apr2007               :
  PAW_PBE O 08Apr2002                   :

 POSCAR:  C  O  H Mg  O
  positions in direct lattice
 exchange correlation table for  LEXCH =       40
   RHO(1)=    0.500       N(1)  =     2000
   RHO(2)=  100.500       N(2)  =     4000

 ion  position               nearest neighbor table
   1  0.417  0.625  0.795-   3 1.10   6 1.10   5 1.11   2 1.43
   2  0.416  0.494  0.753-   4 1.02   1 1.43  22 2.24
   3  0.521  0.612  0.826-   1 1.10
   4  0.319  0.500  0.725-   2 1.02
   5  0.427  0.739  0.770-   1 1.11
   6  0.310  0.625  0.825-   1 1.10
   7  0.250  0.000  0.351-  39 2.12  41 2.12  42 2.12  49 2.12  58 2.12
   8  0.500  0.250  0.351-  40 2.12  41 2.12  42 2.12  50 2.12  57 2.12
   9  0.250  0.250  0.450-  41 2.12  40 2.12  39 2.12  47 2.12  56 2.12  45 2.13
  10  0.500  0.000  0.450-  46 2.11  42 2.12  39 2.12  40 2.12  48 2.12  55 2.12
  11  0.250  0.000  0.550-  46 2.11  62 2.12  45 2.12  39 2.12  53 2.12  43 2.15
  12  0.500  0.251  0.551-  54 2.11  44 2.11  61 2.12  45 2.12  46 2.13  40 2.14
  13  0.250  0.247  0.648-  43 2.09  45 2.10  44 2.12  60 2.12  51 2.15
  14  0.500  0.000  0.648-  44 2.10  46 2.10  52 2.11  59 2.12  43 2.13
  15  0.250  0.500  0.351-  47 2.12  41 2.12  49 2.12  50 2.12  66 2.12
  16  0.500  0.750  0.351-  48 2.12  42 2.12  49 2.12  50 2.12  65 2.12
  17  0.250  0.750  0.450-  49 2.12  47 2.12  48 2.12  39 2.12  64 2.12  53 2.12
  18  0.500  0.500  0.450-  50 2.12  47 2.12  48 2.12  40 2.12  63 2.12  54 2.14
  19  0.251  0.500  0.550-  54 2.10  45 2.11  53 2.11  70 2.12  47 2.13  51 2.19
  20  0.500  0.749  0.551-  54 2.11  69 2.12  53 2.12  46 2.12  52 2.13  48 2.14
  21  0.249  0.753  0.647-  53 2.08  43 2.09  68 2.11  52 2.12  51 2.14
  22  0.508  0.499  0.654-  67 2.07  44 2.13  52 2.14  54 2.21  51 2.23   2 2.24
  23  0.750  0.000  0.351-  55 2.12  42 2.12  57 2.12  58 2.12  65 2.12
  24  0.000  0.250  0.351-  56 2.12  41 2.12  57 2.12  58 2.12  66 2.12
  25  0.750  0.250  0.450-  57 2.12  55 2.12  56 2.12  40 2.12  63 2.12  61 2.12
  26  0.000  0.000  0.450-  58 2.12  55 2.12  56 2.12  39 2.12  64 2.12  62 2.12
  27  0.750  0.000  0.550-  46 2.12  61 2.12  69 2.12  62 2.12  55 2.12  59 2.15
  28  1.000  0.250  0.550-  61 2.11  45 2.11  70 2.12  62 2.12  56 2.13  60 2.15
  29  0.750  0.249  0.648-  61 2.11  59 2.11  60 2.12  44 2.12  67 2.13
  30  0.999  0.000  0.648-  62 2.11  60 2.11  59 2.11  68 2.11  43 2.12
  31  0.750  0.500  0.351-  63 2.12  57 2.12  50 2.12  65 2.12  66 2.12
  32  0.000  0.750  0.351-  64 2.12  58 2.12  49 2.12  65 2.12  66 2.12
  33  0.750  0.750  0.450-  65 2.12  55 2.12  63 2.12  64 2.12  48 2.12  69 2.12
  34  0.000  0.500  0.450-  66 2.12  56 2.12  63 2.12  64 2.12  47 2.12  70 2.12
  35  0.749  0.500  0.550-  54 2.11  61 2.12  69 2.12  70 2.13  63 2.13  67 2.14
  36  1.000  0.750  0.550-  69 2.11  70 2.11  53 2.12  62 2.12  64 2.13  68 2.15
  37  0.750  0.751  0.648-  69 2.10  59 2.11  68 2.11  52 2.12  67 2.13
  38  0.997  0.500  0.648-  67 2.07  51 2.09  70 2.10  60 2.12  68 2.13
  39  0.250  0.000  0.450-   7 2.12   9 2.12  10 2.12  17 2.12  26 2.12  11 2.12
  40  0.500  0.250  0.450-   8 2.12   9 2.12  10 2.12  18 2.12  25 2.12  12 2.14
  41  0.250  0.250  0.351-   9 2.12   8 2.12   7 2.12  15 2.12  24 2.12
  42  0.500  0.000  0.351-  10 2.12   8 2.12   7 2.12  16 2.12  23 2.12
  43  0.250  1.000  0.650-  21 2.09  13 2.09  30 2.12  14 2.13  11 2.15
  44  0.500  0.248  0.650-  14 2.10  12 2.11  13 2.12  29 2.12  22 2.13
  45  0.250  0.251  0.550-  13 2.10  19 2.11  28 2.11  11 2.12  12 2.12   9 2.13
  46  0.500  1.000  0.549-  14 2.10  11 2.11  10 2.11  27 2.12  20 2.12  12 2.13
  47  0.250  0.500  0.450-  15 2.12   9 2.12  17 2.12  18 2.12  34 2.12  19 2.13
  48  0.500  0.750  0.450-  16 2.12  10 2.12  17 2.12  18 2.12  33 2.12  20 2.14
  49  0.250  0.750  0.351-  17 2.12  15 2.12  16 2.12   7 2.12  32 2.12
  50  0.500  0.500  0.351-  18 2.12  15 2.12  16 2.12   8 2.12  31 2.12
  51  0.244  0.500  0.653-  38 2.09  21 2.14  13 2.15  19 2.19  22 2.23
  52  0.500  0.752  0.650-  14 2.11  21 2.12  37 2.12  20 2.13  22 2.14
  53  0.250  0.749  0.550-  21 2.08  19 2.11  36 2.12  20 2.12  17 2.12  11 2.12
  54  0.499  0.500  0.551-  19 2.10  20 2.11  12 2.11  35 2.11  18 2.14  22 2.21
  55  0.750  0.000  0.450-  23 2.12  10 2.12  25 2.12  26 2.12  33 2.12  27 2.12
  56  0.000  0.250  0.450-  24 2.12   9 2.12  25 2.12  26 2.12  34 2.12  28 2.13
  57  0.750  0.250  0.351-  25 2.12  23 2.12  24 2.12   8 2.12  31 2.12
  58  0.000  0.000  0.351-  26 2.12  23 2.12  24 2.12   7 2.12  32 2.12
  59  0.750  1.000  0.651-  37 2.11  29 2.11  30 2.11  14 2.12  27 2.15
  60  1.000  0.249  0.651-  30 2.11  29 2.12  13 2.12  38 2.12  28 2.15
  61  0.750  0.250  0.550-  29 2.11  28 2.11  35 2.12  27 2.12  12 2.12  25 2.12
  62  0.000  1.000  0.550-  30 2.11  11 2.12  36 2.12  26 2.12  28 2.12  27 2.12
  63  0.750  0.500  0.450-  31 2.12  25 2.12  18 2.12  33 2.12  34 2.12  35 2.13
  64  0.000  0.750  0.450-  32 2.12  26 2.12  17 2.12  33 2.12  34 2.12  36 2.13
  65  0.750  0.750  0.351-  33 2.12  23 2.12  31 2.12  32 2.12  16 2.12
  66  0.000  0.500  0.351-  34 2.12  24 2.12  31 2.12  32 2.12  15 2.12
  67  0.752  0.500  0.651-  22 2.07  38 2.07  37 2.13  29 2.13  35 2.14
  68  1.000  0.751  0.651-  30 2.11  21 2.11  37 2.11  38 2.13  36 2.15
  69  0.750  0.750  0.550-  37 2.10  36 2.11  35 2.12  20 2.12  27 2.12  33 2.12
  70  0.001  0.500  0.550-  38 2.10  36 2.11  28 2.12  19 2.12  34 2.12  35 2.13

IMPORTANT INFORMATION: All symmetrisations will be switched off!
NOSYMM: (Re-)initialisation of all symmetry stuff for point group C_1.

                                     Primitive cell

  volume of cell :    1530.6606

  direct lattice vectors                    reciprocal lattice vectors
     8.467142631  0.000000000  0.000000000     0.118103597  0.000000000  0.000000000
     0.000000000  8.467142631  0.000000000     0.000000000  0.118103597  0.000000000
     0.000000000  0.000000000 21.350356973     0.000000000  0.000000000  0.046837624

  length of vectors
     8.467142631  8.467142631 21.350356973     0.118103597  0.118103597  0.046837624

  position of ions in fractional coordinates (direct lattice)
     0.417145731  0.625114314  0.795303178
     0.416243056  0.494284760  0.752737042
     0.520759118  0.612492048  0.825848349
     0.319024377  0.500476709  0.724771716
     0.426515024  0.738603189  0.769994501
     0.310123169  0.625357477  0.824736762
     0.250000000  0.000000000  0.351282183
     0.500000000  0.250000000  0.351282183
     0.250000000  0.250000000  0.450427394
     0.500000000  0.000000000  0.450427394
     0.250264722  0.000179902  0.549793077
     0.500125687  0.251070989  0.550545488
     0.250105550  0.247113388  0.648190854
     0.500497328  0.000424513  0.647948916
     0.250000000  0.500000000  0.351282183
     0.500000000  0.750000000  0.351282183
     0.250000000  0.750000000  0.450427394
     0.500000000  0.500000000  0.450427394
     0.251073756  0.499797192  0.550386800
     0.500184536  0.748846880  0.550541270
     0.249373373  0.752914129  0.647432335
     0.507533811  0.499240675  0.654115664
     0.750000000  0.000000000  0.351282183
     0.000000000  0.250000000  0.351282183
     0.750000000  0.250000000  0.450427394
     0.000000000  0.000000000  0.450427394
     0.749721423  0.000079796  0.549874252
     0.999836035  0.250139509  0.550088970
     0.749927135  0.248820074  0.648371929
     0.999422222  0.000106480  0.648224466
     0.750000000  0.500000000  0.351282183
     0.000000000  0.750000000  0.351282183
     0.750000000  0.750000000  0.450427394
     0.000000000  0.500000000  0.450427394
     0.749038345  0.499877441  0.550310009
     0.999712248  0.749776244  0.549993980
     0.750328273  0.751114337  0.648133803
     0.997197931  0.499753937  0.648253977
     0.250000000  0.000000000  0.450427394
     0.500000000  0.250000000  0.450427394
     0.250000000  0.250000000  0.351282183
     0.500000000  0.000000000  0.351282183
     0.249585705  0.999794051  0.650415851
     0.499887771  0.248315324  0.649562701
     0.249595584  0.250675159  0.549964277
     0.499770397  0.999748500  0.549441756
     0.250000000  0.500000000  0.450427394
     0.500000000  0.750000000  0.450427394
     0.250000000  0.750000000  0.351282183
     0.500000000  0.500000000  0.351282183
     0.243975175  0.500270639  0.653110089
     0.499755896  0.751671263  0.650354349
     0.249695542  0.749285646  0.549878961
     0.499469303  0.500158711  0.550804860
     0.750000000  0.000000000  0.450427394
     0.000000000  0.250000000  0.450427394
     0.750000000  0.250000000  0.351282183
     0.000000000  0.000000000  0.351282183
     0.750210766  0.999854473  0.650517997
     0.999885828  0.249221872  0.650631400
     0.750373023  0.250089999  0.549693431
     0.000178120  0.999903798  0.549631109
     0.750000000  0.500000000  0.450427394
     0.000000000  0.750000000  0.450427394
     0.750000000  0.750000000  0.351282183
     0.000000000  0.500000000  0.351282183
[...]
   0.00000000  0.00000000  9.61678566
   6.34799822  0.00067564 11.74001158
   8.46575431  2.11796690 11.74459587
   6.34974001  2.10679505 13.84297213
   8.46225050  0.00090158 13.83982375
   6.35035697  4.23357132  7.50000000
   0.00000000  6.35035697  7.50000000
   6.35035697  6.35035697  9.61678566
   0.00000000  4.23357132  9.61678566
   6.34221450  4.23253359 11.74931515
   8.46470620  6.34846240 11.74256780
   6.35313650  6.35979222 13.83788806
   8.44341711  4.23148787 13.84045382
   2.11678566  0.00000000  9.61678566
   4.23357132  2.11678566  9.61678566
   2.11678566  2.11678566  7.50000000
   4.23357132  0.00000000  7.50000000
   2.11327776  8.46539883 13.88661060
   4.23262106  2.10252127 13.86839554
   2.11336141  2.12250233 11.74193363
   4.23162724  8.46501314 11.73077763
   2.11678566  4.23357132  9.61678566
   4.23357132  6.35035697  9.61678566
   2.11678566  6.35035697  7.50000000
   4.23357132  4.23357132  7.50000000
   2.06577261  4.23586285 13.94413354
   4.23150445  6.36450779 13.88529751
   2.11420777  6.34430844 11.74011212
   4.22907783  4.23491515 11.75988039
   6.35035697  0.00000000  9.61678566
   0.00000000  2.11678566  9.61678566
   6.35035697  2.11678566  7.50000000
   0.00000000  0.00000000  7.50000000
   6.35214156  8.46591043 13.88879145
   8.46617592  2.11019714 13.89121264
   6.35351541  2.11754769 11.73615097
   0.00150816  8.46632807 11.73482039
   6.35035697  4.23357132  9.61678566
   0.00000000  6.35035697  9.61678566
   6.35035697  6.35035697  7.50000000
   0.00000000  4.23357132  7.50000000
   6.36942118  4.23496084 13.89300636
   8.46631922  6.35639432 13.89045080
   6.35217003  6.34917169 11.73659977
   0.00429172  4.23377060 11.74012718

--------------------------------------- Iteration      FINAL  ---------------------------------------

--------------------OUTCAR has been truncated-------------------------

[...]

--------------------OUTCAR has been truncated-------------------------

  FORCE on cell =-STRESS in cart. coord.  units (eV):
  Direction    XX          YY          ZZ          XY          YZ          ZX
  Alpha Z   912.34846   912.34846   912.34846
  Ewald  157114.19256157183.13754************     4.24811   136.96949    25.26286
  Hartree167494.39609167557.49572************     3.17006    78.88759     0.83586
  E(xc)   -2581.01157 -2581.44022 -2583.55923    -0.03043     0.03873     0.41654
  Local  ************************333987.77884    -8.03916  -206.11356   -16.80082
  n-local -2855.32169 -2853.62033 -2872.76828     0.17652     1.90818    -0.25476
  augment  1084.78098  1084.85218  1076.13595     0.04897    -0.81348    -0.58867
  Kinetic  7558.42180  7561.29762  7590.61353     0.44320   -10.55010    -8.71852
  Fock        0.00000     0.00000     0.00000     0.00000     0.00000     0.00000
  Total     -13.10160   -13.01845    10.23119     0.01727     0.32685     0.15249
  in kB     -13.71375   -13.62671    10.70922     0.01808     0.34212     0.15961

 VOLUME and BASIS-vectors are now :
  energy-cutoff  :      600.00
  volume of cell :     1530.66
      direct lattice vectors                 reciprocal lattice vectors
     8.467142631  0.000000000  0.000000000     0.118103597  0.000000000  0.000000000
     0.000000000  8.467142631  0.000000000     0.000000000  0.118103597  0.000000000
     0.000000000  0.000000000 21.350356973     0.000000000  0.000000000  0.046837624

  length of vectors
     8.467142631  8.467142631 21.350356973     0.118103597  0.118103597  0.046837624

 FORCES acting on ions:
    Electron-Ion                     Ewald-Force                    Non-Local-Force
   -.234E+01 -.946E+02 -.101E+04   0.257E+01 0.994E+02 0.102E+04   -.204E+00 -.452E+01 -.344E+01
   -.295E+02 0.138E+03 -.159E+04   0.534E+02 -.169E+03 0.159E+04   -.240E+02 0.309E+02 -.245E+00
   -.485E+02 -.314E+01 -.244E+03   0.530E+02 0.259E+01 0.247E+03   -.465E+01 0.553E+00 -.347E+01
   0.668E+02 0.599E+01 -.250E+03   -.723E+02 -.591E+01 0.247E+03   0.553E+01 -.123E+00 0.401E+01
   -.457E+01 -.604E+02 -.238E+03   0.506E+01 0.652E+02 0.236E+03   -.500E+00 -.495E+01 0.279E+01
   0.486E+02 -.893E+01 -.243E+03   -.532E+02 0.895E+01 0.246E+03   0.466E+01 -.246E-01 -.330E+01
   0.924E-01 -.115E+00 0.207E+04   -.882E-01 0.116E+00 -.207E+04   -.296E-02 -.900E-03 -.642E+01
   -.799E-01 -.232E-01 0.207E+04   0.822E-01 0.304E-01 -.207E+04   -.158E-02 -.561E-02 -.646E+01
   0.158E+00 0.142E+00 0.729E+03   -.138E+00 -.611E-01 -.729E+03   -.125E-01 -.600E-01 0.544E+00
   -.468E+00 -.514E+00 0.730E+03   0.498E+00 0.499E+00 -.730E+03   -.214E-01 0.117E-01 0.253E+00
   0.445E+01 -.211E+01 -.605E+03   -.436E+01 0.217E+01 0.605E+03   -.851E-01 -.563E-01 -.892E-01
   -.209E+01 0.452E+01 -.602E+03   0.213E+01 -.421E+01 0.603E+03   -.465E-01 -.303E+00 -.108E+01
   0.267E+02 0.313E+02 -.193E+04   -.268E+02 -.324E+02 0.192E+04   -.115E-01 0.114E+01 0.571E+01
   -.930E+01 -.102E+02 -.195E+04   0.949E+01 0.103E+02 0.194E+04   -.198E+00 -.148E+00 0.553E+01
   0.611E-01 0.115E+00 0.207E+04   -.518E-01 -.117E+00 -.207E+04   -.706E-02 0.928E-03 -.646E+01
   -.915E-01 0.227E-01 0.207E+04   0.942E-01 -.302E-01 -.207E+04   -.189E-02 0.578E-02 -.647E+01
   0.199E+00 -.156E+00 0.730E+03   -.156E+00 0.751E-01 -.730E+03   -.297E-01 0.600E-01 0.538E+00
   -.521E+00 0.504E+00 0.727E+03   0.495E+00 -.493E+00 -.728E+03   0.205E-01 -.874E-02 0.653E+00
   0.395E+01 0.220E+01 -.608E+03   -.367E+01 -.226E+01 0.607E+03   -.279E+00 0.533E-01 0.903E+00
   -.275E+01 -.453E+01 -.601E+03   0.283E+01 0.422E+01 0.601E+03   -.770E-01 0.308E+00 -.721E+00
   0.335E+02 -.328E+02 -.190E+04   -.337E+02 0.339E+02 0.189E+04   0.207E+00 -.114E+01 0.586E+01
   -.407E+02 0.141E+02 -.185E+04   0.430E+02 -.142E+02 0.184E+04   -.231E+01 0.130E+00 0.255E+01
   -.917E-01 -.104E+00 0.207E+04   0.874E-01 0.104E+00 -.207E+04   0.301E-02 -.520E-03 -.645E+01
   0.793E-01 0.742E-02 0.207E+04   -.817E-01 -.533E-02 -.207E+04   0.166E-02 -.148E-02 -.645E+01
   -.153E+00 0.362E-02 0.729E+03   0.132E+00 0.869E-02 -.729E+03   0.132E-01 -.822E-02 0.403E+00
   0.442E+00 -.462E+00 0.728E+03   -.473E+00 0.472E+00 -.729E+03   0.225E-01 -.760E-02 0.396E+00
   -.430E+01 -.148E+01 -.612E+03   0.422E+01 0.150E+01 0.612E+03   0.790E-01 -.268E-01 -.990E-01
   0.211E+01 0.351E+01 -.613E+03   -.216E+01 -.344E+01 0.613E+03   0.518E-01 -.589E-01 -.229E+00
   -.227E+02 0.193E+02 -.196E+04   0.227E+02 -.197E+02 0.195E+04   0.231E-02 0.411E+00 0.555E+01
   0.801E+01 -.495E+01 -.197E+04   -.818E+01 0.501E+01 0.197E+04   0.170E+00 -.529E-01 0.548E+01
   -.605E-01 0.104E+00 0.207E+04   0.513E-01 -.105E+00 -.207E+04   0.700E-02 0.569E-03 -.644E+01
   0.905E-01 -.814E-02 0.207E+04   -.934E-01 0.586E-02 -.207E+04   0.209E-02 0.163E-02 -.644E+01
   -.196E+00 -.141E-01 0.729E+03   0.148E+00 0.534E-03 -.730E+03   0.328E-01 0.919E-02 0.427E+00
   0.517E+00 0.464E+00 0.728E+03   -.489E+00 -.478E+00 -.729E+03   -.217E-01 0.982E-02 0.444E+00
   -.525E+01 0.155E+01 -.605E+03   0.500E+01 -.157E+01 0.605E+03   0.251E+00 0.233E-01 -.323E+00
   0.274E+01 -.352E+01 -.609E+03   -.282E+01 0.346E+01 0.609E+03   0.815E-01 0.584E-01 -.166E+00
   -.274E+02 -.200E+02 -.195E+04   0.276E+02 0.204E+02 0.194E+04   -.134E+00 -.390E+00 0.557E+01
   0.180E+02 0.521E+01 -.195E+04   -.184E+02 -.527E+01 0.194E+04   0.390E+00 0.636E-01 0.538E+01
   0.463E+00 -.334E+00 0.547E+03   -.440E+00 0.329E+00 -.547E+03   -.336E-01 0.584E-02 0.544E-01
   -.171E+00 -.352E-01 0.545E+03   0.189E+00 -.313E-01 -.545E+03   -.271E-01 0.904E-01 -.167E+00
   0.515E-01 -.178E-02 0.156E+04   -.462E-01 0.101E-01 -.156E+04   -.733E-02 -.117E-01 0.356E+01
   -.652E-01 -.846E-01 0.156E+04   0.708E-01 0.840E-01 -.156E+04   -.788E-02 0.786E-03 0.355E+01
   0.119E+02 -.795E+01 -.149E+04   -.118E+02 0.799E+01 0.149E+04   -.966E-01 -.410E-01 -.523E+01
   -.120E+02 0.337E+02 -.145E+04   0.119E+02 -.332E+02 0.146E+04   0.111E+00 -.462E+00 -.542E+01
   0.315E+01 0.273E+01 -.448E+03   -.309E+01 -.281E+01 0.448E+03   -.624E-01 0.651E-01 0.540E+00
   -.210E+01 -.148E+01 -.445E+03   0.213E+01 0.150E+01 0.445E+03   -.286E-01 -.142E-01 0.359E+00
   0.288E+00 0.339E+00 0.546E+03   -.333E+00 -.334E+00 -.546E+03   0.590E-01 -.637E-02 -.111E+00
   -.241E+00 0.301E-01 0.546E+03   0.255E+00 0.415E-01 -.546E+03   -.216E-01 -.975E-01 -.183E+00
   0.543E-01 0.144E-02 0.156E+04   -.464E-01 -.977E-02 -.156E+04   -.111E-01 0.117E-01 0.356E+01
   -.698E-01 0.849E-01 0.156E+04   0.690E-01 -.842E-01 -.156E+04   0.122E-02 -.107E-02 0.355E+01
   0.449E+02 0.945E+01 -.141E+04   -.448E+02 -.950E+01 0.141E+04   -.111E+00 0.605E-01 -.157E+01
   -.172E+02 -.360E+02 -.143E+04   0.171E+02 0.355E+02 0.144E+04   0.108E+00 0.441E+00 -.517E+01
   0.331E+01 -.275E+01 -.442E+03   -.325E+01 0.282E+01 0.442E+03   -.600E-01 -.564E-01 0.771E+00
   -.694E+00 0.155E+01 -.457E+03   0.710E+00 -.157E+01 0.458E+03   -.116E-01 0.202E-01 -.909E+00
   -.448E+00 -.270E+00 0.546E+03   0.427E+00 0.272E+00 -.546E+03   0.314E-01 -.329E-02 -.328E-01
   0.163E+00 0.964E-01 0.546E+03   -.179E+00 -.937E-01 -.546E+03   0.250E-01 -.309E-02 -.791E-01
   -.511E-01 -.695E-02 0.156E+04   0.458E-01 0.867E-02 -.156E+04   0.728E-02 -.244E-02 0.355E+01
   0.646E-01 -.818E-01 0.156E+04   -.702E-01 0.838E-01 -.156E+04   0.780E-02 -.282E-02 0.356E+01
   -.109E+02 -.470E+01 -.150E+04   0.109E+02 0.471E+01 0.150E+04   0.894E-01 -.101E-01 -.522E+01
   0.880E+01 0.111E+02 -.150E+04   -.870E+01 -.109E+02 0.150E+04   -.101E+00 -.261E+00 -.522E+01
   -.314E+01 0.291E+01 -.451E+03   0.306E+01 -.292E+01 0.450E+03   0.747E-01 0.246E-02 0.351E+00
   0.196E+01 -.125E+01 -.455E+03   -.198E+01 0.125E+01 0.454E+03   0.177E-01 -.132E-02 0.312E+00
   -.277E+00 0.270E+00 0.546E+03   0.320E+00 -.270E+00 -.546E+03   -.558E-01 0.106E-02 -.744E-01
   0.225E+00 -.110E+00 0.546E+03   -.233E+00 0.111E+00 -.546E+03   0.139E-01 -.291E-02 -.434E-01
   -.536E-01 0.678E-02 0.156E+04   0.458E-01 -.847E-02 -.156E+04   0.108E-01 0.240E-02 0.355E+01
   0.694E-01 0.823E-01 0.156E+04   -.686E-01 -.842E-01 -.156E+04   -.118E-02 0.261E-02 0.356E+01
   -.324E+02 0.514E+01 -.147E+04   0.325E+02 -.516E+01 0.148E+04   -.153E+00 0.235E-01 -.499E+01
   0.118E+02 -.113E+02 -.149E+04   -.118E+02 0.110E+02 0.150E+04   -.495E-01 0.283E+00 -.521E+01
   -.330E+01 -.295E+01 -.448E+03   0.323E+01 0.296E+01 0.448E+03   0.716E-01 -.118E-02 0.436E+00
   0.163E+01 0.129E+01 -.449E+03   -.163E+01 -.130E+01 0.449E+03   -.961E-02 0.101E-01 0.458E+00
   0.213E+02 -.219E+02 0.197E+02   -.682E-12 0.142E-12 -.409E-11   -.213E+02 0.219E+02 -.197E+02

 POSITION                                       TOTAL-FORCE (eV/Angst)
      3.53203      5.29293     16.98001         0.026371      0.382910      0.354430
      3.52439      4.18518     16.07120        -0.054273     -0.253072     -0.207086
      4.40934      5.18606     17.63216        -0.061877      0.000666     -0.057861
      2.70122      4.23761     15.47413         0.106244     -0.042509      0.174634
      3.61136      6.25386     16.43966        -0.012439     -0.097571      0.108872
      2.62586      5.29499     17.60842         0.068753      0.001079     -0.039332
      2.11679      0.00000      7.50000         0.001255      0.000300      0.193113
      4.23357      2.11679      7.50000         0.000678      0.001599      0.201830
      2.11679      2.11679      9.61679         0.007013      0.020908      0.025302
      4.23357      0.00000      9.61679         0.008572     -0.003545      0.042621
      2.11903      0.00152     11.73828        -0.001875      0.000881     -0.018318
      4.23464      2.12585     11.75434        -0.001551      0.003631     -0.012425
      2.11768      2.09234     13.83911        -0.015421      0.004890      0.178087
      4.23778      0.00359     13.83394        -0.000110     -0.001124      0.200377
      2.11679      4.23357      7.50000         0.002229     -0.000286      0.200303
      4.23357      6.35036      7.50000         0.000747     -0.001670      0.203208
      2.11679      6.35036      9.61679         0.012949     -0.020996      0.021978
      4.23357      4.23357      9.61679        -0.005998      0.002364      0.063427
      2.12588      4.23185     11.75095        -0.002537      0.001566      0.019271
      4.23513      6.34059     11.75425        -0.000064     -0.002225      0.000622
      2.11148      6.37503     13.82291        -0.017838      0.002074      0.142036
      4.29736      4.22714     13.96560        -0.031899     -0.007901      0.126800
      6.35036      0.00000      7.50000        -0.001238      0.000206      0.200037
      0.00000      2.11679      7.50000        -0.000694      0.000600      0.199538
      6.35036      2.11679      9.61679        -0.007795      0.004010      0.027681
      0.00000      0.00000      9.61679        -0.008757      0.002892      0.015037
      6.34800      0.00068     11.74001        -0.002072     -0.001402     -0.013083
      8.46575      2.11797     11.74460         0.001219      0.004408     -0.012550
      6.34974      2.10680     13.84297         0.003717     -0.002681      0.204505
      8.46225      0.00090     13.83982        -0.000694      0.002918      0.208311
      6.35036      4.23357      7.50000        -0.002217     -0.000212      0.198291
      0.00000      6.35036      7.50000        -0.000793     -0.000651      0.197542
      6.35036      6.35036      9.61679        -0.014677     -0.004271      0.024063
      0.00000      4.23357      9.61679         0.006691     -0.004176      0.046971
      6.34221      4.23253     11.74932         0.002724      0.001691     -0.011255
      8.46471      6.34846     11.74257        -0.000585     -0.002682     -0.016916
      6.35314      6.35979     13.83789        -0.002665      0.005993      0.198201
      8.44342      4.23149     13.84045         0.016370      0.000951      0.194187
      2.11679      0.00000      9.61679        -0.010792      0.000893      0.063827
      4.23357      2.11679      9.61679        -0.009013      0.023973      0.077043
      2.11679      2.11679      7.50000        -0.002076     -0.003394     -0.517913
      4.23357      0.00000      7.50000        -0.002224      0.000243     -0.519990
      2.11328      8.46540     13.88661         0.002998     -0.001210      0.037442
      4.23262      2.10252     13.86840         0.005767     -0.002410      0.011450
      2.11336      2.12250     11.74193         0.002503     -0.009591     -0.001619
      4.23163      8.46501     11.73078         0.002990      0.004075      0.000230
      2.11679      4.23357      9.61679         0.013919     -0.001101      0.075187
      4.23357      6.35036      9.61679        -0.007602     -0.025838      0.070733
      2.11679      6.35036      7.50000        -0.003160      0.003393     -0.517553
      4.23357      4.23357      7.50000         0.000389     -0.000323     -0.522595
      2.06577      4.23586     13.94413        -0.017201      0.006686     -0.108199
      4.23150      6.36451     13.88530         0.011411     -0.003113     -0.025815
      2.11421      6.34431     11.74011        -0.000177      0.011248     -0.004738
      4.22908      4.23492     11.75988         0.004256     -0.004163      0.001030
      6.35036      0.00000      9.61679         0.010050     -0.001400      0.044907
      0.00000      2.11679      9.61679         0.008622     -0.000392      0.053624
      6.35036      2.11679      7.50000         0.002061     -0.000715     -0.519767
      0.00000      0.00000      7.50000         0.002202     -0.000805     -0.516931
      6.35214      8.46591     13.88879         0.002890      0.001230      0.028337
      8.46618      2.11020     13.89121        -0.003784     -0.007786      0.034666
      6.35352      2.11755     11.73615        -0.001002     -0.004159      0.003465
      0.00151      8.46633     11.73482        -0.003006      0.001337     -0.002125
      6.35036      4.23357      9.61679        -0.013588      0.000833      0.080828
      0.00000      6.35036      9.61679         0.005799     -0.001072      0.054450
      6.35036      6.35036      7.50000         0.003073      0.000706     -0.519622
      0.00000      4.23357      7.50000        -0.000369      0.000735     -0.517929
      6.36942      4.23496     13.89301        -0.011603     -0.000876      0.039425
      8.46632      6.35639     13.89045        -0.000782      0.008031      0.043204
      6.35217      6.34917     11.73660         0.002595      0.005408      0.000996
      0.00429      4.23377     11.74013        -0.012607     -0.000007     -0.008502
    total drift:                               -0.000170     -0.000217      0.070188

  FREE ENERGIE OF THE ION-ELECTRON SYSTEM (eV)
  free  energy   TOTEN  =      -254.54676878 eV

  energy  without entropy=     -254.54676878  energy(sigma->0) =     -254.54676878