 vasp.6.3.0 20Jan22 (build Apr  1 2022 16:44:48) complex
 executed on        HPECrayEX_GCC date 2022.11.13  12:59:17

 INCAR:
   SYSTEM = MgO-rocksalt
   ISMEAR = 0
   SIGMA = 0.05
   EDIFF = 1E-6
   ALGO = ALL
   ISTART = 0
   IBRION = -1
   NSW = 0
   ISYM = 0
   DIPOL = 0.5 0.5 0.5
   IDIPOL = 3
   LDIPOL = .TRUE.
   LHFCALC = .TRUE.
   GGA = B5
   AEXX = 0.2
   AGGAX = 0.72
   AGGAC = 0.81
   ALDAC = 0.19
   IVDW = 1
   VDW_S6 = 1.05
   VDW_C6 = 1.75 0.70 0.14 0.63 0.70
   VDW_R0 = 1.452 1.342 1.001 1.243 1.342
   ENCUT = 600
   PREC = Accurate
   LASPH = .TRUE.
   LREAL = .FALSE.
   ISPIN = 1
   NELM = 200
   NELMIN = 8
   NCORE = 8
   KPAR = 1
   LWAVE = .FALSE.
   LCHARG = .FALSE.

 POTCAR:    PAW_PBE C 08Apr2002
 POTCAR:    PAW_PBE O 08Apr2002
 POTCAR:    PAW_PBE H 15Jun2001
 POTCAR:    PAW_PBE Mg_pv 13Apr2007
 POTCAR:    PAW_PBE O 08Apr2002
 POTCAR:    PAW_PBE C 08Apr2002
   VRHFIN =C: s2p2

   TITEL  = PAW_PBE C 08Apr2002
   POMASS =   12.011; ZVAL   =    4.000    mass and valenz
   ENMAX  =  400.000; ENMIN  =  300.000 eV

[...]

   TITEL  = PAW_PBE H 15Jun2001
   POMASS =    1.000; ZVAL   =    1.000    mass and valenz
   ENMAX  =  250.000; ENMIN  =  200.000 eV

   TITEL  = PAW_PBE Mg_pv 13Apr2007
   POMASS =   24.305; ZVAL   =    8.000    mass and valenz
   ENMAX  =  403.929; ENMIN  =  302.947 eV

   TITEL  = PAW_PBE O 08Apr2002
   POMASS =   16.000; ZVAL   =    6.000    mass and valenz
   ENMAX  =  400.000; ENMIN  =  300.000 eV

  PAW_PBE C 08Apr2002                   :
  PAW_PBE O 08Apr2002                   :
  PAW_PBE H 15Jun2001                   :
  PAW_PBE Mg_pv 13Apr2007               :
  PAW_PBE O 08Apr2002                   :

 POSCAR:  C  O  H Mg  O
  positions in direct lattice
 exchange correlation table for  LEXCH =       12
   RHO(1)=    0.500       N(1)  =     2000
   RHO(2)=  100.500       N(2)  =     4000

 ion  position               nearest neighbor table
   1  0.431  0.618  0.797-   3 1.10   6 1.10   5 1.11   2 1.43
   2  0.422  0.492  0.752-   4 1.02   1 1.43  22 2.21
   3  0.541  0.602  0.823-   1 1.10
   4  0.321  0.501  0.726-   2 1.02
   5  0.435  0.735  0.774-   1 1.11
   6  0.330  0.613  0.830-   1 1.10
   7  0.250  0.000  0.352-  39 2.11  41 2.11  42 2.11  49 2.11  58 2.11
   8  0.500  0.250  0.352-  40 2.11  41 2.11  42 2.11  50 2.11  57 2.11
   9  0.250  0.250  0.451-  41 2.11  40 2.11  39 2.11  47 2.11  56 2.11  45 2.12
  10  0.500  0.000  0.451-  46 2.11  42 2.11  39 2.11  40 2.11  48 2.11  55 2.11
  11  0.250  0.000  0.550-  46 2.11  62 2.11  39 2.11  45 2.11  53 2.12  43 2.14
  12  0.500  0.251  0.550-  44 2.10  54 2.10  61 2.11  45 2.12  46 2.12  40 2.13
  13  0.250  0.247  0.648-  43 2.09  45 2.09  44 2.11  60 2.11  51 2.14
  14  0.501  0.000  0.648-  44 2.09  46 2.10  52 2.10  59 2.11  43 2.12
  15  0.250  0.500  0.352-  47 2.11  41 2.11  49 2.11  50 2.11  66 2.11
  16  0.500  0.750  0.352-  48 2.11  42 2.11  49 2.11  50 2.11  65 2.11
  17  0.250  0.750  0.451-  49 2.11  47 2.11  48 2.11  39 2.11  64 2.11  53 2.12
  18  0.500  0.500  0.451-  50 2.11  47 2.11  48 2.11  40 2.11  63 2.11  54 2.13
  19  0.251  0.500  0.550-  54 2.10  45 2.10  53 2.11  70 2.12  47 2.13  51 2.19
  20  0.500  0.749  0.550-  54 2.10  69 2.11  53 2.12  46 2.12  52 2.12  48 2.13
  21  0.249  0.753  0.647-  53 2.08  43 2.08  68 2.11  52 2.11  51 2.14
  22  0.507  0.499  0.654-  67 2.07  44 2.12  52 2.14  54 2.20   2 2.21  51 2.22
  23  0.750  0.000  0.352-  55 2.11  42 2.11  57 2.11  58 2.11  65 2.11
  24  0.000  0.250  0.352-  56 2.11  41 2.11  57 2.11  58 2.11  66 2.11
  25  0.750  0.250  0.451-  57 2.11  55 2.11  56 2.11  40 2.11  63 2.11  61 2.11
  26  0.000  0.000  0.451-  58 2.11  55 2.11  56 2.11  39 2.11  64 2.11  62 2.11
  27  0.750  0.000  0.550-  46 2.11  61 2.11  69 2.11  62 2.11  55 2.11  59 2.14
  28  1.000  0.250  0.550-  61 2.10  45 2.11  70 2.11  62 2.11  56 2.12  60 2.14
  29  0.750  0.249  0.648-  59 2.10  61 2.10  44 2.11  60 2.11  67 2.12
  30  1.000  0.000  0.648-  62 2.10  60 2.10  59 2.10  68 2.11  43 2.11
  31  0.750  0.500  0.352-  63 2.11  57 2.11  50 2.11  65 2.11  66 2.11
  32  0.000  0.750  0.352-  64 2.11  58 2.11  49 2.11  65 2.11  66 2.11
  33  0.750  0.750  0.451-  65 2.11  55 2.11  63 2.11  64 2.11  48 2.11  69 2.11
  34  0.000  0.500  0.451-  66 2.11  56 2.11  63 2.11  64 2.11  47 2.11  70 2.12
  35  0.749  0.500  0.550-  54 2.11  61 2.11  69 2.11  70 2.12  63 2.12  67 2.13
  36  1.000  0.750  0.550-  69 2.10  70 2.11  53 2.11  62 2.11  64 2.12  68 2.14
  37  0.750  0.751  0.648-  69 2.10  59 2.10  68 2.11  52 2.11  67 2.12
  38  0.998  0.500  0.648-  67 2.07  51 2.09  70 2.10  60 2.12  68 2.12
  39  0.250  0.000  0.451-   7 2.11   9 2.11  10 2.11  17 2.11  26 2.11  11 2.11
  40  0.500  0.250  0.451-   8 2.11   9 2.11  10 2.11  18 2.11  25 2.11  12 2.13
  41  0.250  0.250  0.352-   9 2.11   8 2.11   7 2.11  15 2.11  24 2.11
  42  0.500  0.000  0.352-  10 2.11   8 2.11   7 2.11  16 2.11  23 2.11
  43  0.250  1.000  0.650-  21 2.08  13 2.09  30 2.11  14 2.12  11 2.14
  44  0.500  0.248  0.649-  14 2.09  12 2.10  13 2.11  29 2.11  22 2.12
  45  0.250  0.251  0.550-  13 2.09  19 2.10  28 2.11  11 2.11  12 2.12   9 2.12
  46  0.500  1.000  0.549-  14 2.10  10 2.11  11 2.11  27 2.11  20 2.12  12 2.12
  47  0.250  0.500  0.451-  15 2.11   9 2.11  17 2.11  18 2.11  34 2.11  19 2.13
  48  0.500  0.750  0.451-  16 2.11  10 2.11  17 2.11  18 2.11  33 2.11  20 2.13
  49  0.250  0.750  0.352-  17 2.11  15 2.11  16 2.11   7 2.11  32 2.11
  50  0.500  0.500  0.352-  18 2.11  15 2.11  16 2.11   8 2.11  31 2.11
  51  0.245  0.500  0.653-  38 2.09  21 2.14  13 2.14  19 2.19  22 2.22
  52  0.500  0.752  0.650-  14 2.10  21 2.11  37 2.11  20 2.12  22 2.14
  53  0.250  0.749  0.550-  21 2.08  19 2.11  36 2.11  20 2.12  17 2.12  11 2.12
  54  0.500  0.500  0.551-  19 2.10  20 2.10  12 2.10  35 2.11  18 2.13  22 2.20
  55  0.750  0.000  0.451-  23 2.11  10 2.11  25 2.11  26 2.11  33 2.11  27 2.11
  56  0.000  0.250  0.451-  24 2.11   9 2.11  25 2.11  26 2.11  34 2.11  28 2.12
  57  0.750  0.250  0.352-  25 2.11  23 2.11  24 2.11   8 2.11  31 2.11
  58  0.000  0.000  0.352-  26 2.11  23 2.11  24 2.11   7 2.11  32 2.11
  59  0.750  1.000  0.650-  37 2.10  29 2.10  30 2.10  14 2.11  27 2.14
  60  0.000  0.249  0.650-  30 2.10  29 2.11  13 2.11  38 2.12  28 2.14
  61  0.750  0.250  0.550-  29 2.10  28 2.10  35 2.11  27 2.11  12 2.11  25 2.11
  62  0.000  1.000  0.549-  30 2.10  11 2.11  26 2.11  36 2.11  28 2.11  27 2.11
  63  0.750  0.500  0.451-  31 2.11  25 2.11  18 2.11  33 2.11  34 2.11  35 2.12
  64  0.000  0.750  0.451-  32 2.11  26 2.11  17 2.11  33 2.11  34 2.11  36 2.12
  65  0.750  0.750  0.352-  33 2.11  23 2.11  31 2.11  32 2.11  16 2.11
  66  0.000  0.500  0.352-  34 2.11  24 2.11  31 2.11  32 2.11  15 2.11
  67  0.752  0.500  0.650-  38 2.07  22 2.07  37 2.12  29 2.12  35 2.13
  68  0.000  0.751  0.650-  30 2.11  21 2.11  37 2.11  38 2.12  36 2.14
  69  0.750  0.750  0.550-  37 2.10  36 2.10  20 2.11  35 2.11  27 2.11  33 2.11
  70  0.001  0.500  0.550-  38 2.10  36 2.11  28 2.11  19 2.12  34 2.12  35 2.12

IMPORTANT INFORMATION: All symmetrisations will be switched off!
NOSYMM: (Re-)initialisation of all symmetry stuff for point group C_1.

                                     Primitive cell

  volume of cell :    1519.6535

  direct lattice vectors                    reciprocal lattice vectors
     8.440582262  0.000000000  0.000000000     0.118475239  0.000000000  0.000000000
     0.000000000  8.440582262  0.000000000     0.000000000  0.118475239  0.000000000
     0.000000000  0.000000000 21.330436697     0.000000000  0.000000000  0.046881366

  length of vectors
     8.440582262  8.440582262 21.330436697     0.118475239  0.118475239  0.046881366

  position of ions in fractional coordinates (direct lattice)
     0.431012336  0.617876275  0.796731208
     0.422078077  0.492475380  0.751637178
     0.541161858  0.601727432  0.823419358
     0.321313408  0.500881636  0.725856370
     0.434683716  0.735088427  0.773682767
     0.330150492  0.613065649  0.829530300
     0.250000000  0.000000000  0.351610242
     0.500000000  0.250000000  0.351610242
     0.250000000  0.250000000  0.450536747
     0.500000000  0.000000000  0.450536747
     0.250275984  0.000181833  0.549547927
     0.500233635  0.250994585  0.550252766
     0.250197088  0.247127418  0.647900728
     0.500547696  0.000338013  0.647714875
     0.250000000  0.500000000  0.351610242
     0.500000000  0.750000000  0.351610242
     0.250000000  0.750000000  0.450536747
     0.500000000  0.500000000  0.450536747
     0.251119012  0.499775446  0.550246716
     0.500293751  0.748806223  0.550300309
     0.249456974  0.752821283  0.647063874
     0.507049029  0.498975491  0.653798276
     0.750000000  0.000000000  0.351610242
     0.000000000  0.250000000  0.351610242
     0.750000000  0.250000000  0.450536747
     0.000000000  0.000000000  0.450536747
     0.749760343  0.000045148  0.549670036
     0.999836682  0.250122241  0.549854123
     0.749933221  0.248831170  0.648198037
     0.999510315  0.000068415  0.648051762
     0.750000000  0.500000000  0.351610242
     0.000000000  0.750000000  0.351610242
     0.750000000  0.750000000  0.450536747
     0.000000000  0.500000000  0.450536747
     0.749106760  0.499837223  0.550130778
     0.999676900  0.749774997  0.549740567
     0.750283905  0.750979646  0.647954870
     0.997514673  0.499754738  0.648064495
     0.250000000  0.000000000  0.450536747
     0.500000000  0.250000000  0.450536747
     0.250000000  0.250000000  0.351610242
     0.500000000  0.000000000  0.351610242
     0.249648063  0.999729563  0.649820843
     0.500010990  0.247998300  0.648792780
     0.249610070  0.250592327  0.549817055
     0.499851933  0.999676256  0.549284267
     0.250000000  0.500000000  0.450536747
     0.500000000  0.750000000  0.450536747
     0.250000000  0.750000000  0.351610242
     0.500000000  0.500000000  0.351610242
     0.244629436  0.500291533  0.652656692
     0.499812112  0.751634208  0.649718712
     0.249707355  0.749334355  0.549713906
     0.499535807  0.500088811  0.550598365
     0.750000000  0.000000000  0.450536747
     0.000000000  0.250000000  0.450536747
     0.750000000  0.250000000  0.351610242
     0.000000000  0.000000000  0.351610242
     0.750378106  0.999781164  0.649935477
     0.000018145  0.249168220  0.650067892
     0.750470891  0.250005605  0.549569804
     0.000213649  0.999879192  0.549499120
     0.750000000  0.500000000  0.450536747
     0.000000000  0.750000000  0.450536747
     0.750000000  0.750000000  0.351610242
     0.000000000  0.500000000  0.351610242
     0.752267862  0.500069222  0.650138416
     0.000009285  0.750673450  0.650046177
     0.750288400  0.749869226  0.549601406
     0.000531656  0.500013413  0.549755455

  ion indices of the primitive-cell ions
   primitive index   ion index
                 1           1
                 2           2
                 3           3
                 4           4
                 5           5
                 6           6
                 7           7
                 8           8
                 9           9
                10          10
[...]
   4.22491400  0.00285303 13.81604113
   2.11014557  4.22029113  7.50000000
   4.22029113  6.33043670  7.50000000
   2.11014557  6.33043670  9.61014557
   4.22029113  4.22029113  9.61014557
   2.11959068  4.21839576 11.73700275
   4.22277056  6.32036053 11.73814591
   2.10556211  6.35424997 13.80215501
   4.27978904  4.21164368 13.94580273
   6.33043670  0.00000000  7.50000000
   0.00000000  2.11014557  7.50000000
   6.33043670  2.11014557  9.61014557
   0.00000000  0.00000000  9.61014557
   6.32841385  0.00038107 11.72470191
   8.43920376  2.11117735 11.72862856
   6.32987304  2.10027996 13.82634719
   8.43644904  0.00057746 13.82322708
   6.33043670  4.22029113  7.50000000
   0.00000000  6.33043670  7.50000000
   6.33043670  6.33043670  9.61014557
   0.00000000  4.22029113  9.61014557
   6.32289723  4.21891720 11.73452975
   8.43785511  6.32853754 11.72620636
   6.33283302  6.33870548 13.82116034
   8.41960466  4.21822097 13.82349868
   2.11014557  0.00000000  9.61014557
   4.22029113  2.11014557  9.61014557
   2.11014557  2.11014557  7.50000000
   4.22029113  0.00000000  7.50000000
   2.10717501  8.43829962 13.86096235
   4.22038389  2.09325005 13.83903332
   2.10685433  2.11514515 11.72783788
   4.21904136  8.43784967 11.71647329
   2.11014557  4.22029113  9.61014557
   4.22029113  6.33043670  9.61014557
   2.11014557  6.33043670  7.50000000
   4.22029113  4.22029113  7.50000000
   2.06481488  4.22275184 13.92145226
   4.21870525  6.34423036 13.85878387
   2.10767548  6.32481826 11.72563767
   4.21637307  4.22104075 11.74450358
   6.33043670  0.00000000  9.61014557
   0.00000000  2.11014557  9.61014557
   6.33043670  2.11014557  7.50000000
   0.00000000  0.00000000  7.50000000
   6.33362813  8.43873516 13.86340755
   0.00015315  2.10312485 13.86623202
   6.33441129  2.11019287 11.72256390
   0.00180332  8.43956258 11.72105620
   6.33043670  4.22029113  9.61014557
   0.00000000  6.33043670  9.61014557
   6.33043670  6.33043670  7.50000000
   0.00000000  4.22029113  7.50000000
   6.34957877  4.22087541 13.86773633
   0.00007837  6.33612100 13.86576882
   6.33287096  6.32933289 11.72323801
   0.00448748  4.22040435 11.72652394

--------------------------------------- Iteration      FINAL  ---------------------------------------

--------------------OUTCAR has been truncated-------------------------

[...]

--------------------OUTCAR has been truncated-------------------------

  DFT-D2 method for vdW energy calculation

  Parameters of vdW forcefield:
         C6(Jnm^6/mol)     R0(A)
   C        1.750          1.452
   O        0.700          1.342
   H        0.140          1.001
   Mg       0.630          1.243
   O        0.700          1.342

  vdW correction parametrized for the method        ü'Ñ

  IVDW =   1
  VDW_RADIUS =    50.000 A
  VDW_S6 =     1.050
  VDW_SR =     1.000
  VDW_D =    20.000
  LVDW_EWALD = F

  Number of pair interactions contributing to vdW energy:  862590
  Edisp (eV):   -5.33414

 VOLUME and BASIS-vectors are now :
  energy-cutoff  :      600.00
  volume of cell :     1519.65
      direct lattice vectors                 reciprocal lattice vectors
     8.440582262  0.000000000  0.000000000     0.118475239  0.000000000  0.000000000
     0.000000000  8.440582262  0.000000000     0.000000000  0.118475239  0.000000000
     0.000000000  0.000000000 21.330436697     0.000000000  0.000000000  0.046881366

  length of vectors
     8.440582262  8.440582262 21.330436697     0.118475239  0.118475239  0.046881366

 FORCES acting on ions:
    Electron-Ion                     Ewald-Force                    Non-Local-Force
   -.793E+01 -.907E+02 -.102E+04   0.847E+01 0.953E+02 0.102E+04   -.465E+00 -.433E+01 -.367E+01
   -.218E+02 0.132E+03 -.160E+04   0.458E+02 -.163E+03 0.160E+04   -.217E+02 0.279E+02 0.223E+01
   -.520E+02 -.117E+01 -.244E+03   0.567E+02 0.494E+00 0.247E+03   -.479E+01 0.696E+00 -.294E+01
   0.708E+02 0.372E+01 -.254E+03   -.763E+02 -.353E+01 0.251E+03   0.569E+01 -.254E+00 0.373E+01
   -.253E+01 -.617E+02 -.239E+03   0.276E+01 0.665E+02 0.236E+03   -.234E+00 -.497E+01 0.249E+01
   0.452E+02 -.621E+01 -.244E+03   -.494E+02 0.601E+01 0.247E+03   0.427E+01 0.195E+00 -.357E+01
   0.118E+00 -.100E+00 0.209E+04   -.112E+00 0.102E+00 -.208E+04   -.342E-02 -.814E-03 -.636E+01
   -.644E-01 -.381E-01 0.209E+04   0.673E-01 0.450E-01 -.208E+04   -.186E-02 -.475E-02 -.640E+01
   0.313E+00 -.165E-01 0.734E+03   -.297E+00 0.110E+00 -.735E+03   -.878E-02 -.608E-01 0.488E+00
   -.419E+00 -.415E+00 0.736E+03   0.458E+00 0.390E+00 -.736E+03   -.248E-01 0.165E-01 0.205E+00
   0.457E+01 -.181E+01 -.610E+03   -.450E+01 0.188E+01 0.610E+03   -.658E-01 -.605E-01 -.521E-01
   -.175E+01 0.459E+01 -.605E+03   0.182E+01 -.428E+01 0.606E+03   -.605E-01 -.280E+00 -.105E+01
   0.280E+02 0.312E+02 -.195E+04   -.280E+02 -.324E+02 0.194E+04   -.210E-01 0.107E+01 0.576E+01
   -.823E+01 -.876E+01 -.197E+04   0.842E+01 0.898E+01 0.196E+04   -.170E+00 -.192E+00 0.562E+01
   0.934E-01 0.101E+00 0.209E+04   -.842E-01 -.102E+00 -.208E+04   -.617E-02 0.863E-03 -.640E+01
   -.762E-01 0.373E-01 0.209E+04   0.796E-01 -.448E-01 -.208E+04   -.221E-02 0.514E-02 -.641E+01
   0.276E+00 -.474E-02 0.735E+03   -.227E+00 -.892E-01 -.736E+03   -.305E-01 0.615E-01 0.480E+00
   -.412E+00 0.385E+00 0.733E+03   0.381E+00 -.371E+00 -.734E+03   0.209E-01 -.971E-02 0.581E+00
   0.467E+01 0.191E+01 -.614E+03   -.437E+01 -.198E+01 0.613E+03   -.271E+00 0.576E-01 0.890E+00
   -.230E+01 -.453E+01 -.605E+03   0.240E+01 0.422E+01 0.606E+03   -.895E-01 0.281E+00 -.630E+00
   0.334E+02 -.322E+02 -.192E+04   -.337E+02 0.334E+02 0.191E+04   0.188E+00 -.105E+01 0.584E+01
   -.396E+02 0.120E+02 -.186E+04   0.418E+02 -.122E+02 0.185E+04   -.200E+01 0.187E+00 0.231E+01
   -.117E+00 -.891E-01 0.209E+04   0.112E+00 0.897E-01 -.208E+04   0.333E-02 -.321E-03 -.639E+01
   0.643E-01 -.138E-01 0.209E+04   -.670E-01 0.170E-01 -.208E+04   0.174E-02 -.209E-02 -.639E+01
   -.300E+00 -.664E-01 0.735E+03   0.287E+00 0.769E-01 -.735E+03   0.663E-02 -.601E-02 0.354E+00
   0.427E+00 -.439E+00 0.734E+03   -.464E+00 0.453E+00 -.734E+03   0.233E-01 -.889E-02 0.346E+00
   -.460E+01 -.129E+01 -.617E+03   0.452E+01 0.133E+01 0.617E+03   0.718E-01 -.327E-01 -.791E-01
   0.178E+01 0.331E+01 -.618E+03   -.185E+01 -.326E+01 0.618E+03   0.688E-01 -.447E-01 -.184E+00
   -.243E+02 0.202E+02 -.198E+04   0.242E+02 -.206E+02 0.197E+04   0.383E-01 0.358E+00 0.565E+01
   0.699E+01 -.436E+01 -.199E+04   -.718E+01 0.441E+01 0.198E+04   0.170E+00 -.483E-01 0.556E+01
   -.920E-01 0.889E-01 0.209E+04   0.832E-01 -.896E-01 -.208E+04   0.591E-02 0.506E-03 -.639E+01
   0.755E-01 0.131E-01 0.209E+04   -.789E-01 -.166E-01 -.208E+04   0.227E-02 0.226E-02 -.638E+01
   -.263E+00 0.523E-01 0.735E+03   0.212E+00 -.674E-01 -.735E+03   0.316E-01 0.880E-02 0.388E+00
   0.402E+00 0.433E+00 0.734E+03   -.364E+00 -.452E+00 -.734E+03   -.245E-01 0.118E-01 0.405E+00
   -.570E+01 0.133E+01 -.610E+03   0.543E+01 -.136E+01 0.610E+03   0.238E+00 0.294E-01 -.323E+00
   0.229E+01 -.331E+01 -.614E+03   -.240E+01 0.326E+01 0.614E+03   0.995E-01 0.428E-01 -.118E+00
   -.285E+02 -.208E+02 -.196E+04   0.286E+02 0.212E+02 0.196E+04   -.121E+00 -.348E+00 0.566E+01
   0.161E+02 0.469E+01 -.197E+04   -.165E+02 -.474E+01 0.196E+04   0.402E+00 0.478E-01 0.546E+01
   0.529E+00 -.287E+00 0.552E+03   -.506E+00 0.281E+00 -.552E+03   -.297E-01 0.595E-02 0.363E-01
   -.109E+00 -.652E-01 0.550E+03   0.124E+00 0.174E-02 -.550E+03   -.204E-01 0.763E-01 -.157E+00
   0.759E-01 -.203E-01 0.157E+04   -.711E-01 0.297E-01 -.157E+04   -.601E-02 -.118E-01 0.313E+01
   -.575E-01 -.696E-01 0.157E+04   0.639E-01 0.686E-01 -.157E+04   -.786E-02 0.119E-02 0.312E+01
   0.120E+02 -.686E+01 -.150E+04   -.119E+02 0.691E+01 0.151E+04   -.969E-01 -.417E-01 -.447E+01
   -.111E+02 0.345E+02 -.146E+04   0.110E+02 -.340E+02 0.147E+04   0.984E-01 -.486E+00 -.463E+01
   0.348E+01 0.252E+01 -.453E+03   -.341E+01 -.260E+01 0.452E+03   -.703E-01 0.733E-01 0.463E+00
   -.180E+01 -.119E+01 -.450E+03   0.183E+01 0.122E+01 0.450E+03   -.256E-01 -.289E-01 0.273E+00
   0.421E+00 0.292E+00 0.550E+03   -.467E+00 -.285E+00 -.550E+03   0.534E-01 -.723E-02 -.135E+00
   -.182E+00 0.572E-01 0.551E+03   0.191E+00 0.194E-01 -.550E+03   -.136E-01 -.921E-01 -.182E+00
   0.715E-01 0.199E-01 0.157E+04   -.630E-01 -.293E-01 -.157E+04   -.106E-01 0.118E-01 0.313E+01
   -.547E-01 0.701E-01 0.157E+04   0.536E-01 -.687E-01 -.157E+04   0.150E-02 -.172E-02 0.312E+01
   0.463E+02 0.793E+01 -.143E+04   -.461E+02 -.799E+01 0.143E+04   -.230E+00 0.584E-01 -.134E+01
   -.149E+02 -.364E+02 -.144E+04   0.148E+02 0.359E+02 0.145E+04   0.855E-01 0.497E+00 -.435E+01
   0.349E+01 -.256E+01 -.447E+03   -.343E+01 0.264E+01 0.446E+03   -.510E-01 -.720E-01 0.710E+00
   -.512E+00 0.121E+01 -.461E+03   0.550E+00 -.124E+01 0.462E+03   -.370E-01 0.362E-01 -.871E+00
   -.528E+00 -.225E+00 0.551E+03   0.502E+00 0.230E+00 -.551E+03   0.330E-01 -.713E-02 -.545E-01
   0.111E+00 0.197E-01 0.550E+03   -.130E+00 -.167E-01 -.550E+03   0.252E-01 -.292E-02 -.878E-01
   -.758E-01 -.174E-01 0.157E+04   0.709E-01 0.193E-01 -.157E+04   0.616E-02 -.238E-02 0.312E+01
   0.573E-01 -.743E-01 0.157E+04   -.638E-01 0.767E-01 -.157E+04   0.796E-02 -.307E-02 0.313E+01
   -.111E+02 -.440E+01 -.151E+04   0.110E+02 0.442E+01 0.151E+04   0.837E-01 -.173E-01 -.442E+01
   0.816E+01 0.109E+02 -.151E+04   -.809E+01 -.106E+02 0.151E+04   -.687E-01 -.228E+00 -.443E+01
   -.349E+01 0.287E+01 -.455E+03   0.340E+01 -.287E+01 0.455E+03   0.748E-01 0.870E-02 0.244E+00
   0.181E+01 -.115E+01 -.460E+03   -.183E+01 0.116E+01 0.460E+03   0.232E-01 -.769E-02 0.221E+00
   -.392E+00 0.216E+00 0.550E+03   0.429E+00 -.216E+00 -.550E+03   -.434E-01 0.534E-03 -.937E-01
   0.172E+00 -.311E-01 0.551E+03   -.178E+00 0.338E-01 -.551E+03   0.107E-01 -.386E-02 -.472E-01
   -.709E-01 0.175E-01 0.157E+04   0.625E-01 -.192E-01 -.157E+04   0.105E-01 0.222E-02 0.312E+01
   0.538E-01 0.747E-01 0.157E+04   -.529E-01 -.770E-01 -.157E+04   -.124E-02 0.286E-02 0.313E+01
   -.337E+02 0.476E+01 -.148E+04   0.337E+02 -.478E+01 0.148E+04   -.583E-01 0.235E-01 -.428E+01
   0.105E+02 -.111E+02 -.150E+04   -.104E+02 0.108E+02 0.151E+04   -.309E-01 0.239E+00 -.445E+01
   -.349E+01 -.289E+01 -.453E+03   0.342E+01 0.290E+01 0.453E+03   0.561E-01 -.661E-02 0.343E+00
   0.126E+01 0.117E+01 -.455E+03   -.128E+01 -.118E+01 0.454E+03   0.178E-01 0.104E-01 0.390E+00
   0.217E+02 -.225E+02 0.173E+02   0.185E-12 0.163E-12 -.159E-11   -.190E+02 0.193E+02 -.156E+02

 POSITION                                       TOTAL-FORCE (eV/Angst)
      3.63800      5.21524     16.99462         0.062747      0.113183      0.086521
      3.56258      4.15678     16.03275        -0.453580      0.218564     -0.118001
      4.56772      5.07893     17.56389        -0.239129      0.032492     -0.142315
      2.71207      4.22773     15.48283         0.442031     -0.052369      0.255173
      3.66898      6.20457     16.50299        -0.014913     -0.311799      0.111693
      2.78666      5.17463     17.69424         0.211648     -0.003487     -0.187567
      2.11015      0.00000      7.50000         0.001517      0.000324      0.459982
      4.22029      2.11015      7.50000         0.000809      0.001639      0.469692
      2.11015      2.11015      9.61015         0.006022      0.024563      0.025234
      4.22029      0.00000      9.61015         0.010691     -0.006620      0.046753
      2.11248      0.00153     11.72210         0.000333      0.002346     -0.009524
      4.22226      2.11854     11.73713         0.000284      0.005699      0.010815
      2.11181      2.08590     13.82001         0.003219     -0.000691     -0.109360
      4.22491      0.00285     13.81604         0.002190      0.005974     -0.119558
      2.11015      4.22029      7.50000         0.002250     -0.000273      0.469751
      4.22029      6.33044      7.50000         0.000912     -0.001708      0.472103
      2.11015      6.33044      9.61015         0.014480     -0.024463      0.021857
      4.22029      4.22029      9.61015        -0.006946      0.002972      0.059711
      2.11959      4.21840     11.73700         0.001536     -0.002017     -0.016744
      4.22277      6.32036     11.73815         0.001016     -0.004988      0.001979
      2.10556      6.35425     13.80216        -0.003619      0.004319     -0.112167
      4.27979      4.21164     13.94580         0.062487     -0.010098     -0.087579
      6.33044      0.00000      7.50000        -0.001475      0.000188      0.467934
      0.00000      2.11015      7.50000        -0.000790      0.000902      0.467182
      6.33044      2.11015      9.61015        -0.005154      0.003402      0.031046
      0.00000      0.00000      9.61015        -0.009951      0.003842      0.018548
      6.32841      0.00038     11.72470         0.000317      0.001730     -0.007159
      8.43920      2.11118     11.72863        -0.001601      0.001020     -0.002827
      6.32987      2.10028     13.82635        -0.001419     -0.002891     -0.115415
      8.43645      0.00058     13.82323        -0.003811      0.001457     -0.114577
      6.33044      4.22029      7.50000        -0.002203     -0.000152      0.466352
      0.00000      6.33044      7.50000        -0.000934     -0.000931      0.464330
      6.33044      6.33044      9.61015        -0.015539     -0.004796      0.026212
      0.00000      4.22029      9.61015         0.009614     -0.005344      0.048051
      6.32290      4.21892     11.73453        -0.003667     -0.001231     -0.002566
      8.43786      6.32854     11.72621        -0.002206     -0.000945     -0.003291
      6.33283      6.33871     13.82116         0.004109      0.004149     -0.119643
      8.41960      4.21822     13.82350         0.001190     -0.000915     -0.113800
      2.11015      0.00000      9.61015        -0.011167      0.001222      0.045385
      4.22029      2.11015      9.61015        -0.008403      0.023747      0.054030
      2.11015      2.11015      7.50000        -0.001975     -0.003954     -0.433954
      4.22029      0.00000      7.50000        -0.002589      0.000434     -0.436254
      2.10718      8.43830     13.86096        -0.001002     -0.001858     -0.012389
      4.22038      2.09325     13.83903        -0.001378     -0.008099     -0.021354
      2.10685      2.11515     11.72784        -0.001419      0.001874      0.016136
      4.21904      8.43785     11.71647        -0.002068     -0.001827      0.014165
      2.11015      4.22029      9.61015         0.014638     -0.001658      0.058025
      4.22029      6.33044      9.61015        -0.006235     -0.028641      0.048834
      2.11015      6.33044      7.50000        -0.003515      0.004002     -0.433492
      4.22029      4.22029      7.50000         0.000570     -0.000577     -0.438867
      2.06481      4.22275     13.92145        -0.045576      0.009801      0.002078
      4.21871      6.34423     13.85878        -0.007224      0.006489      0.008990
      2.10768      6.32482     11.72564         0.000985     -0.001049      0.023693
      4.21637      4.22104     11.74450        -0.004262      0.003835     -0.013955
      6.33044      0.00000      9.61015         0.012186     -0.002785      0.025549
      0.00000      2.11015      9.61015         0.009968     -0.000381      0.033505
      6.33044      2.11015      7.50000         0.002040     -0.000786     -0.436111
      0.00000      0.00000      7.50000         0.002633     -0.001002     -0.432780
      6.33363      8.43874     13.86341        -0.000931     -0.000761     -0.011006
      0.00015      2.10312     13.86623        -0.003801     -0.006018     -0.011550
      6.33441      2.11019     11.72256         0.001096      0.001035      0.010362
      0.00180      8.43956     11.72106        -0.000602      0.000164      0.010648
      6.33044      4.22029      9.61015        -0.012148      0.000855      0.063273
      0.00000      6.33044      9.61015         0.005543     -0.001577      0.035648
      6.33044      6.33044      7.50000         0.003479      0.000769     -0.435684
      0.00000      4.22029      7.50000        -0.000457      0.000974     -0.434429
      6.34958      4.22088     13.86774        -0.005486      0.003262     -0.014202
      0.00008      6.33612     13.86577        -0.003077      0.008412     -0.012318
      6.33287      6.32933     11.72324        -0.000953      0.000278      0.014185
      0.00449      4.22040     11.72652        -0.001335      0.000776      0.015012
    total drift:                               -0.000154     -0.001662      0.008169

  FREE ENERGIE OF THE ION-ELECTRON SYSTEM (eV)
  free  energy   TOTEN  =      -474.60106613 eV

  energy  without entropy=     -474.60106613  energy(sigma->0) =     -474.60106613