 vasp.6.3.0 20Jan22 (build Mar 11 2022 13:48:16) complex

 executed on             LinuxIFC date 2024.02.11  17:03:08

 INCAR:
   SYSTEM = Oxide-Surface
   ISMEAR = 0
   SIGMA = 0.05
   EDIFF = 1E-5
   ALGO = ALL
   ISTART = 0
   IBRION = -1
   NSW = 0
   ISYM = 2
   DIPOL = 0.5 0.5 0.5
   IDIPOL = 3
   LDIPOL = .TRUE.
   METAGGA = R2SCAN
   LUSE_VDW = .TRUE.
   BPARAM = 11.95
   CPARAM = 0.0093
   LASPH = .TRUE.
   ENCUT = 600
   PREC = Accurate
   LASPH = .TRUE.
   LREAL = .FALSE.
   ISPIN = 1
   NELM = 200
   NELMIN = 8
   NCORE = 19
   KPAR = 1
   LWAVE = .FALSE.
   LCHARG = .FALSE.

 POTCAR:    PAW_PBE C 08Apr2002
 POTCAR:    PAW_PBE H 15Jun2001
 POTCAR:    PAW_PBE Mg_pv 13Apr2007
 POTCAR:    PAW_PBE O 08Apr2002
|               ----> ADVICE to this user running VASP <----                  |
|     You have switched on vdW-DFT.                                           |
|     This routine was written and supplied by Jiri Klimes. We recommend      |
|     that you carefully read and cite the following publications:            |
|       J. Klimes, D.R. Bowler, A. Michelides                                 |
|          J. Phys.: Cond Matt. 22 022201 (2010)                              |
|       J. Klimes, D.R. Bowler, A. Michelides                                 |
|          Phys. Rev. B. 83, 195131 (2011)                                    |
|     and references therein.                                                 |

   TITEL  = PAW_PBE C 08Apr2002
   POMASS =   12.011; ZVAL   =    4.000    mass and valenz
   ENMAX  =  400.000; ENMIN  =  300.000 eV

   TITEL  = PAW_PBE H 15Jun2001
   POMASS =    1.000; ZVAL   =    1.000    mass and valenz
   ENMAX  =  250.000; ENMIN  =  200.000 eV

   TITEL  = PAW_PBE Mg_pv 13Apr2007
   POMASS =   24.305; ZVAL   =    8.000    mass and valenz
   ENMAX  =  403.929; ENMIN  =  302.947 eV

   TITEL  = PAW_PBE O 08Apr2002
   POMASS =   16.000; ZVAL   =    6.000    mass and valenz
   ENMAX  =  400.000; ENMIN  =  300.000 eV

  PAW_PBE C 08Apr2002                   :
  PAW_PBE H 15Jun2001                   :
  PAW_PBE Mg_pv 13Apr2007               :
  PAW_PBE O 08Apr2002                   :

 POSCAR:  C  H Mg  O
  positions in direct lattice

 METAGGA = R2SCA    LMAXTAU =  6    LMIXTAU =  F

 ion  position               nearest neighbor table
   1  0.504  0.498  0.793-   5 1.10   3 1.10   4 1.10   2 1.53
   2  0.675  0.499  0.817-   6 1.10   8 1.10   7 1.10   1 1.53
   3  0.482  0.392  0.764-   1 1.10
   4  0.479  0.604  0.765-   1 1.10
   5  0.418  0.495  0.832-   1 1.10
   6  0.759  0.502  0.778-   2 1.10
   7  0.701  0.394  0.846-   2 1.10
   8  0.698  0.604  0.847-   2 1.10
   9  0.000  0.750  0.352-  41 2.11  43 2.11  44 2.11  51 2.11  60 2.11
  10  0.250  0.000  0.352-  42 2.11  43 2.11  44 2.11  52 2.11  59 2.11
  11  0.000  0.000  0.451-  43 2.11  42 2.11  41 2.11  49 2.11  58 2.11  47 2.12
  12  0.250  0.750  0.451-  44 2.11  42 2.11  41 2.11  50 2.11  57 2.11  48 2.12
  13  1.000  0.750  0.550-  64 2.11  48 2.11  55 2.11  47 2.11  41 2.12  45 2.15
  14  0.250  1.000  0.550-  48 2.11  56 2.11  63 2.11  47 2.11  42 2.12  46 2.15
  15  1.000  1.000  0.649-  46 2.11  62 2.11  47 2.11  45 2.11  53 2.11
  16  0.250  0.750  0.649-  48 2.11  54 2.11  45 2.11  46 2.11  61 2.11
  17  0.000  0.250  0.352-  49 2.11  43 2.11  51 2.11  52 2.11  68 2.11
  18  0.250  0.500  0.352-  50 2.11  44 2.11  51 2.11  52 2.11  67 2.11
  19  0.000  0.500  0.451-  51 2.11  49 2.11  50 2.11  41 2.11  66 2.11  55 2.12
  20  0.250  0.250  0.451-  52 2.11  49 2.11  50 2.11  42 2.11  65 2.11  56 2.12
  21  1.000  0.250  0.550-  72 2.11  56 2.11  55 2.11  47 2.11  49 2.12  53 2.15
  22  0.250  0.500  0.550-  71 2.11  56 2.11  48 2.11  55 2.11  50 2.13  54 2.15
  23  0.000  0.500  0.649-  54 2.11  55 2.11  70 2.11  45 2.11  53 2.11
  24  0.250  0.250  0.649-  56 2.11  53 2.11  54 2.11  46 2.11  69 2.11
  25  0.500  0.750  0.352-  57 2.11  44 2.11  59 2.11  60 2.11  67 2.11
  26  0.750  0.000  0.352-  58 2.11  43 2.11  59 2.11  60 2.11  68 2.11
  27  0.500  0.000  0.451-  59 2.11  57 2.11  58 2.11  42 2.11  65 2.11  63 2.12
  28  0.750  0.750  0.451-  60 2.11  57 2.11  58 2.11  41 2.11  66 2.11  64 2.12
  29  0.500  0.750  0.550-  71 2.11  64 2.11  48 2.11  63 2.11  57 2.13  61 2.15
  30  0.750  1.000  0.550-  64 2.11  72 2.11  47 2.11  63 2.11  58 2.13  62 2.15
  31  0.500  1.000  0.649-  69 2.11  61 2.11  63 2.11  46 2.11  62 2.11
  32  0.750  0.750  0.649-  64 2.11  45 2.11  62 2.11  70 2.11  61 2.11
  33  0.500  0.250  0.352-  65 2.11  59 2.11  52 2.11  67 2.11  68 2.11
  34  0.750  0.500  0.352-  66 2.11  60 2.11  51 2.11  67 2.11  68 2.11
  35  0.500  0.500  0.451-  67 2.11  57 2.11  65 2.11  66 2.11  50 2.11  71 2.12
  36  0.750  0.250  0.451-  68 2.11  58 2.11  65 2.11  66 2.11  49 2.11  72 2.12
  37  0.500  0.250  0.550-  71 2.11  72 2.11  56 2.11  63 2.11  65 2.13  69 2.15
  38  0.750  0.500  0.550-  71 2.11  72 2.11  64 2.11  55 2.11  66 2.13  70 2.15
  39  0.500  0.500  0.649-  54 2.11  61 2.11  69 2.11  70 2.11  71 2.12
  40  0.750  0.250  0.649-  72 2.11  53 2.11  62 2.11  70 2.11  69 2.11
  41  0.000  0.750  0.451-   9 2.11  11 2.11  12 2.11  19 2.11  28 2.11  13 2.12
  42  0.250  0.000  0.451-  10 2.11  11 2.11  12 2.11  20 2.11  27 2.11  14 2.12
  43  0.000  0.000  0.352-  11 2.11  10 2.11   9 2.11  17 2.11  26 2.11
  44  0.250  0.750  0.352-  12 2.11  10 2.11   9 2.11  18 2.11  25 2.11
  45  1.000  0.750  0.651-  32 2.11  16 2.11  23 2.11  15 2.11  13 2.15
  46  0.250  1.000  0.651-  15 2.11  31 2.11  24 2.11  16 2.11  14 2.15
  47  1.000  1.000  0.550-  30 2.11  13 2.11  21 2.11  14 2.11  15 2.11  11 2.12
  48  0.250  0.750  0.550-  16 2.11  14 2.11  13 2.11  29 2.11  22 2.11  12 2.12
  49  0.000  0.250  0.451-  17 2.11  11 2.11  19 2.11  20 2.11  36 2.11  21 2.12
  50  0.250  0.500  0.451-  18 2.11  12 2.11  19 2.11  20 2.11  35 2.11  22 2.13
  51  0.000  0.500  0.352-  19 2.11  17 2.11  18 2.11   9 2.11  34 2.11
  52  0.250  0.250  0.352-  20 2.11  17 2.11  18 2.11  10 2.11  33 2.11
  53  1.000  0.250  0.651-  40 2.11  24 2.11  23 2.11  15 2.11  21 2.15
  54  0.250  0.500  0.651-  23 2.11  16 2.11  24 2.11  39 2.11  22 2.15
  55  1.000  0.500  0.550-  23 2.11  21 2.11  13 2.11  38 2.11  22 2.11  19 2.12
  56  0.250  0.250  0.550-  24 2.11  14 2.11  21 2.11  37 2.11  22 2.11  20 2.12
  57  0.500  0.750  0.451-  25 2.11  12 2.11  27 2.11  28 2.11  35 2.11  29 2.13
  58  0.750  0.000  0.451-  26 2.11  11 2.11  27 2.11  28 2.11  36 2.11  30 2.13
  59  0.500  0.000  0.352-  27 2.11  25 2.11  26 2.11  10 2.11  33 2.11
  60  0.750  0.750  0.352-  28 2.11  25 2.11  26 2.11   9 2.11  34 2.11
  61  0.500  0.750  0.651-  31 2.11  32 2.11  16 2.11  39 2.11  29 2.15
  62  0.750  1.000  0.651-  40 2.11  15 2.11  32 2.11  31 2.11  30 2.15
  63  0.500  1.000  0.550-  31 2.11  30 2.11  14 2.11  29 2.11  37 2.11  27 2.12
  64  0.750  0.750  0.550-  32 2.11  30 2.11  13 2.11  29 2.11  38 2.11  28 2.12
  65  0.500  0.250  0.451-  33 2.11  27 2.11  20 2.11  35 2.11  36 2.11  37 2.13
  66  0.750  0.500  0.451-  34 2.11  28 2.11  19 2.11  35 2.11  36 2.11  38 2.13
  67  0.500  0.500  0.352-  35 2.11  25 2.11  33 2.11  34 2.11  18 2.11
  68  0.750  0.250  0.352-  36 2.11  26 2.11  33 2.11  34 2.11  17 2.11
  69  0.500  0.250  0.651-  31 2.11  40 2.11  24 2.11  39 2.11  37 2.15
  70  0.750  0.500  0.651-  23 2.11  32 2.11  40 2.11  39 2.11  38 2.15
  71  0.500  0.500  0.550-  38 2.11  29 2.11  37 2.11  22 2.11  39 2.12  35 2.12
  72  0.750  0.250  0.550-  40 2.11  30 2.11  21 2.11  37 2.11  38 2.11  36 2.12

  LATTYP: Found a simple tetragonal cell.
 ALAT       =     8.4409846542
 C/A-ratio  =     2.5270438657

  Lattice vectors:

 A1 = (   8.4409846542,   0.0000000000,   0.0000000000)
 A2 = (   0.0000000000,   8.4409846542,   0.0000000000)
 A3 = (   0.0000000000,   0.0000000000,  21.3307384906)

Analysis of symmetry for initial positions (statically):
 Subroutine PRICEL returns:
 Original cell was already a primitive cell.

 Routine SETGRP: Setting up the symmetry group for a
 simple tetragonal supercell.

 Subroutine GETGRP returns: Found  1 space group operations
 (whereof  1 operations were pure point group operations)
 out of a pool of 16 trial point group operations.

The static configuration has the point symmetry C_1 .

Analysis of symmetry for dynamics (positions and initial velocities):
 Subroutine PRICEL returns:
 Original cell was already a primitive cell.

[...]

The dynamic configuration has the point symmetry C_1 .

Analysis of constrained symmetry for selective dynamics:
 Subroutine PRICEL returns:
 Original cell was already a primitive cell.

 Routine SETGRP: Setting up the symmetry group for a
 simple tetragonal supercell.

 Subroutine GETGRP returns: Found  1 space group operations
 (whereof  1 operations were pure point group operations)
 out of a pool of 16 trial point group operations.

The constrained configuration has the point symmetry C_1 .

 Subroutine INISYM returns: Found  1 space group operations
 (whereof  1 operations are pure point group operations),
 and found     1 'primitive' translations

                                     Primitive cell

  volume of cell :    1519.8199

  direct lattice vectors                    reciprocal lattice vectors
     8.440984654  0.000000000  0.000000000     0.118469591  0.000000000  0.000000000
     0.000000000  8.440984654  0.000000000     0.000000000  0.118469591  0.000000000
     0.000000000  0.000000000 21.330738491     0.000000000  0.000000000  0.046880702

  length of vectors
     8.440984654  8.440984654 21.330738491     0.118469591  0.118469591  0.046880702

  position of ions in fractional coordinates (direct lattice)
     0.504434876  0.497571925  0.793182562
     0.675419507  0.499339829  0.817254959
     0.481938651  0.392229692  0.763981212
     0.478802048  0.604112785  0.765085782
     0.417852208  0.495000411  0.831710663
     0.759152897  0.502002316  0.777764631
     0.701471206  0.393571335  0.845561462
     0.698192892  0.603729020  0.846776833
     0.000000000  0.750000000  0.351605267
     0.250000000  0.000000000  0.351605267
     0.000000000  0.000000000  0.450535089
     0.250000000  0.750000000  0.450535089
     0.999969335  0.749932564  0.550143009
     0.249979009  0.999932854  0.550153760
     0.999984729  0.999879620  0.648880782
     0.249865610  0.749814499  0.648764798
     0.000000000  0.250000000  0.351605267
     0.250000000  0.500000000  0.351605267
     0.000000000  0.500000000  0.450535089
     0.250000000  0.250000000  0.450535089
     0.999969716  0.249949331  0.550140365
     0.250119639  0.499932684  0.550205747
     0.000137590  0.499892464  0.648694835
     0.249861482  0.249941717  0.648759231
     0.500000000  0.750000000  0.351605267
     0.750000000  0.000000000  0.351605267
     0.500000000  0.000000000  0.450535089
     0.750000000  0.750000000  0.450535089
     0.499983604  0.749784240  0.550199518
     0.749978902  0.999929979  0.550160720
     0.499953859  0.999865553  0.648719052
     0.750035499  0.749892856  0.648802828
     0.500000000  0.250000000  0.351605267
     0.750000000  0.500000000  0.351605267
     0.500000000  0.500000000  0.450535089
[...]
   4.22036881  2.11068072 11.73615017
   6.32949784  4.21989625 11.73675130
   4.21910740  4.21937542 13.85364820
   6.33116506  2.10904849 13.83929935
   0.00000000  6.33073849  9.61024616
   2.11024616  0.00000000  9.61024616
   0.00000000  0.00000000  7.50000000
   2.11024616  6.33073849  7.50000000
   8.44044197  6.32951860 13.88697731
   2.10972665  8.43997870 13.88704876
   8.44067571  8.44045649 11.73024569
   2.10988658  6.33081573 11.72973070
   0.00000000  2.11024616  9.61024616
   2.11024616  4.22049233  9.61024616
   0.00000000  4.22049233  7.50000000
   2.11024616  2.11024616  7.50000000
   8.44046334  2.10952356 13.88681923
   2.10781037  4.21948072 13.88157232
   8.44067617  4.21997558 11.72868458
   2.10981821  2.10904323 11.72965114
   4.22049233  6.33073849  9.61024616
   6.33073849  0.00000000  9.61024616
   4.22049233  0.00000000  7.50000000
   6.33073849  6.33073849  7.50000000
   4.22034095  6.33232534 13.88612710
   6.33073059  8.43995481 13.88762338
   4.22039784  8.44027584 11.72906685
   6.33071641  6.33073421 11.73011252
   4.22049233  2.11024616  9.61024616
   6.33073849  4.22049233  9.61024616
   4.22049233  4.22049233  7.50000000
   6.33073849  2.11024616  7.50000000
   4.22040296  2.10623240 13.88554438
   6.33242376  4.21946895 13.88435643
   4.22055787  4.21990030 11.73287708
   6.33080282  2.10908395 11.73003243

--------------------------------------- Iteration      FINAL  ---------------------------------------

--------------------OUTCAR has been truncated-------------------------

[...]

--------------------OUTCAR has been truncated-------------------------

  FORCE on cell =-STRESS in cart. coord.  units (eV):
  Direction    XX          YY          ZZ          XY          YZ          ZX
  Alpha Z   919.54008   919.54008   919.54008
  Ewald  156080.39735155923.67114************     1.29653     0.04928    48.08590
  Hartree166419.38986166296.27130************     0.98676     0.11739    36.21244
  E(xc)   -2703.50390 -2703.65842 -2701.83683     0.00204     0.00426     0.05196
  Local  ************************331967.55076    -2.35403    -0.19572   -86.20897
  n-local -2809.37989 -2810.58232 -2831.93930     0.01145    -0.01312     0.44758
  augment  1177.36638  1177.29479  1168.12720     0.00296    -0.01531     0.02548
  Kinetic  7503.31138  7499.02504  7536.28559     0.05561     0.11622     1.48690
  Fock        0.00000     0.00000     0.00000     0.00000     0.00000     0.00000
  Total     -45.96426   -45.96411   -15.30423     0.00133     0.06298     0.10129
  in kB     -48.45501   -48.45486   -16.13355     0.00140     0.06639     0.10678

 VOLUME and BASIS-vectors are now :
  energy-cutoff  :      600.00
  volume of cell :     1519.82
      direct lattice vectors                 reciprocal lattice vectors
     8.440984654  0.000000000  0.000000000     0.118469591  0.000000000  0.000000000
     0.000000000  8.440984654  0.000000000     0.000000000  0.118469591  0.000000000
     0.000000000  0.000000000 21.330738491     0.000000000  0.000000000  0.046880702

  length of vectors
     8.440984654  8.440984654 21.330738491     0.118469591  0.118469591  0.046880702

 FORCES acting on ions:
    Electron-Ion                     Ewald-Force                    Non-Local-Force
   0.691E+02 0.736E+00 -.916E+03   -.689E+02 -.748E+00 0.916E+03   -.190E+00 0.163E-01 -.261E+00
   -.692E+02 -.734E+00 -.862E+03   0.695E+02 0.746E+00 0.862E+03   -.289E+00 -.141E-01 0.230E+00
   0.181E+02 0.464E+02 -.231E+03   -.190E+02 -.508E+02 0.228E+03   0.100E+01 0.457E+01 0.309E+01
   0.194E+02 -.467E+02 -.231E+03   -.205E+02 0.512E+02 0.229E+03   0.114E+01 -.462E+01 0.297E+01
   0.456E+02 0.122E+01 -.234E+03   -.492E+02 -.133E+01 0.238E+03   0.376E+01 0.111E+00 -.417E+01
   -.449E+02 -.127E+01 -.211E+03   0.484E+02 0.138E+01 0.207E+03   -.363E+01 -.113E+00 0.435E+01
   -.196E+02 0.464E+02 -.213E+03   0.207E+02 -.507E+02 0.216E+03   -.116E+01 0.454E+01 -.309E+01
   -.181E+02 -.459E+02 -.213E+03   0.191E+02 0.503E+02 0.216E+03   -.102E+01 -.448E+01 -.322E+01
   -.911E-01 -.233E+00 0.208E+04   0.910E-01 0.233E+00 -.207E+04   0.103E-03 0.249E-03 -.715E+01
   0.159E+00 0.377E-02 0.208E+04   -.159E+00 -.390E-02 -.207E+04   0.185E-03 0.105E-03 -.716E+01
   -.291E+00 0.109E-01 0.723E+03   0.290E+00 -.132E-01 -.723E+03   0.591E-03 0.154E-02 0.413E+00
   0.642E+00 -.873E+00 0.724E+03   -.639E+00 0.869E+00 -.724E+03   -.180E-02 0.186E-02 0.400E+00
   -.162E+01 -.412E+01 -.624E+03   0.161E+01 0.411E+01 0.624E+03   0.727E-02 0.140E-01 -.110E+00
   0.283E+01 0.585E-01 -.627E+03   -.282E+01 -.598E-01 0.627E+03   -.277E-02 0.822E-02 -.117E+00
   -.460E+01 0.102E+00 -.198E+04   0.460E+01 -.100E+00 0.198E+04   -.816E-03 -.439E-03 0.613E+01
   0.170E+02 -.197E+02 -.196E+04   -.171E+02 0.197E+02 0.196E+04   0.430E-01 0.255E-01 0.613E+01
   -.913E-01 0.233E+00 0.208E+04   0.911E-01 -.233E+00 -.207E+04   0.236E-03 0.163E-04 -.715E+01
   0.166E+00 -.415E-02 0.208E+04   -.165E+00 0.400E-02 -.207E+04   -.954E-03 0.215E-03 -.716E+01
   -.356E+00 -.252E-01 0.725E+03   0.352E+00 0.228E-01 -.725E+03   0.242E-02 0.160E-02 0.372E+00
   0.636E+00 0.860E+00 0.724E+03   -.634E+00 -.862E+00 -.724E+03   -.114E-02 0.166E-02 0.399E+00
   -.162E+01 0.413E+01 -.624E+03   0.162E+01 -.413E+01 0.624E+03   0.698E-02 -.731E-03 -.113E+00
   0.437E+01 -.580E-01 -.617E+03   -.434E+01 0.572E-01 0.618E+03   -.476E-01 0.882E-02 -.284E+00
   -.113E+02 -.901E-01 -.196E+04   0.114E+02 0.912E-01 0.195E+04   -.827E-01 0.348E-03 0.610E+01
   0.173E+02 0.197E+02 -.196E+04   -.173E+02 -.197E+02 0.196E+04   0.500E-01 -.236E-01 0.613E+01
   0.910E-01 -.241E+00 0.208E+04   -.909E-01 0.239E+00 -.207E+04   -.592E-04 0.105E-02 -.716E+01
   -.159E+00 0.395E-02 0.208E+04   0.159E+00 -.400E-02 -.207E+04   -.144E-03 0.199E-03 -.716E+01
   0.285E+00 0.807E-02 0.724E+03   -.285E+00 -.118E-01 -.724E+03   0.492E-03 0.279E-02 0.381E+00
   -.645E+00 -.938E+00 0.725E+03   0.641E+00 0.932E+00 -.725E+03   0.306E-02 0.395E-02 0.406E+00
   0.163E+01 -.566E+01 -.617E+03   -.163E+01 0.563E+01 0.617E+03   -.151E-02 0.568E-01 -.175E+00
   -.282E+01 0.630E-01 -.624E+03   0.281E+01 -.642E-01 0.625E+03   0.601E-02 0.902E-02 -.113E+00
   0.465E+01 0.331E+00 -.197E+04   -.465E+01 -.328E+00 0.196E+04   0.106E-02 -.542E-03 0.610E+01
   -.172E+02 -.269E+02 -.195E+04   0.172E+02 0.269E+02 0.194E+04   -.335E-01 -.267E-01 0.612E+01
   0.911E-01 0.240E+00 0.208E+04   -.910E-01 -.239E+00 -.207E+04   0.277E-04 -.844E-03 -.716E+01
   -.166E+00 -.435E-02 0.208E+04   0.165E+00 0.413E-02 -.207E+04   0.703E-03 0.132E-03 -.716E+01
   0.352E+00 -.178E-01 0.726E+03   -.350E+00 0.149E-01 -.726E+03   -.202E-02 0.174E-02 0.432E+00
   -.639E+00 0.926E+00 0.725E+03   0.635E+00 -.925E+00 -.725E+03   0.269E-02 -.356E-03 0.405E+00
   0.164E+01 0.564E+01 -.617E+03   -.163E+01 -.561E+01 0.617E+03   -.149E-02 -.342E-01 -.182E+00
   -.441E+01 -.645E-01 -.614E+03   0.437E+01 0.641E-01 0.614E+03   0.557E-01 0.889E-02 -.233E+00
   0.120E+02 -.509E+00 -.189E+04   -.121E+02 0.521E+00 0.189E+04   0.794E-01 0.747E-02 0.584E+01
   -.175E+02 0.269E+02 -.195E+04   0.175E+02 -.269E+02 0.194E+04   -.409E-01 0.278E-01 0.612E+01
   -.239E+00 -.689E+00 0.542E+03   0.241E+00 0.686E+00 -.542E+03   -.279E-02 0.463E-02 -.890E-01
   0.473E+00 0.722E-02 0.542E+03   -.467E+00 -.371E-02 -.542E+03   -.904E-02 -.471E-02 -.952E-01
   -.650E-01 0.325E-02 0.156E+04   0.650E-01 -.314E-02 -.157E+04   0.185E-05 -.150E-03 0.342E+01
   0.122E+00 -.173E+00 0.156E+04   -.121E+00 0.173E+00 -.157E+04   -.971E-03 0.450E-03 0.342E+01
   -.594E+01 -.117E+02 -.150E+04   0.594E+01 0.117E+02 0.150E+04   0.329E-03 0.117E-01 -.506E+01
   0.732E+01 0.147E+00 -.151E+04   -.729E+01 -.150E+00 0.151E+04   -.245E-01 0.460E-02 -.506E+01
   -.965E+00 0.290E-01 -.466E+03   0.966E+00 -.272E-01 0.466E+03   0.666E-03 -.158E-02 0.267E+00
   0.264E+01 -.335E+01 -.461E+03   -.263E+01 0.333E+01 0.461E+03   -.844E-02 0.193E-01 0.288E+00
   -.240E+00 0.681E+00 0.542E+03   0.242E+00 -.672E+00 -.542E+03   -.280E-02 -.128E-01 -.891E-01
   0.518E+00 -.180E-01 0.543E+03   -.528E+00 0.213E-01 -.543E+03   0.133E-01 -.439E-02 -.104E+00
   -.718E-01 -.315E-02 0.156E+04   0.715E-01 0.317E-02 -.157E+04   0.311E-03 -.123E-04 0.341E+01
   0.121E+00 0.174E+00 0.156E+04   -.121E+00 -.173E+00 -.157E+04   -.854E-03 -.870E-03 0.342E+01
   -.595E+01 0.117E+02 -.150E+04   0.595E+01 -.117E+02 0.150E+04   -.585E-03 -.638E-02 -.506E+01
   0.211E+02 -.168E+00 -.148E+04   -.210E+02 0.166E+00 0.148E+04   -.115E+00 0.364E-02 -.515E+01
   -.144E+01 -.447E-01 -.459E+03   0.144E+01 0.447E-01 0.459E+03   -.814E-02 0.108E-02 0.290E+00
   0.264E+01 0.335E+01 -.461E+03   -.263E+01 -.333E+01 0.461E+03   -.766E-02 -.165E-01 0.288E+00
   0.235E+00 -.736E+00 0.543E+03   -.234E+00 0.750E+00 -.543E+03   -.657E-03 -.186E-01 -.101E+00
   -.475E+00 0.750E-02 0.542E+03   0.471E+00 -.386E-02 -.542E+03   0.597E-02 -.495E-02 -.948E-01
   0.650E-01 0.284E-02 0.156E+04   -.650E-01 -.290E-02 -.157E+04   -.325E-04 -.184E-04 0.342E+01
   -.122E+00 -.180E+00 0.156E+04   0.121E+00 0.180E+00 -.157E+04   0.834E-03 0.943E-03 0.342E+01
   0.603E+01 -.260E+02 -.147E+04   -.603E+01 0.259E+02 0.148E+04   -.116E-02 0.119E+00 -.508E+01
   -.737E+01 0.162E+00 -.150E+04   0.735E+01 -.165E+00 0.151E+04   0.232E-01 0.542E-02 -.506E+01
   0.957E+00 0.622E-01 -.461E+03   -.960E+00 -.644E-01 0.461E+03   0.225E-02 0.403E-02 0.299E+00
   -.264E+01 -.385E+01 -.459E+03   0.264E+01 0.383E+01 0.459E+03   0.928E-02 0.136E-01 0.288E+00
   0.236E+00 0.720E+00 0.543E+03   -.236E+00 -.725E+00 -.543E+03   -.403E-03 0.711E-02 -.100E+00
   -.520E+00 -.193E-01 0.544E+03   0.531E+00 0.228E-01 -.543E+03   -.150E-01 -.471E-02 -.109E+00
   0.718E-01 -.253E-02 0.156E+04   -.715E-01 0.272E-02 -.157E+04   -.387E-03 -.349E-03 0.341E+01
   -.121E+00 0.181E+00 0.156E+04   0.121E+00 -.180E+00 -.157E+04   0.752E-03 -.133E-02 0.341E+01
   0.606E+01 0.261E+02 -.147E+04   -.606E+01 -.260E+02 0.148E+04   -.104E-02 -.110E+00 -.508E+01
   -.216E+02 -.179E+00 -.145E+04   0.216E+02 0.176E+00 0.146E+04   0.720E-01 0.480E-02 -.513E+01
   0.146E+01 -.342E-01 -.455E+03   -.147E+01 0.307E-01 0.454E+03   0.403E-02 0.437E-02 0.998E-01
   -.265E+01 0.385E+01 -.459E+03   0.264E+01 -.384E+01 0.458E+03   0.880E-02 -.928E-02 0.288E+00
   0.454E+00 -.137E-01 0.192E+02   0.156E-12 0.107E-13 0.392E-11   -.411E+00 0.119E+00 -.188E+02

 POSITION                                       TOTAL-FORCE (eV/Angst)
      4.25793      4.20000     16.91917        -0.000064      0.002703      0.010955
      5.70121      4.21492     17.43265        -0.004350     -0.003611      0.037372
      4.06804      3.31080     16.29628         0.039615      0.125133      0.093984
      4.04156      5.09931     16.31984         0.043525     -0.132932      0.089563
      3.52708      4.17829     17.74100         0.150838      0.003376     -0.171789
      6.40800      4.23739     16.59029        -0.122504     -0.004523      0.140405
      5.92111      3.32213     18.03645        -0.049527      0.177977     -0.135960
      5.89344      5.09607     18.06238        -0.041602     -0.178355     -0.142831
      0.00000      6.33074      7.50000        -0.000674     -0.001640      0.533208
      2.11025      0.00000      7.50000        -0.000279     -0.001501      0.533970
      0.00000      0.00000      9.61025        -0.001159     -0.002271     -0.040350
      2.11025      6.33074      9.61025         0.000367     -0.002824     -0.038430
      8.44073      6.33017     11.73496         0.002402      0.003994      0.053123
      2.11007      8.44042     11.73519         0.003440      0.005618      0.053511
      8.44086      8.43997     13.84111        -0.002624      0.000239     -0.059851
      2.10911      6.32917     13.83863        -0.003971      0.002834     -0.084026
      0.00000      2.11025      7.50000        -0.000619     -0.001341      0.533006
      2.11025      4.22049      7.50000        -0.000387     -0.001399      0.533032
      0.00000      4.22049      9.61025        -0.001892     -0.002200     -0.035772
      2.11025      2.11025      9.61025         0.000534     -0.001900     -0.038605
      8.44073      2.10982     11.73490         0.002213      0.004254      0.052651
      2.11126      4.21992     11.73629        -0.014224      0.006783      0.051672
      0.00116      4.21958     13.83714         0.005644      0.000342     -0.092935
      2.10908      2.10975     13.83851        -0.005185     -0.000998     -0.085420
      4.22049      6.33074      7.50000        -0.000534     -0.001860      0.534362
      6.33074      0.00000      7.50000        -0.001029     -0.001323      0.533656
      4.22049      0.00000      9.61025        -0.000753     -0.002426     -0.035750
      6.33074      6.33074      9.61025        -0.002333     -0.003698     -0.038565
      4.22035      6.32892     11.73616         0.001621      0.025504      0.055555
      6.33056      8.44039     11.73533         0.000331      0.006540      0.054964
      4.22010      8.43985     13.83766         0.001734      0.000902     -0.083417
      6.33104      6.32983     13.83944         0.001277      0.008787     -0.076000
      4.22049      2.11025      7.50000        -0.000416     -0.001276      0.534240
      6.33074      4.22049      7.50000        -0.001038     -0.001551      0.535246
      4.22049      4.22049      9.61025        -0.000083     -0.002632     -0.032230
      6.33074      2.11025      9.61025        -0.002059     -0.001261     -0.038654
      4.22037      2.11068     11.73615         0.001820     -0.006937      0.055780
      6.32950      4.21990     11.73675         0.016013      0.007218      0.049658
      4.21911      4.21938     13.85365         0.012017      0.017871     -0.050366
      6.33117      2.10905     13.83930         0.002156     -0.006835     -0.077660
      0.00000      6.33074      9.61025        -0.001356      0.000010      0.071444
      2.11025      0.00000      9.61025        -0.003079     -0.002665      0.070561
      0.00000      0.00000      7.50000        -0.000609     -0.001499     -0.355440
      2.11025      6.33074      7.50000        -0.000833     -0.001342     -0.355640
      8.44044      6.32952     13.88698        -0.001381      0.002290     -0.187110
      2.10973      8.43998     13.88705        -0.002752      0.000412     -0.188228
      8.44068      8.44046     11.73025         0.000723     -0.001224      0.007796
      2.10989      6.33082     11.72973        -0.000946     -0.000241      0.004856
      0.00000      2.11025      9.61025        -0.001455     -0.005000      0.071168
      2.11025      4.22049      9.61025         0.002974     -0.002561      0.073433
      0.00000      4.22049      7.50000        -0.000534     -0.001467     -0.355717
      2.11025      2.11025      7.50000        -0.000912     -0.001727     -0.355698
      8.44046      2.10952     13.88682        -0.001539     -0.002323     -0.186945
      2.10781      4.21948     13.88157        -0.005136     -0.000017     -0.184580
      8.44068      4.21998     11.72868        -0.002443     -0.000427      0.004298
      2.10982      2.10904     11.72965         0.000045     -0.000944      0.004901
      4.22049      6.33074      9.61025        -0.000705     -0.006334      0.073629
      6.33074      0.00000      9.61025         0.001130     -0.002783      0.071411
      4.22049      0.00000      7.50000        -0.000575     -0.001541     -0.355518
      6.33074      6.33074      7.50000        -0.000395     -0.001192     -0.355896
      4.22034      6.33233     13.88613        -0.001772      0.009239     -0.183315
      6.33073      8.43995     13.88762         0.002141      0.000716     -0.190555
      4.22040      8.44028     11.72907        -0.000589      0.000336      0.006709
      6.33072      6.33073     11.73011         0.000456     -0.001932      0.005743
      4.22049      2.11025      9.61025        -0.000637      0.000366      0.073878
      6.33074      4.22049      9.61025        -0.004556     -0.002742      0.073716
      4.22049      4.22049      7.50000        -0.000683     -0.001625     -0.356197
      6.33074      2.11025      7.50000        -0.000374     -0.001892     -0.355822
      4.22040      2.10623     13.88554        -0.001912     -0.007204     -0.183030
      6.33242      4.21947     13.88436         0.000251      0.000060     -0.181485
      4.22056      4.21990     11.73288        -0.000366     -0.000647      0.000621
      6.33080      2.10908     11.73003        -0.000420      0.001119      0.005705
    total drift:                                0.043021      0.105655      0.357001

  FREE ENERGIE OF THE ION-ELECTRON SYSTEM (eV)
  free  energy   TOTEN  =      -533.17741156 eV

  energy  without entropy=     -533.17741156  energy(sigma->0) =     -533.17741156