 vasp.6.3.0 20Jan22 (build Apr  1 2022 16:44:48) complex
 executed on        HPECrayEX_GCC date 2023.03.02  02:08:18

 INCAR:
   SYSTEM = MgO-rocksalt
   ISMEAR = 0
   SIGMA = 0.05
   EDIFF = 1E-8
   ALGO = ALL
   ISTART = 0
   IBRION = 5
   POTIM = 0.01
   NFREE = 2
   ISYM = 0
   DIPOL = 0.5 0.5 0.5
   IDIPOL = 3
   LDIPOL = .TRUE.
   GGA = RE
   IVDW = 13
   VDW_S8 = 1.7468
   VDW_A1 = 0.5363
   VDW_A2 = 3.0726
   ENCUT = 600
   PREC = Accurate
   LASPH = .TRUE.
   LREAL = .FALSE.
   ISPIN = 1
   NELM = 200
   NELMIN = 8
   NCORE = 8
   KPAR = 1
   LWAVE = .FALSE.
   LCHARG = .FALSE.

 POTCAR:    PAW_PBE N 08Apr2002
 POTCAR:    PAW_PBE O 08Apr2002
 POTCAR:    PAW_PBE Mg_pv 13Apr2007
 POTCAR:    PAW_PBE O 08Apr2002
 POTCAR:    PAW_PBE N 08Apr2002
   VRHFIN =N: s2p3

   TITEL  = PAW_PBE N 08Apr2002
   POMASS =   14.001; ZVAL   =    5.000    mass and valenz
   ENMAX  =  400.000; ENMIN  =  300.000 eV

[...]

   TITEL  = PAW_PBE Mg_pv 13Apr2007
   POMASS =   24.305; ZVAL   =    8.000    mass and valenz
   ENMAX  =  403.929; ENMIN  =  302.947 eV

   TITEL  = PAW_PBE O 08Apr2002
   POMASS =   16.000; ZVAL   =    6.000    mass and valenz
   ENMAX  =  400.000; ENMIN  =  300.000 eV

  PAW_PBE N 08Apr2002                   :
  PAW_PBE O 08Apr2002                   :
  PAW_PBE Mg_pv 13Apr2007               :
  PAW_PBE O 08Apr2002                   :

 POSCAR:  N  O Mg  O
  positions in direct lattice
|           W    W    AA    RRRRR   N    N  II  N    N   GGGG   !!!           |
|           W    W   A  A   R    R  NN   N  II  NN   N  G    G  !!!           |
|           W    W  A    A  R    R  N N  N  II  N N  N  G       !!!           |
|           W WW W  AAAAAA  RRRRR   N  N N  II  N  N N  G  GGG   !            |
|           WW  WW  A    A  R   R   N   NN  II  N   NN  G    G                |
|           W    W  A    A  R    R  N    N  II  N    N   GGGG   !!!           |
|     Specifying the vdW parameters                                           |
|     VDW_S8 = 1.747                                                          |
|     VDW_A1 = 0.536                                                          |
|     VDW_A2 = 3.073                                                          |
|     in the INCAR file will overwrite the defaults for revpbe. Please        |
|     make sure that is what you intended.                                    |

 ion  position               nearest neighbor table
   1  0.525  0.547  0.791-   2 1.14
   2  0.624  0.638  0.783-   1 1.14   3 1.20
   3  0.727  0.733  0.774-   2 1.20
   4  0.000  0.750  0.352-  36 2.11  38 2.11  39 2.11  46 2.11  55 2.11
   5  0.250  0.000  0.352-  37 2.11  38 2.11  39 2.11  47 2.11  54 2.11
   6  0.000  0.000  0.451-  38 2.11  37 2.11  36 2.11  44 2.11  53 2.11  42 2.12
   7  0.250  0.750  0.451-  39 2.11  37 2.11  36 2.11  45 2.11  52 2.11  43 2.12
   8  1.000  0.750  0.550-  59 2.11  42 2.11  50 2.11  43 2.11  36 2.13  40 2.14
   9  0.250  1.000  0.550-  42 2.11  51 2.11  58 2.11  43 2.11  37 2.13  41 2.15
  10  0.000  0.000  0.649-  57 2.11  40 2.11  42 2.11  48 2.11  41 2.11
  11  0.250  0.750  0.649-  40 2.11  43 2.11  49 2.11  56 2.11  41 2.11
  12  0.000  0.250  0.352-  44 2.11  38 2.11  46 2.11  47 2.11  63 2.11
  13  0.250  0.500  0.352-  45 2.11  39 2.11  46 2.11  47 2.11  62 2.11
  14  0.000  0.500  0.451-  46 2.11  44 2.11  45 2.11  36 2.11  61 2.11  50 2.12
  15  0.250  0.250  0.451-  47 2.11  44 2.11  45 2.11  37 2.11  60 2.11  51 2.12
  16  0.000  0.250  0.550-  42 2.11  50 2.11  51 2.11  67 2.11  44 2.13  48 2.15
  17  0.250  0.500  0.550-  50 2.11  51 2.11  43 2.11  66 2.11  45 2.12  49 2.15
  18  0.000  0.500  0.649-  49 2.11  50 2.11  40 2.11  48 2.11  65 2.12
  19  0.250  0.250  0.649-  49 2.11  64 2.11  48 2.11  41 2.11  51 2.11
  20  0.500  0.750  0.352-  52 2.11  39 2.11  54 2.11  55 2.11  62 2.11
  21  0.750  0.000  0.352-  53 2.11  38 2.11  54 2.11  55 2.11  63 2.11
  22  0.500  0.000  0.451-  54 2.11  52 2.11  53 2.11  37 2.11  60 2.11  58 2.12
  23  0.750  0.750  0.451-  55 2.11  52 2.11  53 2.11  36 2.11  61 2.11  59 2.12
  24  0.500  0.750  0.550-  59 2.11  58 2.11  66 2.11  43 2.11  52 2.13  56 2.16
  25  0.750  1.000  0.550-  59 2.11  42 2.11  58 2.11  67 2.11  53 2.13  57 2.14
  26  0.500  0.000  0.649-  64 2.11  58 2.11  57 2.11  41 2.11  56 2.11
  27  0.751  0.751  0.650-  40 2.11  57 2.11  65 2.12  56 2.12  59 2.12
  28  0.500  0.250  0.352-  60 2.11  54 2.11  47 2.11  62 2.11  63 2.11
  29  0.750  0.500  0.352-  61 2.11  55 2.11  46 2.11  62 2.11  63 2.11
  30  0.500  0.500  0.451-  62 2.11  52 2.11  60 2.11  61 2.11  45 2.11  66 2.12
  31  0.750  0.250  0.451-  63 2.11  53 2.11  60 2.11  61 2.11  44 2.11  67 2.12
  32  0.500  0.250  0.550-  58 2.11  51 2.11  67 2.11  66 2.11  60 2.12  64 2.15
  33  0.750  0.500  0.550-  59 2.11  50 2.11  66 2.11  67 2.11  61 2.13  65 2.16
  34  0.499  0.499  0.648-  66 2.10  49 2.10  64 2.10  65 2.12  56 2.12
  35  0.750  0.250  0.649-  57 2.11  67 2.11  64 2.11  65 2.11  48 2.11
  36  0.000  0.750  0.451-   4 2.11   6 2.11   7 2.11  14 2.11  23 2.11   8 2.13
  37  0.250  0.000  0.451-   5 2.11   6 2.11   7 2.11  15 2.11  22 2.11   9 2.13
  38  0.000  0.000  0.352-   6 2.11   5 2.11   4 2.11  12 2.11  21 2.11
  39  0.250  0.750  0.352-   7 2.11   5 2.11   4 2.11  13 2.11  20 2.11
  40  0.000  0.750  0.651-  11 2.11  27 2.11  18 2.11  10 2.11   8 2.14
  41  0.250  1.000  0.651-  19 2.11  10 2.11  26 2.11  11 2.11   9 2.15
  42  0.000  0.000  0.550-   9 2.11  16 2.11  25 2.11  10 2.11   8 2.11   6 2.12
  43  0.250  0.750  0.550-  11 2.11   9 2.11  24 2.11  17 2.11   8 2.11   7 2.12
  44  0.000  0.250  0.451-  12 2.11   6 2.11  14 2.11  15 2.11  31 2.11  16 2.13
  45  0.250  0.500  0.451-  13 2.11   7 2.11  14 2.11  15 2.11  30 2.11  17 2.12
  46  0.000  0.500  0.352-  14 2.11  12 2.11  13 2.11   4 2.11  29 2.11
  47  0.250  0.250  0.352-  15 2.11  12 2.11  13 2.11   5 2.11  28 2.11
  48  1.000  0.250  0.651-  19 2.11  10 2.11  18 2.11  35 2.11  16 2.15
  49  0.250  0.500  0.651-  34 2.10  18 2.11  19 2.11  11 2.11  17 2.15
  50  1.000  0.500  0.550-  33 2.11  18 2.11  16 2.11  17 2.11   8 2.11  14 2.12
  51  0.250  0.250  0.550-   9 2.11  16 2.11  32 2.11  17 2.11  19 2.11  15 2.12
  52  0.500  0.750  0.451-  20 2.11   7 2.11  22 2.11  23 2.11  30 2.11  24 2.13
  53  0.750  0.000  0.451-  21 2.11   6 2.11  22 2.11  23 2.11  31 2.11  25 2.13
  54  0.500  0.000  0.352-  22 2.11  20 2.11  21 2.11   5 2.11  28 2.11
  55  0.750  0.750  0.352-  23 2.11  20 2.11  21 2.11   4 2.11  29 2.11
  56  0.500  0.750  0.651-  11 2.11  26 2.11  34 2.12  27 2.12  24 2.16
  57  0.750  0.001  0.651-  35 2.11  27 2.11  26 2.11  10 2.11  25 2.14
  58  0.500  1.000  0.550-  26 2.11  24 2.11  32 2.11   9 2.11  25 2.11  22 2.12
  59  0.750  0.750  0.550-  33 2.11  24 2.11   8 2.11  25 2.11  27 2.12  23 2.12
  60  0.500  0.250  0.451-  28 2.11  22 2.11  15 2.11  30 2.11  31 2.11  32 2.12
  61  0.750  0.500  0.451-  29 2.11  23 2.11  14 2.11  30 2.11  31 2.11  33 2.13
  62  0.500  0.500  0.352-  30 2.11  20 2.11  28 2.11  29 2.11  13 2.11
  63  0.750  0.250  0.352-  31 2.11  21 2.11  28 2.11  29 2.11  12 2.11
  64  0.500  0.250  0.651-  34 2.10  26 2.11  19 2.11  35 2.11  32 2.15
  65  0.750  0.500  0.651-  35 2.11  18 2.12  34 2.12  27 2.12  33 2.16
  66  0.500  0.500  0.550-  34 2.10  33 2.11  24 2.11  32 2.11  17 2.11  30 2.12
  67  0.750  0.250  0.550-  35 2.11  16 2.11  33 2.11  32 2.11  25 2.11  31 2.12

IMPORTANT INFORMATION: All symmetrisations will be switched off!
NOSYMM: (Re-)initialisation of all symmetry stuff for point group C_1.

                                     Primitive cell

  volume of cell :    1519.8199

  direct lattice vectors                    reciprocal lattice vectors
     8.440984654  0.000000000  0.000000000     0.118469591  0.000000000  0.000000000
     0.000000000  8.440984654  0.000000000     0.000000000  0.118469591  0.000000000
     0.000000000  0.000000000 21.330738491     0.000000000  0.000000000  0.046880702

  length of vectors
     8.440984654  8.440984654 21.330738491     0.118469591  0.118469591  0.046880702

  position of ions in fractional coordinates (direct lattice)
     0.524930995  0.547217210  0.790832042
     0.623755693  0.637956408  0.783228089
     0.727359511  0.733121747  0.774357699
     0.000000000  0.750000000  0.351605267
     0.250000000  0.000000000  0.351605267
     0.000000000  0.000000000  0.450535089
     0.250000000  0.750000000  0.450535089
     0.999952972  0.750069933  0.550182699
     0.249960180  0.999999612  0.550158547
     0.000071767  0.000081746  0.648822182
     0.249898085  0.749854229  0.648747211
     0.000000000  0.250000000  0.351605267
     0.250000000  0.500000000  0.351605267
     0.000000000  0.500000000  0.450535089
     0.250000000  0.250000000  0.450535089
     0.000003654  0.249979963  0.550161251
     0.249748591  0.499976608  0.550096481
     0.000002192  0.500168966  0.648801089
     0.249937473  0.249969046  0.648946383
     0.500000000  0.750000000  0.351605267
     0.750000000  0.000000000  0.351605267
     0.500000000  0.000000000  0.450535089
     0.750000000  0.750000000  0.450535089
     0.500260010  0.749982125  0.550295780
     0.750090200  0.999950935  0.550181221
     0.500174938  0.000063538  0.648739290
     0.751039523  0.750995909  0.649603103
     0.500000000  0.250000000  0.351605267
     0.750000000  0.500000000  0.351605267
     0.500000000  0.500000000  0.450535089
     0.750000000  0.250000000  0.450535089
     0.499969996  0.249784160  0.550090882
     0.749966853  0.500263841  0.550296262
     0.498939953  0.498985897  0.648486242
     0.749869906  0.249927386  0.648747568
     0.000000000  0.750000000  0.450535089
     0.250000000  0.000000000  0.450535089
     0.000000000  0.000000000  0.351605267
     0.250000000  0.750000000  0.351605267
     0.000499353  0.750094498  0.650694193
     0.250109797  0.999979088  0.651114683
     0.000136884  0.000132227  0.549867764
     0.250236395  0.750027713  0.549854657
     0.000000000  0.250000000  0.450535089
     0.250000000  0.500000000  0.450535089
     0.000000000  0.500000000  0.351605267
     0.250000000  0.250000000  0.351605267
     0.999972823  0.250117149  0.651102115
     0.249721265  0.499887596  0.650744450
     0.999777560  0.499924314  0.549903838
     0.249958822  0.249941630  0.549902197
     0.500000000  0.750000000  0.450535089
     0.750000000  0.000000000  0.450535089
     0.500000000  0.000000000  0.351605267
     0.750000000  0.750000000  0.351605267
     0.499900511  0.749702745  0.651434291
     0.750092168  0.000531548  0.650666996
     0.499920717  0.999831546  0.549889159
     0.749925806  0.749919682  0.550086402
     0.500000000  0.250000000  0.450535089
     0.750000000  0.500000000  0.450535089
     0.500000000  0.500000000  0.351605267
     0.750000000  0.250000000  0.351605267
     0.499862115  0.249746378  0.650807382
     0.749521345  0.499934182  0.651493469
     0.499981670  0.499983828  0.549886888
     0.750005706  0.250251695  0.549858885

  ion indices of the primitive-cell ions
   primitive index   ion index
                 1           1
                 2           2
[...]
      0.00061      0.00069     13.83986         0.000784      0.001240      0.001435
      2.10939      6.32951     13.83826         0.001322      0.003003     -0.000032
      0.00000      2.11025      7.50000        -0.000110      0.000059      0.339009
      2.11025      4.22049      7.50000        -0.000073      0.000124      0.336542
      0.00000      4.22049      9.61025        -0.010936     -0.002512      0.078799
      2.11025      2.11025      9.61025        -0.003897     -0.004317      0.077591
      0.00003      2.11008     11.73535        -0.003330      0.003829     -0.000351
      2.10812      4.22029     11.73396         0.004189      0.000126     -0.000549
      0.00002      4.22192     13.83941        -0.003791     -0.001461      0.001439
      2.10972      2.10998     13.84251        -0.002972     -0.002463     -0.005061
      4.22049      6.33074      7.50000         0.000456     -0.000126      0.340337
      6.33074      0.00000      7.50000        -0.000094     -0.000329      0.336985
      4.22049      0.00000      9.61025        -0.002765     -0.010111      0.078576
      6.33074      6.33074      9.61025        -0.004683     -0.004928      0.087089
      4.22269      6.33059     11.73822        -0.001846     -0.002348      0.000918
      6.33150      8.44057     11.73577        -0.001723      0.000116      0.003214
      4.22197      0.00054     13.83809        -0.002023     -0.003637      0.000604
      6.33951      6.33914     13.85651        -0.003053     -0.002369      0.007601
      4.22049      2.11025      7.50000         0.000115     -0.000062      0.336677
      6.33074      4.22049      7.50000        -0.000150      0.000469      0.340394
      4.22049      4.22049      9.61025         0.005421      0.005584      0.080387
      6.33074      2.11025      9.61025         0.003830      0.009045      0.083162
      4.22024      2.10842     11.73384        -0.000048      0.003797     -0.000663
      6.33046      4.22272     11.73823        -0.003167     -0.001617      0.001306
      4.21154      4.21193     13.83269         0.003050      0.003226     -0.002472
      6.32964      2.10963     13.83826         0.002460      0.001782      0.000489
      0.00000      6.33074      9.61025        -0.001765      0.000164      0.087409
      2.11025      0.00000      9.61025         0.000434      0.001960      0.077279
      0.00000      0.00000      7.50000        -0.000432     -0.000369     -0.500441
      2.11025      6.33074      7.50000        -0.000952     -0.000724     -0.500584
      0.00422      6.33154     13.87979         0.003101     -0.000090      0.001569
      2.11117      8.44081     13.88876         0.000067     -0.001143     -0.003902
      0.00116      0.00112     11.72909        -0.003251     -0.003004     -0.001706
      2.11224      6.33097     11.72881        -0.006338     -0.002507      0.001458
      0.00000      2.11025      9.61025         0.001882      0.000784      0.078117
      2.11025      4.22049      9.61025        -0.003848     -0.002389      0.082830
      0.00000      4.22049      7.50000         0.001208      0.000376     -0.500644
      2.11025      2.11025      7.50000         0.000631      0.000702     -0.500144
      8.44076      2.11124     13.88849        -0.001442      0.000268     -0.003569
      2.10789      4.21954     13.88086         0.001869      0.001568     -0.000341
      8.43911      4.21985     11.72985         0.002900      0.005002     -0.000824
      2.10990      2.10975     11.72982        -0.000582      0.000523     -0.004462
      4.22049      6.33074      9.61025         0.006103     -0.001877      0.083190
      6.33074      0.00000      9.61025         0.000574     -0.001649      0.087550
      4.22049      0.00000      7.50000         0.000445      0.001189     -0.500687
      6.33074      6.33074      7.50000         0.001178      0.001211     -0.501494
      4.21965      6.32823     13.89557        -0.006338     -0.001389      0.001352
      6.33152      0.00449     13.87921        -0.000624      0.003616      0.001522
      4.21982      8.43956     11.72954         0.004883      0.002699     -0.000788
      6.33011      6.33006     11.73375         0.004864      0.004747     -0.001872
      4.22049      2.11025      9.61025        -0.002287     -0.002902      0.081915
      6.33074      4.22049      9.61025        -0.002104      0.006030      0.082801
      4.22049      4.22049      7.50000        -0.001543     -0.001469     -0.500809
      6.33074      2.11025      7.50000        -0.000644     -0.000992     -0.500563
      4.21933      2.10811     13.88220         0.001281      0.002370     -0.000797
      6.32670      4.21994     13.89684        -0.001803     -0.005538      0.001757
      4.22034      4.22036     11.72949        -0.002122     -0.001775      0.002193
      6.33079      2.11237     11.72890        -0.002103     -0.005577      0.001662
    total drift:                                0.000574      0.000760     -0.001504

  FREE ENERGIE OF THE ION-ELECTRON SYSTEM (eV)
  free  energy   TOTEN  =      -392.44639699 eV

  energy  without entropy=     -392.44639699  energy(sigma->0) =     -392.44639699

 d Force = 0.1156985E-03[-0.865E-03, 0.110E-02]  d Energy = 0.1326957E-03-0.170E-04
 d Force =-0.2972533E+02[-0.297E+02,-0.297E+02]  d Ewald  =-0.2972512E+02-0.211E-03

 Finite differences progress:
  Degree of freedom:   9/  9
  Displacement:        2/  2
  Total:              18/ 18

 SECOND DERIVATIVES (NOT SYMMETRIZED)
               1X          1Y          1Z          2X          2Y          2Z          3X          3Y          3Z
  1X   -63.222201  -55.439715   11.916190   61.734164   51.685348  -11.340783    1.651648    3.914748   -0.850864
  1Y   -55.424906  -53.759609   10.926836   51.624798   52.906437  -10.339350    3.939266    0.994194   -0.818676
  1Z    11.903441   10.918467   -5.082648  -11.122858  -10.147272    7.308891   -0.760838   -0.730460   -2.311827
  2X    61.716519   51.648967  -11.138513 -101.833598  -83.688860   19.039951   39.530101   31.502439   -7.621780
  2Y    51.683947   52.905791  -10.164914  -83.675549  -87.654850   17.398718   31.485635   34.186388   -6.965234
  2Z   -11.333822  -10.336323    7.300454   19.011453   17.379505  -14.662403   -7.401470   -6.765987    6.909478
  3X     1.649412    3.937980   -0.758621   39.530370   31.482213   -7.410954  -41.142580  -35.269256    8.161674
  3Y     3.916225    0.997157   -0.732411   31.493503   34.189126   -6.769422  -35.262802  -35.176176    7.476089
  3Z    -0.850017   -0.818461   -2.309693   -7.611164   -6.953347    6.924169    8.142594    7.469484   -4.901693

 Eigenvectors and eigenvalues of the dynamical matrix

   1 f  =   69.634589 THz   437.527029 2PiTHz 2322.759882 cm-1   287.985392 meV
             X         Y         Z           dx          dy          dz
      4.430934  4.619052 16.869031     0.398929    0.366179   -0.078657
      5.265112  5.384980 16.706834    -0.584774   -0.537215    0.120760
      6.139630  6.188269 16.517622     0.171157    0.157272   -0.037539
      0.000000  6.330738  7.500000            0           0           0
      2.110246  0.000000  7.500000            0           0           0
      0.000000  0.000000  9.610246            0           0           0
      2.110246  6.330738  9.610246            0           0           0
      8.440588  6.331329 11.735803            0           0           0
      2.109910  8.440981 11.735288            0           0           0
      0.000606  0.000690 13.839856            0           0           0
      2.109386  6.329508 13.838257            0           0           0
      0.000000  2.110246  7.500000            0           0           0
      2.110246  4.220492  7.500000            0           0           0
      0.000000  4.220492  9.610246            0           0           0
      2.110246  2.110246  9.610246            0           0           0
      0.000031  2.110077 11.735346            0           0           0
      2.108124  4.220295 11.733964            0           0           0
      0.000019  4.221919 13.839406            0           0           0
      2.109718  2.109985 13.842506            0           0           0
      4.220492  6.330738  7.500000            0           0           0
      6.330738  0.000000  7.500000            0           0           0
      4.220492  0.000000  9.610246            0           0           0
      6.330738  6.330738  9.610246            0           0           0
      4.222687  6.330588 11.738215            0           0           0
      6.331500  8.440570 11.735772            0           0           0
      4.221969  0.000536 13.838088            0           0           0
      6.339513  6.339145 13.856514            0           0           0
      4.220492  2.110246  7.500000            0           0           0
      6.330738  4.220492  7.500000            0           0           0
      4.220492  4.220492  9.610246            0           0           0
      6.330738  2.110246  9.610246            0           0           0
      4.220239  2.108424 11.733845            0           0           0
      6.330459  4.222719 11.738226            0           0           0
      4.211544  4.211932 13.832690            0           0           0
      6.329640  2.109633 13.838265            0           0           0
      0.000000  6.330738  9.610246            0           0           0
      2.110246  0.000000  9.610246            0           0           0
      0.000000  0.000000  7.500000            0           0           0
      2.110246  6.330738  7.500000            0           0           0
      0.004215  6.331536 13.879788            0           0           0
      2.111173  8.440808 13.888757            0           0           0
      0.001155  0.001116 11.729085            0           0           0
      2.112242  6.330972 11.728806            0           0           0
      0.000000  2.110246  9.610246            0           0           0
      2.110246  4.220492  9.610246            0           0           0
      0.000000  4.220492  7.500000            0           0           0
      2.110246  2.110246  7.500000            0           0           0
      8.440755  2.111235 13.888489            0           0           0
      2.107893  4.219544 13.880860            0           0           0
      8.439107  4.219853 11.729855            0           0           0
      2.109899  2.109753 11.729820            0           0           0
      4.220492  6.330738  9.610246            0           0           0
      6.330738  0.000000  9.610246            0           0           0
      4.220492  0.000000  7.500000            0           0           0
      6.330738  6.330738  7.500000            0           0           0
      4.219653  6.328229 13.895575            0           0           0
      6.331516  0.004487 13.879208            0           0           0
      4.219823  8.439563 11.729542            0           0           0
      6.330112  6.330061 11.733749            0           0           0
      4.220492  2.110246  9.610246            0           0           0
      6.330738  4.220492  9.610246            0           0           0
      4.220492  4.220492  7.500000            0           0           0
      6.330738  2.110246  7.500000            0           0           0
      4.219328  2.108105 13.882202            0           0           0
      6.326698  4.219937 13.896837            0           0           0
      4.220338  4.220356 11.729493            0           0           0
      6.330787  2.112371 11.728896            0           0           0

[...]

   9 f  =    0.844222 THz     5.304401 2PiTHz   28.160200 cm-1     3.491418 meV
             X         Y         Z           dx          dy          dz
      4.430934  4.619052 16.869031     0.522149   -0.551016   -0.047215
      5.265112  5.384980 16.706834     0.380734   -0.392702   -0.026879
      6.139630  6.188269 16.517622     0.249372   -0.243639   -0.008412
      0.000000  6.330738  7.500000            0           0           0
      2.110246  0.000000  7.500000            0           0           0
      0.000000  0.000000  9.610246            0           0           0
      2.110246  6.330738  9.610246            0           0           0
      8.440588  6.331329 11.735803            0           0           0
      2.109910  8.440981 11.735288            0           0           0
      0.000606  0.000690 13.839856            0           0           0
      2.109386  6.329508 13.838257            0           0           0
      0.000000  2.110246  7.500000            0           0           0
      2.110246  4.220492  7.500000            0           0           0
      0.000000  4.220492  9.610246            0           0           0
      2.110246  2.110246  9.610246            0           0           0
      0.000031  2.110077 11.735346            0           0           0
      2.108124  4.220295 11.733964            0           0           0
      0.000019  4.221919 13.839406            0           0           0
      2.109718  2.109985 13.842506            0           0           0
      4.220492  6.330738  7.500000            0           0           0
      6.330738  0.000000  7.500000            0           0           0
      4.220492  0.000000  9.610246            0           0           0
      6.330738  6.330738  9.610246            0           0           0
      4.222687  6.330588 11.738215            0           0           0
      6.331500  8.440570 11.735772            0           0           0
      4.221969  0.000536 13.838088            0           0           0
      6.339513  6.339145 13.856514            0           0           0
      4.220492  2.110246  7.500000            0           0           0
      6.330738  4.220492  7.500000            0           0           0
      4.220492  4.220492  9.610246            0           0           0
      6.330738  2.110246  9.610246            0           0           0
      4.220239  2.108424 11.733845            0           0           0
      6.330459  4.222719 11.738226            0           0           0
      4.211544  4.211932 13.832690            0           0           0
      6.329640  2.109633 13.838265            0           0           0
      0.000000  6.330738  9.610246            0           0           0
      2.110246  0.000000  9.610246            0           0           0
      0.000000  0.000000  7.500000            0           0           0
      2.110246  6.330738  7.500000            0           0           0
      0.004215  6.331536 13.879788            0           0           0
      2.111173  8.440808 13.888757            0           0           0
      0.001155  0.001116 11.729085            0           0           0
      2.112242  6.330972 11.728806            0           0           0
      0.000000  2.110246  9.610246            0           0           0
      2.110246  4.220492  9.610246            0           0           0
      0.000000  4.220492  7.500000            0           0           0
      2.110246  2.110246  7.500000            0           0           0
      8.440755  2.111235 13.888489            0           0           0
      2.107893  4.219544 13.880860            0           0           0
      8.439107  4.219853 11.729855            0           0           0
      2.109899  2.109753 11.729820            0           0           0
      4.220492  6.330738  9.610246            0           0           0
      6.330738  0.000000  9.610246            0           0           0
      4.220492  0.000000  7.500000            0           0           0
      6.330738  6.330738  7.500000            0           0           0
      4.219653  6.328229 13.895575            0           0           0
      6.331516  0.004487 13.879208            0           0           0
      4.219823  8.439563 11.729542            0           0           0
      6.330112  6.330061 11.733749            0           0           0
      4.220492  2.110246  9.610246            0           0           0
      6.330738  4.220492  9.610246            0           0           0
      4.220492  4.220492  7.500000            0           0           0
      6.330738  2.110246  7.500000            0           0           0
      4.219328  2.108105 13.882202            0           0           0
      6.326698  4.219937 13.896837            0           0           0
      4.220338  4.220356 11.729493            0           0           0
      6.330787  2.112371 11.728896            0           0           0

 Finite differences POTIM=   1.0000000000000000E-002