 vasp.6.3.0 20Jan22 (build Dec 25 2023 18:06:01) complex
 executed on        HPECrayEX_GCC date 2024.11.24  20:15:42

 INCAR:
   SYSTEM = TiO2
   ISMEAR = 0
   SIGMA = 0.05
   EDIFF = 1E-7
   ALGO = Normal
   ISTART = 0
   IBRION = 2
   NSW = 1000
   ISYM = 0
   ISIF = 2
   EDIFFG = -0.01
   DIPOL = 0.5 0.5 0.5
   IDIPOL = 3
   LDIPOL = .TRUE.
   LHFCALC = .TRUE.
   HFSCREEN = 0.2
   GGA = PE
   IVDW = 13
   VDW_S8 = 1.19528249
   VDW_A1 = 0.38663183
   VDW_A2 = 5.19133469
   ENCUT = 520
   PREC = Normal
   PRECFOCK = Fast
   LASPH = .TRUE.
   LREAL = .FALSE.
   ISPIN = 1
   NKREDX = 2
   NKREDY = 2
   NELM = 200
   NELMIN = 8
   NCORE = 8
   KPAR = 1
   LWAVE = .FALSE.
   LCHARG = .FALSE.

 POTCAR:    PAW_PBE H 15Jun2001
 POTCAR:    PAW_PBE O 08Apr2002
 POTCAR:    PAW_PBE Ti 08Apr2002
 POTCAR:    PAW_PBE O 08Apr2002
 POTCAR:    PAW_PBE H 15Jun2001
   VRHFIN =H: ultrasoft test

   TITEL  = PAW_PBE H 15Jun2001
   POMASS =    1.000; ZVAL   =    1.000    mass and valenz
   ENMAX  =  250.000; ENMIN  =  200.000 eV

   TITEL  = PAW_PBE O 08Apr2002
   POMASS =   16.000; ZVAL   =    6.000    mass and valenz
   ENMAX  =  400.000; ENMIN  =  300.000 eV

[...]

   TITEL  = PAW_PBE O 08Apr2002
   POMASS =   16.000; ZVAL   =    6.000    mass and valenz
   ENMAX  =  400.000; ENMIN  =  300.000 eV

  PAW_PBE H 15Jun2001                   :
  PAW_PBE O 08Apr2002                   :
  PAW_PBE Ti 08Apr2002                  :
  PAW_PBE O 08Apr2002                   :

 POSCAR:  H  O Ti  O
  positions in direct lattice
  velocities in cartesian coordinates
|           W    W    AA    RRRRR   N    N  II  N    N   GGGG   !!!           |
|           W    W   A  A   R    R  NN   N  II  NN   N  G    G  !!!           |
|           W    W  A    A  R    R  N N  N  II  N N  N  G       !!!           |
|           W WW W  AAAAAA  RRRRR   N  N N  II  N  N N  G  GGG   !            |
|           WW  WW  A    A  R   R   N   NN  II  N   NN  G    G                |
|           W    W  A    A  R    R  N    N  II  N    N   GGGG   !!!           |
|     Specifying the vdW parameters                                           |
|     VDW_S8 = 1.195                                                          |
|     VDW_A1 = 0.387                                                          |
|     VDW_A2 = 5.191                                                          |
|     in the INCAR file will overwrite the defaults for hse06. Please         |
|     make sure that is what you intended.                                    |

 ion  position               nearest neighbor table
   1  0.509  0.550  0.834-   3 0.96
   2  0.613  0.497  0.813-   3 0.99
   3  0.536  0.493  0.813-   1 0.96   2 0.99  83 2.17
   4  0.750  0.625  0.265-  84 1.94  85 1.94 144 1.94 145 1.94 166 1.96  87 1.96  14 2.94  34 2.94

   5  0.000  0.750  0.265-  87 1.94 107 1.94 106 1.94  86 1.94  88 1.96  35 2.94  15 2.94
   6  0.000  0.625  0.382-  88 1.94  89 1.94 148 1.94 149 1.94  90 1.96  91 1.96  16 2.94  36 2.94

[...]

  84  0.750  0.750  0.219-   4 1.94  14 1.94
  85  0.750  0.750  0.311-   4 1.94  14 1.94   7 1.96
  86  0.098  0.625  0.265-   5 1.94  35 1.94  44 1.96
  87  0.902  0.625  0.265-   5 1.94  35 1.94   4 1.96
  88  0.000  0.750  0.336-   6 1.94  16 1.94   5 1.96
  89  0.000  0.750  0.428-   6 1.94  16 1.94   9 1.96
  90  0.848  0.625  0.382-   7 1.94  37 1.94   6 1.96
  91  0.152  0.625  0.382-  47 1.94  77 1.94   6 1.96
  92  0.750  0.750  0.454-   8 1.94  18 1.94   7 1.96
  93  0.750  0.750  0.546-   8 1.94  18 1.94  11 2.08
  94  0.098  0.625  0.500-   9 1.94  39 1.94  48 1.96
  95  0.902  0.625  0.500-   9 1.94  39 1.94   8 1.96
  96  0.000  0.750  0.572-  20 1.89  10 1.89   9 1.98
  97  0.999  0.750  0.665-  13 1.81  10 2.00  20 2.00
  98  0.850  0.625  0.618-  10 1.94  41 1.96  11 1.96
  99  0.150  0.625  0.619-  10 1.93  51 1.96  81 1.96
 100  0.753  0.751  0.690-  11 1.87  12 2.05  22 2.07
 101  0.749  0.749  0.783-  12 1.83  22 1.84
 102  0.094  0.625  0.743-  43 1.93  13 1.93  52 2.02
 103  0.906  0.624  0.744-  43 1.93  13 1.94  12 2.01
 104  0.750  0.000  0.219-  14 1.94  24 1.94
 105  0.750  0.000  0.311-  14 1.94  24 1.94  17 1.96
 106  0.098  0.875  0.265-   5 1.94  15 1.94  54 1.96
 107  0.902  0.875  0.265-   5 1.94  15 1.94  14 1.96
 108  0.000  0.000  0.336-  16 1.94  26 1.94  15 1.96
 109  0.000  0.000  0.428-  16 1.94  26 1.94  19 1.96
 110  0.848  0.875  0.382-   7 1.94  17 1.94  16 1.96
 111  0.152  0.875  0.382-  47 1.94  57 1.94  16 1.96
 112  0.750  0.000  0.454-  18 1.94  28 1.94  17 1.96
 113  0.750  0.000  0.546-  18 1.94  28 1.94  21 2.09
 114  0.098  0.875  0.500-   9 1.94  19 1.94  58 1.96
 115  0.902  0.875  0.500-   9 1.94  19 1.94  18 1.96
 116  0.000  1.000  0.572-  30 1.89  20 1.89  19 1.98
 117  1.000  0.000  0.665-  23 1.81  20 2.00  30 2.00
 118  0.850  0.875  0.618-  20 1.94  21 1.96  11 1.96
 119  0.150  0.875  0.619-  20 1.93  61 1.96  51 1.96
 120  0.750  1.000  0.690-  21 1.87  32 2.07  22 2.07
 121  0.750  1.000  0.783-  32 1.83  22 1.83
 122  0.094  0.875  0.742-  13 1.92  23 1.93  62 2.02
 123  0.906  0.875  0.743-  13 1.93  23 1.93  22 2.02
 124  0.750  0.250  0.219-  24 1.94  34 1.94
 125  0.750  0.250  0.311-  24 1.94  34 1.94  27 1.96
 126  0.098  0.125  0.265-  15 1.94  25 1.94  64 1.96
 127  0.902  0.125  0.265-  15 1.94  25 1.94  24 1.96
 128  0.000  0.250  0.336-  26 1.94  36 1.94  25 1.96
 129  0.000  0.250  0.428-  26 1.94  36 1.94  29 1.96
 130  0.848  0.125  0.382-  17 1.94  27 1.94  26 1.96
 131  0.152  0.125  0.382-  57 1.94  67 1.94  26 1.96
 132  0.750  0.250  0.454-  28 1.94  38 1.94  27 1.96
 133  0.750  0.250  0.546-  28 1.94  38 1.94  31 2.08
 134  0.098  0.125  0.500-  19 1.94  29 1.94  68 1.96
 135  0.902  0.125  0.500-  19 1.94  29 1.94  28 1.96
 136  0.000  0.250  0.572-  30 1.89  40 1.89  29 1.98
 137  0.999  0.250  0.665-  33 1.81  40 2.00  30 2.00
 138  0.850  0.125  0.618-  30 1.94  21 1.96  31 1.96
 139  0.150  0.125  0.619-  30 1.93  61 1.96  71 1.96
 140  0.753  0.250  0.690-  31 1.87  42 2.05  32 2.07
 141  0.749  0.251  0.783-  42 1.82  32 1.84
 142  0.094  0.125  0.743-  33 1.92  23 1.93  72 2.02
 143  0.906  0.125  0.743-  33 1.93  23 1.93  32 2.02
[...]
 229  0.500  0.500  0.428-  46 1.94  76 1.94  79 1.96
 230  0.348  0.375  0.382-  67 1.94  77 1.94  76 1.96
 231  0.652  0.375  0.382-  27 1.94  37 1.94  76 1.96
 232  0.250  0.500  0.454-  48 1.94  78 1.94  77 1.96
 233  0.250  0.500  0.546-  48 1.94  78 1.94  81 2.09
 234  0.598  0.375  0.500-  69 1.94  79 1.94  38 1.96
 235  0.402  0.375  0.500-  69 1.94  79 1.94  78 1.96
 236  0.500  0.500  0.573-  50 1.89  80 1.89  79 1.99
 237  0.499  0.500  0.666-  83 1.90  50 1.97  80 1.97
 238  0.349  0.375  0.619-  80 1.94  71 1.95  81 1.95
 239  0.651  0.375  0.619-  80 1.94  31 1.95  41 1.96
 240  0.250  0.500  0.690-  81 1.87  52 2.07  82 2.07
 241  0.251  0.500  0.783-  82 1.83  52 1.83
 242  0.596  0.372  0.738-  73 1.91  83 1.94  42 2.00
 243  0.406  0.374  0.742-  73 1.92  83 1.93  82 2.01

IMPORTANT INFORMATION: All symmetrisations will be switched off!
NOSYMM: (Re-)initialisation of all symmetry stuff for point group C_1.

                                     Primitive cell

  volume of cell :    4157.1448

  direct lattice vectors                    reciprocal lattice vectors
    12.893495846  0.000000000  0.000000000     0.077558485  0.000000000  0.000000000
     0.000000000 11.761907618  0.000000000     0.000000000  0.085020222  0.000000000
     0.000000000  0.000000000 27.412377441     0.000000000  0.000000000  0.036479871

  length of vectors
    12.893495846 11.761907618 27.412377441     0.077558485  0.085020222  0.036479871

  position of ions in fractional coordinates (direct lattice)
     0.508575645  0.550459411  0.833992122
     0.612703301  0.496730291  0.813391145
     0.536258949  0.493218271  0.812558845
     0.750000000  0.625000000  0.264823466
     0.000000000  0.750000000  0.264823466
     0.000000000  0.625000000  0.382411733
     0.750000000  0.750000000  0.382411733
     0.750000000  0.625000000  0.500000000
     0.000000000  0.750000000  0.500000000
     0.000234294  0.625055707  0.615611537
     0.750227007  0.750130722  0.621696175
     0.750732136  0.625951399  0.742258899
     0.999717923  0.750171463  0.731142891
     0.750000000  0.875000000  0.264823466
     0.000000000  0.000000000  0.264823466
     0.000000000  0.875000000  0.382411733
     0.750000000  0.000000000  0.382411733
     0.750000000  0.875000000  0.500000000
     0.000000000  0.000000000  0.500000000
     0.000073101  0.875020452  0.615715670
     0.749758086  0.000017977  0.622054482
     0.749632929  0.875146013  0.743402830
     0.000042652  0.999957001  0.731099082
     0.750000000  0.125000000  0.264823466
     0.000000000  0.250000000  0.264823466
     0.000000000  0.125000000  0.382411733
     0.750000000  0.250000000  0.382411733
     0.750000000  0.125000000  0.500000000
     0.000000000  0.250000000  0.500000000
     0.000093216  0.124955788  0.615689830
     0.750136508  0.249871010  0.621690697
     0.749550024  0.124590977  0.743391984
     0.999750959  0.249770197  0.731128792
     0.750000000  0.375000000  0.264823466
     0.000000000  0.500000000  0.264823466
     0.000000000  0.375000000  0.382411733
     0.750000000  0.500000000  0.382411733
     0.750000000  0.375000000  0.500000000
     0.000000000  0.500000000  0.500000000
     0.000212663  0.374968068  0.615615818
     0.750764470  0.499992501  0.621896617
     0.751079374  0.373781690  0.742360515
     0.000796422  0.500063296  0.731068890
     0.250000000  0.625000000  0.264823466
     0.500000000  0.750000000  0.264823466
     0.500000000  0.625000000  0.382411733
     0.250000000  0.750000000  0.382411733
     0.250000000  0.625000000  0.500000000
     0.500000000  0.750000000  0.500000000
     0.500199144  0.622758151  0.616965933
     0.250299875  0.749909053  0.622045610
     0.250372899  0.625173187  0.743477283
     0.499908784  0.750522105  0.729803343
     0.250000000  0.875000000  0.264823466
     0.500000000  0.000000000  0.264823466
     0.500000000  0.875000000  0.382411733
     0.250000000  0.000000000  0.382411733
     0.250000000  0.875000000  0.500000000
     0.500000000  0.000000000  0.500000000
     0.499748894  0.874150038  0.614563372
[...]
     0.500000000  0.500000000  0.428355971
     0.347680320  0.375000000  0.382411733
     0.652319680  0.375000000  0.382411733
     0.250000000  0.500000000  0.454055762
     0.250000000  0.500000000  0.545944238
     0.597680320  0.375000000  0.500000000
     0.402319680  0.375000000  0.500000000
     0.500244333  0.499781622  0.572639416
     0.498964029  0.500362744  0.665826591
     0.349341756  0.375033095  0.618691978
     0.650657567  0.375065159  0.619169127
     0.249518759  0.500419777  0.690250452
     0.251354903  0.499948741  0.783131790
     0.596039493  0.371571852  0.737707211
     0.406444207  0.374021819  0.741629642

  ion indices of the primitive-cell ions
   primitive index   ion index
                 1           1
                 2           2
                 3           3
                 4           4
                 5           5
                 6           6
[...]
   0.597E+02 0.371E+02 -.159E+04   -.777E+02 -.690E+02 0.157E+04   0.157E+02 0.279E+02 0.134E+02   -.316E-03 0.171E-03 0.779E-03
   -.115E+00 -.393E-01 0.972E+03   0.114E+00 0.396E-01 -.975E+03   -.199E-03 0.140E-03 -.125E+01   0.224E-05 0.590E-06 0.352E-03
   -.333E-01 -.498E-01 0.105E+04   0.345E-01 0.502E-01 -.104E+04   0.336E-03 0.177E-03 -.186E+01   -.541E-05 -.780E-07 0.368E-03
   -.678E-01 -.307E-01 0.502E+03   0.725E-01 0.305E-01 -.502E+03   0.154E-02 0.435E-04 0.181E+00   -.141E-04 0.832E-05 -.478E-03
   -.125E+00 -.398E-01 0.498E+03   0.119E+00 0.402E-01 -.499E+03   -.149E-02 0.300E-03 -.171E+00   0.982E-05 0.402E-06 -.477E-03
   -.278E+00 -.137E+00 0.114E+01   0.248E+00 0.122E+00 -.674E+00   -.963E-02 -.795E-02 0.176E+00   0.145E-04 0.275E-04 -.134E-02
   -.309E+00 -.240E+00 0.513E+00   0.324E+00 0.242E+00 -.116E+01   0.163E-02 -.127E-02 -.542E-01   -.284E-04 0.191E-04 -.136E-02
   -.180E+01 -.721E+00 -.488E+03   0.178E+01 0.727E+00 0.489E+03   0.970E-02 -.493E-02 -.525E-01   0.280E-04 0.914E-04 -.163E-02
   -.162E+01 -.277E+01 -.493E+03   0.163E+01 0.277E+01 0.492E+03   -.163E-01 -.485E-02 0.354E-01   0.315E-04 0.247E-04 -.157E-02
   -.281E+02 -.774E+01 -.941E+03   0.280E+02 0.756E+01 0.941E+03   0.150E+00 0.747E-01 0.126E+00   0.160E-03 0.188E-03 -.487E-03
   -.170E+01 -.136E+01 -.983E+03   0.173E+01 0.134E+01 0.983E+03   -.417E-01 -.869E-02 0.641E+00   0.106E-03 0.639E-04 -.646E-03
   -.109E+00 -.420E-01 0.972E+03   0.106E+00 0.427E-01 -.975E+03   -.222E-03 0.512E-03 -.125E+01   0.381E-05 -.186E-05 0.354E-03
   -.311E-01 -.170E-02 0.105E+04   0.323E-01 0.194E-02 -.104E+04   0.330E-03 0.108E-03 -.186E+01   -.535E-05 -.156E-05 0.369E-03
   -.582E-01 -.371E-01 0.502E+03   0.627E-01 0.370E-01 -.502E+03   0.150E-02 -.108E-04 0.181E+00   -.140E-04 0.140E-05 -.470E-03
   -.141E+00 -.688E-02 0.498E+03   0.134E+00 0.681E-02 -.499E+03   -.167E-02 -.293E-04 -.171E+00   0.146E-04 -.488E-05 -.478E-03
   -.504E+00 -.213E+00 0.688E+00   0.482E+00 0.233E+00 -.213E+00   -.602E-02 0.115E-01 0.178E+00   0.261E-04 -.627E-06 -.132E-02
   -.215E+00 -.146E-01 0.207E+00   0.229E+00 0.143E-01 -.852E+00   0.179E-02 0.208E-03 -.544E-01   -.273E-04 -.188E-04 -.137E-02
   -.111E+01 -.612E+00 -.490E+03   0.111E+01 0.617E+00 0.490E+03   0.396E-02 -.510E-02 -.514E-01   -.690E-04 0.165E-04 -.164E-02
   -.110E+01 0.499E-01 -.497E+03   0.113E+01 -.516E-01 0.497E+03   -.231E-01 0.415E-03 0.420E-01   0.340E-04 -.407E-04 -.150E-02
   -.635E+01 -.618E+01 -.954E+03   0.633E+01 0.614E+01 0.953E+03   0.255E-01 0.117E-01 0.267E-01   -.155E-04 0.100E-04 -.518E-03
   -.165E+01 0.773E-01 -.984E+03   0.164E+01 -.770E-01 0.984E+03   0.149E-01 -.627E-03 0.665E+00   0.355E-05 -.996E-04 -.609E-03
   -.108E+00 0.391E-01 0.972E+03   0.106E+00 -.394E-01 -.975E+03   -.232E-03 -.173E-03 -.125E+01   0.373E-05 -.538E-06 0.353E-03
   -.334E-01 0.498E-01 0.105E+04   0.346E-01 -.502E-01 -.104E+04   0.337E-03 -.177E-03 -.186E+01   -.523E-05 0.695E-07 0.367E-03
   -.578E-01 0.311E-01 0.502E+03   0.624E-01 -.310E-01 -.502E+03   0.150E-02 0.230E-05 0.181E+00   -.137E-04 -.921E-05 -.476E-03
   -.120E+00 0.400E-01 0.498E+03   0.114E+00 -.404E-01 -.499E+03   -.146E-02 -.288E-03 -.171E+00   0.931E-05 -.513E-06 -.487E-03
   -.491E+00 0.169E+00 0.657E+00   0.469E+00 -.187E+00 -.181E+00   -.528E-02 -.107E-01 0.178E+00   0.251E-04 -.292E-04 -.134E-02
   -.304E+00 0.242E+00 0.490E+00   0.319E+00 -.244E+00 -.114E+01   0.225E-02 0.124E-02 -.537E-01   -.277E-04 -.195E-04 -.139E-02
   -.896E+00 0.603E+00 -.490E+03   0.888E+00 -.608E+00 0.490E+03   0.383E-02 0.577E-02 -.513E-01   -.108E-03 -.966E-04 -.167E-02
   -.187E+01 0.272E+01 -.493E+03   0.189E+01 -.272E+01 0.493E+03   -.191E-01 0.176E-02 0.307E-01   -.401E-04 -.205E-04 -.158E-02
   -.621E+01 0.610E+01 -.954E+03   0.620E+01 -.606E+01 0.953E+03   0.229E-01 -.790E-02 0.226E-01   -.279E-04 -.970E-04 -.550E-03
   -.159E+01 0.132E+01 -.983E+03   0.162E+01 -.130E+01 0.983E+03   -.383E-01 0.747E-02 0.643E+00   0.905E-04 -.401E-04 -.662E-03
   -.115E+00 0.422E-01 0.972E+03   0.113E+00 -.429E-01 -.975E+03   -.209E-03 -.480E-03 -.125E+01   0.212E-05 0.183E-05 0.351E-03
   -.355E-01 0.170E-02 0.105E+04   0.368E-01 -.195E-02 -.104E+04   0.342E-03 -.108E-03 -.186E+01   -.530E-05 0.155E-05 0.365E-03
   -.676E-01 0.367E-01 0.502E+03   0.724E-01 -.365E-01 -.502E+03   0.156E-02 -.384E-04 0.181E+00   -.137E-04 -.464E-06 -.484E-03
   -.106E+00 0.672E-02 0.498E+03   0.100E+00 -.665E-02 -.499E+03   -.148E-02 0.358E-05 -.171E+00   0.509E-05 0.500E-05 -.485E-03
   -.262E+00 0.182E+00 0.111E+01   0.231E+00 -.169E+00 -.635E+00   -.962E-02 0.728E-02 0.176E+00   0.137E-04 0.242E-05 -.136E-02
   -.335E+00 0.113E-01 0.797E+00   0.351E+00 -.116E-01 -.145E+01   0.860E-03 -.137E-03 -.561E-01   -.261E-04 0.191E-04 -.139E-02
   -.172E+01 0.739E+00 -.488E+03   0.171E+01 -.744E+00 0.489E+03   0.686E-02 0.334E-02 -.506E-01   -.767E-05 -.884E-05 -.164E-02
   -.201E+01 -.381E-01 -.490E+03   0.203E+01 0.388E-01 0.489E+03   -.370E-01 0.390E-03 0.352E-01   0.865E-04 0.472E-04 -.153E-02
   -.281E+02 0.743E+01 -.941E+03   0.280E+02 -.723E+01 0.941E+03   0.128E+00 -.897E-01 0.123E+00   0.116E-03 -.155E-04 -.440E-03
   -.286E+01 -.410E-01 -.981E+03   0.282E+01 0.375E-01 0.981E+03   0.393E-01 0.233E-02 0.610E+00   0.138E-03 0.103E-03 -.648E-03
   0.115E+00 -.358E-01 0.972E+03   -.114E+00 0.359E-01 -.975E+03   0.199E-03 0.590E-04 -.125E+01   -.218E-05 0.500E-06 0.344E-03
   0.331E-01 -.604E-01 0.105E+04   -.344E-01 0.611E-01 -.104E+04   -.339E-03 0.318E-03 -.186E+01   0.536E-05 -.252E-05 0.359E-03
   0.611E-01 0.789E-02 0.502E+03   -.655E-01 0.110E-04 -.502E+03   -.158E-02 0.225E-02 0.188E+00   0.139E-04 -.187E-05 -.484E-03
   0.132E+00 -.253E-01 0.498E+03   -.126E+00 0.256E-01 -.499E+03   0.149E-02 0.113E-03 -.167E+00   -.967E-05 0.372E-06 -.495E-03
   0.538E+00 -.615E-01 0.481E+00   -.507E+00 0.524E-01 0.312E-01   0.690E-02 -.482E-02 0.192E+00   -.172E-04 0.210E-04 -.136E-02
   0.276E+00 -.286E+00 0.186E+01   -.283E+00 0.226E+00 -.238E+01   -.653E-02 0.107E-01 -.504E-01   0.246E-04 0.397E-06 -.139E-02
   0.100E+01 -.350E+01 -.484E+03   -.103E+01 0.367E+01 0.484E+03   0.205E-01 -.102E+00 -.215E-01   0.144E-03 0.103E-03 -.153E-02
   0.383E+01 -.193E+01 -.496E+03   -.384E+01 0.193E+01 0.496E+03   -.113E-02 0.535E-02 0.472E-01   -.550E-04 0.260E-05 -.158E-02
   0.145E+02 -.551E+01 -.947E+03   -.146E+02 0.550E+01 0.947E+03   0.377E-01 0.139E-02 -.563E-02   0.653E-04 0.523E-04 -.468E-03
   0.777E+01 -.220E+02 -.967E+03   -.769E+01 0.221E+02 0.966E+03   -.124E+00 -.324E-01 0.750E+00   0.164E-03 0.606E-04 -.593E-03
   0.109E+00 -.387E-01 0.972E+03   -.107E+00 0.393E-01 -.975E+03   0.219E-03 0.431E-03 -.125E+01   -.379E-05 -.177E-05 0.347E-03
   0.310E-01 -.260E-02 0.105E+04   -.321E-01 0.293E-02 -.104E+04   -.331E-03 0.141E-03 -.186E+01   0.531E-05 -.135E-05 0.358E-03
   0.519E-01 -.112E-01 0.502E+03   -.561E-01 0.128E-01 -.502E+03   -.154E-02 -.249E-03 0.189E+00   0.138E-04 -.107E-04 -.489E-03
   0.147E+00 -.677E-02 0.498E+03   -.141E+00 0.675E-02 -.499E+03   0.153E-02 0.269E-04 -.167E+00   -.144E-04 -.442E-05 -.495E-03
   0.711E+00 -.949E-01 0.267E+00   -.692E+00 0.981E-01 0.241E+00   0.561E-02 0.140E-02 0.191E+00   -.291E-04 -.293E-05 -.135E-02
   0.136E+00 -.408E-01 0.254E+01   -.144E+00 0.433E-01 -.322E+01   -.320E-02 -.165E-02 -.115E+00   0.258E-04 -.174E-04 -.140E-02
   -.304E+00 -.401E+01 -.479E+03   0.298E+00 0.407E+01 0.480E+03   0.150E-01 -.205E-01 -.185E+00   0.658E-04 -.619E-04 -.169E-02
[...]
   -.255E+02 0.246E-01 0.750E+03   0.299E+02 -.256E-01 -.750E+03   -.332E+01 0.106E-02 0.183E+00   0.106E-04 0.611E-05 -.746E-03
   0.256E+02 0.359E-01 0.750E+03   -.300E+02 -.369E-01 -.750E+03   0.333E+01 0.131E-02 0.191E+00   0.913E-05 0.612E-05 -.729E-03
   0.361E+00 0.294E-01 0.317E+03   -.342E+00 -.301E-01 -.322E+03   -.222E-01 0.128E-02 0.396E+01   -.138E-04 0.146E-04 -.161E-02
   0.166E+01 0.168E+00 -.321E+03   -.162E+01 -.170E+00 0.329E+03   -.455E-01 0.932E-04 -.667E+01   -.481E-04 0.383E-04 -.236E-02
   -.246E+02 -.688E-01 0.365E+01   0.298E+02 0.631E-01 -.383E+01   -.482E+01 0.249E-01 0.225E+00   0.405E-04 0.214E-04 -.209E-02
   0.253E+02 -.135E+00 0.328E+01   -.304E+02 0.127E+00 -.344E+01   0.487E+01 0.282E-01 0.216E+00   0.170E-04 0.255E-04 -.211E-02
   0.528E+00 0.141E+00 -.416E+03   -.497E+00 -.236E+00 0.408E+03   -.259E-01 0.827E-01 0.658E+01   0.478E-04 0.575E-04 -.266E-02
   0.904E+01 -.102E+01 -.103E+04   -.955E+01 0.106E+01 0.103E+04   0.444E+00 -.357E-01 -.181E+01   0.733E-04 0.694E-04 -.202E-02
   -.702E+01 0.213E+01 -.731E+03   0.105E+02 -.233E+01 0.730E+03   -.307E+01 0.168E+00 0.100E+01   -.551E-04 0.345E-04 -.223E-02
   0.968E+01 0.290E+01 -.730E+03   -.130E+02 -.295E+01 0.730E+03   0.291E+01 0.397E-01 0.603E+00   0.185E-04 -.223E-04 -.230E-02
   0.143E+02 -.570E+00 -.115E+04   -.143E+02 0.562E+00 0.115E+04   -.134E-01 0.739E-02 -.193E+01   -.242E-03 0.969E-04 -.152E-02
   0.380E+02 0.857E+00 -.168E+04   -.379E+02 -.930E+00 0.170E+04   -.516E-01 0.631E-01 -.197E+02   -.788E-05 0.612E-04 0.167E-03
   -.150E+02 0.474E+02 -.141E+04   0.217E+02 -.475E+02 0.141E+04   -.577E+01 -.288E-04 -.707E+00   -.163E-03 -.922E-05 -.505E-03
   0.325E+02 0.322E+02 -.146E+04   -.392E+02 -.319E+02 0.146E+04   0.586E+01 -.186E+00 -.320E+01   -.948E-04 0.112E-04 -.690E-03
   -.112E+02 -.260E+02 0.841E+02   0.129E-11 -.590E-12 -.264E-10   0.939E+01 0.223E+02 -.782E+02   -.310E-02 0.154E-03 -.225E+00

 POSITION                                       TOTAL-FORCE (eV/Angst)
      6.55620      6.45847     22.86814         0.002049     -0.002687      0.004608
      7.90877      5.85195     22.29350         0.004495     -0.002265      0.002536
      6.92342      5.79842     22.27186        -0.000730     -0.003361      0.002232
      9.67012      7.35119      7.25944        -0.002175      0.000364     -4.002615
      0.00000      8.82143      7.25944         0.001438      0.000613      3.054290
      0.00000      7.35119     10.48281         0.006238     -0.000068      0.579819
      9.67012      8.82143     10.48281        -0.007940      0.000768     -0.863733
      9.67012      7.35119     13.70619        -0.040515     -0.023491      0.667533
      0.00000      8.82143     13.70619         0.016915      0.001377     -0.746730
      0.00435      7.35158     16.87600        -0.000071      0.001812     -0.001955
      9.67478      8.82290     17.04231        -0.000883      0.000293     -0.000418
      9.68179      7.36278     20.34795        -0.000132      0.003333     -0.003739
     12.89225      8.82317     20.04259         0.001111     -0.000681      0.000155
      9.67012     10.29167      7.25944        -0.002435      0.001321     -4.003330
      0.00000      0.00000      7.25944         0.001404      0.000362      3.053497
      0.00000     10.29167     10.48281         0.006023     -0.000094      0.579722
      9.67012      0.00000     10.48281        -0.008391     -0.000118     -0.863779
      9.67012     10.29167     13.70619        -0.028532      0.033102      0.674972
      0.00000      0.00000     13.70619         0.016225     -0.000129     -0.743324
      0.00009     10.29182     16.87775         0.000246      0.001295     -0.001240
      9.66495      0.00020     17.05159         0.003391      0.000061     -0.000965
      9.66747     10.29367     20.37822         0.001078     -0.000474      0.000489
      0.00060     11.76147     20.04158         0.001833      0.000350     -0.001251
      9.67012      1.47024      7.25944        -0.002486     -0.000468     -4.003843
      0.00000      2.94048      7.25944         0.001446     -0.000624      3.053710
      0.00000      1.47024     10.48281         0.006073      0.000072      0.579583
      9.67012      2.94048     10.48281        -0.007706     -0.000761     -0.863621
      9.67012      1.47024     13.70619        -0.028301     -0.031059      0.676356
      0.00000      2.94048     13.70619         0.017716     -0.000822     -0.746596
     -0.00068      1.46983     16.87760         0.000072     -0.001514     -0.001902
      9.67200      2.93897     17.04316        -0.000772     -0.000055     -0.001492
      9.66562      1.46536     20.37859         0.001889      0.002122      0.000335
     12.89215      2.93798     20.04242         0.000418      0.001488      0.000478
      9.67012      4.41072      7.25944        -0.002225     -0.001238     -4.003134
      0.00000      5.88095      7.25944         0.001510     -0.000374      3.054508
      0.00000      4.41072     10.48281         0.006299      0.000076      0.579703
      9.67012      5.88095     10.48281        -0.007386      0.000076     -0.863445
      9.67012      4.41072     13.70619        -0.041515      0.021336      0.669508
      0.00000      5.88095     13.70619         0.017078     -0.000491     -0.749025
      0.00314      4.41047     16.87602        -0.000182     -0.001302     -0.001565
      9.68039      5.88079     17.04879         0.002957      0.000075     -0.003052
      9.68572      4.39647     20.35158         0.000203     -0.003196     -0.003312
      0.01217      5.88169     20.04036         0.001522     -0.000290      0.000710
      3.22337      7.35119      7.25944         0.001862      0.000138     -4.000561
      6.44675      8.82143      7.25944        -0.001764      0.001117      3.062177
      6.44675      7.35119     10.48281        -0.006325      0.010689      0.601693
      3.22337      8.82143     10.48281         0.007465      0.000402     -0.845154
      3.22337      7.35119     13.70619         0.039220     -0.014392      0.728180
      6.44675      8.82143     13.70619        -0.013758     -0.050669     -0.609323
      6.45098      7.32538     16.91233        -0.000466      0.004737     -0.001457
      3.22798      8.82060     17.05199        -0.000134     -0.001254     -0.001818
      3.23205      7.35345     20.38029        -0.000878     -0.003560     -0.001266
      6.44770      8.82741     20.00611         0.001642      0.000854      0.001206
      3.22337     10.29167      7.25944         0.002143      0.001088     -4.001324
      6.44675      0.00000      7.25944        -0.001685      0.000486      3.061267
      6.44675     10.29167     10.48281        -0.006073      0.001520      0.605119
      3.22337      0.00000     10.48281         0.007853     -0.000014     -0.846090
      3.22337     10.29167     13.70619         0.025126      0.005006      0.721771
      6.44675      0.00000     13.70619        -0.011410      0.000822     -0.826090
      6.44262     10.28206     16.84720         0.001408     -0.003155     -0.001193
[...]
      6.44675      5.88095     11.74226         0.002188     -0.000647     -0.067031
      4.48281      4.41072     10.48281         0.544681      0.000339      0.056939
      8.41068      4.41072     10.48281        -0.537988      0.000555      0.059275
      3.22337      5.88095     12.44675        -0.006878      0.000836     -0.162672
      3.22337      5.88095     14.96563        -0.017399     -0.001004      0.220550
      7.70619      4.41072     13.70619        -0.400981      0.023635      0.077375
      5.18731      4.41072     13.70619         0.433061      0.025386      0.078868
      6.45020      5.87885     15.69697         0.001015     -0.000626      0.007710
      6.43530      5.88506     18.25183        -0.002218      0.000521     -0.005153
      4.50485      4.41078     16.95916         0.001836     -0.001595      0.000078
      8.38966      4.41114     16.97274        -0.001013      0.001076      0.002690
      3.22337      5.88576     18.92168        -0.002864     -0.000228     -0.000054
      3.23977      5.88077     21.46760         0.003646     -0.000061     -0.001405
      7.68768      4.36965     20.22113         0.005584     -0.000720     -0.001893
      5.24349      4.39995     20.33352         0.000232      0.000184      0.000330
    total drift:                                0.035198      0.001728      0.067992

  FREE ENERGIE OF THE ION-ELECTRON SYSTEM (eV)
  free  energy   TOTEN  =     -2637.07569392 eV

  energy  without entropy=    -2637.07569392  energy(sigma->0) =    -2637.07569392

 d Force = 0.3235328E-04[ 0.223E-04, 0.424E-04]  d Energy = 0.3347458E-04-0.112E-05
 d Force = 0.1376500E+01[ 0.138E+01, 0.138E+01]  d Ewald  = 0.1376500E+01-0.322E-07

 Conjugate gradient step on ions:
 trial-energy change:   -0.000033  1 .order   -0.000032   -0.000042   -0.000022
  (g-gl).g = 0.109E-03      g.g   = 0.113E-03  gl.gl    = 0.118E-03
 g(Force)  = 0.113E-03   g(Stress)= 0.000E+00 ortho     =-0.245E-05
 gamma     =   0.92142
 trial     =   0.38425
 opt step  =   0.65625  (harmonic =   0.81213) maximal distance =0.00108112
 next E    = -2637.075702   (d E  =  -0.00004)

 reached required accuracy - stopping structural energy minimisation