 vasp.6.4.2 20Jul23 (build Feb 22 2024 13:53:45) complex
 executed on              LinuxNV date 2024.08.27  18:13:44
 OpenACC runtime initialized ...    4 GPUs detected

 INCAR:
   SYSTEM = Oxide-Surface
   ISMEAR = 0
   SIGMA = 0.05
   EDIFF = 1E-5
   ALGO = Normal
   IBRION = -1
   NSW = 0
   ISYM = 0
   DIPOL = 0.5 0.5 0.5
   IDIPOL = 3
   LDIPOL = .TRUE.
   ISTART = 1
   METAGGA = SCAN
   LUSE_VDW = .TRUE.
   BPARAM = 15.7
   CPARAM = 0.0093
   ENCUT = 1000
   PREC = Normal
   PRECFOCK = Normal
   LASPH = .TRUE.
   LREAL = Auto
   ISPIN = 1
   NELM = 200
   NELMIN = 8
   NCORE = 1
   KPAR = 1
   LWAVE = .FALSE.
   LCHARG = .FALSE.

 POTCAR:    PAW_PBE C_h 06Feb2004
 POTCAR:    PAW_PBE O_h 06Feb2004
 POTCAR:    PAW_PBE Mg_sv 12Apr2007
 POTCAR:    PAW_PBE O_h 06Feb2004
|               ----> ADVICE to this user running VASP <----                  |
|     You have switched on vdW-DFT.                                           |
|     This routine was written and supplied by Jiri Klimes. We recommend      |
|     that you carefully read and cite the following publications:            |
|       J. Klimes, D.R. Bowler, A. Michelides                                 |
|          J. Phys.: Cond Matt. 22 022201 (2010)                              |
|       J. Klimes, D.R. Bowler, A. Michelides                                 |
|          Phys. Rev. B. 83, 195131 (2011)                                    |
|     and references therein.                                                 |

   TITEL  = PAW_PBE C_h 06Feb2004
   POMASS =   12.011; ZVAL   =    4.000    mass and valenz
   ENMAX  =  700.000; ENMIN  =  500.000 eV

[...]

   TITEL  = PAW_PBE Mg_sv 12Apr2007
   POMASS =   24.305; ZVAL   =   10.000    mass and valenz
   ENMAX  =  495.223; ENMIN  =  371.417 eV

   TITEL  = PAW_PBE O_h 06Feb2004
   POMASS =   16.000; ZVAL   =    6.000    mass and valenz
   ENMAX  =  700.000; ENMIN  =  500.000 eV

 Optimization of the real space projectors (new method)

 maximal supplied QI-value         = 34.20
 optimisation between [QCUT,QGAM] = [ 16.08, 32.15] = [ 72.37,289.48] Ry
 Optimized for a Real-space Cutoff    0.71 Angstroem

   l    n(q)    QCUT    max X(q) W(low)/X(q) W(high)/X(q)  e(spline)
   0      7    16.076   134.812    0.49E-03    0.92E-03    0.59E-07
   0      7    16.076    80.524    0.48E-03    0.91E-03    0.58E-07
   1      6    16.076    79.026    0.37E-03    0.58E-03    0.12E-06
   1      6    16.076    45.188    0.36E-03    0.56E-03    0.12E-06
 Optimization of the real space projectors (new method)

[...]

   l    n(q)    QCUT    max X(q) W(low)/X(q) W(high)/X(q)  e(spline)
   0      9    16.140     8.730    0.14E-04    0.12E-04    0.27E-07
   0      9    16.140     8.910    0.19E-04    0.17E-04    0.41E-07
   1      9    16.140     2.513    0.16E-04    0.28E-04    0.54E-07
   1      9    16.140     3.341    0.27E-04    0.13E-03    0.17E-06
   2      9    16.140     3.683    0.18E-03    0.21E-03    0.81E-07
 Optimization of the real space projectors (new method)

 maximal supplied QI-value         = 34.20
 optimisation between [QCUT,QGAM] = [ 16.08, 32.15] = [ 72.37,289.48] Ry
 Optimized for a Real-space Cutoff    0.71 Angstroem

   l    n(q)    QCUT    max X(q) W(low)/X(q) W(high)/X(q)  e(spline)
   0      7    16.076   280.207    0.42E-03    0.69E-03    0.60E-07
   0      7    16.076   228.978    0.42E-03    0.69E-03    0.61E-07
   1      6    16.076    86.127    0.11E-03    0.66E-03    0.10E-06
   1      6    16.076    65.368    0.11E-03    0.65E-03    0.10E-06
  PAW_PBE C_h 06Feb2004                 :
  PAW_PBE O_h 06Feb2004                 :
  PAW_PBE Mg_sv 12Apr2007               :
  PAW_PBE O_h 06Feb2004                 :

 POSCAR:  C  O Mg  O
  positions in direct lattice

 METAGGA = SCAN                                        LMAXTAU =  6    LMIXTAU =  F

 ion  position               nearest neighbor table
   1  0.500  0.750  0.719-   3 1.26   2 1.26  56 1.47
   2  0.500  0.887  0.748-   1 1.26
   3  0.500  0.613  0.748-   1 1.26
   4  0.000  0.750  0.252-
   5  0.250  0.000  0.252-
   6  0.000  0.000  0.376-
   7  0.250  0.750  0.376-
   8  1.000  0.750  0.499-
   9  0.252  0.001  0.502-
  10  0.000  0.003  0.624-
  11  0.237  0.750  0.623-  40 2.00
  12  0.000  0.250  0.252-
  13  0.250  0.500  0.252-
  14  0.000  0.500  0.376-
  15  0.250  0.250  0.376-
  16  0.000  0.250  0.500-
  17  0.252  0.500  0.502-
  18  0.000  0.498  0.624-
  19  0.248  0.250  0.625-
  20  0.500  0.750  0.252-
  21  0.750  0.000  0.252-
  22  0.500  0.000  0.376-
  23  0.750  0.750  0.376-
  24  0.500  0.750  0.498-
  25  0.748  0.001  0.502-
  26  0.500  0.011  0.636-  64 2.02
  27  0.763  0.750  0.623-  40 2.00
  28  0.500  0.250  0.252-
  29  0.750  0.500  0.252-
  30  0.500  0.500  0.376-
  31  0.750  0.250  0.376-
  32  0.500  0.250  0.502-
  33  0.748  0.500  0.502-
  34  0.500  0.489  0.636-  64 2.02
  35  0.752  0.250  0.625-
  36  0.000  0.750  0.376-
  37  0.250  0.000  0.376-
  38  0.000  0.000  0.252-
  39  0.250  0.750  0.252-
  40  0.000  0.750  0.626-  11 2.00  27 2.00
  41  0.248  0.999  0.626-
  42  0.000  1.000  0.500-
  43  0.252  0.750  0.501-
  44  0.000  0.250  0.376-
  45  0.250  0.500  0.376-
  46  0.000  0.500  0.252-
  47  0.250  0.250  0.252-
  48  0.000  0.250  0.626-
  49  0.248  0.502  0.626-
  50  0.000  0.501  0.500-
  51  0.251  0.250  0.501-
  52  0.500  0.750  0.376-
  53  0.750  0.000  0.376-
  54  0.500  0.000  0.252-
  55  0.750  0.750  0.252-
  56  0.500  0.750  0.633-   1 1.47
  57  0.752  0.999  0.626-
  58  0.500  0.998  0.502-
  59  0.748  0.750  0.501-
  60  0.500  0.250  0.376-
  61  0.750  0.500  0.376-
  62  0.500  0.500  0.252-
  63  0.750  0.250  0.252-
  64  0.500  0.250  0.628-  26 2.02  34 2.02
  65  0.752  0.502  0.626-
  66  0.500  0.503  0.502-
  67  0.749  0.250  0.501-

IMPORTANT INFORMATION: All symmetrisations will be switched off!
NOSYMM: (Re-)initialisation of all symmetry stuff for point group C_1.

                                     Primitive cell

  volume of cell :    1211.2538

  direct lattice vectors                    reciprocal lattice vectors
     8.440984654  0.000000000  0.000000000     0.118469591  0.000000000  0.000000000
     0.000000000  8.440984654  0.000000000     0.000000000  0.118469591  0.000000000
     0.000000000  0.000000000 17.000000000     0.000000000  0.000000000  0.058823529

  length of vectors
     8.440984654  8.440984654 17.000000000     0.118469591  0.118469591  0.058823529

  position of ions in fractional coordinates (direct lattice)
     0.500000012  0.750264058  0.719050453
     0.500000066  0.887195294  0.748143164
     0.500000015  0.613356952  0.748141716
     0.000000012  0.750271483  0.251856836
     0.250000012  0.000271483  0.251856836
     0.000000012  0.000271483  0.375988963
     0.250000012  0.750271483  0.375988963
     0.999999988  0.750271429  0.499368462
     0.252039891  0.001028111  0.501782346
     0.000000034  0.002582678  0.624444171
     0.237174200  0.750271417  0.622958809
     0.000000012  0.250271483  0.251856836
     0.250000012  0.500271483  0.251856836
     0.000000012  0.500271483  0.375988963
     0.250000012  0.250271483  0.375988963
     0.000000025  0.250271481  0.500321386
     0.252039913  0.499514860  0.501782439
     0.000000033  0.497960304  0.624444240
     0.247666331  0.250271551  0.624926941
     0.500000012  0.750271483  0.251856836
     0.750000012  0.000271483  0.251856836
     0.500000012  0.000271483  0.375988963
     0.750000012  0.750271483  0.375988963
     0.500000031  0.750271498  0.497974947
     0.747960134  0.001028090  0.501782397
     0.500000002  0.011479476  0.636458488
     0.762825859  0.750271422  0.622958927
     0.500000012  0.250271483  0.251856836
     0.750000012  0.500271483  0.251856836
     0.500000012  0.500271483  0.375988963
     0.750000012  0.250271483  0.375988963
     0.500000005  0.250271518  0.502223723
     0.747960113  0.499514886  0.501782491
     0.500000001  0.489064058  0.636458884
     0.752333702  0.250271549  0.624926893
     0.000000012  0.750271483  0.375988963
     0.250000012  0.000271483  0.375988963
     0.000000012  0.000271483  0.251856836
     0.250000012  0.750271483  0.251856836
     0.000000034  0.750271519  0.625525054
     0.248158668  0.998774097  0.625931889
     0.000000015  0.999728517  0.499971061
     0.252314560  0.750271518  0.501128046
     0.000000012  0.250271483  0.375988963
     0.250000012  0.500271483  0.375988963
     0.000000012  0.500271483  0.251856836
     0.250000012  0.250271483  0.251856836
     0.000000017  0.250271467  0.626441503
     0.248158646  0.501768877  0.625931815
     0.000000014  0.500814411  0.499971054
     0.250533599  0.250271460  0.500674415
     0.500000012  0.750271483  0.375988963
     0.750000012  0.000271483  0.375988963
     0.500000012  0.000271483  0.251856836
     0.750000012  0.750271483  0.251856836
     0.499999972  0.750272301  0.632609027
     0.751841373  0.998774078  0.625931895
     0.500000008  0.997971315  0.502167211
     0.747685467  0.750271518  0.501128092
     0.500000012  0.250271483  0.375988963
     0.750000012  0.500271483  0.375988963
     0.500000012  0.500271483  0.251856836
     0.750000012  0.250271483  0.251856836
     0.500000019  0.250271401  0.628355073
     0.751841390  0.501768901  0.625931830
     0.500000009  0.502571702  0.502167205
     0.749466433  0.250271458  0.500674433

  ion indices of the primitive-cell ions
   primitive index   ion index
                 1           1
                 2           2
                 3           3
                 4           4
                 5           5
                 6           6
                 7           7
                 8           8
                 9           9
                10          10
                11          11
                12          12
                13          13
                14          14
                15          15
                16          16
                17          17
                18          18
                19          19
                20          20
                21          21
                22          22
                23          23
                24          24
                25          25
                26          26
                27          27
                28          28
                29          29
                30          30
                31          31
                32          32
                33          33
                34          34
                35          35
                36          36
                37          37
                38          38
                39          39
                40          40
                41          41
                42          42
                43          43
                44          44
                45          45
                46          46
                47          47
                48          48
                49          49
                50          50
                51          51
                52          52
                53          53
                54          54
[...]
   6.32623466  2.11253754  8.51146535

--------------------------------------- Iteration      FINAL  ---------------------------------------

--------------------OUTCAR has been truncated-------------------------

[...]

--------------------OUTCAR has been truncated-------------------------

  FORCE on cell =-STRESS in cart. coord.  units (eV):
  Direction    XX          YY          ZZ          XY          YZ          ZX
  Alpha Z  1248.31882  1248.31882  1248.31882
  Ewald  107229.64142108137.04893************     0.00010    -0.02651    -0.00000
  Hartree124363.05326124898.53976************     0.00004    -0.00043     0.00026
  E(xc)   -3525.21667 -3525.15811 -3524.14737     0.00001     0.00055     0.00017
  Local  ************************241026.14208    -0.00015     0.00161    -0.00077
  n-local -5570.30916 -5567.26069 -5571.76910    -0.00001     0.01033    -0.00046
  augment   824.16947   823.84554   817.54333     0.00003    -0.05170    -0.00039
  Kinetic 12954.07147 12909.54583 12955.62472    -0.00000     0.03670     0.00064
  Fock        0.00000     0.00000     0.00000     0.00000     0.00000     0.00000
  Total     -40.49015   -45.88738   -14.85656     0.00003    -0.02945    -0.00055
  in kB     -53.55806   -60.69720   -19.65141     0.00004    -0.03895    -0.00073

 VOLUME and BASIS-vectors are now :
  energy-cutoff  :     1000.00
  volume of cell :     1211.25
      direct lattice vectors                 reciprocal lattice vectors
     8.440984654  0.000000000  0.000000000     0.118469591  0.000000000  0.000000000
     0.000000000  8.440984654  0.000000000     0.000000000  0.118469591  0.000000000
     0.000000000  0.000000000 17.000000000     0.000000000  0.000000000  0.058823529

  length of vectors
     8.440984654  8.440984654 17.000000000     0.118469591  0.118469591  0.058823529

 FORCES acting on ions
    electron-ion (+dipol)            ewald-force                    non-local-force                 convergence-correction
   -.646E-02 -.589E-01 -.968E+03   -.119E-03 0.585E-01 0.976E+03   0.688E-02 0.506E-02 -.711E+01   0.570E-07 0.993E-05 0.448E-03
   -.141E-02 -.214E+03 -.155E+04   0.723E-04 0.256E+03 0.158E+04   0.867E-03 -.429E+02 -.279E+02   0.315E-05 -.493E-03 0.105E-02
   -.131E-02 0.214E+03 -.155E+04   -.511E-04 -.256E+03 0.158E+04   0.953E-03 0.429E+02 -.279E+02   -.199E-05 0.505E-03 0.106E-02
   0.325E-04 -.732E-02 0.245E+04   -.208E-04 -.334E-04 -.244E+04   0.421E-04 0.601E-01 -.945E+01   -.515E-05 -.142E-04 -.250E-02
   0.579E+00 -.146E+01 0.245E+04   -.571E+00 0.149E+01 -.244E+04   -.683E-02 0.265E-01 -.962E+01   -.325E-04 0.396E-04 -.247E-02
   0.101E-03 -.337E+01 0.863E+03   -.101E-03 0.356E+01 -.863E+03   0.423E-04 -.141E+00 0.185E+00   -.393E-05 0.520E-05 -.377E-02
   0.305E+01 0.261E-02 0.863E+03   -.311E+01 -.164E-03 -.865E+03   0.392E-01 0.384E-02 0.105E+01   0.372E-04 -.170E-04 -.372E-02
   0.292E-04 0.790E-02 -.692E+03   -.562E-04 0.545E-04 0.692E+03   0.445E-03 -.231E-01 0.581E-01   0.163E-05 0.466E-05 -.399E-02
   0.341E+01 -.916E+01 -.717E+03   -.262E+01 0.948E+01 0.719E+03   -.744E+00 -.377E+00 -.165E+01   0.103E-03 -.359E-04 -.386E-02
   0.350E-03 -.228E+02 -.235E+04   0.848E-05 0.238E+02 0.234E+04   -.444E-04 -.109E+01 0.823E+01   0.406E-05 -.743E-04 -.236E-02
   0.517E+02 -.785E-02 -.223E+04   -.593E+02 0.116E-02 0.222E+04   0.745E+01 0.528E-01 0.918E+01   0.360E-03 0.128E-04 -.223E-02
   0.183E-04 -.725E-02 0.245E+04   -.216E-04 0.344E-04 -.244E+04   0.416E-04 0.589E-01 -.960E+01   -.630E-05 0.979E-05 -.255E-02
   0.579E+00 0.144E+01 0.245E+04   -.571E+00 -.149E+01 -.244E+04   -.679E-02 0.909E-01 -.962E+01   -.387E-04 -.381E-04 -.247E-02
   0.993E-04 0.337E+01 0.863E+03   -.104E-03 -.356E+01 -.863E+03   0.329E-04 0.153E+00 0.188E+00   -.167E-05 -.156E-04 -.380E-02
   -.198E+01 0.191E-02 0.859E+03   0.208E+01 0.171E-03 -.859E+03   -.760E-01 0.276E-02 0.569E+00   0.167E-04 -.546E-05 -.379E-02
   0.766E-04 0.631E-02 -.721E+03   -.615E-04 0.424E-04 0.721E+03   -.166E-04 -.483E-01 -.214E+00   0.165E-05 -.116E-05 -.412E-02
   0.341E+01 0.917E+01 -.717E+03   -.262E+01 -.948E+01 0.719E+03   -.767E+00 0.317E+00 -.165E+01   0.972E-04 0.417E-04 -.386E-02
   0.365E-03 0.228E+02 -.235E+04   -.682E-05 -.238E+02 0.234E+04   -.120E-03 0.919E+00 0.821E+01   -.163E-05 0.763E-04 -.238E-02
   0.372E+02 0.338E-02 -.233E+04   -.383E+02 0.405E-04 0.232E+04   0.103E+01 -.329E-01 0.825E+01   0.120E-03 -.956E-05 -.238E-02
   -.300E-04 -.730E-02 0.245E+04   0.211E-04 -.406E-04 -.244E+04   -.577E-04 0.601E-01 -.936E+01   0.259E-05 -.676E-05 -.238E-02
   -.579E+00 -.146E+01 0.245E+04   0.571E+00 0.149E+01 -.244E+04   0.686E-02 0.265E-01 -.962E+01   0.349E-04 0.385E-04 -.247E-02
   -.109E-03 -.839E+01 0.857E+03   0.104E-03 0.874E+01 -.858E+03   -.213E-04 -.259E+00 0.846E+00   0.170E-05 -.236E-04 -.375E-02
   -.305E+01 0.260E-02 0.863E+03   0.311E+01 -.166E-03 -.865E+03   -.391E-01 0.393E-02 0.105E+01   -.340E-04 -.147E-04 -.374E-02
   -.544E-04 -.112E-01 -.706E+03   0.818E-04 -.288E-03 0.700E+03   -.367E-04 0.779E-01 0.652E+01   -.235E-05 0.216E-05 -.375E-02
   -.341E+01 -.916E+01 -.717E+03   0.262E+01 0.948E+01 0.719E+03   0.744E+00 -.377E+00 -.165E+01   -.102E-03 -.359E-04 -.387E-02
   0.162E-03 -.970E+02 -.222E+04   -.118E-04 0.101E+03 0.221E+04   -.402E-03 -.442E+01 0.181E+01   -.292E-05 -.398E-03 -.177E-02
   -.517E+02 -.783E-02 -.223E+04   0.593E+02 0.114E-02 0.222E+04   -.745E+01 0.528E-01 0.918E+01   -.356E-03 0.698E-05 -.222E-02
   -.172E-04 -.718E-02 0.245E+04   0.217E-04 0.407E-04 -.244E+04   -.164E-04 0.584E-01 -.962E+01   0.322E-06 0.457E-05 -.244E-02
   -.579E+00 0.144E+01 0.245E+04   0.571E+00 -.149E+01 -.244E+04   0.677E-02 0.908E-01 -.962E+01   0.434E-04 -.374E-04 -.246E-02
   -.110E-03 0.839E+01 0.857E+03   0.108E-03 -.874E+01 -.858E+03   0.367E-04 0.263E+00 0.851E+00   0.172E-05 0.809E-05 -.378E-02
   0.198E+01 0.191E-02 0.859E+03   -.208E+01 0.177E-03 -.859E+03   0.760E-01 0.277E-02 0.569E+00   -.157E-04 -.582E-05 -.379E-02
   -.591E-04 -.398E-02 -.724E+03   0.655E-04 0.571E-03 0.725E+03   -.151E-03 0.195E-01 -.446E+00   -.400E-06 -.126E-04 -.395E-02
   -.341E+01 0.917E+01 -.717E+03   0.262E+01 -.948E+01 0.719E+03   0.767E+00 0.317E+00 -.165E+01   -.977E-04 0.411E-04 -.386E-02
   0.111E-03 0.970E+02 -.222E+04   0.145E-04 -.101E+03 0.221E+04   -.239E-03 0.443E+01 0.180E+01   0.432E-06 0.395E-03 -.179E-02
   -.372E+02 0.335E-02 -.233E+04   0.383E+02 0.683E-04 0.232E+04   -.103E+01 -.330E-01 0.825E+01   -.120E-03 -.684E-05 -.236E-02
   -.266E-03 0.497E-02 0.521E+03   -.429E-04 -.370E-04 -.522E+03   0.512E-03 -.899E-02 0.292E+00   -.431E-05 -.500E-05 -.216E-02
   0.137E+00 -.217E+01 0.514E+03   -.287E+00 0.230E+01 -.513E+03   0.188E+00 -.180E+00 -.312E+00   0.117E-04 -.855E-05 -.216E-02
   0.666E-04 -.689E+00 0.149E+04   -.130E-04 0.732E+00 -.149E+04   -.853E-04 -.557E-01 0.246E+01   -.329E-05 0.272E-04 -.146E-02
   0.553E+00 -.107E-02 0.149E+04   -.560E+00 -.235E-04 -.149E+04   0.924E-02 0.263E-02 0.256E+01   -.148E-04 -.459E-05 -.137E-02
   -.767E-04 0.477E-02 -.142E+04   0.491E-04 0.176E-03 0.143E+04   0.839E-04 -.138E-01 -.475E+01   -.214E-05 0.262E-05 -.146E-02
   0.342E+02 -.268E+02 -.139E+04   -.334E+02 0.270E+02 0.139E+04   -.856E+00 -.104E+00 -.479E+01   0.147E-03 -.117E-03 -.135E-02
   0.371E-03 -.611E+01 -.424E+03   -.435E-04 0.619E+01 0.424E+03   -.496E-03 -.812E-01 0.875E-01   -.190E-06 -.254E-04 -.233E-02
   0.118E+01 -.227E-02 -.418E+03   -.145E+01 -.388E-04 0.417E+03   0.238E+00 0.340E-03 0.812E+00   0.711E-04 0.357E-05 -.225E-02
   -.140E-04 0.436E-02 0.517E+03   -.557E-04 0.585E-04 -.516E+03   0.120E-03 -.817E-02 -.123E+00   -.161E-05 0.690E-06 -.220E-02
   0.137E+00 0.218E+01 0.514E+03   -.287E+00 -.230E+01 -.513E+03   0.188E+00 0.161E+00 -.312E+00   0.998E-05 0.357E-05 -.217E-02
   0.628E-04 0.688E+00 0.149E+04   -.133E-04 -.732E+00 -.149E+04   -.783E-04 0.566E-01 0.246E+01   0.146E-05 -.233E-04 -.142E-02
   0.154E+00 -.125E-02 0.148E+04   -.143E+00 0.237E-04 -.149E+04   -.135E-01 0.281E-02 0.244E+01   -.278E-04 0.267E-05 -.142E-02
   0.246E-03 0.474E-02 -.144E+04   -.213E-04 -.488E-04 0.144E+04   -.367E-03 -.135E-01 -.465E+01   -.567E-05 -.238E-05 -.148E-02
   0.342E+02 0.268E+02 -.139E+04   -.334E+02 -.270E+02 0.139E+04   -.859E+00 0.985E-01 -.479E+01   0.142E-03 0.114E-03 -.135E-02
   0.377E-03 0.612E+01 -.424E+03   -.466E-04 -.619E+01 0.424E+03   -.519E-03 0.576E-01 0.896E-01   0.286E-06 0.175E-04 -.233E-02
   0.229E+01 0.416E-02 -.426E+03   -.240E+01 0.110E-03 0.426E+03   0.111E+00 -.922E-02 0.318E+00   0.491E-04 -.428E-05 -.233E-02
   0.259E-03 0.493E-02 0.526E+03   0.472E-04 -.822E-04 -.527E+03   -.500E-03 -.885E-02 0.442E+00   0.123E-05 -.485E-05 -.214E-02
   -.137E+00 -.217E+01 0.514E+03   0.287E+00 0.230E+01 -.513E+03   -.188E+00 -.180E+00 -.312E+00   -.105E-04 -.921E-05 -.217E-02
   -.680E-04 -.109E+01 0.148E+04   0.131E-04 0.115E+01 -.149E+04   0.748E-04 -.791E-01 0.251E+01   0.179E-05 0.148E-04 -.136E-02
   -.553E+00 -.108E-02 0.149E+04   0.560E+00 -.237E-04 -.149E+04   -.922E-02 0.265E-02 0.256E+01   0.157E-04 0.204E-06 -.138E-02
   0.175E-03 0.216E-01 -.116E+04   -.903E-05 0.709E-02 0.113E+04   -.322E-03 -.393E-01 0.241E+02   -.205E-05 0.980E-05 -.583E-03
   -.342E+02 -.268E+02 -.139E+04   0.334E+02 0.270E+02 0.139E+04   0.855E+00 -.104E+00 -.479E+01   -.147E-03 -.115E-03 -.135E-02
   -.368E-03 -.702E+01 -.451E+03   0.441E-04 0.739E+01 0.453E+03   0.550E-03 -.341E+00 -.171E+01   0.201E-06 -.530E-04 -.224E-02
   -.118E+01 -.226E-02 -.418E+03   0.145E+01 -.395E-04 0.417E+03   -.238E+00 0.314E-03 0.812E+00   -.697E-04 0.551E-05 -.225E-02
   0.138E-04 0.365E-02 0.510E+03   0.554E-04 0.757E-04 -.510E+03   -.120E-03 -.720E-02 -.203E+00   0.182E-05 -.189E-05 -.215E-02
   -.137E+00 0.218E+01 0.514E+03   0.287E+00 -.230E+01 -.513E+03   -.188E+00 0.162E+00 -.312E+00   -.102E-04 0.320E-05 -.216E-02
   -.685E-04 0.109E+01 0.148E+04   0.134E-04 -.115E+01 -.149E+04   0.753E-04 0.801E-01 0.251E+01   -.296E-05 -.117E-04 -.137E-02
   -.154E+00 -.124E-02 0.148E+04   0.143E+00 0.240E-04 -.149E+04   0.135E-01 0.280E-02 0.244E+01   0.285E-04 -.292E-05 -.142E-02
   -.126E-03 -.604E-02 -.139E+04   0.196E-04 0.172E-02 0.139E+04   0.158E-03 -.159E-03 -.365E+01   0.333E-05 -.912E-05 -.137E-02
   -.342E+02 0.268E+02 -.139E+04   0.334E+02 -.270E+02 0.139E+04   0.858E+00 0.987E-01 -.479E+01   -.140E-03 0.109E-03 -.135E-02
   -.375E-03 0.703E+01 -.451E+03   0.510E-04 -.739E+01 0.453E+03   0.555E-03 0.339E+00 -.171E+01   -.151E-05 0.522E-04 -.224E-02
   -.229E+01 0.414E-02 -.426E+03   0.240E+01 0.128E-03 0.426E+03   -.111E+00 -.921E-02 0.318E+00   -.505E-04 -.615E-05 -.233E-02
   -.654E-02 0.344E-01 0.691E+02   0.000E+00 0.199E-12 0.165E-11   0.600E-02 0.111E+00 -.698E+02   -.327E-05 -.827E-04 -.153E+00

 POSITION                                       TOTAL-FORCE (eV/Angst)
      4.22049      6.33297     12.22386         0.000463      0.008794      0.450771
      4.22049      7.48880     12.71843        -0.000419     -1.310443     -0.829996
      4.22049      5.17734     12.71841        -0.000353      1.293068     -0.827130
      0.00000      6.33303      4.28157         0.000057      0.050551      0.446885
      2.11025      0.00229      4.28157         0.001548      0.058632      0.471876
      0.00000      0.00229      6.39181         0.000046      0.050947      0.072290
      2.11025      6.33303      6.39181        -0.023360      0.004100     -0.031125
      8.44098      6.33303      8.48926         0.000428     -0.017284     -0.056990
      2.12746      0.00868      8.53030         0.042839     -0.062982      0.060710
      0.00000      0.02180     10.61555         0.000326     -0.053881     -0.060577
      2.00198      6.33303     10.59030        -0.140356      0.043967     -0.097676
      0.00000      2.11254      4.28157         0.000040      0.049534      0.475413
      2.11025      4.22278      4.28157         0.001561      0.039810      0.472420
      0.00000      4.22278      6.39181         0.000035     -0.038785      0.074451
      2.11025      2.11254      6.39181         0.023470      0.002668      0.055634
      0.00000      2.11254      8.50546         0.000008     -0.044098      0.013518
      2.12747      4.21640      8.53030         0.018725      0.009156      0.059320
      0.00000      4.20328     10.61555         0.000245     -0.092431     -0.072428
      2.09055      2.11254     10.62376        -0.071406     -0.031701     -0.149877
      4.22049      6.33303      4.28157        -0.000056      0.050589      0.427928
      6.33074      0.00229      4.28157        -0.001502      0.058627      0.472076
      4.22049      0.00229      6.39181        -0.000016      0.092918      0.056423
      6.33074      6.33303      6.39181         0.023415      0.004181     -0.031162
      4.22049      6.33303      8.46557        -0.000004      0.064229      0.066472
      6.31352      0.00868      8.53030        -0.042780     -0.063002      0.060580
      4.22049      0.09690     10.81979        -0.000246     -0.043675      0.068728
      6.43900      6.33303     10.59030         0.140479      0.043986     -0.097746
      4.22049      2.11254      4.28157        -0.000004      0.049125      0.475976
      6.33074      4.22278      4.28157        -0.001564      0.039779      0.472316
      4.22049      4.22278      6.39181         0.000045     -0.088448      0.058082
      6.33074      2.11254      6.39181        -0.023469      0.002684      0.055586
      4.22049      2.11254      8.53780        -0.000137      0.013925      0.218567
      6.31352      4.21640      8.53030        -0.018625      0.009172      0.059213
      4.22049      4.12818     10.81980        -0.000105      0.044441      0.061407
      6.35044      2.11254     10.62376         0.071155     -0.031735     -0.149851
      0.00000      6.33303      6.39181         0.000241     -0.007690      0.032880
      2.11025      0.00229      6.39181         0.039167     -0.049693      0.040223
      0.00000      0.00229      4.28157        -0.000027     -0.016853     -0.316878
      2.11025      6.33303      4.28157         0.002305     -0.002000     -0.297650
      0.00000      6.33303     10.63393        -0.000054     -0.011758     -0.175334
      2.09470      8.43064     10.64084        -0.008890     -0.001504     -0.191495
      0.00000      8.43869      8.49951        -0.000207     -0.008308      0.024840
      2.12978      6.33303      8.51918        -0.029161      0.001663      0.006360
      0.00000      2.11254      6.39181         0.000059     -0.007368     -0.006102
      2.11025      4.22278      6.39181         0.039143      0.034014      0.040002
      0.00000      4.22278      4.28157        -0.000018      0.009114     -0.316938
      2.11025      2.11254      4.28157        -0.003149     -0.001899     -0.324929
      0.00000      2.11254     10.64951        -0.000181     -0.012387     -0.209795
      2.09470      4.23542     10.64084        -0.013517     -0.007262     -0.186618
      0.00000      4.22737      8.49951        -0.000230     -0.008725      0.026383
      2.11475      2.11254      8.51147        -0.003851     -0.007334      0.017456
      4.22049      6.33303      6.39181        -0.000206     -0.007806     -0.035311
      6.33074      0.00229      6.39181        -0.039162     -0.049716      0.040065
      4.22049      0.00229      4.28157         0.000031     -0.022328     -0.304464
      6.33074      6.33303      4.28157        -0.002273     -0.001983     -0.297567
      4.22049      6.33304     10.75435        -0.000041     -0.041047      0.629041
      6.34628      8.43064     10.64084         0.008610     -0.001550     -0.191333
      4.22049      8.42386      8.53684         0.000288      0.029864     -0.008086
      6.31120      6.33303      8.51918         0.029206      0.001642      0.006188
      4.22049      2.11254      6.39181        -0.000046     -0.006821      0.097088
      6.33074      4.22278      6.39181        -0.039120      0.034022      0.039980
      4.22049      4.22278      4.28157         0.000024      0.014732     -0.304549
      6.33074      2.11254      4.28157         0.003160     -0.001906     -0.324903
      4.22049      2.11254     10.68204         0.000096     -0.003526     -0.135236
      6.34628      4.23542     10.64084         0.013195     -0.007232     -0.186541
      4.22049      4.24220      8.53684         0.000287     -0.037451     -0.006317
      6.32623      2.11254      8.51147         0.003839     -0.007322      0.017456
    total drift:                               -0.000536      0.145216     -0.868414

  FREE ENERGIE OF THE ION-ELECTRON SYSTEM (eV)
  free  energy   TOTEN  =      -558.14653664 eV

  energy  without entropy=     -558.14653664  energy(sigma->0) =     -558.14653664