 vasp.6.3.0 20Jan22 (build Dec 25 2023 18:06:01) complex
 executed on        HPECrayEX_GCC date 2025.03.09  14:13:30

 INCAR:
   SYSTEM = NaCl
   ISMEAR = 0
   SIGMA = 0.05
   EDIFF = 1E-7
   ALGO = Normal
   ISTART = 0
   IBRION = -1
   NSW = 0
   ISYM = 2
   ISIF = 2
   DIPOL = 0.5 0.5 0.5
   IDIPOL = 3
   LDIPOL = .TRUE.
   GGA = RE
   IVDW = 13
   VDW_S8 = 1.7468
   VDW_A1 = 0.5363
   VDW_A2 = 3.0726
   ENCUT = 600
   PREC = Accurate
   LASPH = .TRUE.
   LREAL = .FALSE.
   ISPIN = 1
   NELM = 200
   NELMIN = 8
   NCORE = 64
   KPAR = 2
   LWAVE = .FALSE.
   LCHARG = .FALSE.

 POTCAR:    PAW_PBE Na_pv 19Sep2006
 POTCAR:    PAW_PBE Cl 06Sep2000
 POTCAR:    PAW_PBE Na_pv 19Sep2006
   VRHFIN =Na: p6s1

   TITEL  = PAW_PBE Na_pv 19Sep2006
   POMASS =   22.990; ZVAL   =    7.000    mass and valenz
   ENMAX  =  259.561; ENMIN  =  194.671 eV

   TITEL  = PAW_PBE Cl 06Sep2000
   POMASS =   35.453; ZVAL   =    7.000    mass and valenz
   ENMAX  =  262.472; ENMIN  =  196.854 eV

  PAW_PBE Na_pv 19Sep2006               :
  PAW_PBE Cl 06Sep2000                  :

 POSCAR: Na Cl
  positions in direct lattice
|           W    W    AA    RRRRR   N    N  II  N    N   GGGG   !!!           |
|           W    W   A  A   R    R  NN   N  II  NN   N  G    G  !!!           |
|           W    W  A    A  R    R  N N  N  II  N N  N  G       !!!           |
|           W WW W  AAAAAA  RRRRR   N  N N  II  N  N N  G  GGG   !            |
|           WW  WW  A    A  R   R   N   NN  II  N   NN  G    G                |
|           W    W  A    A  R    R  N    N  II  N    N   GGGG   !!!           |
|     Specifying the vdW parameters                                           |
|     VDW_S8 = 1.747                                                          |
|     VDW_A1 = 0.536                                                          |
|     VDW_A2 = 3.073                                                          |
|     in the INCAR file will overwrite the defaults for revpbe. Please        |
|     make sure that is what you intended.                                    |

 ion  position               nearest neighbor table
   1  0.000  0.000  0.249-
   2  0.250  0.250  0.249-
   3  0.000  0.250  0.370-
   4  0.250  0.000  0.370-
   5  1.000  1.000  0.492-
   6  0.250  0.250  0.492-
   7  0.498  0.253  0.614-
   8  0.249  0.998  0.609-
   9  0.000  0.500  0.249-
  10  0.250  0.750  0.249-
  11  0.000  0.750  0.370-
  12  0.250  0.500  0.370-
  13  0.001  0.500  0.492-
  14  0.250  0.749  0.492-
  15  0.501  0.752  0.609-
  16  0.253  0.498  0.614-
  17  0.500  0.000  0.249-
  18  0.750  0.250  0.249-
  19  0.500  0.250  0.370-
  20  0.750  0.000  0.370-
  21  0.500  0.001  0.492-
  22  0.749  0.250  0.492-
  23  0.998  0.250  0.609-
  24  0.749  0.001  0.610-
  25  0.500  0.500  0.249-
  26  0.750  0.750  0.249-
  27  0.500  0.750  0.370-
  28  0.750  0.500  0.370-
  29  0.500  0.500  0.492-
  30  0.750  0.750  0.492-
  31  0.001  0.749  0.610-
  32  0.752  0.501  0.609-
  33  0.000  0.250  0.249-
  34  0.250  0.000  0.249-
  35  0.000  0.000  0.370-
  36  0.250  0.250  0.370-
  37  0.999  0.250  0.490-
  38  0.250  0.999  0.490-
  39  0.499  0.001  0.615-
  40  0.246  0.246  0.612-
  41  0.000  0.750  0.249-
  42  0.250  0.500  0.249-
  43  0.000  0.500  0.370-
  44  0.250  0.750  0.370-
  45  0.000  0.750  0.491-
  46  0.250  0.500  0.492-
  47  0.504  0.504  0.612-
  48  0.251  0.749  0.615-
  49  0.500  0.250  0.249-
  50  0.750  0.000  0.249-
  51  0.500  0.000  0.370-
  52  0.750  0.250  0.370-
  53  0.500  0.250  0.492-
  54  0.750  0.000  0.491-
  55  1.000  1.000  0.614-
  56  0.749  0.251  0.615-
  57  0.500  0.750  0.249-
  58  0.750  0.500  0.249-
  59  0.500  0.500  0.370-
  60  0.750  0.750  0.370-
  61  0.500  0.751  0.491-
  62  0.751  0.500  0.491-
  63  0.001  0.499  0.615-
  64  0.751  0.751  0.614-

  LATTYP: Found a simple tetragonal cell.
 ALAT       =    11.4079547789
 C/A-ratio  =     2.0648719723

  Lattice vectors:

 A1 = (  11.4079547789,   0.0000000000,   0.0000000000)
 A2 = (   0.0000000000,  11.4079547789,   0.0000000000)
 A3 = (   0.0000000000,   0.0000000000,  23.5559660842)

Analysis of symmetry for initial positions (statically):
 Subroutine PRICEL returns:
 Original cell was already a primitive cell.

 Routine SETGRP: Setting up the symmetry group for a
 simple tetragonal supercell.

 Subroutine GETGRP returns: Found  1 space group operations
 (whereof  1 operations were pure point group operations)
 out of a pool of 16 trial point group operations.

The static configuration has the point symmetry C_1 .

Analysis of symmetry for dynamics (positions and initial velocities):
 Subroutine PRICEL returns:
 Original cell was already a primitive cell.

[...]

The dynamic configuration has the point symmetry C_1 .

Analysis of constrained symmetry for selective dynamics:
 Subroutine PRICEL returns:
 Original cell was already a primitive cell.

 Routine SETGRP: Setting up the symmetry group for a
 simple tetragonal supercell.

 Subroutine GETGRP returns: Found  1 space group operations
 (whereof  1 operations were pure point group operations)
 out of a pool of 16 trial point group operations.

The constrained configuration has the point symmetry C_1 .

 Subroutine INISYM returns: Found  1 space group operations
 (whereof  1 operations are pure point group operations),
 and found     1 'primitive' translations

                                     Primitive cell

  volume of cell :    3065.6072

  direct lattice vectors                    reciprocal lattice vectors
    11.407954779  0.000000000  0.000000000     0.087658131 -0.000000000  0.000000000
     0.000000000 11.407954779  0.000000000     0.000000000  0.087658131  0.000000000
     0.000000000  0.000000000 23.555966084     0.000000000  0.000000000  0.042452090

  length of vectors
    11.407954779 11.407954779 23.555966084     0.087658131  0.087658131  0.042452090

  position of ions in fractional coordinates (direct lattice)
     0.000000000  0.000000000  0.249054547
     0.250000000  0.250000000  0.249054547
     1.000000000  0.250000000  0.370127429
     0.250000000  0.000000000  0.370127429
     0.999712498  0.999735244  0.491946367
     0.249796672  0.249805700  0.491570273
     0.497590401  0.252752779  0.613696731
     0.249479755  0.997951325  0.609131482
     1.000000000  0.500000000  0.249054547
     0.250000000  0.750000000  0.249054547
     1.000000000  0.750000000  0.370127429
     0.250000000  0.500000000  0.370127429
     0.001276412  0.499784507  0.492258033
     0.250218403  0.748754351  0.492197739
     0.500519581  0.752152003  0.609273153
     0.252693572  0.497657596  0.613577322
     0.500000000  0.000000000  0.249054547
     0.750000000  0.250000000  0.249054547
     0.500000000  0.250000000  0.370127429
     0.750000000  0.000000000  0.370127429
     0.499767165  0.001312196  0.492277927
     0.748714644  0.250234094  0.492209686
     0.997902433  0.249519460  0.609139973
     0.749354642  0.000662274  0.610408006
     0.500000000  0.500000000  0.249054547
     0.750000000  0.750000000  0.249054547
     0.500000000  0.750000000  0.370127429
     0.750000000  0.500000000  0.370127429
     0.500303738  0.500312443  0.491680664
     0.750226954  0.750251784  0.491984709
     0.000623264  0.749395710  0.610401850
     0.752110641  0.500561201  0.609250150
     1.000000000  0.250000000  0.249054547
     0.250000000  0.000000000  0.249054547
     0.000000000  0.000000000  0.370127429
     0.250000000  0.250000000  0.370127429
     0.999005094  0.249746646  0.490492009
     0.249729594  0.999031371  0.490490207
     0.499260429  0.001016208  0.614732722
     0.246361022  0.246438615  0.612307117
     1.000000000  0.750000000  0.249054547
     0.250000000  0.500000000  0.249054547
     1.000000000  0.500000000  0.370127429
     0.250000000  0.750000000  0.370127429
     0.000162325  0.749799851  0.491073922
     0.250433110  0.499620900  0.491875691
     0.503728102  0.503793455  0.612381194
     0.250665807  0.749178334  0.614595769
     0.500000000  0.250000000  0.249054547
     0.750000000  0.000000000  0.249054547
     0.500000000  0.000000000  0.370127429
     0.750000000  0.250000000  0.370127429
     0.499596766  0.250454118  0.491911050
     0.749777468  0.000183397  0.491080038
     0.999516216  0.999550070  0.614257145
     0.749138600  0.250718251  0.614617288
     0.500000000  0.750000000  0.249054547
     0.750000000  0.500000000  0.249054547
     0.500000000  0.500000000  0.370127429
     0.750000000  0.750000000  0.370127429
     0.500273917  0.751067317  0.490561668
     0.751041594  0.500292408  0.490552774
     0.000978781  0.499308608  0.614702551
     0.750545504  0.750574652  0.614349670

  ion indices of the primitive-cell ions
   primitive index   ion index
                 1           1
                 2           2
                 3           3
                 4           4
                 5           5
                 6           6
                 7           7
                 8           8
                 9           9
                10          10
                11          11
                12          12
                13          13
                14          14
                15          15
                16          16
                17          17
                18          18
                19          19
                20          20
                21          21
                22          22
                23          23
                24          24
                25          25
                26          26
                27          27
                28          28
                29          29
                30          30
                31          31
                32          32
                33          33
                34          34
                35          35
                36          36
                37          37
                38          38
                39          39
                40          40
                41          41
                42          42
                43          43
                44          44
                45          45
                46          46
                47          47
                48          48
                49          49
                50          50
                51          51
                52          52
                53          53
                54          54
                55          55
                56          56
                57          57
                58          58
                59          59
                60          60
                61          61
                62          62
                63          63
                64          64

 KPOINTS: pymatgen v2020.8.13 with grid density =

Automatic generation of k-mesh.
 Grid dimensions read from file:
 generate k-points for:    3    3    1

 Generating k-lattice:

  Cartesian coordinates                     Fractional coordinates (reciprocal lattice)
     0.029219377 -0.000000000  0.000000000     0.333333333 -0.000000000  0.000000000
[...]
   5.70397739  2.85198869  5.86672046
   8.55596608  0.00000000  5.86672046
   5.70397739  0.00000000  8.71870916
   8.55596608  2.85198869  8.71870916
   5.69937732  2.85716925 11.58744000
   8.55342745  0.00209219 11.56786471
  11.40243580 11.40282200 14.46942047
   8.54613927  2.86018247 14.47790400
   5.70397739  8.55596608  5.86672046
   8.55596608  5.70397739  5.86672046
   5.70397739  5.70397739  8.71870916
   8.55596608  8.55596608  8.71870916
   5.70710222  8.56814199 11.55565400
   8.56784854  5.70731317 11.55544450
   0.01116589  5.69609002 14.47991244
   8.56218917  8.56252169 14.47160000

--------------------------------------- Iteration      FINAL  ---------------------------------------

--------------------OUTCAR has been truncated-------------------------

[...]

--------------------OUTCAR has been truncated-------------------------

  FORCE on cell =-STRESS in cart. coord.  units (eV):
  Direction    XX          YY          ZZ          XY          YZ          ZX
  Alpha Z   344.78432   344.78432   344.78432
  Ewald   69669.64482 69669.64452-84757.66396    -0.28839     0.17919     0.05452
  Hartree 78589.21994 78589.22005-72429.34971    -0.16890     0.10989     0.03294
  E(xc)   -2069.38605 -2069.38605 -2072.54145     0.00076     0.00034     0.00014
  Local  ************************150958.58470     0.44062    -0.28486    -0.08642
  n-local  1929.71309  1929.71307  1919.08215    -0.00456     0.00285     0.00101
  augment   724.48121   724.48124   719.03026     0.00168     0.00269     0.00105
  Kinetic  5298.84029  5298.84035  5327.08275     0.01117    -0.01952    -0.00694
  Fock        0.00000     0.00000     0.00000     0.00000     0.00000     0.00000
  vdW       -11.44345   -11.44345    -9.27479    -0.00029     0.00043     0.00015
  Total      -6.25515    -6.25513    -0.26574    -0.00790    -0.00899    -0.00355
  in kB      -3.26913    -3.26912    -0.13888    -0.00413    -0.00470    -0.00186

 VOLUME and BASIS-vectors are now :
  energy-cutoff  :      600.00
  volume of cell :     3065.61
      direct lattice vectors                 reciprocal lattice vectors
    11.407954779  0.000000000  0.000000000     0.087658131 -0.000000000  0.000000000
     0.000000000 11.407954779  0.000000000     0.000000000  0.087658131  0.000000000
     0.000000000  0.000000000 23.555966084     0.000000000  0.000000000  0.042452090

  length of vectors
    11.407954779 11.407954779 23.555966084     0.087658131  0.087658131  0.042452090

 FORCES acting on ions
    electron-ion (+dipol)            ewald-force                    non-local-force                 convergence-correction
   0.139E-01 0.113E-01 0.850E+03   -.158E-01 -.132E-01 -.847E+03   0.157E-02 0.155E-02 -.262E+01   0.237E-07 0.746E-07 0.606E-04
   -.845E-01 -.800E-01 0.850E+03   0.828E-01 0.783E-01 -.847E+03   0.138E-02 0.141E-02 -.261E+01   -.599E-06 -.616E-06 0.581E-04
   -.435E-01 -.271E+00 0.282E+03   0.684E-02 0.274E+00 -.282E+03   0.307E-01 -.273E-02 0.126E+00   -.739E-06 -.222E-06 0.856E-04
   -.290E+00 -.537E-01 0.282E+03   0.294E+00 0.176E-01 -.282E+03   -.281E-02 0.303E-01 0.127E+00   -.471E-06 -.134E-05 0.850E-04
   0.375E+00 0.361E+00 -.283E+03   -.388E+00 -.373E+00 0.283E+03   0.121E-01 0.116E-01 -.824E-01   -.101E-05 0.336E-06 -.445E-04
   -.112E+01 -.110E+01 -.280E+03   0.118E+01 0.116E+01 0.280E+03   -.611E-01 -.594E-01 -.244E+00   -.343E-05 -.362E-05 -.375E-04
   0.989E+00 -.645E+00 -.853E+03   -.818E+00 0.469E+00 0.850E+03   -.143E+00 0.142E+00 0.245E+01   0.261E-05 -.222E-05 -.388E-04
   -.290E+00 0.132E+00 -.839E+03   0.252E+00 -.705E-01 0.837E+03   0.309E-01 -.567E-01 0.213E+01   -.283E-05 -.159E-05 -.463E-04
   -.691E-01 -.114E-01 0.850E+03   0.683E-01 0.131E-01 -.847E+03   0.611E-03 -.134E-02 -.263E+01   0.141E-06 0.599E-06 0.634E-04
   0.716E-03 0.785E-01 0.850E+03   -.221E-02 -.779E-01 -.847E+03   0.123E-02 -.536E-03 -.263E+01   -.532E-06 0.567E-06 0.643E-04
   -.192E+00 0.237E+00 0.281E+03   0.199E+00 -.246E+00 -.281E+03   -.545E-02 0.756E-02 0.186E+00   0.406E-06 0.342E-07 0.870E-04
   -.122E-01 -.254E-01 0.280E+03   -.151E-02 0.399E-01 -.280E+03   0.114E-01 -.121E-01 0.240E+00   -.942E-06 -.108E-05 0.908E-04
   -.115E+01 -.379E+00 -.285E+03   0.120E+01 0.390E+00 0.285E+03   -.553E-01 -.996E-02 -.647E-01   -.191E-05 0.137E-05 -.461E-04
   0.365E+00 0.113E+01 -.285E+03   -.375E+00 -.119E+01 0.285E+03   0.849E-02 0.574E-01 -.667E-01   -.136E-05 0.190E-05 -.455E-04
   0.314E+00 -.410E+00 -.839E+03   -.275E+00 0.354E+00 0.837E+03   -.316E-01 0.559E-01 0.214E+01   0.291E-05 0.311E-05 -.458E-04
   -.647E+00 0.993E+00 -.852E+03   0.470E+00 -.822E+00 0.850E+03   0.143E+00 -.143E+00 0.244E+01   -.281E-05 0.221E-05 -.451E-04
   -.141E-01 -.722E-01 0.850E+03   0.157E-01 0.715E-01 -.847E+03   -.135E-02 0.577E-03 -.263E+01   0.387E-06 -.670E-06 0.648E-04
   0.829E-01 0.463E-02 0.850E+03   -.824E-01 -.616E-02 -.847E+03   -.484E-03 0.126E-02 -.263E+01   0.380E-06 -.506E-06 0.681E-04
   -.393E-01 0.726E-02 0.279E+03   0.537E-01 -.210E-01 -.280E+03   -.120E-01 0.115E-01 0.242E+00   -.948E-06 -.907E-06 0.920E-04
   0.253E+00 -.203E+00 0.281E+03   -.263E+00 0.210E+00 -.281E+03   0.803E-02 -.579E-02 0.186E+00   0.306E-06 0.930E-06 0.883E-04
   -.394E+00 -.117E+01 -.285E+03   0.406E+00 0.123E+01 0.285E+03   -.102E-01 -.570E-01 -.644E-01   0.832E-06 -.169E-05 -.444E-04
   0.116E+01 0.385E+00 -.285E+03   -.121E+01 -.396E+00 0.285E+03   0.593E-01 0.892E-02 -.664E-01   0.157E-05 -.115E-05 -.465E-04
   0.151E+00 -.289E+00 -.839E+03   -.874E-01 0.252E+00 0.837E+03   -.587E-01 0.301E-01 0.213E+01   -.129E-05 -.300E-05 -.485E-04
   0.341E+00 -.387E+00 -.842E+03   -.293E+00 0.340E+00 0.840E+03   -.399E-01 0.403E-01 0.217E+01   0.141E-05 -.215E-05 -.496E-04
   0.707E-01 0.739E-01 0.850E+03   -.688E-01 -.720E-01 -.847E+03   -.155E-02 -.154E-02 -.261E+01   0.544E-06 0.461E-06 0.621E-04
   -.688E-03 -.457E-02 0.850E+03   0.240E-02 0.634E-02 -.847E+03   -.141E-02 -.146E-02 -.262E+01   -.458E-07 0.442E-06 0.573E-04
   0.227E+00 0.821E-01 0.282E+03   -.229E+00 -.444E-01 -.282E+03   0.921E-03 -.315E-01 0.134E+00   0.117E-05 0.847E-06 0.893E-04
   0.980E-01 0.241E+00 0.282E+03   -.609E-01 -.242E+00 -.282E+03   -.310E-01 0.878E-03 0.134E+00   0.105E-05 0.135E-05 0.897E-04
   0.111E+01 0.114E+01 -.280E+03   -.117E+01 -.119E+01 0.281E+03   0.571E-01 0.586E-01 -.243E+00   0.274E-05 0.231E-05 -.402E-04
   -.347E+00 -.367E+00 -.283E+03   0.361E+00 0.381E+00 0.284E+03   -.117E-01 -.123E-01 -.773E-01   0.550E-06 0.860E-06 -.443E-04
   -.381E+00 0.338E+00 -.842E+03   0.334E+00 -.292E+00 0.840E+03   0.396E-01 -.390E-01 0.217E+01   -.147E-05 0.173E-05 -.459E-04
   -.396E+00 0.319E+00 -.839E+03   0.341E+00 -.279E+00 0.837E+03   0.538E-01 -.321E-01 0.214E+01   0.210E-05 0.201E-05 -.490E-04
   -.879E-02 -.501E-01 0.847E+03   0.749E-02 0.502E-01 -.847E+03   0.220E-02 -.231E-03 -.182E+00   0.227E-06 0.800E-06 0.776E-04
   -.542E-01 -.116E-01 0.847E+03   0.544E-01 0.104E-01 -.847E+03   -.272E-03 0.218E-02 -.182E+00   0.146E-05 -.213E-05 0.793E-04
   0.185E+00 0.175E+00 0.281E+03   -.182E+00 -.172E+00 -.281E+03   -.593E-02 -.573E-02 -.710E-02   -.130E-05 0.414E-06 0.135E-03
   -.553E+00 -.532E+00 0.281E+03   0.551E+00 0.530E+00 -.281E+03   0.550E-02 0.549E-02 0.440E-02   -.467E-05 -.791E-06 0.130E-03
   0.397E-01 -.458E+00 -.273E+03   -.387E-01 0.456E+00 0.273E+03   -.858E-04 0.374E-02 0.979E-01   -.365E-05 -.473E-05 -.990E-04
   -.482E+00 0.206E-01 -.273E+03   0.479E+00 -.197E-01 0.273E+03   0.386E-02 0.502E-04 0.982E-01   -.143E-05 -.973E-06 -.951E-04
   -.244E+00 -.233E+01 -.857E+03   0.240E+00 0.234E+01 0.857E+03   0.885E-02 -.767E-02 -.193E+00   0.261E-05 -.697E-05 -.488E-04
   -.156E+01 -.155E+01 -.849E+03   0.147E+01 0.145E+01 0.849E+03   0.182E+00 0.180E+00 0.507E-02   -.610E-05 -.711E-05 -.540E-04
   -.395E-01 0.499E-01 0.847E+03   0.395E-01 -.500E-01 -.847E+03   0.554E-04 0.152E-03 -.183E+00   0.127E-05 -.296E-05 0.781E-04
   -.223E-01 0.122E-01 0.847E+03   0.207E-01 -.106E-01 -.847E+03   0.273E-02 -.273E-02 -.180E+00   -.263E-05 0.225E-05 0.781E-04
   -.429E+00 -.197E+00 0.280E+03   0.415E+00 0.196E+00 -.280E+03   0.240E-01 0.142E-02 -.718E-02   0.875E-06 -.142E-05 0.133E-03
   0.150E+00 0.469E+00 0.280E+03   -.150E+00 -.455E+00 -.280E+03   -.104E-02 -.239E-01 -.678E-02   -.138E-05 0.345E-05 0.133E-03
   -.411E+00 0.452E+00 -.277E+03   0.409E+00 -.450E+00 0.277E+03   0.423E-02 -.353E-02 0.809E-01   -.306E-05 0.562E-07 -.991E-04
   -.203E+00 0.235E+00 -.283E+03   0.210E+00 -.244E+00 0.283E+03   -.755E-02 0.996E-02 0.242E-01   -.385E-05 0.910E-06 -.105E-03
   0.158E+01 0.160E+01 -.849E+03   -.148E+01 -.150E+01 0.849E+03   -.181E+00 -.182E+00 0.624E-02   0.646E-05 0.364E-05 -.539E-04
   0.321E+00 0.215E+01 -.856E+03   -.320E+00 -.216E+01 0.856E+03   -.370E-02 0.277E-02 -.187E+00   -.351E-05 0.727E-05 -.456E-04
   0.935E-02 -.181E-01 0.847E+03   -.774E-02 0.165E-01 -.847E+03   -.276E-02 0.277E-02 -.180E+00   -.146E-06 -.398E-05 0.769E-04
   0.541E-01 -.424E-01 0.847E+03   -.542E-01 0.424E-01 -.847E+03   0.187E-03 0.391E-04 -.183E+00   -.243E-05 0.813E-06 0.739E-04
   -.208E+00 -.443E+00 0.280E+03   0.208E+00 0.428E+00 -.280E+03   0.129E-02 0.244E-01 -.699E-02   0.764E-06 -.184E-05 0.134E-03
   0.488E+00 0.167E+00 0.280E+03   -.474E+00 -.167E+00 -.280E+03   -.244E-01 -.941E-03 -.664E-02   0.500E-05 -.184E-05 0.136E-03
   0.216E+00 -.179E+00 -.284E+03   -.225E+00 0.186E+00 0.284E+03   0.100E-01 -.767E-02 0.224E-01   0.491E-05 -.428E-05 -.106E-03
   0.475E+00 -.430E+00 -.277E+03   -.473E+00 0.427E+00 0.277E+03   -.374E-02 0.438E-02 0.812E-01   0.259E-05 -.771E-06 -.986E-04
   0.204E+00 0.198E+00 -.857E+03   -.198E+00 -.192E+00 0.857E+03   -.106E-01 -.104E-01 -.229E+00   0.315E-06 -.481E-06 -.490E-04
   0.216E+01 0.326E+00 -.856E+03   -.217E+01 -.325E+00 0.856E+03   0.242E-02 -.410E-02 -.187E+00   0.489E-05 -.251E-05 -.491E-04
   0.398E-01 0.174E-01 0.847E+03   -.398E-01 -.162E-01 -.847E+03   0.811E-05 -.217E-02 -.182E+00   -.388E-06 0.528E-05 0.766E-04
   0.216E-01 0.426E-01 0.847E+03   -.204E-01 -.426E-01 -.847E+03   -.214E-02 0.318E-04 -.182E+00   0.160E-05 -.110E-05 0.749E-04
   0.500E+00 0.515E+00 0.280E+03   -.498E+00 -.513E+00 -.280E+03   -.418E-02 -.418E-02 0.592E-02   0.211E-05 0.565E-05 0.133E-03
   -.132E+00 -.148E+00 0.280E+03   0.130E+00 0.145E+00 -.280E+03   0.493E-02 0.517E-02 -.668E-02   -.143E-05 -.332E-05 0.135E-03
   0.449E+00 -.813E-01 -.273E+03   -.448E+00 0.819E-01 0.273E+03   -.230E-02 -.268E-02 0.971E-01   0.520E-05 0.486E-05 -.988E-04
   -.579E-01 0.467E+00 -.273E+03   0.587E-01 -.467E+00 0.273E+03   -.286E-02 -.239E-02 0.975E-01   0.492E-05 0.303E-06 -.982E-04
   -.232E+01 -.239E+00 -.857E+03   0.234E+01 0.235E+00 0.857E+03   -.810E-02 0.877E-02 -.193E+00   -.674E-05 0.271E-05 -.457E-04
   -.241E+00 -.247E+00 -.857E+03   0.236E+00 0.242E+00 0.857E+03   0.833E-02 0.866E-02 -.230E+00   0.100E-05 0.336E-05 -.483E-04
   0.732E-02 0.628E-02 0.483E+01   0.254E-12 -.469E-13 0.000E+00   -.735E-02 -.638E-02 -.484E+01   0.221E-05 -.505E-05 0.978E-03

 POSITION                                       TOTAL-FORCE (eV/Angst)
      0.00000      0.00000      5.86672        -0.000327     -0.000321      0.129462
      2.85199      2.85199      5.86672        -0.000327     -0.000331      0.127128
      0.00000      2.85199      8.71871        -0.006058      0.000786     -0.024348
      2.85199      0.00000      8.71871         0.000817     -0.005994     -0.024431
     11.40467     11.40493     11.58827        -0.000952     -0.000939      0.006542
      2.84967      2.84977     11.57941         0.000334      0.000405     -0.000446
      5.67649      2.88339     14.45622         0.028368     -0.034118     -0.107458
      2.84605     11.38458     14.34868        -0.007331      0.004695      0.021827
      0.00000      5.70398      5.86672        -0.000145      0.000289      0.130433
      2.85199      8.55597      5.86672        -0.000264      0.000132      0.130260
      0.00000      8.55597      8.71871         0.001002     -0.001430     -0.016725
      2.85199      5.70398      8.71871        -0.002315      0.002435     -0.004333
      0.01456      5.70152     11.59561        -0.000396      0.001277     -0.000226
      2.85448      8.54176     11.59419        -0.001370      0.001012      0.000233
      5.70990      8.58052     14.35202         0.007582     -0.000846      0.019402
      2.88272      5.67726     14.45341        -0.034106      0.028196     -0.105119
      5.70398      0.00000      5.86672         0.000289     -0.000137      0.130470
      8.55597      2.85199      5.86672         0.000120     -0.000268      0.130280
      5.70398      2.85199      8.71871         0.002426     -0.002338     -0.003780
      8.55597      0.00000      8.71871        -0.001511      0.001059     -0.016655
      5.70132      0.01497     11.59608         0.001260     -0.000426     -0.000488
      8.54130      2.85466     11.59447         0.001052     -0.001346      0.000166
     11.38403      2.84651     14.34888         0.004707     -0.007165      0.021691
      8.54860      0.00756     14.37875         0.007303     -0.006932      0.000264
      5.70398      5.70398      5.86672         0.000362      0.000360      0.127302
      8.55597      8.55597      5.86672         0.000295      0.000306      0.129574
      5.70398      8.55597      8.71871        -0.000450      0.006217     -0.023392
      8.55597      5.70398      8.71871         0.006132     -0.000455     -0.023596
      5.70744      5.70754     11.58201        -0.001202     -0.001138     -0.004970
      8.55856      8.55884     11.58918         0.001706      0.001706      0.006093
      0.00711      8.54907     14.37861        -0.006881      0.007166      0.000323
      8.58004      5.71038     14.35148        -0.000819      0.007637      0.019816
      0.00000      2.85199      5.86672         0.000902     -0.000112     -0.128342
      2.85199      0.00000      5.86672        -0.000131      0.000898     -0.128348
      0.00000      0.00000      8.71871        -0.002186     -0.002118      0.013093
      2.85199      2.85199      8.71871         0.002179      0.002178      0.013368
     11.39660      2.84910     11.55401         0.001333      0.001261      0.000660
      2.84890     11.39690     11.55397         0.001269      0.001362      0.000661
      5.69554      0.01159     14.48062         0.004194      0.011468     -0.001713
      2.81048      2.81136     14.42349         0.079061      0.078276      0.076687
      0.00000      8.55597      5.86672         0.000009      0.000082     -0.128862
      2.85199      5.70398      5.86672         0.001139     -0.001137     -0.127767
      0.00000      5.70398      8.71871         0.008616      0.000636      0.016572
      2.85199      8.55597      8.71871        -0.000488     -0.008581      0.016058
      0.00185      8.55368     11.56772         0.001675     -0.001233     -0.001762
      2.85693      5.69965     11.58661         0.000474      0.000511      0.001325
      5.74651      5.74725     14.42523        -0.077997     -0.078543      0.077617
      2.85958      8.54659     14.47740        -0.001865     -0.012641      0.000473
      5.70398      2.85199      5.86672        -0.001150      0.001159     -0.127772
      8.55597      0.00000      5.86672         0.000094      0.000003     -0.128874
      5.70398      0.00000      8.71871         0.000586      0.008756      0.016869
      8.55597      2.85199      8.71871        -0.008744     -0.000450      0.016248
      5.69938      2.85717     11.58744         0.000518      0.000460      0.001315
      8.55343      0.00209     11.56786        -0.001273      0.001711     -0.001728
     11.40244     11.40282     14.46942        -0.003763     -0.003648     -0.011067
      8.54614      2.86018     14.47790        -0.012913     -0.002132      0.000517
      5.70398      8.55597      5.86672         0.000021     -0.000892     -0.128380
      8.55597      5.70398      5.86672        -0.000879      0.000033     -0.128380
      5.70398      5.70398      8.71871        -0.001727     -0.001724      0.015280
      8.55597      8.55597      8.71871         0.001838      0.001922      0.013698
      5.70710      8.56814     11.55565        -0.001177     -0.002344      0.000481
      8.56785      5.70731     11.55544        -0.002374     -0.001187      0.000503
      0.01117      5.69609     14.47991         0.011220      0.004078     -0.001766
      8.56219      8.56252     14.47160         0.002239      0.002455     -0.011964
    total drift:                               -0.000027     -0.000111     -0.009077

  FREE ENERGIE OF THE ION-ELECTRON SYSTEM (eV)
  free  energy   TOTEN  =      -213.25500086 eV

  energy  without entropy=     -213.25500086  energy(sigma->0) =     -213.25500086