 vasp.6.3.0 20Jan22 (build Dec 25 2023 18:06:01) complex
 executed on        HPECrayEX_GCC date 2025.03.31  03:43:17

 INCAR:
   SYSTEM = NaCl
   ISMEAR = 0
   SIGMA = 0.05
   EDIFF = 1E-7
   ALGO = Normal
   ISTART = 0
   IBRION = 5
   POTIM = 0.01
   NFREE = 2
   ISYM = 0
   DIPOL = 0.5 0.5 0.5
   IDIPOL = 3
   LDIPOL = .TRUE.
   GGA = RE
   IVDW = 13
   VDW_S8 = 1.7468
   VDW_A1 = 0.5363
   VDW_A2 = 3.0726
   ENCUT = 600
   PREC = Accurate
   LASPH = .TRUE.
   LREAL = .FALSE.
   ISPIN = 1
   NELM = 200
   NELMIN = 8
   NCORE = 8
   LWAVE = .FALSE.
   LCHARG = .FALSE.

 POTCAR:    PAW_PBE C 08Apr2002
 POTCAR:    PAW_PBE H 15Jun2001
 POTCAR:    PAW_PBE Na_pv 19Sep2006
 POTCAR:    PAW_PBE Cl 06Sep2000
 POTCAR:    PAW_PBE C 08Apr2002
   VRHFIN =C: s2p2

   TITEL  = PAW_PBE C 08Apr2002
   POMASS =   12.011; ZVAL   =    4.000    mass and valenz
   ENMAX  =  400.000; ENMIN  =  300.000 eV

   TITEL  = PAW_PBE H 15Jun2001
   POMASS =    1.000; ZVAL   =    1.000    mass and valenz
   ENMAX  =  250.000; ENMIN  =  200.000 eV

   TITEL  = PAW_PBE Na_pv 19Sep2006
   POMASS =   22.990; ZVAL   =    7.000    mass and valenz
   ENMAX  =  259.561; ENMIN  =  194.671 eV

   TITEL  = PAW_PBE Cl 06Sep2000
   POMASS =   35.453; ZVAL   =    7.000    mass and valenz
   ENMAX  =  262.472; ENMIN  =  196.854 eV

  PAW_PBE C 08Apr2002                   :
  PAW_PBE H 15Jun2001                   :
  PAW_PBE Na_pv 19Sep2006               :
  PAW_PBE Cl 06Sep2000                  :

 POSCAR:  C  H Na Cl
  positions in direct lattice
|           W    W    AA    RRRRR   N    N  II  N    N   GGGG   !!!           |
|           W    W   A  A   R    R  NN   N  II  NN   N  G    G  !!!           |
|           W    W  A    A  R    R  N N  N  II  N N  N  G       !!!           |
|           W WW W  AAAAAA  RRRRR   N  N N  II  N  N N  G  GGG   !            |
|           WW  WW  A    A  R   R   N   NN  II  N   NN  G    G                |
|           W    W  A    A  R    R  N    N  II  N    N   GGGG   !!!           |
|     Specifying the vdW parameters                                           |
|     VDW_S8 = 1.747                                                          |
|     VDW_A1 = 0.536                                                          |
|     VDW_A2 = 3.073                                                          |
|     in the INCAR file will overwrite the defaults for revpbe. Please        |
|     make sure that is what you intended.                                    |

 ion  position               nearest neighbor table
   1  0.414  0.413  0.744-   3 1.07   2 1.21
   2  0.339  0.338  0.743-   4 1.07   1 1.21
   3  0.480  0.479  0.745-   1 1.07
   4  0.273  0.272  0.741-   2 1.07
   5  0.000  0.000  0.249-
   6  0.250  0.250  0.249-
   7  0.000  0.250  0.370-
   8  0.250  0.000  0.370-
   9  1.000  1.000  0.492-
  10  0.250  0.250  0.492-
  11  0.498  0.253  0.614-
  12  0.249  0.998  0.609-
  13  0.000  0.500  0.249-
  14  0.250  0.750  0.249-
  15  0.000  0.750  0.370-
  16  0.250  0.500  0.370-
  17  0.001  0.500  0.492-
  18  0.250  0.749  0.492-
  19  0.501  0.752  0.609-
  20  0.253  0.498  0.614-
  21  0.500  0.000  0.249-
  22  0.750  0.250  0.249-
  23  0.500  0.250  0.370-
  24  0.750  0.000  0.370-
  25  0.500  0.001  0.492-
  26  0.749  0.250  0.492-
  27  0.998  0.250  0.609-
  28  0.749  0.001  0.610-
  29  0.500  0.500  0.249-
  30  0.750  0.750  0.249-
  31  0.500  0.750  0.370-
  32  0.750  0.500  0.370-
  33  0.500  0.500  0.492-
  34  0.750  0.750  0.492-
  35  0.001  0.749  0.610-
  36  0.752  0.501  0.609-
  37  0.000  0.250  0.249-
  38  0.250  0.000  0.249-
  39  0.000  0.000  0.370-
  40  0.250  0.250  0.370-
  41  0.999  0.250  0.490-
  42  0.250  0.999  0.490-
  43  0.499  0.001  0.615-
  44  0.246  0.246  0.612-
  45  0.000  0.750  0.249-
  46  0.250  0.500  0.249-
  47  0.000  0.500  0.370-
  48  0.250  0.750  0.370-
  49  0.000  0.750  0.491-
  50  0.250  0.500  0.492-
  51  0.504  0.504  0.612-
  52  0.251  0.749  0.615-
  53  0.500  0.250  0.249-
  54  0.750  0.000  0.249-
  55  0.500  0.000  0.370-
  56  0.750  0.250  0.370-
  57  0.500  0.250  0.492-
  58  0.750  0.000  0.491-
  59  1.000  1.000  0.614-
  60  0.749  0.251  0.615-
  61  0.500  0.750  0.249-
  62  0.750  0.500  0.249-
  63  0.500  0.500  0.370-
  64  0.750  0.750  0.370-
  65  0.500  0.751  0.491-
  66  0.751  0.500  0.491-
  67  0.001  0.499  0.615-
  68  0.751  0.751  0.614-

IMPORTANT INFORMATION: All symmetrisations will be switched off!
NOSYMM: (Re-)initialisation of all symmetry stuff for point group C_1.

                                     Primitive cell

  volume of cell :    3065.6072

  direct lattice vectors                    reciprocal lattice vectors
    11.407954779  0.000000000  0.000000000     0.087658131 -0.000000000  0.000000000
     0.000000000 11.407954779  0.000000000     0.000000000  0.087658131  0.000000000
     0.000000000  0.000000000 23.555966084     0.000000000  0.000000000  0.042452090

  length of vectors
    11.407954779 11.407954779 23.555966084     0.087658131  0.087658131  0.042452090

  position of ions in fractional coordinates (direct lattice)
     0.414108180  0.412639689  0.744457709
     0.338993662  0.337717409  0.743430221
     0.480487135  0.478878129  0.744544466
     0.272640461  0.271596426  0.741397685
     0.000000000  0.000000000  0.249054547
     0.250000000  0.250000000  0.249054547
     1.000000000  0.250000000  0.370127429
     0.250000000  0.000000000  0.370127429
     0.999712498  0.999735244  0.491946367
     0.249796672  0.249805700  0.491570273
     0.497590401  0.252752779  0.613696731
     0.249479755  0.997951325  0.609131482
     1.000000000  0.500000000  0.249054547
     0.250000000  0.750000000  0.249054547
     1.000000000  0.750000000  0.370127429
     0.250000000  0.500000000  0.370127429
     0.001276412  0.499784507  0.492258033
     0.250218403  0.748754351  0.492197739
     0.500519581  0.752152003  0.609273153
     0.252693572  0.497657596  0.613577322
     0.500000000  0.000000000  0.249054547
     0.750000000  0.250000000  0.249054547
     0.500000000  0.250000000  0.370127429
     0.750000000  0.000000000  0.370127429
     0.499767165  0.001312196  0.492277927
     0.748714644  0.250234094  0.492209686
     0.997902433  0.249519460  0.609139973
     0.749354642  0.000662274  0.610408006
     0.500000000  0.500000000  0.249054547
     0.750000000  0.750000000  0.249054547
     0.500000000  0.750000000  0.370127429
     0.750000000  0.500000000  0.370127429
     0.500303738  0.500312443  0.491680664
     0.750226954  0.750251784  0.491984709
     0.000623264  0.749395710  0.610401850
     0.752110641  0.500561201  0.609250150
     1.000000000  0.250000000  0.249054547
     0.250000000  0.000000000  0.249054547
     0.000000000  0.000000000  0.370127429
     0.250000000  0.250000000  0.370127429
     0.999005094  0.249746646  0.490492009
     0.249729594  0.999031371  0.490490207
     0.499260429  0.001016208  0.614732722
     0.246361022  0.246438615  0.612307117
     1.000000000  0.750000000  0.249054547
     0.250000000  0.500000000  0.249054547
     1.000000000  0.500000000  0.370127429
     0.250000000  0.750000000  0.370127429
     0.000162325  0.749799851  0.491073922
     0.250433110  0.499620900  0.491875691
     0.503728102  0.503793455  0.612381194
     0.250665807  0.749178334  0.614595769
     0.500000000  0.250000000  0.249054547
     0.750000000  0.000000000  0.249054547
     0.500000000  0.000000000  0.370127429
     0.750000000  0.250000000  0.370127429
     0.499596766  0.250454118  0.491911050
     0.749777468  0.000183397  0.491080038
     0.999516216  0.999550070  0.614257145
     0.749138600  0.250718251  0.614617288
     0.500000000  0.750000000  0.249054547
     0.750000000  0.500000000  0.249054547
     0.500000000  0.500000000  0.370127429
     0.750000000  0.750000000  0.370127429
     0.500273917  0.751067317  0.490561668
     0.751041594  0.500292408  0.490552774
     0.000978781  0.499308608  0.614702551
     0.750545504  0.750574652  0.614349670

  ion indices of the primitive-cell ions
   primitive index   ion index
                 1           1
                 2           2
                 3           3
                 4           4
                 5           5
                 6           6
                 7           7
                 8           8
                 9           9
                10          10
                11          11
                12          12
                13          13
                14          14
                15          15
                16          16
                17          17
                18          18
                19          19
                20          20
                21          21
                22          22
                23          23
                24          24
                25          25
                26          26
                27          27
                28          28
                29          29
                30          30
                31          31
                32          32
                33          33
                34          34
                35          35
                36          36
                37          37
                38          38
                39          39
                40          40
                41          41
                42          42
                43          43
                44          44
                45          45
                46          46
                47          47
                48          48
                49          49
                50          50
                51          51
                52          52
                53          53
                54          54
                55          55
                56          56
                57          57
                58          58
                59          59
                60          60
                61          61
                62          62
                63          63
                64          64
                65          65
                66          66
                67          67
                68          68

 KPOINTS: pymatgen v2020.8.13 with grid density =

Automatic generation of k-mesh.
 Grid dimensions read from file:
 generate k-points for:    3    3    1

 Generating k-lattice:

  Cartesian coordinates                     Fractional coordinates (reciprocal lattice)
     0.029219377 -0.000000000  0.000000000     0.333333333 -0.000000000  0.000000000
     0.000000000  0.029219377  0.000000000     0.000000000  0.333333333  0.000000000
     0.000000000  0.000000000  0.042452090     0.000000000  0.000000000  1.000000000

  Length of vectors
     0.029219377  0.029219377  0.042452090

  Shift w.r.t. Gamma in fractional coordinates (k-lattice)
     0.000000000  0.000000000  0.000000000

 Subroutine IBZKPT returns following result:

 Found      5 irreducible k-points:

 Following reciprocal coordinates:
            Coordinates               Weight
  0.000000  0.000000  0.000000      1.000000
  0.333333  0.000000  0.000000      2.000000
[...]
  1Z    -1.581352   -1.578519   -4.126061    1.387816    1.385853    2.124519    0.181839    0.183111    1.893955    0.009408    0.009072   -0.138024
  2X    52.505653   50.175714    1.389726  -72.587468  -68.363364   -2.499894   -0.474073   -0.285613    0.037733   20.571457   18.409277    1.180329
  2Y    50.172748   52.244188    1.387681  -68.364352  -72.203882   -2.494610   -0.285387   -0.472815    0.037726   18.411924   20.443945    1.178366
  2Z     1.519031    1.516793    2.124243   -2.498990   -2.493684   -4.198469   -0.020504   -0.020698   -0.133603    1.006137    1.004357    1.935736
  3X    20.577241   18.441942    0.181638   -0.473553   -0.285100   -0.020729  -19.876580  -18.428855   -0.101337   -0.272480    0.259782   -0.009747
  3Y    18.442978   20.497199    0.182886   -0.285357   -0.472424   -0.020945  -18.428840  -19.792712   -0.101404    0.259060   -0.273951   -0.009895
  3Z     0.041806    0.043329    1.894622    0.038383    0.038108   -0.133166   -0.101225   -0.101257   -1.258818    0.026468    0.026216   -0.513149
  4X    -0.478561   -0.288936    0.009719   20.572459   18.411863    1.006950   -0.272493    0.258978    0.026319  -19.878974  -18.395434   -1.097009
  4Y    -0.286634   -0.475588    0.009397   18.408901   20.444439    1.005184    0.259708   -0.273961    0.026180  -18.395030  -19.743412   -1.094761
  4Z    -0.086119   -0.086134   -0.137794    1.179647    1.177496    1.936717   -0.009730   -0.009874   -0.513115   -1.096280   -1.094087   -1.308051

 Eigenvectors and eigenvalues of the dynamical matrix

   1 f  =  103.504349 THz   650.337005 2PiTHz 3452.533453 cm-1   428.059400 meV
             X         Y         Z           dx          dy          dz
      4.724127  4.707375 17.536421    -0.218864   -0.218347   -0.003611
      3.867224  3.852665 17.512217     0.219190    0.218515    0.009852
      5.481376  5.463020 17.538464     0.449381    0.448364    0.002438
      3.110270  3.098360 17.464339    -0.450723   -0.449076   -0.026834
      0.000000  0.000000  5.866720            0           0           0
      2.851989  2.851989  5.866720            0           0           0
      0.000000  2.851989  8.718709            0           0           0
      2.851989  0.000000  8.718709            0           0           0
     11.404675 11.404934 11.588272            0           0           0
      2.849669  2.849772 11.579413            0           0           0
      5.676489  2.883392 14.456219            0           0           0
      2.846054 11.384584 14.348681            0           0           0
      0.000000  5.703977  5.866720            0           0           0
      2.851989  8.555966  5.866720            0           0           0
      0.000000  8.555966  8.718709            0           0           0
      2.851989  5.703977  8.718709            0           0           0
      0.014561  5.701519 11.595614            0           0           0
      2.854480  8.541756 11.594193            0           0           0
      5.709905  8.580516 14.352018            0           0           0
      2.882717  5.677255 14.453407            0           0           0
      5.703977  0.000000  5.866720            0           0           0
      8.555966  2.851989  5.866720            0           0           0
      5.703977  2.851989  8.718709            0           0           0
      8.555966  0.000000  8.718709            0           0           0
      5.701321  0.014969 11.596082            0           0           0
      8.541303  2.854659 11.594475            0           0           0
     11.384026  2.846507 14.348881            0           0           0
      8.548604  0.007555 14.378750            0           0           0
      5.703977  5.703977  5.866720            0           0           0
      8.555966  8.555966  5.866720            0           0           0
      5.703977  8.555966  8.718709            0           0           0
      8.555966  5.703977  8.718709            0           0           0
      5.707442  5.707542 11.582013            0           0           0
      8.558555  8.558838 11.589175            0           0           0
      0.007110  8.549072 14.378605            0           0           0
      8.580044  5.710380 14.351476            0           0           0
      0.000000  2.851989  5.866720            0           0           0
      2.851989  0.000000  5.866720            0           0           0
      0.000000  0.000000  8.718709            0           0           0
      2.851989  2.851989  8.718709            0           0           0
     11.396605  2.849098 11.554013            0           0           0
      2.848904 11.396905 11.553971            0           0           0
      5.695540  0.011593 14.480623            0           0           0
      2.810475  2.811361 14.423486            0           0           0
      0.000000  8.555966  5.866720            0           0           0
      2.851989  5.703977  5.866720            0           0           0
      0.000000  5.703977  8.718709            0           0           0
      2.851989  8.555966  8.718709            0           0           0
      0.001852  8.553683 11.567721            0           0           0
      2.856930  5.699653 11.586607            0           0           0
      5.746507  5.747253 14.425231            0           0           0
      2.859584  8.546593 14.477397            0           0           0
      5.703977  2.851989  5.866720            0           0           0
      8.555966  0.000000  5.866720            0           0           0
      5.703977  0.000000  8.718709            0           0           0
      8.555966  2.851989  8.718709            0           0           0
      5.699377  2.857169 11.587440            0           0           0
      8.553427  0.002092 11.567865            0           0           0
     11.402436 11.402822 14.469420            0           0           0
      8.546139  2.860182 14.477904            0           0           0
      5.703977  8.555966  5.866720            0           0           0
      8.555966  5.703977  5.866720            0           0           0
      5.703977  5.703977  8.718709            0           0           0
      8.555966  8.555966  8.718709            0           0           0
      5.707102  8.568142 11.555654            0           0           0
      8.567849  5.707313 11.555444            0           0           0
      0.011166  5.696090 14.479912            0           0           0
      8.562189  8.562522 14.471600            0           0           0

[...]

  11 f  =    1.551580 THz     9.748866 2PiTHz   51.755145 cm-1     6.416817 meV
             X         Y         Z           dx          dy          dz
      4.724127  4.707375 17.536421     0.492670    0.462933    0.046473
      3.867224  3.852665 17.512217     0.491152    0.467102   -0.042688
      5.481376  5.463020 17.538464     0.142592    0.132743    0.039004
      3.110270  3.098360 17.464339     0.141149    0.136601   -0.038916
      0.000000  0.000000  5.866720            0           0           0
      2.851989  2.851989  5.866720            0           0           0
      0.000000  2.851989  8.718709            0           0           0
      2.851989  0.000000  8.718709            0           0           0
     11.404675 11.404934 11.588272            0           0           0
      2.849669  2.849772 11.579413            0           0           0
      5.676489  2.883392 14.456219            0           0           0
      2.846054 11.384584 14.348681            0           0           0
      0.000000  5.703977  5.866720            0           0           0
      2.851989  8.555966  5.866720            0           0           0
      0.000000  8.555966  8.718709            0           0           0
      2.851989  5.703977  8.718709            0           0           0
      0.014561  5.701519 11.595614            0           0           0
      2.854480  8.541756 11.594193            0           0           0
      5.709905  8.580516 14.352018            0           0           0
      2.882717  5.677255 14.453407            0           0           0
      5.703977  0.000000  5.866720            0           0           0
      8.555966  2.851989  5.866720            0           0           0
      5.703977  2.851989  8.718709            0           0           0
      8.555966  0.000000  8.718709            0           0           0
      5.701321  0.014969 11.596082            0           0           0
      8.541303  2.854659 11.594475            0           0           0
     11.384026  2.846507 14.348881            0           0           0
      8.548604  0.007555 14.378750            0           0           0
      5.703977  5.703977  5.866720            0           0           0
      8.555966  8.555966  5.866720            0           0           0
      5.703977  8.555966  8.718709            0           0           0
      8.555966  5.703977  8.718709            0           0           0
      5.707442  5.707542 11.582013            0           0           0
      8.558555  8.558838 11.589175            0           0           0
      0.007110  8.549072 14.378605            0           0           0
      8.580044  5.710380 14.351476            0           0           0
      0.000000  2.851989  5.866720            0           0           0
      2.851989  0.000000  5.866720            0           0           0
      0.000000  0.000000  8.718709            0           0           0
      2.851989  2.851989  8.718709            0           0           0
     11.396605  2.849098 11.554013            0           0           0
      2.848904 11.396905 11.553971            0           0           0
      5.695540  0.011593 14.480623            0           0           0
      2.810475  2.811361 14.423486            0           0           0
      0.000000  8.555966  5.866720            0           0           0
      2.851989  5.703977  5.866720            0           0           0
      0.000000  5.703977  8.718709            0           0           0
      2.851989  8.555966  8.718709            0           0           0
      0.001852  8.553683 11.567721            0           0           0
      2.856930  5.699653 11.586607            0           0           0
      5.746507  5.747253 14.425231            0           0           0
      2.859584  8.546593 14.477397            0           0           0
      5.703977  2.851989  5.866720            0           0           0
      8.555966  0.000000  5.866720            0           0           0
      5.703977  0.000000  8.718709            0           0           0
      8.555966  2.851989  8.718709            0           0           0
      5.699377  2.857169 11.587440            0           0           0
      8.553427  0.002092 11.567865            0           0           0
     11.402436 11.402822 14.469420            0           0           0
      8.546139  2.860182 14.477904            0           0           0
      5.703977  8.555966  5.866720            0           0           0
      8.555966  5.703977  5.866720            0           0           0
      5.703977  5.703977  8.718709            0           0           0
      8.555966  8.555966  8.718709            0           0           0
      5.707102  8.568142 11.555654            0           0           0
      8.567849  5.707313 11.555444            0           0           0
      0.011166  5.696090 14.479912            0           0           0
      8.562189  8.562522 14.471600            0           0           0

  12 f/i=    0.811492 THz     5.098755 2PiTHz   27.068464 cm-1     3.356060 meV
             X         Y         Z           dx          dy          dz
      4.724127  4.707375 17.536421     0.470769   -0.497203   -0.005712
      3.867224  3.852665 17.512217     0.464579   -0.491116   -0.000959
      5.481376  5.463020 17.538464     0.135141   -0.142766   -0.003070
      3.110270  3.098360 17.464339     0.129203   -0.136947    0.001120
      0.000000  0.000000  5.866720            0           0           0
      2.851989  2.851989  5.866720            0           0           0
      0.000000  2.851989  8.718709            0           0           0
      2.851989  0.000000  8.718709            0           0           0
     11.404675 11.404934 11.588272            0           0           0
      2.849669  2.849772 11.579413            0           0           0
      5.676489  2.883392 14.456219            0           0           0
      2.846054 11.384584 14.348681            0           0           0
      0.000000  5.703977  5.866720            0           0           0
      2.851989  8.555966  5.866720            0           0           0
      0.000000  8.555966  8.718709            0           0           0
      2.851989  5.703977  8.718709            0           0           0
      0.014561  5.701519 11.595614            0           0           0
      2.854480  8.541756 11.594193            0           0           0
      5.709905  8.580516 14.352018            0           0           0
      2.882717  5.677255 14.453407            0           0           0
      5.703977  0.000000  5.866720            0           0           0
      8.555966  2.851989  5.866720            0           0           0
      5.703977  2.851989  8.718709            0           0           0
      8.555966  0.000000  8.718709            0           0           0
      5.701321  0.014969 11.596082            0           0           0
      8.541303  2.854659 11.594475            0           0           0
     11.384026  2.846507 14.348881            0           0           0
      8.548604  0.007555 14.378750            0           0           0
      5.703977  5.703977  5.866720            0           0           0
      8.555966  8.555966  5.866720            0           0           0
      5.703977  8.555966  8.718709            0           0           0
      8.555966  5.703977  8.718709            0           0           0
      5.707442  5.707542 11.582013            0           0           0
      8.558555  8.558838 11.589175            0           0           0
      0.007110  8.549072 14.378605            0           0           0
      8.580044  5.710380 14.351476            0           0           0
      0.000000  2.851989  5.866720            0           0           0
      2.851989  0.000000  5.866720            0           0           0
      0.000000  0.000000  8.718709            0           0           0
      2.851989  2.851989  8.718709            0           0           0
     11.396605  2.849098 11.554013            0           0           0
      2.848904 11.396905 11.553971            0           0           0
      5.695540  0.011593 14.480623            0           0           0
      2.810475  2.811361 14.423486            0           0           0
      0.000000  8.555966  5.866720            0           0           0
      2.851989  5.703977  5.866720            0           0           0
      0.000000  5.703977  8.718709            0           0           0
      2.851989  8.555966  8.718709            0           0           0
      0.001852  8.553683 11.567721            0           0           0
      2.856930  5.699653 11.586607            0           0           0
      5.746507  5.747253 14.425231            0           0           0
      2.859584  8.546593 14.477397            0           0           0
      5.703977  2.851989  5.866720            0           0           0
      8.555966  0.000000  5.866720            0           0           0
      5.703977  0.000000  8.718709            0           0           0
      8.555966  2.851989  8.718709            0           0           0
      5.699377  2.857169 11.587440            0           0           0
      8.553427  0.002092 11.567865            0           0           0
     11.402436 11.402822 14.469420            0           0           0
      8.546139  2.860182 14.477904            0           0           0
      5.703977  8.555966  5.866720            0           0           0
      8.555966  5.703977  5.866720            0           0           0
      5.703977  5.703977  8.718709            0           0           0
      8.555966  8.555966  8.718709            0           0           0
      5.707102  8.568142 11.555654            0           0           0
      8.567849  5.707313 11.555444            0           0           0
      0.011166  5.696090 14.479912            0           0           0
      8.562189  8.562522 14.471600            0           0           0

 Finite differences POTIM=   1.0000000000000000E-002