 vasp.6.3.0 20Jan22 (build Dec 25 2023 18:06:01) complex
 executed on        HPECrayEX_GCC date 2025.03.09  14:11:13

 INCAR:
   SYSTEM = NaCl
   ISMEAR = 0
   SIGMA = 0.05
   EDIFF = 1E-7
   ALGO = Normal
   ISTART = 0
   IBRION = -1
   NSW = 0
   ISYM = 2
   ISIF = 2
   DIPOL = 0.5 0.5 0.5
   IDIPOL = 3
   LDIPOL = .TRUE.
   GGA = RE
   IVDW = 13
   VDW_S8 = 1.7468
   VDW_A1 = 0.5363
   VDW_A2 = 3.0726
   ENCUT = 600
   PREC = Accurate
   LASPH = .TRUE.
   LREAL = .FALSE.
   ISPIN = 1
   NELM = 200
   NELMIN = 8
   NCORE = 64
   KPAR = 2
   LWAVE = .FALSE.
   LCHARG = .FALSE.

 POTCAR:    PAW_PBE C 08Apr2002
 POTCAR:    PAW_PBE H 15Jun2001
 POTCAR:    PAW_PBE Na_pv 19Sep2006
 POTCAR:    PAW_PBE Cl 06Sep2000
 POTCAR:    PAW_PBE C 08Apr2002
   VRHFIN =C: s2p2

   TITEL  = PAW_PBE C 08Apr2002
   POMASS =   12.011; ZVAL   =    4.000    mass and valenz
   ENMAX  =  400.000; ENMIN  =  300.000 eV

   TITEL  = PAW_PBE H 15Jun2001
   POMASS =    1.000; ZVAL   =    1.000    mass and valenz
   ENMAX  =  250.000; ENMIN  =  200.000 eV

   TITEL  = PAW_PBE Na_pv 19Sep2006
   POMASS =   22.990; ZVAL   =    7.000    mass and valenz
   ENMAX  =  259.561; ENMIN  =  194.671 eV

   TITEL  = PAW_PBE Cl 06Sep2000
   POMASS =   35.453; ZVAL   =    7.000    mass and valenz
   ENMAX  =  262.472; ENMIN  =  196.854 eV

  PAW_PBE C 08Apr2002                   :
  PAW_PBE H 15Jun2001                   :
  PAW_PBE Na_pv 19Sep2006               :
  PAW_PBE Cl 06Sep2000                  :

 POSCAR: C  H  Na Cl
  positions in direct lattice
|           W    W    AA    RRRRR   N    N  II  N    N   GGGG   !!!           |
|           W    W   A  A   R    R  NN   N  II  NN   N  G    G  !!!           |
|           W    W  A    A  R    R  N N  N  II  N N  N  G       !!!           |
|           W WW W  AAAAAA  RRRRR   N  N N  II  N  N N  G  GGG   !            |
|           WW  WW  A    A  R   R   N   NN  II  N   NN  G    G                |
|           W    W  A    A  R    R  N    N  II  N    N   GGGG   !!!           |
|     Specifying the vdW parameters                                           |
|     VDW_S8 = 1.747                                                          |
|     VDW_A1 = 0.536                                                          |
|     VDW_A2 = 3.073                                                          |
|     in the INCAR file will overwrite the defaults for revpbe. Please        |
|     make sure that is what you intended.                                    |

 ion  position               nearest neighbor table
   1  0.414  0.413  0.744-   3 1.07   2 1.21
   2  0.339  0.338  0.743-   4 1.07   1 1.21
   3  0.480  0.479  0.745-   1 1.07
   4  0.273  0.272  0.741-   2 1.07
   5  0.000  0.000  0.249-
   6  0.250  0.250  0.249-
   7  0.000  0.250  0.370-
   8  0.250  0.000  0.370-
   9  1.000  1.000  0.492-
  10  0.250  0.250  0.492-
  11  0.498  0.253  0.614-
  12  0.249  0.998  0.609-
  13  0.000  0.500  0.249-
  14  0.250  0.750  0.249-
  15  0.000  0.750  0.370-
  16  0.250  0.500  0.370-
  17  0.001  0.500  0.492-
  18  0.250  0.749  0.492-
  19  0.501  0.752  0.609-
  20  0.253  0.498  0.614-
  21  0.500  0.000  0.249-
  22  0.750  0.250  0.249-
  23  0.500  0.250  0.370-
  24  0.750  0.000  0.370-
  25  0.500  0.001  0.492-
  26  0.749  0.250  0.492-
  27  0.998  0.250  0.609-
  28  0.749  0.001  0.610-
  29  0.500  0.500  0.249-
  30  0.750  0.750  0.249-
  31  0.500  0.750  0.370-
  32  0.750  0.500  0.370-
  33  0.500  0.500  0.492-
  34  0.750  0.750  0.492-
  35  0.001  0.749  0.610-
  36  0.752  0.501  0.609-
  37  0.000  0.250  0.249-
  38  0.250  0.000  0.249-
  39  0.000  0.000  0.370-
  40  0.250  0.250  0.370-
  41  0.999  0.250  0.490-
  42  0.250  0.999  0.490-
  43  0.499  0.001  0.615-
  44  0.246  0.246  0.612-
  45  0.000  0.750  0.249-
  46  0.250  0.500  0.249-
  47  0.000  0.500  0.370-
  48  0.250  0.750  0.370-
  49  0.000  0.750  0.491-
  50  0.250  0.500  0.492-
  51  0.504  0.504  0.612-
  52  0.251  0.749  0.615-
  53  0.500  0.250  0.249-
  54  0.750  0.000  0.249-
  55  0.500  0.000  0.370-
  56  0.750  0.250  0.370-
  57  0.500  0.250  0.492-
  58  0.750  0.000  0.491-
  59  1.000  1.000  0.614-
  60  0.749  0.251  0.615-
  61  0.500  0.750  0.249-
  62  0.750  0.500  0.249-
  63  0.500  0.500  0.370-
  64  0.750  0.750  0.370-
  65  0.500  0.751  0.491-
  66  0.751  0.500  0.491-
  67  0.001  0.499  0.615-
  68  0.751  0.751  0.614-

  LATTYP: Found a simple tetragonal cell.
 ALAT       =    11.4079547789
 C/A-ratio  =     2.0648719723

  Lattice vectors:

 A1 = (  11.4079547789,   0.0000000000,   0.0000000000)
 A2 = (   0.0000000000,  11.4079547789,   0.0000000000)
 A3 = (   0.0000000000,   0.0000000000,  23.5559660842)

Analysis of symmetry for initial positions (statically):
 Subroutine PRICEL returns:
 Original cell was already a primitive cell.

 Routine SETGRP: Setting up the symmetry group for a
 simple tetragonal supercell.

 Subroutine GETGRP returns: Found  1 space group operations
 (whereof  1 operations were pure point group operations)
 out of a pool of 16 trial point group operations.

The static configuration has the point symmetry C_1 .

Analysis of symmetry for dynamics (positions and initial velocities):
 Subroutine PRICEL returns:
 Original cell was already a primitive cell.

[...]

The dynamic configuration has the point symmetry C_1 .

Analysis of constrained symmetry for selective dynamics:
 Subroutine PRICEL returns:
 Original cell was already a primitive cell.

 Routine SETGRP: Setting up the symmetry group for a
 simple tetragonal supercell.

 Subroutine GETGRP returns: Found  1 space group operations
 (whereof  1 operations were pure point group operations)
 out of a pool of 16 trial point group operations.

The constrained configuration has the point symmetry C_1 .

 Subroutine INISYM returns: Found  1 space group operations
 (whereof  1 operations are pure point group operations),
 and found     1 'primitive' translations

                                     Primitive cell

  volume of cell :    3065.6072

  direct lattice vectors                    reciprocal lattice vectors
    11.407954779  0.000000000  0.000000000     0.087658131 -0.000000000  0.000000000
     0.000000000 11.407954779  0.000000000     0.000000000  0.087658131  0.000000000
     0.000000000  0.000000000 23.555966084     0.000000000  0.000000000  0.042452090

  length of vectors
    11.407954779 11.407954779 23.555966084     0.087658131  0.087658131  0.042452090

  position of ions in fractional coordinates (direct lattice)
     0.414108180  0.412639689  0.744457709
     0.338993662  0.337717409  0.743430221
     0.480487135  0.478878129  0.744544466
     0.272640461  0.271596426  0.741397685
     0.000000000  0.000000000  0.249054547
     0.250000000  0.250000000  0.249054547
     1.000000000  0.250000000  0.370127429
     0.250000000  0.000000000  0.370127429
     0.999712498  0.999735244  0.491946367
     0.249796672  0.249805700  0.491570273
     0.497590401  0.252752779  0.613696731
     0.249479755  0.997951325  0.609131482
     1.000000000  0.500000000  0.249054547
     0.250000000  0.750000000  0.249054547
     1.000000000  0.750000000  0.370127429
     0.250000000  0.500000000  0.370127429
     0.001276412  0.499784507  0.492258033
     0.250218403  0.748754351  0.492197739
     0.500519581  0.752152003  0.609273153
     0.252693572  0.497657596  0.613577322
     0.500000000  0.000000000  0.249054547
     0.750000000  0.250000000  0.249054547
     0.500000000  0.250000000  0.370127429
     0.750000000  0.000000000  0.370127429
     0.499767165  0.001312196  0.492277927
     0.748714644  0.250234094  0.492209686
     0.997902433  0.249519460  0.609139973
     0.749354642  0.000662274  0.610408006
     0.500000000  0.500000000  0.249054547
     0.750000000  0.750000000  0.249054547
     0.500000000  0.750000000  0.370127429
     0.750000000  0.500000000  0.370127429
     0.500303738  0.500312443  0.491680664
     0.750226954  0.750251784  0.491984709
     0.000623264  0.749395710  0.610401850
     0.752110641  0.500561201  0.609250150
     1.000000000  0.250000000  0.249054547
     0.250000000  0.000000000  0.249054547
     0.000000000  0.000000000  0.370127429
     0.250000000  0.250000000  0.370127429
     0.999005094  0.249746646  0.490492009
     0.249729594  0.999031371  0.490490207
     0.499260429  0.001016208  0.614732722
     0.246361022  0.246438615  0.612307117
     1.000000000  0.750000000  0.249054547
     0.250000000  0.500000000  0.249054547
     1.000000000  0.500000000  0.370127429
     0.250000000  0.750000000  0.370127429
     0.000162325  0.749799851  0.491073922
     0.250433110  0.499620900  0.491875691
     0.503728102  0.503793455  0.612381194
     0.250665807  0.749178334  0.614595769
     0.500000000  0.250000000  0.249054547
     0.750000000  0.000000000  0.249054547
     0.500000000  0.000000000  0.370127429
     0.750000000  0.250000000  0.370127429
     0.499596766  0.250454118  0.491911050
     0.749777468  0.000183397  0.491080038
     0.999516216  0.999550070  0.614257145
     0.749138600  0.250718251  0.614617288
     0.500000000  0.750000000  0.249054547
     0.750000000  0.500000000  0.249054547
     0.500000000  0.500000000  0.370127429
     0.750000000  0.750000000  0.370127429
     0.500273917  0.751067317  0.490561668
     0.751041594  0.500292408  0.490552774
     0.000978781  0.499308608  0.614702551
     0.750545504  0.750574652  0.614349670

  ion indices of the primitive-cell ions
   primitive index   ion index
                 1           1
                 2           2
                 3           3
                 4           4
                 5           5
                 6           6
                 7           7
                 8           8
                 9           9
                10          10
                11          11
                12          12
                13          13
                14          14
                15          15
                16          16
                17          17
                18          18
                19          19
                20          20
                21          21
                22          22
                23          23
                24          24
                25          25
                26          26
                27          27
                28          28
                29          29
                30          30
                31          31
                32          32
                33          33
                34          34
                35          35
                36          36
                37          37
                38          38
                39          39
                40          40
                41          41
                42          42
                43          43
                44          44
                45          45
                46          46
                47          47
                48          48
                49          49
                50          50
                51          51
                52          52
[...]

  FORCE on cell =-STRESS in cart. coord.  units (eV):
  Direction    XX          YY          ZZ          XY          YZ          ZX
  Alpha Z   359.34465   359.34465   359.34465
  Ewald   67659.86516 67658.95690-82695.19508   170.40935     5.41864     5.06364
  Hartree 76694.85856 76694.56281-70273.15280    56.08937     1.82196     1.57500
  E(xc)   -2104.50784 -2104.51284 -2108.34076     0.94977     0.02924     0.02982
  Local  ************************146616.95752  -204.77070    -6.56758    -5.97943
  n-local  1919.29200  1919.29176  1908.67137    -0.01771     0.00765     0.00333
  augment   723.93909   723.93996   718.71020    -0.18416    -0.00101    -0.00310
  Kinetic  5431.11710  5431.23829  5482.64097   -22.16117    -0.72742    -0.69668
  Fock        0.00000     0.00000     0.00000     0.00000     0.00000     0.00000
  vdW       -11.59490   -11.59490    -9.94499    -0.04129     0.00126    -0.00040
  Total      -6.16704    -6.16683    -0.30892     0.27346    -0.01727    -0.00783
  in kB      -3.22308    -3.22297    -0.16145     0.14292    -0.00903    -0.00409

 VOLUME and BASIS-vectors are now :
  energy-cutoff  :      600.00
  volume of cell :     3065.61
      direct lattice vectors                 reciprocal lattice vectors
    11.407954779  0.000000000  0.000000000     0.087658131 -0.000000000  0.000000000
     0.000000000 11.407954779  0.000000000     0.000000000  0.087658131  0.000000000
     0.000000000  0.000000000 23.555966084     0.000000000  0.000000000  0.042452090

  length of vectors
    11.407954779 11.407954779 23.555966084     0.087658131  0.087658131  0.042452090

 FORCES acting on ions
    electron-ion (+dipol)            ewald-force                    non-local-force                 convergence-correction
   -.806E+02 -.804E+02 -.467E+03   0.824E+02 0.822E+02 0.467E+03   -.182E+01 -.182E+01 -.781E-01   -.153E-03 -.153E-03 0.939E-05
   0.806E+02 0.804E+02 -.465E+03   -.825E+02 -.823E+02 0.465E+03   0.187E+01 0.186E+01 -.284E-01   0.149E-03 0.149E-03 0.187E-04
   -.395E+02 -.394E+02 -.117E+03   0.439E+02 0.438E+02 0.117E+03   -.440E+01 -.439E+01 0.339E-01   -.395E-04 -.395E-04 -.178E-05
   0.395E+02 0.393E+02 -.116E+03   -.439E+02 -.437E+02 0.116E+03   0.440E+01 0.438E+01 0.330E+00   0.401E-04 0.400E-04 0.132E-05
   0.198E+00 0.197E+00 0.851E+03   -.200E+00 -.199E+00 -.848E+03   0.116E-02 0.113E-02 -.262E+01   -.691E-05 -.472E-05 -.338E-03
   0.127E+00 0.129E+00 0.851E+03   -.127E+00 -.130E+00 -.848E+03   0.678E-03 0.722E-03 -.261E+01   -.542E-05 -.607E-05 -.316E-03
   0.546E+00 0.184E+00 0.294E+03   -.582E+00 -.179E+00 -.294E+03   0.302E-01 -.365E-02 0.127E+00   -.378E-06 -.277E-05 -.281E-04
   0.169E+00 0.541E+00 0.294E+03   -.164E+00 -.576E+00 -.294E+03   -.377E-02 0.297E-01 0.127E+00   -.253E-06 -.417E-06 -.285E-04
   0.226E+01 0.225E+01 -.263E+03   -.226E+01 -.226E+01 0.263E+03   0.692E-02 0.642E-02 -.544E-01   -.345E-05 -.163E-05 0.120E-03
   0.202E+01 0.201E+01 -.250E+03   -.197E+01 -.196E+01 0.250E+03   -.552E-01 -.534E-01 -.248E+00   -.136E-04 -.118E-04 0.215E-03
   -.222E+02 0.225E+02 -.788E+03   0.223E+02 -.226E+02 0.785E+03   -.650E-01 0.404E-01 0.205E+01   0.299E-04 -.319E-04 0.178E-03
   0.602E+01 0.134E+02 -.810E+03   -.602E+01 -.134E+02 0.808E+03   0.171E-02 -.371E-01 0.223E+01   -.330E-05 -.279E-04 0.227E-03
   0.137E+00 -.198E+00 0.851E+03   -.137E+00 0.199E+00 -.848E+03   -.624E-04 -.922E-03 -.263E+01   -.738E-05 0.679E-05 -.326E-03
   0.189E+00 -.130E+00 0.851E+03   -.190E+00 0.130E+00 -.848E+03   0.786E-03 0.154E-03 -.263E+01   -.382E-05 0.629E-05 -.322E-03
   0.255E+00 -.212E+00 0.292E+03   -.247E+00 0.202E+00 -.292E+03   -.603E-02 0.845E-02 0.190E+00   -.837E-06 0.118E-05 -.280E-04
   0.597E+00 -.632E+00 0.293E+03   -.609E+00 0.646E+00 -.293E+03   0.105E-01 -.115E-01 0.237E+00   0.719E-05 -.723E-05 0.322E-04
   0.168E+01 -.238E+01 -.262E+03   -.162E+01 0.239E+01 0.262E+03   -.558E-01 -.531E-02 -.662E-01   -.117E-05 0.120E-05 0.124E-03
   0.237E+01 -.170E+01 -.261E+03   -.237E+01 0.164E+01 0.261E+03   0.220E-02 0.594E-01 -.705E-01   -.123E-05 0.552E-06 0.126E-03
   -.588E+01 -.137E+02 -.810E+03   0.588E+01 0.136E+02 0.808E+03   -.200E-02 0.564E-01 0.223E+01   0.371E-05 0.274E-04 0.224E-03
   0.225E+02 -.222E+02 -.788E+03   -.225E+02 0.223E+02 0.786E+03   0.426E-01 -.673E-01 0.206E+01   -.305E-04 0.295E-04 0.189E-03
   -.199E+00 0.136E+00 0.851E+03   0.200E+00 -.136E+00 -.848E+03   -.936E-03 -.104E-03 -.263E+01   0.393E-05 -.686E-05 -.326E-03
   -.127E+00 0.192E+00 0.851E+03   0.127E+00 -.193E+00 -.848E+03   0.220E-03 0.825E-03 -.263E+01   0.929E-05 -.732E-05 -.320E-03
   -.642E+00 0.612E+00 0.293E+03   0.655E+00 -.625E+00 -.293E+03   -.114E-01 0.106E-01 0.239E+00   -.776E-05 0.654E-05 0.346E-04
   -.200E+00 0.248E+00 0.292E+03   0.190E+00 -.241E+00 -.292E+03   0.894E-02 -.640E-02 0.191E+00   0.270E-05 -.744E-06 -.266E-04
   -.238E+01 0.169E+01 -.262E+03   0.239E+01 -.163E+01 0.262E+03   -.559E-02 -.575E-01 -.666E-01   0.352E-05 -.309E-05 0.122E-03
   -.171E+01 0.238E+01 -.261E+03   0.165E+01 -.239E+01 0.261E+03   0.614E-01 0.275E-02 -.705E-01   0.248E-05 -.388E-05 0.126E-03
   0.133E+02 0.593E+01 -.810E+03   -.133E+02 -.593E+01 0.808E+03   -.392E-01 0.155E-02 0.223E+01   -.277E-04 -.332E-05 0.227E-03
   -.506E+01 0.499E+01 -.822E+03   0.507E+01 -.500E+01 0.820E+03   -.867E-02 0.858E-02 0.217E+01   0.460E-05 -.531E-05 0.211E-03
   -.136E+00 -.135E+00 0.851E+03   0.137E+00 0.136E+00 -.848E+03   -.881E-03 -.860E-03 -.261E+01   0.461E-05 0.824E-05 -.321E-03
   -.189E+00 -.191E+00 0.851E+03   0.190E+00 0.192E+00 -.848E+03   -.971E-03 -.103E-02 -.262E+01   0.723E-05 0.390E-05 -.334E-03
   -.225E+00 -.510E+00 0.294E+03   0.223E+00 0.546E+00 -.294E+03   0.155E-02 -.308E-01 0.133E+00   0.152E-06 0.365E-06 -.306E-04
   -.498E+00 -.216E+00 0.294E+03   0.534E+00 0.214E+00 -.294E+03   -.302E-01 0.152E-02 0.132E+00   0.807E-07 0.190E-05 -.267E-04
   -.199E+01 -.200E+01 -.250E+03   0.194E+01 0.195E+01 0.251E+03   0.490E-01 0.506E-01 -.267E+00   0.134E-04 0.167E-04 0.225E-03
   -.225E+01 -.226E+01 -.263E+03   0.226E+01 0.227E+01 0.263E+03   -.476E-02 -.552E-02 -.504E-01   0.624E-06 0.260E-05 0.119E-03
   0.492E+01 -.499E+01 -.822E+03   -.492E+01 0.500E+01 0.820E+03   0.820E-02 -.846E-02 0.217E+01   -.562E-05 0.510E-05 0.207E-03
   -.138E+02 -.597E+01 -.810E+03   0.137E+02 0.597E+01 0.808E+03   0.545E-01 -.231E-02 0.223E+01   0.286E-04 0.414E-05 0.224E-03
   0.200E+00 0.133E+00 0.848E+03   -.201E+00 -.133E+00 -.848E+03   0.185E-02 -.627E-03 -.182E+00   -.342E-05 -.144E-04 -.560E-03
   0.131E+00 0.199E+00 0.848E+03   -.130E+00 -.200E+00 -.848E+03   -.672E-03 0.183E-02 -.182E+00   -.429E-05 -.325E-05 -.564E-03
   0.649E+00 0.642E+00 0.292E+03   -.645E+00 -.639E+00 -.292E+03   -.660E-02 -.642E-02 -.593E-02   -.274E-05 0.151E-05 -.950E-04
   0.379E-01 0.532E-01 0.294E+03   -.403E-01 -.556E-01 -.294E+03   0.476E-02 0.478E-02 0.353E-02   0.840E-05 0.453E-05 -.788E-04
   0.293E+01 0.135E+01 -.250E+03   -.293E+01 -.135E+01 0.250E+03   -.361E-02 0.144E-04 0.976E-01   -.868E-05 -.391E-05 0.241E-03
   0.135E+01 0.294E+01 -.250E+03   -.135E+01 -.293E+01 0.250E+03   0.252E-04 -.351E-02 0.978E-01   -.541E-06 -.851E-05 0.243E-03
   -.774E+01 0.105E+02 -.829E+03   0.774E+01 -.104E+02 0.829E+03   0.216E-02 -.469E-01 -.198E+00   0.715E-05 -.194E-04 0.358E-03
   0.200E+02 0.197E+02 -.781E+03   -.200E+02 -.197E+02 0.781E+03   -.537E-01 -.530E-01 -.255E+00   -.103E-04 -.104E-04 0.306E-03
   0.141E+00 -.133E+00 0.848E+03   -.141E+00 0.132E+00 -.848E+03   -.305E-03 0.544E-03 -.183E+00   -.646E-05 0.765E-05 -.565E-03
   0.192E+00 -.199E+00 0.848E+03   -.193E+00 0.201E+00 -.848E+03   0.234E-02 -.238E-02 -.180E+00   0.592E-05 0.811E-06 -.536E-03
   0.141E+00 -.669E+00 0.292E+03   -.155E+00 0.668E+00 -.292E+03   0.237E-01 0.215E-02 -.737E-02   0.638E-05 0.686E-06 -.837E-04
   0.625E+00 -.104E+00 0.292E+03   -.624E+00 0.117E+00 -.292E+03   -.203E-02 -.233E-01 -.695E-02   0.192E-05 0.154E-05 -.826E-04
   0.131E+01 -.128E+01 -.257E+03   -.131E+01 0.128E+01 0.257E+03   -.274E-04 0.105E-02 0.872E-01   -.201E-05 0.532E-05 0.250E-03
   0.312E+01 -.308E+01 -.254E+03   -.311E+01 0.307E+01 0.254E+03   -.993E-02 0.964E-02 0.182E-01   -.459E-05 0.867E-05 0.220E-03
   -.196E+02 -.199E+02 -.781E+03   0.196E+02 0.198E+02 0.781E+03   0.530E-01 0.537E-01 -.272E+00   0.128E-04 0.157E-04 0.303E-03
   0.785E+01 -.105E+02 -.828E+03   -.785E+01 0.104E+02 0.829E+03   -.108E-02 0.448E-01 -.194E+00   -.469E-05 0.187E-04 0.359E-03
   -.201E+00 0.194E+00 0.848E+03   0.202E+00 -.196E+00 -.848E+03   -.241E-02 0.239E-02 -.180E+00   -.456E-05 0.101E-05 -.538E-03
   -.130E+00 0.140E+00 0.848E+03   0.130E+00 -.140E+00 -.848E+03   0.589E-03 -.320E-03 -.183E+00   0.103E-04 0.305E-05 -.557E-03
   -.677E+00 0.134E+00 0.292E+03   0.677E+00 -.148E+00 -.292E+03   0.200E-02 0.241E-01 -.722E-02   -.489E-05 -.924E-06 -.837E-04
   -.902E-01 0.639E+00 0.292E+03   0.104E+00 -.638E+00 -.292E+03   -.238E-01 -.190E-02 -.683E-02   0.126E-06 0.333E-06 -.826E-04
   -.308E+01 0.313E+01 -.254E+03   0.307E+01 -.312E+01 0.254E+03   0.965E-02 -.994E-02 0.161E-01   0.968E-05 -.500E-05 0.219E-03
   -.127E+01 0.131E+01 -.257E+03   0.127E+01 -.131E+01 0.257E+03   0.946E-03 0.649E-04 0.874E-01   0.117E-05 -.300E-05 0.252E-03
   0.652E+01 0.654E+01 -.836E+03   -.652E+01 -.654E+01 0.837E+03   -.101E-02 -.106E-02 -.189E+00   -.627E-05 -.605E-05 0.386E-03
   -.107E+02 0.786E+01 -.828E+03   0.106E+02 -.786E+01 0.829E+03   0.454E-01 -.869E-03 -.194E+00   0.206E-04 -.592E-05 0.358E-03
   -.141E+00 -.194E+00 0.848E+03   0.141E+00 0.195E+00 -.848E+03   0.364E-03 -.180E-02 -.182E+00   -.266E-05 -.385E-05 -.565E-03
   -.191E+00 -.140E+00 0.848E+03   0.192E+00 0.140E+00 -.848E+03   -.176E-02 0.400E-03 -.182E+00   0.157E-05 0.803E-05 -.559E-03
   -.833E-01 -.742E-01 0.294E+03   0.851E-01 0.759E-01 -.294E+03   -.373E-02 -.371E-02 0.444E-02   -.856E-05 -.518E-05 -.721E-04
   -.601E+00 -.614E+00 0.292E+03   0.598E+00 0.610E+00 -.292E+03   0.588E-02 0.610E-02 -.590E-02   0.110E-05 -.154E-05 -.895E-04
   -.135E+01 -.298E+01 -.250E+03   0.135E+01 0.298E+01 0.250E+03   0.104E-02 0.360E-02 0.946E-01   0.267E-05 0.999E-06 0.242E-03
   -.298E+01 -.135E+01 -.250E+03   0.298E+01 0.135E+01 0.250E+03   0.351E-02 0.101E-02 0.950E-01   0.349E-05 0.487E-05 0.244E-03
   0.103E+02 -.774E+01 -.829E+03   -.103E+02 0.774E+01 0.829E+03   -.464E-01 0.237E-02 -.198E+00   -.205E-04 0.561E-05 0.358E-03
   -.663E+01 -.661E+01 -.836E+03   0.663E+01 0.661E+01 0.837E+03   0.201E-02 0.191E-02 -.190E+00   0.528E-05 0.533E-05 0.385E-03
   -.408E-01 -.200E-01 0.543E+01   0.114E-12 -.284E-12 -.273E-11   0.409E-01 0.199E-01 -.543E+01   0.267E-05 -.269E-05 -.202E-03

 POSITION                                       TOTAL-FORCE (eV/Angst)
      4.72413      4.70737     17.53642         0.005352      0.004631     -0.000896
      3.86722      3.85266     17.51222        -0.003026     -0.003127     -0.001343
      5.48138      5.46302     17.53846        -0.002735     -0.002809     -0.002553
      3.11027      3.09836     17.46434        -0.000854     -0.001427      0.002138
      0.00000      0.00000      5.86672        -0.000234     -0.000223      0.128579
      2.85199      2.85199      5.86672        -0.000165     -0.000170      0.126070
      0.00000      2.85199      8.71871        -0.005953      0.000996     -0.024394
      2.85199      0.00000      8.71871         0.001033     -0.005883     -0.024478
     11.40467     11.40493     11.58827         0.000196      0.000228      0.001778
      2.84967      2.84977     11.57941        -0.000361     -0.000313      0.001116
      5.67649      2.88339     14.45622        -0.000011     -0.000424      0.000188
      2.84605     11.38458     14.34868        -0.000077     -0.000273      0.001298
      0.00000      5.70398      5.86672        -0.000005      0.000188      0.129507
      2.85199      8.55597      5.86672        -0.000160     -0.000013      0.129333
      0.00000      8.55597      8.71871         0.001137     -0.001633     -0.017496
      2.85199      5.70398      8.71871        -0.002050      0.002243     -0.003955
      0.01456      5.70152     11.59561        -0.000075      0.000317      0.000012
      2.85448      8.54176     11.59419        -0.000040      0.000341      0.000890
      5.70990      8.58052     14.35202         0.000196      0.000275     -0.000258
      2.88272      5.67726     14.45341        -0.000428      0.000019      0.000460
      5.70398      0.00000      5.86672         0.000188      0.000007      0.129544
      8.55597      2.85199      5.86672        -0.000031     -0.000165      0.129354
      5.70398      2.85199      8.71871         0.002233     -0.002074     -0.003369
      8.55597      0.00000      8.71871        -0.001723      0.001200     -0.017413
      5.70132      0.01497     11.59608         0.000313     -0.000086     -0.000131
      8.54130      2.85466     11.59447         0.000347     -0.000042      0.000882
     11.38403      2.84651     14.34888        -0.000266     -0.000048      0.001279
      8.54860      0.00756     14.37875         0.000477     -0.000043      0.001101
      5.70398      5.70398      5.86672         0.000205      0.000204      0.126331
      8.55597      8.55597      5.86672         0.000191      0.000207      0.128761
      5.70398      8.55597      8.71871        -0.000597      0.006047     -0.023144
      8.55597      5.70398      8.71871         0.005954     -0.000603     -0.023357
      5.70744      5.70754     11.58201        -0.000057     -0.000010     -0.000398
      8.55856      8.55884     11.58918         0.000152      0.000183      0.001583
      0.00711      8.54907     14.37861        -0.000083      0.000504      0.001039
      8.58004      5.71038     14.35148         0.000280      0.000220     -0.000198
      0.00000      2.85199      5.86672         0.000759     -0.000272     -0.127867
      2.85199      0.00000      5.86672        -0.000297      0.000755     -0.127874
      0.00000      0.00000      8.71871        -0.002451     -0.002386      0.013782
      2.85199      2.85199      8.71871         0.001874      0.001886      0.013258
     11.39660      2.84910     11.55401         0.000049     -0.000202      0.000315
      2.84890     11.39690     11.55397        -0.000238      0.000067      0.000332
      5.69554      0.01159     14.48062         0.000088      0.000324     -0.001357
      2.81048      2.81136     14.42349         0.000164      0.000174      0.001135
      0.00000      8.55597      5.86672        -0.000140      0.000242     -0.128466
      2.85199      5.70398      5.86672         0.000972     -0.000988     -0.127151
      0.00000      5.70398      8.71871         0.008469      0.000917      0.016715
      2.85199      8.55597      8.71871        -0.000876     -0.008332      0.016214
      0.00185      8.55368     11.56772        -0.000038      0.000605      0.000370
      2.85693      5.69965     11.58661        -0.000006     -0.000096     -0.000220
      5.74651      5.74725     14.42523        -0.000479     -0.000477     -0.000754
      2.85958      8.54659     14.47740         0.000613     -0.000270      0.000415
      5.70398      2.85199      5.86672        -0.001004      0.000997     -0.127162
      8.55597      0.00000      5.86672         0.000256     -0.000146     -0.128480
      5.70398      0.00000      8.71871         0.000859      0.008605      0.016995
      8.55597      2.85199      8.71871        -0.008487     -0.000827      0.016394
      5.69938      2.85717     11.58744        -0.000117      0.000028     -0.000330
      8.55343      0.00209     11.56786         0.000606     -0.000022      0.000364
     11.40244     11.40282     14.46942         0.000195      0.000221      0.002636
      8.54614      2.86018     14.47790        -0.000283      0.000622      0.000392
      5.70398      8.55597      5.86672         0.000166     -0.000735     -0.127962
      8.55597      5.70398      5.86672        -0.000721      0.000182     -0.127963
      5.70398      5.70398      8.71871        -0.001538     -0.001526      0.014917
      8.55597      8.55597      8.71871         0.002210      0.002286      0.014230
      5.70710      8.56814     11.55565         0.000135      0.000048     -0.000757
      8.56785      5.70731     11.55544         0.000054      0.000150     -0.000690
      0.01117      5.69609     14.47991         0.000316      0.000117     -0.001157
      8.56219      8.56252     14.47160        -0.000436     -0.000390      0.001867
    total drift:                                0.000098     -0.000132     -0.005351

  FREE ENERGIE OF THE ION-ELECTRON SYSTEM (eV)
  free  energy   TOTEN  =      -236.23293900 eV

  energy  without entropy=     -236.23293900  energy(sigma->0) =     -236.23293900