 vasp.6.3.0 20Jan22 (build Dec 25 2023 18:06:01) complex
 executed on        HPECrayEX_GCC date 2025.03.08  18:29:19

 INCAR:
   SYSTEM = NaCl
   ISMEAR = 0
   SIGMA = 0.05
   EDIFF = 1E-7
   ALGO = Normal
   ISTART = 0
   IBRION = 2
   NSW = 1000
   ISYM = 2
   ISIF = 2
   EDIFF = -0.005
   DIPOL = 0.5 0.5 0.5
   IDIPOL = 3
   LDIPOL = .TRUE.
   GGA = RE
   IVDW = 13
   VDW_S8 = 1.7468
   VDW_A1 = 0.5363
   VDW_A2 = 3.0726
   ENCUT = 600
   PREC = Accurate
   LASPH = .TRUE.
   LREAL = .FALSE.
   ISPIN = 1
   NELM = 200
   NELMIN = 8
   NCORE = 64
   KPAR = 2
   LWAVE = .FALSE.
   LCHARG = .FALSE.

 POTCAR:    PAW_PBE Na_pv 19Sep2006
 POTCAR:    PAW_PBE Cl 06Sep2000
 POTCAR:    PAW_PBE Na_pv 19Sep2006
   VRHFIN =Na: p6s1

   TITEL  = PAW_PBE Na_pv 19Sep2006
   POMASS =   22.990; ZVAL   =    7.000    mass and valenz
   ENMAX  =  259.561; ENMIN  =  194.671 eV

   TITEL  = PAW_PBE Cl 06Sep2000
   POMASS =   35.453; ZVAL   =    7.000    mass and valenz
   ENMAX  =  262.472; ENMIN  =  196.854 eV

  PAW_PBE Na_pv 19Sep2006               :
  PAW_PBE Cl 06Sep2000                  :

 POSCAR: Na Cl
  positions in direct lattice
|           W    W    AA    RRRRR   N    N  II  N    N   GGGG   !!!           |
|           W    W   A  A   R    R  NN   N  II  NN   N  G    G  !!!           |
|           W    W  A    A  R    R  N N  N  II  N N  N  G       !!!           |
|           W WW W  AAAAAA  RRRRR   N  N N  II  N  N N  G  GGG   !            |
|           WW  WW  A    A  R   R   N   NN  II  N   NN  G    G                |
|           W    W  A    A  R    R  N    N  II  N    N   GGGG   !!!           |
|     Specifying the vdW parameters                                           |
|     VDW_S8 = 1.747                                                          |
|     VDW_A1 = 0.536                                                          |
|     VDW_A2 = 3.073                                                          |
|     in the INCAR file will overwrite the defaults for revpbe. Please        |
|     make sure that is what you intended.                                    |

 ion  position               nearest neighbor table
   1  0.000  0.000  0.318-
   2  0.250  0.250  0.318-
   3  0.000  0.250  0.439-
   4  0.250  0.000  0.439-
   5  0.000  0.000  0.561-
   6  0.250  0.250  0.561-
   7  0.500  0.250  0.682-
   8  0.250  0.000  0.682-
   9  0.000  0.500  0.318-
  10  0.250  0.750  0.318-
  11  0.000  0.750  0.439-
  12  0.250  0.500  0.439-
  13  0.000  0.500  0.561-
  14  0.250  0.750  0.561-
  15  0.500  0.750  0.682-
  16  0.250  0.500  0.682-
  17  0.500  0.000  0.318-
  18  0.750  0.250  0.318-
  19  0.500  0.250  0.439-
  20  0.750  0.000  0.439-
  21  0.500  0.000  0.561-
  22  0.750  0.250  0.561-
  23  0.000  0.250  0.682-
  24  0.750  0.000  0.682-
  25  0.500  0.500  0.318-
  26  0.750  0.750  0.318-
  27  0.500  0.750  0.439-
  28  0.750  0.500  0.439-
  29  0.500  0.500  0.561-
  30  0.750  0.750  0.561-
  31  0.000  0.750  0.682-
  32  0.750  0.500  0.682-
  33  0.000  0.250  0.318-
  34  0.250  0.000  0.318-
  35  0.000  0.000  0.439-
  36  0.250  0.250  0.439-
  37  0.000  0.250  0.561-
  38  0.250  0.000  0.561-
  39  0.500  0.000  0.682-
  40  0.250  0.250  0.682-
  41  0.000  0.750  0.318-
  42  0.250  0.500  0.318-
  43  0.000  0.500  0.439-
  44  0.250  0.750  0.439-
  45  0.000  0.750  0.561-
  46  0.250  0.500  0.561-
  47  0.500  0.500  0.682-
  48  0.250  0.750  0.682-
  49  0.500  0.250  0.318-
  50  0.750  0.000  0.318-
  51  0.500  0.000  0.439-
  52  0.750  0.250  0.439-
  53  0.500  0.250  0.561-
  54  0.750  0.000  0.561-
  55  0.000  0.000  0.682-
  56  0.750  0.250  0.682-
  57  0.500  0.750  0.318-
  58  0.750  0.500  0.318-
  59  0.500  0.500  0.439-
  60  0.750  0.750  0.439-
  61  0.500  0.750  0.561-
  62  0.750  0.500  0.561-
  63  0.000  0.500  0.682-
  64  0.750  0.750  0.682-

  LATTYP: Found a simple tetragonal cell.
 ALAT       =    11.4079547789
 C/A-ratio  =     2.0648719723

  Lattice vectors:

 A1 = (  11.4079547789,   0.0000000000,   0.0000000000)
 A2 = (   0.0000000000,  11.4079547789,   0.0000000000)
 A3 = (   0.0000000000,   0.0000000000,  23.5559660842)

Analysis of symmetry for initial positions (statically):
 Subroutine PRICEL returns following result:

[...]

   8 primitive cells build up your supercell.

 Routine SETGRP: Setting up the symmetry group for a
 simple tetragonal supercell.

 Subroutine GETGRP returns: Found 16 space group operations
 (whereof  8 operations were pure point group operations)
 out of a pool of 16 trial point group operations.

The static configuration has the point symmetry C_4v.
 The point group associated with its full space group is D_4h.

Analysis of symmetry for dynamics (positions and initial velocities):
 Subroutine PRICEL returns following result:

[...]

The dynamic configuration has the point symmetry C_4v.
 The point group associated with its full space group is D_4h.

Analysis of constrained symmetry for selective dynamics:
 Subroutine PRICEL returns following result:

  LATTYP: Found a simple tetragonal cell.
 ALAT       =     4.0333210918
 C/A-ratio  =     5.8403398956

  Lattice vectors:

 A1 = (   2.8519886947,  -2.8519886947,   0.0000000000)
 A2 = (   2.8519886947,   2.8519886947,   0.0000000000)
 A3 = (   0.0000000000,   0.0000000000,  23.5559660842)

   8 primitive cells build up your supercell.

 Routine SETGRP: Setting up the symmetry group for a
 simple tetragonal supercell.

 Subroutine GETGRP returns: Found  8 space group operations
 (whereof  8 operations were pure point group operations)
 out of a pool of 16 trial point group operations.

The constrained configuration has the point symmetry C_4v.

 Subroutine INISYM returns: Found  8 space group operations
 (whereof  8 operations are pure point group operations),
 and found     8 'primitive' translations

                                     Primitive cell

  volume of cell :     383.2009

  direct lattice vectors                    reciprocal lattice vectors
     2.851988695 -2.851988695  0.000000000     0.175316263 -0.175316263  0.000000000
     2.851988695  2.851988695  0.000000000     0.175316263  0.175316263 -0.000000000
     0.000000000  0.000000000 23.555966084    -0.000000000  0.000000000  0.042452090

  length of vectors
     4.033321092  4.033321092 23.555966084     0.247934637  0.247934637  0.042452090

  position of ions in fractional coordinates (direct lattice)
     0.000000000  0.000000000  0.318390677
     0.500000000  0.500000000  0.439463559
     0.000000000  0.000000000  0.560536441
     0.500000000  0.500000000  0.681609323
     0.500000000  0.500000000  0.318390677
     0.000000000  0.000000000  0.439463559
     0.500000000  0.500000000  0.560536441
     0.000000000  0.000000000  0.681609323

  ion indices of the primitive-cell ions
   primitive index   ion index
                 1           1
                 2           3
                 3           5
                 4          24
                 5          33
                 6          35
                 7          37
                 8          55

 KPOINTS: pymatgen v2020.8.13 with grid density =

Automatic generation of k-mesh.
 Grid dimensions read from file:
 generate k-points for:    3    3    1

 Generating k-lattice:

  Cartesian coordinates                     Fractional coordinates (reciprocal lattice)
     0.029219377 -0.000000000  0.000000000     0.333333333 -0.000000000  0.000000000
     0.000000000  0.029219377  0.000000000     0.000000000  0.333333333  0.000000000
     0.000000000  0.000000000  0.042452090     0.000000000  0.000000000  1.000000000

  Length of vectors
     0.029219377  0.029219377  0.042452090

  Shift w.r.t. Gamma in fractional coordinates (k-lattice)
     0.000000000  0.000000000  0.000000000

 Subroutine IBZKPT returns following result:

 Found      3 irreducible k-points:

 Following reciprocal coordinates:
            Coordinates               Weight
  0.000000  0.000000  0.000000      1.000000
  0.333333  0.000000  0.000000      4.000000
  0.333333  0.333333  0.000000      4.000000

 Following cartesian coordinates:
            Coordinates               Weight
  0.000000  0.000000  0.000000      1.000000
  0.029219  0.000000  0.000000      4.000000
  0.029219  0.029219  0.000000      4.000000

 SYSTEM =  NaCl
 POSCAR =  Na Cl

  energy-cutoff  :      600.00
  volume of cell :     3065.61
      direct lattice vectors                 reciprocal lattice vectors
    11.407954779  0.000000000  0.000000000     0.087658131 -0.000000000  0.000000000
     0.000000000 11.407954779  0.000000000     0.000000000  0.087658131  0.000000000
     0.000000000  0.000000000 23.555966084     0.000000000  0.000000000  0.042452090

[...]

 k-points in units of 2pi/SCALE and weight: pymatgen v2020.8.13 with grid density =
   0.00000000  0.00000000  0.00000000       0.111
   0.02921938  0.00000000  0.00000000       0.444
   0.02921938  0.02921938  0.00000000       0.444

 k-points in reciprocal lattice and weights: pymatgen v2020.8.13 with grid density =
   0.00000000  0.00000000  0.00000000       0.111
   0.33333333  0.00000000  0.00000000       0.444
   0.33333333  0.33333333  0.00000000       0.444

 position of ions in fractional coordinates (direct lattice)
   0.00000000  0.00000000  0.31839068
   0.25000000  0.25000000  0.31839068
   0.00000000  0.25000000  0.43946356
   0.25000000  0.00000000  0.43946356
   0.00000000  0.00000000  0.56053644
   0.25000000  0.25000000  0.56053644
   0.50000000  0.25000000  0.68160932
   0.25000000  0.00000000  0.68160932
   0.00000000  0.50000000  0.31839068
   0.25000000  0.75000000  0.31839068
   0.00000000  0.75000000  0.43946356
   0.25000000  0.50000000  0.43946356
   0.00000000  0.50000000  0.56053644
   0.25000000  0.75000000  0.56053644
   0.50000000  0.75000000  0.68160932
   0.25000000  0.50000000  0.68160932
   0.50000000  0.00000000  0.31839068
   0.75000000  0.25000000  0.31839068
   0.50000000  0.25000000  0.43946356
   0.75000000  0.00000000  0.43946356
   0.50000000  0.00000000  0.56053644
   0.75000000  0.25000000  0.56053644
   0.00000000  0.25000000  0.68160932
   0.75000000  0.00000000  0.68160932
   0.50000000  0.50000000  0.31839068
   0.75000000  0.75000000  0.31839068
   0.50000000  0.75000000  0.43946356
   0.75000000  0.50000000  0.43946356
   0.50000000  0.50000000  0.56053644
   0.75000000  0.75000000  0.56053644
   0.00000000  0.75000000  0.68160932
   0.75000000  0.50000000  0.68160932
   0.00000000  0.25000000  0.31839068
   0.25000000  0.00000000  0.31839068
   0.00000000  0.00000000  0.43946356
   0.25000000  0.25000000  0.43946356
   0.00000000  0.25000000  0.56053644
   0.25000000  0.00000000  0.56053644
   0.50000000  0.00000000  0.68160932
   0.25000000  0.25000000  0.68160932
   0.00000000  0.75000000  0.31839068
   0.25000000  0.50000000  0.31839068
   0.00000000  0.50000000  0.43946356
   0.25000000  0.75000000  0.43946356
   0.00000000  0.75000000  0.56053644
   0.25000000  0.50000000  0.56053644
   0.50000000  0.50000000  0.68160932
   0.25000000  0.75000000  0.68160932
   0.50000000  0.25000000  0.31839068
   0.75000000  0.00000000  0.31839068
[...]
   0.00000000  0.00000000 16.05596608
   8.55596608  2.85198869 16.05596608
   5.70397739  8.55596608  7.50000000
   8.55596608  5.70397739  7.50000000
   5.70397739  5.70397739 10.35198869
   8.55596608  8.55596608 10.35198869
   5.70397739  8.55596608 13.20397739
   8.55596608  5.70397739 13.20397739
   0.00000000  5.70397739 16.05596608
   8.55596608  8.55596608 16.05596608

--------------------------------------- Iteration      FINAL  ---------------------------------------

--------------------OUTCAR has been truncated-------------------------

[...]

--------------------OUTCAR has been truncated-------------------------

  FORCE on cell =-STRESS in cart. coord.  units (eV):
  Direction    XX          YY          ZZ          XY          YZ          ZX
  Alpha Z   344.78432   344.78432   344.78432
  Ewald   69710.13079 69710.13079-84798.06690    -0.00000     0.00000     0.00000
  Hartree 78625.47973 78625.47973-72465.48008    -0.00000    -0.00000    -0.00000
  E(xc)   -2069.39963 -2069.39963 -2072.54227     0.00000    -0.00000    -0.00000
  Local  ************************151035.02828    -0.00000    -0.00000    -0.00000
  n-local  1929.65880  1929.79139  1919.15353    -0.03433    -0.00000    -0.00000
  augment   724.47069   724.47069   719.05002    -0.00000     0.00000    -0.00000
  Kinetic  5298.68186  5299.04451  5327.14021    -0.08169    -0.00000     0.00000
  Fock        0.00000     0.00000     0.00000     0.00000     0.00000     0.00000
  vdW       -11.44132   -11.44132    -9.27330    -0.00000     0.00000     0.00000
  Total      -6.22600    -6.22600    -0.20620    -0.00000     0.00000     0.00000
  in kB      -3.25389    -3.25389    -0.10777    -0.00000     0.00000     0.00000

 VOLUME and BASIS-vectors are now :
  energy-cutoff  :      600.00
  volume of cell :     3065.61
      direct lattice vectors                 reciprocal lattice vectors
    11.407954779  0.000000000  0.000000000     0.087658131 -0.000000000  0.000000000
     0.000000000 11.407954779  0.000000000     0.000000000  0.087658131  0.000000000
     0.000000000  0.000000000 23.555966084     0.000000000  0.000000000  0.042452090

  length of vectors
    11.407954779 11.407954779 23.555966084     0.087658131  0.087658131  0.042452090

 FORCES acting on ions
    electron-ion (+dipol)            ewald-force                    non-local-force                 convergence-correction
   -.109E-13 0.307E-12 0.850E+03   -.476E-13 -.261E-13 -.847E+03   -.646E-26 -.404E-26 -.262E+01   0.407E-12 0.105E-12 -.229E-06
   0.406E-12 -.420E-12 0.850E+03   -.284E-13 -.383E-13 -.847E+03   0.969E-26 0.646E-26 -.262E+01   0.255E-12 0.299E-12 -.229E-06
   0.292E-14 0.577E-12 0.281E+03   0.513E-11 -.516E-11 -.281E+03   0.905E-25 -.485E-25 0.170E+00   0.707E-12 -.111E-12 0.252E-04
   0.496E-12 -.279E-13 0.281E+03   -.516E-11 0.515E-11 -.281E+03   0.711E-25 -.112E-24 0.170E+00   0.463E-12 0.224E-12 0.252E-04
   -.484E-14 0.819E-13 -.284E+03   0.817E-13 0.266E-13 0.284E+03   -.630E-25 -.194E-25 -.110E+00   -.353E-13 -.170E-13 0.334E-04
   0.520E-12 -.303E-11 -.284E+03   0.335E-13 -.192E-16 0.284E+03   0.000E+00 0.174E-24 -.110E+00   0.549E-12 -.321E-12 0.334E-04
   0.952E-12 -.304E-11 -.843E+03   -.711E-14 0.179E-13 0.841E+03   0.368E-25 -.355E-25 0.217E+01   0.465E-12 -.570E-12 -.171E-04
   0.393E-12 -.243E-12 -.843E+03   -.849E-14 0.142E-13 0.841E+03   0.323E-25 0.000E+00 0.217E+01   0.367E-12 -.679E-13 -.171E-04
   0.311E-14 0.124E-11 0.850E+03   -.510E-12 0.511E-11 -.847E+03   -.323E-26 0.808E-26 -.262E+01   0.619E-12 -.147E-12 -.229E-06
   0.403E-12 0.439E-11 0.850E+03   0.414E-12 -.516E-11 -.847E+03   0.444E-26 0.000E+00 -.262E+01   0.188E-12 -.182E-12 -.229E-06
   -.484E-14 0.154E-11 0.281E+03   0.561E-11 -.427E-13 -.281E+03   0.129E-25 0.646E-25 0.170E+00   0.449E-12 0.164E-12 0.252E-04
   0.504E-12 0.543E-12 0.281E+03   -.567E-11 -.178E-14 -.281E+03   0.162E-24 0.291E-25 0.170E+00   0.491E-12 -.241E-12 0.252E-04
   0.295E-13 0.945E-12 -.284E+03   0.551E-13 0.462E-13 0.284E+03   0.452E-25 -.404E-26 -.110E+00   0.435E-14 -.257E-13 0.334E-04
   0.517E-12 0.998E-12 -.284E+03   0.229E-13 0.106E-13 0.284E+03   0.452E-25 -.141E-24 -.110E+00   0.360E-12 0.309E-12 0.334E-04
   0.965E-12 0.419E-11 -.843E+03   -.284E-13 0.319E-13 0.841E+03   0.307E-25 0.271E-25 0.217E+01   0.644E-12 0.587E-12 -.171E-04
   0.393E-12 0.179E-11 -.843E+03   -.263E-13 0.355E-14 0.841E+03   0.355E-25 0.404E-27 0.217E+01   0.130E-12 -.110E-13 -.171E-04
   0.964E-12 0.313E-12 0.850E+03   0.561E-11 -.390E-13 -.847E+03   0.808E-27 0.404E-26 -.262E+01   -.535E-12 0.150E-12 -.229E-06
   0.147E-11 -.991E-12 0.850E+03   -.568E-11 -.406E-13 -.847E+03   -.485E-26 -.323E-26 -.262E+01   -.289E-12 0.825E-13 -.229E-06
   0.979E-12 0.463E-11 0.281E+03   -.496E-12 -.516E-11 -.281E+03   0.388E-25 -.452E-25 0.170E+00   -.745E-12 -.857E-13 0.252E-04
   0.143E-11 -.321E-13 0.281E+03   0.471E-12 0.512E-11 -.281E+03   0.269E-25 -.469E-25 0.170E+00   -.354E-12 -.480E-13 0.252E-04
   0.101E-11 0.521E-13 -.284E+03   0.213E-13 0.249E-13 0.284E+03   -.258E-25 0.420E-25 -.110E+00   0.516E-13 0.138E-12 0.334E-04
   0.145E-11 0.148E-14 -.284E+03   0.284E-13 -.914E-14 0.284E+03   0.291E-25 0.170E-25 -.110E+00   -.405E-12 -.358E-12 0.334E-04
   -.333E-15 0.564E-12 -.843E+03   -.515E-13 0.143E-13 0.841E+03   0.372E-25 -.186E-25 0.217E+01   -.384E-12 -.336E-12 -.171E-04
   0.148E-11 -.194E-12 -.843E+03   -.333E-13 -.142E-13 0.841E+03   0.258E-25 0.162E-25 0.217E+01   -.118E-12 -.231E-12 -.171E-04
   0.953E-12 0.105E-11 0.850E+03   0.512E-11 0.511E-11 -.847E+03   -.646E-26 0.529E-26 -.262E+01   -.744E-12 -.217E-12 -.229E-06
   0.147E-11 0.161E-11 0.850E+03   -.518E-11 -.517E-11 -.847E+03   -.444E-26 -.767E-26 -.262E+01   -.221E-12 0.117E-13 -.229E-06
   0.985E-12 0.808E-11 0.281E+03   0.533E-14 -.358E-13 -.281E+03   0.000E+00 0.168E-24 0.170E+00   -.474E-12 0.154E-12 0.252E-04
   0.143E-11 -.101E-12 0.281E+03   -.342E-13 -.266E-13 -.281E+03   0.323E-25 0.267E-25 0.170E+00   -.372E-12 0.497E-14 0.252E-04
   0.988E-12 0.105E-13 -.284E+03   0.213E-13 0.480E-13 0.284E+03   0.969E-26 0.000E+00 -.110E+00   0.495E-14 -.175E-12 0.334E-04
   0.144E-11 -.295E-11 -.284E+03   0.212E-13 0.123E-13 0.284E+03   0.646E-26 0.388E-25 -.110E+00   -.221E-12 0.380E-12 0.334E-04
   -.171E-14 0.143E-11 -.843E+03   -.426E-13 0.284E-13 0.841E+03   0.582E-25 0.258E-25 0.217E+01   -.556E-12 0.350E-12 -.171E-04
   0.147E-11 0.358E-11 -.843E+03   -.467E-13 0.142E-13 0.841E+03   0.129E-25 -.267E-25 0.217E+01   0.128E-12 0.135E-12 -.171E-04
   -.547E-13 -.976E-13 0.847E+03   0.577E-13 0.314E-13 -.847E+03   0.517E-25 0.103E-24 -.181E+00   0.659E-12 0.144E-12 0.308E-05
   -.318E-13 -.296E-12 0.847E+03   0.263E-13 0.563E-13 -.847E+03   0.517E-25 -.103E-24 -.181E+00   0.112E-12 0.263E-12 0.308E-05
   -.363E-13 0.332E-13 0.280E+03   0.511E-11 0.517E-11 -.280E+03   -.137E-25 -.808E-26 -.314E-02   0.440E-12 0.790E-13 0.272E-04
   0.456E-13 -.196E-11 0.280E+03   -.512E-11 -.512E-11 -.280E+03   -.323E-25 0.808E-27 -.314E-02   0.464E-12 -.722E-13 0.272E-04
   -.415E-13 -.570E-13 -.276E+03   -.506E-13 0.106E-14 0.276E+03   0.323E-25 0.323E-26 0.827E-01   0.128E-12 -.255E-12 0.440E-04
   0.212E-13 0.434E-13 -.276E+03   -.304E-13 -.115E-13 0.276E+03   -.969E-26 -.129E-25 0.827E-01   0.505E-12 0.159E-12 0.440E-04
   -.164E-13 -.915E-13 -.856E+03   0.178E-13 -.142E-13 0.856E+03   0.145E-25 0.316E-26 -.197E+00   0.466E-12 -.625E-13 -.338E-04
   -.150E-13 -.522E-14 -.856E+03   0.431E-13 0.359E-14 0.856E+03   0.162E-26 -.323E-25 -.197E+00   0.210E-12 -.447E-12 -.338E-04
   -.593E-13 -.505E-12 0.847E+03   -.450E-12 -.512E-11 -.847E+03   -.103E-24 0.000E+00 -.181E+00   0.427E-12 -.291E-13 0.308E-05
   -.345E-13 0.202E-13 0.847E+03   0.514E-12 0.516E-11 -.847E+03   0.207E-24 0.000E+00 -.181E+00   0.204E-12 -.294E-12 0.308E-05
   -.256E-13 0.108E-12 0.280E+03   0.571E-11 0.453E-13 -.280E+03   -.129E-25 0.101E-25 -.314E-02   0.515E-12 -.116E-12 0.272E-04
   0.477E-13 0.169E-11 0.280E+03   -.562E-11 0.351E-13 -.280E+03   -.145E-25 -.641E-26 -.314E-02   0.480E-12 0.125E-12 0.272E-04
   -.397E-13 -.156E-12 -.276E+03   -.249E-13 -.717E-14 0.276E+03   0.000E+00 -.646E-26 0.827E-01   -.115E-12 0.284E-12 0.440E-04
   0.224E-13 -.123E-11 -.276E+03   -.117E-13 -.160E-13 0.276E+03   -.646E-26 -.646E-26 0.827E-01   0.405E-12 -.227E-12 0.440E-04
   -.205E-13 -.331E-11 -.856E+03   0.249E-13 -.391E-13 0.856E+03   0.485E-26 -.105E-25 -.197E+00   0.409E-12 -.216E-13 -.338E-04
   -.256E-13 0.806E-12 -.856E+03   0.193E-13 -.178E-13 0.856E+03   0.808E-26 0.113E-25 -.197E+00   0.873E-13 0.428E-12 -.338E-04
   -.259E-13 -.200E-11 0.847E+03   0.565E-11 0.118E-13 -.847E+03   -.517E-25 0.000E+00 -.181E+00   -.768E-12 0.248E-12 0.308E-05
   0.595E-13 -.271E-12 0.847E+03   -.560E-11 0.380E-13 -.847E+03   -.517E-25 0.000E+00 -.181E+00   -.118E-12 0.432E-13 0.308E-05
   0.236E-13 0.306E-13 0.280E+03   -.428E-12 0.517E-11 -.280E+03   0.646E-26 0.444E-26 -.314E-02   -.540E-12 0.421E-13 0.272E-04
   0.441E-13 0.319E-11 0.280E+03   0.540E-12 -.513E-11 -.280E+03   0.646E-26 0.606E-26 -.314E-02   -.418E-12 -.139E-12 0.272E-04
   0.767E-14 -.232E-11 -.276E+03   -.115E-13 -.123E-13 0.276E+03   -.969E-26 -.323E-25 0.827E-01   -.161E-12 -.329E-12 0.440E-04
   0.380E-13 0.346E-13 -.276E+03   -.169E-13 -.178E-13 0.276E+03   0.258E-25 0.323E-26 0.827E-01   -.393E-12 -.878E-13 0.440E-04
   -.540E-13 -.107E-12 -.856E+03   0.497E-13 -.142E-13 0.856E+03   0.145E-25 -.178E-25 -.197E+00   -.494E-12 -.186E-12 -.338E-04
   0.708E-13 0.714E-12 -.856E+03   0.248E-13 -.273E-14 0.856E+03   0.364E-26 -.364E-26 -.197E+00   -.618E-13 -.514E-12 -.338E-04
   -.302E-13 -.460E-12 0.847E+03   0.517E-11 -.514E-11 -.847E+03   0.000E+00 0.000E+00 -.181E+00   -.534E-12 -.125E-12 0.308E-05
   0.658E-13 0.253E-11 0.847E+03   -.513E-11 0.515E-11 -.847E+03   0.103E-24 0.000E+00 -.181E+00   -.210E-12 -.559E-13 0.308E-05
   0.182E-13 -.436E-11 0.280E+03   0.284E-13 0.480E-13 -.280E+03   -.178E-25 0.384E-26 -.314E-02   -.615E-12 -.125E-12 0.272E-04
   0.374E-13 0.170E-11 0.280E+03   -.757E-14 0.213E-13 -.280E+03   -.889E-26 0.145E-25 -.314E-02   -.440E-12 0.208E-12 0.272E-04
   0.868E-14 0.123E-11 -.276E+03   -.107E-13 -.267E-13 0.276E+03   -.194E-25 0.646E-26 0.827E-01   0.848E-13 0.403E-12 0.440E-04
   0.365E-13 -.903E-12 -.276E+03   -.366E-13 -.284E-13 0.276E+03   -.646E-26 0.646E-26 0.827E-01   -.292E-12 0.508E-14 0.440E-04
   -.513E-13 0.275E-12 -.856E+03   0.426E-13 -.391E-13 0.856E+03   0.565E-26 -.646E-26 -.197E+00   -.437E-12 0.943E-13 -.338E-04
   0.824E-13 -.855E-12 -.856E+03   0.142E-13 -.249E-13 0.856E+03   0.242E-25 -.202E-25 -.197E+00   0.562E-13 0.472E-12 -.338E-04
   0.231E-10 0.203E-10 0.552E+01   0.840E-13 0.215E-13 0.546E-11   0.943E-24 0.521E-25 -.551E+01   0.887E-12 -.135E-12 0.654E-03

 POSITION                                       TOTAL-FORCE (eV/Angst)
      0.00000      0.00000      7.50000         0.000000      0.000000      0.132075
      2.85199      2.85199      7.50000        -0.000000     -0.000000      0.132075
      0.00000      2.85199     10.35199         0.000000     -0.000000     -0.020086
      2.85199      0.00000     10.35199         0.000000      0.000000     -0.020086
     -0.00000      0.00000     13.22433         0.000000      0.000000      0.000105
      2.85199      2.85199     13.22433         0.000000     -0.000000      0.000105
      5.70398      2.85199     16.00832        -0.000000      0.000000      0.000099
      2.85199      0.00000     16.00832        -0.000000      0.000000      0.000099
      0.00000      5.70398      7.50000         0.000000     -0.000000      0.132075
      2.85199      8.55597      7.50000        -0.000000     -0.000000      0.132075
      0.00000      8.55597     10.35199        -0.000000     -0.000000     -0.020086
      2.85199      5.70398     10.35199         0.000000      0.000000     -0.020086
      0.00000      5.70398     13.22433         0.000000     -0.000000      0.000105
      2.85199      8.55597     13.22433         0.000000     -0.000000      0.000105
      5.70398      8.55597     16.00832        -0.000000     -0.000000      0.000099
      2.85199      5.70398     16.00832        -0.000000     -0.000000      0.000099
      5.70398      0.00000      7.50000        -0.000000      0.000000      0.132075
      8.55597      2.85199      7.50000         0.000000      0.000000      0.132075
      5.70398      2.85199     10.35199         0.000000      0.000000     -0.020086
      8.55597      0.00000     10.35199         0.000000      0.000000     -0.020086
      5.70398     -0.00000     13.22433         0.000000      0.000000      0.000105
      8.55597      2.85199     13.22433        -0.000000     -0.000000      0.000105
      0.00000      2.85199     16.00832        -0.000000     -0.000000      0.000099
      8.55597      0.00000     16.00832        -0.000000      0.000000      0.000099
      5.70398      5.70398      7.50000         0.000000     -0.000000      0.132075
      8.55597      8.55597      7.50000         0.000000     -0.000000      0.132075
      5.70398      8.55597     10.35199         0.000000      0.000000     -0.020086
      8.55597      5.70398     10.35199         0.000000      0.000000     -0.020086
      5.70398      5.70398     13.22433         0.000000     -0.000000      0.000105
      8.55597      8.55597     13.22433         0.000000     -0.000000      0.000105
      0.00000      8.55597     16.00832        -0.000000      0.000000      0.000099
      8.55597      5.70398     16.00832        -0.000000      0.000000      0.000099
      0.00000      2.85199      7.50000        -0.000000      0.000000     -0.128239
      2.85199      0.00000      7.50000         0.000000      0.000000     -0.128239
      0.00000      0.00000     10.35199         0.000000     -0.000000      0.015575
      2.85199      2.85199     10.35199         0.000000     -0.000000      0.015575
      0.00000      2.85199     13.19741        -0.000000     -0.000000      0.000222
      2.85199      0.00000     13.19741        -0.000000     -0.000000      0.000222
      5.70398     -0.00000     16.09934         0.000000      0.000000      0.000248
      2.85199      2.85199     16.09934         0.000000     -0.000000      0.000248
      0.00000      8.55597      7.50000         0.000000     -0.000000     -0.128239
      2.85199      5.70398      7.50000         0.000000      0.000000     -0.128239
      0.00000      5.70398     10.35199        -0.000000     -0.000000      0.015575
      2.85199      8.55597     10.35199         0.000000      0.000000      0.015575
      0.00000      8.55597     13.19741        -0.000000     -0.000000      0.000222
      2.85199      5.70398     13.19741        -0.000000      0.000000      0.000222
      5.70398      5.70398     16.09934         0.000000     -0.000000      0.000248
      2.85199      8.55597     16.09934        -0.000000      0.000000      0.000248
      5.70398      2.85199      7.50000        -0.000000      0.000000     -0.128239
      8.55597      0.00000      7.50000         0.000000     -0.000000     -0.128239
      5.70398      0.00000     10.35199        -0.000000      0.000000      0.015575
      8.55597      2.85199     10.35199        -0.000000      0.000000      0.015575
      5.70398      2.85199     13.19741        -0.000000     -0.000000      0.000222
      8.55597     -0.00000     13.19741        -0.000000      0.000000      0.000222
      0.00000     -0.00000     16.09934        -0.000000     -0.000000      0.000248
      8.55597      2.85199     16.09934        -0.000000     -0.000000      0.000248
      5.70398      8.55597      7.50000        -0.000000     -0.000000     -0.128239
      8.55597      5.70398      7.50000         0.000000     -0.000000     -0.128239
      5.70398      5.70398     10.35199        -0.000000     -0.000000      0.015575
      8.55597      8.55597     10.35199        -0.000000      0.000000      0.015575
      5.70398      8.55597     13.19741        -0.000000     -0.000000      0.000222
      8.55597      5.70398     13.19741        -0.000000     -0.000000      0.000222
      0.00000      5.70398     16.09934        -0.000000     -0.000000      0.000248
      8.55597      8.55597     16.09934         0.000000     -0.000000      0.000248
    total drift:                                0.000000      0.000000      0.007240

  FREE ENERGIE OF THE ION-ELECTRON SYSTEM (eV)
  free  energy   TOTEN  =      -213.27584893 eV

  energy  without entropy=     -213.27584893  energy(sigma->0) =     -213.27584893

 d Force = 0.4941549E-07[ 0.375E-07, 0.614E-07]  d Energy = 0.1642714E-06-0.115E-06
 d Force = 0.1677839E+00[ 0.168E+00, 0.168E+00]  d Ewald  = 0.1677839E+00-0.158E-08

 reached required accuracy - stopping structural energy minimisation