 vasp.6.4.1 05Apr23 (build Sep 19 2024 10:44:22) complex

 executed on             LinuxIFC date 2024.10.19  21:23:35

 INCAR:
   SYSTEM = TiO2
   ISMEAR = 0
   SIGMA = 0.05
   EDIFF = 1E-7
   ALGO = ALL
   ISTART = 0
   IBRION = 2
   NSW = 1000
   ISYM = 0
   ISIF = 2
   EDIFFG = -0.01
   DIPOL = 0.5 0.5 0.5
   IDIPOL = 3
   LDIPOL = .TRUE.
   GGA = MK
   LUSE_VDW = .TRUE.
   PARAM1 = 0.1234
   PARAM2 = 0.711357
   ZAB_VDW = -1.8867
   AGGAC = 0.0
   ENCUT = 600
   PREC = Accurate
   LASPH = .TRUE.
   LREAL = .FALSE.
   ISPIN = 1
   NELM = 200
   NELMIN = 8
   NCORE = 8
   KPAR = 1
   LWAVE = .FALSE.
   LCHARG = .FALSE.

 POTCAR:    PAW_PBE C 08Apr2002
 POTCAR:    PAW_PBE H 15Jun2001
 POTCAR:    PAW_PBE Ti_pv 07Sep2000
 POTCAR:    PAW_PBE O 08Apr2002
|           W    W    AA    RRRRR   N    N  II  N    N   GGGG   !!!           |
|           W    W   A  A   R    R  NN   N  II  NN   N  G    G  !!!           |
|           W    W  A    A  R    R  N N  N  II  N N  N  G       !!!           |
|           W WW W  AAAAAA  RRRRR   N  N N  II  N  N N  G  GGG   !            |
|           WW  WW  A    A  R   R   N   NN  II  N   NN  G    G                |
|           W    W  A    A  R    R  N    N  II  N    N   GGGG   !!!           |
|     For optimal performance we recommend to set                             |
|       NCORE = 2 up to number-of-cores-per-socket                            |
|     This setting can greatly improve the performance of VASP for DFT.       |
|     The default, NCORE=1 might be grossly inefficient on modern             |
|     multi-core architectures or massively parallel machines. Do your        |
|     Unfortunately you need to use the default for GW and RPA                |
|     calculations (for HF NCORE is supported but not extensively tested      |
|     yet).                                                                   |

   TITEL  = PAW_PBE C 08Apr2002
   POMASS =   12.011; ZVAL   =    4.000    mass and valenz
   ENMAX  =  400.000; ENMIN  =  300.000 eV

   TITEL  = PAW_PBE H 15Jun2001
   POMASS =    1.000; ZVAL   =    1.000    mass and valenz
   ENMAX  =  250.000; ENMIN  =  200.000 eV

   TITEL  = PAW_PBE Ti_pv 07Sep2000
   POMASS =   47.880; ZVAL   =   10.000    mass and valenz
   ENMAX  =  222.335; ENMIN  =  166.751 eV

   TITEL  = PAW_PBE O 08Apr2002
   POMASS =   16.000; ZVAL   =    6.000    mass and valenz
   ENMAX  =  400.000; ENMIN  =  300.000 eV

  PAW_PBE C 08Apr2002                   :
  PAW_PBE H 15Jun2001                   :
  PAW_PBE Ti_pv 07Sep2000               :
  PAW_PBE O 08Apr2002                   :

 POSCAR:  C  H Ti  O
  positions in direct lattice
 exchange correlation table for  LEXCH =       43
   RHO(1)=    0.500       N(1)  =     2000
   RHO(2)=  100.500       N(2)  =     4000

 ion  position               nearest neighbor table
   1  0.500  0.500  0.812-   2 1.10   3 1.10   4 1.10   5 1.10
   2  0.496  0.576  0.832-   1 1.10
   3  0.504  0.424  0.832-   1 1.10
   4  0.570  0.504  0.792-   1 1.10
   5  0.430  0.496  0.792-   1 1.10
   6  0.750  0.625  0.287-  86 1.96  87 1.96 146 1.96 147 1.96  89 1.99 168 1.99  16 2.96  36 2.96

   7  0.000  0.750  0.287-  88 1.96  89 1.96 108 1.96 109 1.96  90 1.99  37 2.96  17 2.96
   8  0.000  0.625  0.393-  90 1.96  91 1.96 150 1.96 151 1.96  92 1.99  93 1.99  18 2.96  38 2.96

[...]

  85  0.500  0.500  0.708- 239 1.82 185 1.95 184 1.95 245 1.95 244 1.95  75 2.96  55 2.96
  86  0.750  0.750  0.245-   6 1.96  16 1.96
  87  0.750  0.750  0.328-   6 1.96  16 1.96   9 1.99
  88  0.098  0.625  0.287-   7 1.96  37 1.96  46 1.99
  89  0.902  0.625  0.287-   7 1.96  37 1.96   6 1.99
  90  0.000  0.750  0.352-   8 1.96  18 1.96   7 1.99
  91  0.000  0.750  0.435-   8 1.96  18 1.96  11 1.99
  92  0.848  0.625  0.393-   9 1.96  39 1.96   8 1.99
  93  0.152  0.625  0.393-  49 1.96  79 1.96   8 1.99
  94  0.750  0.750  0.458-  10 1.96  20 1.96   9 1.99
  95  0.750  0.750  0.542-  10 1.96  20 1.96  13 2.11
  96  0.098  0.625  0.500-  11 1.96  41 1.96  50 1.99
  97  0.902  0.625  0.500-  11 1.96  41 1.96  10 1.99
  98  0.000  0.750  0.565-  12 1.90  22 1.90  11 2.00
  99  0.000  0.750  0.649-  15 1.82  12 2.02  22 2.02
 100  0.850  0.625  0.607-  12 1.96  43 1.98  13 1.98
 101  0.150  0.625  0.607-  12 1.96  83 1.98  53 1.98
 102  0.750  0.750  0.672-  13 1.87  14 2.10  24 2.10
 103  0.750  0.750  0.756-  24 1.83  14 1.83
 104  0.094  0.625  0.719-  15 1.95  45 1.95  54 2.04
 105  0.906  0.625  0.719-  45 1.95  15 1.95  14 2.04
 106  0.750  0.000  0.245-  16 1.96  26 1.96
 107  0.750  0.000  0.328-  16 1.96  26 1.96  19 1.99
 108  0.098  0.875  0.287-   7 1.96  17 1.96  56 1.99
 109  0.902  0.875  0.287-   7 1.96  17 1.96  16 1.99
 110  0.000  0.000  0.352-  18 1.96  28 1.96  17 1.99
 111  0.000  0.000  0.435-  18 1.96  28 1.96  21 1.99
 112  0.848  0.875  0.393-   9 1.96  19 1.96  18 1.99
 113  0.152  0.875  0.393-  49 1.96  59 1.96  18 1.99
 114  0.750  0.000  0.458-  20 1.96  30 1.96  19 1.99
 115  0.750  0.000  0.542-  20 1.96  30 1.96  23 2.11
 116  0.098  0.875  0.500-  11 1.96  21 1.96  60 1.99
 117  0.902  0.875  0.500-  11 1.96  21 1.96  20 1.99
 118  0.000  0.000  0.565-  22 1.90  32 1.90  21 2.00
 119  1.000  0.000  0.649-  25 1.82  32 2.02  22 2.02
 120  0.850  0.875  0.607-  22 1.96  13 1.98  23 1.98
 121  0.150  0.875  0.607-  22 1.96  63 1.98  53 1.98
 122  0.750  0.000  0.672-  23 1.87  34 2.10  24 2.10
 123  0.750  1.000  0.756-  24 1.83  34 1.83
 124  0.094  0.875  0.719-  25 1.95  15 1.95  64 2.04
 125  0.906  0.875  0.719-  25 1.95  15 1.95  24 2.04
 126  0.750  0.250  0.245-  26 1.96  36 1.96
 127  0.750  0.250  0.328-  26 1.96  36 1.96  29 1.99
 128  0.098  0.125  0.287-  17 1.96  27 1.96  66 1.99
 129  0.902  0.125  0.287-  17 1.96  27 1.96  26 1.99
 130  0.000  0.250  0.352-  28 1.96  38 1.96  27 1.99
 131  0.000  0.250  0.435-  28 1.96  38 1.96  31 1.99
 132  0.848  0.125  0.393-  19 1.96  29 1.96  28 1.99
 133  0.152  0.125  0.393-  59 1.96  69 1.96  28 1.99
 134  0.750  0.250  0.458-  30 1.96  40 1.96  29 1.99
 135  0.750  0.250  0.542-  30 1.96  40 1.96  33 2.11
 136  0.098  0.125  0.500-  21 1.96  31 1.96  70 1.99
 137  0.902  0.125  0.500-  21 1.96  31 1.96  30 1.99
 138  0.000  0.250  0.565-  42 1.90  32 1.90  31 2.00
 139  0.000  0.250  0.649-  35 1.82  32 2.02  42 2.02
 140  0.850  0.125  0.607-  32 1.96  33 1.98  23 1.98
 141  0.150  0.125  0.607-  32 1.96  63 1.98  73 1.98
 142  0.750  0.250  0.672-  33 1.87  34 2.10  44 2.10
 143  0.750  0.250  0.756-  44 1.83  34 1.83
 144  0.094  0.125  0.719-  35 1.95  25 1.95  74 2.04
[...]
 231  0.500  0.500  0.435-  48 1.96  78 1.96  81 1.99
 232  0.348  0.375  0.393-  69 1.96  79 1.96  78 1.99
 233  0.652  0.375  0.393-  29 1.96  39 1.96  78 1.99
 234  0.250  0.500  0.458-  50 1.96  80 1.96  79 1.99
 235  0.250  0.500  0.542-  50 1.96  80 1.96  83 2.11
 236  0.598  0.375  0.500-  71 1.96  81 1.96  40 1.99
 237  0.402  0.375  0.500-  71 1.96  81 1.96  80 1.99
 238  0.500  0.500  0.565-  52 1.90  82 1.90  81 2.00
 239  0.500  0.500  0.649-  85 1.82  52 2.02  82 2.02
 240  0.350  0.375  0.607-  82 1.96  73 1.98  83 1.98
 241  0.650  0.375  0.607-  82 1.96  33 1.98  43 1.98
 242  0.250  0.500  0.672-  83 1.87  84 2.10  54 2.10
 243  0.250  0.500  0.756-  84 1.83  54 1.83
 244  0.594  0.375  0.719-  75 1.95  85 1.95  44 2.04
 245  0.406  0.375  0.719-  75 1.95  85 1.95  84 2.04

IMPORTANT INFORMATION: All symmetrisations will be switched off!
NOSYMM: (Re-)initialisation of all symmetry stuff for point group C_1.

                                     Primitive cell

  volume of cell :    4737.1735

  direct lattice vectors                    reciprocal lattice vectors
    13.061198858  0.000000000  0.000000000     0.076562650  0.000000000  0.000000000
     0.000000000 11.845266045  0.000000000     0.000000000  0.084421911  0.000000000
     0.000000000  0.000000000 30.619030317     0.000000000  0.000000000  0.032659427

  length of vectors
    13.061198858 11.845266045 30.619030317     0.076562650  0.084421911  0.032659427

  position of ions in fractional coordinates (direct lattice)
     0.500062509  0.500002006  0.811889963
     0.496131079  0.575669964  0.832442357
     0.504001479  0.424331654  0.832446187
     0.570264208  0.504280831  0.792230727
     0.429844938  0.495709614  0.792237336
     0.750000000  0.625000000  0.286714362
     0.000000000  0.750000000  0.286714362
     0.000000000  0.625000000  0.393357181
     0.750000000  0.750000000  0.393357181
     0.750000000  0.625000000  0.500000000
     0.000000000  0.750000000  0.500000000
     0.000000038  0.625000012  0.604439268
     0.750000022  0.749999988  0.610750177
     0.749999940  0.625000009  0.720421785
     0.000000012  0.749999988  0.708497273
     0.750000000  0.875000000  0.286714362
     0.000000000  0.000000000  0.286714362
     0.000000000  0.875000000  0.393357181
     0.750000000  0.000000000  0.393357181
     0.750000000  0.875000000  0.500000000
     0.000000000  0.000000000  0.500000000
     0.999999981  0.875000008  0.604439275
     0.750000000  0.000000010  0.610750189
     0.749999929  0.875000013  0.720421816
     0.999999966  0.999999970  0.708497268
     0.750000000  0.125000000  0.286714362
     0.000000000  0.250000000  0.286714362
     0.000000000  0.125000000  0.393357181
     0.750000000  0.250000000  0.393357181
     0.750000000  0.125000000  0.500000000
     0.000000000  0.250000000  0.500000000
     0.999999998  0.125000010  0.604439287
     0.750000012  0.249999994  0.610750204
     0.749999969  0.124999992  0.720421820
     0.999999985  0.249999987  0.708497291
     0.750000000  0.375000000  0.286714362
     0.000000000  0.500000000  0.286714362
     0.000000000  0.375000000  0.393357181
     0.750000000  0.500000000  0.393357181
     0.750000000  0.375000000  0.500000000
     0.000000000  0.500000000  0.500000000
     0.999999980  0.374999975  0.604439276
     0.750000027  0.500000018  0.610750194
     0.750000010  0.374999992  0.720421849
     0.999999973  0.500000001  0.708497251
     0.250000000  0.625000000  0.286714362
     0.500000000  0.750000000  0.286714362
     0.500000000  0.625000000  0.393357181
     0.250000000  0.750000000  0.393357181
     0.250000000  0.625000000  0.500000000
     0.500000000  0.750000000  0.500000000
     0.499999996  0.624999984  0.604439241
     0.249999994  0.750000011  0.610750197
     0.250000015  0.625000016  0.720421825
     0.500000055  0.750000054  0.708497233
     0.250000000  0.875000000  0.286714362
     0.500000000  0.000000000  0.286714362
     0.500000000  0.875000000  0.393357181
     0.250000000  0.000000000  0.393357181
     0.250000000  0.875000000  0.500000000
[...]
     0.500000000  0.500000000  0.435125836
     0.347917178  0.375000000  0.393357181
     0.652082822  0.375000000  0.393357181
     0.250000000  0.500000000  0.458231344
     0.250000000  0.500000000  0.541768656
     0.597917178  0.375000000  0.500000000
     0.402082822  0.375000000  0.500000000
     0.499999972  0.499999984  0.565446779
     0.499999995  0.500000009  0.649151821
     0.350086065  0.374999994  0.607256810
     0.649913924  0.374999996  0.607256792
     0.249999963  0.499999993  0.671819536
[...]
   4.57254372  4.44197470 18.59361466
   8.48865501  4.44197472 18.59361412
   3.26529923  5.92263294 20.57046276
   3.26529986  5.92263304 23.13864922
   7.75742008  4.44197500 22.01297835
   5.30377904  4.44197476 22.01297814

--------------------------------------- Iteration      FINAL  ---------------------------------------

--------------------OUTCAR has been truncated-------------------------

[...]

--------------------OUTCAR has been truncated-------------------------

  FORCE on cell =-STRESS in cart. coord.  units (eV):
  Direction    XX          YY          ZZ          XY          YZ          ZX
  Alpha Z  4650.26395  4650.26395  4650.26395
  Ewald  968511.64322986293.21087************    -0.31870    -0.01114    -0.04313
  Hartree************************************    -0.21033    -0.00019    -0.04085
  E(xc)   -8628.59562 -8623.09678 -8625.41717    -0.00057    -0.00004     0.00002
  Local  ************************************     0.55570     0.00740     0.08581
  n-local -5486.49729 -5412.09380 -5529.80531    -0.00099     0.00034     0.00015
  augment  5251.02638  5227.50237  5255.34347    -0.00245     0.00005    -0.00004
  Kinetic 28667.63218 28206.93634 28714.35876    -0.01034     0.00053    -0.00188
  Fock        0.00000     0.00000     0.00000     0.00000     0.00000     0.00000
  Total       2.90670   -40.05823   -34.90562     0.01232    -0.00304     0.00008
  in kB       0.98309   -13.54825   -11.80556     0.00417    -0.00103     0.00003

 VOLUME and BASIS-vectors are now :
  energy-cutoff  :      600.00
  volume of cell :     4737.17
      direct lattice vectors                 reciprocal lattice vectors
    13.061198858  0.000000000  0.000000000     0.076562650  0.000000000  0.000000000
     0.000000000 11.845266045  0.000000000     0.000000000  0.084421911  0.000000000
     0.000000000  0.000000000 30.619030317     0.000000000  0.000000000  0.032659427

  length of vectors
    13.061198858 11.845266045 30.619030317     0.076562650  0.084421911  0.032659427

 FORCES acting on ions:
    Electron-Ion                     Ewald-Force                    Non-Local-Force
   0.187E-01 -.365E-02 -.152E+04   -.165E-01 0.638E-02 0.152E+04   -.938E-03 0.359E-02 -.783E+00
   0.217E+01 -.433E+02 -.372E+03   -.243E+01 0.478E+02 0.375E+03   0.254E+00 -.456E+01 -.323E+01
   -.218E+01 0.433E+02 -.372E+03   0.243E+01 -.479E+02 0.375E+03   -.255E+00 0.456E+01 -.323E+01
   -.355E+02 -.234E+01 -.387E+03   0.403E+02 0.259E+01 0.385E+03   -.476E+01 -.249E+00 0.279E+01
   0.356E+02 0.234E+01 -.387E+03   -.403E+02 -.258E+01 0.385E+03   0.476E+01 0.249E+00 0.279E+01
   -.109E+00 -.338E-01 0.377E+04   0.109E+00 0.339E-01 -.377E+04   0.930E-06 -.828E-05 0.356E+00
   -.132E-03 -.463E-01 0.394E+04   0.136E-03 0.463E-01 -.394E+04   -.103E-05 -.104E-04 -.369E+01
   -.781E-03 -.484E-01 0.192E+04   0.804E-03 0.485E-01 -.192E+04   -.630E-05 0.129E-04 -.425E-01
   -.124E+00 -.477E-01 0.191E+04   0.123E+00 0.483E-01 -.191E+04   0.982E-04 -.135E-04 0.200E+00
   -.395E+00 -.207E+00 -.139E+01   0.391E+00 0.207E+00 0.217E+01   0.662E-03 -.471E-04 -.121E+00
   -.109E-01 -.386E+00 0.919E+01   0.111E-01 0.389E+00 -.102E+02   -.613E-04 -.819E-03 0.325E+00
   -.278E-01 -.125E+01 -.186E+04   0.279E-01 0.125E+01 0.186E+04   -.530E-04 -.758E-03 0.474E-01
   -.418E+01 -.324E+01 -.192E+04   0.419E+01 0.324E+01 0.192E+04   -.206E-02 -.234E-02 -.627E-01
   -.342E+02 -.136E+02 -.372E+04   0.342E+02 0.136E+02 0.372E+04   0.366E-02 0.712E-02 -.104E+00
   -.534E-01 -.449E+01 -.376E+04   0.529E-01 0.448E+01 0.376E+04   0.589E-03 0.259E-03 0.931E+00
   -.107E+00 -.339E-01 0.377E+04   0.107E+00 0.340E-01 -.377E+04   0.410E-04 -.132E-04 0.356E+00
   -.574E-04 0.148E-05 0.394E+04   0.581E-04 -.135E-05 -.394E+04   -.130E-06 -.243E-07 -.369E+01
   -.794E-03 -.489E-01 0.192E+04   0.817E-03 0.490E-01 -.192E+04   -.500E-05 0.638E-05 -.426E-01
   -.148E+00 -.954E-03 0.191E+04   0.147E+00 0.976E-03 -.191E+04   0.170E-03 0.366E-05 0.200E+00
   -.676E+00 -.247E+00 -.193E+01   0.674E+00 0.255E+00 0.271E+01   0.449E-03 -.398E-03 -.122E+00
   -.497E-03 0.181E-04 0.877E+01   0.504E-03 -.177E-04 -.979E+01   -.203E-05 -.331E-08 0.325E+00
   -.471E-01 -.117E+01 -.186E+04   0.472E-01 0.117E+01 0.186E+04   -.105E-03 -.123E-02 0.459E-01
   -.316E+01 -.523E-02 -.192E+04   0.316E+01 0.529E-02 0.192E+04   0.586E-03 -.670E-04 -.592E-01
   -.125E+02 -.979E+01 -.374E+04   0.125E+02 0.979E+01 0.374E+04   0.138E-01 0.723E-03 -.116E+00
   -.314E-02 0.296E-03 -.376E+04   0.314E-02 -.316E-03 0.376E+04   -.693E-05 0.307E-05 0.939E+00
   -.107E+00 0.338E-01 0.377E+04   0.107E+00 -.339E-01 -.377E+04   0.410E-04 0.103E-04 0.356E+00
   0.109E-04 0.463E-01 0.394E+04   -.130E-04 -.463E-01 -.394E+04   0.732E-06 0.104E-04 -.369E+01
   0.506E-03 0.489E-01 0.192E+04   -.523E-03 -.490E-01 -.192E+04   0.414E-05 -.646E-05 -.426E-01
   -.124E+00 0.478E-01 0.191E+04   0.123E+00 -.483E-01 -.191E+04   0.969E-04 0.156E-04 0.200E+00
   -.681E+00 0.233E+00 -.195E+01   0.679E+00 -.239E+00 0.274E+01   0.497E-03 0.312E-03 -.122E+00
   0.937E-02 0.386E+00 0.919E+01   -.959E-02 -.389E+00 -.102E+02   0.567E-04 0.819E-03 0.325E+00
   0.435E-01 0.117E+01 -.186E+04   -.436E-01 -.117E+01 0.186E+04   0.103E-03 0.124E-02 0.459E-01
   -.422E+01 0.325E+01 -.192E+04   0.422E+01 -.325E+01 0.192E+04   -.192E-02 0.163E-02 -.628E-01
   -.125E+02 0.972E+01 -.374E+04   0.125E+02 -.972E+01 0.374E+04   0.144E-01 -.538E-03 -.116E+00
   0.420E-01 0.449E+01 -.376E+04   -.415E-01 -.448E+01 0.376E+04   -.577E-03 -.257E-03 0.931E+00
   -.109E+00 0.339E-01 0.377E+04   0.109E+00 -.340E-01 -.377E+04   0.738E-06 0.112E-04 0.356E+00
   -.636E-04 -.145E-05 0.394E+04   0.644E-04 0.135E-05 -.394E+04   -.149E-06 -.287E-07 -.369E+01
   0.440E-03 0.484E-01 0.192E+04   -.456E-03 -.485E-01 -.192E+04   0.520E-05 -.129E-04 -.425E-01
   -.996E-01 0.887E-03 0.191E+04   0.995E-01 -.907E-03 -.191E+04   -.289E-04 -.594E-05 0.200E+00
   -.399E+00 0.222E+00 -.140E+01   0.395E+00 -.223E+00 0.218E+01   0.698E-03 0.145E-03 -.121E+00
   -.911E-03 -.165E-04 0.962E+01   0.924E-03 0.163E-04 -.106E+02   -.319E-05 0.148E-06 0.325E+00
   0.213E-01 0.125E+01 -.186E+04   -.214E-01 -.125E+01 0.186E+04   0.476E-04 0.756E-03 0.474E-01
   -.540E+01 0.707E-02 -.191E+04   0.540E+01 -.766E-02 0.191E+04   -.258E-02 0.665E-03 -.658E-01
   -.339E+02 0.138E+02 -.372E+04   0.339E+02 -.138E+02 0.372E+04   0.315E-02 -.693E-02 -.107E+00
   -.799E-02 -.515E-03 -.376E+04   0.800E-02 0.539E-03 0.376E+04   -.375E-05 -.232E-05 0.922E+00
   0.109E+00 -.339E-01 0.377E+04   -.109E+00 0.340E-01 -.377E+04   -.779E-06 -.111E-04 0.356E+00
   0.128E-03 -.492E-01 0.394E+04   -.132E-03 0.495E-01 -.394E+04   0.942E-06 -.372E-04 -.369E+01
   0.692E-03 -.624E-02 0.192E+04   -.714E-03 0.104E-01 -.192E+04   0.582E-05 -.843E-03 -.425E-01
   0.124E+00 -.478E-01 0.191E+04   -.123E+00 0.483E-01 -.191E+04   -.968E-04 -.157E-04 0.200E+00
   0.399E+00 -.221E+00 -.140E+01   -.395E+00 0.223E+00 0.218E+01   -.699E-03 -.144E-03 -.121E+00
   0.748E-02 -.771E-01 0.101E+02   -.769E-02 0.591E-01 -.111E+02   0.352E-04 0.112E-01 0.316E+00
   0.931E-02 -.290E+01 -.185E+04   -.924E-02 0.294E+01 0.185E+04   -.750E-04 -.294E-01 0.556E-01
   0.422E+01 -.325E+01 -.192E+04   -.422E+01 0.324E+01 0.192E+04   0.192E-02 -.162E-02 -.628E-01
   0.339E+02 -.138E+02 -.372E+04   -.339E+02 0.137E+02 0.372E+04   -.314E-02 0.691E-02 -.107E+00
   0.206E+00 -.344E+02 -.373E+04   -.204E+00 0.344E+02 0.373E+04   -.218E-02 -.159E-01 0.973E+00
   0.107E+00 -.338E-01 0.377E+04   -.107E+00 0.339E-01 -.377E+04   -.409E-04 -.103E-04 0.356E+00
   0.573E-04 0.159E-05 0.394E+04   -.580E-04 -.153E-05 -.394E+04   0.150E-06 -.348E-08 -.369E+01
   0.692E-03 -.820E-02 0.192E+04   -.713E-03 0.105E-01 -.192E+04   0.522E-05 -.605E-03 -.428E-01
   0.148E+00 0.961E-03 0.191E+04   -.147E+00 -.982E-03 -.191E+04   -.170E-03 -.355E-05 0.200E+00
   0.681E+00 -.233E+00 -.195E+01   -.679E+00 0.239E+00 0.274E+01   -.497E-03 -.310E-03 -.122E+00
[...]
   -.544E+02 0.121E-01 0.115E+04   0.584E+02 -.126E-01 -.115E+04   -.363E+01 0.753E-03 0.160E+00
   0.544E+02 0.128E-01 0.115E+04   -.584E+02 -.133E-01 -.115E+04   0.363E+01 0.801E-03 0.160E+00
   0.117E+00 -.190E-02 0.503E+03   -.116E+00 0.210E-02 -.508E+03   -.236E-02 -.472E-03 0.424E+01
   0.476E+00 -.659E-02 -.520E+03   -.472E+00 0.675E-02 0.527E+03   -.344E-02 -.393E-03 -.709E+01
   -.563E+02 -.460E-01 0.529E+01   0.611E+02 0.441E-01 -.552E+01   -.521E+01 0.104E-01 0.320E+00
   0.563E+02 -.503E-01 0.529E+01   -.611E+02 0.486E-01 -.552E+01   0.521E+01 0.101E-01 0.320E+00
   0.100E-02 0.708E-04 -.620E+03   -.995E-03 -.813E-04 0.613E+03   -.399E-05 0.278E-05 0.652E+01
   0.691E-02 -.548E-03 -.159E+04   -.718E-02 0.551E-03 0.158E+04   0.265E-03 -.634E-06 0.202E+01
   -.271E+02 0.175E+01 -.112E+04   0.302E+02 -.178E+01 0.112E+04   -.308E+01 0.309E-01 0.881E+00
   0.271E+02 0.178E+01 -.112E+04   -.302E+02 -.181E+01 0.112E+04   0.308E+01 0.329E-01 0.886E+00
   0.113E+02 -.130E+00 -.179E+04   -.114E+02 0.136E+00 0.179E+04   0.625E-01 -.660E-02 -.206E+01
   0.389E+02 -.187E-01 -.269E+04   -.390E+02 0.161E-01 0.271E+04   -.553E-03 0.256E-02 -.205E+02
   -.414E+02 0.220E+02 -.229E+04   0.474E+02 -.220E+02 0.230E+04   -.602E+01 -.664E-02 -.347E+01
   0.414E+02 0.218E+02 -.229E+04   -.474E+02 -.218E+02 0.229E+04   0.602E+01 -.146E-01 -.339E+01
   0.749E-03 -.516E-02 0.922E+02   -.578E-11 -.430E-11 0.168E-10   -.804E-03 0.505E-02 -.922E+02

 POSITION                                       TOTAL-FORCE (eV/Angst)
      6.53133      5.92254     24.85725         0.001258      0.006285     -0.002593
      6.48182      6.82046     25.48683         0.002091     -0.005150     -0.006838
      6.58100      5.02493     25.48687        -0.002042     -0.000582     -0.003253
      7.45278      5.97171     24.25657        -0.001679     -0.002252     -0.000896
      5.60981      5.87346     24.25677         0.000074      0.001639     -0.001784
      9.79590      7.40329      8.77892        -0.000027      0.000114     -3.479928
      0.00000      8.88395      8.77892         0.000003      0.000061      2.775217
      0.00000      7.40329     12.04422         0.000016      0.000143      0.520702
      9.79590      8.88395     12.04422        -0.000358      0.000510     -0.708918
      9.79590      7.40329     15.30952        -0.003444     -0.000024      0.658753
      0.00000      8.88395     15.30952         0.000173      0.001706     -0.709122
     -0.00001      7.40352     18.50766         0.000027     -0.000501     -0.000364
      9.79621      8.88441     18.69831         0.001210     -0.002944     -0.000614
      9.79857      7.40517     22.05235         0.000581      0.002042     -0.001628
      0.00031      8.88535     21.69612         0.000120     -0.001864     -0.001198
      9.79590     10.36461      8.77892        -0.000087      0.000149     -3.479858
      0.00000      0.00000      8.77892         0.000001      0.000001      2.775221
      0.00000     10.36461     12.04422         0.000018      0.000115      0.520870
      9.79590      0.00000     12.04422        -0.000604      0.000026     -0.708454
      9.79590     10.36461     15.30952        -0.001620      0.007297      0.663214
      0.00000      0.00000     15.30952         0.000005      0.000001     -0.708765
     13.06115     10.36488     18.50819        -0.000076     -0.000697     -0.000387
      9.79538      0.00004     18.70007         0.002977      0.000060     -0.000823
      9.79416     10.36518     22.05864        -0.000808     -0.000135     -0.000933
     -0.00000      0.00000     21.69636        -0.000005     -0.000016     -0.001672
      9.79590      1.48066      8.77892        -0.000087     -0.000126     -3.479844
      0.00000      2.96132      8.77892        -0.000001     -0.000060      2.775217
      0.00000      1.48066     12.04422        -0.000012     -0.000113      0.520870
      9.79590      2.96132     12.04422        -0.000356     -0.000509     -0.708741
      9.79590      1.48066     15.30952        -0.001616     -0.005954      0.664111
      0.00000      2.96132     15.30952        -0.000158     -0.001705     -0.709122
      0.00005      1.48039     18.50819         0.000073      0.000692     -0.000394
      9.79620      2.96088     18.69864         0.001226      0.002940     -0.000541
      9.79391      1.48028     22.05876        -0.001040      0.000299     -0.000905
     13.06090      2.95992     21.69612        -0.000126      0.001867     -0.001201
      9.79590      4.44197      8.77892        -0.000027     -0.000136     -3.479915
      0.00000      5.92263      8.77892         0.000001      0.000000      2.775222
      0.00000      4.44197     12.04422        -0.000010     -0.000142      0.520702
      9.79590      5.92263     12.04422        -0.000131     -0.000025     -0.709160
      9.79590      4.44197     15.30952        -0.003445     -0.001315      0.659699
      0.00000      5.92263     15.30952         0.000010      0.000000     -0.709630
      0.00001      4.44174     18.50766        -0.000028      0.000509     -0.000370
      9.79653      5.92260     18.69866        -0.000096      0.000020     -0.001283
      9.79788      4.44057     22.05341         0.000330     -0.001853     -0.001543
      0.00001      5.92263     21.69553         0.000002      0.000022     -0.000227
      3.26530      7.40329      8.77892         0.000027      0.000136     -3.479913
      6.53060      8.88395      8.77892        -0.000003      0.000218      2.775693
      6.53060      7.40329     12.04422        -0.000015      0.003336      0.520913
      3.26530      8.88395     12.04422         0.000356      0.000509     -0.708732
      3.26530      7.40329     15.30952         0.003444      0.001302      0.659736
      6.53060      8.88395     15.30952        -0.000168     -0.006809     -0.676924
      6.53058      7.39850     18.51945        -0.000032      0.000558     -0.000427
      3.26500      8.88439     18.69865        -0.001219     -0.002938     -0.000518
      3.26334      7.40469     22.05343        -0.000337      0.001925     -0.001521
      6.53070      8.88465     21.69156         0.000015      0.001574      0.000787
      3.26530     10.36461      8.77892         0.000088      0.000127     -3.479844
      6.53060      0.00000      8.77892        -0.000000      0.000001      2.775908
      6.53060     10.36461     12.04422        -0.000015      0.001647      0.523107
      3.26530      0.00000     12.04422         0.000604     -0.000024     -0.708448
      3.26530     10.36461     15.30952         0.001616      0.005934      0.664125
[...]
      6.53060      5.92263     13.32313         0.000001      0.000000     -0.116748
      4.54422      4.44197     12.04422         0.421695      0.000266      0.050071
      8.51698      4.44197     12.04422        -0.421703      0.000296      0.050066
      3.26530      5.92263     14.03060        -0.000747     -0.000266     -0.098906
      3.26530      5.92263     16.58843         0.001255     -0.000223      0.003197
      7.80952      4.44197     15.30952        -0.459726      0.008537      0.088432
      5.25168      4.44197     15.30952         0.459473      0.008474      0.088479
      6.53060      5.92263     17.31972         0.000001     -0.000007     -0.001400
      6.53060      5.92263     19.89446        -0.000000      0.000003      0.000921
      4.57137      4.44199     18.59621        -0.001299      0.000305     -0.001261
      8.48984      4.44206     18.59607         0.001296      0.000326     -0.001414
      3.25774      5.92289     20.56831        -0.001518      0.000056      0.003996
      3.27766      5.92209     23.13536        -0.001091     -0.000102      0.003864
      7.76080      4.43338     22.00147        -0.000191      0.000047     -0.001650
      5.29949      4.43288     21.99845         0.000132      0.000156     -0.001904
    total drift:                               -0.000055     -0.000113     -0.026361

  FREE ENERGIE OF THE ION-ELECTRON SYSTEM (eV)
  free  energy   TOTEN  =     -1763.03904803 eV

  energy  without entropy=    -1763.03904803  energy(sigma->0) =    -1763.03904803

 d Force = 0.2051996E-04[ 0.333E-05, 0.377E-04]  d Energy = 0.2031002E-04 0.210E-06
 d Force = 0.2757432E+01[ 0.276E+01, 0.276E+01]  d Ewald  = 0.2757432E+01 0.371E-06

 Conjugate gradient step on ions:
 trial-energy change:   -0.000020  1 .order   -0.000021   -0.000038   -0.000003
  (g-gl).g = 0.384E-04      g.g   = 0.409E-04  gl.gl    = 0.704E-04
 g(Force)  = 0.409E-04   g(Stress)= 0.000E+00 ortho     = 0.421E-05
 gamma     =   0.54625
 trial     =   0.87257
 opt step  =   0.95715  (harmonic =   0.95715) maximal distance =0.00056514
 next E    = -1763.039048   (d E  =  -0.00002)

 reached required accuracy - stopping structural energy minimisation