 vasp.6.4.2 20Jul23 (build Nov 17 2023 15:39:20) complex
 executed on              LinuxNV date 2024.02.27  20:15:48
 OpenACC runtime initialized ...    4 GPUs detected

 INCAR:
   SYSTEM = Oxide-Surface
   ISMEAR = 0
   SIGMA = 0.05
   EDIFF = 1E-4
   ALGO = Normal
   ISTART = 2
   IBRION = -1
   NSW = 0
   ISYM = 0
   DIPOL = 0.5 0.5 0.5
   IDIPOL = 3
   LDIPOL = .TRUE.
   LHFCALC = .TRUE.
   HFSCREEN = 0.2
   GGA = PE
   ENCUT = 450
   PREC = Normal
   LASPH = .TRUE.
   LREAL = Auto
   ISPIN = 1
   NELM = 200
   NELMIN = 8
   NCORE = 1
   KPAR = 1
   LWAVE = .FALSE.
   LCHARG = .FALSE.

 POTCAR:    PAW_PBE C 08Apr2002
 POTCAR:    PAW_PBE H 15Jun2001
 POTCAR:    PAW_PBE Mg_pv 13Apr2007
 POTCAR:    PAW_PBE O 08Apr2002
 POTCAR:    PAW_PBE C 08Apr2002
   VRHFIN =C: s2p2

   TITEL  = PAW_PBE C 08Apr2002
   POMASS =   12.011; ZVAL   =    4.000    mass and valenz
   ENMAX  =  400.000; ENMIN  =  300.000 eV

   TITEL  = PAW_PBE H 15Jun2001
   POMASS =    1.000; ZVAL   =    1.000    mass and valenz
   ENMAX  =  250.000; ENMIN  =  200.000 eV

   TITEL  = PAW_PBE Mg_pv 13Apr2007
   POMASS =   24.305; ZVAL   =    8.000    mass and valenz
   ENMAX  =  403.929; ENMIN  =  302.947 eV

   TITEL  = PAW_PBE O 08Apr2002
   POMASS =   16.000; ZVAL   =    6.000    mass and valenz
   ENMAX  =  400.000; ENMIN  =  300.000 eV

 Optimization of the real space projectors (new method)

 maximal supplied QI-value         = 25.13
 optimisation between [QCUT,QGAM] = [ 10.81, 21.61] = [ 32.71,130.83] Ry
 Optimized for a Real-space Cutoff    1.23 Angstroem

   l    n(q)    QCUT    max X(q) W(low)/X(q) W(high)/X(q)  e(spline)
   0      8    10.807   115.676    0.36E-03    0.72E-03    0.24E-06
   0      8    10.807    87.132    0.35E-03    0.71E-03    0.24E-06
   1      7    10.807     4.429    0.19E-03    0.39E-03    0.11E-06
   1      7    10.807     2.733    0.14E-03    0.28E-03    0.13E-06
 Optimization of the real space projectors (new method)

[...]

   l    n(q)    QCUT    max X(q) W(low)/X(q) W(high)/X(q)  e(spline)
   1      7    10.771     2.974    0.18E-03    0.56E-05    0.13E-06
   1      7    10.771     4.279    0.39E-03    0.94E-04    0.28E-06
   0      8    10.771    16.381    0.27E-03    0.38E-03    0.44E-07
   0      8    10.771     5.611    0.18E-03    0.26E-03    0.32E-07
   2      7    10.771     4.652    0.12E-03    0.23E-03    0.45E-07
 Optimization of the real space projectors (new method)

 maximal supplied QI-value         = 24.76
 optimisation between [QCUT,QGAM] = [ 10.64, 21.54] = [ 31.73,129.89] Ry
 Optimized for a Real-space Cutoff    1.23 Angstroem

   l    n(q)    QCUT    max X(q) W(low)/X(q) W(high)/X(q)  e(spline)
   0      8    10.645    20.381    0.38E-03    0.60E-03    0.15E-06
   0      8    10.645    15.268    0.40E-03    0.65E-03    0.17E-06
   1      7    10.645     5.964    0.30E-03    0.63E-03    0.18E-06
   1      7    10.645     5.382    0.24E-03    0.53E-03    0.16E-06
  PAW_PBE C 08Apr2002                   :
  PAW_PBE H 15Jun2001                   :
  PAW_PBE Mg_pv 13Apr2007               :
  PAW_PBE O 08Apr2002                   :

 POSCAR:  C  H Mg  O
  positions in direct lattice
 exchange correlation table for  LEXCH =        8
   RHO(1)=    0.500       N(1)  =     2000
   RHO(2)=  100.500       N(2)  =     4000

 ion  position               nearest neighbor table
   1  0.504  0.498  0.793-   5 1.10   3 1.10   4 1.10   2 1.53
   2  0.675  0.499  0.817-   6 1.10   8 1.10   7 1.10   1 1.53
   3  0.482  0.392  0.764-   1 1.10
   4  0.479  0.604  0.765-   1 1.10
   5  0.418  0.495  0.832-   1 1.10
   6  0.759  0.502  0.778-   2 1.10
   7  0.701  0.394  0.846-   2 1.10
   8  0.698  0.604  0.847-   2 1.10
   9  0.000  0.750  0.352-  41 2.11  43 2.11  44 2.11  51 2.11  60 2.11
  10  0.250  0.000  0.352-  42 2.11  43 2.11  44 2.11  52 2.11  59 2.11
  11  0.000  0.000  0.451-  43 2.11  42 2.11  41 2.11  49 2.11  58 2.11  47 2.12
  12  0.250  0.750  0.451-  44 2.11  42 2.11  41 2.11  50 2.11  57 2.11  48 2.12
  13  1.000  0.750  0.550-  64 2.11  48 2.11  55 2.11  47 2.11  41 2.12  45 2.15
  14  0.250  1.000  0.550-  48 2.11  56 2.11  63 2.11  47 2.11  42 2.12  46 2.15
  15  1.000  1.000  0.649-  46 2.11  62 2.11  47 2.11  45 2.11  53 2.11
  16  0.250  0.750  0.649-  48 2.11  54 2.11  45 2.11  46 2.11  61 2.11
  17  0.000  0.250  0.352-  49 2.11  43 2.11  51 2.11  52 2.11  68 2.11
  18  0.250  0.500  0.352-  50 2.11  44 2.11  51 2.11  52 2.11  67 2.11
  19  0.000  0.500  0.451-  51 2.11  49 2.11  50 2.11  41 2.11  66 2.11  55 2.12
  20  0.250  0.250  0.451-  52 2.11  49 2.11  50 2.11  42 2.11  65 2.11  56 2.12
  21  1.000  0.250  0.550-  72 2.11  56 2.11  55 2.11  47 2.11  49 2.12  53 2.15
  22  0.250  0.500  0.550-  71 2.11  56 2.11  48 2.11  55 2.11  50 2.13  54 2.15
  23  0.000  0.500  0.649-  54 2.11  55 2.11  70 2.11  45 2.11  53 2.11
  24  0.250  0.250  0.649-  56 2.11  53 2.11  54 2.11  46 2.11  69 2.11
  25  0.500  0.750  0.352-  57 2.11  44 2.11  59 2.11  60 2.11  67 2.11
  26  0.750  0.000  0.352-  58 2.11  43 2.11  59 2.11  60 2.11  68 2.11
  27  0.500  0.000  0.451-  59 2.11  57 2.11  58 2.11  42 2.11  65 2.11  63 2.12
  28  0.750  0.750  0.451-  60 2.11  57 2.11  58 2.11  41 2.11  66 2.11  64 2.12
  29  0.500  0.750  0.550-  71 2.11  64 2.11  48 2.11  63 2.11  57 2.13  61 2.15
  30  0.750  1.000  0.550-  64 2.11  72 2.11  47 2.11  63 2.11  58 2.13  62 2.15
  31  0.500  1.000  0.649-  69 2.11  61 2.11  63 2.11  46 2.11  62 2.11
  32  0.750  0.750  0.649-  64 2.11  45 2.11  62 2.11  70 2.11  61 2.11
  33  0.500  0.250  0.352-  65 2.11  59 2.11  52 2.11  67 2.11  68 2.11
  34  0.750  0.500  0.352-  66 2.11  60 2.11  51 2.11  67 2.11  68 2.11
  35  0.500  0.500  0.451-  67 2.11  57 2.11  65 2.11  66 2.11  50 2.11  71 2.12
  36  0.750  0.250  0.451-  68 2.11  58 2.11  65 2.11  66 2.11  49 2.11  72 2.12
  37  0.500  0.250  0.550-  71 2.11  72 2.11  56 2.11  63 2.11  65 2.13  69 2.15
  38  0.750  0.500  0.550-  71 2.11  72 2.11  64 2.11  55 2.11  66 2.13  70 2.15
  39  0.500  0.500  0.649-  54 2.11  61 2.11  69 2.11  70 2.11  71 2.12
  40  0.750  0.250  0.649-  72 2.11  53 2.11  62 2.11  70 2.11  69 2.11
  41  0.000  0.750  0.451-   9 2.11  11 2.11  12 2.11  19 2.11  28 2.11  13 2.12
  42  0.250  0.000  0.451-  10 2.11  11 2.11  12 2.11  20 2.11  27 2.11  14 2.12
  43  0.000  0.000  0.352-  11 2.11  10 2.11   9 2.11  17 2.11  26 2.11
  44  0.250  0.750  0.352-  12 2.11  10 2.11   9 2.11  18 2.11  25 2.11
  45  1.000  0.750  0.651-  32 2.11  16 2.11  23 2.11  15 2.11  13 2.15
  46  0.250  1.000  0.651-  15 2.11  31 2.11  24 2.11  16 2.11  14 2.15
  47  1.000  1.000  0.550-  30 2.11  13 2.11  21 2.11  14 2.11  15 2.11  11 2.12
  48  0.250  0.750  0.550-  16 2.11  14 2.11  13 2.11  29 2.11  22 2.11  12 2.12
  49  0.000  0.250  0.451-  17 2.11  11 2.11  19 2.11  20 2.11  36 2.11  21 2.12
  50  0.250  0.500  0.451-  18 2.11  12 2.11  19 2.11  20 2.11  35 2.11  22 2.13
  51  0.000  0.500  0.352-  19 2.11  17 2.11  18 2.11   9 2.11  34 2.11
  52  0.250  0.250  0.352-  20 2.11  17 2.11  18 2.11  10 2.11  33 2.11
  53  1.000  0.250  0.651-  40 2.11  24 2.11  23 2.11  15 2.11  21 2.15
  54  0.250  0.500  0.651-  23 2.11  16 2.11  24 2.11  39 2.11  22 2.15
  55  1.000  0.500  0.550-  23 2.11  21 2.11  13 2.11  38 2.11  22 2.11  19 2.12
  56  0.250  0.250  0.550-  24 2.11  14 2.11  21 2.11  37 2.11  22 2.11  20 2.12
  57  0.500  0.750  0.451-  25 2.11  12 2.11  27 2.11  28 2.11  35 2.11  29 2.13
  58  0.750  0.000  0.451-  26 2.11  11 2.11  27 2.11  28 2.11  36 2.11  30 2.13
  59  0.500  0.000  0.352-  27 2.11  25 2.11  26 2.11  10 2.11  33 2.11
  60  0.750  0.750  0.352-  28 2.11  25 2.11  26 2.11   9 2.11  34 2.11
  61  0.500  0.750  0.651-  31 2.11  32 2.11  16 2.11  39 2.11  29 2.15
  62  0.750  1.000  0.651-  40 2.11  15 2.11  32 2.11  31 2.11  30 2.15
  63  0.500  1.000  0.550-  31 2.11  30 2.11  14 2.11  29 2.11  37 2.11  27 2.12
  64  0.750  0.750  0.550-  32 2.11  30 2.11  13 2.11  29 2.11  38 2.11  28 2.12
  65  0.500  0.250  0.451-  33 2.11  27 2.11  20 2.11  35 2.11  36 2.11  37 2.13
  66  0.750  0.500  0.451-  34 2.11  28 2.11  19 2.11  35 2.11  36 2.11  38 2.13
  67  0.500  0.500  0.352-  35 2.11  25 2.11  33 2.11  34 2.11  18 2.11
  68  0.750  0.250  0.352-  36 2.11  26 2.11  33 2.11  34 2.11  17 2.11
  69  0.500  0.250  0.651-  31 2.11  40 2.11  24 2.11  39 2.11  37 2.15
  70  0.750  0.500  0.651-  23 2.11  32 2.11  40 2.11  39 2.11  38 2.15
  71  0.500  0.500  0.550-  38 2.11  29 2.11  37 2.11  22 2.11  39 2.12  35 2.12
  72  0.750  0.250  0.550-  40 2.11  30 2.11  21 2.11  37 2.11  38 2.11  36 2.12

IMPORTANT INFORMATION: All symmetrisations will be switched off!
NOSYMM: (Re-)initialisation of all symmetry stuff for point group C_1.

                                     Primitive cell

  volume of cell :    1519.8199

  direct lattice vectors                    reciprocal lattice vectors
     8.440984654  0.000000000  0.000000000     0.118469591  0.000000000  0.000000000
     0.000000000  8.440984654  0.000000000     0.000000000  0.118469591  0.000000000
     0.000000000  0.000000000 21.330738491     0.000000000  0.000000000  0.046880702

  length of vectors
     8.440984654  8.440984654 21.330738491     0.118469591  0.118469591  0.046880702

  position of ions in fractional coordinates (direct lattice)
     0.504434876  0.497571925  0.793182562
     0.675419507  0.499339829  0.817254959
     0.481938651  0.392229692  0.763981212
     0.478802048  0.604112785  0.765085782
     0.417852208  0.495000411  0.831710663
     0.759152897  0.502002316  0.777764631
     0.701471206  0.393571335  0.845561462
     0.698192892  0.603729020  0.846776833
     0.000000000  0.750000000  0.351605267
     0.250000000  0.000000000  0.351605267
     0.000000000  0.000000000  0.450535089
     0.250000000  0.750000000  0.450535089
     0.999969335  0.749932564  0.550143009
     0.249979009  0.999932854  0.550153760
     0.999984729  0.999879620  0.648880782
     0.249865610  0.749814499  0.648764798
     0.000000000  0.250000000  0.351605267
     0.250000000  0.500000000  0.351605267
     0.000000000  0.500000000  0.450535089
     0.250000000  0.250000000  0.450535089
     0.999969716  0.249949331  0.550140365
     0.250119639  0.499932684  0.550205747
     0.000137590  0.499892464  0.648694835
     0.249861482  0.249941717  0.648759231
     0.500000000  0.750000000  0.351605267
     0.750000000  0.000000000  0.351605267
     0.500000000  0.000000000  0.450535089
     0.750000000  0.750000000  0.450535089
     0.499983604  0.749784240  0.550199518
     0.749978902  0.999929979  0.550160720
     0.499953859  0.999865553  0.648719052
     0.750035499  0.749892856  0.648802828
     0.500000000  0.250000000  0.351605267
     0.750000000  0.500000000  0.351605267
     0.500000000  0.500000000  0.450535089
     0.750000000  0.250000000  0.450535089
     0.499985367  0.250051482  0.550198962
     0.749853021  0.499929383  0.550227143
     0.499835929  0.499867681  0.649468757
     0.750050535  0.249858113  0.648796072
     0.000000000  0.750000000  0.450535089
     0.250000000  0.000000000  0.450535089
     0.000000000  0.000000000  0.351605267
     0.250000000  0.750000000  0.351605267
[...]
     0.000000000  8.440984654  0.000000000     0.000000000  0.118469591  0.000000000
     0.000000000  0.000000000 21.330738491     0.000000000  0.000000000  0.046880702

  length of vectors
     8.440984654  8.440984654 21.330738491     0.118469591  0.118469591  0.046880702

 FORCES acting on ions
    electron-ion (+dipol)            ewald-force                    non-local-force                 convergence-correction
   0.690E+02 0.735E+00 -.916E+03   -.689E+02 -.748E+00 0.916E+03   -.700E-01 0.165E-01 -.241E+00   -.474E-04 0.212E-05 0.139E+00
   -.692E+02 -.734E+00 -.862E+03   0.695E+02 0.746E+00 0.862E+03   -.375E+00 -.122E-01 0.147E+00   0.219E-02 0.189E-04 0.131E+00
   0.181E+02 0.465E+02 -.231E+03   -.190E+02 -.508E+02 0.228E+03   0.949E+00 0.434E+01 0.293E+01   -.190E-04 0.366E-04 0.364E-01
   0.195E+02 -.468E+02 -.231E+03   -.205E+02 0.512E+02 0.229E+03   0.108E+01 -.438E+01 0.281E+01   -.205E-04 -.308E-04 0.364E-01
   0.457E+02 0.122E+01 -.234E+03   -.492E+02 -.133E+01 0.238E+03   0.356E+01 0.105E+00 -.395E+01   -.304E-03 -.844E-05 0.309E-01
   -.449E+02 -.127E+01 -.211E+03   0.484E+02 0.138E+01 0.207E+03   -.344E+01 -.107E+00 0.413E+01   0.804E-04 0.264E-05 0.363E-01
   -.196E+02 0.465E+02 -.213E+03   0.207E+02 -.507E+02 0.216E+03   -.110E+01 0.430E+01 -.293E+01   0.396E-03 -.406E-04 0.293E-01
   -.181E+02 -.460E+02 -.213E+03   0.191E+02 0.503E+02 0.216E+03   -.968E+00 -.425E+01 -.305E+01   0.403E-03 0.541E-04 0.291E-01
   -.911E-01 -.233E+00 0.208E+04   0.910E-01 0.233E+00 -.207E+04   0.959E-04 0.225E-03 -.681E+01   -.791E-05 -.108E-05 -.243E+00
   0.159E+00 0.374E-02 0.208E+04   -.159E+00 -.390E-02 -.207E+04   0.235E-04 0.101E-03 -.681E+01   0.403E-05 0.722E-06 -.243E+00
   -.291E+00 0.107E-01 0.723E+03   0.290E+00 -.132E-01 -.723E+03   0.606E-03 0.145E-02 0.523E+00   -.771E-05 0.127E-06 -.110E+00
   0.641E+00 -.873E+00 0.724E+03   -.639E+00 0.869E+00 -.724E+03   -.133E-02 0.155E-02 0.513E+00   0.497E-04 -.328E-04 -.110E+00
   -.161E+01 -.411E+01 -.624E+03   0.161E+01 0.411E+01 0.624E+03   0.184E-02 0.363E-02 -.153E+00   -.150E-04 -.114E-03 0.598E-01
   0.282E+01 0.595E-01 -.627E+03   -.282E+01 -.598E-01 0.627E+03   -.197E-02 0.494E-03 -.157E+00   0.176E-03 0.287E-05 0.599E-01
   -.460E+01 0.102E+00 -.198E+04   0.460E+01 -.100E+00 0.198E+04   -.164E-02 -.980E-03 0.578E+01   0.190E-03 -.852E-05 0.209E+00
   0.170E+02 -.197E+02 -.196E+04   -.171E+02 0.197E+02 0.196E+04   0.459E-01 0.174E-01 0.581E+01   0.554E-03 -.229E-03 0.208E+00
   -.912E-01 0.233E+00 0.208E+04   0.911E-01 -.233E+00 -.207E+04   0.946E-04 -.609E-04 -.681E+01   -.659E-05 -.551E-06 -.243E+00
   0.166E+00 -.412E-02 0.208E+04   -.165E+00 0.400E-02 -.207E+04   -.634E-03 0.705E-04 -.681E+01   0.773E-05 0.169E-05 -.243E+00
   -.355E+00 -.253E-01 0.725E+03   0.352E+00 0.228E-01 -.725E+03   0.222E-02 0.142E-02 0.489E+00   -.697E-06 0.414E-06 -.110E+00
   0.636E+00 0.860E+00 0.724E+03   -.634E+00 -.862E+00 -.724E+03   -.944E-03 0.166E-02 0.512E+00   0.529E-04 0.332E-04 -.110E+00
   -.162E+01 0.413E+01 -.624E+03   0.162E+01 -.413E+01 0.624E+03   0.241E-02 -.421E-02 -.155E+00   -.157E-04 0.114E-03 0.598E-01
   0.437E+01 -.567E-01 -.617E+03   -.434E+01 0.572E-01 0.618E+03   -.309E-01 -.717E-03 -.304E+00   0.241E-03 -.451E-05 0.602E-01
   -.113E+02 -.900E-01 -.196E+04   0.114E+02 0.912E-01 0.195E+04   -.773E-01 -.167E-02 0.580E+01   -.243E-03 0.822E-05 0.208E+00
   0.172E+02 0.197E+02 -.196E+04   -.173E+02 -.197E+02 0.196E+04   0.525E-01 -.186E-01 0.582E+01   0.593E-03 0.234E-03 0.208E+00
   0.909E-01 -.241E+00 0.208E+04   -.909E-01 0.239E+00 -.207E+04   -.270E-04 0.923E-03 -.681E+01   0.872E-05 -.885E-05 -.243E+00
   -.159E+00 0.384E-02 0.208E+04   0.159E+00 -.400E-02 -.207E+04   0.629E-04 0.105E-03 -.681E+01   -.412E-05 0.220E-06 -.243E+00
   0.285E+00 0.783E-02 0.724E+03   -.285E+00 -.118E-01 -.724E+03   0.443E-03 0.233E-02 0.498E+00   0.131E-04 0.945E-06 -.110E+00
   -.645E+00 -.938E+00 0.725E+03   0.641E+00 0.932E+00 -.725E+03   0.259E-02 0.339E-02 0.521E+00   -.573E-04 -.342E-04 -.110E+00
   0.163E+01 -.566E+01 -.617E+03   -.163E+01 0.563E+01 0.617E+03   -.193E-02 0.293E-01 -.201E+00   0.259E-04 -.170E-03 0.604E-01
   -.281E+01 0.639E-01 -.625E+03   0.281E+01 -.642E-01 0.625E+03   0.212E-03 0.525E-03 -.155E+00   -.180E-03 0.250E-05 0.599E-01
   0.465E+01 0.331E+00 -.197E+04   -.465E+01 -.328E+00 0.196E+04   0.138E-02 -.244E-02 0.578E+01   -.183E-03 0.261E-04 0.208E+00
   -.172E+02 -.269E+02 -.195E+04   0.172E+02 0.269E+02 0.194E+04   -.397E-01 -.320E-01 0.581E+01   -.540E-03 -.643E-03 0.208E+00
   0.910E-01 0.240E+00 0.208E+04   -.910E-01 -.239E+00 -.207E+04   -.267E-04 -.705E-03 -.681E+01   0.994E-05 0.636E-05 -.243E+00
   -.166E+00 -.426E-02 0.208E+04   0.165E+00 0.413E-02 -.207E+04   0.720E-03 0.926E-04 -.681E+01   -.193E-04 0.591E-06 -.243E+00
   0.352E+00 -.178E-01 0.726E+03   -.350E+00 0.149E-01 -.726E+03   -.157E-02 0.162E-02 0.542E+00   0.176E-04 -.177E-05 -.110E+00
   -.639E+00 0.926E+00 0.725E+03   0.635E+00 -.925E+00 -.725E+03   0.213E-02 -.526E-04 0.520E+00   -.589E-04 0.349E-04 -.110E+00
   0.164E+01 0.564E+01 -.617E+03   -.163E+01 -.561E+01 0.617E+03   -.204E-02 -.297E-01 -.207E+00   0.248E-04 0.171E-03 0.604E-01
   -.441E+01 -.630E-01 -.614E+03   0.437E+01 0.641E-01 0.614E+03   0.333E-01 -.629E-03 -.254E+00   -.264E-03 -.416E-05 0.605E-01
   0.120E+02 -.506E+00 -.190E+04   -.121E+02 0.521E+00 0.189E+04   0.607E-01 -.925E-02 0.555E+01   0.140E-03 -.532E-04 0.212E+00
   -.174E+02 0.269E+02 -.195E+04   0.175E+02 -.269E+02 0.194E+04   -.462E-01 0.303E-01 0.582E+01   -.578E-03 0.643E-03 0.208E+00
   -.239E+00 -.688E+00 0.542E+03   0.241E+00 0.686E+00 -.542E+03   -.252E-02 0.364E-02 -.655E-01   -.475E-05 -.188E-04 -.804E-01
   0.473E+00 0.724E-02 0.542E+03   -.467E+00 -.371E-02 -.542E+03   -.706E-02 -.408E-02 -.705E-01   0.279E-04 0.179E-05 -.803E-01
   -.649E-01 0.322E-02 0.156E+04   0.650E-01 -.314E-02 -.157E+04   -.564E-04 -.113E-03 0.316E+01   -.101E-04 -.123E-05 -.182E+00
   0.122E+00 -.173E+00 0.156E+04   -.121E+00 0.173E+00 -.157E+04   -.670E-03 0.462E-03 0.316E+01   -.251E-05 -.553E-05 -.182E+00
   -.594E+01 -.117E+02 -.150E+04   0.594E+01 0.117E+02 0.150E+04   0.436E-03 0.993E-02 -.460E+01   0.380E-04 -.138E-04 0.159E+00
   0.731E+01 0.147E+00 -.151E+04   -.729E+01 -.150E+00 0.151E+04   -.176E-01 0.412E-02 -.459E+01   0.982E-04 0.496E-05 0.159E+00
   -.965E+00 0.292E-01 -.466E+03   0.966E+00 -.272E-01 0.466E+03   0.533E-03 -.129E-02 0.243E+00   0.895E-05 0.118E-05 0.440E-01
   0.264E+01 -.335E+01 -.461E+03   -.263E+01 0.333E+01 0.461E+03   -.502E-02 0.164E-01 0.265E+00   0.165E-03 -.105E-03 0.442E-01
   -.240E+00 0.681E+00 0.542E+03   0.242E+00 -.672E+00 -.542E+03   -.248E-02 -.107E-01 -.655E-01   -.650E-05 0.190E-04 -.804E-01
   0.518E+00 -.180E-01 0.543E+03   -.528E+00 0.213E-01 -.543E+03   0.116E-01 -.385E-02 -.781E-01   0.413E-04 0.180E-05 -.803E-01
   -.718E-01 -.309E-02 0.156E+04   0.715E-01 0.317E-02 -.157E+04   0.352E-03 -.102E-03 0.316E+01   0.259E-06 -.157E-06 -.182E+00
   0.121E+00 0.174E+00 0.156E+04   -.121E+00 -.173E+00 -.157E+04   -.589E-03 -.701E-03 0.316E+01   -.380E-05 0.291E-05 -.182E+00
   -.595E+01 0.117E+02 -.150E+04   0.595E+01 -.117E+02 0.150E+04   -.243E-03 -.521E-02 -.460E+01   0.420E-04 0.112E-04 0.159E+00
   0.211E+02 -.168E+00 -.148E+04   -.210E+02 0.166E+00 0.148E+04   -.924E-01 0.296E-02 -.466E+01   0.927E-03 -.651E-05 0.159E+00
   -.144E+01 -.446E-01 -.459E+03   0.144E+01 0.447E-01 0.459E+03   -.755E-02 -.169E-02 0.268E+00   -.546E-04 0.283E-05 0.441E-01
   0.264E+01 0.335E+01 -.461E+03   -.263E+01 -.333E+01 0.461E+03   -.514E-02 -.165E-01 0.264E+00   0.175E-03 0.107E-03 0.442E-01
   0.235E+00 -.736E+00 0.543E+03   -.234E+00 0.750E+00 -.543E+03   -.438E-03 -.157E-01 -.753E-01   0.153E-04 -.318E-04 -.803E-01
   -.475E+00 0.753E-02 0.542E+03   0.471E+00 -.386E-02 -.542E+03   0.441E-02 -.424E-02 -.703E-01   -.414E-04 0.154E-05 -.803E-01
   0.650E-01 0.296E-02 0.156E+04   -.650E-01 -.290E-02 -.157E+04   -.201E-04 -.840E-04 0.316E+01   0.838E-05 0.912E-06 -.182E+00
   -.122E+00 -.180E+00 0.156E+04   0.121E+00 0.180E+00 -.157E+04   0.589E-03 0.824E-03 0.316E+01   0.181E-05 -.246E-05 -.182E+00
   0.604E+01 -.259E+02 -.147E+04   -.603E+01 0.259E+02 0.148E+04   -.771E-02 0.816E-01 -.456E+01   -.866E-04 -.877E-03 0.159E+00
   -.737E+01 0.162E+00 -.150E+04   0.735E+01 -.165E+00 0.151E+04   0.161E-01 0.478E-02 -.460E+01   -.106E-03 0.456E-05 0.159E+00
   0.957E+00 0.621E-01 -.461E+03   -.960E+00 -.644E-01 0.461E+03   0.119E-02 0.113E-02 0.278E+00   -.283E-05 0.938E-05 0.442E-01
   -.264E+01 -.385E+01 -.459E+03   0.264E+01 0.383E+01 0.459E+03   0.514E-02 0.108E-01 0.265E+00   -.178E-03 -.172E-03 0.442E-01
   0.236E+00 0.720E+00 0.543E+03   -.236E+00 -.725E+00 -.543E+03   -.302E-03 0.579E-02 -.745E-01   0.152E-04 0.332E-04 -.803E-01
   -.520E+00 -.192E-01 0.544E+03   0.531E+00 0.228E-01 -.543E+03   -.129E-01 -.407E-02 -.826E-01   -.557E-04 0.180E-05 -.803E-01
   0.717E-01 -.255E-02 0.156E+04   -.715E-01 0.272E-02 -.157E+04   -.310E-03 -.216E-03 0.316E+01   0.794E-05 0.144E-05 -.182E+00
   -.121E+00 0.181E+00 0.156E+04   0.121E+00 -.180E+00 -.157E+04   0.513E-03 -.107E-02 0.316E+01   0.645E-06 -.144E-05 -.182E+00
   0.607E+01 0.261E+02 -.147E+04   -.606E+01 -.260E+02 0.148E+04   -.705E-02 -.718E-01 -.455E+01   -.855E-04 0.903E-03 0.159E+00
   -.216E+02 -.180E+00 -.145E+04   0.216E+02 0.176E+00 0.146E+04   0.780E-01 0.512E-02 -.458E+01   -.815E-03 -.300E-05 0.159E+00
   0.146E+01 -.340E-01 -.455E+03   -.147E+01 0.307E-01 0.454E+03   0.518E-02 0.229E-03 0.106E+00   0.760E-04 -.715E-05 0.447E-01
   -.265E+01 0.385E+01 -.459E+03   0.264E+01 -.384E+01 0.458E+03   0.514E-02 -.791E-02 0.265E+00   -.188E-03 0.168E-03 0.442E-01
   0.434E+00 -.698E-02 0.193E+02   -.160E-12 -.131E-12 -.330E-11   -.404E+00 0.933E-02 -.160E+02   0.262E-02 0.391E-04 -.681E+00

 POSITION                                       TOTAL-FORCE (eV/Angst)
      4.25793      4.20000     16.91917         0.087554      0.005009      0.064381
      5.70121      4.21492     17.43265        -0.095877     -0.001225      0.008960
      4.06804      3.31080     16.29628         0.050909      0.172394      0.156577
      4.04156      5.09931     16.31984         0.056252     -0.177928      0.151275
      3.52708      4.17829     17.74100         0.176668      0.005639     -0.183806
      6.40800      4.23739     16.59029        -0.158299     -0.004399      0.202470
      5.92111      3.32213     18.03645        -0.052694      0.204336     -0.138040
      5.89344      5.09607     18.06238        -0.044215     -0.201591     -0.146201
      0.00000      6.33074      7.50000        -0.000109     -0.000097      0.494281
      2.11025      0.00000      7.50000        -0.000060     -0.000028      0.494383
      0.00000      0.00000      9.61025        -0.000388     -0.000823      0.025827
      2.11025      6.33074      9.61025         0.000630     -0.001372      0.026915
      8.44073      6.33017     11.73496        -0.000746     -0.001453      0.040781
      2.11007      8.44042     11.73519         0.000400     -0.000144      0.040030
      8.44086      8.43997     13.84111        -0.001245      0.001187     -0.118657
      2.10911      6.32917     13.83863        -0.009091      0.003623     -0.129651
      0.00000      2.11025      7.50000        -0.000108      0.000064      0.494314
      2.11025      4.22049      7.50000         0.000159     -0.000022      0.495644
      0.00000      4.22049      9.61025        -0.000955     -0.000786      0.029210
      2.11025      2.11025      9.61025         0.000511     -0.000446      0.026729
      8.44073      2.10982     11.73490        -0.000017      0.000007      0.041519
      2.11126      4.21992     11.73629         0.000488     -0.000569      0.043700
      0.00116      4.21958     13.83714         0.009937     -0.000861     -0.130383
      2.10908      2.10975     13.83851        -0.010830     -0.002521     -0.129874
      4.22049      6.33074      7.50000        -0.000067     -0.000290      0.495545
      6.33074      0.00000      7.50000        -0.000088     -0.000028      0.494339
      4.22049      0.00000      9.61025        -0.000364     -0.001307      0.029567
      6.33074      6.33074      9.61025        -0.001478     -0.002228      0.025546
      4.22035      6.32892     11.73616        -0.000057     -0.000400      0.041663
      6.33056      8.44039     11.73533        -0.000392     -0.000056      0.040647
      4.22010      8.43985     13.83766         0.000821     -0.000761     -0.118602
      6.33104      6.32983     13.83944         0.005381      0.012354     -0.135797
      4.22049      2.11025      7.50000        -0.000061      0.000219      0.495500
      6.33074      4.22049      7.50000        -0.000329     -0.000008      0.497653
      4.22049      4.22049      9.61025         0.000608     -0.000988      0.030968
      6.33074      2.11025      9.61025        -0.001307      0.000303      0.025337
      4.22037      2.11068     11.73615        -0.000113      0.000520      0.041363
      6.32950      4.21990     11.73675        -0.000994      0.000045      0.042653
      4.21911      4.21938     13.85365        -0.007497      0.003868     -0.121111
      6.33117      2.10905     13.83930         0.007279     -0.010721     -0.136368
      0.00000      6.33074      9.61025        -0.000859      0.001469      0.080957
      2.11025      0.00000      9.61025        -0.002389     -0.001176      0.080308
      0.00000      0.00000      7.50000        -0.000089     -0.000028     -0.447477
      2.11025      6.33074      7.50000        -0.000299      0.000159     -0.447424
      8.44044      6.32952     13.88698         0.000339      0.005276     -0.095284
      2.10973      8.43998     13.88705        -0.001456      0.001823     -0.094180
      8.44068      8.44046     11.73025         0.001378      0.000341      0.013482
      2.10989      6.33082     11.72973         0.000318      0.000783      0.012954
      0.00000      2.11025      9.61025        -0.000842     -0.003491      0.080641
      2.11025      4.22049      9.61025         0.003601     -0.001081      0.082701
      0.00000      4.22049      7.50000         0.000050     -0.000023     -0.447301
      2.11025      2.11025      7.50000        -0.000267     -0.000218     -0.447394
      8.44046      2.10952     13.88682         0.000351     -0.002288     -0.095004
      2.10781      4.21948     13.88157        -0.012839      0.001023     -0.108406
      8.44068      4.21998     11.72868        -0.002435     -0.001427      0.013052
      2.10982      2.10904     11.72965         0.000446     -0.001428      0.011285
      4.22049      6.33074      9.61025        -0.000153     -0.004728      0.082947
      6.33074      0.00000      9.61025         0.001481     -0.001217      0.081114
      4.22049      0.00000      7.50000        -0.000099     -0.000018     -0.447580
      6.33074      6.33074      7.50000         0.000136      0.000289     -0.446871
      4.22034      6.33233     13.88613        -0.003936      0.015092     -0.097211
      6.33073      8.43995     13.88762         0.001615      0.002037     -0.097864
      4.22040      8.44028     11.72907        -0.000886     -0.000636      0.015702
      6.33072      6.33073     11.73011        -0.000121     -0.001180      0.014356
      4.22049      2.11025      9.61025        -0.000115      0.001931      0.083192
      6.33074      4.22049      9.61025        -0.004111     -0.001139      0.081948
      4.22049      4.22049      7.50000        -0.000171     -0.000061     -0.448202
      6.33074      2.11025      7.50000         0.000109     -0.000352     -0.446848
      4.22040      2.10623     13.88554        -0.003932     -0.009934     -0.095258
      6.33242      4.21947     13.88436         0.014553      0.001851     -0.108152
      4.22056      4.21990     11.73288         0.000944     -0.002535      0.012561
      6.33080      2.10908     11.73003        -0.000541      0.002367      0.013970
    total drift:                                0.005267     -0.001335      0.040646

  FREE ENERGIE OF THE ION-ELECTRON SYSTEM (eV)
  free  energy   TOTEN  =      -492.76489015 eV

  energy  without entropy=     -492.76489015  energy(sigma->0) =     -492.76489015

     |            E. Caldeweyher, S. Ehlert & S. Grimme          |
     |          Mulliken Center for Theoretical Chemistry        |
     |                    University of Bonn                     |

Rational (Becke-Johnson) damping: hse06-D4-ATM
  s6         1.0000
  s8         1.1953
  s9         1.0000
  a1         0.3866
  a2         5.1913
 alp        16.0000

Dispersion energy:      -2.7717146272953E-01 Eh