 vasp.6.3.0 20Jan22 (build Apr  1 2022 16:44:48) complex
 executed on        HPECrayEX_GCC date 2022.11.13  00:32:11

 INCAR:
   SYSTEM = MgO-rocksalt
   ISMEAR = 0
   SIGMA = 0.05
   EDIFF = 1E-6
   ALGO = ALL
   ISTART = 0
   IBRION = -1
   NSW = 0
   ISYM = 0
   DIPOL = 0.5 0.5 0.5
   IDIPOL = 3
   LDIPOL = .TRUE.
   GGA = PE
   IVDW = 1
   VDW_C6 = 0.63 0.70
   VDW_R0 = 1.243 1.342
   ENCUT = 600
   PREC = Accurate
   LASPH = .TRUE.
   LREAL = .FALSE.
   ISPIN = 1
   NELM = 200
   NELMIN = 8
   NCORE = 8
   KPAR = 1
   LWAVE = .FALSE.
   LCHARG = .FALSE.

 POTCAR:    PAW_PBE Mg_pv 13Apr2007
 POTCAR:    PAW_PBE O 08Apr2002
 POTCAR:    PAW_PBE Mg_pv 13Apr2007
   VRHFIN =Mg: p6s2

   TITEL  = PAW_PBE Mg_pv 13Apr2007
   POMASS =   24.305; ZVAL   =    8.000    mass and valenz
   ENMAX  =  403.929; ENMIN  =  302.947 eV

   TITEL  = PAW_PBE O 08Apr2002
   POMASS =   16.000; ZVAL   =    6.000    mass and valenz
   ENMAX  =  400.000; ENMIN  =  300.000 eV

  PAW_PBE Mg_pv 13Apr2007               :
  PAW_PBE O 08Apr2002                   :

 POSCAR: Mg  O
  positions in direct lattice
 exchange correlation table for  LEXCH =        8
   RHO(1)=    0.500       N(1)  =     2000
   RHO(2)=  100.500       N(2)  =     4000

 ion  position               nearest neighbor table
   1  0.250  0.000  0.352-  33 2.11  35 2.11  36 2.11  43 2.11  52 2.11
   2  0.500  0.250  0.352-  34 2.11  35 2.11  36 2.11  44 2.11  51 2.11
   3  0.250  0.250  0.451-  35 2.11  34 2.11  33 2.11  41 2.11  50 2.11  39 2.12
   4  0.500  0.000  0.451-  36 2.11  34 2.11  33 2.11  42 2.11  49 2.11  40 2.14
   5  0.252  0.999  0.551-  40 2.09  37 2.10  47 2.10  39 2.12  56 2.13  33 2.13
   6  0.500  0.250  0.548-  34 2.07  55 2.09  39 2.09  48 2.09  40 2.09
   7  0.237  0.250  0.647-  54 2.00  39 2.07  45 2.10  37 2.10  38 2.23
   8  0.500  0.989  0.658-  46 2.02  37 2.14  53 2.14  38 2.21
   9  0.250  0.500  0.352-  41 2.11  35 2.11  43 2.11  44 2.11  60 2.11
  10  0.500  0.750  0.352-  42 2.11  36 2.11  43 2.11  44 2.11  59 2.11
  11  0.250  0.750  0.451-  43 2.11  41 2.11  42 2.11  33 2.11  58 2.11  47 2.12
  12  0.500  0.500  0.451-  44 2.11  41 2.11  42 2.11  34 2.11  57 2.11  48 2.14
  13  0.252  0.501  0.551-  48 2.09  45 2.10  47 2.10  39 2.12  64 2.13  41 2.13
  14  0.500  0.750  0.551-  47 2.11  63 2.11  48 2.13  40 2.13  46 2.13  42 2.14
  15  0.247  0.750  0.648-  62 2.09  47 2.11  45 2.12  37 2.12  46 2.13
  16  0.500  0.511  0.658-  46 2.02  45 2.14  61 2.14  38 2.21
  17  0.750  0.000  0.352-  49 2.11  36 2.11  51 2.11  52 2.11  59 2.11
  18  0.000  0.250  0.352-  50 2.11  35 2.11  51 2.11  52 2.11  60 2.11
  19  0.750  0.250  0.451-  51 2.11  49 2.11  50 2.11  34 2.11  57 2.11  55 2.12
  20  0.000  0.000  0.451-  56 2.10  52 2.11  50 2.11  33 2.11  49 2.11  58 2.11
  21  0.748  0.999  0.551-  40 2.09  53 2.10  63 2.10  55 2.12  56 2.13  49 2.13
  22  1.000  0.250  0.549-  50 2.09  56 2.11  64 2.11  55 2.13  39 2.13  54 2.13
  23  0.763  0.250  0.647-  54 2.00  55 2.07  61 2.10  53 2.10  38 2.23
  24  0.000  0.998  0.648-  62 2.09  37 2.09  53 2.09  56 2.11  54 2.13
  25  0.750  0.500  0.352-  57 2.11  51 2.11  44 2.11  59 2.11  60 2.11
  26  0.000  0.750  0.352-  58 2.11  52 2.11  43 2.11  59 2.11  60 2.11
  27  0.750  0.750  0.451-  59 2.11  49 2.11  57 2.11  58 2.11  42 2.11  63 2.12
  28  0.000  0.500  0.451-  64 2.10  60 2.11  57 2.11  58 2.11  41 2.11  50 2.11
  29  0.748  0.501  0.551-  48 2.09  61 2.10  63 2.10  55 2.12  64 2.13  57 2.13
  30  0.000  0.750  0.549-  58 2.11  56 2.11  64 2.11  47 2.12  63 2.12  62 2.13
  31  0.753  0.750  0.648-  62 2.09  63 2.11  61 2.12  53 2.12  46 2.13
  32  0.000  0.502  0.648-  62 2.09  45 2.09  61 2.09  64 2.11  54 2.13
  33  0.250  0.000  0.451-   1 2.11   3 2.11   4 2.11  11 2.11  20 2.11   5 2.13
  34  0.500  0.250  0.451-   6 2.07   2 2.11   4 2.11   3 2.11  12 2.11  19 2.11
  35  0.250  0.250  0.352-   3 2.11   2 2.11   1 2.11   9 2.11  18 2.11
  36  0.500  0.000  0.352-   4 2.11   2 2.11   1 2.11  10 2.11  17 2.11
  37  0.248  0.001  0.649-  24 2.09   5 2.10   7 2.10  15 2.12   8 2.14
  38  0.500  0.250  0.654-  16 2.21   8 2.21   7 2.23  23 2.23
  39  0.252  0.250  0.550-   7 2.07   6 2.09   5 2.12  13 2.12   3 2.12  22 2.13
  40  0.500  0.002  0.551-   5 2.09  21 2.09   6 2.09  14 2.13   4 2.14
  41  0.250  0.500  0.451-   9 2.11   3 2.11  11 2.11  12 2.11  28 2.11  13 2.13
  42  0.500  0.750  0.451-  10 2.11   4 2.11  11 2.11  12 2.11  27 2.11  14 2.14
  43  0.250  0.750  0.352-  11 2.11   9 2.11  10 2.11   1 2.11  26 2.11
  44  0.500  0.500  0.352-  12 2.11   9 2.11  10 2.11   2 2.11  25 2.11
  45  0.248  0.499  0.649-  32 2.09  13 2.10   7 2.10  15 2.12  16 2.14
  46  0.500  0.750  0.651-   8 2.02  16 2.02  15 2.13  31 2.13  14 2.13
  47  0.251  0.750  0.550-   5 2.10  13 2.10  14 2.11  15 2.11  30 2.12  11 2.12
  48  0.500  0.498  0.551-  29 2.09  13 2.09   6 2.09  14 2.13  12 2.14
  49  0.750  0.000  0.451-  17 2.11   4 2.11  19 2.11  20 2.11  27 2.11  21 2.13
  50  0.000  0.250  0.451-  22 2.09  18 2.11  19 2.11  20 2.11   3 2.11  28 2.11
  51  0.750  0.250  0.352-  19 2.11  17 2.11  18 2.11   2 2.11  25 2.11
  52  0.000  0.000  0.352-  20 2.11  17 2.11  18 2.11   1 2.11  26 2.11
  53  0.752  0.001  0.649-  24 2.09  21 2.10  23 2.10  31 2.12   8 2.14
  54  0.000  0.250  0.648-   7 2.00  23 2.00  22 2.13  24 2.13  32 2.13
  55  0.748  0.250  0.550-  23 2.07   6 2.09  21 2.12  29 2.12  19 2.12  22 2.13
  56  0.000  0.000  0.549-  20 2.10  22 2.11  24 2.11  30 2.11   5 2.13  21 2.13
  57  0.750  0.500  0.451-  25 2.11  19 2.11  12 2.11  27 2.11  28 2.11  29 2.13
  58  0.000  0.750  0.451-  30 2.11  26 2.11  11 2.11  27 2.11  28 2.11  20 2.11
  59  0.750  0.750  0.352-  27 2.11  17 2.11  25 2.11  26 2.11  10 2.11
  60  0.000  0.500  0.352-  28 2.11  18 2.11  25 2.11  26 2.11   9 2.11
  61  0.752  0.499  0.649-  32 2.09  29 2.10  23 2.10  31 2.12  16 2.14
  62  0.000  0.750  0.649-  31 2.09  15 2.09  24 2.09  32 2.09  30 2.13
  63  0.749  0.750  0.550-  21 2.10  29 2.10  14 2.11  31 2.11  30 2.12  27 2.12
  64  1.000  0.500  0.549-  28 2.10  22 2.11  32 2.11  30 2.11  13 2.13  29 2.13

IMPORTANT INFORMATION: All symmetrisations will be switched off!
NOSYMM: (Re-)initialisation of all symmetry stuff for point group C_1.

                                     Primitive cell

  volume of cell :    1519.6535

  direct lattice vectors                    reciprocal lattice vectors
     8.440582262  0.000000000  0.000000000     0.118475239  0.000000000  0.000000000
     0.000000000  8.440582262  0.000000000     0.000000000  0.118475239  0.000000000
     0.000000000  0.000000000 21.330436697     0.000000000  0.000000000  0.046881366

  length of vectors
     8.440582262  8.440582262 21.330436697     0.118475239  0.118475239  0.046881366

  position of ions in fractional coordinates (direct lattice)
     0.250000000  0.000000000  0.351610242
     0.500000000  0.250000000  0.351610242
     0.250000000  0.250000000  0.450536747
     0.500000000  0.000000000  0.450536747
     0.252110093  0.999194651  0.550523647
     0.500000019  0.250000028  0.547680792
     0.236593161  0.250000052  0.646621164
     0.499999988  0.988553036  0.657670086
     0.250000000  0.500000000  0.351610242
     0.500000000  0.750000000  0.351610242
     0.250000000  0.750000000  0.450536747
     0.500000000  0.500000000  0.450536747
     0.252110073  0.500805351  0.550523613
     0.499999994  0.750000006  0.550931326
     0.247477629  0.750000013  0.648421986
     0.499999988  0.511447005  0.657670209
     0.750000000  0.000000000  0.351610242
     0.000000000  0.250000000  0.351610242
     0.750000000  0.250000000  0.450536747
     0.000000000  0.000000000  0.450536747
     0.747889908  0.999194672  0.550523683
     0.999999978  0.249999977  0.548541204
     0.763406859  0.250000052  0.646621236
     0.000000014  0.997526310  0.647939595
     0.750000000  0.500000000  0.351610242
     0.000000000  0.750000000  0.351610242
     0.750000000  0.750000000  0.450536747
     0.000000000  0.500000000  0.450536747
     0.747889926  0.500805328  0.550523649
     0.000000005  0.750000001  0.549381517
     0.752522377  0.750000007  0.648421958
     0.000000014  0.502473707  0.647939574
     0.250000000  0.000000000  0.450536747
     0.500000000  0.250000000  0.450536747
     0.250000000  0.250000000  0.351610242
     0.500000000  0.000000000  0.351610242
     0.247904609  0.001470942  0.648966220
     0.499999974  0.250000090  0.653939517
     0.252250631  0.249999994  0.549967438
     0.499999997  0.002150642  0.550851548
     0.250000000  0.500000000  0.450536747
     0.500000000  0.750000000  0.450536747
     0.250000000  0.750000000  0.351610242
     0.500000000  0.500000000  0.351610242
     0.247904500  0.498529147  0.648966208
     0.500000002  0.750000067  0.650988268
     0.250580846  0.750000011  0.549707959
     0.500000000  0.497849411  0.550851532
     0.750000000  0.000000000  0.450536747
     0.000000000  0.250000000  0.450536747
     0.750000000  0.250000000  0.351610242
     0.000000000  0.000000000  0.351610242
     0.752095399  0.001470963  0.648966225
     0.000000013  0.249999942  0.648414146
     0.747749370  0.249999994  0.549967470
     0.000000003  0.000495016  0.549081546
     0.750000000  0.500000000  0.450536747
     0.000000000  0.750000000  0.450536747
     0.750000000  0.750000000  0.351610242
     0.000000000  0.500000000  0.351610242
     0.752095500  0.498529121  0.648966213
     0.000000000  0.750000060  0.649242898
     0.749419155  0.750000004  0.549707974
     0.999999999  0.499504973  0.549081537

  ion indices of the primitive-cell ions
   primitive index   ion index
                 1           1
                 2           2
                 3           3
                 4           4
                 5           5
                 6           6
                 7           7
                 8           8
                 9           9
                10          10
                11          11
                12          12
                13          13
                14          14
                15          15
                16          16
                17          17
                18          18
                19          19
                20          20
                21          21
                22          22
                23          23
                24          24
                25          25
                26          26
                27          27
                28          28
                29          29
                30          30
                31          31
                32          32
                33          33
                34          34
                35          35
                36          36
                37          37
                38          38
                39          39
                40          40
                41          41
                42          42
                43          43
                44          44
                45          45
                46          46
                47          47
                48          48
                49          49
[...]
   2.12795597  8.43378465 11.74290981
   4.22029129  2.11014580 11.68227047
   1.99698404  2.11014600 13.79271180
   4.22029103  8.34396322 14.02839014
   2.11014557  4.22029113  7.50000000
   4.22029113  6.33043670  7.50000000
   2.11014557  6.33043670  9.61014557
   4.22029113  4.22029113  9.61014557
   2.12795581  4.22708876 11.74290907
   4.22029108  6.33043675 11.75160577
   2.08885529  6.33043681 13.83112412
   4.22029103  4.31691052 14.02839275
   6.33043670  0.00000000  7.50000000
   0.00000000  2.11014557  7.50000000
   6.33043670  2.11014557  9.61014557
   0.00000000  0.00000000  9.61014557
   6.31262629  8.43378482 11.74291056
   8.44058208  2.11014537 11.70062342
   6.44359840  2.11014601 13.79271334
   0.00000012  8.41970288 13.82083452
   6.33043670  4.22029113  7.50000000
   0.00000000  6.33043670  7.50000000
   6.33043670  6.33043670  9.61014557
   0.00000000  4.22029113  9.61014557
   6.31262644  4.22708857 11.74290985
   0.00000004  6.33043671 11.71854766
   6.35172703  6.33043675 13.83112352
   0.00000011  4.24117066 13.82083408
   2.11014557  0.00000000  9.61014557
   4.22029113  2.11014557  9.61014557
   2.11014557  2.11014557  7.50000000
   4.22029113  0.00000000  7.50000000
   2.09245924  0.01241561 13.84273287
   4.22029091  2.11014633 13.94881546
   2.12914221  2.11014552 11.73104561
   4.22029110  0.01815267 11.74990408
   2.11014557  4.22029113  9.61014557
   4.22029113  6.33043670  9.61014557
   2.11014557  6.33043670  7.50000000
   4.22029113  4.22029113  7.50000000
   2.09245833  4.20787627 13.84273261
   4.22029115  6.33043726 13.88586403
   2.11504825  6.33043679 11.72551081
   4.22029113  4.20213891 11.74990373
   6.33043670  0.00000000  9.61014557
   0.00000000  2.11014557  9.61014557
   6.33043670  2.11014557  7.50000000
   0.00000000  0.00000000  7.50000000
   6.34812308  0.01241578 13.84273299
   0.00000011  2.11014508 13.83095689
   6.31144007  2.11014552 11.73104631
   0.00000003  0.00417822 11.71214916
   6.33043670  4.22029113  9.61014557
   0.00000000  6.33043670  9.61014557
   6.33043670  6.33043670  7.50000000
   0.00000000  4.22029113  7.50000000
   6.34812394  4.20787606 13.84273273
   0.00000000  6.33043720 13.84863454
   6.32553403  6.33043673 11.72551115
   8.44058225  4.21611282 11.71214896

--------------------------------------- Iteration      FINAL  ---------------------------------------

--------------------OUTCAR has been truncated-------------------------

[...]

--------------------OUTCAR has been truncated-------------------------

  DFT-D2 method for vdW energy calculation

  Parameters of vdW forcefield:
         C6(Jnm^6/mol)     R0(A)
   Mg       0.630          1.243
   O        0.700          1.342

  vdW correction parametrized for the method pbe

  IVDW =   1
  VDW_RADIUS =    50.000 A
  VDW_S6 =     0.750
  VDW_SR =     1.000
  VDW_D =    20.000
  LVDW_EWALD = F

  Number of pair interactions contributing to vdW energy:  723280
  Edisp (eV):   -3.62386

  FORCE on cell =-STRESS in cart. coord.  units (eV):
  Direction    XX          YY          ZZ          XY          YZ          ZX
  Alpha Z   875.35513   875.35513   875.35513
  Ewald  160975.47160160992.41657************    -0.00000     0.00001    -0.00002
  Hartree171093.71723171105.96145************    -0.00000    -0.00001    -0.00001
  E(xc)   -2456.53702 -2456.52154 -2461.82798     0.00000     0.00000    -0.00000
  Local  ************************342325.01507     0.00002    -0.00000     0.00003
  n-local -2811.84594 -2811.76357 -2832.67023     0.00000     0.00000     0.00000
  augment  1047.95311  1047.94009  1038.26094    -0.00000     0.00000     0.00000
  Kinetic  7303.93855  7303.26279  7343.25172    -0.00000    -0.00001     0.00001
  Fock        0.00000     0.00000     0.00000     0.00000     0.00000     0.00000
  vdW        -5.25255    -5.26024    -4.24838     0.00000     0.00000     0.00000
  Total     -23.46179   -23.97619     1.02762     0.00000    -0.00001     0.00000
  in kB     -24.73587   -25.27820     1.08342     0.00000    -0.00002     0.00000

 VOLUME and BASIS-vectors are now :
  energy-cutoff  :      600.00
  volume of cell :     1519.65
      direct lattice vectors                 reciprocal lattice vectors
     8.440582262  0.000000000  0.000000000     0.118475239  0.000000000  0.000000000
     0.000000000  8.440582262  0.000000000     0.000000000  0.118475239  0.000000000
     0.000000000  0.000000000 21.330436697     0.000000000  0.000000000  0.046881366

  length of vectors
     8.440582262  8.440582262 21.330436697     0.118475239  0.118475239  0.046881366

 FORCES acting on ions:
    Electron-Ion                     Ewald-Force                    Non-Local-Force
   -.700E+00 0.268E+00 0.207E+04   0.714E+00 -.284E+00 -.206E+04   -.106E-01 0.121E-01 -.708E+01
   -.748E-05 0.619E-05 0.207E+04   0.123E-04 -.663E-05 -.206E+04   -.191E-05 -.715E-06 -.699E+01
   -.156E+01 0.303E-04 0.683E+03   0.157E+01 -.324E-04 -.683E+03   -.128E-01 0.184E-05 0.479E+00
   -.596E-04 0.304E+01 0.677E+03   0.610E-04 -.325E+01 -.678E+03   -.866E-06 0.138E+00 0.454E+00
   -.103E+02 -.293E+01 -.692E+03   0.114E+02 0.328E+01 0.692E+03   -.934E+00 -.181E+00 -.691E+00
   -.137E-04 -.868E-04 -.703E+03   0.159E-04 0.933E-04 0.704E+03   -.335E-05 -.497E-05 0.180E-01
   -.529E+02 -.465E-04 -.203E+04   0.537E+02 0.456E-04 0.203E+04   0.834E+00 0.249E-05 0.642E+01
   -.293E-04 -.453E+02 -.212E+04   0.229E-04 0.472E+02 0.211E+04   0.345E-05 -.189E+00 0.754E+01
   -.700E+00 -.268E+00 0.207E+04   0.714E+00 0.284E+00 -.206E+04   -.106E-01 -.121E-01 -.708E+01
   -.841E-05 -.679E-05 0.207E+04   0.127E-04 0.664E-05 -.206E+04   0.486E-07 -.202E-05 -.709E+01
   -.381E+01 -.304E-04 0.683E+03   0.399E+01 0.325E-04 -.684E+03   -.131E+00 -.171E-05 0.632E+00
   -.529E-04 -.304E+01 0.677E+03   0.583E-04 0.325E+01 -.678E+03   -.344E-05 -.138E+00 0.454E+00
   -.103E+02 0.293E+01 -.692E+03   0.114E+02 -.328E+01 0.692E+03   -.934E+00 0.181E+00 -.691E+00
   -.354E-04 0.933E-04 -.699E+03   0.343E-04 -.107E-03 0.698E+03   0.142E-05 0.988E-05 0.588E+00
   -.581E+01 0.973E-05 -.205E+04   0.431E+01 -.215E-04 0.204E+04   0.134E+01 0.418E-06 0.700E+01
   -.168E-04 0.453E+02 -.212E+04   0.283E-05 -.472E+02 0.211E+04   0.411E-05 0.189E+00 0.754E+01
   0.700E+00 0.268E+00 0.207E+04   -.714E+00 -.284E+00 -.206E+04   0.106E-01 0.121E-01 -.708E+01
   0.654E-05 0.122E-04 0.207E+04   -.121E-04 -.727E-05 -.206E+04   0.263E-05 0.189E-05 -.698E+01
   0.156E+01 0.294E-04 0.683E+03   -.157E+01 -.340E-04 -.683E+03   0.128E-01 0.535E-05 0.479E+00
   0.561E-04 0.804E+00 0.687E+03   -.591E-04 -.838E+00 -.687E+03   0.660E-06 0.229E-01 0.287E+00
   0.103E+02 -.293E+01 -.692E+03   -.114E+02 0.328E+01 0.692E+03   0.934E+00 -.181E+00 -.691E+00
   0.969E-05 -.359E-04 -.661E+03   -.148E-04 0.329E-04 0.661E+03   0.628E-05 0.480E-05 0.508E+00
   0.529E+02 -.344E-04 -.203E+04   -.537E+02 0.308E-04 0.203E+04   -.834E+00 0.403E-05 0.642E+01
   0.420E-05 -.189E+01 -.205E+04   0.566E-05 0.127E+01 0.204E+04   -.619E-05 0.681E+00 0.666E+01
   0.700E+00 -.268E+00 0.207E+04   -.714E+00 0.284E+00 -.206E+04   0.106E-01 -.121E-01 -.708E+01
   0.974E-05 -.785E-05 0.207E+04   -.126E-04 0.749E-05 -.206E+04   0.133E-05 0.160E-05 -.699E+01
   0.381E+01 -.325E-04 0.683E+03   -.399E+01 0.363E-04 -.684E+03   0.131E+00 -.242E-05 0.632E+00
   0.513E-04 -.804E+00 0.687E+03   -.564E-04 0.838E+00 -.687E+03   0.416E-05 -.229E-01 0.287E+00
   0.103E+02 0.293E+01 -.692E+03   -.114E+02 -.328E+01 0.692E+03   0.934E+00 0.181E+00 -.691E+00
   0.282E-04 0.104E-04 -.675E+03   -.259E-04 -.331E-05 0.675E+03   -.141E-05 -.738E-05 0.267E+00
   0.581E+01 0.271E-06 -.205E+04   -.431E+01 -.365E-05 0.204E+04   -.134E+01 0.219E-05 0.700E+01
   0.170E-05 0.189E+01 -.205E+04   0.836E-05 -.127E+01 0.204E+04   -.589E-05 -.681E+00 0.666E+01
   -.221E+01 0.414E+00 0.510E+03   0.217E+01 -.393E+00 -.510E+03   0.430E-01 -.253E-01 -.274E+00
   -.362E-04 0.151E-04 0.516E+03   0.335E-04 -.198E-04 -.516E+03   0.138E-05 0.556E-06 0.238E+00
   -.411E+00 0.437E-05 0.155E+04   0.419E+00 -.545E-05 -.156E+04   -.110E-01 0.732E-06 0.351E+01
   -.117E-04 0.333E+00 0.155E+04   0.970E-05 -.357E+00 -.156E+04   0.421E-06 0.342E-01 0.347E+01
   -.154E+02 -.684E+01 -.154E+04   0.166E+02 0.803E+01 0.155E+04   -.121E+01 -.167E+01 -.318E+01
   -.181E-04 0.562E-04 -.156E+04   0.180E-04 -.698E-04 0.156E+04   -.220E-05 0.910E-05 -.240E+01
   -.117E+02 -.326E-04 -.514E+03   0.124E+02 0.253E-04 0.514E+03   -.111E+01 0.575E-05 0.141E+00
   -.278E-04 -.397E+01 -.547E+03   0.314E-04 0.470E+01 0.549E+03   -.214E-05 -.117E+01 -.216E+01
   -.221E+01 -.414E+00 0.510E+03   0.217E+01 0.393E+00 -.510E+03   0.430E-01 0.253E-01 -.274E+00
   -.355E-04 -.178E-04 0.507E+03   0.405E-04 0.163E-04 -.507E+03   -.101E-05 0.332E-05 -.273E+00
   -.610E+00 -.239E-05 0.155E+04   0.633E+00 0.550E-05 -.156E+04   -.322E-01 -.839E-06 0.348E+01
   -.489E-05 -.333E+00 0.155E+04   0.952E-05 0.357E+00 -.156E+04   -.124E-05 -.342E-01 0.347E+01
   -.154E+02 0.684E+01 -.154E+04   0.166E+02 -.803E+01 0.155E+04   -.121E+01 0.167E+01 -.318E+01
   -.203E-04 0.205E-03 -.154E+04   0.177E-04 -.205E-03 0.154E+04   -.404E-05 -.949E-05 -.166E+01
   -.537E+01 0.384E-04 -.508E+03   0.530E+01 -.404E-04 0.507E+03   0.489E-01 0.148E-05 0.892E+00
   -.192E-04 0.397E+01 -.547E+03   0.157E-04 -.470E+01 0.549E+03   0.244E-05 0.117E+01 -.216E+01
   0.221E+01 0.414E+00 0.510E+03   -.217E+01 -.393E+00 -.510E+03   -.430E-01 -.253E-01 -.274E+00
   0.308E-04 0.197E-04 0.518E+03   -.316E-04 -.153E-04 -.518E+03   -.274E-05 0.368E-06 0.273E+00
   0.411E+00 0.352E-05 0.155E+04   -.419E+00 -.561E-05 -.156E+04   0.110E-01 0.256E-05 0.351E+01
   0.600E-05 0.134E+00 0.155E+04   -.963E-05 -.143E+00 -.156E+04   0.124E-05 0.129E-01 0.349E+01
   0.154E+02 -.684E+01 -.154E+04   -.166E+02 0.803E+01 0.155E+04   0.121E+01 -.167E+01 -.318E+01
   -.451E-04 -.102E-03 -.155E+04   0.447E-04 0.975E-04 0.155E+04   -.134E-05 0.640E-05 -.415E+01
   0.117E+02 -.175E-04 -.514E+03   -.124E+02 0.168E-04 0.514E+03   0.111E+01 0.288E-05 0.141E+00
   0.252E-04 0.894E+00 -.502E+03   -.294E-04 -.765E+00 0.501E+03   -.593E-06 -.206E+00 0.584E+00
   0.221E+01 -.414E+00 0.510E+03   -.217E+01 0.393E+00 -.510E+03   -.430E-01 0.253E-01 -.274E+00
   0.369E-04 -.153E-04 0.515E+03   -.393E-04 0.221E-04 -.515E+03   -.689E-07 -.157E-05 0.162E+00
   0.610E+00 -.609E-05 0.155E+04   -.633E+00 0.570E-05 -.156E+04   0.322E-01 -.286E-06 0.348E+01
   0.101E-04 -.134E+00 0.155E+04   -.945E-05 0.143E+00 -.156E+04   -.244E-06 -.129E-01 0.349E+01
   0.154E+02 0.684E+01 -.154E+04   -.166E+02 -.803E+01 0.155E+04   0.121E+01 0.167E+01 -.318E+01
   -.364E-06 0.902E-04 -.155E+04   -.155E-05 -.912E-04 0.156E+04   -.188E-05 0.292E-05 -.404E+01
   0.537E+01 0.219E-04 -.508E+03   -.530E+01 -.217E-04 0.507E+03   -.489E-01 0.158E-05 0.892E+00
   0.167E-04 -.893E+00 -.502E+03   -.185E-04 0.765E+00 0.501E+03   0.175E-05 0.206E+00 0.584E+00
   -.785E-05 -.383E-04 -.235E+01   0.252E-12 0.193E-12 -.705E-11   -.348E-04 0.365E-04 0.235E+01

 POSITION                                       TOTAL-FORCE (eV/Angst)
      2.11015      0.00000      7.50000         0.003731     -0.004282      0.355403
      4.22029      2.11015      7.50000         0.000004     -0.000001      0.337940
      2.11015      2.11015      9.61015        -0.002189     -0.000000      0.044860
      4.22029      0.00000      9.61015         0.000001     -0.062888      0.112836
      2.12796      8.43378     11.74291         0.127419      0.161862     -0.103214
      4.22029      2.11015     11.68227        -0.000000      0.000002      1.162627
      1.99698      2.11015     13.79271         1.556579      0.000002      0.082603
      4.22029      8.34396     14.02839        -0.000002      1.635661     -1.195903
      2.11015      4.22029      7.50000         0.003729      0.004285      0.355403
      4.22029      6.33044      7.50000         0.000005     -0.000002      0.359844
      2.11015      6.33044      9.61015         0.050313      0.000000      0.000222
      4.22029      4.22029      9.61015         0.000003      0.062891      0.112834
      2.12796      4.22709     11.74291         0.127420     -0.161861     -0.103206
      4.22029      6.33044     11.75161         0.000001     -0.000004     -0.283212
      2.08886      6.33044     13.83112        -0.161019     -0.000011     -0.364085
      4.22029      4.31691     14.02839        -0.000009     -1.635657     -1.195908
      6.33044      0.00000      7.50000        -0.003734     -0.004280      0.355398
      0.00000      2.11015      7.50000        -0.000002      0.000007      0.335972
      6.33044      2.11015      9.61015         0.002190      0.000001      0.044861
      0.00000      0.00000      9.61015        -0.000002     -0.010699      0.008398
      6.31263      8.43378     11.74291        -0.127417      0.161861     -0.103215
      8.44058      2.11015     11.70062         0.000002      0.000002     -0.117753
      6.44360      2.11015     13.79271        -1.556579      0.000000      0.082599
      0.00000      8.41970     13.82083         0.000004      0.049729     -0.244371
      6.33044      4.22029      7.50000        -0.003728      0.004286      0.355400
      0.00000      6.33044      7.50000        -0.000001      0.000001      0.339348
      6.33044      6.33044      9.61015        -0.050312      0.000001      0.000222
      0.00000      4.22029      9.61015        -0.000000      0.010700      0.008395
      6.31263      4.22709     11.74291        -0.127418     -0.161862     -0.103213
      0.00000      6.33044     11.71855         0.000002     -0.000000     -0.128454
      6.35173      6.33044     13.83112         0.161012     -0.000001     -0.364093
      0.00000      4.24117     13.82083         0.000005     -0.049736     -0.244381
      2.11015      0.00000      9.61015         0.006063     -0.003959      0.053466
      4.22029      2.11015      9.61015        -0.000001     -0.000004     -0.115047
      2.11015      2.11015      7.50000        -0.003107     -0.000000     -0.511401
      4.22029      0.00000      7.50000        -0.000001      0.009724     -0.522448
      2.09246      0.01242     13.84273        -0.062189     -0.479897      0.600440
      4.22029      2.11015     13.94882        -0.000002     -0.000004      0.227544
      2.12914      2.11015     11.73105        -0.395329     -0.000001     -0.221354
      4.22029      0.01815     11.74990         0.000002     -0.433154     -0.098969
      2.11015      4.22029      9.61015         0.006062      0.003965      0.053461
      4.22029      6.33044      9.61015         0.000005      0.000002      0.096218
      2.11015      6.33044      7.50000        -0.009167      0.000002     -0.520484
      4.22029      4.22029      7.50000         0.000004     -0.009730     -0.522448
      2.09246      4.20788     13.84273        -0.062178      0.479899      0.600446
      4.22029      6.33044     13.88586        -0.000006     -0.000009      0.691175
      2.11505      6.33044     11.72551        -0.022956     -0.000000      0.164193
      4.22029      4.20214     11.74990        -0.000000      0.433146     -0.098969
      6.33044      0.00000      9.61015        -0.006061     -0.003958      0.053470
      0.00000      2.11015      9.61015        -0.000003      0.000005      0.001715
      6.33044      2.11015      7.50000         0.003107      0.000000     -0.511398
      0.00000      0.00000      7.50000        -0.000002      0.003674     -0.515132
      6.34812      0.01242     13.84273         0.062181     -0.479903      0.600442
      0.00000      2.11015     13.83096        -0.000001      0.000002      0.327533
      6.31144      2.11015     11.73105         0.395335      0.000002     -0.221356
      0.00000      0.00418     11.71215        -0.000004     -0.076837      0.154141
      6.33044      4.22029      9.61015        -0.006057      0.003963      0.053465
      0.00000      6.33044      9.61015        -0.000002      0.000005      0.061730
      6.33044      6.33044      7.50000         0.009170     -0.000001     -0.520482
      0.00000      4.22029      7.50000         0.000001     -0.003668     -0.515134
      6.34812      4.20788     13.84273         0.062180      0.479896      0.600444
      0.00000      6.33044     13.84863        -0.000003      0.000002      0.332246
      6.32553      6.33044     11.72551         0.022952      0.000002      0.164194
      8.44058      4.21611     11.71215         0.000001      0.076831      0.154148
    total drift:                               -0.000043     -0.000002     -0.001285

  FREE ENERGIE OF THE ION-ELECTRON SYSTEM (eV)
  free  energy   TOTEN  =      -375.09476038 eV

  energy  without entropy=     -375.09476038  energy(sigma->0) =     -375.09476038