 vasp.6.3.0 20Jan22 (build Apr  1 2022 16:44:48) complex
 executed on        HPECrayEX_GCC date 2022.11.13  23:04:20

 INCAR:
   SYSTEM = MgO-rocksalt
   ISMEAR = 0
   SIGMA = 0.05
   EDIFF = 1E-6
   ALGO = ALL
   ISTART = 0
   IBRION = -1
   NSW = 0
   ISYM = 0
   DIPOL = 0.5 0.5 0.5
   IDIPOL = 3
   LDIPOL = .TRUE.
   LHFCALC = .TRUE.
   GGA = B5
   AEXX = 0.2
   AGGAX = 0.72
   AGGAC = 0.81
   ALDAC = 0.19
   IVDW = 1
   VDW_S6 = 1.05
   VDW_C6 = 1.23 0.70 0.63 0.70
   VDW_R0 = 1.397 1.342 1.243 1.342
   ENCUT = 600
   PREC = Accurate
   LASPH = .TRUE.
   LREAL = .FALSE.
   ISPIN = 2
   MAGMOM = 1.0 0.0 0.0 0.0 0.0 0.0 0.0 0.0 0.0 0.0 0.0 0.0 0.0 0.0 0.0 0.0 0.0 0.0 0.0 0.0 0.0 0.0 0.0 0.0 0.0 0.0 0.0 0.0 0.0 0.0 0.0 0.0 0.0 0.0 0.0 0.0 0.0 0.0 0.0 0.0 0.0 0.0 0.0 0.0 0.0 0.0 0.0 0.0 0.0 0.0 0.0 0.0 0.0 0.0 0.0 0.0 0.0 0.0 0.0 0.0 0.0 0.0 0.0 0.0 0.0 0.0
   NELM = 200
   NELMIN = 8
   NCORE = 8
   KPAR = 1
   LWAVE = .FALSE.
   LCHARG = .FALSE.

 POTCAR:    PAW_PBE N 08Apr2002
 POTCAR:    PAW_PBE O 08Apr2002
 POTCAR:    PAW_PBE Mg_pv 13Apr2007
 POTCAR:    PAW_PBE O 08Apr2002
 POTCAR:    PAW_PBE N 08Apr2002
   VRHFIN =N: s2p3

   TITEL  = PAW_PBE N 08Apr2002
   POMASS =   14.001; ZVAL   =    5.000    mass and valenz
   ENMAX  =  400.000; ENMIN  =  300.000 eV

[...]

   TITEL  = PAW_PBE Mg_pv 13Apr2007
   POMASS =   24.305; ZVAL   =    8.000    mass and valenz
   ENMAX  =  403.929; ENMIN  =  302.947 eV

   TITEL  = PAW_PBE O 08Apr2002
   POMASS =   16.000; ZVAL   =    6.000    mass and valenz
   ENMAX  =  400.000; ENMIN  =  300.000 eV

  PAW_PBE N 08Apr2002                   :
  PAW_PBE O 08Apr2002                   :
  PAW_PBE Mg_pv 13Apr2007               :
  PAW_PBE O 08Apr2002                   :

 POSCAR:  N  O Mg  O
  positions in direct lattice
 exchange correlation table for  LEXCH =       12
   RHO(1)=    0.500       N(1)  =     2000
   RHO(2)=  100.500       N(2)  =     4000

 ion  position               nearest neighbor table
   1  0.501  0.501  0.765-   2 1.15
   2  0.425  0.430  0.801-   1 1.15
   3  0.250  0.000  0.353-  37 2.09  38 2.09  45 2.09  54 2.09  35 2.09
   4  0.500  0.250  0.353-  37 2.09  38 2.09  46 2.09  53 2.09  36 2.09
   5  0.250  0.250  0.451-  35 2.09  36 2.09  43 2.09  52 2.09  37 2.09  41 2.10
   6  0.500  0.000  0.451-  35 2.09  36 2.09  44 2.09  51 2.09  38 2.09  42 2.09
   7  0.250  0.000  0.550-  41 2.09  42 2.09  49 2.09  58 2.09  35 2.10  39 2.13
   8  0.500  0.250  0.550-  50 2.08  41 2.09  57 2.09  42 2.09  36 2.10  40 2.12
   9  0.250  0.250  0.647-  41 2.08  56 2.09  39 2.09  47 2.09  40 2.09
  10  0.500  0.000  0.647-  48 2.08  42 2.08  40 2.08  55 2.09  39 2.09
  11  0.250  0.500  0.353-  37 2.09  45 2.09  46 2.09  62 2.09  43 2.09
  12  0.500  0.750  0.353-  38 2.09  45 2.09  46 2.09  61 2.09  44 2.09
  13  0.250  0.750  0.451-  35 2.09  43 2.09  44 2.09  60 2.09  45 2.09  49 2.09
  14  0.500  0.500  0.451-  36 2.09  43 2.09  44 2.09  59 2.09  46 2.09  50 2.10
  15  0.250  0.500  0.550-  50 2.08  41 2.09  49 2.09  66 2.09  43 2.10  47 2.12
  16  0.500  0.750  0.550-  50 2.09  65 2.09  49 2.09  42 2.09  44 2.10  48 2.12
  17  0.250  0.750  0.647-  49 2.08  64 2.09  39 2.09  48 2.09  47 2.09
  18  0.500  0.500  0.649-  48 2.09  63 2.09  40 2.10  47 2.10  50 2.10
  19  0.750  0.000  0.353-  38 2.09  53 2.09  54 2.09  61 2.09  51 2.09
  20  0.000  0.250  0.353-  37 2.09  53 2.09  54 2.09  62 2.09  52 2.09
  21  0.750  0.250  0.451-  36 2.09  51 2.09  52 2.09  59 2.09  53 2.09  57 2.09
  22  0.000  0.000  0.451-  35 2.09  51 2.09  52 2.09  60 2.09  54 2.09  58 2.10
  23  0.750  1.000  0.550-  65 2.09  57 2.09  42 2.09  58 2.09  51 2.10  55 2.13
  24  0.000  0.250  0.550-  66 2.09  41 2.09  57 2.09  58 2.09  52 2.10  56 2.13
  25  0.750  0.250  0.647-  57 2.08  56 2.09  55 2.09  63 2.09  40 2.09
  26  0.000  0.000  0.647-  58 2.08  55 2.09  64 2.09  56 2.09  39 2.09
  27  0.750  0.500  0.353-  46 2.09  53 2.09  61 2.09  62 2.09  59 2.09
  28  0.000  0.750  0.353-  45 2.09  54 2.09  61 2.09  62 2.09  60 2.09
  29  0.750  0.750  0.451-  44 2.09  51 2.09  59 2.09  60 2.09  61 2.09  65 2.10
  30  0.000  0.500  0.451-  43 2.09  52 2.09  59 2.09  60 2.09  62 2.09  66 2.09
  31  0.750  0.500  0.550-  50 2.09  65 2.09  57 2.09  66 2.09  59 2.10  63 2.12
  32  1.000  0.750  0.550-  65 2.09  66 2.09  49 2.09  58 2.09  60 2.10  64 2.13
  33  0.750  0.750  0.647-  65 2.08  64 2.09  55 2.09  63 2.09  48 2.09
  34  0.000  0.500  0.647-  63 2.08  66 2.08  47 2.08  56 2.09  64 2.09
  35  0.250  0.000  0.451-   5 2.09   6 2.09  13 2.09  22 2.09   3 2.09   7 2.10
  36  0.500  0.250  0.451-   5 2.09   6 2.09  14 2.09  21 2.09   4 2.09   8 2.10
  37  0.250  0.250  0.353-   3 2.09   4 2.09  11 2.09  20 2.09   5 2.09
  38  0.500  0.000  0.353-   3 2.09   4 2.09  12 2.09  19 2.09   6 2.09
  39  0.250  0.000  0.650-  17 2.09  26 2.09   9 2.09  10 2.09   7 2.13
  40  0.500  0.249  0.650-  10 2.08  25 2.09   9 2.09  18 2.10   8 2.12
  41  0.250  0.250  0.549-   9 2.08   7 2.09  24 2.09   8 2.09  15 2.09   5 2.10
  42  0.500  0.000  0.549-  10 2.08   7 2.09  23 2.09   8 2.09  16 2.09   6 2.09
  43  0.250  0.500  0.451-   5 2.09  13 2.09  14 2.09  30 2.09  11 2.09  15 2.10
  44  0.500  0.750  0.451-   6 2.09  13 2.09  14 2.09  29 2.09  12 2.09  16 2.10
  45  0.250  0.750  0.353-   3 2.09  11 2.09  12 2.09  28 2.09  13 2.09
  46  0.500  0.500  0.353-   4 2.09  11 2.09  12 2.09  27 2.09  14 2.09
  47  0.249  0.500  0.650-  34 2.08  17 2.09   9 2.09  18 2.10  15 2.12
  48  0.500  0.751  0.650-  10 2.08  17 2.09  33 2.09  18 2.09  16 2.12
  49  0.250  0.750  0.549-  17 2.08   7 2.09  32 2.09  15 2.09  16 2.09  13 2.09
  50  0.500  0.500  0.550-   8 2.08  15 2.08  16 2.09  31 2.09  14 2.10  18 2.10
  51  0.750  0.000  0.451-   6 2.09  21 2.09  22 2.09  29 2.09  19 2.09  23 2.10
  52  0.000  0.250  0.451-   5 2.09  21 2.09  22 2.09  30 2.09  20 2.09  24 2.10
  53  0.750  0.250  0.353-   4 2.09  19 2.09  20 2.09  27 2.09  21 2.09
  54  0.000  0.000  0.353-   3 2.09  19 2.09  20 2.09  28 2.09  22 2.09
  55  0.750  0.000  0.650-  26 2.09  25 2.09  33 2.09  10 2.09  23 2.13
  56  0.000  0.250  0.650-  25 2.09   9 2.09  26 2.09  34 2.09  24 2.13
  57  0.750  0.250  0.549-  25 2.08  23 2.09  24 2.09   8 2.09  31 2.09  21 2.09
  58  0.000  0.000  0.549-  26 2.08  24 2.09  23 2.09   7 2.09  32 2.09  22 2.10
  59  0.750  0.500  0.451-  14 2.09  21 2.09  29 2.09  30 2.09  27 2.09  31 2.10
  60  0.000  0.750  0.451-  13 2.09  22 2.09  29 2.09  30 2.09  28 2.09  32 2.10
  61  0.750  0.750  0.353-  12 2.09  19 2.09  27 2.09  28 2.09  29 2.09
  62  0.000  0.500  0.353-  11 2.09  20 2.09  27 2.09  28 2.09  30 2.09
  63  0.751  0.500  0.649-  34 2.08  25 2.09  33 2.09  18 2.09  31 2.12
  64  0.000  0.750  0.650-  17 2.09  26 2.09  33 2.09  34 2.09  32 2.13
  65  0.750  0.750  0.549-  33 2.08  23 2.09  32 2.09  16 2.09  31 2.09  29 2.10
  66  0.000  0.500  0.549-  34 2.08  24 2.09  32 2.09  15 2.09  31 2.09  30 2.09

IMPORTANT INFORMATION: All symmetrisations will be switched off!
NOSYMM: (Re-)initialisation of all symmetry stuff for point group C_1.

                                     Primitive cell

  volume of cell :    1482.1129

  direct lattice vectors                    reciprocal lattice vectors
     8.349111827  0.000000000  0.000000000     0.119773219  0.000000000  0.000000000
     0.000000000  8.349111827  0.000000000     0.000000000  0.119773219  0.000000000
     0.000000000  0.000000000 21.261833870     0.000000000  0.000000000  0.047032632

  length of vectors
     8.349111827  8.349111827 21.261833870     0.119773219  0.119773219  0.047032632

  position of ions in fractional coordinates (direct lattice)
     0.501184342  0.501468999  0.765307019
     0.425203741  0.430213184  0.800808511
     0.250000000  0.000000000  0.352744737
     0.500000000  0.250000000  0.352744737
     0.250000000  0.250000000  0.450914912
     0.500000000  0.000000000  0.450914912
     0.250092305  0.000106850  0.549725118
     0.500064471  0.250341874  0.549856312
     0.250004460  0.250035618  0.647342291
     0.500082879  0.000053396  0.647325288
     0.250000000  0.500000000  0.352744737
     0.500000000  0.750000000  0.352744737
     0.250000000  0.750000000  0.450914912
     0.500000000  0.500000000  0.450914912
     0.250334591  0.500063109  0.549850145
     0.500049817  0.749822323  0.549827865
     0.249883932  0.750299525  0.647141480
     0.500405490  0.500363116  0.648651768
     0.750000000  0.000000000  0.352744737
     0.000000000  0.250000000  0.352744737
     0.750000000  0.250000000  0.450914912
     0.000000000  0.000000000  0.450914912
     0.750000984  0.999963944  0.549734980
     0.000097555  0.250096779  0.549720930
     0.750325856  0.249921448  0.647142923
     0.000064891  0.000071666  0.647461121
     0.750000000  0.500000000  0.352744737
     0.000000000  0.750000000  0.352744737
     0.750000000  0.750000000  0.450914912
     0.000000000  0.500000000  0.450914912
     0.749835921  0.500048162  0.549820119
     0.999958529  0.749997435  0.549735695
     0.750101626  0.750054667  0.647430673
     0.000077139  0.500070921  0.647305246
     0.250000000  0.000000000  0.450914912
     0.500000000  0.250000000  0.450914912
     0.250000000  0.250000000  0.352744737
     0.500000000  0.000000000  0.352744737
     0.249959861  0.000127437  0.649691132
     0.500246441  0.249445664  0.649747587
     0.250047349  0.250030821  0.549494390
     0.500029951  0.000104006  0.549430974
     0.250000000  0.500000000  0.450914912
     0.500000000  0.750000000  0.450914912
     0.250000000  0.750000000  0.352744737
     0.500000000  0.500000000  0.352744737
     0.249417013  0.500232326  0.649669783
     0.499883207  0.750854626  0.649560927
     0.249945375  0.750138149  0.549430882
     0.500045343  0.500047695  0.549723438
     0.750000000  0.000000000  0.450914912
     0.000000000  0.250000000  0.450914912
     0.750000000  0.250000000  0.352744737
     0.000000000  0.000000000  0.352744737
     0.750189444  0.000059507  0.649696428
     0.000134156  0.249951588  0.649690601
     0.750121020  0.249918802  0.549424678
     0.000045944  0.000054365  0.549469901
     0.750000000  0.500000000  0.450914912
     0.000000000  0.750000000  0.450914912
     0.750000000  0.750000000  0.352744737
     0.000000000  0.500000000  0.352744737
     0.750907812  0.499871295  0.649453742
     0.000072983  0.750192905  0.649707517
     0.750074533  0.750094640  0.549481627
     0.000123705  0.500041535  0.549400293

  ion indices of the primitive-cell ions
   primitive index   ion index
                 1           1
                 2           2
                 3           3
                 4           4
                 5           5
                 6           6
                 7           7
                 8           8
                 9           9
                10          10
                11          11
                12          12
                13          13
                14          14
                15          15
                16          16
                17          17
                18          18
                19          19
                20          20
[...]
   0.75012102  0.24991880  0.54942468
   0.00004594  0.00005437  0.54946990
   0.75000000  0.50000000  0.45091491
   0.00000000  0.75000000  0.45091491
   0.75000000  0.75000000  0.35274474
   0.00000000  0.50000000  0.35274474
   0.75090781  0.49987129  0.64945374
   0.00007298  0.75019290  0.64970752
   0.75007453  0.75009464  0.54948163
   0.00012371  0.50004153  0.54940029

 position of ions in cartesian coordinates  (Angst):
   4.18444411  4.18682075 16.27183069
   3.55007358  3.59189798 17.02665752
   2.08727796  0.00000000  7.50000000
   4.17455591  2.08727796  7.50000000
   2.08727796  2.08727796  9.58727796
   4.17455591  0.00000000  9.58727796
   2.08804862  0.00089210 11.68816413
   4.17509419  2.09013230 11.69095356
   2.08731519  2.08757533 13.76368425
   4.17524788  0.00044581 13.76332274
   2.08727796  4.17455591  7.50000000
   4.17455591  6.26183387  7.50000000
   2.08727796  6.26183387  9.58727796
   4.17455591  4.17455591  9.58727796
   2.09007150  4.17508281 11.69082245
   4.17497184  6.26035043 11.69034872
   2.08630889  6.26433464 13.75941464
   4.17794140  4.17758761 13.79152612
   6.26183387  0.00000000  7.50000000
   0.00000000  2.08727796  7.50000000
   6.26183387  2.08727796  9.58727796
   0.00000000  0.00000000  9.58727796
   6.26184208  8.34881079 11.68837381
   0.00081449  2.08808598 11.68807508
   6.26455448  2.08662212 13.75944531
   0.00054179  0.00059834 13.76621079
   6.26183387  4.17455591  7.50000000
   0.00000000  6.26183387  7.50000000
   6.26183387  6.26183387  9.58727796
   0.00000000  4.17455591  9.58727796
   6.26046396  4.17495802 11.69018403
   8.34876558  6.26181245 11.68838902
   6.26268236  6.26229029 13.76556341
   0.00064404  4.17514804 13.76289660
   2.08727796  0.00000000  9.58727796
   4.17455591  2.08727796  9.58727796
   2.08727796  2.08727796  7.50000000
   4.17455591  0.00000000  7.50000000
   2.08694283  0.00106399 13.81362492
   4.17661348  2.08264974 13.81482526
   2.08767328  2.08753529 11.68325843
   4.17480598  0.00086836 11.68191010
   2.08727796  4.17455591  9.58727796
   4.17455591  6.26183387  9.58727796
   2.08727796  6.26183387  7.50000000
   4.17455591  4.17455591  7.50000000
   2.08241054  4.17649563 13.81317099
   4.17358079  6.26896924 13.81085652
   2.08682189  6.26298730 11.68190814
   4.17493449  4.17495413 11.68812842
   6.26183387  0.00000000  9.58727796
   0.00000000  2.08727796  9.58727796
   6.26183387  2.08727796  7.50000000
   0.00000000  0.00000000  7.50000000
   6.26341556  0.00049683 13.81373751
   0.00112008  2.08687376 13.81361362
   6.26284428  2.08660003 11.68177623
   0.00038359  0.00045390 11.68273776
   6.26183387  4.17455591  9.58727796
   0.00000000  6.26183387  9.58727796
   6.26183387  6.26183387  7.50000000
   0.00000000  4.17455591  7.50000000
   6.26941330  4.17348134 13.80857757
   0.00060934  6.26344445 13.81397329
   6.26245615  6.26262403 11.68298707
   0.00103283  4.17490269 11.68125775

--------------------------------------- Iteration      FINAL  ---------------------------------------

--------------------OUTCAR has been truncated-------------------------

[...]

--------------------OUTCAR has been truncated-------------------------

  DFT-D2 method for vdW energy calculation

  Parameters of vdW forcefield:
         C6(Jnm^6/mol)     R0(A)
   N        1.230          1.397
   O        0.700          1.342
   Mg       0.630          1.243
   O        0.700          1.342

  vdW correction parametrized for the method        |0

  IVDW =   1
  VDW_RADIUS =    50.000 A
  VDW_S6 =     1.050
  VDW_SR =     1.000
  VDW_D =    20.000
  LVDW_EWALD = F

  Number of pair interactions contributing to vdW energy:  788724
  Edisp (eV):   -5.40952

 VOLUME and BASIS-vectors are now :
  energy-cutoff  :      600.00
  volume of cell :     1482.11
      direct lattice vectors                 reciprocal lattice vectors
     8.349111827  0.000000000  0.000000000     0.119773219  0.000000000  0.000000000
     0.000000000  8.349111827  0.000000000     0.000000000  0.119773219  0.000000000
     0.000000000  0.000000000 21.261833870     0.000000000  0.000000000  0.047032632

  length of vectors
     8.349111827  8.349111827 21.261833870     0.119773219  0.119773219  0.047032632

 FORCES acting on ions:
    Electron-Ion                     Ewald-Force                    Non-Local-Force
   -.152E+03 -.143E+03 -.118E+04   0.177E+03 0.166E+03 0.116E+04   -.232E+02 -.217E+02 0.264E+02
   0.143E+03 0.134E+03 -.157E+04   -.178E+03 -.167E+03 0.161E+04   0.309E+02 0.290E+02 -.366E+02
   0.175E+00 0.390E-01 0.214E+04   -.175E+00 -.386E-01 -.213E+04   -.257E-03 -.335E-03 -.644E+01
   -.394E-01 0.197E+00 0.214E+04   0.393E-01 -.195E+00 -.213E+04   0.282E-04 -.120E-02 -.644E+01
   0.767E+00 0.822E+00 0.740E+03   -.753E+00 -.809E+00 -.741E+03   -.794E-02 -.781E-02 0.457E+00
   -.169E+00 0.179E+00 0.740E+03   0.174E+00 -.170E+00 -.741E+03   -.272E-02 -.583E-02 0.415E+00
   0.363E+01 0.797E+00 -.652E+03   -.362E+01 -.792E+00 0.653E+03   -.104E-01 -.482E-02 -.126E+00
   -.915E+00 0.597E+01 -.643E+03   0.909E+00 -.591E+01 0.644E+03   0.492E-02 -.603E-01 -.194E+00
   0.251E+02 0.255E+02 -.202E+04   -.251E+02 -.256E+02 0.201E+04   0.799E-01 0.658E-01 0.541E+01
   -.284E+01 0.489E+01 -.204E+04   0.284E+01 -.493E+01 0.203E+04   -.268E-02 0.328E-01 0.536E+01
   0.184E+00 -.386E-01 0.214E+04   -.182E+00 0.385E-01 -.213E+04   -.111E-02 0.161E-04 -.644E+01
   -.472E-01 -.196E+00 0.214E+04   0.472E-01 0.195E+00 -.213E+04   -.706E-04 0.910E-03 -.644E+01
   0.755E+00 -.804E+00 0.740E+03   -.755E+00 0.799E+00 -.741E+03   0.171E-03 0.295E-02 0.434E+00
   -.184E+00 -.174E+00 0.741E+03   0.182E+00 0.173E+00 -.742E+03   0.147E-02 0.119E-02 0.496E+00
   0.580E+01 -.869E+00 -.643E+03   -.574E+01 0.862E+00 0.643E+03   -.553E-01 0.546E-02 -.222E+00
   -.982E+00 -.590E+01 -.645E+03   0.994E+00 0.584E+01 0.645E+03   -.108E-01 0.590E-01 -.244E+00
   0.210E+02 -.238E+02 -.203E+04   -.211E+02 0.238E+02 0.202E+04   0.434E-01 -.490E-01 0.542E+01
   -.823E+01 -.763E+01 -.194E+04   0.825E+01 0.764E+01 0.194E+04   -.198E-01 -.146E-01 0.442E+01
   -.174E+00 0.459E-01 0.214E+04   0.174E+00 -.460E-01 -.213E+04   0.141E-03 0.945E-04 -.644E+01
   0.397E-01 0.188E+00 0.214E+04   -.392E-01 -.188E+00 -.213E+04   -.331E-03 -.375E-03 -.644E+01
   -.745E+00 0.796E+00 0.740E+03   0.740E+00 -.796E+00 -.741E+03   0.314E-02 0.672E-03 0.432E+00
   0.167E+00 0.175E+00 0.739E+03   -.168E+00 -.175E+00 -.739E+03   0.605E-03 0.558E-03 0.440E+00
   -.355E+01 0.886E+00 -.654E+03   0.354E+01 -.897E+00 0.654E+03   0.655E-02 0.103E-01 -.127E+00
   0.833E+00 0.373E+01 -.652E+03   -.828E+00 -.372E+01 0.653E+03   -.346E-02 -.860E-02 -.122E+00
   -.233E+02 0.211E+02 -.203E+04   0.234E+02 -.212E+02 0.202E+04   -.568E-01 0.260E-01 0.542E+01
   0.254E+01 0.241E+01 -.205E+04   -.254E+01 -.241E+01 0.205E+04   0.280E-02 0.245E-03 0.536E+01
   -.183E+00 -.464E-01 0.214E+04   0.181E+00 0.464E-01 -.213E+04   0.793E-03 -.706E-04 -.644E+01
   0.465E-01 -.188E+00 0.214E+04   -.467E-01 0.187E+00 -.213E+04   0.862E-04 0.227E-03 -.644E+01
   -.741E+00 -.787E+00 0.740E+03   0.740E+00 0.786E+00 -.740E+03   0.193E-03 -.224E-03 0.448E+00
   0.193E+00 -.167E+00 0.740E+03   -.183E+00 0.172E+00 -.741E+03   -.658E-02 -.303E-02 0.403E+00
   -.576E+01 -.925E+00 -.644E+03   0.570E+01 0.937E+00 0.645E+03   0.562E-01 -.111E-01 -.284E+00
   0.919E+00 -.371E+01 -.654E+03   -.931E+00 0.370E+01 0.654E+03   0.118E-01 0.101E-01 -.121E+00
   -.204E+02 -.206E+02 -.204E+04   0.205E+02 0.206E+02 0.203E+04   -.604E-01 -.474E-01 0.540E+01
   0.536E+01 -.271E+01 -.204E+04   -.540E+01 0.270E+01 0.203E+04   0.332E-01 0.434E-03 0.536E+01
   0.573E+00 0.109E+00 0.554E+03   -.571E+00 -.118E+00 -.554E+03   -.237E-02 0.101E-01 -.877E-01
   -.988E-01 0.695E+00 0.555E+03   0.979E-01 -.717E+00 -.555E+03   0.855E-03 0.259E-01 -.112E+00
   0.133E+00 0.144E+00 0.161E+04   -.132E+00 -.143E+00 -.161E+04   -.126E-02 -.144E-02 0.310E+01
   -.320E-01 0.317E-01 0.161E+04   0.323E-01 -.314E-01 -.161E+04   -.311E-03 -.468E-03 0.310E+01
   0.917E+01 0.332E+01 -.156E+04   -.913E+01 -.331E+01 0.156E+04   -.380E-01 -.127E-01 -.466E+01
   -.498E+01 0.311E+02 -.152E+04   0.496E+01 -.309E+02 0.152E+04   0.127E-01 -.170E+00 -.463E+01
   0.352E+01 0.363E+01 -.479E+03   -.351E+01 -.362E+01 0.478E+03   -.476E-02 -.101E-01 0.329E+00
   -.594E+00 0.682E+00 -.481E+03   0.597E+00 -.683E+00 0.480E+03   -.266E-02 0.203E-03 0.305E+00
   0.644E+00 -.973E-01 0.555E+03   -.667E+00 0.962E-01 -.555E+03   0.284E-01 0.114E-02 -.112E+00
   -.152E+00 -.676E+00 0.555E+03   0.149E+00 0.688E+00 -.555E+03   0.366E-02 -.150E-01 -.102E+00
   0.133E+00 -.144E+00 0.161E+04   -.133E+00 0.143E+00 -.161E+04   -.429E-03 0.178E-02 0.310E+01
   -.336E-01 -.324E-01 0.161E+04   0.329E-01 0.317E-01 -.161E+04   0.894E-03 0.803E-03 0.310E+01
   0.309E+02 -.476E+01 -.152E+04   -.307E+02 0.475E+01 0.152E+04   -.183E+00 0.110E-01 -.463E+01
   -.304E+01 -.291E+02 -.153E+04   0.306E+01 0.290E+02 0.153E+04   -.131E-01 0.141E+00 -.467E+01
   0.333E+01 -.358E+01 -.479E+03   -.332E+01 0.357E+01 0.479E+03   -.402E-02 0.663E-02 0.368E+00
   -.806E+00 -.758E+00 -.475E+03   0.811E+00 0.763E+00 0.475E+03   -.518E-02 -.492E-02 0.284E-02
   -.558E+00 0.147E+00 0.554E+03   0.552E+00 -.143E+00 -.554E+03   0.746E-02 -.493E-02 -.939E-01
   0.108E+00 0.619E+00 0.554E+03   -.116E+00 -.616E+00 -.554E+03   0.101E-01 -.410E-02 -.874E-01
   -.134E+00 0.143E+00 0.161E+04   0.132E+00 -.142E+00 -.161E+04   0.158E-02 -.561E-03 0.310E+01
   0.316E-01 0.316E-01 0.161E+04   -.319E-01 -.320E-01 -.161E+04   0.451E-03 0.472E-03 0.310E+01
   -.894E+01 0.241E+01 -.156E+04   0.889E+01 -.242E+01 0.157E+04   0.382E-01 0.142E-01 -.465E+01
   0.356E+01 0.931E+01 -.156E+04   -.355E+01 -.927E+01 0.156E+04   -.114E-01 -.395E-01 -.466E+01
   -.346E+01 0.339E+01 -.479E+03   0.346E+01 -.338E+01 0.479E+03   0.329E-02 -.853E-02 0.365E+00
   0.533E+00 0.536E+00 -.486E+03   -.534E+00 -.536E+00 0.486E+03   0.988E-03 -.417E-03 0.276E+00
   -.626E+00 -.150E+00 0.555E+03   0.640E+00 0.147E+00 -.555E+03   -.165E-01 0.378E-02 -.102E+00
   0.146E+00 -.610E+00 0.554E+03   -.142E+00 0.602E+00 -.554E+03   -.469E-02 0.993E-02 -.939E-01
   -.133E+00 -.142E+00 0.161E+04   0.133E+00 0.142E+00 -.161E+04   0.357E-03 0.483E-03 0.310E+01
   0.329E-01 -.319E-01 0.161E+04   -.325E-01 0.321E-01 -.161E+04   -.516E-03 -.300E-03 0.310E+01
   -.289E+02 -.280E+01 -.153E+04   0.287E+02 0.282E+01 0.153E+04   0.146E+00 -.131E-01 -.467E+01
   0.264E+01 -.908E+01 -.156E+04   -.265E+01 0.903E+01 0.157E+04   0.150E-01 0.387E-01 -.466E+01
   -.326E+01 -.335E+01 -.482E+03   0.324E+01 0.333E+01 0.481E+03   0.134E-01 0.167E-01 0.290E+00
   0.759E+00 -.555E+00 -.480E+03   -.761E+00 0.558E+00 0.480E+03   0.117E-02 -.302E-02 0.302E+00
   -.977E+01 -.915E+01 0.335E+02   0.192E-12 -.461E-13 -.273E-11   0.776E+01 0.727E+01 -.286E+02

 POSITION                                       TOTAL-FORCE (eV/Angst)
      4.18444      4.18682     16.27183         0.243126      0.228297     -0.226564
      3.55007      3.59190     17.02666        -0.251843     -0.236116      0.315336
      2.08728      0.00000      7.50000         0.000112      0.000084      0.310816
      4.17456      2.08728      7.50000        -0.000073      0.000440      0.312079
      2.08728      2.08728      9.58728         0.003998      0.004017      0.049827
      4.17456      0.00000      9.58728         0.001272      0.002715      0.055500
      2.08805      0.00089     11.68816        -0.002285      0.000017      0.012697
      4.17509      2.09013     11.69095        -0.000089     -0.003135      0.015631
      2.08732      2.08758     13.76368        -0.003191     -0.003736      0.103587
      4.17525      0.00045     13.76332         0.000077     -0.000101      0.108117
      2.08728      4.17456      7.50000         0.000393     -0.000070      0.312225
      4.17456      6.26183      7.50000        -0.000017     -0.000391      0.311336
      2.08728      6.26183      9.58728         0.000214     -0.001407      0.049685
      4.17456      4.17456      9.58728        -0.000198     -0.000141      0.060551
      2.09007      4.17508     11.69082        -0.002645     -0.000129      0.016083
      4.17497      6.26035     11.69035         0.000527      0.002309      0.015012
      2.08631      6.26433     13.75941        -0.001836      0.002159      0.104375
      4.17794      4.17759     13.79153        -0.002096     -0.001179      0.082499
      6.26183      0.00000      7.50000        -0.000101     -0.000027      0.311496
      0.00000      2.08728      7.50000         0.000096      0.000168      0.310915
      6.26183      2.08728      9.58728        -0.001511      0.000090      0.049358
      0.00000      0.00000      9.58728        -0.000144     -0.000161      0.049592
      6.26184      8.34881     11.68837         0.001365      0.000268      0.011925
      0.00081      2.08809     11.68808         0.000681     -0.002278      0.012545
      6.26455      2.08662     13.75945         0.002773     -0.002483      0.104676
      0.00054      0.00060     13.76621         0.000122     -0.000080      0.101580
      6.26183      4.17456      7.50000        -0.000344     -0.000001      0.311410
      0.00000      6.26183      7.50000        -0.000031     -0.000144      0.311487
      6.26183      6.26183      9.58728        -0.000764     -0.000642      0.049731
      0.00000      4.17456      9.58728         0.003009      0.001415      0.054777
      6.26046      4.17496     11.69018         0.002593      0.000450      0.015597
      8.34877      6.26181     11.68839         0.000858      0.001820      0.010999
      6.26268      6.26229     13.76556         0.003048      0.002897      0.105560
      0.00064      4.17515     13.76290        -0.002180      0.000124      0.106867
      2.08728      0.00000      9.58728        -0.001045      0.003264      0.069135
      4.17456      2.08728      9.58728         0.000006      0.007982      0.076123
      2.08728      2.08728      7.50000        -0.000459     -0.000508     -0.592478
      4.17456      0.00000      7.50000        -0.000100     -0.000155     -0.592442
      2.08694      0.00106     13.81362        -0.001698     -0.000419      0.018741
      4.17661      2.08265     13.81483        -0.001842      0.004998      0.019367
      2.08767      2.08754     11.68326         0.002377      0.001690      0.010273
      4.17481      0.00087     11.68191         0.000376     -0.000478      0.008785
      2.08728      4.17456      9.58728         0.008970      0.000129      0.075090
      4.17456      6.26183      9.58728         0.001114     -0.004787      0.076255
      2.08728      6.26183      7.50000        -0.000175      0.000605     -0.592410
      4.17456      4.17456      7.50000         0.000306      0.000278     -0.592998
      2.08241      4.17650     13.81317         0.005996     -0.000926      0.023152
      4.17358      6.26897     13.81086        -0.000406     -0.005194      0.018682
      2.08682      6.26299     11.68191         0.002902     -0.002162      0.010078
      4.17493      4.17495     11.68813        -0.000130     -0.000231      0.004918
      6.26183      0.00000      9.58728         0.002447     -0.001573      0.067989
      0.00000      2.08728      9.58728         0.003315     -0.001720      0.068721
      6.26183      2.08728      7.50000         0.000538     -0.000204     -0.592400
      0.00000      0.00000      7.50000         0.000150      0.000147     -0.592247
      6.26342      0.00050     13.81374         0.001685     -0.000257      0.019975
      0.00112      2.08687     13.81361        -0.000834     -0.002032      0.017791
      6.26284      2.08660     11.68178        -0.002798      0.003027      0.010586
      0.00038      0.00045     11.68274         0.000735     -0.000549      0.010775
      6.26183      4.17456      9.58728        -0.005428      0.001168      0.075378
      0.00000      6.26183      9.58728        -0.001436      0.003430      0.068066
      6.26183      6.26183      7.50000         0.000131      0.000162     -0.592429
      0.00000      4.17456      7.50000        -0.000171     -0.000095     -0.592548
      6.26941      4.17348     13.80858        -0.004905      0.000430      0.022969
      0.00061      6.26344     13.81397        -0.000728      0.001603      0.018160
      6.26246      6.26262     11.68299        -0.002473     -0.002153      0.010798
      0.00103      4.17490     11.68126        -0.001333     -0.000515      0.010838
    total drift:                                0.000715      0.000506      0.013809

  FREE ENERGIE OF THE ION-ELECTRON SYSTEM (eV)
  free  energy   TOTEN  =      -455.04749050 eV

  energy  without entropy=     -455.04749050  energy(sigma->0) =     -455.04749050