 vasp.6.3.0 20Jan22 (build Apr  1 2022 16:44:48) complex
 executed on        HPECrayEX_GCC date 2022.11.08  23:25:59

 INCAR:
   SYSTEM = MgO-rocksalt
   ISMEAR = 0
   SIGMA = 0.05
   EDIFF = 1E-7
   ALGO = ALL
   ISTART = 0
   IBRION = 2
   NSW = 1000
   ISYM = 0
   ISIF = 2
   EDIFFG = -0.01
   DIPOL = 0.5 0.5 0.5
   IDIPOL = 3
   LDIPOL = .TRUE.
   LHFCALC = .TRUE.
   GGA = PE
   IVDW = 13
   VDW_S8 = 1.2007
   VDW_A1 = 0.4009
   VDW_A2 = 5.0293
   ENCUT = 600
   PREC = Accurate
   LASPH = .TRUE.
   LREAL = .FALSE.
   ISPIN = 1
   NELM = 200
   NELMIN = 8
   NCORE = 8
   KPAR = 1
   LWAVE = .FALSE.
   LCHARG = .FALSE.

 POTCAR:    PAW_PBE C 08Apr2002
 POTCAR:    PAW_PBE O 08Apr2002
 POTCAR:    PAW_PBE H 15Jun2001
 POTCAR:    PAW_PBE Mg_pv 13Apr2007
 POTCAR:    PAW_PBE O 08Apr2002
 POTCAR:    PAW_PBE C 08Apr2002
   VRHFIN =C: s2p2

   TITEL  = PAW_PBE C 08Apr2002
   POMASS =   12.011; ZVAL   =    4.000    mass and valenz
   ENMAX  =  400.000; ENMIN  =  300.000 eV

[...]

   TITEL  = PAW_PBE H 15Jun2001
   POMASS =    1.000; ZVAL   =    1.000    mass and valenz
   ENMAX  =  250.000; ENMIN  =  200.000 eV

   TITEL  = PAW_PBE Mg_pv 13Apr2007
   POMASS =   24.305; ZVAL   =    8.000    mass and valenz
   ENMAX  =  403.929; ENMIN  =  302.947 eV

   TITEL  = PAW_PBE O 08Apr2002
   POMASS =   16.000; ZVAL   =    6.000    mass and valenz
   ENMAX  =  400.000; ENMIN  =  300.000 eV

  PAW_PBE C 08Apr2002                   :
  PAW_PBE O 08Apr2002                   :
  PAW_PBE H 15Jun2001                   :
  PAW_PBE Mg_pv 13Apr2007               :
  PAW_PBE O 08Apr2002                   :

 POSCAR:  C  O  H Mg  O
  positions in direct lattice
  velocities in cartesian coordinates
|           W    W    AA    RRRRR   N    N  II  N    N   GGGG   !!!           |
|           W    W   A  A   R    R  NN   N  II  NN   N  G    G  !!!           |
|           W    W  A    A  R    R  N N  N  II  N N  N  G       !!!           |
|           W WW W  AAAAAA  RRRRR   N  N N  II  N  N N  G  GGG   !            |
|           WW  WW  A    A  R   R   N   NN  II  N   NN  G    G                |
|           W    W  A    A  R    R  N    N  II  N    N   GGGG   !!!           |
|     Specifying the vdW parameters                                           |
|     VDW_S8 = 1.201                                                          |
|     VDW_A1 = 0.401                                                          |
|     VDW_A2 = 5.029                                                          |
|     in the INCAR file will overwrite the defaults for pbe0. Please make     |
|     sure that is what you intended.                                         |

 ion  position               nearest neighbor table
   1  0.500  0.431  0.792-   3 1.09   6 1.10   5 1.10   2 1.41
   2  0.500  0.267  0.777-   4 0.99   1 1.41
   3  0.500  0.443  0.843-   1 1.09
   4  0.500  0.257  0.731-   2 0.99
   5  0.607  0.493  0.774-   1 1.10
   6  0.393  0.493  0.774-   1 1.10
   7  0.250  0.000  0.353-  41 2.09  42 2.09  49 2.09  58 2.09  39 2.09
   8  0.500  0.250  0.353-  41 2.09  42 2.09  50 2.09  57 2.09  40 2.09
   9  0.250  0.250  0.451-  39 2.09  40 2.09  47 2.09  56 2.09  41 2.09  45 2.10
  10  0.500  0.000  0.451-  39 2.09  40 2.09  48 2.09  55 2.09  42 2.09  46 2.10
  11  0.250  0.000  0.550-  62 2.09  45 2.09  46 2.09  53 2.09  39 2.10  43 2.11
  12  0.500  0.250  0.550-  46 2.08  45 2.08  61 2.08  54 2.08  40 2.10  44 2.15
  13  0.248  0.250  0.648-  60 2.07  43 2.08  45 2.09  51 2.09  44 2.11
  14  0.500  0.998  0.647-  52 2.07  46 2.08  43 2.09  59 2.09  44 2.11
  15  0.250  0.500  0.353-  41 2.09  49 2.09  50 2.09  66 2.09  47 2.09
  16  0.500  0.750  0.353-  42 2.09  49 2.09  50 2.09  65 2.09  48 2.09
  17  0.250  0.750  0.451-  39 2.09  47 2.09  48 2.09  64 2.09  49 2.09  53 2.09
  18  0.500  0.500  0.451-  40 2.09  47 2.09  48 2.09  63 2.09  50 2.09  54 2.10
  19  0.250  0.500  0.550-  70 2.09  45 2.09  53 2.09  54 2.09  47 2.10  51 2.12
  20  0.500  0.750  0.550-  53 2.09  69 2.09  46 2.09  54 2.09  48 2.10  52 2.12
  21  0.250  0.750  0.647-  68 2.08  53 2.09  43 2.09  51 2.09  52 2.09
  22  0.500  0.503  0.647-  52 2.06  54 2.08  51 2.09  67 2.09  44 2.11
  23  0.750  0.000  0.353-  42 2.09  57 2.09  58 2.09  65 2.09  55 2.09
  24  0.000  0.250  0.353-  41 2.09  57 2.09  58 2.09  66 2.09  56 2.09
  25  0.750  0.250  0.451-  40 2.09  55 2.09  56 2.09  63 2.09  57 2.09  61 2.10
  26  0.000  0.000  0.451-  39 2.09  55 2.09  56 2.09  64 2.09  58 2.09  62 2.09
  27  0.750  0.000  0.550-  62 2.09  61 2.09  46 2.09  69 2.09  55 2.10  59 2.11
  28  0.000  0.250  0.550-  62 2.09  70 2.09  45 2.09  61 2.09  56 2.10  60 2.12
  29  0.752  0.250  0.648-  60 2.07  59 2.08  61 2.09  67 2.09  44 2.11
  30  1.000  1.000  0.648-  68 2.09  62 2.09  59 2.09  43 2.09  60 2.09
  31  0.750  0.500  0.353-  50 2.09  57 2.09  65 2.09  66 2.09  63 2.09
  32  0.000  0.750  0.353-  49 2.09  58 2.09  65 2.09  66 2.09  64 2.09
  33  0.750  0.750  0.451-  48 2.09  55 2.09  63 2.09  64 2.09  65 2.09  69 2.09
  34  0.000  0.500  0.451-  47 2.09  56 2.09  63 2.09  64 2.09  66 2.09  70 2.09
  35  0.750  0.500  0.550-  70 2.09  61 2.09  69 2.09  54 2.09  63 2.10  67 2.12
  36  0.000  0.750  0.550-  70 2.09  53 2.09  69 2.09  62 2.09  64 2.10  68 2.12
  37  0.750  0.750  0.647-  68 2.08  69 2.09  59 2.09  67 2.09  52 2.09
  38  0.000  0.500  0.647-  68 2.08  70 2.09  51 2.09  67 2.09  60 2.09
  39  0.250  0.000  0.451-   9 2.09  10 2.09  17 2.09  26 2.09   7 2.09  11 2.10
  40  0.500  0.250  0.451-   9 2.09  10 2.09  18 2.09  25 2.09   8 2.09  12 2.10
  41  0.250  0.250  0.353-   7 2.09   8 2.09  15 2.09  24 2.09   9 2.09
  42  0.500  0.000  0.353-   7 2.09   8 2.09  16 2.09  23 2.09  10 2.09
  43  0.250  0.000  0.649-  13 2.08  14 2.09  21 2.09  30 2.09  11 2.11
  44  0.500  0.250  0.651-  29 2.11  13 2.11  14 2.11  22 2.11  12 2.15
  45  0.250  0.250  0.550-  12 2.08  13 2.09  19 2.09  11 2.09  28 2.09   9 2.10
  46  0.500  0.000  0.550-  14 2.08  12 2.08  11 2.09  27 2.09  20 2.09  10 2.10
  47  0.250  0.500  0.451-   9 2.09  17 2.09  18 2.09  34 2.09  15 2.09  19 2.10
  48  0.500  0.750  0.451-  10 2.09  17 2.09  18 2.09  33 2.09  16 2.09  20 2.10
  49  0.250  0.750  0.353-   7 2.09  15 2.09  16 2.09  32 2.09  17 2.09
  50  0.500  0.500  0.353-   8 2.09  15 2.09  16 2.09  31 2.09  18 2.09
  51  0.250  0.500  0.649-  22 2.09  13 2.09  38 2.09  21 2.09  19 2.12
  52  0.500  0.750  0.649-  22 2.06  14 2.07  37 2.09  21 2.09  20 2.12
  53  0.250  0.750  0.549-  21 2.09  20 2.09  19 2.09  36 2.09  11 2.09  17 2.09
  54  0.500  0.500  0.550-  22 2.08  12 2.08  35 2.09  19 2.09  20 2.09  18 2.10
  55  0.750  0.000  0.451-  10 2.09  25 2.09  26 2.09  33 2.09  23 2.09  27 2.10
  56  0.000  0.250  0.451-   9 2.09  25 2.09  26 2.09  34 2.09  24 2.09  28 2.10
  57  0.750  0.250  0.353-   8 2.09  23 2.09  24 2.09  31 2.09  25 2.09
  58  0.000  0.000  0.353-   7 2.09  23 2.09  24 2.09  32 2.09  26 2.09
  59  0.750  0.000  0.649-  29 2.08  14 2.09  37 2.09  30 2.09  27 2.11
  60  1.000  0.250  0.649-  29 2.07  13 2.07  38 2.09  30 2.09  28 2.12
  61  0.750  0.250  0.550-  12 2.08  29 2.09  35 2.09  27 2.09  28 2.09  25 2.10
  62  1.000  0.000  0.549-  28 2.09  27 2.09  11 2.09  36 2.09  30 2.09  26 2.09
  63  0.750  0.500  0.451-  18 2.09  25 2.09  33 2.09  34 2.09  31 2.09  35 2.10
  64  0.000  0.750  0.451-  17 2.09  26 2.09  33 2.09  34 2.09  32 2.09  36 2.10
  65  0.750  0.750  0.353-  16 2.09  23 2.09  31 2.09  32 2.09  33 2.09
  66  0.000  0.500  0.353-  15 2.09  24 2.09  31 2.09  32 2.09  34 2.09
  67  0.750  0.500  0.649-  22 2.09  29 2.09  38 2.09  37 2.09  35 2.12
  68  1.000  0.750  0.649-  37 2.08  21 2.08  38 2.08  30 2.09  36 2.12
  69  0.750  0.750  0.549-  37 2.09  20 2.09  35 2.09  36 2.09  27 2.09  33 2.09
  70  1.000  0.500  0.549-  38 2.09  35 2.09  19 2.09  28 2.09  36 2.09  34 2.09

IMPORTANT INFORMATION: All symmetrisations will be switched off!
NOSYMM: (Re-)initialisation of all symmetry stuff for point group C_1.

                                     Primitive cell

  volume of cell :    1482.1129

  direct lattice vectors                    reciprocal lattice vectors
     8.349111827  0.000000000  0.000000000     0.119773219  0.000000000  0.000000000
     0.000000000  8.349111827  0.000000000     0.000000000  0.119773219  0.000000000
     0.000000000  0.000000000 21.261833870     0.000000000  0.000000000  0.047032632

  length of vectors
     8.349111827  8.349111827 21.261833870     0.119773219  0.119773219  0.047032632

  position of ions in fractional coordinates (direct lattice)
     0.499957671  0.430718954  0.791912991
     0.500001855  0.266578758  0.776764026
     0.500004737  0.442583987  0.842982750
     0.499999236  0.256732377  0.730503663
     0.607079138  0.492706828  0.774081666
     0.392965531  0.492694890  0.774087451
     0.250000000  0.000000000  0.352744737
     0.500000000  0.250000000  0.352744737
     0.250000000  0.250000000  0.450914912
     0.500000000  0.000000000  0.450914912
     0.249905307  0.000006479  0.549792811
     0.499999882  0.249985226  0.549638583
     0.247647852  0.249718414  0.647665392
     0.499999931  0.997564695  0.647474693
     0.250000000  0.500000000  0.352744737
     0.500000000  0.750000000  0.352744737
     0.250000000  0.750000000  0.450914912
     0.500000000  0.500000000  0.450914912
     0.249876950  0.499975159  0.549781720
     0.499999893  0.750167417  0.549560098
     0.249592261  0.750176215  0.647470723
     0.499999429  0.503073716  0.647207199
     0.750000000  0.000000000  0.352744737
     0.000000000  0.250000000  0.352744737
     0.750000000  0.250000000  0.450914912
     0.000000000  0.000000000  0.450914912
     0.750094654  0.000006463  0.549792785
     0.000000040  0.249914268  0.549669313
     0.752352173  0.249718115  0.647665137
     0.999999965  0.999603540  0.647600974
     0.750000000  0.500000000  0.352744737
     0.000000000  0.750000000  0.352744737
     0.750000000  0.750000000  0.450914912
     0.000000000  0.500000000  0.450914912
     0.750122987  0.499975204  0.549781646
     0.000000024  0.749957514  0.549713282
     0.750407737  0.750176472  0.647470538
     0.000000190  0.500253162  0.647483984
     0.250000000  0.000000000  0.450914912
     0.500000000  0.250000000  0.450914912
     0.250000000  0.250000000  0.352744737
     0.500000000  0.000000000  0.352744737
     0.250185415  0.000070080  0.649151016
     0.500000063  0.250007880  0.650602650
     0.250423570  0.250054113  0.549583302
     0.499999956  0.000446087  0.549515506
     0.250000000  0.500000000  0.450914912
     0.500000000  0.750000000  0.450914912
     0.250000000  0.750000000  0.352744737
     0.500000000  0.500000000  0.352744737
     0.250139902  0.499819000  0.649353194
     0.500000124  0.750138518  0.649117191
     0.250073148  0.749903018  0.549363475
     0.500000011  0.499622378  0.549545117
     0.750000000  0.000000000  0.450914912
     0.000000000  0.250000000  0.450914912
     0.750000000  0.250000000  0.352744737
     0.000000000  0.000000000  0.352744737
     0.749814563  0.000070017  0.649150998
     0.999999875  0.250029247  0.649238763
[...]
   0.00000000  4.17455591  9.58727796
   6.26286070  4.17434888 11.68936602
   0.00000020  6.26147915 11.68791247
   6.26523811  6.26330726 13.76641102
   0.00000159  4.17666960 13.76669691
   2.08727796  0.00000000  9.58727796
   4.17455591  2.08727796  9.58727796
   2.08727796  2.08727796  7.50000000
   4.17455591  0.00000000  7.50000000
   2.08882601  0.00058510 13.80214107
   4.17455644  2.08734375 13.83300546
   2.09081439  2.08772975 11.68514887
   4.17455555  0.00372443 11.68370739
   2.08727796  4.17455591  9.58727796
   4.17455591  6.26183387  9.58727796
   2.08727796  6.26183387  7.50000000
   4.17455591  4.17455591  7.50000000
   2.08844601  4.17304472 13.80643974
   4.17455695  6.26299037 13.80142188
   2.08788868  6.26102416 11.68047494
   4.17455601  4.17140311 11.68433697
   6.26183387  0.00000000  9.58727796
   0.00000000  2.08727796  9.58727796
   6.26183387  2.08727796  7.50000000
   0.00000000  0.00000000  7.50000000
   6.26028564  0.00058458 13.80214068
   8.34911078  2.08752214 13.80400673
   6.25829689  2.08773007 11.68514840
   8.34911152  0.00068272 11.68076343
   6.26183387  4.17455591  9.58727796
   0.00000000  6.26183387  9.58727796
   6.26183387  6.26183387  7.50000000
   0.00000000  4.17455591  7.50000000
   6.26066323  4.17304496 13.80644224
   8.34911064  6.26102868 13.80694181
   6.26122240  6.26102380 11.68047502
   8.34911129  4.17388642 11.68102330

--------------------------------------- Iteration      FINAL  ---------------------------------------

--------------------OUTCAR has been truncated-------------------------

[...]

--------------------OUTCAR has been truncated-------------------------

  FORCE on cell =-STRESS in cart. coord.  units (eV):
  Direction    XX          YY          ZZ          XY          YZ          ZX
  Alpha Z   942.23310   942.23310   942.23310
  Ewald  162312.78870162595.82939************     0.00559    81.52712     0.00123
  Hartree172711.27362172879.43173************     0.00308    41.96263     0.00094
  E(xc)   -1901.95449 -1901.67037 -1904.52079     0.00001     0.09067    -0.00000
  Local  ************************345023.65422    -0.00829  -116.35319    -0.00217
  n-local  -749.48938  -747.15747  -774.82117     0.00004     0.82503     0.00005
  augment   834.62308   832.78164   822.11383    -0.00004    -0.56922    -0.00000
  Kinetic  7587.91042  7566.37422  7602.48227    -0.00049    -7.61345    -0.00012
  Fock    -2524.91884 -2524.43428 -2521.05495     0.00001     0.10231     0.00001
  vdW        -9.28722    -9.29365    -6.57069    -0.00000    -0.00220    -0.00000
  Total     -29.98079   -29.91512    -2.38317    -0.00010    -0.03030    -0.00007
  in kB     -32.40951   -32.33851    -2.57623    -0.00010    -0.03276    -0.00008

 VOLUME and BASIS-vectors are now :
  energy-cutoff  :      600.00
  volume of cell :     1482.11
      direct lattice vectors                 reciprocal lattice vectors
     8.349111827  0.000000000  0.000000000     0.119773219  0.000000000  0.000000000
     0.000000000  8.349111827  0.000000000     0.000000000  0.119773219  0.000000000
     0.000000000  0.000000000 21.261833870     0.000000000  0.000000000  0.047032632

  length of vectors
     8.349111827  8.349111827 21.261833870     0.119773219  0.119773219  0.047032632

 FORCES acting on ions:
    Electron-Ion                     Ewald-Force                    Non-Local-Force
   -.339E-02 -.123E+03 -.100E+04   0.282E-02 0.127E+03 0.101E+04   -.903E-05 -.449E+01 -.166E+01
   0.434E-02 0.170E+03 -.157E+04   -.540E-02 -.205E+03 0.159E+04   0.106E-02 0.306E+02 -.239E+02
   -.542E-03 -.166E+02 -.251E+03   0.540E-03 0.171E+02 0.257E+03   -.167E-04 -.508E+00 -.558E+01
   -.433E-03 0.214E+02 -.220E+03   0.495E-03 -.223E+02 0.212E+03   -.584E-04 0.892E+00 0.746E+01
   -.492E+02 -.389E+02 -.245E+03   0.538E+02 0.416E+02 0.243E+03   -.441E+01 -.253E+01 0.176E+01
   0.492E+02 -.389E+02 -.245E+03   -.538E+02 0.416E+02 0.243E+03   0.441E+01 -.253E+01 0.176E+01
   0.283E+00 0.150E+00 0.215E+04   -.286E+00 -.152E+00 -.214E+04   0.209E-02 0.103E-02 -.683E+01
   0.491E-05 0.159E+00 0.215E+04   -.515E-05 -.160E+00 -.214E+04   0.264E-06 0.441E-03 -.682E+01
   0.148E+01 0.657E+00 0.752E+03   -.146E+01 -.658E+00 -.752E+03   -.105E-01 0.363E-03 0.494E+00
   0.186E-04 0.846E+00 0.752E+03   -.211E-04 -.818E+00 -.752E+03   0.148E-05 -.184E-01 0.475E+00
   0.529E+01 0.391E+01 -.634E+03   -.532E+01 -.390E+01 0.634E+03   0.280E-01 -.310E-02 -.426E+00
   -.813E-04 0.394E+01 -.623E+03   0.732E-04 -.397E+01 0.622E+03   0.125E-04 0.239E-01 0.592E+00
   0.393E+02 0.148E+02 -.199E+04   -.403E+02 -.149E+02 0.198E+04   0.908E+00 0.814E-01 0.586E+01
   -.322E-03 0.275E+02 -.200E+04   0.330E-03 -.286E+02 0.199E+04   0.411E-05 0.945E+00 0.589E+01
   0.298E+00 -.150E+00 0.215E+04   -.301E+00 0.151E+00 -.214E+04   0.211E-02 -.944E-03 -.683E+01
   0.485E-05 -.158E+00 0.215E+04   -.486E-05 0.159E+00 -.214E+04   0.403E-07 -.670E-03 -.681E+01
   0.125E+01 -.667E+00 0.751E+03   -.129E+01 0.666E+00 -.751E+03   0.233E-01 0.871E-03 0.400E+00
   -.198E-06 -.868E+00 0.753E+03   -.200E-07 0.847E+00 -.754E+03   0.379E-06 0.149E-01 0.498E+00
   0.692E+01 -.388E+01 -.628E+03   -.697E+01 0.388E+01 0.629E+03   0.426E-01 -.494E-03 -.330E+00
   -.308E-04 -.379E+01 -.627E+03   0.291E-04 0.383E+01 0.627E+03   0.629E-05 -.360E-01 -.272E+00
   0.198E+02 -.131E+02 -.203E+04   -.200E+02 0.132E+02 0.202E+04   0.139E+00 -.836E-01 0.584E+01
   -.138E-03 -.324E+02 -.194E+04   0.154E-03 0.336E+02 0.193E+04   0.126E-04 -.107E+01 0.583E+01
   -.283E+00 0.150E+00 0.215E+04   0.286E+00 -.152E+00 -.214E+04   -.209E-02 0.103E-02 -.683E+01
   -.535E-05 0.143E+00 0.215E+04   0.552E-05 -.144E+00 -.214E+04   0.193E-06 0.549E-03 -.682E+01
   -.148E+01 0.657E+00 0.752E+03   0.146E+01 -.658E+00 -.752E+03   0.105E-01 0.361E-03 0.494E+00
   -.395E-04 0.659E+00 0.750E+03   0.401E-04 -.686E+00 -.750E+03   -.645E-06 0.171E-01 0.400E+00
   -.529E+01 0.391E+01 -.634E+03   0.532E+01 -.390E+01 0.634E+03   -.280E-01 -.310E-02 -.426E+00
   0.215E-04 0.220E+01 -.632E+03   -.101E-04 -.222E+01 0.633E+03   -.128E-04 0.183E-01 -.298E+00
   -.393E+02 0.148E+02 -.199E+04   0.403E+02 -.149E+02 0.198E+04   -.908E+00 0.814E-01 0.586E+01
   0.471E-04 0.109E+02 -.204E+04   -.641E-04 -.110E+02 0.203E+04   0.111E-04 0.112E+00 0.583E+01
   -.298E+00 -.150E+00 0.215E+04   0.301E+00 0.151E+00 -.214E+04   -.211E-02 -.944E-03 -.683E+01
   -.518E-05 -.144E+00 0.214E+04   0.509E-05 0.145E+00 -.214E+04   -.126E-06 -.458E-03 -.684E+01
   -.125E+01 -.667E+00 0.751E+03   0.129E+01 0.666E+00 -.751E+03   -.233E-01 0.873E-03 0.400E+00
   -.248E-05 -.618E+00 0.751E+03   0.411E-06 0.643E+00 -.751E+03   0.652E-06 -.159E-01 0.412E+00
   -.692E+01 -.388E+01 -.628E+03   0.697E+01 0.388E+01 0.629E+03   -.426E-01 -.504E-03 -.330E+00
   0.340E-04 -.245E+01 -.640E+03   -.248E-04 0.245E+01 0.640E+03   -.108E-04 0.718E-03 -.250E+00
   -.198E+02 -.131E+02 -.203E+04   0.200E+02 0.132E+02 0.202E+04   -.139E+00 -.836E-01 0.584E+01
   -.219E-04 -.114E+02 -.203E+04   0.139E-04 0.115E+02 0.202E+04   -.190E-06 -.995E-01 0.583E+01
   0.836E+00 0.462E+00 0.563E+03   -.849E+00 -.476E+00 -.562E+03   0.165E-01 0.177E-01 -.128E+00
   0.382E-05 0.521E+00 0.565E+03   0.630E-06 -.526E+00 -.565E+03   -.460E-05 0.682E-02 -.782E-01
   0.229E+00 0.114E+00 0.161E+04   -.229E+00 -.115E+00 -.161E+04   0.900E-03 0.653E-03 0.301E+01
   0.500E-05 0.122E+00 0.161E+04   -.501E-05 -.121E+00 -.161E+04   0.332E-06 -.958E-03 0.301E+01
   0.176E+02 0.151E+02 -.153E+04   -.175E+02 -.151E+02 0.154E+04   -.159E-01 -.225E-01 -.462E+01
   -.446E-03 0.209E+02 -.145E+04   0.461E-03 -.210E+02 0.145E+04   0.529E-05 0.315E-01 -.172E+01
   0.480E+01 0.230E+01 -.466E+03   -.485E+01 -.231E+01 0.466E+03   0.421E-01 0.673E-02 0.250E+00
   -.677E-04 0.292E+01 -.467E+03   0.727E-04 -.296E+01 0.466E+03   -.267E-05 0.312E-01 0.276E+00
   0.931E+00 -.458E+00 0.564E+03   -.944E+00 0.475E+00 -.563E+03   0.175E-01 -.206E-01 -.124E+00
   0.411E-05 -.489E+00 0.564E+03   -.149E-06 0.487E+00 -.564E+03   -.446E-05 0.241E-02 -.500E-01
   0.213E+00 -.114E+00 0.161E+04   -.219E+00 0.115E+00 -.161E+04   0.702E-02 -.768E-03 0.300E+01
   0.240E-05 -.123E+00 0.161E+04   -.256E-05 0.122E+00 -.161E+04   0.270E-06 0.127E-02 0.301E+01
   0.300E+02 -.164E+02 -.151E+04   -.299E+02 0.164E+02 0.152E+04   -.250E-01 0.322E-01 -.457E+01
   -.102E-03 -.167E+02 -.153E+04   0.104E-03 0.168E+02 0.153E+04   0.535E-05 -.367E-01 -.459E+01
   0.422E+01 -.230E+01 -.470E+03   -.423E+01 0.231E+01 0.470E+03   0.804E-02 -.626E-02 0.213E+00
   -.275E-04 -.304E+01 -.460E+03   0.307E-04 0.308E+01 0.459E+03   -.150E-05 -.365E-01 0.368E+00
   -.836E+00 0.462E+00 0.563E+03   0.849E+00 -.476E+00 -.562E+03   -.165E-01 0.177E-01 -.128E+00
   -.150E-04 0.398E+00 0.563E+03   0.137E-04 -.398E+00 -.563E+03   0.807E-06 0.163E-03 -.728E-01
   -.229E+00 0.114E+00 0.161E+04   0.229E+00 -.115E+00 -.161E+04   -.901E-03 0.653E-03 0.301E+01
   -.505E-05 0.107E+00 0.161E+04   0.537E-05 -.111E+00 -.161E+04   -.507E-06 0.494E-02 0.300E+01
   -.176E+02 0.151E+02 -.153E+04   0.175E+02 -.151E+02 0.154E+04   0.159E-01 -.225E-01 -.462E+01
   0.971E-04 0.617E+01 -.154E+04   -.965E-04 -.617E+01 0.154E+04   -.133E-04 0.530E-02 -.455E+01
   -.480E+01 0.230E+01 -.466E+03   0.485E+01 -.231E+01 0.466E+03   -.421E-01 0.673E-02 0.250E+00
   -.323E-04 0.265E+01 -.474E+03   0.294E-04 -.267E+01 0.473E+03   0.174E-05 0.197E-01 0.184E+00
   -.931E+00 -.458E+00 0.564E+03   0.944E+00 0.475E+00 -.563E+03   -.175E-01 -.206E-01 -.124E+00
   -.122E-04 -.438E+00 0.562E+03   0.122E-04 0.442E+00 -.562E+03   -.576E-06 -.430E-02 -.127E+00
   -.213E+00 -.114E+00 0.161E+04   0.219E+00 0.115E+00 -.161E+04   -.702E-02 -.768E-03 0.300E+01
   -.251E-05 -.106E+00 0.161E+04   0.254E-05 0.110E+00 -.161E+04   -.357E-07 -.504E-02 0.300E+01
   -.300E+02 -.164E+02 -.151E+04   0.299E+02 0.164E+02 0.152E+04   0.250E-01 0.322E-01 -.457E+01
   0.121E-04 -.583E+01 -.155E+04   -.131E-04 0.582E+01 0.156E+04   -.302E-05 0.628E-02 -.453E+01
   -.422E+01 -.230E+01 -.470E+03   0.423E+01 0.231E+01 0.470E+03   -.803E-02 -.626E-02 0.213E+00
   0.260E-04 -.244E+01 -.471E+03   -.293E-04 0.244E+01 0.470E+03   0.144E-06 -.777E-02 0.222E+00
   -.156E-02 -.258E+02 0.411E+02   0.141E-13 0.284E-13 0.102E-11   0.907E-03 0.213E+02 -.348E+02

 POSITION                                       TOTAL-FORCE (eV/Angst)
      4.17457      3.59610     16.83782        -0.000590     -0.002553      0.000769
      4.17454      2.22568     16.51507         0.000201      0.002804      0.004787
      4.17458      3.69518     17.92333        -0.000013     -0.001591      0.007763
      4.17455      2.14347     15.53212         0.000007     -0.000513     -0.003115
      5.06843      4.11357     16.45844        -0.001688     -0.002791      0.001453
      3.28074      4.11361     16.45844         0.001648     -0.002943      0.001506
      2.08728      0.00000      7.50000        -0.000922     -0.000511      0.428238
      4.17456      2.08728      7.50000         0.000007     -0.000196      0.425879
      2.08728      2.08728      9.58728         0.002659     -0.000522      0.067583
      4.17456      0.00000      9.58728         0.000006      0.006899      0.063958
      2.08650      0.00004     11.68960         0.000713     -0.001158     -0.000707
      4.17456      2.08714     11.68637         0.000014     -0.001213      0.003670
      2.06762      2.08490     13.77053        -0.000838     -0.002330     -0.001623
      4.17456      8.32878     13.76652         0.000020      0.000609      0.001563
      2.08728      4.17456      7.50000        -0.000931      0.000462      0.428084
      4.17456      6.26183      7.50000         0.000007      0.000262      0.424096
      2.08728      6.26183      9.58728        -0.010330     -0.000244      0.066660
      4.17456      4.17456      9.58728         0.000007     -0.004326      0.063578
      2.08624      4.17434     11.68938        -0.000479     -0.000813      0.001047
      4.17456      6.26322     11.68468         0.000013     -0.001101      0.001622
      2.08386      6.26332     13.76641        -0.001511      0.001408     -0.000813
      4.17456      4.20024     13.76080         0.000066      0.001118     -0.001055
      6.26183      0.00000      7.50000         0.000935     -0.000511      0.428237
      0.00000      2.08728      7.50000         0.000007     -0.000238      0.425197
      6.26183      2.08728      9.58728        -0.002647     -0.000521      0.067582
      0.00000      0.00000      9.58728         0.000006     -0.007840      0.068221
      6.26262      0.00004     11.68960        -0.000702     -0.001157     -0.000704
      0.00000      2.08661     11.68699         0.000002      0.003218      0.000576
      6.28149      2.08490     13.77053         0.000837     -0.002302     -0.001591
      8.34911      8.34583     13.76918         0.000001      0.002032     -0.000529
      6.26183      4.17456      7.50000         0.000944      0.000462      0.428084
      0.00000      6.26183      7.50000         0.000006      0.000185      0.430656
      6.26183      6.26183      9.58728         0.010342     -0.000245      0.066659
      0.00000      4.17456      9.58728         0.000005      0.006608      0.066506
      6.26287      4.17434     11.68938         0.000490     -0.000818      0.001056
      0.00000      6.26156     11.68786         0.000002      0.006179     -0.004362
      6.26525      6.26332     13.76640         0.001514      0.001382     -0.000776
     -0.00000      4.17671     13.76670        -0.000016      0.003253      0.000177
      2.08728      0.00000      9.58728         0.006336      0.006495      0.069589
      4.17456      2.08728      9.58728         0.000006      0.002571      0.068985
      2.08728      2.08728      7.50000         0.000282      0.000207     -0.563667
      4.17456      0.00000      7.50000         0.000007     -0.000366     -0.563408
      2.08880      0.00057     13.80214        -0.001830     -0.001141      0.000125
      4.17456      2.08734     13.83302         0.000030     -0.000452     -0.000900
      2.09082      2.08773     11.68514         0.000288     -0.000207     -0.000656
      4.17456      0.00375     11.68369         0.000009      0.001107     -0.000687
      2.08728      4.17456      9.58728         0.006922     -0.007444      0.069800
      4.17456      6.26183      9.58728         0.000005      0.000002      0.072108
      2.08728      6.26183      7.50000         0.002409     -0.000264     -0.565321
      4.17456      4.17456      7.50000         0.000007      0.000469     -0.563180
      2.08842      4.17308     13.80645        -0.001855      0.002457      0.000913
      4.17456      6.26297     13.80141         0.000016     -0.001377     -0.000227
      2.08789      6.26105     11.68047        -0.000040      0.001689     -0.000059
      4.17456      4.17142     11.68429         0.000008      0.000978     -0.002835
      6.26183      0.00000      9.58728        -0.006324      0.006494      0.069589
      0.00000      2.08728      9.58728         0.000006      0.000415      0.076436
      6.26183      2.08728      7.50000        -0.000269      0.000207     -0.563666
      0.00000      0.00000      7.50000         0.000006      0.001671     -0.565825
      6.26031      0.00057     13.80214         0.001840     -0.001128      0.000131
     -0.00000      2.08749     13.80403        -0.000010     -0.001991      0.001518
      6.25829      2.08773     11.68514        -0.000272     -0.000205     -0.000641
     -0.00000      0.00064     11.68076         0.000006     -0.002328      0.000093
      6.26183      4.17456      9.58728        -0.006910     -0.007443      0.069803
      0.00000      6.26183      9.58728         0.000006     -0.001375      0.060173
      6.26183      6.26183      7.50000        -0.002396     -0.000264     -0.565320
      0.00000      4.17456      7.50000         0.000007     -0.001732     -0.565607
      6.26069      4.17308     13.80645         0.001856      0.002449      0.000984
     -0.00000      6.26104     13.80698         0.000001      0.000711      0.003011
      6.26122      6.26105     11.68047         0.000057      0.001688     -0.000057
     -0.00000      4.17385     11.68100         0.000003     -0.002337     -0.001135
    total drift:                               -0.000458      0.000610      0.004599

  FREE ENERGIE OF THE ION-ELECTRON SYSTEM (eV)
  free  energy   TOTEN  =      -510.47523255 eV

  energy  without entropy=     -510.47523255  energy(sigma->0) =     -510.47523255

 d Force = 0.1516804E-03[-0.679E-06, 0.304E-03]  d Energy = 0.1512070E-03 0.473E-06
 d Force = 0.5528698E+00[ 0.552E+00, 0.553E+00]  d Ewald  = 0.5528697E+00 0.156E-06

 reached required accuracy - stopping structural energy minimisation