 vasp.6.3.0 20Jan22 (build Apr  1 2022 16:44:48) complex
 executed on        HPECrayEX_GCC date 2022.11.13  06:53:44

 INCAR:
   SYSTEM = MgO-rocksalt
   ISMEAR = 0
   SIGMA = 0.05
   EDIFF = 1E-6
   ALGO = ALL
   ISTART = 0
   IBRION = -1
   NSW = 0
   ISYM = 0
   DIPOL = 0.5 0.5 0.5
   IDIPOL = 3
   LDIPOL = .TRUE.
   LHFCALC = .TRUE.
   GGA = B5
   AEXX = 0.2
   AGGAX = 0.72
   AGGAC = 0.81
   ALDAC = 0.19
   IVDW = 1
   VDW_S6 = 1.05
   VDW_C6 = 0.63 0.70
   VDW_R0 = 1.243 1.342
   ENCUT = 600
   PREC = Accurate
   LASPH = .TRUE.
   LREAL = .FALSE.
   ISPIN = 1
   NELM = 200
   NELMIN = 8
   NCORE = 8
   KPAR = 1
   LWAVE = .FALSE.
   LCHARG = .FALSE.

 POTCAR:    PAW_PBE Mg_pv 13Apr2007
 POTCAR:    PAW_PBE O 08Apr2002
 POTCAR:    PAW_PBE Mg_pv 13Apr2007
   VRHFIN =Mg: p6s2

   TITEL  = PAW_PBE Mg_pv 13Apr2007
   POMASS =   24.305; ZVAL   =    8.000    mass and valenz
   ENMAX  =  403.929; ENMIN  =  302.947 eV

   TITEL  = PAW_PBE O 08Apr2002
   POMASS =   16.000; ZVAL   =    6.000    mass and valenz
   ENMAX  =  400.000; ENMIN  =  300.000 eV

  PAW_PBE Mg_pv 13Apr2007               :
  PAW_PBE O 08Apr2002                   :

 POSCAR: Mg  O
  positions in direct lattice
 exchange correlation table for  LEXCH =       12
   RHO(1)=    0.500       N(1)  =     2000
   RHO(2)=  100.500       N(2)  =     4000

 ion  position               nearest neighbor table
   1  0.000  0.750  0.350-  33 2.14  35 2.14  36 2.14  43 2.14  52 2.14
   2  0.250  0.000  0.350-  34 2.14  35 2.14  36 2.14  44 2.14  51 2.14
   3  0.000  0.000  0.450-  35 2.14  34 2.14  33 2.14  41 2.14  50 2.14  39 2.14
   4  0.250  0.750  0.450-  36 2.14  34 2.14  33 2.14  42 2.14  49 2.14  40 2.14
   5  0.000  0.750  0.550-  39 2.14  47 2.14  56 2.14  40 2.14  33 2.15  37 2.16
   6  0.250  1.000  0.550-  39 2.14  48 2.14  40 2.14  55 2.14  34 2.15  38 2.16
   7  0.000  0.000  0.650-  39 2.13  38 2.14  45 2.14  37 2.14  54 2.14
   8  0.250  0.750  0.649-  40 2.13  37 2.13  38 2.14  46 2.14  53 2.14
   9  0.000  0.250  0.350-  41 2.14  35 2.14  43 2.14  44 2.14  60 2.14
  10  0.250  0.500  0.350-  42 2.14  36 2.14  43 2.14  44 2.14  59 2.14
  11  0.000  0.500  0.450-  43 2.14  41 2.14  42 2.14  33 2.14  58 2.14  47 2.14
  12  0.250  0.250  0.450-  44 2.14  41 2.14  42 2.14  34 2.14  57 2.14  48 2.14
  13  1.000  0.250  0.550-  39 2.14  48 2.14  64 2.14  47 2.14  41 2.15  45 2.16
  14  0.250  0.500  0.550-  48 2.14  40 2.14  63 2.14  47 2.14  42 2.15  46 2.16
  15  0.000  0.500  0.649-  47 2.13  46 2.13  45 2.14  37 2.14  62 2.14
  16  0.250  0.250  0.650-  48 2.13  45 2.14  38 2.14  46 2.14  61 2.14
  17  0.500  0.750  0.350-  49 2.14  36 2.14  51 2.14  52 2.14  59 2.14
  18  0.750  0.000  0.350-  50 2.14  35 2.14  51 2.14  52 2.14  60 2.14
  19  0.500  0.000  0.450-  51 2.14  49 2.14  50 2.14  34 2.14  57 2.14  55 2.14
  20  0.750  0.750  0.450-  52 2.14  49 2.14  50 2.14  33 2.14  58 2.14  56 2.14
  21  0.500  0.750  0.551-  56 2.13  63 2.13  55 2.14  40 2.14  49 2.15  53 2.18
  22  0.750  0.000  0.550-  39 2.14  55 2.14  56 2.14  64 2.14  50 2.15  54 2.16
  23  0.500  0.000  0.649-  55 2.13  61 2.13  38 2.14  54 2.14  53 2.14
  24  0.752  0.752  0.650-  37 2.13  54 2.13  56 2.13  62 2.15  53 2.15
  25  0.500  0.250  0.350-  57 2.14  51 2.14  44 2.14  59 2.14  60 2.14
  26  0.750  0.500  0.350-  58 2.14  52 2.14  43 2.14  59 2.14  60 2.14
  27  0.500  0.500  0.450-  59 2.14  49 2.14  57 2.14  58 2.14  42 2.14  63 2.14
  28  0.750  0.250  0.450-  60 2.14  50 2.14  57 2.14  58 2.14  41 2.14  64 2.14
  29  0.500  0.250  0.550-  48 2.14  64 2.14  63 2.14  55 2.14  57 2.15  61 2.16
  30  0.750  0.500  0.551-  56 2.13  63 2.13  47 2.14  64 2.14  58 2.15  62 2.18
  31  0.498  0.498  0.650-  46 2.13  61 2.13  63 2.13  53 2.15  62 2.15
  32  0.750  0.250  0.649-  64 2.13  54 2.13  45 2.14  61 2.14  62 2.14
  33  0.000  0.750  0.450-   1 2.14   3 2.14   4 2.14  11 2.14  20 2.14   5 2.15
  34  0.250  0.000  0.450-   2 2.14   3 2.14   4 2.14  12 2.14  19 2.14   6 2.15
  35  0.000  0.000  0.350-   3 2.14   2 2.14   1 2.14   9 2.14  18 2.14
  36  0.250  0.750  0.350-   4 2.14   2 2.14   1 2.14  10 2.14  17 2.14
  37  0.000  0.750  0.651-  24 2.13   8 2.13   7 2.14  15 2.14   5 2.16
  38  0.250  1.000  0.651-  16 2.14   7 2.14   8 2.14  23 2.14   6 2.16
  39  0.000  0.000  0.550-   7 2.13  13 2.14   6 2.14   5 2.14  22 2.14   3 2.14
  40  0.250  0.750  0.550-   8 2.13  21 2.14   6 2.14  14 2.14   5 2.14   4 2.14
  41  0.000  0.250  0.450-   9 2.14   3 2.14  11 2.14  12 2.14  28 2.14  13 2.15
  42  0.250  0.500  0.450-  10 2.14   4 2.14  11 2.14  12 2.14  27 2.14  14 2.15
  43  0.000  0.500  0.350-  11 2.14   9 2.14  10 2.14   1 2.14  26 2.14
  44  0.250  0.250  0.350-  12 2.14   9 2.14  10 2.14   2 2.14  25 2.14
  45  1.000  0.250  0.651-  16 2.14   7 2.14  32 2.14  15 2.14  13 2.16
  46  0.250  0.500  0.651-  31 2.13  15 2.13  16 2.14   8 2.14  14 2.16
  47  1.000  0.500  0.550-  15 2.13  30 2.14  13 2.14   5 2.14  14 2.14  11 2.14
  48  0.250  0.250  0.550-  16 2.13  13 2.14   6 2.14  29 2.14  14 2.14  12 2.14
  49  0.500  0.750  0.450-  17 2.14   4 2.14  19 2.14  20 2.14  27 2.14  21 2.15
  50  0.750  0.000  0.450-  18 2.14   3 2.14  19 2.14  20 2.14  28 2.14  22 2.15
  51  0.500  0.000  0.350-  19 2.14  17 2.14  18 2.14   2 2.14  25 2.14
  52  0.750  0.750  0.350-  20 2.14  17 2.14  18 2.14   1 2.14  26 2.14
  53  0.500  0.750  0.652-  23 2.14   8 2.14  31 2.15  24 2.15  21 2.18
  54  0.750  0.000  0.651-  24 2.13  32 2.13   7 2.14  23 2.14  22 2.16
  55  0.500  1.000  0.550-  23 2.13  21 2.14   6 2.14  22 2.14  29 2.14  19 2.14
  56  0.750  0.750  0.550-  24 2.13  30 2.13  21 2.13  22 2.14   5 2.14  20 2.14
  57  0.500  0.250  0.450-  25 2.14  19 2.14  12 2.14  27 2.14  28 2.14  29 2.15
  58  0.750  0.500  0.450-  26 2.14  20 2.14  11 2.14  27 2.14  28 2.14  30 2.15
  59  0.500  0.500  0.350-  27 2.14  17 2.14  25 2.14  26 2.14  10 2.14
  60  0.750  0.250  0.350-  28 2.14  18 2.14  25 2.14  26 2.14   9 2.14
  61  0.500  0.250  0.651-  31 2.13  23 2.13  16 2.14  32 2.14  29 2.16
  62  0.750  0.500  0.652-  15 2.14  32 2.14  31 2.15  24 2.15  30 2.18
  63  0.500  0.500  0.550-  31 2.13  30 2.13  21 2.13  14 2.14  29 2.14  27 2.14
  64  0.750  0.250  0.550-  32 2.13  30 2.14  13 2.14  29 2.14  22 2.14  28 2.14

IMPORTANT INFORMATION: All symmetrisations will be switched off!
NOSYMM: (Re-)initialisation of all symmetry stuff for point group C_1.

                                     Primitive cell

  volume of cell :    1563.6717

  direct lattice vectors                    reciprocal lattice vectors
     8.546113626  0.000000000  0.000000000     0.117012252  0.000000000  0.000000000
     0.000000000  8.546113626  0.000000000     0.000000000  0.117012252  0.000000000
     0.000000000  0.000000000 21.409585219     0.000000000  0.000000000  0.046708051

  length of vectors
     8.546113626  8.546113626 21.409585219     0.117012252  0.117012252  0.046708051

  position of ions in fractional coordinates (direct lattice)
     0.000000000  0.750000000  0.350310383
     0.250000000  0.000000000  0.350310383
     0.000000000  0.000000000  0.450103461
     0.250000000  0.750000000  0.450103461
     0.000126397  0.750045481  0.550364384
     0.250020198  0.999979876  0.550369020
     0.000153514  0.000153508  0.649560948
     0.249706705  0.749926150  0.649462994
     0.000000000  0.250000000  0.350310383
     0.250000000  0.500000000  0.350310383
     0.000000000  0.500000000  0.450103461
     0.250000000  0.250000000  0.450103461
     0.999979886  0.250020189  0.550369018
     0.249873462  0.499954848  0.550364380
     0.000293418  0.500074338  0.649463019
     0.249846636  0.249846645  0.649560929
     0.500000000  0.750000000  0.350310383
     0.750000000  0.000000000  0.350310383
     0.500000000  0.000000000  0.450103461
     0.750000000  0.750000000  0.450103461
     0.500197926  0.749802498  0.550584063
     0.750045473  0.000126395  0.550364389
     0.500074323  0.000293415  0.649463029
     0.751609463  0.751609452  0.649775867
     0.500000000  0.250000000  0.350310383
     0.750000000  0.500000000  0.350310383
     0.500000000  0.500000000  0.450103461
     0.750000000  0.250000000  0.450103461
     0.499954834  0.249873459  0.550364381
     0.749802489  0.500197933  0.550584061
     0.498390847  0.498390852  0.649775304
     0.749926144  0.249706712  0.649462986
     0.000000000  0.750000000  0.450103461
     0.250000000  0.000000000  0.450103461
     0.000000000  0.000000000  0.350310383
     0.250000000  0.750000000  0.350310383
     0.000492848  0.750157003  0.651068122
     0.250051487  0.999948683  0.651427282
     0.000074949  0.000074944  0.550048256
     0.250303439  0.749994628  0.550095432
     0.000000000  0.250000000  0.450103461
     0.250000000  0.500000000  0.450103461
     0.000000000  0.500000000  0.350310383
     0.250000000  0.250000000  0.350310383
     0.999948677  0.250051489  0.651427265
     0.249507344  0.499843384  0.651068059
     0.999696612  0.500005653  0.550095444
     0.249925156  0.249925155  0.550048288
     0.500000000  0.750000000  0.450103461
     0.750000000  0.000000000  0.450103461
     0.500000000  0.000000000  0.350310383
     0.750000000  0.750000000  0.350310383
     0.500218844  0.749781368  0.652186552
     0.750157005  0.000492840  0.651068120
     0.500005643  0.999696608  0.550095447
     0.749959505  0.749959506  0.550250793
     0.500000000  0.250000000  0.450103461
     0.750000000  0.500000000  0.450103461
     0.500000000  0.500000000  0.350310383
     0.750000000  0.250000000  0.350310383
     0.499843390  0.249507343  0.651068057
     0.749781364  0.500218864  0.652186559
     0.500040711  0.500040716  0.550250721
     0.749994620  0.250303442  0.550095433

  ion indices of the primitive-cell ions
   primitive index   ion index
                 1           1
                 2           2
                 3           3
                 4           4
                 5           5
                 6           6
                 7           7
                 8           8
                 9           9
                10          10
                11          11
                12          12
                13          13
                14          14
                15          15
                16          16
                17          17
                18          18
                19          19
                20          20
                21          21
                22          22
                23          23
                24          24
                25          25
                26          26
                27          27
                28          28
                29          29
                30          30
                31          31
                32          32
                33          33
                34          34
                35          35
                36          36
                37          37
                38          38
                39          39
                40          40
                41          41
                42          42
                43          43
                44          44
[...]
   0.25000000  0.50000000  0.45010346
   0.00000000  0.50000000  0.35031038
   0.25000000  0.25000000  0.35031038
   0.99994868  0.25005149  0.65142727
   0.24950734  0.49984338  0.65106806
   0.99969661  0.50000565  0.55009544
   0.24992516  0.24992515  0.55004829
   0.50000000  0.75000000  0.45010346
   0.75000000  0.00000000  0.45010346
   0.50000000  0.00000000  0.35031038
   0.75000000  0.75000000  0.35031038
   0.50021884  0.74978137  0.65218655
   0.75015701  0.00049284  0.65106812
   0.50000564  0.99969661  0.55009545
   0.74995951  0.74995951  0.55025079
   0.50000000  0.25000000  0.45010346
   0.75000000  0.50000000  0.45010346
   0.50000000  0.50000000  0.35031038
   0.75000000  0.25000000  0.35031038
   0.49984339  0.24950734  0.65106806
   0.74978136  0.50021886  0.65218656
   0.50004071  0.50004072  0.55025072
   0.74999462  0.25030344  0.55009543

 position of ions in cartesian coordinates  (Angst):
   0.00000000  6.40958522  7.50000000
   2.13652841  0.00000000  7.50000000
   0.00000000  0.00000000  9.63652841
   2.13652841  6.40958522  9.63652841
   0.00108021  6.40997390 11.78307319
   2.13670102  8.54594164 11.78317243
   0.00131194  0.00131190 13.90683046
   2.13402188  6.40895409 13.90473331
   0.00000000  2.13652841  7.50000000
   2.13652841  4.27305681  7.50000000
   0.00000000  4.27305681  9.63652841
   2.13652841  2.13652841  9.63652841
   8.54594173  2.13670094 11.78317240
   2.13544700  4.27267093 11.78307309
   0.00250758  4.27369211 13.90473386
   2.13521774  2.13521782 13.90683007
   4.27305681  6.40958522  7.50000000
   6.40958522  0.00000000  7.50000000
   4.27305681  0.00000000  9.63652841
   6.40958522  6.40958522  9.63652841
   4.27474831  6.40789734 11.78777643
   6.40997383  0.00108019 11.78307329
   4.27369199  0.00250756 13.90473407
   6.42333987  6.42333978 13.91143179
   4.27305681  2.13652841  7.50000000
   6.40958522  4.27305681  7.50000000
   4.27305681  4.27305681  9.63652841
   6.40958522  2.13652841  9.63652841
   4.27267082  2.13544697 11.78307311
   6.40789727  4.27474837 11.78777638
   4.25930481  4.25930485 13.91141975
   6.40895403  2.13402194 13.90473314
   0.00000000  6.40958522  9.63652841
   2.13652841  0.00000000  9.63652841
   0.00000000  0.00000000  7.50000000
   2.13652841  6.40958522  7.50000000
   0.00421193  6.41092699 13.93909844
   2.13696842  8.54567506 13.94678790
   0.00064053  0.00064048 11.77630502
   2.13912163  6.40953931 11.77731503
   0.00000000  2.13652841  9.63652841
   2.13652841  4.27305681  9.63652841
   0.00000000  4.27305681  7.50000000
   2.13652841  2.13652841  7.50000000
   8.54567501  2.13696844 13.94678755
   2.13231811  4.27171836 13.93909709
   8.54352083  4.27310512 11.77731528
   2.13588878  2.13588877 11.77630571
   4.27305681  6.40958522  9.63652841
   6.40958522  0.00000000  9.63652841
   4.27305681  0.00000000  7.50000000
   6.40958522  6.40958522  7.50000000
   4.27492708  6.40771676 13.96304356
   6.41092700  0.00421186 13.93909839
   4.27310504  8.54352080 11.77731535
   6.40923915  6.40923915 11.78064125
   4.27305681  2.13652841  9.63652841
   6.40958522  4.27305681  9.63652841
   4.27305681  4.27305681  7.50000000
   6.40958522  2.13652841  7.50000000
   4.27171840  2.13231810 13.93909704
   6.40771673  4.27492725 13.96304372
   4.27340473  4.27340478 11.78063970
   6.40953924  2.13912166 11.77731505

--------------------------------------- Iteration      FINAL  ---------------------------------------

--------------------OUTCAR has been truncated-------------------------

[...]

--------------------OUTCAR has been truncated-------------------------

  DFT-D2 method for vdW energy calculation

  Parameters of vdW forcefield:
         C6(Jnm^6/mol)     R0(A)
   Mg       0.630          1.243
   O        0.700          1.342

  vdW correction parametrized for the method ü!ÿ      

  IVDW =   1
  VDW_RADIUS =    50.000 A
  VDW_S6 =     1.050
  VDW_SR =     1.000
  VDW_D =    20.000
  LVDW_EWALD = F

  Number of pair interactions contributing to vdW energy:  705300
  Edisp (eV):   -4.83075

 VOLUME and BASIS-vectors are now :
  energy-cutoff  :      600.00
  volume of cell :     1563.67
      direct lattice vectors                 reciprocal lattice vectors
     8.546113626  0.000000000  0.000000000     0.117012252  0.000000000  0.000000000
     0.000000000  8.546113626  0.000000000     0.000000000  0.117012252  0.000000000
     0.000000000  0.000000000 21.409585219     0.000000000  0.000000000  0.046708051

  length of vectors
     8.546113626  8.546113626 21.409585219     0.117012252  0.117012252  0.046708051

 FORCES acting on ions:
    Electron-Ion                     Ewald-Force                    Non-Local-Force
   0.700E-01 0.594E-01 0.201E+04   -.711E-01 -.606E-01 -.200E+04   0.753E-03 0.784E-03 -.633E+01
   -.599E-01 0.598E-01 0.201E+04   0.612E-01 -.612E-01 -.200E+04   -.882E-03 0.899E-03 -.634E+01
   0.189E+00 0.189E+00 0.665E+03   -.177E+00 -.177E+00 -.665E+03   -.805E-02 -.802E-02 0.397E+00
   -.378E+00 0.170E+00 0.665E+03   0.424E+00 -.161E+00 -.665E+03   -.286E-01 -.617E-02 0.409E+00
   0.635E+00 0.521E+00 -.667E+03   -.667E+00 -.523E+00 0.667E+03   0.206E-01 0.847E-03 -.289E+00
   -.519E+00 0.518E+00 -.669E+03   0.522E+00 -.521E+00 0.669E+03   0.520E-03 -.504E-03 -.217E+00
   -.267E+00 -.267E+00 -.200E+04   0.392E+00 0.392E+00 0.199E+04   -.848E-01 -.848E-01 0.559E+01
   -.281E+01 -.540E-01 -.199E+04   0.289E+01 0.169E+00 0.199E+04   -.863E-02 -.801E-01 0.551E+01
   0.599E-01 -.599E-01 0.201E+04   -.612E-01 0.612E-01 -.200E+04   0.894E-03 -.905E-03 -.634E+01
   -.700E-01 -.594E-01 0.201E+04   0.711E-01 0.606E-01 -.200E+04   -.742E-03 -.774E-03 -.633E+01
   0.378E+00 -.170E+00 0.665E+03   -.423E+00 0.161E+00 -.665E+03   0.286E-01 0.613E-02 0.409E+00
   -.189E+00 -.189E+00 0.665E+03   0.177E+00 0.177E+00 -.665E+03   0.803E-02 0.804E-02 0.397E+00
   0.518E+00 -.519E+00 -.669E+03   -.521E+00 0.522E+00 0.669E+03   -.513E-03 0.514E-03 -.217E+00
   -.636E+00 -.520E+00 -.667E+03   0.668E+00 0.523E+00 0.667E+03   -.205E-01 -.856E-03 -.289E+00
   0.281E+01 0.550E-01 -.199E+04   -.289E+01 -.170E+00 0.199E+04   0.861E-02 0.800E-01 0.551E+01
   0.266E+00 0.266E+00 -.200E+04   -.391E+00 -.391E+00 0.199E+04   0.848E-01 0.848E-01 0.559E+01
   -.672E-01 0.672E-01 0.201E+04   0.691E-01 -.692E-01 -.200E+04   -.129E-02 0.130E-02 -.635E+01
   0.594E-01 0.700E-01 0.201E+04   -.606E-01 -.711E-01 -.200E+04   0.787E-03 0.731E-03 -.633E+01
   -.170E+00 0.378E+00 0.665E+03   0.161E+00 -.423E+00 -.665E+03   0.616E-02 0.286E-01 0.409E+00
   0.370E+00 0.370E+00 0.664E+03   -.398E+00 -.398E+00 -.664E+03   0.186E-01 0.186E-01 0.447E+00
   -.825E+00 0.825E+00 -.674E+03   0.857E+00 -.858E+00 0.674E+03   -.244E-01 0.243E-01 -.191E+00
   0.521E+00 0.635E+00 -.667E+03   -.523E+00 -.667E+00 0.667E+03   0.844E-03 0.206E-01 -.289E+00
   0.549E-01 0.281E+01 -.199E+04   -.170E+00 -.289E+01 0.199E+04   0.801E-01 0.863E-02 0.551E+01
   0.444E+01 0.444E+01 -.200E+04   -.456E+01 -.456E+01 0.199E+04   -.400E-01 -.400E-01 0.551E+01
   -.594E-01 -.700E-01 0.201E+04   0.606E-01 0.711E-01 -.200E+04   -.801E-03 -.735E-03 -.633E+01
   0.672E-01 -.672E-01 0.201E+04   -.692E-01 0.691E-01 -.200E+04   0.128E-02 -.129E-02 -.635E+01
   -.370E+00 -.370E+00 0.664E+03   0.398E+00 0.398E+00 -.664E+03   -.186E-01 -.186E-01 0.447E+00
   0.170E+00 -.378E+00 0.665E+03   -.161E+00 0.424E+00 -.665E+03   -.614E-02 -.286E-01 0.409E+00
   -.520E+00 -.636E+00 -.667E+03   0.523E+00 0.668E+00 0.667E+03   -.842E-03 -.205E-01 -.289E+00
   0.825E+00 -.825E+00 -.674E+03   -.858E+00 0.857E+00 0.674E+03   0.243E-01 -.244E-01 -.191E+00
   -.444E+01 -.444E+01 -.200E+04   0.456E+01 0.456E+01 0.199E+04   0.400E-01 0.400E-01 0.551E+01
   -.540E-01 -.281E+01 -.199E+04   0.169E+00 0.289E+01 0.199E+04   -.801E-01 -.864E-02 0.551E+01
   0.263E+00 0.187E+00 0.498E+03   -.271E+00 -.191E+00 -.498E+03   0.897E-02 0.416E-02 -.712E-01
   -.189E+00 0.189E+00 0.498E+03   0.189E+00 -.189E+00 -.498E+03   0.881E-04 -.848E-04 -.925E-01
   0.385E-01 0.385E-01 0.151E+04   -.377E-01 -.377E-01 -.151E+04   -.993E-03 -.946E-03 0.315E+01
   -.583E-01 0.381E-01 0.151E+04   0.621E-01 -.373E-01 -.151E+04   -.475E-02 -.109E-02 0.315E+01
   -.522E-01 0.778E+00 -.151E+04   0.142E+00 -.864E+00 0.152E+04   -.930E-01 0.945E-01 -.431E+01
   -.593E+00 0.592E+00 -.151E+04   0.669E+00 -.668E+00 0.152E+04   -.844E-01 0.844E-01 -.444E+01
   0.683E-01 0.683E-01 -.496E+03   -.692E-01 -.691E-01 0.496E+03   -.196E-02 -.195E-02 0.271E+00
   -.102E+01 0.441E-01 -.496E+03   0.106E+01 -.369E-01 0.496E+03   -.519E-01 -.100E-01 0.316E+00
   0.189E+00 -.189E+00 0.498E+03   -.189E+00 0.189E+00 -.498E+03   -.769E-04 0.795E-04 -.925E-01
   -.263E+00 -.187E+00 0.498E+03   0.271E+00 0.190E+00 -.498E+03   -.896E-02 -.414E-02 -.712E-01
   0.582E-01 -.380E-01 0.151E+04   -.621E-01 0.372E-01 -.151E+04   0.480E-02 0.104E-02 0.315E+01
   -.385E-01 -.385E-01 0.151E+04   0.378E-01 0.378E-01 -.151E+04   0.941E-03 0.994E-03 0.315E+01
   0.592E+00 -.593E+00 -.151E+04   -.668E+00 0.669E+00 0.152E+04   0.844E-01 -.844E-01 -.444E+01
   0.517E-01 -.777E+00 -.151E+04   -.142E+00 0.863E+00 0.152E+04   0.929E-01 -.945E-01 -.431E+01
   0.102E+01 -.436E-01 -.496E+03   -.106E+01 0.364E-01 0.496E+03   0.518E-01 0.100E-01 0.316E+00
   -.687E-01 -.687E-01 -.496E+03   0.696E-01 0.696E-01 0.496E+03   0.192E-02 0.193E-02 0.271E+00
   -.222E+00 0.222E+00 0.497E+03   0.209E+00 -.209E+00 -.497E+03   0.158E-01 -.158E-01 -.143E+00
   0.187E+00 0.263E+00 0.498E+03   -.191E+00 -.271E+00 -.498E+03   0.416E-02 0.896E-02 -.712E-01
   -.381E-01 0.583E-01 0.151E+04   0.372E-01 -.621E-01 -.151E+04   0.108E-02 0.474E-02 0.315E+01
   0.562E-01 0.562E-01 0.151E+04   -.607E-01 -.607E-01 -.151E+04   0.564E-02 0.569E-02 0.315E+01
   -.170E+01 0.170E+01 -.152E+04   0.193E+01 -.193E+01 0.152E+04   -.233E+00 0.233E+00 -.465E+01
   0.778E+00 -.522E-01 -.151E+04   -.864E+00 0.142E+00 0.152E+04   0.945E-01 -.930E-01 -.431E+01
   -.437E-01 0.102E+01 -.496E+03   0.364E-01 -.106E+01 0.496E+03   0.101E-01 0.518E-01 0.316E+00
   0.109E+01 0.109E+01 -.498E+03   -.111E+01 -.111E+01 0.498E+03   0.313E-01 0.313E-01 0.251E+00
   -.187E+00 -.263E+00 0.498E+03   0.190E+00 0.271E+00 -.498E+03   -.415E-02 -.897E-02 -.712E-01
   0.222E+00 -.222E+00 0.497E+03   -.209E+00 0.209E+00 -.497E+03   -.158E-01 0.158E-01 -.143E+00
   -.561E-01 -.562E-01 0.151E+04   0.607E-01 0.607E-01 -.151E+04   -.569E-02 -.564E-02 0.315E+01
   0.381E-01 -.583E-01 0.151E+04   -.373E-01 0.621E-01 -.151E+04   -.104E-02 -.479E-02 0.315E+01
   -.777E+00 0.517E-01 -.151E+04   0.863E+00 -.142E+00 0.152E+04   -.945E-01 0.930E-01 -.431E+01
   0.170E+01 -.170E+01 -.152E+04   -.193E+01 0.193E+01 0.152E+04   0.233E+00 -.233E+00 -.465E+01
   -.108E+01 -.108E+01 -.498E+03   0.110E+01 0.110E+01 0.498E+03   -.313E-01 -.313E-01 0.251E+00
   0.441E-01 -.102E+01 -.496E+03   -.369E-01 0.106E+01 0.496E+03   -.100E-01 -.519E-01 0.316E+00
   0.274E-04 0.452E-04 0.156E+02   0.324E-12 0.178E-12 -.100E-10   -.252E-04 -.652E-04 -.137E+02

 POSITION                                       TOTAL-FORCE (eV/Angst)
      0.00000      6.40959      7.50000        -0.000292     -0.000334      0.629042
      2.13653      0.00000      7.50000         0.000347     -0.000357      0.631013
      0.00000      0.00000      9.63653         0.003098      0.003098      0.017913
      2.13653      6.40959      9.63653         0.013070      0.002280      0.022310
      0.00108      6.40997     11.78307        -0.008601     -0.001501     -0.027471
      2.13670      8.54594     11.78317         0.003257     -0.003249     -0.010891
      0.00131      0.00131     13.90683         0.029757      0.029752     -0.299444
      2.13402      6.40895     13.90473         0.069464      0.025867     -0.253225
      0.00000      2.13653      7.50000        -0.000355      0.000349      0.631187
      2.13653      4.27306      7.50000         0.000299      0.000344      0.628965
      0.00000      4.27306      9.63653        -0.013088     -0.002270      0.022293
      2.13653      2.13653      9.63653        -0.003089     -0.003105      0.017921
      8.54594      2.13670     11.78317        -0.003271      0.003241     -0.010814
      2.13545      4.27267     11.78307         0.008632      0.001493     -0.027468
      0.00251      4.27369     13.90473        -0.069462     -0.025879     -0.253207
      2.13522      2.13522     13.90683        -0.029742     -0.029743     -0.299379
      4.27306      6.40959      7.50000         0.000516     -0.000523      0.634231
      6.40959      0.00000      7.50000        -0.000316     -0.000309      0.628954
      4.27306      0.00000      9.63653        -0.002280     -0.013061      0.022317
      6.40959      6.40959      9.63653        -0.006568     -0.006577      0.027851
      4.27475      6.40790     11.78778         0.005380     -0.005389      0.016245
      6.40997      0.00108     11.78307        -0.001495     -0.008586     -0.027443
      4.27369      0.00251     13.90473        -0.025855     -0.069432     -0.253251
      6.42334      6.42334     13.91143        -0.151821     -0.151808     -0.271109
      4.27306      2.13653      7.50000         0.000331      0.000317      0.629037
      6.40959      4.27306      7.50000        -0.000525      0.000515      0.634135
      4.27306      4.27306      9.63653         0.006577      0.006554      0.027853
      6.40959      2.13653      9.63653         0.002268      0.013081      0.022319
      4.27267      2.13545     11.78307         0.001506      0.008624     -0.027464
      6.40790      4.27475     11.78778        -0.005386      0.005379      0.016184
      4.25930      4.25930     13.91142         0.151822      0.151810     -0.271065
      6.40895      2.13402     13.90473         0.025843      0.069445     -0.253208
      0.00000      6.40959      9.63653         0.002221      0.001077      0.041838
      2.13653      0.00000      9.63653         0.000260     -0.000253      0.034115
      0.00000      0.00000      7.50000        -0.000334     -0.000348     -0.272667
      2.13653      6.40959      7.50000        -0.001602     -0.000362     -0.273312
      0.00421      6.41093     13.93910        -0.015178      0.021108     -0.104508
      2.13697      8.54568     13.94679        -0.019481      0.019449     -0.161715
      0.00064      0.00064     11.77631        -0.003301     -0.003277      0.023903
      2.13912      6.40954     11.77732        -0.019702     -0.004321      0.021094
      0.00000      2.13653      9.63653        -0.000260      0.000249      0.034127
      2.13653      4.27306      9.63653        -0.002209     -0.001071      0.041841
      0.00000      4.27306      7.50000         0.001609      0.000366     -0.273321
      2.13653      2.13653      7.50000         0.000324      0.000340     -0.272691
      8.54568      2.13697     13.94679         0.019473     -0.019477     -0.161712
      2.13232      4.27172     13.93910         0.015181     -0.021075     -0.104582
      8.54352      4.27311     11.77732         0.019731      0.004301      0.021095
      2.13589      2.13589     11.77631         0.003261      0.003274      0.023891
      4.27306      6.40959      9.63653         0.004964     -0.004992      0.037043
      6.40959      0.00000      9.63653         0.001090      0.002223      0.041856
      4.27306      0.00000      7.50000         0.000346      0.001583     -0.273343
      6.40959      6.40959      7.50000         0.001946      0.001944     -0.274062
      4.27493      6.40772     13.96304        -0.036822      0.036841     -0.249452
      6.41093      0.00421     13.93910         0.021108     -0.015202     -0.104570
      4.27311      8.54352     11.77732         0.004303      0.019735      0.021093
      6.40924      6.40924     11.78064         0.016028      0.016016      0.005578
      4.27306      2.13653      9.63653        -0.001088     -0.002220      0.041868
      6.40959      4.27306      9.63653        -0.004971      0.004983      0.037052
      4.27306      4.27306      7.50000        -0.001953     -0.001932     -0.274067
      6.40959      2.13653      7.50000        -0.000359     -0.001596     -0.273351
      4.27172      2.13232     13.93910        -0.021103      0.015186     -0.104595
      6.40772      4.27493     13.96304         0.036850     -0.036812     -0.249466
      4.27340      4.27340     11.78064        -0.016051     -0.016052      0.005597
      6.40954      2.13912     11.77732        -0.004301     -0.019710      0.021089
    total drift:                                0.000077      0.000053      0.017332

  FREE ENERGIE OF THE ION-ELECTRON SYSTEM (eV)
  free  energy   TOTEN  =      -437.15168494 eV

  energy  without entropy=     -437.15168494  energy(sigma->0) =     -437.15168494