 vasp.6.4.2 20Jul23 (build Feb 22 2024 13:53:45) complex
 executed on              LinuxNV date 2024.08.30  05:41:18
 OpenACC runtime initialized ...    4 GPUs detected

 INCAR:
   SYSTEM = Oxide-Surface
   ISMEAR = 0
   SIGMA = 0.05
   EDIFF = 1E-5
   ALGO = Normal
   IBRION = -1
   NSW = 0
   ISYM = 0
   DIPOL = 0.5 0.5 0.5
   IDIPOL = 3
   LDIPOL = .TRUE.
   ISTART = 1
   LHFCALC = .TRUE.
   GGA = PE
   IVDW = 21
   VDW_SR = 0.96
   HFRCUT = -1
   ENCUT = 520
   PREC = Normal
   PRECFOCK = Normal
   LASPH = .TRUE.
   LREAL = Auto
   ISPIN = 1
   NELM = 200
   NELMIN = 8
   NCORE = 1
   KPAR = 1
   LWAVE = .FALSE.
   LCHARG = .FALSE.

 POTCAR:    PAW_PBE H 15Jun2001
 POTCAR:    PAW_PBE O 08Apr2002
 POTCAR:    PAW_PBE Ti_pv 07Sep2000
 POTCAR:    PAW_PBE O 08Apr2002
 POTCAR:    PAW_PBE H 15Jun2001
   VRHFIN =H: ultrasoft test

   TITEL  = PAW_PBE H 15Jun2001
   POMASS =    1.000; ZVAL   =    1.000    mass and valenz
   ENMAX  =  250.000; ENMIN  =  200.000 eV

   TITEL  = PAW_PBE O 08Apr2002
   POMASS =   16.000; ZVAL   =    6.000    mass and valenz
   ENMAX  =  400.000; ENMIN  =  300.000 eV

   TITEL  = PAW_PBE Ti_pv 07Sep2000
   POMASS =   47.880; ZVAL   =   10.000    mass and valenz
   ENMAX  =  222.335; ENMIN  =  166.751 eV

   TITEL  = PAW_PBE O 08Apr2002
   POMASS =   16.000; ZVAL   =    6.000    mass and valenz
   ENMAX  =  400.000; ENMIN  =  300.000 eV

 Optimization of the real space projectors (new method)

 maximal supplied QI-value         = 34.20
 optimisation between [QCUT,QGAM] = [ 11.63, 23.26] = [ 37.87,151.49] Ry
 Optimized for a Real-space Cutoff    1.14 Angstroem

   l    n(q)    QCUT    max X(q) W(low)/X(q) W(high)/X(q)  e(spline)
   0      8    11.629    19.460    0.27E-03    0.65E-03    0.17E-06
   0      8    11.629    12.209    0.25E-03    0.62E-03    0.16E-06
   1      7    11.629     4.655    0.29E-03    0.85E-04    0.19E-06
 Optimization of the real space projectors (new method)

[...]

   l    n(q)    QCUT    max X(q) W(low)/X(q) W(high)/X(q)  e(spline)
   1     10    11.641     4.216    0.33E-04    0.72E-04    0.48E-07
   1     10    11.641     5.422    0.11E-03    0.20E-03    0.10E-06
   2      9    11.641    72.084    0.36E-03    0.27E-03    0.57E-06
   2      9    11.641    65.965    0.35E-03    0.27E-03    0.57E-06
   0     10    11.641    41.531    0.11E-03    0.93E-04    0.16E-06
   0     10    11.641    16.290    0.82E-04    0.72E-04    0.13E-06
 Optimization of the real space projectors (new method)

 maximal supplied QI-value         = 24.76
 optimisation between [QCUT,QGAM] = [ 11.64, 23.27] = [ 37.91,151.63] Ry
 Optimized for a Real-space Cutoff    1.04 Angstroem

   l    n(q)    QCUT    max X(q) W(low)/X(q) W(high)/X(q)  e(spline)
   0      7    11.635    20.381    0.14E-03    0.49E-03    0.18E-06
   0      7    11.635    15.268    0.16E-03    0.52E-03    0.19E-06
   1      7    11.635     5.964    0.30E-03    0.44E-03    0.22E-06
   1      7    11.635     5.382    0.27E-03    0.34E-03    0.19E-06
  PAW_PBE H 15Jun2001                   :
  PAW_PBE O 08Apr2002                   :
  PAW_PBE Ti_pv 07Sep2000               :
  PAW_PBE O 08Apr2002                   :

 POSCAR:  H  O Ti  O
  positions in direct lattice
 exchange correlation table for  LEXCH =        8
   RHO(1)=    0.500       N(1)  =     2000
   RHO(2)=  100.500       N(2)  =     4000

 ion  position               nearest neighbor table
   1  0.557  0.550  0.840-   3 0.97
   2  0.660  0.496  0.817-   3 1.00
   3  0.584  0.491  0.817-   1 0.97   2 1.00  83 2.23
   4  0.796  0.625  0.211-  85 1.95 145 1.95 144 1.95  84 1.95  87 1.98 166 1.98  14 2.96  34 2.96

   5  0.046  0.750  0.211-  86 1.95  87 1.95 106 1.95 107 1.95  88 1.98  35 2.96  15 2.96
   6  0.046  0.625  0.341-  88 1.95 148 1.95  89 1.95 149 1.95  90 1.98  91 1.98  16 2.96  36 2.96

[...]

  84  0.796  0.750  0.160-   4 1.95  14 1.95
  85  0.796  0.750  0.262-   4 1.95  14 1.95   7 1.98
  86  0.144  0.625  0.211-   5 1.95  35 1.95  44 1.98
  87  0.948  0.625  0.211-   5 1.95  35 1.95   4 1.98
  88  0.046  0.750  0.290-   6 1.95  16 1.95   5 1.98
  89  0.046  0.750  0.392-   6 1.95  16 1.95   9 1.98
  90  0.894  0.625  0.341-   7 1.95  37 1.95   6 1.98
  91  0.198  0.625  0.341-  47 1.95  77 1.95   6 1.98
  92  0.796  0.750  0.420-   8 1.95  18 1.95   7 1.98
  93  0.796  0.750  0.522-   8 1.95  18 1.95  11 2.10
  94  0.144  0.625  0.471-   9 1.95  39 1.95  48 1.98
  95  0.948  0.625  0.471-   9 1.95  39 1.95   8 1.98
  96  0.047  0.750  0.551-  20 1.90  10 1.90   9 2.00
  97  0.047  0.750  0.653-  13 1.81  10 2.02  20 2.02
  98  0.898  0.625  0.601-  11 1.93  41 1.93  10 2.03
  99  0.197  0.625  0.602-  10 1.87  51 2.02  81 2.02
 100  0.801  0.751  0.680-  11 1.87  12 2.08  22 2.09
 101  0.796  0.749  0.783-  12 1.83  22 1.84
 102  0.142  0.625  0.738-  43 1.94  13 1.95  52 2.03
 103  0.954  0.624  0.740-  43 1.95  13 1.96  12 2.02
 104  0.796  0.000  0.160-  14 1.95  24 1.95
 105  0.796  0.000  0.262-  14 1.95  24 1.95  17 1.98
 106  0.144  0.875  0.211-   5 1.95  15 1.95  54 1.98
 107  0.948  0.875  0.211-   5 1.95  15 1.95  14 1.98
 108  0.046  0.000  0.290-  16 1.95  26 1.95  15 1.98
 109  0.046  0.000  0.392-  16 1.95  26 1.95  19 1.98
 110  0.894  0.875  0.341-   7 1.95  17 1.95  16 1.98
 111  0.198  0.875  0.341-  47 1.95  57 1.95  16 1.98
 112  0.796  0.000  0.420-  18 1.95  28 1.95  17 1.98
 113  0.796  0.000  0.522-  18 1.95  28 1.95  21 2.10
 114  0.144  0.875  0.471-   9 1.95  19 1.95  58 1.98
 115  0.948  0.875  0.471-   9 1.95  19 1.95  18 1.98
 116  0.047  1.000  0.551-  30 1.90  20 1.90  19 2.00
 117  0.047  1.000  0.653-  23 1.81  20 2.02  30 2.02
 118  0.897  0.875  0.602-  21 1.93  11 1.93  20 2.04
 119  0.197  0.875  0.602-  20 1.87  51 2.02  61 2.02
 120  0.798  1.000  0.681-  21 1.87  32 2.09  22 2.10
 121  0.797  1.000  0.784-  32 1.83  22 1.84
 122  0.142  0.875  0.738-  13 1.94  23 1.95  62 2.04
 123  0.954  0.875  0.739-  13 1.94  23 1.95  22 2.04
 124  0.796  0.250  0.160-  24 1.95  34 1.95
 125  0.796  0.250  0.262-  24 1.95  34 1.95  27 1.98
 126  0.144  0.125  0.211-  15 1.95  25 1.95  64 1.98
 127  0.948  0.125  0.211-  15 1.95  25 1.95  24 1.98
 128  0.046  0.250  0.290-  26 1.95  36 1.95  25 1.98
 129  0.046  0.250  0.392-  26 1.95  36 1.95  29 1.98
 130  0.894  0.125  0.341-  17 1.95  27 1.95  26 1.98
 131  0.198  0.125  0.341-  57 1.95  67 1.95  26 1.98
 132  0.796  0.250  0.420-  28 1.95  38 1.95  27 1.98
 133  0.796  0.250  0.522-  28 1.95  38 1.95  31 2.10
 134  0.144  0.125  0.471-  19 1.95  29 1.95  68 1.98
 135  0.948  0.125  0.471-  19 1.95  29 1.95  28 1.98
 136  0.047  0.250  0.551-  40 1.90  30 1.90  29 2.00
 137  0.047  0.250  0.653-  33 1.81  40 2.02  30 2.02
 138  0.897  0.125  0.602-  21 1.93  31 1.93  30 2.04
 139  0.197  0.125  0.602-  30 1.87  61 2.02  71 2.02
 140  0.800  0.250  0.680-  31 1.87  42 2.07  32 2.10
 141  0.796  0.251  0.783-  42 1.83  32 1.84
 142  0.142  0.125  0.738-  33 1.94  23 1.95  72 2.04
 143  0.953  0.125  0.739-  33 1.94  23 1.95  32 2.04
[...]
 229  0.546  0.500  0.392-  46 1.95  76 1.95  79 1.98
 230  0.394  0.375  0.341-  67 1.95  77 1.95  76 1.98
 231  0.698  0.375  0.341-  27 1.95  37 1.95  76 1.98
 232  0.296  0.500  0.420-  48 1.95  78 1.95  77 1.98
 233  0.296  0.500  0.522-  48 1.95  78 1.95  81 2.11
 234  0.644  0.375  0.471-  69 1.95  79 1.95  38 1.98
 235  0.448  0.375  0.471-  69 1.95  79 1.95  78 1.98
 236  0.548  0.500  0.551-  50 1.90  80 1.90  79 2.00
 237  0.546  0.500  0.654-  83 1.89  50 1.99  80 1.99
 238  0.397  0.375  0.602-  71 1.92  81 1.93  80 2.04
 239  0.698  0.375  0.603-  80 1.87  31 2.02  41 2.02
 240  0.298  0.500  0.681-  81 1.86  52 2.09  82 2.10
 241  0.299  0.500  0.784-  82 1.84  52 1.84
 242  0.644  0.372  0.733-  73 1.92  83 1.96  42 2.02
 243  0.454  0.374  0.737-  83 1.93  73 1.94  82 2.03

IMPORTANT INFORMATION: All symmetrisations will be switched off!
NOSYMM: (Re-)initialisation of all symmetry stuff for point group C_1.

                                     Primitive cell

  volume of cell :    3846.0501

  direct lattice vectors                    reciprocal lattice vectors
    13.003980404  0.000000000  0.000000000     0.076899531  0.000000000  0.000000000
     0.000000000 11.830378115  0.000000000     0.000000000  0.084528152  0.000000000
     0.000000000  0.000000000 25.000000000     0.000000000  0.000000000  0.040000000

  length of vectors
    13.003980404 11.830378115 25.000000000     0.076899531  0.084528152  0.040000000

  position of ions in fractional coordinates (direct lattice)
     0.557344291  0.549757631  0.840085132
     0.660249560  0.496094975  0.817011996
     0.583830190  0.491132145  0.816593541
     0.796469805  0.625012682  0.210890236
     0.046469805  0.750012682  0.210890236
     0.046469805  0.625012682  0.340930040
     0.796469805  0.750012682  0.340930040
     0.796469805  0.625012682  0.470969844
     0.046469805  0.750012682  0.470969844
     0.053623656  0.625026990  0.598131909
     0.802773807  0.750088464  0.605722728
     0.798114496  0.625575600  0.738920944
     0.047264667  0.750185234  0.725389851
     0.796469805  0.875012682  0.210890236
     0.046469805  0.000012682  0.210890236
     0.046469805  0.875012682  0.340930040
     0.796469805  0.000012682  0.340930040
     0.796469805  0.875012682  0.470969844
     0.046469805  0.000012682  0.470969844
     0.053747774  0.875000886  0.598216515
     0.802293775  0.999949401  0.606062736
     0.797028260  0.874814460  0.740091583
     0.047442171  0.999873346  0.725337059
     0.796469805  0.125012682  0.210890236
     0.046469805  0.250012682  0.210890236
     0.046469805  0.125012682  0.340930040
     0.796469805  0.250012682  0.340930040
     0.796469805  0.125012682  0.470969844
     0.046469805  0.250012682  0.470969844
     0.053768063  0.124930326  0.598191771
     0.802754763  0.249821140  0.605692176
     0.796924074  0.124177669  0.740077984
     0.047361621  0.249559835  0.725368873
     0.796469805  0.375012682  0.210890236
     0.046469805  0.500012682  0.210890236
     0.046469805  0.375012682  0.340930040
     0.796469805  0.500012682  0.340930040
     0.796469805  0.375012682  0.470969844
     0.046469805  0.500012682  0.470969844
     0.053648518  0.374955751  0.598133362
     0.803033051  0.499971001  0.605916512
     0.798652412  0.373387703  0.738962983
     0.048099410  0.500010489  0.725307002
     0.296469805  0.625012682  0.210890236
     0.546469805  0.750012682  0.210890236
     0.546469805  0.625012682  0.340930040
     0.296469805  0.750012682  0.340930040
     0.296469805  0.625012682  0.470969844
     0.546469805  0.750012682  0.470969844
     0.553789888  0.622920794  0.599533192
     0.302783524  0.749876682  0.606056658
     0.297794688  0.625086510  0.740151961
     0.547996109  0.750059170  0.723945844
     0.296469805  0.875012682  0.210890236
     0.546469805  0.000012682  0.210890236
     0.546469805  0.875012682  0.340930040
     0.296469805  0.000012682  0.340930040
     0.296469805  0.875012682  0.470969844
     0.546469805  0.000012682  0.470969844
     0.553557721  0.874100632  0.597032342
[...]
     0.546469805  0.500012682  0.391905408
[...]
     0.000000000  0.000000000 25.000000000     0.000000000  0.000000000  0.040000000

  length of vectors
    13.003980404 11.830378115 25.000000000     0.076899531  0.084528152  0.040000000

 FORCES acting on ions
    electron-ion (+dipol)            ewald-force                    non-local-force                 convergence-correction
   0.345E+02 -.620E+02 -.315E+03   -.376E+02 0.676E+02 0.320E+03   0.308E+01 -.571E+01 -.497E+01   0.330E-03 -.228E-03 -.204E-01
   -.639E+02 -.245E+01 -.306E+03   0.713E+02 0.265E+01 0.306E+03   -.751E+01 -.244E+00 0.263E-02   0.338E-03 0.184E-03 -.204E-01
   0.531E+02 0.398E+02 -.180E+04   -.720E+02 -.722E+02 0.178E+04   0.165E+02 0.283E+02 0.124E+02   0.153E-02 0.241E-02 -.122E+00
   -.919E+00 -.378E+00 0.281E+04   0.919E+00 0.379E+00 -.281E+04   -.121E-03 0.641E-02 0.608E+00   -.148E-03 -.449E-04 0.167E+00
   -.223E+00 -.399E+00 0.299E+04   0.226E+00 0.401E+00 -.298E+04   -.934E-02 0.499E-03 -.415E+01   -.188E-03 -.131E-03 0.168E+00
   -.180E+00 -.101E+00 0.144E+04   0.187E+00 0.101E+00 -.144E+04   -.588E-02 -.172E-02 -.843E-01   -.321E-04 -.147E-04 0.129E+00
   -.493E+00 -.992E-01 0.143E+04   0.483E+00 0.997E-01 -.143E+04   -.181E-01 -.153E-02 0.244E+00   0.248E-04 -.218E-04 0.128E+00
   -.134E+01 -.133E+00 -.659E+01   0.130E+01 0.114E+00 0.739E+01   0.111E-01 -.780E-02 -.151E+00   0.103E-03 0.548E-04 0.428E-01
   0.153E+01 -.670E+00 0.201E+01   -.152E+01 0.675E+00 -.325E+01   -.311E-01 -.149E-02 0.373E+00   0.316E-04 0.158E-04 0.402E-01
   0.137E+02 -.183E+01 -.140E+04   -.137E+02 0.184E+01 0.140E+04   -.912E-01 -.104E-01 0.237E+00   0.395E-03 0.404E-04 -.543E-01
   0.381E+01 -.713E+01 -.143E+04   -.375E+01 0.714E+01 0.143E+04   -.150E+00 -.294E-02 -.278E+00   -.323E-03 0.107E-03 -.614E-01
   -.686E+02 -.171E+02 -.274E+04   0.684E+02 0.171E+02 0.274E+04   0.196E+00 0.105E+00 -.291E+00   -.575E-03 0.262E-03 -.156E+00
   -.517E+01 -.228E+01 -.284E+04   0.523E+01 0.232E+01 0.284E+04   -.579E-01 -.361E-01 0.126E+01   -.192E-03 -.847E-04 -.149E+00
   -.776E+00 -.381E+00 0.281E+04   0.775E+00 0.385E+00 -.281E+04   -.374E-03 -.957E-02 0.609E+00   -.123E-03 -.191E-03 0.167E+00
   -.198E+00 -.592E-02 0.299E+04   0.201E+00 0.736E-02 -.298E+04   0.383E-01 0.679E-03 -.414E+01   -.169E-03 -.750E-04 0.168E+00
   -.145E+00 -.115E+00 0.144E+04   0.151E+00 0.115E+00 -.144E+04   -.587E-02 0.317E-02 -.843E-01   -.393E-04 -.235E-04 0.129E+00
   -.573E+00 -.164E-01 0.143E+04   0.562E+00 0.162E-01 -.143E+04   0.176E-01 -.249E-02 0.245E+00   0.212E-04 -.289E-04 0.128E+00
   -.267E+01 -.471E+00 -.754E+01   0.265E+01 0.496E+00 0.835E+01   0.947E-02 0.479E-02 -.158E+00   0.617E-04 0.322E-04 0.429E-01
   0.193E+01 -.332E-01 0.117E+01   -.192E+01 0.298E-01 -.240E+01   0.588E-02 0.211E-02 0.376E+00   0.280E-04 -.161E-04 0.402E-01
   0.166E+02 -.146E+01 -.141E+04   -.166E+02 0.147E+01 0.141E+04   -.105E+00 -.582E-02 0.246E+00   0.369E-03 -.167E-04 -.544E-01
   0.556E+01 0.328E-01 -.144E+04   -.548E+01 -.277E-01 0.144E+04   -.166E+00 -.364E-02 -.292E+00   -.343E-03 -.752E-04 -.617E-01
   -.153E+02 -.164E+02 -.277E+04   0.153E+02 0.164E+02 0.277E+04   0.589E-01 -.584E-02 -.414E+00   -.230E-03 -.526E-03 -.158E+00
   -.461E+01 0.308E+00 -.284E+04   0.459E+01 -.303E+00 0.284E+04   0.458E-01 -.242E-02 0.127E+01   -.203E-03 -.150E-03 -.149E+00
   -.772E+00 0.371E+00 0.281E+04   0.771E+00 -.372E+00 -.281E+04   0.342E-03 0.647E-02 0.609E+00   -.116E-03 0.551E-04 0.167E+00
   -.226E+00 0.399E+00 0.299E+04   0.229E+00 -.401E+00 -.298E+04   -.934E-02 0.103E-02 -.415E+01   -.178E-03 0.129E-03 0.168E+00
   -.145E+00 0.103E+00 0.144E+04   0.152E+00 -.103E+00 -.144E+04   -.588E-02 -.177E-02 -.841E-01   -.266E-04 -.326E-05 0.129E+00
   -.473E+00 0.986E-01 0.143E+04   0.464E+00 -.991E-01 -.143E+04   -.182E-01 -.154E-02 0.245E+00   0.156E-04 0.257E-04 0.128E+00
   -.261E+01 0.391E+00 -.754E+01   0.258E+01 -.423E+00 0.834E+01   0.752E-02 -.674E-02 -.153E+00   0.619E-04 -.559E-04 0.429E-01
   0.156E+01 0.647E+00 0.201E+01   -.155E+01 -.650E+00 -.326E+01   -.315E-01 0.287E-02 0.374E+00   0.315E-04 -.124E-04 0.402E-01
   0.173E+02 0.153E+01 -.141E+04   -.173E+02 -.154E+01 0.141E+04   -.103E+00 0.413E-02 0.245E+00   0.377E-03 -.630E-04 -.545E-01
   0.361E+01 0.682E+01 -.143E+04   -.355E+01 -.682E+01 0.143E+04   -.154E+00 0.181E-03 -.284E+00   -.293E-03 -.754E-04 -.615E-01
   -.155E+02 0.142E+02 -.277E+04   0.154E+02 -.142E+02 0.277E+04   0.645E-01 -.170E-02 -.411E+00   -.786E-04 0.128E-03 -.158E+00
   -.465E+01 0.216E+01 -.284E+04   0.471E+01 -.220E+01 0.284E+04   -.549E-01 0.260E-01 0.126E+01   -.176E-03 0.565E-04 -.149E+00
   -.915E+00 0.387E+00 0.281E+04   0.914E+00 -.392E+00 -.281E+04   -.457E-03 -.941E-02 0.609E+00   -.133E-03 0.175E-03 0.167E+00
   -.252E+00 0.599E-02 0.299E+04   0.255E+00 -.746E-02 -.298E+04   0.382E-01 0.102E-02 -.415E+01   -.192E-03 0.787E-04 0.168E+00
   -.181E+00 0.112E+00 0.144E+04   0.188E+00 -.113E+00 -.144E+04   -.595E-02 0.315E-02 -.843E-01   -.223E-04 0.533E-04 0.129E+00
   -.397E+00 0.170E-01 0.143E+04   0.387E+00 -.168E-01 -.143E+04   0.174E-01 -.254E-02 0.244E+00   0.237E-04 0.172E-04 0.128E+00
   -.125E+01 0.221E+00 -.669E+01   0.120E+01 -.195E+00 0.748E+01   0.138E-01 0.438E-02 -.155E+00   0.106E-03 -.264E-04 0.428E-01
   0.137E+01 -.840E-02 0.285E+01   -.136E+01 0.810E-02 -.410E+01   0.481E-02 0.108E-02 0.377E+00   0.478E-04 0.164E-04 0.401E-01
   0.142E+02 0.191E+01 -.140E+04   -.141E+02 -.191E+01 0.140E+04   -.916E-01 0.526E-02 0.242E+00   0.379E-03 0.261E-04 -.544E-01
   0.254E+01 -.191E-01 -.142E+04   -.243E+01 0.179E-01 0.142E+04   -.215E+00 -.166E-02 -.302E+00   -.284E-03 0.361E-04 -.614E-01
   -.686E+02 0.138E+02 -.274E+04   0.684E+02 -.137E+02 0.274E+04   0.136E+00 -.131E+00 -.275E+00   -.451E-03 0.799E-04 -.156E+00
   -.728E+01 0.248E+00 -.284E+04   0.726E+01 -.251E+00 0.284E+04   0.462E-01 0.327E-03 0.118E+01   -.128E-03 0.183E-03 -.149E+00
   0.905E+00 -.331E+00 0.281E+04   -.905E+00 0.331E+00 -.281E+04   -.277E-03 0.644E-02 0.608E+00   0.162E-03 -.453E-04 0.167E+00
   0.235E+00 -.618E+00 0.299E+04   -.238E+00 0.622E+00 -.298E+04   -.826E-02 0.186E-03 -.416E+01   0.184E-03 -.183E-03 0.167E+00
   0.313E+00 0.614E-01 0.144E+04   -.320E+00 -.494E-01 -.144E+04   -.346E-02 -.423E-02 -.885E-01   0.233E-04 0.149E-04 0.129E+00
   0.364E+00 -.489E-01 0.143E+04   -.354E+00 0.493E-01 -.143E+04   -.225E-01 -.158E-02 0.240E+00   -.157E-04 -.174E-04 0.128E+00
   -.635E-01 0.992E-01 -.878E+01   0.123E+00 -.114E+00 0.964E+01   -.124E-01 -.795E-02 -.163E+00   -.149E-03 0.146E-04 0.429E-01
   0.349E+01 0.105E+01 0.530E+01   -.352E+01 -.114E+01 -.634E+01   -.269E-01 0.374E-01 0.295E+00   -.360E-04 0.791E-04 0.400E-01
   0.211E+02 -.115E+02 -.139E+04   -.210E+02 0.116E+02 0.139E+04   -.112E+00 -.201E-01 0.166E+00   0.332E-03 0.626E-04 -.551E-01
   0.183E+02 -.493E+01 -.144E+04   -.182E+02 0.491E+01 0.144E+04   -.159E+00 0.118E-01 -.279E+00   -.518E-03 0.255E-04 -.617E-01
   0.368E+02 -.141E+02 -.275E+04   -.369E+02 0.141E+02 0.275E+04   0.566E-01 0.139E-01 -.447E+00   0.589E-03 -.122E-03 -.157E+00
   0.198E+02 -.547E+02 -.280E+04   -.196E+02 0.547E+02 0.280E+04   -.172E+00 0.174E-02 0.135E+01   0.151E-03 -.442E-03 -.146E+00
   0.766E+00 -.340E+00 0.281E+04   -.765E+00 0.344E+00 -.281E+04   -.112E-02 -.955E-02 0.609E+00   0.125E-03 -.150E-03 0.168E+00
   0.207E+00 -.111E-01 0.299E+04   -.210E+00 0.139E-01 -.298E+04   0.393E-01 0.480E-03 -.415E+01   0.169E-03 -.943E-04 0.167E+00
   0.282E+00 0.108E-01 0.144E+04   -.289E+00 -.943E-02 -.144E+04   -.343E-02 0.236E-02 -.888E-01   0.268E-04 -.286E-04 0.129E+00
   0.438E+00 -.187E-01 0.143E+04   -.429E+00 0.187E-01 -.143E+04   0.132E-01 -.248E-02 0.241E+00   -.126E-04 -.294E-04 0.128E+00
   0.100E+01 -.255E-01 -.903E+01   -.960E+00 0.295E-01 0.988E+01   -.513E-02 0.615E-02 -.166E+00   -.939E-04 0.174E-04 0.429E-01
   0.306E+01 -.241E+00 0.835E+01   -.310E+01 0.238E+00 -.959E+01   0.178E-01 0.142E-02 0.322E+00   -.345E-04 -.146E-04 0.401E-01
   0.176E+02 -.104E+02 -.138E+04   -.175E+02 0.104E+02 0.138E+04   -.106E+00 0.804E-02 0.958E-01   0.414E-03 0.317E-04 -.536E-01
[...]
   -.529E+02 0.828E-02 0.860E+03   0.571E+02 -.923E-02 -.860E+03   -.336E+01 -.271E-02 0.170E+00   0.192E-03 0.883E-05 0.774E-01
   0.530E+02 0.227E-01 0.860E+03   -.572E+02 -.234E-01 -.860E+03   0.337E+01 0.425E-02 0.174E+00   -.176E-03 0.178E-04 0.773E-01
   -.266E-02 0.342E-01 0.386E+03   0.272E-01 -.347E-01 -.391E+03   -.363E-01 0.120E-02 0.396E+01   -.501E-04 0.466E-05 0.481E-01
   0.247E+01 0.198E+00 -.413E+03   -.278E+01 -.193E+00 0.421E+03   0.259E+00 -.847E-02 -.681E+01   -.159E-03 0.833E-05 0.169E-02
   -.544E+02 -.333E+00 0.263E+01   0.594E+02 0.329E+00 -.290E+01   -.488E+01 0.104E-01 0.272E+00   0.116E-03 -.142E-04 0.249E-01
   0.553E+02 -.420E+00 -.306E+00   -.603E+02 0.413E+00 0.988E-01   0.492E+01 0.241E-01 0.234E+00   -.154E-03 -.130E-04 0.249E-01
   0.121E+02 0.596E+00 -.445E+03   -.133E+02 -.692E+00 0.437E+03   0.105E+01 0.940E-01 0.645E+01   0.115E-03 0.113E-04 -.117E-01
   0.195E+02 -.189E+01 -.120E+04   -.210E+02 0.196E+01 0.120E+04   0.130E+01 -.582E-01 -.115E+01   0.122E-03 0.720E-04 -.561E-01
   -.491E+02 0.197E+01 -.835E+03   0.557E+02 -.203E+01 0.834E+03   -.584E+01 0.454E-01 0.126E+01   -.495E-03 0.264E-04 -.346E-01
   0.991E+00 0.406E+01 -.844E+03   -.873E+00 -.422E+01 0.844E+03   -.652E-01 0.142E+00 0.390E+00   0.282E-03 0.934E-05 -.349E-01
   0.184E+02 -.539E+00 -.134E+04   -.188E+02 0.514E+00 0.135E+04   0.364E+00 0.148E-01 -.212E+01   -.471E-05 0.109E-03 -.682E-01
   0.369E+02 0.606E+00 -.202E+04   -.367E+02 -.670E+00 0.204E+04   -.188E+00 0.590E-01 -.196E+02   0.103E-02 0.362E-03 -.115E+00
   -.469E+02 0.418E+02 -.164E+04   0.534E+02 -.415E+02 0.164E+04   -.583E+01 -.268E+00 -.598E+00   0.433E-03 0.344E-04 -.921E-01
   0.629E+02 0.336E+02 -.171E+04   -.696E+02 -.338E+02 0.171E+04   0.597E+01 0.802E-01 -.314E+01   -.221E-03 0.408E-03 -.945E-01
   0.159E+02 -.276E+02 0.811E+02   -.682E-12 -.426E-13 0.234E-10   -.154E+02 0.231E+02 -.764E+02   0.906E-03 0.235E-02 0.421E+01

 POSITION                                       TOTAL-FORCE (eV/Angst)
      7.24769      6.50384     21.00213         0.124750     -0.356953     -0.286786
      8.58587      5.86899     20.42530        -0.387234     -0.059282     -0.054747
      7.59212      5.81028     20.41484         0.259887      0.437441      0.034147
     10.35728      7.39414      5.27226         0.001329      0.001577     -3.967015
      0.60429      8.87293      5.27226         0.003175      0.002070      3.338816
      0.60429      7.39414      8.52325         0.005914     -0.000094      0.565319
     10.35728      8.87293      8.52325        -0.008454      0.000378     -0.831260
     10.35728      7.39414     11.77425        -0.034213     -0.018124      0.693371
      0.60429      8.87293     11.77425        -0.001620      0.002173     -0.824301
      0.69732      7.39431     14.95330         0.074992      0.001558      0.003908
     10.43925      8.87383     15.14307        -0.020288     -0.000109      0.133213
     10.37867      7.40080     18.47302        -0.055599      0.062417      0.244803
      0.61463      8.87497     18.13475         0.011169      0.013791     -0.176089
     10.35728     10.35173      5.27226         0.000484      0.003802     -3.970209
      0.60429      0.00015      5.27226         0.006066      0.001404      3.335091
      0.60429     10.35173      8.52325         0.005730      0.000736      0.565083
     10.35728      0.00015      8.52325        -0.005537     -0.000435     -0.832208
     10.35728     10.35173     11.77425        -0.016050      0.024865      0.699652
      0.60429      0.00015     11.77425         0.001534     -0.001839     -0.819701
      0.69894     10.35159     14.95541         0.069619      0.003131      0.002154
     10.43301     11.82978     15.15157        -0.021711      0.002505      0.133733
     10.36454     10.34939     18.50229        -0.000740      0.013889      0.266206
      0.61694     11.82888     18.13343         0.003941      0.002528     -0.183033
     10.35728      1.47895      5.27226         0.000042     -0.000678     -3.972317
      0.60429      2.95774      5.27226         0.003169     -0.001744      3.336983
      0.60429      1.47895      8.52325         0.005855     -0.000333      0.564657
     10.35728      2.95774      8.52325        -0.008287     -0.000532     -0.832922
     10.35728      1.47895     11.77425        -0.015304     -0.031204      0.696297
      0.60429      2.95774     11.77425        -0.000063     -0.000574     -0.825084
      0.69920      1.47797     14.95479         0.071192     -0.003688      0.002286
     10.43901      2.95548     15.14230        -0.025164      0.002452      0.138809
     10.36319      1.46907     18.50195        -0.002142     -0.018792      0.266107
      0.61589      2.95239     18.13422         0.009426     -0.011639     -0.174949
     10.35728      4.43654      5.27226         0.000744     -0.005216     -3.969130
      0.60429      5.91534      5.27226         0.006386     -0.001067      3.337987
      0.60429      4.43654      8.52325         0.006063      0.000538      0.564942
     10.35728      5.91534      8.52325        -0.005037     -0.000104     -0.829826
     10.35728      4.43654     11.77425        -0.035643      0.024141      0.689368
      0.60429      5.91534     11.77425         0.003723      0.000302     -0.826173
      0.69764      4.43587     14.95333         0.073353     -0.001152      0.003845
     10.44263      5.91485     15.14791        -0.024329     -0.002403      0.143578
     10.38566      4.41732     18.47407        -0.070238     -0.083316      0.247953
      0.62548      5.91531     18.13268         0.007930     -0.002963     -0.170332
      3.85529      7.39414      5.27226         0.001182      0.000839     -3.967761
      7.10628      8.87293      5.27226        -0.001431      0.003782      3.351999
      7.10628      7.39414      8.52325        -0.005291      0.009378      0.589103
      3.85529      8.87293      8.52325         0.006600      0.000240     -0.816508
      3.85529      7.39414     11.77425         0.049012     -0.014595      0.744665
      7.10628      8.87293     11.77425        -0.028376     -0.050820     -0.699017
      7.20147      7.36939     14.98833         0.051293      0.005938      0.010412
      3.93739      8.87132     15.15142        -0.012874     -0.006799      0.137780
      3.87252      7.39501     18.50380         0.006332     -0.001030      0.288070
      7.12613      8.87348     18.09865         0.018487     -0.022203     -0.187179
      3.85529     10.35173      5.27226         0.001900      0.003118     -3.970279
      7.10628      0.00015      5.27226         0.001828      0.002516      3.345358
      7.10628     10.35173      8.52325        -0.005387      0.000991      0.590675
      3.85529      0.00015      8.52325         0.009950     -0.000211     -0.817431
      3.85529     10.35173     11.77425         0.036881      0.003968      0.737502
      7.10628      0.00015     11.77425        -0.029519     -0.002843     -0.879334
      7.19845     10.34094     14.92581         0.050536     -0.015601      0.021002
[...]
      7.10628      5.91534      9.79764         0.000629     -0.001441     -0.296074
      5.12967      4.43654      8.52325         0.287551     -0.001836      0.070744
      9.08289      4.43654      8.52325        -0.283055      0.003598      0.071049
      3.85529      5.91534     10.49986        -0.016119      0.000912      0.068214
      3.85529      5.91534     13.04863        -0.000331     -0.004337     -0.228863
      8.38067      4.43654     11.77425        -0.661690      0.013340      0.076546
      5.83190      4.43654     11.77425         0.702062      0.022757      0.094935
      7.12081      5.91272     13.77646         0.019749      0.011288      0.209057
      7.10255      5.91991     16.34467         0.030945      0.001678     -0.097569
      5.16078      4.43648     15.04668        -0.171008      0.001817      0.021265
      9.07412      4.43644     15.06405         0.046434      0.007122      0.000618
      3.87066      5.91984     17.01761         0.006050     -0.006100     -0.077961
      3.88586      5.91340     19.58870        -0.034901      0.006204     -0.671745
      8.37443      4.39507     18.31395        -0.322507     -0.022599     -0.009101
      5.90128      4.42330     18.43087         0.315696     -0.010347     -0.087762
    total drift:                                0.077588     -0.020935     -0.037942

  FREE ENERGIE OF THE ION-ELECTRON SYSTEM (eV)
  free  energy   TOTEN  =     -2839.26424083 eV

  energy  without entropy=    -2839.26424083  energy(sigma->0) =    -2839.26424083