 vasp.6.4.2 20Jul23 (build Feb 22 2024 13:53:45) complex
 executed on              LinuxNV date 2024.08.30  05:13:28
 OpenACC runtime initialized ...    4 GPUs detected

 INCAR:
   SYSTEM = Oxide-Surface
   ISMEAR = 0
   SIGMA = 0.05
   EDIFF = 1E-5
   ALGO = Normal
   IBRION = -1
   NSW = 0
   ISYM = 0
   DIPOL = 0.5 0.5 0.5
   IDIPOL = 3
   LDIPOL = .TRUE.
   ISTART = 0
   LHFCALC = .FALSE.
   GGA = PE
   IVDW = 21
   VDW_SR = 0.96
   HFRCUT = -1
   ENCUT = 520
   PREC = Normal
   PRECFOCK = Normal
   LASPH = .TRUE.
   LREAL = Auto
   ISPIN = 1
   NELM = 200
   NELMIN = 8
   NCORE = 1
   KPAR = 1
   LWAVE = .TRUE.
   LCHARG = .FALSE.

 POTCAR:    PAW_PBE H 15Jun2001
 POTCAR:    PAW_PBE O 08Apr2002
 POTCAR:    PAW_PBE Ti_pv 07Sep2000
 POTCAR:    PAW_PBE O 08Apr2002
 POTCAR:    PAW_PBE H 15Jun2001
   VRHFIN =H: ultrasoft test

   TITEL  = PAW_PBE H 15Jun2001
   POMASS =    1.000; ZVAL   =    1.000    mass and valenz
   ENMAX  =  250.000; ENMIN  =  200.000 eV

   TITEL  = PAW_PBE O 08Apr2002
   POMASS =   16.000; ZVAL   =    6.000    mass and valenz
   ENMAX  =  400.000; ENMIN  =  300.000 eV

   TITEL  = PAW_PBE Ti_pv 07Sep2000
   POMASS =   47.880; ZVAL   =   10.000    mass and valenz
   ENMAX  =  222.335; ENMIN  =  166.751 eV

   TITEL  = PAW_PBE O 08Apr2002
   POMASS =   16.000; ZVAL   =    6.000    mass and valenz
   ENMAX  =  400.000; ENMIN  =  300.000 eV

 Optimization of the real space projectors (new method)

 maximal supplied QI-value         = 34.20
 optimisation between [QCUT,QGAM] = [ 11.63, 23.26] = [ 37.87,151.49] Ry
 Optimized for a Real-space Cutoff    1.14 Angstroem

   l    n(q)    QCUT    max X(q) W(low)/X(q) W(high)/X(q)  e(spline)
   0      8    11.629    19.460    0.27E-03    0.65E-03    0.17E-06
   0      8    11.629    12.209    0.25E-03    0.62E-03    0.16E-06
   1      7    11.629     4.655    0.29E-03    0.85E-04    0.19E-06
 Optimization of the real space projectors (new method)

[...]

   l    n(q)    QCUT    max X(q) W(low)/X(q) W(high)/X(q)  e(spline)
   1     10    11.641     4.216    0.33E-04    0.72E-04    0.48E-07
   1     10    11.641     5.422    0.11E-03    0.20E-03    0.10E-06
   2      9    11.641    72.084    0.36E-03    0.27E-03    0.57E-06
   2      9    11.641    65.965    0.35E-03    0.27E-03    0.57E-06
   0     10    11.641    41.531    0.11E-03    0.93E-04    0.16E-06
   0     10    11.641    16.290    0.82E-04    0.72E-04    0.13E-06
 Optimization of the real space projectors (new method)

 maximal supplied QI-value         = 24.76
 optimisation between [QCUT,QGAM] = [ 11.64, 23.27] = [ 37.91,151.63] Ry
 Optimized for a Real-space Cutoff    1.04 Angstroem

   l    n(q)    QCUT    max X(q) W(low)/X(q) W(high)/X(q)  e(spline)
   0      7    11.635    20.381    0.14E-03    0.49E-03    0.18E-06
   0      7    11.635    15.268    0.16E-03    0.52E-03    0.19E-06
   1      7    11.635     5.964    0.30E-03    0.44E-03    0.22E-06
   1      7    11.635     5.382    0.27E-03    0.34E-03    0.19E-06
  PAW_PBE H 15Jun2001                   :
  PAW_PBE O 08Apr2002                   :
  PAW_PBE Ti_pv 07Sep2000               :
  PAW_PBE O 08Apr2002                   :

 POSCAR:  H  O Ti  O
  positions in direct lattice
 exchange correlation table for  LEXCH =        8
   RHO(1)=    0.500       N(1)  =     2000
   RHO(2)=  100.500       N(2)  =     4000

 ion  position               nearest neighbor table
   1  0.557  0.550  0.840-   3 0.97
   2  0.660  0.496  0.817-   3 1.00
   3  0.584  0.491  0.817-   1 0.97   2 1.00  83 2.23
   4  0.796  0.625  0.211-  85 1.95 145 1.95 144 1.95  84 1.95  87 1.98 166 1.98  14 2.96  34 2.96

   5  0.046  0.750  0.211-  86 1.95  87 1.95 106 1.95 107 1.95  88 1.98  35 2.96  15 2.96
   6  0.046  0.625  0.341-  88 1.95 148 1.95  89 1.95 149 1.95  90 1.98  91 1.98  16 2.96  36 2.96

[...]

  84  0.796  0.750  0.160-   4 1.95  14 1.95
  85  0.796  0.750  0.262-   4 1.95  14 1.95   7 1.98
  86  0.144  0.625  0.211-   5 1.95  35 1.95  44 1.98
  87  0.948  0.625  0.211-   5 1.95  35 1.95   4 1.98
  88  0.046  0.750  0.290-   6 1.95  16 1.95   5 1.98
  89  0.046  0.750  0.392-   6 1.95  16 1.95   9 1.98
  90  0.894  0.625  0.341-   7 1.95  37 1.95   6 1.98
  91  0.198  0.625  0.341-  47 1.95  77 1.95   6 1.98
  92  0.796  0.750  0.420-   8 1.95  18 1.95   7 1.98
  93  0.796  0.750  0.522-   8 1.95  18 1.95  11 2.10
  94  0.144  0.625  0.471-   9 1.95  39 1.95  48 1.98
  95  0.948  0.625  0.471-   9 1.95  39 1.95   8 1.98
  96  0.047  0.750  0.551-  20 1.90  10 1.90   9 2.00
  97  0.047  0.750  0.653-  13 1.81  10 2.02  20 2.02
  98  0.898  0.625  0.601-  11 1.93  41 1.93  10 2.03
  99  0.197  0.625  0.602-  10 1.87  51 2.02  81 2.02
 100  0.801  0.751  0.680-  11 1.87  12 2.08  22 2.09
 101  0.796  0.749  0.783-  12 1.83  22 1.84
 102  0.142  0.625  0.738-  43 1.94  13 1.95  52 2.03
 103  0.954  0.624  0.740-  43 1.95  13 1.96  12 2.02
 104  0.796  0.000  0.160-  14 1.95  24 1.95
 105  0.796  0.000  0.262-  14 1.95  24 1.95  17 1.98
 106  0.144  0.875  0.211-   5 1.95  15 1.95  54 1.98
 107  0.948  0.875  0.211-   5 1.95  15 1.95  14 1.98
 108  0.046  0.000  0.290-  16 1.95  26 1.95  15 1.98
 109  0.046  0.000  0.392-  16 1.95  26 1.95  19 1.98
 110  0.894  0.875  0.341-   7 1.95  17 1.95  16 1.98
 111  0.198  0.875  0.341-  47 1.95  57 1.95  16 1.98
 112  0.796  0.000  0.420-  18 1.95  28 1.95  17 1.98
 113  0.796  0.000  0.522-  18 1.95  28 1.95  21 2.10
 114  0.144  0.875  0.471-   9 1.95  19 1.95  58 1.98
 115  0.948  0.875  0.471-   9 1.95  19 1.95  18 1.98
 116  0.047  1.000  0.551-  30 1.90  20 1.90  19 2.00
 117  0.047  1.000  0.653-  23 1.81  20 2.02  30 2.02
 118  0.897  0.875  0.602-  21 1.93  11 1.93  20 2.04
 119  0.197  0.875  0.602-  20 1.87  51 2.02  61 2.02
 120  0.798  1.000  0.681-  21 1.87  32 2.09  22 2.10
 121  0.797  1.000  0.784-  32 1.83  22 1.84
 122  0.142  0.875  0.738-  13 1.94  23 1.95  62 2.04
 123  0.954  0.875  0.739-  13 1.94  23 1.95  22 2.04
 124  0.796  0.250  0.160-  24 1.95  34 1.95
 125  0.796  0.250  0.262-  24 1.95  34 1.95  27 1.98
 126  0.144  0.125  0.211-  15 1.95  25 1.95  64 1.98
 127  0.948  0.125  0.211-  15 1.95  25 1.95  24 1.98
 128  0.046  0.250  0.290-  26 1.95  36 1.95  25 1.98
 129  0.046  0.250  0.392-  26 1.95  36 1.95  29 1.98
 130  0.894  0.125  0.341-  17 1.95  27 1.95  26 1.98
 131  0.198  0.125  0.341-  57 1.95  67 1.95  26 1.98
 132  0.796  0.250  0.420-  28 1.95  38 1.95  27 1.98
 133  0.796  0.250  0.522-  28 1.95  38 1.95  31 2.10
 134  0.144  0.125  0.471-  19 1.95  29 1.95  68 1.98
 135  0.948  0.125  0.471-  19 1.95  29 1.95  28 1.98
 136  0.047  0.250  0.551-  40 1.90  30 1.90  29 2.00
 137  0.047  0.250  0.653-  33 1.81  40 2.02  30 2.02
 138  0.897  0.125  0.602-  21 1.93  31 1.93  30 2.04
 139  0.197  0.125  0.602-  30 1.87  61 2.02  71 2.02
 140  0.800  0.250  0.680-  31 1.87  42 2.07  32 2.10
 141  0.796  0.251  0.783-  42 1.83  32 1.84
 142  0.142  0.125  0.738-  33 1.94  23 1.95  72 2.04
 143  0.953  0.125  0.739-  33 1.94  23 1.95  32 2.04
[...]
 229  0.546  0.500  0.392-  46 1.95  76 1.95  79 1.98
 230  0.394  0.375  0.341-  67 1.95  77 1.95  76 1.98
 231  0.698  0.375  0.341-  27 1.95  37 1.95  76 1.98
 232  0.296  0.500  0.420-  48 1.95  78 1.95  77 1.98
 233  0.296  0.500  0.522-  48 1.95  78 1.95  81 2.11
 234  0.644  0.375  0.471-  69 1.95  79 1.95  38 1.98
 235  0.448  0.375  0.471-  69 1.95  79 1.95  78 1.98
 236  0.548  0.500  0.551-  50 1.90  80 1.90  79 2.00
 237  0.546  0.500  0.654-  83 1.89  50 1.99  80 1.99
 238  0.397  0.375  0.602-  71 1.92  81 1.93  80 2.04
 239  0.698  0.375  0.603-  80 1.87  31 2.02  41 2.02
 240  0.298  0.500  0.681-  81 1.86  52 2.09  82 2.10
 241  0.299  0.500  0.784-  82 1.84  52 1.84
 242  0.644  0.372  0.733-  73 1.92  83 1.96  42 2.02
 243  0.454  0.374  0.737-  83 1.93  73 1.94  82 2.03

IMPORTANT INFORMATION: All symmetrisations will be switched off!
NOSYMM: (Re-)initialisation of all symmetry stuff for point group C_1.

                                     Primitive cell

  volume of cell :    3846.0501

  direct lattice vectors                    reciprocal lattice vectors
    13.003980404  0.000000000  0.000000000     0.076899531  0.000000000  0.000000000
     0.000000000 11.830378115  0.000000000     0.000000000  0.084528152  0.000000000
     0.000000000  0.000000000 25.000000000     0.000000000  0.000000000  0.040000000

  length of vectors
    13.003980404 11.830378115 25.000000000     0.076899531  0.084528152  0.040000000

  position of ions in fractional coordinates (direct lattice)
     0.557344291  0.549757631  0.840085132
     0.660249560  0.496094975  0.817011996
     0.583830190  0.491132145  0.816593541
     0.796469805  0.625012682  0.210890236
     0.046469805  0.750012682  0.210890236
     0.046469805  0.625012682  0.340930040
     0.796469805  0.750012682  0.340930040
     0.796469805  0.625012682  0.470969844
     0.046469805  0.750012682  0.470969844
     0.053623656  0.625026990  0.598131909
     0.802773807  0.750088464  0.605722728
     0.798114496  0.625575600  0.738920944
     0.047264667  0.750185234  0.725389851
     0.796469805  0.875012682  0.210890236
     0.046469805  0.000012682  0.210890236
     0.046469805  0.875012682  0.340930040
     0.796469805  0.000012682  0.340930040
     0.796469805  0.875012682  0.470969844
     0.046469805  0.000012682  0.470969844
     0.053747774  0.875000886  0.598216515
     0.802293775  0.999949401  0.606062736
     0.797028260  0.874814460  0.740091583
     0.047442171  0.999873346  0.725337059
     0.796469805  0.125012682  0.210890236
     0.046469805  0.250012682  0.210890236
     0.046469805  0.125012682  0.340930040
     0.796469805  0.250012682  0.340930040
     0.796469805  0.125012682  0.470969844
     0.046469805  0.250012682  0.470969844
     0.053768063  0.124930326  0.598191771
     0.802754763  0.249821140  0.605692176
     0.796924074  0.124177669  0.740077984
     0.047361621  0.249559835  0.725368873
     0.796469805  0.375012682  0.210890236
     0.046469805  0.500012682  0.210890236
     0.046469805  0.375012682  0.340930040
     0.796469805  0.500012682  0.340930040
     0.796469805  0.375012682  0.470969844
     0.046469805  0.500012682  0.470969844
     0.053648518  0.374955751  0.598133362
     0.803033051  0.499971001  0.605916512
     0.798652412  0.373387703  0.738962983
     0.048099410  0.500010489  0.725307002
     0.296469805  0.625012682  0.210890236
     0.546469805  0.750012682  0.210890236
     0.546469805  0.625012682  0.340930040
     0.296469805  0.750012682  0.340930040
     0.296469805  0.625012682  0.470969844
     0.546469805  0.750012682  0.470969844
     0.553789888  0.622920794  0.599533192
     0.302783524  0.749876682  0.606056658
     0.297794688  0.625086510  0.740151961
     0.547996109  0.750059170  0.723945844
     0.296469805  0.875012682  0.210890236
     0.546469805  0.000012682  0.210890236
     0.546469805  0.875012682  0.340930040
     0.296469805  0.000012682  0.340930040
     0.296469805  0.875012682  0.470969844
     0.546469805  0.000012682  0.470969844
     0.553557721  0.874100632  0.597032342
[...]
     0.546469805  0.500012682  0.391905408
[...]
     0.000000000  0.000000000 25.000000000     0.000000000  0.000000000  0.040000000

  length of vectors
    13.003980404 11.830378115 25.000000000     0.076899531  0.084528152  0.040000000

 FORCES acting on ions
    electron-ion (+dipol)            ewald-force                    non-local-force                 convergence-correction
   0.343E+02 -.617E+02 -.315E+03   -.376E+02 0.676E+02 0.320E+03   0.319E+01 -.590E+01 -.514E+01   0.481E-04 -.708E-04 -.137E-03
   -.635E+02 -.241E+01 -.306E+03   0.713E+02 0.265E+01 0.306E+03   -.772E+01 -.243E+00 -.201E-03   -.189E-04 0.378E-05 -.521E-04
   0.531E+02 0.402E+02 -.180E+04   -.720E+02 -.722E+02 0.178E+04   0.188E+02 0.321E+02 0.146E+02   0.967E-04 0.645E-04 -.434E-05
   -.919E+00 -.378E+00 0.281E+04   0.919E+00 0.379E+00 -.281E+04   0.157E-02 0.446E-03 0.436E+00   0.116E-03 0.315E-03 0.161E-02
   -.224E+00 -.400E+00 0.299E+04   0.226E+00 0.401E+00 -.298E+04   0.745E-03 -.132E-03 -.389E+01   -.671E-04 0.401E-04 0.417E-03
   -.181E+00 -.101E+00 0.144E+04   0.187E+00 0.101E+00 -.144E+04   -.359E-03 -.149E-03 -.424E-01   -.116E-04 0.374E-05 0.111E-02
   -.491E+00 -.991E-01 0.143E+04   0.483E+00 0.997E-01 -.143E+04   0.227E-02 -.121E-03 0.209E+00   0.281E-04 -.188E-04 0.410E-03
   -.134E+01 -.130E+00 -.662E+01   0.130E+01 0.114E+00 0.739E+01   0.125E-01 0.280E-03 -.129E+00   -.783E-04 -.169E-04 0.743E-03
   0.152E+01 -.671E+00 0.218E+01   -.152E+01 0.675E+00 -.325E+01   -.217E-02 -.219E-02 0.338E+00   0.691E-04 -.240E-04 0.793E-03
   0.136E+02 -.183E+01 -.140E+04   -.137E+02 0.184E+01 0.140E+04   0.479E-01 -.809E-02 0.684E-01   0.147E-03 -.171E-04 0.138E-02
   0.376E+01 -.713E+01 -.143E+04   -.375E+01 0.714E+01 0.143E+04   -.339E-01 -.852E-02 -.831E-01   -.239E-03 0.527E-04 0.178E-02
   -.685E+02 -.172E+02 -.274E+04   0.684E+02 0.171E+02 0.274E+04   0.167E+00 0.122E+00 -.155E-02   -.249E-03 -.337E-03 0.138E-02
   -.519E+01 -.231E+01 -.284E+04   0.523E+01 0.232E+01 0.284E+04   -.430E-01 -.149E-01 0.923E+00   0.119E-04 0.163E-04 0.128E-02
   -.776E+00 -.382E+00 0.281E+04   0.775E+00 0.385E+00 -.281E+04   0.173E-02 -.745E-03 0.437E+00   0.431E-04 -.764E-04 0.142E-02
   -.199E+00 -.615E-02 0.299E+04   0.201E+00 0.736E-02 -.298E+04   0.366E-02 -.438E-04 -.389E+01   -.906E-05 -.137E-03 0.516E-03
   -.146E+00 -.115E+00 0.144E+04   0.151E+00 0.115E+00 -.144E+04   -.314E-03 0.462E-03 -.424E-01   0.877E-05 0.106E-04 0.111E-02
   -.571E+00 -.164E-01 0.143E+04   0.562E+00 0.162E-01 -.143E+04   0.490E-02 -.291E-03 0.209E+00   0.498E-05 -.131E-04 0.428E-03
   -.267E+01 -.473E+00 -.757E+01   0.265E+01 0.496E+00 0.835E+01   0.105E-01 -.641E-03 -.132E+00   -.785E-04 0.316E-04 0.819E-03
   0.192E+01 -.328E-01 0.134E+01   -.192E+01 0.298E-01 -.240E+01   0.871E-03 0.139E-02 0.336E+00   0.623E-04 0.114E-04 0.801E-03
   0.165E+02 -.146E+01 -.141E+04   -.166E+02 0.147E+01 0.141E+04   0.462E-01 -.664E-02 0.757E-01   0.117E-03 0.366E-04 0.140E-02
   0.550E+01 0.303E-01 -.144E+04   -.548E+01 -.277E-01 0.144E+04   -.412E-01 -.237E-02 -.907E-01   -.213E-03 -.295E-04 0.182E-02
   -.153E+02 -.164E+02 -.277E+04   0.153E+02 0.164E+02 0.277E+04   0.533E-01 0.709E-02 -.119E+00   -.137E-03 0.159E-03 0.107E-02
   -.461E+01 0.305E+00 -.284E+04   0.459E+01 -.303E+00 0.284E+04   0.257E-01 -.143E-02 0.958E+00   -.506E-04 -.753E-05 0.127E-02
   -.772E+00 0.371E+00 0.281E+04   0.771E+00 -.372E+00 -.281E+04   0.192E-02 0.389E-03 0.437E+00   -.169E-05 -.256E-03 0.148E-02
   -.226E+00 0.399E+00 0.299E+04   0.229E+00 -.401E+00 -.298E+04   0.748E-03 0.219E-03 -.389E+01   -.121E-04 0.266E-05 0.668E-03
   -.146E+00 0.103E+00 0.144E+04   0.152E+00 -.103E+00 -.144E+04   -.378E-03 -.259E-03 -.423E-01   0.229E-04 0.279E-04 0.114E-02
   -.472E+00 0.985E-01 0.143E+04   0.464E+00 -.991E-01 -.143E+04   0.220E-02 -.242E-03 0.209E+00   0.142E-04 0.162E-04 0.584E-03
   -.261E+01 0.393E+00 -.757E+01   0.258E+01 -.423E+00 0.834E+01   0.109E-01 0.112E-02 -.131E+00   -.499E-04 0.444E-05 0.816E-03
   0.155E+01 0.647E+00 0.218E+01   -.155E+01 -.650E+00 -.326E+01   -.253E-02 0.225E-02 0.338E+00   0.583E-04 0.173E-04 0.792E-03
   0.172E+02 0.154E+01 -.141E+04   -.173E+02 -.154E+01 0.141E+04   0.493E-01 0.712E-02 0.744E-01   0.124E-03 -.237E-04 0.140E-02
   0.355E+01 0.682E+01 -.143E+04   -.355E+01 -.682E+01 0.143E+04   -.352E-01 0.325E-02 -.898E-01   -.205E-03 0.237E-04 0.182E-02
   -.154E+02 0.142E+02 -.277E+04   0.154E+02 -.142E+02 0.277E+04   0.553E-01 -.186E-01 -.121E+00   -.114E-03 -.266E-03 0.935E-03
   -.467E+01 0.219E+01 -.284E+04   0.471E+01 -.220E+01 0.284E+04   -.369E-01 0.103E-01 0.920E+00   -.254E-04 -.135E-04 0.121E-02
   -.915E+00 0.388E+00 0.281E+04   0.914E+00 -.392E+00 -.281E+04   0.171E-02 -.903E-03 0.437E+00   0.977E-04 0.170E-04 0.165E-02
   -.253E+00 0.627E-02 0.299E+04   0.255E+00 -.746E-02 -.298E+04   0.361E-02 0.190E-03 -.389E+01   -.710E-04 0.974E-04 0.556E-03
   -.182E+00 0.113E+00 0.144E+04   0.188E+00 -.113E+00 -.144E+04   -.389E-03 0.367E-03 -.424E-01   -.815E-05 -.419E-04 0.113E-02
   -.395E+00 0.170E-01 0.143E+04   0.387E+00 -.168E-01 -.143E+04   0.475E-02 -.316E-03 0.209E+00   0.405E-04 0.159E-04 0.507E-03
   -.124E+01 0.218E+00 -.672E+01   0.120E+01 -.195E+00 0.748E+01   0.130E-01 -.860E-03 -.129E+00   -.796E-04 -.202E-04 0.748E-03
   0.137E+01 -.818E-02 0.302E+01   -.136E+01 0.810E-02 -.410E+01   -.193E-03 0.420E-03 0.338E+00   0.770E-04 -.562E-05 0.809E-03
   0.140E+02 0.191E+01 -.140E+04   -.141E+02 -.191E+01 0.140E+04   0.466E-01 0.447E-02 0.730E-01   0.125E-03 0.271E-05 0.138E-02
   0.249E+01 -.174E-01 -.142E+04   -.243E+01 0.179E-01 0.142E+04   -.806E-01 -.179E-02 -.835E-01   -.224E-03 -.463E-04 0.172E-02
   -.685E+02 0.139E+02 -.274E+04   0.684E+02 -.137E+02 0.274E+04   0.119E+00 -.158E+00 0.300E-02   -.209E-03 0.431E-03 0.122E-02
   -.729E+01 0.249E+00 -.284E+04   0.726E+01 -.251E+00 0.284E+04   0.395E-01 0.154E-02 0.870E+00   -.424E-04 0.644E-05 0.122E-02
   0.905E+00 -.331E+00 0.281E+04   -.905E+00 0.331E+00 -.281E+04   0.136E-02 0.436E-03 0.436E+00   0.320E-05 0.156E-03 0.165E-02
   0.236E+00 -.619E+00 0.299E+04   -.238E+00 0.622E+00 -.298E+04   0.160E-02 -.382E-03 -.389E+01   0.230E-05 0.890E-04 0.579E-03
   0.314E+00 0.606E-01 0.144E+04   -.320E+00 -.494E-01 -.144E+04   0.121E-02 -.276E-02 -.443E-01   -.152E-04 0.269E-05 0.111E-02
   0.362E+00 -.487E-01 0.143E+04   -.354E+00 0.493E-01 -.143E+04   -.140E-02 -.217E-03 0.205E+00   -.355E-05 0.286E-05 0.403E-03
   -.756E-01 0.102E+00 -.882E+01   0.123E+00 -.114E+00 0.964E+01   -.508E-02 0.231E-03 -.139E+00   -.721E-04 -.944E-04 0.723E-03
   0.350E+01 0.106E+01 0.545E+01   -.352E+01 -.114E+01 -.634E+01   0.916E-03 0.373E-01 0.268E+00   0.670E-04 0.204E-04 0.807E-03
   0.209E+02 -.115E+02 -.139E+04   -.210E+02 0.116E+02 0.139E+04   0.342E-01 -.786E-01 0.432E-01   0.218E-03 0.263E-04 0.130E-02
   0.182E+02 -.492E+01 -.144E+04   -.182E+02 0.491E+01 0.144E+04   -.419E-01 0.759E-02 -.874E-01   -.178E-03 0.562E-05 0.192E-02
   0.368E+02 -.141E+02 -.275E+04   -.369E+02 0.141E+02 0.275E+04   0.663E-01 0.461E-02 -.146E+00   -.164E-03 0.202E-03 0.107E-02
   0.197E+02 -.546E+02 -.280E+04   -.196E+02 0.547E+02 0.280E+04   -.138E+00 -.455E-01 0.103E+01   0.354E-03 0.741E-04 0.126E-02
   0.766E+00 -.340E+00 0.281E+04   -.765E+00 0.344E+00 -.281E+04   0.106E-02 -.748E-03 0.437E+00   -.502E-04 -.121E-03 0.159E-02
   0.208E+00 -.116E-01 0.299E+04   -.210E+00 0.139E-01 -.298E+04   0.440E-02 -.202E-03 -.389E+01   0.257E-04 -.495E-04 0.479E-03
   0.283E+00 0.109E-01 0.144E+04   -.289E+00 -.943E-02 -.144E+04   0.132E-02 -.801E-03 -.449E-01   -.160E-04 -.418E-04 0.113E-02
   0.437E+00 -.188E-01 0.143E+04   -.429E+00 0.187E-01 -.143E+04   0.123E-02 -.229E-03 0.206E+00   -.111E-05 0.751E-06 0.474E-03
   0.995E+00 -.250E-01 -.907E+01   -.960E+00 0.295E-01 0.988E+01   -.420E-03 -.303E-03 -.139E+00   -.131E-04 0.939E-04 0.751E-03
   0.306E+01 -.241E+00 0.850E+01   -.310E+01 0.238E+00 -.959E+01   0.113E-01 0.557E-03 0.295E+00   0.239E-04 -.268E-04 0.777E-03
   0.175E+02 -.103E+02 -.138E+04   -.175E+02 0.104E+02 0.138E+04   0.317E-01 -.194E-01 -.674E-01   0.226E-03 -.109E-05 0.143E-02
[...]
   -.531E+02 0.839E-02 0.860E+03   0.571E+02 -.923E-02 -.860E+03   -.356E+01 -.676E-03 0.155E+00   -.176E-04 -.411E-05 0.497E-03
   0.532E+02 0.229E-01 0.860E+03   -.572E+02 -.234E-01 -.860E+03   0.357E+01 0.388E-02 0.159E+00   0.639E-04 -.110E-04 0.518E-03
   -.590E-02 0.344E-01 0.387E+03   0.272E-01 -.347E-01 -.391E+03   -.365E-01 0.905E-03 0.415E+01   -.113E-04 -.122E-04 0.518E-03
   0.251E+01 0.197E+00 -.413E+03   -.278E+01 -.193E+00 0.421E+03   0.252E+00 -.800E-02 -.711E+01   -.307E-04 -.342E-04 0.466E-03
   -.548E+02 -.331E+00 0.268E+01   0.594E+02 0.329E+00 -.290E+01   -.507E+01 0.146E-01 0.278E+00   -.222E-04 0.894E-05 0.481E-03
   0.557E+02 -.417E+00 -.255E+00   -.603E+02 0.413E+00 0.988E-01   0.511E+01 0.248E-01 0.242E+00   0.367E-04 0.497E-05 0.467E-03
   0.122E+02 0.603E+00 -.444E+03   -.133E+02 -.692E+00 0.437E+03   0.107E+01 0.942E-01 0.678E+01   0.585E-04 -.214E-04 0.618E-03
   0.197E+02 -.189E+01 -.120E+04   -.210E+02 0.196E+01 0.120E+04   0.136E+01 -.628E-01 -.121E+01   0.116E-03 -.194E-04 0.664E-03
   -.495E+02 0.198E+01 -.835E+03   0.557E+02 -.203E+01 0.834E+03   -.622E+01 0.473E-01 0.130E+01   0.268E-04 -.207E-04 0.811E-03
   0.929E+00 0.407E+01 -.844E+03   -.873E+00 -.422E+01 0.844E+03   -.952E-02 0.146E+00 0.410E+00   -.594E-04 -.261E-06 0.859E-03
   0.184E+02 -.533E+00 -.134E+04   -.188E+02 0.514E+00 0.135E+04   0.369E+00 0.140E-01 -.212E+01   -.670E-04 0.461E-05 0.581E-03
   0.368E+02 0.611E+00 -.202E+04   -.367E+02 -.670E+00 0.204E+04   -.180E+00 0.600E-01 -.206E+02   0.508E-05 0.573E-05 0.721E-03
   -.475E+02 0.418E+02 -.164E+04   0.534E+02 -.415E+02 0.164E+04   -.598E+01 -.285E+00 -.482E+00   -.894E-05 -.885E-05 0.773E-03
   0.635E+02 0.337E+02 -.171E+04   -.696E+02 -.338E+02 0.171E+04   0.614E+01 0.520E-01 -.317E+01   0.127E-03 -.911E-04 0.768E-03
   0.135E+02 -.268E+02 0.776E+02   -.682E-12 -.426E-13 0.234E-10   -.134E+02 0.268E+02 -.779E+02   -.139E-03 -.332E-04 0.180E+00

 POSITION                                       TOTAL-FORCE (eV/Angst)
      7.24769      6.50384     21.00213        -0.036198      0.030844      0.023692
      8.58587      5.86899     20.42530         0.108022     -0.007146     -0.022095
      7.59212      5.81028     20.41484        -0.041325     -0.026805     -0.045327
     10.35728      7.39414      5.27226         0.001392      0.001341     -3.474684
      0.60429      8.87293      5.27226         0.003040      0.001688      2.752554
      0.60429      7.39414      8.52325         0.005212      0.000100      0.525035
     10.35728      8.87293      8.52325        -0.006506      0.000503     -0.724063
     10.35728      7.39414     11.77425        -0.027211     -0.015478      0.630710
      0.60429      8.87293     11.77425        -0.000893      0.001852     -0.727479
      0.69732      7.39431     14.95330        -0.038816      0.000652      0.089486
     10.43925      8.87383     15.14307        -0.039770     -0.000322     -0.042559
     10.37867      7.40080     18.47302         0.014067     -0.002390      0.007771
      0.61463      8.87497     18.13475        -0.000261     -0.006149      0.073718
     10.35728     10.35173      5.27226         0.000650      0.003039     -3.477368
      0.60429      0.00015      5.27226         0.005258      0.001115      2.749112
      0.60429     10.35173      8.52325         0.005064      0.000603      0.524993
     10.35728      0.00015      8.52325        -0.004317     -0.000423     -0.724616
     10.35728     10.35173     11.77425        -0.013253      0.022576      0.636459
      0.60429      0.00015     11.77425         0.001831     -0.001523     -0.724368
      0.69894     10.35159     14.95541        -0.045443      0.000381      0.088213
     10.43301     11.82978     15.15157        -0.038681      0.000498     -0.045123
     10.36454     10.34939     18.50229         0.008789      0.006093      0.000371
      0.61694     11.82888     18.13343         0.003693      0.000055      0.070058
     10.35728      1.47895      5.27226         0.000258     -0.000665     -3.479185
      0.60429      2.95774      5.27226         0.003044     -0.001418      2.751043
      0.60429      1.47895      8.52325         0.005157     -0.000294      0.524633
     10.35728      2.95774      8.52325        -0.006347     -0.000664     -0.725548
     10.35728      1.47895     11.77425        -0.012249     -0.028920      0.632762
      0.60429      2.95774     11.77425         0.000548     -0.000517     -0.728191
      0.69920      1.47797     14.95479        -0.044419     -0.001209      0.087372
     10.43901      2.95548     15.14230        -0.042584      0.001936     -0.041945
     10.36319      1.46907     18.50195         0.007512     -0.002077      0.000591
      0.61589      2.95239     18.13422        -0.001037      0.007262      0.074811
     10.35728      4.43654      5.27226         0.000886     -0.004202     -3.476489
      0.60429      5.91534      5.27226         0.005530     -0.000823      2.751524
      0.60429      4.43654      8.52325         0.005341      0.000386      0.524724
     10.35728      5.91534      8.52325        -0.003805     -0.000028     -0.723363
     10.35728      4.43654     11.77425        -0.028182      0.021630      0.626903
      0.60429      5.91534     11.77425         0.003409      0.000416     -0.729353
      0.69764      4.43587     14.95333        -0.040441     -0.000219      0.089570
     10.44263      5.91485     15.14791        -0.044787     -0.001070     -0.048563
     10.38566      4.41732     18.47407         0.009255      0.004044      0.008489
      0.62548      5.91531     18.13268         0.000999     -0.001338      0.074588
      3.85529      7.39414      5.27226         0.001373      0.000696     -3.475080
      7.10628      8.87293      5.27226        -0.000635      0.003108      2.764282
      7.10628      7.39414      8.52325        -0.004383      0.008533      0.546705
      3.85529      8.87293      8.52325         0.006244      0.000402     -0.711107
      3.85529      7.39414     11.77425         0.042118     -0.012222      0.675480
      7.10628      8.87293     11.77425        -0.023318     -0.037770     -0.618022
      7.20147      7.36939     14.98833        -0.046551      0.017854      0.067880
      3.93739      8.87132     15.15142        -0.040304      0.000711     -0.045531
      3.87252      7.39501     18.50380        -0.004975     -0.001131      0.001132
      7.12613      8.87348     18.09865        -0.011934      0.015741      0.072486
      3.85529     10.35173      5.27226         0.001997      0.002504     -3.477196
      7.10628      0.00015      5.27226         0.001867      0.002076      2.758219
      7.10628     10.35173      8.52325        -0.004550      0.000779      0.547967
      3.85529      0.00015      8.52325         0.008998     -0.000197     -0.711385
      3.85529     10.35173     11.77425         0.034675      0.004341      0.669598
      7.10628      0.00015     11.77425        -0.024016     -0.002578     -0.788802
      7.19845     10.34094     14.92581        -0.039318      0.005497      0.088700
[...]
      7.10628      5.91534      9.79764         0.000190     -0.001431     -0.107412
      5.12967      4.43654      8.52325         0.440891     -0.001438      0.056326
      9.08289      4.43654      8.52325        -0.437680      0.003427      0.056482
      3.85529      5.91534     10.49986        -0.015451      0.000722     -0.122401
      3.85529      5.91534     13.04863        -0.012034     -0.003896      0.079268
      8.38067      4.43654     11.77425        -0.419833      0.012773      0.061430
      5.83190      4.43654     11.77425         0.453064      0.021188      0.085836
      7.12081      5.91272     13.77646        -0.007258      0.005426     -0.045414
      7.10255      5.91991     16.34467         0.000839      0.005974     -0.019758
      5.16078      4.43648     15.04668         0.029604     -0.000511     -0.012407
      9.07412      4.43644     15.06405         0.048857      0.000983     -0.003826
      3.87066      5.91984     17.01761        -0.007230     -0.005509      0.045692
      3.88586      5.91340     19.58870        -0.019020      0.001287      0.038000
      8.37443      4.39507     18.31395        -0.012882     -0.006617      0.044993
      5.90128      4.42330     18.43087        -0.004244     -0.014663      0.050006
    total drift:                                0.046817     -0.019977     -0.037878

  FREE ENERGIE OF THE ION-ELECTRON SYSTEM (eV)
  free  energy   TOTEN  =     -2168.88330680 eV

  energy  without entropy=    -2168.88330680  energy(sigma->0) =    -2168.88330680

 writing wavefunctions