 vasp.6.3.0 20Jan22 (build Apr  1 2022 16:44:48) complex
 executed on        HPECrayEX_GCC date 2022.10.10  23:29:50

 INCAR:
   SYSTEM = MgO-rocksalt
   ISMEAR = 0
   SIGMA = 0.05
   EDIFF = 1E-6
   ALGO = ALL
   ISTART = 0
   IBRION = -1
   NSW = 0
   ISYM = 0
   DIPOL = 0.5 0.5 0.5
   IDIPOL = 3
   LDIPOL = .TRUE.
   LHFCALC = .TRUE.
   GGA = B5
   AEXX = 0.2
   AGGAX = 0.72
   AGGAC = 0.81
   ALDAC = 0.19
   IVDW = 1
   VDW_S6 = 1.05
   VDW_C6 = 0.63 0.70
   VDW_R0 = 1.243 1.342
   ENCUT = 600
   PREC = Accurate
   LASPH = .TRUE.
   LREAL = .FALSE.
   ISPIN = 1
   NELM = 200
   NELMIN = 8
   NCORE = 8
   KPAR = 1
   LWAVE = .FALSE.
   LCHARG = .FALSE.

 POTCAR:    PAW_PBE Mg_pv 13Apr2007
 POTCAR:    PAW_PBE O 08Apr2002
 POTCAR:    PAW_PBE Mg_pv 13Apr2007
   VRHFIN =Mg: p6s2

   TITEL  = PAW_PBE Mg_pv 13Apr2007
   POMASS =   24.305; ZVAL   =    8.000    mass and valenz
   ENMAX  =  403.929; ENMIN  =  302.947 eV

   TITEL  = PAW_PBE O 08Apr2002
   POMASS =   16.000; ZVAL   =    6.000    mass and valenz
   ENMAX  =  400.000; ENMIN  =  300.000 eV

  PAW_PBE Mg_pv 13Apr2007               :
  PAW_PBE O 08Apr2002                   :

 POSCAR: Mg  O
  positions in direct lattice
 exchange correlation table for  LEXCH =       12
   RHO(1)=    0.500       N(1)  =     2000
   RHO(2)=  100.500       N(2)  =     4000

 ion  position               nearest neighbor table
   1  0.250  0.000  0.352-  35 2.10  36 2.10  43 2.10  52 2.10  33 2.10
   2  0.500  0.250  0.352-  35 2.10  36 2.10  44 2.10  51 2.10  34 2.10
   3  0.250  0.250  0.451-  33 2.10  34 2.10  41 2.10  50 2.10  35 2.10  39 2.10
   4  0.500  0.000  0.451-  33 2.10  34 2.10  42 2.10  49 2.10  36 2.10  40 2.11
   5  0.250  0.000  0.550-  39 2.10  47 2.10  40 2.10  56 2.10  33 2.11  37 2.13
   6  0.500  0.251  0.550-  48 2.10  39 2.10  55 2.10  40 2.11  34 2.11  38 2.12
   7  0.249  0.250  0.648-  39 2.09  54 2.09  37 2.10  45 2.10  38 2.11
   8  0.500  0.002  0.648-  38 2.06  46 2.08  40 2.09  37 2.11  53 2.11
   9  0.250  0.500  0.352-  35 2.10  43 2.10  44 2.10  60 2.10  41 2.10
  10  0.500  0.750  0.352-  36 2.10  43 2.10  44 2.10  59 2.10  42 2.10
  11  0.250  0.750  0.451-  33 2.10  41 2.10  42 2.10  58 2.10  43 2.10  47 2.11
  12  0.500  0.500  0.451-  34 2.10  41 2.10  42 2.10  57 2.10  44 2.10  48 2.12
  13  0.251  0.500  0.550-  48 2.10  45 2.10  39 2.10  47 2.11  64 2.11  41 2.12
  14  0.500  0.749  0.550-  48 2.09  47 2.09  63 2.10  40 2.11  42 2.12  46 2.17
  15  0.248  0.750  0.647-  47 2.08  62 2.08  37 2.10  45 2.10  46 2.12
  16  0.498  0.493  0.653-  38 2.06  45 2.10  61 2.14  48 2.18  46 2.20
  17  0.750  0.000  0.352-  36 2.10  51 2.10  52 2.10  59 2.10  49 2.10
  18  0.000  0.250  0.352-  35 2.10  51 2.10  52 2.10  60 2.10  50 2.10
  19  0.750  0.250  0.451-  34 2.10  49 2.10  50 2.10  57 2.10  51 2.10  55 2.10
  20  0.000  0.000  0.451-  33 2.10  49 2.10  50 2.10  58 2.10  52 2.10  56 2.10
  21  0.750  0.000  0.550-  55 2.10  40 2.10  56 2.10  63 2.10  49 2.11  53 2.13
  22  0.000  0.250  0.550-  39 2.10  64 2.10  55 2.10  56 2.11  50 2.11  54 2.13
  23  0.751  0.250  0.647-  55 2.08  54 2.09  53 2.10  38 2.11  61 2.11
  24  0.000  0.001  0.647-  56 2.09  37 2.09  54 2.10  53 2.10  62 2.10
  25  0.750  0.500  0.352-  44 2.10  51 2.10  59 2.10  60 2.10  57 2.10
  26  0.000  0.750  0.352-  43 2.10  52 2.10  59 2.10  60 2.10  58 2.10
  27  0.750  0.750  0.451-  42 2.10  49 2.10  57 2.10  58 2.10  59 2.10  63 2.11
  28  0.000  0.500  0.451-  64 2.10  50 2.10  57 2.10  58 2.10  41 2.10  60 2.10
  29  0.749  0.500  0.550-  48 2.09  55 2.10  63 2.10  64 2.11  57 2.12  61 2.13
  30  0.000  0.750  0.549-  64 2.10  56 2.10  47 2.10  58 2.10  63 2.11  62 2.13
  31  0.752  0.751  0.646-  63 2.06  62 2.08  53 2.09  61 2.11  46 2.12
  32  0.000  0.500  0.647-  45 2.08  64 2.09  61 2.09  54 2.10  62 2.11
  33  0.250  0.000  0.451-   3 2.10   4 2.10  11 2.10  20 2.10   1 2.10   5 2.11
  34  0.500  0.250  0.451-   3 2.10   4 2.10  12 2.10  19 2.10   2 2.10   6 2.11
  35  0.250  0.250  0.352-   1 2.10   2 2.10   9 2.10  18 2.10   3 2.10
  36  0.500  0.000  0.352-   1 2.10   2 2.10  10 2.10  17 2.10   4 2.10
  37  0.249  0.000  0.650-  24 2.09   7 2.10  15 2.10   8 2.11   5 2.13
  38  0.500  0.248  0.649-  16 2.06   8 2.06  23 2.11   7 2.11   6 2.12
  39  0.250  0.250  0.549-   7 2.09   5 2.10  22 2.10   6 2.10  13 2.10   3 2.10
  40  0.500  1.000  0.550-   8 2.09  21 2.10   5 2.10  14 2.11   4 2.11   6 2.11
  41  0.250  0.500  0.451-   3 2.10  11 2.10  12 2.10  28 2.10   9 2.10  13 2.12
  42  0.500  0.750  0.451-   4 2.10  11 2.10  12 2.10  27 2.10  10 2.10  14 2.12
  43  0.250  0.750  0.352-   1 2.10   9 2.10  10 2.10  26 2.10  11 2.10
  44  0.500  0.500  0.352-   2 2.10   9 2.10  10 2.10  25 2.10  12 2.10
  45  0.248  0.500  0.649-  32 2.08  13 2.10  15 2.10  16 2.10   7 2.10
  46  0.500  0.755  0.652-   8 2.08  15 2.12  31 2.12  14 2.17  16 2.20
  47  0.251  0.750  0.550-  15 2.08  14 2.09   5 2.10  30 2.10  13 2.11  11 2.11
  48  0.500  0.500  0.550-  14 2.09  29 2.09  13 2.10   6 2.10  12 2.12  16 2.18
  49  0.750  0.000  0.451-   4 2.10  19 2.10  20 2.10  27 2.10  17 2.10  21 2.11
  50  0.000  0.250  0.451-   3 2.10  19 2.10  20 2.10  28 2.10  18 2.10  22 2.11
  51  0.750  0.250  0.352-   2 2.10  17 2.10  18 2.10  25 2.10  19 2.10
  52  0.000  0.000  0.352-   1 2.10  17 2.10  18 2.10  26 2.10  20 2.10
  53  0.751  0.000  0.650-  31 2.09  24 2.10  23 2.10   8 2.11  21 2.13
  54  1.000  0.250  0.650-  23 2.09   7 2.09  24 2.10  32 2.10  22 2.13
  55  0.750  0.250  0.549-  23 2.08  21 2.10  29 2.10  22 2.10   6 2.10  19 2.10
  56  1.000  1.000  0.549-  24 2.09  20 2.10  30 2.10  21 2.10   5 2.10  22 2.11
  57  0.750  0.500  0.451-  12 2.10  19 2.10  27 2.10  28 2.10  25 2.10  29 2.12
  58  0.000  0.750  0.451-  11 2.10  20 2.10  27 2.10  28 2.10  26 2.10  30 2.10
  59  0.750  0.750  0.352-  10 2.10  17 2.10  25 2.10  26 2.10  27 2.10
  60  0.000  0.500  0.352-   9 2.10  18 2.10  25 2.10  26 2.10  28 2.10
  61  0.752  0.500  0.650-  32 2.09  31 2.11  23 2.11  29 2.13  16 2.14
  62  1.000  0.751  0.649-  31 2.08  15 2.08  24 2.10  32 2.11  30 2.13
  63  0.749  0.750  0.550-  31 2.06  14 2.10  21 2.10  29 2.10  27 2.11  30 2.11
  64  1.000  0.500  0.549-  32 2.09  30 2.10  28 2.10  22 2.10  29 2.11  13 2.11

IMPORTANT INFORMATION: All symmetrisations will be switched off!
NOSYMM: (Re-)initialisation of all symmetry stuff for point group C_1.

                                     Primitive cell

  volume of cell :    1504.9259

  direct lattice vectors                    reciprocal lattice vectors
     8.404861995  0.000000000  0.000000000     0.118978753  0.000000000  0.000000000
     0.000000000  8.404861995  0.000000000     0.000000000  0.118978753  0.000000000
     0.000000000  0.000000000 21.303646496     0.000000000  0.000000000  0.046940321

  length of vectors
     8.404861995  8.404861995 21.303646496     0.118978753  0.118978753  0.046940321

  position of ions in fractional coordinates (direct lattice)
     0.250000000  0.000000000  0.352052406
     0.500000000  0.250000000  0.352052406
     0.250000000  0.250000000  0.450684135
     0.500000000  0.000000000  0.450684135
     0.250100781  0.000269126  0.549693163
     0.499767964  0.250722028  0.549943036
     0.248780719  0.249859178  0.647654469
     0.499644051  0.002169361  0.647543822
     0.250000000  0.500000000  0.352052406
     0.500000000  0.750000000  0.352052406
     0.250000000  0.750000000  0.450684135
     0.500000000  0.500000000  0.450684135
     0.250825431  0.499856880  0.550093419
     0.499703349  0.749065083  0.550105314
     0.247712614  0.750238697  0.647292135
     0.497862510  0.493099251  0.652591733
     0.750000000  0.000000000  0.352052406
     0.000000000  0.250000000  0.352052406
     0.750000000  0.250000000  0.450684135
     0.000000000  0.000000000  0.450684135
     0.749756666  0.000421736  0.549595265
     0.000055387  0.250338647  0.549556917
     0.750867579  0.249547440  0.647330786
     0.000109951  0.000584548  0.647467140
     0.750000000  0.500000000  0.352052406
     0.000000000  0.750000000  0.352052406
     0.750000000  0.750000000  0.450684135
     0.000000000  0.500000000  0.450684135
     0.748860615  0.499805564  0.550186707
     0.000230737  0.749845812  0.549442262
     0.752411791  0.751017633  0.646426807
     0.000452718  0.499726845  0.647293789
     0.250000000  0.000000000  0.450684135
     0.500000000  0.250000000  0.450684135
     0.250000000  0.250000000  0.352052406
     0.500000000  0.000000000  0.352052406
     0.249061600  0.000158790  0.649546787
     0.500025852  0.247760610  0.649432683
     0.249903901  0.249746588  0.549413283
     0.500041591  0.999514371  0.549515177
     0.250000000  0.500000000  0.450684135
     0.500000000  0.750000000  0.450684135
     0.250000000  0.750000000  0.352052406
     0.500000000  0.500000000  0.352052406
     0.248082459  0.500204185  0.648634793
     0.500077240  0.755034517  0.652123690
     0.250523999  0.750362999  0.549615856
     0.500168392  0.500495410  0.550424172
     0.750000000  0.000000000  0.450684135
     0.000000000  0.250000000  0.450684135
     0.750000000  0.250000000  0.352052406
     0.000000000  0.000000000  0.352052406
     0.750723524  0.000118076  0.649521158
     0.999752279  0.249789393  0.649542658
     0.749923863  0.250038090  0.549482206
     0.999824122  0.999880288  0.549319624
     0.750000000  0.500000000  0.450684135
     0.000000000  0.750000000  0.450684135
     0.750000000  0.750000000  0.352052406
     0.000000000  0.500000000  0.352052406
     0.751730959  0.500434431  0.650124609
     0.999790012  0.750548183  0.649387340
     0.749362948  0.750145493  0.549580176
     0.999548810  0.500278027  0.549250186

  ion indices of the primitive-cell ions
   primitive index   ion index
                 1           1
                 2           2
                 3           3
                 4           4
                 5           5
                 6           6
                 7           7
                 8           8
                 9           9
                10          10
                11          11
                12          12
                13          13
                14          14
                15          15
                16          16
                17          17
                18          18
                19          19
                20          20
                21          21
                22          22
                23          23
                24          24
                25          25
                26          26
                27          27
                28          28
                29          29
                30          30
                31          31
                32          32
                33          33
                34          34
                35          35
                36          36
                37          37
                38          38
                39          39
                40          40
                41          41
                42          42
                43          43
                44          44
[...]
   0.50000000  0.75000000  0.45068414
   0.25000000  0.75000000  0.35205241
   0.50000000  0.50000000  0.35205241
   0.24808246  0.50020419  0.64863479
   0.50007724  0.75503452  0.65212369
   0.25052400  0.75036300  0.54961586
   0.50016839  0.50049541  0.55042417
   0.75000000  0.00000000  0.45068414
   0.00000000  0.25000000  0.45068414
   0.75000000  0.25000000  0.35205241
   0.00000000  0.00000000  0.35205241
   0.75072352  0.00011808  0.64952116
   0.99975228  0.24978939  0.64954266
   0.74992386  0.25003809  0.54948221
   0.99982412  0.99988029  0.54931962
   0.75000000  0.50000000  0.45068414
   0.00000000  0.75000000  0.45068414
   0.75000000  0.75000000  0.35205241
   0.00000000  0.50000000  0.35205241
   0.75173096  0.50043443  0.65012461
   0.99979001  0.75054818  0.64938734
   0.74936295  0.75014549  0.54958018
   0.99954881  0.50027803  0.54925019

 position of ions in cartesian coordinates  (Angst):
   2.10121550  0.00000000  7.50000000
   4.20243100  2.10121550  7.50000000
   2.10121550  2.10121550  9.60121550
   4.20243100  0.00000000  9.60121550
   2.10206255  0.00226197 11.71046883
   4.20048077  2.10728405 11.71579203
   2.09096761  2.10003191 13.79740185
   4.19943929  0.01823318 13.79504468
   2.10121550  4.20243100  7.50000000
   4.20243100  6.30364650  7.50000000
   2.10121550  6.30364650  9.60121550
   4.20243100  4.20243100  9.60121550
   2.10815313  4.20122809 11.71899573
   4.19993769  6.29578864 11.71924915
   2.08199034  6.30565271 13.78968282
   4.18446569  4.14443116 13.90258358
   6.30364650  0.00000000  7.50000000
   0.00000000  2.10121550  7.50000000
   6.30364650  2.10121550  9.60121550
   0.00000000  0.00000000  9.60121550
   6.30160131  0.00354463 11.70838325
   0.00046552  2.10406178 11.70756630
   6.31093838  2.09741179 13.79050622
   0.00092412  0.00491304 13.79341107
   6.30364650  4.20243100  7.50000000
   0.00000000  6.30364650  7.50000000
   6.30364650  6.30364650  9.60121550
   0.00000000  4.20243100  9.60121550
   6.29407012  4.20079679 11.72098311
   0.00193931  6.30235057 11.70512373
   6.32391726  6.31219956 13.77124818
   0.00380503  4.20013517 13.78971807
   2.10121550  0.00000000  9.60121550
   4.20243100  2.10121550  9.60121550
   2.10121550  2.10121550  7.50000000
   4.20243100  0.00000000  7.50000000
   2.09332838  0.00133461 13.83771514
   4.20264828  2.08239373 13.83528430
   2.10040780  2.09908560 11.70450635
   4.20278056  8.40078035 11.70667707
   2.10121550  4.20243100  9.60121550
   4.20243100  6.30364650  9.60121550
   2.10121550  6.30364650  7.50000000
   4.20243100  4.20243100  7.50000000
   2.08509883  4.20414715 13.81828634
   4.20308019  6.34596092 13.89261256
   2.10561964  6.30669745 11.70882190
   4.20384631  4.20659485 11.72604197
   6.30364650  0.00000000  9.60121550
   0.00000000  2.10121550  9.60121550
   6.30364650  2.10121550  7.50000000
   0.00000000  0.00000000  7.50000000
   6.30972761  0.00099241 13.83716913
   8.40277994  2.09944537 13.83762716
   6.30300657  2.10153564 11.70597468
   8.40338377  8.40385583 11.70251108
   6.30364650  4.20243100  9.60121550
   0.00000000  6.30364650  9.60121550
   6.30364650  6.30364650  7.50000000
   0.00000000  4.20243100  7.50000000
   6.31819496  4.20608233 13.85002486
   8.40309707  6.30825390 13.83431834
   6.29829216  6.30486935 11.70806178
   8.40106980  4.20476777 11.70103180

--------------------------------------- Iteration      FINAL  ---------------------------------------

--------------------OUTCAR has been truncated-------------------------

[...]

--------------------OUTCAR has been truncated-------------------------

  DFT-D2 method for vdW energy calculation

  Parameters of vdW forcefield:
         C6(Jnm^6/mol)     R0(A)
   Mg       0.630          1.243
   O        0.700          1.342

  vdW correction parametrized for the method M>ü      

  IVDW =   1
  VDW_RADIUS =    50.000 A
  VDW_S6 =     1.050
  VDW_SR =     1.000
  VDW_D =    20.000
  LVDW_EWALD = F

  Number of pair interactions contributing to vdW energy:  731082
  Edisp (eV):   -5.17025

 VOLUME and BASIS-vectors are now :
  energy-cutoff  :      600.00
  volume of cell :     1504.93
      direct lattice vectors                 reciprocal lattice vectors
     8.404861995  0.000000000  0.000000000     0.118978753  0.000000000  0.000000000
     0.000000000  8.404861995  0.000000000     0.000000000  0.118978753  0.000000000
     0.000000000  0.000000000 21.303646496     0.000000000  0.000000000  0.046940321

  length of vectors
     8.404861995  8.404861995 21.303646496     0.118978753  0.118978753  0.046940321

 FORCES acting on ions:
    Electron-Ion                     Ewald-Force                    Non-Local-Force
   -.310E+00 0.129E+00 0.209E+04   0.315E+00 -.132E+00 -.208E+04   -.300E-02 0.167E-02 -.642E+01
   -.320E-01 -.320E+00 0.209E+04   0.330E-01 0.325E+00 -.208E+04   -.641E-03 -.346E-02 -.640E+01
   -.136E+01 -.127E+01 0.693E+03   0.138E+01 0.128E+01 -.694E+03   -.596E-02 0.123E-03 0.403E+00
   -.101E-01 0.674E+00 0.692E+03   -.148E-02 -.741E+00 -.692E+03   0.726E-02 0.424E-01 0.335E+00
   -.203E+01 0.198E+01 -.694E+03   0.210E+01 -.204E+01 0.694E+03   -.561E-01 0.165E-01 -.265E+00
   -.683E+00 -.398E+01 -.696E+03   0.687E+00 0.414E+01 0.696E+03   0.104E-01 -.162E+00 -.123E+00
   -.225E+01 -.170E+01 -.208E+04   0.146E+01 0.102E+01 0.207E+04   0.615E+00 0.472E+00 0.576E+01
   -.700E+00 0.601E+01 -.207E+04   0.721E+00 -.708E+01 0.207E+04   0.865E-02 0.640E+00 0.519E+01
   -.390E+00 -.129E+00 0.209E+04   0.398E+00 0.132E+00 -.208E+04   -.518E-02 -.187E-02 -.641E+01
   -.290E-01 0.318E+00 0.209E+04   0.298E-01 -.324E+00 -.208E+04   -.437E-03 0.370E-02 -.644E+01
   -.166E+01 0.129E+01 0.692E+03   0.175E+01 -.128E+01 -.692E+03   -.610E-01 -.368E-02 0.429E+00
   -.166E+00 -.663E+00 0.687E+03   0.196E+00 0.721E+00 -.688E+03   -.204E-01 -.385E-01 0.606E+00
   -.490E+01 -.243E+01 -.696E+03   0.526E+01 0.250E+01 0.697E+03   -.306E+00 -.238E-01 -.547E+00
   -.690E+00 0.586E+01 -.712E+03   0.658E+00 -.604E+01 0.713E+03   0.421E-01 0.180E+00 -.245E-01
   -.115E+02 0.401E+01 -.207E+04   0.117E+02 -.345E+01 0.207E+04   0.976E-01 -.392E+00 0.548E+01
   -.626E+01 -.255E+02 -.212E+04   0.637E+01 0.252E+02 0.211E+04   0.122E+00 0.992E+00 0.622E+01
   0.309E+00 0.127E+00 0.209E+04   -.314E+00 -.129E+00 -.208E+04   0.322E-02 0.129E-02 -.641E+01
   0.315E-01 -.238E+00 0.209E+04   -.329E-01 0.240E+00 -.208E+04   0.906E-03 -.151E-02 -.640E+01
   0.135E+01 -.141E+01 0.693E+03   -.137E+01 0.146E+01 -.693E+03   0.102E-01 -.334E-01 0.421E+00
   0.207E-02 0.295E+00 0.694E+03   0.334E-02 -.284E+00 -.695E+03   -.357E-02 -.710E-02 0.313E+00
   0.205E+01 0.185E+01 -.693E+03   -.212E+01 -.188E+01 0.693E+03   0.573E-01 -.137E-01 -.269E+00
   0.584E+00 -.990E+00 -.692E+03   -.585E+00 0.971E+00 0.693E+03   -.118E-01 -.846E-02 -.860E-01
   0.260E+01 -.434E+01 -.207E+04   -.188E+01 0.395E+01 0.207E+04   -.570E+00 0.322E+00 0.559E+01
   0.552E+00 0.149E+01 -.208E+04   -.570E+00 -.144E+01 0.207E+04   -.844E-02 -.674E-01 0.549E+01
   0.389E+00 -.126E+00 0.209E+04   -.397E+00 0.128E+00 -.208E+04   0.570E-02 -.167E-02 -.643E+01
   0.295E-01 0.239E+00 0.209E+04   -.304E-01 -.241E+00 -.208E+04   0.530E-03 0.124E-02 -.639E+01
   0.163E+01 0.142E+01 0.691E+03   -.173E+01 -.146E+01 -.692E+03   0.625E-01 0.268E-01 0.415E+00
   0.137E+00 -.290E+00 0.693E+03   -.183E+00 0.286E+00 -.694E+03   0.297E-01 0.256E-02 0.297E+00
   0.528E+01 -.237E+01 -.704E+03   -.565E+01 0.241E+01 0.704E+03   0.311E+00 0.278E-02 -.310E+00
   0.521E+00 0.110E+01 -.690E+03   -.481E+00 -.108E+01 0.691E+03   -.494E-01 0.616E-02 -.129E+00
   0.128E+02 0.726E+01 -.206E+04   -.130E+02 -.696E+01 0.206E+04   -.137E+00 -.291E+00 0.526E+01
   0.250E+01 -.167E+01 -.207E+04   -.279E+01 0.162E+01 0.207E+04   0.144E+00 0.748E-01 0.547E+01
   -.884E+00 0.514E+00 0.520E+03   0.894E+00 -.529E+00 -.520E+03   -.121E-01 0.161E-01 -.884E-01
   -.159E+00 -.111E+01 0.518E+03   0.169E+00 0.106E+01 -.518E+03   -.107E-01 0.616E-01 -.680E-01
   -.246E+00 -.206E+00 0.157E+04   0.249E+00 0.207E+00 -.157E+04   -.346E-02 -.722E-03 0.312E+01
   -.130E-01 0.108E+00 0.157E+04   0.123E-01 -.115E+00 -.157E+04   0.866E-03 0.913E-02 0.311E+01
   -.241E+01 0.231E+01 -.158E+04   0.277E+01 -.270E+01 0.158E+04   -.358E+00 0.457E+00 -.463E+01
   -.946E+00 -.102E+01 -.157E+04   0.111E+01 0.299E+00 0.158E+04   -.203E+00 0.846E+00 -.375E+01
   -.165E+01 -.169E+01 -.515E+03   0.162E+01 0.166E+01 0.514E+03   0.387E-01 0.598E-01 0.376E+00
   0.717E-02 0.267E+01 -.516E+03   0.372E-02 -.288E+01 0.515E+03   -.199E-01 0.269E+00 0.265E+00
   -.135E+01 -.509E+00 0.517E+03   0.130E+01 0.517E+00 -.517E+03   0.547E-01 -.771E-02 -.111E+00
   -.143E+00 0.109E+01 0.517E+03   0.157E+00 -.103E+01 -.516E+03   -.164E-01 -.723E-01 -.182E+00
   -.278E+00 0.206E+00 0.157E+04   0.289E+00 -.207E+00 -.157E+04   -.134E-01 0.990E-03 0.312E+01
   -.273E-01 -.107E+00 0.157E+04   0.316E-01 0.115E+00 -.157E+04   -.539E-02 -.949E-02 0.311E+01
   -.574E+01 -.426E+01 -.157E+04   0.561E+01 0.471E+01 0.157E+04   0.271E+00 -.518E+00 -.367E+01
   -.128E+01 0.170E+02 -.159E+04   0.152E+01 -.175E+02 0.159E+04   -.269E+00 0.218E-01 -.486E+01
   -.386E+01 0.198E+01 -.517E+03   0.392E+01 -.194E+01 0.517E+03   -.110E+00 -.714E-01 0.355E+00
   -.104E+01 -.410E+01 -.538E+03   0.108E+01 0.429E+01 0.539E+03   -.602E-01 -.253E+00 -.647E+00
   0.868E+00 0.513E+00 0.520E+03   -.871E+00 -.538E+00 -.520E+03   0.341E-02 0.285E-01 -.606E-01
   0.142E+00 -.580E+00 0.520E+03   -.143E+00 0.576E+00 -.520E+03   0.784E-03 0.441E-02 -.296E-01
   0.246E+00 -.221E+00 0.157E+04   -.249E+00 0.226E+00 -.157E+04   0.320E-02 -.668E-02 0.312E+01
   0.135E-01 0.747E-01 0.157E+04   -.126E-01 -.744E-01 -.157E+04   -.112E-02 -.351E-03 0.312E+01
   0.258E+01 0.182E+01 -.158E+04   -.296E+01 -.217E+01 0.158E+04   0.377E+00 0.429E+00 -.478E+01
   0.615E+00 -.144E+01 -.158E+04   -.753E+00 0.142E+01 0.158E+04   0.169E+00 0.617E-01 -.456E+01
   0.171E+01 -.246E+01 -.515E+03   -.168E+01 0.244E+01 0.514E+03   -.378E-01 0.280E-01 0.430E+00
   -.722E-02 0.289E+00 -.514E+03   -.682E-02 -.309E+00 0.514E+03   0.227E-01 0.383E-01 0.187E+00
   0.133E+01 -.492E+00 0.517E+03   -.126E+01 0.504E+00 -.517E+03   -.762E-01 -.128E-01 -.173E+00
   0.147E+00 0.603E+00 0.520E+03   -.159E+00 -.608E+00 -.520E+03   0.135E-01 0.651E-02 0.323E-02
   0.278E+00 0.220E+00 0.157E+04   -.288E+00 -.226E+00 -.157E+04   0.134E-01 0.718E-02 0.311E+01
   0.282E-01 -.752E-01 0.157E+04   -.320E-01 0.747E-01 -.157E+04   0.469E-02 0.648E-03 0.312E+01
   0.892E+01 -.431E+01 -.158E+04   -.911E+01 0.481E+01 0.158E+04   -.514E-02 -.576E+00 -.434E+01
   0.191E+00 0.157E+01 -.158E+04   -.300E+00 -.155E+01 0.158E+04   0.151E+00 -.580E-01 -.468E+01
   0.396E+01 0.279E+01 -.515E+03   -.402E+01 -.276E+01 0.514E+03   0.107E+00 -.404E-01 0.555E+00
   0.780E+00 -.372E+00 -.513E+03   -.823E+00 0.399E+00 0.512E+03   0.665E-01 -.445E-01 0.421E+00
   -.422E+00 -.262E+01 0.165E+02   -.651E-12 -.215E-12 -.614E-11   0.385E+00 0.241E+01 -.145E+02

 POSITION                                       TOTAL-FORCE (eV/Angst)
      2.10122      0.00000      7.50000         0.001328     -0.000823      0.408381
      4.20243      2.10122      7.50000         0.000379      0.001019      0.404797
      2.10122      2.10122      9.60122         0.003336      0.001942      0.015684
      4.20243      0.00000      9.60122        -0.003341     -0.018667      0.056711
      2.10206      0.00226     11.71047         0.007818     -0.037050      0.013474
      4.20048      2.10728     11.71579         0.013607     -0.011001     -0.088659
      2.09097      2.10003     13.79740        -0.102897     -0.149945     -0.106618
      4.19944      0.01823     13.79504         0.028850     -0.342120      0.094496
      2.10122      4.20243      7.50000         0.001842      0.000756      0.406711
      4.20243      6.30365      7.50000         0.000325     -0.001194      0.414027
      2.10122      6.30365      9.60122         0.025447      0.000143      0.037246
      4.20243      4.20243      9.60122         0.007415      0.015276      0.060275
      2.10815      4.20123     11.71900         0.022807      0.037241     -0.093290
      4.19994      6.29579     11.71925         0.013214      0.017325      0.183284
      2.08199      6.30565     13.78968         0.274907      0.119876      0.074911
      4.18447      4.14443     13.90258         0.217638      0.678358     -0.671767
      6.30365      0.00000      7.50000        -0.001287     -0.000736      0.406450
      0.00000      2.10122      7.50000        -0.000332      0.000529      0.405501
      6.30365      2.10122      9.60122        -0.005333      0.015610      0.021697
      0.00000      0.00000      9.60122         0.001456      0.003305      0.025474
      6.30160      0.00354     11.70838        -0.007410     -0.036596      0.027861
      0.00047      2.10406     11.70757        -0.012638     -0.026012     -0.013252
      6.31094      2.09741     13.79051         0.090863     -0.036999      0.006734
      0.00092      0.00491     13.79341        -0.024883     -0.029234     -0.001057
      6.30365      4.20243      7.50000        -0.001900      0.000707      0.411805
      0.00000      6.30365      7.50000        -0.000240     -0.000590      0.403040
      6.30365      6.30365      9.60122        -0.025486     -0.011649      0.044577
      0.00000      4.20243      9.60122        -0.012439     -0.000986      0.034865
      6.29407      4.20080     11.72098        -0.020871      0.037012     -0.003040
      0.00194      6.30235     11.70512        -0.012649      0.024156      0.000186
      6.32392      6.31220     13.77125        -0.312133     -0.016188      0.281506
      0.00381      4.20014     13.78972        -0.122203      0.029479      0.025262
      2.10122      0.00000      9.60122        -0.003595      0.003460      0.033630
      4.20243      2.10122      9.60122        -0.002418      0.019362      0.070237
      2.10122      2.10122      7.50000        -0.001118     -0.000309     -0.492419
      4.20243      0.00000      7.50000         0.000345      0.003008     -0.494518
      2.09333      0.00133     13.83772        -0.043433      0.127843     -0.011854
      4.20265      2.08239     13.83528        -0.065930      0.242797      0.225534
      2.10041      2.09909     11.70451         0.015231      0.039622      0.041003
      4.20278      8.40078     11.70668        -0.011780      0.098151     -0.023498
      2.10122      4.20243      9.60122         0.017081     -0.001212      0.071237
      4.20243      6.30365      9.60122        -0.004169     -0.022003      0.046615
      2.10122      6.30365      7.50000        -0.004490      0.000281     -0.494055
      4.20243      4.20243      7.50000        -0.001801     -0.003281     -0.496444
      2.08510      4.20415     13.81829         0.192313     -0.138135      0.324531
      4.20308      6.34596     13.89261        -0.071103     -0.487976     -0.214343
      2.10562      6.30670     11.70882        -0.061732     -0.040255     -0.038081
      4.20385      4.20659     11.72604        -0.033225     -0.095020      0.010001
      6.30365      0.00000      9.60122         0.001168      0.007102      0.033170
      0.00000      2.10122      9.60122        -0.000419      0.000244      0.038771
      6.30365      2.10122      7.50000         0.001116     -0.002332     -0.493112
      0.00000      0.00000      7.50000        -0.000344     -0.000170     -0.491998
      6.30973      0.00099     13.83717         0.047098      0.137929     -0.051264
      8.40278      2.09945     13.83763         0.054281      0.052333      0.001569
      6.30301      2.10154     11.70597        -0.014798      0.017405      0.013175
      8.40338      8.40386     11.70251         0.011930      0.023142     -0.014486
      6.30365      4.20243      9.60122        -0.023430     -0.002792      0.058140
      0.00000      6.30365      9.60122         0.003201      0.002795      0.039216
      6.30365      6.30365      7.50000         0.004576      0.002391     -0.494690
      0.00000      4.20243      7.50000         0.001617      0.000152     -0.493025
      6.31819      4.20608     13.85002        -0.210566     -0.153571      0.051624
      8.40310      6.30825     13.83432         0.064237     -0.051997     -0.021087
      6.29829      6.30487     11.70806         0.061550     -0.018213     -0.066147
      8.40107      4.20477     11.70103         0.033417     -0.023699      0.045295
    total drift:                               -0.003073      0.004166      0.000794

  FREE ENERGIE OF THE ION-ELECTRON SYSTEM (eV)
  free  energy   TOTEN  =      -438.62499309 eV

  energy  without entropy=     -438.62499309  energy(sigma->0) =     -438.62499309