 vasp.6.3.0 20Jan22 (build Dec 25 2023 18:06:01) complex
 executed on        HPECrayEX_GCC date 2024.11.25  22:02:52

 INCAR:
   SYSTEM = TiO2
   ISMEAR = 0
   SIGMA = 0.05
   EDIFF = 1E-7
   ALGO = Normal
   ISTART = 0
   IBRION = 2
   NSW = 1000
   ISYM = 0
   ISIF = 2
   EDIFFG = -0.02
   DIPOL = 0.5 0.5 0.5
   IDIPOL = 3
   LDIPOL = .TRUE.
   LHFCALC = .TRUE.
   HFSCREEN = 0.2
   GGA = PE
   IVDW = 13
   VDW_S8 = 1.19528249
   VDW_A1 = 0.38663183
   VDW_A2 = 5.19133469
   ENCUT = 520
   PREC = Normal
   PRECFOCK = Fast
   LASPH = .TRUE.
   LREAL = .FALSE.
   ISPIN = 1
   NKREDX = 2
   NKREDY = 2
   NELM = 200
   NELMIN = 8
   NCORE = 8
   KPAR = 1
   LWAVE = .FALSE.
   LCHARG = .FALSE.

 POTCAR:    PAW_PBE C 08Apr2002
 POTCAR:    PAW_PBE O 08Apr2002
 POTCAR:    PAW_PBE Ti 08Apr2002
 POTCAR:    PAW_PBE O 08Apr2002
 POTCAR:    PAW_PBE C 08Apr2002
   VRHFIN =C: s2p2

   TITEL  = PAW_PBE C 08Apr2002
   POMASS =   12.011; ZVAL   =    4.000    mass and valenz
   ENMAX  =  400.000; ENMIN  =  300.000 eV

[...]

   TITEL  = PAW_PBE O 08Apr2002
   POMASS =   16.000; ZVAL   =    6.000    mass and valenz
   ENMAX  =  400.000; ENMIN  =  300.000 eV

  PAW_PBE C 08Apr2002                   :
  PAW_PBE O 08Apr2002                   :
  PAW_PBE Ti 08Apr2002                  :
  PAW_PBE O 08Apr2002                   :

 POSCAR:  C  O Ti  O
  positions in direct lattice
  velocities in cartesian coordinates
|           W    W    AA    RRRRR   N    N  II  N    N   GGGG   !!!           |
|           W    W   A  A   R    R  NN   N  II  NN   N  G    G  !!!           |
|           W    W  A    A  R    R  N N  N  II  N N  N  G       !!!           |
|           W WW W  AAAAAA  RRRRR   N  N N  II  N  N N  G  GGG   !            |
|           WW  WW  A    A  R   R   N   NN  II  N   NN  G    G                |
|           W    W  A    A  R    R  N    N  II  N    N   GGGG   !!!           |
|     Specifying the vdW parameters                                           |
|     VDW_S8 = 1.195                                                          |
|     VDW_A1 = 0.387                                                          |
|     VDW_A2 = 5.191                                                          |
|     in the INCAR file will overwrite the defaults for hse06. Please         |
|     make sure that is what you intended.                                    |

 ion  position               nearest neighbor table
   1  0.500  0.607  0.835-   2 1.16   3 1.17
   2  0.500  0.704  0.843-   1 1.16
   3  0.500  0.511  0.825-   1 1.17  83 2.56
   4  0.750  0.625  0.265-  84 1.94  85 1.94 144 1.94 145 1.94 166 1.96  87 1.96  14 2.94  34 2.94

   5  0.000  0.750  0.265-  87 1.94 107 1.94 106 1.94  86 1.94  88 1.96  35 2.94  15 2.94
   6  0.000  0.625  0.382-  88 1.94  89 1.94 148 1.94 149 1.94  90 1.96  91 1.96  16 2.94  36 2.94

[...]

  84  0.750  0.750  0.219-   4 1.94  14 1.94
  85  0.750  0.750  0.311-   4 1.94  14 1.94   7 1.96
  86  0.098  0.625  0.265-   5 1.94  35 1.94  44 1.96
  87  0.902  0.625  0.265-   5 1.94  35 1.94   4 1.96
  88  0.000  0.750  0.336-   6 1.94  16 1.94   5 1.96
  89  0.000  0.750  0.428-   6 1.94  16 1.94   9 1.96
  90  0.848  0.625  0.382-   7 1.94  37 1.94   6 1.96
  91  0.152  0.625  0.382-  47 1.94  77 1.94   6 1.96
  92  0.750  0.750  0.454-   8 1.94  18 1.94   7 1.96
  93  0.750  0.750  0.546-   8 1.94  18 1.94  11 2.09
  94  0.098  0.625  0.500-   9 1.94  39 1.94  48 1.96
  95  0.902  0.625  0.500-   9 1.94  39 1.94   8 1.96
  96  1.000  0.750  0.572-  20 1.89  10 1.89   9 1.98
  97  0.000  0.750  0.665-  13 1.81  10 2.00  20 2.00
  98  0.850  0.625  0.618-  10 1.94  11 1.96  41 1.96
  99  0.150  0.625  0.618-  10 1.94  51 1.96  81 1.96
 100  0.751  0.750  0.690-  11 1.86  12 2.07  22 2.08
 101  0.749  0.750  0.783-  22 1.83  12 1.83
 102  0.094  0.625  0.743-  43 1.93  13 1.93  52 2.01
 103  0.906  0.625  0.743-  43 1.93  13 1.93  12 2.01
 104  0.750  0.000  0.219-  14 1.94  24 1.94
 105  0.750  0.000  0.311-  14 1.94  24 1.94  17 1.96
 106  0.098  0.875  0.265-   5 1.94  15 1.94  54 1.96
 107  0.902  0.875  0.265-   5 1.94  15 1.94  14 1.96
 108  0.000  0.000  0.336-  16 1.94  26 1.94  15 1.96
 109  0.000  0.000  0.428-  16 1.94  26 1.94  19 1.96
 110  0.848  0.875  0.382-   7 1.94  17 1.94  16 1.96
 111  0.152  0.875  0.382-  47 1.94  57 1.94  16 1.96
 112  0.750  0.000  0.454-  18 1.94  28 1.94  17 1.96
 113  0.750  0.000  0.546-  18 1.94  28 1.94  21 2.09
 114  0.098  0.875  0.500-   9 1.94  19 1.94  58 1.96
 115  0.902  0.875  0.500-   9 1.94  19 1.94  18 1.96
 116  1.000  0.000  0.572-  30 1.89  20 1.89  19 1.98
 117  0.000  0.000  0.665-  23 1.81  30 2.00  20 2.00
 118  0.850  0.875  0.619-  20 1.94  21 1.96  11 1.96
 119  0.150  0.875  0.619-  20 1.94  61 1.96  51 1.96
 120  0.750  0.000  0.690-  21 1.86  22 2.07  32 2.08
 121  0.750  0.000  0.783-  22 1.83  32 1.83
 122  0.094  0.875  0.743-  13 1.93  23 1.93  62 2.02
 123  0.906  0.875  0.743-  13 1.93  23 1.93  22 2.02
 124  0.750  0.250  0.219-  24 1.94  34 1.94
 125  0.750  0.250  0.311-  24 1.94  34 1.94  27 1.96
 126  0.098  0.125  0.265-  15 1.94  25 1.94  64 1.96
 127  0.902  0.125  0.265-  15 1.94  25 1.94  24 1.96
 128  0.000  0.250  0.336-  26 1.94  36 1.94  25 1.96
 129  0.000  0.250  0.428-  26 1.94  36 1.94  29 1.96
 130  0.848  0.125  0.382-  17 1.94  27 1.94  26 1.96
 131  0.152  0.125  0.382-  57 1.94  67 1.94  26 1.96
 132  0.750  0.250  0.454-  28 1.94  38 1.94  27 1.96
 133  0.750  0.250  0.546-  28 1.94  38 1.94  31 2.09
 134  0.098  0.125  0.500-  19 1.94  29 1.94  68 1.96
 135  0.902  0.125  0.500-  19 1.94  29 1.94  28 1.96
 136  1.000  0.250  0.572-  30 1.89  40 1.89  29 1.98
 137  0.000  0.250  0.665-  33 1.81  40 2.00  30 2.00
 138  0.850  0.125  0.619-  30 1.94  21 1.96  31 1.96
 139  0.150  0.125  0.619-  30 1.94  61 1.96  71 1.96
 140  0.751  0.250  0.690-  31 1.86  32 2.07  42 2.08
 141  0.750  0.250  0.783-  42 1.83  32 1.83
 142  0.094  0.125  0.743-  33 1.93  23 1.93  72 2.02
 143  0.906  0.125  0.743-  33 1.93  23 1.93  32 2.02
[...]
 229  0.500  0.500  0.428-  46 1.94  76 1.94  79 1.96
 230  0.348  0.375  0.382-  67 1.94  77 1.94  76 1.96
 231  0.652  0.375  0.382-  27 1.94  37 1.94  76 1.96
 232  0.250  0.500  0.454-  48 1.94  78 1.94  77 1.96
 233  0.250  0.500  0.546-  48 1.94  78 1.94  81 2.09
 234  0.598  0.375  0.500-  69 1.94  79 1.94  38 1.96
 235  0.402  0.375  0.500-  69 1.94  79 1.94  78 1.96
 236  0.500  0.500  0.573-  80 1.89  50 1.89  79 1.99
 237  0.500  0.500  0.665-  83 1.83  50 1.99  80 1.99
 238  0.350  0.375  0.619-  80 1.94  81 1.96  71 1.96
 239  0.650  0.375  0.619-  80 1.94  41 1.96  31 1.96
 240  0.249  0.500  0.690-  81 1.86  52 2.07  82 2.07
 241  0.252  0.500  0.783-  82 1.83  52 1.83
 242  0.594  0.374  0.742-  83 1.92  73 1.92  42 2.01
 243  0.406  0.374  0.742-  83 1.92  73 1.92  82 2.01

IMPORTANT INFORMATION: All symmetrisations will be switched off!
NOSYMM: (Re-)initialisation of all symmetry stuff for point group C_1.

                                     Primitive cell

  volume of cell :    4157.1448

  direct lattice vectors                    reciprocal lattice vectors
    12.893495846  0.000000000  0.000000000     0.077558485  0.000000000  0.000000000
     0.000000000 11.761907618  0.000000000     0.000000000  0.085020222  0.000000000
     0.000000000  0.000000000 27.412377441     0.000000000  0.000000000  0.036479871

  length of vectors
    12.893495846 11.761907618 27.412377441     0.077558485  0.085020222  0.036479871

  position of ions in fractional coordinates (direct lattice)
     0.499999789  0.607362738  0.834954609
     0.499999822  0.703873115  0.843347353
     0.499999751  0.510599785  0.825267984
     0.750000000  0.625000000  0.264823466
     0.000000000  0.750000000  0.264823466
     0.000000000  0.625000000  0.382411733
     0.750000000  0.750000000  0.382411733
     0.750000000  0.625000000  0.500000000
     0.000000000  0.750000000  0.500000000
     0.999999950  0.625075300  0.615612156
     0.750033961  0.750113101  0.622066077
     0.750154419  0.625327535  0.743133594
     0.999999766  0.750185767  0.731006748
     0.750000000  0.875000000  0.264823466
     0.000000000  0.000000000  0.264823466
     0.000000000  0.875000000  0.382411733
     0.750000000  0.000000000  0.382411733
     0.750000000  0.875000000  0.500000000
     0.000000000  0.000000000  0.500000000
     0.999999949  0.875073483  0.615639899
     0.750008167  0.000078407  0.622233068
     0.749944656  0.875209065  0.743611753
     0.999999757  0.000090368  0.731041338
     0.750000000  0.125000000  0.264823466
     0.000000000  0.250000000  0.264823466
     0.000000000  0.125000000  0.382411733
     0.750000000  0.250000000  0.382411733
     0.750000000  0.125000000  0.500000000
     0.000000000  0.250000000  0.500000000
     0.999999949  0.125025700  0.615661040
     0.750042973  0.250034288  0.622213929
     0.750004321  0.125178368  0.743619733
     0.999999770  0.250072119  0.731031938
     0.750000000  0.375000000  0.264823466
     0.000000000  0.500000000  0.264823466
     0.000000000  0.375000000  0.382411733
     0.750000000  0.500000000  0.382411733
     0.750000000  0.375000000  0.500000000
     0.000000000  0.500000000  0.500000000
     0.999999964  0.375027338  0.615616785
     0.750087075  0.500048497  0.622099287
     0.750173074  0.375199435  0.743507614
     0.999999771  0.500163686  0.730979223
     0.250000000  0.625000000  0.264823466
     0.500000000  0.750000000  0.264823466
     0.500000000  0.625000000  0.382411733
     0.250000000  0.750000000  0.382411733
     0.250000000  0.625000000  0.500000000
     0.500000000  0.750000000  0.500000000
     0.499999946  0.624556042  0.616121888
     0.249965853  0.750113099  0.622066085
     0.249845027  0.625327509  0.743133655
     0.499999748  0.750957989  0.730656028
     0.250000000  0.875000000  0.264823466
     0.500000000  0.000000000  0.264823466
     0.500000000  0.875000000  0.382411733
     0.250000000  0.000000000  0.382411733
     0.250000000  0.875000000  0.500000000
     0.500000000  0.000000000  0.500000000
     0.499999945  0.874856619  0.615303326
[...]
     0.500000000  0.500000000  0.428355971
     0.347680320  0.375000000  0.382411733
     0.652319680  0.375000000  0.382411733
     0.250000000  0.500000000  0.454055762
     0.250000000  0.500000000  0.545944238
     0.597680320  0.375000000  0.500000000
     0.402319680  0.375000000  0.500000000
     0.499999775  0.500037006  0.572533224
     0.500000029  0.500037714  0.665395579
     0.349716391  0.375081347  0.618766491
     0.650283409  0.375081346  0.618766190
     0.248986972  0.500097036  0.690076879
     0.251527946  0.500496449  0.782998309
     0.594147655  0.374112436  0.741560243
     0.405851791  0.374112461  0.741560196

  ion indices of the primitive-cell ions
   primitive index   ion index
                 1           1
                 2           2
                 3           3
                 4           4
                 5           5
                 6           6
                 7           7
                 8           8
                 9           9
                10          10
[...]

 FORCES acting on ions
    electron-ion (+dipol)            ewald-force                    non-local-force                 convergence-correction
   0.155E-04 0.663E+01 -.982E+03   -.149E-04 -.667E+01 0.982E+03   -.734E-06 0.226E-01 0.237E-02   -.583E-08 0.983E-04 0.333E-03
   -.378E-04 -.275E+03 -.145E+04   0.652E-04 0.342E+03 0.147E+04   -.242E-04 -.581E+02 -.129E+02   -.401E-07 0.166E-03 0.536E-03
   0.147E-03 0.272E+03 -.147E+04   -.175E-03 -.336E+03 0.146E+04   0.234E-04 0.563E+02 0.935E+01   -.200E-07 0.997E-04 0.445E-03
   -.295E+00 -.462E-02 0.969E+03   0.295E+00 0.485E-02 -.971E+03   0.163E-04 0.169E-03 -.125E+01   0.369E-07 0.299E-05 -.114E-03
   0.600E-06 -.849E-01 0.104E+04   -.586E-06 0.853E-01 -.104E+04   0.380E-09 0.188E-03 -.186E+01   0.286E-08 0.144E-05 -.116E-03
   0.411E-06 -.437E-02 0.503E+03   -.539E-06 0.437E-02 -.502E+03   0.338E-07 0.658E-04 0.183E+00   0.837E-09 0.238E-06 -.274E-03
   -.222E+00 -.683E-01 0.499E+03   0.221E+00 0.690E-01 -.500E+03   -.245E-03 0.432E-03 -.168E+00   0.266E-05 0.535E-06 -.283E-03
   -.824E+00 -.979E-03 0.642E+01   0.818E+00 -.288E-03 -.592E+01   -.188E-02 -.521E-03 0.190E+00   0.657E-05 -.203E-06 -.349E-03
   -.577E-04 -.274E+00 0.592E+01   0.535E-04 0.279E+00 -.658E+01   0.202E-05 -.817E-04 -.597E-01   0.231E-08 0.161E-05 -.357E-03
   0.170E-03 -.201E+00 -.478E+03   -.174E-03 0.203E+00 0.479E+03   0.131E-05 -.109E-02 -.634E-01   -.553E-08 -.661E-05 -.258E-03
   -.493E+01 -.229E+01 -.483E+03   0.494E+01 0.229E+01 0.482E+03   -.668E-02 -.301E-02 0.484E-01   0.124E-04 0.507E-05 -.239E-03
   -.343E+02 -.227E+01 -.923E+03   0.343E+02 0.226E+01 0.923E+03   0.133E-01 -.245E-02 0.582E-02   -.300E-04 0.118E-04 0.576E-04
   0.181E-03 -.313E+01 -.973E+03   -.182E-03 0.312E+01 0.972E+03   -.669E-06 -.140E-03 0.660E+00   0.513E-08 0.309E-05 -.554E-05
   -.278E+00 -.134E+00 0.969E+03   0.277E+00 0.135E+00 -.971E+03   -.421E-05 0.499E-03 -.125E+01   -.102E-06 -.766E-06 -.116E-03
   0.573E-06 -.778E-01 0.104E+04   -.566E-06 0.781E-01 -.104E+04   0.224E-08 0.898E-04 -.186E+01   0.232E-08 -.238E-05 -.114E-03
   0.731E-06 -.932E-01 0.503E+03   -.875E-06 0.935E-01 -.502E+03   0.259E-07 0.214E-03 0.183E+00   -.173E-09 0.739E-06 -.274E-03
   -.217E+00 -.702E-01 0.499E+03   0.216E+00 0.705E-01 -.500E+03   -.311E-03 0.255E-03 -.168E+00   0.291E-05 -.107E-07 -.281E-03
   -.844E+00 -.442E+00 0.595E+01   0.840E+00 0.456E+00 -.544E+01   -.908E-03 0.778E-02 0.194E+00   0.662E-05 0.328E-05 -.347E-03
   -.550E-04 -.226E+00 0.540E+01   0.505E-04 0.230E+00 -.605E+01   0.202E-05 0.208E-03 -.586E-01   0.210E-08 0.308E-05 -.355E-03
   0.198E-03 -.146E+01 -.480E+03   -.202E-03 0.146E+01 0.480E+03   0.954E-06 -.182E-02 -.640E-01   0.648E-08 0.629E-05 -.257E-03
   -.329E+01 -.159E+01 -.487E+03   0.329E+01 0.159E+01 0.487E+03   -.350E-02 -.337E-03 0.566E-01   0.422E-05 0.858E-05 -.245E-03
   -.177E+02 -.126E+02 -.937E+03   0.177E+02 0.126E+02 0.937E+03   0.112E-01 -.260E-02 -.117E-01   -.355E-04 0.120E-04 0.720E-04
   0.176E-03 -.236E+01 -.975E+03   -.177E-03 0.236E+01 0.975E+03   0.404E-07 -.106E-02 0.670E+00   0.725E-08 0.121E-04 -.365E-05
   -.260E+00 0.465E-02 0.969E+03   0.259E+00 -.489E-02 -.971E+03   -.108E-04 -.164E-03 -.125E+01   0.325E-06 -.302E-05 -.112E-03
   0.560E-06 0.847E-01 0.104E+04   -.561E-06 -.852E-01 -.104E+04   0.462E-10 -.186E-03 -.186E+01   0.717E-08 -.148E-05 -.111E-03
   0.815E-06 0.429E-02 0.503E+03   -.983E-06 -.440E-02 -.502E+03   0.258E-07 -.262E-04 0.182E+00   -.167E-08 -.260E-06 -.272E-03
   -.208E+00 0.682E-01 0.499E+03   0.207E+00 -.689E-01 -.500E+03   -.255E-03 -.448E-03 -.168E+00   0.303E-05 -.513E-06 -.280E-03
   -.764E+00 0.215E-02 0.552E+01   0.760E+00 -.397E-02 -.500E+01   -.823E-03 -.999E-03 0.197E+00   0.752E-05 0.480E-06 -.345E-03
   -.587E-04 0.291E+00 0.547E+01   0.541E-04 -.295E+00 -.612E+01   0.202E-05 -.102E-02 -.585E-01   0.351E-08 -.156E-05 -.353E-03
   0.213E-03 0.155E+00 -.481E+03   -.217E-03 -.156E+00 0.481E+03   0.973E-06 0.126E-02 -.614E-01   0.186E-08 0.697E-05 -.255E-03
   -.352E+01 0.221E+01 -.486E+03   0.352E+01 -.221E+01 0.486E+03   -.555E-02 0.247E-02 0.521E-01   0.113E-04 -.652E-05 -.243E-03
   -.938E+01 0.167E+01 -.944E+03   0.938E+01 -.167E+01 0.944E+03   0.719E-03 0.192E-03 -.118E-01   -.276E-04 -.110E-04 0.598E-04
   0.198E-03 0.275E+01 -.975E+03   -.199E-03 -.275E+01 0.975E+03   -.212E-06 0.108E-02 0.663E+00   0.491E-08 0.597E-06 -.603E-05
   -.277E+00 0.134E+00 0.969E+03   0.277E+00 -.135E+00 -.971E+03   0.103E-04 -.504E-03 -.125E+01   0.460E-06 0.811E-06 -.111E-03
   0.588E-06 0.780E-01 0.104E+04   -.581E-06 -.782E-01 -.104E+04   -.252E-09 -.897E-04 -.186E+01   0.642E-08 0.243E-05 -.112E-03
   0.451E-06 0.931E-01 0.503E+03   -.608E-06 -.934E-01 -.502E+03   0.258E-07 -.186E-03 0.182E+00   0.324E-08 -.685E-06 -.272E-03
   -.213E+00 0.702E-01 0.499E+03   0.212E+00 -.706E-01 -.500E+03   -.218E-03 -.276E-03 -.168E+00   0.274E-05 -.547E-08 -.282E-03
   -.741E+00 0.440E+00 0.598E+01   0.735E+00 -.452E+00 -.547E+01   -.204E-02 -.607E-02 0.194E+00   0.749E-05 -.353E-05 -.347E-03
   -.674E-04 0.254E+00 0.599E+01   0.628E-04 -.255E+00 -.665E+01   0.220E-05 -.144E-02 -.600E-01   0.304E-08 -.317E-05 -.355E-03
   0.199E-03 0.146E+01 -.479E+03   -.204E-03 -.146E+01 0.480E+03   0.123E-05 0.144E-02 -.642E-01   -.365E-08 -.549E-05 -.255E-03
   -.520E+01 0.171E+01 -.482E+03   0.520E+01 -.171E+01 0.481E+03   -.528E-02 0.131E-02 0.427E-01   0.199E-04 -.775E-05 -.239E-03
   -.224E+02 0.135E+02 -.935E+03   0.224E+02 -.135E+02 0.935E+03   0.152E-01 0.710E-02 -.324E-02   -.215E-04 -.147E-04 0.448E-04
   0.226E-03 0.253E+01 -.972E+03   -.227E-03 -.253E+01 0.972E+03   -.188E-05 0.339E-02 0.651E+00   0.480E-08 -.152E-04 -.919E-05
   0.295E+00 -.462E-02 0.969E+03   -.295E+00 0.485E-02 -.971E+03   -.163E-04 0.169E-03 -.125E+01   -.356E-07 0.298E-05 -.114E-03
   -.599E-06 -.112E+00 0.104E+04   0.597E-06 0.113E+00 -.104E+04   0.648E-08 0.326E-03 -.186E+01   -.980E-08 0.164E-05 -.122E-03
   -.112E-05 0.129E-01 0.503E+03   0.959E-06 -.936E-02 -.503E+03   0.179E-07 0.110E-02 0.183E+00   -.282E-08 0.383E-06 -.277E-03
   0.222E+00 -.683E-01 0.499E+03   -.221E+00 0.690E-01 -.500E+03   0.245E-03 0.432E-03 -.168E+00   -.266E-05 0.529E-06 -.283E-03
   0.824E+00 -.977E-03 0.642E+01   -.818E+00 -.290E-03 -.592E+01   0.188E-02 -.521E-03 0.190E+00   -.657E-05 -.190E-06 -.349E-03
   -.648E-04 -.423E+00 0.768E+01   0.603E-04 0.405E+00 -.830E+01   0.198E-05 0.725E-02 -.549E-01   0.201E-09 0.165E-05 -.369E-03
   0.153E-03 -.409E+00 -.468E+03   -.157E-03 0.451E+00 0.468E+03   0.119E-05 -.310E-01 -.496E-01   -.188E-08 -.644E-05 -.243E-03
   0.493E+01 -.229E+01 -.483E+03   -.494E+01 0.229E+01 0.482E+03   0.669E-02 -.301E-02 0.484E-01   -.124E-04 0.507E-05 -.239E-03
   0.343E+02 -.227E+01 -.923E+03   -.343E+02 0.226E+01 0.923E+03   -.133E-01 -.245E-02 0.582E-02   0.300E-04 0.118E-04 0.576E-04
   0.239E-03 -.296E+02 -.917E+03   -.239E-03 0.296E+02 0.916E+03   -.147E-05 -.964E-02 0.720E+00   -.128E-07 0.216E-05 0.591E-04
   0.278E+00 -.134E+00 0.969E+03   -.277E+00 0.135E+00 -.971E+03   0.423E-05 0.499E-03 -.125E+01   0.110E-06 -.775E-06 -.116E-03
   -.578E-06 -.106E+00 0.104E+04   0.571E-06 0.106E+00 -.104E+04   -.746E-10 0.122E-03 -.186E+01   -.318E-08 -.305E-05 -.120E-03
   -.126E-05 -.977E-01 0.503E+03   0.112E-05 0.100E+00 -.503E+03   0.284E-07 0.797E-03 0.184E+00   -.132E-08 0.132E-06 -.277E-03
   0.217E+00 -.702E-01 0.499E+03   -.216E+00 0.705E-01 -.500E+03   0.311E-03 0.255E-03 -.168E+00   -.290E-05 -.918E-08 -.281E-03
   0.844E+00 -.442E+00 0.595E+01   -.840E+00 0.456E+00 -.544E+01   0.909E-03 0.778E-02 0.194E+00   -.662E-05 0.327E-05 -.347E-03
   -.659E-04 -.356E+00 0.736E+01   0.617E-04 0.360E+00 -.803E+01   0.212E-05 0.473E-03 -.804E-01   0.211E-08 0.168E-05 -.363E-03
   0.175E-03 -.442E+01 -.470E+03   -.178E-03 0.444E+01 0.470E+03   0.728E-06 -.322E-02 -.113E+00   -.832E-09 0.523E-05 -.228E-03
[...]
   -.255E+02 0.149E+00 0.751E+03   0.298E+02 -.150E+00 -.751E+03   -.331E+01 0.186E-02 0.189E+00   -.236E-05 -.332E-06 -.413E-03
   0.255E+02 0.149E+00 0.751E+03   -.298E+02 -.150E+00 -.751E+03   0.331E+01 0.186E-02 0.189E+00   0.237E-05 -.336E-06 -.413E-03
   0.654E+00 0.245E+00 0.323E+03   -.650E+00 -.248E+00 -.328E+03   -.478E-02 0.638E-02 0.397E+01   -.762E-05 -.180E-05 -.506E-03
   0.215E+01 0.921E+00 -.309E+03   -.214E+01 -.928E+00 0.317E+03   -.762E-02 0.987E-02 -.664E+01   -.161E-04 -.451E-05 -.498E-03
   -.253E+02 0.571E+00 0.119E+02   0.305E+02 -.578E+00 -.121E+02   -.491E+01 0.189E-01 0.297E+00   0.568E-05 -.304E-05 -.535E-03
   0.253E+02 0.571E+00 0.119E+02   -.305E+02 -.578E+00 -.121E+02   0.491E+01 0.189E-01 0.297E+00   -.569E-05 -.305E-05 -.535E-03
   0.307E-03 0.174E+01 -.402E+03   -.369E-03 -.172E+01 0.395E+03   0.546E-04 -.139E-01 0.626E+01   -.195E-10 -.518E-05 -.467E-03
   -.757E-04 0.828E+01 -.100E+04   0.130E-03 -.816E+01 0.998E+03   -.479E-04 -.108E+00 0.162E+01   -.711E-09 -.468E-05 -.168E-03
   -.604E+01 0.514E+01 -.716E+03   0.925E+01 -.518E+01 0.715E+03   -.280E+01 0.383E-01 0.756E+00   -.179E-04 -.106E-04 -.351E-03
   0.604E+01 0.514E+01 -.716E+03   -.925E+01 -.518E+01 0.715E+03   0.280E+01 0.383E-01 0.756E+00   0.179E-04 -.106E-04 -.351E-03
   0.232E+02 0.698E+01 -.113E+04   -.234E+02 -.708E+01 0.113E+04   0.152E+00 0.814E-01 -.203E+01   0.796E-05 -.545E-05 -.115E-03
   0.720E+02 0.213E+02 -.165E+04   -.717E+02 -.213E+02 0.167E+04   -.263E+00 -.190E-01 -.198E+02   0.546E-04 0.118E-04 0.216E-03
   -.250E+02 0.502E+02 -.143E+04   0.318E+02 -.503E+02 0.143E+04   -.593E+01 0.900E-01 -.345E+01   -.233E-04 -.147E-04 0.800E-04
   0.250E+02 0.502E+02 -.143E+04   -.318E+02 -.503E+02 0.143E+04   0.593E+01 0.900E-01 -.345E+01   0.233E-04 -.147E-04 0.801E-04
   0.220E-03 0.178E+01 0.103E+03   0.306E-12 0.166E-11 -.250E-10   -.218E-03 -.153E+01 -.950E+02   -.673E-07 0.360E-03 -.574E-01

 POSITION                                       TOTAL-FORCE (eV/Angst)
      6.44675      7.14336     22.88821         0.000000     -0.017525      0.000311
      6.44675      8.27857     23.11874        -0.000000     -0.014450      0.013142
      6.44674      6.00528     22.62220        -0.000000      0.006105     -0.005530
      9.67012      7.35119      7.25944         0.000045      0.000439     -4.001037
      0.00000      8.82143      7.25944         0.000000      0.000649      3.056217
      0.00000      7.35119     10.48281        -0.000000      0.000072      0.584593
      9.67012      8.82143     10.48281        -0.001272      0.001187     -0.848607
      9.67012      7.35119     13.70619        -0.007778     -0.001850      0.716955
      0.00000      8.82143     13.70619        -0.000002      0.004322     -0.754260
     12.89350      7.35202     16.87545         0.000000      0.001071      0.001156
      9.67069      8.82281     17.05235        -0.003791     -0.000254      0.005099
      9.67210      7.35509     20.37115         0.002993     -0.000896      0.006264
     12.89349      8.82356     20.03825        -0.000001      0.001461      0.012671
      9.67012     10.29167      7.25944        -0.000159      0.001398     -4.001498
      0.00000      0.00000      7.25944         0.000000      0.000341      3.055617
      0.00000     10.29167     10.48281        -0.000000      0.000545      0.584868
      9.67012      0.00000     10.48281        -0.001699      0.000606     -0.845848
      9.67012     10.29167     13.70619        -0.004611      0.023048      0.730416
      0.00000      0.00000     13.70619        -0.000003      0.003792     -0.751340
     12.89350     10.29256     16.87624        -0.000000     -0.000887      0.002099
      9.67016      0.00103     17.05674        -0.004730     -0.001744      0.000347
      9.66935     10.29424     20.38413         0.001536     -0.004755      0.000246
     12.89349      0.00115     20.03911        -0.000001     -0.001356      0.013296
      9.67012      1.47024      7.25944        -0.000235     -0.000431     -4.001583
      0.00000      2.94048      7.25944         0.000000     -0.000654      3.055884
      0.00000      1.47024     10.48281        -0.000000     -0.000135      0.585134
      9.67012      2.94048     10.48281        -0.001292     -0.001164     -0.845637
      9.67012      1.47024     13.70619        -0.004914     -0.003043      0.743619
      0.00000      2.94048     13.70619        -0.000003     -0.004812     -0.752578
     12.89350      1.47062     16.87680        -0.000000     -0.000765      0.001466
      9.67074      2.94079     17.05626        -0.004277      0.000590      0.001478
      9.67008      1.47228     20.38432         0.000853     -0.000315     -0.001596
     12.89349      2.94149     20.03903        -0.000001     -0.003169      0.011378
      9.67012      4.41072      7.25944         0.000030     -0.001401     -4.001133
      0.00000      5.88095      7.25944         0.000000     -0.000306      3.056440
      0.00000      4.41072     10.48281        -0.000000     -0.000550      0.584777
      9.67012      5.88095     10.48281        -0.000896     -0.000644     -0.848315
      9.67012      4.41072     13.70619        -0.008139     -0.018435      0.729986
      0.00000      5.88095     13.70619        -0.000003     -0.003227     -0.755177
     12.89350      4.41102     16.87559        -0.000001      0.001213      0.001086
      9.67150      5.88144     17.05323        -0.003480      0.001010      0.005181
      9.67226      4.41292     20.38133         0.001627      0.005037      0.003825
     12.89349      5.88270     20.03768        -0.000001      0.003522      0.011255
      3.22337      7.35119      7.25944        -0.000045      0.000439     -4.001037
      6.44675      8.82143      7.25944         0.000000      0.001141      3.058351
      6.44675      7.35119     10.48281        -0.000000      0.004892      0.586937
      3.22337      8.82143     10.48281         0.001273      0.001187     -0.848607
      3.22337      7.35119     13.70619         0.007782     -0.001850      0.716956
      6.44675      8.82143     13.70619        -0.000003     -0.010639     -0.713296
      6.44675      7.34580     16.88907        -0.000000      0.000632     -0.002592
      3.22280      8.82281     17.05235         0.003791     -0.000255      0.005098
      3.22139      7.35509     20.37115        -0.002994     -0.000896      0.006262
      6.44674      8.83243     20.02876         0.000000     -0.000977     -0.004027
      3.22337     10.29167      7.25944         0.000160      0.001398     -4.001498
      6.44675      0.00000      7.25944         0.000000      0.000440      3.057773
      6.44675     10.29167     10.48281        -0.000000      0.003766      0.590846
      3.22337      0.00000     10.48281         0.001699      0.000606     -0.845848
      3.22337     10.29167     13.70619         0.004616      0.023045      0.730416
      6.44675      0.00000     13.70619        -0.000002      0.004348     -0.780838
      6.44675     10.28988     16.86708        -0.000000     -0.000141      0.005785
[...]
      6.44675      5.88095     11.74226        -0.000000      0.000559     -0.054279
      4.48281      4.41072     10.48281         0.548389      0.000978      0.058320
      8.41068      4.41072     10.48281        -0.548389      0.000978      0.058303
      3.22337      5.88095     12.44675        -0.001544      0.004118     -0.157850
      3.22337      5.88095     14.96563         0.001724      0.004261      0.221150
      7.70619      4.41072     13.70619        -0.448020      0.015383      0.095941
      5.18731      4.41072     13.70619         0.448018      0.015383      0.095918
      6.44675      5.88142     15.69463         0.000000     -0.001069     -0.007449
      6.44675      5.88144     18.23994        -0.000001     -0.000243      0.003305
      4.50934      4.41170     16.96164        -0.002532     -0.000043     -0.004583
      8.38415      4.41170     16.96164         0.002531     -0.000043     -0.004581
      3.21057      5.88212     18.91679         0.005323     -0.000276     -0.003644
      3.24277      5.88683     21.46410        -0.006200     -0.002197      0.001217
      7.66090      4.40035     20.32788        -0.002342      0.001028     -0.001682
      5.23259      4.40035     20.32787         0.002341      0.001027     -0.001684
    total drift:                               -0.000018     -0.000862      0.044590

  FREE ENERGIE OF THE ION-ELECTRON SYSTEM (eV)
  free  energy   TOTEN  =     -2647.31919467 eV

  energy  without entropy=    -2647.31919467  energy(sigma->0) =    -2647.31919467

 d Force = 0.4919338E-06[ 0.197E-06, 0.787E-06]  d Energy = 0.8098968E-06-0.318E-06
 d Force = 0.5975290E-01[ 0.598E-01, 0.598E-01]  d Ewald  = 0.5975276E-01 0.148E-06

 reached required accuracy - stopping structural energy minimisation