 vasp.6.3.0 20Jan22 (build Mar 11 2022 13:48:16) complex

 executed on             LinuxIFC date 2024.01.18  10:58:39

 INCAR:
   SYSTEM = TiO2
   ISMEAR = 0
   SIGMA = 0.05
   EDIFF = 1E-7
   ALGO = ALL
   ISTART = 0
   IBRION = 2
   NSW = 1000
   ISYM = 0
   ISIF = 2
   EDIFFG = -0.02
   DIPOL = 0.5 0.5 0.5
   IDIPOL = 3
   LDIPOL = .TRUE.
   LHFCALC = .TRUE.
   HFSCREEN = 0.2
   GGA = PE
   IVDW = 13
   VDW_S8 = 1.19528249
   VDW_A1 = 0.38663183
   VDW_A2 = 5.19133469
   ENCUT = 520
   PREC = Normal
   PRECFOCK = Fast
   LASPH = .TRUE.
   LREAL = .FALSE.
   ISPIN = 1
   NKREDX = 2
   NKREDY = 2
   NELM = 200
   NELMIN = 8
   NCORE = 19
   KPAR = 1
   LWAVE = .FALSE.
   LCHARG = .FALSE.

 POTCAR:    PAW_PBE C 08Apr2002
 POTCAR:    PAW_PBE O 08Apr2002
 POTCAR:    PAW_PBE Ti 08Apr2002
 POTCAR:    PAW_PBE O 08Apr2002
 POTCAR:    PAW_PBE C 08Apr2002
   VRHFIN =C: s2p2

   TITEL  = PAW_PBE C 08Apr2002
   POMASS =   12.011; ZVAL   =    4.000    mass and valenz
   ENMAX  =  400.000; ENMIN  =  300.000 eV

[...]

   TITEL  = PAW_PBE O 08Apr2002
   POMASS =   16.000; ZVAL   =    6.000    mass and valenz
   ENMAX  =  400.000; ENMIN  =  300.000 eV

  PAW_PBE C 08Apr2002                   :
  PAW_PBE O 08Apr2002                   :
  PAW_PBE Ti 08Apr2002                  :
  PAW_PBE O 08Apr2002                   :

 POSCAR:  C  O Ti  O
  positions in direct lattice
  velocities in cartesian coordinates
|           W    W    AA    RRRRR   N    N  II  N    N   GGGG   !!!           |
|           W    W   A  A   R    R  NN   N  II  NN   N  G    G  !!!           |
|           W    W  A    A  R    R  N N  N  II  N N  N  G       !!!           |
|           W WW W  AAAAAA  RRRRR   N  N N  II  N  N N  G  GGG   !            |
|           WW  WW  A    A  R   R   N   NN  II  N   NN  G    G                |
|           W    W  A    A  R    R  N    N  II  N    N   GGGG   !!!           |
|     Specifying the vdW parameters                                           |
|     VDW_S8 = 1.195                                                          |
|     VDW_A1 = 0.387                                                          |
|     VDW_A2 = 5.191                                                          |
|     in the INCAR file will overwrite the defaults for hse06. Please         |
|     make sure that is what you intended.                                    |

 ion  position               nearest neighbor table
   1  0.500  0.606  0.835-   2 1.16   3 1.17
   2  0.500  0.702  0.844-   1 1.16
   3  0.500  0.510  0.824-   1 1.17  83 2.54
   4  0.750  0.625  0.264-  85 1.94 145 1.94 144 1.94  84 1.94 166 1.97  87 1.97  14 2.94  34 2.94

   5  0.000  0.750  0.264-  87 1.94 107 1.94 106 1.94  86 1.94  88 1.97  35 2.94  15 2.94
   6  0.000  0.625  0.382-  89 1.94 149 1.94 148 1.94  88 1.94  90 1.97  91 1.97  16 2.94  36 2.94

[...]

  84  0.750  0.750  0.218-   4 1.94  14 1.94
  85  0.750  0.750  0.311-   4 1.94  14 1.94   7 1.97
  86  0.098  0.625  0.264-   5 1.94  35 1.94  44 1.97
  87  0.902  0.625  0.264-   5 1.94  35 1.94   4 1.97
  88  0.000  0.750  0.336-   6 1.94  16 1.94   5 1.97
  89  0.000  0.750  0.428-   6 1.94  16 1.94   9 1.97
  90  0.848  0.625  0.382-   7 1.94  37 1.94   6 1.97
  91  0.152  0.625  0.382-  47 1.94  77 1.94   6 1.97
  92  0.750  0.750  0.454-   8 1.94  18 1.94   7 1.97
  93  0.750  0.750  0.546-   8 1.94  18 1.94  11 2.08
  94  0.098  0.625  0.500-   9 1.94  39 1.94  48 1.97
  95  0.902  0.625  0.500-   9 1.94  39 1.94   8 1.97
  96  1.000  0.750  0.572-  20 1.89  10 1.89   9 1.98
  97  0.000  0.750  0.665-  13 1.81  20 1.99  10 1.99
  98  0.850  0.625  0.618-  10 1.94  41 1.96  11 1.96
  99  0.150  0.625  0.618-  10 1.94  81 1.96  51 1.96
 100  0.751  0.750  0.690-  11 1.86  12 2.07  22 2.07
 101  0.749  0.750  0.782-  12 1.83  22 1.83
 102  0.094  0.625  0.742-  43 1.93  13 1.93  52 2.02
 103  0.906  0.625  0.742-  43 1.93  13 1.93  12 2.02
 104  0.750  0.000  0.218-  14 1.94  24 1.94
 105  0.750  0.000  0.311-  14 1.94  24 1.94  17 1.97
 106  0.098  0.875  0.264-   5 1.94  15 1.94  54 1.97
 107  0.902  0.875  0.264-   5 1.94  15 1.94  14 1.97
 108  0.000  0.000  0.336-  16 1.94  26 1.94  15 1.97
 109  0.000  0.000  0.428-  16 1.94  26 1.94  19 1.97
 110  0.848  0.875  0.382-   7 1.94  17 1.94  16 1.97
 111  0.152  0.875  0.382-  47 1.94  57 1.94  16 1.97
 112  0.750  0.000  0.454-  18 1.94  28 1.94  17 1.97
 113  0.750  0.000  0.546-  18 1.94  28 1.94  21 2.08
 114  0.098  0.875  0.500-   9 1.94  19 1.94  58 1.97
 115  0.902  0.875  0.500-   9 1.94  19 1.94  18 1.97
 116  1.000  0.000  0.572-  30 1.89  20 1.89  19 1.99
 117  0.000  0.000  0.665-  23 1.81  30 1.99  20 1.99
 118  0.850  0.875  0.618-  20 1.94  21 1.96  11 1.96
 119  0.150  0.875  0.618-  20 1.94  61 1.96  51 1.96
 120  0.750  0.000  0.690-  21 1.86  22 2.07  32 2.07
 121  0.750  0.000  0.782-  22 1.83  32 1.83
 122  0.094  0.875  0.742-  13 1.93  23 1.93  62 2.02
 123  0.906  0.875  0.742-  13 1.93  23 1.93  22 2.02
 124  0.750  0.250  0.218-  24 1.94  34 1.94
 125  0.750  0.250  0.311-  24 1.94  34 1.94  27 1.97
 126  0.098  0.125  0.264-  15 1.94  25 1.94  64 1.97
 127  0.902  0.125  0.264-  15 1.94  25 1.94  24 1.97
 128  0.000  0.250  0.336-  26 1.94  36 1.94  25 1.97
 129  0.000  0.250  0.428-  26 1.94  36 1.94  29 1.97
 130  0.848  0.125  0.382-  17 1.94  27 1.94  26 1.97
 131  0.152  0.125  0.382-  57 1.94  67 1.94  26 1.97
 132  0.750  0.250  0.454-  28 1.94  38 1.94  27 1.97
 133  0.750  0.250  0.546-  28 1.94  38 1.94  31 2.08
 134  0.098  0.125  0.500-  19 1.94  29 1.94  68 1.97
 135  0.902  0.125  0.500-  19 1.94  29 1.94  28 1.97
 136  1.000  0.250  0.572-  30 1.89  40 1.89  29 1.98
 137  0.000  0.250  0.665-  33 1.82  40 1.99  30 1.99
 138  0.850  0.125  0.618-  30 1.94  21 1.96  31 1.96
 139  0.150  0.125  0.618-  30 1.94  61 1.96  71 1.96
 140  0.751  0.250  0.690-  31 1.86  32 2.07  42 2.07
 141  0.750  0.250  0.782-  42 1.83  32 1.83
 142  0.094  0.125  0.742-  33 1.93  23 1.93  72 2.02
 143  0.906  0.125  0.742-  33 1.93  23 1.93  32 2.02
[...]
 229  0.500  0.500  0.428-  46 1.94  76 1.94  79 1.97
 230  0.348  0.375  0.382-  67 1.94  77 1.94  76 1.97
 231  0.652  0.375  0.382-  27 1.94  37 1.94  76 1.97
 232  0.250  0.500  0.454-  48 1.94  78 1.94  77 1.97
 233  0.250  0.500  0.546-  48 1.94  78 1.94  81 2.08
 234  0.598  0.375  0.500-  69 1.94  79 1.94  38 1.97
 235  0.402  0.375  0.500-  69 1.94  79 1.94  78 1.97
 236  0.500  0.500  0.572-  50 1.89  80 1.89  79 1.99
 237  0.500  0.500  0.665-  83 1.83  50 1.99  80 1.99
 238  0.350  0.375  0.619-  80 1.95  81 1.96  71 1.96
 239  0.650  0.375  0.619-  80 1.95  41 1.96  31 1.96
 240  0.249  0.500  0.690-  81 1.86  52 2.07  82 2.07
 241  0.251  0.500  0.782-  82 1.83  52 1.83
 242  0.594  0.374  0.741-  83 1.93  73 1.93  42 2.02
 243  0.406  0.374  0.741-  83 1.93  73 1.93  82 2.02

IMPORTANT INFORMATION: All symmetrisations will be switched off!
NOSYMM: (Re-)initialisation of all symmetry stuff for point group C_1.

                                     Primitive cell

  volume of cell :    4180.4259

  direct lattice vectors                    reciprocal lattice vectors
    12.939701814  0.000000000  0.000000000     0.077281534  0.000000000  0.000000000
     0.000000000 11.760793336  0.000000000     0.000000000  0.085028278  0.000000000
     0.000000000  0.000000000 27.470062065     0.000000000  0.000000000  0.036403267

  length of vectors
    12.939701814 11.760793336 27.470062065     0.077281534  0.085028278  0.036403267

  position of ions in fractional coordinates (direct lattice)
     0.499999719  0.606087174  0.834512907
     0.499999761  0.702265742  0.843581668
     0.499999663  0.509629194  0.824196269
     0.750000000  0.625000000  0.264476291
     0.000000000  0.750000000  0.264476291
     0.000000000  0.625000000  0.382238145
     0.750000000  0.750000000  0.382238145
     0.750000000  0.625000000  0.500000000
     0.000000000  0.750000000  0.500000000
     0.999999993  0.625089212  0.615451437
     0.749995177  0.750107150  0.621842797
     0.750317310  0.625321733  0.742619938
     0.999999745  0.750249954  0.730612205
     0.750000000  0.875000000  0.264476291
     0.000000000  0.000000000  0.264476291
     0.000000000  0.875000000  0.382238145
     0.750000000  0.000000000  0.382238145
     0.750000000  0.875000000  0.500000000
     0.000000000  0.000000000  0.500000000
     0.000000029  0.875094776  0.615534856
     0.749999828  0.000097028  0.621924517
     0.749837581  0.875181819  0.742964055
     0.999999645  0.000145198  0.730659597
     0.750000000  0.125000000  0.264476291
     0.000000000  0.250000000  0.264476291
     0.000000000  0.125000000  0.382238145
     0.750000000  0.250000000  0.382238145
     0.750000000  0.125000000  0.500000000
     0.000000000  0.250000000  0.500000000
     0.000000010  0.125062396  0.615557230
     0.749986435  0.250055879  0.621926769
     0.749910127  0.125192433  0.742952573
     0.999999750  0.250092271  0.730659980
     0.750000000  0.375000000  0.264476291
     0.000000000  0.500000000  0.264476291
     0.000000000  0.375000000  0.382238145
     0.750000000  0.500000000  0.382238145
     0.750000000  0.375000000  0.500000000
     0.000000000  0.500000000  0.500000000
     0.999999978  0.375045693  0.615465975
     0.750131257  0.500054054  0.621857739
     0.750207039  0.375247058  0.742932188
     0.999999691  0.500160973  0.730594021
     0.250000000  0.625000000  0.264476291
     0.500000000  0.750000000  0.264476291
     0.500000000  0.625000000  0.382238145
     0.250000000  0.750000000  0.382238145
     0.250000000  0.625000000  0.500000000
     0.500000000  0.750000000  0.500000000
     0.500000060  0.624488862  0.615795532
     0.250004770  0.750107082  0.621842815
     0.249682063  0.625321735  0.742619975
     0.499999719  0.750738047  0.730153158
     0.250000000  0.875000000  0.264476291
     0.500000000  0.000000000  0.264476291
     0.500000000  0.875000000  0.382238145
     0.250000000  0.000000000  0.382238145
     0.250000000  0.875000000  0.500000000
     0.500000000  0.000000000  0.500000000
     0.500000003  0.874825977  0.615218435
[...]
     0.500000000  0.500000000  0.428294835
     0.347775060  0.375000000  0.382238145
     0.652224940  0.375000000  0.382238145
     0.250000000  0.500000000  0.453943310
     0.250000000  0.500000000  0.546056690
     0.597775060  0.375000000  0.500000000
     0.402224940  0.375000000  0.500000000
     0.499999786  0.499952289  0.572284661
     0.500000016  0.500085121  0.664939761
     0.349791815  0.375127766  0.618535366
     0.650207907  0.375127723  0.618535101
     0.248890212  0.500107076  0.689741851
     0.251310031  0.500457374  0.782408493
     0.594135717  0.374185579  0.741003033
     0.405863641  0.374185570  0.741002964

  ion indices of the primitive-cell ions
   primitive index   ion index
                 1           1
                 2           2
                 3           3
                 4           4
                 5           5
                 6           6
                 7           7
                 8           8
                 9           9
                10          10
[...]
[...]
   6.46985091  5.88039667 11.76528570
   4.50010558  4.41029750 10.50010558
   8.43959623  4.41029750 10.50010558
   3.23492545  5.88039667 12.46985091
   3.23492545  5.88039667 15.00021116
   7.73503103  4.41029750 13.73503103
   5.20467078  4.41029750 13.73503103
   6.46984813  5.87983555 15.72069515
   6.46985112  5.88139776 18.26593651
   4.52620178  4.41180013 16.99120489
   8.41349643  4.41179963 16.99119762
   3.22056513  5.88165596 18.94725145
   3.25187686  5.88577575 21.49280987
   7.68793901  4.40071927 20.35539931
   5.25175449  4.40071916 20.35539742

--------------------------------------- Iteration      FINAL  ---------------------------------------

--------------------OUTCAR has been truncated-------------------------

[...]

--------------------OUTCAR has been truncated-------------------------

  FORCE on cell =-STRESS in cart. coord.  units (eV):
  Direction    XX          YY          ZZ          XY          YZ          ZX
  Alpha Z  3354.62535  3354.62535  3354.62535
  Ewald  346512.06291352318.03978************     0.00070   177.07822    -0.00075
  Hartree369123.43941370602.13114************     0.00027    81.09063     0.00025
  E(xc)   -4703.64868 -4753.63501 -4703.66502    -0.00000     0.24250     0.00001
  Local  ************************728701.02181    -0.00091  -241.41795     0.00038
  n-local -2915.10801 -2813.54676 -2973.00481     0.00001    -1.14037    -0.00000
  augment  1350.52166  1327.73374  1355.12979    -0.00000    -0.62066     0.00001
  Kinetic 23730.98869 23127.97528 23774.53784    -0.00005   -14.65898     0.00013
  Fock    -2154.72140 -2183.73871 -2157.22359    -0.00000    -0.81873     0.00000
  vdW       -50.96702   -51.02739   -44.59661    -0.00000     0.00144     0.00000
  Total      11.01693   -42.33197   -33.34839     0.00001    -0.24390     0.00003
  in kB       4.22232   -16.22402   -12.78100     0.00001    -0.09348     0.00001

 VOLUME and BASIS-vectors are now :
  energy-cutoff  :      520.00
  volume of cell :     4180.43
      direct lattice vectors                 reciprocal lattice vectors
    12.939701814  0.000000000  0.000000000     0.077281534  0.000000000  0.000000000
     0.000000000 11.760793336  0.000000000     0.000000000  0.085028278  0.000000000
     0.000000000  0.000000000 27.470062065     0.000000000  0.000000000  0.036403267

  length of vectors
    12.939701814 11.760793336 27.470062065     0.077281534  0.085028278  0.036403267

 FORCES acting on ions:
    Electron-Ion                     Ewald-Force                    Non-Local-Force
   0.339E-04 0.688E+01 -.980E+03   -.337E-04 -.692E+01 0.980E+03   -.629E-07 0.215E-01 0.124E-01
   -.770E-04 -.274E+03 -.145E+04   0.117E-03 0.341E+03 0.146E+04   -.358E-04 -.579E+02 -.139E+02
   0.178E-03 0.270E+03 -.146E+04   -.215E-03 -.335E+03 0.145E+04   0.323E-04 0.560E+02 0.102E+02
   -.299E+00 -.593E-02 0.965E+03   0.299E+00 0.613E-02 -.967E+03   0.120E-04 0.154E-03 -.124E+01
   0.118E-05 -.849E-01 0.104E+04   -.117E-05 0.852E-01 -.104E+04   0.159E-07 0.175E-03 -.183E+01
   0.297E-05 -.828E-02 0.502E+03   -.329E-05 0.823E-02 -.501E+03   -.308E-07 0.457E-04 0.183E+00
   -.232E+00 -.743E-01 0.498E+03   0.231E+00 0.748E-01 -.499E+03   -.270E-03 0.283E-03 -.166E+00
   -.883E+00 -.286E-01 0.785E+01   0.877E+00 0.254E-01 -.739E+01   -.188E-02 -.162E-02 0.180E+00
   -.468E-04 -.285E+00 0.774E+01   0.426E-04 0.289E+00 -.836E+01   0.195E-05 -.808E-03 -.804E-01
   0.295E-03 -.197E+00 -.476E+03   -.311E-03 0.194E+00 0.477E+03   0.183E-05 -.208E-02 -.684E-01
   -.497E+01 -.239E+01 -.481E+03   0.498E+01 0.239E+01 0.480E+03   -.616E-02 -.768E-03 0.470E-01
   -.340E+02 -.241E+01 -.923E+03   0.340E+02 0.240E+01 0.921E+03   0.100E-01 -.232E-02 0.168E-01
   0.166E-03 -.322E+01 -.971E+03   -.172E-03 0.321E+01 0.971E+03   0.143E-05 0.320E-02 0.675E+00
   -.281E+00 -.133E+00 0.965E+03   0.281E+00 0.134E+00 -.967E+03   -.662E-05 0.444E-03 -.124E+01
   0.119E-05 -.762E-01 0.104E+04   -.119E-05 0.764E-01 -.104E+04   -.596E-07 0.820E-04 -.183E+01
   0.330E-05 -.951E-01 0.502E+03   -.376E-05 0.954E-01 -.501E+03   -.589E-07 0.200E-03 0.183E+00
   -.225E+00 -.694E-01 0.498E+03   0.224E+00 0.696E-01 -.499E+03   -.312E-03 0.198E-03 -.165E+00
   -.879E+00 -.466E+00 0.732E+01   0.876E+00 0.477E+00 -.686E+01   -.948E-03 0.577E-02 0.183E+00
   -.399E-04 -.216E+00 0.721E+01   0.352E-04 0.220E+00 -.782E+01   0.180E-05 0.104E-04 -.788E-01
   0.313E-03 -.147E+01 -.478E+03   -.330E-03 0.147E+01 0.478E+03   0.271E-05 -.149E-03 -.660E-01
   -.342E+01 -.157E+01 -.485E+03   0.343E+01 0.157E+01 0.485E+03   -.111E-03 0.111E-02 0.518E-01
   -.176E+02 -.125E+02 -.936E+03   0.176E+02 0.124E+02 0.935E+03   0.146E-01 0.206E-02 0.428E-04
   0.226E-03 -.234E+01 -.974E+03   -.226E-03 0.234E+01 0.974E+03   -.176E-05 0.662E-03 0.688E+00
   -.263E+00 0.596E-02 0.965E+03   0.262E+00 -.617E-02 -.967E+03   -.118E-04 -.150E-03 -.124E+01
   0.119E-05 0.847E-01 0.104E+04   -.121E-05 -.851E-01 -.104E+04   -.352E-07 -.173E-03 -.183E+01
   0.389E-05 0.837E-02 0.501E+03   -.437E-05 -.834E-02 -.501E+03   0.387E-08 0.173E-04 0.183E+00
   -.217E+00 0.742E-01 0.498E+03   0.216E+00 -.747E-01 -.499E+03   -.254E-03 -.298E-03 -.165E+00
   -.791E+00 0.303E-01 0.690E+01   0.788E+00 -.299E-01 -.643E+01   -.710E-03 0.140E-03 0.186E+00
   -.413E-04 0.311E+00 0.730E+01   0.366E-04 -.314E+00 -.792E+01   0.177E-05 -.636E-03 -.785E-01
   0.347E-03 0.177E+00 -.479E+03   -.365E-03 -.173E+00 0.479E+03   0.111E-05 0.236E-02 -.637E-01
   -.362E+01 0.231E+01 -.485E+03   0.363E+01 -.232E+01 0.484E+03   -.467E-02 0.292E-03 0.496E-01
   -.962E+01 0.177E+01 -.943E+03   0.962E+01 -.177E+01 0.942E+03   0.632E-02 0.379E-03 -.966E-03
   0.155E-03 0.284E+01 -.973E+03   -.158E-03 -.282E+01 0.974E+03   0.173E-05 0.343E-03 0.678E+00
   -.280E+00 0.133E+00 0.965E+03   0.280E+00 -.134E+00 -.967E+03   0.744E-05 -.449E-03 -.124E+01
   0.115E-05 0.763E-01 0.104E+04   -.119E-05 -.765E-01 -.104E+04   0.266E-07 -.815E-04 -.183E+01
   0.337E-05 0.949E-01 0.502E+03   -.390E-05 -.952E-01 -.501E+03   -.264E-06 -.172E-03 0.183E+00
   -.224E+00 0.695E-01 0.498E+03   0.224E+00 -.697E-01 -.499E+03   -.243E-03 -.219E-03 -.165E+00
   -.791E+00 0.465E+00 0.741E+01   0.786E+00 -.472E+00 -.695E+01   -.191E-02 -.409E-02 0.184E+00
   -.389E-04 0.247E+00 0.782E+01   0.350E-04 -.249E+00 -.845E+01   0.171E-05 -.155E-02 -.803E-01
   0.285E-03 0.144E+01 -.477E+03   -.299E-03 -.144E+01 0.478E+03   0.150E-05 0.109E-02 -.681E-01
   -.530E+01 0.170E+01 -.480E+03   0.531E+01 -.171E+01 0.480E+03   -.305E-02 -.299E-03 0.436E-01
   -.225E+02 0.134E+02 -.934E+03   0.225E+02 -.135E+02 0.933E+03   0.158E-01 0.193E-02 0.931E-02
   0.184E-03 0.255E+01 -.970E+03   -.186E-03 -.257E+01 0.971E+03   -.111E-05 -.202E-02 0.664E+00
   0.299E+00 -.593E-02 0.965E+03   -.299E+00 0.613E-02 -.967E+03   -.121E-04 0.154E-03 -.124E+01
   -.114E-05 -.113E+00 0.104E+04   0.116E-05 0.113E+00 -.104E+04   0.988E-07 0.294E-03 -.183E+01
   -.306E-05 0.716E-02 0.502E+03   0.312E-05 -.393E-02 -.501E+03   -.375E-07 0.102E-02 0.184E+00
   0.232E+00 -.743E-01 0.498E+03   -.231E+00 0.748E-01 -.499E+03   0.270E-03 0.283E-03 -.166E+00
   0.883E+00 -.286E-01 0.785E+01   -.877E+00 0.254E-01 -.739E+01   0.188E-02 -.162E-02 0.180E+00
   -.629E-04 -.444E+00 0.966E+01   0.597E-04 0.429E+00 -.103E+02   0.211E-05 0.530E-02 -.807E-01
   0.285E-03 -.479E+00 -.465E+03   -.305E-03 0.528E+00 0.466E+03   0.223E-05 -.324E-01 -.601E-01
   0.497E+01 -.239E+01 -.481E+03   -.498E+01 0.239E+01 0.480E+03   0.617E-02 -.769E-03 0.470E-01
   0.340E+02 -.241E+01 -.923E+03   -.340E+02 0.240E+01 0.921E+03   -.100E-01 -.232E-02 0.168E-01
   0.242E-03 -.296E+02 -.915E+03   -.250E-03 0.297E+02 0.916E+03   -.916E-06 -.688E-02 0.733E+00
   0.281E+00 -.133E+00 0.965E+03   -.281E+00 0.134E+00 -.967E+03   0.635E-05 0.444E-03 -.124E+01
   -.116E-05 -.104E+00 0.104E+04   0.118E-05 0.104E+00 -.104E+04   -.122E-07 0.995E-04 -.183E+01
   -.349E-05 -.105E+00 0.502E+03   0.366E-05 0.106E+00 -.501E+03   0.204E-06 0.356E-03 0.185E+00
   0.225E+00 -.694E-01 0.498E+03   -.224E+00 0.696E-01 -.499E+03   0.312E-03 0.198E-03 -.165E+00
   0.879E+00 -.466E+00 0.732E+01   -.876E+00 0.477E+00 -.686E+01   0.949E-03 0.576E-02 0.183E+00
   -.815E-04 -.360E+00 0.916E+01   0.790E-04 0.363E+00 -.981E+01   0.254E-05 -.147E-03 -.100E+00
   0.252E-03 -.439E+01 -.468E+03   -.266E-03 0.441E+01 0.468E+03   0.207E-05 -.222E-02 -.111E+00
[...]
   -.254E+02 0.156E+00 0.749E+03   0.298E+02 -.157E+00 -.749E+03   -.343E+01 0.132E-02 0.191E+00
   0.254E+02 0.156E+00 0.749E+03   -.298E+02 -.157E+00 -.749E+03   0.343E+01 0.132E-02 0.191E+00
   0.701E+00 0.243E+00 0.324E+03   -.697E+00 -.246E+00 -.329E+03   -.471E-02 0.559E-02 0.410E+01
   0.233E+01 0.918E+00 -.306E+03   -.232E+01 -.926E+00 0.313E+03   -.121E-01 0.100E-01 -.667E+01
   -.255E+02 0.659E+00 0.142E+02   0.308E+02 -.664E+00 -.144E+02   -.500E+01 0.141E-01 0.302E+00
   0.255E+02 0.659E+00 0.142E+02   -.308E+02 -.664E+00 -.144E+02   0.500E+01 0.141E-01 0.302E+00
   0.337E-03 0.173E+01 -.399E+03   -.412E-03 -.175E+01 0.392E+03   0.653E-04 0.144E-01 0.618E+01
   -.463E-04 0.800E+01 -.997E+03   0.834E-04 -.788E+01 0.995E+03   -.321E-04 -.105E+00 0.152E+01
   -.642E+01 0.511E+01 -.713E+03   0.974E+01 -.513E+01 0.712E+03   -.289E+01 0.208E-01 0.758E+00
   0.642E+01 0.511E+01 -.713E+03   -.974E+01 -.513E+01 0.712E+03   0.289E+01 0.208E-01 0.758E+00
   0.233E+02 0.675E+01 -.112E+04   -.234E+02 -.683E+01 0.113E+04   0.150E+00 0.665E-01 -.195E+01
   0.717E+02 0.209E+02 -.165E+04   -.715E+02 -.209E+02 0.167E+04   -.232E+00 -.144E-02 -.198E+02
   -.259E+02 0.502E+02 -.143E+04   0.329E+02 -.503E+02 0.143E+04   -.606E+01 0.879E-01 -.338E+01
   0.259E+02 0.502E+02 -.143E+04   -.329E+02 -.503E+02 0.143E+04   0.606E+01 0.879E-01 -.338E+01
   0.604E-03 0.187E+01 0.103E+03   -.199E-12 -.163E-11 0.000E+00   -.577E-03 -.160E+01 -.945E+02

 POSITION                                       TOTAL-FORCE (eV/Angst)
      6.46985      7.12670     22.92464         0.000000     -0.004458      0.004500
      6.46985      8.25732     23.17478        -0.000000      0.001411      0.012644
      6.46985      5.99305     22.64033        -0.000000     -0.018522     -0.006176
      9.70478      7.35050      7.26518         0.000002      0.000371     -3.960363
      0.00000      8.82060      7.26518         0.000000      0.000581      3.129750
      0.00000      7.35050     10.50011        -0.000000     -0.000049      0.586966
      9.70478      8.82060     10.50011        -0.001402      0.000788     -0.852111
      9.70478      7.35050     13.73503        -0.008093     -0.005254      0.676514
      0.00000      8.82060     13.73503        -0.000004      0.003640     -0.787549
      0.00000      7.35161     16.90657         0.000000     -0.003064      0.004197
      9.70515      8.82158     17.08150         0.002450      0.003855      0.000758
      9.70751      7.35431     20.39946        -0.003000     -0.001449     -0.004917
     12.93970      8.82323     20.07001        -0.000000      0.005628     -0.008735
      9.70478     10.29069      7.26518        -0.000195      0.001204     -3.960903
      0.00000      0.00000      7.26518         0.000000      0.000287      3.129225
      0.00000     10.29069     10.50011        -0.000000      0.000451      0.587206
      9.70478      0.00000     10.50011        -0.001654      0.000422     -0.850140
      9.70478     10.29069     13.73503        -0.004585      0.017161      0.684231
      0.00000      0.00000     13.73503        -0.000004      0.003893     -0.782298
      0.00000     10.29184     16.90794         0.000000      0.001102      0.000775
      9.70477      0.00094     17.08492         0.001643      0.002556     -0.000428
      9.70330     10.29299     20.40957         0.000610      0.006732      0.000676
     12.93970      0.00144     20.07084         0.000003      0.004103     -0.007862
      9.70478      1.47010      7.26518        -0.000254     -0.000397     -3.961012
      0.00000      2.94020      7.26518         0.000000     -0.000629      3.129506
      0.00000      1.47010     10.50011        -0.000000     -0.000012      0.587535
      9.70478      2.94020     10.50011        -0.001274     -0.000805     -0.849524
      9.70478      1.47010     13.73503        -0.004080      0.000382      0.696041
      0.00000      2.94020     13.73503        -0.000004     -0.003806     -0.782781
      0.00000      1.47069     16.90860        -0.000002      0.002620     -0.000039
      9.70514      2.94101     17.08479         0.003610     -0.004395     -0.001897
      9.70404      1.47226     20.40896        -0.001515      0.002099      0.003307
     12.93970      2.94117     20.07086         0.000002      0.001520     -0.006319
      9.70478      4.41030      7.26518        -0.000009     -0.001249     -3.960466
      0.00000      5.88040      7.26518         0.000000     -0.000303      3.130001
      0.00000      4.41030     10.50011        -0.000001     -0.000542      0.587248
      9.70478      5.88040     10.50011        -0.001040     -0.000506     -0.851376
      9.70478      4.41030     13.73503        -0.007677     -0.012632      0.688173
      0.00000      5.88040     13.73503        -0.000003     -0.003575     -0.787567
     -0.00000      4.41078     16.90696        -0.000001     -0.001338      0.004053
      9.70620      5.88109     17.08272         0.002574     -0.003298     -0.001349
      9.70706      4.41285     20.40804        -0.000031     -0.008497      0.001246
     12.93970      5.88256     20.06972         0.000002     -0.012814     -0.008072
      3.23493      7.35050      7.26518        -0.000002      0.000371     -3.960363
      6.46985      8.82060      7.26518         0.000000      0.001001      3.132085
      6.46985      7.35050     10.50011         0.000000      0.004583      0.590470
      3.23493      8.82060     10.50011         0.001402      0.000788     -0.852112
      3.23493      7.35050     13.73503         0.008097     -0.005255      0.676514
      6.46985      8.82060     13.73503        -0.000002     -0.011182     -0.755385
      6.46985      7.34496     16.91800        -0.000002     -0.005794     -0.001212
      3.23455      8.82158     17.08150        -0.002451      0.003855      0.000764
      3.23218      7.35431     20.39946         0.003000     -0.001454     -0.004924
      6.46985      8.82989     20.05787        -0.000003      0.008583      0.005674
      3.23493     10.29069      7.26518         0.000195      0.001204     -3.960903
      6.46985      0.00000      7.26518         0.000000      0.000330      3.131304
      6.46985     10.29069     10.50011         0.000000      0.001966      0.593295
      3.23493      0.00000     10.50011         0.001654      0.000422     -0.850141
      3.23493     10.29069     13.73503         0.004590      0.017155      0.684229
      6.46985      0.00000     13.73503        -0.000001      0.003420     -0.817653
      6.46985     10.28947     16.89880         0.000001     -0.009214      0.003834
[...]
      6.46985      5.88040     11.76529        -0.000000      0.000125     -0.133567
      4.50011      4.41030     10.50011         0.479361      0.000699      0.058995
      8.43960      4.41030     10.50011        -0.479361      0.000699      0.058975
      3.23493      5.88040     12.46985        -0.001483      0.003591     -0.080316
      3.23493      5.88040     15.00021        -0.000278      0.003758      0.051233
      7.73503      4.41030     13.73503        -0.487414      0.011514      0.090991
      5.20467      4.41030     13.73503         0.487411      0.011514      0.090965
      6.46985      5.88022     15.72265        -0.000000     -0.000201      0.001543
      6.46985      5.88117     18.26787         0.000000      0.001530     -0.006489
      4.52574      4.41161     16.99115         0.006372     -0.000544      0.000707
      8.41396      4.41161     16.99114        -0.006374     -0.000541      0.000707
      3.22218      5.88187     18.94708         0.005612      0.000503      0.000412
      3.25259      5.88587     21.49202         0.001260      0.002968      0.000360
      7.68763      4.40065     20.35525         0.000870      0.000423      0.000488
      5.25206      4.40065     20.35525        -0.000872      0.000421      0.000488
    total drift:                               -0.000019      0.004497     -0.001128

  FREE ENERGIE OF THE ION-ELECTRON SYSTEM (eV)
  free  energy   TOTEN  =     -2647.32350131 eV

  energy  without entropy=    -2647.32350131  energy(sigma->0) =    -2647.32350131

 d Force = 0.1697576E-04[-0.980E-06, 0.349E-04]  d Energy = 0.1737176E-04-0.396E-06
 d Force =-0.4805157E+00[-0.481E+00,-0.481E+00]  d Ewald  =-0.4805155E+00-0.199E-06

 reached required accuracy - stopping structural energy minimisation