 vasp.6.4.2 20Jul23 (build Feb 22 2024 13:53:45) complex
 executed on              LinuxNV date 2024.08.27  15:20:34
 OpenACC runtime initialized ...    4 GPUs detected

 INCAR:
   SYSTEM = Oxide-Surface
   ISMEAR = 0
   SIGMA = 0.05
   EDIFF = 1E-5
   ALGO = Normal
   IBRION = -1
   NSW = 0
   ISYM = 0
   DIPOL = 0.5 0.5 0.5
   IDIPOL = 3
   LDIPOL = .TRUE.
   ISTART = 0
   LHFCALC = .FALSE.
   GGA = PE
   IVDW = 21
   VDW_SR = 0.96
   HFRCUT = -1
   ENCUT = 520
   PREC = Normal
   PRECFOCK = Normal
   LASPH = .TRUE.
   LREAL = Auto
   ISPIN = 1
   NELM = 200
   NELMIN = 8
   NCORE = 1
   KPAR = 1
   LWAVE = .TRUE.
   LCHARG = .FALSE.

 POTCAR:    PAW_PBE C 08Apr2002
 POTCAR:    PAW_PBE O 08Apr2002
 POTCAR:    PAW_PBE H 15Jun2001
 POTCAR:    PAW_PBE Ti_pv 07Sep2000
 POTCAR:    PAW_PBE O 08Apr2002
 POTCAR:    PAW_PBE C 08Apr2002
   VRHFIN =C: s2p2

   TITEL  = PAW_PBE C 08Apr2002
   POMASS =   12.011; ZVAL   =    4.000    mass and valenz
   ENMAX  =  400.000; ENMIN  =  300.000 eV

[...]

   TITEL  = PAW_PBE H 15Jun2001
   POMASS =    1.000; ZVAL   =    1.000    mass and valenz
   ENMAX  =  250.000; ENMIN  =  200.000 eV

   TITEL  = PAW_PBE Ti_pv 07Sep2000
   POMASS =   47.880; ZVAL   =   10.000    mass and valenz
   ENMAX  =  222.335; ENMIN  =  166.751 eV

   TITEL  = PAW_PBE O 08Apr2002
   POMASS =   16.000; ZVAL   =    6.000    mass and valenz
   ENMAX  =  400.000; ENMIN  =  300.000 eV

 Optimization of the real space projectors (new method)

 maximal supplied QI-value         = 25.13
 optimisation between [QCUT,QGAM] = [ 11.56, 23.12] = [ 37.43,149.72] Ry
 Optimized for a Real-space Cutoff    1.04 Angstroem

   l    n(q)    QCUT    max X(q) W(low)/X(q) W(high)/X(q)  e(spline)
   0      7    11.561   115.676    0.20E-03    0.60E-03    0.21E-06
   0      7    11.561    87.132    0.20E-03    0.59E-03    0.21E-06
   1      7    11.561     4.429    0.23E-03    0.35E-03    0.15E-06
   1      7    11.561     2.733    0.18E-03    0.25E-03    0.12E-06
 Optimization of the real space projectors (new method)

[...]

   l    n(q)    QCUT    max X(q) W(low)/X(q) W(high)/X(q)  e(spline)
   1     10    11.641     4.216    0.33E-04    0.72E-04    0.48E-07
   1     10    11.641     5.422    0.11E-03    0.20E-03    0.10E-06
   2      9    11.641    72.084    0.36E-03    0.27E-03    0.57E-06
   2      9    11.641    65.965    0.35E-03    0.27E-03    0.57E-06
   0     10    11.641    41.531    0.11E-03    0.93E-04    0.16E-06
   0     10    11.641    16.290    0.82E-04    0.72E-04    0.13E-06
 Optimization of the real space projectors (new method)

 maximal supplied QI-value         = 24.76
 optimisation between [QCUT,QGAM] = [ 11.64, 23.27] = [ 37.91,151.63] Ry
 Optimized for a Real-space Cutoff    1.04 Angstroem

   l    n(q)    QCUT    max X(q) W(low)/X(q) W(high)/X(q)  e(spline)
   0      7    11.635    20.381    0.14E-03    0.49E-03    0.18E-06
   0      7    11.635    15.268    0.16E-03    0.52E-03    0.19E-06
   1      7    11.635     5.964    0.30E-03    0.44E-03    0.22E-06
   1      7    11.635     5.382    0.27E-03    0.34E-03    0.19E-06
  PAW_PBE C 08Apr2002                   :
  PAW_PBE O 08Apr2002                   :
  PAW_PBE H 15Jun2001                   :
  PAW_PBE Ti_pv 07Sep2000               :
  PAW_PBE O 08Apr2002                   :

 POSCAR:  C  O  H Ti  O
  positions in direct lattice
 exchange correlation table for  LEXCH =        8
   RHO(1)=    0.500       N(1)  =     2000
   RHO(2)=  100.500       N(2)  =     4000

 ion  position               nearest neighbor table
   1  0.510  0.588  0.825-   3 1.09   5 1.10   6 1.10   2 1.45
   2  0.539  0.498  0.789-   4 1.00   1 1.45  86 2.18
   3  0.427  0.597  0.823-   1 1.09
   4  0.615  0.493  0.787-   2 1.00
   5  0.534  0.564  0.866-   1 1.10
   6  0.549  0.667  0.814-   1 1.10
   7  0.750  0.625  0.185-  88 1.95 148 1.95 147 1.95  87 1.95  90 1.98 169 1.98  17 2.96  37 2.96

   8  0.000  0.750  0.185-  89 1.95  90 1.95 109 1.95 110 1.95  91 1.98  38 2.96  18 2.96
   9  0.000  0.625  0.315-  91 1.95 151 1.95  92 1.95 152 1.95  94 1.98  93 1.98  19 2.96  39 2.96

[...]

  87  0.750  0.750  0.134-   7 1.95  17 1.95
  88  0.750  0.750  0.236-   7 1.95  17 1.95  10 1.98
  89  0.098  0.625  0.185-   8 1.95  38 1.95  47 1.98
  90  0.902  0.625  0.185-   8 1.95  38 1.95   7 1.98
  91  0.000  0.750  0.264-   9 1.95  19 1.95   8 1.98
  92  0.000  0.750  0.366-   9 1.95  19 1.95  12 1.98
  93  0.848  0.625  0.315-  10 1.95  40 1.95   9 1.98
  94  0.152  0.625  0.315-  50 1.95  80 1.95   9 1.98
  95  0.750  0.750  0.394-  11 1.95  21 1.95  10 1.98
  96  0.750  0.750  0.496-  11 1.95  21 1.95  14 2.09
  97  0.098  0.625  0.445-  12 1.95  42 1.95  51 1.98
  98  0.902  0.625  0.445-  12 1.95  42 1.95  11 1.98
  99  0.001  0.750  0.525-  23 1.90  13 1.90  12 2.00
 100  1.000  0.750  0.627-  16 1.81  13 2.02  23 2.02
 101  0.851  0.625  0.575-  14 1.93  44 1.93  13 2.03
 102  0.150  0.625  0.576-  13 1.87  84 2.02  54 2.02
 103  0.754  0.751  0.654-  14 1.87  15 2.08  25 2.09
 104  0.749  0.749  0.757-  15 1.83  25 1.84
 105  0.095  0.625  0.712-  46 1.94  16 1.95  55 2.03
 106  0.906  0.624  0.713-  46 1.95  16 1.96  15 2.02
 107  0.750  0.000  0.134-  17 1.95  27 1.95
 108  0.750  0.000  0.236-  17 1.95  27 1.95  20 1.98
 109  0.098  0.875  0.185-   8 1.95  18 1.95  57 1.98
 110  0.902  0.875  0.185-   8 1.95  18 1.95  17 1.98
 111  0.000  0.000  0.264-  19 1.95  29 1.95  18 1.98
 112  0.000  0.000  0.366-  19 1.95  29 1.95  22 1.98
 113  0.848  0.875  0.315-  10 1.95  20 1.95  19 1.98
 114  0.152  0.875  0.315-  50 1.95  60 1.95  19 1.98
 115  0.750  0.000  0.394-  21 1.95  31 1.95  20 1.98
 116  0.750  0.000  0.496-  21 1.95  31 1.95  24 2.10
 117  0.098  0.875  0.445-  12 1.95  22 1.95  61 1.98
 118  0.902  0.875  0.445-  12 1.95  22 1.95  21 1.98
 119  0.001  0.000  0.525-  33 1.90  23 1.90  22 2.00
 120  0.000  0.000  0.627-  26 1.81  33 2.02  23 2.02
 121  0.851  0.876  0.575-  24 1.93  14 1.93  23 2.04
 122  0.150  0.875  0.576-  23 1.87  54 2.02  64 2.02
 123  0.751  0.000  0.655-  24 1.87  35 2.09  25 2.09
 124  0.750  1.000  0.758-  35 1.83  25 1.84
 125  0.094  0.875  0.712-  16 1.94  26 1.95  65 2.04
 126  0.906  0.875  0.713-  16 1.94  26 1.95  25 2.04
 127  0.750  0.250  0.134-  27 1.95  37 1.95
 128  0.750  0.250  0.236-  27 1.95  37 1.95  30 1.98
 129  0.098  0.125  0.185-  18 1.95  28 1.95  67 1.98
 130  0.902  0.125  0.185-  18 1.95  28 1.95  27 1.98
 131  0.000  0.250  0.264-  29 1.95  39 1.95  28 1.98
 132  0.000  0.250  0.366-  29 1.95  39 1.95  32 1.98
 133  0.848  0.125  0.315-  20 1.95  30 1.95  29 1.98
 134  0.152  0.125  0.315-  60 1.95  70 1.95  29 1.98
 135  0.750  0.250  0.394-  31 1.95  41 1.95  30 1.98
 136  0.750  0.250  0.496-  31 1.95  41 1.95  34 2.09
 137  0.098  0.125  0.445-  22 1.95  32 1.95  71 1.98
 138  0.902  0.125  0.445-  22 1.95  32 1.95  31 1.98
 139  0.001  0.250  0.525-  43 1.90  33 1.90  32 2.00
 140  0.000  0.250  0.627-  36 1.81  43 2.02  33 2.02
 141  0.851  0.125  0.576-  24 1.93  34 1.93  33 2.04
 142  0.150  0.125  0.576-  33 1.86  64 2.02  74 2.02
 143  0.753  0.250  0.654-  34 1.87  45 2.06  35 2.10
 144  0.749  0.251  0.757-  45 1.83  35 1.84
 145  0.094  0.125  0.712-  36 1.94  26 1.95  75 2.04
 146  0.906  0.125  0.712-  36 1.94  26 1.95  35 2.04
[...]
 232  0.500  0.500  0.366-  49 1.95  79 1.95  82 1.98
 233  0.348  0.375  0.315-  70 1.95  80 1.95  79 1.98
 234  0.652  0.375  0.315-  30 1.95  40 1.95  79 1.98
 235  0.250  0.500  0.394-  51 1.95  81 1.95  80 1.98
 236  0.250  0.500  0.496-  51 1.95  81 1.95  84 2.11
 237  0.598  0.375  0.445-  72 1.95  82 1.95  41 1.98
 238  0.402  0.375  0.445-  72 1.95  82 1.95  81 1.98
 239  0.501  0.500  0.525-  53 1.90  83 1.90  82 2.00
 240  0.500  0.500  0.628-  86 1.91  53 1.98  83 1.98
 241  0.350  0.375  0.576-  74 1.92  84 1.93  83 2.04
 242  0.651  0.375  0.576-  83 1.88  34 2.01  44 2.02
 243  0.250  0.500  0.655-  84 1.86  55 2.09  85 2.10
 244  0.252  0.500  0.757-  85 1.84  55 1.84
 245  0.597  0.371  0.707-  76 1.92  86 1.96  45 2.02
 246  0.407  0.374  0.711-  86 1.93  76 1.94  85 2.03

IMPORTANT INFORMATION: All symmetrisations will be switched off!
NOSYMM: (Re-)initialisation of all symmetry stuff for point group C_1.

                                     Primitive cell

  volume of cell :    3846.0501

  direct lattice vectors                    reciprocal lattice vectors
    13.003980404  0.000000000  0.000000000     0.076899531  0.000000000  0.000000000
     0.000000000 11.830378115  0.000000000     0.000000000  0.084528152  0.000000000
     0.000000000  0.000000000 25.000000000     0.000000000  0.000000000  0.040000000

  length of vectors
    13.003980404 11.830378115 25.000000000     0.076899531  0.084528152  0.040000000

  position of ions in fractional coordinates (direct lattice)
     0.510341709  0.587960969  0.825486788
     0.538682103  0.497718066  0.789040016
     0.426752452  0.597317826  0.823436931
     0.615385514  0.493008596  0.787324489
     0.533741134  0.564413803  0.866202358
     0.548755556  0.667398809  0.814179363
     0.750010663  0.625004961  0.184773010
     0.000010663  0.750004961  0.184773010
     0.000010663  0.625004961  0.314812814
     0.750010663  0.750004961  0.314812814
     0.750010663  0.625004961  0.444852618
     0.000010663  0.750004961  0.444852618
     0.007004437  0.625078947  0.572008516
     0.756144220  0.750119383  0.579538884
     0.750770416  0.625802808  0.712619678
     0.999989337  0.750346962  0.699268567
     0.750010663  0.875004961  0.184773010
     0.000010663  0.000004961  0.184773010
     0.000010663  0.875004961  0.314812814
     0.750010663  0.000004961  0.314812814
     0.750010663  0.875004961  0.444852618
     0.000010663  0.000004961  0.444852618
     0.007115791  0.875054039  0.572076102
     0.755710742  0.000055089  0.579920543
     0.749639513  0.874945154  0.713922526
     0.000259023  0.999950542  0.699228467
     0.750010663  0.125004961  0.184773010
     0.000010663  0.250004961  0.184773010
     0.000010663  0.125004961  0.314812814
     0.750010663  0.250004961  0.314812814
     0.750010663  0.125004961  0.444852618
     0.000010663  0.250004961  0.444852618
     0.007282824  0.124972857  0.572087558
     0.756031323  0.249874285  0.579456177
     0.749601559  0.124221820  0.713929795
     0.000202769  0.249636124  0.699257736
     0.750010663  0.375004961  0.184773010
     0.000010663  0.500004961  0.184773010
     0.000010663  0.375004961  0.314812814
     0.750010663  0.500004961  0.314812814
     0.750010663  0.375004961  0.444852618
     0.000010663  0.500004961  0.444852618
     0.006995650  0.374987490  0.571986700
     0.756370748  0.500013538  0.579738455
     0.751452610  0.373227846  0.712661921
     0.000833076  0.500130655  0.699185531
     0.250010663  0.625004961  0.184773010
     0.500010663  0.750004961  0.184773010
     0.500010663  0.625004961  0.314812814
     0.250010663  0.750004961  0.314812814
     0.250010663  0.625004961  0.444852618
     0.500010663  0.750004961  0.444852618
     0.507173520  0.622679804  0.573626488
     0.256156716  0.749997173  0.579847416
     0.250347362  0.625327763  0.713801464
[...]
     0.000000000  0.000000000 25.000000000     0.000000000  0.000000000  0.040000000

  length of vectors
    13.003980404 11.830378115 25.000000000     0.076899531  0.084528152  0.040000000

 FORCES acting on ions
    electron-ion (+dipol)            ewald-force                    non-local-force                 convergence-correction
   0.373E+02 -.909E+02 -.104E+04   -.397E+02 0.959E+02 0.104E+04   0.246E+01 -.513E+01 -.467E+01   0.108E-03 -.107E-03 -.363E-03
   0.253E+02 0.126E+03 -.173E+04   -.484E+02 -.151E+03 0.172E+04   0.230E+02 0.257E+02 0.101E+02   -.303E-04 0.205E-03 0.109E-03
   0.579E+02 -.156E+02 -.251E+03   -.638E+02 0.162E+02 0.251E+03   0.587E+01 -.624E+00 0.231E+00   0.911E-04 -.773E-05 -.681E-04
   -.694E+02 0.160E+02 -.299E+03   0.770E+02 -.166E+02 0.299E+03   -.753E+01 0.601E+00 0.372E+00   -.939E-04 0.236E-04 -.762E-05
   -.117E+02 0.630E+01 -.227E+03   0.132E+02 -.771E+01 0.232E+03   -.154E+01 0.142E+01 -.534E+01   -.970E-05 0.197E-04 -.214E-03
   -.189E+02 -.611E+02 -.253E+03   0.215E+02 0.659E+02 0.252E+03   -.258E+01 -.484E+01 0.134E+01   0.362E-05 -.630E-04 -.626E-04
   -.209E+01 -.474E+00 0.280E+04   0.209E+01 0.475E+00 -.280E+04   -.178E-03 -.951E-03 0.436E+00   0.274E-03 0.147E-03 0.205E-02
   -.290E+00 -.791E+00 0.298E+04   0.293E+00 0.793E+00 -.297E+04   -.434E-03 -.204E-03 -.389E+01   0.696E-05 0.204E-03 0.137E-03
   -.227E+00 -.114E+00 0.144E+04   0.233E+00 0.115E+00 -.144E+04   -.862E-03 0.375E-04 -.429E-01   0.738E-04 -.563E-04 0.376E-03
   -.828E+00 -.253E+00 0.143E+04   0.819E+00 0.254E+00 -.143E+04   0.278E-02 0.868E-04 0.210E+00   -.722E-04 0.266E-04 -.841E-03
   -.200E+01 -.128E+00 0.230E+01   0.195E+01 0.112E+00 -.154E+01   0.120E-01 0.139E-03 -.128E+00   -.218E-03 0.150E-04 0.246E-04
   0.116E+01 -.968E+00 0.101E+02   -.116E+01 0.973E+00 -.112E+02   0.223E-02 -.295E-02 0.340E+00   0.214E-03 -.165E-03 -.105E-03
   0.136E+02 -.194E+01 -.139E+04   -.137E+02 0.194E+01 0.139E+04   0.521E-01 -.774E-02 0.746E-01   0.520E-03 0.408E-04 0.499E-03
   -.115E+01 -.977E+01 -.141E+04   0.115E+01 0.979E+01 0.141E+04   -.252E-01 -.106E-01 -.820E-01   -.645E-03 0.560E-04 0.820E-03
   -.100E+03 -.173E+02 -.270E+04   0.999E+02 0.172E+02 0.270E+04   0.180E+00 0.120E+00 0.180E-01   -.608E-03 0.144E-02 0.177E-02
   -.530E+01 -.549E+01 -.283E+04   0.535E+01 0.550E+01 0.283E+04   -.519E-01 -.144E-01 0.914E+00   0.288E-03 0.483E-04 0.118E-02
   -.175E+01 -.105E+01 0.280E+04   0.175E+01 0.106E+01 -.280E+04   0.150E-03 0.111E-02 0.437E+00   0.297E-03 0.168E-03 0.169E-02
   -.252E+00 -.302E+00 0.298E+04   0.254E+00 0.303E+00 -.297E+04   -.346E-03 -.943E-04 -.389E+01   0.585E-04 0.527E-04 -.114E-03
   -.190E+00 -.298E+00 0.144E+04   0.195E+00 0.298E+00 -.144E+04   -.834E-03 0.162E-03 -.429E-01   0.982E-04 0.723E-04 0.342E-03
   -.879E+00 -.153E+00 0.143E+04   0.869E+00 0.153E+00 -.143E+04   0.261E-02 -.153E-04 0.209E+00   -.182E-03 0.454E-05 -.840E-03
   -.335E+01 -.103E+01 0.842E+00   0.333E+01 0.105E+01 -.743E-01   0.856E-02 -.395E-03 -.130E+00   -.266E-03 0.276E-04 0.187E-03
   0.157E+01 -.297E+00 0.872E+01   -.158E+01 0.297E+00 -.979E+01   0.181E-02 -.381E-03 0.337E+00   0.198E-03 0.633E-04 -.142E-03
   0.164E+02 -.304E+01 -.139E+04   -.165E+02 0.305E+01 0.139E+04   0.513E-01 -.795E-02 0.775E-01   0.402E-03 0.172E-04 0.550E-03
   0.243E+01 -.178E+01 -.143E+04   -.243E+01 0.178E+01 0.143E+04   -.340E-01 0.568E-03 -.894E-01   -.542E-03 -.236E-04 0.249E-03
   -.303E+02 -.297E+02 -.275E+04   0.303E+02 0.297E+02 0.275E+04   0.583E-01 0.117E-01 -.109E+00   -.239E-03 -.179E-02 0.147E-02
   -.466E+01 -.229E+01 -.283E+04   0.464E+01 0.229E+01 0.283E+04   0.266E-01 -.180E-02 0.960E+00   0.296E-03 0.114E-06 0.128E-02
   -.161E+01 0.463E+00 0.280E+04   0.160E+01 -.464E+00 -.280E+04   0.305E-03 -.964E-03 0.437E+00   0.197E-03 -.180E-03 0.159E-02
   -.280E+00 0.787E+00 0.298E+04   0.283E+00 -.789E+00 -.297E+04   -.448E-03 0.251E-03 -.389E+01   0.133E-03 -.230E-03 -.282E-04
   -.193E+00 0.118E+00 0.144E+04   0.199E+00 -.118E+00 -.144E+04   -.967E-03 -.877E-04 -.428E-01   0.128E-03 -.591E-04 0.372E-03
   -.771E+00 0.253E+00 0.143E+04   0.762E+00 -.254E+00 -.143E+04   0.266E-02 -.670E-04 0.211E+00   -.147E-03 0.614E-04 -.749E-03
   -.319E+01 0.446E+00 0.373E+00   0.316E+01 -.486E+00 0.384E+00   0.978E-02 0.189E-02 -.129E+00   -.281E-03 -.102E-04 0.145E-03
   0.115E+01 0.996E+00 0.965E+01   -.115E+01 -.100E+01 -.107E+02   0.132E-02 0.269E-02 0.341E+00   0.167E-03 -.129E-04 -.125E-03
   0.177E+02 0.156E+01 -.139E+04   -.178E+02 -.157E+01 0.139E+04   0.555E-01 0.621E-02 0.821E-01   0.324E-03 0.776E-05 0.543E-03
   -.299E-01 0.913E+01 -.141E+04   0.227E-01 -.913E+01 0.141E+04   -.210E-01 0.225E-03 -.943E-01   -.550E-03 0.131E-03 0.840E-03
   -.223E+02 0.149E+02 -.276E+04   0.223E+02 -.149E+02 0.276E+04   0.515E-01 -.132E-01 -.123E+00   -.146E-03 0.152E-02 0.124E-02
   -.442E+01 0.490E+01 -.283E+04   0.446E+01 -.491E+01 0.283E+04   -.388E-01 0.118E-01 0.915E+00   0.682E-04 0.667E-04 0.127E-02
   -.194E+01 0.106E+01 0.280E+04   0.194E+01 -.107E+01 -.280E+04   0.193E-04 0.919E-03 0.436E+00   0.173E-03 -.139E-03 0.197E-02
   -.320E+00 0.306E+00 0.298E+04   0.322E+00 -.307E+00 -.297E+04   -.434E-03 0.183E-03 -.389E+01   0.917E-04 -.257E-04 0.285E-03
   -.231E+00 0.294E+00 0.144E+04   0.238E+00 -.295E+00 -.144E+04   -.973E-03 0.583E-04 -.429E-01   0.644E-05 0.435E-04 0.389E-03
   -.724E+00 0.153E+00 0.143E+04   0.715E+00 -.153E+00 -.143E+04   0.251E-02 0.137E-04 0.209E+00   -.317E-04 -.931E-04 -.728E-03
   -.180E+01 0.713E+00 0.183E+01   0.175E+01 -.684E+00 -.109E+01   0.126E-01 -.125E-02 -.127E+00   -.219E-03 -.338E-04 -.745E-05
   0.100E+01 0.312E+00 0.110E+02   -.101E+01 -.311E+00 -.121E+02   0.579E-03 -.502E-03 0.339E+00   0.183E-03 0.114E-03 -.142E-03
   0.140E+02 0.342E+01 -.139E+04   -.141E+02 -.343E+01 0.139E+04   0.502E-01 0.692E-02 0.751E-01   0.307E-03 -.661E-04 0.528E-03
   -.235E+01 0.183E+01 -.140E+04   0.240E+01 -.184E+01 0.140E+04   -.761E-01 0.283E-02 -.786E-01   -.642E-03 -.162E-03 0.374E-03
   -.842E+02 0.260E+02 -.272E+04   0.842E+02 -.258E+02 0.272E+04   0.113E+00 -.166E+00 0.169E-01   -.316E-03 -.118E-02 0.151E-02
   -.729E+01 0.292E+01 -.282E+04   0.726E+01 -.292E+01 0.282E+04   0.343E-01 0.484E-02 0.868E+00   0.268E-03 -.114E-03 0.112E-02
   0.207E+01 -.425E+00 0.280E+04   -.207E+01 0.426E+00 -.280E+04   -.148E-03 -.934E-03 0.436E+00   -.336E-03 0.238E-04 0.204E-02
   0.308E+00 -.132E+01 0.298E+04   -.311E+00 0.132E+01 -.297E+04   0.518E-03 -.551E-03 -.390E+01   -.641E-04 0.313E-03 0.924E-03
   0.354E+00 0.609E-01 0.144E+04   -.360E+00 -.487E-01 -.144E+04   0.713E-03 -.274E-02 -.451E-01   0.281E-04 -.456E-04 0.445E-03
   0.706E+00 -.199E+00 0.143E+04   -.696E+00 0.199E+00 -.143E+04   -.156E-02 0.157E-05 0.207E+00   -.108E-03 -.351E-04 -.800E-03
   0.601E+00 0.147E+00 -.131E+00   -.544E+00 -.163E+00 0.939E+00   -.875E-02 0.386E-03 -.138E+00   -.151E-03 0.114E-04 0.697E-04
   0.344E+01 0.848E+00 0.148E+02   -.347E+01 -.933E+00 -.157E+02   0.441E-02 0.400E-01 0.259E+00   0.191E-03 -.548E-04 -.583E-04
   0.218E+02 -.133E+02 -.137E+04   -.218E+02 0.134E+02 0.137E+04   0.304E-01 -.885E-01 0.497E-01   0.460E-03 0.134E-03 0.465E-03
   0.218E+02 -.679E+01 -.142E+04   -.218E+02 0.678E+01 0.142E+04   -.336E-01 0.737E-02 -.859E-01   -.395E-03 -.137E-03 0.522E-03
   0.653E+02 -.154E+02 -.272E+04   -.654E+02 0.154E+02 0.272E+04   0.697E-01 0.888E-02 -.130E+00   -.598E-03 0.897E-03 0.123E-02
   0.248E+02 -.819E+02 -.274E+04   -.246E+02 0.820E+02 0.274E+04   -.164E+00 -.625E-01 0.106E+01   0.855E-03 0.792E-05 0.923E-03
   0.173E+01 -.988E+00 0.280E+04   -.173E+01 0.992E+00 -.280E+04   -.459E-03 0.107E-02 0.437E+00   -.176E-03 0.199E-03 0.175E-02
   0.264E+00 -.517E+00 0.298E+04   -.266E+00 0.520E+00 -.297E+04   0.524E-03 -.275E-03 -.390E+01   -.530E-04 -.125E-04 0.519E-03
   0.320E+00 -.219E+00 0.144E+04   -.326E+00 0.219E+00 -.144E+04   0.867E-03 -.102E-02 -.458E-01   0.117E-03 0.489E-04 0.478E-03
   0.751E+00 -.162E+00 0.143E+04   -.741E+00 0.162E+00 -.143E+04   -.157E-02 0.130E-03 0.206E+00   -.110E-03 0.225E-04 -.783E-03
[...]
   -.529E+02 0.141E+00 0.859E+03   0.569E+02 -.142E+00 -.860E+03   -.356E+01 0.226E-02 0.152E+00   -.457E-04 0.148E-04 -.267E-04
   0.531E+02 0.154E+00 0.860E+03   -.571E+02 -.155E+00 -.860E+03   0.357E+01 0.178E-02 0.158E+00   0.511E-04 0.593E-06 -.277E-04
   0.233E+00 0.175E+00 0.390E+03   -.208E+00 -.177E+00 -.394E+03   -.351E-01 0.424E-02 0.416E+01   -.322E-04 -.871E-06 0.192E-03
   0.302E+01 0.678E+00 -.406E+03   -.326E+01 -.681E+00 0.413E+03   0.232E+00 0.332E-02 -.708E+01   -.598E-04 0.321E-04 0.152E-03
   -.548E+02 0.256E-01 0.780E+01   0.594E+02 -.272E-01 -.800E+01   -.506E+01 0.288E-01 0.266E+00   -.729E-04 0.118E-04 0.612E-04
   0.559E+02 -.423E-01 0.479E+01   -.605E+02 0.368E-01 -.493E+01   0.510E+01 0.354E-01 0.222E+00   0.127E-03 0.206E-04 0.179E-04
   0.128E+02 0.150E+01 -.433E+03   -.140E+02 -.158E+01 0.427E+03   0.110E+01 0.757E-01 0.682E+01   0.150E-03 0.108E-04 0.151E-03
   0.191E+02 0.297E+01 -.119E+04   -.203E+02 -.290E+01 0.119E+04   0.120E+01 -.725E-01 -.202E+01   0.267E-03 0.543E-05 0.333E-03
   -.487E+02 0.396E+01 -.825E+03   0.551E+02 -.399E+01 0.824E+03   -.628E+01 0.218E-01 0.127E+01   -.504E-04 -.745E-05 0.270E-03
   0.216E+00 0.634E+01 -.831E+03   -.196E+00 -.651E+01 0.830E+03   0.250E-01 0.164E+00 0.524E+00   -.329E-04 -.439E-04 0.352E-03
   0.256E+02 0.287E+01 -.133E+04   -.261E+02 -.292E+01 0.133E+04   0.447E+00 0.473E-01 -.207E+01   -.159E-03 0.444E-04 0.779E-04
   0.594E+02 0.103E+02 -.200E+04   -.591E+02 -.103E+02 0.203E+04   -.256E+00 0.409E-01 -.205E+02   -.154E-03 0.821E-05 0.517E-03
   -.517E+02 0.573E+02 -.162E+04   0.576E+02 -.570E+02 0.163E+04   -.589E+01 -.344E+00 -.605E+00   0.355E-04 -.121E-03 0.533E-03
   0.701E+02 0.494E+02 -.169E+04   -.763E+02 -.495E+02 0.169E+04   0.615E+01 0.932E-01 -.305E+01   0.256E-03 -.162E-03 0.593E-03
   0.882E+01 -.181E+02 0.845E+02   0.344E-11 0.121E-12 0.614E-11   -.884E+01 0.181E+02 -.846E+02   0.280E-03 0.529E-04 0.862E-01

 POSITION                                       TOTAL-FORCE (eV/Angst)
      6.63647      6.95580     20.63717         0.022403     -0.095094     -0.018216
      7.00501      5.88819     19.72600        -0.085572      0.106788      0.072892
      5.54948      7.06650     20.58592         0.003847     -0.002253     -0.001910
      8.00246      5.83248     19.68311         0.099149     -0.020413     -0.013303
      6.94076      6.67723     21.65506        -0.013642      0.007579     -0.025831
      7.13601      7.89558     20.35448        -0.000996      0.010234     -0.000113
      9.75312      7.39405      4.61933         0.000325      0.000751     -3.473795
      0.00014      8.87284      4.61933         0.002219      0.002024      2.744923
      0.00014      7.39405      7.87032         0.005131      0.000480      0.523830
      9.75312      8.87284      7.87032        -0.006965      0.000723     -0.724547
      9.75312      7.39405     11.12132        -0.033541     -0.015379      0.623303
      0.00014      8.87284     11.12132        -0.001832      0.002078     -0.725395
      0.09109      7.39492     14.30021        -0.042105     -0.000113      0.090615
      9.83288      8.87420     14.48847        -0.039780      0.000268     -0.040551
      9.76300      7.40348     17.81549         0.022883     -0.001725      0.001574
     13.00384      8.87689     17.48171         0.002763     -0.006810      0.071200
      9.75312     10.35164      4.61933        -0.000581      0.005349     -3.477104
      0.00014      0.00006      4.61933         0.002119      0.001244      2.742890
      0.00014     10.35164      7.87032         0.005004      0.000147      0.523742
      9.75312      0.00006      7.87032        -0.007119     -0.000301     -0.726971
      9.75312     10.35164     11.12132        -0.017423      0.023608      0.631288
      0.00014      0.00006     11.12132        -0.001298     -0.000119     -0.722236
      0.09253     10.35222     14.30190        -0.045658      0.002015      0.090641
      9.82725      0.00065     14.49801        -0.044874     -0.000131     -0.038131
      9.74830     10.35093     17.84806         0.012406      0.011534     -0.000962
      0.00337     11.82979     17.48071         0.006108      0.001923      0.075740
      9.75312      1.47886      4.61933        -0.001034     -0.002310     -3.479212
      0.00014      2.95765      4.61933         0.002281     -0.001872      2.743162
      0.00014      1.47886      7.87032         0.005310      0.000057      0.523515
      9.75312      2.95765      7.87032        -0.006704     -0.000604     -0.727126
      9.75312      1.47886     11.12132        -0.016730     -0.037396      0.621802
      0.00014      2.95765     11.12132         0.001860     -0.002397     -0.724948
      0.09471      1.47848     14.30219        -0.049674     -0.001516      0.088684
      9.83142      2.95611     14.48640        -0.042781      0.002781     -0.036012
      9.74780      1.46959     17.84824         0.008633     -0.002168      0.001131
      0.00264      2.95329     17.48144         0.003104      0.007687      0.073136
      9.75312      4.43645      4.61933        -0.000198     -0.003503     -3.475982
      0.00014      5.91525      4.61933         0.002468     -0.001068      2.745797
      0.00014      4.43645      7.87032         0.005477     -0.000387      0.523508
      9.75312      5.91525      7.87032        -0.006698      0.000422     -0.725813
      9.75312      4.43645     11.12132        -0.034006      0.028484      0.615434
      0.00014      5.91525     11.12132         0.000132      0.000621     -0.729069
      0.09097      4.43624     14.29967        -0.042558      0.000434      0.091580
      9.83583      5.91535     14.49346        -0.044240      0.000077     -0.045313
      9.77188      4.41543     17.81655         0.017765     -0.000335      0.000188
      0.01083      5.91673     17.47964         0.004547     -0.002744      0.078356
      3.25113      7.39405      4.61933        -0.000438     -0.000260     -3.474634
      6.50213      8.87284      4.61933        -0.002007      0.003908      2.759127
      6.50213      7.39405      7.87032        -0.004920      0.009482      0.550224
      3.25113      8.87284      7.87032         0.007915      0.000704     -0.712263
      3.25113      7.39405     11.12132         0.048466     -0.015019      0.663769
      6.50213      8.87284     11.12132        -0.023439     -0.044122     -0.593387
      6.59527      7.36654     14.34066        -0.039472      0.022803      0.067879
      3.33106      8.87275     14.49619        -0.043575     -0.002904     -0.039062
      3.25551      7.39786     17.84504        -0.004335     -0.002799     -0.003190
      6.51199      8.87436     17.44202        -0.005955      0.021437      0.089809
      3.25113     10.35164      4.61933         0.000422      0.004853     -3.477249
      6.50213      0.00006      4.61933        -0.001718      0.002275      2.753621
      6.50213     10.35164      7.87032        -0.005189     -0.000564      0.550439
      3.25113      0.00006      7.87032         0.008214      0.000320     -0.712672
[...]
      6.50213      5.91525      9.14470         0.003343     -0.003889     -0.116243
      4.52552      4.43645      7.87032         0.439104      0.001257      0.054555
      8.47874      4.43645      7.87032        -0.432684      0.001074      0.056421
      3.25113      5.91525      9.84693        -0.010528      0.002514     -0.116029
      3.25113      5.91525     12.39570        -0.009099      0.000306      0.077940
      7.77651      4.43645     11.12132        -0.415440      0.026973      0.059038
      5.22774      4.43645     11.12132         0.449703      0.029644      0.079237
      6.51393      5.91403     13.12315        -0.012831     -0.001655     -0.046576
      6.50143      5.91940     15.68974         0.003976      0.005903     -0.014865
      4.55324      4.43713     14.39628         0.033424     -0.008293     -0.008963
      8.46916      4.43633     14.40655         0.047170      0.001430     -0.000368
      3.25396      5.91930     16.36339         0.001919      0.000271      0.049254
      3.27802      5.91816     18.93489        -0.017597     -0.001097      0.044114
      7.75947      4.39476     17.67510        -0.017779     -0.006683      0.048439
      5.28662      4.42576     17.77770         0.002846     -0.019918      0.047865
    total drift:                               -0.020566     -0.010815     -0.035707

  FREE ENERGIE OF THE ION-ELECTRON SYSTEM (eV)
  free  energy   TOTEN  =     -2185.12778374 eV

  energy  without entropy=    -2185.12778374  energy(sigma->0) =    -2185.12778374

 writing wavefunctions