 vasp.6.4.2 20Jul23 (build Feb 22 2024 13:53:45) complex
 executed on              LinuxNV date 2024.08.27  15:46:24
 OpenACC runtime initialized ...    4 GPUs detected

 INCAR:
   SYSTEM = Oxide-Surface
   ISMEAR = 0
   SIGMA = 0.05
   EDIFF = 1E-5
   ALGO = Normal
   IBRION = -1
   NSW = 0
   ISYM = 0
   DIPOL = 0.5 0.5 0.5
   IDIPOL = 3
   LDIPOL = .TRUE.
   ISTART = 1
   LHFCALC = .TRUE.
   GGA = PE
   IVDW = 21
   VDW_SR = 0.96
   HFRCUT = -1
   ENCUT = 520
   PREC = Normal
   PRECFOCK = Normal
   LASPH = .TRUE.
   LREAL = Auto
   ISPIN = 1
   NELM = 200
   NELMIN = 8
   NCORE = 1
   KPAR = 1
   LWAVE = .FALSE.
   LCHARG = .FALSE.

 POTCAR:    PAW_PBE C 08Apr2002
 POTCAR:    PAW_PBE O 08Apr2002
 POTCAR:    PAW_PBE H 15Jun2001
 POTCAR:    PAW_PBE Ti_pv 07Sep2000
 POTCAR:    PAW_PBE O 08Apr2002
 POTCAR:    PAW_PBE C 08Apr2002
   VRHFIN =C: s2p2

   TITEL  = PAW_PBE C 08Apr2002
   POMASS =   12.011; ZVAL   =    4.000    mass and valenz
   ENMAX  =  400.000; ENMIN  =  300.000 eV

[...]

   TITEL  = PAW_PBE H 15Jun2001
   POMASS =    1.000; ZVAL   =    1.000    mass and valenz
   ENMAX  =  250.000; ENMIN  =  200.000 eV

   TITEL  = PAW_PBE Ti_pv 07Sep2000
   POMASS =   47.880; ZVAL   =   10.000    mass and valenz
   ENMAX  =  222.335; ENMIN  =  166.751 eV

   TITEL  = PAW_PBE O 08Apr2002
   POMASS =   16.000; ZVAL   =    6.000    mass and valenz
   ENMAX  =  400.000; ENMIN  =  300.000 eV

 Optimization of the real space projectors (new method)

 maximal supplied QI-value         = 25.13
 optimisation between [QCUT,QGAM] = [ 11.56, 23.12] = [ 37.43,149.72] Ry
 Optimized for a Real-space Cutoff    1.04 Angstroem

   l    n(q)    QCUT    max X(q) W(low)/X(q) W(high)/X(q)  e(spline)
   0      7    11.561   115.676    0.20E-03    0.60E-03    0.21E-06
   0      7    11.561    87.132    0.20E-03    0.59E-03    0.21E-06
   1      7    11.561     4.429    0.23E-03    0.35E-03    0.15E-06
   1      7    11.561     2.733    0.18E-03    0.25E-03    0.12E-06
 Optimization of the real space projectors (new method)

[...]

   l    n(q)    QCUT    max X(q) W(low)/X(q) W(high)/X(q)  e(spline)
   1     10    11.641     4.216    0.33E-04    0.72E-04    0.48E-07
   1     10    11.641     5.422    0.11E-03    0.20E-03    0.10E-06
   2      9    11.641    72.084    0.36E-03    0.27E-03    0.57E-06
   2      9    11.641    65.965    0.35E-03    0.27E-03    0.57E-06
   0     10    11.641    41.531    0.11E-03    0.93E-04    0.16E-06
   0     10    11.641    16.290    0.82E-04    0.72E-04    0.13E-06
 Optimization of the real space projectors (new method)

 maximal supplied QI-value         = 24.76
 optimisation between [QCUT,QGAM] = [ 11.64, 23.27] = [ 37.91,151.63] Ry
 Optimized for a Real-space Cutoff    1.04 Angstroem

   l    n(q)    QCUT    max X(q) W(low)/X(q) W(high)/X(q)  e(spline)
   0      7    11.635    20.381    0.14E-03    0.49E-03    0.18E-06
   0      7    11.635    15.268    0.16E-03    0.52E-03    0.19E-06
   1      7    11.635     5.964    0.30E-03    0.44E-03    0.22E-06
   1      7    11.635     5.382    0.27E-03    0.34E-03    0.19E-06
  PAW_PBE C 08Apr2002                   :
  PAW_PBE O 08Apr2002                   :
  PAW_PBE H 15Jun2001                   :
  PAW_PBE Ti_pv 07Sep2000               :
  PAW_PBE O 08Apr2002                   :

 POSCAR:  C  O  H Ti  O
  positions in direct lattice
 exchange correlation table for  LEXCH =        8
   RHO(1)=    0.500       N(1)  =     2000
   RHO(2)=  100.500       N(2)  =     4000

 ion  position               nearest neighbor table
   1  0.510  0.588  0.825-   3 1.09   5 1.10   6 1.10   2 1.45
   2  0.539  0.498  0.789-   4 1.00   1 1.45  86 2.18
   3  0.427  0.597  0.823-   1 1.09
   4  0.615  0.493  0.787-   2 1.00
   5  0.534  0.564  0.866-   1 1.10
   6  0.549  0.667  0.814-   1 1.10
   7  0.750  0.625  0.185-  88 1.95 148 1.95 147 1.95  87 1.95  90 1.98 169 1.98  17 2.96  37 2.96

   8  0.000  0.750  0.185-  89 1.95  90 1.95 109 1.95 110 1.95  91 1.98  38 2.96  18 2.96
   9  0.000  0.625  0.315-  91 1.95 151 1.95  92 1.95 152 1.95  94 1.98  93 1.98  19 2.96  39 2.96

[...]

  87  0.750  0.750  0.134-   7 1.95  17 1.95
  88  0.750  0.750  0.236-   7 1.95  17 1.95  10 1.98
  89  0.098  0.625  0.185-   8 1.95  38 1.95  47 1.98
  90  0.902  0.625  0.185-   8 1.95  38 1.95   7 1.98
  91  0.000  0.750  0.264-   9 1.95  19 1.95   8 1.98
  92  0.000  0.750  0.366-   9 1.95  19 1.95  12 1.98
  93  0.848  0.625  0.315-  10 1.95  40 1.95   9 1.98
  94  0.152  0.625  0.315-  50 1.95  80 1.95   9 1.98
  95  0.750  0.750  0.394-  11 1.95  21 1.95  10 1.98
  96  0.750  0.750  0.496-  11 1.95  21 1.95  14 2.09
  97  0.098  0.625  0.445-  12 1.95  42 1.95  51 1.98
  98  0.902  0.625  0.445-  12 1.95  42 1.95  11 1.98
  99  0.001  0.750  0.525-  23 1.90  13 1.90  12 2.00
 100  1.000  0.750  0.627-  16 1.81  13 2.02  23 2.02
 101  0.851  0.625  0.575-  14 1.93  44 1.93  13 2.03
 102  0.150  0.625  0.576-  13 1.87  84 2.02  54 2.02
 103  0.754  0.751  0.654-  14 1.87  15 2.08  25 2.09
 104  0.749  0.749  0.757-  15 1.83  25 1.84
 105  0.095  0.625  0.712-  46 1.94  16 1.95  55 2.03
 106  0.906  0.624  0.713-  46 1.95  16 1.96  15 2.02
 107  0.750  0.000  0.134-  17 1.95  27 1.95
 108  0.750  0.000  0.236-  17 1.95  27 1.95  20 1.98
 109  0.098  0.875  0.185-   8 1.95  18 1.95  57 1.98
 110  0.902  0.875  0.185-   8 1.95  18 1.95  17 1.98
 111  0.000  0.000  0.264-  19 1.95  29 1.95  18 1.98
 112  0.000  0.000  0.366-  19 1.95  29 1.95  22 1.98
 113  0.848  0.875  0.315-  10 1.95  20 1.95  19 1.98
 114  0.152  0.875  0.315-  50 1.95  60 1.95  19 1.98
 115  0.750  0.000  0.394-  21 1.95  31 1.95  20 1.98
 116  0.750  0.000  0.496-  21 1.95  31 1.95  24 2.10
 117  0.098  0.875  0.445-  12 1.95  22 1.95  61 1.98
 118  0.902  0.875  0.445-  12 1.95  22 1.95  21 1.98
 119  0.001  0.000  0.525-  33 1.90  23 1.90  22 2.00
 120  0.000  0.000  0.627-  26 1.81  33 2.02  23 2.02
 121  0.851  0.876  0.575-  24 1.93  14 1.93  23 2.04
 122  0.150  0.875  0.576-  23 1.87  54 2.02  64 2.02
 123  0.751  0.000  0.655-  24 1.87  35 2.09  25 2.09
 124  0.750  1.000  0.758-  35 1.83  25 1.84
 125  0.094  0.875  0.712-  16 1.94  26 1.95  65 2.04
 126  0.906  0.875  0.713-  16 1.94  26 1.95  25 2.04
 127  0.750  0.250  0.134-  27 1.95  37 1.95
 128  0.750  0.250  0.236-  27 1.95  37 1.95  30 1.98
 129  0.098  0.125  0.185-  18 1.95  28 1.95  67 1.98
 130  0.902  0.125  0.185-  18 1.95  28 1.95  27 1.98
 131  0.000  0.250  0.264-  29 1.95  39 1.95  28 1.98
 132  0.000  0.250  0.366-  29 1.95  39 1.95  32 1.98
 133  0.848  0.125  0.315-  20 1.95  30 1.95  29 1.98
 134  0.152  0.125  0.315-  60 1.95  70 1.95  29 1.98
 135  0.750  0.250  0.394-  31 1.95  41 1.95  30 1.98
 136  0.750  0.250  0.496-  31 1.95  41 1.95  34 2.09
 137  0.098  0.125  0.445-  22 1.95  32 1.95  71 1.98
 138  0.902  0.125  0.445-  22 1.95  32 1.95  31 1.98
 139  0.001  0.250  0.525-  43 1.90  33 1.90  32 2.00
 140  0.000  0.250  0.627-  36 1.81  43 2.02  33 2.02
 141  0.851  0.125  0.576-  24 1.93  34 1.93  33 2.04
 142  0.150  0.125  0.576-  33 1.86  64 2.02  74 2.02
 143  0.753  0.250  0.654-  34 1.87  45 2.06  35 2.10
 144  0.749  0.251  0.757-  45 1.83  35 1.84
 145  0.094  0.125  0.712-  36 1.94  26 1.95  75 2.04
 146  0.906  0.125  0.712-  36 1.94  26 1.95  35 2.04
[...]
 232  0.500  0.500  0.366-  49 1.95  79 1.95  82 1.98
 233  0.348  0.375  0.315-  70 1.95  80 1.95  79 1.98
 234  0.652  0.375  0.315-  30 1.95  40 1.95  79 1.98
 235  0.250  0.500  0.394-  51 1.95  81 1.95  80 1.98
 236  0.250  0.500  0.496-  51 1.95  81 1.95  84 2.11
 237  0.598  0.375  0.445-  72 1.95  82 1.95  41 1.98
 238  0.402  0.375  0.445-  72 1.95  82 1.95  81 1.98
 239  0.501  0.500  0.525-  53 1.90  83 1.90  82 2.00
 240  0.500  0.500  0.628-  86 1.91  53 1.98  83 1.98
 241  0.350  0.375  0.576-  74 1.92  84 1.93  83 2.04
 242  0.651  0.375  0.576-  83 1.88  34 2.01  44 2.02
 243  0.250  0.500  0.655-  84 1.86  55 2.09  85 2.10
 244  0.252  0.500  0.757-  85 1.84  55 1.84
 245  0.597  0.371  0.707-  76 1.92  86 1.96  45 2.02
 246  0.407  0.374  0.711-  86 1.93  76 1.94  85 2.03

IMPORTANT INFORMATION: All symmetrisations will be switched off!
NOSYMM: (Re-)initialisation of all symmetry stuff for point group C_1.

                                     Primitive cell

  volume of cell :    3846.0501

  direct lattice vectors                    reciprocal lattice vectors
    13.003980404  0.000000000  0.000000000     0.076899531  0.000000000  0.000000000
     0.000000000 11.830378115  0.000000000     0.000000000  0.084528152  0.000000000
     0.000000000  0.000000000 25.000000000     0.000000000  0.000000000  0.040000000

  length of vectors
    13.003980404 11.830378115 25.000000000     0.076899531  0.084528152  0.040000000

  position of ions in fractional coordinates (direct lattice)
     0.510341709  0.587960969  0.825486788
     0.538682103  0.497718066  0.789040016
     0.426752452  0.597317826  0.823436931
     0.615385514  0.493008596  0.787324489
     0.533741134  0.564413803  0.866202358
     0.548755556  0.667398809  0.814179363
     0.750010663  0.625004961  0.184773010
     0.000010663  0.750004961  0.184773010
     0.000010663  0.625004961  0.314812814
     0.750010663  0.750004961  0.314812814
     0.750010663  0.625004961  0.444852618
     0.000010663  0.750004961  0.444852618
     0.007004437  0.625078947  0.572008516
     0.756144220  0.750119383  0.579538884
     0.750770416  0.625802808  0.712619678
     0.999989337  0.750346962  0.699268567
     0.750010663  0.875004961  0.184773010
     0.000010663  0.000004961  0.184773010
     0.000010663  0.875004961  0.314812814
     0.750010663  0.000004961  0.314812814
     0.750010663  0.875004961  0.444852618
     0.000010663  0.000004961  0.444852618
     0.007115791  0.875054039  0.572076102
     0.755710742  0.000055089  0.579920543
     0.749639513  0.874945154  0.713922526
     0.000259023  0.999950542  0.699228467
     0.750010663  0.125004961  0.184773010
     0.000010663  0.250004961  0.184773010
     0.000010663  0.125004961  0.314812814
     0.750010663  0.250004961  0.314812814
     0.750010663  0.125004961  0.444852618
     0.000010663  0.250004961  0.444852618
     0.007282824  0.124972857  0.572087558
     0.756031323  0.249874285  0.579456177
     0.749601559  0.124221820  0.713929795
     0.000202769  0.249636124  0.699257736
     0.750010663  0.375004961  0.184773010
     0.000010663  0.500004961  0.184773010
     0.000010663  0.375004961  0.314812814
     0.750010663  0.500004961  0.314812814
     0.750010663  0.375004961  0.444852618
     0.000010663  0.500004961  0.444852618
     0.006995650  0.374987490  0.571986700
     0.756370748  0.500013538  0.579738455
     0.751452610  0.373227846  0.712661921
     0.000833076  0.500130655  0.699185531
     0.250010663  0.625004961  0.184773010
     0.500010663  0.750004961  0.184773010
     0.500010663  0.625004961  0.314812814
     0.250010663  0.750004961  0.314812814
     0.250010663  0.625004961  0.444852618
     0.500010663  0.750004961  0.444852618
     0.507173520  0.622679804  0.573626488
     0.256156716  0.749997173  0.579847416
     0.250347362  0.625327763  0.713801464
[...]
     0.000000000  0.000000000 25.000000000     0.000000000  0.000000000  0.040000000

  length of vectors
    13.003980404 11.830378115 25.000000000     0.076899531  0.084528152  0.040000000

 FORCES acting on ions
    electron-ion (+dipol)            ewald-force                    non-local-force                 convergence-correction
   0.372E+02 -.909E+02 -.104E+04   -.397E+02 0.959E+02 0.104E+04   0.243E+01 -.497E+01 -.458E+01   0.135E-02 -.181E-02 -.874E-01
   0.253E+02 0.125E+03 -.173E+04   -.484E+02 -.151E+03 0.172E+04   0.202E+02 0.226E+02 0.833E+01   0.200E-02 0.125E-02 -.129E+00
   0.581E+02 -.156E+02 -.251E+03   -.638E+02 0.162E+02 0.251E+03   0.569E+01 -.602E+00 0.227E+00   0.432E-03 -.251E-03 -.221E-01
   -.697E+02 0.160E+02 -.299E+03   0.770E+02 -.166E+02 0.299E+03   -.734E+01 0.576E+00 0.364E+00   0.452E-03 0.269E-03 -.216E-01
   -.117E+02 0.633E+01 -.227E+03   0.132E+02 -.771E+01 0.232E+03   -.149E+01 0.137E+01 -.518E+01   0.329E-04 0.548E-04 -.204E-01
   -.190E+02 -.612E+02 -.253E+03   0.215E+02 0.659E+02 0.252E+03   -.251E+01 -.469E+01 0.129E+01   0.154E-03 -.763E-03 -.220E-01
   -.209E+01 -.473E+00 0.280E+04   0.209E+01 0.475E+00 -.280E+04   -.180E-02 -.872E-02 0.614E+00   -.311E-03 -.742E-04 0.162E+00
   -.289E+00 -.790E+00 0.298E+04   0.293E+00 0.793E+00 -.297E+04   -.245E-04 -.441E-04 -.417E+01   -.196E-03 -.168E-03 0.162E+00
   -.226E+00 -.115E+00 0.144E+04   0.233E+00 0.115E+00 -.144E+04   -.884E-03 -.630E-02 -.885E-01   -.892E-05 0.273E-04 0.159E+00
   -.830E+00 -.253E+00 0.143E+04   0.819E+00 0.254E+00 -.143E+04   0.326E-02 0.251E-03 0.233E+00   0.629E-04 -.226E-04 0.158E+00
   -.201E+01 -.131E+00 0.229E+01   0.195E+01 0.112E+00 -.154E+01   0.129E-01 0.426E-02 -.155E+00   0.286E-03 0.531E-04 0.868E-01
   0.116E+01 -.968E+00 0.994E+01   -.116E+01 0.973E+00 -.112E+02   -.163E-02 -.275E-02 0.376E+00   0.707E-04 0.440E-04 0.843E-01
   0.138E+02 -.193E+01 -.139E+04   -.137E+02 0.194E+01 0.139E+04   -.105E+00 -.179E-01 0.252E+00   0.432E-03 0.779E-04 -.164E-01
   -.110E+01 -.978E+01 -.141E+04   0.115E+01 0.979E+01 0.141E+04   -.146E+00 -.337E-02 -.306E+00   0.164E-03 0.256E-03 -.248E-01
   -.100E+03 -.173E+02 -.270E+04   0.999E+02 0.172E+02 0.270E+04   0.220E+00 0.857E-01 -.262E+00   0.181E-03 0.384E-03 -.147E+00
   -.528E+01 -.546E+01 -.283E+04   0.535E+01 0.550E+01 0.283E+04   -.604E-01 -.321E-01 0.124E+01   0.986E-05 -.935E-05 -.137E+00
   -.175E+01 -.105E+01 0.280E+04   0.175E+01 0.106E+01 -.280E+04   -.139E-02 0.914E-02 0.614E+00   -.205E-03 -.327E-03 0.162E+00
   -.251E+00 -.301E+00 0.298E+04   0.254E+00 0.303E+00 -.297E+04   0.799E-04 0.133E-03 -.415E+01   -.175E-03 -.144E-03 0.163E+00
   -.188E+00 -.298E+00 0.144E+04   0.195E+00 0.298E+00 -.144E+04   -.848E-03 0.696E-02 -.885E-01   -.258E-04 -.667E-04 0.159E+00
   -.881E+00 -.153E+00 0.143E+04   0.869E+00 0.153E+00 -.143E+04   0.329E-02 0.316E-03 0.238E+00   0.620E-04 -.364E-04 0.158E+00
   -.336E+01 -.102E+01 0.831E+00   0.333E+01 0.105E+01 -.743E-01   0.681E-02 -.734E-02 -.156E+00   0.231E-03 0.683E-04 0.870E-01
   0.158E+01 -.297E+00 0.852E+01   -.158E+01 0.297E+00 -.979E+01   -.213E-02 -.128E-03 0.381E+00   0.693E-04 -.668E-05 0.844E-01
   0.166E+02 -.303E+01 -.139E+04   -.165E+02 0.305E+01 0.139E+04   -.108E+00 0.353E-02 0.254E+00   0.398E-03 0.514E-04 -.165E-01
   0.248E+01 -.177E+01 -.143E+04   -.243E+01 0.178E+01 0.143E+04   -.155E+00 -.121E-02 -.279E+00   0.512E-04 -.256E-04 -.251E-01
   -.304E+02 -.297E+02 -.275E+04   0.303E+02 0.297E+02 0.275E+04   0.726E-01 0.128E-01 -.410E+00   0.154E-03 -.340E-03 -.149E+00
   -.466E+01 -.228E+01 -.283E+04   0.464E+01 0.229E+01 0.283E+04   0.260E-01 -.411E-02 0.131E+01   -.527E-04 -.220E-03 -.138E+00
   -.161E+01 0.462E+00 0.280E+04   0.160E+01 -.464E+00 -.280E+04   -.120E-02 -.861E-02 0.615E+00   -.161E-03 0.593E-04 0.163E+00
   -.280E+00 0.786E+00 0.298E+04   0.283E+00 -.789E+00 -.297E+04   -.404E-04 0.622E-03 -.416E+01   -.191E-03 0.177E-03 0.163E+00
   -.192E+00 0.118E+00 0.144E+04   0.199E+00 -.118E+00 -.144E+04   -.979E-03 -.636E-02 -.883E-01   -.961E-05 0.191E-04 0.159E+00
   -.773E+00 0.253E+00 0.143E+04   0.762E+00 -.254E+00 -.143E+04   0.315E-02 0.237E-03 0.234E+00   0.704E-04 0.141E-05 0.158E+00
   -.319E+01 0.443E+00 0.362E+00   0.316E+01 -.486E+00 0.384E+00   0.857E-02 0.650E-02 -.156E+00   0.231E-03 -.903E-04 0.870E-01
   0.115E+01 0.995E+00 0.944E+01   -.115E+01 -.100E+01 -.107E+02   -.254E-02 0.290E-02 0.377E+00   0.802E-04 -.518E-04 0.843E-01
   0.178E+02 0.156E+01 -.139E+04   -.178E+02 -.157E+01 0.139E+04   -.112E+00 -.446E-02 0.260E+00   0.418E-03 -.112E-03 -.166E-01
   0.190E-01 0.913E+01 -.141E+04   0.227E-01 -.913E+01 0.141E+04   -.142E+00 0.717E-02 -.295E+00   0.159E-03 -.254E-03 -.248E-01
   -.223E+02 0.149E+02 -.276E+04   0.223E+02 -.149E+02 0.276E+04   0.681E-01 0.583E-02 -.421E+00   0.277E-03 -.212E-03 -.150E+00
   -.440E+01 0.487E+01 -.283E+04   0.446E+01 -.491E+01 0.283E+04   -.417E-01 0.312E-01 0.124E+01   -.174E-04 -.241E-04 -.138E+00
   -.194E+01 0.106E+01 0.280E+04   0.194E+01 -.107E+01 -.280E+04   -.156E-02 0.934E-02 0.614E+00   -.253E-03 0.322E-03 0.162E+00
   -.319E+00 0.305E+00 0.298E+04   0.322E+00 -.307E+00 -.297E+04   -.342E-04 0.536E-03 -.415E+01   -.201E-03 0.132E-03 0.162E+00
   -.230E+00 0.294E+00 0.144E+04   0.238E+00 -.295E+00 -.144E+04   -.101E-02 0.695E-02 -.885E-01   -.522E-05 0.274E-04 0.159E+00
   -.726E+00 0.153E+00 0.143E+04   0.715E+00 -.153E+00 -.143E+04   0.312E-02 0.266E-03 0.238E+00   0.563E-04 0.570E-04 0.158E+00
   -.181E+01 0.717E+00 0.182E+01   0.175E+01 -.684E+00 -.109E+01   0.126E-01 -.871E-02 -.152E+00   0.273E-03 -.399E-04 0.869E-01
   0.101E+01 0.312E+00 0.108E+02   -.101E+01 -.311E+00 -.121E+02   -.334E-02 -.246E-03 0.381E+00   0.907E-04 0.388E-05 0.843E-01
   0.142E+02 0.342E+01 -.139E+04   -.141E+02 -.343E+01 0.139E+04   -.109E+00 0.182E-01 0.253E+00   0.436E-03 -.196E-04 -.165E-01
   -.230E+01 0.183E+01 -.140E+04   0.240E+01 -.184E+01 0.140E+04   -.201E+00 0.561E-02 -.301E+00   0.300E-03 0.260E-04 -.249E-01
   -.844E+02 0.259E+02 -.272E+04   0.842E+02 -.258E+02 0.272E+04   0.141E+00 -.982E-01 -.282E+00   0.193E-03 0.732E-04 -.148E+00
   -.728E+01 0.291E+01 -.282E+04   0.726E+01 -.292E+01 0.282E+04   0.248E-01 0.858E-02 0.122E+01   0.783E-04 0.250E-03 -.137E+00
   0.207E+01 -.425E+00 0.280E+04   -.207E+01 0.426E+00 -.280E+04   -.166E-02 -.867E-02 0.614E+00   0.313E-03 -.418E-04 0.162E+00
   0.307E+00 -.132E+01 0.298E+04   -.311E+00 0.132E+01 -.297E+04   0.119E-02 -.459E-03 -.417E+01   0.194E-03 -.319E-03 0.162E+00
   0.353E+00 0.618E-01 0.144E+04   -.360E+00 -.487E-01 -.144E+04   0.160E-02 -.896E-02 -.935E-01   0.122E-04 0.184E-04 0.159E+00
   0.707E+00 -.199E+00 0.143E+04   -.696E+00 0.199E+00 -.143E+04   -.181E-02 0.201E-03 0.229E+00   -.471E-04 -.429E-04 0.158E+00
   0.615E+00 0.144E+00 -.136E+00   -.544E+00 -.163E+00 0.939E+00   -.148E-01 0.451E-02 -.166E+00   -.322E-03 0.367E-04 0.869E-01
   0.344E+01 0.831E+00 0.147E+02   -.347E+01 -.933E+00 -.157E+02   0.167E-02 0.397E-01 0.287E+00   -.748E-04 0.152E-03 0.839E-01
   0.219E+02 -.133E+02 -.137E+04   -.218E+02 0.134E+02 0.137E+04   -.110E+00 -.575E-02 0.146E+00   0.187E-03 0.212E-03 -.181E-01
   0.218E+02 -.680E+01 -.142E+04   -.218E+02 0.678E+01 0.142E+04   -.162E+00 0.116E-01 -.285E+00   -.831E-03 0.137E-03 -.249E-01
   0.653E+02 -.154E+02 -.272E+04   -.654E+02 0.154E+02 0.272E+04   0.807E-01 -.824E-02 -.441E+00   -.139E-03 -.253E-04 -.149E+00
   0.248E+02 -.819E+02 -.274E+04   -.246E+02 0.820E+02 0.274E+04   -.219E+00 -.106E-02 0.139E+01   -.103E-03 0.419E-03 -.134E+00
   0.173E+01 -.987E+00 0.280E+04   -.173E+01 0.992E+00 -.280E+04   -.204E-02 0.914E-02 0.614E+00   0.219E-03 -.288E-03 0.163E+00
   0.263E+00 -.516E+00 0.298E+04   -.266E+00 0.520E+00 -.297E+04   0.118E-02 -.886E-04 -.416E+01   0.170E-03 -.222E-03 0.162E+00
   0.319E+00 -.219E+00 0.144E+04   -.326E+00 0.219E+00 -.144E+04   0.174E-02 0.626E-02 -.938E-01   0.133E-04 -.471E-04 0.159E+00
   0.753E+00 -.162E+00 0.143E+04   -.741E+00 0.162E+00 -.143E+04   -.175E-02 0.339E-03 0.234E+00   -.502E-04 -.195E-04 0.158E+00
[...]
   -.527E+02 0.141E+00 0.859E+03   0.569E+02 -.142E+00 -.860E+03   -.337E+01 0.153E-02 0.165E+00   0.146E-03 0.292E-04 0.954E-01
   0.529E+02 0.154E+00 0.860E+03   -.571E+02 -.155E+00 -.860E+03   0.338E+01 0.106E-02 0.172E+00   -.138E-03 0.283E-04 0.954E-01
   0.237E+00 0.175E+00 0.389E+03   -.208E+00 -.177E+00 -.394E+03   -.336E-01 0.441E-02 0.396E+01   -.125E-03 0.108E-04 0.730E-01
   0.298E+01 0.678E+00 -.405E+03   -.326E+01 -.681E+00 0.413E+03   0.242E+00 0.326E-02 -.678E+01   -.321E-03 -.571E-06 0.282E-01
   -.544E+02 0.229E-01 0.772E+01   0.594E+02 -.272E-01 -.800E+01   -.487E+01 0.301E-01 0.257E+00   0.192E-03 -.439E-04 0.515E-01
   0.555E+02 -.456E-01 0.472E+01   -.605E+02 0.368E-01 -.493E+01   0.491E+01 0.367E-01 0.212E+00   -.275E-03 -.367E-04 0.515E-01
   0.127E+02 0.150E+01 -.434E+03   -.140E+02 -.158E+01 0.427E+03   0.107E+01 0.736E-01 0.648E+01   0.432E-04 -.292E-05 0.139E-01
   0.190E+02 0.298E+01 -.119E+04   -.203E+02 -.290E+01 0.119E+04   0.114E+01 -.745E-01 -.191E+01   0.230E-04 0.257E-04 -.390E-01
   -.483E+02 0.395E+01 -.825E+03   0.551E+02 -.399E+01 0.824E+03   -.591E+01 0.195E-01 0.122E+01   -.795E-03 -.694E-04 -.122E-01
   0.274E+00 0.633E+01 -.831E+03   -.196E+00 -.651E+01 0.830E+03   -.337E-01 0.159E+00 0.496E+00   0.493E-03 -.104E-03 -.125E-01
   0.256E+02 0.286E+01 -.133E+04   -.261E+02 -.292E+01 0.133E+04   0.440E+00 0.490E-01 -.208E+01   -.429E-03 0.978E-04 -.540E-01
   0.594E+02 0.103E+02 -.200E+04   -.591E+02 -.103E+02 0.203E+04   -.265E+00 0.385E-01 -.195E+02   0.866E-03 0.541E-03 -.117E+00
   -.512E+02 0.574E+02 -.162E+04   0.576E+02 -.570E+02 0.163E+04   -.574E+01 -.329E+00 -.743E+00   0.661E-03 -.302E-03 -.863E-01
   0.696E+02 0.493E+02 -.169E+04   -.763E+02 -.495E+02 0.169E+04   0.599E+01 0.125E+00 -.303E+01   -.669E-03 0.218E-03 -.889E-01
   0.111E+02 -.187E+02 0.851E+02   0.344E-11 0.121E-12 0.614E-11   -.114E+02 0.153E+02 -.835E+02   0.338E-02 -.125E-02 0.811E+01

 POSITION                                       TOTAL-FORCE (eV/Angst)
      6.63647      6.95580     20.63717         0.047264     -0.247519     -0.157171
      7.00501      5.88819     19.72600         0.296450      0.473137      0.099227
      5.54948      7.06650     20.58592         0.248281     -0.033501      0.005118
      8.00246      5.83248     19.68311        -0.422262      0.001428     -0.003897
      6.94076      6.67723     21.65506        -0.078719      0.057441     -0.285314
      7.13601      7.89558     20.35448        -0.103985     -0.234762      0.052775
      9.75312      7.39405      4.61933         0.000459      0.000689     -3.964892
      0.00014      8.87284      4.61933         0.002779      0.002426      3.332527
      0.00014      7.39405      7.87032         0.006016      0.000135      0.567254
      9.75312      8.87284      7.87032        -0.008359      0.000580     -0.827245
      9.75312      7.39405     11.12132        -0.041573     -0.018162      0.688880
      0.00014      8.87284     11.12132        -0.002814      0.002353     -0.816677
      0.09109      7.39492     14.30021         0.071629      0.000563      0.010060
      9.83288      8.87420     14.48847        -0.021723      0.000699      0.137592
      9.76300      7.40348     17.81549        -0.054255      0.061112      0.241495
     13.00384      8.87689     17.48171         0.015864      0.012487     -0.177094
      9.75312     10.35164      4.61933        -0.000589      0.006657     -3.968892
      0.00014      0.00006      4.61933         0.002710      0.001553      3.330067
      0.00014     10.35164      7.87032         0.005883      0.000398      0.566987
      9.75312      0.00006      7.87032        -0.008357     -0.000227     -0.830119
      9.75312     10.35164     11.12132        -0.020505      0.025931      0.697476
      0.00014      0.00006     11.12132        -0.002370      0.000092     -0.812177
      0.09253     10.35222     14.30190         0.069804      0.005333      0.010413
      9.82725      0.00065     14.49801        -0.029672      0.001497      0.144106
      9.74830     10.35093     17.84806         0.004382      0.021345      0.264242
      0.00337     11.82979     17.48071         0.005767      0.005424     -0.174802
      9.75312      1.47886      4.61933        -0.001121     -0.002772     -3.971328
      0.00014      2.95765      4.61933         0.002832     -0.002259      3.330443
      0.00014      1.47886      7.87032         0.006284     -0.000091      0.566690
      9.75312      2.95765      7.87032        -0.008079     -0.000436     -0.830097
      9.75312      1.47886     11.12132        -0.020209     -0.040439      0.687824
      0.00014      2.95765     11.12132         0.001308     -0.002704     -0.816031
      0.09471      1.47848     14.30219         0.067884     -0.003939      0.008938
      9.83142      2.95611     14.48640        -0.027628      0.004057      0.145004
      9.74780      1.46959     17.84824         0.002480     -0.016303      0.268572
      0.00264      2.95329     17.48144         0.014287     -0.010997     -0.175302
      9.75312      4.43645      4.61933        -0.000153     -0.004260     -3.967423
      0.00014      5.91525      4.61933         0.003134     -0.001327      3.333498
      0.00014      4.43645      7.87032         0.006443     -0.000135      0.566890
      9.75312      5.91525      7.87032        -0.007978      0.000434     -0.827602
      9.75312      4.43645     11.12132        -0.042551      0.031702      0.680829
      0.00014      5.91525     11.12132        -0.000415      0.000686     -0.820555
      0.09097      4.43624     14.29967         0.070541     -0.000803      0.011190
      9.83583      5.91535     14.49346        -0.025125     -0.001632      0.152375
      9.77188      4.41543     17.81655        -0.064383     -0.087325      0.244282
      0.01083      5.91673     17.47964         0.011812     -0.005998     -0.163067
      3.25113      7.39405      4.61933        -0.000532     -0.000479     -3.966293
      6.50213      8.87284      4.61933        -0.002498      0.004693      3.348584
      6.50213      7.39405      7.87032        -0.005691      0.010322      0.595996
      3.25113      8.87284      7.87032         0.009083      0.000560     -0.813194
      3.25113      7.39405     11.12132         0.056407     -0.017777      0.735257
      6.50213      8.87284     11.12132        -0.028513     -0.058678     -0.666501
      6.59527      7.36654     14.34066         0.058521      0.009866      0.018021
      3.33106      8.87275     14.49619        -0.017414     -0.009764      0.147702
      3.25551      7.39786     17.84504         0.016826     -0.001710      0.283965
      6.51199      8.87436     17.44202         0.031315     -0.027023     -0.171998
      3.25113     10.35164      4.61933         0.000469      0.005968     -3.969342
      6.50213      0.00006      4.61933        -0.002105      0.002777      3.342280
      6.50213     10.35164      7.87032        -0.005906     -0.000273      0.596575
      3.25113      0.00006      7.87032         0.009323      0.000411     -0.814126
[...]
      6.50213      5.91525      9.14470         0.004196     -0.004156     -0.308370
      4.52552      4.43645      7.87032         0.287439      0.001224      0.068252
      8.47874      4.43645      7.87032        -0.279657      0.000995      0.070459
      3.25113      5.91525      9.84693        -0.010872      0.002856      0.071912
      3.25113      5.91525     12.39570         0.002643      0.000534     -0.234111
      7.77651      4.43645     11.12132        -0.654893      0.028890      0.071856
      5.22774      4.43645     11.12132         0.696618      0.031907      0.086221
      6.51393      5.91403     13.12315         0.014820      0.002703      0.208567
      6.50143      5.91940     15.68974         0.027743     -0.000966     -0.123323
      4.55324      4.43713     14.39628        -0.169254     -0.007085      0.022468
      8.46916      4.43633     14.40655         0.045009      0.008456      0.007357
      3.25396      5.91930     16.36339         0.018143      0.001592     -0.075040
      3.27802      5.91816     18.93489        -0.041563      0.001315     -0.664015
      7.75947      4.39476     17.67510        -0.321646     -0.029462     -0.018377
      5.28662      4.42576     17.77770         0.325889     -0.009949     -0.087385
    total drift:                               -0.036647     -0.010623     -0.016627

  FREE ENERGIE OF THE ION-ELECTRON SYSTEM (eV)
  free  energy   TOTEN  =     -2858.86915874 eV

  energy  without entropy=    -2858.86915874  energy(sigma->0) =    -2858.86915874