 vasp.6.3.0 20Jan22 (build Apr  1 2022 16:44:48) complex
 executed on        HPECrayEX_GCC date 2022.10.10  23:42:14

 INCAR:
   SYSTEM = MgO-rocksalt
   ISMEAR = 0
   SIGMA = 0.05
   EDIFF = 1E-6
   ALGO = ALL
   ISTART = 0
   IBRION = -1
   NSW = 0
   ISYM = 0
   DIPOL = 0.5 0.5 0.5
   IDIPOL = 3
   LDIPOL = .TRUE.
   LHFCALC = .TRUE.
   GGA = B5
   AEXX = 0.2
   AGGAX = 0.72
   AGGAC = 0.81
   ALDAC = 0.19
   IVDW = 1
   VDW_S6 = 1.05
   VDW_C6 = 1.75 0.14 0.63 0.70
   VDW_R0 = 1.452 1.001 1.243 1.342
   ENCUT = 600
   PREC = Accurate
   LASPH = .TRUE.
   LREAL = .FALSE.
   ISPIN = 1
   NELM = 200
   NELMIN = 8
   NCORE = 8
   KPAR = 1
   LWAVE = .FALSE.
   LCHARG = .FALSE.

 POTCAR:    PAW_PBE C 08Apr2002
 POTCAR:    PAW_PBE H 15Jun2001
 POTCAR:    PAW_PBE Mg_pv 13Apr2007
 POTCAR:    PAW_PBE O 08Apr2002
 POTCAR:    PAW_PBE C 08Apr2002
   VRHFIN =C: s2p2

   TITEL  = PAW_PBE C 08Apr2002
   POMASS =   12.011; ZVAL   =    4.000    mass and valenz
   ENMAX  =  400.000; ENMIN  =  300.000 eV

   TITEL  = PAW_PBE H 15Jun2001
   POMASS =    1.000; ZVAL   =    1.000    mass and valenz
   ENMAX  =  250.000; ENMIN  =  200.000 eV

   TITEL  = PAW_PBE Mg_pv 13Apr2007
   POMASS =   24.305; ZVAL   =    8.000    mass and valenz
   ENMAX  =  403.929; ENMIN  =  302.947 eV

   TITEL  = PAW_PBE O 08Apr2002
   POMASS =   16.000; ZVAL   =    6.000    mass and valenz
   ENMAX  =  400.000; ENMIN  =  300.000 eV

  PAW_PBE C 08Apr2002                   :
  PAW_PBE H 15Jun2001                   :
  PAW_PBE Mg_pv 13Apr2007               :
  PAW_PBE O 08Apr2002                   :

 POSCAR:  C  H Mg  O
  positions in direct lattice
 exchange correlation table for  LEXCH =       12
   RHO(1)=    0.500       N(1)  =     2000
   RHO(2)=  100.500       N(2)  =     4000

 ion  position               nearest neighbor table
   1  0.500  0.500  0.797-   2 1.10   3 1.10   5 1.10   4 1.10
   2  0.500  0.606  0.827-   1 1.10
   3  0.500  0.394  0.827-   1 1.10
   4  0.607  0.500  0.768-   1 1.10
   5  0.393  0.500  0.768-   1 1.10
   6  0.250  0.000  0.352-  38 2.11  40 2.11  41 2.11  48 2.11  57 2.11
   7  0.500  0.250  0.352-  39 2.11  40 2.11  41 2.11  49 2.11  56 2.11
   8  0.250  0.250  0.451-  40 2.11  39 2.11  38 2.11  46 2.11  55 2.11  44 2.12
   9  0.500  0.000  0.451-  41 2.11  39 2.11  38 2.11  47 2.11  54 2.11  45 2.11
  10  0.250  0.000  0.550-  45 2.11  44 2.11  52 2.11  61 2.11  38 2.12  42 2.14
  11  0.500  0.250  0.550-  53 2.11  45 2.11  60 2.11  44 2.11  39 2.12  43 2.13
  12  0.250  0.250  0.648-  44 2.10  42 2.11  43 2.11  59 2.11  50 2.11
  13  0.500  0.000  0.648-  45 2.10  43 2.11  51 2.11  42 2.11  58 2.11
  14  0.250  0.500  0.352-  46 2.11  40 2.11  48 2.11  49 2.11  65 2.11
  15  0.500  0.750  0.352-  47 2.11  41 2.11  48 2.11  49 2.11  64 2.11
  16  0.250  0.750  0.451-  48 2.11  46 2.11  47 2.11  38 2.11  63 2.11  52 2.12
  17  0.500  0.500  0.451-  49 2.11  46 2.11  47 2.11  39 2.11  62 2.11  53 2.12
  18  0.250  0.500  0.550-  53 2.11  52 2.11  44 2.11  69 2.11  46 2.12  50 2.14
  19  0.500  0.750  0.550-  53 2.11  45 2.11  68 2.11  52 2.11  47 2.12  51 2.13
  20  0.250  0.750  0.648-  52 2.10  42 2.11  51 2.11  67 2.11  50 2.11
  21  0.500  0.500  0.649-  43 2.11  51 2.11  53 2.11  50 2.11  66 2.11
  22  0.750  0.000  0.352-  54 2.11  41 2.11  56 2.11  57 2.11  64 2.11
  23  0.000  0.250  0.352-  55 2.11  40 2.11  56 2.11  57 2.11  65 2.11
  24  0.750  0.250  0.451-  56 2.11  54 2.11  55 2.11  39 2.11  62 2.11  60 2.12
  25  0.000  0.000  0.451-  57 2.11  54 2.11  55 2.11  38 2.11  63 2.11  61 2.12
  26  0.750  0.000  0.550-  45 2.11  60 2.11  68 2.11  61 2.11  54 2.12  58 2.14
  27  1.000  0.250  0.550-  60 2.11  44 2.11  61 2.11  69 2.11  55 2.12  59 2.14
  28  0.750  0.250  0.648-  60 2.10  58 2.11  43 2.11  59 2.11  66 2.11
  29  1.000  0.000  0.648-  61 2.10  58 2.11  42 2.11  59 2.11  67 2.11
  30  0.750  0.500  0.352-  62 2.11  56 2.11  49 2.11  64 2.11  65 2.11
  31  0.000  0.750  0.352-  63 2.11  57 2.11  48 2.11  64 2.11  65 2.11
  32  0.750  0.750  0.451-  64 2.11  54 2.11  62 2.11  63 2.11  47 2.11  68 2.12
  33  0.000  0.500  0.451-  65 2.11  55 2.11  62 2.11  63 2.11  46 2.11  69 2.12
  34  0.750  0.500  0.550-  53 2.11  60 2.11  68 2.11  69 2.11  62 2.12  66 2.14
  35  1.000  0.750  0.550-  68 2.11  52 2.11  61 2.11  69 2.11  63 2.12  67 2.14
  36  0.750  0.750  0.648-  68 2.10  58 2.11  51 2.11  67 2.11  66 2.11
  37  1.000  0.500  0.648-  69 2.10  50 2.11  66 2.11  59 2.11  67 2.11
  38  0.250  0.000  0.451-   6 2.11   8 2.11   9 2.11  16 2.11  25 2.11  10 2.12
  39  0.500  0.250  0.451-   7 2.11   8 2.11   9 2.11  17 2.11  24 2.11  11 2.12
  40  0.250  0.250  0.352-   8 2.11   7 2.11   6 2.11  14 2.11  23 2.11
  41  0.500  0.000  0.352-   9 2.11   7 2.11   6 2.11  15 2.11  22 2.11
  42  0.250  0.000  0.650-  12 2.11  20 2.11  29 2.11  13 2.11  10 2.14
  43  0.500  0.250  0.650-  13 2.11  28 2.11  12 2.11  21 2.11  11 2.13
  44  0.250  0.250  0.550-  12 2.10  27 2.11  18 2.11  10 2.11  11 2.11   8 2.12
  45  0.500  0.000  0.550-  13 2.10  10 2.11  26 2.11  19 2.11  11 2.11   9 2.11
  46  0.250  0.500  0.451-  14 2.11   8 2.11  16 2.11  17 2.11  33 2.11  18 2.12
  47  0.500  0.750  0.451-  15 2.11   9 2.11  16 2.11  17 2.11  32 2.11  19 2.12
  48  0.250  0.750  0.352-  16 2.11  14 2.11  15 2.11   6 2.11  31 2.11
  49  0.500  0.500  0.352-  17 2.11  14 2.11  15 2.11   7 2.11  30 2.11
  50  0.250  0.500  0.650-  37 2.11  12 2.11  20 2.11  21 2.11  18 2.14
  51  0.500  0.750  0.650-  13 2.11  36 2.11  20 2.11  21 2.11  19 2.13
  52  0.250  0.750  0.550-  20 2.10  35 2.11  18 2.11  10 2.11  19 2.11  16 2.12
  53  0.500  0.500  0.550-  18 2.11  34 2.11  11 2.11  19 2.11  21 2.11  17 2.12
  54  0.750  0.000  0.451-  22 2.11   9 2.11  24 2.11  25 2.11  32 2.11  26 2.12
  55  0.000  0.250  0.451-  23 2.11   8 2.11  24 2.11  25 2.11  33 2.11  27 2.12
  56  0.750  0.250  0.352-  24 2.11  22 2.11  23 2.11   7 2.11  30 2.11
  57  0.000  0.000  0.352-  25 2.11  22 2.11  23 2.11   6 2.11  31 2.11
  58  0.750  0.000  0.650-  28 2.11  36 2.11  29 2.11  13 2.11  26 2.14
  59  1.000  0.250  0.650-  29 2.11  37 2.11  12 2.11  28 2.11  27 2.14
  60  0.750  0.250  0.550-  28 2.10  27 2.11  34 2.11  26 2.11  11 2.11  24 2.12
  61  1.000  0.000  0.550-  29 2.10  27 2.11  35 2.11  10 2.11  26 2.11  25 2.12
  62  0.750  0.500  0.451-  30 2.11  24 2.11  17 2.11  32 2.11  33 2.11  34 2.12
  63  0.000  0.750  0.451-  31 2.11  25 2.11  16 2.11  32 2.11  33 2.11  35 2.12
  64  0.750  0.750  0.352-  32 2.11  22 2.11  30 2.11  31 2.11  15 2.11
  65  0.000  0.500  0.352-  33 2.11  23 2.11  30 2.11  31 2.11  14 2.11
  66  0.750  0.500  0.650-  37 2.11  36 2.11  28 2.11  21 2.11  34 2.14
  67  1.000  0.750  0.650-  29 2.11  37 2.11  36 2.11  20 2.11  35 2.14
  68  0.750  0.750  0.550-  36 2.10  35 2.11  34 2.11  26 2.11  19 2.11  32 2.12
  69  1.000  0.500  0.550-  37 2.10  27 2.11  35 2.11  34 2.11  18 2.11  33 2.12

IMPORTANT INFORMATION: All symmetrisations will be switched off!
NOSYMM: (Re-)initialisation of all symmetry stuff for point group C_1.

                                     Primitive cell

  volume of cell :    1519.6535

  direct lattice vectors                    reciprocal lattice vectors
     8.440582262  0.000000000  0.000000000     0.118475239  0.000000000  0.000000000
     0.000000000  8.440582262  0.000000000     0.000000000  0.118475239  0.000000000
     0.000000000  0.000000000 21.330436697     0.000000000  0.000000000  0.046881366

  length of vectors
     8.440582262  8.440582262 21.330436697     0.118475239  0.118475239  0.046881366

  position of ions in fractional coordinates (direct lattice)
     0.500000043  0.500000039  0.797447370
     0.500000077  0.606464350  0.826971269
     0.500000031  0.393535593  0.826971251
     0.607143184  0.500000005  0.768077853
     0.392856886  0.500000051  0.768077864
     0.250000000  0.000000000  0.351610242
     0.500000000  0.250000000  0.351610242
     0.250000000  0.250000000  0.450536747
     0.500000000  0.000000000  0.450536747
     0.250020383  0.000000002  0.549964511
     0.499999995  0.250059851  0.550024624
     0.250059453  0.249849588  0.648270450
     0.499999989  0.000000005  0.648330813
     0.250000000  0.500000000  0.351610242
     0.500000000  0.750000000  0.351610242
     0.250000000  0.750000000  0.450536747
     0.500000000  0.500000000  0.450536747
     0.250073483  0.500000003  0.550017913
     0.499999994  0.749940154  0.550024627
     0.250059451  0.750150420  0.648270445
     0.499999985  0.500000002  0.648823829
     0.750000000  0.000000000  0.351610242
     0.000000000  0.250000000  0.351610242
     0.750000000  0.250000000  0.450536747
     0.000000000  0.000000000  0.450536747
     0.749979604  0.000000004  0.549964510
     0.999999993  0.249994039  0.549974874
     0.749940525  0.249849582  0.648270453
     0.999999988  0.000000003  0.648413763
     0.750000000  0.500000000  0.351610242
     0.000000000  0.750000000  0.351610242
     0.750000000  0.750000000  0.450536747
     0.000000000  0.500000000  0.450536747
     0.749926503  0.500000000  0.550017911
     0.999999993  0.750005964  0.549974872
     0.749940526  0.750150423  0.648270447
     0.999999993  0.500000001  0.648293177
     0.250000000  0.000000000  0.450536747
     0.500000000  0.250000000  0.450536747
     0.250000000  0.250000000  0.351610242
     0.500000000  0.000000000  0.351610242
     0.249967574  0.000000004  0.650232023
     0.499999992  0.249790432  0.650054103
     0.249935855  0.250001082  0.549704381
     0.499999991  0.000000000  0.549674093
     0.250000000  0.500000000  0.450536747
     0.500000000  0.750000000  0.450536747
     0.250000000  0.750000000  0.351610242
     0.500000000  0.500000000  0.351610242
     0.249741506  0.500000004  0.650297624
     0.499999994  0.750209573  0.650054100
     0.249935854  0.749998920  0.549704382
     0.499999993  0.500000002  0.549802910
     0.750000000  0.000000000  0.450536747
     0.000000000  0.250000000  0.450536747
     0.750000000  0.250000000  0.351610242
     0.000000000  0.000000000  0.351610242
     0.750032406  0.000000003  0.650232024
     0.999999991  0.249978599  0.650229220
     0.750064135  0.250001085  0.549704379
     0.999999996  0.000000003  0.549734307
     0.750000000  0.500000000  0.450536747
     0.000000000  0.750000000  0.450536747
     0.750000000  0.750000000  0.351610242
     0.000000000  0.500000000  0.351610242
     0.750258474  0.500000004  0.650297619
     0.999999985  0.750021408  0.650229221
     0.750064133  0.749998918  0.549704381
     0.999999993  0.500000001  0.549711215

  ion indices of the primitive-cell ions
   primitive index   ion index
                 1           1
                 2           2
                 3           3
                 4           4
                 5           5
                 6           6
                 7           7
                 8           8
                 9           9
                10          10
                11          11
                12          12
                13          13
                14          14
                15          15
                16          16
[...]
   4.22029113  2.11014557  7.50000000
   2.11014557  2.11014557  9.61014557
   4.22029113  0.00000000  9.61014557
   2.11031761  0.00000002 11.73098320
   4.22029109  2.11065074 11.73226542
   2.11064739  2.10887600 13.82789180
   4.22029104  0.00000005 13.82917936
   2.11014557  4.22029113  7.50000000
   4.22029113  6.33043670  7.50000000
   2.11014557  6.33043670  9.61014557
   4.22029113  4.22029113  9.61014557
   2.11076581  4.22029115 11.73212228
   4.22029108  6.32993156 11.73226550
   2.11064737  6.33170633 13.82789168
   4.22029100  4.22029115 13.83969561
   6.33043670  0.00000000  7.50000000
   0.00000000  2.11014557  7.50000000
   6.33043670  2.11014557  9.61014557
   0.00000000  0.00000000  9.61014557
   6.33026455  0.00000003 11.73098317
   8.44058221  2.11009525 11.73120423
   6.32993470  2.10887595 13.82789187
   8.44058216  0.00000003 13.83094873
   6.33043670  4.22029113  7.50000000
   0.00000000  6.33043670  7.50000000
   6.33043670  6.33043670  9.61014557
   0.00000000  4.22029113  9.61014557
   6.32981634  4.22029113 11.73212224
   8.44058220  6.33048703 11.73120420
   6.32993470  6.33170636 13.82789174
   8.44058221  4.22029114 13.82837658
   2.11014557  0.00000000  9.61014557
   4.22029113  2.11014557  9.61014557
   2.11014557  2.11014557  7.50000000
   4.22029113  0.00000000  7.50000000
   2.10987187  0.00000003 13.86973301
   4.22029106  2.10837669 13.86593789
   2.10960414  2.11015470 11.72543450
   4.22029105  0.00000000 11.72478843
   2.11014557  4.22029113  9.61014557
   4.22029113  6.33043670  9.61014557
   2.11014557  6.33043670  7.50000000
   4.22029113  4.22029113  7.50000000
   2.10796372  4.22029116 13.87113230
   4.22029108  6.33220561 13.86593782
   2.10960414  6.33042758 11.72543453
   4.22029107  4.22029115 11.72753617
   6.33043670  0.00000000  9.61014557
   0.00000000  2.11014557  9.61014557
   6.33043670  2.11014557  7.50000000
   0.00000000  0.00000000  7.50000000
   6.33071023  0.00000003 13.86973303
   8.44058218  2.10996492 13.86967322
   6.33097803  2.11015472 11.72543445
   8.44058223  0.00000002 11.72607284
   6.33043670  4.22029113  9.61014557
   0.00000000  6.33043670  9.61014557
   6.33043670  6.33043670  7.50000000
   0.00000000  4.22029113  7.50000000
   6.33261837  4.22029116 13.87113220
   8.44058213  6.33061739 13.86967324
   6.33097801  6.33042756 11.72543451
   8.44058220  4.22029114 11.72558028

--------------------------------------- Iteration      FINAL  ---------------------------------------

--------------------OUTCAR has been truncated-------------------------

[...]

--------------------OUTCAR has been truncated-------------------------

  DFT-D2 method for vdW energy calculation

  Parameters of vdW forcefield:
         C6(Jnm^6/mol)     R0(A)
   C        1.750          1.452
   H        0.140          1.001
   Mg       0.630          1.243
   O        0.700          1.342

  vdW correction parametrized for the method °ý      

  IVDW =   1
  VDW_RADIUS =    50.000 A
  VDW_S6 =     1.050
  VDW_SR =     1.000
  VDW_D =    20.000
  LVDW_EWALD = F

  Number of pair interactions contributing to vdW energy:  838416
  Edisp (eV):   -5.23829

 VOLUME and BASIS-vectors are now :
  energy-cutoff  :      600.00
  volume of cell :     1519.65
      direct lattice vectors                 reciprocal lattice vectors
     8.440582262  0.000000000  0.000000000     0.118475239  0.000000000  0.000000000
     0.000000000  8.440582262  0.000000000     0.000000000  0.118475239  0.000000000
     0.000000000  0.000000000 21.330436697     0.000000000  0.000000000  0.046881366

  length of vectors
     8.440582262  8.440582262 21.330436697     0.118475239  0.118475239  0.046881366

 FORCES acting on ions:
    Electron-Ion                     Ewald-Force                    Non-Local-Force
   -.383E-05 -.302E-05 -.923E+03   0.115E-05 -.179E-04 0.923E+03   -.890E-06 -.115E-04 -.439E-01
   -.187E-04 -.430E+02 -.228E+03   0.152E-04 0.474E+02 0.232E+03   -.199E-05 -.450E+01 -.314E+01
   0.311E-05 0.430E+02 -.228E+03   -.529E-05 -.474E+02 0.232E+03   -.229E-06 0.450E+01 -.314E+01
   -.431E+02 0.915E-05 -.233E+03   0.476E+02 -.120E-04 0.230E+03   -.455E+01 0.168E-05 0.305E+01
   0.431E+02 -.756E-05 -.233E+03   -.476E+02 0.832E-05 0.230E+03   0.455E+01 -.503E-06 0.305E+01
   0.136E+00 -.108E-05 0.208E+04   -.135E+00 -.314E-06 -.207E+04   -.233E-03 0.289E-06 -.639E+01
   -.309E-06 0.133E+00 0.208E+04   -.548E-06 -.132E+00 -.207E+04   -.327E-06 -.516E-03 -.640E+01
   0.535E+00 0.520E+00 0.710E+03   -.531E+00 -.516E+00 -.710E+03   -.205E-02 -.268E-02 0.411E+00
   0.135E-06 0.355E-05 0.710E+03   0.618E-06 -.296E-05 -.710E+03   -.366E-06 0.178E-05 0.388E+00
   0.235E+01 0.435E-05 -.652E+03   -.235E+01 0.332E-05 0.652E+03   -.641E-02 -.970E-05 -.188E+00
   -.427E-05 0.355E+01 -.646E+03   0.616E-06 -.353E+01 0.646E+03   0.730E-05 -.151E-01 -.316E+00
   0.140E+02 0.142E+02 -.200E+04   -.140E+02 -.142E+02 0.199E+04   -.186E-01 0.577E-01 0.559E+01
   0.340E-05 0.501E-05 -.201E+04   -.499E-05 -.358E-05 0.200E+04   0.168E-05 -.247E-05 0.557E+01
   0.142E+00 0.711E-06 0.208E+04   -.141E+00 0.282E-06 -.207E+04   -.529E-03 -.272E-06 -.639E+01
   -.793E-06 -.133E+00 0.208E+04   -.325E-06 0.132E+00 -.207E+04   0.554E-06 0.517E-03 -.640E+01
   0.535E+00 -.520E+00 0.710E+03   -.531E+00 0.516E+00 -.710E+03   -.205E-02 0.268E-02 0.411E+00
   0.293E-05 -.246E-05 0.711E+03   -.277E-05 0.322E-05 -.711E+03   0.470E-07 0.262E-07 0.425E+00
   0.359E+01 0.514E-05 -.646E+03   -.356E+01 -.973E-05 0.647E+03   -.212E-01 0.717E-05 -.198E+00
   0.639E-05 -.355E+01 -.646E+03   0.175E-05 0.353E+01 0.646E+03   -.861E-05 0.151E-01 -.316E+00
   0.140E+02 -.142E+02 -.200E+04   -.140E+02 0.142E+02 0.199E+04   -.186E-01 -.577E-01 0.559E+01
   -.163E-05 0.805E-05 -.195E+04   0.606E-05 -.638E-05 0.195E+04   -.591E-06 -.277E-05 0.553E+01
   -.136E+00 0.172E-05 0.208E+04   0.135E+00 -.531E-06 -.207E+04   0.234E-03 -.190E-05 -.639E+01
   -.217E-05 0.126E+00 0.208E+04   0.569E-06 -.126E+00 -.207E+04   0.169E-05 -.220E-03 -.639E+01
   -.535E+00 0.520E+00 0.710E+03   0.531E+00 -.516E+00 -.710E+03   0.205E-02 -.268E-02 0.411E+00
   -.209E-05 0.197E-05 0.709E+03   0.396E-06 -.558E-06 -.709E+03   0.945E-06 0.120E-05 0.419E+00
   -.235E+01 -.345E-05 -.652E+03   0.235E+01 -.418E-06 0.652E+03   0.641E-02 0.570E-05 -.188E+00
   0.381E-05 0.229E+01 -.652E+03   0.841E-06 -.229E+01 0.652E+03   -.704E-05 0.271E-02 -.197E+00
   -.140E+02 0.142E+02 -.200E+04   0.140E+02 -.142E+02 0.199E+04   0.186E-01 0.577E-01 0.559E+01
   -.162E-04 -.287E-06 -.202E+04   0.103E-04 -.246E-05 0.201E+04   0.188E-05 0.677E-06 0.556E+01
   -.142E+00 -.362E-06 0.208E+04   0.141E+00 0.514E-06 -.207E+04   0.524E-03 -.178E-05 -.639E+01
   0.138E-05 -.126E+00 0.208E+04   0.349E-06 0.126E+00 -.207E+04   -.114E-05 0.219E-03 -.639E+01
   -.535E+00 -.520E+00 0.710E+03   0.531E+00 0.516E+00 -.710E+03   0.205E-02 0.268E-02 0.411E+00
   -.268E-05 0.650E-06 0.710E+03   0.368E-05 -.385E-06 -.710E+03   -.436E-06 -.185E-06 0.409E+00
   -.359E+01 0.913E-05 -.646E+03   0.356E+01 -.352E-05 0.647E+03   0.212E-01 -.810E-05 -.198E+00
   -.509E-05 -.229E+01 -.652E+03   -.823E-06 0.229E+01 0.652E+03   0.712E-05 -.271E-02 -.197E+00
   -.140E+02 -.142E+02 -.200E+04   0.140E+02 0.142E+02 0.199E+04   0.186E-01 -.577E-01 0.559E+01
   0.750E-05 -.888E-05 -.201E+04   -.944E-05 0.574E-05 0.200E+04   0.151E-05 0.106E-05 0.556E+01
   0.414E+00 0.316E-05 0.532E+03   -.409E+00 -.118E-05 -.531E+03   -.654E-02 0.395E-06 -.841E-01
   0.161E-05 0.417E+00 0.532E+03   -.131E-05 -.423E+00 -.532E+03   -.976E-06 0.694E-02 -.999E-01
   0.104E+00 0.969E-01 0.156E+04   -.103E+00 -.963E-01 -.156E+04   -.101E-02 -.744E-03 0.313E+01
   0.105E-05 -.216E-06 0.156E+04   -.202E-06 -.461E-06 -.156E+04   -.130E-05 -.650E-06 0.312E+01
   0.582E+01 -.134E-04 -.153E+04   -.581E+01 -.195E-05 0.153E+04   -.148E-01 0.136E-04 -.440E+01
   -.658E-05 0.176E+02 -.151E+04   -.611E-05 -.175E+02 0.151E+04   0.527E-05 -.595E-01 -.446E+01
   0.219E+01 0.214E+01 -.481E+03   -.217E+01 -.214E+01 0.481E+03   -.155E-01 -.339E-02 0.297E+00
   -.615E-05 -.514E-05 -.482E+03   0.723E-05 0.639E-05 0.482E+03   0.109E-05 -.495E-06 0.259E+00
   0.453E+00 0.899E-06 0.532E+03   -.456E+00 -.162E-07 -.532E+03   0.332E-02 -.517E-07 -.938E-01
   0.905E-06 -.417E+00 0.532E+03   0.189E-06 0.423E+00 -.532E+03   -.258E-06 -.694E-02 -.999E-01
   0.104E+00 -.969E-01 0.156E+04   -.103E+00 0.963E-01 -.156E+04   -.101E-02 0.744E-03 0.313E+01
   0.150E-05 0.240E-05 0.156E+04   -.459E-06 0.464E-06 -.156E+04   -.147E-05 -.876E-07 0.312E+01
   0.178E+02 -.133E-04 -.151E+04   -.178E+02 0.129E-05 0.151E+04   -.437E-01 0.357E-05 -.438E+01
   0.247E-04 -.176E+02 -.151E+04   -.125E-04 0.175E+02 0.151E+04   -.287E-05 0.595E-01 -.446E+01
   0.219E+01 -.214E+01 -.481E+03   -.217E+01 0.214E+01 0.481E+03   -.155E-01 0.339E-02 0.297E+00
   0.188E-05 0.407E-05 -.477E+03   -.930E-06 -.363E-05 0.477E+03   0.230E-06 -.896E-06 0.170E+00
   -.414E+00 0.417E-05 0.532E+03   0.409E+00 -.275E-05 -.531E+03   0.654E-02 -.102E-05 -.841E-01
   -.445E-05 0.375E+00 0.532E+03   0.307E-05 -.373E+00 -.531E+03   0.143E-05 -.328E-02 -.874E-01
   -.104E+00 0.969E-01 0.156E+04   0.103E+00 -.963E-01 -.156E+04   0.101E-02 -.745E-03 0.313E+01
   -.173E-05 -.330E-05 0.156E+04   0.207E-06 -.150E-06 -.156E+04   -.604E-07 0.159E-05 0.313E+01
   -.582E+01 0.185E-04 -.153E+04   0.581E+01 -.142E-05 0.153E+04   0.148E-01 -.138E-04 -.440E+01
   -.201E-04 0.605E+01 -.153E+04   -.245E-05 -.604E+01 0.153E+04   0.163E-04 -.167E-01 -.440E+01
   -.219E+01 0.214E+01 -.481E+03   0.217E+01 -.214E+01 0.481E+03   0.155E-01 -.339E-02 0.297E+00
   0.197E-05 0.463E-05 -.486E+03   -.560E-05 -.264E-05 0.485E+03   -.573E-06 -.122E-05 0.258E+00
   -.453E+00 -.563E-06 0.532E+03   0.456E+00 0.197E-05 -.532E+03   -.332E-02 0.237E-06 -.938E-01
   -.198E-05 -.375E+00 0.532E+03   0.181E-05 0.373E+00 -.531E+03   -.607E-06 0.328E-02 -.874E-01
   -.104E+00 -.969E-01 0.156E+04   0.103E+00 0.963E-01 -.156E+04   0.101E-02 0.745E-03 0.313E+01
   -.140E-05 -.336E-05 0.156E+04   0.459E-06 0.127E-06 -.156E+04   0.120E-05 -.889E-07 0.313E+01
   -.178E+02 0.147E-04 -.151E+04   0.178E+02 -.451E-05 0.151E+04   0.437E-01 -.334E-05 -.438E+01
   0.117E-04 -.605E+01 -.153E+04   0.101E-04 0.604E+01 0.153E+04   -.144E-04 0.167E-01 -.440E+01
   -.219E+01 -.214E+01 -.481E+03   0.217E+01 0.214E+01 0.481E+03   0.155E-01 0.339E-02 0.297E+00
   -.166E-05 0.223E-05 -.482E+03   0.911E-06 -.215E-06 0.482E+03   0.130E-05 0.101E-05 0.294E+00
   -.208E-04 0.192E-04 0.161E+02   0.249E-12 0.185E-12 -.318E-11   -.326E-05 -.180E-04 -.141E+02

 POSITION                                       TOTAL-FORCE (eV/Angst)
      4.22029      4.22029     17.00990        -0.000003     -0.000033     -0.038799
      4.22029      5.11891     17.63966        -0.000005     -0.193546     -0.124177
      4.22029      3.32167     17.63966        -0.000002      0.193575     -0.124189
      5.12464      4.22029     16.38344        -0.221768     -0.000001      0.127684
      3.31594      4.22029     16.38344         0.221764      0.000000      0.127686
      2.11015      0.00000      7.50000         0.000147     -0.000001      0.467444
      4.22029      2.11015      7.50000        -0.000001      0.000212      0.468250
      2.11015      2.11015      9.61015         0.001219      0.001291      0.032466
      4.22029      0.00000      9.61015         0.000001      0.000002      0.035518
      2.11032      0.00000     11.73098         0.000343     -0.000002     -0.005100
      4.22029      2.11065     11.73227         0.000005      0.001800     -0.001839
      2.11065      2.10888     13.82789         0.000330     -0.002135     -0.114589
      4.22029      0.00000     13.82918         0.000001     -0.000001     -0.119111
      2.11015      4.22029      7.50000         0.000237      0.000000      0.467761
      4.22029      6.33044      7.50000        -0.000000     -0.000213      0.468254
      2.11015      6.33044      9.61015         0.001218     -0.001290      0.032467
      4.22029      4.22029      9.61015         0.000001      0.000001      0.038213
      2.11077      4.22029     11.73212         0.003076      0.000003     -0.003927
      4.22029      6.32993     11.73227        -0.000000     -0.001802     -0.001840
      2.11065      6.33171     13.82789         0.000345      0.002121     -0.114586
      4.22029      4.22029     13.83970         0.000004     -0.000001     -0.079241
      6.33044      0.00000      7.50000        -0.000142     -0.000001      0.467440
      0.00000      2.11015      7.50000         0.000001      0.000107      0.467491
      6.33044      2.11015      9.61015        -0.001218      0.001290      0.032467
      0.00000      0.00000      9.61015         0.000000      0.000003      0.032305
      6.33026      0.00000     11.73098        -0.000341      0.000001     -0.005092
      8.44058      2.11010     11.73120        -0.000002     -0.000346     -0.004881
      6.32993      2.10888     13.82789        -0.000347     -0.002120     -0.114575
      8.44058      0.00000     13.83095        -0.000005     -0.000003     -0.120764
      6.33044      4.22029      7.50000        -0.000238     -0.000002      0.467761
      0.00000      6.33044      7.50000         0.000001     -0.000106      0.467493
      6.33044      6.33044      9.61015        -0.001221     -0.001290      0.032468
      0.00000      4.22029      9.61015         0.000001      0.000000      0.034481
      6.32982      4.22029     11.73212        -0.003078     -0.000003     -0.003924
      8.44058      6.33049     11.73120         0.000001      0.000348     -0.004875
      6.32993      6.33171     13.82789        -0.000332      0.002135     -0.114579
      8.44058      4.22029     13.82838        -0.000000     -0.000002     -0.115197
      2.11015      0.00000      9.61015        -0.002351      0.000002      0.047170
      4.22029      2.11015      9.61015        -0.000000      0.002399      0.048236
      2.11015      2.11015      7.50000        -0.000331     -0.000248     -0.435332
      4.22029      0.00000      7.50000        -0.000000     -0.000001     -0.435716
      2.10987      0.00000     13.86973        -0.002273     -0.000002     -0.012541
      4.22029      2.10838     13.86594        -0.000007      0.002990     -0.013302
      2.10960      2.11015     11.72543        -0.001118      0.000301      0.014682
      4.22029      0.00000     11.72479         0.000003      0.000001      0.011870
      2.11015      4.22029      9.61015         0.001006      0.000001      0.049547
      4.22029      6.33044      9.61015         0.000001     -0.002401      0.048232
      2.11015      6.33044      7.50000        -0.000330      0.000248     -0.435341
      4.22029      4.22029      7.50000        -0.000000      0.000003     -0.435983
      2.10796      4.22029     13.87113         0.008313     -0.000009      0.002397
      4.22029      6.33221     13.86594         0.000010     -0.002992     -0.013303
      2.10960      6.33043     11.72543        -0.001119     -0.000301      0.014679
      4.22029      4.22029     11.72754         0.000002     -0.000001      0.013303
      6.33044      0.00000      9.61015         0.002353      0.000000      0.047169
      0.00000      2.11015      9.61015         0.000001     -0.001017      0.047021
      6.33044      2.11015      7.50000         0.000333     -0.000249     -0.435335
      0.00000      0.00000      7.50000        -0.000001     -0.000002     -0.434943
      6.33071      0.00000     13.86973         0.002280      0.000003     -0.012542
      8.44058      2.10996     13.86967        -0.000006     -0.001198     -0.009894
      6.33098      2.11015     11.72543         0.001116      0.000298      0.014680
      8.44058      0.00000     11.72607        -0.000004      0.000001      0.011759
      6.33044      4.22029      9.61015        -0.001006      0.000002      0.049549
      0.00000      6.33044      9.61015        -0.000000      0.001016      0.047020
      6.33044      6.33044      7.50000         0.000329      0.000251     -0.435336
      0.00000      4.22029      7.50000         0.000001     -0.000003     -0.435152
      6.33262      4.22029     13.87113        -0.008316      0.000007      0.002395
      8.44058      6.33062     13.86967         0.000008      0.001207     -0.009914
      6.33098      6.33043     11.72543         0.001118     -0.000298      0.014681
      8.44058      4.22029     11.72558         0.000001      0.000003      0.013878
    total drift:                               -0.000024      0.000002      0.010705

  FREE ENERGIE OF THE ION-ELECTRON SYSTEM (eV)
  free  energy   TOTEN  =      -466.04782727 eV

  energy  without entropy=     -466.04782727  energy(sigma->0) =     -466.04782727