 vasp.6.4.2 20Jul23 (build Feb 22 2024 13:53:45) complex
 executed on              LinuxNV date 2024.08.28  23:52:58
 OpenACC runtime initialized ...    4 GPUs detected

 INCAR:
   SYSTEM = Oxide-Surface
   ISMEAR = 0
   SIGMA = 0.05
   EDIFF = 1E-5
   ALGO = Normal
   IBRION = -1
   NSW = 0
   ISYM = 0
   DIPOL = 0.5 0.5 0.5
   IDIPOL = 3
   LDIPOL = .TRUE.
   ISTART = 1
   LHFCALC = .TRUE.
   GGA = PE
   IVDW = 21
   VDW_SR = 0.96
   HFRCUT = -1
   ENCUT = 520
   PREC = Normal
   PRECFOCK = Normal
   LASPH = .TRUE.
   LREAL = Auto
   ISPIN = 1
   NELM = 200
   NELMIN = 8
   NCORE = 1
   KPAR = 1
   LWAVE = .FALSE.
   LCHARG = .FALSE.

 POTCAR:    PAW_PBE N 08Apr2002
 POTCAR:    PAW_PBE H 15Jun2001
 POTCAR:    PAW_PBE Ti_pv 07Sep2000
 POTCAR:    PAW_PBE O 08Apr2002
 POTCAR:    PAW_PBE N 08Apr2002
   VRHFIN =N: s2p3

   TITEL  = PAW_PBE N 08Apr2002
   POMASS =   14.001; ZVAL   =    5.000    mass and valenz
   ENMAX  =  400.000; ENMIN  =  300.000 eV

   TITEL  = PAW_PBE H 15Jun2001
   POMASS =    1.000; ZVAL   =    1.000    mass and valenz
   ENMAX  =  250.000; ENMIN  =  200.000 eV

   TITEL  = PAW_PBE Ti_pv 07Sep2000
   POMASS =   47.880; ZVAL   =   10.000    mass and valenz
   ENMAX  =  222.335; ENMIN  =  166.751 eV

   TITEL  = PAW_PBE O 08Apr2002
   POMASS =   16.000; ZVAL   =    6.000    mass and valenz
   ENMAX  =  400.000; ENMIN  =  300.000 eV

 Optimization of the real space projectors (new method)

 maximal supplied QI-value         = 25.13
 optimisation between [QCUT,QGAM] = [ 11.56, 23.12] = [ 37.43,149.72] Ry
 Optimized for a Real-space Cutoff    1.25 Angstroem

   l    n(q)    QCUT    max X(q) W(low)/X(q) W(high)/X(q)  e(spline)
   0      9    11.561    79.467    0.52E-04    0.16E-03    0.37E-06
   0      9    11.561    66.151    0.51E-04    0.16E-03    0.37E-06
   1      8    11.561    18.886    0.46E-03    0.28E-03    0.80E-06
   1      8    11.561    13.488    0.47E-03    0.29E-03    0.82E-06
 Optimization of the real space projectors (new method)

[...]

   l    n(q)    QCUT    max X(q) W(low)/X(q) W(high)/X(q)  e(spline)
   1     10    11.641     4.216    0.33E-04    0.72E-04    0.48E-07
   1     10    11.641     5.422    0.11E-03    0.20E-03    0.10E-06
   2      9    11.641    72.084    0.36E-03    0.27E-03    0.57E-06
   2      9    11.641    65.965    0.35E-03    0.27E-03    0.57E-06
   0     10    11.641    41.531    0.11E-03    0.93E-04    0.16E-06
   0     10    11.641    16.290    0.82E-04    0.72E-04    0.13E-06
 Optimization of the real space projectors (new method)

 maximal supplied QI-value         = 24.76
 optimisation between [QCUT,QGAM] = [ 11.64, 23.27] = [ 37.91,151.63] Ry
 Optimized for a Real-space Cutoff    1.04 Angstroem

   l    n(q)    QCUT    max X(q) W(low)/X(q) W(high)/X(q)  e(spline)
   0      7    11.635    20.381    0.14E-03    0.49E-03    0.18E-06
   0      7    11.635    15.268    0.16E-03    0.52E-03    0.19E-06
   1      7    11.635     5.964    0.30E-03    0.44E-03    0.22E-06
   1      7    11.635     5.382    0.27E-03    0.34E-03    0.19E-06
  PAW_PBE N 08Apr2002                   :
  PAW_PBE H 15Jun2001                   :
  PAW_PBE Ti_pv 07Sep2000               :
  PAW_PBE O 08Apr2002                   :

 POSCAR:  N  H Ti  O
  positions in direct lattice
 exchange correlation table for  LEXCH =        8
   RHO(1)=    0.500       N(1)  =     2000
   RHO(2)=  100.500       N(2)  =     4000

 ion  position               nearest neighbor table
   1  0.617  0.500  0.769-   2 1.02   4 1.02   3 1.02  52 2.30
   2  0.554  0.500  0.800-   1 1.02
   3  0.676  0.428  0.772-   1 1.02
   4  0.676  0.572  0.772-   1 1.02
   5  0.813  0.833  0.229-  89 1.94  55 1.94  57 1.94  56 1.99  54 1.99  22 3.05   8 3.05   6 3.05

   6  0.597  0.667  0.264- 120 1.94  53 1.94  58 1.94  56 1.94  57 1.99  59 1.99  37 3.05   7 3.05
                             5 3.05  11 3.08
   7  0.313  0.667  0.229- 125 1.94  59 1.94  61 1.94  60 1.99  53 1.99  40 3.05   6 3.05   8 3.05

   8  0.097  0.833  0.264-  54 1.94  92 1.94  62 1.94  60 1.94  61 1.99  55 1.99  23 3.05   5 3.05
                             7 3.05   9 3.08
   9  0.950  0.833  0.372-  63 1.92  97 1.93  65 1.93  55 1.98  64 1.98  62 2.00  12 3.00  10 3.05
                            26 3.05   8 3.08
  10  0.732  0.666  0.404-  58 1.89 128 1.93  64 1.94  66 1.96  67 1.99  65 2.00  11 3.01   9 3.05
                            41 3.05  15 3.11
  11  0.450  0.666  0.371-  67 1.93 133 1.93  69 1.94  59 1.97  68 1.98  58 2.01  10 3.01  12 3.05
                            44 3.05   6 3.08
  12  0.231  0.833  0.404-  62 1.89 100 1.94  68 1.94  70 1.97  63 1.98  69 2.01   9 3.00  27 3.05
                            11 3.05  13 3.11
  13  0.091  0.833  0.514-  71 1.92 105 1.93  73 1.93  72 1.97  63 2.00  70 2.01  16 2.95  14 3.04
                            30 3.05  12 3.11
  14  0.870  0.666  0.542-  66 1.86 136 1.93  72 1.95  75 1.95  73 2.01  74 2.01  15 2.97  13 3.04
                            45 3.06  19 3.17
  15  0.590  0.666  0.513- 141 1.93  77 1.93  75 1.93  76 1.98  67 1.98  66 2.01  14 2.97  16 3.05
                            48 3.06  10 3.11
  16  0.369  0.833  0.543-  70 1.86 108 1.94  76 1.94  71 1.95  78 2.00  77 2.02  13 2.95  15 3.05
                            31 3.05
  17  0.237  0.833  0.659-  79 1.86  81 1.93 113 1.94  80 2.00  71 2.09  78 2.10  20 2.85  34 3.07
                            18 3.08
  18  0.006  0.666  0.682-  74 1.78  82 1.84 144 1.97  80 1.99  81 2.07  19 2.86  17 3.08  49 3.10

[...]

  21  0.813  0.167  0.229-  89 1.94  87 1.94 121 1.94  88 1.99  86 1.99  22 3.05  24 3.05  38 3.05

[...]

  37  0.813  0.500  0.229-  57 1.94 119 1.94 121 1.94 120 1.99 118 1.99   6 3.05  40 3.05  38 3.05

  38  0.597  0.333  0.264- 117 1.94 122 1.94 120 1.94  88 1.94 121 1.99 123 1.99  39 3.05  37 3.05
                            21 3.05  43 3.08
  39  0.313  0.333  0.229- 123 1.94  93 1.94 125 1.94 124 1.99 117 1.99  38 3.05  40 3.05  24 3.05

  40  0.097  0.500  0.264-  60 1.94 118 1.94 126 1.94 124 1.94 125 1.99 119 1.99   7 3.05  37 3.05
                            39 3.05  41 3.07
  41  0.952  0.500  0.371- 127 1.92  65 1.94 129 1.94 119 1.97 126 1.99 128 2.00  44 2.99  10 3.05
                            42 3.05  40 3.07
  42  0.732  0.334  0.404- 122 1.89 128 1.93  96 1.94 130 1.96 131 1.99 129 2.00  43 3.01  25 3.05
                            41 3.05  47 3.11
  43  0.450  0.334  0.371- 131 1.93 133 1.93 101 1.94 123 1.97 132 1.98 122 2.01  42 3.01  28 3.05
                            44 3.05  38 3.08
  44  0.231  0.500  0.405- 126 1.92  68 1.94 132 1.94 127 1.96 134 1.97 133 2.01  41 2.99  11 3.05
                            43 3.05  45 3.08
  45  0.094  0.500  0.514- 135 1.91 137 1.93  73 1.93 134 1.98 136 2.00 127 2.01  48 2.96  14 3.06
                            46 3.06  44 3.08
  46  0.870  0.334  0.542- 130 1.86 136 1.93 104 1.95 139 1.95 137 2.01 138 2.01  47 2.97  29 3.04
                            45 3.06  51 3.17
  47  0.590  0.334  0.513- 141 1.93 109 1.93 139 1.93 140 1.98 131 1.98 130 2.01  46 2.97  32 3.05
                            48 3.06  42 3.11
  48  0.371  0.500  0.547- 134 1.92  76 1.94 140 1.94 135 1.94 142 1.98 141 2.03  45 2.96  15 3.06
                            47 3.06  49 3.13
  49  0.240  0.500  0.660- 143 1.86 145 1.93  81 1.93 142 2.03 144 2.03 135 2.10  52 2.87  18 3.10
                            50 3.10  48 3.13
  50  0.006  0.334  0.682- 138 1.78 146 1.84 144 1.97 112 1.99 145 2.07  51 2.86  33 3.08  49 3.10

  51  0.735  0.333  0.657- 146 1.89 148 1.93 116 1.94 147 1.99 139 2.04 138 2.10  50 2.86  36 3.08
                            52 3.08  46 3.17
  52  0.512  0.500  0.688- 143 1.84 142 1.88  83 1.98 147 1.98 148 2.07   1 2.30  49 2.87  19 3.08
                            51 3.08
  53  0.494  0.667  0.200-   6 1.94   7 1.99
  54  0.994  0.833  0.200-   8 1.94   5 1.99
  55  0.917  0.833  0.294-   5 1.94   9 1.98   8 1.99
  56  0.633  0.833  0.258-  22 1.94   6 1.94   5 1.99
  57  0.778  0.667  0.235-  37 1.94   5 1.94   6 1.99
  58  0.630  0.667  0.340-  10 1.89   6 1.94  11 2.01
  59  0.417  0.667  0.294-   7 1.94  11 1.97   6 1.99
  60  0.133  0.667  0.258-  40 1.94   8 1.94   7 1.99
  61  0.278  0.833  0.235-  23 1.94   7 1.94   8 1.99
  62  0.130  0.833  0.340-  12 1.89   8 1.94   9 2.00
  63  0.054  0.833  0.435-   9 1.92  12 1.98  13 2.00
  64  0.769  0.833  0.399-  26 1.94  10 1.94   9 1.98
  65  0.914  0.667  0.376-   9 1.93  41 1.94  10 2.00
  66  0.769  0.666  0.481-  14 1.86  10 1.96  15 2.01
  67  0.554  0.666  0.435-  11 1.93  15 1.98  10 1.99
  68  0.269  0.667  0.400-  44 1.94  12 1.94  11 1.98
  69  0.414  0.833  0.376-  27 1.93  11 1.94  12 2.01
  70  0.269  0.833  0.481-  16 1.86  12 1.97  13 2.01
  71  0.198  0.833  0.577-  13 1.92  16 1.95  17 2.09
  72  0.909  0.833  0.540-  30 1.94  14 1.95  13 1.97
  73  0.056  0.667  0.517-  13 1.93  45 1.93  14 2.01
  74  0.919  0.667  0.620-  18 1.78  14 2.01  19 2.10
  75  0.699  0.668  0.576-  15 1.93  14 1.95  19 2.04
  76  0.409  0.667  0.541-  48 1.94  16 1.94  15 1.98
  77  0.555  0.833  0.517-  15 1.93  31 1.93  16 2.02
  78  0.418  0.836  0.621-  20 1.78  16 2.00  17 2.10
  79  0.352  0.833  0.717-  20 1.84  17 1.86
  80  0.058  0.833  0.691-  34 1.98  18 1.99  17 2.00
  81  0.200  0.666  0.660-  17 1.93  49 1.93  18 2.07
  82  0.848  0.664  0.716-  18 1.84  19 1.89
  83  0.558  0.669  0.689-  20 1.96  52 1.98  19 1.99
  84  0.701  0.834  0.658-  35 1.93  19 1.94  20 2.06
  85  0.494  0.000  0.200-  22 1.94  23 1.99
  86  0.994  0.167  0.200-  24 1.94  21 1.99
  87  0.917  0.167  0.294-  21 1.94  25 1.98  24 1.99
  88  0.633  0.167  0.258-  22 1.94  38 1.94  21 1.99
  89  0.778  0.000  0.235-   5 1.94  21 1.94  22 1.99
  90  0.630  0.000  0.340-  26 1.89  22 1.94  27 2.01
  91  0.417  0.000  0.294-  23 1.94  27 1.98  22 1.99
  92  0.133  0.000  0.258-   8 1.94  24 1.94  23 1.99
  93  0.278  0.167  0.235-  23 1.94  39 1.94  24 1.99
  94  0.130  0.167  0.340-  28 1.89  24 1.94  25 2.00
  95  0.054  0.167  0.435-  25 1.92  28 1.98  29 2.00
  96  0.769  0.167  0.399-  26 1.94  42 1.94  25 1.98
  97  0.914  0.000  0.376-  25 1.93   9 1.93  26 2.00
  98  0.769  0.000  0.481-  30 1.86  26 1.97  31 2.01
  99  0.554  1.000  0.435-  27 1.92  26 1.98  31 2.00
 100  0.269  0.000  0.400-  12 1.94  28 1.94  27 1.99
 101  0.414  0.167  0.376-  27 1.93  43 1.94  28 2.01
 102  0.269  0.167  0.481-  32 1.86  28 1.97  29 2.01
 103  0.198  0.167  0.577-  29 1.92  32 1.95  33 2.09
 104  0.909  0.167  0.540-  30 1.94  46 1.95  29 1.97
 105  0.056  0.000  0.517-  13 1.93  29 1.93  30 2.03
 106  0.919  0.000  0.621-  34 1.78  30 2.01  35 2.08
 107  0.698  1.000  0.577-  31 1.92  30 1.94  35 2.10
 108  0.408  0.000  0.540-  32 1.94  16 1.94  31 1.98
 109  0.555  0.167  0.517-  47 1.93  31 1.93  32 2.02
 110  0.418  0.164  0.621-  36 1.78  32 2.00  33 2.10
 111  0.352  0.167  0.717-  36 1.84  33 1.86
 112  0.058  0.167  0.691-  34 1.98  50 1.99  33 2.00
[...]
 134  0.270  0.500  0.482-  48 1.92  44 1.97  45 1.98
 135  0.197  0.500  0.578-  45 1.91  48 1.94  49 2.10
 136  0.909  0.500  0.540-  46 1.93  14 1.93  45 2.00
 137  0.056  0.333  0.517-  29 1.93  45 1.93  46 2.01
[...]
     0.000000000  0.000000000 25.000000000     0.000000000  0.000000000  0.040000000

  length of vectors
    10.273755933 11.368810418 25.000000000     0.097335386  0.087959950  0.040000000

 FORCES acting on ions
    electron-ion (+dipol)            ewald-force                    non-local-force                 convergence-correction
   -.150E+02 -.179E-05 -.149E+04   0.549E+01 0.132E-05 0.147E+04   0.870E+01 0.989E-06 0.165E+02   0.362E-03 -.112E-05 -.524E-01
   0.429E+02 -.133E-06 -.313E+03   -.475E+02 0.263E-06 0.319E+03   0.460E+01 0.678E-07 -.539E+01   0.233E-03 -.236E-06 -.950E-02
   -.421E+02 0.550E+02 -.301E+03   0.463E+02 -.607E+02 0.302E+03   -.424E+01 0.571E+01 -.368E+00   0.997E-04 0.239E-05 -.104E-01
   -.421E+02 -.550E+02 -.301E+03   0.463E+02 0.607E+02 0.302E+03   -.424E+01 -.571E+01 -.368E+00   0.999E-04 -.267E-05 -.104E-01
   0.700E+01 -.206E+00 0.297E+04   -.152E+01 0.207E+00 -.297E+04   -.132E+01 -.145E-02 -.370E+01   -.360E-03 -.559E-04 0.950E-01
   0.456E+01 -.217E+00 0.243E+04   -.641E+01 0.219E+00 -.243E+04   0.170E-01 0.707E-02 0.535E-01   0.638E-04 -.503E-04 0.800E-01
   0.713E+01 -.208E-01 0.297E+04   -.168E+01 0.159E-01 -.297E+04   -.131E+01 0.243E-02 -.369E+01   -.276E-03 -.677E-04 0.949E-01
   0.326E+01 -.428E-01 0.243E+04   -.515E+01 0.350E-01 -.243E+04   0.251E-01 -.622E-02 0.506E-01   -.403E-04 -.163E-04 0.802E-01
   -.740E+00 0.330E-01 0.111E+04   0.546E+00 -.293E-01 -.111E+04   0.152E+00 -.841E-02 -.466E-01   0.885E-04 0.767E-04 0.289E-01
   0.311E+00 -.141E+01 0.701E+03   -.284E+00 0.139E+01 -.701E+03   0.120E-01 0.140E-01 -.717E-01   -.295E-03 0.756E-04 0.120E-01
   0.856E+00 -.382E+00 0.111E+04   -.104E+01 0.367E+00 -.111E+04   0.148E+00 0.133E-01 -.448E-01   0.981E-04 0.564E-04 0.289E-01
   -.529E+01 0.155E+00 0.695E+03   0.529E+01 -.158E+00 -.694E+03   0.463E-01 0.126E-01 -.748E-01   -.427E-03 0.102E-03 0.119E-01
   -.511E+01 -.236E+01 -.688E+03   0.480E+01 0.235E+01 0.688E+03   0.284E+00 -.653E-02 0.606E-01   -.238E-03 0.199E-03 -.404E-01
   -.114E+02 -.496E+01 -.103E+04   0.115E+02 0.496E+01 0.103E+04   0.273E-01 0.113E-01 -.116E+00   -.309E-03 0.184E-03 -.531E-01
   0.113E+01 -.167E+01 -.665E+03   -.142E+01 0.167E+01 0.665E+03   0.255E+00 0.175E-03 0.487E-01   -.104E-03 0.239E-03 -.400E-01
   -.226E+01 -.855E+00 -.105E+04   0.234E+01 0.874E+00 0.105E+04   0.157E-01 -.195E-01 -.161E+00   -.329E-03 0.214E-03 -.534E-01
   0.280E+02 -.109E+02 -.244E+04   -.288E+02 0.109E+02 0.244E+04   0.841E+00 0.220E-01 -.303E+00   -.149E-02 -.340E-04 -.949E-01
   -.876E+02 -.215E+02 -.280E+04   0.872E+02 0.213E+02 0.279E+04   0.422E+00 0.158E+00 0.104E+01   0.951E-03 -.450E-03 -.975E-01
   -.101E+02 -.399E+02 -.237E+04   0.935E+01 0.399E+02 0.237E+04   0.823E+00 -.173E-02 -.155E+00   -.116E-02 0.248E-03 -.926E-01
   -.613E+02 -.339E+02 -.279E+04   0.609E+02 0.339E+02 0.279E+04   0.463E+00 0.648E-01 0.105E+01   0.224E-02 -.412E-03 -.985E-01
   0.700E+01 0.206E+00 0.297E+04   -.152E+01 -.207E+00 -.297E+04   -.132E+01 0.145E-02 -.370E+01   -.350E-03 0.517E-04 0.950E-01
   0.452E+01 -.464E-05 0.243E+04   -.639E+01 0.561E-05 -.243E+04   0.238E-01 0.420E-06 0.432E-01   0.597E-04 -.175E-05 0.801E-01
   0.703E+01 0.851E-06 0.297E+04   -.156E+01 0.308E-05 -.297E+04   -.132E+01 0.537E-07 -.369E+01   -.261E-03 -.464E-05 0.951E-01
   0.326E+01 0.428E-01 0.243E+04   -.515E+01 -.349E-01 -.243E+04   0.251E-01 0.622E-02 0.506E-01   -.543E-04 0.549E-05 0.802E-01
   -.740E+00 -.331E-01 0.111E+04   0.546E+00 0.293E-01 -.111E+04   0.152E+00 0.841E-02 -.466E-01   0.816E-04 -.764E-04 0.290E-01
   -.199E+01 -.445E-04 0.698E+03   0.198E+01 0.388E-04 -.698E+03   0.416E-01 -.177E-06 -.608E-01   -.340E-03 0.768E-05 0.121E-01
   0.941E+00 -.230E-04 0.111E+04   -.112E+01 0.210E-04 -.111E+04   0.143E+00 0.271E-06 -.513E-01   0.135E-03 0.192E-05 0.290E-01
   -.529E+01 -.155E+00 0.695E+03   0.529E+01 0.158E+00 -.694E+03   0.463E-01 -.126E-01 -.748E-01   -.425E-03 -.103E-03 0.119E-01
   -.511E+01 0.236E+01 -.688E+03   0.480E+01 -.235E+01 0.688E+03   0.284E+00 0.652E-02 0.606E-01   -.246E-03 -.195E-03 -.404E-01
   -.111E+02 -.254E-04 -.105E+04   0.112E+02 0.277E-04 0.105E+04   0.634E-01 0.754E-06 -.108E+00   -.398E-03 -.200E-05 -.532E-01
   -.294E+01 -.774E-04 -.680E+03   0.261E+01 0.642E-04 0.680E+03   0.307E+00 -.201E-06 0.108E+00   -.868E-04 0.164E-04 -.401E-01
   -.226E+01 0.855E+00 -.105E+04   0.234E+01 -.874E+00 0.105E+04   0.157E-01 0.195E-01 -.161E+00   -.298E-03 -.215E-03 -.534E-01
   0.280E+02 0.109E+02 -.244E+04   -.288E+02 -.109E+02 0.244E+04   0.841E+00 -.220E-01 -.303E+00   -.146E-02 0.304E-04 -.949E-01
   -.758E+02 0.553E-05 -.281E+04   0.755E+02 0.121E-04 0.281E+04   0.397E+00 -.929E-06 0.105E+01   0.118E-02 -.151E-04 -.990E-01
   0.119E+02 -.231E-04 -.244E+04   -.127E+02 0.212E-04 0.244E+04   0.787E+00 -.169E-05 -.264E+00   -.130E-02 0.618E-05 -.943E-01
   -.613E+02 0.339E+02 -.279E+04   0.609E+02 -.339E+02 0.279E+04   0.463E+00 -.648E-01 0.105E+01   0.223E-02 0.415E-03 -.985E-01
   0.702E+01 0.471E-05 0.297E+04   -.153E+01 -.747E-05 -.297E+04   -.132E+01 -.482E-06 -.369E+01   -.413E-03 0.325E-05 0.948E-01
   0.456E+01 0.217E+00 0.243E+04   -.641E+01 -.219E+00 -.243E+04   0.170E-01 -.707E-02 0.535E-01   0.386E-04 0.522E-04 0.800E-01
   0.713E+01 0.208E-01 0.297E+04   -.168E+01 -.159E-01 -.297E+04   -.131E+01 -.243E-02 -.369E+01   -.237E-03 0.713E-04 0.949E-01
   0.233E+01 0.176E-05 0.243E+04   -.417E+01 -.110E-04 -.243E+04   0.117E-01 -.874E-06 0.425E-01   -.228E-04 0.108E-04 0.802E-01
   0.205E+01 0.411E-04 0.111E+04   -.222E+01 -.434E-04 -.111E+04   0.879E-01 0.137E-05 -.237E-02   0.756E-04 0.236E-06 0.289E-01
   0.311E+00 0.141E+01 0.701E+03   -.284E+00 -.139E+01 -.701E+03   0.120E-01 -.140E-01 -.717E-01   -.293E-03 -.829E-04 0.120E-01
   0.856E+00 0.382E+00 0.111E+04   -.104E+01 -.367E+00 -.111E+04   0.148E+00 -.133E-01 -.448E-01   0.977E-04 -.586E-04 0.289E-01
   -.896E+01 0.326E-04 0.680E+03   0.897E+01 -.342E-04 -.680E+03   0.532E-01 0.185E-06 -.154E-01   -.382E-03 0.948E-06 0.112E-01
   -.549E+00 0.207E-04 -.689E+03   0.343E+00 -.217E-04 0.689E+03   0.133E+00 0.214E-05 0.731E-01   -.161E-03 -.355E-05 -.405E-01
   -.114E+02 0.496E+01 -.103E+04   0.115E+02 -.496E+01 0.103E+04   0.273E-01 -.113E-01 -.116E+00   -.302E-03 -.182E-03 -.531E-01
   0.113E+01 0.167E+01 -.665E+03   -.142E+01 -.167E+01 0.665E+03   0.255E+00 -.175E-03 0.487E-01   -.112E-03 -.254E-03 -.400E-01
   -.256E+01 0.417E-04 -.109E+04   0.263E+01 -.453E-04 0.109E+04   0.771E-02 0.136E-05 -.115E+00   -.511E-03 -.523E-07 -.550E-01
   0.482E+02 -.241E-04 -.244E+04   -.487E+02 0.189E-04 0.244E+04   0.474E+00 0.616E-06 -.189E+00   -.178E-02 0.343E-05 -.947E-01
   -.876E+02 0.215E+02 -.280E+04   0.872E+02 -.213E+02 0.279E+04   0.422E+00 -.158E+00 0.104E+01   0.945E-03 0.466E-03 -.975E-01
   -.101E+02 0.399E+02 -.237E+04   0.935E+01 -.399E+02 0.237E+04   0.823E+00 0.173E-02 -.155E+00   -.117E-02 -.253E-03 -.926E-01
   0.110E+02 0.195E-04 -.273E+04   -.107E+02 -.164E-04 0.273E+04   -.149E+00 -.113E-06 -.599E-01   0.151E-02 -.447E-05 -.100E+00
   -.316E+02 -.176E+00 0.201E+04   0.369E+02 0.177E+00 -.202E+04   -.632E+01 0.471E-02 0.164E+02   0.551E-03 -.902E-04 0.633E-01
   -.320E+02 -.165E+00 0.201E+04   0.373E+02 0.165E+00 -.202E+04   -.631E+01 -.559E-02 0.164E+02   0.403E-03 -.706E-04 0.635E-01
   0.811E+02 -.117E-01 0.121E+04   -.860E+02 0.110E-01 -.120E+04   0.355E+01 -.721E-02 -.406E+01   -.457E-04 0.707E-05 0.411E-01
   0.744E+02 -.757E-01 0.148E+04   -.819E+02 0.775E-01 -.147E+04   0.701E+01 -.138E-01 -.249E+01   -.482E-03 -.264E-04 0.502E-01
   -.859E+02 -.135E+00 0.171E+04   0.935E+02 0.134E+00 -.171E+04   -.647E+01 0.756E-02 -.251E+00   -.134E-03 -.412E-04 0.557E-01
   -.687E+02 -.761E+00 0.934E+03   0.745E+02 0.817E+00 -.938E+03   -.524E+01 -.512E-01 0.410E+01   0.151E-03 0.231E-04 0.272E-01
   0.818E+02 0.493E-01 0.121E+04   -.867E+02 -.314E-01 -.120E+04   0.354E+01 -.985E-02 -.395E+01   -.121E-04 -.261E-05 0.411E-01
   0.735E+02 0.282E-01 0.148E+04   -.810E+02 -.387E-01 -.147E+04   0.702E+01 0.307E-01 -.251E+01   -.523E-03 -.192E-04 0.502E-01
[...]
   0.868E+02 0.152E-04 -.958E+03   -.939E+02 -.169E-04 0.966E+03   0.638E+01 0.138E-05 -.727E+01   -.253E-03 0.867E-06 -.405E-01
   0.699E+02 -.894E-05 -.633E+03   -.761E+02 0.100E-04 0.637E+03   0.552E+01 0.169E-06 -.284E+01   0.111E-04 0.287E-06 -.311E-01
   -.808E+02 0.698E+00 -.399E+03   0.874E+02 -.712E+00 0.396E+03   -.589E+01 0.186E-01 0.265E+01   0.359E-04 -.655E-04 -.250E-01
   -.662E+02 0.981E+01 -.112E+04   0.686E+02 -.101E+02 0.110E+04   -.222E+01 0.290E+00 0.920E+01   0.221E-03 -.325E-04 -.493E-01
   0.805E+02 0.870E+01 -.927E+03   -.871E+02 -.898E+01 0.933E+03   0.591E+01 0.245E+00 -.561E+01   -.178E-03 -.186E-03 -.401E-01
   0.794E+02 0.957E+00 -.647E+03   -.861E+02 -.993E+00 0.651E+03   0.597E+01 0.251E-01 -.310E+01   -.805E-04 -.135E-03 -.314E-01
   -.726E+02 -.178E-04 -.402E+03   0.789E+02 0.184E-04 0.400E+03   -.558E+01 0.168E-05 0.230E+01   0.490E-04 0.356E-06 -.253E-01
   -.613E+02 -.784E-05 -.114E+04   0.672E+02 0.114E-04 0.113E+04   -.533E+01 -.147E-05 0.588E+01   0.120E-03 -.119E-05 -.503E-01
   0.107E+03 -.969E-05 -.200E+04   -.113E+03 0.866E-05 0.202E+04   0.545E+01 0.127E-05 -.194E+02   0.856E-03 -.928E-06 -.648E-01
   0.450E+02 -.147E-04 -.177E+04   -.488E+02 0.806E-05 0.178E+04   0.333E+01 0.735E-06 -.708E+01   -.327E-03 0.453E-05 -.602E-01
   -.490E+02 0.664E+01 -.145E+04   0.541E+02 -.647E+01 0.144E+04   -.457E+01 -.171E+00 0.299E+01   -.788E-03 0.159E-03 -.562E-01
   0.114E+02 0.312E+02 -.200E+04   -.171E+02 -.311E+02 0.202E+04   0.504E+01 -.134E+00 -.187E+02   0.331E-03 0.465E-03 -.634E-01
   0.781E+02 0.459E+02 -.171E+04   -.834E+02 -.455E+02 0.172E+04   0.471E+01 -.410E+00 -.614E+01   0.569E-03 -.418E-03 -.600E-01
   -.683E+02 -.550E-05 -.136E+04   0.729E+02 0.217E-05 0.135E+04   -.409E+01 0.281E-05 0.412E+01   -.239E-03 0.135E-06 -.553E-01
   -.171E+02 -.416E-04 0.612E+02   0.369E-12 0.129E-11 -.705E-11   0.165E+02 0.466E-04 -.533E+02   -.463E-02 -.289E-06 -.997E+00

 POSITION                                       TOTAL-FORCE (eV/Angst)
      6.34213      5.68441     19.22002         0.026885     -0.000001      0.194710
      5.69641      5.68441     20.00999         0.181036     -0.000000     -0.258848
      6.94928      4.86545     19.29664        -0.168281      0.222910     -0.056048
      6.94928      6.50336     19.29664        -0.168280     -0.222909     -0.056048
      8.35552      9.47401      5.72548         4.307549     -0.000928      2.127874
      6.13654      7.57921      6.60608        -1.872424      0.004649     -2.091646
      3.21864      7.57921      5.72548         4.276499     -0.001685      2.113910
      0.99966      9.47401      6.60608        -1.902885     -0.009563     -2.096312
      9.75957      9.47437      9.28903        -0.027169     -0.001326     -0.036886
      7.51700      7.57438     10.08794         0.003937     -0.005228     -0.002153
      4.61807      7.57657      9.28580        -0.026135     -0.001006     -0.025250
      2.37146      9.47353     10.09692         0.004438     -0.007762     -0.000561
      0.93172      9.47543     12.85212        -0.026810     -0.006143     -0.036560
      8.93836      7.57219     13.55759         0.006520     -0.002867      0.014221
      6.05754      7.57719     12.83162        -0.027036     -0.002457     -0.034359
      3.78959      9.47473     13.58229         0.019528     -0.002403      0.019096
      2.42983      9.46625     16.48491         0.065303     -0.016200      0.132453
      0.06494      7.56667     17.03936        -0.208925     -0.016236     -0.159591
      7.55101      7.57738     16.41337         0.032874     -0.006569      0.093060
      5.22381      9.48941     17.03324        -0.238581     -0.022206     -0.148650
      8.35552      1.89480      5.72548         4.307550      0.000928      2.127873
      6.13654      0.00000      6.60608        -1.885061     -0.000000     -2.102617
      3.21864      0.00000      5.72548         4.295831     -0.000001      2.121322
      0.99966      1.89480      6.60608        -1.902886      0.009562     -2.096311
      9.75957      1.89444      9.28903        -0.027170      0.001327     -0.036886
      7.51265     11.36881     10.09039         0.008531      0.000002      0.000433
      4.61992      0.00000      9.28852        -0.025998      0.000000     -0.023700
      2.37146      1.89528     10.09692         0.004437      0.007762     -0.000562
      0.93172      1.89338     12.85212        -0.026813      0.006145     -0.036560
      8.92628      0.00000     13.57148         0.010981      0.000000      0.008768
      6.06404     11.36881     12.84173        -0.035817      0.000003     -0.047240
      3.78959      1.89408     13.58229         0.019535      0.002406      0.019105
      2.42983      1.90256     16.48491         0.065305      0.016203      0.132449
      0.08924     11.36881     17.04068        -0.241316      0.000002     -0.141460
      7.58388     11.36881     16.46961         0.066089      0.000003      0.129000
      5.22381      1.87940     17.03324        -0.238575      0.022208     -0.148639
      8.35552      5.68441      5.72548         4.319183     -0.000000      2.126494
      6.13654      3.78960      6.60608        -1.872427     -0.004650     -2.091648
      3.21864      3.78960      5.72548         4.276506      0.001686      2.113907
      0.99966      5.68441      6.60608        -1.869258      0.000001     -2.028212
      9.77592      5.68441      9.28385        -0.041311     -0.000001     -0.039380
      7.51700      3.79443     10.08794         0.003936      0.005226     -0.002155
      4.61807      3.79224      9.28580        -0.026133      0.001006     -0.025251
      2.37498      5.68441     10.12668         0.020797     -0.000001     -0.011644
      0.96349      5.68441     12.85884        -0.026941     -0.000003     -0.034981
      8.93836      3.79662     13.55759         0.006522      0.002866      0.014214
      6.05754      3.79162     12.83162        -0.027038      0.002454     -0.034361
      3.80876      5.68441     13.66891         0.031797     -0.000003      0.012820
      2.46966      5.68441     16.50312         0.071178     -0.000001      0.129446
      0.06494      3.80214     17.03936        -0.208921      0.016236     -0.159597
      7.55101      3.79143     16.41337         0.032867      0.006567      0.093053
      5.25517      5.68441     17.19821        -0.102002     -0.000001      0.078039
      5.07194      7.57921      4.99001        -2.120397      0.004810      1.602546
     10.20882      9.47401      4.99001        -2.117540     -0.004647      1.600202
      9.42012      9.47401      7.34155        -0.827366     -0.006680     -0.312777
      6.50222      9.47401      6.46096         0.712603     -0.011725     -0.164584
      7.98984      7.57921      5.87060         0.022128      0.006055     -1.074093
      6.46979      7.57921      8.51238        -0.301765     -0.000826      0.637148
      4.28324      7.57921      7.34155        -0.832959      0.003842     -0.294896
      1.36534      7.57921      6.46096         0.723776      0.023067     -0.173263
[...]
      2.77424      5.68441     12.05627        -0.262767     -0.000000      0.179215
      2.02691      5.68441     14.44776         0.279122      0.000001     -0.236737
      9.33808      5.68441     13.49704         0.244088      0.000002     -0.097749
      0.57450      3.79142     12.92875        -0.266368      0.004780      0.098575
      9.43956      3.78626     15.50614        -0.132764      0.008906      0.332605
      7.17961      3.77877     14.40526         0.250325      0.007376     -0.198976
      4.20634      3.79019     13.53304         0.254487     -0.006124     -0.117330
      5.70520      5.68441     12.95031        -0.238467      0.000003      0.092404
      4.28726      5.68441     15.59184        -0.240344      0.000001      0.207572
      3.59586      5.68441     17.98291         0.184348     -0.000000     -0.689223
      0.58811      5.68441     17.27820         0.163597     -0.000001     -0.198578
      2.05851      3.79374     16.49565        -0.263843     -0.020327      0.118001
      8.71298      3.82129     17.89773         0.224835     -0.019940     -0.682018
      5.73708      3.76119     17.23361         0.206627     -0.053640     -0.195052
      7.17537      5.68441     16.41854        -0.219302      0.000000      0.117033
    total drift:                               -0.005324      0.000006     -0.013955

  FREE ENERGIE OF THE ION-ELECTRON SYSTEM (eV)
  free  energy   TOTEN  =     -1717.03290800 eV

  energy  without entropy=    -1717.03290800  energy(sigma->0) =    -1717.03290800