 vasp.6.4.2 20Jul23 (build Feb 22 2024 13:53:45) complex
 executed on              LinuxNV date 2024.08.28  23:36:09
 OpenACC runtime initialized ...    4 GPUs detected

 INCAR:
   SYSTEM = Oxide-Surface
   ISMEAR = 0
   SIGMA = 0.05
   EDIFF = 1E-5
   ALGO = Normal
   IBRION = -1
   NSW = 0
   ISYM = 0
   DIPOL = 0.5 0.5 0.5
   IDIPOL = 3
   LDIPOL = .TRUE.
   ISTART = 0
   LHFCALC = .FALSE.
   GGA = PE
   IVDW = 21
   VDW_SR = 0.96
   HFRCUT = -1
   ENCUT = 520
   PREC = Normal
   PRECFOCK = Normal
   LASPH = .TRUE.
   LREAL = Auto
   ISPIN = 1
   NELM = 200
   NELMIN = 8
   NCORE = 1
   KPAR = 1
   LWAVE = .TRUE.
   LCHARG = .FALSE.

 POTCAR:    PAW_PBE N 08Apr2002
 POTCAR:    PAW_PBE H 15Jun2001
 POTCAR:    PAW_PBE Ti_pv 07Sep2000
 POTCAR:    PAW_PBE O 08Apr2002
 POTCAR:    PAW_PBE N 08Apr2002
   VRHFIN =N: s2p3

   TITEL  = PAW_PBE N 08Apr2002
   POMASS =   14.001; ZVAL   =    5.000    mass and valenz
   ENMAX  =  400.000; ENMIN  =  300.000 eV

   TITEL  = PAW_PBE H 15Jun2001
   POMASS =    1.000; ZVAL   =    1.000    mass and valenz
   ENMAX  =  250.000; ENMIN  =  200.000 eV

   TITEL  = PAW_PBE Ti_pv 07Sep2000
   POMASS =   47.880; ZVAL   =   10.000    mass and valenz
   ENMAX  =  222.335; ENMIN  =  166.751 eV

   TITEL  = PAW_PBE O 08Apr2002
   POMASS =   16.000; ZVAL   =    6.000    mass and valenz
   ENMAX  =  400.000; ENMIN  =  300.000 eV

 Optimization of the real space projectors (new method)

 maximal supplied QI-value         = 25.13
 optimisation between [QCUT,QGAM] = [ 11.56, 23.12] = [ 37.43,149.72] Ry
 Optimized for a Real-space Cutoff    1.25 Angstroem

   l    n(q)    QCUT    max X(q) W(low)/X(q) W(high)/X(q)  e(spline)
   0      9    11.561    79.467    0.52E-04    0.16E-03    0.37E-06
   0      9    11.561    66.151    0.51E-04    0.16E-03    0.37E-06
   1      8    11.561    18.886    0.46E-03    0.28E-03    0.80E-06
   1      8    11.561    13.488    0.47E-03    0.29E-03    0.82E-06
 Optimization of the real space projectors (new method)

[...]

   l    n(q)    QCUT    max X(q) W(low)/X(q) W(high)/X(q)  e(spline)
   1     10    11.641     4.216    0.33E-04    0.72E-04    0.48E-07
   1     10    11.641     5.422    0.11E-03    0.20E-03    0.10E-06
   2      9    11.641    72.084    0.36E-03    0.27E-03    0.57E-06
   2      9    11.641    65.965    0.35E-03    0.27E-03    0.57E-06
   0     10    11.641    41.531    0.11E-03    0.93E-04    0.16E-06
   0     10    11.641    16.290    0.82E-04    0.72E-04    0.13E-06
 Optimization of the real space projectors (new method)

 maximal supplied QI-value         = 24.76
 optimisation between [QCUT,QGAM] = [ 11.64, 23.27] = [ 37.91,151.63] Ry
 Optimized for a Real-space Cutoff    1.04 Angstroem

   l    n(q)    QCUT    max X(q) W(low)/X(q) W(high)/X(q)  e(spline)
   0      7    11.635    20.381    0.14E-03    0.49E-03    0.18E-06
   0      7    11.635    15.268    0.16E-03    0.52E-03    0.19E-06
   1      7    11.635     5.964    0.30E-03    0.44E-03    0.22E-06
   1      7    11.635     5.382    0.27E-03    0.34E-03    0.19E-06
  PAW_PBE N 08Apr2002                   :
  PAW_PBE H 15Jun2001                   :
  PAW_PBE Ti_pv 07Sep2000               :
  PAW_PBE O 08Apr2002                   :

 POSCAR:  N  H Ti  O
  positions in direct lattice
 exchange correlation table for  LEXCH =        8
   RHO(1)=    0.500       N(1)  =     2000
   RHO(2)=  100.500       N(2)  =     4000

 ion  position               nearest neighbor table
   1  0.617  0.500  0.769-   2 1.02   4 1.02   3 1.02  52 2.30
   2  0.554  0.500  0.800-   1 1.02
   3  0.676  0.428  0.772-   1 1.02
   4  0.676  0.572  0.772-   1 1.02
   5  0.813  0.833  0.229-  89 1.94  55 1.94  57 1.94  56 1.99  54 1.99  22 3.05   8 3.05   6 3.05

   6  0.597  0.667  0.264- 120 1.94  53 1.94  58 1.94  56 1.94  57 1.99  59 1.99  37 3.05   7 3.05
                             5 3.05  11 3.08
   7  0.313  0.667  0.229- 125 1.94  59 1.94  61 1.94  60 1.99  53 1.99  40 3.05   6 3.05   8 3.05

   8  0.097  0.833  0.264-  54 1.94  92 1.94  62 1.94  60 1.94  61 1.99  55 1.99  23 3.05   5 3.05
                             7 3.05   9 3.08
   9  0.950  0.833  0.372-  63 1.92  97 1.93  65 1.93  55 1.98  64 1.98  62 2.00  12 3.00  10 3.05
                            26 3.05   8 3.08
  10  0.732  0.666  0.404-  58 1.89 128 1.93  64 1.94  66 1.96  67 1.99  65 2.00  11 3.01   9 3.05
                            41 3.05  15 3.11
  11  0.450  0.666  0.371-  67 1.93 133 1.93  69 1.94  59 1.97  68 1.98  58 2.01  10 3.01  12 3.05
                            44 3.05   6 3.08
  12  0.231  0.833  0.404-  62 1.89 100 1.94  68 1.94  70 1.97  63 1.98  69 2.01   9 3.00  27 3.05
                            11 3.05  13 3.11
  13  0.091  0.833  0.514-  71 1.92 105 1.93  73 1.93  72 1.97  63 2.00  70 2.01  16 2.95  14 3.04
                            30 3.05  12 3.11
  14  0.870  0.666  0.542-  66 1.86 136 1.93  72 1.95  75 1.95  73 2.01  74 2.01  15 2.97  13 3.04
                            45 3.06  19 3.17
  15  0.590  0.666  0.513- 141 1.93  77 1.93  75 1.93  76 1.98  67 1.98  66 2.01  14 2.97  16 3.05
                            48 3.06  10 3.11
  16  0.369  0.833  0.543-  70 1.86 108 1.94  76 1.94  71 1.95  78 2.00  77 2.02  13 2.95  15 3.05
                            31 3.05
  17  0.237  0.833  0.659-  79 1.86  81 1.93 113 1.94  80 2.00  71 2.09  78 2.10  20 2.85  34 3.07
                            18 3.08
  18  0.006  0.666  0.682-  74 1.78  82 1.84 144 1.97  80 1.99  81 2.07  19 2.86  17 3.08  49 3.10

[...]

  21  0.813  0.167  0.229-  89 1.94  87 1.94 121 1.94  88 1.99  86 1.99  22 3.05  24 3.05  38 3.05

[...]

  37  0.813  0.500  0.229-  57 1.94 119 1.94 121 1.94 120 1.99 118 1.99   6 3.05  40 3.05  38 3.05

  38  0.597  0.333  0.264- 117 1.94 122 1.94 120 1.94  88 1.94 121 1.99 123 1.99  39 3.05  37 3.05
                            21 3.05  43 3.08
  39  0.313  0.333  0.229- 123 1.94  93 1.94 125 1.94 124 1.99 117 1.99  38 3.05  40 3.05  24 3.05

  40  0.097  0.500  0.264-  60 1.94 118 1.94 126 1.94 124 1.94 125 1.99 119 1.99   7 3.05  37 3.05
                            39 3.05  41 3.07
  41  0.952  0.500  0.371- 127 1.92  65 1.94 129 1.94 119 1.97 126 1.99 128 2.00  44 2.99  10 3.05
                            42 3.05  40 3.07
  42  0.732  0.334  0.404- 122 1.89 128 1.93  96 1.94 130 1.96 131 1.99 129 2.00  43 3.01  25 3.05
                            41 3.05  47 3.11
  43  0.450  0.334  0.371- 131 1.93 133 1.93 101 1.94 123 1.97 132 1.98 122 2.01  42 3.01  28 3.05
                            44 3.05  38 3.08
  44  0.231  0.500  0.405- 126 1.92  68 1.94 132 1.94 127 1.96 134 1.97 133 2.01  41 2.99  11 3.05
                            43 3.05  45 3.08
  45  0.094  0.500  0.514- 135 1.91 137 1.93  73 1.93 134 1.98 136 2.00 127 2.01  48 2.96  14 3.06
                            46 3.06  44 3.08
  46  0.870  0.334  0.542- 130 1.86 136 1.93 104 1.95 139 1.95 137 2.01 138 2.01  47 2.97  29 3.04
                            45 3.06  51 3.17
  47  0.590  0.334  0.513- 141 1.93 109 1.93 139 1.93 140 1.98 131 1.98 130 2.01  46 2.97  32 3.05
                            48 3.06  42 3.11
  48  0.371  0.500  0.547- 134 1.92  76 1.94 140 1.94 135 1.94 142 1.98 141 2.03  45 2.96  15 3.06
                            47 3.06  49 3.13
  49  0.240  0.500  0.660- 143 1.86 145 1.93  81 1.93 142 2.03 144 2.03 135 2.10  52 2.87  18 3.10
                            50 3.10  48 3.13
  50  0.006  0.334  0.682- 138 1.78 146 1.84 144 1.97 112 1.99 145 2.07  51 2.86  33 3.08  49 3.10

  51  0.735  0.333  0.657- 146 1.89 148 1.93 116 1.94 147 1.99 139 2.04 138 2.10  50 2.86  36 3.08
                            52 3.08  46 3.17
  52  0.512  0.500  0.688- 143 1.84 142 1.88  83 1.98 147 1.98 148 2.07   1 2.30  49 2.87  19 3.08
                            51 3.08
  53  0.494  0.667  0.200-   6 1.94   7 1.99
  54  0.994  0.833  0.200-   8 1.94   5 1.99
  55  0.917  0.833  0.294-   5 1.94   9 1.98   8 1.99
  56  0.633  0.833  0.258-  22 1.94   6 1.94   5 1.99
  57  0.778  0.667  0.235-  37 1.94   5 1.94   6 1.99
  58  0.630  0.667  0.340-  10 1.89   6 1.94  11 2.01
  59  0.417  0.667  0.294-   7 1.94  11 1.97   6 1.99
  60  0.133  0.667  0.258-  40 1.94   8 1.94   7 1.99
  61  0.278  0.833  0.235-  23 1.94   7 1.94   8 1.99
  62  0.130  0.833  0.340-  12 1.89   8 1.94   9 2.00
  63  0.054  0.833  0.435-   9 1.92  12 1.98  13 2.00
  64  0.769  0.833  0.399-  26 1.94  10 1.94   9 1.98
  65  0.914  0.667  0.376-   9 1.93  41 1.94  10 2.00
  66  0.769  0.666  0.481-  14 1.86  10 1.96  15 2.01
  67  0.554  0.666  0.435-  11 1.93  15 1.98  10 1.99
  68  0.269  0.667  0.400-  44 1.94  12 1.94  11 1.98
  69  0.414  0.833  0.376-  27 1.93  11 1.94  12 2.01
  70  0.269  0.833  0.481-  16 1.86  12 1.97  13 2.01
  71  0.198  0.833  0.577-  13 1.92  16 1.95  17 2.09
  72  0.909  0.833  0.540-  30 1.94  14 1.95  13 1.97
  73  0.056  0.667  0.517-  13 1.93  45 1.93  14 2.01
  74  0.919  0.667  0.620-  18 1.78  14 2.01  19 2.10
  75  0.699  0.668  0.576-  15 1.93  14 1.95  19 2.04
  76  0.409  0.667  0.541-  48 1.94  16 1.94  15 1.98
  77  0.555  0.833  0.517-  15 1.93  31 1.93  16 2.02
  78  0.418  0.836  0.621-  20 1.78  16 2.00  17 2.10
  79  0.352  0.833  0.717-  20 1.84  17 1.86
  80  0.058  0.833  0.691-  34 1.98  18 1.99  17 2.00
  81  0.200  0.666  0.660-  17 1.93  49 1.93  18 2.07
  82  0.848  0.664  0.716-  18 1.84  19 1.89
  83  0.558  0.669  0.689-  20 1.96  52 1.98  19 1.99
  84  0.701  0.834  0.658-  35 1.93  19 1.94  20 2.06
  85  0.494  0.000  0.200-  22 1.94  23 1.99
  86  0.994  0.167  0.200-  24 1.94  21 1.99
  87  0.917  0.167  0.294-  21 1.94  25 1.98  24 1.99
  88  0.633  0.167  0.258-  22 1.94  38 1.94  21 1.99
  89  0.778  0.000  0.235-   5 1.94  21 1.94  22 1.99
  90  0.630  0.000  0.340-  26 1.89  22 1.94  27 2.01
  91  0.417  0.000  0.294-  23 1.94  27 1.98  22 1.99
  92  0.133  0.000  0.258-   8 1.94  24 1.94  23 1.99
  93  0.278  0.167  0.235-  23 1.94  39 1.94  24 1.99
  94  0.130  0.167  0.340-  28 1.89  24 1.94  25 2.00
  95  0.054  0.167  0.435-  25 1.92  28 1.98  29 2.00
  96  0.769  0.167  0.399-  26 1.94  42 1.94  25 1.98
  97  0.914  0.000  0.376-  25 1.93   9 1.93  26 2.00
  98  0.769  0.000  0.481-  30 1.86  26 1.97  31 2.01
  99  0.554  1.000  0.435-  27 1.92  26 1.98  31 2.00
 100  0.269  0.000  0.400-  12 1.94  28 1.94  27 1.99
 101  0.414  0.167  0.376-  27 1.93  43 1.94  28 2.01
 102  0.269  0.167  0.481-  32 1.86  28 1.97  29 2.01
 103  0.198  0.167  0.577-  29 1.92  32 1.95  33 2.09
 104  0.909  0.167  0.540-  30 1.94  46 1.95  29 1.97
 105  0.056  0.000  0.517-  13 1.93  29 1.93  30 2.03
 106  0.919  0.000  0.621-  34 1.78  30 2.01  35 2.08
 107  0.698  1.000  0.577-  31 1.92  30 1.94  35 2.10
 108  0.408  0.000  0.540-  32 1.94  16 1.94  31 1.98
 109  0.555  0.167  0.517-  47 1.93  31 1.93  32 2.02
 110  0.418  0.164  0.621-  36 1.78  32 2.00  33 2.10
 111  0.352  0.167  0.717-  36 1.84  33 1.86
 112  0.058  0.167  0.691-  34 1.98  50 1.99  33 2.00
[...]
 134  0.270  0.500  0.482-  48 1.92  44 1.97  45 1.98
 135  0.197  0.500  0.578-  45 1.91  48 1.94  49 2.10
 136  0.909  0.500  0.540-  46 1.93  14 1.93  45 2.00
 137  0.056  0.333  0.517-  29 1.93  45 1.93  46 2.01
[...]
     0.000000000  0.000000000 25.000000000     0.000000000  0.000000000  0.040000000

  length of vectors
    10.273755933 11.368810418 25.000000000     0.097335386  0.087959950  0.040000000

 FORCES acting on ions
    electron-ion (+dipol)            ewald-force                    non-local-force                 convergence-correction
   -.151E+02 0.841E-06 -.149E+04   0.549E+01 0.132E-05 0.147E+04   0.955E+01 0.480E-06 0.180E+02   -.229E-04 -.333E-05 -.344E-02
   0.427E+02 0.193E-06 -.313E+03   -.475E+02 0.263E-06 0.319E+03   0.476E+01 0.339E-07 -.557E+01   -.412E-04 -.510E-06 -.415E-03
   -.419E+02 0.548E+02 -.301E+03   0.463E+02 -.607E+02 0.302E+03   -.438E+01 0.591E+01 -.379E+00   0.544E-04 -.969E-04 -.649E-03
   -.419E+02 -.548E+02 -.301E+03   0.463E+02 0.607E+02 0.302E+03   -.438E+01 -.591E+01 -.379E+00   0.555E-04 0.962E-04 -.648E-03
   0.645E+01 -.206E+00 0.297E+04   -.152E+01 0.207E+00 -.297E+04   -.109E+01 -.211E-02 -.332E+01   0.282E-04 0.947E-04 0.498E-03
   0.483E+01 -.218E+00 0.243E+04   -.641E+01 0.219E+00 -.243E+04   -.843E-01 0.232E-02 -.436E-01   0.116E-03 -.273E-03 0.299E-02
   0.658E+01 -.200E-01 0.297E+04   -.168E+01 0.159E-01 -.297E+04   -.109E+01 0.309E-02 -.332E+01   -.587E-03 -.248E-04 0.488E-03
   0.354E+01 -.419E-01 0.243E+04   -.515E+01 0.350E-01 -.243E+04   -.770E-01 -.182E-02 -.483E-01   -.584E-04 -.988E-04 0.255E-02
   -.726E+00 0.298E-01 0.111E+04   0.546E+00 -.293E-01 -.111E+04   0.181E+00 -.378E-02 0.211E-01   0.466E-03 -.138E-04 0.313E-02
   0.338E+00 -.140E+01 0.701E+03   -.284E+00 0.139E+01 -.701E+03   -.450E-01 0.182E-01 -.153E+00   -.162E-03 -.399E-03 0.339E-02
   0.871E+00 -.373E+00 0.111E+04   -.104E+01 0.367E+00 -.111E+04   0.174E+00 0.112E-01 0.189E-02   0.187E-03 -.820E-04 0.294E-02
   -.525E+01 0.155E+00 0.695E+03   0.529E+01 -.158E+00 -.694E+03   -.273E-01 0.147E-02 -.157E+00   -.632E-03 -.834E-04 0.403E-02
   -.510E+01 -.237E+01 -.688E+03   0.480E+01 0.235E+01 0.688E+03   0.308E+00 0.682E-02 0.127E+00   -.904E-04 -.213E-04 0.306E-02
   -.113E+02 -.495E+01 -.103E+04   0.115E+02 0.496E+01 0.103E+04   -.115E+00 0.322E-03 -.253E+00   0.112E-03 0.753E-05 0.274E-02
   0.115E+01 -.167E+01 -.665E+03   -.142E+01 0.167E+01 0.665E+03   0.272E+00 0.212E-02 0.929E-01   0.899E-04 0.127E-03 0.344E-02
   -.220E+01 -.861E+00 -.105E+04   0.234E+01 0.874E+00 0.105E+04   -.123E+00 -.175E-01 -.300E+00   -.244E-03 0.289E-03 0.240E-02
   0.279E+02 -.109E+02 -.244E+04   -.288E+02 0.109E+02 0.244E+04   0.931E+00 0.270E-02 -.135E+00   -.865E-03 0.422E-03 -.123E-02
   -.871E+02 -.215E+02 -.280E+04   0.872E+02 0.213E+02 0.279E+04   -.353E-01 0.144E+00 0.688E+00   0.811E-03 0.451E-03 -.211E-02
   -.102E+02 -.398E+02 -.237E+04   0.935E+01 0.399E+02 0.237E+04   0.851E+00 -.207E-01 -.164E-01   -.712E-03 0.484E-03 -.103E-02
   -.609E+02 -.339E+02 -.279E+04   0.609E+02 0.339E+02 0.279E+04   0.936E-02 0.395E-01 0.706E+00   0.156E-02 -.462E-03 -.201E-02
   0.645E+01 0.206E+00 0.297E+04   -.152E+01 -.207E+00 -.297E+04   -.109E+01 0.212E-02 -.332E+01   -.168E-03 -.532E-04 0.539E-03
   0.479E+01 -.207E-03 0.243E+04   -.639E+01 0.561E-05 -.243E+04   -.799E-01 -.440E-05 -.488E-01   0.473E-03 0.212E-03 0.306E-02
   0.648E+01 0.170E-03 0.297E+04   -.156E+01 0.308E-05 -.297E+04   -.109E+01 0.259E-05 -.332E+01   -.749E-03 -.186E-03 0.226E-03
   0.354E+01 0.424E-01 0.243E+04   -.515E+01 -.349E-01 -.243E+04   -.770E-01 0.183E-02 -.483E-01   -.305E-03 -.386E-03 0.253E-02
   -.726E+00 -.298E-01 0.111E+04   0.546E+00 0.293E-01 -.111E+04   0.181E+00 0.378E-02 0.211E-01   0.239E-03 -.100E-03 0.326E-02
   -.195E+01 -.225E-03 0.698E+03   0.198E+01 0.388E-04 -.698E+03   -.155E-01 -.136E-05 -.157E+00   -.513E-03 0.204E-03 0.344E-02
   0.951E+00 -.847E-04 0.111E+04   -.112E+01 0.210E-04 -.111E+04   0.172E+00 -.469E-06 0.669E-02   0.527E-03 0.674E-04 0.331E-02
   -.525E+01 -.155E+00 0.695E+03   0.529E+01 0.158E+00 -.694E+03   -.273E-01 -.147E-02 -.157E+00   -.606E-03 -.496E-04 0.397E-02
   -.510E+01 0.237E+01 -.688E+03   0.480E+01 -.235E+01 0.688E+03   0.308E+00 -.682E-02 0.127E+00   -.144E-04 -.883E-04 0.311E-02
   -.110E+02 0.107E-03 -.105E+04   0.112E+02 0.277E-04 0.105E+04   -.944E-01 -.369E-06 -.256E+00   -.982E-05 -.150E-03 0.279E-02
   -.292E+01 -.202E-03 -.680E+03   0.261E+01 0.642E-04 0.680E+03   0.320E+00 -.123E-05 0.164E+00   -.168E-03 0.157E-03 0.335E-02
   -.220E+01 0.861E+00 -.105E+04   0.234E+01 -.874E+00 0.105E+04   -.123E+00 0.175E-01 -.300E+00   -.943E-04 -.339E-03 0.259E-02
   0.279E+02 0.109E+02 -.244E+04   -.288E+02 -.109E+02 0.244E+04   0.931E+00 -.270E-02 -.135E+00   -.870E-03 -.377E-03 -.128E-02
   -.754E+02 -.323E-04 -.281E+04   0.755E+02 0.121E-04 0.281E+04   -.625E-01 -.144E-05 0.704E+00   0.112E-02 0.242E-04 -.174E-02
   0.118E+02 0.770E-04 -.244E+04   -.127E+02 0.212E-04 0.244E+04   0.875E+00 0.328E-05 -.945E-01   -.214E-03 -.108E-03 -.123E-02
   -.609E+02 0.339E+02 -.279E+04   0.609E+02 -.339E+02 0.279E+04   0.937E-02 -.395E-01 0.706E+00   0.146E-02 0.498E-03 -.205E-02
   0.647E+01 0.453E-04 0.297E+04   -.153E+01 -.747E-05 -.297E+04   -.110E+01 -.572E-06 -.331E+01   -.117E-03 -.437E-04 0.951E-03
   0.483E+01 0.218E+00 0.243E+04   -.641E+01 -.219E+00 -.243E+04   -.843E-01 -.232E-02 -.436E-01   0.201E-03 0.478E-04 0.321E-02
   0.658E+01 0.198E-01 0.297E+04   -.168E+01 -.159E-01 -.297E+04   -.109E+01 -.309E-02 -.332E+01   -.234E-03 0.209E-03 0.417E-03
   0.260E+01 -.456E-03 0.243E+04   -.417E+01 -.110E-04 -.243E+04   -.947E-01 -.154E-04 -.454E-01   -.182E-03 0.501E-03 0.313E-02
   0.205E+01 -.658E-04 0.111E+04   -.222E+01 -.434E-04 -.111E+04   0.160E+00 -.182E-05 0.482E-01   0.410E-03 0.115E-03 0.291E-02
   0.338E+00 0.140E+01 0.701E+03   -.284E+00 -.139E+01 -.701E+03   -.450E-01 -.182E-01 -.153E+00   -.336E-03 0.192E-03 0.326E-02
   0.871E+00 0.374E+00 0.111E+04   -.104E+01 -.367E+00 -.111E+04   0.174E+00 -.112E-01 0.190E-02   0.434E-03 0.199E-04 0.280E-02
   -.893E+01 -.908E-04 0.680E+03   0.897E+01 -.342E-04 -.680E+03   -.298E-01 -.831E-06 -.649E-01   -.864E-03 0.131E-03 0.355E-02
   -.576E+00 -.823E-04 -.689E+03   0.343E+00 -.217E-04 0.689E+03   0.231E+00 -.152E-06 0.149E+00   -.365E-03 0.113E-03 0.296E-02
   -.113E+02 0.495E+01 -.103E+04   0.115E+02 -.496E+01 0.103E+04   -.115E+00 -.322E-03 -.253E+00   -.354E-04 0.147E-03 0.273E-02
   0.115E+01 0.167E+01 -.665E+03   -.142E+01 -.167E+01 0.665E+03   0.272E+00 -.212E-02 0.929E-01   0.115E-03 -.280E-03 0.342E-02
   -.251E+01 -.253E-05 -.109E+04   0.263E+01 -.453E-04 0.109E+04   -.104E+00 -.143E-06 -.181E+00   -.191E-03 0.487E-04 0.261E-02
   0.481E+02 0.249E-04 -.244E+04   -.487E+02 0.189E-04 0.244E+04   0.666E+00 0.194E-05 -.119E-01   -.871E-03 -.515E-04 -.198E-02
   -.871E+02 0.215E+02 -.280E+04   0.872E+02 -.213E+02 0.279E+04   -.353E-01 -.144E+00 0.688E+00   0.894E-03 -.474E-03 -.205E-02
   -.102E+02 0.398E+02 -.237E+04   0.935E+01 -.399E+02 0.237E+04   0.851E+00 0.207E-01 -.164E-01   -.767E-03 -.382E-03 -.100E-02
   0.113E+02 0.553E-04 -.273E+04   -.107E+02 -.164E-04 0.273E+04   -.577E+00 0.119E-05 -.390E+00   0.152E-02 -.439E-04 -.305E-02
   -.322E+02 -.176E+00 0.201E+04   0.369E+02 0.177E+00 -.202E+04   -.656E+01 0.376E-02 0.171E+02   0.416E-03 -.127E-04 -.195E-02
   -.326E+02 -.165E+00 0.201E+04   0.373E+02 0.165E+00 -.202E+04   -.655E+01 -.448E-02 0.171E+02   0.379E-03 0.394E-04 -.212E-02
   0.812E+02 -.122E-01 0.121E+04   -.860E+02 0.110E-01 -.120E+04   0.383E+01 -.451E-02 -.445E+01   0.208E-04 -.122E-04 0.199E-02
   0.749E+02 -.759E-01 0.148E+04   -.819E+02 0.775E-01 -.147E+04   0.740E+01 -.118E-01 -.269E+01   -.164E-03 -.937E-04 0.132E-02
   -.862E+02 -.136E+00 0.171E+04   0.935E+02 0.134E+00 -.171E+04   -.699E+01 0.758E-02 -.121E+00   -.962E-04 0.370E-03 0.217E-03
   -.689E+02 -.765E+00 0.934E+03   0.745E+02 0.817E+00 -.938E+03   -.571E+01 -.516E-01 0.432E+01   0.126E-03 -.117E-03 0.194E-02
   0.819E+02 0.485E-01 0.121E+04   -.867E+02 -.314E-01 -.120E+04   0.381E+01 -.135E-01 -.433E+01   0.152E-03 -.805E-04 0.215E-02
   0.740E+02 0.307E-01 0.148E+04   -.810E+02 -.387E-01 -.147E+04   0.741E+01 0.288E-01 -.270E+01   -.441E-03 -.266E-04 0.130E-02
[...]
   0.871E+02 0.363E-05 -.959E+03   -.939E+02 -.169E-04 0.966E+03   0.688E+01 0.568E-06 -.766E+01   0.167E-04 0.132E-04 0.225E-02
   0.702E+02 -.221E-04 -.633E+03   -.761E+02 0.100E-04 0.637E+03   0.598E+01 -.268E-05 -.304E+01   -.838E-04 0.149E-04 0.195E-02
   -.811E+02 0.693E+00 -.399E+03   0.874E+02 -.712E+00 0.396E+03   -.636E+01 0.252E-01 0.282E+01   -.181E-04 -.157E-03 0.208E-02
   -.663E+02 0.982E+01 -.111E+04   0.686E+02 -.101E+02 0.110E+04   -.239E+01 0.313E+00 0.987E+01   -.113E-03 -.741E-04 0.126E-02
   0.807E+02 0.871E+01 -.927E+03   -.871E+02 -.898E+01 0.933E+03   0.641E+01 0.266E+00 -.591E+01   0.865E-05 -.861E-04 0.213E-02
   0.797E+02 0.965E+00 -.647E+03   -.861E+02 -.993E+00 0.651E+03   0.645E+01 0.242E-01 -.331E+01   0.124E-04 -.147E-04 0.196E-02
   -.728E+02 -.204E-04 -.402E+03   0.789E+02 0.184E-04 0.400E+03   -.605E+01 0.279E-05 0.245E+01   0.834E-04 0.287E-05 0.217E-02
   -.615E+02 -.237E-05 -.114E+04   0.672E+02 0.114E-04 0.113E+04   -.575E+01 0.112E-06 0.627E+01   -.267E-03 -.912E-05 0.123E-02
   0.108E+03 0.638E-05 -.200E+04   -.113E+03 0.866E-05 0.202E+04   0.577E+01 0.438E-05 -.204E+02   0.251E-03 -.195E-04 -.418E-02
   0.452E+02 0.304E-04 -.177E+04   -.488E+02 0.806E-05 0.178E+04   0.361E+01 0.899E-05 -.749E+01   0.539E-03 -.453E-04 -.222E-02
   -.492E+02 0.662E+01 -.145E+04   0.541E+02 -.647E+01 0.144E+04   -.494E+01 -.153E+00 0.314E+01   -.222E-03 0.246E-03 -.454E-03
   0.118E+02 0.312E+02 -.200E+04   -.171E+02 -.311E+02 0.202E+04   0.531E+01 -.106E+00 -.196E+02   0.176E-04 -.163E-03 -.348E-02
   0.783E+02 0.459E+02 -.171E+04   -.834E+02 -.455E+02 0.172E+04   0.510E+01 -.428E+00 -.646E+01   0.513E-03 -.419E-03 -.189E-02
   -.684E+02 0.180E-04 -.136E+04   0.729E+02 0.217E-05 0.135E+04   -.446E+01 0.634E-05 0.433E+01   -.256E-03 -.237E-04 -.280E-03
   -.153E+02 -.164E-04 0.549E+02   0.369E-12 0.129E-11 -.705E-11   0.153E+02 0.542E-04 -.551E+02   0.219E-02 -.298E-04 0.160E+00

 POSITION                                       TOTAL-FORCE (eV/Angst)
      6.34213      5.68441     19.22002        -0.075315     -0.000001      0.056903
      5.69641      5.68441     20.00999        -0.033104     -0.000000      0.019214
      6.94928      4.86545     19.29664         0.039227     -0.057110     -0.015914
      6.94928      6.50336     19.29664         0.039228      0.057110     -0.015913
      8.35552      9.47401      5.72548         3.855279     -0.001188      1.649409
      6.13654      7.57921      6.60608        -1.660243      0.003736     -1.924882
      3.21864      7.57921      5.72548         3.826483     -0.001022      1.635985
      0.99966      9.47401      6.60608        -1.689925     -0.008930     -1.930146
      9.75957      9.47437      9.28903        -0.009115     -0.002997     -0.040343
      7.51700      7.57438     10.08794         0.012730     -0.000890      0.023923
      4.61807      7.57657      9.28580        -0.006488      0.003834     -0.031691
      2.37146      9.47353     10.09692         0.022034     -0.001319      0.022889
      0.93172      9.47543     12.85212        -0.008619     -0.006912     -0.033727
      8.93836      7.57219     13.55759         0.033783      0.001920      0.067650
      6.05754      7.57719     12.83162        -0.006669      0.001155     -0.030882
      3.78959      9.47473     13.58229         0.035020     -0.004358      0.070361
      2.42983      9.46625     16.48491        -0.033620     -0.001688      0.002379
      0.06494      7.56667     17.03936         0.084939      0.004372      0.057481
      7.55101      7.57738     16.41337        -0.015615      0.020181     -0.010024
      5.22381      9.48941     17.03324         0.058189      0.011753      0.062898
      8.35552      1.89480      5.72548         3.855265      0.001193      1.649402
      6.13654      0.00000      6.60608        -1.677104      0.000007     -1.927539
      3.21864      0.00000      5.72548         3.844743     -0.000010      1.642418
      0.99966      1.89480      6.60608        -1.689937      0.008913     -1.930151
      9.75957      1.89444      9.28903        -0.009133      0.002991     -0.040330
      7.51265     11.36881     10.09039         0.009558      0.000017      0.025589
      4.61992      0.00000      9.28852        -0.008795      0.000003     -0.031774
      2.37146      1.89528     10.09692         0.022033      0.001313      0.022885
      0.93172      1.89338     12.85212        -0.008611      0.006904     -0.033718
      8.92628      0.00000     13.57148         0.040007     -0.000015      0.069640
      6.06404     11.36881     12.84173        -0.011745      0.000018     -0.035479
      3.78959      1.89408     13.58229         0.035042      0.004357      0.070394
      2.42983      1.90256     16.48491        -0.033614      0.001697      0.002378
      0.08924     11.36881     17.04068         0.057335      0.000002      0.065906
      7.58388     11.36881     16.46961        -0.025545     -0.000007      0.003845
      5.22381      1.87940     17.03324         0.058192     -0.011750      0.062913
      8.35552      5.68441      5.72548         3.867783     -0.000006      1.648019
      6.13654      3.78960      6.60608        -1.660224     -0.003744     -1.924877
      3.21864      3.78960      5.72548         3.826514      0.001032      1.635979
      0.99966      5.68441      6.60608        -1.660442      0.000018     -1.864080
      9.77592      5.68441      9.28385        -0.024392      0.000004     -0.031491
      7.51700      3.79443     10.08794         0.012714      0.000872      0.023908
      4.61807      3.79224      9.28580        -0.006469     -0.003836     -0.031691
      2.37498      5.68441     10.12668         0.023901      0.000006      0.015404
      0.96349      5.68441     12.85884        -0.027446      0.000009     -0.027847
      8.93836      3.79662     13.55759         0.033769     -0.001904      0.067646
      6.05754      3.79162     12.83162        -0.006668     -0.001172     -0.030888
      3.80876      5.68441     13.66891         0.033852      0.000001      0.048023
      2.46966      5.68441     16.50312        -0.060307     -0.000006      0.012913
      0.06494      3.80214     17.03936         0.084954     -0.004373      0.057479
      7.55101      3.79143     16.41337        -0.015625     -0.020174     -0.010028
      5.25517      5.68441     17.19821         0.085304     -0.000004      0.112359
      5.07194      7.57921      4.99001        -1.788195      0.004355      0.962092
     10.20882      9.47401      4.99001        -1.785132     -0.004190      0.959882
      9.42012      9.47401      7.34155        -0.981055     -0.005742     -0.187180
      6.50222      9.47401      6.46096         0.402294     -0.010297     -0.073306
      7.98984      7.57921      5.87060         0.244727      0.005789     -1.083931
      6.46979      7.57921      8.51238        -0.114402      0.000516      0.441611
      4.28324      7.57921      7.34155        -0.986193      0.003426     -0.173119
      1.36534      7.57921      6.46096         0.413038      0.020975     -0.081567
[...]
      2.77424      5.68441     12.05627        -0.018646     -0.000001     -0.013900
      2.02691      5.68441     14.44776         0.035505      0.000000      0.047825
      9.33808      5.68441     13.49704         0.032901      0.000000      0.001002
      0.57450      3.79142     12.92875        -0.033594      0.006339      0.002212
      9.43956      3.78626     15.50614        -0.062580      0.001577     -0.028312
      7.17961      3.77877     14.40526         0.035719      0.000715      0.032213
      4.20634      3.79019     13.53304         0.029472     -0.004456     -0.005860
      5.70520      5.68441     12.95031        -0.018052      0.000004      0.001513
      4.28726      5.68441     15.59184        -0.044331     -0.000000     -0.032548
      3.59586      5.68441     17.98291        -0.019372     -0.000000      0.038111
      0.58811      5.68441     17.27820         0.028436      0.000002      0.039671
      2.05851      3.79374     16.49565        -0.056038     -0.003678      0.022612
      8.71298      3.82129     17.89773         0.023401     -0.006420      0.034718
      5.73708      3.76119     17.23361         0.019471     -0.019885      0.026281
      7.17537      5.68441     16.41854        -0.041589      0.000003     -0.014318
    total drift:                               -0.005081      0.000008     -0.042206

  FREE ENERGIE OF THE ION-ELECTRON SYSTEM (eV)
  free  energy   TOTEN  =     -1313.78357387 eV

  energy  without entropy=    -1313.78357387  energy(sigma->0) =    -1313.78357387

 writing wavefunctions