 vasp.6.3.0 20Jan22 (build Apr  1 2022 16:44:48) complex
 executed on        HPECrayEX_GCC date 2023.02.21  23:19:55

 INCAR:
   SYSTEM = MgO-rocksalt
   ISMEAR = 0
   SIGMA = 0.05
   EDIFF = 1E-8
   ALGO = ALL
   ISTART = 0
   IBRION = 5
   POTIM = 0.01
   NFREE = 2
   ISYM = 0
   DIPOL = 0.5 0.5 0.5
   IDIPOL = 3
   LDIPOL = .TRUE.
   GGA = RE
   AGGAC = 0.0
   LUSE_VDW = .TRUE.
   LASPH = .TRUE.
   ENCUT = 520
   PREC = Accurate
   LASPH = .TRUE.
   LREAL = Auto
   ISPIN = 1
   NELM = 200
   NELMIN = 8
   NCORE = 8
   KPAR = 1
   LWAVE = .FALSE.
   LCHARG = .FALSE.

 POTCAR:    PAW_PBE C 08Apr2002
 POTCAR:    PAW_PBE H 15Jun2001
 POTCAR:    PAW_PBE Mg 13Apr2007
 POTCAR:    PAW_PBE O 08Apr2002
|               ----> ADVICE to this user running VASP <----                  |
|     You have switched on vdW-DFT.                                           |
|     This routine was written and supplied by Jiri Klimes. We recommend      |
|     that you carefully read and cite the following publications:            |
|       J. Klimes, D.R. Bowler, A. Michelides                                 |
|          J. Phys.: Cond Matt. 22 022201 (2010)                              |
|       J. Klimes, D.R. Bowler, A. Michelides                                 |
|          Phys. Rev. B. 83, 195131 (2011)                                    |
|     and references therein.                                                 |

   TITEL  = PAW_PBE C 08Apr2002
   POMASS =   12.011; ZVAL   =    4.000    mass and valenz
   ENMAX  =  400.000; ENMIN  =  300.000 eV

   TITEL  = PAW_PBE H 15Jun2001
   POMASS =    1.000; ZVAL   =    1.000    mass and valenz
   ENMAX  =  250.000; ENMIN  =  200.000 eV

[...]

   TITEL  = PAW_PBE O 08Apr2002
   POMASS =   16.000; ZVAL   =    6.000    mass and valenz
   ENMAX  =  400.000; ENMIN  =  300.000 eV

 Optimization of the real space projectors (new method)

 maximal supplied QI-value         = 25.13
 optimisation between [QCUT,QGAM] = [ 11.56, 23.12] = [ 37.43,149.72] Ry
 Optimized for a Real-space Cutoff    1.04 Angstroem

   l    n(q)    QCUT    max X(q) W(low)/X(q) W(high)/X(q)  e(spline)
   0      7    11.561   115.676    0.20E-03    0.60E-03    0.21E-06
   0      7    11.561    87.132    0.20E-03    0.59E-03    0.21E-06
   1      7    11.561     4.429    0.23E-03    0.35E-03    0.15E-06
   1      7    11.561     2.733    0.18E-03    0.25E-03    0.12E-06
 Optimization of the real space projectors (new method)

[...]

   l    n(q)    QCUT    max X(q) W(low)/X(q) W(high)/X(q)  e(spline)
   0      9    11.527    28.265    0.62E-04    0.53E-04    0.73E-07
   0      9    11.527    10.429    0.52E-04    0.40E-04    0.58E-07
   1      8    11.527    13.073    0.98E-04    0.18E-03    0.86E-07
   1      8    11.527     9.625    0.79E-04    0.15E-03    0.74E-07
   2      8    11.527     4.652    0.22E-03    0.72E-04    0.47E-07
 Optimization of the real space projectors (new method)

 maximal supplied QI-value         = 24.76
 optimisation between [QCUT,QGAM] = [ 11.64, 23.27] = [ 37.91,151.63] Ry
 Optimized for a Real-space Cutoff    1.14 Angstroem

   l    n(q)    QCUT    max X(q) W(low)/X(q) W(high)/X(q)  e(spline)
   0      8    11.635    20.381    0.10E-03    0.33E-03    0.24E-06
   0      8    11.635    15.268    0.11E-03    0.35E-03    0.26E-06
   1      7    11.635     5.964    0.24E-03    0.31E-03    0.30E-06
   1      7    11.635     5.382    0.22E-03    0.25E-03    0.26E-06
|               ----> ADVICE to this user running VASP <----                  |
|     You enforced a specific xc type in the INCAR file but a different       |
|     type was found in the POTCAR file.                                      |
|     I HOPE YOU KNOW WHAT YOU ARE DOING!                                     |

  PAW_PBE C 08Apr2002                   :
  PAW_PBE H 15Jun2001                   :
  PAW_PBE Mg 13Apr2007                  :
  PAW_PBE O 08Apr2002                   :

 POSCAR:  C  H Mg  O
  positions in direct lattice
 exchange correlation table for  LEXCH =       40
   RHO(1)=    0.500       N(1)  =     2000
   RHO(2)=  100.500       N(2)  =     4000

 ion  position               nearest neighbor table
   1  0.478  0.468  0.808-   7 1.09   2 1.40   6 1.40
   2  0.559  0.458  0.807-   8 1.09   1 1.40   3 1.40
   3  0.591  0.382  0.809-   9 1.09   4 1.40   2 1.40
   4  0.542  0.317  0.812-  10 1.09   3 1.40   5 1.40
   5  0.461  0.327  0.813-  11 1.09   6 1.40   4 1.40
   6  0.428  0.402  0.811-  12 1.09   5 1.40   1 1.40
   7  0.453  0.526  0.806-   1 1.09
   8  0.597  0.509  0.804-   2 1.09
   9  0.655  0.375  0.808-   3 1.09
  10  0.567  0.258  0.813-   4 1.09
  11  0.422  0.276  0.815-   5 1.09
  12  0.365  0.410  0.812-   6 1.09
  13  0.000  0.375  0.350- 141 2.14 144 2.14 151 2.14 175 2.14 224 2.14  23 3.02  47 3.02  96 3.02
                            16 3.02  46 3.02 102 3.02 126 3.02  22 3.02
  14  0.125  0.000  0.350- 142 2.14 143 2.14 152 2.14 159 2.14 176 2.14  24 3.02  31 3.02  48 3.02
                            15 3.02  45 3.02  21 3.02  61 3.02  37 3.02
  15  0.000  0.000  0.450- 143 2.14 142 2.14 149 2.14 173 2.14 222 2.14 147 2.14  45 3.02  94 3.02
                            14 3.02  21 3.02 104 3.02 128 3.02  48 3.02  24 3.02  49 3.03  98 3.03
  16  0.125  0.375  0.450- 144 2.14 141 2.14 150 2.14 157 2.14 174 2.14 148 2.14  29 3.02  46 3.02
                            13 3.02  22 3.02  47 3.02  63 3.02  39 3.02  23 3.02  26 3.03  50 3.03
  17  0.000  0.375  0.550- 179 2.14 155 2.14 228 2.14 148 2.14 141 2.14 145 2.16  27 3.01  51 3.01
                           100 3.01  20 3.01 130 3.02  50 3.02 106 3.02  26 3.02  47 3.03  16 3.03
  18  0.125  0.000  0.550- 163 2.14 156 2.14 180 2.14 147 2.14 142 2.14 146 2.16  52 3.01  19 3.01
                            35 3.01  28 3.01  65 3.02  41 3.02  25 3.02  49 3.02  24 3.03  31 3.03
  19  0.000  0.000  0.649- 147 2.12 146 2.14 226 2.14 177 2.14 153 2.14  25 3.01  98 3.01  49 3.01
                            18 3.01 132 3.02  52 3.02 108 3.02  28 3.02
  20  0.125  0.375  0.649- 148 2.12 154 2.14 178 2.14 161 2.14 145 2.14  50 3.01  26 3.01  17 3.01
                            33 3.01  43 3.02  67 3.02  51 3.02  27 3.02
  21  0.000  0.125  0.350- 149 2.14 143 2.14 151 2.14 152 2.14 232 2.14  23 3.02  24 3.02 104 3.02
                            15 3.02  94 3.02 102 3.02  14 3.02  22 3.02
  22  0.125  0.250  0.350- 150 2.14 144 2.14 151 2.14 152 2.14 167 2.14  23 3.02  24 3.02  39 3.02
                            16 3.02  29 3.02  37 3.02  13 3.02  21 3.02
  23  0.000  0.250  0.450- 151 2.14 149 2.14 150 2.14 141 2.14 230 2.14 155 2.14  22 3.02 102 3.02
                            13 3.02  21 3.02  16 3.02 104 3.02  24 3.02  96 3.02  25 3.03 106 3.03
  24  0.125  0.125  0.450- 152 2.14 149 2.14 150 2.14 142 2.14 165 2.14 156 2.14  22 3.02  37 3.02
                            14 3.02  21 3.02  15 3.02  39 3.02  23 3.02  31 3.02  18 3.03  25 3.03
  25  1.000  0.125  0.550- 155 2.14 236 2.14 156 2.14 147 2.14 149 2.14 153 2.16  19 3.01  27 3.01
                           108 3.01  28 3.01  18 3.02  98 3.02 106 3.02  26 3.02  23 3.03 104 3.03
  26  0.125  0.250  0.550- 171 2.14 148 2.14 156 2.14 155 2.14 150 2.14 154 2.16  28 3.01  27 3.01
                            20 3.01  43 3.01  41 3.02  17 3.02  25 3.02  33 3.02  39 3.03  16 3.03
  27  1.000  0.250  0.649- 155 2.12 153 2.14 145 2.14 234 2.14 154 2.14  17 3.01  25 3.01  26 3.01
                           106 3.01  28 3.02 108 3.02 100 3.02  20 3.02
  28  0.125  0.125  0.649- 156 2.12 169 2.14 154 2.14 153 2.14 146 2.14  26 3.01  41 3.01  18 3.01
                            25 3.01  27 3.02  35 3.02  19 3.02  43 3.02
  29  0.250  0.375  0.350- 157 2.14 144 2.14 160 2.14 167 2.14 191 2.14  32 3.02  39 3.02  63 3.02
                            16 3.02  46 3.02  62 3.02  38 3.02  22 3.02
  30  0.375  0.000  0.350- 158 2.14 159 2.14 168 2.14 192 2.14 207 2.14  40 3.02  64 3.02  79 3.02
                            31 3.02  61 3.02  85 3.02 109 3.02  37 3.02
  31  0.250  0.000  0.450- 159 2.14 158 2.14 142 2.14 165 2.14 189 2.14 163 2.14  37 3.02  61 3.02
                            14 3.02  30 3.02  24 3.02  64 3.02  40 3.02  48 3.02  18 3.03  65 3.03
  32  0.375  0.375  0.450- 164 2.13 160 2.14 157 2.14 166 2.14 190 2.14 205 2.14  62 3.02  77 3.02
                            29 3.02  38 3.02  87 3.02 111 3.02  63 3.02  39 3.02  33 3.03  42 3.03
  33  0.250  0.375  0.550- 164 2.13 195 2.14 171 2.14 148 2.14 157 2.14 161 2.17  67 3.01  43 3.01
                            20 3.01  36 3.01  42 3.02  66 3.02  26 3.02  50 3.02  32 3.03  63 3.03
  34  0.375  0.000  0.550- 172 2.14 211 2.14 163 2.14 196 2.14 158 2.14 162 2.16  35 3.01  68 3.01
                            83 3.01  44 3.01  41 3.02 113 3.02  65 3.02  89 3.02  40 3.03  79 3.03
  35  0.250  0.000  0.649- 163 2.12 169 2.14 162 2.14 193 2.14 146 2.14  34 3.01  41 3.01  18 3.01
                            65 3.01  28 3.02  68 3.02  52 3.02  44 3.02
  36  0.375  0.375  0.649- 164 2.13 209 2.13 194 2.14 170 2.14 161 2.14  81 3.01  66 3.01  42 3.01
                           115 3.01  91 3.01  33 3.01  67 3.02  43 3.03
  37  0.250  0.125  0.350- 165 2.14 159 2.14 152 2.14 167 2.14 168 2.14  31 3.02  39 3.02  40 3.02
                            24 3.02  38 3.02  14 3.02  30 3.02  22 3.02
  38  0.375  0.250  0.350- 166 2.14 160 2.14 167 2.14 168 2.14 215 2.14  39 3.02  40 3.02  87 3.02
                            32 3.02  77 3.02  85 3.02  29 3.02  37 3.02
  39  0.250  0.250  0.450- 167 2.14 157 2.14 165 2.14 166 2.14 150 2.14 171 2.14  37 3.02  38 3.02
                            22 3.02  29 3.02  16 3.02  40 3.02  32 3.02  24 3.02  26 3.03  41 3.03
  40  0.375  0.125  0.450- 168 2.14 165 2.14 166 2.14 158 2.14 213 2.14 172 2.14  38 3.02  85 3.02
                            30 3.02  37 3.02  31 3.02  87 3.02  39 3.02  79 3.02  34 3.03  41 3.03
  41  0.250  0.125  0.550- 171 2.14 172 2.14 156 2.14 163 2.14 165 2.14 169 2.16  44 3.01  43 3.01
                            35 3.01  28 3.01  26 3.02  34 3.02  18 3.02  42 3.02  39 3.03  40 3.03
  42  0.375  0.250  0.550- 164 2.13 219 2.14 171 2.14 172 2.14 166 2.14 170 2.16  43 3.01  44 3.01
                            91 3.01  36 3.01  33 3.02  89 3.02  81 3.02  41 3.02  32 3.03  87 3.03
  43  0.250  0.250  0.649- 171 2.12 170 2.13 161 2.14 169 2.14 154 2.14  33 3.01  42 3.01  41 3.01
                            26 3.01  44 3.02  20 3.02  28 3.02  36 3.03
  44  0.375  0.125  0.649- 172 2.12 170 2.13 217 2.14 169 2.14 162 2.14  89 3.01  42 3.01  41 3.01
                            34 3.01  43 3.02  83 3.02  35 3.02  91 3.03
  45  0.000  0.875  0.350- 173 2.14 143 2.14 176 2.14 183 2.14 256 2.14  48 3.02  55 3.02 128 3.02
                            15 3.02  94 3.02  54 3.02 134 3.02  14 3.02
  46  0.125  0.500  0.350- 174 2.14 144 2.14 175 2.14 184 2.14 191 2.14  47 3.02  56 3.02  63 3.02
                            16 3.02  29 3.02  13 3.02  69 3.02  53 3.02
  47  0.000  0.500  0.450- 175 2.14 174 2.14 141 2.14 181 2.14 254 2.14 179 2.14  53 3.02 126 3.02
                            13 3.02  46 3.02  16 3.02 136 3.02  56 3.02  96 3.02 130 3.03  57 3.03
[...]

[...]

  33 f  =    1.913431 THz    12.022444 2PiTHz   63.825201 cm-1     7.913313 meV
             X         Y         Z           dx          dy          dz
      8.162737  7.996380 17.297663    -0.078536    0.024598    0.184964
      9.555590  7.827382 17.271908    -0.061834    0.126599    0.467737
     10.106821  6.536346 17.310596     0.027790    0.160413    0.265095
      9.265156  5.415602 17.379224     0.092621    0.082496   -0.214479
      7.871509  5.584802 17.407346     0.072216   -0.020628   -0.503842
      7.320768  6.874558 17.363947    -0.013527   -0.050926   -0.307772
      7.734407  8.997177 17.266581    -0.040363    0.000791    0.097280
     10.209446  8.695793 17.215844    -0.032729    0.055134    0.242490
     11.188630  6.405525 17.290503     0.011890    0.071266    0.137304
      9.694760  4.415110 17.408353     0.044971    0.030389   -0.106861
      7.217790  4.715311 17.457504     0.035022   -0.023234   -0.256500
      6.239665  7.007173 17.384346    -0.008301   -0.039168   -0.153688
      0.000000  6.409585  7.500000            0           0           0
      2.136528  0.000000  7.500000            0           0           0
      0.000000  0.000000  9.636528            0           0           0
      2.136528  6.409585  9.636528            0           0           0
      0.000019  6.409697 11.780515            0           0           0
      2.136771  0.000341 11.779958            0           0           0
      0.000024  0.000197 13.897841            0           0           0
      2.137403  6.409811 13.898808            0           0           0
      0.000000  2.136528  7.500000            0           0           0
      2.136528  4.273057  7.500000            0           0           0
      0.000000  4.273057  9.636528            0           0           0
      2.136528  2.136528  9.636528            0           0           0
     17.092209  2.136798 11.779903            0           0           0
      2.137024  4.273524 11.780019            0           0           0
     17.092186  4.273325 13.897965            0           0           0
      2.136793  2.137052 13.898189            0           0           0
      4.273057  6.409585  7.500000            0           0           0
      6.409585  0.000000  7.500000            0           0           0
      4.273057  0.000000  9.636528            0           0           0
      6.409585  6.409585  9.636528            0           0           0
      4.274979  6.409712 11.780189            0           0           0
      6.409918  0.000524 11.780056            0           0           0
      4.273353  0.000415 13.898173            0           0           0
      6.417168  6.410943 13.900098            0           0           0
      4.273057  2.136528  7.500000            0           0           0
      6.409585  4.273057  7.500000            0           0           0
      4.273057  4.273057  9.636528            0           0           0
      6.409585  2.136528  9.636528            0           0           0
      4.273388  2.136968 11.780028            0           0           0
      6.410881  4.274661 11.780359            0           0           0
      4.274752  4.274100 13.897534            0           0           0
      6.410414  2.138332 13.897344            0           0           0
      0.000000 14.955699  7.500000            0           0           0
      2.136528  8.546114  7.500000            0           0           0
      0.000000  8.546114  9.636528            0           0           0
      2.136528 14.955699  9.636528            0           0           0
      0.000014 14.955850 11.779791            0           0           0
      2.136751  8.545880 11.779907            0           0           0
     17.092197  8.546168 13.898226            0           0           0
      2.136538 14.955851 13.897821            0           0           0
      0.000000 10.682642  7.500000            0           0           0
      2.136528 12.819170  7.500000            0           0           0
      0.000000 12.819170  9.636528            0           0           0
      2.136528 10.682642  9.636528            0           0           0
      0.000017 10.682593 11.779918            0           0           0
      2.136633 12.819121 11.779857            0           0           0
      0.000034 12.819410 13.897745            0           0           0
      2.136755 10.682645 13.898066            0           0           0
[...]
     14.955699  8.546114  9.636528            0           0           0
     12.819170  8.546114  7.500000            0           0           0
     14.955699 14.955699  7.500000            0           0           0
     12.819105 14.955826 13.940435            0           0           0
     14.955594  8.546401 13.941199            0           0           0
     12.821090  8.546695 11.772796            0           0           0
     14.955773 14.955916 11.773784            0           0           0
     12.819170 10.682642  9.636528            0           0           0
     14.955699 12.819170  9.636528            0           0           0
     12.819170 12.819170  7.500000            0           0           0
     14.955699 10.682642  7.500000            0           0           0
     12.819729 10.683387 13.942368            0           0           0
     14.955838 12.819459 13.940156            0           0           0
     12.819327 12.819424 11.773983            0           0           0
     14.955849 10.682912 11.774017            0           0           0

  34 f/i=    0.632639 THz     3.974989 2PiTHz   21.102570 cm-1     2.616384 meV
             X         Y         Z           dx          dy          dz
      8.162737  7.996380 17.297663    -0.222236   -0.089576    0.049307
      9.555590  7.827382 17.271908    -0.230687   -0.199278    0.157121
     10.106821  6.536346 17.310596    -0.335357   -0.245076    0.175536
      9.265156  5.415602 17.379224    -0.437499   -0.174219    0.109261
      7.871509  5.584802 17.407346    -0.425583   -0.063356    0.000334
      7.320768  6.874558 17.363947    -0.321227   -0.019692   -0.029569
      7.734407  8.997177 17.266581    -0.039628   -0.015536    0.007870
     10.209446  8.695793 17.215844    -0.045977   -0.071774    0.061989
     11.188630  6.405525 17.290503    -0.099558   -0.096577    0.072596
      9.694760  4.415110 17.408353    -0.150874   -0.060797    0.039003
      7.217790  4.715311 17.457504    -0.143379   -0.003772   -0.017483
      6.239665  7.007173 17.384346    -0.089916    0.019553   -0.033263
      0.000000  6.409585  7.500000            0           0           0
      2.136528  0.000000  7.500000            0           0           0
      0.000000  0.000000  9.636528            0           0           0
      2.136528  6.409585  9.636528            0           0           0
      0.000019  6.409697 11.780515            0           0           0
      2.136771  0.000341 11.779958            0           0           0
      0.000024  0.000197 13.897841            0           0           0
      2.137403  6.409811 13.898808            0           0           0
      0.000000  2.136528  7.500000            0           0           0
      2.136528  4.273057  7.500000            0           0           0
      0.000000  4.273057  9.636528            0           0           0
      2.136528  2.136528  9.636528            0           0           0
     17.092209  2.136798 11.779903            0           0           0
      2.137024  4.273524 11.780019            0           0           0
     17.092186  4.273325 13.897965            0           0           0
      2.136793  2.137052 13.898189            0           0           0
      4.273057  6.409585  7.500000            0           0           0
      6.409585  0.000000  7.500000            0           0           0
      4.273057  0.000000  9.636528            0           0           0
      6.409585  6.409585  9.636528            0           0           0
      4.274979  6.409712 11.780189            0           0           0
      6.409918  0.000524 11.780056            0           0           0
      4.273353  0.000415 13.898173            0           0           0
      6.417168  6.410943 13.900098            0           0           0
      4.273057  2.136528  7.500000            0           0           0
      6.409585  4.273057  7.500000            0           0           0
      4.273057  4.273057  9.636528            0           0           0
      6.409585  2.136528  9.636528            0           0           0
      4.273388  2.136968 11.780028            0           0           0
      6.410881  4.274661 11.780359            0           0           0
      4.274752  4.274100 13.897534            0           0           0
      6.410414  2.138332 13.897344            0           0           0
      0.000000 14.955699  7.500000            0           0           0
      2.136528  8.546114  7.500000            0           0           0
      0.000000  8.546114  9.636528            0           0           0
      2.136528 14.955699  9.636528            0           0           0
      0.000014 14.955850 11.779791            0           0           0
      2.136751  8.545880 11.779907            0           0           0
     17.092197  8.546168 13.898226            0           0           0
      2.136538 14.955851 13.897821            0           0           0
      0.000000 10.682642  7.500000            0           0           0
      2.136528 12.819170  7.500000            0           0           0
      0.000000 12.819170  9.636528            0           0           0
      2.136528 10.682642  9.636528            0           0           0
      0.000017 10.682593 11.779918            0           0           0
      2.136633 12.819121 11.779857            0           0           0
      0.000034 12.819410 13.897745            0           0           0
      2.136755 10.682645 13.898066            0           0           0
[...]
     14.955699  8.546114  9.636528            0           0           0
     12.819170  8.546114  7.500000            0           0           0
     14.955699 14.955699  7.500000            0           0           0
     12.819105 14.955826 13.940435            0           0           0
     14.955594  8.546401 13.941199            0           0           0
     12.821090  8.546695 11.772796            0           0           0
     14.955773 14.955916 11.773784            0           0           0
     12.819170 10.682642  9.636528            0           0           0
     14.955699 12.819170  9.636528            0           0           0
     12.819170 12.819170  7.500000            0           0           0
     14.955699 10.682642  7.500000            0           0           0
     12.819729 10.683387 13.942368            0           0           0
     14.955838 12.819459 13.940156            0           0           0
     12.819327 12.819424 11.773983            0           0           0
     14.955849 10.682912 11.774017            0           0           0

[...]

  36 f/i=    1.831282 THz    11.506287 2PiTHz   61.085008 cm-1     7.573572 meV
             X         Y         Z           dx          dy          dz
      8.162737  7.996380 17.297663    -0.038414    0.219979   -0.510728
      9.555590  7.827382 17.271908    -0.038931    0.164584   -0.287155
     10.106821  6.536346 17.310596    -0.085326    0.151574   -0.016043
      9.265156  5.415602 17.379224    -0.129381    0.187147    0.044948
      7.871509  5.584802 17.407346    -0.127857    0.241541   -0.169630
      7.320768  6.874558 17.363947    -0.079219    0.253546   -0.448244
      7.734407  8.997177 17.266581    -0.000480    0.066103   -0.205965
     10.209446  8.695793 17.215844    -0.000163    0.038265   -0.093583
     11.188630  6.405525 17.290503    -0.025042    0.033369    0.043559
      9.694760  4.415110 17.408353    -0.048247    0.051114    0.074087
      7.217790  4.715311 17.457504    -0.047609    0.078564   -0.034537
      6.239665  7.007173 17.384346    -0.022613    0.083501   -0.175466
      0.000000  6.409585  7.500000            0           0           0
      2.136528  0.000000  7.500000            0           0           0
      0.000000  0.000000  9.636528            0           0           0
      2.136528  6.409585  9.636528            0           0           0
      0.000019  6.409697 11.780515            0           0           0
      2.136771  0.000341 11.779958            0           0           0
      0.000024  0.000197 13.897841            0           0           0
      2.137403  6.409811 13.898808            0           0           0
      0.000000  2.136528  7.500000            0           0           0
      2.136528  4.273057  7.500000            0           0           0
      0.000000  4.273057  9.636528            0           0           0
      2.136528  2.136528  9.636528            0           0           0
     17.092209  2.136798 11.779903            0           0           0
      2.137024  4.273524 11.780019            0           0           0
     17.092186  4.273325 13.897965            0           0           0
      2.136793  2.137052 13.898189            0           0           0
      4.273057  6.409585  7.500000            0           0           0
      6.409585  0.000000  7.500000            0           0           0
      4.273057  0.000000  9.636528            0           0           0
      6.409585  6.409585  9.636528            0           0           0
      4.274979  6.409712 11.780189            0           0           0
      6.409918  0.000524 11.780056            0           0           0
      4.273353  0.000415 13.898173            0           0           0
      6.417168  6.410943 13.900098            0           0           0
      4.273057  2.136528  7.500000            0           0           0
      6.409585  4.273057  7.500000            0           0           0
      4.273057  4.273057  9.636528            0           0           0
      6.409585  2.136528  9.636528            0           0           0
      4.273388  2.136968 11.780028            0           0           0
      6.410881  4.274661 11.780359            0           0           0
      4.274752  4.274100 13.897534            0           0           0
      6.410414  2.138332 13.897344            0           0           0
      0.000000 14.955699  7.500000            0           0           0
      2.136528  8.546114  7.500000            0           0           0
      0.000000  8.546114  9.636528            0           0           0
      2.136528 14.955699  9.636528            0           0           0
      0.000014 14.955850 11.779791            0           0           0
      2.136751  8.545880 11.779907            0           0           0
     17.092197  8.546168 13.898226            0           0           0
      2.136538 14.955851 13.897821            0           0           0
      0.000000 10.682642  7.500000            0           0           0
      2.136528 12.819170  7.500000            0           0           0
      0.000000 12.819170  9.636528            0           0           0
      2.136528 10.682642  9.636528            0           0           0
      0.000017 10.682593 11.779918            0           0           0
      2.136633 12.819121 11.779857            0           0           0
      0.000034 12.819410 13.897745            0           0           0
      2.136755 10.682645 13.898066            0           0           0
[...]
     14.955699  8.546114  9.636528            0           0           0
     12.819170  8.546114  7.500000            0           0           0
     14.955699 14.955699  7.500000            0           0           0
     12.819105 14.955826 13.940435            0           0           0
     14.955594  8.546401 13.941199            0           0           0
     12.821090  8.546695 11.772796            0           0           0
     14.955773 14.955916 11.773784            0           0           0
     12.819170 10.682642  9.636528            0           0           0
     14.955699 12.819170  9.636528            0           0           0
     12.819170 12.819170  7.500000            0           0           0
     14.955699 10.682642  7.500000            0           0           0
     12.819729 10.683387 13.942368            0           0           0
     14.955838 12.819459 13.940156            0           0           0
     12.819327 12.819424 11.773983            0           0           0
     14.955849 10.682912 11.774017            0           0           0

 Finite differences POTIM=   1.0000000000000000E-002