 vasp.6.4.2 20Jul23 (build Feb 22 2024 13:53:45) complex
 executed on              LinuxNV date 2024.08.27  20:11:13
 OpenACC runtime initialized ...    4 GPUs detected

 INCAR:
   SYSTEM = Oxide-Surface
   ISMEAR = 0
   SIGMA = 0.05
   EDIFF = 1E-5
   ALGO = Normal
   IBRION = -1
   NSW = 0
   ISYM = 0
   DIPOL = 0.5 0.5 0.5
   IDIPOL = 3
   LDIPOL = .TRUE.
   ISTART = 0
   LHFCALC = .FALSE.
   GGA = PE
   IVDW = 21
   VDW_SR = 0.96
   HFRCUT = -1
   ENCUT = 520
   PREC = Normal
   PRECFOCK = Normal
   LASPH = .TRUE.
   LREAL = Auto
   ISPIN = 1
   NELM = 200
   NELMIN = 8
   NCORE = 1
   KPAR = 1
   LWAVE = .TRUE.
   LCHARG = .FALSE.

 POTCAR:    PAW_PBE N 08Apr2002
 POTCAR:    PAW_PBE O 08Apr2002
 POTCAR:    PAW_PBE Mg_pv 13Apr2007
 POTCAR:    PAW_PBE O 08Apr2002
 POTCAR:    PAW_PBE N 08Apr2002
   VRHFIN =N: s2p3

   TITEL  = PAW_PBE N 08Apr2002
   POMASS =   14.001; ZVAL   =    5.000    mass and valenz
   ENMAX  =  400.000; ENMIN  =  300.000 eV

[...]

   TITEL  = PAW_PBE Mg_pv 13Apr2007
   POMASS =   24.305; ZVAL   =    8.000    mass and valenz
   ENMAX  =  403.929; ENMIN  =  302.947 eV

   TITEL  = PAW_PBE O 08Apr2002
   POMASS =   16.000; ZVAL   =    6.000    mass and valenz
   ENMAX  =  400.000; ENMIN  =  300.000 eV

 Optimization of the real space projectors (new method)

 maximal supplied QI-value         = 25.13
 optimisation between [QCUT,QGAM] = [ 11.56, 23.12] = [ 37.43,149.72] Ry
 Optimized for a Real-space Cutoff    1.25 Angstroem

   l    n(q)    QCUT    max X(q) W(low)/X(q) W(high)/X(q)  e(spline)
   0      9    11.561    79.467    0.52E-04    0.16E-03    0.37E-06
   0      9    11.561    66.151    0.51E-04    0.16E-03    0.37E-06
   1      8    11.561    18.886    0.46E-03    0.28E-03    0.80E-06
   1      8    11.561    13.488    0.47E-03    0.29E-03    0.82E-06
 Optimization of the real space projectors (new method)

[...]

   l    n(q)    QCUT    max X(q) W(low)/X(q) W(high)/X(q)  e(spline)
   1      8    11.527     2.974    0.16E-03    0.13E-03    0.98E-07
   1      8    11.527     4.279    0.42E-03    0.30E-03    0.22E-06
   0      8    11.527    16.381    0.13E-03    0.20E-03    0.72E-07
   0      8    11.527     5.611    0.88E-04    0.13E-03    0.50E-07
   2      7    11.527     4.652    0.25E-03    0.73E-04    0.51E-07
 Optimization of the real space projectors (new method)

 maximal supplied QI-value         = 24.76
 optimisation between [QCUT,QGAM] = [ 11.64, 23.27] = [ 37.91,151.63] Ry
 Optimized for a Real-space Cutoff    1.04 Angstroem

   l    n(q)    QCUT    max X(q) W(low)/X(q) W(high)/X(q)  e(spline)
   0      7    11.635    20.381    0.14E-03    0.49E-03    0.18E-06
   0      7    11.635    15.268    0.16E-03    0.52E-03    0.19E-06
   1      7    11.635     5.964    0.30E-03    0.44E-03    0.22E-06
   1      7    11.635     5.382    0.27E-03    0.34E-03    0.19E-06
  PAW_PBE N 08Apr2002                   :
  PAW_PBE O 08Apr2002                   :
  PAW_PBE Mg_pv 13Apr2007               :
  PAW_PBE O 08Apr2002                   :

 POSCAR:  N  O Mg  O
  positions in direct lattice
 exchange correlation table for  LEXCH =        8
   RHO(1)=    0.500       N(1)  =     2000
   RHO(2)=  100.500       N(2)  =     4000

 ion  position               nearest neighbor table
   1  0.525  0.547  0.776-   2 1.14
   2  0.624  0.638  0.766-   1 1.14   3 1.20
   3  0.727  0.733  0.755-   2 1.20
   4  0.000  0.750  0.224-  36 2.11  39 2.11  46 2.11  38 2.11  55 2.11
   5  0.250  0.000  0.224-  37 2.11  38 2.11  39 2.11  54 2.11  47 2.11
   6  0.000  0.000  0.349-  38 2.11  37 2.11  36 2.11  44 2.11  53 2.11  42 2.12
   7  0.250  0.750  0.349-  39 2.11  36 2.11  45 2.11  37 2.11  52 2.11  43 2.12
   8  1.000  0.750  0.474-  59 2.11  42 2.11  50 2.11  43 2.11  36 2.13  40 2.14
   9  0.250  1.000  0.474-  42 2.11  51 2.11  58 2.11  43 2.11  37 2.13  41 2.15
  10  0.000  0.000  0.597-  57 2.11  40 2.11  42 2.11  48 2.11  41 2.11
  11  0.250  0.750  0.597-  40 2.11  43 2.11  49 2.11  56 2.11  41 2.11
  12  0.000  0.250  0.224-  44 2.11  47 2.11  46 2.11  38 2.11  63 2.11
  13  0.250  0.500  0.224-  45 2.11  39 2.11  46 2.11  47 2.11  62 2.11
  14  0.000  0.500  0.349-  46 2.11  45 2.11  36 2.11  44 2.11  61 2.11  50 2.12
  15  0.250  0.250  0.349-  47 2.11  44 2.11  45 2.11  60 2.11  37 2.11  51 2.12
  16  0.000  0.250  0.474-  42 2.11  50 2.11  51 2.11  67 2.11  44 2.13  48 2.15
  17  0.250  0.500  0.473-  50 2.11  51 2.11  43 2.11  66 2.11  45 2.12  49 2.15
  18  0.000  0.500  0.597-  49 2.11  50 2.11  40 2.11  48 2.11  65 2.12
  19  0.250  0.250  0.598-  49 2.11  64 2.11  48 2.11  41 2.11  51 2.11
  20  0.500  0.750  0.224-  52 2.11  62 2.11  54 2.11  55 2.11  39 2.11
  21  0.750  0.000  0.224-  53 2.11  54 2.11  55 2.11  38 2.11  63 2.11
  22  0.500  0.000  0.349-  54 2.11  52 2.11  53 2.11  37 2.11  60 2.11  58 2.12
  23  0.750  0.750  0.349-  55 2.11  61 2.11  52 2.11  53 2.11  36 2.11  59 2.12
  24  0.500  0.750  0.474-  59 2.11  58 2.11  66 2.11  43 2.11  52 2.13  56 2.16
  25  0.750  1.000  0.474-  59 2.11  42 2.11  58 2.11  67 2.11  53 2.13  57 2.14
  26  0.500  0.000  0.597-  64 2.11  58 2.11  57 2.11  41 2.11  56 2.11
  27  0.751  0.751  0.598-  40 2.11  57 2.11  65 2.12  56 2.12  59 2.12
  28  0.500  0.250  0.224-  60 2.11  47 2.11  62 2.11  63 2.11  54 2.11
  29  0.750  0.500  0.224-  61 2.11  55 2.11  62 2.11  63 2.11  46 2.11
  30  0.500  0.500  0.349-  62 2.11  52 2.11  60 2.11  61 2.11  45 2.11  66 2.12
  31  0.750  0.250  0.349-  63 2.11  61 2.11  60 2.11  53 2.11  44 2.11  67 2.12
  32  0.500  0.250  0.473-  58 2.11  51 2.11  67 2.11  66 2.11  60 2.12  64 2.15
  33  0.750  0.500  0.474-  59 2.11  50 2.11  66 2.11  67 2.11  61 2.13  65 2.16
  34  0.499  0.499  0.597-  66 2.10  49 2.10  64 2.10  65 2.12  56 2.12
  35  0.750  0.250  0.597-  57 2.11  67 2.11  64 2.11  65 2.11  48 2.11
  36  0.000  0.750  0.349-   4 2.11   7 2.11  14 2.11   6 2.11  23 2.11   8 2.13
  37  0.250  0.000  0.349-   5 2.11   6 2.11   7 2.11  22 2.11  15 2.11   9 2.13
  38  0.000  0.000  0.224-   6 2.11   5 2.11   4 2.11  12 2.11  21 2.11
  39  0.250  0.750  0.224-   7 2.11   4 2.11  13 2.11   5 2.11  20 2.11
  40  0.001  0.750  0.600-  11 2.11  27 2.11  18 2.11  10 2.11   8 2.14
  41  0.250  1.000  0.600-  19 2.11  10 2.11  26 2.11  11 2.11   9 2.15
  42  0.000  0.000  0.473-   9 2.11  16 2.11  25 2.11  10 2.11   8 2.11   6 2.12
  43  0.250  0.750  0.473-  11 2.11   9 2.11  24 2.11  17 2.11   8 2.11   7 2.12
  44  0.000  0.250  0.349-  12 2.11  15 2.11  14 2.11   6 2.11  31 2.11  16 2.13
  45  0.250  0.500  0.349-  13 2.11   7 2.11  14 2.11  15 2.11  30 2.11  17 2.12
  46  0.000  0.500  0.224-  14 2.11  13 2.11   4 2.11  12 2.11  29 2.11
  47  0.250  0.250  0.224-  15 2.11  12 2.11  13 2.11  28 2.11   5 2.11
  48  1.000  0.250  0.600-  19 2.11  10 2.11  18 2.11  35 2.11  16 2.15
  49  0.250  0.500  0.600-  34 2.10  18 2.11  19 2.11  11 2.11  17 2.15
  50  1.000  0.500  0.473-  33 2.11  18 2.11  16 2.11  17 2.11   8 2.11  14 2.12
  51  0.250  0.250  0.473-   9 2.11  16 2.11  32 2.11  17 2.11  19 2.11  15 2.12
  52  0.500  0.750  0.349-  20 2.11  30 2.11  22 2.11  23 2.11   7 2.11  24 2.13
  53  0.750  0.000  0.349-  21 2.11  22 2.11  23 2.11   6 2.11  31 2.11  25 2.13
  54  0.500  0.000  0.224-  22 2.11  20 2.11  21 2.11   5 2.11  28 2.11
  55  0.750  0.750  0.224-  23 2.11  29 2.11  20 2.11  21 2.11   4 2.11
  56  0.500  0.750  0.601-  11 2.11  26 2.11  34 2.12  27 2.12  24 2.16
  57  0.750  0.001  0.600-  35 2.11  27 2.11  26 2.11  10 2.11  25 2.14
  58  0.500  1.000  0.473-  26 2.11  24 2.11  32 2.11   9 2.11  25 2.11  22 2.12
  59  0.750  0.750  0.473-  33 2.11  24 2.11   8 2.11  25 2.11  27 2.12  23 2.12
  60  0.500  0.250  0.349-  28 2.11  15 2.11  30 2.11  31 2.11  22 2.11  32 2.12
  61  0.750  0.500  0.349-  29 2.11  23 2.11  30 2.11  31 2.11  14 2.11  33 2.13
  62  0.500  0.500  0.224-  30 2.11  20 2.11  28 2.11  29 2.11  13 2.11
  63  0.750  0.250  0.224-  31 2.11  29 2.11  28 2.11  21 2.11  12 2.11
  64  0.500  0.250  0.600-  34 2.10  26 2.11  19 2.11  35 2.11  32 2.15
  65  0.750  0.500  0.601-  35 2.11  18 2.12  34 2.12  27 2.12  33 2.16
  66  0.500  0.500  0.473-  34 2.10  33 2.11  24 2.11  32 2.11  17 2.11  30 2.12
  67  0.750  0.250  0.473-  35 2.11  16 2.11  33 2.11  32 2.11  25 2.11  31 2.12

IMPORTANT INFORMATION: All symmetrisations will be switched off!
NOSYMM: (Re-)initialisation of all symmetry stuff for point group C_1.

                                     Primitive cell

  volume of cell :    1211.2538

  direct lattice vectors                    reciprocal lattice vectors
     8.440984654  0.000000000  0.000000000     0.118469591  0.000000000  0.000000000
     0.000000000  8.440984654  0.000000000     0.000000000  0.118469591  0.000000000
     0.000000000  0.000000000 17.000000000     0.000000000  0.000000000  0.058823529

  length of vectors
     8.440984654  8.440984654 17.000000000     0.118469591  0.118469591  0.058823529

  position of ions in fractional coordinates (direct lattice)
     0.524944584  0.547217405  0.775559749
     0.623769281  0.637956602  0.766018695
     0.727373100  0.733121941  0.754888579
     0.000013589  0.750000194  0.224440251
     0.250013589  0.000000194  0.224440251
     0.000013589  0.000000194  0.348572378
     0.250013589  0.750000194  0.348572378
     0.999966561  0.750070127  0.473605150
     0.249973769  0.999999806  0.473574844
     0.000085356  0.000081940  0.597372974
     0.249911674  0.749854424  0.597278904
     0.000013589  0.250000194  0.224440251
     0.250013589  0.500000194  0.224440251
     0.000013589  0.500000194  0.348572378
     0.250013589  0.250000194  0.348572378
     0.000017243  0.249980157  0.473578238
     0.249762180  0.499976802  0.473496967
     0.000015781  0.500169160  0.597346508
     0.249951061  0.249969241  0.597528815
     0.500013589  0.750000194  0.224440251
     0.750013589  0.000000194  0.224440251
     0.500013589  0.000000194  0.348572378
     0.750013589  0.750000194  0.348572378
     0.500273599  0.749982319  0.473747038
     0.750103789  0.999951129  0.473603294
     0.500188527  0.000063732  0.597268966
     0.751053112  0.750996103  0.598352833
     0.500013589  0.250000194  0.224440251
     0.750013589  0.500000194  0.224440251
     0.500013589  0.500000194  0.348572378
     0.750013589  0.250000194  0.348572378
     0.499983585  0.249784354  0.473489942
     0.749980441  0.500264035  0.473747642
     0.498953542  0.498986092  0.596951454
     0.749883494  0.249927580  0.597279352
     0.000013589  0.750000194  0.348572378
     0.250013589  0.000000194  0.348572378
     0.000013589  0.000000194  0.224440251
     0.250013589  0.750000194  0.224440251
     0.000512942  0.750094692  0.599721879
     0.250123386  0.999979282  0.600249487
     0.000150473  0.000132421  0.473209985
     0.250249984  0.750027907  0.473193538
     0.000013589  0.250000194  0.348572378
     0.250013589  0.500000194  0.348572378
     0.000013589  0.500000194  0.224440251
     0.250013589  0.250000194  0.224440251
     0.999986411  0.250117343  0.600233718
     0.249734853  0.499887790  0.599784938
     0.999791148  0.499924508  0.473255248
     0.249972411  0.249941824  0.473253190
[...]
  VDW_SR =     0.960
  VDW_D =    20.000
  LVDW_ONECELL = F F F
  LVDW_SAMETYPE T T T T
  LVDW_EWALD = F

  Number of pair interactions contributing to vdW energy:  978191
  Edisp (eV):   -3.68298

  FORCE on cell =-STRESS in cart. coord.  units (eV):
  Direction    XX          YY          ZZ          XY          YZ          ZX
  Alpha Z  1162.83505  1162.83505  1162.83505
  Ewald   80151.99013 80078.81429************   401.80398   -85.17762   -93.68739
  Hartree 91178.44116 91143.04054-84125.51246   179.63154   -39.24563   -42.70450
  E(xc)   -2528.25010 -2528.44488 -2534.44400     1.14359    -0.23342    -0.25191
  Local  ************************180381.84676  -539.92505   115.98670   126.99508
  n-local -2857.46175 -2857.00243 -2875.63074    -2.66841     0.53082     0.54282
  augment  1054.96397  1055.20830  1046.97993    -1.43714     0.31033     0.34890
  Kinetic  7609.09174  7615.68843  7688.91228   -38.69261     7.88192     8.88057
  Fock        0.00000     0.00000     0.00000     0.00000     0.00000     0.00000
  vdW        -5.20033    -5.19971    -3.71763    -0.00623     0.01031     0.00230
  Total     -21.23354   -21.15106     3.52547    -0.15033     0.06341     0.12587
  in kB     -28.08652   -27.97741     4.66329    -0.19885     0.08388     0.16650

 VOLUME and BASIS-vectors are now :
  energy-cutoff  :      520.00
  volume of cell :     1211.25
      direct lattice vectors                 reciprocal lattice vectors
     8.440984654  0.000000000  0.000000000     0.118469591  0.000000000  0.000000000
     0.000000000  8.440984654  0.000000000     0.000000000  0.118469591  0.000000000
     0.000000000  0.000000000 17.000000000     0.000000000  0.000000000  0.058823529

  length of vectors
     8.440984654  8.440984654 17.000000000     0.118469591  0.118469591  0.058823529

 FORCES acting on ions
    electron-ion (+dipol)            ewald-force                    non-local-force                 convergence-correction
   0.214E+03 0.196E+03 -.817E+03   -.250E+03 -.230E+03 0.824E+03   0.369E+02 0.338E+02 -.729E+01   0.176E-04 0.205E-04 -.188E-03
   0.167E+02 0.154E+02 -.834E+03   -.165E+02 -.153E+02 0.834E+03   -.203E+00 -.195E+00 -.117E+00   0.243E-03 0.224E-03 -.274E-03
   -.219E+03 -.202E+03 -.102E+04   0.266E+03 0.244E+03 0.101E+04   -.466E+02 -.428E+02 0.858E+01   -.190E-03 -.183E-03 -.318E-03
   -.827E+00 -.644E+00 0.171E+04   0.830E+00 0.645E+00 -.170E+04   -.170E-02 -.829E-03 -.705E+01   0.160E-04 0.417E-04 -.160E-03
   0.702E+00 -.777E+00 0.171E+04   -.704E+00 0.779E+00 -.170E+04   0.114E-02 -.181E-02 -.705E+01   -.113E-03 0.183E-04 -.166E-03
   -.951E+00 -.105E+01 0.593E+03   0.965E+00 0.107E+01 -.594E+03   -.111E-01 -.102E-01 0.515E+00   0.163E-04 0.210E-05 0.405E-03
   0.995E+00 -.868E+00 0.594E+03   -.964E+00 0.884E+00 -.595E+03   -.219E-01 -.117E-01 0.500E+00   0.504E-05 0.619E-04 0.449E-03
   -.631E+01 -.291E+01 -.505E+03   0.628E+01 0.292E+01 0.506E+03   0.330E-01 -.103E-01 -.379E+00   0.134E-03 0.876E-04 0.367E-03
   0.315E+01 -.415E+01 -.516E+03   -.316E+01 0.415E+01 0.517E+03   0.136E-01 -.165E-02 -.179E+00   -.141E-03 -.111E-03 0.319E-03
   -.197E+02 -.204E+02 -.163E+04   0.197E+02 0.204E+02 0.162E+04   0.940E-03 -.169E-02 0.601E+01   -.393E-04 -.335E-04 0.247E-03
   0.224E+02 -.154E+02 -.161E+04   -.225E+02 0.154E+02 0.161E+04   0.115E+00 0.764E-02 0.600E+01   0.163E-03 -.138E-03 0.345E-03
   -.689E+00 0.641E+00 0.171E+04   0.691E+00 -.642E+00 -.170E+04   -.200E-02 0.737E-03 -.705E+01   0.262E-04 -.484E-04 -.182E-03
   0.849E+00 0.780E+00 0.171E+04   -.851E+00 -.783E+00 -.170E+04   0.124E-02 0.182E-02 -.704E+01   -.110E-03 -.132E-04 -.158E-03
   -.989E+00 0.107E+01 0.594E+03   0.952E+00 -.108E+01 -.595E+03   0.259E-01 0.855E-02 0.531E+00   -.818E-04 0.154E-05 0.341E-03
   0.942E+00 0.849E+00 0.593E+03   -.957E+00 -.866E+00 -.593E+03   0.113E-01 0.125E-01 0.525E+00   -.615E-04 -.606E-04 0.345E-03
   -.367E+01 0.279E+01 -.517E+03   0.367E+01 -.280E+01 0.517E+03   -.225E-02 0.834E-02 -.187E+00   -.112E-03 -.837E-04 0.358E-03
   0.511E+01 0.427E+01 -.508E+03   -.514E+01 -.427E+01 0.508E+03   0.286E-01 0.334E-02 -.291E+00   -.499E-04 0.104E-03 0.477E-03
   -.250E+02 0.218E+02 -.161E+04   0.252E+02 -.218E+02 0.161E+04   -.140E+00 -.205E-02 0.601E+01   -.327E-04 0.259E-04 0.373E-03
   0.141E+02 0.139E+02 -.164E+04   -.141E+02 -.139E+02 0.163E+04   0.580E-02 0.793E-03 0.600E+01   0.330E-04 0.143E-03 0.400E-03
   0.834E+00 -.795E+00 0.171E+04   -.836E+00 0.795E+00 -.170E+04   0.126E-02 -.322E-03 -.706E+01   -.181E-04 0.459E-04 -.868E-04
   -.705E+00 -.916E+00 0.171E+04   0.707E+00 0.918E+00 -.170E+04   -.127E-02 -.150E-02 -.705E+01   0.109E-03 0.634E-05 -.167E-03
   0.971E+00 -.111E+01 0.594E+03   -.983E+00 0.107E+01 -.595E+03   0.936E-02 0.238E-01 0.526E+00   -.147E-04 -.686E-04 0.362E-03
   -.102E+01 -.906E+00 0.596E+03   0.999E+00 0.885E+00 -.596E+03   0.153E-01 0.161E-01 0.567E+00   0.438E-05 -.290E-04 0.332E-03
   0.652E+01 -.493E+01 -.499E+03   -.648E+01 0.495E+01 0.499E+03   -.394E-01 -.215E-01 -.117E+00   -.136E-03 -.627E-05 0.555E-03
   -.328E+01 -.680E+01 -.505E+03   0.330E+01 0.677E+01 0.506E+03   -.147E-01 0.330E-01 -.389E+00   0.140E-03 0.140E-03 0.355E-03
   0.212E+02 -.287E+02 -.161E+04   -.213E+02 0.289E+02 0.160E+04   -.382E-02 -.128E+00 0.602E+01   0.350E-04 -.159E-03 0.422E-03
   -.309E+02 -.269E+02 -.152E+04   0.312E+02 0.271E+02 0.151E+04   -.245E+00 -.222E+00 0.562E+01   -.156E-03 -.137E-03 0.506E-03
   0.691E+00 0.787E+00 0.171E+04   -.694E+00 -.789E+00 -.170E+04   0.199E-02 0.786E-03 -.704E+01   -.246E-04 -.432E-04 -.177E-03
   -.856E+00 0.922E+00 0.171E+04   0.857E+00 -.924E+00 -.170E+04   -.706E-03 0.109E-02 -.706E+01   0.114E-03 -.874E-05 -.630E-04
   0.101E+01 0.113E+01 0.596E+03   -.985E+00 -.111E+01 -.596E+03   -.169E-01 -.165E-01 0.531E+00   0.740E-04 0.579E-04 0.381E-03
   -.962E+00 0.885E+00 0.594E+03   0.976E+00 -.853E+00 -.595E+03   -.105E-01 -.228E-01 0.502E+00   0.639E-04 0.343E-04 0.467E-03
   0.376E+01 0.470E+01 -.508E+03   -.377E+01 -.472E+01 0.508E+03   0.482E-02 0.280E-01 -.260E+00   0.107E-03 0.509E-05 0.404E-03
   -.533E+01 0.700E+01 -.500E+03   0.534E+01 -.696E+01 0.500E+03   -.218E-01 -.395E-01 -.101E+00   0.490E-04 -.135E-03 0.497E-03
   0.311E+02 0.359E+02 -.154E+04   -.314E+02 -.362E+02 0.154E+04   0.203E+00 0.226E+00 0.594E+01   0.301E-04 0.153E-03 0.506E-03
   -.152E+02 0.191E+02 -.162E+04   0.152E+02 -.192E+02 0.161E+04   0.134E-02 0.112E+00 0.599E+01   -.313E-04 0.137E-03 0.331E-03
   -.814E+00 -.554E+00 0.445E+03   0.819E+00 0.553E+00 -.445E+03   -.673E-02 0.118E-02 -.999E-01   0.131E-04 0.130E-04 0.201E-03
   0.622E+00 -.762E+00 0.444E+03   -.622E+00 0.758E+00 -.444E+03   0.133E-02 0.593E-02 -.121E+00   -.369E-04 -.293E-04 0.183E-03
   -.548E+00 -.605E+00 0.128E+04   0.551E+00 0.607E+00 -.129E+04   -.367E-02 -.342E-02 0.349E+01   0.245E-04 0.215E-04 -.241E-03
   0.612E+00 -.518E+00 0.128E+04   -.611E+00 0.520E+00 -.129E+04   -.132E-02 -.301E-02 0.349E+01   -.319E-04 0.383E-04 -.174E-03
   -.285E+02 -.879E+01 -.122E+04   0.285E+02 0.879E+01 0.122E+04   0.970E-02 -.271E-03 -.505E+01   0.293E-04 -.954E-05 0.332E-03
   0.880E+01 -.110E+02 -.124E+04   -.879E+01 0.110E+02 0.125E+04   -.111E-01 0.217E-01 -.503E+01   -.262E-06 -.423E-04 0.310E-03
   -.346E+01 -.368E+01 -.380E+03   0.345E+01 0.367E+01 0.380E+03   0.120E-01 0.117E-01 0.226E+00   -.268E-05 0.424E-05 0.323E-03
   0.334E+01 -.279E+01 -.376E+03   -.334E+01 0.279E+01 0.376E+03   -.366E-02 -.183E-02 0.263E+00   -.340E-05 0.798E-05 0.357E-03
   -.674E+00 0.548E+00 0.444E+03   0.670E+00 -.550E+00 -.444E+03   0.586E-02 0.252E-02 -.119E+00   -.259E-04 -.179E-04 0.190E-03
   0.768E+00 0.771E+00 0.445E+03   -.755E+00 -.766E+00 -.445E+03   -.163E-01 -.740E-02 -.833E-01   -.307E-04 0.262E-04 0.188E-03
   -.589E+00 0.607E+00 0.128E+04   0.588E+00 -.610E+00 -.129E+04   0.116E-02 0.356E-02 0.349E+01   0.394E-06 -.177E-04 -.185E-03
   0.553E+00 0.515E+00 0.128E+04   -.555E+00 -.518E+00 -.129E+04   0.330E-02 0.297E-02 0.350E+01   -.497E-04 -.396E-04 -.228E-03
   -.957E+01 0.773E+01 -.125E+04   0.955E+01 -.772E+01 0.125E+04   0.195E-01 -.674E-02 -.503E+01   -.236E-04 0.167E-04 0.299E-03
   0.212E+02 0.122E+02 -.122E+04   -.213E+02 -.122E+02 0.123E+04   0.584E-01 -.120E-01 -.508E+01   0.377E-04 0.358E-04 0.407E-03
   -.370E+01 0.380E+01 -.377E+03   0.370E+01 -.380E+01 0.376E+03   -.782E-03 0.995E-03 0.262E+00   -.188E-04 -.840E-05 0.346E-03
   0.282E+01 0.267E+01 -.383E+03   -.281E+01 -.266E+01 0.382E+03   -.110E-01 -.105E-01 0.184E+00   -.357E-04 -.266E-05 0.346E-03
   0.854E+00 -.735E+00 0.446E+03   -.872E+00 0.740E+00 -.446E+03   0.248E-01 -.644E-02 -.150E+00   -.205E-04 0.141E-04 0.207E-03
   -.628E+00 -.903E+00 0.445E+03   0.626E+00 0.907E+00 -.445E+03   0.281E-02 -.651E-02 -.991E-01   0.362E-04 0.128E-04 0.200E-03
   0.550E+00 -.664E+00 0.128E+04   -.553E+00 0.663E+00 -.129E+04   0.408E-02 0.111E-02 0.349E+01   -.237E-04 0.606E-05 -.184E-03
   -.617E+00 -.562E+00 0.128E+04   0.616E+00 0.560E+00 -.129E+04   0.227E-02 0.273E-02 0.348E+01   0.355E-04 0.132E-04 -.167E-03
   0.347E+02 -.254E+02 -.117E+04   -.346E+02 0.254E+02 0.118E+04   -.111E+00 0.364E-01 -.476E+01   -.351E-04 -.537E-04 0.395E-03
   -.100E+02 -.302E+02 -.122E+04   0.100E+02 0.302E+02 0.122E+04   -.868E-03 0.218E-01 -.505E+01   0.683E-05 0.148E-04 0.335E-03
   0.359E+01 -.420E+01 -.376E+03   -.358E+01 0.419E+01 0.376E+03   0.724E-04 0.422E-02 0.275E+00   0.493E-06 -.323E-04 0.331E-03
   -.355E+01 -.311E+01 -.368E+03   0.356E+01 0.313E+01 0.368E+03   -.130E-01 -.156E-01 0.793E-01   0.292E-05 -.129E-04 0.372E-03
   0.683E+00 0.693E+00 0.445E+03   -.678E+00 -.683E+00 -.445E+03   -.697E-02 -.130E-01 -.842E-01   0.266E-04 -.587E-05 0.190E-03
   -.813E+00 0.941E+00 0.446E+03   0.818E+00 -.959E+00 -.446E+03   -.742E-02 0.244E-01 -.151E+00   0.371E-04 -.144E-04 0.199E-03
   0.594E+00 0.670E+00 0.128E+04   -.592E+00 -.668E+00 -.129E+04   -.183E-02 -.187E-02 0.349E+01   -.413E-05 -.545E-05 -.158E-03
   -.555E+00 0.557E+00 0.128E+04   0.557E+00 -.555E+00 -.129E+04   -.307E-02 -.204E-02 0.349E+01   0.495E-04 -.150E-04 -.180E-03
   0.104E+02 0.196E+02 -.123E+04   -.104E+02 -.197E+02 0.123E+04   -.152E-01 0.552E-01 -.507E+01   0.214E-04 0.579E-04 0.397E-03
   -.261E+02 0.360E+02 -.118E+04   0.261E+02 -.359E+02 0.118E+04   0.167E-01 -.115E+00 -.481E+01   -.374E-04 -.136E-04 0.391E-03
   0.390E+01 0.440E+01 -.367E+03   -.391E+01 -.441E+01 0.367E+03   0.127E-01 0.799E-02 0.372E+00   0.166E-04 0.322E-04 0.397E-03
   -.294E+01 0.291E+01 -.377E+03   0.294E+01 -.292E+01 0.376E+03   -.484E-02 0.284E-02 0.266E+00   0.393E-04 0.707E-05 0.339E-03
   0.100E+02 0.926E+01 0.163E+02   0.615E-12 0.124E-12 0.142E-11   -.100E+02 -.925E+01 -.163E+02   0.645E-04 0.524E-04 0.133E-01

 POSITION                                       TOTAL-FORCE (eV/Angst)
      4.43105      4.61905     13.18452         0.241566      0.209968     -0.015068
      5.26523      5.38498     13.02232        -0.050057     -0.050293      0.032036
      6.13975      6.18827     12.83311        -0.182990     -0.157266      0.041020
      0.00011      6.33074      3.81548         0.000755      0.000247      0.316024
      2.11036      0.00000      3.81548        -0.000459      0.000555      0.317309
      0.00011      0.00000      5.92573         0.003509      0.003177      0.039366
      2.11036      6.33074      5.92573         0.008616      0.004195      0.044638
      8.44070      6.33133      8.05129        -0.000003     -0.001100      0.045862
      2.11002      8.44098      8.05077         0.004053     -0.002230      0.044251
      0.00072      0.00069     10.15534         0.004935      0.005168      0.021968
      2.10950      6.32951     10.15374        -0.008225      0.006039      0.016933
      0.00011      2.11025      3.81548         0.000651     -0.000340      0.317030
      2.11036      4.22049      3.81548        -0.000562     -0.000736      0.314313
      0.00011      4.22049      5.92573        -0.010720     -0.002696      0.040504
      2.11036      2.11025      5.92573        -0.004030     -0.004447      0.039077
      0.00015      2.11008      8.05083        -0.002838      0.003539      0.044645
      2.10824      4.22030      8.04945         0.005145     -0.000347      0.044083
      0.00013      4.22192     10.15489         0.005663     -0.006024      0.018774
      2.10983      2.10999     10.15799        -0.005286     -0.005069      0.017784
      4.22061      6.33074      3.81548        -0.000622      0.000081      0.321690
      6.33085      0.00000      3.81548         0.000435      0.000665      0.316191
      4.22061      0.00000      5.92573        -0.002927     -0.009934      0.040354
      6.33085      6.33074      5.92573        -0.004572     -0.004893      0.049941
      4.22280      6.33059      8.05370        -0.003305     -0.001818      0.036921
      6.33161      8.44057      8.05126        -0.001799      0.000660      0.045535
      4.22208      0.00054     10.15357        -0.006604      0.007489      0.016648
      6.33963      6.33915     10.17200         0.004465      0.004400      0.044938
      4.22061      2.11025      3.81548        -0.000752     -0.000413      0.314681
      6.33085      4.22049      3.81548         0.000244     -0.000600      0.321644
      4.22061      4.22049      5.92573         0.005242      0.005358      0.042411
      6.33085      2.11025      5.92573         0.003878      0.008847      0.044683
      4.22035      2.10843      8.04933        -0.000443      0.004610      0.044299
      6.33057      4.22272      8.05371        -0.002633     -0.003119      0.037933
      4.21166      4.21193     10.14817        -0.008650     -0.008506      0.024248
      6.32976      2.10963     10.15375         0.005260     -0.006248      0.018340
      0.00011      6.33074      5.92573        -0.002032     -0.000075      0.078192
      2.11036      0.00000      5.92573         0.000780      0.001503      0.068435
      0.00011      0.00000      3.81548        -0.000996     -0.001079     -0.513902
      2.11036      6.33074      3.81548        -0.000292     -0.000973     -0.514790
      0.00433      6.33154     10.19527         0.011239     -0.001380      0.025950
      2.11129      8.44081     10.20424         0.003262     -0.003782      0.013142
      0.00127      0.00112      8.04457        -0.004169     -0.004124     -0.010315
      2.11236      6.33097      8.04429        -0.004769     -0.002911     -0.005295
      0.00011      2.11025      5.92573         0.001590      0.000916      0.069266
      2.11036      4.22049      5.92573        -0.003493     -0.002056      0.073752
      0.00011      4.22049      3.81548         0.000421      0.000989     -0.514897
      2.11036      2.11025      3.81548         0.001053      0.000817     -0.512847
      8.44087      2.11124     10.20397        -0.003792      0.003223      0.012976
      2.10801      4.21955     10.19634        -0.006511      0.000666      0.022320
      8.43922      4.21986      8.04534         0.000310      0.006641     -0.006543
      2.11001      2.10976      8.04530        -0.000303      0.000514     -0.012981
      4.22061      6.33074      5.92573         0.006524     -0.001988      0.074499
      6.33085      0.00000      5.92573         0.000487     -0.002085      0.078280
      4.22061      0.00000      3.81548         0.001280      0.000249     -0.515239
      6.33085      6.33074      3.81548         0.000743      0.000717     -0.517151
      4.21977      6.32823     10.21106        -0.016354      0.015009     -0.001290
      6.33163      0.00449     10.19469        -0.001537      0.011733      0.025137
      4.21994      8.43956      8.04503         0.006702      0.000213     -0.006833
      6.33023      6.33006      8.04923         0.002639      0.002475     -0.000534
      4.22061      2.11025      5.92573        -0.001759     -0.002786      0.072809
      6.33085      4.22049      5.92573        -0.002052      0.006250      0.074155
      4.22061      4.22049      3.81548        -0.000452     -0.000604     -0.515457
      6.33085      2.11025      3.81548        -0.000833     -0.000651     -0.514900
      4.21944      2.10811     10.19769         0.001034     -0.006149      0.024353
      6.32681      4.21994     10.21232         0.016984     -0.016173     -0.003318
      4.22045      4.22036      8.04498        -0.000182      0.000225     -0.002880
      6.33090      2.11237      8.04438        -0.002461     -0.004240     -0.005099
    total drift:                                0.000676      0.004547      0.006645

  FREE ENERGIE OF THE ION-ELECTRON SYSTEM (eV)
  free  energy   TOTEN  =      -397.22518607 eV

  energy  without entropy=     -397.22518607  energy(sigma->0) =     -397.22518607

 writing wavefunctions