 vasp.6.4.2 20Jul23 (build Feb 22 2024 13:53:45) complex
 executed on              LinuxNV date 2024.08.27  20:14:01
 OpenACC runtime initialized ...    4 GPUs detected

 INCAR:
   SYSTEM = Oxide-Surface
   ISMEAR = 0
   SIGMA = 0.05
   EDIFF = 1E-5
   ALGO = Normal
   IBRION = -1
   NSW = 0
   ISYM = 0
   DIPOL = 0.5 0.5 0.5
   IDIPOL = 3
   LDIPOL = .TRUE.
   ISTART = 1
   LHFCALC = .TRUE.
   GGA = PE
   IVDW = 21
   VDW_SR = 0.96
   HFRCUT = -1
   ENCUT = 520
   PREC = Normal
   PRECFOCK = Normal
   LASPH = .TRUE.
   LREAL = Auto
   ISPIN = 1
   NELM = 200
   NELMIN = 8
   NCORE = 1
   KPAR = 1
   LWAVE = .FALSE.
   LCHARG = .FALSE.

 POTCAR:    PAW_PBE N 08Apr2002
 POTCAR:    PAW_PBE O 08Apr2002
 POTCAR:    PAW_PBE Mg_pv 13Apr2007
 POTCAR:    PAW_PBE O 08Apr2002
 POTCAR:    PAW_PBE N 08Apr2002
   VRHFIN =N: s2p3

   TITEL  = PAW_PBE N 08Apr2002
   POMASS =   14.001; ZVAL   =    5.000    mass and valenz
   ENMAX  =  400.000; ENMIN  =  300.000 eV

[...]

   TITEL  = PAW_PBE Mg_pv 13Apr2007
   POMASS =   24.305; ZVAL   =    8.000    mass and valenz
   ENMAX  =  403.929; ENMIN  =  302.947 eV

   TITEL  = PAW_PBE O 08Apr2002
   POMASS =   16.000; ZVAL   =    6.000    mass and valenz
   ENMAX  =  400.000; ENMIN  =  300.000 eV

 Optimization of the real space projectors (new method)

 maximal supplied QI-value         = 25.13
 optimisation between [QCUT,QGAM] = [ 11.56, 23.12] = [ 37.43,149.72] Ry
 Optimized for a Real-space Cutoff    1.25 Angstroem

   l    n(q)    QCUT    max X(q) W(low)/X(q) W(high)/X(q)  e(spline)
   0      9    11.561    79.467    0.52E-04    0.16E-03    0.37E-06
   0      9    11.561    66.151    0.51E-04    0.16E-03    0.37E-06
   1      8    11.561    18.886    0.46E-03    0.28E-03    0.80E-06
   1      8    11.561    13.488    0.47E-03    0.29E-03    0.82E-06
 Optimization of the real space projectors (new method)

[...]

   l    n(q)    QCUT    max X(q) W(low)/X(q) W(high)/X(q)  e(spline)
   1      8    11.527     2.974    0.16E-03    0.13E-03    0.98E-07
   1      8    11.527     4.279    0.42E-03    0.30E-03    0.22E-06
   0      8    11.527    16.381    0.13E-03    0.20E-03    0.72E-07
   0      8    11.527     5.611    0.88E-04    0.13E-03    0.50E-07
   2      7    11.527     4.652    0.25E-03    0.73E-04    0.51E-07
 Optimization of the real space projectors (new method)

 maximal supplied QI-value         = 24.76
 optimisation between [QCUT,QGAM] = [ 11.64, 23.27] = [ 37.91,151.63] Ry
 Optimized for a Real-space Cutoff    1.04 Angstroem

   l    n(q)    QCUT    max X(q) W(low)/X(q) W(high)/X(q)  e(spline)
   0      7    11.635    20.381    0.14E-03    0.49E-03    0.18E-06
   0      7    11.635    15.268    0.16E-03    0.52E-03    0.19E-06
   1      7    11.635     5.964    0.30E-03    0.44E-03    0.22E-06
   1      7    11.635     5.382    0.27E-03    0.34E-03    0.19E-06
  PAW_PBE N 08Apr2002                   :
  PAW_PBE O 08Apr2002                   :
  PAW_PBE Mg_pv 13Apr2007               :
  PAW_PBE O 08Apr2002                   :

 POSCAR:  N  O Mg  O
  positions in direct lattice
 exchange correlation table for  LEXCH =        8
   RHO(1)=    0.500       N(1)  =     2000
   RHO(2)=  100.500       N(2)  =     4000

 ion  position               nearest neighbor table
   1  0.525  0.547  0.776-   2 1.14
   2  0.624  0.638  0.766-   1 1.14   3 1.20
   3  0.727  0.733  0.755-   2 1.20
   4  0.000  0.750  0.224-  36 2.11  39 2.11  46 2.11  38 2.11  55 2.11
   5  0.250  0.000  0.224-  37 2.11  38 2.11  39 2.11  54 2.11  47 2.11
   6  0.000  0.000  0.349-  38 2.11  37 2.11  36 2.11  44 2.11  53 2.11  42 2.12
   7  0.250  0.750  0.349-  39 2.11  36 2.11  45 2.11  37 2.11  52 2.11  43 2.12
   8  1.000  0.750  0.474-  59 2.11  42 2.11  50 2.11  43 2.11  36 2.13  40 2.14
   9  0.250  1.000  0.474-  42 2.11  51 2.11  58 2.11  43 2.11  37 2.13  41 2.15
  10  0.000  0.000  0.597-  57 2.11  40 2.11  42 2.11  48 2.11  41 2.11
  11  0.250  0.750  0.597-  40 2.11  43 2.11  49 2.11  56 2.11  41 2.11
  12  0.000  0.250  0.224-  44 2.11  47 2.11  46 2.11  38 2.11  63 2.11
  13  0.250  0.500  0.224-  45 2.11  39 2.11  46 2.11  47 2.11  62 2.11
  14  0.000  0.500  0.349-  46 2.11  45 2.11  36 2.11  44 2.11  61 2.11  50 2.12
  15  0.250  0.250  0.349-  47 2.11  44 2.11  45 2.11  60 2.11  37 2.11  51 2.12
  16  0.000  0.250  0.474-  42 2.11  50 2.11  51 2.11  67 2.11  44 2.13  48 2.15
  17  0.250  0.500  0.473-  50 2.11  51 2.11  43 2.11  66 2.11  45 2.12  49 2.15
  18  0.000  0.500  0.597-  49 2.11  50 2.11  40 2.11  48 2.11  65 2.12
  19  0.250  0.250  0.598-  49 2.11  64 2.11  48 2.11  41 2.11  51 2.11
  20  0.500  0.750  0.224-  52 2.11  62 2.11  54 2.11  55 2.11  39 2.11
  21  0.750  0.000  0.224-  53 2.11  54 2.11  55 2.11  38 2.11  63 2.11
  22  0.500  0.000  0.349-  54 2.11  52 2.11  53 2.11  37 2.11  60 2.11  58 2.12
  23  0.750  0.750  0.349-  55 2.11  61 2.11  52 2.11  53 2.11  36 2.11  59 2.12
  24  0.500  0.750  0.474-  59 2.11  58 2.11  66 2.11  43 2.11  52 2.13  56 2.16
  25  0.750  1.000  0.474-  59 2.11  42 2.11  58 2.11  67 2.11  53 2.13  57 2.14
  26  0.500  0.000  0.597-  64 2.11  58 2.11  57 2.11  41 2.11  56 2.11
  27  0.751  0.751  0.598-  40 2.11  57 2.11  65 2.12  56 2.12  59 2.12
  28  0.500  0.250  0.224-  60 2.11  47 2.11  62 2.11  63 2.11  54 2.11
  29  0.750  0.500  0.224-  61 2.11  55 2.11  62 2.11  63 2.11  46 2.11
  30  0.500  0.500  0.349-  62 2.11  52 2.11  60 2.11  61 2.11  45 2.11  66 2.12
  31  0.750  0.250  0.349-  63 2.11  61 2.11  60 2.11  53 2.11  44 2.11  67 2.12
  32  0.500  0.250  0.473-  58 2.11  51 2.11  67 2.11  66 2.11  60 2.12  64 2.15
  33  0.750  0.500  0.474-  59 2.11  50 2.11  66 2.11  67 2.11  61 2.13  65 2.16
  34  0.499  0.499  0.597-  66 2.10  49 2.10  64 2.10  65 2.12  56 2.12
  35  0.750  0.250  0.597-  57 2.11  67 2.11  64 2.11  65 2.11  48 2.11
  36  0.000  0.750  0.349-   4 2.11   7 2.11  14 2.11   6 2.11  23 2.11   8 2.13
  37  0.250  0.000  0.349-   5 2.11   6 2.11   7 2.11  22 2.11  15 2.11   9 2.13
  38  0.000  0.000  0.224-   6 2.11   5 2.11   4 2.11  12 2.11  21 2.11
  39  0.250  0.750  0.224-   7 2.11   4 2.11  13 2.11   5 2.11  20 2.11
  40  0.001  0.750  0.600-  11 2.11  27 2.11  18 2.11  10 2.11   8 2.14
  41  0.250  1.000  0.600-  19 2.11  10 2.11  26 2.11  11 2.11   9 2.15
  42  0.000  0.000  0.473-   9 2.11  16 2.11  25 2.11  10 2.11   8 2.11   6 2.12
  43  0.250  0.750  0.473-  11 2.11   9 2.11  24 2.11  17 2.11   8 2.11   7 2.12
  44  0.000  0.250  0.349-  12 2.11  15 2.11  14 2.11   6 2.11  31 2.11  16 2.13
  45  0.250  0.500  0.349-  13 2.11   7 2.11  14 2.11  15 2.11  30 2.11  17 2.12
  46  0.000  0.500  0.224-  14 2.11  13 2.11   4 2.11  12 2.11  29 2.11
  47  0.250  0.250  0.224-  15 2.11  12 2.11  13 2.11  28 2.11   5 2.11
  48  1.000  0.250  0.600-  19 2.11  10 2.11  18 2.11  35 2.11  16 2.15
  49  0.250  0.500  0.600-  34 2.10  18 2.11  19 2.11  11 2.11  17 2.15
  50  1.000  0.500  0.473-  33 2.11  18 2.11  16 2.11  17 2.11   8 2.11  14 2.12
  51  0.250  0.250  0.473-   9 2.11  16 2.11  32 2.11  17 2.11  19 2.11  15 2.12
  52  0.500  0.750  0.349-  20 2.11  30 2.11  22 2.11  23 2.11   7 2.11  24 2.13
  53  0.750  0.000  0.349-  21 2.11  22 2.11  23 2.11   6 2.11  31 2.11  25 2.13
  54  0.500  0.000  0.224-  22 2.11  20 2.11  21 2.11   5 2.11  28 2.11
  55  0.750  0.750  0.224-  23 2.11  29 2.11  20 2.11  21 2.11   4 2.11
  56  0.500  0.750  0.601-  11 2.11  26 2.11  34 2.12  27 2.12  24 2.16
  57  0.750  0.001  0.600-  35 2.11  27 2.11  26 2.11  10 2.11  25 2.14
  58  0.500  1.000  0.473-  26 2.11  24 2.11  32 2.11   9 2.11  25 2.11  22 2.12
  59  0.750  0.750  0.473-  33 2.11  24 2.11   8 2.11  25 2.11  27 2.12  23 2.12
  60  0.500  0.250  0.349-  28 2.11  15 2.11  30 2.11  31 2.11  22 2.11  32 2.12
  61  0.750  0.500  0.349-  29 2.11  23 2.11  30 2.11  31 2.11  14 2.11  33 2.13
  62  0.500  0.500  0.224-  30 2.11  20 2.11  28 2.11  29 2.11  13 2.11
  63  0.750  0.250  0.224-  31 2.11  29 2.11  28 2.11  21 2.11  12 2.11
  64  0.500  0.250  0.600-  34 2.10  26 2.11  19 2.11  35 2.11  32 2.15
  65  0.750  0.500  0.601-  35 2.11  18 2.12  34 2.12  27 2.12  33 2.16
  66  0.500  0.500  0.473-  34 2.10  33 2.11  24 2.11  32 2.11  17 2.11  30 2.12
  67  0.750  0.250  0.473-  35 2.11  16 2.11  33 2.11  32 2.11  25 2.11  31 2.12

IMPORTANT INFORMATION: All symmetrisations will be switched off!
NOSYMM: (Re-)initialisation of all symmetry stuff for point group C_1.

                                     Primitive cell

  volume of cell :    1211.2538

  direct lattice vectors                    reciprocal lattice vectors
     8.440984654  0.000000000  0.000000000     0.118469591  0.000000000  0.000000000
     0.000000000  8.440984654  0.000000000     0.000000000  0.118469591  0.000000000
     0.000000000  0.000000000 17.000000000     0.000000000  0.000000000  0.058823529

  length of vectors
     8.440984654  8.440984654 17.000000000     0.118469591  0.118469591  0.058823529

  position of ions in fractional coordinates (direct lattice)
     0.524944584  0.547217405  0.775559749
     0.623769281  0.637956602  0.766018695
     0.727373100  0.733121941  0.754888579
     0.000013589  0.750000194  0.224440251
     0.250013589  0.000000194  0.224440251
     0.000013589  0.000000194  0.348572378
     0.250013589  0.750000194  0.348572378
     0.999966561  0.750070127  0.473605150
     0.249973769  0.999999806  0.473574844
     0.000085356  0.000081940  0.597372974
     0.249911674  0.749854424  0.597278904
     0.000013589  0.250000194  0.224440251
     0.250013589  0.500000194  0.224440251
     0.000013589  0.500000194  0.348572378
     0.250013589  0.250000194  0.348572378
     0.000017243  0.249980157  0.473578238
     0.249762180  0.499976802  0.473496967
     0.000015781  0.500169160  0.597346508
     0.249951061  0.249969241  0.597528815
     0.500013589  0.750000194  0.224440251
     0.750013589  0.000000194  0.224440251
     0.500013589  0.000000194  0.348572378
     0.750013589  0.750000194  0.348572378
     0.500273599  0.749982319  0.473747038
     0.750103789  0.999951129  0.473603294
     0.500188527  0.000063732  0.597268966
     0.751053112  0.750996103  0.598352833
     0.500013589  0.250000194  0.224440251
     0.750013589  0.500000194  0.224440251
     0.500013589  0.500000194  0.348572378
     0.750013589  0.250000194  0.348572378
     0.499983585  0.249784354  0.473489942
     0.749980441  0.500264035  0.473747642
     0.498953542  0.498986092  0.596951454
     0.749883494  0.249927580  0.597279352
     0.000013589  0.750000194  0.348572378
     0.250013589  0.000000194  0.348572378
     0.000013589  0.000000194  0.224440251
     0.250013589  0.750000194  0.224440251
     0.000512942  0.750094692  0.599721879
     0.250123386  0.999979282  0.600249487
     0.000150473  0.000132421  0.473209985
     0.250249984  0.750027907  0.473193538
     0.000013589  0.250000194  0.348572378
     0.250013589  0.500000194  0.348572378
     0.000013589  0.500000194  0.224440251
     0.250013589  0.250000194  0.224440251
     0.999986411  0.250117343  0.600233718
     0.249734853  0.499887790  0.599784938
     0.999791148  0.499924508  0.473255248
     0.249972411  0.249941824  0.473253190
[...]
   O         196.048          4.870         19.143          3.54500720
   O         206.341          4.911         19.639          3.63687933
   O         197.390          4.875         19.208          3.55712577
   O         240.823          5.039         21.217          3.92903269
   O         241.102          5.040         21.229          3.93130685
   O         236.826          5.025         21.040          3.89628511
   O         236.424          5.024         21.022          3.89298241
   O         196.015          4.869         19.141          3.54471077
   O         195.918          4.869         19.137          3.54383634
   O         196.132          4.870         19.147          3.54576661
   O         204.353          4.903         19.544          3.61931481
   O         241.235          5.041         21.235          3.93239044
   O         240.472          5.038         21.201          3.92616573

  vdW correction parametrized for the method  È	?    þ

  IVDW =  21
  VDW_RADIUS =    50.000 A
  VDW_IDAMPF =  0
  VDW_S6 =     1.000
  VDW_SR =     0.960
  VDW_D =    20.000
  LVDW_ONECELL = F F F
  LVDW_SAMETYPE T T T T
  LVDW_EWALD = F

  Number of pair interactions contributing to vdW energy:  978191
  Edisp (eV):   -4.02538

 VOLUME and BASIS-vectors are now :
  energy-cutoff  :      520.00
  volume of cell :     1211.25
      direct lattice vectors                 reciprocal lattice vectors
     8.440984654  0.000000000  0.000000000     0.118469591  0.000000000  0.000000000
     0.000000000  8.440984654  0.000000000     0.000000000  0.118469591  0.000000000
     0.000000000  0.000000000 17.000000000     0.000000000  0.000000000  0.058823529

  length of vectors
     8.440984654  8.440984654 17.000000000     0.118469591  0.118469591  0.058823529

 FORCES acting on ions
    electron-ion (+dipol)            ewald-force                    non-local-force                 convergence-correction
   0.214E+03 0.196E+03 -.817E+03   -.250E+03 -.230E+03 0.824E+03   0.347E+02 0.318E+02 -.683E+01   -.139E-02 -.133E-02 0.102E+00
   0.167E+02 0.154E+02 -.834E+03   -.165E+02 -.153E+02 0.834E+03   -.102E+01 -.950E+00 0.590E-01   0.974E-03 0.879E-03 0.101E+00
   -.218E+03 -.201E+03 -.102E+04   0.266E+03 0.244E+03 0.101E+04   -.415E+02 -.381E+02 0.759E+01   0.245E-02 0.223E-02 0.131E+00
   -.828E+00 -.643E+00 0.171E+04   0.830E+00 0.645E+00 -.170E+04   -.144E-02 -.113E-02 -.676E+01   0.149E-03 -.296E-04 -.158E+00
   0.702E+00 -.777E+00 0.171E+04   -.704E+00 0.779E+00 -.170E+04   0.141E-02 -.144E-02 -.676E+01   0.240E-04 0.137E-03 -.158E+00
   -.951E+00 -.105E+01 0.593E+03   0.965E+00 0.107E+01 -.594E+03   -.981E-02 -.905E-02 0.462E+00   -.803E-04 -.901E-04 -.927E-01
   0.996E+00 -.867E+00 0.594E+03   -.964E+00 0.884E+00 -.595E+03   -.197E-01 -.109E-01 0.451E+00   0.117E-03 -.109E-03 -.925E-01
   -.632E+01 -.290E+01 -.505E+03   0.628E+01 0.292E+01 0.506E+03   0.340E-01 -.115E-01 -.355E+00   -.487E-03 -.345E-03 0.733E-02
   0.315E+01 -.415E+01 -.516E+03   -.316E+01 0.415E+01 0.517E+03   0.148E-01 -.919E-03 -.155E+00   0.348E-03 -.411E-03 0.660E-02
   -.197E+02 -.204E+02 -.163E+04   0.197E+02 0.204E+02 0.162E+04   0.159E-01 0.121E-01 0.572E+01   -.104E-02 -.106E-02 0.101E+00
   0.224E+02 -.154E+02 -.161E+04   -.225E+02 0.154E+02 0.161E+04   0.123E+00 0.143E-02 0.572E+01   0.138E-02 -.711E-03 0.100E+00
   -.689E+00 0.640E+00 0.171E+04   0.691E+00 -.642E+00 -.170E+04   -.157E-02 0.106E-02 -.676E+01   0.145E-03 0.266E-04 -.158E+00
   0.848E+00 0.780E+00 0.171E+04   -.851E+00 -.783E+00 -.170E+04   0.157E-02 0.144E-02 -.675E+01   0.310E-04 -.129E-03 -.158E+00
   -.991E+00 0.107E+01 0.594E+03   0.952E+00 -.108E+01 -.595E+03   0.239E-01 0.751E-02 0.479E+00   -.893E-04 0.957E-04 -.925E-01
   0.941E+00 0.848E+00 0.593E+03   -.957E+00 -.866E+00 -.593E+03   0.105E-01 0.116E-01 0.474E+00   0.116E-03 0.113E-03 -.928E-01
   -.367E+01 0.279E+01 -.517E+03   0.367E+01 -.280E+01 0.517E+03   -.122E-02 0.973E-02 -.163E+00   -.371E-03 0.343E-03 0.654E-02
   0.511E+01 0.427E+01 -.508E+03   -.514E+01 -.427E+01 0.508E+03   0.272E-01 0.278E-02 -.252E+00   0.356E-03 0.414E-03 0.706E-02
   -.250E+02 0.218E+02 -.161E+04   0.252E+02 -.218E+02 0.161E+04   -.124E+00 -.174E-01 0.573E+01   -.162E-02 0.111E-02 0.101E+00
   0.141E+02 0.139E+02 -.164E+04   -.141E+02 -.139E+02 0.163E+04   0.116E-01 0.683E-02 0.573E+01   0.619E-03 0.662E-03 0.101E+00
   0.834E+00 -.794E+00 0.171E+04   -.836E+00 0.795E+00 -.170E+04   0.106E-02 -.815E-03 -.677E+01   -.143E-03 -.370E-04 -.158E+00
   -.704E+00 -.916E+00 0.171E+04   0.707E+00 0.918E+00 -.170E+04   -.155E-02 -.131E-02 -.676E+01   -.305E-04 0.143E-03 -.158E+00
   0.971E+00 -.111E+01 0.594E+03   -.983E+00 0.107E+01 -.595E+03   0.817E-02 0.219E-01 0.475E+00   0.845E-04 -.962E-04 -.925E-01
   -.102E+01 -.906E+00 0.596E+03   0.999E+00 0.885E+00 -.596E+03   0.135E-01 0.142E-01 0.511E+00   -.126E-03 -.125E-03 -.922E-01
   0.652E+01 -.493E+01 -.499E+03   -.648E+01 0.495E+01 0.499E+03   -.386E-01 -.204E-01 -.924E-01   0.490E-03 -.381E-03 0.855E-02
   -.328E+01 -.680E+01 -.505E+03   0.330E+01 0.677E+01 0.506E+03   -.155E-01 0.335E-01 -.365E+00   -.365E-03 -.529E-03 0.731E-02
   0.213E+02 -.287E+02 -.161E+04   -.213E+02 0.289E+02 0.160E+04   -.201E-01 -.114E+00 0.573E+01   0.112E-02 -.183E-02 0.101E+00
   -.309E+02 -.269E+02 -.152E+04   0.312E+02 0.271E+02 0.151E+04   -.236E+00 -.215E+00 0.527E+01   -.191E-02 -.166E-02 0.108E+00
   0.692E+00 0.787E+00 0.171E+04   -.694E+00 -.789E+00 -.170E+04   0.152E-02 0.117E-02 -.675E+01   -.130E-03 0.310E-04 -.158E+00
   -.855E+00 0.923E+00 0.171E+04   0.857E+00 -.924E+00 -.170E+04   -.118E-02 0.983E-03 -.677E+01   -.372E-04 -.142E-03 -.158E+00
   0.101E+01 0.113E+01 0.596E+03   -.985E+00 -.111E+01 -.596E+03   -.154E-01 -.150E-01 0.480E+00   0.923E-04 0.103E-03 -.924E-01
   -.961E+00 0.886E+00 0.594E+03   0.976E+00 -.853E+00 -.595E+03   -.978E-02 -.205E-01 0.452E+00   -.112E-03 0.114E-03 -.925E-01
   0.376E+01 0.470E+01 -.508E+03   -.377E+01 -.472E+01 0.508E+03   0.393E-02 0.265E-01 -.224E+00   0.371E-03 0.358E-03 0.701E-02
   -.532E+01 0.701E+01 -.500E+03   0.534E+01 -.696E+01 0.500E+03   -.211E-01 -.385E-01 -.795E-01   -.393E-03 0.530E-03 0.843E-02
   0.311E+02 0.359E+02 -.154E+04   -.314E+02 -.362E+02 0.154E+04   0.179E+00 0.203E+00 0.569E+01   0.191E-02 0.225E-02 0.103E+00
   -.152E+02 0.190E+02 -.162E+04   0.152E+02 -.192E+02 0.161E+04   -.446E-02 0.121E+00 0.572E+01   -.639E-03 0.121E-02 0.100E+00
   -.814E+00 -.553E+00 0.445E+03   0.819E+00 0.553E+00 -.445E+03   -.530E-02 0.281E-03 -.106E+00   -.724E-04 -.901E-04 -.723E-01
   0.621E+00 -.763E+00 0.444E+03   -.622E+00 0.758E+00 -.444E+03   0.193E-02 0.594E-02 -.124E+00   0.837E-04 -.670E-04 -.725E-01
   -.548E+00 -.605E+00 0.128E+04   0.551E+00 0.607E+00 -.129E+04   -.292E-02 -.284E-02 0.306E+01   0.930E-04 0.837E-04 -.121E+00
   0.612E+00 -.517E+00 0.128E+04   -.611E+00 0.520E+00 -.129E+04   -.439E-03 -.318E-02 0.306E+01   0.723E-05 -.348E-04 -.121E+00
   -.286E+02 -.879E+01 -.122E+04   0.285E+02 0.879E+01 0.122E+04   0.404E-01 -.552E-02 -.455E+01   -.181E-02 -.492E-03 0.763E-01
   0.879E+01 -.110E+02 -.124E+04   -.879E+01 0.110E+02 0.125E+04   -.774E-03 0.247E-01 -.450E+01   0.441E-03 -.510E-03 0.758E-01
   -.347E+01 -.369E+01 -.380E+03   0.345E+01 0.367E+01 0.380E+03   0.155E-01 0.147E-01 0.194E+00   -.302E-03 -.311E-03 -.295E-04
   0.333E+01 -.279E+01 -.376E+03   -.334E+01 0.279E+01 0.376E+03   0.221E-02 -.406E-02 0.234E+00   0.371E-03 -.252E-03 0.253E-03
   -.675E+00 0.547E+00 0.444E+03   0.670E+00 -.550E+00 -.444E+03   0.608E-02 0.290E-02 -.122E+00   -.573E-04 0.855E-04 -.725E-01
   0.768E+00 0.772E+00 0.445E+03   -.755E+00 -.766E+00 -.445E+03   -.141E-01 -.715E-02 -.897E-01   0.915E-04 0.604E-04 -.724E-01
   -.589E+00 0.607E+00 0.128E+04   0.588E+00 -.610E+00 -.129E+04   0.127E-02 0.297E-02 0.306E+01   0.115E-03 -.849E-04 -.121E+00
   0.552E+00 0.515E+00 0.128E+04   -.555E+00 -.518E+00 -.129E+04   0.355E-02 0.315E-02 0.306E+01   0.352E-04 0.304E-04 -.121E+00
   -.957E+01 0.772E+01 -.125E+04   0.955E+01 -.772E+01 0.125E+04   0.242E-01 0.275E-02 -.450E+01   -.450E-03 0.435E-03 0.758E-01
   0.212E+02 0.122E+02 -.122E+04   -.213E+02 -.122E+02 0.123E+04   0.721E-01 -.174E-01 -.452E+01   0.985E-03 0.566E-03 0.759E-01
   -.370E+01 0.381E+01 -.377E+03   0.370E+01 -.380E+01 0.376E+03   0.644E-03 -.279E-02 0.232E+00   -.389E-03 0.320E-03 0.272E-03
   0.282E+01 0.267E+01 -.383E+03   -.281E+01 -.266E+01 0.382E+03   -.760E-02 -.743E-02 0.166E+00   0.226E-03 0.235E-03 -.125E-03
   0.853E+00 -.735E+00 0.446E+03   -.872E+00 0.740E+00 -.446E+03   0.217E-01 -.618E-02 -.150E+00   0.812E-04 -.101E-03 -.722E-01
   -.627E+00 -.903E+00 0.445E+03   0.626E+00 0.907E+00 -.445E+03   0.179E-02 -.531E-02 -.106E+00   -.860E-04 -.758E-04 -.723E-01
   0.550E+00 -.664E+00 0.128E+04   -.553E+00 0.663E+00 -.129E+04   0.342E-02 0.108E-02 0.306E+01   -.979E-04 0.112E-03 -.121E+00
   -.616E+00 -.561E+00 0.128E+04   0.616E+00 0.560E+00 -.129E+04   0.132E-02 0.168E-02 0.305E+01   -.947E-05 -.165E-04 -.120E+00
   0.348E+02 -.254E+02 -.117E+04   -.346E+02 0.254E+02 0.118E+04   -.128E+00 0.817E-02 -.425E+01   0.228E-02 -.134E-02 0.782E-01
   -.100E+02 -.303E+02 -.122E+04   0.100E+02 0.302E+02 0.122E+04   -.568E-02 0.509E-01 -.456E+01   -.530E-03 -.191E-02 0.763E-01
   0.359E+01 -.420E+01 -.376E+03   -.358E+01 0.419E+01 0.376E+03   -.408E-02 0.455E-02 0.245E+00   0.319E-03 -.452E-03 0.305E-03
   -.354E+01 -.311E+01 -.368E+03   0.356E+01 0.313E+01 0.368E+03   -.164E-01 -.186E-01 0.625E-01   -.378E-03 -.340E-03 0.115E-02
   0.684E+00 0.693E+00 0.445E+03   -.678E+00 -.683E+00 -.445E+03   -.682E-02 -.112E-01 -.904E-01   0.534E-04 0.934E-04 -.724E-01
   -.812E+00 0.940E+00 0.446E+03   0.818E+00 -.959E+00 -.446E+03   -.700E-02 0.214E-01 -.151E+00   -.955E-04 0.888E-04 -.722E-01
   0.594E+00 0.670E+00 0.128E+04   -.592E+00 -.668E+00 -.129E+04   -.159E-02 -.164E-02 0.305E+01   -.107E-03 -.107E-03 -.121E+00
   -.554E+00 0.556E+00 0.128E+04   0.557E+00 -.555E+00 -.129E+04   -.320E-02 -.118E-02 0.306E+01   -.339E-04 0.179E-04 -.121E+00
   0.104E+02 0.196E+02 -.123E+04   -.104E+02 -.197E+02 0.123E+04   -.227E-01 0.678E-01 -.451E+01   0.477E-03 0.915E-03 0.758E-01
   -.261E+02 0.361E+02 -.118E+04   0.261E+02 -.359E+02 0.118E+04   -.767E-02 -.129E+00 -.430E+01   -.128E-02 0.232E-02 0.780E-01
   0.390E+01 0.440E+01 -.367E+03   -.391E+01 -.441E+01 0.367E+03   0.849E-02 0.476E-02 0.335E+00   0.410E-03 0.458E-03 0.708E-03
   -.293E+01 0.291E+01 -.377E+03   0.294E+01 -.292E+01 0.376E+03   -.689E-02 0.785E-02 0.236E+00   -.236E-03 0.342E-03 0.219E-03
   0.112E+02 0.103E+02 0.205E+02   0.615E-12 0.124E-12 0.142E-11   -.787E+01 -.726E+01 -.163E+02   0.195E-02 0.172E-02 -.172E+01

 POSITION                                       TOTAL-FORCE (eV/Angst)
      4.43105      4.61905     13.18452         1.892224      1.725643     -0.314785
      5.26523      5.38498     13.02232        -0.933369     -0.861241      0.108511
      6.13975      6.18827     12.83311        -0.948508     -0.858934      0.186403
      0.00011      6.33074      3.81548         0.000674      0.000402      0.541637
      2.11036      0.00000      3.81548        -0.000683      0.000469      0.542714
      0.00011      0.00000      5.92573         0.003534      0.003186      0.037727
      2.11036      6.33074      5.92573         0.008943      0.004447      0.042623
      8.44070      6.33133      8.05129        -0.001323      0.000039      0.051508
      2.11002      8.44098      8.05077         0.002928     -0.002516      0.042709
      0.00072      0.00069     10.15534        -0.001364     -0.000613     -0.143364
      2.10950      6.32951     10.15374        -0.016151      0.009074     -0.156037
      0.00011      2.11025      3.81548         0.000564     -0.000574      0.542413
      2.11036      4.22049      3.81548        -0.000808     -0.000721      0.540227
      0.00011      4.22049      5.92573        -0.011371     -0.002774      0.038162
      2.11036      2.11025      5.92573        -0.004318     -0.004771      0.036485
      0.00015      2.11008      8.05083        -0.003255      0.002535      0.043428
      2.10824      4.22030      8.04945         0.004120     -0.000347      0.042714
      0.00013      4.22192     10.15489         0.003821      0.000137     -0.147440
      2.10983      2.10999     10.15799        -0.008238     -0.007991     -0.156956
      4.22061      6.33074      3.81548        -0.000603      0.000291      0.547711
      6.33085      0.00000      3.81548         0.000624      0.000588      0.541817
      4.22061      0.00000      5.92573        -0.002948     -0.010548      0.038055
      6.33085      6.33074      5.92573        -0.004652     -0.005010      0.047395
      4.22280      6.33059      8.05370        -0.001702     -0.001378      0.033838
      6.33161      8.44057      8.05126        -0.000515     -0.000497      0.051563
      4.22208      0.00054     10.15357         0.000156      0.006148     -0.149404
      6.33963      6.33915     10.17200         0.010172      0.010240     -0.068833
      4.22061      2.11025      3.81548        -0.000696     -0.000673      0.540575
      6.33085      4.22049      3.81548         0.000493     -0.000626      0.547609
      4.22061      4.22049      5.92573         0.005526      0.005619      0.039526
      6.33085      2.11025      5.92573         0.004162      0.009136      0.042739
      4.22035      2.10843      8.04933        -0.000332      0.003633      0.042570
      6.33057      4.22272      8.05371        -0.002070     -0.001641      0.035076
      4.21166      4.21193     10.14817        -0.005449     -0.007030     -0.163596
      6.32976      2.10963     10.15375         0.008124     -0.013681     -0.153167
      0.00011      6.33074      5.92573        -0.001841     -0.000224      0.062572
      2.11036      0.00000      5.92573         0.000885      0.001952      0.052663
      0.00011      0.00000      3.81548        -0.000949     -0.001113     -0.428981
      2.11036      6.33074      3.81548        -0.000099     -0.001230     -0.430275
      0.00433      6.33154     10.19527         0.020366     -0.003423     -0.115636
      2.11129      8.44081     10.20424         0.005930     -0.001742     -0.121271
      0.00127      0.00112      8.04457        -0.002338     -0.002449     -0.000670
      2.11236      6.33097      8.04429        -0.003324     -0.003757      0.007872
      0.00011      2.11025      5.92573         0.002078      0.001031      0.053482
      2.11036      4.22049      5.92573        -0.003846     -0.002580      0.059031
      0.00011      4.22049      3.81548         0.000541      0.000959     -0.430239
      2.11036      2.11025      3.81548         0.001324      0.001011     -0.428081
      8.44087      2.11124     10.20397        -0.001274      0.005806     -0.121716
      2.10801      4.21955     10.19634         0.001364     -0.001258     -0.102010
      8.43922      4.21986      8.04534         0.001001      0.005321      0.006256
      2.11001      2.10976      8.04530         0.000047      0.000840     -0.001112
      4.22061      6.33074      5.92573         0.006702     -0.002163      0.058234
      6.33085      0.00000      5.92573         0.000400     -0.001929      0.062625
      4.22061      0.00000      3.81548         0.001296      0.000274     -0.430637
      6.33085      6.33074      3.81548         0.000578      0.000514     -0.432842
      4.21977      6.32823     10.21106        -0.024841      0.005654     -0.117773
      6.33163      0.00449     10.19469        -0.003526      0.021005     -0.117339
      4.21994      8.43956      8.04503         0.005292      0.000724      0.006401
      6.33023      6.33006      8.04923         0.001117      0.000993      0.006550
      4.22061      2.11025      5.92573        -0.002257     -0.003101      0.058082
      6.33085      4.22049      5.92573        -0.002222      0.006402      0.057820
      4.22061      4.22049      3.81548        -0.000509     -0.000696     -0.431558
      6.33085      2.11025      3.81548        -0.001042     -0.000540     -0.430345
      4.21944      2.10811     10.19769        -0.001671      0.001158     -0.101025
      6.32681      4.21994     10.21232         0.007566     -0.024072     -0.123922
      4.22045      4.22036      8.04498        -0.001111     -0.000643      0.013898
      6.33090      2.11237      8.04438        -0.003344     -0.002745      0.007792
    total drift:                                0.002120      0.007010     -0.006964

  FREE ENERGIE OF THE ION-ELECTRON SYSTEM (eV)
  free  energy   TOTEN  =      -496.28276788 eV

  energy  without entropy=     -496.28276788  energy(sigma->0) =     -496.28276788