 vasp.6.3.0 20Jan22 (build Dec 25 2023 18:06:01) complex
 executed on        HPECrayEX_GCC date 2024.01.24  06:23:03

 INCAR:
   SYSTEM = MgO-rocksalt
   ISMEAR = 0
   SIGMA = 0.05
   EDIFF = 1E-8
   ALGO = ALL
   ISTART = 0
   IBRION = 5
   POTIM = 0.01
   NFREE = 2
   ISYM = 0
   DIPOL = 0.5 0.5 0.5
   IDIPOL = 3
   LDIPOL = .TRUE.
   GGA = PE
   IVDW = 21
   LDAU = .TRUE.
   LDAUTYPE = 2
   LDAUL = -1 -1 2 -1
   LDAUU = 0.0 0.0 4.2 0.0
   LDAUPRINT = 1
   LMAXMIX = 4
   ENCUT = 600
   PREC = Accurate
   LASPH = .TRUE.
   LREAL = .FALSE.
   ISPIN = 1
   NELM = 200
   NELMIN = 8
   NCORE = 8
   KPAR = 1
   LWAVE = .FALSE.
   LCHARG = .FALSE.

 POTCAR:    PAW_PBE H 15Jun2001
 POTCAR:    PAW_PBE O 08Apr2002
 POTCAR:    PAW_PBE Ti_pv 07Sep2000
 POTCAR:    PAW_PBE O 08Apr2002
 POTCAR:    PAW_PBE H 15Jun2001
   VRHFIN =H: ultrasoft test

   TITEL  = PAW_PBE H 15Jun2001
   POMASS =    1.000; ZVAL   =    1.000    mass and valenz
   ENMAX  =  250.000; ENMIN  =  200.000 eV

   TITEL  = PAW_PBE O 08Apr2002
   POMASS =   16.000; ZVAL   =    6.000    mass and valenz
   ENMAX  =  400.000; ENMIN  =  300.000 eV

   TITEL  = PAW_PBE Ti_pv 07Sep2000
   POMASS =   47.880; ZVAL   =   10.000    mass and valenz
   ENMAX  =  222.335; ENMIN  =  166.751 eV

   TITEL  = PAW_PBE O 08Apr2002
   POMASS =   16.000; ZVAL   =    6.000    mass and valenz
   ENMAX  =  400.000; ENMIN  =  300.000 eV

  PAW_PBE H 15Jun2001                   :
  PAW_PBE O 08Apr2002                   :
  PAW_PBE Ti_pv 07Sep2000               :
  PAW_PBE O 08Apr2002                   :

 POSCAR:  H  O Ti  O
  positions in direct lattice
 exchange correlation table for  LEXCH =        8
   RHO(1)=    0.500       N(1)  =     2000
   RHO(2)=  100.500       N(2)  =     4000

 ion  position               nearest neighbor table
   1  0.524  0.548  0.802-   3 0.97
   2  0.625  0.496  0.779-   3 1.03
   3  0.547  0.491  0.782-   1 0.97   2 1.03  83 2.18
   4  0.750  0.625  0.286-  84 1.98  85 1.98 144 1.98 145 1.98 166 2.00  87 2.00  14 3.03  34 3.03

   5  0.000  0.750  0.286-  86 1.98  87 1.98 106 1.98 107 1.98  88 2.00  35 3.03  15 3.03
   6  0.000  0.625  0.393-  89 1.98 149 1.98 148 1.98  88 1.98  90 2.00  91 2.00  16 3.03  36 3.03

[...]

  84  0.750  0.750  0.244-   4 1.98  14 1.98
  85  0.750  0.750  0.328-   4 1.98  14 1.98   7 2.00
  86  0.098  0.625  0.286-   5 1.98  35 1.98  44 2.00
  87  0.902  0.625  0.286-   5 1.98  35 1.98   4 2.00
  88  0.000  0.750  0.351-   6 1.98  16 1.98   5 2.00
  89  0.000  0.750  0.435-   6 1.98  16 1.98   9 2.00
  90  0.848  0.625  0.393-   7 1.98  37 1.98   6 2.00
  91  0.152  0.625  0.393-  47 1.98  77 1.98   6 2.00
  92  0.750  0.750  0.458-   8 1.98  18 1.98   7 2.00
  93  0.750  0.750  0.542-   8 1.98  18 1.98  11 2.08
  94  0.098  0.625  0.500-   9 1.98  39 1.98  48 2.00
  95  0.902  0.625  0.500-   9 1.98  39 1.98   8 2.00
  96  0.000  0.750  0.565-  20 1.94  10 1.94   9 2.01
  97  0.999  0.750  0.649-  13 1.86  10 2.03  20 2.03
  98  0.850  0.625  0.607-  10 1.98  11 2.00  41 2.00
  99  0.150  0.625  0.607-  10 1.97  51 2.00  81 2.01
 100  0.754  0.751  0.672-  11 1.93  12 2.08  22 2.11
 101  0.748  0.749  0.756-  12 1.87  22 1.89
 102  0.094  0.625  0.719-  43 1.97  13 1.97  52 2.07
 103  0.906  0.624  0.721-  43 1.97  13 1.98  12 2.05
 104  0.750  0.000  0.244-  14 1.98  24 1.98
 105  0.750  0.000  0.328-  14 1.98  24 1.98  17 2.00
 106  0.098  0.875  0.286-   5 1.98  15 1.98  54 2.00
 107  0.902  0.875  0.286-   5 1.98  15 1.98  14 2.00
 108  0.000  0.000  0.351-  16 1.98  26 1.98  15 2.00
 109  0.000  0.000  0.435-  16 1.98  26 1.98  19 2.00
 110  0.848  0.875  0.393-   7 1.98  17 1.98  16 2.00
 111  0.152  0.875  0.393-  47 1.98  57 1.98  16 2.00
 112  0.750  0.000  0.458-  18 1.98  28 1.98  17 2.00
 113  0.750  0.000  0.542-  18 1.98  28 1.98  21 2.09
 114  0.098  0.875  0.500-   9 1.98  19 1.98  58 2.00
 115  0.902  0.875  0.500-   9 1.98  19 1.98  18 2.00
 116  0.000  1.000  0.565-  20 1.94  30 1.94  19 2.01
 117  0.999  0.000  0.649-  23 1.86  20 2.03  30 2.03
 118  0.849  0.875  0.607-  20 1.98  21 2.00  11 2.00
 119  0.150  0.875  0.607-  20 1.98  51 2.00  61 2.00
 120  0.750  1.000  0.672-  21 1.93  32 2.10  22 2.10
 121  0.750  1.000  0.756-  22 1.87  32 1.87
 122  0.093  0.875  0.719-  13 1.97  23 1.97  62 2.07
 123  0.907  0.875  0.720-  13 1.97  23 1.97  22 2.06
 124  0.750  0.250  0.244-  24 1.98  34 1.98
 125  0.750  0.250  0.328-  24 1.98  34 1.98  27 2.00
 126  0.098  0.125  0.286-  15 1.98  25 1.98  64 2.00
 127  0.902  0.125  0.286-  15 1.98  25 1.98  24 2.00
 128  0.000  0.250  0.351-  26 1.98  36 1.98  25 2.00
 129  0.000  0.250  0.435-  26 1.98  36 1.98  29 2.00
 130  0.848  0.125  0.393-  17 1.98  27 1.98  26 2.00
 131  0.152  0.125  0.393-  57 1.98  67 1.98  26 2.00
 132  0.750  0.250  0.458-  28 1.98  38 1.98  27 2.00
 133  0.750  0.250  0.542-  28 1.98  38 1.98  31 2.08
 134  0.098  0.125  0.500-  19 1.98  29 1.98  68 2.00
 135  0.902  0.125  0.500-  19 1.98  29 1.98  28 2.00
 136  0.000  0.250  0.565-  30 1.94  40 1.94  29 2.01
 137  0.999  0.250  0.649-  33 1.86  40 2.03  30 2.03
 138  0.849  0.125  0.607-  30 1.98  21 2.00  31 2.00
 139  0.150  0.125  0.607-  30 1.97  61 2.00  71 2.00
 140  0.753  0.249  0.672-  31 1.93  42 2.08  32 2.11
 141  0.749  0.251  0.756-  42 1.87  32 1.88
 142  0.093  0.125  0.719-  33 1.97  23 1.97  72 2.07
 143  0.907  0.125  0.720-  33 1.97  23 1.97  32 2.06
[...]
 229  0.500  0.500  0.435-  46 1.98  76 1.98  79 2.00
 230  0.348  0.375  0.393-  67 1.98  77 1.98  76 2.00
 231  0.652  0.375  0.393-  27 1.98  37 1.98  76 2.00
 232  0.250  0.500  0.458-  48 1.98  78 1.98  77 2.00
 233  0.250  0.500  0.542-  48 1.98  78 1.98  81 2.09
 234  0.598  0.375  0.500-  69 1.98  79 1.98  38 2.00
 235  0.402  0.375  0.500-  69 1.98  79 1.98  78 2.00
 236  0.500  0.500  0.566-  50 1.94  80 1.95  79 2.02
 237  0.498  0.500  0.650-  83 1.96  50 2.00  80 2.01
 238  0.349  0.375  0.607-  80 1.98  81 2.00  71 2.00
 239  0.651  0.375  0.608-  80 1.99  31 2.00  41 2.00
 240  0.250  0.500  0.672-  81 1.92  52 2.10  82 2.11
 241  0.251  0.500  0.756-  52 1.88  82 1.88
 242  0.596  0.371  0.714-  73 1.95  83 1.99  42 2.04
 243  0.407  0.374  0.719-  73 1.96  83 1.97  82 2.06

IMPORTANT INFORMATION: All symmetrisations will be switched off!
NOSYMM: (Re-)initialisation of all symmetry stuff for point group C_1.

                                     Primitive cell

  volume of cell :    4886.2662

  direct lattice vectors                    reciprocal lattice vectors
    13.143747607  0.000000000  0.000000000     0.076081802  0.000000000  0.000000000
     0.000000000 12.104894358  0.000000000     0.000000000  0.082611212  0.000000000
     0.000000000  0.000000000 30.711208800     0.000000000  0.000000000  0.032561401

  length of vectors
    13.143747607 12.104894358 30.711208800     0.076081802  0.082611212  0.032561401

  position of ions in fractional coordinates (direct lattice)
     0.523779667  0.547759811  0.802295717
     0.624561519  0.496000023  0.779406385
     0.546823706  0.491416395  0.781978444
     0.750000000  0.625000000  0.286010579
     0.000000000  0.750000000  0.286010579
     0.000000000  0.625000000  0.393005289
     0.750000000  0.750000000  0.393005289
     0.750000000  0.625000000  0.500000000
     0.000000000  0.750000000  0.500000000
     0.999945745  0.625041927  0.605118707
     0.750074996  0.750084069  0.609430702
     0.750276032  0.626431096  0.718728932
     0.999655801  0.749975851  0.709925787
     0.750000000  0.875000000  0.286010579
     0.000000000  0.000000000  0.286010579
     0.000000000  0.875000000  0.393005289
     0.750000000  0.000000000  0.393005289
     0.750000000  0.875000000  0.500000000
     0.000000000  0.000000000  0.500000000
     0.999781052  0.875022523  0.605194784
     0.749559362  0.000019231  0.609745203
     0.749779647  0.875346292  0.720004365
     0.999922868  0.000011941  0.709866274
     0.750000000  0.125000000  0.286010579
     0.000000000  0.250000000  0.286010579
     0.000000000  0.125000000  0.393005289
     0.750000000  0.250000000  0.393005289
     0.750000000  0.125000000  0.500000000
     0.000000000  0.250000000  0.500000000
     0.999776506  0.125005035  0.605179858
     0.750036161  0.249961080  0.609407189
     0.749727382  0.124536969  0.719987910
     0.999703669  0.250040866  0.709913436
     0.750000000  0.375000000  0.286010579
     0.000000000  0.500000000  0.286010579
     0.000000000  0.375000000  0.393005289
     0.750000000  0.500000000  0.393005289
     0.750000000  0.375000000  0.500000000
     0.000000000  0.500000000  0.500000000
     0.999938142  0.375018125  0.605122162
     0.750366203  0.500037334  0.609651467
     0.750536168  0.373378327  0.718723720
     0.000747012  0.500061093  0.709837374
     0.250000000  0.625000000  0.286010579
     0.500000000  0.750000000  0.286010579
     0.500000000  0.625000000  0.393005289
     0.250000000  0.750000000  0.393005289
     0.250000000  0.625000000  0.500000000
     0.500000000  0.750000000  0.500000000
     0.499718577  0.623125773  0.606155274
     0.250013493  0.749934616  0.609792094
     0.250876107  0.625118178  0.720144479
     0.499668055  0.750689342  0.708602357
     0.250000000  0.875000000  0.286010579
     0.500000000  0.000000000  0.286010579
     0.500000000  0.875000000  0.393005289
     0.250000000  0.000000000  0.393005289
     0.250000000  0.875000000  0.500000000
     0.500000000  0.000000000  0.500000000
     0.499409837  0.874456101  0.604298336
[...]
     0.500000000  0.500000000  0.434805357
     0.347668537  0.375000000  0.393005289
     0.652331463  0.375000000  0.393005289
     0.250000000  0.500000000  0.458199933
     0.250000000  0.500000000  0.541800067
     0.597668537  0.375000000  0.500000000
     0.402331463  0.375000000  0.500000000
     0.500326220  0.499854426  0.565617891
     0.498345562  0.500401799  0.649900702
     0.348879159  0.375067205  0.607270082
     0.650846232  0.375049777  0.607984090
     0.250228490  0.500357978  0.672435622
     0.250680425  0.499974609  0.756154968
     0.596050209  0.370936448  0.713775631
     0.407445503  0.374120707  0.719228387

  ion indices of the primitive-cell ions
   primitive index   ion index
                 1           1
                 2           2
                 3           3
                 4           4
                 5           5
                 6           6
                 7           7
                 8           8
                 9           9
                10          10
                11          11
                12          12
                13          13
                14          14
                15          15
                16          16
                17          17
                18          18
                19          19
                20          20
                21          21
                22          22
                23          23
                24          24
                25          25
                26          26
                27          27
                28          28
                29          29
                30          30
                31          31
[...]
      9.85829      3.02575     18.71563        -0.002161      0.000488      0.001833
      9.85423      1.50751     22.11170         0.000331     -0.003028     -0.000950
     13.13985      3.02672     21.80230         0.000456      0.000454      0.001096
      9.85781      4.53934      8.78373        -0.002263     -0.000210     -3.247814
      0.00000      6.05245      8.78373         0.001476     -0.000069      2.636528
      0.00000      4.53934     12.06967         0.006788      0.000557      0.481382
      9.85781      6.05245     12.06967        -0.006620      0.000184     -0.745718
      9.85781      4.53934     15.35560        -0.038019      0.022046      0.351895
      0.00000      6.05245     15.35560         0.018967      0.000194     -0.521594
     13.14293      4.53955     18.58403         0.001847      0.001182     -0.000255
      9.86262      6.05290     18.72313        -0.000866     -0.000149      0.000044
      9.86486      4.51971     22.07287        -0.001362      0.002981     -0.002030
      0.00982      6.05319     21.79996        -0.001032      0.001020      0.001164
      3.28594      7.56556      8.78373         0.002289     -0.000135     -3.244826
      6.57187      9.07867      8.78373        -0.001431      0.000296      2.642111
      6.57187      7.56556     12.06967        -0.006481      0.008209      0.500691
      3.28594      9.07867     12.06967         0.006894     -0.000098     -0.725596
      3.28594      7.56556     15.35560         0.036058     -0.014607      0.420265
      6.57187      9.07867     15.35560        -0.014018     -0.043272     -0.409167
      6.56817      7.54287     18.61576         0.000855      0.001404      0.002124
      3.28611      9.07788     18.72745         0.001881      0.001146     -0.001054
      3.29745      7.56699     22.11651         0.001833      0.004834     -0.003732
      6.56751      9.08702     21.76203         0.004171     -0.007560     -0.001445
      3.28594     10.59178      8.78373         0.002428      0.000089     -3.245105
      6.57187      0.00000      8.78373        -0.001406      0.000054      2.642151
      6.57187     10.59178     12.06967        -0.006130     -0.000264      0.502150
      3.28594      0.00000     12.06967         0.007183     -0.000085     -0.727154
      3.28594     10.59178     15.35560         0.023963     -0.001693      0.409883
      6.57187      0.00000     15.35560        -0.012734      0.000131     -0.599631
      6.56412     10.58520     18.55873         0.000682     -0.000665     -0.000870
[...]
      6.57187      6.05245     13.35340         0.002480     -0.000294     -0.167142
      4.56967      4.53934     12.06967         0.397230      0.000105      0.057945
      8.57408      4.53934     12.06967        -0.389924      0.000373      0.060655
      3.28594      6.05245     14.07187        -0.006382      0.000377     -0.013936
      3.28594      6.05245     16.63933        -0.024615     -0.000935      0.145624
      7.85560      4.53934     15.35560        -0.280880      0.018862      0.037294
      5.28814      4.53934     15.35560         0.316681      0.021138      0.037568
      6.57616      6.05069     17.37081         0.000338     -0.000156     -0.003740
      6.55013      6.05731     19.95924         0.001569     -0.000805     -0.008862
      4.58558      4.54015     18.65000         0.000295     -0.001858      0.002758
      8.55456      4.53994     18.67193         0.002954     -0.000695     -0.000930
      3.28894      6.05678     20.65131         0.001940     -0.000366      0.005002
      3.29488      6.05214     23.22243         0.000628     -0.001007      0.003976
      7.83433      4.49015     21.92091         0.008428     -0.010907     -0.004167
      5.35536      4.52869     22.08837        -0.002535     -0.003790      0.002086
    total drift:                               -0.002427      0.000521     -0.004481

  FREE ENERGIE OF THE ION-ELECTRON SYSTEM (eV)
  free  energy   TOTEN  =     -1928.57935457 eV

  energy  without entropy=    -1928.57935457  energy(sigma->0) =    -1928.57935457

 d Force = 0.6592284E-04[-0.596E-02, 0.609E-02]  d Energy = 0.4448728E-03-0.379E-03
 d Force =-0.4979809E+02[-0.499E+02,-0.497E+02]  d Ewald  =-0.4979799E+02-0.965E-04

 Finite differences progress:
  Degree of freedom:   9/  9
  Displacement:        2/  2
  Total:              18/ 18

 SECOND DERIVATIVES (NOT SYMMETRIZED)
               1X          1Y          1Z          2X          2Y          2Z          3X          3Y          3Z
  1X    -8.570495   10.566678    9.456894    0.347339   -2.774324   -2.331763    8.227811   -8.171553   -7.001873
  1Y    10.570722  -23.905462  -21.595264    0.333672    0.084593   -0.156009  -11.075810   23.698186   21.745051
  1Z     9.463373  -21.603351  -21.137964    0.047304    0.161051    0.235442   -9.317124   20.795086   20.507534
  2X     0.348043    0.324402    0.044164  -25.770404   -0.774986   -0.320654   26.776078    0.512318   -2.912777
  2Y    -2.773095    0.082555    0.162200   -0.772583   -4.510164   -1.573342    3.721450    3.329894    1.605575
  2Z    -2.332326   -0.163270    0.229264   -0.337973   -1.578884   -4.976396    0.913088    1.693751    4.071853
  3X     8.218620  -11.076906   -9.314932   26.780059    3.717775    0.901005  -40.778335    7.861922   10.330891
  3Y    -8.175650   23.706701   20.790006    0.500438    3.329019    1.679824    7.865430  -28.510977  -22.748062
  3Z    -7.001389   21.748378   20.488359   -2.913314    1.605270    4.073112   10.336420  -22.730058  -30.126547

 Eigenvectors and eigenvalues of the dynamical matrix

   1 f  =  112.827921 THz   708.918736 2PiTHz 3763.534339 cm-1   466.618578 meV
             X         Y         Z           dx          dy          dz
      6.884428  6.630575 24.639471    -0.318302    0.670575    0.624619
      8.209079  6.004028 23.936512    -0.031986   -0.020429   -0.013144
      7.187313  5.948544 24.015503     0.088421   -0.161125   -0.153204
      9.857811  7.565559  8.783731            0           0           0
      0.000000  9.078671  8.783731            0           0           0
      0.000000  7.565559 12.069667            0           0           0
      9.857811  9.078671 12.069667            0           0           0
      9.857811  7.565559 15.355604            0           0           0
      0.000000  9.078671 15.355604            0           0           0
     13.143034  7.566067 18.583927            0           0           0
      9.858796  9.079688 18.716354            0           0           0
      9.861439  7.582882 22.073034            0           0           0
     13.139224  9.078378 21.802679            0           0           0
      9.857811 10.591783  8.783731            0           0           0
      0.000000  0.000000  8.783731            0           0           0
      0.000000 10.591783 12.069667            0           0           0
      9.857811  0.000000 12.069667            0           0           0
      9.857811 10.591783 15.355604            0           0           0
      0.000000  0.000000 15.355604            0           0           0
     13.140870 10.592055 18.586263            0           0           0
      9.852019  0.000233 18.726012            0           0           0
      9.854914 10.595974 22.112204            0           0           0
     13.142734  0.000145 21.800851            0           0           0
      9.857811  1.513112  8.783731            0           0           0
      0.000000  3.026224  8.783731            0           0           0
      0.000000  1.513112 12.069667            0           0           0
      9.857811  3.026224 12.069667            0           0           0
      9.857811  1.513112 15.355604            0           0           0
      0.000000  3.026224 15.355604            0           0           0
     13.140810  1.513173 18.585805            0           0           0
      9.858286  3.025752 18.715631            0           0           0
      9.854227  1.507507 22.111699            0           0           0
     13.139853  3.026718 21.802300            0           0           0
      9.857811  4.539335  8.783731            0           0           0
      0.000000  6.052447  8.783731            0           0           0
      0.000000  4.539335 12.069667            0           0           0
      9.857811  6.052447 12.069667            0           0           0
      9.857811  4.539335 15.355604            0           0           0
      0.000000  6.052447 15.355604            0           0           0
     13.142935  4.539555 18.584033            0           0           0
      9.862624  6.052899 18.723133            0           0           0
      9.864858  4.519705 22.072874            0           0           0
      0.009819  6.053187 21.799964            0           0           0
      3.285937  7.565559  8.783731            0           0           0
      6.571874  9.078671  8.783731            0           0           0
      6.571874  7.565559 12.069667            0           0           0
      3.285937  9.078671 12.069667            0           0           0
      3.285937  7.565559 15.355604            0           0           0
      6.571874  9.078671 15.355604            0           0           0
      6.568175  7.542872 18.615761            0           0           0
      3.286114  9.077879 18.727452            0           0           0
      3.297452  7.566990 22.116507            0           0           0
      6.567511  9.087015 21.762035            0           0           0
      3.285937 10.591783  8.783731            0           0           0
      6.571874  0.000000  8.783731            0           0           0
      6.571874 10.591783 12.069667            0           0           0
      3.285937  0.000000 12.069667            0           0           0
      3.285937 10.591783 15.355604            0           0           0
      6.571874  0.000000 15.355604            0           0           0
      6.564117 10.585199 18.558732            0           0           0
[...]
      6.571874  6.052447 13.353398            0           0           0
      4.569667  4.539335 12.069667            0           0           0
      8.574080  4.539335 12.069667            0           0           0
      3.285937  6.052447 14.071874            0           0           0
      3.285937  6.052447 16.639335            0           0           0
      7.855604  4.539335 15.355604            0           0           0
      5.288143  4.539335 15.355604            0           0           0
      6.576162  6.050685 17.370809            0           0           0
      6.550128  6.057311 19.959236            0           0           0
      4.585580  4.540149 18.649998            0           0           0
      8.554559  4.539938 18.671926            0           0           0
      3.288940  6.056780 20.651311            0           0           0
      3.294880  6.052140 23.222433            0           0           0
      7.834334  4.490147 21.920912            0           0           0
      5.355361  4.528692 22.088373            0           0           0

[...]

   9 f  =    5.335828 THz    33.525994 2PiTHz  177.984053 cm-1    22.067200 meV
             X         Y         Z           dx          dy          dz
      6.884428  6.630575 24.639471    -0.063386   -0.352601    0.119375
      8.209079  6.004028 23.936512    -0.021178   -0.148688    0.020330
      7.187313  5.948544 24.015503    -0.057836   -0.911360    0.022653
      9.857811  7.565559  8.783731            0           0           0
      0.000000  9.078671  8.783731            0           0           0
      0.000000  7.565559 12.069667            0           0           0
      9.857811  9.078671 12.069667            0           0           0
      9.857811  7.565559 15.355604            0           0           0
      0.000000  9.078671 15.355604            0           0           0
     13.143034  7.566067 18.583927            0           0           0
      9.858796  9.079688 18.716354            0           0           0
      9.861439  7.582882 22.073034            0           0           0
     13.139224  9.078378 21.802679            0           0           0
      9.857811 10.591783  8.783731            0           0           0
      0.000000  0.000000  8.783731            0           0           0
      0.000000 10.591783 12.069667            0           0           0
      9.857811  0.000000 12.069667            0           0           0
      9.857811 10.591783 15.355604            0           0           0
      0.000000  0.000000 15.355604            0           0           0
     13.140870 10.592055 18.586263            0           0           0
      9.852019  0.000233 18.726012            0           0           0
      9.854914 10.595974 22.112204            0           0           0
     13.142734  0.000145 21.800851            0           0           0
      9.857811  1.513112  8.783731            0           0           0
      0.000000  3.026224  8.783731            0           0           0
      0.000000  1.513112 12.069667            0           0           0
      9.857811  3.026224 12.069667            0           0           0
      9.857811  1.513112 15.355604            0           0           0
      0.000000  3.026224 15.355604            0           0           0
     13.140810  1.513173 18.585805            0           0           0
      9.858286  3.025752 18.715631            0           0           0
      9.854227  1.507507 22.111699            0           0           0
     13.139853  3.026718 21.802300            0           0           0
      9.857811  4.539335  8.783731            0           0           0
      0.000000  6.052447  8.783731            0           0           0
      0.000000  4.539335 12.069667            0           0           0
      9.857811  6.052447 12.069667            0           0           0
      9.857811  4.539335 15.355604            0           0           0
      0.000000  6.052447 15.355604            0           0           0
     13.142935  4.539555 18.584033            0           0           0
      9.862624  6.052899 18.723133            0           0           0
      9.864858  4.519705 22.072874            0           0           0
      0.009819  6.053187 21.799964            0           0           0
      3.285937  7.565559  8.783731            0           0           0
      6.571874  9.078671  8.783731            0           0           0
      6.571874  7.565559 12.069667            0           0           0
      3.285937  9.078671 12.069667            0           0           0
      3.285937  7.565559 15.355604            0           0           0
      6.571874  9.078671 15.355604            0           0           0
      6.568175  7.542872 18.615761            0           0           0
      3.286114  9.077879 18.727452            0           0           0
      3.297452  7.566990 22.116507            0           0           0
      6.567511  9.087015 21.762035            0           0           0
      3.285937 10.591783  8.783731            0           0           0
      6.571874  0.000000  8.783731            0           0           0
      6.571874 10.591783 12.069667            0           0           0
      3.285937  0.000000 12.069667            0           0           0
      3.285937 10.591783 15.355604            0           0           0
      6.571874  0.000000 15.355604            0           0           0
      6.564117 10.585199 18.558732            0           0           0
[...]
      6.571874  6.052447 13.353398            0           0           0
      4.569667  4.539335 12.069667            0           0           0
      8.574080  4.539335 12.069667            0           0           0
      3.285937  6.052447 14.071874            0           0           0
      3.285937  6.052447 16.639335            0           0           0
      7.855604  4.539335 15.355604            0           0           0
      5.288143  4.539335 15.355604            0           0           0
      6.576162  6.050685 17.370809            0           0           0
      6.550128  6.057311 19.959236            0           0           0
      4.585580  4.540149 18.649998            0           0           0
      8.554559  4.539938 18.671926            0           0           0
      3.288940  6.056780 20.651311            0           0           0
      3.294880  6.052140 23.222433            0           0           0
      7.834334  4.490147 21.920912            0           0           0
      5.355361  4.528692 22.088373            0           0           0

 Finite differences POTIM=   1.0000000000000000E-002