 vasp.6.3.0 20Jan22 (build Aug 21 2024 11:13:42) complex
 executed on        HPECrayEX_GCC date 2024.11.26  11:42:07

 INCAR:
   SYSTEM = TiO2
   ISMEAR = 0
   SIGMA = 0.05
   EDIFF = 1E-4
   ALGO = ALL
   ISTART = 0
   IBRION = -1
   NSW = 0
   ISYM = 0
   ISIF = 2
   EDIFFG = -0.01
   DIPOL = 0.5 0.5 0.5
   IDIPOL = 3
   LDIPOL = .TRUE.
   METAGGA = R2SCAN
   LUSE_VDW = .TRUE.
   BPARAM = 11.95
   CPARAM = 0.0093
   LASPH = .TRUE.
   ENCUT = 600
   PREC = Accurate
   LASPH = .TRUE.
   LREAL = .FALSE.
   ISPIN = 1
   NELM = 200
   NELMIN = 8
   NCORE = 2
   KPAR = 1
   LWAVE = .FALSE.
   LCHARG = .FALSE.

 POTCAR:    PAW_PBE C 08Apr2002
 POTCAR:    PAW_PBE O 08Apr2002
 POTCAR:    PAW_PBE Ti_pv 07Sep2000
 POTCAR:    PAW_PBE O 08Apr2002
|               ----> ADVICE to this user running VASP <----                  |
|     You have switched on vdW-DFT.                                           |
|     This routine was written and supplied by Jiri Klimes. We recommend      |
|     that you carefully read and cite the following publications:            |
|       J. Klimes, D.R. Bowler, A. Michelides                                 |
|          J. Phys.: Cond Matt. 22 022201 (2010)                              |
|       J. Klimes, D.R. Bowler, A. Michelides                                 |
|          Phys. Rev. B. 83, 195131 (2011)                                    |
|     and references therein.                                                 |

   TITEL  = PAW_PBE C 08Apr2002
   POMASS =   12.011; ZVAL   =    4.000    mass and valenz
   ENMAX  =  400.000; ENMIN  =  300.000 eV

[...]

   TITEL  = PAW_PBE Ti_pv 07Sep2000
   POMASS =   47.880; ZVAL   =   10.000    mass and valenz
   ENMAX  =  222.335; ENMIN  =  166.751 eV

   TITEL  = PAW_PBE O 08Apr2002
   POMASS =   16.000; ZVAL   =    6.000    mass and valenz
   ENMAX  =  400.000; ENMIN  =  300.000 eV

  PAW_PBE C 08Apr2002                   :
  PAW_PBE O 08Apr2002                   :
  PAW_PBE Ti_pv 07Sep2000               :
  PAW_PBE O 08Apr2002                   :

 POSCAR:  C  O Ti  O
  positions in direct lattice

 METAGGA = R2SCA    LMAXTAU =  6    LMIXTAU =  F

 ion  position               nearest neighbor table
   1  0.500  0.595  0.808-   2 1.17   3 1.18
   2  0.500  0.688  0.820-   1 1.17
   3  0.500  0.502  0.794-   1 1.18
   4  0.750  0.625  0.287-  84 1.96  85 1.96 144 1.96 145 1.96  87 1.98 166 1.98  14 2.97  34 2.97

   5  0.000  0.750  0.287-  86 1.96  87 1.96 106 1.96 107 1.96  88 1.98  35 2.97  15 2.97
   6  0.000  0.625  0.393-  88 1.96  89 1.96 148 1.96 149 1.96  90 1.98  91 1.98  16 2.97  36 2.97

[...]

  83  0.500  0.499  0.710- 237 1.83 243 1.95 242 1.95 183 1.96 182 1.96  73 2.96  53 2.99
  84  0.750  0.750  0.245-   4 1.96  14 1.96
  85  0.750  0.750  0.329-   4 1.96  14 1.96   7 1.98
  86  0.098  0.625  0.287-   5 1.96  35 1.96  44 1.98
  87  0.902  0.625  0.287-   5 1.96  35 1.96   4 1.98
  88  0.000  0.750  0.352-   6 1.96  16 1.96   5 1.98
  89  0.000  0.750  0.435-   6 1.96  16 1.96   9 1.98
  90  0.848  0.625  0.393-   7 1.96  37 1.96   6 1.98
  91  0.152  0.625  0.393-  47 1.96  77 1.96   6 1.98
  92  0.750  0.750  0.458-   8 1.96  18 1.96   7 1.98
  93  0.750  0.750  0.542-   8 1.96  18 1.96  11 2.11
  94  0.098  0.625  0.500-   9 1.96  39 1.96  48 1.98
  95  0.902  0.625  0.500-   9 1.96  39 1.96   8 1.98
  96  1.000  0.750  0.566-  10 1.90  20 1.90   9 2.01
  97  1.000  0.750  0.649-  13 1.81  20 2.02  10 2.02
  98  0.850  0.625  0.607-  10 1.96  11 1.98  41 1.98
  99  0.150  0.625  0.607-  10 1.96  81 1.98  51 1.98
 100  0.750  0.750  0.672-  11 1.87  12 2.10  22 2.11
 101  0.750  0.750  0.756-  12 1.83  22 1.84
 102  0.094  0.625  0.719-  43 1.95  13 1.95  52 2.04
 103  0.906  0.625  0.719-  43 1.95  13 1.95  12 2.04
 104  0.750  0.000  0.245-  14 1.96  24 1.96
 105  0.750  0.000  0.329-  14 1.96  24 1.96  17 1.98
 106  0.098  0.875  0.287-   5 1.96  15 1.96  54 1.98
 107  0.902  0.875  0.287-   5 1.96  15 1.96  14 1.98
 108  0.000  0.000  0.352-  16 1.96  26 1.96  15 1.98
 109  0.000  0.000  0.435-  16 1.96  26 1.96  19 1.98
 110  0.848  0.875  0.393-   7 1.96  17 1.96  16 1.98
 111  0.152  0.875  0.393-  47 1.96  57 1.96  16 1.98
 112  0.750  0.000  0.458-  18 1.96  28 1.96  17 1.98
 113  0.750  0.000  0.542-  18 1.96  28 1.96  21 2.11
 114  0.098  0.875  0.500-   9 1.96  19 1.96  58 1.98
 115  0.902  0.875  0.500-   9 1.96  19 1.96  18 1.98
 116  1.000  0.000  0.566-  20 1.90  30 1.90  19 2.01
 117  1.000  0.000  0.649-  23 1.81  30 2.02  20 2.02
 118  0.850  0.875  0.607-  20 1.96  11 1.98  21 1.98
 119  0.150  0.875  0.607-  20 1.96  51 1.98  61 1.98
 120  0.750  0.000  0.672-  21 1.87  22 2.10  32 2.11
 121  0.750  0.000  0.756-  22 1.83  32 1.84
 122  0.094  0.875  0.719-  13 1.95  23 1.95  62 2.04
 123  0.906  0.875  0.719-  13 1.95  23 1.95  22 2.04
 124  0.750  0.250  0.245-  24 1.96  34 1.96
 125  0.750  0.250  0.329-  24 1.96  34 1.96  27 1.98
 126  0.098  0.125  0.287-  15 1.96  25 1.96  64 1.98
 127  0.902  0.125  0.287-  15 1.96  25 1.96  24 1.98
 128  0.000  0.250  0.352-  26 1.96  36 1.96  25 1.98
 129  0.000  0.250  0.435-  26 1.96  36 1.96  29 1.98
 130  0.848  0.125  0.393-  17 1.96  27 1.96  26 1.98
 131  0.152  0.125  0.393-  57 1.96  67 1.96  26 1.98
 132  0.750  0.250  0.458-  28 1.96  38 1.96  27 1.98
 133  0.750  0.250  0.542-  28 1.96  38 1.96  31 2.11
 134  0.098  0.125  0.500-  19 1.96  29 1.96  68 1.98
 135  0.902  0.125  0.500-  19 1.96  29 1.96  28 1.98
 136  1.000  0.250  0.566-  40 1.90  30 1.90  29 2.01
 137  1.000  0.250  0.649-  33 1.81  40 2.02  30 2.02
 138  0.850  0.125  0.607-  30 1.96  21 1.98  31 1.98
 139  0.150  0.125  0.607-  30 1.96  61 1.98  71 1.98
 140  0.751  0.250  0.672-  31 1.87  32 2.10  42 2.11
 141  0.750  0.251  0.756-  32 1.83  42 1.84
 142  0.094  0.125  0.719-  33 1.95  23 1.95  72 2.04
[...]
 229  0.500  0.500  0.435-  46 1.96  76 1.96  79 1.98
 230  0.348  0.375  0.393-  67 1.96  77 1.96  76 1.98
 231  0.652  0.375  0.393-  27 1.96  37 1.96  76 1.98
 232  0.250  0.500  0.458-  48 1.96  78 1.96  77 1.98
 233  0.250  0.500  0.542-  48 1.96  78 1.96  81 2.11
 234  0.598  0.375  0.500-  69 1.96  79 1.96  38 1.98
 235  0.402  0.375  0.500-  69 1.96  79 1.96  78 1.98
 236  0.500  0.500  0.566-  80 1.90  50 1.90  79 2.01
 237  0.500  0.500  0.650-  83 1.83  50 2.02  80 2.02
 238  0.350  0.375  0.607-  80 1.96  81 1.98  71 1.98
 239  0.650  0.375  0.607-  80 1.96  41 1.98  31 1.98
 240  0.249  0.500  0.672-  81 1.87  82 2.10  52 2.10
 241  0.251  0.501  0.756-  82 1.84  52 1.84
 242  0.594  0.374  0.718-  73 1.95  83 1.95  42 2.04
 243  0.406  0.374  0.718-  73 1.95  83 1.95  82 2.04

IMPORTANT INFORMATION: All symmetrisations will be switched off!
NOSYMM: (Re-)initialisation of all symmetry stuff for point group C_1.

                                     Primitive cell

  volume of cell :    4740.1649

  direct lattice vectors                    reciprocal lattice vectors
    13.042933829  0.000000000  0.000000000     0.076669867  0.000000000  0.000000000
     0.000000000 11.878216733  0.000000000     0.000000000  0.084187721  0.000000000
     0.000000000  0.000000000 30.596159140     0.000000000  0.000000000  0.032683841

  length of vectors
    13.042933829 11.878216733 30.596159140     0.076669867  0.084187721  0.032683841

  position of ions in fractional coordinates (direct lattice)
     0.499999780  0.595100811  0.807718152
     0.500000091  0.688052312  0.820421259
     0.499999374  0.501733848  0.794369770
     0.750000000  0.625000000  0.286853412
     0.000000000  0.750000000  0.286853412
     0.000000000  0.625000000  0.393426706
     0.750000000  0.750000000  0.393426706
     0.750000000  0.625000000  0.500000000
     0.000000000  0.750000000  0.500000000
     0.000043924  0.625178631  0.604449050
     0.750075519  0.750224533  0.610697483
     0.750209880  0.625748007  0.720239460
     0.999996712  0.750451044  0.708594158
     0.750000000  0.875000000  0.286853412
     0.000000000  0.000000000  0.286853412
     0.000000000  0.875000000  0.393426706
     0.750000000  0.000000000  0.393426706
     0.750000000  0.875000000  0.500000000
     0.000000000  0.000000000  0.500000000
     0.000047150  0.875170496  0.604476035
     0.749996417  0.000206366  0.610780742
     0.749852630  0.875624897  0.720539469
     0.999996694  0.000319484  0.708622103
     0.750000000  0.125000000  0.286853412
     0.000000000  0.250000000  0.286853412
     0.000000000  0.125000000  0.393426706
     0.750000000  0.250000000  0.393426706
     0.750000000  0.125000000  0.500000000
     0.000000000  0.250000000  0.500000000
     0.000041024  0.125126742  0.604477991
     0.750091615  0.250170038  0.610771117
     0.749929091  0.125567196  0.720501838
     0.999996880  0.250246741  0.708607641
     0.750000000  0.375000000  0.286853412
     0.000000000  0.500000000  0.286853412
     0.000000000  0.375000000  0.393426706
     0.750000000  0.500000000  0.393426706
     0.750000000  0.375000000  0.500000000
     0.000000000  0.500000000  0.500000000
     0.000038565  0.375141681  0.604451020
     0.750069191  0.500193752  0.610727252
     0.750227616  0.375588714  0.720439397
     0.999996845  0.500389543  0.708577440
     0.250000000  0.625000000  0.286853412
     0.500000000  0.750000000  0.286853412
     0.500000000  0.625000000  0.393426706
     0.250000000  0.750000000  0.393426706
     0.250000000  0.625000000  0.500000000
     0.500000000  0.750000000  0.500000000
     0.500044663  0.624598327  0.604803382
     0.249999430  0.750224147  0.610697510
     0.249783596  0.625747933  0.720239461
     0.499996553  0.750721495  0.708204858
     0.250000000  0.875000000  0.286853412
     0.500000000  0.000000000  0.286853412
     0.500000000  0.875000000  0.393426706
     0.250000000  0.000000000  0.393426706
     0.250000000  0.875000000  0.500000000
     0.500000000  0.000000000  0.500000000
     0.500047216  0.874928350  0.604182258
[...]
     0.500000000  0.500000000  0.435151311
     0.347877722  0.375000000  0.393426706
     0.652122278  0.375000000  0.393426706
     0.250000000  0.500000000  0.458275395
     0.250000000  0.500000000  0.541724605
     0.597877722  0.375000000  0.500000000
     0.402122278  0.375000000  0.500000000
     0.499993660  0.500023993  0.565728520
     0.499994897  0.500333782  0.649802493
     0.349950660  0.375167928  0.607403922
     0.650030524  0.375167864  0.607401977
     0.249326721  0.500308797  0.671712436
     0.250979237  0.500632383  0.755685350
     0.594259176  0.374289682  0.718255671
     0.405735000  0.374289929  0.718255839

  ion indices of the primitive-cell ions
   primitive index   ion index
                 1           1
                 2           2
                 3           3
                 4           4
                 5           5
                 6           6
                 7           7
                 8           8
                 9           9
                10          10
                11          11
                12          12
                13          13
                14          14
                15          15
                16          16
                17          17
[...]
   6.52142195  8.91723262 21.66834852
   3.26073346 10.39343964  8.77661266
   6.52146691  0.00000000  8.77661266
   6.52146691 10.39343964 12.03734611
   3.26073346  0.00000000 12.03734611
   3.26073346 10.39343964 15.29807957
   6.52146691  0.00000000 15.29807957
   6.52208275 10.39258856 18.48565650
[...]
   6.52146691  5.93910837 13.31395877
   4.53734611  4.45433128 12.03734611
   8.50558772  4.45433128 12.03734611
   3.26073346  5.93910837 14.02146691
   3.26073346  5.93910837 16.57469223
   7.79807957  4.45433128 15.29807957
   5.24485426  4.45433128 15.29807957
   6.52138423  5.93939337 17.30911983
   6.52140036  5.94307311 19.88146050
   4.56438330  4.45632597 18.58422705
   8.47830511  4.45632521 18.58416755
   3.25195193  5.94277632 20.55182060
   3.27350558  5.94661995 23.12106922
   7.75088311  4.44589397 21.97586480
   5.29197476  4.44589690 21.97586995

--------------------------------------- Iteration      FINAL  ---------------------------------------

--------------------OUTCAR has been truncated-------------------------

[...]

--------------------OUTCAR has been truncated-------------------------

  FORCE on cell =-STRESS in cart. coord.  units (eV):
  Direction    XX          YY          ZZ          XY          YZ          ZX
  Alpha Z  4682.06099  4682.06099  4682.06099
  Ewald  961636.30605979834.14557************     0.00363   248.72342    -0.04211
  Hartree************************************     0.00166   115.52179    -0.03006
  E(xc)   -9195.92173 -9205.46261 -9193.78169     0.00000     0.01938     0.00016
  Local  ************************************    -0.00521  -341.17826     0.07138
  n-local -5227.22442 -5138.79148 -5271.29660    -0.00001    -2.05797    -0.00146
  augment  5532.03483  5497.47108  5535.16295     0.00002    -0.94271     0.00069
  Kinetic 28977.46907 28428.24039 29011.98190    -0.00003   -21.00422     0.00382
  Fock        0.00000     0.00000     0.00000     0.00000     0.00000     0.00000
  Total     -44.77764  -105.63393   -80.15640     0.00007    -0.91857     0.00242
  in kB     -15.13486   -35.70430   -27.09289     0.00002    -0.31048     0.00082

 VOLUME and BASIS-vectors are now :
  energy-cutoff  :      600.00
  volume of cell :     4740.16
      direct lattice vectors                 reciprocal lattice vectors
    13.042933829  0.000000000  0.000000000     0.076669867  0.000000000  0.000000000
     0.000000000 11.878216733  0.000000000     0.000000000  0.084187721  0.000000000
     0.000000000  0.000000000 30.596159140     0.000000000  0.000000000  0.032683841

  length of vectors
    13.042933829 11.878216733 30.596159140     0.076669867  0.084187721  0.032683841

 FORCES acting on ions:
    Electron-Ion                     Ewald-Force                    Non-Local-Force
   0.650E-03 0.595E+01 -.155E+04   -.651E-03 -.573E+01 0.155E+04   -.156E-05 -.976E-01 0.495E-01
   0.245E-03 -.259E+03 -.228E+04   0.185E-04 0.322E+03 0.230E+04   -.264E-03 -.630E+02 -.229E+02
   0.240E-02 0.256E+03 -.237E+04   -.260E-02 -.316E+03 0.235E+04   0.186E-03 0.610E+02 0.180E+02
   -.247E+00 -.503E-02 0.376E+04   0.246E+00 0.516E-02 -.376E+04   0.214E-04 0.167E-04 0.437E+00
   -.272E-03 -.705E-01 0.394E+04   0.742E-05 0.707E-01 -.393E+04   0.270E-03 -.806E-05 -.402E+01
   0.168E-03 -.187E-01 0.193E+04   -.124E-03 0.188E-01 -.193E+04   -.104E-03 0.881E-04 -.640E-01
   -.432E+00 -.121E+00 0.192E+04   0.430E+00 0.122E+00 -.192E+04   0.595E-03 -.460E-04 0.218E+00
   -.184E+01 -.445E-01 0.167E+02   0.184E+01 0.417E-01 -.159E+02   0.163E-02 0.358E-03 -.135E+00
   0.350E-02 -.643E+00 0.248E+02   -.422E-02 0.649E+00 -.259E+02   0.440E-03 -.320E-02 0.355E+00
   0.180E+00 -.882E+00 -.183E+04   -.179E+00 0.881E+00 0.183E+04   -.117E-02 0.103E-02 0.159E+00
   -.111E+02 -.566E+01 -.188E+04   0.111E+02 0.566E+01 0.188E+04   -.334E-02 -.275E-02 -.166E+00
   -.773E+02 -.809E+01 -.367E+04   0.773E+02 0.809E+01 0.367E+04   0.664E-02 0.253E-03 -.339E+00
   -.186E-02 -.819E+01 -.373E+04   0.145E-02 0.820E+01 0.373E+04   0.367E-03 -.166E-02 0.112E+01
   -.243E+00 -.989E-01 0.376E+04   0.243E+00 0.993E-01 -.376E+04   0.533E-04 -.744E-05 0.437E+00
   -.325E-03 -.604E-01 0.394E+04   0.767E-05 0.605E-01 -.393E+04   0.266E-03 0.276E-05 -.402E+01
   0.191E-03 -.174E+00 0.193E+04   -.129E-03 0.174E+00 -.193E+04   -.109E-03 0.868E-04 -.641E-01
   -.438E+00 -.125E+00 0.192E+04   0.436E+00 0.125E+00 -.192E+04   0.682E-03 0.482E-06 0.218E+00
   -.204E+01 -.992E+00 0.155E+02   0.204E+01 0.100E+01 -.147E+02   0.958E-03 -.819E-03 -.136E+00
   0.329E-02 -.418E+00 0.236E+02   -.401E-02 0.422E+00 -.247E+02   0.436E-03 -.209E-02 0.355E+00
   0.189E+00 -.357E+01 -.184E+04   -.188E+00 0.357E+01 0.184E+04   -.126E-02 0.116E-02 0.159E+00
   -.765E+01 -.283E+01 -.190E+04   0.766E+01 0.283E+01 0.190E+04   -.166E-03 -.779E-03 -.162E+00
   -.383E+02 -.273E+02 -.370E+04   0.383E+02 0.273E+02 0.370E+04   0.224E-01 0.254E-02 -.372E+00
   -.140E-02 -.521E+01 -.374E+04   0.956E-03 0.521E+01 0.374E+04   0.360E-03 0.102E-02 0.113E+01
   -.235E+00 0.496E-02 0.376E+04   0.235E+00 -.517E-02 -.376E+04   0.600E-04 0.674E-05 0.437E+00
   -.365E-03 0.705E-01 0.394E+04   0.769E-05 -.707E-01 -.393E+04   0.262E-03 0.182E-04 -.402E+01
   0.185E-03 0.189E-01 0.193E+04   -.117E-03 -.191E-01 -.193E+04   -.103E-03 0.581E-04 -.642E-01
   -.404E+00 0.121E+00 0.192E+04   0.402E+00 -.121E+00 -.192E+04   0.598E-03 0.138E-04 0.218E+00
   -.184E+01 0.471E-01 0.146E+02   0.184E+01 -.486E-01 -.138E+02   0.108E-02 0.958E-04 -.137E+00
   0.261E-02 0.791E+00 0.239E+02   -.330E-02 -.792E+00 -.250E+02   0.419E-03 -.107E-02 0.355E+00
   0.170E+00 0.629E+00 -.184E+04   -.169E+00 -.633E+00 0.184E+04   -.110E-02 0.380E-02 0.159E+00
   -.848E+01 0.551E+01 -.189E+04   0.848E+01 -.551E+01 0.189E+04   -.397E-02 0.329E-02 -.164E+00
   -.229E+02 0.729E+01 -.371E+04   0.229E+02 -.729E+01 0.372E+04   0.147E-01 -.866E-03 -.368E+00
   -.727E-03 0.686E+01 -.374E+04   0.331E-03 -.687E+01 0.374E+04   0.353E-03 0.714E-02 0.112E+01
   -.239E+00 0.989E-01 0.376E+04   0.239E+00 -.993E-01 -.376E+04   0.948E-05 0.356E-04 0.437E+00
   -.346E-03 0.605E-01 0.394E+04   0.741E-05 -.605E-01 -.393E+04   0.282E-03 0.132E-04 -.402E+01
   0.148E-03 0.174E+00 0.193E+04   -.112E-03 -.174E+00 -.193E+04   -.104E-03 0.496E-04 -.641E-01
   -.398E+00 0.125E+00 0.192E+04   0.397E+00 -.126E+00 -.192E+04   0.442E-03 -.332E-04 0.218E+00
   -.164E+01 0.973E+00 0.158E+02   0.163E+01 -.982E+00 -.149E+02   0.149E-02 0.868E-03 -.136E+00
   0.284E-02 0.564E+00 0.251E+02   -.352E-02 -.564E+00 -.262E+02   0.431E-03 -.174E-02 0.355E+00
   0.163E+00 0.331E+01 -.184E+04   -.163E+00 -.331E+01 0.184E+04   -.105E-02 0.217E-02 0.160E+00
   -.123E+02 0.356E+01 -.188E+04   0.123E+02 -.356E+01 0.188E+04   -.195E-02 -.562E-03 -.171E+00
   -.554E+02 0.323E+02 -.369E+04   0.553E+02 -.324E+02 0.369E+04   0.157E-01 0.704E-02 -.358E+00
   -.137E-02 0.532E+01 -.373E+04   0.956E-03 -.534E+01 0.373E+04   0.357E-03 0.498E-02 0.111E+01
   0.247E+00 -.503E-02 0.376E+04   -.246E+00 0.516E-02 -.376E+04   -.294E-03 -.123E-04 0.437E+00
   -.226E-03 -.764E-01 0.394E+04   -.247E-04 0.768E-01 -.393E+04   0.259E-03 -.359E-04 -.402E+01
   0.344E-03 0.396E-01 0.193E+04   -.276E-03 -.344E-01 -.193E+04   -.971E-04 -.967E-03 -.644E-01
   0.431E+00 -.121E+00 0.192E+04   -.430E+00 0.122E+00 -.192E+04   -.162E-03 -.499E-04 0.218E+00
   0.184E+01 -.445E-01 0.167E+02   -.183E+01 0.418E-01 -.159E+02   -.196E-02 0.359E-03 -.135E+00
   0.462E-02 -.427E+00 0.290E+02   -.531E-02 0.408E+00 -.300E+02   0.421E-03 0.104E-01 0.337E+00
   0.177E+00 -.239E+01 -.181E+04   -.176E+00 0.243E+01 0.181E+04   -.123E-02 -.287E-01 0.144E+00
   0.113E+02 -.566E+01 -.188E+04   -.113E+02 0.566E+01 0.188E+04   0.158E-02 -.273E-02 -.166E+00
   0.773E+02 -.809E+01 -.367E+04   -.773E+02 0.809E+01 0.367E+04   -.671E-02 0.261E-03 -.339E+00
   0.743E-03 -.677E+02 -.361E+04   -.118E-02 0.677E+02 0.361E+04   0.359E-03 0.806E-02 0.114E+01
   0.243E+00 -.989E-01 0.376E+04   -.243E+00 0.993E-01 -.376E+04   -.324E-03 -.621E-05 0.437E+00
   -.204E-03 -.726E-01 0.394E+04   -.248E-04 0.727E-01 -.393E+04   0.259E-03 -.141E-04 -.402E+01
   0.345E-03 -.162E+00 0.193E+04   -.289E-03 0.164E+00 -.193E+04   -.103E-03 -.522E-03 -.647E-01
   0.437E+00 -.125E+00 0.192E+04   -.435E+00 0.125E+00 -.192E+04   -.244E-03 0.442E-05 0.218E+00
   0.204E+01 -.992E+00 0.155E+02   -.203E+01 0.100E+01 -.147E+02   -.131E-02 -.833E-03 -.136E+00
   0.390E-02 -.760E+00 0.286E+02   -.465E-02 0.764E+00 -.297E+02   0.446E-03 -.191E-02 0.339E+00
   0.182E+00 -.999E+01 -.181E+04   -.181E+00 0.999E+01 0.181E+04   -.135E-02 0.234E-02 0.110E+00
[...]
   -.530E+02 0.101E+00 0.115E+04   0.571E+02 -.102E+00 -.115E+04   -.364E+01 0.127E-02 0.175E+00
   0.530E+02 0.102E+00 0.115E+04   -.571E+02 -.102E+00 -.115E+04   0.364E+01 0.126E-02 0.175E+00
   0.563E+00 0.203E+00 0.510E+03   -.560E+00 -.205E+00 -.514E+03   -.521E-02 0.426E-02 0.430E+01
   0.199E+01 0.834E+00 -.505E+03   -.198E+01 -.849E+00 0.512E+03   -.445E-02 0.193E-01 -.740E+01
   -.554E+02 0.465E+00 0.161E+02   0.602E+02 -.469E+00 -.163E+02   -.539E+01 0.166E-01 0.344E+00
   0.554E+02 0.465E+00 0.161E+02   -.602E+02 -.470E+00 -.163E+02   0.539E+01 0.166E-01 0.343E+00
   0.964E-01 0.143E+01 -.603E+03   -.107E+00 -.145E+01 0.596E+03   0.105E-01 0.144E-01 0.678E+01
   0.650E-01 0.513E+01 -.155E+04   -.720E-01 -.504E+01 0.155E+04   0.702E-02 -.887E-01 0.204E+01
   -.231E+02 0.470E+01 -.110E+04   0.262E+02 -.474E+01 0.110E+04   -.306E+01 0.361E-01 0.932E+00
   0.227E+02 0.470E+01 -.110E+04   -.257E+02 -.473E+01 0.110E+04   0.301E+01 0.354E-01 0.929E+00
   0.220E+02 0.515E+01 -.177E+04   -.221E+02 -.514E+01 0.177E+04   0.814E-01 -.116E-01 -.242E+01
   0.681E+02 0.166E+02 -.267E+04   -.679E+02 -.165E+02 0.269E+04   -.149E+00 -.573E-01 -.214E+02
   -.561E+02 0.479E+02 -.226E+04   0.624E+02 -.480E+02 0.226E+04   -.636E+01 0.111E+00 -.372E+01
   0.561E+02 0.479E+02 -.226E+04   -.624E+02 -.480E+02 0.226E+04   0.636E+01 0.111E+00 -.372E+01
   0.249E+00 0.242E+01 0.106E+03   -.540E-12 -.113E-11 0.318E-11   -.254E+00 -.245E+01 -.106E+03

 POSITION                                       TOTAL-FORCE (eV/Angst)
      6.52146      7.06874     24.71307         0.000018      0.133419     -0.019977
      6.52147      8.17283     25.10174         0.000021     -0.818293     -0.332462
      6.52146      5.95970     24.30466         0.000007      0.680899      0.073802
      9.78220      7.42389      8.77661        -0.000332      0.000271     -3.670996
      0.00000      8.90866      8.77661         0.000023      0.000273      3.046139
      0.00000      7.42389     12.03735        -0.000038      0.000224      0.523180
      9.78220      8.90866     12.03735        -0.001294      0.000697     -0.729814
      9.78220      7.42389     15.29808        -0.006715     -0.002260      0.705972
      0.00000      8.90866     15.29808        -0.000260      0.003033     -0.740286
      0.00057      7.42601     18.49382        -0.000354     -0.000513      0.031639
      9.78319      8.91133     18.68500         0.000037     -0.001191     -0.037145
      9.78494      7.43277     22.03656        -0.004780     -0.003365      0.064135
     13.04289      8.91402     21.68026        -0.000029      0.007274      0.067528
      9.78220     10.39344      8.77661        -0.000466      0.000509     -3.671010
      0.00000      0.00000      8.77661        -0.000035      0.000159      3.045966
      0.00000     10.39344     12.03735        -0.000025      0.000341      0.523439
      9.78220      0.00000     12.03735        -0.001567      0.000300     -0.728490
      9.78220     10.39344     15.29808        -0.004542      0.011454      0.711650
      0.00000      0.00000     15.29808        -0.000264      0.001939     -0.738623
      0.00061     10.39546     18.49464        -0.000387      0.001851      0.033294
      9.78215      0.00245     18.68754         0.001298     -0.001916     -0.033967
      9.78028     10.40086     22.04574        -0.003130      0.001152      0.061528
     13.04289      0.00379     21.68111        -0.000068      0.001150      0.067215
      9.78220      1.48478      8.77661        -0.000404     -0.000075     -3.671019
      0.00000      2.96955      8.77661        -0.000079     -0.000039      3.045932
      0.00000      1.48478     12.03735        -0.000013      0.000007      0.523533
      9.78220      2.96955     12.03735        -0.001285     -0.000465     -0.728274
      9.78220      1.48478     15.29808        -0.004351     -0.001248      0.718559
      0.00000      2.96955     15.29808        -0.000252     -0.001766     -0.739389
      0.00054      1.48628     18.49470        -0.000311     -0.000108      0.034025
      9.78340      2.97157     18.68725         0.000267     -0.002327     -0.033422
      9.78128      1.49151     22.04459        -0.002315     -0.000158      0.064231
     13.04289      2.97249     21.68067        -0.000023     -0.004699      0.066435
      9.78220      4.45433      8.77661        -0.000346     -0.000241     -3.670987
      0.00000      5.93911      8.77661        -0.000040      0.000109      3.046268
      0.00000      4.45433     12.03735        -0.000047     -0.000112      0.523325
      9.78220      5.93911     12.03735        -0.000988     -0.000123     -0.729447
      9.78220      4.45433     15.29808        -0.007491     -0.007771      0.712756
      0.00000      5.93911     15.29808        -0.000232     -0.001271     -0.740759
      0.00050      4.45601     18.49388        -0.000280     -0.001735      0.033594
      9.78310      5.94141     18.68591         0.001837     -0.002178     -0.035626
      9.78517      4.46132     22.04268        -0.008002     -0.014095      0.060742
     13.04289      5.94374     21.67975        -0.000037     -0.007898      0.066366
      3.26073      7.42389      8.77661         0.000357      0.000243     -3.671083
      6.52147      8.90866      8.77661         0.000025      0.000473      3.047470
      6.52147      7.42389     12.03735        -0.000007      0.004219      0.525992
      3.26073      8.90866     12.03735         0.001272      0.000744     -0.729746
      3.26073      7.42389     15.29808         0.007003     -0.002215      0.705964
      6.52147      8.90866     15.29808        -0.000255     -0.008728     -0.709653
      6.52205      7.41911     18.50466        -0.000313      0.001669      0.029171
      3.26073      8.91133     18.68500         0.000355     -0.001239     -0.037100
      3.25791      7.43277     22.03656         0.004663     -0.003395      0.064149
      6.52142      8.91723     21.66835        -0.000064      0.012106      0.071950
      3.26073     10.39344      8.77661         0.000392      0.000450     -3.671030
      6.52147      0.00000      8.77661         0.000047      0.000170      3.047763
      6.52147     10.39344     12.03735        -0.000026      0.001927      0.528707
      3.26073      0.00000     12.03735         0.001574      0.000299     -0.728499
      3.26073     10.39344     15.29808         0.004854      0.011453      0.711642
      6.52147      0.00000     15.29808        -0.000285      0.001965     -0.759700
      6.52208     10.39259     18.48566        -0.000388      0.002775      0.035345
[...]
      6.52147      5.93911     13.31396         0.000041      0.000446     -0.149789
      4.53735      4.45433     12.03735         0.402738      0.000668      0.054316
      8.50559      4.45433     12.03735        -0.402489      0.000682      0.054327
      3.26073      5.93911     14.02147        -0.001472      0.002459     -0.063583
      3.26073      5.93911     16.57469         0.000310      0.004520     -0.051212
      7.79808      4.45433     15.29808        -0.532901      0.011733      0.095240
      5.24485      4.45433     15.29808         0.533002      0.011737      0.095046
      6.52138      5.93939     17.30912        -0.000003      0.000596     -0.004108
      6.52140      5.94307     19.88146         0.000003     -0.002072     -0.106294
      4.56438      4.45633     18.58423        -0.030872      0.000695      0.007463
      8.47831      4.45633     18.58417         0.031105      0.000671      0.007422
      3.25195      5.94278     20.55182        -0.000614      0.000717      0.078912
      3.27351      5.94662     23.12107         0.015395      0.004566     -0.254978
      7.75088      4.44589     21.97586        -0.060438      0.003054     -0.077764
      5.29197      4.44590     21.97587         0.060317      0.003013     -0.077728
    total drift:                               -0.005022     -0.028040     -0.022644

  FREE ENERGIE OF THE ION-ELECTRON SYSTEM (eV)
  free  energy   TOTEN  =     -2735.26804833 eV

  energy  without entropy=    -2735.26804833  energy(sigma->0) =    -2735.26804833