 vasp.6.3.0 20Jan22 (build Apr  1 2022 16:44:48) gamma-only
 executed on        HPECrayEX_GCC date 2023.02.22  03:52:24

 INCAR:
   SYSTEM = MgO-rocksalt
   ISMEAR = 0
   SIGMA = 0.05
   EDIFF = 1E-6
   ALGO = ALL
   ISTART = 0
   IBRION = -1
   NSW = 0
   ISYM = 0
   DIPOL = 0.5 0.5 0.5
   IDIPOL = 3
   LDIPOL = .TRUE.
   GGA = MK
   LUSE_VDW = .TRUE.
   PARAM1 = 0.1234
   PARAM2 = 0.711357
   ZAB_VDW = -1.8867
   AGGAC = 0.0
   ENCUT = 520
   PREC = Accurate
   LASPH = .TRUE.
   LREAL = Auto
   ISPIN = 1
   NELM = 200
   NELMIN = 8
   NCORE = 8
   KPAR = 1
   LWAVE = .FALSE.
   LCHARG = .FALSE.

 POTCAR:    PAW_PBE H 15Jun2001
 POTCAR:    PAW_PBE O 08Apr2002
 POTCAR:    PAW_PBE Mg_pv 13Apr2007
 POTCAR:    PAW_PBE O 08Apr2002
|               ----> ADVICE to this user running VASP <----                  |
|     You have switched on vdW-DFT.                                           |
|     This routine was written and supplied by Jiri Klimes. We recommend      |
|     that you carefully read and cite the following publications:            |
|       J. Klimes, D.R. Bowler, A. Michelides                                 |
|          J. Phys.: Cond Matt. 22 022201 (2010)                              |
|       J. Klimes, D.R. Bowler, A. Michelides                                 |
|          Phys. Rev. B. 83, 195131 (2011)                                    |
|     and references therein.                                                 |

   TITEL  = PAW_PBE H 15Jun2001
   POMASS =    1.000; ZVAL   =    1.000    mass and valenz
   ENMAX  =  250.000; ENMIN  =  200.000 eV

   TITEL  = PAW_PBE O 08Apr2002
   POMASS =   16.000; ZVAL   =    6.000    mass and valenz
   ENMAX  =  400.000; ENMIN  =  300.000 eV

   TITEL  = PAW_PBE Mg_pv 13Apr2007
   POMASS =   24.305; ZVAL   =    8.000    mass and valenz
   ENMAX  =  403.929; ENMIN  =  302.947 eV

   TITEL  = PAW_PBE O 08Apr2002
   POMASS =   16.000; ZVAL   =    6.000    mass and valenz
   ENMAX  =  400.000; ENMIN  =  300.000 eV

 Optimization of the real space projectors (new method)

 maximal supplied QI-value         = 34.20
 optimisation between [QCUT,QGAM] = [ 11.63, 23.26] = [ 37.87,151.49] Ry
 Optimized for a Real-space Cutoff    1.21 Angstroem

   l    n(q)    QCUT    max X(q) W(low)/X(q) W(high)/X(q)  e(spline)
   0      8    11.629    19.460    0.17E-03    0.34E-03    0.21E-06
   0      8    11.629    12.209    0.16E-03    0.33E-03    0.21E-06
   1      8    11.629     4.655    0.18E-03    0.16E-03    0.26E-06
 Optimization of the real space projectors (new method)

[...]

   l    n(q)    QCUT    max X(q) W(low)/X(q) W(high)/X(q)  e(spline)
   1      8    11.527     2.974    0.44E-04    0.56E-04    0.12E-06
   1      8    11.527     4.279    0.12E-03    0.12E-03    0.26E-06
   0      9    11.527    16.381    0.46E-04    0.64E-04    0.78E-07
   0      9    11.527     5.611    0.26E-04    0.43E-04    0.55E-07
   2      8    11.527     4.652    0.22E-03    0.72E-04    0.47E-07
 Optimization of the real space projectors (new method)

 maximal supplied QI-value         = 24.76
 optimisation between [QCUT,QGAM] = [ 11.64, 23.27] = [ 37.91,151.63] Ry
 Optimized for a Real-space Cutoff    1.14 Angstroem

   l    n(q)    QCUT    max X(q) W(low)/X(q) W(high)/X(q)  e(spline)
   0      8    11.635    20.381    0.10E-03    0.33E-03    0.24E-06
   0      8    11.635    15.268    0.11E-03    0.35E-03    0.26E-06
   1      7    11.635     5.964    0.24E-03    0.31E-03    0.30E-06
   1      7    11.635     5.382    0.22E-03    0.25E-03    0.26E-06
|               ----> ADVICE to this user running VASP <----                  |
|     You enforced a specific xc type in the INCAR file but a different       |
|     type was found in the POTCAR file.                                      |
|     I HOPE YOU KNOW WHAT YOU ARE DOING!                                     |

  PAW_PBE H 15Jun2001                   :
  PAW_PBE O 08Apr2002                   :
  PAW_PBE Mg_pv 13Apr2007               :
  PAW_PBE O 08Apr2002                   :

 POSCAR:  H  O Mg  O
  positions in direct lattice
 exchange correlation table for  LEXCH =       43
   RHO(1)=    0.500       N(1)  =     2000
   RHO(2)=  100.500       N(2)  =     4000

 ion  position               nearest neighbor table
   1  0.417  0.429  0.760-   9 0.99
   2  0.331  0.392  0.767-   9 0.97
   3  0.584  0.325  0.761-  10 0.99
   4  0.671  0.360  0.766-  10 0.97
   5  0.449  0.294  0.761-  11 0.99
   6  0.484  0.208  0.769-  11 0.97
   7  0.553  0.463  0.760-  12 0.99
   8  0.516  0.549  0.762-  12 0.97
   9  0.385  0.380  0.755-   2 0.97   1 0.99  43 2.25
  10  0.616  0.373  0.755-   4 0.97   3 0.99  91 2.25
  11  0.497  0.261  0.756-   6 0.97   5 0.99 108 2.25
  12  0.504  0.493  0.755-   8 0.97   7 0.99 132 2.25
  13  0.125  0.000  0.351- 141 2.12 143 2.12 144 2.12 160 2.12 183 2.12
  14  0.250  0.125  0.351- 142 2.12 143 2.12 144 2.12 152 2.12 159 2.12
  15  0.125  0.125  0.450- 147 2.11 143 2.12 141 2.12 142 2.12 149 2.12 158 2.12
  16  0.250  0.000  0.450- 148 2.11 144 2.12 141 2.12 142 2.12 157 2.12 182 2.12
  17  0.125  1.000  0.550- 147 2.12 148 2.12 164 2.12 187 2.12 141 2.12 145 2.14
  18  0.250  0.125  0.550- 156 2.12 163 2.12 142 2.12 147 2.12 148 2.12 146 2.14
  19  0.125  0.125  0.648- 147 2.10 146 2.11 162 2.12 145 2.12 153 2.12
  20  0.250  1.000  0.647- 148 2.10 146 2.11 186 2.12 161 2.12 145 2.12
  21  0.125  0.250  0.351- 149 2.12 143 2.12 151 2.12 152 2.12 168 2.12
  22  0.250  0.375  0.351- 150 2.12 151 2.12 152 2.12 167 2.12 176 2.12
  23  0.125  0.375  0.450- 155 2.11 151 2.12 149 2.12 150 2.12 166 2.12 173 2.12
  24  0.250  0.250  0.450- 156 2.11 152 2.12 150 2.12 142 2.12 149 2.12 165 2.12
  25  0.125  0.250  0.550- 156 2.11 172 2.12 155 2.12 147 2.12 149 2.12 153 2.15
  26  0.250  0.375  0.550- 171 2.10 156 2.12 180 2.12 155 2.12 150 2.12 154 2.17
  27  0.125  0.375  0.648- 155 2.09 154 2.10 170 2.11 153 2.12 177 2.12
  28  0.250  0.250  0.647- 156 2.09 169 2.10 153 2.12 146 2.12 154 2.13
  29  0.375  0.000  0.351- 157 2.12 144 2.12 159 2.12 199 2.12 224 2.12
  30  0.000  0.125  0.351- 158 2.12 143 2.12 160 2.12 168 2.12 223 2.12
  31  0.375  0.125  0.450- 163 2.11 159 2.12 142 2.12 157 2.12 165 2.12 222 2.12
  32  0.000  0.000  0.450- 164 2.11 160 2.12 141 2.12 158 2.12 198 2.12 221 2.12
  33  0.375  1.000  0.550- 163 2.11 203 2.12 228 2.12 157 2.12 148 2.12 161 2.15
  34  0.000  0.125  0.550- 227 2.11 147 2.12 164 2.12 172 2.12 158 2.12 162 2.14
  35  0.375  0.125  0.647- 163 2.08 169 2.09 161 2.12 146 2.12 226 2.12
  36  0.000  1.000  0.648- 164 2.10 225 2.11 145 2.11 202 2.12 162 2.12
  37  0.375  0.250  0.351- 165 2.12 159 2.12 152 2.12 167 2.12 232 2.12
  38  0.000  0.375  0.351- 166 2.12 151 2.12 168 2.12 192 2.12 231 2.12
  39  0.375  0.375  0.450- 167 2.12 165 2.12 150 2.12 189 2.12 230 2.12 171 2.12
  40  0.000  0.250  0.450- 172 2.11 168 2.12 166 2.12 149 2.12 158 2.12 229 2.12
  41  0.375  0.250  0.550- 236 2.11 171 2.11 169 2.12 163 2.13 156 2.13 165 2.13
  42  0.000  0.375  0.550- 235 2.12 155 2.12 196 2.12 172 2.12 166 2.12 170 2.14
  43  0.375  0.374  0.650- 234 2.11 169 2.13 154 2.14 171 2.15 193 2.15   9 2.25
  44  0.000  0.250  0.648- 172 2.10 153 2.11 233 2.11 162 2.12 170 2.12
  45  0.125  0.500  0.351- 173 2.12 151 2.12 175 2.12 176 2.12 192 2.12
  46  0.250  0.625  0.351- 174 2.12 175 2.12 176 2.12 184 2.12 191 2.12
  47  0.125  0.625  0.450- 179 2.11 175 2.12 173 2.12 174 2.12 181 2.12 190 2.12
  48  0.250  0.500  0.450- 180 2.11 176 2.12 174 2.12 150 2.12 173 2.12 189 2.12
  49  0.125  0.500  0.550- 180 2.11 196 2.12 155 2.12 173 2.12 179 2.12 177 2.15
  50  0.250  0.625  0.550- 195 2.12 180 2.12 174 2.12 188 2.12 179 2.12 178 2.14
  51  0.125  0.625  0.648- 179 2.10 178 2.11 194 2.11 185 2.12 177 2.12
  52  0.250  0.500  0.647- 180 2.08 193 2.09 177 2.12 178 2.12 154 2.12
  53  0.125  0.750  0.351- 181 2.12 175 2.12 183 2.12 184 2.12 200 2.12
  54  0.250  0.875  0.351- 182 2.12 144 2.12 183 2.12 184 2.12 199 2.12
  55  0.125  0.875  0.450- 187 2.11 183 2.12 182 2.12 141 2.12 181 2.12 198 2.12
  56  0.250  0.750  0.450- 188 2.11 184 2.12 182 2.12 174 2.12 181 2.12 197 2.12
  57  0.125  0.750  0.550- 188 2.12 204 2.12 179 2.12 187 2.12 181 2.12 185 2.14
  58  0.250  0.875  0.550- 148 2.11 188 2.12 187 2.12 203 2.12 182 2.12 186 2.14
  59  0.125  0.875  0.648- 187 2.10 145 2.11 185 2.11 202 2.12 186 2.12
  60  0.250  0.750  0.648- 188 2.10 178 2.11 186 2.12 185 2.12 201 2.12
[...]
 254  0.500  0.625  0.450- 126 2.12 111 2.12  63 2.12 128 2.12 136 2.12 130 2.12
 255  0.875  0.625  0.351- 127 2.12 110 2.12 125 2.12  62 2.12 133 2.12
 256  0.500  0.500  0.351- 128 2.12 102 2.12 109 2.12 126 2.12  61 2.12
 257  0.875  0.500  0.650-  68 2.11 131 2.12 116 2.12 107 2.12 129 2.15
 258  0.500  0.626  0.652- 140 2.11 115 2.13  67 2.13 132 2.15 130 2.17
 259  0.875  0.625  0.549- 131 2.10 127 2.11  66 2.12 137 2.12 114 2.12 129 2.12
 260  0.500  0.501  0.550- 130 2.10  65 2.11 113 2.11 128 2.12 106 2.13 132 2.14
 261  0.875  0.750  0.450- 133 2.12 120 2.12 127 2.12  72 2.12 135 2.12 137 2.12
 262  0.500  0.875  0.450- 134 2.12  96 2.12 119 2.12  71 2.12 136 2.12 138 2.12
 263  0.875  0.875  0.351- 135 2.12  93 2.12 118 2.12 133 2.12  70 2.12
 264  0.500  0.750  0.351- 136 2.12 117 2.12 126 2.12 134 2.12  69 2.12
 265  0.875  0.750  0.650-  76 2.11 139 2.11 124 2.12 131 2.12 137 2.14
 266  0.500  0.875  0.650- 140 2.11 100 2.11 123 2.12  75 2.12 138 2.14
 267  0.875  0.875  0.549- 139 2.10 135 2.11  74 2.12  97 2.12 137 2.12 122 2.12
 268  0.500  0.750  0.550- 140 2.09 136 2.12  73 2.12 121 2.12 138 2.12 130 2.12

IMPORTANT INFORMATION: All symmetrisations will be switched off!
NOSYMM: (Re-)initialisation of all symmetry stuff for point group C_1.

                                     Primitive cell

  volume of cell :    6122.6422

  direct lattice vectors                    reciprocal lattice vectors
    16.934285261  0.000000000  0.000000000     0.059051798  0.000000000  0.000000000
     0.000000000 16.934285261  0.000000000     0.000000000  0.059051798  0.000000000
     0.000000000  0.000000000 21.350356973     0.000000000  0.000000000  0.046837624

  length of vectors
    16.934285261 16.934285261 21.350356973     0.059051798  0.059051798  0.046837624

  position of ions in fractional coordinates (direct lattice)
     0.416548634  0.428931814  0.759692052
     0.330655756  0.391962717  0.766821120
     0.583932523  0.324915976  0.760919985
     0.670679165  0.360445391  0.766326064
     0.448879897  0.294104466  0.760521239
     0.484499428  0.207930357  0.769493313
     0.553047746  0.462568351  0.760072841
     0.515681455  0.548868551  0.762330631
     0.384957108  0.379936687  0.755332063
     0.616363801  0.373182218  0.755342791
     0.496962318  0.261182222  0.755556936
     0.503718744  0.493341513  0.755018650
     0.125000000  0.000000000  0.351282183
     0.250000000  0.125000000  0.351282183
     0.125000000  0.125000000  0.450427394
     0.250000000  0.000000000  0.450427394
     0.124976460  0.999995091  0.549662152
     0.249963527  0.125000295  0.549598213
     0.124898938  0.124832303  0.647520932
     0.249821013  0.999907101  0.647494962
[...]
   2.11678566 12.70071395  7.50000000
   4.23357132 14.81749960  7.50000000
   2.11678566 14.81749960  9.61678566
   4.23357132 12.70071395  9.61678566
   2.11633460 12.70151941 11.73558311
   4.23309001 14.81786392 11.73576645
   2.11487540 14.81825328 13.82500090
   4.22993741 12.70340576 13.82473819
[...]
   8.46714263 10.58392829  9.61678566
  14.81749960 10.58392829  7.50000000
   8.46714263  8.46714263  7.50000000
  14.82124606  8.47126807 13.88076794
   8.46924050 10.60127330 13.91354387
  14.81944450 10.58537590 11.72866960
   8.46605640  8.47784763 11.73750349
  14.81749960 12.70071395  9.61678566
   8.46714263 14.81749960  9.61678566
  14.81749960 14.81749960  7.50000000
   8.46714263 12.70071395  7.50000000
  14.82114498 12.70396702 13.87807751
   8.46743935 14.81760709 13.88173193
  14.81871656 14.81784139 11.72851494
   8.46721498 12.70054012 11.73312055

--------------------------------------- Iteration      FINAL  ---------------------------------------

--------------------OUTCAR has been truncated-------------------------

[...]

--------------------OUTCAR has been truncated-------------------------

  FORCE on cell =-STRESS in cart. coord.  units (eV):
  Direction    XX          YY          ZZ          XY          YZ          ZX
  Alpha Z  3571.72065  3571.72065  3571.72065
  Ewald  639019.79319639023.28480************     0.13559   -13.64489    -2.84864
  Hartree680090.52327680093.78855************     0.15101    -4.04073    -0.07021
  E(xc)   -9965.45136 -9965.44987 -9967.04601    -0.00015    -0.05725    -0.01965
  Local  ************************************    -0.33944    14.00153     1.71328
  n-local-11446.41389-11446.44012-11516.99588     0.00383     0.04202     0.07124
  augment  4230.94551  4230.95329  4201.42541     0.00132     0.24742     0.07705
  Kinetic 29772.28253 29772.40090 30007.65311     0.04463     3.28996     1.00234
  Fock        0.00000     0.00000     0.00000     0.00000     0.00000     0.00000
  Total    -126.22499  -126.28112    -8.72454    -0.00321    -0.16193    -0.07459
  in kB     -33.03064   -33.04533    -2.28304    -0.00084    -0.04237    -0.01952

 VOLUME and BASIS-vectors are now :
  energy-cutoff  :      520.00
  volume of cell :     6122.64
      direct lattice vectors                 reciprocal lattice vectors
    16.934285261  0.000000000  0.000000000     0.059051798  0.000000000  0.000000000
     0.000000000 16.934285261  0.000000000     0.000000000  0.059051798  0.000000000
     0.000000000  0.000000000 21.350356973     0.000000000  0.000000000  0.046837624

  length of vectors
    16.934285261 16.934285261 21.350356973     0.059051798  0.059051798  0.046837624

 FORCES acting on ions:
    Electron-Ion                     Ewald-Force                    Non-Local-Force
   -.116E+02 -.659E+02 -.280E+03   0.160E+02 0.724E+02 0.281E+03   -.441E+01 -.646E+01 -.641E+00
   0.103E+03 -.175E+02 -.287E+03   -.111E+03 0.191E+02 0.289E+03   0.797E+01 -.155E+01 -.203E+01
   0.124E+02 0.645E+02 -.282E+03   -.169E+02 -.710E+02 0.283E+03   0.451E+01 0.634E+01 -.843E+00
   -.103E+03 0.186E+02 -.286E+03   0.111E+03 -.202E+02 0.288E+03   -.797E+01 0.165E+01 -.193E+01
   0.640E+02 -.128E+02 -.281E+03   -.703E+02 0.174E+02 0.281E+03   0.630E+01 -.456E+01 -.723E+00
   0.182E+02 0.101E+03 -.289E+03   -.199E+02 -.109E+03 0.291E+03   0.162E+01 0.784E+01 -.248E+01
   -.671E+02 0.107E+02 -.281E+03   0.737E+02 -.151E+02 0.282E+03   -.654E+01 0.434E+01 -.783E+00
   -.174E+02 -.104E+03 -.283E+03   0.189E+02 0.112E+03 0.285E+03   -.152E+01 -.810E+01 -.126E+01
   0.140E+03 0.321E+02 -.165E+04   -.124E+03 -.665E+02 0.164E+04   -.160E+02 0.343E+02 0.103E+02
   -.140E+03 -.341E+02 -.165E+04   0.124E+03 0.689E+02 0.164E+04   0.157E+02 -.347E+02 0.106E+02
   -.328E+02 0.142E+03 -.164E+04   0.670E+02 -.127E+03 0.163E+04   -.342E+02 -.148E+02 0.128E+02
   0.332E+02 -.139E+03 -.165E+04   -.681E+02 0.122E+03 0.164E+04   0.348E+02 0.169E+02 0.717E+01
   0.341E+01 0.338E+01 0.207E+04   -.340E+01 -.337E+01 -.206E+04   -.540E-02 -.651E-02 -.676E+01
   0.601E+01 0.601E+01 0.207E+04   -.599E+01 -.599E+01 -.206E+04   -.198E-01 -.195E-01 -.677E+01
   0.745E+01 0.794E+01 0.706E+03   -.744E+01 -.793E+01 -.707E+03   -.831E-02 -.998E-02 0.360E+00
   0.800E+01 0.742E+01 0.706E+03   -.799E+01 -.741E+01 -.707E+03   -.874E-02 -.954E-02 0.354E+00
   0.930E+01 0.928E+01 -.664E+03   -.929E+01 -.928E+01 0.664E+03   -.386E-02 -.739E-02 -.169E+00
   0.235E+02 0.232E+02 -.643E+03   -.235E+02 -.232E+02 0.643E+03   -.208E-01 -.335E-01 -.109E+00
   0.250E+02 0.227E+02 -.202E+04   -.249E+02 -.227E+02 0.201E+04   -.977E-01 0.184E-02 0.585E+01
   0.229E+02 0.250E+02 -.202E+04   -.229E+02 -.249E+02 0.201E+04   -.800E-02 -.111E+00 0.585E+01
   0.499E+01 0.352E+01 0.207E+04   -.497E+01 -.351E+01 -.206E+04   -.182E-01 -.721E-02 -.677E+01
   0.777E+01 0.120E+00 0.207E+04   -.773E+01 -.123E+00 -.207E+04   -.314E-01 0.192E-02 -.681E+01
   0.104E+02 0.252E+00 0.712E+03   -.103E+02 -.258E+00 -.712E+03   -.723E-01 0.426E-02 0.402E+00
   0.138E+02 0.817E+01 0.720E+03   -.137E+02 -.810E+01 -.720E+03   -.672E-01 -.506E-01 0.325E+00
   0.214E+02 0.108E+02 -.650E+03   -.212E+02 -.108E+02 0.650E+03   -.139E+00 -.239E-01 -.125E+00
   0.430E+02 0.722E+00 -.622E+03   -.425E+02 -.758E+00 0.622E+03   -.483E+00 0.346E-01 0.221E+00
   0.499E+02 0.660E+00 -.200E+04   -.496E+02 -.665E+00 0.200E+04   -.291E+00 0.656E-02 0.581E+01
   0.865E+02 0.451E+02 -.197E+04   -.859E+02 -.452E+02 0.196E+04   -.587E+00 0.131E+00 0.587E+01
   0.345E+01 0.497E+01 0.207E+04   -.344E+01 -.495E+01 -.206E+04   -.876E-02 -.199E-01 -.677E+01
   -.276E-01 0.443E+01 0.207E+04   0.272E-01 -.442E+01 -.206E+04   0.295E-03 -.601E-02 -.676E+01
   0.799E+01 0.137E+02 0.720E+03   -.792E+01 -.137E+02 -.721E+03   -.539E-01 -.656E-01 0.296E+00
   -.370E-01 0.466E+01 0.701E+03   0.374E-01 -.466E+01 -.701E+03   -.256E-03 -.414E-02 0.381E+00
   0.107E+02 0.215E+02 -.649E+03   -.107E+02 -.214E+02 0.649E+03   -.313E-01 -.130E+00 -.106E+00
   -.137E+00 0.109E+02 -.662E+03   0.135E+00 -.110E+02 0.662E+03   0.180E-02 0.229E-01 -.160E+00
   0.453E+02 0.864E+02 -.196E+04   -.454E+02 -.858E+02 0.196E+04   0.622E-01 -.581E+00 0.589E+01
   -.759E-01 0.105E+02 -.203E+04   0.740E-01 -.105E+02 0.202E+04   0.209E-02 0.137E-01 0.588E+01
   0.523E+01 0.531E+01 0.208E+04   -.520E+01 -.528E+01 -.207E+04   -.225E-01 -.194E-01 -.682E+01
   -.144E-01 0.652E-01 0.207E+04   0.135E-01 -.665E-01 -.206E+04   0.685E-03 0.105E-02 -.675E+01
   0.112E+02 0.333E+00 0.736E+03   -.112E+02 -.350E+00 -.736E+03   -.237E-01 0.125E-01 0.292E+00
   -.120E+00 0.485E+01 0.707E+03   0.122E+00 -.485E+01 -.707E+03   -.128E-02 0.280E-02 0.386E+00
   0.304E+02 0.307E+02 -.594E+03   -.300E+02 -.304E+02 0.594E+03   -.335E+00 -.319E+00 -.813E+00
   -.117E+00 0.256E+00 -.655E+03   0.112E+00 -.261E+00 0.655E+03   0.525E-02 0.161E-02 -.159E+00
   0.118E+03 0.443E+01 -.179E+04   -.118E+03 -.466E+01 0.178E+04   -.789E+00 0.217E+00 0.322E+01
   -.237E+00 0.126E+02 -.202E+04   0.238E+00 -.127E+02 0.201E+04   -.123E-02 0.562E-01 0.585E+01
   0.504E+01 -.341E+01 0.207E+04   -.502E+01 0.340E+01 -.206E+04   -.172E-01 0.920E-02 -.677E+01
   0.603E+01 -.607E+01 0.207E+04   -.600E+01 0.605E+01 -.206E+04   -.188E-01 0.189E-01 -.676E+01
   0.755E+01 -.810E+01 0.707E+03   -.755E+01 0.809E+01 -.707E+03   -.572E-02 0.572E-02 0.363E+00
   0.139E+02 -.794E+01 0.721E+03   -.138E+02 0.787E+01 -.721E+03   -.599E-01 0.527E-01 0.293E+00
   0.218E+02 -.105E+02 -.649E+03   -.216E+02 0.104E+02 0.649E+03   -.113E+00 0.269E-01 -.103E+00
   0.234E+02 -.238E+02 -.642E+03   -.234E+02 0.238E+02 0.642E+03   -.111E-01 0.664E-02 -.108E+00
   0.255E+02 -.230E+02 -.202E+04   -.254E+02 0.230E+02 0.201E+04   -.937E-01 -.261E-02 0.585E+01
   0.878E+02 -.453E+02 -.196E+04   -.873E+02 0.454E+02 0.195E+04   -.576E+00 -.817E-01 0.589E+01
   0.341E+01 -.349E+01 0.207E+04   -.340E+01 0.348E+01 -.206E+04   -.494E-02 0.435E-02 -.676E+01
   0.441E+01 -.605E-01 0.207E+04   -.440E+01 0.622E-01 -.206E+04   -.566E-02 -.163E-02 -.676E+01
   0.467E+01 -.896E-01 0.701E+03   -.467E+01 0.932E-01 -.701E+03   -.191E-02 -.263E-02 0.361E+00
   0.794E+01 -.766E+01 0.706E+03   -.793E+01 0.766E+01 -.707E+03   -.766E-02 0.248E-02 0.372E+00
   0.933E+01 -.959E+01 -.664E+03   -.934E+01 0.959E+01 0.664E+03   0.499E-02 -.151E-03 -.170E+00
   0.110E+02 -.100E+00 -.662E+03   -.110E+02 0.110E+00 0.662E+03   0.213E-01 -.102E-01 -.163E+00
   0.105E+02 -.210E+00 -.203E+04   -.105E+02 0.215E+00 0.202E+04   0.251E-01 -.600E-02 0.586E+01
   0.230E+02 -.256E+02 -.202E+04   -.230E+02 0.255E+02 0.201E+04   0.797E-02 0.832E-01 0.586E+01
[...]
   -.318E+01 -.367E+01 0.155E+04   0.317E+01 0.366E+01 -.156E+04   0.137E-01 0.101E-01 0.363E+01
   0.115E-01 -.414E+01 0.156E+04   -.108E-01 0.412E+01 -.156E+04   -.997E-03 0.283E-01 0.357E+01
   -.300E+02 -.145E+02 -.153E+04   0.300E+02 0.144E+02 0.154E+04   0.835E-01 0.723E-01 -.535E+01
   0.129E+01 -.864E+02 -.148E+04   -.131E+01 0.859E+02 0.149E+04   0.235E-01 0.520E+00 -.496E+01
   -.110E+02 -.106E+02 -.486E+03   0.109E+02 0.105E+02 0.486E+03   0.360E-01 0.394E-01 0.362E+00
   -.193E+00 -.250E+02 -.429E+03   0.226E+00 0.246E+02 0.429E+03   -.331E-01 0.387E+00 -.212E+00
   -.416E+01 -.422E+01 0.526E+03   0.415E+01 0.421E+01 -.526E+03   0.128E-01 0.106E-01 -.813E-02
   0.415E-01 -.635E-01 0.530E+03   -.418E-01 0.685E-01 -.530E+03   0.462E-03 -.101E-01 0.121E-01
   -.234E+01 -.514E-01 0.155E+04   0.234E+01 0.524E-01 -.156E+04   0.719E-02 0.967E-03 0.364E+01
   0.319E-01 -.409E+01 0.155E+04   -.321E-01 0.407E+01 -.156E+04   0.205E-03 0.284E-01 0.362E+01
   -.107E+02 -.108E+02 -.154E+04   0.107E+02 0.108E+02 0.155E+04   0.314E-01 0.327E-01 -.535E+01
   0.493E-01 -.735E+00 -.154E+04   -.489E-01 0.753E+00 0.154E+04   -.123E-02 -.180E-01 -.534E+01
   -.551E+01 -.115E+00 -.493E+03   0.550E+01 0.117E+00 0.493E+03   0.145E-01 -.156E-02 0.360E+00
   0.202E+00 -.170E+02 -.479E+03   -.200E+00 0.169E+02 0.478E+03   -.170E-02 0.129E+00 0.448E+00
   -.450E+00 -.126E+01 0.509E+02   0.753E-11 0.284E-13 -.146E-10   0.449E+00 0.124E+01 -.510E+02

 POSITION                                       TOTAL-FORCE (eV/Angst)
      7.05395      7.26365     16.21970         0.037504      0.075712      0.045186
      5.59942      6.63761     16.37190        -0.120123      0.012102      0.067412
      9.88848      5.50222     16.24591        -0.037156     -0.073808      0.046928
     11.35747      6.10389     16.36134         0.117834     -0.015759      0.064188
      7.60146      4.98045     16.23740        -0.075027      0.036187      0.045303
      8.20465      3.52115     16.42896        -0.015572     -0.119344      0.069378
      9.36547      7.83326     16.22783         0.082999     -0.042278      0.047928
      8.73270      9.29470     16.27603         0.010344      0.114499      0.058063
      6.51897      6.43396     16.12661         0.060487     -0.071051     -0.094189
     10.43768      6.31957     16.12684        -0.064921      0.065170     -0.095201
      8.41570      4.42293     16.13141         0.067708      0.056661     -0.099667
      8.53012      8.35439     16.11992        -0.075256     -0.058129     -0.086587
      2.11679      0.00000      7.50000         0.001462      0.001888      0.355523
      4.23357      2.11679      7.50000         0.005693      0.006137      0.358071
      2.11679      2.11679      9.61679         0.001853      0.003854     -0.020926
      4.23357      0.00000      9.61679         0.003174      0.002946     -0.020898
      2.11639     16.93420     11.73548        -0.000419     -0.002013     -0.000010
      4.23295      2.11679     11.73412         0.000082     -0.000458     -0.004517
      2.11507      2.11395     13.82480        -0.003490     -0.001364      0.091088
      4.23054     16.93271     13.82425        -0.000793     -0.002405      0.094438
      2.11679      4.23357      7.50000         0.005583      0.002330      0.358020
      4.23357      6.35036      7.50000         0.009200     -0.000856      0.368722
      2.11679      6.35036      9.61679         0.026412     -0.001483     -0.007912
      4.23357      4.23357      9.61679         0.028673      0.018319      0.005790
      2.11639      4.23387     11.73563         0.002799     -0.000986     -0.003101
      4.24016      6.34982     11.74087         0.001067     -0.001260      0.002056
      2.11397      6.35039     13.82546        -0.000943      0.001171      0.093595
      4.23109      4.22728     13.81728        -0.003649     -0.000857      0.087838
      6.35036      0.00000      7.50000         0.002705      0.005769      0.358061
      0.00000      2.11679      7.50000        -0.000081      0.001859      0.355821
      6.35036      2.11679      9.61679         0.019545      0.027058      0.001840
      0.00000      0.00000      9.61679         0.000177      0.001863     -0.021341
      6.35108     16.93319     11.73472        -0.003686      0.004588     -0.000734
      0.00010      2.11626     11.73562         0.000107     -0.002066     -0.000693
      6.34418      2.11385     13.81003        -0.003628     -0.004423      0.085023
      0.00012     16.93319     13.82506         0.000160     -0.000509      0.095306
      6.35036      4.23357      7.50000         0.006154      0.005724      0.373198
      0.00000      6.35036      7.50000        -0.000188     -0.000187      0.354135
      6.35036      6.35036      9.61679         0.015266     -0.004440      0.051949
      0.00000      4.23357      9.61679         0.001238     -0.000447     -0.024284
      6.35834      4.23932     11.74808        -0.000421     -0.000911     -0.002354
      0.00008      6.35081     11.73664        -0.000259     -0.003023     -0.001106
      6.35832      6.34037     13.88246        -0.005709     -0.006301      0.064159
      0.00021      4.23149     13.82470         0.000004     -0.001917      0.098674
      2.11679      8.46714      7.50000         0.004885     -0.002710      0.357413
      4.23357     10.58393      7.50000         0.005409     -0.004928      0.356874
      2.11679     10.58393      9.61679         0.001592     -0.001807     -0.021068
      4.23357      8.46714      9.61679         0.024566     -0.018568     -0.001944
      2.11529      8.46709     11.73456         0.005624      0.001050     -0.000535
      4.23324     10.58545     11.73397         0.000703     -0.001078     -0.003773
      2.11457     10.58770     13.82464        -0.002746      0.000704      0.091449
      4.23002      8.47472     13.80856        -0.004279     -0.000739      0.083489
      2.11679     12.70071      7.50000         0.001744     -0.001064      0.355100
      4.23357     14.81750      7.50000         0.001674      0.000165      0.355488
      2.11679     14.81750      9.61679         0.001057      0.001060     -0.021130
      4.23357     12.70071      9.61679         0.003247      0.000569     -0.020866
      2.11633     12.70152     11.73558        -0.002390      0.001995     -0.001967
      4.23309     14.81786     11.73577        -0.004579      0.000108     -0.002572
      2.11488     14.81825     13.82500        -0.000087     -0.000293      0.092447
      4.22994     12.70341     13.82474         0.001335      0.001455      0.094419
[...]
      8.46714     10.58393      9.61679        -0.001460      0.029634      0.019358
     14.81750     10.58393      7.50000         0.005528      0.001185     -0.356325
      8.46714      8.46714      7.50000        -0.000277      0.007990     -0.375409
     14.82125      8.47127     13.88077         0.000079     -0.000233     -0.109866
      8.46924     10.60127     13.91354         0.000500     -0.004360     -0.108575
     14.81944     10.58538     11.72867         0.002244      0.000371     -0.002754
      8.46606      8.47785     11.73750        -0.000290     -0.002301     -0.003370
     14.81750     12.70071      9.61679         0.004694      0.002960      0.027616
      8.46714     14.81750      9.61679         0.000075     -0.005043      0.039503
     14.81750     14.81750      7.50000         0.003693      0.002068     -0.355422
      8.46714     12.70071      7.50000         0.000059      0.008051     -0.361375
     14.82114     12.70397     13.87808        -0.001034     -0.000646     -0.107945
      8.46744     14.81761     13.88173        -0.000754     -0.000206     -0.109922
     14.81872     14.81784     11.72851        -0.001055      0.000239     -0.001934
      8.46721     12.70054     11.73312         0.000135      0.006627     -0.003874
    total drift:                               -0.001334     -0.026725     -0.135863

  FREE ENERGIE OF THE ION-ELECTRON SYSTEM (eV)
  free  energy   TOTEN  =     -1111.39833861 eV

  energy  without entropy=    -1111.39833861  energy(sigma->0) =    -1111.39833861