 vasp.6.3.0 20Jan22 (build Apr  1 2022 16:44:48) complex
 executed on        HPECrayEX_GCC date 2022.11.01  23:12:13

 INCAR:
   SYSTEM = MgO-rocksalt
   ISMEAR = 0
   SIGMA = 0.05
   EDIFF = 1E-9
   ALGO = ALL
   ISTART = 0
   IBRION = 2
   NSW = 1000
   ISYM = 0
   ISIF = 2
   EDIFFG = -0.01
   DIPOL = 0.5 0.5 0.5
   IDIPOL = 3
   LDIPOL = .TRUE.
   GGA = MK
   LUSE_VDW = .TRUE.
   PARAM1 = 0.1234
   PARAM2 = 0.711357
   ZAB_VDW = -1.8867
   AGGAC = 0.0
   ENCUT = 600
   PREC = Accurate
   LASPH = .TRUE.
   LREAL = .FALSE.
   ISPIN = 2
   MAGMOM = 1.0 0.0 0.0 0.0 0.0 0.0 0.0 0.0 0.0 0.0 0.0 0.0 0.0 0.0 0.0 0.0 0.0 0.0 0.0 0.0 0.0 0.0 0.0 0.0 0.0 0.0 0.0 0.0 0.0 0.0 0.0 0.0 0.0 0.0 0.0 0.0 0.0 0.0 0.0 0.0 0.0 0.0 0.0 0.0 0.0 0.0 0.0 0.0 0.0 0.0 0.0 0.0 0.0 0.0 0.0 0.0 0.0 0.0 0.0 0.0 0.0 0.0 0.0 0.0 0.0 0.0
   NELM = 200
   NELMIN = 8
   NCORE = 8
   KPAR = 1
   LWAVE = .FALSE.
   LCHARG = .FALSE.

 POTCAR:    PAW_PBE N 08Apr2002
 POTCAR:    PAW_PBE O 08Apr2002
 POTCAR:    PAW_PBE Mg_pv 13Apr2007
 POTCAR:    PAW_PBE O 08Apr2002
|               ----> ADVICE to this user running VASP <----                  |
|     You have switched on vdW-DFT.                                           |
|     This routine was written and supplied by Jiri Klimes. We recommend      |
|     that you carefully read and cite the following publications:            |
|       J. Klimes, D.R. Bowler, A. Michelides                                 |
|          J. Phys.: Cond Matt. 22 022201 (2010)                              |
|       J. Klimes, D.R. Bowler, A. Michelides                                 |
|          Phys. Rev. B. 83, 195131 (2011)                                    |
|     and references therein.                                                 |

   TITEL  = PAW_PBE N 08Apr2002
   POMASS =   14.001; ZVAL   =    5.000    mass and valenz
   ENMAX  =  400.000; ENMIN  =  300.000 eV

[...]

   TITEL  = PAW_PBE Mg_pv 13Apr2007
   POMASS =   24.305; ZVAL   =    8.000    mass and valenz
   ENMAX  =  403.929; ENMIN  =  302.947 eV

   TITEL  = PAW_PBE O 08Apr2002
   POMASS =   16.000; ZVAL   =    6.000    mass and valenz
   ENMAX  =  400.000; ENMIN  =  300.000 eV

  PAW_PBE N 08Apr2002                   :
  PAW_PBE O 08Apr2002                   :
  PAW_PBE Mg_pv 13Apr2007               :
  PAW_PBE O 08Apr2002                   :

 POSCAR:  N  O Mg  O
  positions in direct lattice
 exchange correlation table for  LEXCH =       43
   RHO(1)=    0.500       N(1)  =     2000
   RHO(2)=  100.500       N(2)  =     4000

 ion  position               nearest neighbor table
   1  0.522  0.500  0.746-   2 1.19  18 2.09
   2  0.434  0.443  0.783-   1 1.19
   3  0.250  0.000  0.352-  35 2.11  37 2.11  38 2.11  45 2.11  54 2.11
   4  0.500  0.250  0.352-  36 2.11  37 2.11  38 2.11  46 2.11  53 2.11
   5  0.250  0.250  0.451-  37 2.11  36 2.11  35 2.11  43 2.11  52 2.11  41 2.12
   6  0.500  0.000  0.451-  38 2.11  36 2.11  35 2.11  44 2.11  51 2.11  42 2.12
   7  0.250  0.000  0.550-  41 2.11  42 2.11  49 2.11  58 2.11  35 2.12  39 2.14
   8  0.500  0.250  0.550-  41 2.11  42 2.11  50 2.11  57 2.11  36 2.12  40 2.14
   9  0.250  0.250  0.648-  41 2.10  40 2.11  39 2.11  47 2.11  56 2.11
  10  0.500  0.000  0.648-  42 2.10  40 2.11  39 2.11  48 2.11  55 2.11
  11  0.250  0.500  0.352-  43 2.11  37 2.11  45 2.11  46 2.11  62 2.11
  12  0.500  0.750  0.352-  44 2.11  38 2.11  45 2.11  46 2.11  61 2.11
  13  0.250  0.750  0.451-  45 2.11  43 2.11  44 2.11  35 2.11  60 2.11  49 2.12
  14  0.500  0.500  0.451-  46 2.11  43 2.11  44 2.11  36 2.11  59 2.11  50 2.12
  15  0.250  0.500  0.550-  41 2.11  49 2.11  50 2.11  66 2.11  43 2.12  47 2.14
  16  0.500  0.750  0.550-  42 2.11  49 2.11  50 2.11  65 2.11  44 2.12  48 2.14
  17  0.250  0.750  0.648-  49 2.10  47 2.11  48 2.11  39 2.11  64 2.11
  18  0.500  0.500  0.648-   1 2.09  50 2.10  47 2.11  48 2.11  40 2.11  63 2.11
  19  0.750  0.000  0.352-  51 2.11  38 2.11  53 2.11  54 2.11  61 2.11
  20  0.000  0.250  0.352-  52 2.11  37 2.11  53 2.11  54 2.11  62 2.11
  21  0.750  0.250  0.451-  53 2.11  51 2.11  52 2.11  36 2.11  59 2.11  57 2.12
  22  0.000  0.000  0.451-  54 2.11  51 2.11  52 2.11  35 2.11  60 2.11  58 2.12
  23  0.750  0.000  0.550-  42 2.11  57 2.11  58 2.11  65 2.11  51 2.12  55 2.14
  24  0.000  0.250  0.550-  41 2.11  57 2.11  58 2.11  66 2.11  52 2.12  56 2.14
  25  0.750  0.250  0.648-  57 2.10  55 2.11  56 2.11  40 2.11  63 2.11
  26  0.000  0.000  0.648-  58 2.10  55 2.11  56 2.11  39 2.11  64 2.11
  27  0.750  0.500  0.352-  59 2.11  53 2.11  46 2.11  61 2.11  62 2.11
  28  0.000  0.750  0.352-  60 2.11  54 2.11  45 2.11  61 2.11  62 2.11
  29  0.750  0.750  0.451-  61 2.11  51 2.11  59 2.11  60 2.11  44 2.11  65 2.12
  30  0.000  0.500  0.451-  62 2.11  52 2.11  59 2.11  60 2.11  43 2.11  66 2.12
  31  0.750  0.500  0.550-  50 2.11  57 2.11  65 2.11  66 2.11  59 2.12  63 2.14
  32  0.000  0.750  0.550-  49 2.11  58 2.11  65 2.11  66 2.11  60 2.12  64 2.14
  33  0.750  0.750  0.648-  65 2.10  55 2.11  63 2.11  64 2.11  48 2.11
  34  0.000  0.500  0.648-  66 2.10  56 2.11  63 2.11  64 2.11  47 2.11
  35  0.250  0.000  0.451-   3 2.11   5 2.11   6 2.11  13 2.11  22 2.11   7 2.12
  36  0.500  0.250  0.451-   4 2.11   5 2.11   6 2.11  14 2.11  21 2.11   8 2.12
  37  0.250  0.250  0.352-   5 2.11   4 2.11   3 2.11  11 2.11  20 2.11
  38  0.500  0.000  0.352-   6 2.11   4 2.11   3 2.11  12 2.11  19 2.11
  39  0.250  0.000  0.650-   9 2.11  10 2.11  17 2.11  26 2.11   7 2.14
  40  0.500  0.250  0.650-   9 2.11  10 2.11  18 2.11  25 2.11   8 2.14
  41  0.250  0.250  0.550-   9 2.10   8 2.11   7 2.11  15 2.11  24 2.11   5 2.12
  42  0.500  0.000  0.550-  10 2.10   8 2.11   7 2.11  16 2.11  23 2.11   6 2.12
  43  0.250  0.500  0.451-  11 2.11   5 2.11  13 2.11  14 2.11  30 2.11  15 2.12
  44  0.500  0.750  0.451-  12 2.11   6 2.11  13 2.11  14 2.11  29 2.11  16 2.12
  45  0.250  0.750  0.352-  13 2.11  11 2.11  12 2.11   3 2.11  28 2.11
  46  0.500  0.500  0.352-  14 2.11  11 2.11  12 2.11   4 2.11  27 2.11
  47  0.250  0.500  0.650-   9 2.11  17 2.11  18 2.11  34 2.11  15 2.14
  48  0.500  0.750  0.650-  10 2.11  17 2.11  18 2.11  33 2.11  16 2.14
  49  0.250  0.750  0.550-  17 2.10  15 2.11  16 2.11   7 2.11  32 2.11  13 2.12
  50  0.500  0.500  0.550-  18 2.10  15 2.11  16 2.11   8 2.11  31 2.11  14 2.12
  51  0.750  0.000  0.451-  19 2.11   6 2.11  21 2.11  22 2.11  29 2.11  23 2.12
  52  0.000  0.250  0.451-  20 2.11   5 2.11  21 2.11  22 2.11  30 2.11  24 2.12
  53  0.750  0.250  0.352-  21 2.11  19 2.11  20 2.11   4 2.11  27 2.11
  54  0.000  0.000  0.352-  22 2.11  19 2.11  20 2.11   3 2.11  28 2.11
  55  0.750  0.000  0.650-  10 2.11  25 2.11  26 2.11  33 2.11  23 2.14
  56  0.000  0.250  0.650-   9 2.11  25 2.11  26 2.11  34 2.11  24 2.14
  57  0.750  0.250  0.550-  25 2.10  23 2.11  24 2.11   8 2.11  31 2.11  21 2.12
  58  0.000  0.000  0.550-  26 2.10  23 2.11  24 2.11   7 2.11  32 2.11  22 2.12
  59  0.750  0.500  0.451-  27 2.11  21 2.11  14 2.11  29 2.11  30 2.11  31 2.12
  60  0.000  0.750  0.451-  28 2.11  22 2.11  13 2.11  29 2.11  30 2.11  32 2.12
  61  0.750  0.750  0.352-  29 2.11  19 2.11  27 2.11  28 2.11  12 2.11
  62  0.000  0.500  0.352-  30 2.11  20 2.11  27 2.11  28 2.11  11 2.11
  63  0.750  0.500  0.650-  18 2.11  25 2.11  33 2.11  34 2.11  31 2.14
  64  0.000  0.750  0.650-  17 2.11  26 2.11  33 2.11  34 2.11  32 2.14
  65  0.750  0.750  0.550-  33 2.10  23 2.11  31 2.11  32 2.11  16 2.11  29 2.12
  66  0.000  0.500  0.550-  34 2.10  24 2.11  31 2.11  32 2.11  15 2.11  30 2.12

IMPORTANT INFORMATION: All symmetrisations will be switched off!
NOSYMM: (Re-)initialisation of all symmetry stuff for point group C_1.

                                     Primitive cell

  volume of cell :    1519.6535

  direct lattice vectors                    reciprocal lattice vectors
     8.440582262  0.000000000  0.000000000     0.118475239  0.000000000  0.000000000
     0.000000000  8.440582262  0.000000000     0.000000000  0.118475239  0.000000000
     0.000000000  0.000000000 21.330436697     0.000000000  0.000000000  0.046881366

  length of vectors
     8.440582262  8.440582262 21.330436697     0.118475239  0.118475239  0.046881366

  position of ions in fractional coordinates (direct lattice)
     0.522362448  0.500000000  0.745736767
     0.433783681  0.442960918  0.782630159
     0.250000000  0.000000000  0.351610242
     0.500000000  0.250000000  0.351610242
     0.250000000  0.250000000  0.450536747
     0.500000000  0.000000000  0.450536747
     0.250000000  0.000000000  0.549966382
     0.500000000  0.250000000  0.549966382
     0.250000000  0.250000000  0.648348359
     0.500000000  0.000000000  0.648348359
     0.250000000  0.500000000  0.351610242
     0.500000000  0.750000000  0.351610242
     0.250000000  0.750000000  0.450536747
     0.500000000  0.500000000  0.450536747
     0.250000000  0.500000000  0.549966382
     0.500000000  0.750000000  0.549966382
     0.250000000  0.750000000  0.648348359
     0.500000000  0.500000000  0.648348359
     0.750000000  0.000000000  0.351610242
     0.000000000  0.250000000  0.351610242
     0.750000000  0.250000000  0.450536747
     0.000000000  0.000000000  0.450536747
     0.750000000  0.000000000  0.549966382
     0.000000000  0.250000000  0.549966382
     0.750000000  0.250000000  0.648348359
     0.000000000  0.000000000  0.648348359
     0.750000000  0.500000000  0.351610242
     0.000000000  0.750000000  0.351610242
     0.750000000  0.750000000  0.450536747
     0.000000000  0.500000000  0.450536747
     0.750000000  0.500000000  0.549966382
     0.000000000  0.750000000  0.549966382
     0.750000000  0.750000000  0.648348359
     0.000000000  0.500000000  0.648348359
     0.250000000  0.000000000  0.450536747
     0.500000000  0.250000000  0.450536747
     0.250000000  0.250000000  0.351610242
     0.500000000  0.000000000  0.351610242
     0.250000000  0.000000000  0.650177506
     0.500000000  0.250000000  0.650177506
     0.250000000  0.250000000  0.549707339
     0.500000000  0.000000000  0.549707339
     0.250000000  0.500000000  0.450536747
     0.500000000  0.750000000  0.450536747
     0.250000000  0.750000000  0.351610242
     0.500000000  0.500000000  0.351610242
     0.250000000  0.500000000  0.650177506
     0.500000000  0.750000000  0.650177506
     0.250000000  0.750000000  0.549707339
     0.500000000  0.500000000  0.549707339
     0.750000000  0.000000000  0.450536747
     0.000000000  0.250000000  0.450536747
     0.750000000  0.250000000  0.351610242
     0.000000000  0.000000000  0.351610242
     0.750000000  0.000000000  0.650177506
     0.000000000  0.250000000  0.650177506
     0.750000000  0.250000000  0.549707339
     0.000000000  0.000000000  0.549707339
     0.750000000  0.500000000  0.450536747
     0.000000000  0.750000000  0.450536747
     0.750000000  0.750000000  0.351610242
     0.000000000  0.500000000  0.351610242
     0.750000000  0.500000000  0.650177506
     0.000000000  0.750000000  0.650177506
     0.750000000  0.750000000  0.549707339
     0.000000000  0.500000000  0.549707339

  ion indices of the primitive-cell ions
[...]
   0.00000000  2.11014557  7.50000000
   6.33043670  2.11014557  9.61014557
   0.00000000  0.00000000  9.61014557
   6.33043670  0.00000000 11.73102311
   0.00000000  2.11014557 11.73102311
   6.33043670  2.11014557 13.82955363
   0.00000000  0.00000000 13.82955363
   6.33043670  4.22029113  7.50000000
   0.00000000  6.33043670  7.50000000
   6.33043670  6.33043670  9.61014557
   0.00000000  4.22029113  9.61014557
   6.33043670  4.22029113 11.73102311
   0.00000000  6.33043670 11.73102311
   6.33043670  6.33043670 13.82955363
   0.00000000  4.22029113 13.82955363
   2.11014557  0.00000000  9.61014557
   4.22029113  2.11014557  9.61014557
   2.11014557  2.11014557  7.50000000
   4.22029113  0.00000000  7.50000000
   2.11014557  0.00000000 13.86857013
   4.22029113  2.11014557 13.86857013
   2.11014557  2.11014557 11.72549760
   4.22029113  0.00000000 11.72549760
   2.11014557  4.22029113  9.61014557
   4.22029113  6.33043670  9.61014557
   2.11014557  6.33043670  7.50000000
   4.22029113  4.22029113  7.50000000
   2.11014557  4.22029113 13.86857013
   4.22029113  6.33043670 13.86857013
   2.11014557  6.33043670 11.72549760
   4.22029113  4.22029113 11.72549760
   6.33043670  0.00000000  9.61014557
   0.00000000  2.11014557  9.61014557
   6.33043670  2.11014557  7.50000000
   0.00000000  0.00000000  7.50000000
   6.33043670  0.00000000 13.86857013
   0.00000000  2.11014557 13.86857013
   6.33043670  2.11014557 11.72549760
   0.00000000  0.00000000 11.72549760
   6.33043670  4.22029113  9.61014557
   0.00000000  6.33043670  9.61014557
   6.33043670  6.33043670  7.50000000
   0.00000000  4.22029113  7.50000000
   6.33043670  4.22029113 13.86857013
   0.00000000  6.33043670 13.86857013
   6.33043670  6.33043670 11.72549760
   0.00000000  4.22029113 11.72549760

--------------------------------------- Iteration      FINAL  ---------------------------------------

--------------------OUTCAR has been truncated-------------------------

[...]

--------------------OUTCAR has been truncated-------------------------

  FORCE on cell =-STRESS in cart. coord.  units (eV):
  Direction    XX          YY          ZZ          XY          YZ          ZX
  Alpha Z   910.35202   910.35202   910.35202
  Ewald  158539.29367158532.82751************    86.79698  -126.74487  -131.85684
  Hartree168900.66424168897.80821************    38.77061   -48.69427   -50.78099
  E(xc)   -2506.49587 -2506.52240 -2506.18407     0.40114    -0.38438    -0.40144
  Local  ************************336976.14748  -125.26492   159.11973   165.87518
  n-local -2863.56628 -2863.27913 -2887.21863    -5.00878     1.51944     1.63856
  augment  1058.51772  1058.49686  1049.70340     0.56174     0.68317     0.68954
  Kinetic  7528.78912  7528.78817  7566.61176     3.62717    14.56982    14.91786
  Fock        0.00000     0.00000     0.00000     0.00000     0.00000     0.00000
  Total     -29.67151   -29.68079    -2.49600    -0.11606     0.06863     0.08188
  in kB     -31.28281   -31.29258    -2.63154    -0.12236     0.07236     0.08633

 VOLUME and BASIS-vectors are now :
  energy-cutoff  :      600.00
  volume of cell :     1519.65
      direct lattice vectors                 reciprocal lattice vectors
     8.440582262  0.000000000  0.000000000     0.118475239  0.000000000  0.000000000
     0.000000000  8.440582262  0.000000000     0.000000000  0.118475239  0.000000000
     0.000000000  0.000000000 21.330436697     0.000000000  0.000000000  0.046881366

  length of vectors
     8.440582262  8.440582262 21.330436697     0.118475239  0.118475239  0.046881366

 FORCES acting on ions:
    Electron-Ion                     Ewald-Force                    Non-Local-Force
   -.133E+03 -.129E+03 -.116E+04   0.155E+03 0.149E+03 0.113E+04   -.217E+02 -.209E+02 0.295E+02
   0.125E+03 0.121E+03 -.155E+04   -.155E+03 -.149E+03 0.159E+04   0.298E+02 0.287E+02 -.435E+02
   0.178E+00 0.330E-01 0.208E+04   -.178E+00 -.324E-01 -.208E+04   -.238E-03 -.476E-03 -.679E+01
   -.379E-01 0.200E+00 0.208E+04   0.373E-01 -.198E+00 -.208E+04   0.420E-03 -.123E-02 -.680E+01
   0.781E+00 0.790E+00 0.723E+03   -.771E+00 -.779E+00 -.723E+03   -.685E-02 -.767E-02 0.449E+00
   -.184E+00 0.104E+00 0.722E+03   0.184E+00 -.101E+00 -.723E+03   0.339E-03 -.230E-02 0.416E+00
   0.369E+01 0.637E+00 -.634E+03   -.367E+01 -.635E+00 0.634E+03   -.205E-01 -.297E-02 -.235E+00
   -.770E+00 0.628E+01 -.625E+03   0.764E+00 -.618E+01 0.625E+03   0.545E-02 -.963E-01 -.329E+00
   0.251E+02 0.254E+02 -.197E+04   -.252E+02 -.255E+02 0.197E+04   0.109E+00 0.100E+00 0.601E+01
   -.219E+01 0.423E+01 -.199E+04   0.218E+01 -.420E+01 0.198E+04   0.575E-02 -.334E-01 0.595E+01
   0.197E+00 -.329E-01 0.208E+04   -.196E+00 0.324E-01 -.208E+04   -.114E-02 0.426E-03 -.680E+01
   -.477E-01 -.200E+00 0.208E+04   0.473E-01 0.198E+00 -.208E+04   0.306E-03 0.136E-02 -.680E+01
   0.829E+00 -.788E+00 0.722E+03   -.828E+00 0.779E+00 -.723E+03   -.860E-03 0.653E-02 0.438E+00
   -.140E+00 -.115E+00 0.724E+03   0.134E+00 0.110E+00 -.724E+03   0.449E-02 0.384E-02 0.505E+00
   0.622E+01 -.681E+00 -.625E+03   -.613E+01 0.676E+00 0.625E+03   -.934E-01 0.424E-02 -.342E+00
   -.927E+00 -.621E+01 -.626E+03   0.934E+00 0.611E+01 0.627E+03   -.760E-02 0.934E-01 -.263E+00
   0.219E+02 -.242E+02 -.198E+04   -.220E+02 0.243E+02 0.197E+04   0.103E+00 -.789E-01 0.602E+01
   -.640E+01 -.577E+01 -.188E+04   0.630E+01 0.566E+01 0.188E+04   0.102E+00 0.109E+00 0.420E+01
   -.178E+00 0.421E-01 0.208E+04   0.178E+00 -.420E-01 -.208E+04   0.368E-03 -.629E-04 -.679E+01
   0.378E-01 0.180E+00 0.208E+04   -.372E-01 -.180E+00 -.208E+04   -.426E-03 -.294E-03 -.679E+01
   -.780E+00 0.832E+00 0.722E+03   0.770E+00 -.831E+00 -.723E+03   0.637E-02 -.969E-03 0.438E+00
   0.174E+00 0.160E+00 0.721E+03   -.177E+00 -.161E+00 -.721E+03   0.185E-02 0.731E-03 0.424E+00
   -.366E+01 0.791E+00 -.635E+03   0.364E+01 -.800E+00 0.635E+03   0.192E-01 0.893E-02 -.233E+00
   0.713E+00 0.365E+01 -.634E+03   -.712E+00 -.364E+01 0.634E+03   -.228E-02 -.135E-01 -.230E+00
   -.239E+02 0.219E+02 -.198E+04   0.240E+02 -.220E+02 0.197E+04   -.834E-01 0.869E-01 0.602E+01
   0.195E+01 0.183E+01 -.201E+04   -.194E+01 -.182E+01 0.200E+04   -.425E-02 -.828E-02 0.596E+01
   -.197E+00 -.428E-01 0.208E+04   0.196E+00 0.424E-01 -.208E+04   0.133E-02 0.313E-03 -.680E+01
   0.469E-01 -.180E+00 0.208E+04   -.468E-01 0.180E+00 -.208E+04   -.750E-05 0.367E-03 -.679E+01
   -.835E+00 -.838E+00 0.722E+03   0.827E+00 0.831E+00 -.722E+03   0.546E-02 0.485E-02 0.468E+00
   0.128E+00 -.165E+00 0.722E+03   -.125E+00 0.165E+00 -.723E+03   -.211E-02 0.654E-03 0.411E+00
   -.616E+01 -.839E+00 -.626E+03   0.607E+01 0.847E+00 0.626E+03   0.915E-01 -.850E-02 -.287E+00
   0.859E+00 -.364E+01 -.635E+03   -.870E+00 0.363E+01 0.635E+03   0.102E-01 0.133E-01 -.231E+00
   -.213E+02 -.214E+02 -.199E+04   0.214E+02 0.215E+02 0.198E+04   -.142E+00 -.127E+00 0.601E+01
   0.457E+01 -.204E+01 -.199E+04   -.454E+01 0.203E+01 0.198E+04   -.290E-01 0.754E-02 0.595E+01
   0.565E+00 0.872E-01 0.541E+03   -.562E+00 -.894E-01 -.541E+03   -.404E-02 0.301E-02 -.707E-01
   -.105E+00 0.726E+00 0.542E+03   0.106E+00 -.744E+00 -.542E+03   -.181E-02 0.235E-01 -.103E+00
   0.138E+00 0.140E+00 0.157E+04   -.137E+00 -.139E+00 -.157E+04   -.175E-02 -.195E-02 0.360E+01
   -.335E-01 0.256E-01 0.157E+04   0.334E-01 -.249E-01 -.157E+04   0.786E-04 -.108E-02 0.360E+01
   0.925E+01 0.252E+01 -.152E+04   -.920E+01 -.252E+01 0.152E+04   -.507E-01 -.709E-02 -.494E+01
   -.369E+01 0.320E+02 -.148E+04   0.368E+01 -.318E+02 0.148E+04   0.489E-02 -.265E+00 -.493E+01
   0.368E+01 0.371E+01 -.466E+03   -.367E+01 -.370E+01 0.466E+03   -.107E-01 -.129E-01 0.296E+00
   -.492E+00 0.572E+00 -.468E+03   0.491E+00 -.568E+00 0.468E+03   0.150E-02 -.363E-02 0.261E+00
   0.714E+00 -.865E-01 0.542E+03   -.732E+00 0.871E-01 -.542E+03   0.236E-01 -.669E-03 -.104E+00
   -.170E+00 -.725E+00 0.542E+03   0.169E+00 0.746E+00 -.542E+03   0.197E-02 -.271E-01 -.895E-01
   0.143E+00 -.140E+00 0.157E+04   -.142E+00 0.139E+00 -.157E+04   -.124E-02 0.203E-02 0.360E+01
   -.295E-01 -.257E-01 0.157E+04   0.289E-01 0.250E-01 -.157E+04   0.888E-03 0.911E-03 0.360E+01
   0.320E+02 -.345E+01 -.148E+04   -.318E+02 0.345E+01 0.148E+04   -.270E+00 0.370E-02 -.493E+01
   -.247E+01 -.309E+02 -.148E+04   0.248E+01 0.306E+02 0.149E+04   -.553E-02 0.232E+00 -.493E+01
   0.354E+01 -.369E+01 -.467E+03   -.354E+01 0.368E+01 0.466E+03   -.214E-02 0.665E-02 0.337E+00
   -.681E+00 -.623E+00 -.464E+03   0.676E+00 0.618E+00 0.464E+03   0.435E-02 0.449E-02 -.157E+00
   -.570E+00 0.138E+00 0.541E+03   0.571E+00 -.128E+00 -.541E+03   -.111E-02 -.130E-01 -.741E-01
   0.102E+00 0.567E+00 0.541E+03   -.103E+00 -.564E+00 -.541E+03   0.247E-02 -.538E-02 -.715E-01
   -.138E+00 0.144E+00 0.157E+04   0.137E+00 -.143E+00 -.157E+04   0.178E-02 -.128E-02 0.360E+01
   0.334E-01 0.301E-01 0.156E+04   -.333E-01 -.299E-01 -.157E+04   -.219E-03 -.345E-03 0.360E+01
   -.906E+01 0.187E+01 -.152E+04   0.901E+01 -.188E+01 0.152E+04   0.495E-01 0.113E-01 -.493E+01
   0.274E+01 0.925E+01 -.152E+04   -.274E+01 -.920E+01 0.152E+04   -.497E-02 -.540E-01 -.495E+01
   -.366E+01 0.355E+01 -.467E+03   0.365E+01 -.355E+01 0.466E+03   0.338E-02 -.464E-02 0.336E+00
   0.471E+00 0.438E+00 -.473E+03   -.469E+00 -.436E+00 0.473E+03   -.122E-02 -.187E-02 0.259E+00
   -.718E+00 -.152E+00 0.542E+03   0.740E+00 0.150E+00 -.542E+03   -.294E-01 0.306E-02 -.904E-01
   0.151E+00 -.571E+00 0.541E+03   -.141E+00 0.570E+00 -.541E+03   -.137E-01 0.230E-02 -.730E-01
   -.142E+00 -.144E+00 0.157E+04   0.142E+00 0.143E+00 -.157E+04   0.876E-03 0.962E-03 0.360E+01
   0.295E-01 -.301E-01 0.157E+04   -.287E-01 0.299E-01 -.157E+04   -.113E-02 0.277E-03 0.360E+01
   -.307E+02 -.222E+01 -.148E+04   0.305E+02 0.223E+01 0.149E+04   0.240E+00 -.604E-02 -.494E+01
   0.208E+01 -.908E+01 -.152E+04   -.210E+01 0.903E+01 0.152E+04   0.135E-01 0.530E-01 -.494E+01
   -.349E+01 -.351E+01 -.469E+03   0.347E+01 0.350E+01 0.469E+03   0.120E-01 0.154E-01 0.241E+00
   0.640E+00 -.451E+00 -.468E+03   -.638E+00 0.450E+00 0.468E+03   -.162E-02 0.830E-03 0.266E+00
   -.810E+01 -.779E+01 0.303E+02   -.925E-13 0.924E-13 -.182E-11   0.810E+01 0.779E+01 -.303E+02

 POSITION                                       TOTAL-FORCE (eV/Angst)
      4.26984      4.27774     16.23967         0.004203      0.004561      0.007491
      3.68914      3.71813     17.08792         0.005180      0.005724     -0.004142
      2.11015      0.00000      7.50000         0.000135      0.000180      0.317723
      4.22029      2.11015      7.50000        -0.000133      0.000331      0.318763
      2.11015      2.11015      9.61015         0.003176      0.003553      0.030272
      4.22029      0.00000      9.61015        -0.000220      0.001098      0.034292
      2.11062      0.00025     11.72977        -0.002780     -0.000106      0.003638
      4.22006      2.11315     11.73333         0.000242     -0.001248      0.000244
      2.10792      2.10836     13.82747        -0.000247     -0.000787      0.000414
      4.21959      0.00038     13.82826        -0.000606      0.000307      0.000935
      2.11015      4.22029      7.50000         0.000302     -0.000141      0.318863
      4.22029      6.33044      7.50000        -0.000117     -0.000334      0.318032
      2.11015      6.33044      9.61015         0.000222     -0.002894      0.029624
      4.22029      4.22029      9.61015        -0.002057     -0.001783      0.041469
      2.11297      4.22022     11.73329        -0.001392     -0.000309      0.000692
      4.21996      6.32707     11.73220        -0.000099      0.000750     -0.001149
      2.10638      6.33265     13.82397        -0.000093      0.000110      0.000587
      4.21994      4.22001     13.86504         0.001550      0.001176      0.004208
      6.33044      0.00000      7.50000        -0.000106      0.000092      0.317763
      0.00000      2.11015      7.50000         0.000167      0.000161      0.317819
      6.33044      2.11015      9.61015        -0.002832      0.000350      0.030015
      0.00000      0.00000      9.61015        -0.000815     -0.000362      0.028813
      6.32929     -0.00096     11.73020         0.003125     -0.000077      0.004147
      0.00016      2.11046     11.72979        -0.000763     -0.000574      0.002697
      6.33251      2.10705     13.82408         0.000705     -0.001356      0.001421
     -0.00051     -0.00019     13.82821         0.000628      0.000159      0.004934
      6.33044      4.22029      7.50000        -0.000314     -0.000126      0.318085
      0.00000      6.33044      7.50000         0.000078     -0.000125      0.317722
      6.33044      6.33044      9.61015        -0.002639     -0.002431      0.029971
      0.00000      4.22029      9.61015         0.000937     -0.000291      0.034910
      6.32695      4.22010     11.73219         0.001659     -0.000483      0.000090
     -0.00108      6.32970     11.73015        -0.000439      0.000755      0.003276
      6.33151      6.33141     13.83145         0.000085      0.000327      0.000173
     -0.00006      4.21972     13.82756         0.000444     -0.000332      0.003872
      2.11015      0.00000      9.61015        -0.001204      0.000867      0.049599
      4.22029      2.11015      9.61015        -0.000374      0.005437      0.057846
      2.11015      2.11015      7.50000        -0.000464     -0.000522     -0.403176
      4.22029      0.00000      7.50000         0.000036     -0.000297     -0.402859
      2.10846     -0.00005     13.86754        -0.002442      0.000195     -0.000175
      4.22099      2.10193     13.86743        -0.000059      0.000083     -0.000533
      2.11008      2.11010     11.72566        -0.000808     -0.000607     -0.004341
      4.22006     -0.00049     11.72454        -0.000011     -0.000297     -0.002770
      2.11015      4.22029      9.61015         0.005572     -0.000118      0.057328
      4.22029      6.33044      9.61015         0.000725     -0.006434      0.056198
      2.11015      6.33044      7.50000        -0.000335      0.000575     -0.402818
      4.22029      4.22029      7.50000         0.000254      0.000259     -0.403365
      2.10148      4.22129     13.86687         0.000091     -0.000257     -0.001453
      4.21749      6.33840     13.86677        -0.000454     -0.000220      0.000254
      2.10956      6.33068     11.72476        -0.000750      0.000284     -0.004518
      4.22015      4.22033     11.73226        -0.000097     -0.000123     -0.005533
      6.33044      0.00000      9.61015        -0.000101     -0.003486      0.050898
      0.00000      2.11015      9.61015         0.000729     -0.001500      0.049471
      6.33044      2.11015      7.50000         0.000506     -0.000346     -0.402848
      0.00000      0.00000      7.50000        -0.000051     -0.000089     -0.402678
      6.33097     -0.00067     13.86848         0.001775     -0.000068     -0.001657
     -0.00019      2.10835     13.86786        -0.000429     -0.000661     -0.002826
      6.33050      2.10955     11.72481        -0.000154     -0.000571     -0.004786
     -0.00045     -0.00027     11.72453         0.000449     -0.000171     -0.002983
      6.33044      4.22029      9.61015        -0.007082      0.000977      0.055954
      0.00000      6.33044      9.61015        -0.003654      0.000698      0.050993
      6.33044      6.33044      7.50000         0.000244      0.000267     -0.402626
      0.00000      4.22029      7.50000        -0.000308      0.000092     -0.402928
      6.33814      4.21784     13.86595         0.002231     -0.000798     -0.001613
     -0.00080      6.33146     13.86840        -0.000560      0.000558     -0.002026
      6.32966      6.32986     11.72686        -0.000257      0.000277     -0.004483
     -0.00056      4.22015     11.72431        -0.000206      0.000119     -0.003209
    total drift:                               -0.001044     -0.000884     -0.009577

  FREE ENERGIE OF THE ION-ELECTRON SYSTEM (eV)
  free  energy   TOTEN  =      -274.57233281 eV

  energy  without entropy=     -274.57233281  energy(sigma->0) =     -274.57233281

 d Force = 0.2161830E-05[ 0.208E-05, 0.224E-05]  d Energy = 0.2166795E-05-0.496E-08
 d Force = 0.3106355E-01[ 0.311E-01, 0.311E-01]  d Ewald  = 0.3106355E-01-0.592E-10

 Conjugate gradient step on ions:
 trial-energy change:   -0.000002  1 .order   -0.000002   -0.000002   -0.000002
  (g-gl).g = 0.406E-04      g.g   = 0.275E-04  gl.gl    = 0.204E-03
 g(Force)  = 0.275E-04   g(Stress)= 0.000E+00 ortho     = 0.350E-05
 gamma     =   0.19870
 trial     =   0.07944
 opt step  =   0.31777  (harmonic =   1.14648) maximal distance =0.00016245
 next E    =  -274.572347   (d E  =  -0.00002)

 reached required accuracy - stopping structural energy minimisation