 vasp.6.3.0 20Jan22 (build Aug 21 2024 11:13:42) complex
 executed on        HPECrayEX_GCC date 2024.11.26  11:42:06

 INCAR:
   SYSTEM = TiO2
   ISMEAR = 0
   SIGMA = 0.05
   EDIFF = 1E-4
   ALGO = ALL
   ISTART = 0
   IBRION = -1
   NSW = 0
   ISYM = 0
   ISIF = 2
   EDIFFG = -0.01
   DIPOL = 0.5 0.5 0.5
   IDIPOL = 3
   LDIPOL = .TRUE.
   GGA = PE
   IVDW = 21
   ENCUT = 600
   PREC = Accurate
   LASPH = .TRUE.
   LREAL = .FALSE.
   ISPIN = 1
   NELM = 200
   NELMIN = 8
   NCORE = 2
   KPAR = 1
   LWAVE = .FALSE.
   LCHARG = .FALSE.

 POTCAR:    PAW_PBE C 08Apr2002
 POTCAR:    PAW_PBE O 08Apr2002
 POTCAR:    PAW_PBE Ti_pv 07Sep2000
 POTCAR:    PAW_PBE O 08Apr2002
 POTCAR:    PAW_PBE C 08Apr2002
   VRHFIN =C: s2p2

   TITEL  = PAW_PBE C 08Apr2002
   POMASS =   12.011; ZVAL   =    4.000    mass and valenz
   ENMAX  =  400.000; ENMIN  =  300.000 eV

[...]

   TITEL  = PAW_PBE Ti_pv 07Sep2000
   POMASS =   47.880; ZVAL   =   10.000    mass and valenz
   ENMAX  =  222.335; ENMIN  =  166.751 eV

   TITEL  = PAW_PBE O 08Apr2002
   POMASS =   16.000; ZVAL   =    6.000    mass and valenz
   ENMAX  =  400.000; ENMIN  =  300.000 eV

  PAW_PBE C 08Apr2002                   :
  PAW_PBE O 08Apr2002                   :
  PAW_PBE Ti_pv 07Sep2000               :
  PAW_PBE O 08Apr2002                   :

 POSCAR:  C  O Ti  O
  positions in direct lattice
 exchange correlation table for  LEXCH =        8
   RHO(1)=    0.500       N(1)  =     2000
   RHO(2)=  100.500       N(2)  =     4000

 ion  position               nearest neighbor table
   1  0.430  0.500  0.821-   2 1.17   3 1.18
   2  0.374  0.500  0.850-   1 1.17
   3  0.490  0.500  0.792-   1 1.18  83 2.50
   4  0.750  0.625  0.287-  84 1.96  85 1.96 144 1.96 145 1.96  87 1.98 166 1.98  14 2.97  34 2.97

   5  0.000  0.750  0.287-  86 1.96  87 1.96 106 1.96 107 1.96  88 1.98  35 2.97  15 2.97
   6  0.000  0.625  0.393-  88 1.96  89 1.96 148 1.96 149 1.96  90 1.98  91 1.98  16 2.97  36 2.97

[...]

  84  0.750  0.750  0.245-   4 1.96  14 1.96
  85  0.750  0.750  0.329-   4 1.96  14 1.96   7 1.98
  86  0.098  0.625  0.287-   5 1.96  35 1.96  44 1.98
  87  0.902  0.625  0.287-   5 1.96  35 1.96   4 1.98
  88  0.000  0.750  0.352-   6 1.96  16 1.96   5 1.98
  89  0.000  0.750  0.435-   6 1.96  16 1.96   9 1.98
  90  0.848  0.625  0.393-   7 1.96  37 1.96   6 1.98
  91  0.152  0.625  0.393-  47 1.96  77 1.96   6 1.98
  92  0.750  0.750  0.458-   8 1.96  18 1.96   7 1.98
  93  0.750  0.750  0.542-   8 1.96  18 1.96  11 2.11
  94  0.098  0.625  0.500-   9 1.96  39 1.96  48 1.98
  95  0.902  0.625  0.500-   9 1.96  39 1.96   8 1.98
  96  0.000  0.750  0.566-  20 1.90  10 1.90   9 2.00
  97  0.000  0.750  0.649-  13 1.81  10 2.02  20 2.02
  98  0.850  0.625  0.607-  11 1.94  41 1.94  10 2.04
  99  0.150  0.625  0.607-  10 1.88  51 2.02  81 2.02
 100  0.750  0.750  0.672-  11 1.87  22 2.10  12 2.10
 101  0.749  0.750  0.756-  12 1.84  22 1.84
 102  0.093  0.625  0.720-  43 1.95  13 1.96  52 2.03
 103  0.906  0.625  0.719-  43 1.95  13 1.95  12 2.04
 104  0.750  0.000  0.245-  14 1.96  24 1.96
 105  0.750  0.000  0.329-  14 1.96  24 1.96  17 1.98
 106  0.098  0.875  0.287-   5 1.96  15 1.96  54 1.98
 107  0.902  0.875  0.287-   5 1.96  15 1.96  14 1.98
 108  0.000  0.000  0.352-  16 1.96  26 1.96  15 1.98
 109  0.000  0.000  0.435-  16 1.96  26 1.96  19 1.98
 110  0.848  0.875  0.393-   7 1.96  17 1.96  16 1.98
 111  0.152  0.875  0.393-  47 1.96  57 1.96  16 1.98
 112  0.750  0.000  0.458-  18 1.96  28 1.96  17 1.98
 113  0.750  0.000  0.542-  18 1.96  28 1.96  21 2.11
 114  0.098  0.875  0.500-   9 1.96  19 1.96  58 1.98
 115  0.902  0.875  0.500-   9 1.96  19 1.96  18 1.98
 116  0.000  1.000  0.566-  30 1.90  20 1.90  19 2.00
 117  0.000  0.000  0.649-  23 1.81  30 2.02  20 2.02
 118  0.850  0.875  0.607-  21 1.94  11 1.94  20 2.04
 119  0.150  0.875  0.607-  20 1.88  61 2.02  51 2.02
 120  0.750  0.000  0.672-  21 1.87  32 2.10  22 2.10
 121  0.750  0.000  0.756-  32 1.84  22 1.84
 122  0.093  0.875  0.719-  13 1.95  23 1.95  62 2.04
 123  0.906  0.875  0.719-  13 1.95  23 1.95  22 2.04
 124  0.750  0.250  0.245-  24 1.96  34 1.96
 125  0.750  0.250  0.329-  24 1.96  34 1.96  27 1.98
 126  0.098  0.125  0.287-  15 1.96  25 1.96  64 1.98
 127  0.902  0.125  0.287-  15 1.96  25 1.96  24 1.98
 128  0.000  0.250  0.352-  26 1.96  36 1.96  25 1.98
 129  0.000  0.250  0.435-  26 1.96  36 1.96  29 1.98
 130  0.848  0.125  0.393-  17 1.96  27 1.96  26 1.98
 131  0.152  0.125  0.393-  57 1.96  67 1.96  26 1.98
 132  0.750  0.250  0.458-  28 1.96  38 1.96  27 1.98
 133  0.750  0.250  0.542-  28 1.96  38 1.96  31 2.11
 134  0.098  0.125  0.500-  19 1.96  29 1.96  68 1.98
 135  0.902  0.125  0.500-  19 1.96  29 1.96  28 1.98
 136  0.000  0.250  0.566-  30 1.90  40 1.90  29 2.00
 137  0.000  0.250  0.649-  33 1.81  40 2.02  30 2.02
 138  0.850  0.125  0.607-  21 1.94  31 1.94  30 2.04
 139  0.150  0.125  0.607-  30 1.88  61 2.02  71 2.02
 140  0.750  0.250  0.672-  31 1.87  32 2.10  42 2.10
 141  0.749  0.250  0.756-  42 1.84  32 1.84
 142  0.093  0.125  0.719-  33 1.95  23 1.95  72 2.04
 143  0.906  0.125  0.719-  33 1.95  23 1.95  32 2.04
[...]
 229  0.500  0.500  0.435-  46 1.96  76 1.96  79 1.98
 230  0.348  0.375  0.393-  67 1.96  77 1.96  76 1.98
 231  0.652  0.375  0.393-  27 1.96  37 1.96  76 1.98
 232  0.250  0.500  0.458-  48 1.96  78 1.96  77 1.98
 233  0.250  0.500  0.542-  48 1.96  78 1.96  81 2.11
 234  0.598  0.375  0.500-  69 1.96  79 1.96  38 1.98
 235  0.402  0.375  0.500-  69 1.96  79 1.96  78 1.98
 236  0.500  0.500  0.566-  50 1.90  80 1.90  79 2.01
 237  0.501  0.500  0.650-  83 1.84  50 2.02  80 2.02
 238  0.350  0.375  0.607-  81 1.94  71 1.94  80 2.04
 239  0.650  0.375  0.607-  80 1.88  41 2.02  31 2.02
 240  0.248  0.500  0.672-  81 1.87  52 2.10  82 2.10
 241  0.252  0.500  0.755-  52 1.84  82 1.84
 242  0.594  0.374  0.719-  73 1.94  83 1.96  42 2.03
 243  0.405  0.373  0.718-  73 1.94  83 1.96  82 2.04

IMPORTANT INFORMATION: All symmetrisations will be switched off!
NOSYMM: (Re-)initialisation of all symmetry stuff for point group C_1.

                                     Primitive cell

  volume of cell :    4740.1649

  direct lattice vectors                    reciprocal lattice vectors
    13.042933829  0.000000000  0.000000000     0.076669867  0.000000000  0.000000000
     0.000000000 11.878216733  0.000000000     0.000000000  0.084187721  0.000000000
     0.000000000  0.000000000 30.596159140     0.000000000  0.000000000  0.032683841

  length of vectors
    13.042933829 11.878216733 30.596159140     0.076669867  0.084187721  0.032683841

  position of ions in fractional coordinates (direct lattice)
     0.430031875  0.500000036  0.820678613
     0.374037150  0.500000200  0.850466528
     0.489609449  0.499999850  0.791558383
     0.750000000  0.625000000  0.286853412
     0.000000000  0.750000000  0.286853412
     0.000000000  0.625000000  0.393426706
     0.750000000  0.750000000  0.393426706
     0.750000000  0.625000000  0.500000000
     0.000000000  0.750000000  0.500000000
     0.006217938  0.625002366  0.604363989
     0.755082827  0.749985455  0.610673294
     0.749323856  0.625079392  0.720315051
     0.999539375  0.750176496  0.708473973
     0.750000000  0.875000000  0.286853412
     0.000000000  0.000000000  0.286853412
     0.000000000  0.875000000  0.393426706
     0.750000000  0.000000000  0.393426706
     0.750000000  0.875000000  0.500000000
     0.000000000  0.000000000  0.500000000
     0.006181753  0.875010113  0.604373113
     0.755061073  0.999999943  0.610704621
     0.749300506  0.875050804  0.720388640
     0.999737458  0.000000026  0.708479079
     0.750000000  0.125000000  0.286853412
     0.000000000  0.250000000  0.286853412
     0.000000000  0.125000000  0.393426706
     0.750000000  0.250000000  0.393426706
     0.750000000  0.125000000  0.500000000
     0.000000000  0.250000000  0.500000000
     0.006181778  0.124989861  0.604373091
     0.755082751  0.250014356  0.610673284
     0.749300462  0.124949163  0.720388635
     0.999539308  0.249823447  0.708473967
     0.750000000  0.375000000  0.286853412
     0.000000000  0.500000000  0.286853412
     0.000000000  0.375000000  0.393426706
     0.750000000  0.500000000  0.393426706
     0.750000000  0.375000000  0.500000000
     0.000000000  0.500000000  0.500000000
     0.006217859  0.374997667  0.604363996
     0.755028127  0.499999888  0.610713194
     0.749323784  0.374920465  0.720315054
     0.999136029  0.500000016  0.708466459
     0.250000000  0.625000000  0.286853412
     0.500000000  0.750000000  0.286853412
     0.500000000  0.625000000  0.393426706
     0.250000000  0.750000000  0.393426706
     0.250000000  0.625000000  0.500000000
     0.500000000  0.750000000  0.500000000
     0.506272279  0.624304904  0.604896379
     0.254957808  0.750080455  0.610561033
     0.248854389  0.625301301  0.719949818
     0.499685764  0.750124398  0.708004364
     0.250000000  0.875000000  0.286853412
     0.500000000  0.000000000  0.286853412
     0.500000000  0.875000000  0.393426706
     0.250000000  0.000000000  0.393426706
     0.250000000  0.875000000  0.500000000
     0.500000000  0.000000000  0.500000000
     0.506418866  0.874694326  0.603993303
[...]
     0.500000000  0.500000000  0.435151311
     0.347877722  0.375000000  0.393426706
     0.652122278  0.375000000  0.393426706
     0.250000000  0.500000000  0.458275395
     0.250000000  0.500000000  0.541724605
     0.597877722  0.375000000  0.500000000
     0.402122278  0.375000000  0.500000000
     0.500072503  0.500000035  0.565722966
     0.500505850  0.500000045  0.649903738
     0.349828846  0.374996472  0.607493220
     0.650413935  0.375019148  0.607145419
     0.248309295  0.500000021  0.671501729
     0.252094576  0.500000093  0.755464981
     0.593553234  0.373962166  0.718546935
     0.404937441  0.373412230  0.717631447

  ion indices of the primitive-cell ions
   primitive index   ion index
                 1           1
                 2           2
                 3           3
                 4           4
                 5           5
                 6           6
                 7           7
                 8           8
                 9           9
                10          10
                11          11
                12          12
                13          13
                14          14
                15          15
                16          16
                17          17
                18          18
                19          19
                20          20
                21          21
                22          22
                23          23
                24          24
                25          25
                26          26
                27          27
                28          28
                29          29
                30          30
                31          31
                32          32
                33          33
                34          34
                35          35
                36          36
                37          37
                38          38
                39          39
[...]
   O          53.519          3.922         10.002          1.85220245
   O          53.247          3.919          9.976          1.84749345
   O          53.150          3.918          9.967          1.84581211
   O          53.735          3.925         10.022          1.85595003
   O          53.015          3.916          9.955          1.84347088
   O          52.912          3.915          9.945          1.84168052
   O          53.504          3.922         10.001          1.85194506
   O          39.679          3.731          8.612          1.59484409
   O          52.664          3.912          9.922          1.83735734
   O          54.240          3.931         10.069          1.86464078

  vdW correction parametrized for the method pbe

  IVDW =  21
  VDW_RADIUS =    50.000 A
  VDW_IDAMPF =  0
  VDW_S6 =     1.000
  VDW_SR =     0.950
  VDW_D =    20.000
  LVDW_ONECELL = F F F
  LVDW_SAMETYPE T T T T
  LVDW_EWALD = F

  Number of pair interactions contributing to vdW energy: 3314952
  Edisp (eV):  -34.76712

  FORCE on cell =-STRESS in cart. coord.  units (eV):
  Direction    XX          YY          ZZ          XY          YZ          ZX
  Alpha Z  4682.06099  4682.06099  4682.06099
  Ewald  960439.66128977718.45441************    -0.00097     0.00090  -308.85445
  Hartree************************************    -0.00050     0.00028  -109.14039
  E(xc)   -8662.89470 -8645.39543 -8671.67210    -0.00000     0.00000    -1.02445
  Local  ************************************     0.00137    -0.00105   381.89634
  n-local -5459.75662 -5380.32499 -5504.36813    -0.00002     0.00002     2.68362
  augment  5232.96419  5217.19193  5236.10506     0.00002    -0.00001     1.36100
  Kinetic 28912.46657 28456.85126 28947.00998     0.00005    -0.00011    33.34689
  Fock        0.00000     0.00000     0.00000     0.00000     0.00000     0.00000
  vdW       -50.55797   -29.90293   -43.15722     0.00000    -0.00000    -0.03308
  Total      11.64618   -34.49569   -32.71518    -0.00005     0.00002     0.23548
  in kB       3.93641   -11.65956   -11.05774    -0.00002     0.00001     0.07959

 VOLUME and BASIS-vectors are now :
  energy-cutoff  :      600.00
  volume of cell :     4740.16
      direct lattice vectors                 reciprocal lattice vectors
    13.042933829  0.000000000  0.000000000     0.076669867  0.000000000  0.000000000
     0.000000000 11.878216733  0.000000000     0.000000000  0.084187721  0.000000000
     0.000000000  0.000000000 30.596159140     0.000000000  0.000000000  0.032683841

  length of vectors
    13.042933829 11.878216733 30.596159140     0.076669867  0.084187721  0.032683841

 FORCES acting on ions:
    Electron-Ion                     Ewald-Force                    Non-Local-Force
   -.162E+02 -.186E-04 -.145E+04   0.154E+02 0.166E-04 0.145E+04   0.809E+00 -.500E-05 0.789E-02
   0.155E+03 -.456E-03 -.207E+04   -.197E+03 0.565E-03 0.212E+04   0.414E+02 -.112E-03 -.508E+02
   -.184E+03 0.558E-03 -.228E+04   0.226E+03 -.689E-03 0.224E+04   -.414E+02 0.129E-03 0.420E+02
   -.235E+00 -.824E-01 0.376E+04   0.234E+00 0.825E-01 -.376E+04   0.219E-03 -.174E-04 0.429E+00
   0.134E+00 -.119E+00 0.394E+04   -.135E+00 0.119E+00 -.393E+04   0.970E-04 -.424E-05 -.389E+01
   0.233E+00 -.103E+00 0.193E+04   -.236E+00 0.103E+00 -.192E+04   0.559E-03 -.376E-06 -.448E-01
   -.380E+00 -.102E+00 0.192E+04   0.378E+00 0.102E+00 -.192E+04   0.919E-03 -.531E-04 0.205E+00
   -.220E+01 -.370E+00 0.139E+02   0.220E+01 0.367E+00 -.131E+02   0.515E-02 0.214E-03 -.132E+00
   0.252E+01 -.761E+00 0.235E+02   -.255E+01 0.763E+00 -.245E+02   0.130E-01 -.900E-03 0.333E+00
   0.232E+02 -.259E+01 -.184E+04   -.233E+02 0.260E+01 0.184E+04   0.181E-01 -.245E-02 0.814E-01
   -.145E+01 -.548E+01 -.190E+04   0.146E+01 0.549E+01 0.190E+04   -.404E-01 -.307E-02 -.973E-01
   -.496E+02 -.201E+02 -.369E+04   0.496E+02 0.201E+02 0.369E+04   0.125E-01 -.826E-02 -.183E+00
   0.945E+01 -.991E+01 -.373E+04   -.947E+01 0.990E+01 0.373E+04   0.138E-01 -.190E-02 0.944E+00
   -.228E+00 -.823E-01 0.376E+04   0.227E+00 0.824E-01 -.376E+04   0.292E-03 0.103E-04 0.429E+00
   0.127E+00 0.444E-05 0.394E+04   -.128E+00 0.124E-05 -.393E+04   0.881E-04 -.512E-05 -.389E+01
   0.211E+00 -.104E+00 0.193E+04   -.214E+00 0.104E+00 -.192E+04   0.500E-03 0.166E-04 -.448E-01
   -.413E+00 -.509E-05 0.192E+04   0.411E+00 0.345E-05 -.192E+04   0.104E-02 -.660E-06 0.205E+00
   -.257E+01 -.397E+00 0.131E+02   0.258E+01 0.401E+00 -.123E+02   0.394E-02 -.183E-03 -.133E+00
   0.236E+01 -.395E-04 0.227E+02   -.240E+01 0.181E-04 -.237E+02   0.126E-01 0.922E-05 0.333E+00
   0.217E+02 -.247E+01 -.184E+04   -.218E+02 0.248E+01 0.184E+04   0.149E-01 -.362E-02 0.775E-01
   0.428E+00 0.159E-03 -.190E+04   -.430E+00 -.165E-03 0.190E+04   -.310E-01 0.617E-05 -.910E-01
   -.200E+02 -.145E+02 -.372E+04   0.200E+02 0.145E+02 0.372E+04   0.232E-01 0.238E-02 -.190E+00
   0.663E+01 0.177E-03 -.374E+04   -.664E+01 -.180E-03 0.374E+04   0.903E-02 0.206E-06 0.956E+00
   -.228E+00 0.823E-01 0.376E+04   0.227E+00 -.824E-01 -.376E+04   0.287E-03 0.348E-06 0.429E+00
   0.135E+00 0.118E+00 0.394E+04   -.135E+00 -.119E+00 -.393E+04   0.100E-03 0.858E-05 -.389E+01
   0.211E+00 0.104E+00 0.193E+04   -.214E+00 -.104E+00 -.192E+04   0.498E-03 0.541E-05 -.448E-01
   -.380E+00 0.102E+00 0.192E+04   0.378E+00 -.102E+00 -.192E+04   0.929E-03 0.455E-04 0.205E+00
   -.257E+01 0.397E+00 0.131E+02   0.258E+01 -.401E+00 -.123E+02   0.394E-02 0.182E-03 -.133E+00
   0.252E+01 0.761E+00 0.235E+02   -.255E+01 -.763E+00 -.245E+02   0.130E-01 0.899E-03 0.333E+00
   0.217E+02 0.247E+01 -.184E+04   -.218E+02 -.248E+01 0.184E+04   0.149E-01 0.362E-02 0.775E-01
   -.145E+01 0.548E+01 -.190E+04   0.146E+01 -.548E+01 0.190E+04   -.404E-01 0.307E-02 -.973E-01
   -.200E+02 0.145E+02 -.372E+04   0.200E+02 -.145E+02 0.372E+04   0.231E-01 -.240E-02 -.190E+00
   0.945E+01 0.991E+01 -.373E+04   -.947E+01 -.990E+01 0.373E+04   0.138E-01 0.189E-02 0.944E+00
   -.235E+00 0.824E-01 0.376E+04   0.234E+00 -.825E-01 -.376E+04   0.219E-03 0.102E-04 0.429E+00
   0.142E+00 0.246E-04 0.394E+04   -.142E+00 -.126E-05 -.393E+04   0.102E-03 -.159E-05 -.389E+01
   0.233E+00 0.103E+00 0.193E+04   -.236E+00 -.103E+00 -.192E+04   0.560E-03 -.160E-04 -.448E-01
   -.347E+00 0.790E-05 0.192E+04   0.345E+00 -.388E-05 -.192E+04   0.731E-03 0.359E-05 0.205E+00
   -.220E+01 0.370E+00 0.139E+02   0.220E+01 -.367E+00 -.131E+02   0.516E-02 -.215E-03 -.132E+00
   0.266E+01 0.381E-04 0.243E+02   -.270E+01 -.282E-04 -.253E+02   0.132E-01 -.340E-05 0.333E+00
   0.232E+02 0.260E+01 -.184E+04   -.233E+02 -.260E+01 0.184E+04   0.181E-01 0.244E-02 0.814E-01
   -.395E+01 -.531E-03 -.189E+04   0.396E+01 0.576E-03 0.189E+04   -.368E-01 0.208E-05 -.104E+00
   -.496E+02 0.201E+02 -.369E+04   0.496E+02 -.201E+02 0.369E+04   0.124E-01 0.829E-02 -.183E+00
   0.131E+02 0.892E-04 -.373E+04   -.131E+02 -.853E-04 0.373E+04   -.769E-02 0.580E-05 0.934E+00
   0.230E+00 -.937E-01 0.376E+04   -.229E+00 0.939E-01 -.376E+04   -.137E-03 -.102E-04 0.429E+00
   -.129E+00 -.130E+00 0.394E+04   0.130E+00 0.130E+00 -.393E+04   -.106E-03 -.466E-04 -.389E+01
   -.105E+00 -.437E-01 0.193E+04   0.107E+00 0.505E-01 -.193E+04   -.316E-03 -.140E-02 -.452E-01
   0.255E+00 -.136E+00 0.192E+04   -.253E+00 0.136E+00 -.192E+04   -.464E-04 0.906E-06 0.207E+00
   0.134E+00 -.585E+00 0.156E+02   -.113E+00 0.586E+00 -.148E+02   0.890E-03 -.183E-03 -.129E+00
   0.127E+01 -.356E+00 0.263E+02   -.130E+01 0.325E+00 -.273E+02   0.937E-02 0.184E-01 0.310E+00
   0.163E+02 -.563E+01 -.182E+04   -.164E+02 0.567E+01 0.182E+04   0.951E-02 -.427E-01 0.874E-01
   0.136E+02 -.729E+01 -.189E+04   -.136E+02 0.729E+01 0.189E+04   -.276E-01 -.349E-02 -.106E+00
   0.664E+02 -.328E+02 -.365E+04   -.664E+02 0.328E+02 0.365E+04   -.190E-01 0.245E-01 -.136E+00
   -.127E+02 -.616E+02 -.368E+04   0.127E+02 0.616E+02 0.368E+04   0.298E-01 -.257E-01 0.102E+01
   0.222E+00 -.935E-01 0.376E+04   -.222E+00 0.937E-01 -.376E+04   -.197E-03 -.340E-04 0.429E+00
   -.122E+00 0.195E-04 0.394E+04   0.123E+00 0.172E-05 -.393E+04   -.980E-04 -.207E-06 -.389E+01
   -.833E-01 -.476E-01 0.193E+04   0.853E-01 0.506E-01 -.193E+04   -.200E-03 -.934E-03 -.453E-01
   0.289E+00 0.269E-04 0.192E+04   -.286E+00 0.122E-04 -.192E+04   -.122E-03 -.768E-05 0.207E+00
   0.502E+00 -.641E+00 0.141E+02   -.483E+00 0.657E+00 -.133E+02   0.956E-03 -.945E-03 -.131E+00
   0.136E+01 -.841E-04 0.273E+02   -.139E+01 0.999E-04 -.283E+02   0.124E-01 -.459E-05 0.315E+00
   0.177E+02 -.797E+01 -.182E+04   -.178E+02 0.798E+01 0.182E+04   0.557E-02 -.206E-02 0.121E-01
[...]
   -.532E+02 0.451E-01 0.115E+04   0.572E+02 -.459E-01 -.115E+04   -.354E+01 0.132E-02 0.159E+00
   0.531E+02 0.335E-01 0.115E+04   -.571E+02 -.341E-01 -.115E+04   0.354E+01 0.990E-03 0.155E+00
   0.151E+00 0.432E-04 0.509E+03   -.139E+00 -.274E-04 -.514E+03   -.182E-01 0.657E-05 0.416E+01
   0.206E+01 0.123E-03 -.505E+03   -.229E+01 -.110E-03 0.512E+03   0.234E+00 0.113E-05 -.698E+01
   -.556E+02 -.164E-01 0.159E+02   0.603E+02 0.138E-01 -.162E+02   -.513E+01 0.168E-01 0.342E+00
   0.550E+02 0.749E-01 0.144E+02   -.596E+02 -.778E-01 -.146E+02   0.509E+01 0.165E-01 0.281E+00
   0.111E+02 0.354E-03 -.606E+03   -.123E+02 -.298E-03 0.599E+03   0.119E+01 -.281E-05 0.653E+01
   0.124E+01 0.155E-03 -.156E+04   -.183E+01 -.111E-03 0.156E+04   0.587E+00 -.924E-05 0.168E+01
   -.507E+02 0.366E+01 -.110E+04   0.566E+02 -.371E+01 0.110E+04   -.591E+01 0.517E-01 0.963E+00
   -.175E+01 0.320E+01 -.111E+04   0.177E+01 -.327E+01 0.111E+04   -.184E-01 0.707E-01 0.803E+00
   0.264E+02 0.334E-03 -.176E+04   -.271E+02 -.293E-03 0.176E+04   0.652E+00 -.148E-04 -.221E+01
   0.806E+02 0.157E-03 -.263E+04   -.805E+02 -.120E-03 0.265E+04   -.590E-01 -.335E-04 -.199E+02
   -.644E+02 0.353E+02 -.226E+04   0.702E+02 -.351E+02 0.226E+04   -.579E+01 -.185E+00 -.359E+01
   0.455E+02 0.456E+02 -.223E+04   -.515E+02 -.455E+02 0.223E+04   0.598E+01 -.338E-01 -.285E+01
   0.248E+02 -.492E-04 0.103E+03   0.312E-11 0.632E-12 -.227E-10   -.248E+02 0.762E-04 -.103E+03

 POSITION                                       TOTAL-FORCE (eV/Angst)
      5.60888      5.93911     25.10961        -0.006350     -0.000007      0.005009
      4.87854      5.93911     26.02101        -0.002493     -0.000003     -0.001357
      6.38594      5.93911     24.21865         0.000820     -0.000002      0.000658
      9.78220      7.42389      8.77661        -0.000501      0.000092     -3.417981
      0.00000      8.90866      8.77661        -0.000420      0.000037      2.832407
      0.00000      7.42389     12.03735        -0.002692      0.000273      0.521026
      9.78220      8.90866     12.03735        -0.001120      0.000470     -0.708248
      9.78220      7.42389     15.29808         0.003157     -0.003034      0.666520
      0.00000      8.90866     15.29808        -0.021724      0.001766     -0.686512
      0.08110      7.42391     18.49122        -0.002115      0.002765     -0.001006
      9.84850      8.90849     18.68426         0.003823     -0.000635     -0.001947
      9.77338      7.42483     22.03887         0.001202     -0.006648     -0.003442
     13.03693      8.91076     21.67658        -0.000562     -0.004229     -0.002732
      9.78220     10.39344      8.77661        -0.000619      0.000097     -3.417976
      0.00000      0.00000      8.77661        -0.000363      0.000000      2.832534
      0.00000     10.39344     12.03735        -0.002504      0.000070      0.521295
      9.78220      0.00000     12.03735        -0.001434     -0.000002     -0.708292
      9.78220     10.39344     15.29808         0.008051      0.003686      0.666241
      0.00000      0.00000     15.29808        -0.020753     -0.000012     -0.685592
      0.08063     10.39356     18.49150         0.001595      0.002278      0.000460
      9.84821     11.87822     18.68522         0.003387      0.000000     -0.007591
      9.77308     10.39404     22.04113        -0.000732     -0.003614     -0.002701
     13.03951      0.00000     21.67674        -0.000170     -0.000003     -0.002468
      9.78220      1.48478      8.77661        -0.000557     -0.000096     -3.418035
      0.00000      2.96955      8.77661        -0.000362     -0.000058      2.832478
      0.00000      1.48478     12.03735        -0.002498     -0.000111      0.521270
      9.78220      2.96955     12.03735        -0.001093     -0.000508     -0.708210
      9.78220      1.48478     15.29808         0.008049     -0.003692      0.666229
      0.00000      2.96955     15.29808        -0.021724     -0.001747     -0.686532
      0.08063      1.48466     18.49150         0.001588     -0.002259      0.000459
      9.84849      2.96972     18.68426         0.003874      0.000627     -0.001977
      9.77308      1.48417     22.04113        -0.000689      0.003600     -0.002728
     13.03693      2.96746     21.67658        -0.000569      0.004227     -0.002704
      9.78220      4.45433      8.77661        -0.000490     -0.000142     -3.417908
      0.00000      5.93911      8.77661        -0.000414      0.000022      2.832408
      0.00000      4.45433     12.03735        -0.002688     -0.000245      0.521044
      9.78220      5.93911     12.03735        -0.000782      0.000007     -0.707856
      9.78220      4.45433     15.29808         0.003180      0.003039      0.666531
      0.00000      5.93911     15.29808        -0.022620      0.000007     -0.687398
      0.08110      4.45430     18.49122        -0.002082     -0.002803     -0.000993
      9.84778      5.93911     18.68548         0.004245      0.000045      0.000575
      9.77338      4.45339     22.03887         0.001180      0.006707     -0.003453
     13.03167      5.93911     21.67635        -0.000503      0.000009     -0.005342
      3.26073      7.42389      8.77661         0.000476      0.000150     -3.419219
      6.52147      8.90866      8.77661         0.000428      0.000284      2.833955
      6.52147      7.42389     12.03735         0.001975      0.005446      0.524842
      3.26073      8.90866     12.03735         0.002186      0.000865     -0.715344
      3.26073      7.42389     15.29808         0.022125      0.000699      0.641634
      6.52147      8.90866     15.29808        -0.010835     -0.012499     -0.644529
      6.60328      7.41563     18.50751         0.000674     -0.000754      0.001411
      3.32540      8.90962     18.68082         0.002308      0.000451     -0.000165
      3.24579      7.42746     22.02770        -0.000997     -0.000299      0.000402
      6.51737      8.91014     21.66221         0.001310     -0.003500      0.000163
      3.26073     10.39344      8.77661         0.000571      0.000236     -3.419038
      6.52147      0.00000      8.77661         0.000393      0.000021      2.834400
      6.52147     10.39344     12.03735         0.001677      0.002080      0.528131
      3.26073      0.00000     12.03735         0.002623      0.000032     -0.714488
      3.26073     10.39344     15.29808         0.019957      0.014988      0.651561
      6.52147      0.00000     15.29808        -0.013775      0.000011     -0.713255
      6.60519     10.38981     18.47988        -0.000203     -0.001558      0.000576
[...]
      6.52147      5.93911     13.31396        -0.000175      0.000052     -0.114062
      4.53735      4.45433     12.03735         0.422905      0.000516      0.055175
      8.50559      4.45433     12.03735        -0.426027      0.000333      0.054384
      3.26073      5.93911     14.02147        -0.006077      0.000022     -0.090295
      3.26073      5.93911     16.57469         0.002755      0.000014      0.014881
      7.79808      4.45433     15.29808        -0.469389      0.014041      0.080204
      5.24485      4.45433     15.29808         0.458562      0.013366      0.086458
      6.52241      5.93911     17.30895        -0.001457      0.000053      0.003556
      6.52806      5.93911     19.88456         0.000069      0.000035     -0.005701
      4.56279      4.45429     18.58696         0.000379      0.000414      0.002162
      8.48331      4.45456     18.57632        -0.000502     -0.000003      0.001882
      3.23868      5.93911     20.54537        -0.000953      0.000027     -0.001214
      3.28805      5.93911     23.11433         0.002991      0.000003     -0.000547
      7.74168      4.44200     21.98478        -0.003329     -0.002290      0.002697
      5.28157      4.43547     21.95677         0.004988     -0.001602      0.003048
    total drift:                                0.009219      0.000027     -0.399466

  FREE ENERGIE OF THE ION-ELECTRON SYSTEM (eV)
  free  energy   TOTEN  =     -2178.21338841 eV

  energy  without entropy=    -2178.21338841  energy(sigma->0) =    -2178.21338841