 vasp.6.3.0 20Jan22 (build Apr  1 2022 16:44:48) complex
 executed on        HPECrayEX_GCC date 2023.03.11  22:23:35

 INCAR:
   SYSTEM = MgO-rocksalt
   ISMEAR = 0
   SIGMA = 0.05
   EDIFF = 1E-6
   ALGO = ALL
   ISTART = 0
   IBRION = -1
   NSW = 0
   ISYM = 0
   DIPOL = 0.5 0.5 0.5
   IDIPOL = 3
   LDIPOL = .TRUE.
   LHFCALC = .TRUE.
   GGA = B5
   AEXX = 0.2
   AGGAX = 0.72
   AGGAC = 0.81
   ALDAC = 0.19
   IVDW = 1
   VDW_S6 = 1.05
   VDW_C6 = 1.23 0.70 0.63 0.70
   VDW_R0 = 1.397 1.342 1.243 1.342
   ENCUT = 600
   PREC = Accurate
   LASPH = .TRUE.
   LREAL = .FALSE.
   ISPIN = 1
   NELM = 200
   NELMIN = 8
   NCORE = 8
   KPAR = 1
   LWAVE = .FALSE.
   LCHARG = .FALSE.

 POTCAR:    PAW_PBE N 08Apr2002
 POTCAR:    PAW_PBE O 08Apr2002
 POTCAR:    PAW_PBE Mg_pv 13Apr2007
 POTCAR:    PAW_PBE O 08Apr2002
 POTCAR:    PAW_PBE N 08Apr2002
   VRHFIN =N: s2p3

   TITEL  = PAW_PBE N 08Apr2002
   POMASS =   14.001; ZVAL   =    5.000    mass and valenz
   ENMAX  =  400.000; ENMIN  =  300.000 eV

[...]

   TITEL  = PAW_PBE Mg_pv 13Apr2007
   POMASS =   24.305; ZVAL   =    8.000    mass and valenz
   ENMAX  =  403.929; ENMIN  =  302.947 eV

   TITEL  = PAW_PBE O 08Apr2002
   POMASS =   16.000; ZVAL   =    6.000    mass and valenz
   ENMAX  =  400.000; ENMIN  =  300.000 eV

  PAW_PBE N 08Apr2002                   :
  PAW_PBE O 08Apr2002                   :
  PAW_PBE Mg_pv 13Apr2007               :
  PAW_PBE O 08Apr2002                   :

 POSCAR:  N  O Mg  O
  positions in direct lattice
 exchange correlation table for  LEXCH =       12
   RHO(1)=    0.500       N(1)  =     2000
   RHO(2)=  100.500       N(2)  =     4000

 ion  position               nearest neighbor table
   1  0.541  0.550  0.804-   2 1.14
   2  0.635  0.641  0.792-   1 1.14   3 1.21
   3  0.733  0.737  0.778-   2 1.21
   4  0.000  0.750  0.350-  36 2.14  38 2.14  39 2.14  46 2.14  55 2.14
   5  0.250  0.000  0.350-  37 2.14  38 2.14  39 2.14  47 2.14  54 2.14
   6  0.000  0.000  0.450-  38 2.14  37 2.14  36 2.14  44 2.14  53 2.14  42 2.14
   7  0.250  0.750  0.450-  39 2.14  37 2.14  36 2.14  45 2.14  52 2.14  43 2.14
   8  1.000  0.750  0.550-  59 2.14  42 2.14  50 2.14  43 2.14  36 2.15  40 2.16
   9  0.250  1.000  0.550-  42 2.14  43 2.14  58 2.14  51 2.14  37 2.15  41 2.17
  10  0.000  0.000  0.650-  42 2.13  48 2.14  41 2.14  57 2.14  40 2.14
  11  0.250  0.750  0.649-  43 2.13  40 2.13  56 2.14  41 2.14  49 2.14
  12  0.000  0.250  0.350-  44 2.14  38 2.14  46 2.14  47 2.14  63 2.14
  13  0.250  0.500  0.350-  45 2.14  39 2.14  46 2.14  47 2.14  62 2.14
  14  0.000  0.500  0.450-  46 2.14  44 2.14  45 2.14  36 2.14  61 2.14  50 2.14
  15  0.250  0.250  0.450-  47 2.14  44 2.14  45 2.14  37 2.14  60 2.14  51 2.14
  16  0.000  0.250  0.550-  42 2.14  67 2.14  50 2.14  51 2.14  44 2.15  48 2.17
  17  0.250  0.500  0.550-  50 2.14  43 2.14  51 2.14  66 2.14  45 2.15  49 2.16
  18  0.000  0.500  0.650-  50 2.13  49 2.13  48 2.14  40 2.14  65 2.14
  19  0.250  0.250  0.650-  51 2.13  48 2.14  41 2.14  49 2.14  64 2.14
  20  0.500  0.750  0.350-  52 2.14  39 2.14  54 2.14  55 2.14  62 2.14
  21  0.750  0.000  0.350-  53 2.14  38 2.14  54 2.14  55 2.14  63 2.14
  22  0.500  0.000  0.450-  54 2.14  52 2.14  53 2.14  37 2.14  60 2.14  58 2.14
  23  0.750  0.750  0.450-  55 2.14  52 2.14  53 2.14  36 2.14  61 2.14  59 2.15
  24  0.500  0.750  0.551-  59 2.13  58 2.13  66 2.14  43 2.14  52 2.15  56 2.17
  25  0.750  1.000  0.550-  59 2.14  42 2.14  58 2.14  67 2.14  53 2.15  57 2.16
  26  0.500  0.000  0.649-  58 2.13  64 2.13  41 2.14  57 2.14  56 2.14
  27  0.751  0.751  0.651-  40 2.13  57 2.13  65 2.15  56 2.15  59 2.15
  28  0.500  0.250  0.350-  60 2.14  54 2.14  47 2.14  62 2.14  63 2.14
  29  0.750  0.500  0.350-  61 2.14  55 2.14  46 2.14  62 2.14  63 2.14
  30  0.500  0.500  0.450-  62 2.14  52 2.14  60 2.14  61 2.14  45 2.14  66 2.14
  31  0.750  0.250  0.450-  63 2.14  53 2.14  60 2.14  61 2.14  44 2.14  67 2.14
  32  0.500  0.250  0.550-  58 2.14  67 2.14  51 2.14  66 2.14  60 2.15  64 2.16
  33  0.750  0.500  0.551-  59 2.13  50 2.13  66 2.14  67 2.14  61 2.15  65 2.17
  34  0.499  0.499  0.649-  66 2.12  64 2.13  49 2.13  65 2.14  56 2.14
  35  0.750  0.250  0.649-  67 2.13  57 2.13  65 2.14  48 2.14  64 2.14
  36  0.000  0.750  0.450-   4 2.14   6 2.14   7 2.14  14 2.14  23 2.14   8 2.15
  37  0.250  0.000  0.450-   5 2.14   6 2.14   7 2.14  15 2.14  22 2.14   9 2.15
  38  0.000  0.000  0.350-   6 2.14   5 2.14   4 2.14  12 2.14  21 2.14
  39  0.250  0.750  0.350-   7 2.14   5 2.14   4 2.14  13 2.14  20 2.14
  40  0.001  0.750  0.651-  11 2.13  27 2.13  18 2.14  10 2.14   8 2.16
  41  0.250  0.000  0.652-  19 2.14  10 2.14  26 2.14  11 2.14   9 2.17
  42  0.000  0.000  0.550-  10 2.13   9 2.14  16 2.14  25 2.14   8 2.14   6 2.14
  43  0.250  0.750  0.550-  11 2.13   9 2.14  17 2.14  24 2.14   8 2.14   7 2.14
  44  0.000  0.250  0.450-  12 2.14   6 2.14  14 2.14  15 2.14  31 2.14  16 2.15
  45  0.250  0.500  0.450-  13 2.14   7 2.14  14 2.14  15 2.14  30 2.14  17 2.15
  46  0.000  0.500  0.350-  14 2.14  12 2.14  13 2.14   4 2.14  29 2.14
  47  0.250  0.250  0.350-  15 2.14  12 2.14  13 2.14   5 2.14  28 2.14
  48  0.000  0.250  0.652-  19 2.14  10 2.14  18 2.14  35 2.14  16 2.17
  49  0.250  0.500  0.651-  34 2.13  18 2.13  19 2.14  11 2.14  17 2.16
  50  1.000  0.500  0.550-  18 2.13  33 2.13  17 2.14  16 2.14   8 2.14  14 2.14
  51  0.250  0.250  0.550-  19 2.13   9 2.14  16 2.14  17 2.14  32 2.14  15 2.14
  52  0.500  0.750  0.450-  20 2.14   7 2.14  22 2.14  23 2.14  30 2.14  24 2.15
  53  0.750  0.000  0.450-  21 2.14   6 2.14  22 2.14  23 2.14  31 2.14  25 2.15
  54  0.500  0.000  0.350-  22 2.14  20 2.14  21 2.14   5 2.14  28 2.14
  55  0.750  0.750  0.350-  23 2.14  20 2.14  21 2.14   4 2.14  29 2.14
  56  0.500  0.750  0.652-  11 2.14  26 2.14  34 2.14  27 2.15  24 2.17
  57  0.750  0.001  0.651-  35 2.13  27 2.13  26 2.14  10 2.14  25 2.16
  58  0.500  1.000  0.550-  26 2.13  24 2.13  32 2.14   9 2.14  25 2.14  22 2.14
  59  0.750  0.750  0.550-  33 2.13  24 2.13   8 2.14  25 2.14  23 2.15  27 2.15
  60  0.500  0.250  0.450-  28 2.14  22 2.14  15 2.14  30 2.14  31 2.14  32 2.15
  61  0.750  0.500  0.450-  29 2.14  23 2.14  14 2.14  30 2.14  31 2.14  33 2.15
  62  0.500  0.500  0.350-  30 2.14  20 2.14  28 2.14  29 2.14  13 2.14
  63  0.750  0.250  0.350-  31 2.14  21 2.14  28 2.14  29 2.14  12 2.14
  64  0.500  0.250  0.651-  34 2.13  26 2.13  19 2.14  35 2.14  32 2.16
  65  0.750  0.500  0.652-  35 2.14  18 2.14  34 2.14  27 2.15  33 2.17
  66  0.500  0.500  0.550-  34 2.12  24 2.14  33 2.14  32 2.14  17 2.14  30 2.14
  67  0.750  0.250  0.550-  35 2.13  16 2.14  32 2.14  33 2.14  25 2.14  31 2.14

IMPORTANT INFORMATION: All symmetrisations will be switched off!
NOSYMM: (Re-)initialisation of all symmetry stuff for point group C_1.

                                     Primitive cell

  volume of cell :    1563.6717

  direct lattice vectors                    reciprocal lattice vectors
     8.546113626  0.000000000  0.000000000     0.117012252  0.000000000  0.000000000
     0.000000000  8.546113626  0.000000000     0.000000000  0.117012252  0.000000000
     0.000000000  0.000000000 21.409585219     0.000000000  0.000000000  0.046708051

  length of vectors
     8.546113626  8.546113626 21.409585219     0.117012252  0.117012252  0.046708051

  position of ions in fractional coordinates (direct lattice)
     0.541442875  0.549624828  0.804329537
     0.634581797  0.640567961  0.792121278
     0.732864434  0.736542046  0.778431156
     0.000000000  0.750000000  0.350310383
     0.250000000  0.000000000  0.350310383
     0.000000000  0.000000000  0.450103461
     0.250000000  0.750000000  0.450103461
     0.999875424  0.750079784  0.550486685
     0.250025802  0.999965419  0.550350887
     0.000234091  0.000173349  0.649549771
     0.249879741  0.749978123  0.649452443
     0.000000000  0.250000000  0.350310383
     0.250000000  0.500000000  0.350310383
     0.000000000  0.500000000  0.450103461
     0.250000000  0.250000000  0.450103461
     0.000009634  0.249986660  0.550353614
     0.249812239  0.500009577  0.550298447
     0.000252109  0.500022089  0.649505022
     0.249970671  0.249907454  0.649591298
     0.500000000  0.750000000  0.350310383
     0.750000000  0.000000000  0.350310383
     0.500000000  0.000000000  0.450103461
     0.750000000  0.750000000  0.450103461
     0.500344427  0.750052956  0.550556646
     0.750130143  0.999837444  0.550484101
     0.500093739  0.000204507  0.649474628
     0.750950648  0.750890143  0.650681374
     0.500000000  0.250000000  0.350310383
     0.750000000  0.500000000  0.350310383
     0.500000000  0.500000000  0.450103461
     0.750000000  0.250000000  0.450103461
     0.500057273  0.249779870  0.550294848
     0.750103260  0.500304137  0.550556789
     0.499135362  0.499061321  0.648969043
     0.750053397  0.249823434  0.649460311
     0.000000000  0.750000000  0.450103461
     0.250000000  0.000000000  0.450103461
     0.000000000  0.000000000  0.350310383
     0.250000000  0.750000000  0.350310383
     0.000606822  0.750089394  0.651226611
     0.250149020  0.000078091  0.651507394
     0.000163850  0.000114977  0.550097299
     0.250215496  0.750010878  0.550096809
     0.000000000  0.250000000  0.450103461
     0.250000000  0.500000000  0.450103461
     0.000000000  0.500000000  0.350310383
     0.250000000  0.250000000  0.350310383
     0.000144524  0.250082599  0.651506146
     0.249923816  0.499826470  0.651244455
     0.999899317  0.499951104  0.550145051
     0.250011921  0.249965276  0.550086336
     0.500000000  0.750000000  0.450103461
     0.750000000  0.000000000  0.450103461
     0.500000000  0.000000000  0.350310383
     0.750000000  0.750000000  0.350310383
     0.499761832  0.749647309  0.651938670
     0.750152449  0.000562198  0.651199286
     0.499989593  0.999868864  0.550137754
     0.749977783  0.749930926  0.550385705
     0.500000000  0.250000000  0.450103461
     0.750000000  0.500000000  0.450103461
     0.500000000  0.500000000  0.350310383
     0.750000000  0.250000000  0.350310383
     0.499891965  0.249859354  0.651258053
     0.749686141  0.499727411  0.651960473
     0.500035043  0.499986437  0.550103177
     0.750052503  0.250189762  0.550098675

  ion indices of the primitive-cell ions
   primitive index   ion index
                 1           1
                 2           2
                 3           3
                 4           4
                 5           5
                 6           6
                 7           7
                 8           8
                 9           9
                10          10
                11          11
                12          12
                13          13
                14          14
                15          15
                16          16
                17          17
                18          18
                19          19
                20          20
                21          21
                22          22
                23          23
                24          24
                25          25
                26          26
[...]
   0.49989196  0.24985935  0.65125805
   0.74968614  0.49972741  0.65196047
   0.50003504  0.49998644  0.55010318
   0.75005250  0.25018976  0.55009868

 position of ions in cartesian coordinates  (Angst):
   4.62723233  4.69715623 17.22036177
   5.42320814  5.47436658 16.95898801
   6.26314273  6.29457201 16.66588818
   0.00000000  6.40958522  7.50000000
   2.13652841  0.00000000  7.50000000
   0.00000000  0.00000000  9.63652841
   2.13652841  6.40958522  9.63652841
   8.54504899  6.41026706 11.78569159
   2.13674891  8.54581809 11.78278421
   0.00200057  0.00148146 13.90659118
   2.13550066  6.40939826 13.90450743
   0.00000000  2.13652841  7.50000000
   2.13652841  4.27305681  7.50000000
   0.00000000  4.27305681  9.63652841
   2.13652841  2.13652841  9.63652841
   0.00008234  2.13641440 11.78284261
   2.13492378  4.27313866 11.78166149
   0.00215455  4.27324559 13.90563311
   2.13627776  2.13573750 13.90748026
   4.27305681  6.40958522  7.50000000
   6.40958522  0.00000000  7.50000000
   4.27305681  0.00000000  9.63652841
   6.40958522  6.40958522  9.63652841
   4.27600033  6.41003779 11.78718943
   6.41069743  8.54472440 11.78563628
   4.27385792  0.00174774 13.90498239
   6.41770956  6.41719248 13.93081834
   4.27305681  2.13652841  7.50000000
   6.40958522  4.27305681  7.50000000
   4.27305681  4.27305681  9.63652841
   6.40958522  2.13652841  9.63652841
   4.27354627  2.13464715 11.78158444
   6.41046769  4.27565601 11.78719250
   4.26566752  4.26503476 13.89415804
   6.41004156  2.13501945 13.90467587
   0.00000000  6.40958522  9.63652841
   2.13652841  0.00000000  9.63652841
   0.00000000  0.00000000  7.50000000
   2.13652841  6.40958522  7.50000000
   0.00518597  6.41034919 13.94249162
   2.13780195  0.00066738 13.94850308
   0.00140028  0.00098261 11.77735501
   2.13837006  6.40967818 11.77734452
   0.00000000  2.13652841  9.63652841
   2.13652841  4.27305681  9.63652841
   0.00000000  4.27305681  7.50000000
   2.13652841  2.13652841  7.50000000
   0.00123512  2.13723430 13.94847635
   2.13587733  4.27157380 13.94287367
   8.54525317  4.27263894 11.77837736
   2.13663029  2.13623165 11.77712028
   4.27305681  6.40958522  9.63652841
   6.40958522  0.00000000  9.63652841
   4.27305681  0.00000000  7.50000000
   6.40958522  6.40958522  7.50000000
   4.27102140  6.40657108 13.95773652
   6.41088807  0.00480460 13.94190660
   4.27296787  8.54499292 11.77822113
   6.40939535  6.40899491 11.78352966
   4.27305681  2.13652841  9.63652841
   6.40958522  4.27305681  9.63652841
   4.27305681  4.27305681  7.50000000
   6.40958522  2.13652841  7.50000000
   4.27213353  2.13532643 13.94316479
   6.40690294  4.27072724 13.95820330
   4.27335630  4.27294090 11.77748085
   6.41003392  2.13815014 11.77738447

--------------------------------------- Iteration      FINAL  ---------------------------------------

--------------------OUTCAR has been truncated-------------------------

[...]

--------------------OUTCAR has been truncated-------------------------

  DFT-D2 method for vdW energy calculation

  Parameters of vdW forcefield:
         C6(Jnm^6/mol)     R0(A)
   N        1.230          1.397
   O        0.700          1.342
   Mg       0.630          1.243
   O        0.700          1.342

  vdW correction parametrized for the method        |?ß

  IVDW =   1
  VDW_RADIUS =    50.000 A
  VDW_S6 =     1.050
  VDW_SR =     1.000
  VDW_D =    20.000
  LVDW_EWALD = F

  Number of pair interactions contributing to vdW energy:  771385
  Edisp (eV):   -4.96397

 VOLUME and BASIS-vectors are now :
  energy-cutoff  :      600.00
  volume of cell :     1563.67
      direct lattice vectors                 reciprocal lattice vectors
     8.546113626  0.000000000  0.000000000     0.117012252  0.000000000  0.000000000
     0.000000000  8.546113626  0.000000000     0.000000000  0.117012252  0.000000000
     0.000000000  0.000000000 21.409585219     0.000000000  0.000000000  0.046708051

  length of vectors
     8.546113626  8.546113626 21.409585219     0.117012252  0.117012252  0.046708051

 FORCES acting on ions:
    Electron-Ion                     Ewald-Force                    Non-Local-Force
   0.204E+03 0.200E+03 -.116E+04   -.240E+03 -.234E+03 0.117E+04   0.339E+02 0.331E+02 -.111E+02
   0.135E+02 0.132E+02 -.116E+04   -.128E+02 -.125E+02 0.116E+04   -.135E+01 -.132E+01 0.280E+00
   -.206E+03 -.202E+03 -.140E+04   0.251E+03 0.245E+03 0.139E+04   -.404E+02 -.395E+02 0.128E+02
   -.179E+00 -.147E+00 0.203E+04   0.177E+00 0.147E+00 -.202E+04   0.156E-02 -.147E-03 -.633E+01
   0.157E+00 -.167E+00 0.203E+04   -.158E+00 0.166E+00 -.202E+04   0.133E-03 0.974E-03 -.633E+01
   -.663E+00 -.695E+00 0.714E+03   0.667E+00 0.696E+00 -.714E+03   -.259E-02 -.104E-02 0.399E+00
   0.704E+00 -.633E+00 0.715E+03   -.682E+00 0.647E+00 -.715E+03   -.141E-01 -.909E-02 0.396E+00
   -.586E+01 -.240E+01 -.585E+03   0.580E+01 0.242E+01 0.586E+03   0.564E-01 -.174E-01 -.409E+00
   0.250E+01 -.362E+01 -.594E+03   -.252E+01 0.361E+01 0.594E+03   0.201E-01 0.411E-02 -.193E+00
   -.190E+02 -.192E+02 -.191E+04   0.190E+02 0.192E+02 0.190E+04   -.416E-02 -.651E-02 0.554E+01
   0.174E+02 -.120E+02 -.189E+04   -.176E+02 0.120E+02 0.189E+04   0.112E+00 -.121E-01 0.553E+01
   -.160E+00 0.147E+00 0.203E+04   0.158E+00 -.147E+00 -.202E+04   0.973E-03 0.630E-04 -.633E+01
   0.177E+00 0.168E+00 0.203E+04   -.178E+00 -.166E+00 -.202E+04   0.563E-03 -.991E-03 -.633E+01
   -.697E+00 0.705E+00 0.715E+03   0.662E+00 -.703E+00 -.715E+03   0.224E-01 -.853E-03 0.428E+00
   0.670E+00 0.625E+00 0.713E+03   -.683E+00 -.640E+00 -.714E+03   0.854E-02 0.972E-02 0.400E+00
   -.347E+01 0.233E+01 -.594E+03   0.347E+01 -.235E+01 0.595E+03   0.514E-02 0.175E-01 -.196E+00
   0.402E+01 0.367E+01 -.587E+03   -.407E+01 -.367E+01 0.587E+03   0.421E-01 -.277E-02 -.260E+00
   -.242E+02 0.203E+02 -.189E+04   0.244E+02 -.203E+02 0.189E+04   -.132E+00 0.575E-02 0.555E+01
   0.111E+02 0.109E+02 -.192E+04   -.112E+02 -.109E+02 0.191E+04   0.192E-01 0.171E-01 0.553E+01
   0.181E+00 -.169E+00 0.203E+04   -.178E+00 0.169E+00 -.202E+04   -.184E-02 -.183E-03 -.634E+01
   -.157E+00 -.187E+00 0.203E+04   0.158E+00 0.185E+00 -.202E+04   -.356E-03 0.155E-02 -.633E+01
   0.682E+00 -.731E+00 0.715E+03   -.678E+00 0.694E+00 -.715E+03   -.149E-02 0.230E-01 0.426E+00
   -.705E+00 -.663E+00 0.716E+03   0.694E+00 0.650E+00 -.717E+03   0.769E-02 0.932E-02 0.471E+00
   0.597E+01 -.400E+01 -.580E+03   -.591E+01 0.404E+01 0.580E+03   -.613E-01 -.337E-01 -.139E+00
   -.258E+01 -.602E+01 -.585E+03   0.260E+01 0.595E+01 0.585E+03   -.191E-01 0.557E-01 -.418E+00
   0.203E+02 -.255E+02 -.189E+04   -.203E+02 0.256E+02 0.188E+04   0.484E-02 -.135E+00 0.555E+01
   -.242E+02 -.224E+02 -.181E+04   0.244E+02 0.226E+02 0.180E+04   -.219E+00 -.212E+00 0.521E+01
   0.161E+00 0.167E+00 0.203E+04   -.159E+00 -.168E+00 -.202E+04   -.106E-02 0.462E-03 -.633E+01
   -.179E+00 0.188E+00 0.203E+04   0.179E+00 -.186E+00 -.202E+04   -.395E-03 -.179E-02 -.634E+01
   0.711E+00 0.738E+00 0.716E+03   -.683E+00 -.711E+00 -.717E+03   -.187E-01 -.174E-01 0.428E+00
   -.671E+00 0.657E+00 0.715E+03   0.687E+00 -.635E+00 -.715E+03   -.102E-01 -.140E-01 0.396E+00
   0.352E+01 0.385E+01 -.587E+03   -.352E+01 -.389E+01 0.588E+03   -.323E-02 0.394E-01 -.253E+00
   -.417E+01 0.612E+01 -.581E+03   0.421E+01 -.605E+01 0.581E+03   -.358E-01 -.608E-01 -.134E+00
   0.290E+02 0.305E+02 -.184E+04   -.292E+02 -.307E+02 0.183E+04   0.180E+00 0.187E+00 0.560E+01
   -.121E+02 0.161E+02 -.190E+04   0.121E+02 -.162E+02 0.189E+04   -.138E-01 0.115E+00 0.553E+01
   -.617E+00 -.393E+00 0.536E+03   0.624E+00 0.394E+00 -.536E+03   -.747E-02 -.204E-02 -.101E+00
   0.431E+00 -.508E+00 0.535E+03   -.438E+00 0.504E+00 -.535E+03   0.894E-02 0.474E-02 -.914E-01
   -.126E+00 -.131E+00 0.152E+04   0.125E+00 0.131E+00 -.152E+04   0.893E-03 0.946E-03 0.315E+01
   0.126E+00 -.118E+00 0.152E+04   -.125E+00 0.120E+00 -.153E+04   -.131E-02 -.233E-02 0.315E+01
   -.273E+02 -.749E+01 -.143E+04   0.272E+02 0.749E+01 0.143E+04   0.586E-01 -.316E-02 -.451E+01
   0.711E+01 -.984E+01 -.145E+04   -.710E+01 0.980E+01 0.146E+04   -.108E-02 0.363E-01 -.443E+01
   -.322E+01 -.328E+01 -.439E+03   0.321E+01 0.327E+01 0.439E+03   0.128E-01 0.137E-01 0.259E+00
   0.255E+01 -.223E+01 -.436E+03   -.256E+01 0.223E+01 0.435E+03   0.156E-01 -.818E-03 0.301E+00
   -.481E+00 0.394E+00 0.535E+03   0.475E+00 -.399E+00 -.535E+03   0.737E-02 0.646E-02 -.914E-01
   0.541E+00 0.510E+00 0.536E+03   -.534E+00 -.505E+00 -.536E+03   -.823E-02 -.606E-02 -.604E-01
   -.127E+00 0.132E+00 0.152E+04   0.123E+00 -.131E+00 -.153E+04   0.466E-02 -.827E-03 0.315E+01
   0.125E+00 0.118E+00 0.152E+04   -.127E+00 -.120E+00 -.152E+04   0.236E-02 0.232E-02 0.315E+01
   -.938E+01 0.661E+01 -.145E+04   0.935E+01 -.661E+01 0.146E+04   0.339E-01 0.402E-03 -.443E+01
   0.163E+02 0.107E+02 -.144E+04   -.164E+02 -.106E+02 0.144E+04   0.554E-01 -.354E-01 -.447E+01
   -.341E+01 0.334E+01 -.436E+03   0.342E+01 -.333E+01 0.436E+03   -.785E-02 -.128E-01 0.300E+00
   0.225E+01 0.217E+01 -.441E+03   -.225E+01 -.217E+01 0.441E+03   -.466E-02 -.311E-02 0.229E+00
   0.646E+00 -.530E+00 0.537E+03   -.665E+00 0.532E+00 -.536E+03   0.230E-01 -.326E-02 -.127E+00
   -.422E+00 -.644E+00 0.536E+03   0.421E+00 0.652E+00 -.536E+03   0.903E-03 -.952E-02 -.100E+00
   0.126E+00 -.132E+00 0.152E+04   -.126E+00 0.129E+00 -.153E+04   -.614E-03 0.449E-02 0.315E+01
   -.128E+00 -.120E+00 0.152E+04   0.126E+00 0.118E+00 -.153E+04   0.181E-02 0.196E-02 0.315E+01
   0.321E+02 -.198E+02 -.139E+04   -.320E+02 0.198E+02 0.140E+04   -.129E+00 -.216E-01 -.425E+01
   -.811E+01 -.279E+02 -.143E+04   0.811E+01 0.278E+02 0.143E+04   -.557E-02 0.628E-01 -.451E+01
   0.328E+01 -.356E+01 -.435E+03   -.326E+01 0.357E+01 0.435E+03   -.153E-01 -.535E-02 0.306E+00
   -.267E+01 -.248E+01 -.429E+03   0.269E+01 0.250E+01 0.429E+03   -.204E-01 -.202E-01 0.488E-01
   0.491E+00 0.506E+00 0.536E+03   -.489E+00 -.497E+00 -.536E+03   -.317E-02 -.103E-01 -.602E-01
   -.559E+00 0.664E+00 0.537E+03   0.559E+00 -.682E+00 -.536E+03   -.527E-03 0.208E-01 -.128E+00
   0.128E+00 0.134E+00 0.152E+04   -.124E+00 -.130E+00 -.153E+04   -.499E-02 -.496E-02 0.315E+01
   -.126E+00 0.119E+00 0.152E+04   0.127E+00 -.117E+00 -.153E+04   -.221E-02 -.157E-02 0.315E+01
   0.101E+02 0.157E+02 -.144E+04   -.101E+02 -.157E+02 0.144E+04   -.380E-01 0.565E-01 -.447E+01
   -.202E+02 0.324E+02 -.140E+04   0.203E+02 -.323E+02 0.140E+04   -.262E-01 -.126E+00 -.426E+01
   0.352E+01 0.368E+01 -.427E+03   -.352E+01 -.368E+01 0.427E+03   0.416E-02 0.475E-02 0.456E+00
   -.232E+01 0.237E+01 -.436E+03   0.232E+01 -.239E+01 0.435E+03   -.274E-02 0.183E-01 0.299E+00
   0.104E+02 0.102E+02 0.132E+02   -.650E-12 -.178E-12 0.148E-11   -.791E+01 -.775E+01 -.120E+02

 POSITION                                       TOTAL-FORCE (eV/Angst)
      4.62723      4.69716     17.22036         1.601380      1.562006     -0.508314
      5.42321      5.47437     16.95899        -0.775067     -0.757237      0.136837
      6.26314      6.29457     16.66589        -0.815450     -0.797885      0.253952
      0.00000      6.40959      7.50000        -0.000516      0.000090      0.630867
      2.13653      0.00000      7.50000        -0.000069     -0.000475      0.630809
      0.00000      0.00000      9.63653         0.000667     -0.000092      0.024138
      2.13653      6.40959      9.63653         0.006187      0.003679      0.027814
      8.54505      6.41027     11.78569        -0.002007      0.001716      0.002096
      2.13675      8.54582     11.78278        -0.002404     -0.000119     -0.003332
      0.00200      0.00148     13.90659        -0.008454     -0.007900     -0.267737
      2.13550      6.40940     13.90451        -0.010249      0.001043     -0.270131
      0.00000      2.13653      7.50000        -0.000418     -0.000057      0.631121
      2.13653      4.27306      7.50000        -0.000242      0.000444      0.628585
      0.00000      4.27306      9.63653        -0.009961      0.001083      0.021128
      2.13653      2.13653      9.63653        -0.003283     -0.003877      0.019802
      0.00008      2.13641     11.78284        -0.000603     -0.001745     -0.003009
      2.13492      4.27314     11.78166        -0.001346     -0.000423     -0.004214
      0.00215      4.27325     13.90563        -0.000634      0.007600     -0.268546
      2.13628      2.13574     13.90748        -0.002178     -0.001458     -0.277348
      4.27306      6.40959      7.50000         0.000704      0.000097      0.632579
      6.40959      0.00000      7.50000         0.000148     -0.000556      0.630530
      4.27306      0.00000      9.63653         0.001530     -0.010419      0.021042
      6.40959      6.40959      9.63653        -0.002381     -0.003099      0.030889
      4.27600      6.41004     11.78719         0.001948     -0.000423     -0.013336
      6.41070      8.54472     11.78564         0.001602     -0.001520      0.002350
      4.27386      0.00175     13.90498         0.007136      0.000226     -0.267765
      6.41771      6.41719     13.93082         0.006472      0.007057     -0.193440
      4.27306      2.13653      7.50000         0.000468     -0.000244      0.628383
      6.40959      4.27306      7.50000         0.000137      0.000687      0.632950
      4.27306      4.27306      9.63653         0.007568      0.006970      0.021644
      6.40959      2.13653      9.63653         0.004316      0.005963      0.027833
      4.27355      2.13465     11.78158        -0.000749     -0.000957     -0.004410
      6.41047      4.27566     11.78719        -0.000810      0.002213     -0.012707
      4.26567      4.26503     13.89416         0.000452      0.000922     -0.256215
      6.41004      2.13502     13.90468         0.000615     -0.009272     -0.270336
      0.00000      6.40959      9.63653        -0.002399     -0.001053      0.043935
      2.13653      0.00000      9.63653         0.003091      0.001455      0.033493
      0.00000      0.00000      7.50000         0.000314      0.000322     -0.274519
      2.13653      6.40959      7.50000        -0.000427     -0.000758     -0.274401
      0.00519      6.41035     13.94249         0.007385     -0.004141     -0.168632
      2.13780      0.00067     13.94850         0.003600     -0.000250     -0.160316
      0.00140      0.00098     11.77736        -0.000612     -0.000207      0.011158
      2.13837      6.40968     11.77734         0.003054     -0.002095      0.015437
      0.00000      2.13653      9.63653         0.002221      0.002372      0.033772
      2.13653      4.27306      9.63653        -0.001968     -0.001863      0.039671
      0.00000      4.27306      7.50000         0.001563     -0.000278     -0.274347
      2.13653      2.13653      7.50000         0.000802      0.000754     -0.273303
      0.00124      2.13723     13.94848        -0.000631      0.003878     -0.160055
      2.13588      4.27157     13.94287         0.004910     -0.000493     -0.158041
      8.54525      4.27264     11.77838        -0.002439      0.000281      0.014023
      2.13663      2.13623     11.77712         0.000701      0.001113      0.010330
      4.27306      6.40959      9.63653         0.006955     -0.001424      0.040693
      6.40959      0.00000      9.63653        -0.000183     -0.002978      0.044058
      4.27306      0.00000      7.50000        -0.000214      0.001508     -0.274366
      6.40959      6.40959      7.50000         0.000611      0.000674     -0.275664
      4.27102      6.40657     13.95774        -0.002796     -0.011958     -0.130135
      6.41089      0.00480     13.94191        -0.004932      0.007667     -0.167805
      4.27297      8.54499     11.77822        -0.000141     -0.002375      0.014271
      6.40940      6.40899     11.78353        -0.003591     -0.003034      0.002437
      4.27306      2.13653      9.63653        -0.001014     -0.002563      0.039387
      6.40959      4.27306      9.63653        -0.000639      0.006320      0.040438
      4.27306      4.27306      7.50000        -0.001664     -0.001670     -0.274022
      6.40959      2.13653      7.50000        -0.000739     -0.000541     -0.274365
      4.27213      2.13533     13.94316        -0.001181      0.005201     -0.158672
      6.40690      4.27073     13.95820        -0.012564     -0.002560     -0.134140
      4.27336      4.27294     11.77748         0.000885      0.001559      0.020029
      6.41003      2.13815     11.77738        -0.002469      0.003097      0.015145
    total drift:                               -0.000041     -0.000050     -0.001693

  FREE ENERGIE OF THE ION-ELECTRON SYSTEM (eV)
  free  energy   TOTEN  =      -463.67903458 eV

  energy  without entropy=     -463.67903458  energy(sigma->0) =     -463.67903458