 vasp.6.4.2 20Jul23 (build Feb 22 2024 13:53:45) complex
 executed on              LinuxNV date 2024.08.28  18:28:26
 OpenACC runtime initialized ...    4 GPUs detected

 INCAR:
   SYSTEM = Oxide-Surface
   ISMEAR = 0
   SIGMA = 0.05
   EDIFF = 1E-5
   ALGO = Normal
   IBRION = -1
   NSW = 0
   ISYM = 0
   DIPOL = 0.5 0.5 0.5
   IDIPOL = 3
   LDIPOL = .TRUE.
   ISTART = 0
   LHFCALC = .FALSE.
   GGA = PE
   IVDW = 21
   VDW_SR = 0.96
   HFRCUT = -1
   ENCUT = 1000
   PREC = Normal
   PRECFOCK = Normal
   LASPH = .TRUE.
   LREAL = Auto
   ISPIN = 1
   NELM = 200
   NELMIN = 8
   NCORE = 1
   KPAR = 1
   LWAVE = .FALSE.
   LCHARG = .FALSE.

 POTCAR:    PAW_PBE C_h 06Feb2004
 POTCAR:    PAW_PBE H_h 06Feb2004
 POTCAR:    PAW_PBE Ti_sv 26Sep2005
 POTCAR:    PAW_PBE O_h 06Feb2004
 POTCAR:    PAW_PBE C_h 06Feb2004
   VRHFIN =C: s2p2

   TITEL  = PAW_PBE C_h 06Feb2004
   POMASS =   12.011; ZVAL   =    4.000    mass and valenz
   ENMAX  =  700.000; ENMIN  =  500.000 eV

[...]

   TITEL  = PAW_PBE Ti_sv 26Sep2005
   POMASS =   47.880; ZVAL   =   12.000    mass and valenz
   ENMAX  =  274.610; ENMIN  =  205.957 eV

   TITEL  = PAW_PBE O_h 06Feb2004
   POMASS =   16.000; ZVAL   =    6.000    mass and valenz
   ENMAX  =  700.000; ENMIN  =  500.000 eV

 Optimization of the real space projectors (new method)

 maximal supplied QI-value         = 34.20
 optimisation between [QCUT,QGAM] = [ 16.08, 32.15] = [ 72.37,289.48] Ry
 Optimized for a Real-space Cutoff    0.71 Angstroem

   l    n(q)    QCUT    max X(q) W(low)/X(q) W(high)/X(q)  e(spline)
   0      7    16.076   134.812    0.49E-03    0.92E-03    0.59E-07
   0      7    16.076    80.524    0.48E-03    0.91E-03    0.58E-07
   1      6    16.076    79.026    0.37E-03    0.58E-03    0.12E-06
   1      6    16.076    45.188    0.36E-03    0.56E-03    0.12E-06
 Optimization of the real space projectors (new method)

[...]

   l    n(q)    QCUT    max X(q) W(low)/X(q) W(high)/X(q)  e(spline)
   0     12    16.089    12.277    0.23E-04    0.54E-05    0.15E-06
   0     12    16.089    11.419    0.26E-04    0.82E-06    0.19E-06
   1     12    16.089     4.010    0.40E-04    0.12E-04    0.58E-06
   1     12    16.089     6.182    0.55E-05    0.28E-04    0.27E-06
   2     11    16.089    47.177    0.17E-03    0.26E-03    0.90E-06
   2     11    16.089    42.437    0.17E-03    0.25E-03    0.88E-06
 Optimization of the real space projectors (new method)

 maximal supplied QI-value         = 34.20
 optimisation between [QCUT,QGAM] = [ 16.08, 32.15] = [ 72.37,289.48] Ry
 Optimized for a Real-space Cutoff    0.71 Angstroem

   l    n(q)    QCUT    max X(q) W(low)/X(q) W(high)/X(q)  e(spline)
   0      7    16.076   280.207    0.42E-03    0.69E-03    0.60E-07
   0      7    16.076   228.978    0.42E-03    0.69E-03    0.61E-07
   1      6    16.076    86.127    0.11E-03    0.66E-03    0.10E-06
   1      6    16.076    65.368    0.11E-03    0.65E-03    0.10E-06
  PAW_PBE C_h 06Feb2004                 :
  PAW_PBE H_h 06Feb2004                 :
  PAW_PBE Ti_sv 26Sep2005               :
  PAW_PBE O_h 06Feb2004                 :

 POSCAR:  C  H Ti  O
  positions in direct lattice
 exchange correlation table for  LEXCH =        8
   RHO(1)=    0.500       N(1)  =     2000
   RHO(2)=  100.500       N(2)  =     4000

 ion  position               nearest neighbor table
   1  0.500  0.500  0.834-   2 1.10   3 1.10   4 1.10   5 1.10
   2  0.496  0.576  0.859-   1 1.10
   3  0.504  0.424  0.859-   1 1.10
   4  0.571  0.504  0.810-   1 1.10
   5  0.430  0.496  0.810-   1 1.10
   6  0.750  0.625  0.192-  87 1.95 147 1.95 146 1.95  86 1.95  89 1.98 168 1.98
   7  0.000  0.750  0.192-  88 1.95 108 1.95  89 1.95 109 1.95  90 1.98
   8  0.000  0.625  0.322-  90 1.95 150 1.95  91 1.95 151 1.95  93 1.98  92 1.98
   9  0.750  0.750  0.322-  92 1.95 112 1.95 173 1.95 193 1.95  94 1.98  87 1.98
  10  0.750  0.625  0.452-  95 1.95 155 1.95 154 1.95  94 1.95  97 1.98 176 1.98
  11  0.000  0.750  0.452-  96 1.95 116 1.95  97 1.95 117 1.95  91 1.98  98 2.00
  12  1.000  0.625  0.579-  98 1.90 158 1.90 100 1.95 101 1.95  99 2.02 159 2.02
  13  0.750  0.750  0.587- 102 1.86 201 1.97 181 1.97 100 1.97 120 1.97  95 2.11
  14  0.750  0.625  0.721- 103 1.83 163 1.84 184 2.03 105 2.03 102 2.10 162 2.10
  15  0.000  0.750  0.706-  99 1.81 124 1.95 125 1.95 104 1.95 105 1.95
  16  0.750  0.875  0.192-  87 1.95 107 1.95 106 1.95  86 1.95 109 1.98 188 1.98
  17  0.000  0.000  0.192- 108 1.95 128 1.95 109 1.95 129 1.95 110 1.98
  18  0.000  0.875  0.322-  90 1.95 110 1.95  91 1.95 111 1.95 113 1.98 112 1.98
  19  0.750  0.000  0.322- 112 1.95 132 1.95 193 1.95 213 1.95 114 1.98 107 1.98
  20  0.750  0.875  0.452-  95 1.95 115 1.95 114 1.95  94 1.95 117 1.98 196 1.98
  21  0.000  0.000  0.452- 116 1.95 136 1.95 117 1.95 137 1.95 111 1.98 118 2.00
  22  1.000  0.875  0.579- 118 1.89  98 1.90 120 1.95 121 1.95 119 2.02  99 2.02
  23  0.750  0.000  0.587- 122 1.86 221 1.97 201 1.97 140 1.97 120 1.97 115 2.11
  24  0.750  0.875  0.721- 123 1.83 103 1.83 204 2.03 125 2.03 122 2.10 102 2.10
  25  1.000  1.000  0.706- 119 1.81 125 1.95 144 1.95 145 1.95 124 1.95
  26  0.750  0.125  0.192- 107 1.95 127 1.95 126 1.95 106 1.95 129 1.98 208 1.98
  27  0.000  0.250  0.192- 128 1.95 148 1.95 129 1.95 149 1.95 130 1.98
  28  0.000  0.125  0.322- 110 1.95 130 1.95 111 1.95 131 1.95 133 1.98 132 1.98
  29  0.750  0.250  0.322- 132 1.95 152 1.95 213 1.95 233 1.95 134 1.98 127 1.98
  30  0.750  0.125  0.452- 115 1.95 135 1.95 134 1.95 114 1.95 137 1.98 216 1.98
  31  0.000  0.250  0.452- 136 1.95 156 1.95 137 1.95 157 1.95 131 1.98 138 2.00
  32  0.000  0.125  0.579- 118 1.89 138 1.90 141 1.95 140 1.95 119 2.02 139 2.02
  33  0.750  0.250  0.587- 142 1.86 221 1.97 241 1.97 160 1.97 140 1.97 135 2.11
  34  0.750  0.125  0.721- 123 1.83 143 1.83 224 2.03 145 2.03 122 2.10 142 2.10
  35  1.000  0.250  0.706- 139 1.81 145 1.95 144 1.95 165 1.95 164 1.95
  36  0.750  0.375  0.192- 127 1.95 147 1.95 146 1.95 126 1.95 149 1.98 228 1.98
  37  0.000  0.500  0.192-  88 1.95 148 1.95  89 1.95 149 1.95 150 1.98
  38  0.000  0.375  0.322- 130 1.95 150 1.95 131 1.95 151 1.95 153 1.98 152 1.98
  39  0.750  0.500  0.322-  92 1.95 152 1.95 173 1.95 233 1.95 147 1.98 154 1.98
  40  0.750  0.375  0.452- 135 1.95 155 1.95 154 1.95 134 1.95 157 1.98 236 1.98
  41  0.000  0.500  0.452-  96 1.95 156 1.95  97 1.95 157 1.95 151 1.98 158 2.00
  42  0.000  0.375  0.579- 138 1.90 158 1.90 161 1.95 160 1.95 139 2.02 159 2.02
  43  0.750  0.500  0.587- 162 1.86 241 1.97 181 1.97 160 1.97 100 1.97 155 2.11
  44  0.750  0.375  0.721- 143 1.83 163 1.83 244 2.03 165 2.03 142 2.10 162 2.10
  45  0.000  0.500  0.706- 159 1.81 164 1.95 105 1.95 104 1.95 165 1.95
  46  0.250  0.625  0.192- 167 1.95 227 1.95 226 1.95 166 1.95  88 1.98 169 1.98
  47  0.500  0.750  0.192- 168 1.95 169 1.95 188 1.95 189 1.95 170 1.98
  48  0.500  0.625  0.322- 170 1.95 230 1.95 171 1.95 231 1.95 172 1.98 173 1.98
  49  0.250  0.750  0.322-  93 1.95 113 1.95 172 1.95 192 1.95 174 1.98 167 1.98
  50  0.250  0.625  0.452- 175 1.95 235 1.95 234 1.95 174 1.95  96 1.98 177 1.98
  51  0.500  0.750  0.452- 176 1.95 177 1.95 196 1.95 197 1.95 171 1.98 178 2.00
  52  0.500  0.625  0.580- 238 1.90 178 1.90 180 1.95 181 1.95 179 2.01 239 2.02
  53  0.250  0.750  0.587- 182 1.86 200 1.97 180 1.97 101 1.97 121 1.97 175 2.11
  54  0.250  0.625  0.721- 183 1.83 243 1.83 185 2.03 104 2.03 182 2.10 242 2.10
  55  0.500  0.750  0.706- 179 1.81 184 1.94 185 1.94 204 1.95 205 1.95
  56  0.250  0.875  0.192- 167 1.95 187 1.95 186 1.95 166 1.95 108 1.98 189 1.98
  57  0.500  0.000  0.192- 188 1.95 189 1.95 208 1.95 209 1.95 190 1.98
  58  0.500  0.875  0.322- 170 1.95 190 1.95 171 1.95 191 1.95 192 1.98 193 1.98
  59  0.250  0.000  0.322- 113 1.95 133 1.95 192 1.95 212 1.95 194 1.98 187 1.98
  60  0.250  0.875  0.452- 175 1.95 195 1.95 194 1.95 174 1.95 116 1.98 197 1.98
[...]
 231  0.500  0.500  0.373-  48 1.95  78 1.95  81 1.98
 232  0.348  0.375  0.322-  69 1.95  79 1.95  78 1.98
 233  0.652  0.375  0.322-  29 1.95  39 1.95  78 1.98
 234  0.250  0.500  0.401-  50 1.95  80 1.95  79 1.98
 235  0.250  0.500  0.503-  50 1.95  80 1.95  83 2.11
 236  0.598  0.375  0.452-  71 1.95  81 1.95  40 1.98
 237  0.402  0.375  0.452-  71 1.95  81 1.95  80 1.98
 238  0.500  0.500  0.532-  52 1.90  82 1.90  81 2.00
 239  0.500  0.500  0.635-  85 1.82  82 2.02  52 2.02
 240  0.350  0.375  0.583-  82 1.95  83 1.97  73 1.97
 241  0.650  0.375  0.583-  82 1.95  43 1.97  33 1.97
 242  0.249  0.500  0.662-  83 1.86  84 2.10  54 2.10
 243  0.251  0.500  0.765-  54 1.83  84 1.84
 244  0.594  0.374  0.719-  75 1.94  85 1.95  44 2.03
 245  0.406  0.374  0.719-  75 1.94  85 1.95  84 2.03

IMPORTANT INFORMATION: All symmetrisations will be switched off!
NOSYMM: (Re-)initialisation of all symmetry stuff for point group C_1.

                                     Primitive cell

  volume of cell :    3846.0501

  direct lattice vectors                    reciprocal lattice vectors
    13.003980404  0.000000000  0.000000000     0.076899531  0.000000000  0.000000000
     0.000000000 11.830378115  0.000000000     0.000000000  0.084528152  0.000000000
     0.000000000  0.000000000 25.000000000     0.000000000  0.000000000  0.040000000

  length of vectors
    13.003980404 11.830378115 25.000000000     0.076899531  0.084528152  0.040000000

  position of ions in fractional coordinates (direct lattice)
     0.500064753  0.500001971  0.833925908
     0.496116025  0.575765153  0.859097683
     0.504021055  0.424236392  0.859102374
     0.570575345  0.504286181  0.809848038
     0.429538220  0.495704177  0.809856132
     0.750000008  0.625000007  0.191872994
     0.000000008  0.750000007  0.191872994
     0.000000008  0.625000007  0.321912798
     0.750000008  0.750000007  0.321912798
     0.750000008  0.625000007  0.451952602
     0.000000008  0.750000007  0.451952602
     0.999998729  0.625016586  0.579214663
     0.750021378  0.750038300  0.587267412
     0.750117211  0.625133254  0.721168073
     0.000025095  0.750082334  0.706350679
     0.750000008  0.875000007  0.191872994
     0.000000008  0.000000007  0.191872994
     0.000000008  0.875000007  0.321912798
     0.750000008  0.000000007  0.321912798
     0.750000008  0.875000007  0.451952602
     0.000000008  0.000000007  0.451952602
     0.999995895  0.875019834  0.579234708
     0.749960162  0.000003641  0.587339263
     0.749868689  0.875032817  0.721416409
     0.999999847  0.999999993  0.706360792
     0.750000008  0.125000007  0.191872994
     0.000000008  0.250000007  0.191872994
     0.000000008  0.125000007  0.321912798
     0.750000008  0.250000007  0.321912798
     0.750000008  0.125000007  0.451952602
     0.000000008  0.250000007  0.451952602
     0.000004299  0.124980173  0.579234710
     0.750020916  0.249964339  0.587281564
     0.749849713  0.124984901  0.721421855
     0.999975965  0.249917711  0.706350689
     0.750000008  0.375000007  0.191872994
     0.000000008  0.500000007  0.191872994
     0.000000008  0.375000007  0.321912798
     0.750000008  0.500000007  0.321912798
     0.750000008  0.375000007  0.451952602
     0.000000008  0.500000007  0.451952602
[...]
     0.000000000  0.000000000 25.000000000     0.000000000  0.000000000  0.040000000

  length of vectors
    13.003980404 11.830378115 25.000000000     0.076899531  0.084528152  0.040000000

 FORCES acting on ions
    electron-ion (+dipol)            ewald-force                    non-local-force                 convergence-correction
   0.257E-01 0.268E-02 -.104E+04   -.228E-01 -.222E-02 0.104E+04   -.104E-01 -.338E-02 -.974E+00   -.897E-06 -.413E-06 -.495E-03
   0.226E+01 -.435E+02 -.237E+03   -.252E+01 0.479E+02 0.240E+03   0.261E+00 -.450E+01 -.319E+01   -.239E-05 -.249E-04 -.119E-03
   -.226E+01 0.435E+02 -.237E+03   0.251E+01 -.479E+02 0.240E+03   -.262E+00 0.450E+01 -.319E+01   0.833E-06 0.246E-04 -.119E-03
   -.355E+02 -.245E+01 -.281E+03   0.402E+02 0.270E+01 0.278E+03   -.472E+01 -.256E+00 0.281E+01   0.171E-04 -.191E-05 -.130E-03
   0.355E+02 0.245E+01 -.281E+03   -.402E+02 -.271E+01 0.278E+03   0.472E+01 0.257E+00 0.281E+01   -.153E-04 0.150E-05 -.128E-03
   -.171E+01 -.691E+00 0.368E+04   0.171E+01 0.691E+00 -.368E+04   -.571E-03 -.863E-04 0.115E+01   0.240E-03 0.234E-03 -.329E-02
   -.757E-04 -.710E+00 0.390E+04   0.820E-04 0.711E+00 -.389E+04   0.303E-05 -.118E-03 -.568E+01   -.163E-04 0.311E-03 -.176E-02
   -.127E-02 -.163E+00 0.188E+04   0.129E-02 0.163E+00 -.188E+04   -.942E-05 -.378E-04 -.188E+00   0.226E-05 0.103E-04 0.693E-03
   -.458E+00 -.234E+00 0.187E+04   0.458E+00 0.235E+00 -.187E+04   0.628E-04 -.133E-03 0.334E+00   -.547E-04 0.374E-05 0.522E-03
   -.634E+00 -.324E+00 -.192E+02   0.630E+00 0.325E+00 0.202E+02   0.120E-02 -.288E-03 -.285E+00   -.938E-04 -.269E-04 0.116E-02
   -.162E-01 -.541E+00 -.208E+01   0.165E-01 0.544E+00 0.746E+00   -.102E-03 -.124E-02 0.590E+00   -.698E-07 -.588E-04 0.143E-02
   -.423E-01 -.158E+01 -.183E+04   0.421E-01 0.158E+01 0.183E+04   0.387E-03 -.280E-02 0.777E+00   -.178E-05 -.298E-04 0.131E-02
   -.517E+01 -.405E+01 -.188E+04   0.518E+01 0.406E+01 0.188E+04   0.458E-04 -.156E-02 -.112E+01   -.605E-04 -.369E-04 0.124E-02
   -.411E+02 -.167E+02 -.361E+04   0.411E+02 0.167E+02 0.361E+04   0.284E-02 -.180E-01 -.163E+01   0.994E-04 -.159E-03 0.398E-03
   -.680E-01 -.569E+01 -.371E+04   0.681E-01 0.571E+01 0.371E+04   -.320E-02 -.252E-01 0.285E+01   0.916E-05 0.145E-03 0.537E-03
   -.136E+01 -.675E+00 0.368E+04   0.136E+01 0.676E+00 -.368E+04   -.418E-03 -.114E-03 0.115E+01   0.230E-03 0.119E-03 -.367E-02
   -.512E-03 0.202E-04 0.390E+04   0.518E-03 -.303E-05 -.389E+04   0.712E-06 0.918E-06 -.568E+01   -.780E-05 -.194E-04 -.202E-02
   -.126E-02 -.164E+00 0.188E+04   0.129E-02 0.164E+00 -.188E+04   -.912E-05 -.349E-04 -.188E+00   -.129E-05 0.160E-04 0.566E-03
   -.461E+00 -.135E-02 0.187E+04   0.460E+00 0.139E-02 -.187E+04   0.168E-03 -.416E-05 0.333E+00   -.539E-04 -.728E-05 0.432E-03
   -.936E+00 -.378E+00 -.199E+02   0.934E+00 0.388E+00 0.209E+02   0.575E-03 -.186E-02 -.288E+00   -.928E-04 -.550E-04 0.115E-02
   -.798E-03 0.197E-04 -.261E+01   0.811E-03 -.169E-04 0.128E+01   -.577E-05 -.196E-05 0.590E+00   -.171E-06 -.378E-06 0.143E-02
   -.641E-01 -.150E+01 -.184E+04   0.633E-01 0.151E+01 0.183E+04   0.137E-02 -.440E-02 0.771E+00   -.708E-05 -.193E-04 0.137E-02
   -.395E+01 -.267E-02 -.189E+04   0.395E+01 0.347E-02 0.189E+04   0.655E-02 0.269E-02 -.112E+01   -.552E-04 -.213E-05 0.133E-02
   -.152E+02 -.120E+02 -.363E+04   0.152E+02 0.120E+02 0.363E+04   0.231E-01 -.996E-02 -.166E+01   0.189E-03 0.336E-03 0.634E-03
   -.421E-02 -.422E-03 -.371E+04   0.419E-02 0.446E-03 0.371E+04   0.359E-04 -.684E-06 0.286E+01   -.462E-05 -.163E-05 0.757E-03
   -.136E+01 0.676E+00 0.368E+04   0.136E+01 -.677E+00 -.368E+04   -.420E-03 0.116E-03 0.115E+01   0.177E-03 -.154E-03 -.361E-02
   -.112E-02 0.710E+00 0.390E+04   0.113E-02 -.711E+00 -.389E+04   -.503E-05 0.108E-03 -.568E+01   -.227E-05 -.244E-03 -.179E-02
   0.587E-03 0.164E+00 0.188E+04   -.607E-03 -.164E+00 -.188E+04   0.599E-05 0.306E-04 -.188E+00   -.248E-07 -.819E-05 0.565E-03
   -.458E+00 0.234E+00 0.187E+04   0.458E+00 -.235E+00 -.187E+04   0.628E-04 0.133E-03 0.334E+00   -.627E-04 0.204E-04 0.508E-03
   -.942E+00 0.356E+00 -.200E+02   0.941E+00 -.364E+00 0.210E+02   0.607E-03 0.146E-02 -.288E+00   -.925E-04 0.535E-04 0.115E-02
   0.138E-01 0.541E+00 -.208E+01   -.141E-01 -.544E+00 0.746E+00   0.889E-04 0.124E-02 0.590E+00   -.136E-05 0.572E-04 0.144E-02
   0.594E-01 0.150E+01 -.184E+04   -.585E-01 -.151E+01 0.183E+04   -.142E-02 0.440E-02 0.771E+00   -.564E-05 0.229E-04 0.137E-02
   -.522E+01 0.406E+01 -.188E+04   0.522E+01 -.406E+01 0.188E+04   -.174E-02 -.430E-03 -.112E+01   -.577E-04 0.437E-04 0.124E-02
   -.152E+02 0.119E+02 -.363E+04   0.152E+02 -.119E+02 0.363E+04   0.257E-01 0.699E-02 -.166E+01   0.187E-03 -.345E-03 0.595E-03
   0.520E-01 0.569E+01 -.371E+04   -.521E-01 -.571E+01 0.371E+04   0.310E-02 0.252E-01 0.285E+01   0.434E-05 -.139E-03 0.536E-03
   -.171E+01 0.690E+00 0.368E+04   0.171E+01 -.690E+00 -.368E+04   -.574E-03 0.781E-04 0.115E+01   0.180E-03 -.201E-03 -.324E-02
   -.697E-03 0.498E-04 0.390E+04   0.699E-03 0.311E-05 -.389E+04   0.735E-06 0.105E-06 -.568E+01   -.368E-05 -.499E-04 -.152E-02
   0.485E-03 0.163E+00 0.188E+04   -.497E-03 -.163E+00 -.188E+04   0.686E-05 0.404E-04 -.188E+00   -.813E-05 -.188E-04 0.685E-03
   -.456E+00 0.129E-02 0.187E+04   0.456E+00 -.130E-02 -.187E+04   -.790E-04 0.654E-06 0.334E+00   -.569E-04 -.174E-04 0.571E-03
   -.638E+00 0.346E+00 -.192E+02   0.634E+00 -.349E+00 0.202E+02   0.123E-02 0.691E-03 -.286E+00   -.943E-04 0.279E-04 0.116E-02
   -.149E-02 0.868E-05 -.155E+01   0.151E-02 -.126E-04 0.215E+00   -.777E-05 -.250E-06 0.590E+00   -.750E-06 0.201E-05 0.144E-02
   0.325E-01 0.158E+01 -.183E+04   -.323E-01 -.158E+01 0.183E+04   -.350E-03 0.279E-02 0.777E+00   -.525E-05 0.262E-04 0.132E-02
   -.669E+01 0.777E-02 -.188E+04   0.669E+01 -.903E-02 0.188E+04   -.423E-03 -.265E-02 -.113E+01   -.611E-04 -.582E-05 0.127E-02
   -.408E+02 0.169E+02 -.361E+04   0.408E+02 -.169E+02 0.361E+04   0.177E-02 0.796E-02 -.164E+01   0.995E-04 0.170E-03 0.427E-03
   -.110E-01 0.283E-03 -.371E+04   0.110E-01 -.295E-03 0.370E+04   -.108E-03 -.184E-05 0.285E+01   -.147E-04 -.462E-05 0.338E-03
   0.171E+01 -.690E+00 0.368E+04   -.171E+01 0.690E+00 -.368E+04   0.567E-03 -.101E-03 0.115E+01   -.209E-03 0.181E-03 -.327E-02
   -.554E-04 -.124E+01 0.389E+04   0.711E-04 0.124E+01 -.389E+04   -.564E-05 -.276E-03 -.568E+01   -.212E-05 0.292E-03 -.875E-03
   0.114E-02 -.155E+00 0.188E+04   -.117E-02 0.159E+00 -.188E+04   0.785E-05 -.116E-02 -.188E+00   -.553E-05 -.118E-04 0.809E-03
   0.458E+00 -.234E+00 0.187E+04   -.458E+00 0.235E+00 -.187E+04   -.649E-04 -.134E-03 0.334E+00   0.564E-04 -.161E-04 0.509E-03
   0.639E+00 -.345E+00 -.192E+02   -.635E+00 0.348E+00 0.202E+02   -.123E-02 -.688E-03 -.286E+00   0.918E-04 -.322E-04 0.116E-02
   0.114E-01 -.147E+00 -.909E+00   -.117E-01 0.132E+00 -.394E+00   0.627E-04 0.949E-02 0.580E+00   0.264E-05 -.637E-04 0.143E-02
   0.137E-01 -.384E+01 -.182E+04   -.139E-01 0.384E+01 0.182E+04   0.279E-03 0.208E-01 0.749E+00   0.853E-05 -.263E-04 0.124E-02
   0.522E+01 -.405E+01 -.188E+04   -.522E+01 0.405E+01 0.188E+04   0.173E-02 0.473E-03 -.112E+01   0.545E-04 -.413E-04 0.125E-02
   0.408E+02 -.169E+02 -.361E+04   -.408E+02 0.169E+02 0.361E+04   -.205E-02 -.787E-02 -.164E+01   -.105E-03 0.840E-04 0.456E-03
   0.246E+00 -.411E+02 -.367E+04   -.242E+00 0.411E+02 0.367E+04   -.392E-02 0.293E-01 0.287E+01   -.724E-05 0.635E-04 0.163E-03
   0.136E+01 -.676E+00 0.368E+04   -.136E+01 0.676E+00 -.368E+04   0.414E-03 -.958E-04 0.115E+01   -.225E-03 0.158E-03 -.365E-02
   0.528E-03 -.599E-04 0.390E+04   -.535E-03 -.383E-05 -.389E+04   -.280E-05 -.603E-05 -.568E+01   0.100E-04 0.610E-04 -.121E-02
   0.111E-02 -.156E+00 0.188E+04   -.114E-02 0.158E+00 -.188E+04   0.731E-05 -.752E-03 -.189E+00   0.127E-05 0.296E-05 0.698E-03
   0.461E+00 0.134E-02 0.187E+04   -.460E+00 -.137E-02 -.187E+04   -.169E-03 0.380E-05 0.333E+00   0.471E-04 -.351E-05 0.427E-03
   0.943E+00 -.356E+00 -.200E+02   -.941E+00 0.363E+00 0.210E+02   -.609E-03 -.145E-02 -.288E+00   0.893E-04 -.471E-04 0.116E-02
[...]
   -.631E+02 0.806E-01 0.935E+03   0.666E+02 -.812E-01 -.935E+03   -.303E+01 0.855E-03 0.186E+00   -.419E-03 0.866E-05 0.320E-03
   0.631E+02 0.814E-01 0.935E+03   -.666E+02 -.820E-01 -.935E+03   0.303E+01 0.917E-03 0.186E+00   0.428E-03 0.768E-06 0.310E-03
   0.205E+00 -.225E-02 0.424E+03   -.204E+00 0.261E-02 -.428E+03   -.229E-02 -.655E-03 0.374E+01   0.453E-04 0.247E-05 0.481E-03
   0.582E+00 -.786E-02 -.463E+03   -.578E+00 0.814E-02 0.469E+03   -.287E-02 -.546E-03 -.639E+01   0.422E-04 0.145E-05 0.623E-03
   -.662E+02 0.160E-01 -.185E+01   0.706E+02 -.193E-01 0.154E+01   -.493E+01 0.104E-01 0.402E+00   0.868E-04 0.228E-04 0.634E-03
   0.662E+02 0.106E-01 -.185E+01   -.706E+02 -.136E-01 0.153E+01   0.493E+01 0.101E-01 0.402E+00   -.856E-04 0.230E-04 0.634E-03
   0.132E-02 0.527E-03 -.484E+03   -.133E-02 -.556E-03 0.479E+03   -.884E-07 0.225E-04 0.566E+01   0.288E-05 -.101E-05 0.660E-03
   0.887E-02 -.467E-03 -.129E+04   -.924E-02 0.490E-03 0.129E+04   0.375E-03 -.125E-04 0.173E+01   0.613E-05 -.186E-05 0.510E-03
   -.305E+02 0.184E+01 -.919E+03   0.334E+02 -.187E+01 0.918E+03   -.294E+01 0.219E-01 0.849E+00   -.346E-04 0.121E-04 0.625E-03
   0.305E+02 0.188E+01 -.919E+03   -.334E+02 -.191E+01 0.918E+03   0.294E+01 0.237E-01 0.852E+00   0.408E-04 0.197E-04 0.631E-03
   0.115E+02 -.150E+00 -.147E+04   -.116E+02 0.156E+00 0.147E+04   0.620E-01 -.533E-02 -.121E+01   0.224E-05 0.940E-05 0.324E-03
   0.391E+02 0.161E-01 -.222E+04   -.392E+02 -.168E-01 0.224E+04   0.653E-01 0.115E-02 -.192E+02   -.675E-04 0.284E-04 -.355E-03
   -.496E+02 0.217E+02 -.188E+04   0.549E+02 -.217E+02 0.188E+04   -.540E+01 -.178E-01 -.317E+01   0.235E-04 -.120E-04 -.310E-04
   0.496E+02 0.215E+02 -.188E+04   -.550E+02 -.215E+02 0.188E+04   0.541E+01 -.208E-01 -.309E+01   0.137E-06 -.322E-04 -.309E-04
   0.486E-02 0.387E-02 0.933E+02   -.259E-11 -.249E-13 0.266E-10   -.119E-01 -.374E-02 -.937E+02   0.651E-05 -.946E-05 0.458E-01

 POSITION                                       TOTAL-FORCE (eV/Angst)
      6.50283      5.91521     20.84815        -0.007501     -0.002916      0.099594
      6.45148      6.81152     21.47744         0.003613     -0.029463     -0.025100
      6.55428      5.01888     21.47756        -0.003713      0.031704     -0.026478
      7.41975      5.96590     20.24620         0.026094     -0.001038      0.025961
      5.58571      5.86437     20.24640        -0.024438      0.001437      0.026861
      9.75299      7.39399      4.79682         0.001017      0.000654     -3.497692
      0.00000      8.87278      4.79682         0.000021      0.000435      2.793587
      0.00000      7.39399      8.04782         0.000047      0.000180      0.500747
      9.75299      8.87278      8.04782        -0.000087      0.000529     -0.722732
      9.75299      7.39399     11.29882        -0.002874      0.000710      0.699370
      0.00000      8.87278     11.29882         0.000229      0.001886     -0.741890
     13.00396      7.39418     14.48037         0.000246     -0.001536      0.085350
      9.75326      8.87324     14.68169         0.002048     -0.000949     -0.033417
      9.75451      7.39556     18.02920        -0.002714      0.000862      0.073053
      0.00033      8.87376     17.65877        -0.003079     -0.008957      0.038963
      9.75299     10.35158      4.79682         0.000760      0.000686     -3.498244
      0.00000      0.00000      4.79682         0.000028     -0.000002      2.793363
      0.00000     10.35158      8.04782         0.000048      0.000157      0.500871
      9.75299      0.00000      8.04782        -0.000296      0.000026     -0.722239
      9.75299     10.35158     11.29882        -0.001072      0.007499      0.704399
      0.00000      0.00000     11.29882         0.000035     -0.000000     -0.741438
     13.00393     10.35182     14.48087         0.000517     -0.002190      0.080837
      9.75247      0.00004     14.68348         0.003729      0.003489     -0.034344
      9.75128     10.35197     18.03541        -0.004709     -0.001704      0.068005
     13.00398     11.83038     17.65902         0.000040      0.000022      0.035845
      9.75299      1.47880      4.79682         0.000762     -0.000705     -3.498195
      0.00000      2.95759      4.79682         0.000036     -0.000447      2.793658
      0.00000      1.47880      8.04782         0.000014     -0.000158      0.500873
      9.75299      2.95759      8.04782        -0.000085     -0.000529     -0.722525
      9.75299      1.47880     11.29882        -0.001061     -0.006021      0.705384
      0.00000      2.95759     11.29882        -0.000152     -0.001890     -0.741885
      0.00006      1.47856     14.48087        -0.000488      0.002206      0.080839
      9.75326      2.95717     14.68204         0.000716     -0.000397     -0.028625
      9.75103      1.47862     18.03555        -0.003968      0.000040      0.065880
     13.00367      2.95662     17.65877         0.003003      0.008945      0.038966
      9.75299      4.43639      4.79682         0.001019     -0.000645     -3.497641
      0.00000      5.91519      4.79682         0.000028      0.000003      2.793801
      0.00000      4.43639      8.04782         0.000016     -0.000184      0.500746
      9.75299      5.91519      8.04782         0.000106     -0.000031     -0.722962
      9.75299      4.43639     11.29882        -0.002866     -0.002195      0.700392
      0.00000      5.91519     11.29882         0.000041     -0.000003     -0.742537
      0.00002      4.43620     14.48037        -0.000178      0.001513      0.085349
      9.75358      5.91515     14.68176        -0.000810     -0.003844     -0.032426
      9.75379      4.43532     18.03030        -0.003586     -0.009176      0.068634
      0.00001      5.91519     17.65823        -0.000048     -0.000019      0.044951
      3.25100      7.39399      4.79682        -0.000966      0.000638     -3.497648
      6.50199      8.87278      4.79682         0.000037      0.000993      2.796244
      6.50199      7.39399      8.04782         0.000009      0.002916      0.501352
      3.25100      8.87278      8.04782         0.000141      0.000526     -0.722512
      3.25100      7.39399     11.29882         0.002922      0.002176      0.700441
      6.50199      8.87278     11.29882        -0.000172     -0.004965     -0.716776
      6.50198      7.39030     14.48965         0.000054      0.020918      0.069775
      3.25072      8.87320     14.68205        -0.000659      0.000423     -0.028718
      3.25022      7.39505     18.03033         0.003404      0.009246      0.068319
      6.50208      8.87248     17.65481         0.000305      0.013284      0.009365
      3.25100     10.35158      4.79682        -0.000710      0.000699     -3.498198
      6.50199      0.00000      4.79682         0.000029     -0.000010      2.795630
      6.50199     10.35158      8.04782         0.000009      0.001414      0.503157
      3.25100      0.00000      8.04782         0.000351     -0.000027     -0.722228
      3.25100     10.35158     11.29882         0.001117      0.005992      0.705405
[...]
      6.50199      5.91519      9.32220         0.000030     -0.000003     -0.113885
      4.52538      4.43639      8.04782         0.416632      0.000283      0.062178
      8.47860      4.43639      8.04782        -0.416585      0.000314      0.062172
      3.25100      5.91519     10.02443        -0.000582     -0.000292     -0.094074
      3.25100      5.91519     12.57320         0.001281     -0.000260      0.025966
      7.77637      4.43639     11.29882        -0.504642      0.007107      0.088620
      5.22761      4.43639     11.29882         0.504421      0.007032      0.088682
      6.50199      5.91519     13.29981         0.000029     -0.000008     -0.007746
      6.50199      5.91519     15.86380         0.000041      0.000008     -0.020560
      4.55308      4.43637     14.57527        -0.029964     -0.000238     -0.009966
      8.45091      4.43645     14.57512         0.028680     -0.000408     -0.012324
      3.24438      5.91546     16.54148         0.002520      0.000605      0.034839
      3.26188      5.91464     19.11442        -0.015997      0.000555     -0.042467
      7.72812      4.42967     17.96827        -0.047919     -0.017157      0.027335
      5.27493      4.42915     17.96517         0.050683     -0.016208      0.031202
    total drift:                               -0.006984      0.000121     -0.364183

  FREE ENERGIE OF THE ION-ELECTRON SYSTEM (eV)
  free  energy   TOTEN  =     -2188.22468105 eV

  energy  without entropy=    -2188.22468105  energy(sigma->0) =    -2188.22468105