 vasp.6.4.2 20Jul23 (build Feb 22 2024 13:53:45) complex
 executed on              LinuxNV date 2024.08.28  20:27:00
 OpenACC runtime initialized ...    4 GPUs detected

 INCAR:
   SYSTEM = Oxide-Surface
   ISMEAR = 0
   SIGMA = 0.05
   EDIFF = 1E-5
   ALGO = Normal
   IBRION = -1
   NSW = 0
   ISYM = 0
   DIPOL = 0.5 0.5 0.5
   IDIPOL = 3
   LDIPOL = .TRUE.
   ISTART = 1
   LHFCALC = .TRUE.
   GGA = PE
   IVDW = 21
   VDW_SR = 0.96
   HFRCUT = -1
   ENCUT = 520
   PREC = Normal
   PRECFOCK = Normal
   LASPH = .TRUE.
   LREAL = Auto
   ISPIN = 1
   NELM = 200
   NELMIN = 8
   NCORE = 1
   KPAR = 1
   LWAVE = .FALSE.
   LCHARG = .FALSE.

 POTCAR:    PAW_PBE C 08Apr2002
 POTCAR:    PAW_PBE H 15Jun2001
 POTCAR:    PAW_PBE Ti_pv 07Sep2000
 POTCAR:    PAW_PBE O 08Apr2002
 POTCAR:    PAW_PBE C 08Apr2002
   VRHFIN =C: s2p2

   TITEL  = PAW_PBE C 08Apr2002
   POMASS =   12.011; ZVAL   =    4.000    mass and valenz
   ENMAX  =  400.000; ENMIN  =  300.000 eV

   TITEL  = PAW_PBE H 15Jun2001
   POMASS =    1.000; ZVAL   =    1.000    mass and valenz
   ENMAX  =  250.000; ENMIN  =  200.000 eV

   TITEL  = PAW_PBE Ti_pv 07Sep2000
   POMASS =   47.880; ZVAL   =   10.000    mass and valenz
   ENMAX  =  222.335; ENMIN  =  166.751 eV

   TITEL  = PAW_PBE O 08Apr2002
   POMASS =   16.000; ZVAL   =    6.000    mass and valenz
   ENMAX  =  400.000; ENMIN  =  300.000 eV

 Optimization of the real space projectors (new method)

 maximal supplied QI-value         = 25.13
 optimisation between [QCUT,QGAM] = [ 11.56, 23.12] = [ 37.43,149.72] Ry
 Optimized for a Real-space Cutoff    1.04 Angstroem

   l    n(q)    QCUT    max X(q) W(low)/X(q) W(high)/X(q)  e(spline)
   0      7    11.561   115.676    0.20E-03    0.60E-03    0.21E-06
   0      7    11.561    87.132    0.20E-03    0.59E-03    0.21E-06
   1      7    11.561     4.429    0.23E-03    0.35E-03    0.15E-06
   1      7    11.561     2.733    0.18E-03    0.25E-03    0.12E-06
 Optimization of the real space projectors (new method)

[...]

   l    n(q)    QCUT    max X(q) W(low)/X(q) W(high)/X(q)  e(spline)
   1     10    11.641     4.216    0.33E-04    0.72E-04    0.48E-07
   1     10    11.641     5.422    0.11E-03    0.20E-03    0.10E-06
   2      9    11.641    72.084    0.36E-03    0.27E-03    0.57E-06
   2      9    11.641    65.965    0.35E-03    0.27E-03    0.57E-06
   0     10    11.641    41.531    0.11E-03    0.93E-04    0.16E-06
   0     10    11.641    16.290    0.82E-04    0.72E-04    0.13E-06
 Optimization of the real space projectors (new method)

 maximal supplied QI-value         = 24.76
 optimisation between [QCUT,QGAM] = [ 11.64, 23.27] = [ 37.91,151.63] Ry
 Optimized for a Real-space Cutoff    1.04 Angstroem

   l    n(q)    QCUT    max X(q) W(low)/X(q) W(high)/X(q)  e(spline)
   0      7    11.635    20.381    0.14E-03    0.49E-03    0.18E-06
   0      7    11.635    15.268    0.16E-03    0.52E-03    0.19E-06
   1      7    11.635     5.964    0.30E-03    0.44E-03    0.22E-06
   1      7    11.635     5.382    0.27E-03    0.34E-03    0.19E-06
  PAW_PBE C 08Apr2002                   :
  PAW_PBE H 15Jun2001                   :
  PAW_PBE Ti_pv 07Sep2000               :
  PAW_PBE O 08Apr2002                   :

 POSCAR:  C  H Ti  O
  positions in direct lattice
 exchange correlation table for  LEXCH =        8
   RHO(1)=    0.500       N(1)  =     2000
   RHO(2)=  100.500       N(2)  =     4000

 ion  position               nearest neighbor table
   1  0.500  0.500  0.834-   2 1.10   3 1.10   4 1.10   5 1.10
   2  0.496  0.576  0.859-   1 1.10
   3  0.504  0.424  0.859-   1 1.10
   4  0.571  0.504  0.810-   1 1.10
   5  0.430  0.496  0.810-   1 1.10
   6  0.750  0.625  0.192-  87 1.95 147 1.95 146 1.95  86 1.95  89 1.98 168 1.98  16 2.96  36 2.96

   7  0.000  0.750  0.192-  88 1.95 108 1.95  89 1.95 109 1.95  90 1.98  37 2.96  17 2.96
   8  0.000  0.625  0.322-  90 1.95 150 1.95  91 1.95 151 1.95  93 1.98  92 1.98  18 2.96  38 2.96

[...]

  85  0.500  0.500  0.707- 239 1.82 244 1.95 185 1.95 184 1.95 245 1.95  75 2.96  55 2.96
  86  0.750  0.750  0.141-   6 1.95  16 1.95
  87  0.750  0.750  0.243-   6 1.95  16 1.95   9 1.98
  88  0.098  0.625  0.192-   7 1.95  37 1.95  46 1.98
  89  0.902  0.625  0.192-   7 1.95  37 1.95   6 1.98
  90  0.000  0.750  0.271-   8 1.95  18 1.95   7 1.98
  91  0.000  0.750  0.373-   8 1.95  18 1.95  11 1.98
  92  0.848  0.625  0.322-   9 1.95  39 1.95   8 1.98
  93  0.152  0.625  0.322-  49 1.95  79 1.95   8 1.98
  94  0.750  0.750  0.401-  10 1.95  20 1.95   9 1.98
  95  0.750  0.750  0.503-  10 1.95  20 1.95  13 2.11
  96  0.098  0.625  0.452-  11 1.95  41 1.95  50 1.98
  97  0.902  0.625  0.452-  11 1.95  41 1.95  10 1.98
  98  0.000  0.750  0.532-  22 1.90  12 1.90  11 2.00
  99  0.000  0.750  0.634-  15 1.81  12 2.02  22 2.02
 100  0.850  0.625  0.583-  12 1.95  13 1.97  43 1.97
 101  0.150  0.625  0.583-  12 1.95  53 1.97  83 1.97
 102  0.750  0.750  0.662-  13 1.86  14 2.10  24 2.10
 103  0.750  0.750  0.765-  14 1.83  24 1.83
 104  0.094  0.625  0.719-  45 1.95  15 1.95  54 2.03
 105  0.906  0.625  0.719-  45 1.95  15 1.95  14 2.03
 106  0.750  0.000  0.141-  16 1.95  26 1.95
 107  0.750  0.000  0.243-  16 1.95  26 1.95  19 1.98
 108  0.098  0.875  0.192-   7 1.95  17 1.95  56 1.98
 109  0.902  0.875  0.192-   7 1.95  17 1.95  16 1.98
 110  0.000  0.000  0.271-  18 1.95  28 1.95  17 1.98
 111  0.000  0.000  0.373-  18 1.95  28 1.95  21 1.98
 112  0.848  0.875  0.322-   9 1.95  19 1.95  18 1.98
 113  0.152  0.875  0.322-  49 1.95  59 1.95  18 1.98
 114  0.750  0.000  0.401-  20 1.95  30 1.95  19 1.98
 115  0.750  0.000  0.503-  20 1.95  30 1.95  23 2.11
 116  0.098  0.875  0.452-  11 1.95  21 1.95  60 1.98
 117  0.902  0.875  0.452-  11 1.95  21 1.95  20 1.98
 118  0.000  0.000  0.532-  32 1.89  22 1.89  21 2.00
 119  1.000  0.000  0.634-  25 1.81  32 2.02  22 2.02
 120  0.850  0.875  0.583-  22 1.95  13 1.97  23 1.97
 121  0.150  0.875  0.583-  22 1.95  53 1.97  63 1.97
 122  0.750  0.000  0.662-  23 1.86  24 2.10  34 2.10
 123  0.750  0.000  0.765-  24 1.83  34 1.83
 124  0.094  0.875  0.719-  15 1.95  25 1.95  64 2.03
 125  0.906  0.875  0.719-  15 1.95  25 1.95  24 2.03
 126  0.750  0.250  0.141-  26 1.95  36 1.95
 127  0.750  0.250  0.243-  26 1.95  36 1.95  29 1.98
 128  0.098  0.125  0.192-  17 1.95  27 1.95  66 1.98
 129  0.902  0.125  0.192-  17 1.95  27 1.95  26 1.98
 130  0.000  0.250  0.271-  28 1.95  38 1.95  27 1.98
 131  0.000  0.250  0.373-  28 1.95  38 1.95  31 1.98
 132  0.848  0.125  0.322-  19 1.95  29 1.95  28 1.98
 133  0.152  0.125  0.322-  59 1.95  69 1.95  28 1.98
 134  0.750  0.250  0.401-  30 1.95  40 1.95  29 1.98
 135  0.750  0.250  0.503-  30 1.95  40 1.95  33 2.11
 136  0.098  0.125  0.452-  21 1.95  31 1.95  70 1.98
 137  0.902  0.125  0.452-  21 1.95  31 1.95  30 1.98
 138  0.000  0.250  0.532-  32 1.90  42 1.90  31 2.00
 139  1.000  0.250  0.634-  35 1.81  42 2.02  32 2.02
 140  0.850  0.125  0.583-  32 1.95  33 1.97  23 1.97
 141  0.150  0.125  0.583-  32 1.95  73 1.97  63 1.97
 142  0.750  0.250  0.662-  33 1.86  44 2.10  34 2.10
 143  0.750  0.250  0.765-  44 1.83  34 1.83
 144  0.094  0.125  0.719-  35 1.95  25 1.95  74 2.03
[...]
 231  0.500  0.500  0.373-  48 1.95  78 1.95  81 1.98
 232  0.348  0.375  0.322-  69 1.95  79 1.95  78 1.98
 233  0.652  0.375  0.322-  29 1.95  39 1.95  78 1.98
 234  0.250  0.500  0.401-  50 1.95  80 1.95  79 1.98
 235  0.250  0.500  0.503-  50 1.95  80 1.95  83 2.11
 236  0.598  0.375  0.452-  71 1.95  81 1.95  40 1.98
 237  0.402  0.375  0.452-  71 1.95  81 1.95  80 1.98
 238  0.500  0.500  0.532-  52 1.90  82 1.90  81 2.00
 239  0.500  0.500  0.635-  85 1.82  82 2.02  52 2.02
 240  0.350  0.375  0.583-  82 1.95  83 1.97  73 1.97
 241  0.650  0.375  0.583-  82 1.95  43 1.97  33 1.97
 242  0.249  0.500  0.662-  83 1.86  84 2.10  54 2.10
 243  0.251  0.500  0.765-  54 1.83  84 1.84
 244  0.594  0.374  0.719-  75 1.94  85 1.95  44 2.03
 245  0.406  0.374  0.719-  75 1.94  85 1.95  84 2.03

IMPORTANT INFORMATION: All symmetrisations will be switched off!
NOSYMM: (Re-)initialisation of all symmetry stuff for point group C_1.

                                     Primitive cell

  volume of cell :    3846.0501

  direct lattice vectors                    reciprocal lattice vectors
    13.003980404  0.000000000  0.000000000     0.076899531  0.000000000  0.000000000
     0.000000000 11.830378115  0.000000000     0.000000000  0.084528152  0.000000000
     0.000000000  0.000000000 25.000000000     0.000000000  0.000000000  0.040000000

  length of vectors
    13.003980404 11.830378115 25.000000000     0.076899531  0.084528152  0.040000000

  position of ions in fractional coordinates (direct lattice)
     0.500064753  0.500001971  0.833925908
     0.496116025  0.575765153  0.859097683
     0.504021055  0.424236392  0.859102374
     0.570575345  0.504286181  0.809848038
     0.429538220  0.495704177  0.809856132
     0.750000008  0.625000007  0.191872994
     0.000000008  0.750000007  0.191872994
     0.000000008  0.625000007  0.321912798
     0.750000008  0.750000007  0.321912798
     0.750000008  0.625000007  0.451952602
     0.000000008  0.750000007  0.451952602
     0.999998729  0.625016586  0.579214663
     0.750021378  0.750038300  0.587267412
     0.750117211  0.625133254  0.721168073
     0.000025095  0.750082334  0.706350679
     0.750000008  0.875000007  0.191872994
     0.000000008  0.000000007  0.191872994
     0.000000008  0.875000007  0.321912798
     0.750000008  0.000000007  0.321912798
     0.750000008  0.875000007  0.451952602
     0.000000008  0.000000007  0.451952602
     0.999995895  0.875019834  0.579234708
     0.749960162  0.000003641  0.587339263
     0.749868689  0.875032817  0.721416409
     0.999999847  0.999999993  0.706360792
     0.750000008  0.125000007  0.191872994
     0.000000008  0.250000007  0.191872994
     0.000000008  0.125000007  0.321912798
     0.750000008  0.250000007  0.321912798
     0.750000008  0.125000007  0.451952602
     0.000000008  0.250000007  0.451952602
     0.000004299  0.124980173  0.579234710
     0.750020916  0.249964339  0.587281564
     0.749849713  0.124984901  0.721421855
     0.999975965  0.249917711  0.706350689
     0.750000008  0.375000007  0.191872994
     0.000000008  0.500000007  0.191872994
     0.000000008  0.375000007  0.321912798
     0.750000008  0.500000007  0.321912798
     0.750000008  0.375000007  0.451952602
     0.000000008  0.500000007  0.451952602
     0.000001195  0.374983469  0.579214669
     0.750045966  0.499996875  0.587270533
     0.750061553  0.374909750  0.721212007
     0.000000696  0.500000012  0.706329162
     0.250000008  0.625000007  0.191872994
     0.500000008  0.750000007  0.191872994
     0.500000008  0.625000007  0.321912798
     0.250000008  0.750000007  0.321912798
     0.250000008  0.625000007  0.451952602
     0.500000008  0.750000007  0.451952602
     0.499999026  0.624688363  0.579585883
     0.249979194  0.750035526  0.587281864
     0.249940088  0.625089729  0.721213004
     0.500006830  0.749974620  0.706192418
     0.250000008  0.875000007  0.191872994
     0.500000008  0.000000007  0.191872994
[...]
     0.000000000  0.000000000 25.000000000     0.000000000  0.000000000  0.040000000

  length of vectors
    13.003980404 11.830378115 25.000000000     0.076899531  0.084528152  0.040000000

 FORCES acting on ions
    electron-ion (+dipol)            ewald-force                    non-local-force                 convergence-correction
   0.239E-01 0.127E-02 -.947E+03   -.225E-01 -.224E-02 0.948E+03   -.917E-03 -.167E-02 -.706E+00   0.129E-05 -.245E-05 -.862E-01
   0.227E+01 -.436E+02 -.220E+03   -.252E+01 0.479E+02 0.223E+03   0.253E+00 -.437E+01 -.310E+01   0.427E-05 -.440E-03 -.206E-01
   -.227E+01 0.436E+02 -.220E+03   0.252E+01 -.479E+02 0.223E+03   -.254E+00 0.437E+01 -.310E+01   -.368E-05 0.439E-03 -.206E-01
   -.356E+02 -.244E+01 -.254E+03   0.402E+02 0.269E+01 0.251E+03   -.459E+01 -.248E+00 0.272E+01   0.440E-03 -.558E-05 -.222E-01
   0.356E+02 0.245E+01 -.254E+03   -.403E+02 -.270E+01 0.251E+03   0.459E+01 0.249E+00 0.272E+01   -.439E-03 0.491E-05 -.222E-01
   -.142E+01 -.576E+00 0.280E+04   0.142E+01 0.577E+00 -.281E+04   -.435E-03 -.893E-02 0.612E+00   -.194E-03 -.935E-04 0.166E+00
   -.652E-04 -.592E+00 0.299E+04   0.608E-04 0.593E+00 -.298E+04   0.172E-05 -.729E-04 -.417E+01   -.224E-05 -.874E-04 0.166E+00
   -.916E-03 -.137E+00 0.143E+04   0.953E-03 0.137E+00 -.143E+04   -.710E-05 -.574E-02 -.867E-01   -.202E-05 0.172E-05 0.156E+00
   -.388E+00 -.200E+00 0.143E+04   0.388E+00 0.201E+00 -.143E+04   0.390E-04 -.659E-04 0.231E+00   0.268E-04 -.428E-05 0.156E+00
   -.583E+00 -.283E+00 -.132E+02   0.578E+00 0.284E+00 0.141E+02   0.856E-03 0.967E-02 -.170E+00   0.188E-03 0.167E-04 0.811E-01
   -.118E-01 -.445E+00 -.234E+01   0.121E-01 0.448E+00 0.104E+01   -.761E-04 -.990E-03 0.385E+00   -.486E-05 0.490E-04 0.784E-01
   -.324E-01 -.131E+01 -.140E+04   0.325E-01 0.131E+01 0.140E+04   0.304E-02 -.451E-02 0.175E+00   0.465E-05 0.104E-03 -.238E-01
   -.434E+01 -.338E+01 -.143E+04   0.434E+01 0.338E+01 0.143E+04   -.114E-02 -.969E-02 -.259E+00   0.492E-03 0.249E-03 -.325E-01
   -.342E+02 -.140E+02 -.274E+04   0.342E+02 0.140E+02 0.274E+04   0.100E-01 -.359E-02 -.483E+00   0.104E-02 0.407E-03 -.155E+00
   -.542E-01 -.476E+01 -.283E+04   0.536E-01 0.477E+01 0.283E+04   0.189E-02 -.480E-02 0.129E+01   0.106E-04 0.186E-03 -.143E+00
   -.114E+01 -.563E+00 0.280E+04   0.114E+01 0.564E+00 -.281E+04   -.318E-03 0.887E-02 0.613E+00   -.135E-03 -.923E-04 0.167E+00
   -.425E-03 0.328E-06 0.299E+04   0.431E-03 -.258E-05 -.298E+04   -.118E-06 0.373E-06 -.415E+01   -.351E-05 0.172E-05 0.166E+00
   -.920E-03 -.137E+00 0.143E+04   0.952E-03 0.137E+00 -.143E+04   -.667E-05 0.570E-02 -.867E-01   0.162E-06 0.103E-05 0.156E+00
   -.386E+00 -.966E-03 0.143E+04   0.386E+00 0.992E-03 -.143E+04   0.110E-03 0.103E-06 0.226E+00   0.200E-04 0.239E-05 0.156E+00
   -.783E+00 -.321E+00 -.138E+02   0.781E+00 0.329E+00 0.147E+02   0.407E-03 -.106E-01 -.172E+00   0.156E-03 0.709E-04 0.812E-01
   -.623E-03 0.186E-04 -.277E+01   0.633E-03 -.182E-04 0.147E+01   -.296E-05 -.119E-05 0.388E+00   0.167E-05 0.225E-05 0.785E-01
   -.511E-01 -.124E+01 -.140E+04   0.510E-01 0.125E+01 0.140E+04   -.851E-04 -.602E-02 0.168E+00   0.463E-05 0.802E-04 -.237E-01
   -.329E+01 -.141E-02 -.144E+04   0.329E+01 0.172E-02 0.144E+04   0.494E-02 -.615E-04 -.241E+00   0.376E-03 0.157E-05 -.324E-01
   -.126E+02 -.996E+01 -.276E+04   0.126E+02 0.996E+01 0.276E+04   0.186E-01 0.119E-01 -.492E+00   0.377E-03 0.216E-03 -.156E+00
   -.352E-02 -.322E-03 -.284E+04   0.352E-02 0.344E-03 0.284E+04   -.114E-04 -.402E-05 0.131E+01   0.128E-05 0.367E-05 -.143E+00
   -.114E+01 0.564E+00 0.280E+04   0.114E+01 -.564E+00 -.281E+04   -.319E-03 -.888E-02 0.612E+00   -.133E-03 0.835E-04 0.166E+00
   -.939E-03 0.592E+00 0.299E+04   0.949E-03 -.593E+00 -.298E+04   -.119E-05 0.740E-04 -.417E+01   0.515E-06 0.817E-04 0.166E+00
   0.393E-03 0.137E+00 0.143E+04   -.410E-03 -.137E+00 -.143E+04   0.499E-05 -.570E-02 -.867E-01   -.425E-05 0.273E-05 0.156E+00
   -.388E+00 0.200E+00 0.143E+04   0.388E+00 -.201E+00 -.143E+04   0.390E-04 0.673E-04 0.231E+00   0.262E-04 -.440E-06 0.155E+00
   -.788E+00 0.305E+00 -.139E+02   0.786E+00 -.312E+00 0.147E+02   0.439E-03 0.104E-01 -.172E+00   0.174E-03 -.700E-04 0.812E-01
   0.995E-02 0.445E+00 -.234E+01   -.102E-01 -.448E+00 0.104E+01   0.686E-04 0.990E-03 0.385E+00   0.586E-05 -.502E-04 0.784E-01
   0.472E-01 0.124E+01 -.140E+04   -.471E-01 -.124E+01 0.140E+04   0.895E-04 0.602E-02 0.168E+00   -.151E-05 -.782E-04 -.237E-01
   -.437E+01 0.338E+01 -.143E+04   0.437E+01 -.338E+01 0.143E+04   -.116E-02 0.751E-02 -.259E+00   0.486E-03 -.248E-03 -.325E-01
   -.126E+02 0.989E+01 -.276E+04   0.126E+02 -.989E+01 0.276E+04   0.187E-01 -.107E-01 -.492E+00   0.382E-03 -.185E-03 -.156E+00
   0.409E-01 0.476E+01 -.283E+04   -.403E-01 -.477E+01 0.283E+04   -.181E-02 0.480E-02 0.129E+01   -.366E-05 -.179E-03 -.143E+00
   -.142E+01 0.575E+00 0.280E+04   0.142E+01 -.576E+00 -.281E+04   -.436E-03 0.894E-02 0.612E+00   -.193E-03 0.976E-04 0.166E+00
   -.582E-03 -.207E-05 0.298E+04   0.582E-03 0.265E-05 -.298E+04   -.985E-07 0.139E-05 -.415E+01   0.343E-05 -.951E-06 0.166E+00
   0.299E-03 0.137E+00 0.143E+04   -.324E-03 -.137E+00 -.143E+04   0.545E-05 0.574E-02 -.867E-01   0.192E-05 0.200E-05 0.156E+00
   -.390E+00 0.883E-03 0.143E+04   0.390E+00 -.919E-03 -.143E+04   -.636E-04 0.274E-06 0.226E+00   0.268E-04 0.705E-05 0.155E+00
   -.586E+00 0.298E+00 -.132E+02   0.582E+00 -.301E+00 0.141E+02   0.885E-03 -.948E-02 -.171E+00   0.181E-03 -.229E-04 0.811E-01
   -.114E-02 0.157E-05 -.191E+01   0.116E-02 -.538E-05 0.603E+00   -.503E-05 0.128E-05 0.388E+00   -.141E-05 0.156E-05 0.784E-01
   0.245E-01 0.131E+01 -.140E+04   -.246E-01 -.131E+01 0.140E+04   -.304E-02 0.452E-02 0.175E+00   -.494E-05 -.101E-03 -.238E-01
   -.563E+01 0.267E-02 -.143E+04   0.563E+01 -.366E-02 0.143E+04   -.541E-02 0.646E-03 -.255E+00   0.609E-03 -.379E-05 -.326E-01
   -.340E+02 0.142E+02 -.274E+04   0.340E+02 -.142E+02 0.274E+04   0.692E-02 0.604E-02 -.481E+00   0.102E-02 -.431E-03 -.155E+00
   -.914E-02 0.219E-03 -.283E+04   0.916E-02 -.233E-03 0.283E+04   0.258E-04 0.124E-05 0.129E+01   0.142E-05 -.427E-05 -.143E+00
   0.142E+01 -.575E+00 0.280E+04   -.142E+01 0.576E+00 -.281E+04   0.436E-03 -.894E-02 0.612E+00   0.198E-03 -.100E-03 0.166E+00
   -.532E-04 -.104E+01 0.298E+04   0.663E-04 0.104E+01 -.298E+04   -.210E-05 -.191E-03 -.417E+01   -.145E-05 -.177E-03 0.166E+00
   0.817E-03 -.135E+00 0.143E+04   -.854E-03 0.139E+00 -.143E+04   0.852E-05 -.650E-02 -.869E-01   0.405E-05 0.242E-04 0.156E+00
   0.388E+00 -.200E+00 0.143E+04   -.388E+00 0.201E+00 -.143E+04   -.396E-04 -.656E-04 0.231E+00   -.283E-04 -.425E-05 0.156E+00
   0.586E+00 -.298E+00 -.132E+02   -.582E+00 0.301E+00 0.141E+02   -.889E-03 0.948E-02 -.171E+00   -.182E-03 0.252E-04 0.811E-01
   0.823E-02 -.243E+00 -.128E+01   -.851E-02 0.226E+00 0.151E-01   0.422E-04 0.866E-02 0.377E+00   0.397E-05 0.875E-04 0.782E-01
   0.103E-01 -.313E+01 -.139E+04   -.104E-01 0.315E+01 0.139E+04   0.298E-04 -.175E-01 0.160E+00   0.291E-05 0.374E-03 -.248E-01
   0.437E+01 -.338E+01 -.143E+04   -.437E+01 0.338E+01 0.143E+04   0.116E-02 -.751E-02 -.259E+00   -.488E-03 0.248E-03 -.325E-01
   0.339E+02 -.142E+02 -.274E+04   -.339E+02 0.142E+02 0.274E+04   -.685E-02 -.607E-02 -.480E+00   -.101E-02 0.424E-03 -.155E+00
   0.209E+00 -.342E+02 -.280E+04   -.206E+00 0.342E+02 0.280E+04   -.244E-02 -.373E-02 0.132E+01   -.275E-04 0.125E-02 -.142E+00
   0.114E+01 -.564E+00 0.280E+04   -.114E+01 0.564E+00 -.281E+04   0.320E-03 0.888E-02 0.612E+00   0.140E-03 -.854E-04 0.166E+00
   0.443E-03 0.636E-05 0.298E+04   -.445E-03 -.325E-05 -.298E+04   0.178E-05 0.168E-06 -.415E+01   -.162E-05 -.310E-05 0.166E+00
   0.804E-03 -.137E+00 0.143E+04   -.838E-03 0.139E+00 -.143E+04   0.726E-05 0.523E-02 -.872E-01   0.332E-05 -.146E-04 0.156E+00
   0.386E+00 0.953E-03 0.143E+04   -.386E+00 -.978E-03 -.143E+04   -.108E-03 0.218E-06 0.226E+00   -.209E-04 -.337E-05 0.156E+00
   0.788E+00 -.305E+00 -.139E+02   -.786E+00 0.312E+00 0.147E+02   -.439E-03 -.104E-01 -.172E+00   -.171E-03 0.729E-04 0.812E-01
[...]
   -.529E+02 0.839E-01 0.857E+03   0.571E+02 -.845E-01 -.857E+03   -.335E+01 0.664E-03 0.168E+00   0.159E-03 0.550E-05 0.940E-01
   0.529E+02 0.845E-01 0.857E+03   -.571E+02 -.852E-01 -.857E+03   0.335E+01 0.724E-03 0.168E+00   -.161E-03 -.104E-05 0.940E-01
   0.224E+00 -.194E-02 0.384E+03   -.222E+00 0.222E-02 -.388E+03   -.196E-02 -.505E-03 0.394E+01   -.722E-04 0.479E-05 0.701E-01
   0.641E+00 -.634E-02 -.415E+03   -.637E+00 0.664E-02 0.423E+03   -.247E-02 -.514E-03 -.687E+01   -.191E-03 0.411E-05 0.242E-01
   -.551E+02 0.372E-01 -.148E+01   0.602E+02 -.401E-01 0.115E+01   -.500E+01 0.168E-01 0.334E+00   0.209E-03 -.408E-04 0.480E-01
   0.551E+02 0.326E-01 -.148E+01   -.602E+02 -.352E-01 0.115E+01   0.500E+01 0.165E-01 0.334E+00   -.203E-03 -.398E-04 0.480E-01
   0.125E-02 0.426E-03 -.451E+03   -.125E-02 -.469E-03 0.444E+03   0.248E-05 0.329E-04 0.619E+01   -.848E-06 -.122E-05 0.956E-02
   0.808E-02 -.379E-03 -.119E+04   -.848E-02 0.418E-03 0.118E+04   0.353E-03 -.296E-04 0.218E+01   -.690E-06 -.248E-05 -.434E-01
   -.246E+02 0.181E+01 -.842E+03   0.277E+02 -.184E+01 0.841E+03   -.274E+01 0.144E-01 0.837E+00   -.675E-03 -.155E-03 -.168E-01
   0.246E+02 0.184E+01 -.842E+03   -.277E+02 -.187E+01 0.841E+03   0.274E+01 0.170E-01 0.842E+00   0.678E-03 -.161E-03 -.168E-01
   0.114E+02 -.132E+00 -.134E+04   -.114E+02 0.139E+00 0.134E+04   0.613E-01 -.792E-02 -.226E+01   -.624E-03 0.711E-05 -.584E-01
   0.395E+02 -.127E-01 -.200E+04   -.395E+02 0.919E-02 0.203E+04   0.229E-01 0.303E-02 -.197E+02   -.778E-03 0.219E-04 -.120E+00
   -.388E+02 0.217E+02 -.171E+04   0.452E+02 -.217E+02 0.171E+04   -.573E+01 -.121E-01 -.350E+01   0.107E-02 -.988E-03 -.937E-01
   0.389E+02 0.216E+02 -.171E+04   -.453E+02 -.216E+02 0.171E+04   0.573E+01 -.226E-01 -.342E+01   -.106E-02 -.983E-03 -.937E-01
   0.340E-02 0.250E-02 0.966E+02   -.448E-12 0.444E-12 0.293E-10   -.639E-03 -.242E-02 -.923E+02   0.198E-04 0.152E-06 0.761E+01

 POSITION                                       TOTAL-FORCE (eV/Angst)
      6.50283      5.91521     20.84815         0.000242     -0.002761      0.040992
      6.45148      6.81152     21.47744         0.013361     -0.209296     -0.155568
      6.55428      5.01888     21.47756        -0.013498      0.211737     -0.157162
      7.41975      5.96590     20.24620        -0.128860     -0.010155      0.134189
      5.58571      5.86437     20.24640         0.130229      0.010495      0.135076
      9.75299      7.39399      4.79682         0.001107     -0.000455     -3.966724
      0.00000      8.87278      4.79682        -0.000015      0.000504      3.335287
      0.00000      7.39399      8.04782         0.000019      0.000255      0.571091
      9.75299      8.87278      8.04782        -0.000135      0.000620     -0.806484
      9.75299      7.39399     11.29882        -0.003487      0.001059      0.775539
      0.00000      8.87278     11.29882         0.000238      0.002329     -0.837190
     13.00396      7.39418     14.48037         0.000458      0.000339      0.009186
      9.75326      8.87324     14.68169         0.001257     -0.003811      0.158351
      9.75451      7.39556     18.02920        -0.004776      0.012451      0.279172
      0.00033      8.87376     17.65877         0.000120      0.001643     -0.168238
      9.75299     10.35158      4.79682         0.000830      0.001977     -3.967302
      0.00000      0.00000      4.79682        -0.000007     -0.000000      3.336918
      0.00000     10.35158      8.04782         0.000016      0.000203      0.571260
      9.75299      0.00000      8.04782        -0.000357      0.000031     -0.807295
      9.75299     10.35158     11.29882        -0.001161      0.008024      0.781313
      0.00000      0.00000     11.29882         0.000000      0.000002     -0.837853
     13.00393     10.35182     14.48087        -0.000217     -0.001253      0.008430
      9.75247      0.00004     14.68348         0.003190      0.000129      0.160770
      9.75128     10.35197     18.03541         0.000170      0.004825      0.284061
     13.00398     11.83038     17.65902        -0.000014      0.000022     -0.165895
      9.75299      1.47880      4.79682         0.000833     -0.002000     -3.967254
      0.00000      2.95759      4.79682         0.000001     -0.000503      3.335290
      0.00000      1.47880      8.04782        -0.000025     -0.000201      0.571261
      9.75299      2.95759      8.04782        -0.000133     -0.000617     -0.806233
      9.75299      1.47880     11.29882        -0.001169     -0.006372      0.782393
      0.00000      2.95759     11.29882        -0.000228     -0.002328     -0.837186
      0.00006      1.47856     14.48087         0.000206      0.001272      0.008433
      9.75326      2.95717     14.68204         0.001198      0.003707      0.158234
      9.75103      1.47862     18.03555        -0.000070     -0.004293      0.284094
     13.00367      2.95662     17.65877        -0.000130     -0.001648     -0.168225
      9.75299      4.43639      4.79682         0.001112      0.000482     -3.966675
      0.00000      5.91519      4.79682        -0.000006      0.000001      3.337482
      0.00000      4.43639      8.04782        -0.000026     -0.000255      0.571093
      9.75299      5.91519      8.04782         0.000103     -0.000031     -0.808078
      9.75299      4.43639     11.29882        -0.003487     -0.002712      0.776661
      0.00000      5.91519     11.29882         0.000009     -0.000001     -0.839406
      0.00002      4.43620     14.48037        -0.000475     -0.000356      0.009187
      9.75358      5.91515     14.68176        -0.001888     -0.000127      0.162045
      9.75379      4.43532     18.03030        -0.004536     -0.011933      0.279961
      0.00001      5.91519     17.65823         0.000012     -0.000017     -0.166002
      3.25100      7.39399      4.79682        -0.001129     -0.000483     -3.966674
      6.50199      8.87278      4.79682         0.000001      0.001126      3.338221
      6.50199      7.39399      8.04782        -0.000033      0.003320      0.571841
      3.25100      8.87278      8.04782         0.000115      0.000618     -0.806222
      3.25100      7.39399     11.29882         0.003468      0.002694      0.776720
      6.50199      8.87278     11.29882        -0.000245     -0.007458     -0.809854
      6.50198      7.39030     14.48965        -0.000128      0.002530      0.009480
      3.25072      8.87320     14.68205        -0.001199     -0.003701      0.158229
      3.25022      7.39505     18.03033         0.004569      0.011905      0.279973
      6.50208      8.87248     17.65481         0.000555      0.014892     -0.165893
      3.25100     10.35158      4.79682        -0.000850      0.002000     -3.967255
      6.50199      0.00000      4.79682        -0.000010      0.000000      3.339484
      6.50199     10.35158      8.04782        -0.000033      0.001597      0.573867
      3.25100      0.00000      8.04782         0.000340     -0.000030     -0.807280
      3.25100     10.35158     11.29882         0.001154      0.006342      0.782422
[...]
      6.50199      5.91519      9.32220        -0.000007     -0.000001     -0.277322
      4.52538      4.43639      8.04782         0.295161      0.000775      0.067988
      8.47860      4.43639      8.04782        -0.295193      0.000812      0.068001
      3.25100      5.91519     10.02443        -0.000701     -0.000319      0.057706
      3.25100      5.91519     12.57320         0.001391     -0.000309     -0.247598
      7.77637      4.43639     11.29882        -0.734109      0.014741      0.105165
      5.22761      4.43639     11.29882         0.733770      0.014648      0.105249
      6.50199      5.91519     13.29981        -0.000006     -0.000006      0.193656
      6.50199      5.91519     15.86380        -0.000003      0.000003     -0.001183
      4.55308      4.43637     14.57527        -0.110169     -0.005005      0.014147
      8.45091      4.43645     14.57512         0.110148     -0.004832      0.013836
      3.24438      5.91546     16.54148         0.000876     -0.001500     -0.084065
      3.26188      5.91464     19.11442        -0.018758      0.000029     -0.661304
      7.72812      4.42967     17.96827        -0.311114     -0.007556     -0.107220
      5.27493      4.42915     17.96517         0.308798     -0.009336     -0.104844
    total drift:                                0.002146     -0.000112     -0.015301

  FREE ENERGIE OF THE ION-ELECTRON SYSTEM (eV)
  free  energy   TOTEN  =     -2848.89554689 eV

  energy  without entropy=    -2848.89554689  energy(sigma->0) =    -2848.89554689