 vasp.6.3.0 20Jan22 (build Apr  1 2022 16:44:48) complex
 executed on        HPECrayEX_GCC date 2022.11.14  05:24:54

 INCAR:
   SYSTEM = MgO-rocksalt
   ISMEAR = 0
   SIGMA = 0.05
   EDIFF = 1E-6
   ALGO = ALL
   ISTART = 0
   IBRION = -1
   NSW = 0
   ISYM = 0
   DIPOL = 0.5 0.5 0.5
   IDIPOL = 3
   LDIPOL = .TRUE.
   LHFCALC = .TRUE.
   GGA = B5
   AEXX = 0.2
   AGGAX = 0.72
   AGGAC = 0.81
   ALDAC = 0.19
   IVDW = 1
   VDW_S6 = 1.05
   VDW_C6 = 1.23 0.70 0.63 0.70
   VDW_R0 = 1.397 1.342 1.243 1.342
   ENCUT = 600
   PREC = Accurate
   LASPH = .TRUE.
   LREAL = .FALSE.
   ISPIN = 2
   MAGMOM = 1.0 0.0 0.0 0.0 0.0 0.0 0.0 0.0 0.0 0.0 0.0 0.0 0.0 0.0 0.0 0.0 0.0 0.0 0.0 0.0 0.0 0.0 0.0 0.0 0.0 0.0 0.0 0.0 0.0 0.0 0.0 0.0 0.0 0.0 0.0 0.0 0.0 0.0 0.0 0.0 0.0 0.0 0.0 0.0 0.0 0.0 0.0 0.0 0.0 0.0 0.0 0.0 0.0 0.0 0.0 0.0 0.0 0.0 0.0 0.0 0.0 0.0 0.0 0.0 0.0 0.0
   NELM = 200
   NELMIN = 8
   NCORE = 8
   KPAR = 1
   LWAVE = .FALSE.
   LCHARG = .FALSE.

 POTCAR:    PAW_PBE N 08Apr2002
 POTCAR:    PAW_PBE O 08Apr2002
 POTCAR:    PAW_PBE Mg_pv 13Apr2007
 POTCAR:    PAW_PBE O 08Apr2002
 POTCAR:    PAW_PBE N 08Apr2002
   VRHFIN =N: s2p3

   TITEL  = PAW_PBE N 08Apr2002
   POMASS =   14.001; ZVAL   =    5.000    mass and valenz
   ENMAX  =  400.000; ENMIN  =  300.000 eV

[...]

   TITEL  = PAW_PBE Mg_pv 13Apr2007
   POMASS =   24.305; ZVAL   =    8.000    mass and valenz
   ENMAX  =  403.929; ENMIN  =  302.947 eV

   TITEL  = PAW_PBE O 08Apr2002
   POMASS =   16.000; ZVAL   =    6.000    mass and valenz
   ENMAX  =  400.000; ENMIN  =  300.000 eV

  PAW_PBE N 08Apr2002                   :
  PAW_PBE O 08Apr2002                   :
  PAW_PBE Mg_pv 13Apr2007               :
  PAW_PBE O 08Apr2002                   :

 POSCAR:  N  O Mg  O
  positions in direct lattice
 exchange correlation table for  LEXCH =       12
   RHO(1)=    0.500       N(1)  =     2000
   RHO(2)=  100.500       N(2)  =     4000

 ion  position               nearest neighbor table
   1  0.500  0.500  0.769-   2 1.16
   2  0.500  0.500  0.823-   1 1.16
   3  0.250  0.000  0.352-  37 2.10  38 2.10  45 2.10  54 2.10  35 2.10
   4  0.500  0.250  0.352-  37 2.10  38 2.10  46 2.10  53 2.10  36 2.10
   5  0.250  0.250  0.451-  35 2.10  36 2.10  43 2.10  52 2.10  37 2.10  41 2.10
   6  0.500  0.000  0.451-  35 2.10  36 2.10  44 2.10  51 2.10  38 2.10  42 2.11
   7  0.250  1.000  0.550-  49 2.10  41 2.10  42 2.10  58 2.10  35 2.11  39 2.13
   8  0.500  0.250  0.550-  50 2.10  57 2.10  41 2.10  42 2.10  36 2.11  40 2.14
   9  0.250  0.250  0.647-  41 2.09  56 2.10  47 2.10  39 2.10  40 2.10
  10  0.500  0.000  0.648-  42 2.09  40 2.10  48 2.10  39 2.10  55 2.10
  11  0.250  0.500  0.352-  37 2.10  45 2.10  46 2.10  62 2.10  43 2.10
  12  0.500  0.750  0.352-  38 2.10  45 2.10  46 2.10  61 2.10  44 2.10
  13  0.250  0.750  0.451-  35 2.10  43 2.10  44 2.10  60 2.10  45 2.10  49 2.10
  14  0.500  0.500  0.451-  36 2.10  43 2.10  44 2.10  59 2.10  46 2.10  50 2.11
  15  0.250  0.500  0.550-  50 2.10  41 2.10  49 2.10  66 2.10  43 2.11  47 2.12
  16  0.500  0.750  0.550-  50 2.10  49 2.10  65 2.10  42 2.10  44 2.11  48 2.14
  17  0.250  0.750  0.647-  49 2.09  64 2.10  47 2.10  39 2.10  48 2.10
  18  0.500  0.500  0.649-  40 2.10  48 2.10  47 2.11  63 2.11  50 2.11
  19  0.750  0.000  0.352-  38 2.10  53 2.10  54 2.10  61 2.10  51 2.10
  20  0.000  0.250  0.352-  37 2.10  53 2.10  54 2.10  62 2.10  52 2.10
  21  0.750  0.250  0.451-  36 2.10  51 2.10  52 2.10  59 2.10  53 2.10  57 2.10
  22  0.000  0.000  0.451-  35 2.10  51 2.10  52 2.10  60 2.10  54 2.10  58 2.10
  23  0.750  0.000  0.550-  57 2.10  65 2.10  42 2.10  58 2.10  51 2.11  55 2.13
  24  1.000  0.250  0.550-  66 2.10  58 2.10  57 2.10  41 2.10  52 2.11  56 2.13
  25  0.750  0.250  0.647-  57 2.09  56 2.10  63 2.10  55 2.10  40 2.10
  26  0.000  0.000  0.647-  58 2.09  56 2.10  64 2.10  55 2.10  39 2.10
  27  0.750  0.500  0.352-  46 2.10  53 2.10  61 2.10  62 2.10  59 2.10
  28  0.000  0.750  0.352-  45 2.10  54 2.10  61 2.10  62 2.10  60 2.10
  29  0.750  0.750  0.451-  44 2.10  51 2.10  59 2.10  60 2.10  61 2.10  65 2.10
  30  0.000  0.500  0.451-  66 2.10  52 2.10  59 2.10  60 2.10  43 2.10  62 2.10
  31  0.750  0.500  0.550-  50 2.10  65 2.10  57 2.10  66 2.10  59 2.11  63 2.12
  32  0.000  0.750  0.550-  66 2.10  58 2.10  49 2.10  65 2.10  60 2.11  64 2.13
  33  0.750  0.750  0.647-  65 2.09  64 2.10  63 2.10  55 2.10  48 2.10
  34  0.000  0.500  0.647-  66 2.09  47 2.09  63 2.09  56 2.10  64 2.10
  35  0.250  0.000  0.451-   5 2.10   6 2.10  13 2.10  22 2.10   3 2.10   7 2.11
  36  0.500  0.250  0.451-   5 2.10   6 2.10  14 2.10  21 2.10   4 2.10   8 2.11
  37  0.250  0.250  0.352-   3 2.10   4 2.10  11 2.10  20 2.10   5 2.10
  38  0.500  0.000  0.352-   3 2.10   4 2.10  12 2.10  19 2.10   6 2.10
  39  0.250  1.000  0.650-  26 2.10  10 2.10   9 2.10  17 2.10   7 2.13
  40  0.500  0.250  0.650-  10 2.10  18 2.10   9 2.10  25 2.10   8 2.14
  41  0.250  0.250  0.549-   9 2.09   7 2.10   8 2.10  24 2.10   5 2.10  15 2.10
  42  0.500  1.000  0.550-  10 2.09  23 2.10   7 2.10  16 2.10   8 2.10   6 2.11
  43  0.250  0.500  0.451-   5 2.10  13 2.10  14 2.10  30 2.10  11 2.10  15 2.11
  44  0.500  0.750  0.451-   6 2.10  13 2.10  14 2.10  29 2.10  12 2.10  16 2.11
  45  0.250  0.750  0.352-   3 2.10  11 2.10  12 2.10  28 2.10  13 2.10
  46  0.500  0.500  0.352-   4 2.10  11 2.10  12 2.10  27 2.10  14 2.10
  47  0.249  0.500  0.649-  34 2.09   9 2.10  17 2.10  18 2.11  15 2.12
  48  0.500  0.750  0.650-  10 2.10  18 2.10  33 2.10  17 2.10  16 2.14
  49  0.250  0.750  0.549-  17 2.09   7 2.10  16 2.10  32 2.10  15 2.10  13 2.10
  50  0.500  0.500  0.550-  16 2.10   8 2.10  31 2.10  15 2.10  14 2.11  18 2.11
  51  0.750  0.000  0.451-   6 2.10  21 2.10  22 2.10  29 2.10  19 2.10  23 2.11
  52  0.000  0.250  0.451-   5 2.10  21 2.10  22 2.10  30 2.10  20 2.10  24 2.11
  53  0.750  0.250  0.352-   4 2.10  19 2.10  20 2.10  27 2.10  21 2.10
  54  0.000  0.000  0.352-   3 2.10  19 2.10  20 2.10  28 2.10  22 2.10
  55  0.750  0.000  0.650-  26 2.10  10 2.10  33 2.10  25 2.10  23 2.13
  56  1.000  0.250  0.649-   9 2.10  25 2.10  26 2.10  34 2.10  24 2.13
  57  0.750  0.250  0.549-  25 2.09  23 2.10   8 2.10  24 2.10  31 2.10  21 2.10
  58  1.000  0.000  0.549-  26 2.09  24 2.10  32 2.10  23 2.10   7 2.10  22 2.10
  59  0.750  0.500  0.451-  14 2.10  21 2.10  29 2.10  30 2.10  27 2.10  31 2.11
  60  0.000  0.750  0.451-  13 2.10  22 2.10  29 2.10  30 2.10  28 2.10  32 2.11
  61  0.750  0.750  0.352-  12 2.10  19 2.10  27 2.10  28 2.10  29 2.10
  62  0.000  0.500  0.352-  11 2.10  20 2.10  27 2.10  28 2.10  30 2.10
  63  0.751  0.500  0.649-  34 2.09  33 2.10  25 2.10  18 2.11  31 2.12
  64  0.000  0.750  0.649-  33 2.10  17 2.10  26 2.10  34 2.10  32 2.13
  65  0.750  0.750  0.549-  33 2.09  23 2.10  16 2.10  32 2.10  29 2.10  31 2.10
  66  0.000  0.500  0.549-  34 2.09  30 2.10  24 2.10  32 2.10  15 2.10  31 2.10

IMPORTANT INFORMATION: All symmetrisations will be switched off!
NOSYMM: (Re-)initialisation of all symmetry stuff for point group C_1.

                                     Primitive cell

  volume of cell :    1504.9259

  direct lattice vectors                    reciprocal lattice vectors
     8.404861995  0.000000000  0.000000000     0.118978753  0.000000000  0.000000000
     0.000000000  8.404861995  0.000000000     0.000000000  0.118978753  0.000000000
     0.000000000  0.000000000 21.303646496     0.000000000  0.000000000  0.046940321

  length of vectors
     8.404861995  8.404861995 21.303646496     0.118978753  0.118978753  0.046940321

  position of ions in fractional coordinates (direct lattice)
     0.500001178  0.499999541  0.768829057
     0.499997036  0.499999243  0.823118513
     0.250000000  0.000000000  0.352052406
     0.500000000  0.250000000  0.352052406
     0.250000000  0.250000000  0.450684135
     0.500000000  0.000000000  0.450684135
     0.250071353  0.999978178  0.549683878
     0.499982176  0.250317883  0.549726593
     0.249663013  0.250218391  0.647310424
     0.499999984  0.000000044  0.647535654
     0.250000000  0.500000000  0.352052406
     0.500000000  0.750000000  0.352052406
     0.250000000  0.750000000  0.450684135
     0.500000000  0.500000000  0.450684135
     0.250214635  0.499980015  0.549708443
     0.500017831  0.749682123  0.549726652
     0.249735853  0.749708600  0.647335285
     0.499999969  0.499999951  0.648709534
     0.750000000  0.000000000  0.352052406
     0.000000000  0.250000000  0.352052406
     0.750000000  0.250000000  0.450684135
     0.000000000  0.000000000  0.450684135
     0.749928696  0.000021744  0.549683855
     0.999977217  0.250040512  0.549588086
     0.750264205  0.250291371  0.647335198
     0.000000035  0.000000047  0.647437222
     0.750000000  0.500000000  0.352052406
     0.000000000  0.750000000  0.352052406
     0.750000000  0.750000000  0.450684135
     0.000000000  0.500000000  0.450684135
     0.749785400  0.500019981  0.549708491
     0.000022842  0.749959465  0.549588083
     0.750337019  0.749781584  0.647310545
     0.000000036  0.499999912  0.647169128
     0.250000000  0.000000000  0.450684135
     0.500000000  0.250000000  0.450684135
     0.250000000  0.250000000  0.352052406
     0.500000000  0.000000000  0.352052406
     0.249995122  0.999980838  0.649618063
     0.499958362  0.249821233  0.649983640
     0.250129842  0.249803216  0.549385356
     0.500000042  0.999999977  0.549522644
     0.250000000  0.500000000  0.450684135
     0.500000000  0.750000000  0.450684135
     0.250000000  0.750000000  0.352052406
     0.500000000  0.500000000  0.352052406
     0.249099928  0.499957281  0.649000475
     0.500041571  0.750178799  0.649983821
     0.250165886  0.750160877  0.549390039
     0.500000019  0.500000014  0.549606681
     0.750000000  0.000000000  0.450684135
     0.000000000  0.250000000  0.450684135
     0.750000000  0.250000000  0.352052406
     0.000000000  0.000000000  0.352052406
     0.750004956  0.000019191  0.649618189
     0.999980453  0.249828682  0.649461019
     0.749834202  0.249839063  0.549390049
     0.999999983  0.000000031  0.549391359
     0.750000000  0.500000000  0.450684135
     0.000000000  0.750000000  0.450684135
     0.750000000  0.750000000  0.352052406
     0.000000000  0.500000000  0.352052406
     0.750900117  0.500042635  0.649000462
     0.000019642  0.750171339  0.649460997
     0.749870118  0.750196800  0.549385399
     0.000000028  0.499999958  0.549193796

  ion indices of the primitive-cell ions
   primitive index   ion index
                 1           1
                 2           2
                 3           3
                 4           4
                 5           5
                 6           6
                 7           7
                 8           8
                 9           9
                10          10
                11          11
                12          12
                13          13
                14          14
                15          15
                16          16
                17          17
                18          18
                19          19
                20          20
[...]
   0.74983420  0.24983906  0.54939005
   0.99999998  0.00000003  0.54939136
   0.75000000  0.50000000  0.45068414
   0.00000000  0.75000000  0.45068414
   0.75000000  0.75000000  0.35205241
   0.00000000  0.50000000  0.35205241
   0.75090012  0.50004263  0.64900046
   0.00001964  0.75017134  0.64946100
   0.74987012  0.75019680  0.54938540
   0.00000003  0.49999996  0.54919380

 position of ions in cartesian coordinates  (Angst):
   4.20244090  4.20242714 16.37886245
   4.20240608  4.20242463 17.53542583
   2.10121550  0.00000000  7.50000000
   4.20243100  2.10121550  7.50000000
   2.10121550  2.10121550  9.60121550
   4.20243100  0.00000000  9.60121550
   2.10181521  8.40467859 11.71027102
   4.20228119  2.10388726 11.71118100
   2.09838317  2.10305105 13.79007245
   4.20243086  0.00000037 13.79487066
   2.10121550  4.20243100  7.50000000
   4.20243100  6.30364650  7.50000000
   2.10121550  6.30364650  9.60121550
   4.20243100  4.20243100  9.60121550
   2.10301948  4.20226303 11.71079435
   4.20258087  6.30097479 11.71118227
   2.09899538  6.30119732 13.79060207
   4.20243074  4.20243059 13.81987858
   6.30364650  0.00000000  7.50000000
   0.00000000  2.10121550  7.50000000
   6.30364650  2.10121550  9.60121550
   0.00000000  0.00000000  9.60121550
   6.30304719  0.00018276 11.71027052
   8.40467051  2.10155600 11.70823030
   6.30586710  2.10366443 13.79060022
   0.00000029  0.00000040 13.79277370
   6.30364650  4.20243100  7.50000000
   0.00000000  6.30364650  7.50000000
   6.30364650  6.30364650  9.60121550
   0.00000000  4.20243100  9.60121550
   6.30184281  4.20259894 11.71079536
   0.00019198  6.30330581 11.70823023
   6.30647910  6.30181074 13.79007502
   0.00000030  4.20243026 13.78706234
   2.10121550  0.00000000  9.60121550
   4.20243100  2.10121550  9.60121550
   2.10121550  2.10121550  7.50000000
   4.20243100  0.00000000  7.50000000
   2.10117450  8.40470094 13.83923358
   4.20208104  2.09971299 13.84702170
   2.10230681  2.09956156 11.70391141
   4.20243135  8.40486180 11.70683614
   2.10121550  4.20243100  9.60121550
   4.20243100  6.30364650  9.60121550
   2.10121550  6.30364650  7.50000000
   4.20243100  4.20243100  7.50000000
   2.09365052  4.20207195 13.82607670
   4.20278039  6.30514927 13.84702554
   2.10260975  6.30499864 11.70401118
   4.20243116  4.20243111 11.70862643
   6.30364650  0.00000000  9.60121550
   0.00000000  2.10121550  9.60121550
   6.30364650  2.10121550  7.50000000
   0.00000000  0.00000000  7.50000000
   6.30368815  0.00016130 13.83923625
   8.40469770  2.09977559 13.83588796
   6.30225298  2.09986285 11.70401140
   8.40486185  0.00000026 11.70403931
   6.30364650  4.20243100  9.60121550
   0.00000000  6.30364650  9.60121550
   6.30364650  6.30364650  7.50000000
   0.00000000  4.20243100  7.50000000
   6.31121186  4.20278934 13.82607643
   0.00016509  6.30508658 13.83588748
   6.30255485  6.30530057 11.70391232
   0.00000023  4.20243064 11.69983048

--------------------------------------- Iteration      FINAL  ---------------------------------------

--------------------OUTCAR has been truncated-------------------------

[...]

--------------------OUTCAR has been truncated-------------------------

  DFT-D2 method for vdW energy calculation

  Parameters of vdW forcefield:
         C6(Jnm^6/mol)     R0(A)
   N        1.230          1.397
   O        0.700          1.342
   Mg       0.630          1.243
   O        0.700          1.342

  vdW correction parametrized for the method        ü!$

  IVDW =   1
  VDW_RADIUS =    50.000 A
  VDW_S6 =     1.050
  VDW_SR =     1.000
  VDW_D =    20.000
  LVDW_EWALD = F

  Number of pair interactions contributing to vdW energy:  776542
  Edisp (eV):   -5.26612

 VOLUME and BASIS-vectors are now :
  energy-cutoff  :      600.00
  volume of cell :     1504.93
      direct lattice vectors                 reciprocal lattice vectors
     8.404861995  0.000000000  0.000000000     0.118978753  0.000000000  0.000000000
     0.000000000  8.404861995  0.000000000     0.000000000  0.118978753  0.000000000
     0.000000000  0.000000000 21.303646496     0.000000000  0.000000000  0.046940321

  length of vectors
     8.404861995  8.404861995 21.303646496     0.118978753  0.118978753  0.046940321

 FORCES acting on ions:
    Electron-Ion                     Ewald-Force                    Non-Local-Force
   -.829E-02 -.504E-03 -.105E+04   0.968E-02 0.596E-03 0.101E+04   -.127E-02 -.959E-04 0.406E+02
   0.770E-02 0.593E-03 -.148E+04   -.962E-02 -.732E-03 0.155E+04   0.168E-02 0.101E-03 -.557E+02
   0.120E+00 0.516E-03 0.210E+04   -.120E+00 -.576E-03 -.210E+04   -.170E-03 0.432E-04 -.641E+01
   -.787E-03 0.266E+00 0.210E+04   0.744E-03 -.264E+00 -.210E+04   0.319E-04 -.132E-02 -.641E+01
   0.540E+00 0.998E+00 0.728E+03   -.529E+00 -.100E+01 -.728E+03   -.741E-02 0.171E-02 0.364E+00
   -.707E-05 0.775E-04 0.727E+03   0.103E-04 -.902E-04 -.727E+03   -.382E-05 0.133E-04 0.404E+00
   0.276E+01 0.262E-01 -.646E+03   -.274E+01 -.258E-01 0.646E+03   -.205E-01 0.643E-04 -.186E+00
   -.242E-01 0.619E+01 -.639E+03   0.269E-01 -.609E+01 0.639E+03   -.167E-02 -.887E-01 -.595E-01
   0.192E+02 0.215E+02 -.200E+04   -.194E+02 -.214E+02 0.200E+04   0.119E+00 -.750E-01 0.557E+01
   -.282E-03 0.167E-03 -.201E+04   0.283E-03 -.167E-03 0.201E+04   0.377E-05 -.157E-05 0.552E+01
   0.135E+00 -.803E-03 0.210E+04   -.134E+00 0.760E-03 -.210E+04   -.770E-03 0.263E-04 -.642E+01
   0.765E-03 -.266E+00 0.210E+04   -.717E-03 0.264E+00 -.210E+04   -.372E-04 0.131E-02 -.641E+01
   0.541E+00 -.998E+00 0.728E+03   -.527E+00 0.998E+00 -.728E+03   -.863E-02 -.481E-03 0.365E+00
   -.912E-04 -.907E-04 0.729E+03   0.969E-04 0.103E-03 -.729E+03   -.172E-05 -.985E-05 0.401E+00
   0.455E+01 -.291E-01 -.635E+03   -.450E+01 0.315E-01 0.636E+03   -.450E-01 -.125E-02 -.473E+00
   0.239E-01 -.619E+01 -.639E+03   -.266E-01 0.609E+01 0.639E+03   0.167E-02 0.887E-01 -.595E-01
   0.193E+02 -.215E+02 -.200E+04   -.194E+02 0.214E+02 0.200E+04   0.121E+00 0.730E-01 0.557E+01
   -.162E-03 -.342E-03 -.193E+04   0.140E-03 0.331E-03 0.192E+04   0.235E-04 0.113E-04 0.515E+01
   -.120E+00 -.482E-03 0.210E+04   0.120E+00 0.540E-03 -.210E+04   0.186E-03 -.442E-04 -.641E+01
   0.517E-03 0.251E+00 0.210E+04   -.576E-03 -.250E+00 -.210E+04   0.452E-04 -.638E-03 -.641E+01
   -.541E+00 0.998E+00 0.728E+03   0.527E+00 -.998E+00 -.728E+03   0.862E-02 0.480E-03 0.365E+00
   0.737E-05 0.809E-04 0.726E+03   -.289E-05 -.800E-04 -.727E+03   -.687E-05 0.464E-05 0.362E+00
   -.276E+01 -.259E-01 -.646E+03   0.274E+01 0.255E-01 0.646E+03   0.205E-01 -.485E-04 -.186E+00
   0.253E-01 0.392E+01 -.644E+03   -.251E-01 -.391E+01 0.645E+03   0.231E-03 -.912E-02 -.179E+00
   -.193E+02 0.215E+02 -.200E+04   0.194E+02 -.214E+02 0.200E+04   -.121E+00 -.730E-01 0.557E+01
   0.801E-04 0.270E-03 -.203E+04   -.965E-04 -.273E-03 0.202E+04   0.102E-04 -.585E-05 0.553E+01
   -.135E+00 0.770E-03 0.210E+04   0.134E+00 -.723E-03 -.210E+04   0.777E-03 -.279E-04 -.642E+01
   -.483E-03 -.251E+00 0.210E+04   0.549E-03 0.250E+00 -.210E+04   -.522E-04 0.637E-03 -.641E+01
   -.540E+00 -.998E+00 0.728E+03   0.529E+00 0.100E+01 -.728E+03   0.742E-02 -.171E-02 0.364E+00
   0.102E-03 -.844E-04 0.729E+03   -.104E-03 0.818E-04 -.729E+03   -.387E-06 -.492E-05 0.271E+00
   -.455E+01 0.287E-01 -.635E+03   0.450E+01 -.311E-01 0.636E+03   0.450E-01 0.125E-02 -.473E+00
   -.250E-01 -.392E+01 -.644E+03   0.248E-01 0.391E+01 0.645E+03   -.238E-03 0.912E-02 -.179E+00
   -.192E+02 -.215E+02 -.200E+04   0.194E+02 0.214E+02 0.200E+04   -.119E+00 0.750E-01 0.557E+01
   0.129E-03 -.439E-03 -.201E+04   -.130E-03 0.428E-03 0.201E+04   0.327E-05 0.166E-04 0.556E+01
   0.319E+00 0.163E-02 0.545E+03   -.324E+00 -.180E-03 -.544E+03   0.631E-02 -.172E-02 -.794E-01
   -.644E-02 0.912E+00 0.546E+03   0.748E-02 -.919E+00 -.546E+03   -.122E-02 0.716E-02 -.782E-01
   0.969E-01 0.192E+00 0.158E+04   -.960E-01 -.191E+00 -.158E+04   -.108E-02 -.148E-02 0.312E+01
   -.150E-05 0.750E-05 0.158E+04   0.593E-05 -.149E-04 -.158E+04   -.113E-05 0.250E-05 0.312E+01
   0.802E+01 0.505E-01 -.154E+04   -.801E+01 -.563E-01 0.154E+04   -.851E-02 0.537E-02 -.456E+01
   -.463E-02 0.279E+02 -.151E+04   0.660E-03 -.278E+02 0.151E+04   0.501E-02 -.414E-01 -.448E+01
   0.281E+01 0.363E+01 -.475E+03   -.283E+01 -.359E+01 0.474E+03   0.197E-01 -.295E-01 0.315E+00
   -.962E-04 0.101E-03 -.478E+03   0.962E-04 -.994E-04 0.477E+03   -.282E-05 -.411E-05 0.314E+00
   0.413E+00 -.700E-02 0.546E+03   -.435E+00 0.811E-02 -.546E+03   0.269E-01 -.129E-02 -.914E-01
   0.634E-02 -.912E+00 0.546E+03   -.739E-02 0.919E+00 -.546E+03   0.122E-02 -.716E-02 -.782E-01
   0.967E-01 -.192E+00 0.158E+04   -.959E-01 0.191E+00 -.158E+04   -.982E-03 0.139E-02 0.312E+01
   -.118E-04 -.137E-04 0.158E+04   0.140E-04 0.153E-04 -.158E+04   -.882E-06 -.117E-05 0.312E+01
   0.255E+02 -.768E-02 -.150E+04   -.253E+02 0.387E-02 0.151E+04   -.218E+00 0.496E-02 -.467E+01
   0.424E-02 -.279E+02 -.151E+04   -.252E-03 0.278E+02 0.151E+04   -.502E-02 0.414E-01 -.448E+01
   0.279E+01 -.361E+01 -.475E+03   -.281E+01 0.357E+01 0.475E+03   0.139E-01 0.355E-01 0.310E+00
   -.967E-04 -.166E-03 -.471E+03   0.102E-03 0.167E-03 0.471E+03   -.483E-05 -.995E-07 -.151E-01
   -.319E+00 -.153E-02 0.545E+03   0.324E+00 0.822E-04 -.544E+03   -.630E-02 0.172E-02 -.794E-01
   0.149E-02 0.789E+00 0.545E+03   -.170E-04 -.776E+00 -.545E+03   -.175E-02 -.165E-01 -.568E-01
   -.967E-01 0.192E+00 0.158E+04   0.959E-01 -.191E+00 -.158E+04   0.980E-03 -.138E-02 0.312E+01
   0.745E-05 0.129E-04 0.158E+04   -.573E-05 -.126E-04 -.158E+04   0.915E-06 -.623E-06 0.312E+01
   -.802E+01 -.502E-01 -.154E+04   0.801E+01 0.560E-01 0.154E+04   0.851E-02 -.536E-02 -.456E+01
   0.506E-01 0.853E+01 -.154E+04   -.563E-01 -.848E+01 0.154E+04   0.528E-02 -.418E-01 -.456E+01
   -.279E+01 0.361E+01 -.475E+03   0.281E+01 -.357E+01 0.475E+03   -.139E-01 -.355E-01 0.310E+00
   0.194E-04 0.221E-03 -.481E+03   -.194E-04 -.224E-03 0.480E+03   -.792E-07 -.330E-05 0.275E+00
   -.413E+00 0.688E-02 0.546E+03   0.435E+00 -.798E-02 -.546E+03   -.269E-01 0.128E-02 -.914E-01
   -.139E-02 -.789E+00 0.545E+03   -.856E-04 0.776E+00 -.545E+03   0.175E-02 0.165E-01 -.568E-01
   -.969E-01 -.192E+00 0.158E+04   0.960E-01 0.191E+00 -.158E+04   0.108E-02 0.148E-02 0.312E+01
   0.163E-04 -.134E-04 0.158E+04   -.141E-04 0.127E-04 -.158E+04   -.410E-06 -.952E-06 0.312E+01
   -.255E+02 0.729E-02 -.150E+04   0.253E+02 -.347E-02 0.151E+04   0.218E+00 -.496E-02 -.467E+01
   -.503E-01 -.853E+01 -.154E+04   0.561E-01 0.848E+01 0.154E+04   -.527E-02 0.418E-01 -.456E+01
   -.281E+01 -.363E+01 -.475E+03   0.283E+01 0.359E+01 0.474E+03   -.197E-01 0.295E-01 0.315E+00
   0.108E-03 -.226E-03 -.474E+03   -.109E-03 0.230E-03 0.473E+03   0.640E-06 0.245E-05 0.264E+00
   -.555E-03 -.835E-04 0.373E+02   -.252E-12 -.291E-12 -.688E-11   0.434E-03 0.392E-04 -.313E+02

 POSITION                                       TOTAL-FORCE (eV/Angst)
      4.20244      4.20243     16.37886         0.000006     -0.000012      0.007007
      4.20241      4.20242     17.53543        -0.000019     -0.000024      0.014322
      2.10122      0.00000      7.50000         0.000016     -0.000012      0.405724
      4.20243      2.10122      7.50000        -0.000007      0.000517      0.405694
      2.10122      2.10122      9.60122         0.002816     -0.000194      0.022333
      4.20243      0.00000      9.60122        -0.000000      0.000002      0.030252
      2.10182      8.40468     11.71027         0.000030      0.000411      0.002813
      4.20228      2.10389     11.71118         0.000857      0.000740      0.010248
      2.09838      2.10305     13.79007        -0.001854     -0.002461      0.009684
      4.20243      0.00000     13.79487         0.000005     -0.000001      0.007663
      2.10122      4.20243      7.50000         0.000264     -0.000013      0.406602
      4.20243      6.30365      7.50000         0.000007     -0.000517      0.405688
      2.10122      6.30365      9.60122         0.003572     -0.000567      0.022452
      4.20243      4.20243      9.60122         0.000004      0.000002      0.031121
      2.10302      4.20226     11.71079         0.000346      0.000990      0.008934
      4.20258      6.30097     11.71118        -0.000853     -0.000740      0.010246
      2.09900      6.30120     13.79060        -0.004485      0.005013      0.008089
      4.20243      4.20243     13.81988         0.000004      0.000002      0.018270
      6.30365      0.00000      7.50000        -0.000011      0.000009      0.405735
      0.00000      2.10122      7.50000        -0.000009      0.000271      0.405344
      6.30365      2.10122      9.60122        -0.003566      0.000569      0.022447
      0.00000      0.00000      9.60122        -0.000003      0.000005      0.021946
      6.30305      0.00018     11.71027        -0.000026     -0.000413      0.002827
      8.40467      2.10156     11.70823         0.000444     -0.000897      0.004937
      6.30587      2.10366     13.79060         0.004479     -0.005013      0.008094
      0.00000      0.00000     13.79277        -0.000005     -0.000008      0.009649
      6.30365      4.20243      7.50000        -0.000259      0.000016      0.406605
      0.00000      6.30365      7.50000         0.000008     -0.000269      0.405307
      6.30365      6.30365      9.60122        -0.002819      0.000193      0.022338
      0.00000      4.20243      9.60122        -0.000002     -0.000007      0.024634
      6.30184      4.20260     11.71080        -0.000348     -0.000980      0.008927
      0.00019      6.30331     11.70823        -0.000450      0.000896      0.004949
      6.30648      6.30181     13.79008         0.001856      0.002468      0.009666
      0.00000      4.20243     13.78706         0.000002      0.000009      0.009753
      2.10122      0.00000      9.60122         0.002293     -0.000521      0.035158
      4.20243      2.10122      9.60122        -0.000348      0.000928      0.040682
      2.10122      2.10122      7.50000        -0.000378     -0.000498     -0.494385
      4.20243      0.00000      7.50000         0.000003     -0.000004     -0.493874
      2.10117      8.40470     13.83923        -0.000168      0.000248      0.007826
      4.20208      2.09971     13.84702         0.001731     -0.000990      0.009575
      2.10231      2.09956     11.70391        -0.001065     -0.000789     -0.000557
      4.20243      8.40486     11.70684        -0.000003     -0.000002     -0.001073
      2.10122      4.20243      9.60122         0.009024     -0.000357      0.034249
      4.20243      6.30365      9.60122         0.000352     -0.000926      0.040687
      2.10122      6.30365      7.50000        -0.000346      0.000467     -0.494388
      4.20243      4.20243      7.50000         0.000001      0.000001     -0.494991
      2.09365      4.20207     13.82608        -0.002345      0.001858      0.006048
      4.20278      6.30515     13.84703        -0.001728      0.000987      0.009552
      2.10261      6.30500     11.70401        -0.002426      0.002092     -0.000028
      4.20243      4.20243     11.70863         0.000000      0.000001      0.002918
      6.30365      0.00000      9.60122        -0.002295      0.000521      0.035158
      0.00000      2.10122      9.60122        -0.000525     -0.006162      0.032623
      6.30365      2.10122      7.50000         0.000343     -0.000463     -0.494382
      0.00000      0.00000      7.50000         0.000003      0.000000     -0.493967
      6.30369      0.00016     13.83924         0.000163     -0.000253      0.007808
      8.40470      2.09978     13.83589         0.000220     -0.002436      0.012852
      6.30225      2.09986     11.70401         0.002421     -0.002090     -0.000039
      8.40486      0.00000     11.70404         0.000000     -0.000006     -0.000942
      6.30365      4.20243      9.60122        -0.009026      0.000357      0.034249
      0.00000      6.30365      9.60122         0.000524      0.006166      0.032627
      6.30365      6.30365      7.50000         0.000375      0.000498     -0.494386
      0.00000      4.20243      7.50000         0.000002     -0.000001     -0.494784
      6.31121      4.20279     13.82608         0.002344     -0.001843      0.006047
      0.00017      6.30509     13.83589        -0.000219      0.002435      0.012853
      6.30255      6.30530     11.70391         0.001073      0.000789     -0.000554
      0.00000      4.20243     11.69983        -0.000000      0.000008     -0.002860
    total drift:                               -0.000010     -0.000037      0.014513

  FREE ENERGIE OF THE ION-ELECTRON SYSTEM (eV)
  free  energy   TOTEN  =      -454.76297575 eV

  energy  without entropy=     -454.76297575  energy(sigma->0) =     -454.76297575