 vasp.6.3.0 20Jan22 (build Aug 21 2024 11:13:42) complex
 executed on        HPECrayEX_GCC date 2024.08.27  13:49:34

 INCAR:
   SYSTEM = MgO-rocksalt
   ISMEAR = 0
   SIGMA = 0.05
   EDIFF = 1E-6
   ALGO = ALL
   ISTART = 0
   IBRION = -1
   NSW = 0
   ISYM = 0
   DIPOL = 0.5 0.5 0.5
   IDIPOL = 3
   LDIPOL = .TRUE.
   GGA = PE
   IVDW = 1
   VDW_C6 = 1.75 0.14 0.63 0.70
   VDW_R0 = 1.452 1.001 1.243 1.342
   ENCUT = 600
   PREC = Accurate
   LASPH = .TRUE.
   LREAL = .FALSE.
   ISPIN = 1
   NELM = 200
   NELMIN = 8
   NCORE = 8
   KPAR = 1
   LWAVE = .FALSE.
   LCHARG = .FALSE.

 POTCAR:    PAW_PBE C 08Apr2002
 POTCAR:    PAW_PBE H 15Jun2001
 POTCAR:    PAW_PBE Mg_pv 13Apr2007
 POTCAR:    PAW_PBE O 08Apr2002
 POTCAR:    PAW_PBE C 08Apr2002
   VRHFIN =C: s2p2

   TITEL  = PAW_PBE C 08Apr2002
   POMASS =   12.011; ZVAL   =    4.000    mass and valenz
   ENMAX  =  400.000; ENMIN  =  300.000 eV

   TITEL  = PAW_PBE H 15Jun2001
   POMASS =    1.000; ZVAL   =    1.000    mass and valenz
   ENMAX  =  250.000; ENMIN  =  200.000 eV

   TITEL  = PAW_PBE Mg_pv 13Apr2007
   POMASS =   24.305; ZVAL   =    8.000    mass and valenz
   ENMAX  =  403.929; ENMIN  =  302.947 eV

   TITEL  = PAW_PBE O 08Apr2002
   POMASS =   16.000; ZVAL   =    6.000    mass and valenz
   ENMAX  =  400.000; ENMIN  =  300.000 eV

  PAW_PBE C 08Apr2002                   :
  PAW_PBE H 15Jun2001                   :
  PAW_PBE Mg_pv 13Apr2007               :
  PAW_PBE O 08Apr2002                   :

 POSCAR:  C  H Mg  O
  positions in direct lattice
 exchange correlation table for  LEXCH =        8
   RHO(1)=    0.500       N(1)  =     2000
   RHO(2)=  100.500       N(2)  =     4000

 ion  position               nearest neighbor table
   1  0.500  0.500  0.791-   6 1.09   5 1.09   7 1.09   8 1.09
   2  0.000  0.500  0.791-  10 1.09   9 1.09  11 1.09  12 1.09
   3  0.500  1.000  0.791-  14 1.09  13 1.09  15 1.09  16 1.09
   4  0.000  1.000  0.791-  18 1.09  17 1.09  19 1.09  20 1.09
   5  0.500  0.606  0.820-   1 1.09
   6  0.500  0.394  0.820-   1 1.09
   7  0.607  0.500  0.762-   1 1.09
   8  0.393  0.500  0.762-   1 1.09
   9  0.894  0.500  0.820-   2 1.09
  10  0.106  0.500  0.820-   2 1.09
  11  1.000  0.607  0.762-   2 1.09
  12  1.000  0.393  0.762-   2 1.09
  13  0.394  1.000  0.820-   3 1.09
  14  0.606  1.000  0.820-   3 1.09
  15  0.500  0.107  0.762-   3 1.09
  16  0.500  0.893  0.762-   3 1.09
  17  1.000  0.106  0.820-   4 1.09
  18  1.000  0.894  0.820-   4 1.09
  19  0.107  0.000  0.762-   4 1.09
  20  0.893  0.000  0.762-   4 1.09
  21  0.250  0.000  0.352-  55 2.10  56 2.10  63 2.10  72 2.10  53 2.10
  22  0.500  0.250  0.352-  55 2.10  56 2.10  64 2.10  71 2.10  54 2.10
  23  0.250  0.250  0.451-  53 2.10  54 2.10  61 2.10  70 2.10  55 2.10  59 2.10
  24  0.500  0.000  0.451-  53 2.10  54 2.10  62 2.10  69 2.10  56 2.10  60 2.11
  25  0.250  1.000  0.550-  76 2.10  60 2.10  67 2.10  59 2.10  53 2.11  57 2.13
  26  0.500  0.250  0.550-  75 2.10  59 2.10  68 2.10  60 2.10  54 2.11  58 2.13
  27  0.250  0.250  0.647-  59 2.08  57 2.10  74 2.10  58 2.10  65 2.10
  28  0.500  1.000  0.648-  60 2.10  66 2.10  58 2.10  57 2.10  73 2.10
  29  0.250  0.500  0.352-  55 2.10  63 2.10  64 2.10  80 2.10  61 2.10
  30  0.500  0.750  0.352-  56 2.10  63 2.10  64 2.10  79 2.10  62 2.10
  31  0.250  0.750  0.451-  53 2.10  61 2.10  62 2.10  78 2.10  63 2.10  67 2.10
  32  0.500  0.500  0.451-  54 2.10  61 2.10  62 2.10  77 2.10  64 2.10  68 2.11
  33  0.250  0.500  0.550-  67 2.10  59 2.10  84 2.10  68 2.10  61 2.11  65 2.13
  34  0.500  0.750  0.550-  67 2.10  83 2.10  68 2.10  60 2.10  62 2.11  66 2.13
  35  0.250  0.750  0.647-  67 2.08  57 2.10  82 2.10  66 2.10  65 2.10
  36  0.500  0.500  0.648-  68 2.10  81 2.10  65 2.10  66 2.10  58 2.10
  37  0.750  0.000  0.352-  56 2.10  71 2.10  72 2.10  79 2.10  69 2.10
  38  0.000  0.250  0.352-  55 2.10  71 2.10  72 2.10  80 2.10  70 2.10
  39  0.750  0.250  0.451-  54 2.10  69 2.10  70 2.10  77 2.10  71 2.10  75 2.10
  40  0.000  0.000  0.451-  53 2.10  69 2.10  70 2.10  78 2.10  72 2.10  76 2.11
  41  0.750  1.000  0.550-  76 2.10  60 2.10  75 2.10  83 2.10  69 2.11  73 2.13
  42  0.000  0.250  0.550-  84 2.10  59 2.10  75 2.10  76 2.10  70 2.11  74 2.13
  43  0.750  0.250  0.647-  75 2.08  73 2.10  74 2.10  58 2.10  81 2.10
  44  0.000  1.000  0.648-  76 2.10  57 2.10  73 2.10  74 2.10  82 2.10
  45  0.750  0.500  0.352-  64 2.10  71 2.10  79 2.10  80 2.10  77 2.10
  46  0.000  0.750  0.352-  63 2.10  72 2.10  79 2.10  80 2.10  78 2.10
  47  0.750  0.750  0.451-  62 2.10  69 2.10  77 2.10  78 2.10  79 2.10  83 2.10
  48  0.000  0.500  0.451-  61 2.10  70 2.10  77 2.10  78 2.10  80 2.10  84 2.11
  49  0.750  0.500  0.550-  75 2.10  83 2.10  84 2.10  68 2.10  77 2.11  81 2.13
  50  0.000  0.750  0.550-  84 2.10  67 2.10  83 2.10  76 2.10  78 2.11  82 2.13
  51  0.750  0.750  0.647-  83 2.08  73 2.10  82 2.10  66 2.10  81 2.10
  52  0.000  0.500  0.648-  84 2.10  74 2.10  82 2.10  81 2.10  65 2.10
  53  0.250  0.000  0.451-  23 2.10  24 2.10  31 2.10  40 2.10  21 2.10  25 2.11
  54  0.500  0.250  0.451-  23 2.10  24 2.10  32 2.10  39 2.10  22 2.10  26 2.11
  55  0.250  0.250  0.352-  21 2.10  22 2.10  29 2.10  38 2.10  23 2.10
  56  0.500  0.000  0.352-  21 2.10  22 2.10  30 2.10  37 2.10  24 2.10
  57  0.250  1.000  0.650-  44 2.10  35 2.10  27 2.10  28 2.10  25 2.13
  58  0.500  0.250  0.650-  28 2.10  27 2.10  43 2.10  36 2.10  26 2.13
  59  0.250  0.250  0.549-  27 2.08  26 2.10  33 2.10  25 2.10  42 2.10  23 2.10
  60  0.500  1.000  0.550-  28 2.10  41 2.10  25 2.10  26 2.10  34 2.10  24 2.11
[...]
  70  0.000  0.250  0.451-  23 2.10  39 2.10  40 2.10  48 2.10  38 2.10  42 2.11
  71  0.750  0.250  0.352-  22 2.10  37 2.10  38 2.10  45 2.10  39 2.10
  72  0.000  0.000  0.352-  21 2.10  37 2.10  38 2.10  46 2.10  40 2.10
  73  0.750  1.000  0.650-  44 2.10  43 2.10  51 2.10  28 2.10  41 2.13
  74  0.000  0.250  0.650-  52 2.10  44 2.10  43 2.10  27 2.10  42 2.13
  75  0.750  0.250  0.549-  43 2.08  26 2.10  49 2.10  41 2.10  42 2.10  39 2.10
  76  0.000  1.000  0.550-  44 2.10  41 2.10  25 2.10  50 2.10  42 2.10  40 2.11
  77  0.750  0.500  0.451-  32 2.10  39 2.10  47 2.10  48 2.10  45 2.10  49 2.11
  78  0.000  0.750  0.451-  31 2.10  40 2.10  47 2.10  48 2.10  46 2.10  50 2.11
  79  0.750  0.750  0.352-  30 2.10  37 2.10  45 2.10  46 2.10  47 2.10
  80  0.000  0.500  0.352-  29 2.10  38 2.10  45 2.10  46 2.10  48 2.10
  81  0.750  0.500  0.650-  36 2.10  52 2.10  51 2.10  43 2.10  49 2.13
  82  0.000  0.750  0.650-  52 2.10  44 2.10  35 2.10  51 2.10  50 2.13
  83  0.750  0.750  0.549-  51 2.08  34 2.10  49 2.10  41 2.10  50 2.10  47 2.10
  84  0.000  0.500  0.550-  52 2.10  50 2.10  42 2.10  33 2.10  49 2.10  48 2.11

IMPORTANT INFORMATION: All symmetrisations will be switched off!
NOSYMM: (Re-)initialisation of all symmetry stuff for point group C_1.

                                     Primitive cell

  volume of cell :    1504.9259

  direct lattice vectors                    reciprocal lattice vectors
     8.404861995  0.000000000  0.000000000     0.118978753  0.000000000  0.000000000
     0.000000000  8.404861995  0.000000000     0.000000000  0.118978753  0.000000000
     0.000000000  0.000000000 21.303646496     0.000000000  0.000000000  0.046940321

  length of vectors
     8.404861995  8.404861995 21.303646496     0.118978753  0.118978753  0.046940321

  position of ions in fractional coordinates (direct lattice)
     0.500003812  0.499996287  0.791119279
     0.000000399  0.499994072  0.791121498
     0.499999722  0.999993982  0.791118258
     0.000002638  0.999995489  0.791118579
     0.499999540  0.606329819  0.820436864
     0.499999439  0.393678694  0.820435644
     0.606930690  0.500001879  0.761974110
     0.393064195  0.500001910  0.761973342
     0.893681544  0.499990081  0.820437320
     0.106302478  0.499990030  0.820436057
     0.999994475  0.606914507  0.761976069
     0.999994474  0.393062095  0.761975098
     0.393688651  0.999990190  0.820438047
     0.606296233  0.999990082  0.820436910
     0.499994556  0.106902461  0.761971752
     0.499994524  0.893074359  0.761970829
     0.999999399  0.106311057  0.820436865
     0.999999357  0.893697563  0.820435465
     0.106916746  0.000001859  0.761973010
     0.893078710  0.000001843  0.761972439
     0.250000000  0.000000000  0.352052406
     0.500000000  0.250000000  0.352052406
     0.250000000  0.250000000  0.450684135
     0.500000000  0.000000000  0.450684135
     0.249981383  0.999999883  0.549785611
     0.500000092  0.250021738  0.549809574
     0.249987197  0.249982572  0.647130316
     0.500000018  0.999999757  0.648084753
     0.250000000  0.500000000  0.352052406
     0.500000000  0.750000000  0.352052406
     0.250000000  0.750000000  0.450684135
     0.500000000  0.500000000  0.450684135
     0.249993345  0.499999893  0.549829400
     0.500000082  0.749978009  0.549809581
     0.249986874  0.750017140  0.647130392
     0.500000123  0.499999853  0.648163177
     0.750000000  0.000000000  0.352052406
     0.000000000  0.250000000  0.352052406
     0.750000000  0.250000000  0.450684135
     0.000000000  0.000000000  0.450684135
     0.750018865  0.999999893  0.549785611
     0.000000111  0.250035704  0.549797598
     0.750013088  0.249982562  0.647130333
     0.000000119  0.999999839  0.648066009
     0.750000000  0.500000000  0.352052406
     0.000000000  0.750000000  0.352052406
     0.750000000  0.750000000  0.450684135
     0.000000000  0.500000000  0.450684135
     0.750006795  0.499999878  0.549829409
     0.000000108  0.749964043  0.549797590
     0.750013031  0.750016940  0.647130255
     0.000000014  0.499999763  0.648144849
     0.250000000  0.000000000  0.450684135
     0.500000000  0.250000000  0.450684135
     0.250000000  0.250000000  0.352052406
     0.500000000  0.000000000  0.352052406
     0.249948740  0.999999798  0.649680437
     0.500000079  0.249921046  0.649732577
     0.250028174  0.250023778  0.549466341
     0.500000135  0.999999917  0.549572534
[...]
     0.000000000  0.250000000  0.450684135
     0.750000000  0.250000000  0.352052406
     0.000000000  0.000000000  0.352052406
     0.750051312  0.999999812  0.649680535
     0.000000062  0.250034065  0.649705208
     0.749972007  0.250023702  0.549466349
     0.000000036  0.999999867  0.549551894
     0.750000000  0.500000000  0.450684135
     0.000000000  0.750000000  0.450684135
     0.750000000  0.750000000  0.352052406
     0.000000000  0.500000000  0.352052406
     0.749956175  0.499999812  0.649764883
     0.000000063  0.749965502  0.649705357
     0.749972061  0.749976066  0.549466340
     0.000000090  0.499999906  0.549598101

  ion indices of the primitive-cell ions
   primitive index   ion index
                 1           1
                 2           2
                 3           3
                 4           4
                 5           5
                 6           6
                 7           7
                 8           8
                 9           9
                10          10
                11          11
                12          12
                13          13
[...]
   6.30364650  4.20243100  9.60121550
   0.00000000  6.30364650  9.60121550
   6.30364650  6.30364650  7.50000000
   0.00000000  4.20243100  7.50000000
   6.30327815  4.20242941 13.84236137
   0.00000053  6.30335655 13.84109326
   6.30341168  6.30344534 11.70563666
   0.00000076  4.20243021 11.70844365

--------------------------------------- Iteration      FINAL  ---------------------------------------

--------------------OUTCAR has been truncated-------------------------

[...]

--------------------OUTCAR has been truncated-------------------------

  DFT-D2 method for vdW energy calculation

  Parameters of vdW forcefield:
         C6(Jnm^6/mol)     R0(A)
   C        1.750          1.452
   H        0.140          1.001
   Mg       0.630          1.243
   O        0.700          1.342

  vdW correction parametrized for the method pbe

  IVDW =   1
  VDW_RADIUS =    50.000 A
  VDW_S6 =     0.750
  VDW_SR =     1.000
  VDW_D =    20.000
  LVDW_EWALD = F

  Number of pair interactions contributing to vdW energy: 1248636
  Edisp (eV):   -4.35540

  FORCE on cell =-STRESS in cart. coord.  units (eV):
  Direction    XX          YY          ZZ          XY          YZ          ZX
  Alpha Z   985.69205   985.69205   985.69205
  Ewald  154723.57864154723.55704************     0.00000    -0.02504     0.00441
  Hartree165315.13844165315.12411************     0.00000    -0.00255     0.00062
  E(xc)   -2568.41368 -2568.41368 -2572.86281     0.00000    -0.00001     0.00001
  Local  ************************329853.80189    -0.00000     0.01933    -0.00371
  n-local -2875.14151 -2875.14115 -2895.35950    -0.00000     0.00062    -0.00013
  augment  1048.00529  1048.00529  1038.97292    -0.00000     0.00007    -0.00001
  Kinetic  7720.60145  7720.59978  7760.65747    -0.00001     0.00120     0.00004
  Fock        0.00000     0.00000     0.00000     0.00000     0.00000     0.00000
  vdW        -5.97796    -5.97793    -5.70180     0.00000     0.00004    -0.00001
  Total     -14.63913   -14.64227     9.26814    -0.00001    -0.00634     0.00122
  in kB     -15.58514   -15.58848     9.86706    -0.00001    -0.00675     0.00130

 VOLUME and BASIS-vectors are now :
  energy-cutoff  :      600.00
  volume of cell :     1504.93
      direct lattice vectors                 reciprocal lattice vectors
     8.404861995  0.000000000  0.000000000     0.118978753  0.000000000  0.000000000
     0.000000000  8.404861995  0.000000000     0.000000000  0.118978753  0.000000000
     0.000000000  0.000000000 21.303646496     0.000000000  0.000000000  0.046940321

  length of vectors
     8.404861995  8.404861995 21.303646496     0.118978753  0.118978753  0.046940321

 FORCES acting on ions:
    Electron-Ion                     Ewald-Force                    Non-Local-Force
   0.276E-02 -.151E-02 -.960E+03   -.392E-02 0.303E-02 0.960E+03   -.165E-02 0.211E-02 0.146E-01
   0.223E-02 0.954E-03 -.960E+03   -.384E-02 -.219E-02 0.960E+03   -.221E-02 -.141E-02 0.125E-01
   0.195E-02 0.766E-03 -.960E+03   -.335E-02 -.196E-02 0.960E+03   -.193E-02 -.136E-02 0.174E-01
   0.225E-02 -.186E-02 -.960E+03   -.315E-02 0.355E-02 0.960E+03   -.126E-02 0.236E-02 0.162E-01
   0.155E-02 -.378E+02 -.244E+03   -.166E-02 0.426E+02 0.247E+03   0.222E-03 -.459E+01 -.320E+01
   0.159E-02 0.378E+02 -.244E+03   -.170E-02 -.426E+02 0.247E+03   0.227E-03 0.460E+01 -.320E+01
   -.380E+02 -.169E-02 -.236E+03   0.429E+02 0.183E-02 0.233E+03   -.467E+01 -.287E-03 0.310E+01
   0.380E+02 -.170E-02 -.236E+03   -.429E+02 0.184E-02 0.233E+03   0.467E+01 -.287E-03 0.310E+01
   0.378E+02 0.117E-02 -.244E+03   -.426E+02 -.127E-02 0.247E+03   0.460E+01 0.207E-03 -.320E+01
   -.378E+02 0.119E-02 -.244E+03   0.426E+02 -.129E-02 0.247E+03   -.460E+01 0.210E-03 -.320E+01
   0.193E-02 -.380E+02 -.236E+03   -.208E-02 0.429E+02 0.233E+03   0.305E-03 -.467E+01 0.311E+01
   0.192E-02 0.380E+02 -.236E+03   -.208E-02 -.429E+02 0.233E+03   0.305E-03 0.467E+01 0.310E+01
   0.378E+02 0.108E-02 -.244E+03   -.426E+02 -.117E-02 0.247E+03   0.460E+01 0.197E-03 -.320E+01
   -.378E+02 0.112E-02 -.244E+03   0.426E+02 -.121E-02 0.247E+03   -.460E+01 0.203E-03 -.320E+01
   0.169E-02 -.380E+02 -.236E+03   -.182E-02 0.429E+02 0.233E+03   0.266E-03 -.467E+01 0.311E+01
   0.170E-02 0.380E+02 -.236E+03   -.183E-02 -.429E+02 0.233E+03   0.267E-03 0.467E+01 0.311E+01
   0.119E-02 -.378E+02 -.244E+03   -.127E-02 0.426E+02 0.247E+03   0.169E-03 -.460E+01 -.320E+01
   0.121E-02 0.378E+02 -.244E+03   -.129E-02 -.426E+02 0.247E+03   0.171E-03 0.460E+01 -.320E+01
   -.380E+02 -.198E-02 -.236E+03   0.429E+02 0.214E-02 0.233E+03   -.467E+01 -.326E-03 0.311E+01
   0.380E+02 -.196E-02 -.236E+03   -.429E+02 0.212E-02 0.233E+03   0.467E+01 -.324E-03 0.311E+01
   -.612E-02 0.434E-05 0.213E+04   0.648E-02 -.612E-06 -.212E+04   -.266E-03 0.209E-05 -.706E+01
   0.524E-05 -.147E-01 0.213E+04   -.122E-05 0.151E-01 -.212E+04   -.276E-05 -.326E-03 -.707E+01
   -.150E-01 -.622E-01 0.797E+03   0.184E-01 0.665E-01 -.798E+03   -.252E-02 -.313E-02 0.471E+00
   0.323E-04 0.106E-04 0.797E+03   -.247E-04 -.129E-04 -.797E+03   -.102E-04 0.445E-05 0.454E+00
   -.711E-01 0.104E-04 -.527E+03   0.744E-01 -.170E-04 0.528E+03   -.700E-03 0.909E-05 -.320E+00
   -.130E-04 -.600E-01 -.528E+03   0.154E-04 0.622E-01 0.528E+03   -.136E-05 -.355E-02 -.315E+00
   -.202E-01 0.360E-03 -.185E+04   0.221E-01 -.581E-02 0.184E+04   -.189E-03 0.546E-02 0.630E+01
   -.549E-03 -.129E-02 -.183E+04   0.608E-03 0.128E-02 0.183E+04   -.413E-04 0.618E-05 0.603E+01
   -.508E-02 0.451E-06 0.213E+04   0.540E-02 0.644E-06 -.212E+04   -.226E-03 0.229E-05 -.707E+01
   0.236E-05 0.147E-01 0.213E+04   -.331E-05 -.151E-01 -.212E+04   -.100E-05 0.323E-03 -.707E+01
   -.150E-01 0.621E-01 0.797E+03   0.185E-01 -.665E-01 -.798E+03   -.251E-02 0.314E-02 0.471E+00
   0.329E-05 -.272E-04 0.797E+03   -.290E-06 0.175E-04 -.797E+03   0.210E-05 0.621E-05 0.465E+00
   -.256E-01 -.624E-04 -.528E+03   0.340E-01 0.699E-04 0.528E+03   -.538E-02 -.480E-05 -.312E+00
   0.148E-03 0.600E-01 -.528E+03   -.167E-03 -.622E-01 0.528E+03   0.103E-04 0.355E-02 -.315E+00
   -.194E-01 0.323E-03 -.185E+04   0.211E-01 0.515E-02 0.184E+04   -.899E-04 -.548E-02 0.630E+01
   0.420E-03 0.664E-03 -.183E+04   -.485E-03 -.682E-03 0.183E+04   0.413E-04 0.333E-05 0.603E+01
   0.612E-02 0.443E-05 0.213E+04   -.648E-02 0.136E-05 -.212E+04   0.263E-03 -.106E-05 -.706E+01
   -.370E-05 -.157E-01 0.213E+04   0.121E-05 0.162E-01 -.212E+04   0.764E-06 -.363E-03 -.706E+01
   0.150E-01 -.622E-01 0.797E+03   -.184E-01 0.665E-01 -.798E+03   0.251E-02 -.313E-02 0.471E+00
   -.457E-04 -.182E-04 0.797E+03   0.429E-04 0.145E-04 -.798E+03   0.817E-05 0.531E-05 0.451E+00
   0.713E-01 -.433E-05 -.527E+03   -.745E-01 0.207E-04 0.528E+03   0.695E-03 -.977E-05 -.320E+00
   -.509E-04 0.139E-01 -.528E+03   0.410E-04 -.526E-02 0.528E+03   0.460E-05 -.941E-02 -.317E+00
   0.208E-01 0.110E-02 -.185E+04   -.226E-01 -.663E-02 0.184E+04   0.165E-03 0.551E-02 0.630E+01
   0.487E-03 0.516E-03 -.183E+04   -.531E-03 -.538E-03 0.183E+04   0.188E-04 0.804E-05 0.603E+01
   0.508E-02 0.233E-05 0.213E+04   -.540E-02 -.149E-05 -.212E+04   0.228E-03 -.545E-05 -.707E+01
   -.722E-05 0.157E-01 0.213E+04   0.327E-05 -.162E-01 -.212E+04   0.239E-05 0.365E-03 -.706E+01
   0.150E-01 0.622E-01 0.797E+03   -.185E-01 -.665E-01 -.798E+03   0.251E-02 0.313E-02 0.471E+00
   0.133E-04 0.941E-05 0.797E+03   -.115E-04 -.128E-04 -.797E+03   0.166E-05 0.253E-06 0.466E+00
   0.256E-01 0.776E-04 -.528E+03   -.340E-01 -.852E-04 0.528E+03   0.538E-02 0.103E-04 -.312E+00
   -.756E-04 -.139E-01 -.528E+03   0.821E-04 0.530E-02 0.528E+03   -.431E-05 0.942E-02 -.317E+00
   0.189E-01 -.101E-02 -.185E+04   -.208E-01 0.654E-02 0.184E+04   0.135E-03 -.549E-02 0.630E+01
   -.791E-03 -.117E-02 -.183E+04   0.831E-03 0.116E-02 0.183E+04   -.194E-04 0.842E-06 0.603E+01
   -.261E-01 -.117E-04 0.598E+03   0.273E-01 0.104E-04 -.597E+03   -.149E-02 -.775E-05 -.780E-01
   0.841E-05 -.423E-01 0.597E+03   -.128E-04 0.412E-01 -.597E+03   0.616E-05 0.141E-02 -.850E-01
   -.383E-02 -.115E-01 0.160E+04   0.430E-02 0.120E-01 -.160E+04   -.666E-03 -.734E-03 0.348E+01
   0.790E-05 -.544E-05 0.160E+04   -.271E-05 -.908E-06 -.160E+04   -.223E-05 0.397E-05 0.348E+01
   -.643E+00 -.366E-03 -.140E+04   0.685E+00 0.359E-03 0.141E+04   -.394E-01 0.185E-04 -.505E+01
   -.198E-03 -.676E+00 -.140E+04   0.218E-03 0.715E+00 0.141E+04   -.184E-04 -.330E-01 -.506E+01
   0.147E-01 -.216E-01 -.389E+03   -.125E-01 0.174E-01 0.388E+03   -.553E-02 0.356E-02 0.438E+00
   -.365E-04 -.365E-04 -.391E+03   0.551E-04 0.342E-04 0.391E+03   -.264E-04 -.239E-05 0.155E+00
[...]
   0.382E-02 -.115E-01 0.160E+04   -.430E-02 0.120E-01 -.160E+04   0.668E-03 -.736E-03 0.348E+01
   -.560E-05 -.883E-06 0.160E+04   0.341E-05 0.107E-05 -.160E+04   -.619E-06 0.213E-05 0.348E+01
   0.644E+00 -.483E-04 -.140E+04   -.685E+00 0.102E-04 0.141E+04   0.394E-01 0.429E-04 -.505E+01
   -.308E-03 0.678E+00 -.140E+04   0.330E-03 -.713E+00 0.141E+04   -.215E-04 0.313E-01 -.505E+01
   -.147E-01 -.216E-01 -.389E+03   0.125E-01 0.174E-01 0.388E+03   0.551E-02 0.357E-02 0.438E+00
   -.132E-03 0.101E-03 -.391E+03   0.141E-03 -.995E-04 0.391E+03   -.492E-05 -.659E-06 0.160E+00
   0.168E-01 -.235E-05 0.597E+03   -.182E-01 0.628E-05 -.597E+03   0.201E-02 -.798E-05 -.874E-01
   -.432E-05 0.459E-01 0.598E+03   -.106E-06 -.441E-01 -.597E+03   0.628E-05 -.255E-02 -.785E-01
   0.383E-02 0.115E-01 0.160E+04   -.430E-02 -.120E-01 -.160E+04   0.668E-03 0.733E-03 0.348E+01
   0.150E-06 -.179E-05 0.160E+04   0.362E-06 -.144E-05 -.160E+04   -.124E-05 0.152E-05 0.348E+01
   -.629E+00 -.194E-04 -.140E+04   0.664E+00 -.194E-04 0.141E+04   -.296E-01 0.406E-04 -.506E+01
   0.189E-03 -.677E+00 -.140E+04   -.213E-03 0.713E+00 0.141E+04   0.181E-04 -.314E-01 -.505E+01
   -.148E-01 0.216E-01 -.389E+03   0.127E-01 -.174E-01 0.388E+03   0.551E-02 -.357E-02 0.438E+00
   -.918E-04 -.359E-04 -.391E+03   0.997E-04 0.380E-04 0.391E+03   -.872E-05 0.926E-06 0.149E+00
   0.982E-02 -.220E-02 0.176E+02   -.284E-12 0.853E-13 -.591E-11   -.981E-02 0.218E-02 -.176E+02

 POSITION                                       TOTAL-FORCE (eV/Angst)
      4.20246      4.20240     16.85373        -0.002794      0.003611      0.040181
      0.00000      4.20238     16.85377        -0.003795     -0.002629      0.037094
      4.20243      8.40481     16.85370        -0.003306     -0.002535      0.039867
      0.00002      8.40482     16.85371        -0.002147      0.004022      0.038974
      4.20243      5.09612     17.47830         0.000120      0.198559      0.138677
      4.20243      3.30882     17.47827         0.000122     -0.201878      0.140784
      5.10117      4.20245     16.23283         0.228950     -0.000148     -0.151414
      3.30365      4.20245     16.23281        -0.226382     -0.000145     -0.149846
      7.51127      4.20235     17.47831        -0.202085      0.000111      0.140653
      0.89346      4.20235     17.47828         0.205570      0.000111      0.142869
      8.40482      5.10103     16.23287         0.000156      0.229998     -0.151915
      8.40482      3.30363     16.23285         0.000154     -0.227554     -0.150444
      3.30890      8.40478     17.47832        -0.202623      0.000106      0.140504
      5.09584      8.40478     17.47830         0.205660      0.000108      0.142436
      4.20239      0.89850     16.23278         0.000137      0.231916     -0.153014
      4.20238      7.50617     16.23276         0.000134     -0.229558     -0.151596
      8.40486      0.89353     17.47830         0.000090      0.202068      0.140520
      8.40486      7.51140     17.47827         0.000093     -0.205761      0.142861
      0.89862      0.00002     16.23280         0.230762     -0.000166     -0.152789
      7.50620      0.00002     16.23279        -0.228790     -0.000164     -0.151583
      2.10122      0.00000      7.50000         0.000124      0.000006      0.286675
      4.20243      2.10122      7.50000         0.000001      0.000134      0.287054
      2.10122      2.10122      9.60122         0.000916      0.001182      0.018862
      4.20243      0.00000      9.60122        -0.000003      0.000002      0.032211
      2.10106      8.40486     11.71244         0.002471      0.000003      0.012318
      4.20243      2.10140     11.71295         0.000001     -0.001306      0.010866
      2.10111      2.10107     13.78624         0.001635     -0.000013      0.091571
      4.20243      8.40486     13.80657         0.000017     -0.000006      0.085083
      2.10122      4.20243      7.50000         0.000071      0.000004      0.287063
      4.20243      6.30365      7.50000        -0.000002     -0.000146      0.287053
      2.10122      6.30365      9.60122         0.000917     -0.001183      0.018862
      4.20243      4.20243      9.60122         0.000005     -0.000003      0.033561
      2.10116      4.20243     11.71337         0.002928      0.000003      0.008413
      4.20243      6.30346     11.71295        -0.000008      0.001304      0.010859
      2.10111      6.30379     13.78624         0.001645      0.000011      0.091570
      4.20243      4.20243     13.80824        -0.000023     -0.000013      0.079883
      6.30365      0.00000      7.50000        -0.000125      0.000005      0.286675
      0.00000      2.10122      7.50000        -0.000002      0.000098      0.286639
      6.30365      2.10122      9.60122        -0.000911      0.001178      0.018861
      0.00000      0.00000      9.60122         0.000005      0.000002      0.029945
      6.30381      8.40486     11.71244        -0.002479      0.000007      0.012326
      0.00000      2.10152     11.71269        -0.000005     -0.000742      0.011242
      6.30376      2.10107     13.78624        -0.001649     -0.000034      0.091568
      0.00000      8.40486     13.80617        -0.000024     -0.000013      0.086915
      6.30365      4.20243      7.50000        -0.000069     -0.000004      0.287060
      0.00000      6.30365      7.50000        -0.000002     -0.000105      0.286636
      6.30365      6.30365      9.60122        -0.000913     -0.001186      0.018866
      0.00000      4.20243      9.60122         0.000003     -0.000003      0.031742
      6.30370      4.20243     11.71337        -0.002928      0.000003      0.008402
      0.00000      6.30334     11.71269         0.000002      0.000735      0.011252
      6.30376      6.30379     13.78623        -0.001631      0.000054      0.091587
      0.00000      4.20243     13.80785         0.000019     -0.000013      0.082034
      2.10122      0.00000      9.60122        -0.000268     -0.000009      0.052644
      4.20243      2.10122      9.60122         0.000002      0.000402      0.053165
      2.10122      2.10122      7.50000        -0.000195     -0.000211     -0.574588
      4.20243      0.00000      7.50000         0.000003     -0.000002     -0.574867
      2.10078      8.40486     13.84056         0.000722      0.000012      0.122137
      4.20243      2.10055     13.84167         0.000002      0.004364      0.118893
      2.10145      2.10142     11.70564        -0.003346     -0.000660     -0.020494
      4.20243      8.40486     11.70790        -0.000008     -0.000004     -0.015807
[...]
      0.00000      2.10122      9.60122        -0.000002      0.000680      0.053801
      6.30365      2.10122      7.50000         0.000189     -0.000211     -0.574581
      0.00000      0.00000      7.50000        -0.000003      0.000003     -0.574638
      6.30408      8.40486     13.84056        -0.000723      0.000005      0.122102
      0.00000      2.10150     13.84109         0.000000     -0.002120      0.120131
      6.30341      2.10141     11.70564         0.003347     -0.000655     -0.020495
      0.00000      8.40486     11.70746         0.000004      0.000001     -0.012338
      6.30365      4.20243      9.60122         0.000523     -0.000004      0.054623
      0.00000      6.30365      9.60122         0.000002     -0.000682      0.053798
      6.30365      6.30365      7.50000         0.000194      0.000214     -0.574583
      0.00000      4.20243      7.50000        -0.000001     -0.000001     -0.574855
      6.30328      4.20243     13.84236         0.002852      0.000002      0.116214
      0.00000      6.30336     13.84109        -0.000005      0.002099      0.120124
      6.30341      6.30345     11.70564         0.003339      0.000653     -0.020495
      0.00000      4.20243     11.70844        -0.000001      0.000003     -0.016157
    total drift:                                0.000012     -0.000021      0.000810

  FREE ENERGIE OF THE ION-ELECTRON SYSTEM (eV)
  free  energy   TOTEN  =      -472.74695835 eV

  energy  without entropy=     -472.74695835  energy(sigma->0) =     -472.74695835