 vasp.6.3.0 20Jan22 (build Mar 11 2022 13:48:16) complex

 executed on             LinuxIFC date 2023.12.26  17:41:52

 INCAR:
   SYSTEM = MgO-rocksalt
   ISMEAR = 0
   SIGMA = 0.05
   EDIFF = 1E-6
   ALGO = ALL
   ISTART = 0
   IBRION = -1
   NSW = 0
   ISYM = 0
   DIPOL = 0.5 0.5 0.5
   IDIPOL = 3
   LDIPOL = .TRUE.
   GGA = PE
   IVDW = 1
   VDW_C6 = 1.75 0.14 0.63 0.70
   VDW_R0 = 1.452 1.001 1.243 1.342
   ENCUT = 520
   PREC = Accurate
   LASPH = .TRUE.
   LREAL = Auto
   ISPIN = 1
   NELM = 200
   NELMIN = 8
   NCORE = 2
   KPAR = 1
   LWAVE = .FALSE.
   LCHARG = .FALSE.

 POTCAR:    PAW_PBE C 08Apr2002
 POTCAR:    PAW_PBE H 15Jun2001
 POTCAR:    PAW_PBE Mg_pv 13Apr2007
 POTCAR:    PAW_PBE O 08Apr2002
|           W    W    AA    RRRRR   N    N  II  N    N   GGGG   !!!           |
|           W    W   A  A   R    R  NN   N  II  NN   N  G    G  !!!           |
|           W    W  A    A  R    R  N N  N  II  N N  N  G       !!!           |
|           W WW W  AAAAAA  RRRRR   N  N N  II  N  N N  G  GGG   !            |
|           WW  WW  A    A  R   R   N   NN  II  N   NN  G    G                |
|           W    W  A    A  R    R  N    N  II  N    N   GGGG   !!!           |
|     For optimal performance we recommend to set                             |
|       NCORE = 2 up to number-of-cores-per-socket                            |
|     This setting can greatly improve the performance of VASP for DFT.       |
|     The default, NCORE=1 might be grossly inefficient on modern             |
|     multi-core architectures or massively parallel machines. Do your        |
|     Unfortunately you need to use the default for GW and RPA                |
|     calculations (for HF NCORE is supported but not extensively tested      |
|     yet).                                                                   |

   TITEL  = PAW_PBE C 08Apr2002
   POMASS =   12.011; ZVAL   =    4.000    mass and valenz
   ENMAX  =  400.000; ENMIN  =  300.000 eV

   TITEL  = PAW_PBE H 15Jun2001
   POMASS =    1.000; ZVAL   =    1.000    mass and valenz
   ENMAX  =  250.000; ENMIN  =  200.000 eV

   TITEL  = PAW_PBE Mg_pv 13Apr2007
   POMASS =   24.305; ZVAL   =    8.000    mass and valenz
   ENMAX  =  403.929; ENMIN  =  302.947 eV

   TITEL  = PAW_PBE O 08Apr2002
   POMASS =   16.000; ZVAL   =    6.000    mass and valenz
   ENMAX  =  400.000; ENMIN  =  300.000 eV

 Optimization of the real space projectors (new method)

 maximal supplied QI-value         = 25.13
 optimisation between [QCUT,QGAM] = [ 11.56, 23.12] = [ 37.43,149.72] Ry
 Optimized for a Real-space Cutoff    1.04 Angstroem

   l    n(q)    QCUT    max X(q) W(low)/X(q) W(high)/X(q)  e(spline)
   0      7    11.561   115.676    0.20E-03    0.60E-03    0.21E-06
   0      7    11.561    87.132    0.20E-03    0.59E-03    0.21E-06
   1      7    11.561     4.429    0.23E-03    0.35E-03    0.15E-06
   1      7    11.561     2.733    0.18E-03    0.25E-03    0.12E-06
 Optimization of the real space projectors (new method)

[...]

   l    n(q)    QCUT    max X(q) W(low)/X(q) W(high)/X(q)  e(spline)
   1      8    11.527     2.974    0.44E-04    0.56E-04    0.12E-06
   1      8    11.527     4.279    0.12E-03    0.12E-03    0.26E-06
   0      9    11.527    16.381    0.46E-04    0.64E-04    0.78E-07
   0      9    11.527     5.611    0.26E-04    0.43E-04    0.55E-07
   2      8    11.527     4.652    0.22E-03    0.72E-04    0.47E-07
 Optimization of the real space projectors (new method)

 maximal supplied QI-value         = 24.76
 optimisation between [QCUT,QGAM] = [ 11.64, 23.27] = [ 37.91,151.63] Ry
 Optimized for a Real-space Cutoff    1.14 Angstroem

   l    n(q)    QCUT    max X(q) W(low)/X(q) W(high)/X(q)  e(spline)
   0      8    11.635    20.381    0.10E-03    0.33E-03    0.24E-06
   0      8    11.635    15.268    0.11E-03    0.35E-03    0.26E-06
   1      7    11.635     5.964    0.24E-03    0.31E-03    0.30E-06
   1      7    11.635     5.382    0.22E-03    0.25E-03    0.26E-06
  PAW_PBE C 08Apr2002                   :
  PAW_PBE H 15Jun2001                   :
  PAW_PBE Mg_pv 13Apr2007               :
  PAW_PBE O 08Apr2002                   :

 POSCAR:  C  H Mg  O
  positions in direct lattice
 exchange correlation table for  LEXCH =        8
   RHO(1)=    0.500       N(1)  =     2000
   RHO(2)=  100.500       N(2)  =     4000

 ion  position               nearest neighbor table
   1  0.479  0.468  0.796-   7 1.08   2 1.39   6 1.39
   2  0.561  0.458  0.794-   8 1.08   1 1.39   3 1.39
   3  0.593  0.381  0.796-   9 1.08   4 1.39   2 1.39
   4  0.543  0.316  0.800-  10 1.08   3 1.39   5 1.39
   5  0.461  0.326  0.802-  11 1.08   6 1.39   4 1.39
   6  0.429  0.402  0.800-  12 1.08   5 1.39   1 1.39
   7  0.453  0.527  0.794-   1 1.08
   8  0.600  0.509  0.791-   2 1.08
   9  0.657  0.374  0.795-   3 1.08
  10  0.569  0.256  0.801-   4 1.08
  11  0.422  0.275  0.804-   5 1.08
  12  0.365  0.410  0.801-   6 1.08
  13  0.125  0.000  0.352- 143 2.10 144 2.10 160 2.10 183 2.10 141 2.10
  14  0.250  0.125  0.352- 143 2.10 144 2.10 152 2.10 159 2.10 142 2.10
  15  0.125  0.125  0.451- 147 2.10 142 2.10 141 2.10 149 2.10 158 2.10 143 2.10
  16  0.250  0.000  0.451- 148 2.10 142 2.10 141 2.10 157 2.10 182 2.10 144 2.10
  17  0.125  0.000  0.550- 147 2.10 148 2.10 164 2.10 187 2.10 141 2.11 145 2.13
  18  0.250  0.125  0.550- 163 2.10 156 2.10 147 2.10 148 2.10 142 2.11 146 2.13
  19  0.125  0.125  0.647- 147 2.09 153 2.10 146 2.10 145 2.10 162 2.10
  20  0.250  0.000  0.647- 148 2.09 146 2.10 161 2.10 186 2.10 145 2.10
  21  0.125  0.250  0.352- 143 2.10 151 2.10 152 2.10 168 2.10 149 2.10
  22  0.250  0.375  0.352- 151 2.10 152 2.10 167 2.10 176 2.10 150 2.10
  23  0.125  0.375  0.451- 149 2.10 150 2.10 166 2.10 173 2.10 151 2.10 155 2.10
  24  0.250  0.250  0.451- 156 2.10 149 2.10 150 2.10 142 2.10 165 2.10 152 2.10
  25  0.125  0.250  0.550- 156 2.10 155 2.10 147 2.10 172 2.10 149 2.11 153 2.13
  26  0.250  0.375  0.550- 171 2.09 180 2.10 156 2.10 155 2.10 150 2.11 154 2.13
  27  0.125  0.375  0.647- 155 2.09 177 2.10 153 2.10 154 2.10 170 2.10
  28  0.250  0.250  0.647- 156 2.08 169 2.10 154 2.10 146 2.10 153 2.10
  29  0.375  0.000  0.352- 144 2.10 159 2.10 199 2.10 224 2.10 157 2.10
  30  0.000  0.125  0.352- 143 2.10 160 2.10 168 2.10 223 2.10 158 2.10
  31  0.375  0.125  0.451- 163 2.10 157 2.10 142 2.10 165 2.10 222 2.10 159 2.10
  32  0.000  0.000  0.451- 141 2.10 158 2.10 198 2.10 221 2.10 160 2.10 164 2.10
  33  0.375  0.000  0.550- 163 2.10 228 2.10 203 2.10 148 2.10 157 2.11 161 2.13
  34  0.000  0.125  0.550- 147 2.10 227 2.10 172 2.10 164 2.10 158 2.11 162 2.13
  35  0.375  0.125  0.647- 163 2.08 169 2.10 226 2.10 146 2.10 161 2.10
  36  0.000  0.000  0.647- 164 2.09 162 2.10 225 2.10 202 2.10 145 2.10
  37  0.375  0.250  0.352- 152 2.10 159 2.10 167 2.10 232 2.10 165 2.10
  38  0.000  0.375  0.352- 151 2.10 168 2.10 192 2.10 231 2.10 166 2.10
  39  0.375  0.375  0.451- 171 2.10 165 2.10 150 2.10 189 2.10 230 2.10 167 2.10
  40  0.000  0.250  0.451- 172 2.10 158 2.10 166 2.10 149 2.10 229 2.10 168 2.10
  41  0.375  0.250  0.550- 171 2.10 236 2.10 156 2.10 163 2.10 165 2.11 169 2.13
  42  0.000  0.375  0.550- 172 2.10 196 2.10 235 2.10 155 2.10 166 2.11 170 2.13
  43  0.376  0.375  0.647- 234 2.09 171 2.09 193 2.10 169 2.10 154 2.11
  44  0.000  0.250  0.647- 172 2.09 162 2.10 170 2.10 233 2.10 153 2.10
  45  0.125  0.500  0.352- 151 2.10 175 2.10 176 2.10 192 2.10 173 2.10
  46  0.250  0.625  0.352- 175 2.10 176 2.10 184 2.10 191 2.10 174 2.10
  47  0.125  0.625  0.451- 179 2.10 174 2.10 173 2.10 181 2.10 190 2.10 175 2.10
  48  0.250  0.500  0.451- 180 2.10 173 2.10 174 2.10 150 2.10 189 2.10 176 2.10
  49  0.125  0.500  0.550- 180 2.10 155 2.10 196 2.10 179 2.10 173 2.11 177 2.13
  50  0.250  0.625  0.550- 180 2.10 195 2.10 188 2.10 179 2.10 174 2.11 178 2.13
  51  0.125  0.625  0.647- 179 2.09 178 2.10 177 2.10 194 2.10 185 2.10
  52  0.250  0.500  0.647- 180 2.08 193 2.10 154 2.10 178 2.10 177 2.10
  53  0.125  0.750  0.352- 175 2.10 183 2.10 184 2.10 200 2.10 181 2.10
  54  0.250  0.875  0.352- 144 2.10 183 2.10 184 2.10 199 2.10 182 2.10
  55  0.125  0.875  0.451- 187 2.10 181 2.10 182 2.10 141 2.10 198 2.10 183 2.10
  56  0.250  0.750  0.451- 188 2.10 181 2.10 182 2.10 174 2.10 197 2.10 184 2.10
  57  0.125  0.750  0.550- 204 2.10 188 2.10 179 2.10 187 2.10 181 2.11 185 2.13
  58  0.250  0.875  0.550- 188 2.10 148 2.10 203 2.10 187 2.10 182 2.11 186 2.13
  59  0.125  0.875  0.647- 187 2.09 202 2.10 185 2.10 145 2.10 186 2.10
  60  0.250  0.750  0.647- 188 2.09 178 2.10 201 2.10 186 2.10 185 2.10
[...]
 254  0.500  0.625  0.451-  63 2.10 111 2.10 128 2.10 136 2.10 126 2.10 130 2.11
 255  0.875  0.625  0.352-  62 2.10 110 2.10 125 2.10 133 2.10 127 2.10
 256  0.500  0.500  0.352-  61 2.10 102 2.10 109 2.10 126 2.10 128 2.10
 257  0.875  0.500  0.649- 131 2.10 107 2.10  68 2.10 116 2.10 129 2.13
 258  0.500  0.625  0.650- 115 2.10  67 2.10 140 2.10 132 2.11 130 2.13
 259  0.875  0.625  0.549- 131 2.09  66 2.10 127 2.10 137 2.10 114 2.10 129 2.10
 260  0.500  0.500  0.549- 130 2.09  65 2.10 128 2.10 113 2.10 132 2.10 106 2.10
 261  0.875  0.750  0.451-  72 2.10 120 2.10 127 2.10 135 2.10 133 2.10 137 2.11
 262  0.500  0.875  0.451-  71 2.10  96 2.10 119 2.10 136 2.10 134 2.10 138 2.11
 263  0.875  0.875  0.352-  70 2.10  93 2.10 118 2.10 133 2.10 135 2.10
 264  0.500  0.750  0.352-  69 2.10 117 2.10 126 2.10 134 2.10 136 2.10
 265  0.875  0.750  0.649-  76 2.10 139 2.10 131 2.10 124 2.10 137 2.13
 266  0.500  0.875  0.649- 123 2.10  75 2.10 100 2.10 140 2.10 138 2.13
 267  0.875  0.875  0.549- 139 2.09 135 2.10  74 2.10  97 2.10 137 2.10 122 2.10
 268  0.500  0.750  0.549- 140 2.09  73 2.10 121 2.10 136 2.10 138 2.10 130 2.10

IMPORTANT INFORMATION: All symmetrisations will be switched off!
NOSYMM: (Re-)initialisation of all symmetry stuff for point group C_1.

                                     Primitive cell

  volume of cell :    6019.7037

  direct lattice vectors                    reciprocal lattice vectors
    16.809723990  0.000000000  0.000000000     0.059489377  0.000000000  0.000000000
     0.000000000 16.809723990  0.000000000     0.000000000  0.059489377  0.000000000
     0.000000000  0.000000000 21.303646496     0.000000000  0.000000000  0.046940321

  length of vectors
    16.809723990 16.809723990 21.303646496     0.059489377  0.059489377  0.046940321

  position of ions in fractional coordinates (direct lattice)
     0.478670068  0.468035572  0.796079246
     0.560768648  0.457792821  0.794319280
     0.593084694  0.381494731  0.796124182
     0.543295470  0.315534253  0.799884269
     0.461094482  0.325757103  0.801691614
     0.428846426  0.401928125  0.799740431
     0.453476689  0.527212769  0.794474134
     0.599532420  0.508891473  0.790918483
     0.656967594  0.373593811  0.794526185
     0.568547101  0.256378774  0.800925431
     0.422300445  0.274537858  0.804135149
     0.364981974  0.409996122  0.800822299
     0.125000000  0.000000000  0.352052406
     0.250000000  0.125000000  0.352052406
     0.125000000  0.125000000  0.450684135
     0.250000000  0.000000000  0.450684135
[...]
  14.70850849 12.60729299  9.60121550
   8.40486199 14.70850849  9.60121550
  14.70850849 14.70850849  7.50000000
   8.40486199 12.60729299  7.50000000
  14.70893256 12.60782588 13.83468638
   8.40510397 14.70893473 13.83486610
  14.70886931 14.70893841 11.70211260
   8.40484223 12.60714899 11.70256244

--------------------------------------- Iteration      FINAL  ---------------------------------------

--------------------OUTCAR has been truncated-------------------------

[...]

--------------------OUTCAR has been truncated-------------------------

  DFT-D2 method for vdW energy calculation

  Parameters of vdW forcefield:
         C6(Jnm^6/mol)     R0(A)
   C        1.750          1.452
   H        0.140          1.001
   Mg       0.630          1.243
   O        0.700          1.342

  vdW correction parametrized for the method pbe

  IVDW =   1
  VDW_RADIUS =    50.000 A
  VDW_S6 =     0.750
  VDW_SR =     1.000
  VDW_D =    20.000
  LVDW_EWALD = F

  Number of pair interactions contributing to vdW energy: 3163855
  Edisp (eV):  -15.21363

  FORCE on cell =-STRESS in cart. coord.  units (eV):
  Direction    XX          YY          ZZ          XY          YZ          ZX
  Alpha Z  3636.59687  3636.59687  3636.59687
  Ewald  645216.41109645213.80614************    -2.70975   -62.12647   -46.30735
  Hartree685817.80112685816.14289************    -1.53740   -36.09020   -26.83327
  E(xc)   -9941.87880 -9941.88865 -9965.42709    -0.00536    -0.14579    -0.11202
  Local  ************************************     4.05745    95.64833    71.25207
  n-local-11276.02565-11276.02637-11351.35069     0.00656     0.25367     0.17532
  augment  4186.90661  4186.90518  4150.94581     0.00051     0.01315     0.00662
  Kinetic 29658.89148 29659.03905 29876.81573     0.17298     2.09450     1.63491
  Fock        0.00000     0.00000     0.00000     0.00000     0.00000     0.00000
  vdW       -21.74649   -21.74575   -18.64622    -0.00041    -0.00676    -0.00408
  Total     -49.22717   -49.26563    47.15427    -0.01542    -0.35957    -0.18780
  in kB     -13.10208   -13.11232    12.55037    -0.00411    -0.09570    -0.04998

 VOLUME and BASIS-vectors are now :
  energy-cutoff  :      520.00
  volume of cell :     6019.70
      direct lattice vectors                 reciprocal lattice vectors
    16.809723990  0.000000000  0.000000000     0.059489377  0.000000000  0.000000000
     0.000000000 16.809723990  0.000000000     0.000000000  0.059489377  0.000000000
     0.000000000  0.000000000 21.303646496     0.000000000  0.000000000  0.046940321

  length of vectors
    16.809723990 16.809723990 21.303646496     0.059489377  0.059489377  0.046940321

 FORCES acting on ions:
    Electron-Ion                     Ewald-Force                    Non-Local-Force
   0.699E+02 -.163E+03 -.932E+03   -.704E+02 0.164E+03 0.932E+03   0.481E+00 -.926E+00 -.945E-01
   -.107E+03 -.141E+03 -.935E+03   0.108E+03 0.142E+03 0.935E+03   -.759E+00 -.934E+00 -.803E-01
   -.176E+03 0.217E+02 -.931E+03   0.177E+03 -.219E+02 0.931E+03   -.931E+00 0.141E+00 -.546E-01
   -.691E+02 0.164E+03 -.924E+03   0.696E+02 -.165E+03 0.925E+03   -.416E+00 0.925E+00 -.100E+00
   0.107E+03 0.142E+03 -.921E+03   -.107E+03 -.143E+03 0.921E+03   0.649E+00 0.832E+00 -.120E+00
   0.176E+03 -.223E+02 -.925E+03   -.177E+03 0.224E+02 0.925E+03   0.898E+00 -.133E+00 -.669E-01
   0.314E+02 -.737E+02 -.233E+03   -.339E+02 0.795E+02 0.233E+03   0.232E+01 -.543E+01 0.186E+00
   -.484E+02 -.639E+02 -.235E+03   0.522E+02 0.688E+02 0.234E+03   -.359E+01 -.472E+01 0.434E+00
   -.794E+02 0.985E+01 -.233E+03   0.856E+02 -.106E+02 0.233E+03   -.585E+01 0.723E+00 0.171E+00
   -.314E+02 0.737E+02 -.230E+03   0.339E+02 -.795E+02 0.231E+03   -.234E+01 0.544E+01 -.111E+00
   0.483E+02 0.638E+02 -.229E+03   -.521E+02 -.688E+02 0.229E+03   0.358E+01 0.471E+01 -.272E+00
   0.794E+02 -.100E+02 -.231E+03   -.856E+02 0.108E+02 0.231E+03   0.585E+01 -.750E+00 -.135E+00
   0.295E+01 0.282E+01 0.210E+04   -.295E+01 -.281E+01 -.209E+04   -.201E-02 -.216E-02 -.706E+01
   0.558E+01 0.560E+01 0.210E+04   -.557E+01 -.559E+01 -.209E+04   -.753E-02 -.765E-02 -.706E+01
   0.565E+01 0.679E+01 0.711E+03   -.565E+01 -.678E+01 -.711E+03   -.528E-02 -.311E-02 0.412E+00
   0.678E+01 0.543E+01 0.711E+03   -.678E+01 -.542E+01 -.711E+03   -.243E-02 -.472E-02 0.415E+00
   0.696E+01 0.675E+01 -.680E+03   -.696E+01 -.675E+01 0.680E+03   -.320E-02 -.536E-02 -.287E+00
   0.174E+02 0.175E+02 -.666E+03   -.174E+02 -.175E+02 0.666E+03   -.227E-01 -.193E-01 -.268E+00
   0.171E+02 0.179E+02 -.206E+04   -.171E+02 -.179E+02 0.205E+04   -.158E-01 -.751E-02 0.620E+01
   0.177E+02 0.167E+02 -.206E+04   -.177E+02 -.167E+02 0.205E+04   -.834E-02 -.127E-01 0.620E+01
   0.431E+01 0.367E+01 0.210E+04   -.430E+01 -.366E+01 -.209E+04   -.689E-02 -.419E-02 -.706E+01
   0.740E+01 0.677E+00 0.210E+04   -.739E+01 -.676E+00 -.210E+04   -.114E-01 -.137E-02 -.707E+01
   0.822E+01 0.929E+00 0.716E+03   -.819E+01 -.929E+00 -.716E+03   -.233E-01 -.526E-03 0.418E+00
   0.120E+02 0.773E+01 0.721E+03   -.120E+02 -.771E+01 -.721E+03   -.213E-01 -.157E-01 0.411E+00
   0.145E+02 0.966E+01 -.669E+03   -.145E+02 -.965E+01 0.669E+03   -.292E-01 -.126E-01 -.276E+00
   0.321E+02 0.272E+01 -.647E+03   -.319E+02 -.272E+01 0.647E+03   -.181E+00 -.227E-02 -.186E+00
   0.327E+02 0.253E+01 -.204E+04   -.327E+02 -.253E+01 0.204E+04   -.161E-01 -.341E-04 0.620E+01
   0.560E+02 0.325E+02 -.202E+04   -.560E+02 -.325E+02 0.202E+04   -.820E-01 -.411E-01 0.620E+01
   0.352E+01 0.413E+01 0.210E+04   -.351E+01 -.412E+01 -.209E+04   -.394E-02 -.675E-02 -.706E+01
   -.395E+00 0.422E+01 0.210E+04   0.394E+00 -.421E+01 -.209E+04   0.456E-03 -.270E-02 -.706E+01
   0.740E+01 0.120E+02 0.721E+03   -.738E+01 -.120E+02 -.721E+03   -.123E-01 -.221E-01 0.406E+00
   -.503E+00 0.366E+01 0.707E+03   0.504E+00 -.366E+01 -.707E+03   -.583E-03 -.116E-02 0.423E+00
   0.918E+01 0.140E+02 -.669E+03   -.917E+01 -.140E+02 0.669E+03   -.919E-02 -.245E-01 -.278E+00
   -.114E+01 0.952E+01 -.678E+03   0.114E+01 -.952E+01 0.678E+03   0.228E-02 0.606E-04 -.285E+00
   0.306E+02 0.559E+02 -.202E+04   -.305E+02 -.559E+02 0.202E+04   -.419E-01 -.769E-01 0.621E+01
   -.117E+01 0.832E+01 -.206E+04   0.117E+01 -.832E+01 0.206E+04   0.239E-02 -.319E-03 0.621E+01
   0.532E+01 0.552E+01 0.210E+04   -.531E+01 -.551E+01 -.210E+04   -.817E-02 -.879E-02 -.707E+01
   -.504E+00 0.513E+00 0.210E+04   0.503E+00 -.512E+00 -.209E+04   0.888E-03 -.113E-02 -.706E+01
   0.111E+02 0.155E+01 0.736E+03   -.112E+02 -.155E+01 -.736E+03   0.648E-02 -.324E-02 0.310E+00
   -.819E+00 0.490E+01 0.712E+03   0.817E+00 -.490E+01 -.712E+03   0.110E-02 -.136E-02 0.416E+00
   0.241E+02 0.251E+02 -.631E+03   -.240E+02 -.250E+02 0.632E+03   -.731E-01 -.888E-01 -.257E+00
   -.182E+01 0.126E+01 -.671E+03   0.181E+01 -.127E+01 0.671E+03   0.270E-02 0.382E-02 -.284E+00
   0.900E+02 0.126E+02 -.192E+04   -.897E+02 -.126E+02 0.191E+04   -.343E+00 -.220E-01 0.620E+01
   -.274E+01 0.119E+02 -.206E+04   0.274E+01 -.119E+02 0.205E+04   0.222E-02 0.171E-04 0.620E+01
   0.447E+01 -.290E+01 0.210E+04   -.446E+01 0.290E+01 -.209E+04   -.694E-02 0.316E-02 -.706E+01
   0.591E+01 -.565E+01 0.210E+04   -.590E+01 0.564E+01 -.209E+04   -.862E-02 0.809E-02 -.706E+01
   0.619E+01 -.691E+01 0.712E+03   -.618E+01 0.691E+01 -.712E+03   -.368E-02 0.850E-03 0.409E+00
   0.126E+02 -.610E+01 0.723E+03   -.125E+02 0.608E+01 -.723E+03   -.213E-01 0.125E-01 0.387E+00
   0.158E+02 -.764E+01 -.667E+03   -.158E+02 0.764E+01 0.668E+03   -.405E-01 0.672E-02 -.267E+00
   0.199E+02 -.185E+02 -.662E+03   -.199E+02 0.185E+02 0.662E+03   -.150E-01 0.188E-01 -.252E+00
   0.198E+02 -.187E+02 -.206E+04   -.198E+02 0.187E+02 0.205E+04   -.156E-01 0.965E-02 0.620E+01
   0.636E+02 -.274E+02 -.201E+04   -.634E+02 0.273E+02 0.201E+04   -.135E+00 0.263E-01 0.621E+01
   0.309E+01 -.358E+01 0.210E+04   -.309E+01 0.358E+01 -.209E+04   -.252E-02 0.299E-02 -.706E+01
   0.425E+01 -.629E+00 0.210E+04   -.425E+01 0.628E+00 -.209E+04   -.286E-02 0.650E-03 -.706E+01
   0.388E+01 -.806E+00 0.707E+03   -.388E+01 0.807E+00 -.708E+03   -.749E-03 -.273E-03 0.411E+00
   0.730E+01 -.704E+01 0.712E+03   -.730E+01 0.704E+01 -.712E+03   -.235E-02 0.365E-02 0.409E+00
   0.764E+01 -.870E+01 -.679E+03   -.764E+01 0.870E+01 0.679E+03   -.169E-02 0.523E-02 -.283E+00
   0.966E+01 -.178E+01 -.677E+03   -.966E+01 0.178E+01 0.678E+03   -.107E-02 0.221E-02 -.285E+00
   0.866E+01 -.175E+01 -.206E+04   -.867E+01 0.176E+01 0.206E+04   0.648E-02 0.110E-03 0.620E+01
   0.205E+02 -.220E+02 -.205E+04   -.205E+02 0.220E+02 0.205E+04   -.824E-02 0.264E-01 0.620E+01
[...]
   -.331E+01 -.356E+01 0.158E+04   0.330E+01 0.355E+01 -.158E+04   0.547E-02 0.564E-02 0.348E+01
   0.396E+00 -.361E+01 0.158E+04   -.395E+00 0.361E+01 -.159E+04   -.799E-03 0.668E-02 0.347E+01
   -.270E+02 -.112E+02 -.156E+04   0.270E+02 0.112E+02 0.156E+04   0.177E-01 0.377E-03 -.508E+01
   0.334E+01 -.626E+02 -.151E+04   -.334E+01 0.624E+02 0.152E+04   -.882E-03 0.165E+00 -.505E+01
   -.101E+02 -.948E+01 -.498E+03   0.101E+02 0.947E+01 0.498E+03   0.648E-02 0.115E-01 0.310E+00
   0.212E+01 -.187E+02 -.452E+03   -.211E+01 0.185E+02 0.452E+03   -.859E-02 0.123E+00 0.338E-01
   -.407E+01 -.416E+01 0.531E+03   0.406E+01 0.415E+01 -.531E+03   0.592E-02 0.652E-02 -.556E-01
   0.387E+00 -.107E+01 0.535E+03   -.388E+00 0.107E+01 -.535E+03   0.645E-03 0.484E-02 -.463E-01
   -.240E+01 -.406E+00 0.158E+04   0.240E+01 0.405E+00 -.158E+04   0.224E-02 0.656E-03 0.348E+01
   0.279E+00 -.423E+01 0.158E+04   -.279E+00 0.422E+01 -.158E+04   -.920E-04 0.135E-01 0.348E+01
   -.105E+02 -.108E+02 -.157E+04   0.105E+02 0.108E+02 0.157E+04   0.827E-02 0.628E-02 -.507E+01
   0.889E+00 -.369E+01 -.156E+04   -.889E+00 0.369E+01 0.157E+04   -.267E-03 -.600E-02 -.507E+01
   -.528E+01 -.969E+00 -.504E+03   0.528E+01 0.970E+00 0.504E+03   -.964E-03 -.877E-03 0.313E+00
   0.852E+00 -.154E+02 -.491E+03   -.850E+00 0.154E+02 0.491E+03   -.237E-02 0.415E-01 0.326E+00
   -.411E-02 -.316E-01 0.688E+02   -.125E-11 -.888E-12 0.341E-11   0.855E-02 0.144E-01 -.688E+02

 POSITION                                       TOTAL-FORCE (eV/Angst)
      8.04631      7.86755     16.95939        -0.024727     -0.006783      0.005801
      9.42637      7.69537     16.92190         0.018131     -0.005275     -0.007093
      9.96959      6.41282     16.96035         0.009272     -0.000430     -0.000265
      9.13265      5.30404     17.04045         0.000260     -0.015013     -0.009073
      7.75087      5.47589     17.07895        -0.002364     -0.019519      0.012107
      7.20879      6.75630     17.03739        -0.012110      0.011974     -0.017775
      7.62282      8.86230     16.92520        -0.129318      0.301751     -0.006628
     10.07797      8.55433     16.84945         0.200272      0.260620     -0.015675
     11.04344      6.28001     16.92630         0.323555     -0.042287     -0.003490
      9.55712      4.30966     17.06263         0.129453     -0.305284      0.013863
      7.09875      4.61491     17.13101        -0.199601     -0.264731      0.022736
      6.13525      6.89192     17.06044        -0.320366      0.038733      0.017021
      2.10122      0.00000      7.50000         0.001037      0.000675      0.285971
      4.20243      2.10122      7.50000         0.002164      0.002721      0.286287
      2.10122      2.10122      9.60122         0.001808      0.001300      0.002932
      4.20243      0.00000      9.60122         0.000657      0.001629      0.004682
      2.10137      0.00040     11.70864         0.000261     -0.001355      0.013888
      4.20279      2.10167     11.70816         0.001499      0.000761      0.015649
      2.10186      2.10206     13.78851         0.001072      0.000065      0.116579
      4.20300      0.00065     13.78847         0.002094      0.001426      0.117466
      2.10122      4.20243      7.50000         0.002447      0.001368      0.286032
      4.20243      6.30365      7.50000         0.003437      0.000024      0.289299
      2.10122      6.30365      9.60122         0.007334     -0.000033      0.003469
      4.20243      4.20243      9.60122         0.007126      0.005407      0.006079
      2.10161      4.20277     11.70822         0.000382      0.000282      0.015250
      4.20449      6.30414     11.70801        -0.000884     -0.001449      0.017746
      2.10200      6.30424     13.78792         0.000617     -0.000618      0.118856
      4.20448      4.20425     13.78615        -0.001951     -0.002565      0.117677
      6.30365      0.00000      7.50000         0.000724      0.002009      0.285812
      0.00000      2.10122      7.50000        -0.000149      0.001316      0.285739
      6.30365      2.10122      9.60122         0.003782      0.007929      0.004878
      0.00000      0.00000      9.60122         0.000270      0.000592      0.006273
      6.30385      0.00040     11.70804         0.000369      0.000803      0.017615
      0.00016      2.10146     11.70849        -0.001051      0.000356      0.014508
      6.30517      2.10320     13.78559         0.000463     -0.001955      0.119769
      0.00024      0.00077     13.78887         0.000028     -0.001184      0.118653
      6.30365      4.20243      7.50000         0.001927      0.002653      0.289396
      0.00000      6.30365      7.50000        -0.000269     -0.000064      0.285126
      6.30365      6.30365      9.60122        -0.001101      0.001236      0.007450
      0.00000      4.20243      9.60122        -0.000181      0.000494      0.003766
      6.30528      4.20456     11.70798         0.000314     -0.000690      0.017079
      0.00006      6.30371     11.70839        -0.000235      0.000159      0.016071
      6.31298      6.30581     13.79116        -0.001068     -0.001554      0.136259
      0.00017      4.20292     13.78839        -0.000214      0.001562      0.117519
      2.10122      8.40486      7.50000         0.002475     -0.000919      0.285950
      4.20243     10.50608      7.50000         0.002469     -0.001838      0.286264
      2.10122     10.50608      9.60122         0.000971      0.000275      0.002220
      4.20243      8.40486      9.60122         0.007920     -0.004267      0.004801
      2.10137      8.40486     11.70769        -0.001158      0.001375      0.015873
      4.20239     10.50620     11.70731        -0.000801      0.000913      0.015864
      2.10131     10.50619     13.78814         0.001939     -0.000079      0.116006
      4.20378      8.40495     13.78355        -0.002079     -0.000012      0.122555
      2.10122     12.60729      7.50000         0.001163     -0.000797      0.286223
      4.20243     14.70851      7.50000         0.000808     -0.000585      0.286012
      2.10122     14.70851      9.60122         0.000437      0.000211      0.003730
      4.20243     12.60729      9.60122         0.000580     -0.000479      0.003573
      2.10108     12.60765     11.70851         0.001408     -0.000700      0.013576
      4.20241     14.70876     11.70845         0.000557      0.000096      0.014042
      2.10138     14.70897     13.78884         0.000322      0.000476      0.115331
      4.20274     12.60743     13.78826         0.000291     -0.001272      0.114723
[...]
      8.40486     10.50608      9.60122        -0.000900      0.013082      0.022993
     14.70851     10.50608      7.50000         0.001455      0.001656     -0.576287
      8.40486      8.40486      7.50000        -0.000237      0.001914     -0.583916
     14.70840      8.40530     13.83431         0.000861      0.000055      0.132447
      8.40498     10.50561     13.84001         0.000127      0.000951      0.130920
     14.70909     10.50648     11.70201        -0.000890      0.000722     -0.012811
      8.40461      8.40968     11.70045         0.000610     -0.001544     -0.005940
     14.70851     12.60729      9.60122         0.002191      0.001810      0.035999
      8.40486     14.70851      9.60122         0.000136      0.002156      0.037940
     14.70851     14.70851      7.50000         0.000560      0.000203     -0.576383
      8.40486     12.60729      7.50000        -0.000032      0.003834     -0.577130
     14.70893     12.60783     13.83469        -0.000055      0.000739      0.131516
      8.40510     14.70893     13.83487        -0.000452     -0.002385      0.131559
     14.70887     14.70894     11.70211        -0.001374     -0.000038     -0.010743
      8.40484     12.60715     11.70256         0.000030     -0.000727     -0.014709
    total drift:                                0.004433     -0.017183     -0.000454

  FREE ENERGIE OF THE ION-ELECTRON SYSTEM (eV)
  free  energy   TOTEN  =     -1579.45650880 eV

  energy  without entropy=    -1579.45650880  energy(sigma->0) =    -1579.45650880