 vasp.6.3.0 20Jan22 (build Apr  1 2022 16:44:48) complex
 executed on        HPECrayEX_GCC date 2022.11.13  21:26:08

 INCAR:
   SYSTEM = MgO-rocksalt
   ISMEAR = 0
   SIGMA = 0.05
   EDIFF = 1E-6
   ALGO = ALL
   ISTART = 0
   IBRION = -1
   NSW = 0
   ISYM = 0
   DIPOL = 0.5 0.5 0.5
   IDIPOL = 3
   LDIPOL = .TRUE.
   LHFCALC = .TRUE.
   GGA = B5
   AEXX = 0.2
   AGGAX = 0.72
   AGGAC = 0.81
   ALDAC = 0.19
   IVDW = 1
   VDW_S6 = 1.05
   VDW_C6 = 1.23 0.70 0.63 0.70
   VDW_R0 = 1.397 1.342 1.243 1.342
   ENCUT = 600
   PREC = Accurate
   LASPH = .TRUE.
   LREAL = .FALSE.
   ISPIN = 2
   MAGMOM = 1.0 0.0 0.0 0.0 0.0 0.0 0.0 0.0 0.0 0.0 0.0 0.0 0.0 0.0 0.0 0.0 0.0 0.0 0.0 0.0 0.0 0.0 0.0 0.0 0.0 0.0 0.0 0.0 0.0 0.0 0.0 0.0 0.0 0.0 0.0 0.0 0.0 0.0 0.0 0.0 0.0 0.0 0.0 0.0 0.0 0.0 0.0 0.0 0.0 0.0 0.0 0.0 0.0 0.0 0.0 0.0 0.0 0.0 0.0 0.0 0.0 0.0 0.0 0.0 0.0 0.0
   NELM = 200
   NELMIN = 8
   NCORE = 8
   KPAR = 1
   LWAVE = .FALSE.
   LCHARG = .FALSE.

 POTCAR:    PAW_PBE N 08Apr2002
 POTCAR:    PAW_PBE O 08Apr2002
 POTCAR:    PAW_PBE Mg_pv 13Apr2007
 POTCAR:    PAW_PBE O 08Apr2002
 POTCAR:    PAW_PBE N 08Apr2002
   VRHFIN =N: s2p3

   TITEL  = PAW_PBE N 08Apr2002
   POMASS =   14.001; ZVAL   =    5.000    mass and valenz
   ENMAX  =  400.000; ENMIN  =  300.000 eV

[...]

   TITEL  = PAW_PBE Mg_pv 13Apr2007
   POMASS =   24.305; ZVAL   =    8.000    mass and valenz
   ENMAX  =  403.929; ENMIN  =  302.947 eV

   TITEL  = PAW_PBE O 08Apr2002
   POMASS =   16.000; ZVAL   =    6.000    mass and valenz
   ENMAX  =  400.000; ENMIN  =  300.000 eV

  PAW_PBE N 08Apr2002                   :
  PAW_PBE O 08Apr2002                   :
  PAW_PBE Mg_pv 13Apr2007               :
  PAW_PBE O 08Apr2002                   :

 POSCAR:  N  O Mg  O
  positions in direct lattice
 exchange correlation table for  LEXCH =       12
   RHO(1)=    0.500       N(1)  =     2000
   RHO(2)=  100.500       N(2)  =     4000

 ion  position               nearest neighbor table
   1  0.500  0.500  0.759-   2 1.17
   2  0.500  0.500  0.814-   1 1.17
   3  0.250  0.000  0.352-  35 2.11  37 2.11  38 2.11  45 2.11  54 2.11
   4  0.500  0.250  0.352-  36 2.11  37 2.11  38 2.11  46 2.11  53 2.11
   5  0.250  0.250  0.451-  37 2.11  36 2.11  35 2.11  43 2.11  52 2.11  41 2.11
   6  0.500  0.000  0.451-  38 2.11  36 2.11  35 2.11  44 2.11  51 2.11  42 2.11
   7  0.250  0.000  0.550-  42 2.11  41 2.11  49 2.11  58 2.11  35 2.12  39 2.14
   8  0.500  0.250  0.550-  50 2.11  41 2.11  57 2.11  42 2.11  36 2.12  40 2.13
   9  0.250  0.250  0.648-  41 2.10  39 2.11  56 2.11  40 2.11  47 2.11
  10  0.500  0.000  0.648-  40 2.10  48 2.10  42 2.10  55 2.11  39 2.11
  11  0.250  0.500  0.352-  43 2.11  37 2.11  45 2.11  46 2.11  62 2.11
  12  0.500  0.750  0.352-  44 2.11  38 2.11  45 2.11  46 2.11  61 2.11
  13  0.250  0.750  0.451-  45 2.11  43 2.11  44 2.11  35 2.11  60 2.11  49 2.11
  14  0.500  0.500  0.451-  46 2.11  43 2.11  44 2.11  36 2.11  59 2.11  50 2.12
  15  0.250  0.500  0.550-  50 2.11  41 2.11  49 2.11  66 2.11  43 2.12  47 2.13
  16  0.500  0.750  0.550-  50 2.11  65 2.11  49 2.11  42 2.11  44 2.12  48 2.13
  17  0.250  0.750  0.648-  49 2.10  39 2.11  64 2.11  48 2.11  47 2.11
  18  0.500  0.500  0.650-  47 2.12  63 2.12  40 2.12  48 2.12  50 2.14
  19  0.750  0.000  0.352-  51 2.11  38 2.11  53 2.11  54 2.11  61 2.11
  20  0.000  0.250  0.352-  52 2.11  37 2.11  53 2.11  54 2.11  62 2.11
  21  0.750  0.250  0.451-  53 2.11  51 2.11  52 2.11  36 2.11  59 2.11  57 2.11
  22  0.000  0.000  0.451-  54 2.11  51 2.11  52 2.11  35 2.11  60 2.11  58 2.11
  23  0.750  1.000  0.550-  42 2.11  65 2.11  57 2.11  58 2.11  51 2.12  55 2.14
  24  0.000  0.250  0.550-  66 2.11  41 2.11  57 2.11  58 2.11  52 2.12  56 2.14
  25  0.750  0.250  0.648-  57 2.10  55 2.11  56 2.11  40 2.11  63 2.11
  26  1.000  0.000  0.648-  58 2.10  39 2.11  55 2.11  56 2.11  64 2.11
  27  0.750  0.500  0.352-  59 2.11  53 2.11  46 2.11  61 2.11  62 2.11
  28  0.000  0.750  0.352-  60 2.11  54 2.11  45 2.11  61 2.11  62 2.11
  29  0.750  0.750  0.451-  61 2.11  51 2.11  59 2.11  60 2.11  44 2.11  65 2.11
  30  0.000  0.500  0.451-  62 2.11  52 2.11  59 2.11  60 2.11  43 2.11  66 2.11
  31  0.750  0.500  0.550-  50 2.11  65 2.11  57 2.11  66 2.11  59 2.12  63 2.13
  32  1.000  0.750  0.550-  66 2.11  65 2.11  49 2.11  58 2.11  60 2.12  64 2.14
  33  0.750  0.750  0.648-  65 2.10  55 2.11  64 2.11  48 2.11  63 2.11
  34  1.000  0.500  0.648-  47 2.10  63 2.10  66 2.10  56 2.11  64 2.11
  35  0.250  0.000  0.451-   3 2.11   5 2.11   6 2.11  13 2.11  22 2.11   7 2.12
  36  0.500  0.250  0.451-   4 2.11   5 2.11   6 2.11  14 2.11  21 2.11   8 2.12
  37  0.250  0.250  0.352-   5 2.11   4 2.11   3 2.11  11 2.11  20 2.11
  38  0.500  0.000  0.352-   6 2.11   4 2.11   3 2.11  12 2.11  19 2.11
  39  0.250  0.000  0.650-  17 2.11  26 2.11   9 2.11  10 2.11   7 2.14
  40  0.500  0.249  0.650-  10 2.10  25 2.11   9 2.11  18 2.12   8 2.13
  41  0.250  0.250  0.550-   9 2.10  24 2.11   7 2.11  15 2.11   8 2.11   5 2.11
  42  0.500  0.000  0.550-  10 2.10   7 2.11  23 2.11   6 2.11   8 2.11  16 2.11
  43  0.250  0.500  0.451-  11 2.11   5 2.11  13 2.11  14 2.11  30 2.11  15 2.12
  44  0.500  0.750  0.451-  12 2.11   6 2.11  13 2.11  14 2.11  29 2.11  16 2.12
  45  0.250  0.750  0.352-  13 2.11  11 2.11  12 2.11   3 2.11  28 2.11
  46  0.500  0.500  0.352-  14 2.11  11 2.11  12 2.11   4 2.11  27 2.11
  47  0.249  0.500  0.650-  34 2.10  17 2.11   9 2.11  18 2.12  15 2.13
  48  0.500  0.751  0.650-  10 2.10  17 2.11  33 2.11  18 2.12  16 2.13
  49  0.250  0.750  0.550-  17 2.10  15 2.11  16 2.11  32 2.11   7 2.11  13 2.11
  50  0.500  0.500  0.550-  15 2.11  31 2.11   8 2.11  16 2.11  14 2.12  18 2.14
  51  0.750  0.000  0.451-  19 2.11   6 2.11  21 2.11  22 2.11  29 2.11  23 2.12
  52  0.000  0.250  0.451-  20 2.11   5 2.11  21 2.11  22 2.11  30 2.11  24 2.12
  53  0.750  0.250  0.352-  21 2.11  19 2.11  20 2.11   4 2.11  27 2.11
  54  0.000  0.000  0.352-  22 2.11  19 2.11  20 2.11   3 2.11  28 2.11
  55  0.750  1.000  0.650-  25 2.11  26 2.11  33 2.11  10 2.11  23 2.14
  56  0.000  0.250  0.650-  25 2.11  26 2.11   9 2.11  34 2.11  24 2.14
  57  0.750  0.250  0.550-  25 2.10  31 2.11   8 2.11  24 2.11  23 2.11  21 2.11
  58  1.000  0.000  0.550-  26 2.10   7 2.11  23 2.11  24 2.11  32 2.11  22 2.11
  59  0.750  0.500  0.451-  27 2.11  21 2.11  14 2.11  29 2.11  30 2.11  31 2.12
  60  0.000  0.750  0.451-  28 2.11  22 2.11  13 2.11  29 2.11  30 2.11  32 2.12
  61  0.750  0.750  0.352-  29 2.11  19 2.11  27 2.11  28 2.11  12 2.11
  62  0.000  0.500  0.352-  30 2.11  20 2.11  27 2.11  28 2.11  11 2.11
  63  0.751  0.500  0.650-  34 2.10  25 2.11  33 2.11  18 2.12  31 2.13
  64  1.000  0.750  0.650-  17 2.11  26 2.11  33 2.11  34 2.11  32 2.14
  65  0.750  0.750  0.550-  33 2.10  32 2.11  23 2.11  31 2.11  16 2.11  29 2.11
  66  0.000  0.500  0.550-  34 2.10  24 2.11  32 2.11  30 2.11  15 2.11  31 2.11

IMPORTANT INFORMATION: All symmetrisations will be switched off!
NOSYMM: (Re-)initialisation of all symmetry stuff for point group C_1.

                                     Primitive cell

  volume of cell :    1519.6535

  direct lattice vectors                    reciprocal lattice vectors
     8.440582262  0.000000000  0.000000000     0.118475239  0.000000000  0.000000000
     0.000000000  8.440582262  0.000000000     0.000000000  0.118475239  0.000000000
     0.000000000  0.000000000 21.330436697     0.000000000  0.000000000  0.046881366

  length of vectors
     8.440582262  8.440582262 21.330436697     0.118475239  0.118475239  0.046881366

  position of ions in fractional coordinates (direct lattice)
     0.500000006  0.499999963  0.759316572
     0.500000041  0.500000004  0.814222806
     0.250000000  0.000000000  0.351610242
     0.500000000  0.250000000  0.351610242
     0.250000000  0.250000000  0.450536747
     0.500000000  0.000000000  0.450536747
     0.250058627  0.000148625  0.549826860
     0.500066338  0.250461958  0.549955170
     0.249997611  0.249993064  0.648241368
     0.499999996  0.000000003  0.648128126
     0.250000000  0.500000000  0.351610242
     0.500000000  0.750000000  0.351610242
     0.250000000  0.750000000  0.450536747
     0.500000000  0.500000000  0.450536747
     0.250463297  0.500066365  0.549955008
     0.499933637  0.749538044  0.549955186
     0.249544921  0.750459637  0.647928714
     0.499999993  0.499999992  0.650234352
     0.750000000  0.000000000  0.351610242
     0.000000000  0.250000000  0.351610242
     0.750000000  0.250000000  0.450536747
     0.000000000  0.000000000  0.450536747
     0.749941356  0.999851383  0.549826863
     0.000148607  0.250058730  0.549827455
     0.750455069  0.249540355  0.647928708
     0.999999997  0.000000003  0.648150058
     0.750000000  0.500000000  0.351610242
     0.000000000  0.750000000  0.351610242
     0.750000000  0.750000000  0.450536747
     0.000000000  0.500000000  0.450536747
     0.749536688  0.499933631  0.549955020
     0.999851383  0.749941274  0.549827460
     0.750002384  0.750006939  0.648241352
     0.999999999  0.499999996  0.648130879
     0.250000000  0.000000000  0.450536747
     0.500000000  0.250000000  0.450536747
     0.250000000  0.250000000  0.351610242
     0.500000000  0.000000000  0.351610242
     0.249806279  0.000137223  0.649998964
     0.500399529  0.248967072  0.649940719
     0.250092463  0.250094860  0.549664790
     0.499999988  0.000000006  0.549577267
     0.250000000  0.500000000  0.450536747
     0.500000000  0.750000000  0.450536747
     0.250000000  0.750000000  0.351610242
     0.500000000  0.500000000  0.351610242
     0.248972279  0.500399663  0.649947145
     0.499600460  0.751032922  0.649940701
     0.249893969  0.750103637  0.549574597
     0.499999985  0.499999996  0.550003000
     0.750000000  0.000000000  0.450536747
     0.000000000  0.250000000  0.450536747
     0.750000000  0.250000000  0.351610242
     0.000000000  0.000000000  0.351610242
     0.750193712  0.999862778  0.649998957
     0.000137229  0.249808167  0.649999787
     0.750106013  0.249896364  0.549574592
     0.999999998  0.000000006  0.549561497
     0.750000000  0.500000000  0.450536747
     0.000000000  0.750000000  0.450536747
     0.750000000  0.750000000  0.351610242
     0.000000000  0.500000000  0.351610242
     0.751027711  0.499600333  0.649947116
     0.999862762  0.750191834  0.649999785
     0.749907527  0.749905146  0.549664792
     0.000000004  0.499999999  0.549579775

  ion indices of the primitive-cell ions
   primitive index   ion index
                 1           1
                 2           2
                 3           3
                 4           4
                 5           5
                 6           6
                 7           7
                 8           8
                 9           9
                10          10
                11          11
                12          12
                13          13
                14          14
                15          15
                16          16
                17          17
                18          18
                19          19
                20          20
[...]
   0.75010601  0.24989636  0.54957459
   1.00000000  0.00000001  0.54956150
   0.75000000  0.50000000  0.45053675
   0.00000000  0.75000000  0.45053675
   0.75000000  0.75000000  0.35161024
   0.00000000  0.50000000  0.35161024
   0.75102771  0.49960033  0.64994712
   0.99986276  0.75019183  0.64999978
   0.74990753  0.74990515  0.54966479
   0.00000000  0.50000000  0.54957977

 position of ions in cartesian coordinates  (Angst):
   4.22029118  4.22029082 16.19655406
   4.22029148  4.22029117 17.36772803
   2.11014557  0.00000000  7.50000000
   4.22029113  2.11014557  7.50000000
   2.11014557  2.11014557  9.61014557
   4.22029113  0.00000000  9.61014557
   2.11064041  0.00125449 11.72804703
   4.22085106  2.11404476 11.73078395
   2.11012540  2.11008702 13.82727146
   4.22029110  0.00000003 13.82485596
   2.11014557  4.22029113  7.50000000
   4.22029113  6.33043670  7.50000000
   2.11014557  6.33043670  9.61014557
   4.22029113  4.22029113  9.61014557
   2.11405606  4.22085129 11.73078048
   4.21973099  6.32653752 11.73078428
   2.10630443  6.33431630 13.82060243
   4.22029108  4.22029106 13.86978268
   6.33043670  0.00000000  7.50000000
   0.00000000  2.11014557  7.50000000
   6.33043670  2.11014557  9.61014557
   0.00000000  0.00000000  9.61014557
   6.32994171  8.43932785 11.72804709
   0.00125433  2.11064128 11.72805972
   6.33427774  2.10626590 13.82060229
   8.44058224  0.00000003 13.82532377
   6.33043670  4.22029113  7.50000000
   0.00000000  6.33043670  7.50000000
   6.33043670  6.33043670  9.61014557
   0.00000000  4.22029113  9.61014557
   6.32652607  4.21973094 11.73078074
   8.43932785  6.32994102 11.72805984
   6.33045681  6.33049526 13.82727111
   8.44058226  4.22029109 13.82491469
   2.11014557  0.00000000  9.61014557
   4.22029113  2.11014557  9.61014557
   2.11014557  2.11014557  7.50000000
   4.22029113  0.00000000  7.50000000
   2.10851044  0.00115825 13.86476176
   4.22366339  2.10142706 13.86351936
   2.11092601  2.11094624 11.72459001
   4.22029103  0.00000005 11.72272311
   2.11014557  4.22029113  9.61014557
   4.22029113  6.33043670  9.61014557
   2.11014557  6.33043670  7.50000000
   4.22029113  4.22029113  7.50000000
   2.10147100  4.22366452 13.86365643
   4.21691878  6.33915516 13.86351897
   2.10925061  6.33131145 11.72266615
   4.22029100  4.22029109 11.73180417
   6.33043670  0.00000000  9.61014557
   0.00000000  2.11014557  9.61014557
   6.33043670  2.11014557  7.50000000
   0.00000000  0.00000000  7.50000000
   6.33207174  8.43942403 13.86476160
   0.00115829  2.10852638 13.86477932
   6.33133151  2.10927081 11.72266604
   8.44058225  0.00000005 11.72238673
   6.33043670  4.22029113  9.61014557
   0.00000000  6.33043670  9.61014557
   6.33043670  6.33043670  7.50000000
   0.00000000  4.22029113  7.50000000
   6.33911118  4.21691771 13.86365582
   8.43942390  6.33205589 13.86477927
   6.32965617  6.32963607 11.72459004
   0.00000003  4.22029112 11.72277659

--------------------------------------- Iteration      FINAL  ---------------------------------------

--------------------OUTCAR has been truncated-------------------------

[...]

--------------------OUTCAR has been truncated-------------------------

  DFT-D2 method for vdW energy calculation

  Parameters of vdW forcefield:
         C6(Jnm^6/mol)     R0(A)
   N        1.230          1.397
   O        0.700          1.342
   Mg       0.630          1.243
   O        0.700          1.342

  vdW correction parametrized for the method        0~

  IVDW =   1
  VDW_RADIUS =    50.000 A
  VDW_S6 =     1.050
  VDW_SR =     1.000
  VDW_D =    20.000
  LVDW_EWALD = F

  Number of pair interactions contributing to vdW energy:  768222
  Edisp (eV):   -5.18178

 VOLUME and BASIS-vectors are now :
  energy-cutoff  :      600.00
  volume of cell :     1519.65
      direct lattice vectors                 reciprocal lattice vectors
     8.440582262  0.000000000  0.000000000     0.118475239  0.000000000  0.000000000
     0.000000000  8.440582262  0.000000000     0.000000000  0.118475239  0.000000000
     0.000000000  0.000000000 21.330436697     0.000000000  0.000000000  0.046881366

  length of vectors
     8.440582262  8.440582262 21.330436697     0.118475239  0.118475239  0.046881366

 FORCES acting on ions:
    Electron-Ion                     Ewald-Force                    Non-Local-Force
   0.513E-04 0.754E-04 -.110E+04   -.599E-04 -.832E-04 0.106E+04   0.811E-05 0.104E-04 0.394E+02
   -.794E-04 -.787E-04 -.153E+04   0.892E-04 0.985E-04 0.159E+04   -.519E-05 -.103E-04 -.549E+02
   0.166E+00 -.711E-02 0.208E+04   -.166E+00 0.765E-02 -.208E+04   -.148E-03 -.388E-03 -.639E+01
   0.850E-02 0.192E+00 0.208E+04   -.849E-02 -.190E+00 -.208E+04   0.759E-05 -.144E-02 -.640E+01
   0.747E+00 0.744E+00 0.721E+03   -.735E+00 -.732E+00 -.722E+03   -.723E-02 -.744E-02 0.405E+00
   -.727E-05 0.232E-04 0.721E+03   0.582E-05 -.241E-04 -.722E+03   0.308E-06 0.226E-05 0.346E+00
   0.337E+01 -.207E+00 -.636E+03   -.333E+01 0.211E+00 0.636E+03   -.305E-01 -.592E-02 -.159E+00
   0.246E+00 0.601E+01 -.627E+03   -.256E+00 -.591E+01 0.628E+03   0.817E-02 -.968E-01 -.264E+00
   0.223E+02 0.223E+02 -.198E+04   -.224E+02 -.224E+02 0.198E+04   0.119E+00 0.116E+00 0.568E+01
   0.146E-05 0.201E-04 -.199E+04   -.215E-05 -.179E-04 0.199E+04   0.246E-05 -.127E-05 0.563E+01
   0.193E+00 0.850E-02 0.208E+04   -.191E+00 -.849E-02 -.208E+04   -.141E-02 0.425E-05 -.640E+01
   -.850E-02 -.192E+00 0.208E+04   0.850E-02 0.190E+00 -.208E+04   -.299E-05 0.143E-02 -.640E+01
   0.743E+00 -.740E+00 0.722E+03   -.743E+00 0.740E+00 -.722E+03   -.467E-03 0.682E-03 0.375E+00
   -.152E-04 -.227E-04 0.722E+03   0.171E-04 0.246E-04 -.723E+03   -.563E-06 -.123E-05 0.470E+00
   0.602E+01 0.246E+00 -.627E+03   -.592E+01 -.256E+00 0.628E+03   -.958E-01 0.816E-02 -.266E+00
   -.246E+00 -.601E+01 -.627E+03   0.256E+00 0.591E+01 0.628E+03   -.816E-02 0.968E-01 -.264E+00
   0.224E+02 -.224E+02 -.198E+04   -.225E+02 0.225E+02 0.197E+04   0.717E-01 -.690E-01 0.568E+01
   -.481E-05 -.234E-04 -.189E+04   0.306E-05 0.217E-04 0.188E+04   0.572E-06 0.250E-05 0.475E+01
   -.166E+00 0.712E-02 0.208E+04   0.166E+00 -.766E-02 -.208E+04   0.147E-03 0.389E-03 -.639E+01
   -.712E-02 0.165E+00 0.208E+04   0.766E-02 -.165E+00 -.208E+04   -.387E-03 -.176E-03 -.639E+01
   -.743E+00 0.740E+00 0.722E+03   0.743E+00 -.740E+00 -.722E+03   0.467E-03 -.684E-03 0.375E+00
   0.607E-05 0.137E-04 0.720E+03   -.608E-05 -.133E-04 -.720E+03   0.759E-07 0.336E-06 0.371E+00
   -.337E+01 0.207E+00 -.636E+03   0.333E+01 -.211E+00 0.636E+03   0.305E-01 0.592E-02 -.159E+00
   -.207E+00 0.336E+01 -.636E+03   0.211E+00 -.332E+01 0.636E+03   -.593E-02 -.316E-01 -.160E+00
   -.224E+02 0.224E+02 -.198E+04   0.225E+02 -.225E+02 0.197E+04   -.717E-01 0.690E-01 0.568E+01
   0.520E-05 0.810E-05 -.201E+04   -.423E-05 -.874E-05 0.200E+04   -.320E-06 0.816E-06 0.559E+01
   -.193E+00 -.851E-02 0.208E+04   0.191E+00 0.850E-02 -.208E+04   0.140E-02 -.417E-05 -.640E+01
   0.712E-02 -.165E+00 0.208E+04   -.766E-02 0.165E+00 -.208E+04   0.387E-03 0.176E-03 -.639E+01
   -.747E+00 -.744E+00 0.721E+03   0.735E+00 0.732E+00 -.722E+03   0.723E-02 0.744E-02 0.405E+00
   0.165E-04 -.125E-04 0.721E+03   -.172E-04 0.131E-04 -.722E+03   0.124E-05 0.456E-06 0.346E+00
   -.602E+01 -.246E+00 -.627E+03   0.592E+01 0.256E+00 0.628E+03   0.958E-01 -.815E-02 -.266E+00
   0.207E+00 -.336E+01 -.636E+03   -.211E+00 0.332E+01 0.636E+03   0.592E-02 0.316E-01 -.160E+00
   -.223E+02 -.223E+02 -.198E+04   0.224E+02 0.224E+02 0.198E+04   -.119E+00 -.116E+00 0.568E+01
   0.114E-04 -.153E-04 -.199E+04   -.106E-04 0.129E-04 0.199E+04   -.646E-06 0.294E-05 0.563E+01
   0.494E+00 -.372E-01 0.540E+03   -.489E+00 0.250E-01 -.540E+03   -.619E-02 0.148E-01 -.734E-01
   0.617E-01 0.687E+00 0.541E+03   -.630E-01 -.716E+00 -.541E+03   0.132E-02 0.343E-01 -.949E-01
   0.134E+00 0.133E+00 0.156E+04   -.133E+00 -.132E+00 -.157E+04   -.911E-03 -.976E-03 0.313E+01
   -.109E-05 0.472E-05 0.156E+04   0.959E-06 -.333E-05 -.157E+04   0.390E-06 0.462E-07 0.313E+01
   0.869E+01 -.285E+00 -.152E+04   -.863E+01 0.316E+00 0.152E+04   -.569E-01 -.292E-01 -.433E+01
   0.256E+00 0.306E+02 -.148E+04   -.276E+00 -.304E+02 0.149E+04   0.130E-01 -.177E+00 -.427E+01
   0.340E+01 0.339E+01 -.469E+03   -.338E+01 -.337E+01 0.469E+03   -.212E-01 -.227E-01 0.269E+00
   0.339E-06 0.109E-04 -.469E+03   -.128E-06 -.118E-04 0.469E+03   0.856E-06 0.499E-06 0.265E+00
   0.690E+00 0.617E-01 0.541E+03   -.720E+00 -.630E-01 -.541E+03   0.345E-01 0.132E-02 -.952E-01
   -.617E-01 -.687E+00 0.541E+03   0.630E-01 0.716E+00 -.541E+03   -.132E-02 -.343E-01 -.949E-01
   0.135E+00 -.134E+00 0.156E+04   -.134E+00 0.133E+00 -.157E+04   -.144E-02 0.151E-02 0.313E+01
   -.178E-05 -.562E-05 0.156E+04   0.194E-05 0.335E-05 -.157E+04   0.105E-07 -.522E-06 0.312E+01
   0.306E+02 0.256E+00 -.148E+04   -.304E+02 -.276E+00 0.149E+04   -.177E+00 0.131E-01 -.428E+01
   -.256E+00 -.306E+02 -.148E+04   0.276E+00 0.304E+02 0.149E+04   -.130E-01 0.177E+00 -.427E+01
   0.347E+01 -.347E+01 -.468E+03   -.347E+01 0.346E+01 0.467E+03   -.757E-03 0.225E-02 0.340E+00
   -.667E-05 -.146E-04 -.467E+03   0.632E-05 0.148E-04 0.467E+03   -.173E-06 -.986E-06 -.197E+00
   -.494E+00 0.373E-01 0.540E+03   0.489E+00 -.250E-01 -.540E+03   0.619E-02 -.148E-01 -.734E-01
   -.372E-01 0.491E+00 0.540E+03   0.250E-01 -.486E+00 -.540E+03   0.148E-01 -.637E-02 -.738E-01
   -.135E+00 0.134E+00 0.156E+04   0.134E+00 -.133E+00 -.157E+04   0.144E-02 -.151E-02 0.313E+01
   0.985E-06 0.237E-05 0.156E+04   -.979E-06 -.231E-05 -.157E+04   0.312E-06 0.262E-06 0.313E+01
   -.869E+01 0.285E+00 -.152E+04   0.863E+01 -.316E+00 0.152E+04   0.569E-01 0.292E-01 -.433E+01
   -.285E+00 0.869E+01 -.152E+04   0.316E+00 -.862E+01 0.152E+04   -.292E-01 -.599E-01 -.433E+01
   -.347E+01 0.347E+01 -.468E+03   0.347E+01 -.346E+01 0.467E+03   0.758E-03 -.225E-02 0.340E+00
   0.844E-05 0.106E-04 -.474E+03   -.110E-04 -.109E-04 0.474E+03   0.657E-06 0.669E-06 0.271E+00
   -.690E+00 -.617E-01 0.541E+03   0.720E+00 0.630E-01 -.541E+03   -.345E-01 -.132E-02 -.952E-01
   0.373E-01 -.491E+00 0.540E+03   -.250E-01 0.486E+00 -.540E+03   -.148E-01 0.637E-02 -.738E-01
   -.134E+00 -.133E+00 0.156E+04   0.133E+00 0.132E+00 -.157E+04   0.911E-03 0.976E-03 0.313E+01
   0.114E-06 -.267E-05 0.156E+04   -.195E-05 0.232E-05 -.157E+04   -.248E-06 0.945E-06 0.313E+01
   -.306E+02 -.256E+00 -.148E+04   0.304E+02 0.276E+00 0.149E+04   0.177E+00 -.131E-01 -.428E+01
   0.285E+00 -.869E+01 -.152E+04   -.316E+00 0.862E+01 0.152E+04   0.292E-01 0.599E-01 -.433E+01
   -.340E+01 -.339E+01 -.469E+03   0.338E+01 0.337E+01 0.469E+03   0.212E-01 0.227E-01 0.269E+00
   0.119E-04 -.105E-04 -.469E+03   -.155E-04 0.122E-04 0.469E+03   0.159E-05 -.889E-06 0.262E+00
   -.173E-05 0.492E-05 0.349E+02   0.985E-13 0.175E-12 -.233E-11   0.448E-05 0.486E-05 -.292E+02

 POSITION                                       TOTAL-FORCE (eV/Angst)
      4.22029      4.22029     16.19655         0.000000      0.000003      1.674182
      4.22029      4.22029     17.36773         0.000004      0.000009     -1.486737
      2.11015      0.00000      7.50000         0.000098      0.000109      0.465879
      4.22029      2.11015      7.50000         0.000016      0.000455      0.466367
      2.11015      2.11015      9.61015         0.003851      0.003944      0.025660
      4.22029      0.00000      9.61015        -0.000001      0.000001      0.036351
      2.11064      0.00125     11.72805         0.007141     -0.002272     -0.006764
      4.22085      2.11404     11.73078        -0.001020     -0.007132      0.005096
      2.11013      2.11009     13.82727        -0.004310     -0.002755     -0.143692
      4.22029      0.00000     13.82486         0.000002      0.000001     -0.139302
      2.11015      4.22029      7.50000         0.000441      0.000013      0.466380
      4.22029      6.33044      7.50000        -0.000013     -0.000457      0.466360
      2.11015      6.33044      9.61015        -0.000179      0.000088      0.026268
      4.22029      4.22029      9.61015         0.000001      0.000000      0.035430
      2.11406      4.22085     11.73078        -0.007707     -0.001016      0.006267
      4.21973      6.32654     11.73078         0.001021      0.007132      0.005100
      2.10630      6.33432     13.82060         0.000151     -0.001712     -0.140468
      4.22029      4.22029     13.86978        -0.000001      0.000001     -0.301864
      6.33044      0.00000      7.50000        -0.000100     -0.000106      0.465877
      0.00000      2.11015      7.50000         0.000109      0.000113      0.465887
      6.33044      2.11015      9.61015         0.000178     -0.000089      0.026270
      0.00000      0.00000      9.61015         0.000000      0.000001      0.022091
      6.32994      8.43933     11.72805        -0.007141      0.002273     -0.006761
      0.00125      2.11064     11.72806        -0.002274      0.007600     -0.006456
      6.33428      2.10627     13.82060        -0.000150      0.001709     -0.140467
      8.44058      0.00000     13.82532         0.000000      0.000000     -0.123292
      6.33044      4.22029      7.50000        -0.000442     -0.000014      0.466383
      0.00000      6.33044      7.50000        -0.000107     -0.000114      0.465888
      6.33044      6.33044      9.61015        -0.003852     -0.003946      0.025663
      0.00000      4.22029      9.61015         0.000001      0.000001      0.036715
      6.32653      4.21973     11.73078         0.007708      0.001016      0.006267
      8.43933      6.32994     11.72806         0.002272     -0.007602     -0.006456
      6.33046      6.33050     13.82727         0.004307      0.002754     -0.143702
      8.44058      4.22029     13.82491        -0.000000      0.000000     -0.139045
      2.11015      0.00000      9.61015        -0.002016      0.004663      0.035608
      4.22029      2.11015      9.61015         0.000153      0.010145      0.042403
      2.11015      2.11015      7.50000        -0.000300     -0.000326     -0.436021
      4.22029      0.00000      7.50000         0.000000      0.000001     -0.436028
      2.10851      0.00116     13.86476        -0.002961     -0.002077      0.016883
      4.22366      2.10143     13.86352        -0.005034      0.016485      0.029751
      2.11093      2.11095     11.72459        -0.003914     -0.004539      0.016465
      4.22029      0.00000     11.72272         0.000001     -0.000001      0.012882
      2.11015      4.22029      9.61015         0.010206      0.000154      0.042304
      4.22029      6.33044      9.61015        -0.000155     -0.010147      0.042402
      2.11015      6.33044      7.50000        -0.000502      0.000525     -0.435975
      4.22029      4.22029      7.50000         0.000000     -0.000003     -0.436602
      2.10147      4.22366     13.86366         0.015900     -0.005012      0.026541
      4.21692      6.33916     13.86352         0.005036     -0.016486      0.029749
      2.10925      6.33131     11.72267        -0.000831      0.001459      0.018527
      4.22029      4.22029     11.73180        -0.000001     -0.000001      0.003764
      6.33044      0.00000      9.61015         0.002018     -0.004662      0.035609
      0.00000      2.11015      9.61015         0.004663     -0.002074      0.035549
      6.33044      2.11015      7.50000         0.000499     -0.000524     -0.435979
      0.00000      0.00000      7.50000         0.000000      0.000000     -0.435950
      6.33207      8.43942     13.86476         0.002959      0.002078      0.016881
      0.00116      2.10853     13.86478        -0.002075     -0.004016      0.016667
      6.33133      2.10927     11.72267         0.000832     -0.001461      0.018529
      8.44058      0.00000     11.72239        -0.000002      0.000000      0.023294
      6.33044      4.22029      9.61015        -0.010210     -0.000154      0.042304
      0.00000      6.33044      9.61015        -0.004660      0.002073      0.035548
      6.33044      6.33044      7.50000         0.000302      0.000323     -0.436025
      0.00000      4.22029      7.50000        -0.000002      0.000001     -0.436036
      6.33911      4.21692     13.86366        -0.015899      0.005010      0.026545
      8.43942      6.33206     13.86478         0.002073      0.004017      0.016671
      6.32966      6.32964     11.72459         0.003915      0.004539      0.016468
      0.00000      4.22029     11.72278        -0.000002      0.000001      0.011896
    total drift:                                0.000003      0.000010      0.011283

  FREE ENERGIE OF THE ION-ELECTRON SYSTEM (eV)
  free  energy   TOTEN  =      -454.46453359 eV

  energy  without entropy=     -454.46453359  energy(sigma->0) =     -454.46453359