 vasp.6.4.2 20Jul23 (build Feb 22 2024 13:53:45) complex
 executed on              LinuxNV date 2024.08.27  19:53:27
 OpenACC runtime initialized ...    4 GPUs detected

 INCAR:
   SYSTEM = Oxide-Surface
   ISMEAR = 0
   SIGMA = 0.05
   EDIFF = 1E-5
   ALGO = Normal
   IBRION = -1
   NSW = 0
   ISYM = 0
   DIPOL = 0.5 0.5 0.5
   IDIPOL = 3
   LDIPOL = .TRUE.
   ISTART = 1
   METAGGA = SCAN
   LUSE_VDW = .TRUE.
   BPARAM = 15.7
   CPARAM = 0.0093
   ENCUT = 1000
   PREC = Normal
   PRECFOCK = Normal
   LASPH = .TRUE.
   LREAL = Auto
   ISPIN = 1
   NELM = 200
   NELMIN = 8
   NCORE = 1
   KPAR = 1
   LWAVE = .FALSE.
   LCHARG = .FALSE.

 POTCAR:    PAW_PBE N_h 06Feb2004
 POTCAR:    PAW_PBE O_h 06Feb2004
 POTCAR:    PAW_PBE Mg_sv 12Apr2007
 POTCAR:    PAW_PBE O_h 06Feb2004
|               ----> ADVICE to this user running VASP <----                  |
|     You have switched on vdW-DFT.                                           |
|     This routine was written and supplied by Jiri Klimes. We recommend      |
|     that you carefully read and cite the following publications:            |
|       J. Klimes, D.R. Bowler, A. Michelides                                 |
|          J. Phys.: Cond Matt. 22 022201 (2010)                              |
|       J. Klimes, D.R. Bowler, A. Michelides                                 |
|          Phys. Rev. B. 83, 195131 (2011)                                    |
|     and references therein.                                                 |

   TITEL  = PAW_PBE N_h 06Feb2004
   POMASS =   14.001; ZVAL   =    5.000    mass and valenz
   ENMAX  =  700.000; ENMIN  =  500.000 eV

[...]

   TITEL  = PAW_PBE Mg_sv 12Apr2007
   POMASS =   24.305; ZVAL   =   10.000    mass and valenz
   ENMAX  =  495.223; ENMIN  =  371.417 eV

   TITEL  = PAW_PBE O_h 06Feb2004
   POMASS =   16.000; ZVAL   =    6.000    mass and valenz
   ENMAX  =  700.000; ENMIN  =  500.000 eV

 Optimization of the real space projectors (new method)

 maximal supplied QI-value         = 34.20
 optimisation between [QCUT,QGAM] = [ 16.08, 32.15] = [ 72.37,289.48] Ry
 Optimized for a Real-space Cutoff    0.71 Angstroem

   l    n(q)    QCUT    max X(q) W(low)/X(q) W(high)/X(q)  e(spline)
   0      7    16.076   148.539    0.44E-03    0.75E-03    0.58E-07
   0      7    16.076   106.192    0.44E-03    0.75E-03    0.58E-07
   1      6    16.076    73.877    0.23E-03    0.61E-03    0.11E-06
   1      6    16.076    50.042    0.22E-03    0.60E-03    0.11E-06
 Optimization of the real space projectors (new method)

[...]

   l    n(q)    QCUT    max X(q) W(low)/X(q) W(high)/X(q)  e(spline)
   0      9    16.140     8.730    0.14E-04    0.12E-04    0.27E-07
   0      9    16.140     8.910    0.19E-04    0.17E-04    0.41E-07
   1      9    16.140     2.513    0.16E-04    0.28E-04    0.54E-07
   1      9    16.140     3.341    0.27E-04    0.13E-03    0.17E-06
   2      9    16.140     3.683    0.18E-03    0.21E-03    0.81E-07
 Optimization of the real space projectors (new method)

 maximal supplied QI-value         = 34.20
 optimisation between [QCUT,QGAM] = [ 16.08, 32.15] = [ 72.37,289.48] Ry
 Optimized for a Real-space Cutoff    0.71 Angstroem

   l    n(q)    QCUT    max X(q) W(low)/X(q) W(high)/X(q)  e(spline)
   0      7    16.076   280.207    0.42E-03    0.69E-03    0.60E-07
   0      7    16.076   228.978    0.42E-03    0.69E-03    0.61E-07
   1      6    16.076    86.127    0.11E-03    0.66E-03    0.10E-06
   1      6    16.076    65.368    0.11E-03    0.65E-03    0.10E-06
  PAW_PBE N_h 06Feb2004                 :
  PAW_PBE O_h 06Feb2004                 :
  PAW_PBE Mg_sv 12Apr2007               :
  PAW_PBE O_h 06Feb2004                 :

 POSCAR:  N  O Mg  O
  positions in direct lattice

 METAGGA = SCAN                                        LMAXTAU =  6    LMIXTAU =  F

 ion  position               nearest neighbor table
   1  0.525  0.547  0.776-   2 1.14
   2  0.624  0.638  0.766-   1 1.14   3 1.20
   3  0.727  0.733  0.755-   2 1.20
   4  0.000  0.750  0.224-
   5  0.250  0.000  0.224-
   6  0.000  0.000  0.349-
   7  0.250  0.750  0.349-
   8  1.000  0.750  0.474-
   9  0.250  1.000  0.474-
  10  0.000  0.000  0.597-
  11  0.250  0.750  0.597-
  12  0.000  0.250  0.224-
  13  0.250  0.500  0.224-
  14  0.000  0.500  0.349-
  15  0.250  0.250  0.349-
  16  0.000  0.250  0.474-
  17  0.250  0.500  0.473-
  18  0.000  0.500  0.597-
  19  0.250  0.250  0.598-
  20  0.500  0.750  0.224-
  21  0.750  0.000  0.224-
  22  0.500  0.000  0.349-
  23  0.750  0.750  0.349-
  24  0.500  0.750  0.474-
  25  0.750  1.000  0.474-
  26  0.500  0.000  0.597-
  27  0.751  0.751  0.598-
  28  0.500  0.250  0.224-
  29  0.750  0.500  0.224-
  30  0.500  0.500  0.349-
  31  0.750  0.250  0.349-
  32  0.500  0.250  0.473-
  33  0.750  0.500  0.474-
  34  0.499  0.499  0.597-
  35  0.750  0.250  0.597-
  36  0.000  0.750  0.349-
  37  0.250  0.000  0.349-
  38  0.000  0.000  0.224-
  39  0.250  0.750  0.224-
  40  0.001  0.750  0.600-
  41  0.250  1.000  0.600-
  42  0.000  0.000  0.473-
  43  0.250  0.750  0.473-
  44  0.000  0.250  0.349-
  45  0.250  0.500  0.349-
  46  0.000  0.500  0.224-
  47  0.250  0.250  0.224-
  48  1.000  0.250  0.600-
  49  0.250  0.500  0.600-
  50  1.000  0.500  0.473-
  51  0.250  0.250  0.473-
  52  0.500  0.750  0.349-
  53  0.750  0.000  0.349-
  54  0.500  0.000  0.224-
  55  0.750  0.750  0.224-
  56  0.500  0.750  0.601-
  57  0.750  0.001  0.600-
  58  0.500  1.000  0.473-
  59  0.750  0.750  0.473-
  60  0.500  0.250  0.349-
  61  0.750  0.500  0.349-
  62  0.500  0.500  0.224-
  63  0.750  0.250  0.224-
  64  0.500  0.250  0.600-
  65  0.750  0.500  0.601-
  66  0.500  0.500  0.473-
  67  0.750  0.250  0.473-

IMPORTANT INFORMATION: All symmetrisations will be switched off!
NOSYMM: (Re-)initialisation of all symmetry stuff for point group C_1.

                                     Primitive cell

  volume of cell :    1211.2538

  direct lattice vectors                    reciprocal lattice vectors
     8.440984654  0.000000000  0.000000000     0.118469591  0.000000000  0.000000000
     0.000000000  8.440984654  0.000000000     0.000000000  0.118469591  0.000000000
     0.000000000  0.000000000 17.000000000     0.000000000  0.000000000  0.058823529

  length of vectors
     8.440984654  8.440984654 17.000000000     0.118469591  0.118469591  0.058823529

  position of ions in fractional coordinates (direct lattice)
     0.524944584  0.547217405  0.775559749
     0.623769281  0.637956602  0.766018695
     0.727373100  0.733121941  0.754888579
     0.000013589  0.750000194  0.224440251
     0.250013589  0.000000194  0.224440251
     0.000013589  0.000000194  0.348572378
     0.250013589  0.750000194  0.348572378
     0.999966561  0.750070127  0.473605150
     0.249973769  0.999999806  0.473574844
     0.000085356  0.000081940  0.597372974
     0.249911674  0.749854424  0.597278904
     0.000013589  0.250000194  0.224440251
     0.250013589  0.500000194  0.224440251
     0.000013589  0.500000194  0.348572378
     0.250013589  0.250000194  0.348572378
     0.000017243  0.249980157  0.473578238
     0.249762180  0.499976802  0.473496967
     0.000015781  0.500169160  0.597346508
     0.249951061  0.249969241  0.597528815
     0.500013589  0.750000194  0.224440251
     0.750013589  0.000000194  0.224440251
     0.500013589  0.000000194  0.348572378
     0.750013589  0.750000194  0.348572378
     0.500273599  0.749982319  0.473747038
     0.750103789  0.999951129  0.473603294
     0.500188527  0.000063732  0.597268966
     0.751053112  0.750996103  0.598352833
     0.500013589  0.250000194  0.224440251
     0.750013589  0.500000194  0.224440251
     0.500013589  0.500000194  0.348572378
     0.750013589  0.250000194  0.348572378
     0.499983585  0.249784354  0.473489942
     0.749980441  0.500264035  0.473747642
     0.498953542  0.498986092  0.596951454
     0.749883494  0.249927580  0.597279352
     0.000013589  0.750000194  0.348572378
     0.250013589  0.000000194  0.348572378
     0.000013589  0.000000194  0.224440251
     0.250013589  0.750000194  0.224440251
     0.000512942  0.750094692  0.599721879
     0.250123386  0.999979282  0.600249487
     0.000150473  0.000132421  0.473209985
     0.250249984  0.750027907  0.473193538
     0.000013589  0.250000194  0.348572378
     0.250013589  0.500000194  0.348572378
     0.000013589  0.500000194  0.224440251
     0.250013589  0.250000194  0.224440251
     0.999986411  0.250117343  0.600233718
     0.249734853  0.499887790  0.599784938
     0.999791148  0.499924508  0.473255248
     0.249972411  0.249941824  0.473253190
     0.500013589  0.750000194  0.348572378
     0.750013589  0.000000194  0.348572378
     0.500013589  0.000000194  0.224440251
     0.750013589  0.750000194  0.224440251
     0.499914099  0.749702939  0.600650516
     0.750105757  0.000531742  0.599687753
     0.499934306  0.999831741  0.473236830
     0.749939395  0.749919876  0.473484321
     0.500013589  0.250000194  0.348572378
     0.750013589  0.500000194  0.348572378
     0.500013589  0.500000194  0.224440251
     0.750013589  0.250000194  0.224440251
     0.499875703  0.249746572  0.599863902
     0.749534934  0.499934376  0.600724769
     0.499995259  0.499984022  0.473233981
     0.750019295  0.250251889  0.473198844

  ion indices of the primitive-cell ions
   primitive index   ion index
                 1           1
                 2           2
                 3           3
                 4           4
                 5           5
                 6           6
                 7           7
                 8           8
                 9           9
                10          10
                11          11
                12          12
                13          13
                14          14
                15          15
                16          16
                17          17
                18          18
                19          19
                20          20
                21          21
                22          22
                23          23
                24          24
                25          25
                26          26
                27          27
                28          28
                29          29
                30          30
                31          31
                32          32
                33          33
                34          34
                35          35
                36          36
                37          37
                38          38
                39          39
                40          40
                41          41
                42          42
                43          43
                44          44
                45          45
                46          46
                47          47
                48          48
                49          49
                50          50
                51          51
                52          52
                53          53
                54          54
                55          55
                56          56
                57          57
[...]
   6.33090136  2.11237235  8.04438034

--------------------------------------- Iteration      FINAL  ---------------------------------------

--------------------OUTCAR has been truncated-------------------------

[...]

--------------------OUTCAR has been truncated-------------------------

  FORCE on cell =-STRESS in cart. coord.  units (eV):
  Direction    XX          YY          ZZ          XY          YZ          ZX
  Alpha Z  1248.51953  1248.51953  1248.51953
  Ewald  105300.17532105226.91819************   403.92923   -85.57265   -95.12632
  Hartree122337.91049122302.53923************   180.66476   -39.47913   -43.78181
  E(xc)   -3521.13542 -3521.10998 -3520.65880    -0.17994     0.03838     0.05173
  Local  ************************236304.56895  -543.44551   116.68410   129.53892
  n-local -5558.69532 -5559.41247 -5563.43583     4.24453    -0.90520    -1.03732
  augment   822.88724   822.94273   816.86273    -0.33435     0.07206     0.08701
  Kinetic 12895.89158 12903.89312 12953.05832   -47.00047     9.62497    10.84725
  Fock        0.00000     0.00000     0.00000     0.00000     0.00000     0.00000
  Total     -47.71173   -47.28766   -12.70898    -2.12175     0.46253     0.57945
  in kB     -63.11035   -62.54942   -16.81071    -2.80653     0.61181     0.76646

 VOLUME and BASIS-vectors are now :
  energy-cutoff  :     1000.00
  volume of cell :     1211.25
      direct lattice vectors                 reciprocal lattice vectors
     8.440984654  0.000000000  0.000000000     0.118469591  0.000000000  0.000000000
     0.000000000  8.440984654  0.000000000     0.000000000  0.118469591  0.000000000
     0.000000000  0.000000000 17.000000000     0.000000000  0.000000000  0.058823529

  length of vectors
     8.440984654  8.440984654 17.000000000     0.118469591  0.118469591  0.058823529

 FORCES acting on ions
    electron-ion (+dipol)            ewald-force                    non-local-force                 convergence-correction
   0.213E+03 0.195E+03 -.927E+03   -.250E+03 -.230E+03 0.935E+03   0.380E+02 0.348E+02 -.748E+01   -.505E-04 -.626E-04 0.807E-03
   0.115E+02 0.105E+02 -.950E+03   -.167E+02 -.154E+02 0.952E+03   0.442E+01 0.406E+01 -.105E+01   -.855E-04 -.979E-04 0.641E-03
   -.216E+03 -.199E+03 -.117E+04   0.265E+03 0.244E+03 0.116E+04   -.494E+02 -.455E+02 0.906E+01   0.344E-03 0.314E-03 0.450E-03
   -.102E+01 -.799E+00 0.244E+04   0.103E+01 0.800E+00 -.242E+04   -.568E-02 -.128E-02 -.965E+01   0.158E-04 0.368E-04 -.150E-02
   0.872E+00 -.959E+00 0.244E+04   -.874E+00 0.961E+00 -.243E+04   -.143E-02 -.233E-02 -.966E+01   -.694E-04 0.385E-04 -.157E-02
   -.117E+01 -.130E+01 0.843E+03   0.119E+01 0.131E+01 -.844E+03   -.158E-01 -.140E-01 0.775E+00   -.271E-04 -.194E-04 -.317E-02
   0.116E+01 -.109E+01 0.845E+03   -.112E+01 0.111E+01 -.845E+03   -.311E-01 -.157E-01 0.754E+00   -.197E-04 0.166E-05 -.309E-02
   -.772E+01 -.357E+01 -.734E+03   0.768E+01 0.358E+01 0.734E+03   0.473E-01 -.142E-01 -.305E+00   -.625E-04 -.124E-04 -.289E-02
   0.387E+01 -.512E+01 -.747E+03   -.388E+01 0.512E+01 0.747E+03   0.173E-01 -.216E-02 -.223E-01   0.180E-04 -.777E-04 -.294E-02
   -.248E+02 -.257E+02 -.234E+04   0.248E+02 0.257E+02 0.233E+04   0.860E-02 0.408E-02 0.793E+01   -.164E-03 -.144E-03 -.208E-02
   0.277E+02 -.193E+02 -.232E+04   -.279E+02 0.193E+02 0.231E+04   0.160E+00 0.283E-01 0.802E+01   0.866E-04 0.520E-05 -.209E-02
   -.848E+00 0.795E+00 0.244E+04   0.851E+00 -.796E+00 -.243E+04   -.553E-02 0.111E-02 -.966E+01   0.243E-04 -.473E-04 -.153E-02
   0.105E+01 0.963E+00 0.244E+04   -.106E+01 -.966E+00 -.243E+04   -.667E-03 0.240E-02 -.965E+01   -.730E-04 -.301E-04 -.147E-02
   -.112E+01 0.132E+01 0.845E+03   0.107E+01 -.134E+01 -.845E+03   0.352E-01 0.116E-01 0.800E+00   -.638E-05 0.204E-04 -.314E-02
   0.118E+01 0.107E+01 0.843E+03   -.120E+01 -.109E+01 -.844E+03   0.145E-01 0.167E-01 0.788E+00   -.102E-04 -.520E-06 -.319E-02
   -.451E+01 0.341E+01 -.748E+03   0.452E+01 -.342E+01 0.748E+03   -.281E-02 0.105E-01 -.320E-01   -.854E-04 0.942E-05 -.296E-02
   0.636E+01 0.528E+01 -.736E+03   -.639E+01 -.528E+01 0.736E+03   -.369E-02 0.242E-02 -.240E+00   0.680E-05 0.801E-04 -.295E-02
   -.311E+02 0.274E+02 -.232E+04   0.313E+02 -.274E+02 0.231E+04   -.173E+00 -.158E-01 0.795E+01   -.233E-03 0.143E-03 -.209E-02
   0.178E+02 0.175E+02 -.234E+04   -.178E+02 -.175E+02 0.234E+04   -.223E-02 -.385E-02 0.786E+01   0.515E-05 -.778E-05 -.229E-02
   0.103E+01 -.987E+00 0.243E+04   -.104E+01 0.987E+00 -.242E+04   -.107E-02 -.967E-03 -.968E+01   -.161E-04 0.452E-04 -.141E-02
   -.875E+00 -.113E+01 0.244E+04   0.878E+00 0.114E+01 -.243E+04   -.500E-02 -.257E-02 -.965E+01   0.632E-04 0.275E-04 -.150E-02
   0.119E+01 -.127E+01 0.845E+03   -.121E+01 0.123E+01 -.845E+03   0.121E-01 0.328E-01 0.794E+00   0.257E-04 -.118E-04 -.308E-02
   -.122E+01 -.108E+01 0.846E+03   0.119E+01 0.105E+01 -.847E+03   0.206E-01 0.223E-01 0.855E+00   0.226E-04 0.163E-04 -.308E-02
   0.794E+01 -.609E+01 -.726E+03   -.789E+01 0.612E+01 0.726E+03   -.219E-01 -.323E-01 0.330E-01   0.634E-04 0.204E-05 -.283E-02
   -.404E+01 -.833E+01 -.733E+03   0.406E+01 0.828E+01 0.734E+03   -.158E-01 0.461E-01 -.325E+00   -.179E-04 -.565E-04 -.287E-02
   0.267E+02 -.357E+02 -.231E+04   -.267E+02 0.359E+02 0.230E+04   -.387E-01 -.166E+00 0.805E+01   0.160E-03 -.210E-03 -.206E-02
   -.380E+02 -.330E+02 -.219E+04   0.383E+02 0.333E+02 0.219E+04   -.338E+00 -.325E+00 0.748E+01   -.403E-04 -.284E-04 -.188E-02
   0.853E+00 0.976E+00 0.244E+04   -.856E+00 -.978E+00 -.243E+04   -.457E-03 0.152E-02 -.965E+01   -.214E-04 -.487E-04 -.149E-02
   -.106E+01 0.114E+01 0.243E+04   0.106E+01 -.115E+01 -.242E+04   -.440E-02 0.150E-02 -.968E+01   0.705E-04 -.265E-04 -.138E-02
   0.118E+01 0.133E+01 0.847E+03   -.115E+01 -.130E+01 -.847E+03   -.233E-01 -.223E-01 0.799E+00   0.974E-05 0.102E-04 -.308E-02
   -.121E+01 0.102E+01 0.845E+03   0.123E+01 -.983E+00 -.845E+03   -.148E-01 -.318E-01 0.757E+00   0.157E-04 -.184E-04 -.311E-02
   0.465E+01 0.584E+01 -.737E+03   -.466E+01 -.587E+01 0.737E+03   0.477E-02 -.716E-03 -.201E+00   0.890E-04 -.244E-05 -.293E-02
   -.659E+01 0.854E+01 -.727E+03   0.661E+01 -.849E+01 0.727E+03   -.330E-01 -.247E-01 0.568E-01   -.621E-05 0.545E-04 -.284E-02
   0.384E+02 0.443E+02 -.223E+04   -.386E+02 -.446E+02 0.222E+04   0.194E+00 0.233E+00 0.796E+01   0.212E-03 0.189E-03 -.195E-02
   -.191E+02 0.235E+02 -.232E+04   0.191E+02 -.237E+02 0.231E+04   0.132E-01 0.155E+00 0.801E+01   -.150E-04 0.562E-04 -.211E-02
   -.788E+00 -.536E+00 0.506E+03   0.795E+00 0.535E+00 -.506E+03   -.102E-01 0.104E-02 -.187E-01   -.146E-04 0.219E-05 -.152E-02
   0.603E+00 -.731E+00 0.505E+03   -.605E+00 0.726E+00 -.505E+03   0.137E-02 0.729E-02 -.490E-01   -.832E-05 -.113E-04 -.155E-02
   -.542E+00 -.600E+00 0.148E+04   0.546E+00 0.603E+00 -.148E+04   -.579E-02 -.434E-02 0.249E+01   0.125E-04 0.108E-04 -.948E-03
   0.606E+00 -.516E+00 0.148E+04   -.604E+00 0.519E+00 -.148E+04   -.273E-02 -.397E-02 0.250E+01   -.441E-04 0.295E-04 -.891E-03
   -.287E+02 -.870E+01 -.141E+04   0.287E+02 0.870E+01 0.141E+04   0.183E-01 0.715E-03 -.461E+01   -.118E-03 -.440E-05 -.138E-02
   0.869E+01 -.109E+02 -.144E+04   -.868E+01 0.109E+02 0.144E+04   -.184E-01 0.272E-01 -.457E+01   0.269E-04 -.119E-03 -.148E-02
   -.342E+01 -.364E+01 -.441E+03   0.341E+01 0.363E+01 0.440E+03   0.578E-02 0.632E-02 0.276E+00   -.399E-04 -.353E-04 -.152E-02
   0.325E+01 -.280E+01 -.436E+03   -.325E+01 0.280E+01 0.436E+03   -.142E-01 -.528E-02 0.313E+00   0.152E-04 0.605E-05 -.153E-02
   -.642E+00 0.530E+00 0.505E+03   0.637E+00 -.533E+00 -.505E+03   0.632E-02 0.350E-02 -.466E-01   -.172E-04 -.219E-05 -.155E-02
   0.732E+00 0.741E+00 0.506E+03   -.716E+00 -.734E+00 -.506E+03   -.208E-01 -.912E-02 -.610E-02   -.107E-04 0.734E-05 -.154E-02
   -.579E+00 0.602E+00 0.148E+04   0.578E+00 -.606E+00 -.148E+04   0.444E-03 0.448E-02 0.249E+01   0.234E-04 -.571E-05 -.866E-03
   0.551E+00 0.513E+00 0.148E+04   -.554E+00 -.516E+00 -.148E+04   0.322E-02 0.391E-02 0.251E+01   -.280E-04 -.328E-04 -.932E-03
   -.947E+01 0.763E+01 -.144E+04   0.945E+01 -.763E+01 0.144E+04   0.232E-01 -.114E-01 -.457E+01   -.121E-03 0.965E-05 -.150E-02
   0.214E+02 0.121E+02 -.142E+04   -.214E+02 -.121E+02 0.142E+04   0.656E-01 -.992E-02 -.463E+01   0.464E-04 0.123E-03 -.149E-02
   -.359E+01 0.378E+01 -.437E+03   0.359E+01 -.378E+01 0.437E+03   0.856E-02 0.657E-02 0.317E+00   -.564E-04 0.343E-04 -.154E-02
   0.282E+01 0.266E+01 -.443E+03   -.281E+01 -.265E+01 0.443E+03   -.987E-02 -.651E-02 0.227E+00   -.158E-05 -.444E-05 -.157E-02
   0.846E+00 -.721E+00 0.507E+03   -.871E+00 0.727E+00 -.507E+03   0.309E-01 -.790E-02 -.760E-01   0.198E-04 0.581E-06 -.149E-02
   -.609E+00 -.877E+00 0.506E+03   0.607E+00 0.884E+00 -.506E+03   0.196E-02 -.898E-02 -.177E-01   0.124E-04 -.111E-04 -.152E-02
   0.545E+00 -.654E+00 0.148E+04   -.549E+00 0.653E+00 -.148E+04   0.392E-02 0.150E-02 0.249E+01   -.931E-05 0.268E-04 -.902E-03
   -.611E+00 -.556E+00 0.147E+04   0.609E+00 0.553E+00 -.148E+04   0.162E-02 0.340E-02 0.248E+01   0.418E-04 0.407E-04 -.814E-03
   0.344E+02 -.251E+02 -.137E+04   -.342E+02 0.251E+02 0.137E+04   -.147E+00 0.449E-01 -.435E+01   0.923E-04 -.194E-04 -.125E-02
   -.994E+01 -.303E+02 -.141E+04   0.994E+01 0.303E+02 0.141E+04   -.438E-03 0.329E-01 -.462E+01   -.208E-04 -.112E-03 -.134E-02
   0.356E+01 -.408E+01 -.436E+03   -.356E+01 0.407E+01 0.436E+03   0.412E-02 0.137E-01 0.335E+00   0.390E-04 -.528E-04 -.152E-02
   -.346E+01 -.303E+01 -.429E+03   0.347E+01 0.305E+01 0.429E+03   -.760E-02 -.115E-01 0.134E+00   -.128E-04 -.922E-05 -.147E-02
   0.653E+00 0.660E+00 0.506E+03   -.646E+00 -.647E+00 -.506E+03   -.941E-02 -.159E-01 -.791E-02   0.152E-04 -.432E-05 -.154E-02
   -.800E+00 0.933E+00 0.507E+03   0.807E+00 -.957E+00 -.506E+03   -.102E-01 0.313E-01 -.776E-01   0.710E-05 0.121E-04 -.150E-02
   0.586E+00 0.661E+00 0.147E+04   -.583E+00 -.659E+00 -.148E+04   -.368E-02 -.256E-02 0.248E+01   -.204E-04 -.239E-04 -.803E-03
   -.553E+00 0.550E+00 0.148E+04   0.556E+00 -.548E+00 -.148E+04   -.525E-02 -.251E-02 0.250E+01   0.269E-04 -.423E-04 -.865E-03
   0.103E+02 0.198E+02 -.142E+04   -.103E+02 -.198E+02 0.142E+04   -.137E-01 0.639E-01 -.462E+01   0.123E-03 0.321E-04 -.146E-02
   -.258E+02 0.357E+02 -.137E+04   0.258E+02 -.356E+02 0.138E+04   0.185E-01 -.153E+00 -.439E+01   -.377E-04 0.976E-04 -.126E-02
   0.378E+01 0.428E+01 -.427E+03   -.379E+01 -.429E+01 0.427E+03   0.928E-02 0.543E-02 0.425E+00   0.544E-04 0.498E-04 -.151E-02
   -.295E+01 0.284E+01 -.437E+03   0.296E+01 -.284E+01 0.437E+03   -.856E-02 -.541E-02 0.317E+00   0.344E-05 0.111E-04 -.153E-02
   0.721E+01 0.662E+01 0.238E+02   -.160E-12 -.217E-12 -.131E-11   -.727E+01 -.673E+01 -.226E+02   0.229E-03 0.151E-03 -.117E+00

 POSITION                                       TOTAL-FORCE (eV/Angst)
      4.43105      4.61905     13.18452         1.802953      1.594110     -0.383585
      5.26523      5.38498     13.02232        -0.610376     -0.556723      0.000190
      6.13975      6.18827     12.83311        -1.111098     -1.063289      0.157309
      0.00011      6.33074      3.81548        -0.000959      0.002042      0.361634
      2.11036      0.00000      3.81548        -0.002200      0.002310      0.362371
      0.00011      0.00000      5.92573         0.004060      0.004965      0.133188
      2.11036      6.33074      5.92573         0.009373      0.005991      0.135451
      8.44070      6.33133      8.05129        -0.000122      0.001289      0.171673
      2.11002      8.44098      8.05077         0.003761     -0.000600      0.172973
      0.00072      0.00069     10.15534         0.003598      0.004675     -0.229517
      2.10950      6.32951     10.15374         0.006136      0.023050     -0.137092
      0.00011      2.11025      3.81548        -0.000933      0.001339      0.362015
      2.11036      4.22049      3.81548        -0.001781      0.001083      0.360466
      0.00011      4.22049      5.92573        -0.010506     -0.001042      0.135949
      2.11036      2.11025      5.92573        -0.003619     -0.002746      0.131835
      0.00015      2.11008      8.05083        -0.001641      0.004477      0.174487
      2.10824      4.22030      8.04945        -0.032070     -0.000690      0.110715
      0.00013      4.22192     10.15489         0.006869     -0.005753     -0.202202
      2.10983      2.10999     10.15799        -0.015363     -0.009807     -0.294021
      4.22061      6.33074      3.81548        -0.002247      0.001678      0.366843
      6.33085      0.00000      3.81548        -0.001175      0.002196      0.361815
      4.22061      0.00000      5.92573        -0.002507     -0.008502      0.134935
      6.33085      6.33074      5.92573        -0.004016     -0.003123      0.145210
      4.22280      6.33059      8.05370         0.029418     -0.003500      0.149562
      6.33161      8.44057      8.05126         0.003965      0.000182      0.167626
      4.22208      0.00054     10.15357        -0.023519     -0.002776     -0.122677
      6.33963      6.33915     10.17200        -0.016456     -0.026581     -0.009248
      4.22061      2.11025      3.81548        -0.002330      0.001488      0.360592
      6.33085      4.22049      3.81548        -0.001367      0.000873      0.366800
      4.22061      4.22049      5.92573         0.005833      0.007287      0.138059
      6.33085      2.11025      5.92573         0.004449      0.010813      0.135738
      4.22035      2.10843      8.04933        -0.001506     -0.028243      0.108570
      6.33057      4.22272      8.05371        -0.005734      0.028274      0.149194
      4.21166      4.21193     10.14817        -0.057677     -0.045360     -0.062136
      6.32976      2.10963     10.15375         0.016547      0.003457     -0.138139
      0.00011      6.33074      5.92573        -0.001935      0.001692      0.076348
      2.11036      0.00000      5.92573         0.001043      0.003307      0.066003
      0.00011      0.00000      3.81548        -0.000878      0.000688     -0.348844
      2.11036      6.33074      3.81548        -0.000243      0.000751     -0.342250
      0.00433      6.33154     10.19527        -0.003054     -0.000204     -0.197570
      2.11129      8.44081     10.20424        -0.002299      0.001693     -0.216205
      0.00127      0.00112      8.04457        -0.005507     -0.003948      0.002728
      2.11236      6.33097      8.04429        -0.008070     -0.001526      0.001739
      0.00011      2.11025      5.92573         0.001915      0.002680      0.066827
      2.11036      4.22049      5.92573        -0.003691     -0.000387      0.073465
      0.00011      4.22049      3.81548         0.000626      0.002715     -0.350135
      2.11036      2.11025      3.81548         0.001201      0.002591     -0.339835
      8.44087      2.11124     10.20397        -0.000159     -0.000465     -0.215293
      2.10801      4.21955     10.19634         0.009737      0.005795     -0.205883
      8.43922      4.21986      8.04534         0.007264      0.008586      0.009108
      2.11001      2.10976      8.04530         0.001570      0.004838     -0.004499
      4.22061      6.33074      5.92573         0.007375     -0.000243      0.069139
      6.33085      0.00000      5.92573         0.000659     -0.000471      0.076559
      4.22061      0.00000      3.81548         0.001366      0.002093     -0.350421
      6.33085      6.33074      3.81548         0.000939      0.002577     -0.343733
      4.21977      6.32823     10.21106        -0.003557      0.002422     -0.185002
      6.33163      0.00449     10.19469        -0.002197     -0.000998     -0.198148
      4.21994      8.43956      8.04503         0.006585      0.007987      0.011309
      6.33023      6.33006      8.04923         0.005881      0.005551      0.011963
      4.22061      2.11025      5.92573        -0.001570     -0.001401      0.072344
      6.33085      4.22049      5.92573        -0.001965      0.008646      0.068733
      4.22061      4.22049      3.81548        -0.000544      0.000883     -0.351589
      6.33085      2.11025      3.81548        -0.000770      0.001048     -0.342110
      4.21944      2.10811     10.19769         0.004181      0.009524     -0.209995
      6.32681      4.21994     10.21232         0.002001     -0.004322     -0.196028
      4.22045      4.22036      8.04498        -0.001002      0.000613      0.012853
      6.33090      2.11237      8.04438        -0.002663     -0.005559      0.001842
    total drift:                               -0.059701     -0.113003      1.096112

  FREE ENERGIE OF THE ION-ELECTRON SYSTEM (eV)
  free  energy   TOTEN  =      -555.64580194 eV

  energy  without entropy=     -555.64580194  energy(sigma->0) =     -555.64580194