 vasp.6.4.2 20Jul23 (build Feb 22 2024 13:53:45) complex
 executed on              LinuxNV date 2024.08.27  14:19:27
 OpenACC runtime initialized ...    4 GPUs detected

 INCAR:
   SYSTEM = Oxide-Surface
   ISMEAR = 0
   SIGMA = 0.05
   EDIFF = 1E-5
   ALGO = Normal
   IBRION = -1
   NSW = 0
   ISYM = 0
   DIPOL = 0.5 0.5 0.5
   IDIPOL = 3
   LDIPOL = .TRUE.
   ISTART = 1
   GGA = PE
   IVDW = 11
   ENCUT = 1000
   PREC = Normal
   PRECFOCK = Normal
   LASPH = .TRUE.
   LREAL = Auto
   ISPIN = 1
   NELM = 200
   NELMIN = 8
   NCORE = 1
   KPAR = 1
   LWAVE = .FALSE.
   LCHARG = .FALSE.

 POTCAR:    PAW_PBE C_h 06Feb2004
 POTCAR:    PAW_PBE H_h 06Feb2004
 POTCAR:    PAW_PBE Mg_sv 12Apr2007
 POTCAR:    PAW_PBE O_h 06Feb2004
 POTCAR:    PAW_PBE C_h 06Feb2004
   VRHFIN =C: s2p2

   TITEL  = PAW_PBE C_h 06Feb2004
   POMASS =   12.011; ZVAL   =    4.000    mass and valenz
   ENMAX  =  700.000; ENMIN  =  500.000 eV

[...]

   TITEL  = PAW_PBE Mg_sv 12Apr2007
   POMASS =   24.305; ZVAL   =   10.000    mass and valenz
   ENMAX  =  495.223; ENMIN  =  371.417 eV

   TITEL  = PAW_PBE O_h 06Feb2004
   POMASS =   16.000; ZVAL   =    6.000    mass and valenz
   ENMAX  =  700.000; ENMIN  =  500.000 eV

 Optimization of the real space projectors (new method)

 maximal supplied QI-value         = 34.20
 optimisation between [QCUT,QGAM] = [ 16.08, 32.15] = [ 72.37,289.48] Ry
 Optimized for a Real-space Cutoff    0.71 Angstroem

   l    n(q)    QCUT    max X(q) W(low)/X(q) W(high)/X(q)  e(spline)
   0      7    16.076   134.812    0.49E-03    0.92E-03    0.59E-07
   0      7    16.076    80.524    0.48E-03    0.91E-03    0.58E-07
   1      6    16.076    79.026    0.37E-03    0.58E-03    0.12E-06
   1      6    16.076    45.188    0.36E-03    0.56E-03    0.12E-06
 Optimization of the real space projectors (new method)

[...]

   l    n(q)    QCUT    max X(q) W(low)/X(q) W(high)/X(q)  e(spline)
   0      9    16.140     8.730    0.14E-04    0.12E-04    0.27E-07
   0      9    16.140     8.910    0.19E-04    0.17E-04    0.41E-07
   1      9    16.140     2.513    0.16E-04    0.28E-04    0.54E-07
   1      9    16.140     3.341    0.27E-04    0.13E-03    0.17E-06
   2      9    16.140     3.683    0.18E-03    0.21E-03    0.81E-07
 Optimization of the real space projectors (new method)

 maximal supplied QI-value         = 34.20
 optimisation between [QCUT,QGAM] = [ 16.08, 32.15] = [ 72.37,289.48] Ry
 Optimized for a Real-space Cutoff    0.71 Angstroem

   l    n(q)    QCUT    max X(q) W(low)/X(q) W(high)/X(q)  e(spline)
   0      7    16.076   280.207    0.42E-03    0.69E-03    0.60E-07
   0      7    16.076   228.978    0.42E-03    0.69E-03    0.61E-07
   1      6    16.076    86.127    0.11E-03    0.66E-03    0.10E-06
   1      6    16.076    65.368    0.11E-03    0.65E-03    0.10E-06
  PAW_PBE C_h 06Feb2004                 :
  PAW_PBE H_h 06Feb2004                 :
  PAW_PBE Mg_sv 12Apr2007               :
  PAW_PBE O_h 06Feb2004                 :

 POSCAR:  C  H Mg  O
  positions in direct lattice
 exchange correlation table for  LEXCH =        8
   RHO(1)=    0.500       N(1)  =     2000
   RHO(2)=  100.500       N(2)  =     4000

 ion  position               nearest neighbor table
   1  0.625  0.500  0.760-   3 1.10   2 1.10   4 1.10   5 1.10
   2  0.625  0.606  0.797-   1 1.10
   3  0.625  0.394  0.797-   1 1.10
   4  0.732  0.500  0.723-   1 1.10
   5  0.518  0.500  0.723-   1 1.10
   6  0.125  0.750  0.203-
   7  0.375  0.000  0.203-
   8  0.125  0.000  0.327-
   9  0.375  0.750  0.327-
  10  0.125  0.750  0.452-
  11  0.375  1.000  0.452-
  12  0.125  1.000  0.576-
  13  0.375  0.750  0.576-
  14  0.125  0.250  0.203-
  15  0.375  0.500  0.203-
  16  0.125  0.500  0.327-
  17  0.375  0.250  0.327-
  18  0.125  0.250  0.452-
  19  0.375  0.500  0.452-
  20  0.125  0.500  0.576-
  21  0.375  0.250  0.576-
  22  0.625  0.750  0.203-
  23  0.875  0.000  0.203-
  24  0.625  0.000  0.327-
  25  0.875  0.750  0.327-
  26  0.625  0.750  0.452-
  27  0.875  0.000  0.452-
  28  0.625  1.000  0.576-
  29  0.875  0.750  0.576-
  30  0.625  0.250  0.203-
  31  0.875  0.500  0.203-
  32  0.625  0.500  0.327-
  33  0.875  0.250  0.327-
  34  0.625  0.250  0.452-
  35  0.875  0.500  0.452-
  36  0.625  0.500  0.576-
  37  0.875  0.250  0.576-
  38  0.125  0.750  0.327-
  39  0.375  0.000  0.327-
  40  0.125  0.000  0.203-
  41  0.375  0.750  0.203-
  42  0.125  0.750  0.578-
  43  0.375  0.000  0.579-
  44  0.125  1.000  0.452-
  45  0.375  0.750  0.452-
  46  0.125  0.250  0.327-
  47  0.375  0.500  0.327-
  48  0.125  0.500  0.203-
  49  0.375  0.250  0.203-
  50  0.125  0.250  0.578-
  51  0.375  0.500  0.578-
  52  0.125  0.500  0.452-
  53  0.375  0.250  0.452-
  54  0.625  0.750  0.327-
  55  0.875  0.000  0.327-
  56  0.625  0.000  0.203-
  57  0.875  0.750  0.203-
  58  0.625  0.750  0.578-
  59  0.875  0.000  0.579-
  60  0.625  1.000  0.452-
  61  0.875  0.750  0.452-
  62  0.625  0.250  0.327-
  63  0.875  0.500  0.327-
  64  0.625  0.500  0.203-
  65  0.875  0.250  0.203-
  66  0.625  0.250  0.578-
  67  0.875  0.500  0.578-
  68  0.625  0.500  0.452-
  69  0.875  0.250  0.452-

IMPORTANT INFORMATION: All symmetrisations will be switched off!
NOSYMM: (Re-)initialisation of all symmetry stuff for point group C_1.

                                     Primitive cell

  volume of cell :    1211.2538

  direct lattice vectors                    reciprocal lattice vectors
     8.440984654  0.000000000  0.000000000     0.118469591  0.000000000  0.000000000
     0.000000000  8.440984654  0.000000000     0.000000000  0.118469591  0.000000000
     0.000000000  0.000000000 17.000000000     0.000000000  0.000000000  0.058823529

  length of vectors
     8.440984654  8.440984654 17.000000000     0.118469591  0.118469591  0.058823529

  position of ions in fractional coordinates (direct lattice)
     0.624874723  0.499997702  0.760129327
     0.624874667  0.606400246  0.797180401
     0.624874661  0.393601766  0.797179749
     0.731963124  0.500000082  0.723349296
     0.517786221  0.500000086  0.723349275
     0.124874701  0.750000001  0.202819599
     0.374874701  0.000000001  0.202819599
     0.124874701  0.000000001  0.326951726
     0.374874701  0.750000001  0.326951726
     0.124874704  0.750032169  0.451932988
     0.374867470  0.999999999  0.451925450
     0.124874712  0.999999992  0.575783509
     0.374991216  0.750097341  0.575612586
     0.124874701  0.250000001  0.202819599
     0.374874701  0.500000001  0.202819599
     0.124874701  0.500000001  0.326951726
     0.374874701  0.250000001  0.326951726
     0.124874708  0.249967823  0.451932992
     0.374983146  0.500000002  0.451948183
     0.124874712  0.499999995  0.575568334
     0.374991205  0.249902632  0.575612581
     0.624874701  0.750000001  0.202819599
     0.874874701  0.000000001  0.202819599
     0.624874701  0.000000001  0.326951726
     0.874874701  0.750000001  0.326951726
     0.624874696  0.749901113  0.451984522
     0.874881955  0.000000006  0.451925445
     0.624874708  0.999999999  0.575658965
     0.874758227  0.750097345  0.575612601
     0.624874701  0.250000001  0.202819599
     0.874874701  0.500000001  0.202819599
     0.624874701  0.500000001  0.326951726
     0.874874701  0.250000001  0.326951726
     0.624874702  0.250098875  0.451984502
     0.874766288  0.499999992  0.451948190
     0.624874715  0.499999989  0.576325730
     0.874758224  0.249902626  0.575612601
     0.124874701  0.750000001  0.326951726
     0.374874701  0.000000001  0.326951726
     0.124874701  0.000000001  0.202819599
     0.374874701  0.750000001  0.202819599
     0.124874712  0.750041777  0.578461591
     0.374814565  0.000000004  0.578506137
     0.124874716  0.999999982  0.451658755
     0.374798799  0.750012793  0.451587177
     0.124874701  0.250000001  0.326951726
     0.374874701  0.500000001  0.326951726
     0.124874701  0.500000001  0.202819599
     0.374874701  0.250000001  0.202819599
     0.124874718  0.249958210  0.578461567
     0.374624152  0.499999983  0.578487550
     0.124874718  0.500000004  0.451540272
     0.374798803  0.249987199  0.451587172
     0.624874701  0.750000001  0.326951726
     0.874874701  0.000000001  0.326951726
     0.624874701  0.000000001  0.202819599
     0.874874701  0.750000001  0.202819599
     0.624874705  0.750141603  0.578186521
     0.874934875  0.000000005  0.578506145
     0.624874715  0.999999988  0.451528368
     0.874950615  0.750012792  0.451587179
     0.624874701  0.250000001  0.326951726
     0.874874701  0.500000001  0.326951726
     0.624874701  0.500000001  0.202819599
     0.874874701  0.250000001  0.202819599
     0.624874705  0.249858389  0.578186513
     0.875125299  0.499999988  0.578487554
     0.624874718  0.499999993  0.451751169
     0.874950602  0.249987190  0.451587179

  ion indices of the primitive-cell ions
   primitive index   ion index
                 1           1
                 2           2
                 3           3
                 4           4
                 5           5
                 6           6
                 7           7
                 8           8
                 9           9
                10          10
                11          11
                12          12
                13          13
                14          14
                15          15
                16          16
                17          17
                18          18
                19          19
                20          20
                21          21
                22          22
                23          23
                24          24
                25          25
                26          26
                27          27
                28          28
                29          29
                30          30
                31          31
                32          32
                33          33
                34          34
                35          35
                36          36
                37          37
                38          38
                39          39
                40          40
                41          41
                42          42
                43          43
                44          44
                45          45
                46          46
                47          47
                48          48
                49          49
                50          50
                51          51
                52          52
                53          53
                54          54
                55          55
                56          56
                57          57
                58          58
                59          59
                60          60
                61          61
                62          62
                63          63
                64          64
                65          65
                66          66
                67          67
                68          68
                69          69

 KPOINTS: pymatgen v2020.8.13 with grid density =

Automatic generation of k-mesh.
 Grid dimensions read from file:
[...]
  Hartree125089.01972125087.64659************    -0.00000    -0.00013     0.00037
  E(xc)   -3252.41781 -3252.43622 -3258.38089     0.00000     0.00001    -0.00003
  Local  ************************242880.85477     0.00000     0.00201    -0.00044
  n-local -5630.91461 -5630.93082 -5631.39907    -0.00000    -0.00000     0.05179
  augment   724.27624   724.18070   714.90167     0.00000    -0.00000    -0.00069
  Kinetic 12605.92201 12605.97087 12623.21591    -0.00000     0.00008     0.00301
  Fock        0.00000     0.00000     0.00000     0.00000     0.00000     0.00000
  vdW       -12.13742   -12.15288    -7.80365     0.00000     0.00000     0.00000
  Total     -27.60224   -27.76747     0.23354     0.00000    -0.00075     0.05401
  in kB     -36.51067   -36.72922     0.30892     0.00000    -0.00099     0.07144

 VOLUME and BASIS-vectors are now :
  energy-cutoff  :     1000.00
  volume of cell :     1211.25
      direct lattice vectors                 reciprocal lattice vectors
     8.440984654  0.000000000  0.000000000     0.118469591  0.000000000  0.000000000
     0.000000000  8.440984654  0.000000000     0.000000000  0.118469591  0.000000000
     0.000000000  0.000000000 17.000000000     0.000000000  0.000000000  0.058823529

  length of vectors
     8.440984654  8.440984654 17.000000000     0.118469591  0.118469591  0.058823529

 FORCES acting on ions
    electron-ion (+dipol)            ewald-force                    non-local-force                 convergence-correction
   -.271E-04 -.157E-02 -.674E+03   -.198E-04 0.141E-02 0.674E+03   0.156E-01 0.176E-02 -.916E-01   -.435E-06 -.900E-06 -.534E-04
   -.968E-05 -.430E+02 -.151E+03   -.217E-04 0.474E+02 0.154E+03   0.631E-03 -.450E+01 -.315E+01   -.488E-07 0.731E-05 0.163E-04
   -.708E-05 0.430E+02 -.151E+03   -.246E-04 -.474E+02 0.154E+03   0.631E-03 0.450E+01 -.315E+01   -.305E-07 -.759E-05 0.162E-04
   -.435E+02 -.830E-03 -.186E+03   0.480E+02 0.885E-03 0.183E+03   -.456E+01 -.119E-03 0.304E+01   0.403E-05 -.300E-06 -.237E-04
   0.435E+02 -.831E-03 -.186E+03   -.480E+02 0.887E-03 0.183E+03   0.456E+01 -.120E-03 0.304E+01   -.420E-05 -.232E-06 -.237E-04
   -.238E-02 -.775E+00 0.244E+04   -.362E-05 0.774E+00 -.243E+04   0.315E-02 0.772E-04 -.916E+01   -.305E-06 -.761E-05 0.428E-04
   0.805E+00 0.677E-05 0.244E+04   -.806E+00 -.717E-05 -.243E+04   -.153E-02 0.259E-06 -.916E+01   0.102E-04 -.992E-07 0.401E-04
   -.499E-03 -.213E-05 0.823E+03   -.690E-05 -.756E-07 -.824E+03   0.291E-02 0.784E-06 0.703E+00   0.328E-07 0.117E-05 -.567E-04
   0.834E+00 -.881E+00 0.825E+03   -.832E+00 0.882E+00 -.825E+03   -.140E-02 -.490E-03 0.680E+00   -.578E-06 -.310E-06 -.662E-04
   -.126E-02 -.289E+01 -.786E+03   -.280E-04 0.290E+01 0.786E+03   -.119E-02 -.850E-02 -.316E+00   -.476E-07 -.263E-05 -.240E-03
   0.291E+01 0.552E-04 -.786E+03   -.290E+01 -.539E-04 0.786E+03   -.976E-02 -.173E-05 -.299E+00   0.584E-05 0.277E-06 -.234E-03
   -.330E-03 0.852E-04 -.239E+04   0.258E-04 -.874E-04 0.239E+04   0.209E-02 -.267E-06 0.778E+01   -.395E-07 0.204E-05 -.105E-03
   0.184E+02 -.185E+02 -.237E+04   -.184E+02 0.186E+02 0.236E+04   -.417E-01 -.798E-01 0.780E+01   0.402E-04 -.227E-04 -.694E-04
   -.238E-02 0.775E+00 0.244E+04   -.324E-05 -.774E+00 -.243E+04   0.315E-02 -.772E-04 -.916E+01   0.345E-07 0.795E-05 0.445E-04
   0.102E+01 -.624E-05 0.244E+04   -.102E+01 0.705E-05 -.243E+04   -.323E-02 -.401E-06 -.916E+01   0.130E-04 -.163E-06 0.220E-04
   -.485E-03 0.272E-05 0.825E+03   -.208E-04 -.986E-06 -.825E+03   0.290E-02 -.941E-06 0.657E+00   0.266E-06 -.855E-06 -.667E-04
   0.834E+00 0.881E+00 0.825E+03   -.832E+00 -.882E+00 -.825E+03   -.140E-02 0.490E-03 0.680E+00   -.158E-05 0.103E-05 -.663E-04
   -.124E-02 0.289E+01 -.786E+03   -.460E-04 -.290E+01 0.786E+03   -.120E-02 0.849E-02 -.316E+00   0.508E-06 0.147E-05 -.241E-03
   0.482E+01 -.191E-04 -.778E+03   -.479E+01 0.188E-04 0.779E+03   -.341E-01 -.309E-06 -.305E+00   0.144E-04 0.973E-07 -.231E-03
   -.407E-03 -.694E-04 -.238E+04   0.447E-04 0.706E-04 0.237E+04   0.565E-03 -.288E-05 0.777E+01   -.305E-07 -.144E-06 -.820E-04
   0.184E+02 0.185E+02 -.237E+04   -.184E+02 -.186E+02 0.236E+04   -.417E-01 0.798E-01 0.780E+01   0.406E-04 0.228E-04 -.674E-04
   -.239E-02 -.987E+00 0.244E+04   0.404E-05 0.985E+00 -.243E+04   0.315E-02 0.178E-02 -.916E+01   0.676E-06 -.993E-05 0.164E-04
   -.804E+00 0.726E-05 0.244E+04   0.806E+00 -.778E-05 -.243E+04   -.457E-02 0.326E-06 -.916E+01   -.108E-04 -.321E-07 0.384E-04
   -.512E-03 0.365E-04 0.825E+03   0.892E-05 -.406E-04 -.825E+03   0.290E-02 0.243E-05 0.634E+00   -.156E-06 0.134E-06 -.666E-04
   -.832E+00 -.881E+00 0.825E+03   0.832E+00 0.882E+00 -.825E+03   -.235E-03 -.490E-03 0.680E+00   0.106E-05 -.648E-06 -.664E-04
   -.146E-02 -.486E+01 -.777E+03   0.102E-03 0.484E+01 0.778E+03   -.120E-02 0.221E-01 -.488E+00   0.547E-06 -.110E-04 -.217E-03
   -.291E+01 0.107E-03 -.786E+03   0.290E+01 -.104E-03 0.786E+03   0.492E-02 -.371E-05 -.300E+00   -.633E-05 -.261E-06 -.233E-03
   -.431E-03 0.187E-03 -.238E+04   0.662E-04 -.176E-03 0.237E+04   0.600E-03 -.144E-04 0.779E+01   -.780E-07 0.651E-06 -.666E-04
   -.184E+02 -.185E+02 -.237E+04   0.184E+02 0.186E+02 0.236E+04   0.365E-01 -.794E-01 0.780E+01   -.411E-04 -.228E-04 -.699E-04
   -.238E-02 0.987E+00 0.244E+04   0.334E-05 -.985E+00 -.243E+04   0.315E-02 -.178E-02 -.916E+01   0.817E-06 0.112E-04 0.177E-04
   -.102E+01 -.676E-05 0.244E+04   0.102E+01 0.757E-05 -.243E+04   -.287E-02 -.187E-06 -.916E+01   -.127E-04 -.352E-06 0.211E-04
   -.530E-03 -.360E-04 0.826E+03   0.260E-04 0.395E-04 -.826E+03   0.290E-02 -.195E-05 0.711E+00   -.269E-06 -.798E-06 -.768E-04
   -.832E+00 0.881E+00 0.825E+03   0.832E+00 -.882E+00 -.825E+03   -.236E-03 0.490E-03 0.680E+00   0.147E-05 0.104E-05 -.664E-04
   -.140E-02 0.486E+01 -.777E+03   0.444E-04 -.484E+01 0.778E+03   -.120E-02 -.221E-01 -.488E+00   0.278E-06 0.112E-04 -.218E-03
   -.482E+01 -.376E-04 -.778E+03   0.479E+01 0.388E-04 0.779E+03   0.294E-01 -.132E-05 -.305E+00   -.146E-04 0.681E-06 -.231E-03
   -.327E-03 -.312E-03 -.231E+04   0.599E-04 0.293E-03 0.230E+04   0.906E-03 0.154E-04 0.759E+01   -.980E-06 -.304E-06 0.842E-05
   -.184E+02 0.185E+02 -.237E+04   0.184E+02 -.186E+02 0.236E+04   0.365E-01 0.794E-01 0.780E+01   -.411E-04 0.219E-04 -.684E-04
   0.706E-03 -.504E+00 0.494E+03   -.963E-05 0.496E+00 -.493E+03   -.194E-02 0.959E-02 -.853E-01   -.129E-06 -.820E-06 0.229E-04
   0.504E+00 0.100E-04 0.494E+03   -.494E+00 -.108E-04 -.493E+03   -.124E-01 0.930E-07 -.873E-01   -.747E-07 0.393E-06 0.240E-04
   0.636E-04 0.235E-05 0.148E+04   -.143E-05 -.290E-05 -.148E+04   -.132E-02 0.431E-06 0.262E+01   0.601E-07 -.615E-08 0.676E-04
   0.544E+00 -.527E+00 0.148E+04   -.546E+00 0.527E+00 -.148E+04   0.189E-02 0.828E-03 0.261E+01   0.306E-05 -.149E-05 0.554E-04
   0.373E-04 -.606E+01 -.146E+04   0.345E-04 0.606E+01 0.147E+04   0.738E-04 -.201E-02 -.463E+01   -.325E-06 -.660E-05 -.149E-05
   0.590E+01 0.118E-03 -.146E+04   -.590E+01 -.118E-03 0.147E+04   0.582E-02 -.243E-05 -.465E+01   0.150E-04 0.475E-06 0.692E-05
   0.957E-03 -.137E-05 -.468E+03   -.162E-04 -.201E-06 0.467E+03   0.120E-02 0.154E-05 0.251E+00   -.107E-07 0.115E-05 -.329E-04
   0.229E+01 -.228E+01 -.463E+03   -.228E+01 0.228E+01 0.463E+03   -.155E-01 0.428E-03 0.294E+00   0.595E-05 -.296E-05 -.251E-04
   0.707E-03 0.504E+00 0.494E+03   -.103E-04 -.496E+00 -.493E+03   -.194E-02 -.959E-02 -.853E-01   0.394E-06 0.808E-06 0.233E-04
   0.563E+00 -.787E-05 0.494E+03   -.574E+00 0.860E-05 -.494E+03   0.141E-01 -.298E-06 -.857E-01   -.245E-06 -.390E-06 0.223E-04
   0.647E-04 -.201E-05 0.148E+04   -.258E-05 0.282E-05 -.148E+04   -.132E-02 -.379E-06 0.262E+01   -.414E-06 -.420E-06 0.630E-04
   0.544E+00 0.527E+00 0.148E+04   -.546E+00 -.527E+00 -.148E+04   0.189E-02 -.828E-03 0.261E+01   0.298E-05 0.174E-05 0.566E-04
   0.700E-04 0.606E+01 -.146E+04   -.355E-06 -.606E+01 0.147E+04   0.735E-04 0.201E-02 -.463E+01   0.103E-05 0.603E-05 -.161E-05
   0.189E+02 -.100E-03 -.144E+04   -.188E+02 0.917E-04 0.144E+04   -.823E-01 0.124E-04 -.461E+01   0.399E-04 -.849E-06 0.442E-04
   0.109E-02 0.451E-06 -.464E+03   -.896E-05 -.271E-06 0.463E+03   -.937E-03 -.411E-06 0.321E+00   -.478E-08 -.395E-06 -.297E-04
   0.229E+01 0.228E+01 -.463E+03   -.228E+01 -.228E+01 0.463E+03   -.155E-01 -.432E-03 0.294E+00   0.467E-05 0.290E-05 -.241E-04
   0.683E-03 -.567E+00 0.494E+03   0.157E-04 0.581E+00 -.494E+03   -.194E-02 -.174E-01 -.932E-01   -.879E-07 -.697E-06 0.230E-04
   -.506E+00 0.166E-04 0.494E+03   0.494E+00 -.164E-04 -.493E+03   0.143E-01 -.461E-07 -.874E-01   -.137E-06 0.202E-07 0.243E-04
   0.612E-04 0.587E-05 0.148E+04   0.157E-05 -.613E-05 -.148E+04   -.132E-02 0.454E-06 0.261E+01   0.129E-06 -.148E-06 0.554E-04
   -.546E+00 -.527E+00 0.148E+04   0.546E+00 0.527E+00 -.148E+04   0.117E-02 0.828E-03 0.261E+01   -.342E-05 -.175E-05 0.548E-04
   0.658E-05 -.186E+02 -.144E+04   0.653E-04 0.186E+02 0.145E+04   0.132E-02 0.102E+00 -.471E+01   0.101E-05 -.286E-04 0.340E-04
   -.590E+01 0.130E-03 -.146E+04   0.590E+01 -.130E-03 0.147E+04   0.505E-02 -.119E-05 -.465E+01   -.152E-04 -.135E-05 0.659E-05
   0.105E-02 0.380E-04 -.464E+03   0.306E-04 -.365E-04 0.463E+03   -.918E-03 -.698E-06 0.274E+00   0.118E-06 -.750E-06 -.233E-04
   -.229E+01 -.228E+01 -.463E+03   0.228E+01 0.228E+01 0.463E+03   0.192E-01 -.826E-03 0.294E+00   -.643E-05 -.273E-05 -.237E-04
   0.688E-03 0.567E+00 0.494E+03   0.926E-05 -.581E+00 -.494E+03   -.194E-02 0.174E-01 -.932E-01   0.231E-06 0.127E-05 0.226E-04
   -.565E+00 -.118E-04 0.494E+03   0.574E+00 0.129E-04 -.494E+03   -.122E-01 -.107E-05 -.857E-01   0.482E-06 -.126E-06 0.215E-04
   0.596E-04 -.528E-05 0.148E+04   0.278E-05 0.605E-05 -.148E+04   -.132E-02 -.723E-06 0.262E+01   0.300E-06 -.440E-06 0.434E-04
   -.546E+00 0.527E+00 0.148E+04   0.546E+00 -.527E+00 -.148E+04   0.117E-02 -.828E-03 0.261E+01   -.315E-05 0.223E-05 0.558E-04
   0.378E-04 0.186E+02 -.144E+04   0.340E-04 -.186E+02 0.145E+04   0.132E-02 -.102E+00 -.471E+01   -.910E-06 0.284E-04 0.375E-04
   -.189E+02 -.926E-04 -.144E+04   0.188E+02 0.834E-04 0.144E+04   0.957E-01 0.107E-04 -.461E+01   -.393E-04 0.165E-05 0.418E-04
   0.812E-03 -.395E-04 -.460E+03   0.392E-04 0.367E-04 0.459E+03   0.169E-02 0.385E-05 0.131E+00   -.395E-06 0.225E-06 -.973E-05
   -.229E+01 0.228E+01 -.463E+03   0.228E+01 -.228E+01 0.463E+03   0.192E-01 0.827E-03 0.294E+00   -.522E-05 0.247E-05 -.253E-04
   -.110E-01 -.195E-02 0.237E+02   0.391E-12 0.227E-12 -.301E-11   0.349E-01 0.208E-02 -.237E+02   -.163E-05 0.577E-06 -.211E-02

 POSITION                                       TOTAL-FORCE (eV/Angst)
      5.27456      4.22047     12.92220         0.015223      0.001601      0.044598
      5.27456      5.11862     13.55207         0.000252     -0.035827     -0.039711
      5.27456      3.32239     13.55206         0.000252      0.034487     -0.038868
      6.17849      4.22049     12.29694        -0.007825     -0.000067      0.007319
      4.37063      4.22049     12.29694         0.004770     -0.000067      0.006676
      1.05407      6.33074      3.44793         0.000422     -0.000102      0.390928
      3.16431      0.00000      3.44793        -0.003441     -0.000002      0.387956
      1.05407      0.00000      5.55818         0.002052     -0.000002      0.094591
      3.16431      6.33074      5.55818         0.000352      0.000017      0.096617
      1.05407      6.33101      7.68286        -0.002828     -0.001559     -0.007475
      3.16425      8.44098      7.68273         0.001410     -0.000002     -0.010806
      1.05407      8.44098      9.78832         0.001442     -0.000002     -0.043458
      3.16530      6.33156      9.78541        -0.000593     -0.000998     -0.038946
      1.05407      2.11025      3.44793         0.000422      0.000098      0.390928
      3.16431      4.22049      3.44793        -0.003060     -0.000002      0.386861
      1.05407      4.22049      5.55818         0.002052     -0.000002      0.095654
      3.16431      2.11025      5.55818         0.000351     -0.000021      0.096616
      1.05407      2.10997      7.68286        -0.002827      0.001554     -0.007476
      3.16523      4.22049      7.68312        -0.000830     -0.000002     -0.006828
      1.05407      4.22049      9.78466        -0.000144     -0.000004     -0.031556
      3.16530      2.10942      9.78541        -0.000593      0.000995     -0.038948
      5.27456      6.33074      3.44793         0.000425     -0.000494      0.391813
      7.38480      0.00000      3.44793        -0.002753     -0.000002      0.387955
      5.27456      0.00000      5.55818         0.002052     -0.000003      0.098825
      7.38480      6.33074      5.55818        -0.000878      0.000017      0.096616
      5.27456      6.32990      7.68374        -0.002905      0.001510     -0.003466
      7.38487      0.00000      7.68273        -0.006045     -0.000003     -0.011817
      5.27456      8.44098      9.78620        -0.000113     -0.000005     -0.039838
      7.38382      6.33156      9.78541        -0.000322     -0.000547     -0.039466
      5.27456      2.11025      3.44793         0.000425      0.000490      0.391814
      7.38480      4.22049      3.44793        -0.003134     -0.000002      0.386861
      5.27456      4.22049      5.55818         0.002052     -0.000001      0.099976
      7.38480      2.11025      5.55818        -0.000876     -0.000021      0.096616
      5.27456      2.11108      7.68374        -0.002907     -0.001514     -0.003462
      7.38389      4.22049      7.68312        -0.003761     -0.000001     -0.006904
      5.27456      4.22049      9.79754         0.000290     -0.000007     -0.062660
      7.38382      2.10942      9.78541        -0.000325      0.000547     -0.039456
      1.05407      6.33074      5.55818        -0.001592      0.002165      0.073275
      3.16431      0.00000      5.55818        -0.003412     -0.000002      0.068504
      1.05407      0.00000      3.44793        -0.001604     -0.000002     -0.519374
      3.16431      6.33074      3.44793         0.000416      0.000173     -0.525079
      1.05407      6.33109      9.83385        -0.000202     -0.006316      0.020958
      3.16380      0.00000      9.83460         0.007325     -0.000004      0.014000
      1.05407      8.44098      7.67820         0.001793     -0.000001     -0.009950
      3.16367      6.33085      7.67698        -0.000067     -0.000935     -0.004097
      1.05407      2.11025      5.55818        -0.001592     -0.002170      0.073275
      3.16431      4.22049      5.55818         0.002602     -0.000002      0.070435
      1.05407      4.22049      3.44793        -0.001604     -0.000002     -0.518687
      3.16431      2.11025      3.44793         0.000416     -0.000177     -0.525079
      1.05407      2.10989      9.83385        -0.000203      0.006313      0.020961
      3.16220      4.22049      9.83429        -0.004526      0.000001      0.021600
      1.05407      4.22049      7.67618        -0.000207     -0.000003      0.005669
      3.16367      2.11014      7.67698        -0.000068      0.000932     -0.004098
      5.27456      6.33074      5.55818        -0.001592     -0.003911      0.074981
      7.38480      0.00000      5.55818         0.002819     -0.000002      0.068503
      5.27456      0.00000      3.44793        -0.001604     -0.000002     -0.520362
      7.38480      6.33074      3.44793         0.000256      0.000173     -0.525078
      5.27456      6.33193      9.82917         0.001043      0.007798      0.020786
      7.38531      0.00000      9.83460        -0.000590     -0.000004      0.013976
      5.27456      8.44098      7.67598        -0.000180     -0.000002      0.000720
      7.38544      6.33085      7.67698         0.001725     -0.002202     -0.004213
      5.27456      2.11025      5.55818        -0.001593      0.003907      0.074980
      7.38480      4.22049      5.55818        -0.003195     -0.000002      0.070435
      5.27456      4.22049      3.44793        -0.001604     -0.000002     -0.519882
      7.38480      2.11025      3.44793         0.000256     -0.000177     -0.525079
      5.27456      2.10905      9.82917         0.001042     -0.007805      0.020780
      7.38692      4.22049      9.83429         0.013740      0.000001      0.022928
      5.27456      4.22049      7.67977         0.002193     -0.000001     -0.009654
      7.38544      2.11014      7.67698         0.001727      0.002200     -0.004214
    total drift:                                0.023958      0.000130      0.018923

  FREE ENERGIE OF THE ION-ELECTRON SYSTEM (eV)
  free  energy   TOTEN  =      -406.23207859 eV

  energy  without entropy=     -406.23207859  energy(sigma->0) =     -406.23207859