 vasp.6.3.0 20Jan22 (build Mar 11 2022 13:48:16) complex

 executed on             LinuxIFC date 2024.02.15  12:45:47

 INCAR:
   SYSTEM = Oxide-Surface
   ISMEAR = 0
   SIGMA = 0.05
   EDIFF = 1E-5
   ALGO = ALL
   ISTART = 0
   IBRION = -1
   NSW = 0
   ISYM = 2
   DIPOL = 0.5 0.5 0.5
   IDIPOL = 3
   LDIPOL = .TRUE.
   METAGGA = R2SCAN
   LUSE_VDW = .TRUE.
   BPARAM = 11.95
   CPARAM = 0.0093
   LASPH = .TRUE.
   ENCUT = 600
   PREC = Accurate
   LASPH = .TRUE.
   LREAL = .FALSE.
   ISPIN = 1
   NELM = 200
   NELMIN = 8
   NCORE = 19
   KPAR = 1
   LWAVE = .FALSE.
   LCHARG = .FALSE.

 POTCAR:    PAW_PBE C 08Apr2002
 POTCAR:    PAW_PBE O 08Apr2002
 POTCAR:    PAW_PBE Ti_pv 07Sep2000
 POTCAR:    PAW_PBE O 08Apr2002
|               ----> ADVICE to this user running VASP <----                  |
|     You have switched on vdW-DFT.                                           |
|     This routine was written and supplied by Jiri Klimes. We recommend      |
|     that you carefully read and cite the following publications:            |
|       J. Klimes, D.R. Bowler, A. Michelides                                 |
|          J. Phys.: Cond Matt. 22 022201 (2010)                              |
|       J. Klimes, D.R. Bowler, A. Michelides                                 |
|          Phys. Rev. B. 83, 195131 (2011)                                    |
|     and references therein.                                                 |

   TITEL  = PAW_PBE C 08Apr2002
   POMASS =   12.011; ZVAL   =    4.000    mass and valenz
   ENMAX  =  400.000; ENMIN  =  300.000 eV

[...]

   TITEL  = PAW_PBE Ti_pv 07Sep2000
   POMASS =   47.880; ZVAL   =   10.000    mass and valenz
   ENMAX  =  222.335; ENMIN  =  166.751 eV

   TITEL  = PAW_PBE O 08Apr2002
   POMASS =   16.000; ZVAL   =    6.000    mass and valenz
   ENMAX  =  400.000; ENMIN  =  300.000 eV

  PAW_PBE C 08Apr2002                   :
  PAW_PBE O 08Apr2002                   :
  PAW_PBE Ti_pv 07Sep2000               :
  PAW_PBE O 08Apr2002                   :

 POSCAR:  C  O Ti  O
  positions in direct lattice

 METAGGA = R2SCA    LMAXTAU =  6    LMIXTAU =  F

 ion  position               nearest neighbor table
   1  0.500  0.610  0.803-   2 1.18   3 1.18
   2  0.500  0.709  0.808-   1 1.18
   3  0.500  0.512  0.796-   1 1.18
   4  0.750  0.625  0.287-  85 1.95 145 1.95 144 1.95  84 1.95  87 1.98 166 1.98  14 2.96  34 2.96

   5  0.000  0.750  0.287-  86 1.95  87 1.95 106 1.95 107 1.95  88 1.98  35 2.96  15 2.96
   6  0.000  0.625  0.394-  88 1.95 148 1.95  89 1.95 149 1.95  90 1.98  91 1.98  16 2.96  36 2.96

[...]

  83  0.500  0.499  0.709- 237 1.82 243 1.94 242 1.94 183 1.96 182 1.96  73 2.95  53 2.98
  84  0.750  0.750  0.245-   4 1.95  14 1.95
  85  0.750  0.750  0.329-   4 1.95  14 1.95   7 1.98
  86  0.098  0.625  0.287-   5 1.95  35 1.95  44 1.98
  87  0.902  0.625  0.287-   5 1.95  35 1.95   4 1.98
  88  0.000  0.750  0.352-   6 1.95  16 1.95   5 1.98
  89  0.000  0.750  0.435-   6 1.95  16 1.95   9 1.98
  90  0.848  0.625  0.394-   7 1.95  37 1.95   6 1.98
  91  0.152  0.625  0.394-  47 1.95  77 1.95   6 1.98
  92  0.750  0.750  0.458-   8 1.95  18 1.95   7 1.98
  93  0.750  0.750  0.542-   8 1.95  18 1.95  11 2.11
  94  0.098  0.625  0.500-   9 1.95  39 1.95  48 1.98
  95  0.902  0.625  0.500-   9 1.95  39 1.95   8 1.98
  96  1.000  0.750  0.565-  20 1.89  10 1.89   9 2.00
  97  0.000  0.750  0.649-  13 1.81  10 2.02  20 2.02
  98  0.850  0.625  0.607-  10 1.95  11 1.97  41 1.97
  99  0.150  0.625  0.607-  10 1.95  51 1.97  81 1.97
 100  0.750  0.750  0.672-  11 1.86  12 2.10  22 2.10
 101  0.749  0.750  0.756-  12 1.83  22 1.83
 102  0.094  0.625  0.719-  43 1.95  13 1.95  52 2.03
 103  0.906  0.625  0.719-  43 1.95  13 1.95  12 2.03
 104  0.750  0.000  0.245-  14 1.95  24 1.95
 105  0.750  0.000  0.329-  14 1.95  24 1.95  17 1.98
 106  0.098  0.875  0.287-   5 1.95  15 1.95  54 1.98
 107  0.902  0.875  0.287-   5 1.95  15 1.95  14 1.98
 108  0.000  0.000  0.352-  16 1.95  26 1.95  15 1.98
 109  0.000  0.000  0.435-  16 1.95  26 1.95  19 1.98
 110  0.848  0.875  0.394-   7 1.95  17 1.95  16 1.98
 111  0.152  0.875  0.394-  47 1.95  57 1.95  16 1.98
 112  0.750  0.000  0.458-  18 1.95  28 1.95  17 1.98
 113  0.750  0.000  0.542-  18 1.95  28 1.95  21 2.11
 114  0.098  0.875  0.500-   9 1.95  19 1.95  58 1.98
 115  0.902  0.875  0.500-   9 1.95  19 1.95  18 1.98
 116  1.000  0.000  0.565-  30 1.89  20 1.89  19 2.00
 117  1.000  1.000  0.649-  23 1.81  20 2.02  30 2.02
 118  0.850  0.875  0.607-  20 1.95  11 1.97  21 1.97
 119  0.150  0.875  0.607-  20 1.95  51 1.97  61 1.97
 120  0.750  0.000  0.672-  21 1.86  32 2.10  22 2.10
 121  0.750  1.000  0.756-  22 1.83  32 1.83
 122  0.094  0.875  0.719-  13 1.95  23 1.95  62 2.03
 123  0.906  0.875  0.719-  13 1.95  23 1.95  22 2.03
 124  0.750  0.250  0.245-  24 1.95  34 1.95
 125  0.750  0.250  0.329-  24 1.95  34 1.95  27 1.98
 126  0.098  0.125  0.287-  15 1.95  25 1.95  64 1.98
 127  0.902  0.125  0.287-  15 1.95  25 1.95  24 1.98
 128  0.000  0.250  0.352-  26 1.95  36 1.95  25 1.98
 129  0.000  0.250  0.435-  26 1.95  36 1.95  29 1.98
 130  0.848  0.125  0.394-  17 1.95  27 1.95  26 1.98
 131  0.152  0.125  0.394-  57 1.95  67 1.95  26 1.98
 132  0.750  0.250  0.458-  28 1.95  38 1.95  27 1.98
 133  0.750  0.250  0.542-  28 1.95  38 1.95  31 2.11
 134  0.098  0.125  0.500-  19 1.95  29 1.95  68 1.98
 135  0.902  0.125  0.500-  19 1.95  29 1.95  28 1.98
 136  1.000  0.250  0.565-  40 1.89  30 1.89  29 2.00
 137  1.000  0.250  0.649-  33 1.81  40 2.02  30 2.02
 138  0.850  0.125  0.607-  30 1.95  21 1.97  31 1.97
 139  0.150  0.125  0.607-  30 1.95  61 1.97  71 1.97
 140  0.750  0.250  0.672-  31 1.86  32 2.10  42 2.10
 141  0.750  0.250  0.756-  42 1.83  32 1.83
 142  0.094  0.125  0.719-  33 1.95  23 1.95  72 2.03
[...]
 229  0.500  0.500  0.435-  46 1.95  76 1.95  79 1.98
 230  0.348  0.375  0.394-  67 1.95  77 1.95  76 1.98
 231  0.652  0.375  0.394-  27 1.95  37 1.95  76 1.98
 232  0.250  0.500  0.458-  48 1.95  78 1.95  77 1.98
 233  0.250  0.500  0.542-  48 1.95  78 1.95  81 2.11
 234  0.598  0.375  0.500-  69 1.95  79 1.95  38 1.98
 235  0.402  0.375  0.500-  69 1.95  79 1.95  78 1.98
 236  0.500  0.500  0.565-  80 1.89  50 1.90  79 2.00
 237  0.500  0.500  0.649-  83 1.82  50 2.01  80 2.01
 238  0.350  0.375  0.607-  80 1.95  81 1.97  71 1.97
 239  0.650  0.375  0.607-  80 1.95  41 1.97  31 1.97
 240  0.249  0.500  0.672-  81 1.86  52 2.10  82 2.10
 241  0.251  0.500  0.756-  82 1.83  52 1.84
 242  0.594  0.374  0.718-  83 1.94  73 1.94  42 2.03
 243  0.406  0.374  0.718-  83 1.94  73 1.94  82 2.03

  LATTYP: Found a simple orthorhombic cell.
 ALAT       =    11.8303781148
 B/A-ratio  =     1.0992024327
 C/A-ratio  =     2.5825673970

  Lattice vectors:

 A1 = (   0.0000000000, -11.8303781148,   0.0000000000)
 A2 = (  13.0039804036,   0.0000000000,   0.0000000000)
 A3 = (   0.0000000000,   0.0000000000,  30.5527488131)

Analysis of symmetry for initial positions (statically):
 Subroutine PRICEL returns:
 Original cell was already a primitive cell.

 Routine SETGRP: Setting up the symmetry group for a
 simple orthorhombic supercell.

 Subroutine GETGRP returns: Found  2 space group operations
 (whereof  2 operations were pure point group operations)
 out of a pool of  8 trial point group operations.

The static configuration has the point symmetry C_1h.

Analysis of symmetry for dynamics (positions and initial velocities):
 Subroutine PRICEL returns:
 Original cell was already a primitive cell.

[...]

The dynamic configuration has the point symmetry C_1h.

Analysis of constrained symmetry for selective dynamics:
 Subroutine PRICEL returns:
 Original cell was already a primitive cell.

 Routine SETGRP: Setting up the symmetry group for a
 simple orthorhombic supercell.

 Subroutine GETGRP returns: Found  2 space group operations
 (whereof  2 operations were pure point group operations)
 out of a pool of  8 trial point group operations.

The constrained configuration has the point symmetry C_1h.

 Subroutine INISYM returns: Found  2 space group operations
 (whereof  2 operations are pure point group operations),
 and found     1 'primitive' translations

                                     Primitive cell

  volume of cell :    4700.2961

  direct lattice vectors                    reciprocal lattice vectors
    13.003980404  0.000000000  0.000000000     0.076899531  0.000000000  0.000000000
     0.000000000 11.830378115  0.000000000     0.000000000  0.084528152  0.000000000
     0.000000000  0.000000000 30.552748813     0.000000000  0.000000000  0.032730279

  length of vectors
    13.003980404 11.830378115 30.552748813     0.076899531  0.084528152  0.032730279

  position of ions in fractional coordinates (direct lattice)
     0.499999660  0.610168759  0.802732442
     0.499999549  0.708561239  0.808141469
     0.499999786  0.511620407  0.796353529
     0.750000000  0.625000000  0.287188045
     0.000000000  0.750000000  0.287188045
     0.000000000  0.625000000  0.393594023
     0.750000000  0.750000000  0.393594023
     0.750000000  0.625000000  0.500000000
     0.000000000  0.750000000  0.500000000
     0.999999939  0.625012602  0.604131190
     0.750021775  0.750035515  0.610696778
     0.750003064  0.625099460  0.720187232
     0.000000016  0.750048202  0.708165271
     0.750000000  0.875000000  0.287188045
     0.000000000  0.000000000  0.287188045
     0.000000000  0.875000000  0.393594023
     0.750000000  0.000000000  0.393594023
     0.750000000  0.875000000  0.500000000
     0.000000000  0.000000000  0.500000000
     0.999999991  0.875008991  0.604144304
     0.749983712  0.000012875  0.610796716
     0.749876203  0.874991967  0.720525488
     0.999999989  0.999985733  0.708180187
     0.750000000  0.125000000  0.287188045
     0.000000000  0.250000000  0.287188045
     0.000000000  0.125000000  0.393594023
     0.750000000  0.250000000  0.393594023
     0.750000000  0.125000000  0.500000000
     0.000000000  0.250000000  0.500000000
     0.000000067  0.124986485  0.604150370
     0.750020773  0.249966864  0.610793409
     0.749936140  0.125009463  0.720500285
     0.000000014  0.249968494  0.708178592
     0.750000000  0.375000000  0.287188045
     0.000000000  0.500000000  0.287188045
     0.000000000  0.375000000  0.393594023
     0.750000000  0.500000000  0.393594023
     0.750000000  0.375000000  0.500000000
     0.000000000  0.500000000  0.500000000
     0.000000084  0.374994155  0.604134382
     0.750042567  0.499977077  0.610710241
     0.750059276  0.375070994  0.720471486
     0.999999993  0.500046918  0.708154109
     0.250000000  0.625000000  0.287188045
     0.500000000  0.750000000  0.287188045
     0.500000000  0.625000000  0.393594023
     0.250000000  0.750000000  0.393594023
     0.250000000  0.625000000  0.500000000
     0.500000000  0.750000000  0.500000000
     0.499999957  0.624723114  0.604426797
     0.249978087  0.750035507  0.610696776
     0.249996934  0.625099468  0.720187222
     0.500000013  0.750558309  0.708051210
     0.250000000  0.875000000  0.287188045
     0.500000000  0.000000000  0.287188045
[...]
   6.50199036  8.87938859 21.63291076
   3.25099510 10.35158085  8.77438420
   6.50199020  0.00000000  8.77438420
   6.50199020 10.35158085 12.02537931
   3.25099510  0.00000000 12.02537931
   3.25099510 10.35158085 15.27637441
   6.50199020  0.00000000 15.27637441
   6.50198968 10.34956484 18.45418034
[...]
   6.50199020  5.91518906 13.29976351
   4.52537931  4.43639179 12.02537931
   8.47860110  4.43639179 12.02537931
   3.25099510  5.91518906 14.00199020
   3.25099510  5.91518906 16.55075861
   7.77637441  4.43639179 15.27637441
   5.22760600  4.43639179 15.27637441
   6.50199004  5.91530680 17.27591230
   6.50199033  5.91455267 19.83683155
   4.55288322  4.43640225 18.55266361
   8.45109701  4.43640221 18.55266318
   3.24421045  5.91558211 20.51998956
   3.26640132  5.91880495 23.09439213
   7.72931080  4.42764771 21.93714797
   5.27466957  4.42764778 21.93714791

--------------------------------------- Iteration      FINAL  ---------------------------------------

--------------------OUTCAR has been truncated-------------------------

[...]

--------------------OUTCAR has been truncated-------------------------

  FORCE on cell =-STRESS in cart. coord.  units (eV):
  Direction    XX          YY          ZZ          XY          YZ          ZX
  Alpha Z  4721.77504  4721.77504  4721.77504
  Ewald  971201.58764989393.71688************    -0.00102   118.73900     0.00045
  Hartree************************************    -0.00006    55.64015     0.00006
  E(xc)   -9203.57537 -9212.89894 -9201.51614     0.00000     0.00956     0.00000
  Local  ************************************     0.00069  -163.52588    -0.00056
  n-local -5219.26331 -5132.19337 -5264.46354    -0.00001    -0.91122    -0.00017
  augment  5530.94286  5494.90486  5534.44154     0.00001    -0.44990    -0.00000
  Kinetic 29004.09334 28458.54980 29043.51174     0.00008    -9.85559     0.00015
  Fock        0.00000     0.00000     0.00000     0.00000     0.00000     0.00000
  Total     -12.08367   -59.63229   -52.39990     0.00000    -0.35389     0.00000
  in kB      -4.11893   -20.32670   -17.86141     0.00000    -0.12063     0.00000

 VOLUME and BASIS-vectors are now :
  energy-cutoff  :      600.00
  volume of cell :     4700.30
      direct lattice vectors                 reciprocal lattice vectors
    13.003980404  0.000000000  0.000000000     0.076899531  0.000000000  0.000000000
     0.000000000 11.830378115  0.000000000     0.000000000  0.084528152  0.000000000
     0.000000000  0.000000000 30.552748813     0.000000000  0.000000000  0.032730279

  length of vectors
    13.003980404 11.830378115 30.552748813     0.076899531  0.084528152  0.032730279

 FORCES acting on ions:
    Electron-Ion                     Ewald-Force                    Non-Local-Force
   0.305E-02 0.367E+01 -.160E+04   0.842E-04 -.355E+01 0.160E+04   -.244E-20 -.230E-01 -.179E-01
   0.887E-02 -.271E+03 -.237E+04   -.191E-03 0.335E+03 0.238E+04   -.155E-19 -.652E+02 -.108E+02
   0.416E-02 0.268E+03 -.242E+04   0.579E-03 -.331E+03 0.241E+04   0.797E-20 0.639E+02 0.714E+01
   -.240E+00 -.209E-02 0.379E+04   0.240E+00 0.219E-02 -.380E+04   0.104E-03 -.218E-04 0.442E+00
   0.445E-07 -.657E-01 0.398E+04   -.494E-06 0.659E-01 -.397E+04   -.216E-20 -.262E-04 -.402E+01
   0.244E-06 -.872E-02 0.194E+04   -.125E-05 0.874E-02 -.194E+04   -.227E-21 0.739E-05 -.626E-01
   -.463E+00 -.144E+00 0.194E+04   0.461E+00 0.145E+00 -.194E+04   0.286E-03 -.216E-05 0.215E+00
   -.211E+01 -.200E-01 0.169E+02   0.210E+01 0.193E-01 -.160E+02   0.148E-02 0.937E-04 -.140E+00
   0.293E-07 -.724E+00 0.263E+02   0.141E-05 0.727E+00 -.274E+02   0.199E-21 -.778E-03 0.358E+00
   0.131E-03 -.400E+00 -.185E+04   0.862E-04 0.401E+00 0.185E+04   0.132E-20 -.577E-03 0.122E+00
   -.128E+02 -.562E+01 -.190E+04   0.128E+02 0.562E+01 0.190E+04   -.210E-02 -.347E-02 -.142E+00
   -.854E+02 -.463E+01 -.370E+04   0.854E+02 0.464E+01 0.370E+04   0.130E-01 -.591E-03 -.315E+00
   -.118E-04 -.754E+01 -.376E+04   -.159E-03 0.755E+01 0.376E+04   0.231E-21 -.456E-02 0.112E+01
   -.235E+00 -.959E-01 0.379E+04   0.235E+00 0.965E-01 -.380E+04   0.141E-03 -.445E-04 0.442E+00
   0.164E-07 -.613E-01 0.398E+04   -.398E-06 0.614E-01 -.397E+04   -.185E-20 -.840E-05 -.402E+01
   0.547E-07 -.196E+00 0.194E+04   -.733E-06 0.196E+00 -.194E+04   -.286E-21 -.275E-04 -.628E-01
   -.455E+00 -.146E+00 0.194E+04   0.454E+00 0.147E+00 -.194E+04   0.350E-03 0.120E-04 0.214E+00
   -.212E+01 -.116E+01 0.157E+02   0.212E+01 0.117E+01 -.148E+02   0.105E-02 -.121E-02 -.142E+00
   0.943E-06 -.613E+00 0.250E+02   0.273E-05 0.616E+00 -.261E+02   0.156E-20 -.457E-03 0.358E+00
   0.335E-04 -.363E+01 -.185E+04   -.544E-04 0.364E+01 0.185E+04   0.432E-21 -.142E-02 0.122E+00
   -.876E+01 -.403E+01 -.191E+04   0.876E+01 0.403E+01 0.191E+04   0.205E-02 -.652E-03 -.136E+00
   -.459E+02 -.316E+02 -.374E+04   0.459E+02 0.316E+02 0.374E+04   0.212E-01 -.140E-02 -.345E+00
   0.302E-04 -.581E+01 -.377E+04   -.410E-04 0.581E+01 0.377E+04   0.241E-20 -.146E-02 0.113E+01
   -.229E+00 0.211E-02 0.379E+04   0.228E+00 -.218E-02 -.380E+04   0.138E-03 0.211E-05 0.442E+00
   0.184E-07 0.657E-01 0.398E+04   -.393E-06 -.659E-01 -.397E+04   -.453E-21 0.260E-04 -.402E+01
   -.689E-07 0.862E-02 0.194E+04   -.239E-06 -.869E-02 -.194E+04   -.295E-21 0.411E-05 -.629E-01
   -.439E+00 0.144E+00 0.194E+04   0.438E+00 -.145E+00 -.194E+04   0.306E-03 0.875E-05 0.214E+00
   -.194E+01 0.219E-01 0.145E+02   0.194E+01 -.227E-01 -.136E+02   0.121E-02 0.107E-04 -.143E+00
   0.345E-05 0.722E+00 0.251E+02   -.214E-05 -.725E+00 -.263E+02   0.834E-21 0.779E-03 0.359E+00
   -.122E-03 0.308E+00 -.185E+04   -.217E-03 -.309E+00 0.185E+04   0.172E-20 0.138E-02 0.125E+00
   -.924E+01 0.525E+01 -.191E+04   0.924E+01 -.525E+01 0.191E+04   -.522E-03 0.221E-02 -.137E+00
   -.244E+02 0.320E+01 -.375E+04   0.244E+02 -.320E+01 0.375E+04   0.113E-01 -.179E-02 -.343E+00
   -.186E-04 0.663E+01 -.377E+04   -.964E-04 -.663E+01 0.377E+04   0.149E-20 0.453E-02 0.113E+01
   -.233E+00 0.959E-01 0.379E+04   0.233E+00 -.965E-01 -.380E+04   0.122E-03 0.636E-04 0.442E+00
   0.468E-07 0.613E-01 0.398E+04   -.490E-06 -.614E-01 -.397E+04   0.238E-20 0.186E-04 -.402E+01
   0.144E-06 0.196E+00 0.194E+04   -.833E-06 -.196E+00 -.194E+04   0.154E-20 0.191E-04 -.628E-01
   -.447E+00 0.146E+00 0.194E+04   0.446E+00 -.147E+00 -.194E+04   0.205E-03 -.162E-04 0.215E+00
   -.193E+01 0.116E+01 0.158E+02   0.192E+01 -.117E+01 -.149E+02   0.128E-02 0.115E-02 -.142E+00
   0.313E-05 0.620E+00 0.264E+02   -.440E-05 -.623E+00 -.276E+02   -.718E-21 0.347E-03 0.358E+00
   -.140E-03 0.368E+01 -.185E+04   -.319E-03 -.368E+01 0.185E+04   0.332E-20 0.955E-03 0.122E+00
   -.133E+02 0.438E+01 -.190E+04   0.133E+02 -.438E+01 0.190E+04   -.262E-02 0.142E-02 -.146E+00
   -.552E+02 0.332E+02 -.373E+04   0.551E+02 -.332E+02 0.373E+04   0.178E-01 0.410E-02 -.338E+00
   0.257E-04 0.657E+01 -.376E+04   -.936E-04 -.657E+01 0.376E+04   0.130E-20 0.311E-02 0.112E+01
   0.240E+00 -.209E-02 0.379E+04   -.240E+00 0.219E-02 -.380E+04   -.104E-03 -.218E-04 0.442E+00
   -.408E-07 -.731E-01 0.398E+04   0.493E-06 0.734E-01 -.397E+04   -.148E-20 -.581E-04 -.402E+01
   -.194E-06 0.189E-01 0.195E+04   0.127E-05 -.164E-01 -.194E+04   0.139E-20 -.490E-03 -.630E-01
   0.463E+00 -.144E+00 0.194E+04   -.461E+00 0.145E+00 -.194E+04   -.286E-03 -.216E-05 0.215E+00
   0.211E+01 -.200E-01 0.169E+02   -.210E+01 0.193E-01 -.160E+02   -.148E-02 0.937E-04 -.140E+00
   -.329E-05 -.759E+00 0.306E+02   0.185E-04 0.746E+00 -.317E+02   0.124E-21 0.793E-02 0.348E+00
   0.940E-04 -.142E+01 -.182E+04   0.973E-04 0.144E+01 0.182E+04   0.417E-21 -.146E-01 0.123E+00
   0.128E+02 -.562E+01 -.190E+04   -.128E+02 0.562E+01 0.190E+04   0.210E-02 -.347E-02 -.142E+00
   0.854E+02 -.463E+01 -.370E+04   -.854E+02 0.464E+01 0.370E+04   -.130E-01 -.591E-03 -.315E+00
   -.487E-04 -.685E+02 -.362E+04   0.201E-03 0.686E+02 0.362E+04   -.100E-21 -.152E-01 0.116E+01
   0.235E+00 -.959E-01 0.379E+04   -.235E+00 0.965E-01 -.380E+04   -.141E-03 -.445E-04 0.442E+00
   -.854E-08 -.717E-01 0.398E+04   0.386E-06 0.719E-01 -.397E+04   0.108E-20 -.216E-04 -.402E+01
   0.419E-07 -.205E+00 0.195E+04   0.661E-06 0.207E+00 -.194E+04   0.131E-20 -.476E-03 -.632E-01
   0.455E+00 -.146E+00 0.194E+04   -.454E+00 0.147E+00 -.194E+04   -.350E-03 0.120E-04 0.214E+00
   0.212E+01 -.116E+01 0.157E+02   -.212E+01 0.117E+01 -.148E+02   -.105E-02 -.121E-02 -.142E+00
   0.439E-05 -.924E+00 0.295E+02   -.141E-05 0.926E+00 -.307E+02   0.675E-21 0.426E-03 0.347E+00
   0.912E-04 -.105E+02 -.183E+04   0.804E-04 0.105E+02 0.183E+04   -.484E-22 -.340E-03 0.867E-01
[...]
   -.530E+02 0.124E+00 0.116E+04   0.571E+02 -.125E+00 -.116E+04   -.366E+01 0.125E-02 0.176E+00
   0.530E+02 0.124E+00 0.116E+04   -.571E+02 -.125E+00 -.116E+04   0.366E+01 0.125E-02 0.176E+00
   0.656E+00 0.240E+00 0.515E+03   -.653E+00 -.242E+00 -.519E+03   -.393E-02 0.497E-02 0.431E+01
   0.232E+01 0.938E+00 -.511E+03   -.231E+01 -.939E+00 0.518E+03   -.499E-02 0.290E-02 -.747E+01
   -.559E+02 0.655E+00 0.167E+02   0.608E+02 -.659E+00 -.170E+02   -.544E+01 0.118E-01 0.372E+00
   0.559E+02 0.655E+00 0.167E+02   -.608E+02 -.659E+00 -.170E+02   0.544E+01 0.118E-01 0.372E+00
   0.237E-03 0.139E+01 -.607E+03   -.404E-04 -.135E+01 0.601E+03   0.889E-21 -.455E-01 0.671E+01
   -.185E-03 0.760E+01 -.156E+04   0.787E-04 -.749E+01 0.156E+04   -.189E-21 -.113E+00 0.238E+01
   -.216E+02 0.526E+01 -.111E+04   0.246E+02 -.529E+01 0.111E+04   -.305E+01 0.300E-01 0.923E+00
   0.216E+02 0.526E+01 -.111E+04   -.246E+02 -.529E+01 0.111E+04   0.305E+01 0.300E-01 0.923E+00
   0.232E+02 0.759E+01 -.179E+04   -.232E+02 -.768E+01 0.179E+04   0.808E-01 0.902E-01 -.238E+01
   0.691E+02 0.208E+02 -.270E+04   -.689E+02 -.208E+02 0.272E+04   -.207E+00 0.592E-02 -.216E+02
   -.528E+02 0.484E+02 -.228E+04   0.591E+02 -.484E+02 0.229E+04   -.635E+01 0.627E-01 -.377E+01
   0.528E+02 0.484E+02 -.228E+04   -.591E+02 -.484E+02 0.229E+04   0.635E+01 0.627E-01 -.377E+01
   0.208E-01 0.958E+00 0.102E+03   -.316E-11 0.398E-12 0.496E-10   0.178E-14 -.957E+00 -.102E+03

 POSITION                                       TOTAL-FORCE (eV/Angst)
      6.50199      7.21853     24.52568        -0.000000      0.103386     -0.042841
      6.50198      8.38255     24.69094        -0.000000     -1.059515     -0.208607
      6.50199      6.05266     24.33079        -0.000000      0.958045      0.030443
      9.75299      7.39399      8.77438        -0.000256      0.000068     -3.733062
      0.00000      8.87278      8.77438        -0.000000      0.000127      2.968214
      0.00000      7.39399     12.02538        -0.000000      0.000026      0.529932
      9.75299      8.87278     12.02538        -0.000979      0.000603     -0.734430
      9.75299      7.39399     15.27637        -0.005894     -0.000564      0.729306
      0.00000      8.87278     15.27637        -0.000000      0.002792     -0.787444
     13.00398      7.39414     18.45787        -0.000000     -0.000150      0.127125
      9.75327      8.87320     18.65847        -0.000104     -0.000161     -0.081984
      9.75303      7.39516     22.00370         0.011215      0.003707      0.060175
      0.00000      8.87335     21.63640        -0.000000      0.001647      0.134639
      9.75299     10.35158      8.77438        -0.000304      0.000459     -3.733125
      0.00000      0.00000      8.77438        -0.000000      0.000112      2.968123
      0.00000     10.35158     12.02538        -0.000000      0.000365      0.530169
      9.75299      0.00000     12.02538        -0.001203      0.000414     -0.732495
      9.75299     10.35158     15.27637        -0.004214      0.014794      0.738414
      0.00000      0.00000     15.27637        -0.000000      0.002425     -0.785840
     13.00398     10.35169     18.45827        -0.000000      0.000545      0.128111
      9.75277      0.00015     18.66152         0.000248     -0.000436     -0.081111
      9.75138     10.35149     22.01403         0.001570      0.008572      0.062560
     13.00398     11.83021     21.63685        -0.000000     -0.000722      0.135297
      9.75299      1.47880      8.77438        -0.000330     -0.000075     -3.732992
      0.00000      2.95759      8.77438        -0.000000     -0.000167      2.968159
      0.00000      1.47880     12.02538        -0.000000     -0.000072      0.530341
      9.75299      2.95759     12.02538        -0.001066     -0.000619     -0.732426
      9.75299      1.47880     15.27637        -0.004279     -0.000816      0.747861
      0.00000      2.95759     15.27637        -0.000000     -0.002897     -0.786056
      0.00000      1.47864     18.45845        -0.000000      0.000459      0.128503
      9.75326      2.95720     18.66142         0.000337      0.000430     -0.082143
      9.75215      1.47891     22.01326        -0.000273     -0.000705      0.066402
      0.00000      2.95722     21.63680        -0.000000      0.001054      0.134771
      9.75299      4.43639      8.77438        -0.000243     -0.000467     -3.733024
      0.00000      5.91519      8.77438        -0.000000     -0.000090      2.968240
      0.00000      4.43639     12.02538        -0.000000     -0.000351      0.530114
      9.75299      5.91519     12.02538        -0.000855     -0.000439     -0.734275
      9.75299      4.43639     15.27637        -0.005723     -0.013447      0.738453
      0.00000      5.91519     15.27637        -0.000000     -0.002327     -0.787683
      0.00000      4.43632     18.45797        -0.000000     -0.000383      0.127653
      9.75354      5.91492     18.65888         0.000078      0.000614     -0.082384
      9.75376      4.43723     22.01238         0.001344     -0.012182      0.060725
     13.00398      5.91574     21.63605        -0.000000     -0.001174      0.134029
      3.25100      7.39399      8.77438         0.000256      0.000068     -3.733062
      6.50199      8.87278      8.77438        -0.000000      0.000267      2.969261
      6.50199      7.39399     12.02538        -0.000000      0.001927      0.532353
      3.25100      8.87278     12.02538         0.000979      0.000603     -0.734430
      3.25100      7.39399     15.27637         0.005894     -0.000564      0.729306
      6.50199      8.87278     15.27637        -0.000000     -0.005295     -0.759637
      6.50199      7.39071     18.46690        -0.000000      0.003269      0.125196
      3.25071      8.87320     18.65847         0.000104     -0.000161     -0.081984
      3.25096      7.39516     22.00370        -0.011215      0.003707      0.060175
      6.50199      8.87939     21.63291        -0.000000      0.008897      0.182822
      3.25100     10.35158      8.77438         0.000304      0.000459     -3.733125
      6.50199      0.00000      8.77438        -0.000000      0.000142      2.969346
      6.50199     10.35158     12.02538        -0.000000      0.001786      0.533938
      3.25100      0.00000     12.02538         0.001203      0.000414     -0.732495
      3.25100     10.35158     15.27637         0.004214      0.014794      0.738414
      6.50199      0.00000     15.27637        -0.000000      0.002411     -0.790606
      6.50199     10.34956     18.45418        -0.000000      0.003174      0.126123
[...]
      6.50199      5.91519     13.29976        -0.000000      0.000336     -0.135332
      4.52538      4.43639     12.02538         0.423533      0.000550      0.054977
      8.47860      4.43639     12.02538        -0.423533      0.000550      0.054977
      3.25100      5.91519     14.00199        -0.001106      0.002679     -0.081481
      3.25100      5.91519     16.55076         0.000461      0.001881      0.020922
      7.77637      4.43639     15.27637        -0.529607      0.007421      0.099914
      5.22761      4.43639     15.27637         0.529607      0.007421      0.099914
      6.50199      5.91531     17.27591        -0.000000      0.000008     -0.046379
      6.50199      5.91455     19.83683        -0.000000     -0.000421     -0.156455
      4.55288      4.43640     18.55266        -0.043709      0.000604      0.002051
      8.45110      4.43640     18.55266         0.043709      0.000604      0.002051
      3.24421      5.91558     20.51999        -0.000192      0.000399      0.128429
      3.26640      5.91880     23.09439        -0.003628     -0.001323     -0.228186
      7.72931      4.42765     21.93715        -0.062359     -0.012143     -0.033019
      5.27467      4.42765     21.93715         0.062359     -0.012143     -0.033019
    total drift:                                0.020782      0.001228      0.234929

  FREE ENERGIE OF THE ION-ELECTRON SYSTEM (eV)
  free  energy   TOTEN  =     -2735.72374524 eV

  energy  without entropy=    -2735.72374524  energy(sigma->0) =    -2735.72374524