 vasp.6.3.0 20Jan22 (build Apr  1 2022 16:44:48) complex
 executed on        HPECrayEX_GCC date 2023.01.23  22:21:52

 INCAR:
   SYSTEM = MgO-rocksalt
   ISMEAR = 0
   SIGMA = 0.05
   EDIFF = 1E-8
   ALGO = ALL
   ISTART = 0
   IBRION = 5
   POTIM = 0.01
   NFREE = 2
   ISYM = 0
   DIPOL = 0.5 0.5 0.5
   IDIPOL = 3
   LDIPOL = .TRUE.
   GGA = RE
   AGGAC = 0.0
   LUSE_VDW = .TRUE.
   LASPH = .TRUE.
   ENCUT = 600
   PREC = Accurate
   LASPH = .TRUE.
   LREAL = .FALSE.
   ISPIN = 2
   MAGMOM = 1.0 0.0 0.0 0.0 0.0 0.0 0.0 0.0 0.0 0.0 0.0 0.0 0.0 0.0 0.0 0.0 0.0 0.0 0.0 0.0 0.0 0.0 0.0 0.0 0.0 0.0 0.0 0.0 0.0 0.0 0.0 0.0 0.0 0.0 0.0 0.0 0.0 0.0 0.0 0.0 0.0 0.0 0.0 0.0 0.0 0.0 0.0 0.0 0.0 0.0 0.0 0.0 0.0 0.0 0.0 0.0 0.0 0.0 0.0 0.0 0.0 0.0 0.0 0.0 0.0 0.0
   NELM = 200
   NELMIN = 8
   NCORE = 8
   KPAR = 1
   LWAVE = .FALSE.
   LCHARG = .FALSE.

 POTCAR:    PAW_PBE N 08Apr2002
 POTCAR:    PAW_PBE O 08Apr2002
 POTCAR:    PAW_PBE Mg_pv 13Apr2007
 POTCAR:    PAW_PBE O 08Apr2002
|               ----> ADVICE to this user running VASP <----                  |
|     You have switched on vdW-DFT.                                           |
|     This routine was written and supplied by Jiri Klimes. We recommend      |
|     that you carefully read and cite the following publications:            |
|       J. Klimes, D.R. Bowler, A. Michelides                                 |
|          J. Phys.: Cond Matt. 22 022201 (2010)                              |
|       J. Klimes, D.R. Bowler, A. Michelides                                 |
|          Phys. Rev. B. 83, 195131 (2011)                                    |
|     and references therein.                                                 |

   TITEL  = PAW_PBE N 08Apr2002
   POMASS =   14.001; ZVAL   =    5.000    mass and valenz
   ENMAX  =  400.000; ENMIN  =  300.000 eV

[...]

   TITEL  = PAW_PBE Mg_pv 13Apr2007
   POMASS =   24.305; ZVAL   =    8.000    mass and valenz
   ENMAX  =  403.929; ENMIN  =  302.947 eV

   TITEL  = PAW_PBE O 08Apr2002
   POMASS =   16.000; ZVAL   =    6.000    mass and valenz
   ENMAX  =  400.000; ENMIN  =  300.000 eV

  PAW_PBE N 08Apr2002                   :
  PAW_PBE O 08Apr2002                   :
  PAW_PBE Mg_pv 13Apr2007               :
  PAW_PBE O 08Apr2002                   :

 POSCAR:  N  O Mg  O
  positions in direct lattice
 exchange correlation table for  LEXCH =       40
   RHO(1)=    0.500       N(1)  =     2000
   RHO(2)=  100.500       N(2)  =     4000

 ion  position               nearest neighbor table
   1  0.629  0.484  0.757-   2 1.19
   2  0.683  0.577  0.792-   1 1.19
   3  0.000  0.750  0.350-  35 2.14  37 2.14  38 2.14  45 2.14  54 2.14
   4  0.250  0.000  0.350-  36 2.14  37 2.14  38 2.14  46 2.14  53 2.14
   5  0.000  0.000  0.450-  37 2.14  36 2.14  35 2.14  43 2.14  52 2.14  41 2.14
   6  0.250  0.750  0.450-  38 2.14  36 2.14  35 2.14  44 2.14  51 2.14  42 2.14
   7  0.000  0.750  0.550-  42 2.13  58 2.14  49 2.14  41 2.14  35 2.15  39 2.16
   8  0.250  0.000  0.550-  57 2.14  50 2.14  42 2.14  41 2.14  36 2.14  40 2.16
   9  0.001  0.000  0.650-  40 2.13  41 2.13  47 2.14  56 2.14  39 2.14
  10  0.250  0.751  0.650-  42 2.13  40 2.13  55 2.14  39 2.14  48 2.14
  11  0.000  0.250  0.350-  43 2.14  37 2.14  45 2.14  46 2.14  62 2.14
  12  0.250  0.500  0.350-  44 2.14  38 2.14  45 2.14  46 2.14  61 2.14
  13  0.000  0.500  0.450-  45 2.14  43 2.14  44 2.14  35 2.14  60 2.14  49 2.14
  14  0.250  0.250  0.450-  46 2.14  43 2.14  44 2.14  36 2.14  59 2.14  50 2.14
  15  0.000  0.250  0.550-  50 2.13  66 2.13  49 2.14  41 2.14  43 2.15  47 2.16
  16  0.251  0.500  0.551-  65 2.13  50 2.13  42 2.14  49 2.15  44 2.15  48 2.16
  17  0.002  0.500  0.650-  48 2.12  49 2.13  47 2.14  39 2.14  64 2.14
  18  0.250  0.250  0.649-  50 2.13  63 2.13  40 2.13  47 2.14  48 2.14
  19  0.500  0.750  0.350-  51 2.14  38 2.14  53 2.14  54 2.14  61 2.14
  20  0.750  0.000  0.350-  52 2.14  37 2.14  53 2.14  54 2.14  62 2.14
  21  0.500  0.000  0.450-  57 2.14  53 2.14  52 2.14  36 2.14  51 2.14  59 2.14
  22  0.750  0.750  0.450-  54 2.14  51 2.14  52 2.14  35 2.14  60 2.14  58 2.14
  23  0.500  0.750  0.551-  65 2.13  42 2.14  57 2.14  58 2.14  55 2.15  51 2.15
  24  0.750  0.000  0.550-  57 2.13  41 2.14  66 2.14  58 2.14  52 2.14  56 2.16
  25  0.500  0.000  0.649-  63 2.13  57 2.13  55 2.13  40 2.14  56 2.14
  26  0.750  0.753  0.649-  56 2.12  58 2.12  55 2.13  39 2.13  64 2.16
  27  0.500  0.250  0.350-  59 2.14  53 2.14  46 2.14  61 2.14  62 2.14
  28  0.750  0.500  0.350-  60 2.14  54 2.14  45 2.14  61 2.14  62 2.14
  29  0.500  0.500  0.450-  61 2.14  51 2.14  59 2.14  60 2.14  44 2.14  65 2.15
  30  0.750  0.250  0.450-  62 2.14  52 2.14  59 2.14  60 2.14  43 2.14  66 2.14
  31  0.500  0.250  0.551-  65 2.13  50 2.14  63 2.14  66 2.14  57 2.14  59 2.15
  32  0.749  0.500  0.550-  65 2.13  66 2.13  58 2.13  60 2.14  49 2.14  64 2.19
  33  0.498  0.500  0.652-  48 2.12  63 2.14  55 2.15  64 2.17  65 2.17
  34  0.750  0.248  0.650-  56 2.12  66 2.13  63 2.14  47 2.14  64 2.16
  35  0.000  0.750  0.450-   3 2.14   5 2.14   6 2.14  13 2.14  22 2.14   7 2.15
  36  0.250  0.000  0.450-   4 2.14   5 2.14   6 2.14  14 2.14  21 2.14   8 2.14
  37  0.000  0.000  0.350-   5 2.14   4 2.14   3 2.14  11 2.14  20 2.14
  38  0.250  0.750  0.350-   6 2.14   4 2.14   3 2.14  12 2.14  19 2.14
  39  1.000  0.750  0.651-  26 2.13  17 2.14   9 2.14  10 2.14   7 2.16
  40  0.250  0.000  0.651-   9 2.13  10 2.13  18 2.13  25 2.14   8 2.16
  41  1.000  0.000  0.550-   9 2.13  24 2.14   7 2.14  15 2.14   8 2.14   5 2.14
  42  0.250  0.750  0.550-  10 2.13   7 2.13  16 2.14  23 2.14   8 2.14   6 2.14
  43  0.000  0.250  0.450-  11 2.14   5 2.14  13 2.14  14 2.14  30 2.14  15 2.15
  44  0.250  0.500  0.450-  12 2.14   6 2.14  13 2.14  14 2.14  29 2.14  16 2.15
  45  0.000  0.500  0.350-  13 2.14  11 2.14  12 2.14   3 2.14  28 2.14
  46  0.250  0.250  0.350-  14 2.14  11 2.14  12 2.14   4 2.14  27 2.14
  47  0.000  0.250  0.651-  17 2.14   9 2.14  34 2.14  18 2.14  15 2.16
  48  0.250  0.500  0.651-  17 2.12  33 2.12  10 2.14  18 2.14  16 2.16
  49  1.000  0.500  0.550-  17 2.13   7 2.14  15 2.14  32 2.14  13 2.14  16 2.15
  50  0.250  0.250  0.550-  18 2.13  15 2.13  16 2.13   8 2.14  31 2.14  14 2.14
  51  0.500  0.750  0.450-  19 2.14   6 2.14  21 2.14  22 2.14  29 2.14  23 2.15
  52  0.750  0.000  0.450-  20 2.14   5 2.14  21 2.14  22 2.14  30 2.14  24 2.14
  53  0.500  0.000  0.350-  21 2.14  19 2.14  20 2.14   4 2.14  27 2.14
  54  0.750  0.750  0.350-  22 2.14  19 2.14  20 2.14   3 2.14  28 2.14
  55  0.500  0.751  0.651-  25 2.13  26 2.13  10 2.14  33 2.15  23 2.15
  56  0.750  0.000  0.651-  26 2.12  34 2.12   9 2.14  25 2.14  24 2.16
  57  0.500  1.000  0.550-  25 2.13  24 2.13  21 2.14   8 2.14  23 2.14  31 2.14
  58  0.750  0.750  0.550-  26 2.12  32 2.13   7 2.14  23 2.14  22 2.14  24 2.14
  59  0.500  0.250  0.450-  27 2.14  21 2.14  14 2.14  29 2.14  30 2.14  31 2.15
  60  0.750  0.500  0.450-  28 2.14  22 2.14  13 2.14  29 2.14  30 2.14  32 2.14
  61  0.500  0.500  0.350-  29 2.14  19 2.14  27 2.14  28 2.14  12 2.14
  62  0.750  0.250  0.350-  30 2.14  20 2.14  27 2.14  28 2.14  11 2.14
  63  0.500  0.249  0.651-  25 2.13  18 2.13  34 2.14  31 2.14  33 2.14
  64  0.752  0.500  0.652-  17 2.14  34 2.16  26 2.16  33 2.17  32 2.19
  65  0.500  0.500  0.550-  32 2.13  23 2.13  16 2.13  31 2.13  29 2.15  33 2.17
  66  0.750  0.251  0.550-  32 2.13  34 2.13  15 2.13  24 2.14  31 2.14  30 2.14

IMPORTANT INFORMATION: All symmetrisations will be switched off!
NOSYMM: (Re-)initialisation of all symmetry stuff for point group C_1.

                                     Primitive cell

  volume of cell :    1563.6717

  direct lattice vectors                    reciprocal lattice vectors
     8.546113626  0.000000000  0.000000000     0.117012252  0.000000000  0.000000000
     0.000000000  8.546113626  0.000000000     0.000000000  0.117012252  0.000000000
     0.000000000  0.000000000 21.409585219     0.000000000  0.000000000  0.046708051

  length of vectors
     8.546113626  8.546113626 21.409585219     0.117012252  0.117012252  0.046708051

  position of ions in fractional coordinates (direct lattice)
     0.629492052  0.484059208  0.756858380
     0.683325896  0.576899483  0.791944936
     0.000000000  0.750000000  0.350310383
     0.250000000  0.000000000  0.350310383
     0.000000000  0.000000000  0.450103461
     0.250000000  0.750000000  0.450103461
     0.000221180  0.750057450  0.550425678
     0.250133625  0.000065705  0.550287015
     0.000532122  0.000222155  0.649632208
     0.250437619  0.750588978  0.649545490
     0.000000000  0.250000000  0.350310383
     0.250000000  0.500000000  0.350310383
     0.000000000  0.500000000  0.450103461
     0.250000000  0.250000000  0.450103461
     0.000020179  0.250066249  0.550465832
     0.250724798  0.499991691  0.550505342
     0.002495397  0.500059755  0.649618877
     0.250442042  0.249506551  0.649451509
     0.500000000  0.750000000  0.350310383
     0.750000000  0.000000000  0.350310383
     0.500000000  0.000000000  0.450103461
     0.750000000  0.750000000  0.450103461
     0.499916323  0.749634379  0.550593820
     0.749955627  0.000330799  0.550234103
     0.499729501  0.000229380  0.649362692
     0.750221212  0.752790764  0.649150322
     0.500000000  0.250000000  0.350310383
     0.750000000  0.500000000  0.350310383
     0.500000000  0.500000000  0.450103461
     0.750000000  0.250000000  0.450103461
     0.499975765  0.250355519  0.550610844
     0.749330006  0.499888069  0.549906571
     0.498322662  0.499812574  0.651867535
     0.749837597  0.248295057  0.649797756
     0.000000000  0.750000000  0.450103461
     0.250000000  0.000000000  0.450103461
     0.000000000  0.000000000  0.350310383
     0.250000000  0.750000000  0.350310383
     0.999959225  0.750052669  0.651403341
     0.249845666  0.000000394  0.651245428
     0.999941412  0.000046888  0.550066949
     0.249863842  0.749881530  0.550077074
     0.000000000  0.250000000  0.450103461
     0.250000000  0.500000000  0.450103461
     0.000000000  0.500000000  0.350310383
     0.250000000  0.250000000  0.350310383
     0.000024999  0.250224872  0.651448271
     0.249951550  0.500095039  0.651489114
     0.999535835  0.500084843  0.550289913
     0.249706233  0.250181272  0.550013632
     0.500000000  0.750000000  0.450103461
     0.750000000  0.000000000  0.450103461
     0.500000000  0.000000000  0.350310383
     0.750000000  0.750000000  0.350310383
     0.500481283  0.750827557  0.651000667
     0.750417463  0.000239542  0.651166844
     0.500153351  0.999868815  0.549866812
     0.750267938  0.749632213  0.550145657
     0.500000000  0.250000000  0.450103461
     0.750000000  0.500000000  0.450103461
     0.500000000  0.500000000  0.350310383
     0.750000000  0.250000000  0.350310383
     0.499968348  0.249010963  0.650515507
     0.751854877  0.500496893  0.651970564
     0.500466152  0.500110542  0.550449885
     0.750280061  0.250530108  0.550188714

  ion indices of the primitive-cell ions
   primitive index   ion index
                 1           1
                 2           2
[...]

 POSITION                                       TOTAL-FORCE (eV/Angst)
      5.37971      4.13682     16.20402        -0.218324     -0.360882     -0.343967
      5.83978      4.93025     16.94521         0.209294      0.361356      0.352113
      0.00000      6.40959      7.50000         0.001560      0.001104      0.323055
      2.13653      0.00000      7.50000         0.000718      0.000154      0.325697
      0.00000      0.00000      9.63653         0.005935      0.002981      0.022925
      2.13653      6.40959      9.63653         0.006139     -0.000217      0.025606
      0.00189      6.41008     11.78439        -0.001896     -0.003576     -0.006635
      2.13767      0.00056     11.78142        -0.000298     -0.001096     -0.007156
      0.00455      0.00190     13.90836         0.002048     -0.000221     -0.004220
      2.14027      6.41462     13.90650        -0.001461      0.002559      0.002111
      0.00000      2.13653      7.50000         0.001438     -0.001018      0.324675
      2.13653      4.27306      7.50000         0.000887     -0.000099      0.323557
      0.00000      4.27306      9.63653         0.013172     -0.001409      0.025557
      2.13653      2.13653      9.63653         0.001478      0.001027      0.028059
      0.00017      2.13709     11.78525        -0.000753      0.003424     -0.005515
      2.14272      4.27299     11.78609         0.000992      0.000956     -0.006796
      0.02133      4.27357     13.90807        -0.005662     -0.000221      0.000858
      2.14031      2.13231     13.90449        -0.000259     -0.002472      0.001579
      4.27306      6.40959      7.50000        -0.001557      0.000761      0.326552
      6.40959      0.00000      7.50000        -0.000705      0.000261      0.321860
      4.27306      0.00000      9.63653        -0.004669     -0.001791      0.033419
      6.40959      6.40959      9.63653        -0.003959      0.010011      0.015719
      4.27234      6.40646     11.78799         0.002185     -0.001465     -0.002809
      6.40921      0.00283     11.78028         0.000218      0.000028     -0.009485
      4.27075      0.00196     13.90259        -0.000731      0.000454      0.001470
      6.41148      6.43344     13.89804         0.002155     -0.003815     -0.001206
      4.27306      2.13653      7.50000        -0.001522     -0.000775      0.326144
      6.40959      4.27306      7.50000        -0.001004     -0.000159      0.316924
      4.27306      4.27306      9.63653        -0.014100      0.000719      0.028027
      6.40959      2.13653      9.63653        -0.001932     -0.006791      0.015844
      4.27285      2.13957     11.78835         0.001022      0.001169     -0.001135
      6.40386      4.27210     11.77327        -0.000188     -0.000649      0.007091
      4.25872      4.27146     13.95621         0.003342     -0.002411      0.002352
      6.40820      2.12196     13.91190         0.000991      0.003785      0.001108
      0.00000      6.40959      9.63653        -0.005046     -0.006535      0.049356
      2.13653      0.00000      9.63653        -0.006482     -0.001412      0.039739
      0.00000      0.00000      7.50000        -0.001913     -0.000489     -0.397319
      2.13653      6.40959      7.50000        -0.001500     -0.000859     -0.398508
      8.54577      6.41004     13.94628         0.000913      0.001558      0.004414
      2.13521      0.00000     13.94289        -0.000481     -0.001117     -0.001124
      8.54561      0.00040     11.77671         0.001592     -0.000816      0.004436
      2.13536      6.40857     11.77692        -0.000354      0.000842      0.006139
      0.00000      2.13653      9.63653        -0.008800      0.008741      0.046154
      2.13653      4.27306      9.63653        -0.000260      0.002504      0.061153
      0.00000      4.27306      7.50000        -0.002966      0.000606     -0.394440
      2.13653      2.13653      7.50000        -0.001003      0.000943     -0.398959
      0.00021      2.13845     13.94724         0.001023     -0.002544      0.001598
      2.13611      4.27387     13.94811        -0.000174      0.000388      0.001881
      8.54215      4.27378     11.78148         0.003811      0.000272      0.006135
      2.13402      2.13808     11.77556        -0.000548     -0.001212      0.005649
      4.27306      6.40959      9.63653         0.007793     -0.015388      0.047636
      6.40959      0.00000      9.63653         0.008265      0.001886      0.049839
      4.27306      0.00000      7.50000         0.001982      0.000014     -0.399175
      6.40959      6.40959      7.50000         0.001607     -0.001793     -0.394658
      4.27717      6.41666     13.93765        -0.000553     -0.000593     -0.001545
      6.41315      0.00205     13.94121         0.000037     -0.001492     -0.000198
      4.27437      8.54499     11.77242        -0.001656     -0.000788      0.004444
      6.41188      6.40644     11.77839         0.000378      0.003008      0.004961
      4.27306      2.13653      9.63653         0.008340      0.014291      0.050664
      6.40959      4.27306      9.63653        -0.000630      0.001554      0.039338
      4.27306      4.27306      7.50000         0.002836     -0.000048     -0.396959
      6.40959      2.13653      7.50000         0.000961      0.001983     -0.395282
      4.27279      2.12808     13.92727        -0.001018     -0.001167     -0.005967
      6.42544      4.27730     13.95842         0.001575     -0.000588     -0.009567
      4.27704      4.27400     11.78490        -0.002797      0.000179      0.003303
      6.41198      2.14106     11.77931         0.000516     -0.003611      0.003485
    total drift:                                0.000446     -0.001231      0.024660

  FREE ENERGIE OF THE ION-ELECTRON SYSTEM (eV)
  free  energy   TOTEN  =      -235.91935243 eV

  energy  without entropy=     -235.91935243  energy(sigma->0) =     -235.91935243

 d Force =-0.8228873E-04[-0.704E-02, 0.688E-02]  d Energy =-0.1992328E-04-0.624E-04
 d Force =-0.3167174E+02[-0.317E+02,-0.316E+02]  d Ewald  =-0.3167202E+02 0.275E-03

 Finite differences progress:
  Degree of freedom:   6/  6
  Displacement:        2/  2
  Total:              12/ 12

 SECOND DERIVATIVES (NOT SYMMETRIZED)
               1X          1Y          1Z          2X          2Y          2Z
  1X   -15.100423  -23.350689  -20.091186   13.920238   22.749544   20.654642
  1Y   -23.373577  -39.355874  -34.291091   22.335120   38.383840   35.278169
  1Z   -20.101996  -34.274847  -33.289568   19.876796   34.536630   33.514656
  2X    13.936829   22.336094   19.882474  -13.309146  -22.044966  -20.476564
  2Y    22.756635   38.384291   34.550670  -22.044037  -38.023247  -35.583814
  2Z    20.669775   35.281986   33.510698  -20.523074  -35.569152  -34.799822

 Eigenvectors and eigenvalues of the dynamical matrix

   1 f  =   52.528913 THz   330.048894 2PiTHz 1752.175931 cm-1   217.242030 meV
             X         Y         Z           dx          dy          dz
      5.379711  4.136825 16.204024     0.294719    0.493403    0.449853
      5.839781  4.930249 16.955213    -0.266976   -0.457711   -0.431917
      0.000000  6.409585  7.500000            0           0           0
      2.136528  0.000000  7.500000            0           0           0
      0.000000  0.000000  9.636528            0           0           0
      2.136528  6.409585  9.636528            0           0           0
      0.001890  6.410076 11.784385            0           0           0
      2.137670  0.000562 11.781417            0           0           0
      0.004548  0.001899 13.908356            0           0           0
      2.140268  6.414619 13.906500            0           0           0
      0.000000  2.136528  7.500000            0           0           0
      2.136528  4.273057  7.500000            0           0           0
      0.000000  4.273057  9.636528            0           0           0
      2.136528  2.136528  9.636528            0           0           0
      0.000172  2.137095 11.785245            0           0           0
      2.142723  4.272986 11.786091            0           0           0
      0.021326  4.273567 13.908071            0           0           0
      2.140306  2.132311 13.904487            0           0           0
      4.273057  6.409585  7.500000            0           0           0
      6.409585  0.000000  7.500000            0           0           0
      4.273057  0.000000  9.636528            0           0           0
      6.409585  6.409585  9.636528            0           0           0
      4.272342  6.406461 11.787985            0           0           0
      6.409206  0.002827 11.780284            0           0           0
      4.270745  0.001960 13.902586            0           0           0
      6.411476  6.433435 13.898039            0           0           0
      4.273057  2.136528  7.500000            0           0           0
      6.409585  4.273057  7.500000            0           0           0
      4.273057  4.273057  9.636528            0           0           0
      6.409585  2.136528  9.636528            0           0           0
      4.272850  2.139567 11.788350            0           0           0
      6.403859  4.272100 11.773272            0           0           0
      4.258722  4.271455 13.956214            0           0           0
      6.408197  2.121958 13.911900            0           0           0
      0.000000  6.409585  9.636528            0           0           0
      2.136528  0.000000  9.636528            0           0           0
      0.000000  0.000000  7.500000            0           0           0
      2.136528  6.409585  7.500000            0           0           0
      8.545765  6.410035 13.946275            0           0           0
      2.135209  0.000003 13.942894            0           0           0
      8.545613  0.000401 11.776705            0           0           0
      2.135365  6.408573 11.776922            0           0           0
      0.000000  2.136528  9.636528            0           0           0
      2.136528  4.273057  9.636528            0           0           0
      0.000000  4.273057  7.500000            0           0           0
      2.136528  2.136528  7.500000            0           0           0
      0.000214  2.138450 13.947237            0           0           0
      2.136114  4.273869 13.948112            0           0           0
      8.542147  4.273782 11.781479            0           0           0
      2.134018  2.138078 11.775564            0           0           0
      4.273057  6.409585  9.636528            0           0           0
      6.409585  0.000000  9.636528            0           0           0
      4.273057  0.000000  7.500000            0           0           0
      6.409585  6.409585  7.500000            0           0           0
      4.277170  6.416658 13.937654            0           0           0
      6.413153  0.002047 13.941212            0           0           0
      4.274367  8.544993 11.772420            0           0           0
      6.411875  6.406442 11.778390            0           0           0
      4.273057  2.136528  9.636528            0           0           0
      6.409585  4.273057  9.636528            0           0           0
      4.273057  4.273057  7.500000            0           0           0
      6.409585  2.136528  7.500000            0           0           0
      4.272786  2.128076 13.927267            0           0           0
      6.425437  4.277303 13.958419            0           0           0
      4.277041  4.274002 11.784904            0           0           0
      6.411979  2.141059 11.779312            0           0           0

[...]

   6 f  =    1.094980 THz     6.879964 2PiTHz   36.524612 cm-1     4.528473 meV
             X         Y         Z           dx          dy          dz
      5.379711  4.136825 16.204024     0.337953   -0.351412   -0.040198
      5.839781  4.930249 16.955213     0.615885   -0.614807    0.058131
      0.000000  6.409585  7.500000            0           0           0
      2.136528  0.000000  7.500000            0           0           0
      0.000000  0.000000  9.636528            0           0           0
      2.136528  6.409585  9.636528            0           0           0
      0.001890  6.410076 11.784385            0           0           0
      2.137670  0.000562 11.781417            0           0           0
      0.004548  0.001899 13.908356            0           0           0
      2.140268  6.414619 13.906500            0           0           0
      0.000000  2.136528  7.500000            0           0           0
      2.136528  4.273057  7.500000            0           0           0
      0.000000  4.273057  9.636528            0           0           0
      2.136528  2.136528  9.636528            0           0           0
      0.000172  2.137095 11.785245            0           0           0
      2.142723  4.272986 11.786091            0           0           0
      0.021326  4.273567 13.908071            0           0           0
      2.140306  2.132311 13.904487            0           0           0
      4.273057  6.409585  7.500000            0           0           0
      6.409585  0.000000  7.500000            0           0           0
      4.273057  0.000000  9.636528            0           0           0
      6.409585  6.409585  9.636528            0           0           0
      4.272342  6.406461 11.787985            0           0           0
      6.409206  0.002827 11.780284            0           0           0
      4.270745  0.001960 13.902586            0           0           0
      6.411476  6.433435 13.898039            0           0           0
      4.273057  2.136528  7.500000            0           0           0
      6.409585  4.273057  7.500000            0           0           0
      4.273057  4.273057  9.636528            0           0           0
      6.409585  2.136528  9.636528            0           0           0
      4.272850  2.139567 11.788350            0           0           0
      6.403859  4.272100 11.773272            0           0           0
      4.258722  4.271455 13.956214            0           0           0
      6.408197  2.121958 13.911900            0           0           0
      0.000000  6.409585  9.636528            0           0           0
      2.136528  0.000000  9.636528            0           0           0
      0.000000  0.000000  7.500000            0           0           0
      2.136528  6.409585  7.500000            0           0           0
      8.545765  6.410035 13.946275            0           0           0
      2.135209  0.000003 13.942894            0           0           0
      8.545613  0.000401 11.776705            0           0           0
      2.135365  6.408573 11.776922            0           0           0
      0.000000  2.136528  9.636528            0           0           0
      2.136528  4.273057  9.636528            0           0           0
      0.000000  4.273057  7.500000            0           0           0
      2.136528  2.136528  7.500000            0           0           0
      0.000214  2.138450 13.947237            0           0           0
      2.136114  4.273869 13.948112            0           0           0
      8.542147  4.273782 11.781479            0           0           0
      2.134018  2.138078 11.775564            0           0           0
      4.273057  6.409585  9.636528            0           0           0
      6.409585  0.000000  9.636528            0           0           0
      4.273057  0.000000  7.500000            0           0           0
      6.409585  6.409585  7.500000            0           0           0
      4.277170  6.416658 13.937654            0           0           0
      6.413153  0.002047 13.941212            0           0           0
      4.274367  8.544993 11.772420            0           0           0
      6.411875  6.406442 11.778390            0           0           0
      4.273057  2.136528  9.636528            0           0           0
      6.409585  4.273057  9.636528            0           0           0
      4.273057  4.273057  7.500000            0           0           0
      6.409585  2.136528  7.500000            0           0           0
      4.272786  2.128076 13.927267            0           0           0
      6.425437  4.277303 13.958419            0           0           0
      4.277041  4.274002 11.784904            0           0           0
      6.411979  2.141059 11.779312            0           0           0

 Finite differences POTIM=   1.0000000000000000E-002