 vasp.6.3.0 20Jan22 (build Apr  1 2022 16:44:48) complex
 executed on        HPECrayEX_GCC date 2022.11.13  00:53:07

 INCAR:
   SYSTEM = MgO-rocksalt
   ISMEAR = 0
   SIGMA = 0.05
   EDIFF = 1E-6
   ALGO = ALL
   ISTART = 0
   IBRION = -1
   NSW = 0
   ISYM = 0
   DIPOL = 0.5 0.5 0.5
   IDIPOL = 3
   LDIPOL = .TRUE.
   GGA = RE
   IVDW = 13
   VDW_S8 = 1.7468
   VDW_A1 = 0.5363
   VDW_A2 = 3.0726
   ENCUT = 600
   PREC = Accurate
   LASPH = .TRUE.
   LREAL = .FALSE.
   ISPIN = 2
   MAGMOM = 1.0 0.0 0.0 0.0 0.0 0.0 0.0 0.0 0.0 0.0 0.0 0.0 0.0 0.0 0.0 0.0 0.0 0.0 0.0 0.0 0.0 0.0 0.0 0.0 0.0 0.0 0.0 0.0 0.0 0.0 0.0 0.0 0.0 0.0 0.0 0.0 0.0 0.0 0.0 0.0 0.0 0.0 0.0 0.0 0.0 0.0 0.0 0.0 0.0 0.0 0.0 0.0 0.0 0.0 0.0 0.0 0.0 0.0 0.0 0.0 0.0 0.0 0.0 0.0 0.0 0.0
   NELM = 200
   NELMIN = 8
   NCORE = 8
   KPAR = 1
   LWAVE = .FALSE.
   LCHARG = .FALSE.

 POTCAR:    PAW_PBE N 08Apr2002
 POTCAR:    PAW_PBE O 08Apr2002
 POTCAR:    PAW_PBE Mg_pv 13Apr2007
 POTCAR:    PAW_PBE O 08Apr2002
 POTCAR:    PAW_PBE N 08Apr2002
   VRHFIN =N: s2p3

   TITEL  = PAW_PBE N 08Apr2002
   POMASS =   14.001; ZVAL   =    5.000    mass and valenz
   ENMAX  =  400.000; ENMIN  =  300.000 eV

[...]

   TITEL  = PAW_PBE Mg_pv 13Apr2007
   POMASS =   24.305; ZVAL   =    8.000    mass and valenz
   ENMAX  =  403.929; ENMIN  =  302.947 eV

   TITEL  = PAW_PBE O 08Apr2002
   POMASS =   16.000; ZVAL   =    6.000    mass and valenz
   ENMAX  =  400.000; ENMIN  =  300.000 eV

  PAW_PBE N 08Apr2002                   :
  PAW_PBE O 08Apr2002                   :
  PAW_PBE Mg_pv 13Apr2007               :
  PAW_PBE O 08Apr2002                   :

 POSCAR:  N  O Mg  O
  positions in direct lattice
|           W    W    AA    RRRRR   N    N  II  N    N   GGGG   !!!           |
|           W    W   A  A   R    R  NN   N  II  NN   N  G    G  !!!           |
|           W    W  A    A  R    R  N N  N  II  N N  N  G       !!!           |
|           W WW W  AAAAAA  RRRRR   N  N N  II  N  N N  G  GGG   !            |
|           WW  WW  A    A  R   R   N   NN  II  N   NN  G    G                |
|           W    W  A    A  R    R  N    N  II  N    N   GGGG   !!!           |
|     Specifying the vdW parameters                                           |
|     VDW_S8 = 1.747                                                          |
|     VDW_A1 = 0.536                                                          |
|     VDW_A2 = 3.073                                                          |
|     in the INCAR file will overwrite the defaults for revpbe. Please        |
|     make sure that is what you intended.                                    |

 ion  position               nearest neighbor table
   1  0.500  0.500  0.759-   2 1.17
   2  0.500  0.500  0.814-   1 1.17
   3  0.250  0.000  0.352-  35 2.11  37 2.11  38 2.11  45 2.11  54 2.11
   4  0.500  0.250  0.352-  36 2.11  37 2.11  38 2.11  46 2.11  53 2.11
   5  0.250  0.250  0.451-  37 2.11  36 2.11  35 2.11  43 2.11  52 2.11  41 2.11
   6  0.500  0.000  0.451-  38 2.11  36 2.11  35 2.11  44 2.11  51 2.11  42 2.11
   7  0.250  0.000  0.550-  42 2.11  41 2.11  49 2.11  58 2.11  35 2.12  39 2.14
   8  0.500  0.250  0.550-  50 2.11  41 2.11  57 2.11  42 2.11  36 2.12  40 2.13
   9  0.250  0.250  0.648-  41 2.10  39 2.11  56 2.11  40 2.11  47 2.11
  10  0.500  0.000  0.648-  40 2.10  48 2.10  42 2.10  55 2.11  39 2.11
  11  0.250  0.500  0.352-  43 2.11  37 2.11  45 2.11  46 2.11  62 2.11
  12  0.500  0.750  0.352-  44 2.11  38 2.11  45 2.11  46 2.11  61 2.11
  13  0.250  0.750  0.451-  45 2.11  43 2.11  44 2.11  35 2.11  60 2.11  49 2.11
  14  0.500  0.500  0.451-  46 2.11  43 2.11  44 2.11  36 2.11  59 2.11  50 2.12
  15  0.250  0.500  0.550-  50 2.11  41 2.11  49 2.11  66 2.11  43 2.12  47 2.13
  16  0.500  0.750  0.550-  50 2.11  65 2.11  49 2.11  42 2.11  44 2.12  48 2.13
  17  0.250  0.750  0.648-  49 2.10  39 2.11  64 2.11  48 2.11  47 2.11
  18  0.500  0.500  0.650-  47 2.12  63 2.12  40 2.12  48 2.12  50 2.14
  19  0.750  0.000  0.352-  51 2.11  38 2.11  53 2.11  54 2.11  61 2.11
  20  0.000  0.250  0.352-  52 2.11  37 2.11  53 2.11  54 2.11  62 2.11
  21  0.750  0.250  0.451-  53 2.11  51 2.11  52 2.11  36 2.11  59 2.11  57 2.11
  22  0.000  0.000  0.451-  54 2.11  51 2.11  52 2.11  35 2.11  60 2.11  58 2.11
  23  0.750  1.000  0.550-  42 2.11  65 2.11  57 2.11  58 2.11  51 2.12  55 2.14
  24  0.000  0.250  0.550-  66 2.11  41 2.11  57 2.11  58 2.11  52 2.12  56 2.14
  25  0.750  0.250  0.648-  57 2.10  55 2.11  56 2.11  40 2.11  63 2.11
  26  1.000  0.000  0.648-  58 2.10  39 2.11  55 2.11  56 2.11  64 2.11
  27  0.750  0.500  0.352-  59 2.11  53 2.11  46 2.11  61 2.11  62 2.11
  28  0.000  0.750  0.352-  60 2.11  54 2.11  45 2.11  61 2.11  62 2.11
  29  0.750  0.750  0.451-  61 2.11  51 2.11  59 2.11  60 2.11  44 2.11  65 2.11
  30  0.000  0.500  0.451-  62 2.11  52 2.11  59 2.11  60 2.11  43 2.11  66 2.11
  31  0.750  0.500  0.550-  50 2.11  65 2.11  57 2.11  66 2.11  59 2.12  63 2.13
  32  1.000  0.750  0.550-  66 2.11  65 2.11  49 2.11  58 2.11  60 2.12  64 2.14
  33  0.750  0.750  0.648-  65 2.10  55 2.11  64 2.11  48 2.11  63 2.11
  34  1.000  0.500  0.648-  47 2.10  63 2.10  66 2.10  56 2.11  64 2.11
  35  0.250  0.000  0.451-   3 2.11   5 2.11   6 2.11  13 2.11  22 2.11   7 2.12
  36  0.500  0.250  0.451-   4 2.11   5 2.11   6 2.11  14 2.11  21 2.11   8 2.12
  37  0.250  0.250  0.352-   5 2.11   4 2.11   3 2.11  11 2.11  20 2.11
  38  0.500  0.000  0.352-   6 2.11   4 2.11   3 2.11  12 2.11  19 2.11
  39  0.250  0.000  0.650-  17 2.11  26 2.11   9 2.11  10 2.11   7 2.14
  40  0.500  0.249  0.650-  10 2.10  25 2.11   9 2.11  18 2.12   8 2.13
  41  0.250  0.250  0.550-   9 2.10  24 2.11   7 2.11  15 2.11   8 2.11   5 2.11
  42  0.500  0.000  0.550-  10 2.10   7 2.11  23 2.11   6 2.11   8 2.11  16 2.11
  43  0.250  0.500  0.451-  11 2.11   5 2.11  13 2.11  14 2.11  30 2.11  15 2.12
  44  0.500  0.750  0.451-  12 2.11   6 2.11  13 2.11  14 2.11  29 2.11  16 2.12
  45  0.250  0.750  0.352-  13 2.11  11 2.11  12 2.11   3 2.11  28 2.11
  46  0.500  0.500  0.352-  14 2.11  11 2.11  12 2.11   4 2.11  27 2.11
  47  0.249  0.500  0.650-  34 2.10  17 2.11   9 2.11  18 2.12  15 2.13
  48  0.500  0.751  0.650-  10 2.10  17 2.11  33 2.11  18 2.12  16 2.13
  49  0.250  0.750  0.550-  17 2.10  15 2.11  16 2.11  32 2.11   7 2.11  13 2.11
  50  0.500  0.500  0.550-  15 2.11  31 2.11   8 2.11  16 2.11  14 2.12  18 2.14
  51  0.750  0.000  0.451-  19 2.11   6 2.11  21 2.11  22 2.11  29 2.11  23 2.12
  52  0.000  0.250  0.451-  20 2.11   5 2.11  21 2.11  22 2.11  30 2.11  24 2.12
  53  0.750  0.250  0.352-  21 2.11  19 2.11  20 2.11   4 2.11  27 2.11
  54  0.000  0.000  0.352-  22 2.11  19 2.11  20 2.11   3 2.11  28 2.11
  55  0.750  1.000  0.650-  25 2.11  26 2.11  33 2.11  10 2.11  23 2.14
  56  0.000  0.250  0.650-  25 2.11  26 2.11   9 2.11  34 2.11  24 2.14
  57  0.750  0.250  0.550-  25 2.10  31 2.11   8 2.11  24 2.11  23 2.11  21 2.11
  58  1.000  0.000  0.550-  26 2.10   7 2.11  23 2.11  24 2.11  32 2.11  22 2.11
  59  0.750  0.500  0.451-  27 2.11  21 2.11  14 2.11  29 2.11  30 2.11  31 2.12
  60  0.000  0.750  0.451-  28 2.11  22 2.11  13 2.11  29 2.11  30 2.11  32 2.12
  61  0.750  0.750  0.352-  29 2.11  19 2.11  27 2.11  28 2.11  12 2.11
  62  0.000  0.500  0.352-  30 2.11  20 2.11  27 2.11  28 2.11  11 2.11
  63  0.751  0.500  0.650-  34 2.10  25 2.11  33 2.11  18 2.12  31 2.13
  64  1.000  0.750  0.650-  17 2.11  26 2.11  33 2.11  34 2.11  32 2.14
  65  0.750  0.750  0.550-  33 2.10  32 2.11  23 2.11  31 2.11  16 2.11  29 2.11
  66  0.000  0.500  0.550-  34 2.10  24 2.11  32 2.11  30 2.11  15 2.11  31 2.11

IMPORTANT INFORMATION: All symmetrisations will be switched off!
NOSYMM: (Re-)initialisation of all symmetry stuff for point group C_1.

                                     Primitive cell

  volume of cell :    1519.6535

  direct lattice vectors                    reciprocal lattice vectors
     8.440582262  0.000000000  0.000000000     0.118475239  0.000000000  0.000000000
     0.000000000  8.440582262  0.000000000     0.000000000  0.118475239  0.000000000
     0.000000000  0.000000000 21.330436697     0.000000000  0.000000000  0.046881366

  length of vectors
     8.440582262  8.440582262 21.330436697     0.118475239  0.118475239  0.046881366

  position of ions in fractional coordinates (direct lattice)
     0.500000006  0.499999963  0.759316572
     0.500000041  0.500000004  0.814222806
     0.250000000  0.000000000  0.351610242
     0.500000000  0.250000000  0.351610242
     0.250000000  0.250000000  0.450536747
     0.500000000  0.000000000  0.450536747
     0.250058627  0.000148625  0.549826860
     0.500066338  0.250461958  0.549955170
     0.249997611  0.249993064  0.648241368
     0.499999996  0.000000003  0.648128126
     0.250000000  0.500000000  0.351610242
     0.500000000  0.750000000  0.351610242
     0.250000000  0.750000000  0.450536747
     0.500000000  0.500000000  0.450536747
     0.250463297  0.500066365  0.549955008
     0.499933637  0.749538044  0.549955186
     0.249544921  0.750459637  0.647928714
     0.499999993  0.499999992  0.650234352
     0.750000000  0.000000000  0.351610242
     0.000000000  0.250000000  0.351610242
     0.750000000  0.250000000  0.450536747
     0.000000000  0.000000000  0.450536747
     0.749941356  0.999851383  0.549826863
     0.000148607  0.250058730  0.549827455
     0.750455069  0.249540355  0.647928708
     0.999999997  0.000000003  0.648150058
     0.750000000  0.500000000  0.351610242
     0.000000000  0.750000000  0.351610242
     0.750000000  0.750000000  0.450536747
     0.000000000  0.500000000  0.450536747
     0.749536688  0.499933631  0.549955020
     0.999851383  0.749941274  0.549827460
     0.750002384  0.750006939  0.648241352
     0.999999999  0.499999996  0.648130879
     0.250000000  0.000000000  0.450536747
     0.500000000  0.250000000  0.450536747
     0.250000000  0.250000000  0.351610242
     0.500000000  0.000000000  0.351610242
     0.249806279  0.000137223  0.649998964
     0.500399529  0.248967072  0.649940719
     0.250092463  0.250094860  0.549664790
     0.499999988  0.000000006  0.549577267
     0.250000000  0.500000000  0.450536747
     0.500000000  0.750000000  0.450536747
     0.250000000  0.750000000  0.351610242
     0.500000000  0.500000000  0.351610242
     0.248972279  0.500399663  0.649947145
     0.499600460  0.751032922  0.649940701
     0.249893969  0.750103637  0.549574597
     0.499999985  0.499999996  0.550003000
     0.750000000  0.000000000  0.450536747
     0.000000000  0.250000000  0.450536747
     0.750000000  0.250000000  0.351610242
     0.000000000  0.000000000  0.351610242
     0.750193712  0.999862778  0.649998957
     0.000137229  0.249808167  0.649999787
     0.750106013  0.249896364  0.549574592
     0.999999998  0.000000006  0.549561497
     0.750000000  0.500000000  0.450536747
     0.000000000  0.750000000  0.450536747
     0.750000000  0.750000000  0.351610242
     0.000000000  0.500000000  0.351610242
     0.751027711  0.499600333  0.649947116
     0.999862762  0.750191834  0.649999785
     0.749907527  0.749905146  0.549664792
[...]
   2.11014557  2.11014557  9.61014557
   4.22029113  0.00000000  9.61014557
   2.11064041  0.00125449 11.72804703
   4.22085106  2.11404476 11.73078395
   2.11012540  2.11008702 13.82727146
   4.22029110  0.00000003 13.82485596
   2.11014557  4.22029113  7.50000000
   4.22029113  6.33043670  7.50000000
   2.11014557  6.33043670  9.61014557
   4.22029113  4.22029113  9.61014557
   2.11405606  4.22085129 11.73078048
   4.21973099  6.32653752 11.73078428
   2.10630443  6.33431630 13.82060243
   4.22029108  4.22029106 13.86978268
   6.33043670  0.00000000  7.50000000
   0.00000000  2.11014557  7.50000000
   6.33043670  2.11014557  9.61014557
   0.00000000  0.00000000  9.61014557
   6.32994171  8.43932785 11.72804709
   0.00125433  2.11064128 11.72805972
   6.33427774  2.10626590 13.82060229
   8.44058224  0.00000003 13.82532377
   6.33043670  4.22029113  7.50000000
   0.00000000  6.33043670  7.50000000
   6.33043670  6.33043670  9.61014557
   0.00000000  4.22029113  9.61014557
   6.32652607  4.21973094 11.73078074
   8.43932785  6.32994102 11.72805984
   6.33045681  6.33049526 13.82727111
   8.44058226  4.22029109 13.82491469
   2.11014557  0.00000000  9.61014557
   4.22029113  2.11014557  9.61014557
   2.11014557  2.11014557  7.50000000
   4.22029113  0.00000000  7.50000000
   2.10851044  0.00115825 13.86476176
   4.22366339  2.10142706 13.86351936
   2.11092601  2.11094624 11.72459001
   4.22029103  0.00000005 11.72272311
   2.11014557  4.22029113  9.61014557
   4.22029113  6.33043670  9.61014557
   2.11014557  6.33043670  7.50000000
   4.22029113  4.22029113  7.50000000
   2.10147100  4.22366452 13.86365643
   4.21691878  6.33915516 13.86351897
   2.10925061  6.33131145 11.72266615
   4.22029100  4.22029109 11.73180417
   6.33043670  0.00000000  9.61014557
   0.00000000  2.11014557  9.61014557
   6.33043670  2.11014557  7.50000000
   0.00000000  0.00000000  7.50000000
   6.33207174  8.43942403 13.86476160
   0.00115829  2.10852638 13.86477932
   6.33133151  2.10927081 11.72266604
   8.44058225  0.00000005 11.72238673
   6.33043670  4.22029113  9.61014557
   0.00000000  6.33043670  9.61014557
   6.33043670  6.33043670  7.50000000
   0.00000000  4.22029113  7.50000000
   6.33911118  4.21691771 13.86365582
   8.43942390  6.33205589 13.86477927
   6.32965617  6.32963607 11.72459004
   0.00000003  4.22029112 11.72277659

--------------------------------------- Iteration      FINAL  ---------------------------------------

--------------------OUTCAR has been truncated-------------------------

[...]

--------------------OUTCAR has been truncated-------------------------

  FORCE on cell =-STRESS in cart. coord.  units (eV):
  Direction    XX          YY          ZZ          XY          YZ          ZX
  Alpha Z   910.35202   910.35202   910.35202
  Ewald  158220.09720158220.08076************     0.26201     0.00013     0.00013
  Hartree168683.50854168683.69042************     6.01617     0.00007     0.00007
  E(xc)   -2516.95497 -2516.95248 -2523.16543     0.08366     0.00000     0.00000
  Local  ************************336326.68193   -17.31772    -0.00018    -0.00019
  n-local -2824.98703 -2825.10791 -2852.90880    -3.94894    -0.00000    -0.00000
  augment  1053.72940  1053.76230  1043.39238     1.05579    -0.00000    -0.00000
  Kinetic  7545.59218  7546.02339  7554.45824    13.64708    -0.00001    -0.00001
  Fock        0.00000     0.00000     0.00000     0.00000     0.00000     0.00000
  vdW       -21.71509   -21.71510   -16.82073    -0.00006    -0.00000    -0.00000
  Total     -25.47690   -25.46719     0.93930    -0.20202    -0.00000     0.00000
  in kB     -26.86041   -26.85017     0.99031    -0.21299    -0.00000     0.00000

 VOLUME and BASIS-vectors are now :
  energy-cutoff  :      600.00
  volume of cell :     1519.65
      direct lattice vectors                 reciprocal lattice vectors
     8.440582262  0.000000000  0.000000000     0.118475239  0.000000000  0.000000000
     0.000000000  8.440582262  0.000000000     0.000000000  0.118475239  0.000000000
     0.000000000  0.000000000 21.330436697     0.000000000  0.000000000  0.046881366

  length of vectors
     8.440582262  8.440582262 21.330436697     0.118475239  0.118475239  0.046881366

 FORCES acting on ions:
    Electron-Ion                     Ewald-Force                    Non-Local-Force
   0.470E-04 0.711E-04 -.110E+04   -.599E-04 -.832E-04 0.106E+04   0.120E-04 0.127E-04 0.407E+02
   -.731E-04 -.818E-04 -.153E+04   0.892E-04 0.985E-04 0.159E+04   -.149E-04 -.175E-04 -.595E+02
   0.166E+00 -.716E-02 0.208E+04   -.166E+00 0.765E-02 -.208E+04   0.391E-05 -.391E-03 -.716E+01
   0.855E-02 0.191E+00 0.208E+04   -.849E-02 -.190E+00 -.208E+04   -.341E-04 -.118E-02 -.716E+01
   0.745E+00 0.742E+00 0.721E+03   -.735E+00 -.732E+00 -.722E+03   -.671E-02 -.657E-02 0.469E+00
   -.664E-05 0.224E-04 0.721E+03   0.582E-05 -.241E-04 -.722E+03   -.448E-06 0.100E-05 0.421E+00
   0.334E+01 -.206E+00 -.636E+03   -.333E+01 0.211E+00 0.636E+03   -.118E-01 -.715E-02 -.269E+00
   0.246E+00 0.602E+01 -.627E+03   -.256E+00 -.591E+01 0.628E+03   0.858E-02 -.114E+00 -.322E+00
   0.223E+02 0.222E+02 -.198E+04   -.224E+02 -.224E+02 0.198E+04   0.147E+00 0.153E+00 0.642E+01
   0.211E-05 0.202E-04 -.199E+04   -.215E-05 -.179E-04 0.199E+04   0.762E-07 -.251E-05 0.636E+01
   0.192E+00 0.855E-02 0.208E+04   -.191E+00 -.849E-02 -.208E+04   -.122E-02 -.336E-04 -.716E+01
   -.855E-02 -.191E+00 0.208E+04   0.850E-02 0.190E+00 -.208E+04   0.348E-04 0.118E-02 -.716E+01
   0.743E+00 -.740E+00 0.722E+03   -.743E+00 0.740E+00 -.722E+03   -.508E-03 0.375E-03 0.442E+00
   -.164E-04 -.236E-04 0.722E+03   0.171E-04 0.246E-04 -.723E+03   0.412E-06 -.837E-06 0.532E+00
   0.603E+01 0.246E+00 -.627E+03   -.592E+01 -.256E+00 0.628E+03   -.116E+00 0.860E-02 -.314E+00
   -.246E+00 -.602E+01 -.627E+03   0.256E+00 0.591E+01 0.628E+03   -.858E-02 0.114E+00 -.322E+00
   0.224E+02 -.224E+02 -.198E+04   -.225E+02 0.225E+02 0.197E+04   0.100E+00 -.106E+00 0.642E+01
   -.370E-05 -.236E-04 -.189E+04   0.306E-05 0.217E-04 0.188E+04   0.193E-05 0.865E-06 0.498E+01
   -.166E+00 0.717E-02 0.208E+04   0.166E+00 -.766E-02 -.208E+04   -.628E-05 0.388E-03 -.716E+01
   -.717E-02 0.165E+00 0.208E+04   0.766E-02 -.165E+00 -.208E+04   -.390E-03 0.454E-04 -.716E+01
   -.743E+00 0.740E+00 0.722E+03   0.743E+00 -.740E+00 -.722E+03   0.507E-03 -.375E-03 0.442E+00
   0.686E-05 0.134E-04 0.720E+03   -.608E-05 -.133E-04 -.720E+03   0.560E-06 -.749E-06 0.423E+00
   -.334E+01 0.206E+00 -.636E+03   0.333E+01 -.211E+00 0.636E+03   0.118E-01 0.715E-02 -.269E+00
   -.206E+00 0.333E+01 -.636E+03   0.211E+00 -.332E+01 0.636E+03   -.715E-02 -.108E-01 -.268E+00
   -.224E+02 0.224E+02 -.198E+04   0.225E+02 -.225E+02 0.197E+04   -.100E+00 0.106E+00 0.642E+01
   0.426E-05 0.106E-04 -.201E+04   -.423E-05 -.874E-05 0.200E+04   -.118E-05 -.121E-05 0.635E+01
   -.192E+00 -.855E-02 0.208E+04   0.191E+00 0.850E-02 -.208E+04   0.122E-02 0.354E-04 -.716E+01
   0.717E-02 -.165E+00 0.208E+04   -.766E-02 0.165E+00 -.208E+04   0.391E-03 -.449E-04 -.716E+01
   -.745E+00 -.742E+00 0.721E+03   0.735E+00 0.732E+00 -.722E+03   0.671E-02 0.657E-02 0.469E+00
   0.176E-04 -.121E-04 0.721E+03   -.172E-04 0.131E-04 -.722E+03   0.103E-06 -.291E-06 0.423E+00
   -.603E+01 -.246E+00 -.627E+03   0.592E+01 0.256E+00 0.628E+03   0.116E+00 -.860E-02 -.314E+00
   0.206E+00 -.333E+01 -.636E+03   -.211E+00 0.332E+01 0.636E+03   0.715E-02 0.108E-01 -.268E+00
   -.223E+02 -.222E+02 -.198E+04   0.224E+02 0.224E+02 0.198E+04   -.147E+00 -.153E+00 0.642E+01
   0.106E-04 -.144E-04 -.199E+04   -.106E-04 0.129E-04 0.199E+04   -.245E-05 0.269E-05 0.636E+01
   0.490E+00 -.357E-01 0.540E+03   -.489E+00 0.250E-01 -.540E+03   -.119E-02 0.146E-01 -.732E-01
   0.613E-01 0.691E+00 0.541E+03   -.630E-01 -.716E+00 -.541E+03   0.199E-02 0.330E-01 -.932E-01
   0.133E+00 0.133E+00 0.156E+04   -.133E+00 -.132E+00 -.157E+04   -.661E-03 -.562E-03 0.341E+01
   -.139E-05 0.321E-05 0.156E+04   0.959E-06 -.333E-05 -.157E+04   0.202E-06 0.260E-06 0.341E+01
   0.868E+01 -.285E+00 -.152E+04   -.863E+01 0.316E+00 0.152E+04   -.449E-01 -.323E-01 -.476E+01
   0.265E+00 0.306E+02 -.148E+04   -.276E+00 -.304E+02 0.149E+04   0.795E-02 -.264E+00 -.481E+01
   0.339E+01 0.338E+01 -.469E+03   -.338E+01 -.337E+01 0.469E+03   -.134E-01 -.113E-01 0.255E+00
   0.718E-06 0.120E-04 -.469E+03   -.128E-06 -.118E-04 0.469E+03   0.104E-05 0.108E-06 0.262E+00
   0.695E+00 0.613E-01 0.541E+03   -.720E+00 -.630E-01 -.541E+03   0.324E-01 0.199E-02 -.925E-01
   -.613E-01 -.691E+00 0.541E+03   0.630E-01 0.716E+00 -.541E+03   -.199E-02 -.330E-01 -.932E-01
   0.134E+00 -.134E+00 0.156E+04   -.134E+00 0.133E+00 -.157E+04   -.126E-02 0.116E-02 0.341E+01
   -.203E-05 -.262E-05 0.156E+04   0.194E-05 0.335E-05 -.157E+04   -.870E-07 -.437E-06 0.341E+01
   0.306E+02 0.266E+00 -.148E+04   -.304E+02 -.276E+00 0.149E+04   -.262E+00 0.781E-02 -.480E+01
   -.265E+00 -.306E+02 -.148E+04   0.276E+00 0.304E+02 0.149E+04   -.795E-02 0.264E+00 -.481E+01
   0.346E+01 -.345E+01 -.468E+03   -.347E+01 0.346E+01 0.467E+03   0.117E-01 -.139E-01 0.338E+00
   -.549E-05 -.134E-04 -.467E+03   0.632E-05 0.148E-04 0.467E+03   -.152E-06 -.197E-05 -.246E+00
   -.490E+00 0.357E-01 0.540E+03   0.489E+00 -.250E-01 -.540E+03   0.119E-02 -.146E-01 -.732E-01
   -.357E-01 0.486E+00 0.540E+03   0.250E-01 -.486E+00 -.540E+03   0.146E-01 -.571E-03 -.731E-01
   -.134E+00 0.134E+00 0.156E+04   0.134E+00 -.133E+00 -.157E+04   0.126E-02 -.116E-02 0.341E+01
   0.185E-06 0.291E-05 0.156E+04   -.979E-06 -.231E-05 -.157E+04   0.193E-06 0.412E-06 0.341E+01
   -.868E+01 0.285E+00 -.152E+04   0.863E+01 -.316E+00 0.152E+04   0.449E-01 0.323E-01 -.476E+01
   -.285E+00 0.867E+01 -.152E+04   0.316E+00 -.862E+01 0.152E+04   -.323E-01 -.415E-01 -.475E+01
   -.346E+01 0.345E+01 -.468E+03   0.347E+01 -.346E+01 0.467E+03   -.117E-01 0.139E-01 0.338E+00
   0.790E-05 0.115E-04 -.474E+03   -.110E-04 -.109E-04 0.474E+03   0.142E-05 -.757E-08 0.243E+00
   -.695E+00 -.613E-01 0.541E+03   0.720E+00 0.630E-01 -.541E+03   -.324E-01 -.199E-02 -.925E-01
   0.357E-01 -.486E+00 0.540E+03   -.250E-01 0.486E+00 -.540E+03   -.146E-01 0.570E-03 -.732E-01
   -.133E+00 -.133E+00 0.156E+04   0.133E+00 0.132E+00 -.157E+04   0.661E-03 0.562E-03 0.341E+01
   0.217E-05 -.213E-05 0.156E+04   -.195E-05 0.232E-05 -.157E+04   -.174E-06 0.171E-06 0.341E+01
   -.306E+02 -.266E+00 -.148E+04   0.304E+02 0.276E+00 0.149E+04   0.262E+00 -.781E-02 -.480E+01
   0.285E+00 -.867E+01 -.152E+04   -.316E+00 0.862E+01 0.152E+04   0.323E-01 0.415E-01 -.475E+01
   -.339E+01 -.338E+01 -.469E+03   0.338E+01 0.337E+01 0.469E+03   0.134E-01 0.113E-01 0.255E+00
   0.126E-04 -.130E-04 -.469E+03   -.155E-04 0.122E-04 0.469E+03   0.215E-05 -.585E-06 0.265E+00
   -.379E-05 0.632E-05 0.350E+02   0.985E-13 0.175E-12 -.233E-11   0.286E-05 -.599E-05 -.350E+02

 POSITION                                       TOTAL-FORCE (eV/Angst)
      4.22029      4.22029     16.19655        -0.000001      0.000000     -0.456795
      4.22029      4.22029     17.36773         0.000001     -0.000001      0.473757
      2.11015      0.00000      7.50000         0.000003      0.000092      0.338282
      4.22029      2.11015      7.50000         0.000022      0.000290      0.338371
      2.11015      2.11015      9.61015         0.003426      0.003367      0.057737
      4.22029      0.00000      9.61015        -0.000001     -0.000001      0.063459
      2.11064      0.00125     11.72805        -0.000069     -0.001690     -0.023019
      4.22085      2.11404     11.73078        -0.001552     -0.002669     -0.026482
      2.11013      2.11009     13.82727         0.003852      0.002800     -0.004987
      4.22029      0.00000     13.82486         0.000000     -0.000000     -0.011521
      2.11015      4.22029      7.50000         0.000304      0.000024      0.338322
      4.22029      6.33044      7.50000        -0.000021     -0.000289      0.338373
      2.11015      6.33044      9.61015        -0.000322      0.000380      0.056418
      4.22029      4.22029      9.61015         0.000001      0.000000      0.070269
      2.11406      4.22085     11.73078        -0.002230     -0.001558     -0.027315
      4.21973      6.32654     11.73078         0.001551      0.002671     -0.026482
      2.10630      6.33432     13.82060         0.007609     -0.006547     -0.001086
      4.22029      4.22029     13.86978         0.000001     -0.000001     -0.050656
      6.33044      0.00000      7.50000        -0.000005     -0.000095      0.338287
      0.00000      2.11015      7.50000         0.000092     -0.000011      0.338268
      6.33044      2.11015      9.61015         0.000323     -0.000380      0.056419
      0.00000      0.00000      9.61015         0.000001     -0.000001      0.055881
      6.32994      8.43933     11.72805         0.000069      0.001690     -0.023019
      0.00125      2.11064     11.72806        -0.001690     -0.000403     -0.023205
      6.33428      2.10627     13.82060        -0.007606      0.006547     -0.001086
      8.44058      0.00000     13.82532        -0.000001      0.000001     -0.013690
      6.33044      4.22029      7.50000        -0.000304     -0.000021      0.338324
      0.00000      6.33044      7.50000        -0.000093      0.000011      0.338262
      6.33044      6.33044      9.61015        -0.003425     -0.003369      0.057737
      0.00000      4.22029      9.61015         0.000001      0.000001      0.063215
      6.32653      4.21973     11.73078         0.002229      0.001559     -0.027313
      8.43933      6.32994     11.72806         0.001689      0.000403     -0.023206
      6.33046      6.33050     13.82727        -0.003847     -0.002803     -0.004981
      8.44058      4.22029     13.82491        -0.000002      0.000001     -0.011592
      2.11015      0.00000      9.61015        -0.000313      0.003850      0.052591
      4.22029      2.11015      9.61015         0.000356      0.007744      0.060951
      2.11015      2.11015      7.50000        -0.000175     -0.000148     -0.502249
      4.22029      0.00000      7.50000        -0.000000      0.000000     -0.502199
      2.10851      0.00116     13.86476         0.003507     -0.001368      0.101799
      4.22366      2.10143     13.86352        -0.002119      0.003709      0.087891
      2.11093      2.11095     11.72459         0.000056      0.000622     -0.014029
      4.22029      0.00000     11.72272         0.000002      0.000000     -0.013608
      2.11015      4.22029      9.61015         0.007543      0.000356      0.061135
      4.22029      6.33044      9.61015        -0.000356     -0.007744      0.060953
      2.11015      6.33044      7.50000        -0.000365      0.000336     -0.502177
      4.22029      4.22029      7.50000        -0.000000      0.000000     -0.502454
      2.10147      4.22366     13.86366         0.004044     -0.002159      0.090279
      4.21692      6.33916     13.86352         0.002119     -0.003709      0.087891
      2.10925      6.33131     11.72267         0.002492     -0.003067     -0.014182
      4.22029      4.22029     11.73180         0.000001     -0.000001     -0.009766
      6.33044      0.00000      9.61015         0.000312     -0.003849      0.052590
      0.00000      2.11015      9.61015         0.003851     -0.000120      0.052679
      6.33044      2.11015      7.50000         0.000368     -0.000337     -0.502177
      0.00000      0.00000      7.50000        -0.000001      0.000001     -0.502318
      6.33207      8.43942     13.86476        -0.003507      0.001370      0.101799
      0.00116      2.10853     13.86478        -0.001376      0.004402      0.101938
      6.33133      2.10927     11.72267        -0.002491      0.003068     -0.014182
      8.44058      0.00000     11.72239        -0.000002      0.000001     -0.012994
      6.33044      4.22029      9.61015        -0.007544     -0.000357      0.061134
      0.00000      6.33044      9.61015        -0.003851      0.000119      0.052679
      6.33044      6.33044      7.50000         0.000176      0.000148     -0.502252
      0.00000      4.22029      7.50000         0.000000      0.000000     -0.502148
      6.33911      4.21692     13.86366        -0.004043      0.002159      0.090280
      8.43942      6.33206     13.86478         0.001373     -0.004403      0.101938
      6.32966      6.32964     11.72459        -0.000059     -0.000620     -0.014028
      0.00000      4.22029     11.72278        -0.000001     -0.000001     -0.012710
    total drift:                               -0.000001      0.000000      0.021013

  FREE ENERGIE OF THE ION-ELECTRON SYSTEM (eV)
  free  energy   TOTEN  =      -383.52202978 eV

  energy  without entropy=     -383.52202792  energy(sigma->0) =     -383.52202885