 vasp.6.3.0 20Jan22 (build Mar 11 2022 13:48:16) complex

 executed on             LinuxIFC date 2024.02.12  03:31:56

 INCAR:
   SYSTEM = Oxide-Surface
   ISMEAR = 0
   SIGMA = 0.05
   EDIFF = 1E-5
   ALGO = ALL
   ISTART = 0
   IBRION = -1
   NSW = 0
   ISYM = 2
   DIPOL = 0.5 0.5 0.5
   IDIPOL = 3
   LDIPOL = .TRUE.
   GGA = PE
   IVDW = 11
   ENCUT = 600
   PREC = Accurate
   LASPH = .TRUE.
   LREAL = .FALSE.
   ISPIN = 1
   NELM = 200
   NELMIN = 8
   NCORE = 19
   KPAR = 1
   LWAVE = .FALSE.
   LCHARG = .FALSE.

 POTCAR:    PAW_PBE C 08Apr2002
 POTCAR:    PAW_PBE O 08Apr2002
 POTCAR:    PAW_PBE Mg_pv 13Apr2007
 POTCAR:    PAW_PBE O 08Apr2002
 POTCAR:    PAW_PBE C 08Apr2002
   VRHFIN =C: s2p2

   TITEL  = PAW_PBE C 08Apr2002
   POMASS =   12.011; ZVAL   =    4.000    mass and valenz
   ENMAX  =  400.000; ENMIN  =  300.000 eV

[...]

   TITEL  = PAW_PBE Mg_pv 13Apr2007
   POMASS =   24.305; ZVAL   =    8.000    mass and valenz
   ENMAX  =  403.929; ENMIN  =  302.947 eV

   TITEL  = PAW_PBE O 08Apr2002
   POMASS =   16.000; ZVAL   =    6.000    mass and valenz
   ENMAX  =  400.000; ENMIN  =  300.000 eV

  PAW_PBE C 08Apr2002                   :
  PAW_PBE O 08Apr2002                   :
  PAW_PBE Mg_pv 13Apr2007               :
  PAW_PBE O 08Apr2002                   :

 POSCAR:  C  O Mg  O
  positions in direct lattice
 exchange correlation table for  LEXCH =        8
   RHO(1)=    0.500       N(1)  =     2000
   RHO(2)=  100.500       N(2)  =     4000

 ion  position               nearest neighbor table
   1  0.500  0.500  0.765-   2 1.15
   2  0.500  0.500  0.819-   1 1.15
   3  0.000  0.750  0.352-  35 2.11  37 2.11  38 2.11  45 2.11  54 2.11
   4  0.250  0.000  0.352-  36 2.11  37 2.11  38 2.11  46 2.11  53 2.11
   5  0.000  0.000  0.451-  37 2.11  36 2.11  35 2.11  43 2.11  52 2.11  41 2.12
   6  0.250  0.750  0.451-  38 2.11  36 2.11  35 2.11  44 2.11  51 2.11  42 2.12
   7  0.000  0.750  0.550-  49 2.11  42 2.11  58 2.11  41 2.11  35 2.12  39 2.15
   8  0.250  0.000  0.550-  57 2.11  50 2.11  42 2.11  41 2.11  36 2.12  40 2.15
   9  0.000  0.000  0.649-  39 2.11  40 2.11  47 2.11  56 2.11  41 2.11
  10  0.250  0.750  0.649-  42 2.11  40 2.11  39 2.11  48 2.11  55 2.11
  11  0.000  0.250  0.352-  43 2.11  37 2.11  45 2.11  46 2.11  62 2.11
  12  0.250  0.500  0.352-  44 2.11  38 2.11  45 2.11  46 2.11  61 2.11
  13  0.000  0.500  0.451-  45 2.11  43 2.11  44 2.11  35 2.11  60 2.11  49 2.12
  14  0.250  0.250  0.451-  46 2.11  43 2.11  44 2.11  36 2.11  59 2.11  50 2.12
  15  0.000  0.250  0.550-  49 2.11  50 2.11  66 2.11  41 2.11  43 2.12  47 2.15
  16  0.250  0.500  0.550-  65 2.11  50 2.11  42 2.11  49 2.11  44 2.13  48 2.15
  17  0.000  0.500  0.649-  48 2.10  64 2.10  49 2.11  47 2.11  39 2.11
  18  0.250  0.250  0.649-  50 2.11  47 2.11  40 2.11  48 2.11  63 2.11
  19  0.500  0.750  0.352-  51 2.11  38 2.11  53 2.11  54 2.11  61 2.11
  20  0.750  0.000  0.352-  52 2.11  37 2.11  53 2.11  54 2.11  62 2.11
  21  0.500  0.000  0.451-  53 2.11  51 2.11  52 2.11  36 2.11  59 2.11  57 2.12
  22  0.750  0.750  0.451-  54 2.11  51 2.11  52 2.11  35 2.11  60 2.11  58 2.12
  23  0.500  0.750  0.550-  65 2.11  58 2.11  42 2.11  57 2.11  51 2.13  55 2.15
  24  0.750  0.000  0.550-  57 2.11  58 2.11  66 2.11  41 2.11  52 2.12  56 2.15
  25  0.500  0.000  0.649-  55 2.10  63 2.10  57 2.11  40 2.11  56 2.11
  26  0.750  0.750  0.649-  58 2.11  56 2.11  39 2.11  55 2.11  64 2.11
  27  0.500  0.250  0.352-  59 2.11  53 2.11  46 2.11  61 2.11  62 2.11
  28  0.750  0.500  0.352-  60 2.11  54 2.11  45 2.11  61 2.11  62 2.11
  29  0.500  0.500  0.451-  61 2.11  51 2.11  59 2.11  60 2.11  44 2.11  65 2.13
  30  0.750  0.250  0.451-  62 2.11  52 2.11  59 2.11  60 2.11  43 2.11  66 2.12
  31  0.500  0.250  0.550-  65 2.11  50 2.11  66 2.11  57 2.11  59 2.13  63 2.15
  32  0.750  0.500  0.550-  65 2.11  58 2.11  66 2.11  49 2.11  60 2.13  64 2.15
  33  0.500  0.500  0.651-  48 2.12  55 2.12  63 2.12  64 2.12  65 2.14
  34  0.750  0.250  0.649-  66 2.11  56 2.11  47 2.11  64 2.11  63 2.11
  35  0.000  0.750  0.451-   3 2.11   5 2.11   6 2.11  13 2.11  22 2.11   7 2.12
  36  0.250  0.000  0.451-   4 2.11   5 2.11   6 2.11  14 2.11  21 2.11   8 2.12
  37  0.000  0.000  0.352-   5 2.11   4 2.11   3 2.11  11 2.11  20 2.11
  38  0.250  0.750  0.352-   6 2.11   4 2.11   3 2.11  12 2.11  19 2.11
  39  0.000  0.750  0.651-   9 2.11  10 2.11  26 2.11  17 2.11   7 2.15
  40  0.250  0.000  0.651-   9 2.11  10 2.11  18 2.11  25 2.11   8 2.15
  41  0.000  0.000  0.550-   9 2.11   8 2.11   7 2.11  15 2.11  24 2.11   5 2.12
  42  0.250  0.750  0.550-  10 2.11   8 2.11   7 2.11  16 2.11  23 2.11   6 2.12
  43  0.000  0.250  0.451-  11 2.11   5 2.11  13 2.11  14 2.11  30 2.11  15 2.12
  44  0.250  0.500  0.451-  12 2.11   6 2.11  13 2.11  14 2.11  29 2.11  16 2.13
  45  0.000  0.500  0.352-  13 2.11  11 2.11  12 2.11   3 2.11  28 2.11
  46  0.250  0.250  0.352-  14 2.11  11 2.11  12 2.11   4 2.11  27 2.11
  47  0.000  0.250  0.651-   9 2.11  18 2.11  34 2.11  17 2.11  15 2.15
  48  0.249  0.500  0.651-  17 2.10  10 2.11  18 2.11  33 2.12  16 2.15
  49  0.000  0.500  0.550-  17 2.11  15 2.11   7 2.11  16 2.11  32 2.11  13 2.12
  50  0.250  0.250  0.550-  18 2.11  15 2.11   8 2.11  16 2.11  31 2.11  14 2.12
  51  0.500  0.750  0.451-  19 2.11   6 2.11  21 2.11  22 2.11  29 2.11  23 2.13
  52  0.750  0.000  0.451-  20 2.11   5 2.11  21 2.11  22 2.11  30 2.11  24 2.12
  53  0.500  0.000  0.352-  21 2.11  19 2.11  20 2.11   4 2.11  27 2.11
  54  0.750  0.750  0.352-  22 2.11  19 2.11  20 2.11   3 2.11  28 2.11
  55  0.500  0.751  0.651-  25 2.10  10 2.11  26 2.11  33 2.12  23 2.15
  56  0.750  0.000  0.651-   9 2.11  26 2.11  34 2.11  25 2.11  24 2.15
  57  0.500  0.000  0.550-  25 2.11  24 2.11   8 2.11  23 2.11  31 2.11  21 2.12
  58  0.750  0.750  0.550-  26 2.11  24 2.11   7 2.11  32 2.11  23 2.11  22 2.12
  59  0.500  0.250  0.451-  27 2.11  21 2.11  14 2.11  29 2.11  30 2.11  31 2.13
  60  0.750  0.500  0.451-  28 2.11  22 2.11  13 2.11  29 2.11  30 2.11  32 2.13
  61  0.500  0.500  0.352-  29 2.11  19 2.11  27 2.11  28 2.11  12 2.11
  62  0.750  0.250  0.352-  30 2.11  20 2.11  27 2.11  28 2.11  11 2.11
  63  0.500  0.249  0.651-  25 2.10  18 2.11  34 2.11  33 2.12  31 2.15
  64  0.751  0.500  0.651-  17 2.10  26 2.11  34 2.11  33 2.12  32 2.15
  65  0.500  0.500  0.550-  16 2.11  23 2.11  31 2.11  32 2.11  29 2.13  33 2.14
  66  0.750  0.250  0.550-  34 2.11  24 2.11  15 2.11  32 2.11  31 2.11  30 2.12

  LATTYP: Found a simple tetragonal cell.
 ALAT       =     8.4409846542
 C/A-ratio  =     2.5270438657

  Lattice vectors:

 A1 = (   8.4409846542,   0.0000000000,   0.0000000000)
 A2 = (   0.0000000000,   8.4409846542,   0.0000000000)
 A3 = (   0.0000000000,   0.0000000000,  21.3307384906)

Analysis of symmetry for initial positions (statically):
 Subroutine PRICEL returns:
 Original cell was already a primitive cell.

 Routine SETGRP: Setting up the symmetry group for a
 simple tetragonal supercell.

 Subroutine GETGRP returns: Found  8 space group operations
 (whereof  8 operations were pure point group operations)
 out of a pool of 16 trial point group operations.

The static configuration has the point symmetry C_4v.

Analysis of symmetry for dynamics (positions and initial velocities):
 Subroutine PRICEL returns:
 Original cell was already a primitive cell.

[...]

The dynamic configuration has the point symmetry C_4v.

Analysis of constrained symmetry for selective dynamics:
 Subroutine PRICEL returns:
 Original cell was already a primitive cell.

 Routine SETGRP: Setting up the symmetry group for a
 simple tetragonal supercell.

 Subroutine GETGRP returns: Found  8 space group operations
 (whereof  8 operations were pure point group operations)
 out of a pool of 16 trial point group operations.

The constrained configuration has the point symmetry C_4v.

 Subroutine INISYM returns: Found  8 space group operations
 (whereof  8 operations are pure point group operations),
 and found     1 'primitive' translations

                                     Primitive cell

  volume of cell :    1519.8199

  direct lattice vectors                    reciprocal lattice vectors
     8.440984654  0.000000000  0.000000000     0.118469591  0.000000000  0.000000000
     0.000000000  8.440984654  0.000000000     0.000000000  0.118469591  0.000000000
     0.000000000  0.000000000 21.330738491     0.000000000  0.000000000  0.046880702

  length of vectors
     8.440984654  8.440984654 21.330738491     0.118469591  0.118469591  0.046880702

  position of ions in fractional coordinates (direct lattice)
     0.500000000  0.500000000  0.765053803
     0.500000000  0.500000000  0.818817521
     0.000000000  0.750000000  0.351605267
     0.250000000  0.000000000  0.351605267
     0.000000000  0.000000000  0.450535089
     0.250000000  0.750000000  0.450535089
     0.000000000  0.749939268  0.550083239
     0.250060732  0.000000000  0.550083239
     0.000000000  0.000000000  0.648745309
     0.249858327  0.750141673  0.648569547
     0.000000000  0.250000000  0.351605267
     0.250000000  0.500000000  0.351605267
     0.000000000  0.500000000  0.450535089
     0.250000000  0.250000000  0.450535089
     0.000000000  0.250060732  0.550083239
     0.250378379  0.500000000  0.550219524
     0.000000000  0.500000000  0.648615280
     0.249858327  0.249858327  0.648569547
     0.500000000  0.750000000  0.351605267
     0.750000000  0.000000000  0.351605267
     0.500000000  0.000000000  0.450535089
     0.750000000  0.750000000  0.450535089
     0.500000000  0.749621621  0.550219524
     0.749939268  0.000000000  0.550083239
     0.500000000  0.000000000  0.648615280
     0.750141673  0.750141673  0.648569547
     0.500000000  0.250000000  0.351605267
     0.750000000  0.500000000  0.351605267
     0.500000000  0.500000000  0.450535089
     0.750000000  0.250000000  0.450535089
     0.500000000  0.250378379  0.550219524
     0.749621621  0.500000000  0.550219524
     0.500000000  0.500000000  0.650616960
     0.750141673  0.249858327  0.648569547
     0.000000000  0.750000000  0.450535089
     0.250000000  0.000000000  0.450535089
     0.000000000  0.000000000  0.351605267
     0.250000000  0.750000000  0.351605267
     0.000000000  0.750218533  0.650979255
     0.249781467  0.000000000  0.650979255
     0.000000000  0.000000000  0.549809890
     0.249945770  0.750054230  0.549859113
     0.000000000  0.250000000  0.450535089
     0.250000000  0.500000000  0.450535089
     0.000000000  0.500000000  0.351605267
     0.250000000  0.250000000  0.351605267
     0.000000000  0.249781467  0.650979255
     0.248822710  0.500000000  0.650882872
     0.000000000  0.500000000  0.549762666
     0.249945770  0.249945770  0.549859113
     0.500000000  0.750000000  0.450535089
     0.750000000  0.000000000  0.450535089
     0.500000000  0.000000000  0.351605267
     0.750000000  0.750000000  0.351605267
     0.500000000  0.751177290  0.650882872
     0.750218533  0.000000000  0.650979255
     0.500000000  0.000000000  0.549762666
     0.750054230  0.750054230  0.549859113
     0.500000000  0.250000000  0.450535089
[...]
   2.11344006  4.22049233 11.73658877
   0.00000000  4.22049233 13.83544293
   2.10905031  2.10905031 13.83446740
   4.22049233  6.33073849  7.50000000
   6.33073849  0.00000000  7.50000000
   4.22049233  0.00000000  9.61024616
   6.33073849  6.33073849  9.61024616
   4.22049233  6.32754460 11.73658877
   6.33022585  0.00000000 11.73368172
   4.22049233  0.00000000 13.83544293
   6.33193435  6.33193435 13.83446740
   4.22049233  2.11024616  7.50000000
   6.33073849  4.22049233  7.50000000
   4.22049233  4.22049233  9.61024616
   6.33073849  2.11024616  9.61024616
   4.22049233  2.11344006 11.73658877
   6.32754460  4.22049233 11.73658877
   4.22049233  4.22049233 13.87814023
   6.33193435  2.10905031 13.83446740
   0.00000000  6.33073849  9.61024616
   2.11024616  0.00000000  9.61024616
   0.00000000  0.00000000  7.50000000
   2.11024616  6.33073849  7.50000000
   0.00000000  6.33258312 13.88586825
   2.10840153  0.00000000 13.88586825
   0.00000000  0.00000000 11.72785099
   2.10978841  6.33119624 11.72890095
   0.00000000  2.11024616  9.61024616
   2.11024616  4.22049233  9.61024616
   0.00000000  4.22049233  7.50000000
   2.11024616  2.11024616  7.50000000
   0.00000000  2.10840153 13.88586825
   2.10030867  4.22049233 13.88381232
   0.00000000  4.22049233 11.72684365
   2.10978841  2.10978841 11.72890095
   4.22049233  6.33073849  9.61024616
   6.33073849  0.00000000  9.61024616
   4.22049233  0.00000000  7.50000000
   6.33073849  6.33073849  7.50000000
   4.22049233  6.34067598 13.88381232
   6.33258312  0.00000000 13.88586825
   4.22049233  0.00000000 11.72684365
   6.33119624  6.33119624 11.72890095
   4.22049233  2.11024616  9.61024616
   6.33073849  4.22049233  9.61024616
   4.22049233  4.22049233  7.50000000
   6.33073849  2.11024616  7.50000000
   4.22049233  2.10030867 13.88381232
   6.34067598  4.22049233 13.88381232
   4.22049233  4.22049233 11.73684118
   6.33119624  2.10978841 11.72890095

--------------------------------------- Iteration      FINAL  ---------------------------------------

--------------------OUTCAR has been truncated-------------------------

[...]

--------------------OUTCAR has been truncated-------------------------

         DFTD3 V3.0 Rev 1
 IVDW         = 11
 DF pbe
 parameters
 VDW_S6       =    1.0000
 VDW_S8       =    0.7220
 VDW_SR       =    1.2170
 rs18     =    1.0000
 alpha6   =   14.0000
 alpha8   =   16.0000
 k1-k3    =   16.0000    1.3333   -4.0000
 VDW_RADIUS   =   50.2022 A
 VDW_CNRADIUS =   21.1671 A
 Edisp (eV)   -9.38924

 E6    (eV) :    -4.3135
 E8    (eV) :    -5.0757
 % E8        : 54.06

  FORCE on cell =-STRESS in cart. coord.  units (eV):
  Direction    XX          YY          ZZ          XY          YZ          ZX
  Alpha Z   907.96410   907.96410   907.96410
  Ewald  157644.15472157644.15472************     0.00000     0.00000    -0.00000
  Hartree168052.31084168052.31084************    -0.00000    -0.00000    -0.00000
  E(xc)   -2500.79301 -2500.79301 -2504.71652     0.00000     0.00000     0.00000
  Local  ************************335285.80482     0.00000     0.00000    -0.00000
  n-local -2830.46929 -2831.28431 -2861.93157    -0.00002    -0.00001    -0.00002
  augment  1054.04338  1054.04338  1044.27512    -0.00000     0.00000     0.00000
  Kinetic  7494.10525  7496.70099  7517.79284     0.00002    -0.00003    -0.00001
  Fock        0.00000     0.00000     0.00000     0.00000     0.00000     0.00000
  vdW       -12.02708   -12.02708    -7.44126     0.00000    -0.00000    -0.00000
  Total     -30.72200   -30.72200    -3.59282     0.00000     0.00000     0.00000
  in kB     -32.38680   -32.38680    -3.78752     0.00000     0.00000     0.00000

 VOLUME and BASIS-vectors are now :
  energy-cutoff  :      600.00
  volume of cell :     1519.82
      direct lattice vectors                 reciprocal lattice vectors
     8.440984654  0.000000000  0.000000000     0.118469591  0.000000000  0.000000000
     0.000000000  8.440984654  0.000000000     0.000000000  0.118469591  0.000000000
     0.000000000  0.000000000 21.330738491     0.000000000  0.000000000  0.046880702

  length of vectors
     8.440984654  8.440984654 21.330738491     0.118469591  0.118469591  0.046880702

 FORCES acting on ions:
    Electron-Ion                     Ewald-Force                    Non-Local-Force
   0.114E-12 0.673E-12 -.837E+03   0.107E-13 0.622E-14 0.811E+03   -.173E-21 -.423E-22 0.268E+02
   0.428E-12 0.288E-11 -.145E+04   -.888E-14 0.222E-15 0.151E+04   -.232E-22 -.345E-22 -.599E+02
   -.813E-13 -.128E+00 0.208E+04   -.132E-12 0.129E+00 -.207E+04   0.346E-21 -.223E-03 -.704E+01
   0.128E+00 0.539E-13 0.208E+04   -.129E+00 0.537E-13 -.207E+04   0.223E-03 -.485E-22 -.704E+01
   -.649E-13 -.115E-11 0.713E+03   -.151E-10 0.151E-10 -.714E+03   0.387E-22 0.146E-22 0.504E+00
   0.472E+00 -.472E+00 0.714E+03   -.467E+00 0.467E+00 -.715E+03   -.265E-02 0.265E-02 0.531E+00
   -.561E-13 -.284E+01 -.643E+03   0.162E-11 0.283E+01 0.643E+03   -.207E-21 0.135E-01 -.164E+00
   0.284E+01 -.515E-12 -.643E+03   -.283E+01 -.144E-11 0.643E+03   -.135E-01 -.118E-21 -.164E+00
   -.413E-13 -.137E-11 -.200E+04   0.419E-12 -.348E-12 0.200E+04   0.652E-22 0.121E-21 0.597E+01
   0.181E+02 -.181E+02 -.198E+04   -.182E+02 0.182E+02 0.198E+04   0.934E-01 -.934E-01 0.605E+01
   -.710E-13 0.128E+00 0.208E+04   -.356E-12 -.129E+00 -.207E+04   0.771E-22 0.223E-03 -.704E+01
   0.124E+00 0.431E-12 0.208E+04   -.121E+00 0.131E-10 -.207E+04   -.182E-02 0.514E-23 -.705E+01
   -.699E-13 -.441E-12 0.714E+03   -.166E-10 0.391E-13 -.715E+03   -.662E-22 -.127E-21 0.469E+00
   0.472E+00 0.472E+00 0.714E+03   -.467E+00 -.467E+00 -.715E+03   -.265E-02 -.265E-02 0.531E+00
   -.536E-13 0.284E+01 -.643E+03   0.298E-11 -.283E+01 0.643E+03   0.149E-21 -.135E-01 -.164E+00
   0.413E+01 -.150E-12 -.636E+03   -.405E+01 -.995E-13 0.636E+03   -.785E-01 0.250E-21 -.260E+00
   -.271E-13 0.147E-11 -.199E+04   0.142E-13 -.355E-14 0.198E+04   0.113E-22 0.564E-22 0.598E+01
   0.181E+02 0.181E+02 -.198E+04   -.182E+02 -.182E+02 0.198E+04   0.934E-01 0.934E-01 0.605E+01
   0.694E-12 -.124E+00 0.208E+04   -.128E-10 0.121E+00 -.207E+04   0.128E-21 0.182E-02 -.705E+01
   -.128E+00 0.202E-13 0.208E+04   0.129E+00 0.702E-13 -.207E+04   -.223E-03 0.374E-22 -.704E+01
   0.615E-12 0.687E-12 0.714E+03   0.154E-11 0.150E-10 -.715E+03   -.220E-22 0.972E-22 0.469E+00
   -.472E+00 -.472E+00 0.714E+03   0.467E+00 0.467E+00 -.715E+03   0.265E-02 0.265E-02 0.531E+00
   0.621E-12 -.413E+01 -.636E+03   -.153E-11 0.405E+01 0.636E+03   -.243E-21 0.785E-01 -.260E+00
   -.284E+01 -.488E-12 -.643E+03   0.283E+01 -.153E-11 0.643E+03   0.135E-01 -.144E-21 -.164E+00
   0.741E-12 0.115E-11 -.199E+04   0.853E-13 -.249E-13 0.198E+04   -.595E-23 -.287E-22 0.598E+01
   -.181E+02 -.181E+02 -.198E+04   0.182E+02 0.182E+02 0.198E+04   -.934E-01 -.934E-01 0.605E+01
   0.693E-12 0.124E+00 0.208E+04   -.132E-10 -.121E+00 -.207E+04   -.183E-22 -.182E-02 -.705E+01
   -.124E+00 -.234E-11 0.208E+04   0.121E+00 0.131E-10 -.207E+04   0.182E-02 0.483E-24 -.705E+01
   0.661E-12 0.124E-11 0.714E+03   -.249E-13 0.924E-13 -.715E+03   -.229E-21 0.576E-22 0.601E+00
   -.472E+00 0.472E+00 0.714E+03   0.467E+00 -.467E+00 -.715E+03   0.265E-02 -.265E-02 0.531E+00
   0.621E-12 0.413E+01 -.636E+03   0.000E+00 -.405E+01 0.636E+03   -.121E-21 -.785E-01 -.260E+00
   -.413E+01 -.240E-11 -.636E+03   0.405E+01 -.284E-13 0.636E+03   0.785E-01 -.164E-21 -.260E+00
   0.712E-12 0.332E-11 -.191E+04   0.675E-13 -.711E-14 0.191E+04   -.635E-22 0.404E-22 0.386E+01
   -.181E+02 0.181E+02 -.198E+04   0.182E+02 -.182E+02 0.198E+04   -.934E-01 0.934E-01 0.605E+01
   -.400E-13 -.404E+00 0.535E+03   0.950E-13 0.400E+00 -.535E+03   0.238E-22 0.657E-02 -.924E-01
   0.404E+00 0.446E-13 0.535E+03   -.400E+00 -.444E-14 -.535E+03   -.657E-02 -.200E-21 -.924E-01
   -.395E-13 -.310E-12 0.156E+04   0.854E-11 -.844E-11 -.156E+04   0.326E-22 0.917E-22 0.349E+01
   0.939E-01 -.939E-01 0.156E+04   -.931E-01 0.931E-01 -.156E+04   -.104E-02 0.104E-02 0.349E+01
   -.295E-13 -.733E+01 -.152E+04   -.771E-12 0.727E+01 0.153E+04   -.325E-22 0.534E-01 -.503E+01
   0.733E+01 -.687E-12 -.152E+04   -.727E+01 0.856E-12 0.153E+04   -.534E-01 -.558E-23 -.503E+01
   -.478E-13 0.591E-12 -.478E+03   -.711E-14 0.497E-13 0.478E+03   -.334E-23 0.163E-22 0.255E+00
   0.257E+01 -.257E+01 -.473E+03   -.256E+01 0.256E+01 0.473E+03   -.523E-02 0.523E-02 0.326E+00
   -.353E-13 0.404E+00 0.535E+03   0.924E-13 -.400E+00 -.535E+03   -.119E-21 -.657E-02 -.924E-01
   0.380E+00 0.606E-13 0.535E+03   -.406E+00 -.762E-11 -.535E+03   0.348E-01 -.550E-22 -.112E+00
   -.454E-13 0.148E-12 0.156E+04   0.846E-11 -.867E-12 -.156E+04   -.594E-22 0.592E-22 0.349E+01
   0.939E-01 0.939E-01 0.156E+04   -.931E-01 -.931E-01 -.156E+04   -.104E-02 -.104E-02 0.349E+01
   -.245E-13 0.733E+01 -.152E+04   -.782E-12 -.727E+01 0.153E+04   -.185E-23 -.534E-01 -.503E+01
   0.236E+02 0.119E-11 -.149E+04   -.233E+02 0.818E-11 0.150E+04   -.343E+00 0.189E-21 -.503E+01
   -.445E-13 0.505E-12 -.473E+03   -.742E-11 0.711E-14 0.473E+03   -.580E-22 -.262E-22 0.281E+00
   0.257E+01 0.257E+01 -.473E+03   -.256E+01 -.256E+01 0.473E+03   -.523E-02 -.523E-02 0.326E+00
   0.294E-12 -.380E+00 0.535E+03   0.763E-11 0.406E+00 -.535E+03   -.599E-22 -.348E-01 -.112E+00
   -.404E+00 0.126E-13 0.535E+03   0.400E+00 -.568E-13 -.535E+03   0.657E-02 -.645E-22 -.924E-01
   0.344E-12 0.143E-11 0.156E+04   0.918E-12 -.848E-11 -.156E+04   -.430E-22 -.113E-23 0.349E+01
   -.939E-01 -.939E-01 0.156E+04   0.931E-01 0.931E-01 -.156E+04   0.104E-02 0.104E-02 0.349E+01
   0.332E-12 -.236E+02 -.149E+04   -.815E-11 0.233E+02 0.150E+04   -.351E-22 0.343E+00 -.503E+01
   -.733E+01 -.727E-12 -.152E+04   0.727E+01 0.888E-12 0.153E+04   0.534E-01 -.157E-21 -.503E+01
   0.274E-12 -.178E-12 -.473E+03   -.355E-13 0.743E-11 0.473E+03   0.335E-22 -.123E-22 0.281E+00
   -.257E+01 -.257E+01 -.473E+03   0.256E+01 0.256E+01 0.473E+03   0.523E-02 0.523E-02 0.326E+00
   0.295E-12 0.380E+00 0.535E+03   0.769E-11 -.406E+00 -.535E+03   0.235E-22 0.348E-01 -.112E+00
   -.380E+00 -.257E-11 0.535E+03   0.406E+00 -.770E-11 -.535E+03   -.348E-01 0.123E-21 -.112E+00
   0.339E-12 0.312E-11 0.156E+04   0.876E-12 -.888E-12 -.156E+04   -.154E-22 0.622E-22 0.348E+01
   -.939E-01 0.939E-01 0.156E+04   0.931E-01 -.931E-01 -.156E+04   0.104E-02 -.104E-02 0.349E+01
   0.329E-12 0.236E+02 -.149E+04   -.818E-11 -.233E+02 0.150E+04   0.963E-22 -.343E+00 -.503E+01
   -.236E+02 0.274E-11 -.149E+04   0.233E+02 0.818E-11 0.150E+04   0.343E+00 0.128E-21 -.503E+01
   0.247E-12 -.559E-12 -.473E+03   -.782E-13 0.355E-13 0.473E+03   -.280E-23 0.167E-23 -.199E+00
   -.257E+01 0.257E+01 -.473E+03   0.256E+01 -.256E+01 0.473E+03   0.523E-02 -.523E-02 0.326E+00
   0.168E-10 0.167E-10 0.523E+02   -.959E-13 0.604E-13 0.972E-11   -.520E-17 0.434E-17 -.523E+02

 POSITION                                       TOTAL-FORCE (eV/Angst)
      4.22049      4.22049     16.31916         0.000000     -0.000000      0.318070
      4.22049      4.22049     17.46598        -0.000000     -0.000000     -0.383429
      0.00000      6.33074      7.50000        -0.000000      0.000052      0.380023
      2.11025      0.00000      7.50000        -0.000052     -0.000000      0.380023
      0.00000      0.00000      9.61025         0.000000     -0.000000      0.090902
      2.11025      6.33074      9.61025         0.001484     -0.001484      0.092283
      0.00000      6.33023     11.73368         0.000000      0.000674     -0.018746
      2.11076      0.00000     11.73368        -0.000674     -0.000000     -0.018746
      0.00000      0.00000     13.83822         0.000000     -0.000000     -0.044796
      2.10905      6.33193     13.83447        -0.004793      0.004793     -0.044859
      0.00000      2.11025      7.50000        -0.000000     -0.000052      0.380023
      2.11025      4.22049      7.50000         0.000455     -0.000000      0.380144
      0.00000      4.22049      9.61025        -0.000000     -0.000000      0.098949
      2.11025      2.11025      9.61025         0.001484      0.001484      0.092283
      0.00000      2.11076     11.73368        -0.000000     -0.000674     -0.018746
      2.11344      4.22049     11.73659        -0.003885     -0.000000     -0.016593
      0.00000      4.22049     13.83544        -0.000000     -0.000000     -0.043662
      2.10905      2.10905     13.83447        -0.004793     -0.004793     -0.044859
      4.22049      6.33074      7.50000        -0.000000     -0.000455      0.380144
      6.33074      0.00000      7.50000         0.000052     -0.000000      0.380023
      4.22049      0.00000      9.61025         0.000000     -0.000000      0.098949
      6.33074      6.33074      9.61025        -0.001484     -0.001484      0.092283
      4.22049      6.32754     11.73659        -0.000000      0.003885     -0.016593
      6.33023      0.00000     11.73368         0.000674     -0.000000     -0.018746
      4.22049      0.00000     13.83544        -0.000000     -0.000000     -0.043662
      6.33193      6.33193     13.83447         0.004793      0.004793     -0.044859
      4.22049      2.11025      7.50000         0.000000      0.000455      0.380144
      6.33074      4.22049      7.50000        -0.000455     -0.000000      0.380144
      4.22049      4.22049      9.61025         0.000000     -0.000000      0.106340
      6.33074      2.11025      9.61025        -0.001484      0.001484      0.092283
      4.22049      2.11344     11.73659         0.000000     -0.003885     -0.016593
      6.32754      4.22049     11.73659         0.003885     -0.000000     -0.016593
      4.22049      4.22049     13.87814         0.000000     -0.000000      0.062323
      6.33193      2.10905     13.83447         0.004793     -0.004793     -0.044859
      0.00000      6.33074      9.61025         0.000000      0.001869      0.073164
      2.11025      0.00000      9.61025        -0.001869     -0.000000      0.073164
      0.00000      0.00000      7.50000         0.000000     -0.000000     -0.517170
      2.11025      6.33074      7.50000        -0.000272      0.000272     -0.516863
      0.00000      6.33258     13.88587        -0.000000     -0.002745      0.017807
      2.10840      0.00000     13.88587         0.002745     -0.000000      0.017807
      0.00000      0.00000     11.72785         0.000000     -0.000000      0.008133
      2.10979      6.33120     11.72890         0.004210     -0.004210      0.003386
      0.00000      2.11025      9.61025        -0.000000     -0.001869      0.073164
      2.11025      4.22049      9.61025         0.009031     -0.000000      0.081964
      0.00000      4.22049      7.50000        -0.000000     -0.000000     -0.517005
      2.11025      2.11025      7.50000        -0.000272     -0.000272     -0.516863
      0.00000      2.10840     13.88587        -0.000000      0.002745      0.017807
      2.10031      4.22049     13.88381        -0.010956     -0.000000      0.015188
      0.00000      4.22049     11.72684         0.000000     -0.000000      0.006852
      2.10979      2.10979     11.72890         0.004210      0.004210      0.003386
      4.22049      6.33074      9.61025         0.000000     -0.009031      0.081964
      6.33074      0.00000      9.61025         0.001869     -0.000000      0.073164
      4.22049      0.00000      7.50000        -0.000000     -0.000000     -0.517005
      6.33074      6.33074      7.50000         0.000272      0.000272     -0.516863
      4.22049      6.34068     13.88381        -0.000000      0.010956      0.015188
      6.33258      0.00000     13.88587        -0.002745     -0.000000      0.017807
      4.22049      0.00000     11.72684        -0.000000     -0.000000      0.006852
      6.33120      6.33120     11.72890        -0.004210     -0.004210      0.003386
      4.22049      2.11025      9.61025        -0.000000      0.009031      0.081964
      6.33074      4.22049      9.61025        -0.009031     -0.000000      0.081964
      4.22049      4.22049      7.50000         0.000000     -0.000000     -0.517609
      6.33074      2.11025      7.50000         0.000272     -0.000272     -0.516863
      4.22049      2.10031     13.88381         0.000000     -0.010956      0.015188
      6.34068      4.22049     13.88381         0.010956     -0.000000      0.015188
      4.22049      4.22049     11.73684        -0.000000     -0.000000     -0.000618
      6.33120      2.10979     11.72890        -0.004210      0.004210      0.003386
    total drift:                                0.000000      0.000000     -0.006056

  FREE ENERGIE OF THE ION-ELECTRON SYSTEM (eV)
  free  energy   TOTEN  =      -396.50430655 eV

  energy  without entropy=     -396.50430655  energy(sigma->0) =     -396.50430655