 vasp.6.3.0 20Jan22 (build Apr  1 2022 16:44:48) complex
 executed on        HPECrayEX_GCC date 2022.11.07  01:22:43

 INCAR:
   SYSTEM = MgO-rocksalt
   ISMEAR = 0
   SIGMA = 0.05
   EDIFF = 1E-6
   ALGO = ALL
   ISTART = 0
   IBRION = -1
   NSW = 0
   ISYM = 0
   DIPOL = 0.5 0.5 0.5
   IDIPOL = 3
   LDIPOL = .TRUE.
   LHFCALC = .TRUE.
   GGA = B5
   AEXX = 0.2
   AGGAX = 0.72
   AGGAC = 0.81
   ALDAC = 0.19
   IVDW = 1
   VDW_S6 = 1.05
   VDW_C6 = 1.75 0.14 0.63 0.70
   VDW_R0 = 1.452 1.001 1.243 1.342
   ENCUT = 600
   PREC = Accurate
   LASPH = .TRUE.
   LREAL = .FALSE.
   ISPIN = 1
   NELM = 200
   NELMIN = 8
   NCORE = 8
   KPAR = 1
   LWAVE = .FALSE.
   LCHARG = .FALSE.

 POTCAR:    PAW_PBE C 08Apr2002
 POTCAR:    PAW_PBE H 15Jun2001
 POTCAR:    PAW_PBE Mg_pv 13Apr2007
 POTCAR:    PAW_PBE O 08Apr2002
 POTCAR:    PAW_PBE C 08Apr2002
   VRHFIN =C: s2p2

   TITEL  = PAW_PBE C 08Apr2002
   POMASS =   12.011; ZVAL   =    4.000    mass and valenz
   ENMAX  =  400.000; ENMIN  =  300.000 eV

   TITEL  = PAW_PBE H 15Jun2001
   POMASS =    1.000; ZVAL   =    1.000    mass and valenz
   ENMAX  =  250.000; ENMIN  =  200.000 eV

   TITEL  = PAW_PBE Mg_pv 13Apr2007
   POMASS =   24.305; ZVAL   =    8.000    mass and valenz
   ENMAX  =  403.929; ENMIN  =  302.947 eV

   TITEL  = PAW_PBE O 08Apr2002
   POMASS =   16.000; ZVAL   =    6.000    mass and valenz
   ENMAX  =  400.000; ENMIN  =  300.000 eV

  PAW_PBE C 08Apr2002                   :
  PAW_PBE H 15Jun2001                   :
  PAW_PBE Mg_pv 13Apr2007               :
  PAW_PBE O 08Apr2002                   :

 POSCAR:  C  H Mg  O
  positions in direct lattice
 exchange correlation table for  LEXCH =       12
   RHO(1)=    0.500       N(1)  =     2000
   RHO(2)=  100.500       N(2)  =     4000

 ion  position               nearest neighbor table
   1  0.500  0.500  0.796-   2 1.10   3 1.10   5 1.10   4 1.10
   2  0.500  0.606  0.825-   1 1.10
   3  0.500  0.394  0.825-   1 1.10
   4  0.607  0.500  0.766-   1 1.10
   5  0.393  0.500  0.766-   1 1.10
   6  0.000  0.750  0.352-  38 2.11  40 2.11  41 2.11  48 2.11  57 2.11
   7  0.250  0.000  0.352-  39 2.11  40 2.11  41 2.11  49 2.11  56 2.11
   8  0.000  0.000  0.451-  40 2.11  39 2.11  38 2.11  46 2.11  55 2.11  44 2.12
   9  0.250  0.750  0.451-  41 2.11  39 2.11  38 2.11  47 2.11  54 2.11  45 2.12
  10  0.000  0.750  0.550-  45 2.11  61 2.11  44 2.11  52 2.11  38 2.13  42 2.15
  11  0.250  1.000  0.550-  60 2.11  44 2.11  45 2.11  53 2.11  39 2.13  43 2.15
  12  0.000  1.000  0.649-  42 2.11  50 2.11  43 2.11  59 2.11  44 2.11
  13  0.250  0.750  0.649-  45 2.10  42 2.11  43 2.11  51 2.11  58 2.11
  14  0.000  0.250  0.352-  46 2.11  40 2.11  48 2.11  49 2.11  65 2.11
  15  0.250  0.500  0.352-  47 2.11  41 2.11  48 2.11  49 2.11  64 2.11
  16  0.000  0.500  0.451-  48 2.11  46 2.11  47 2.11  38 2.11  63 2.11  52 2.12
  17  0.250  0.250  0.451-  49 2.11  46 2.11  47 2.11  39 2.11  62 2.11  53 2.12
  18  1.000  0.250  0.550-  69 2.11  53 2.11  44 2.11  52 2.11  46 2.13  50 2.15
  19  0.250  0.500  0.550-  68 2.11  53 2.11  45 2.11  52 2.11  47 2.13  51 2.15
  20  0.000  0.500  0.649-  51 2.11  67 2.11  42 2.11  50 2.11  52 2.11
  21  0.250  0.250  0.649-  53 2.10  50 2.11  43 2.11  51 2.11  66 2.11
  22  0.500  0.750  0.352-  54 2.11  41 2.11  56 2.11  57 2.11  64 2.11
  23  0.750  0.000  0.352-  55 2.11  40 2.11  56 2.11  57 2.11  65 2.11
  24  0.500  0.000  0.451-  56 2.11  54 2.11  55 2.11  39 2.11  62 2.11  60 2.12
  25  0.750  0.750  0.451-  57 2.11  54 2.11  55 2.11  38 2.11  63 2.11  61 2.12
  26  0.500  0.750  0.550-  68 2.11  45 2.11  61 2.11  60 2.11  54 2.13  58 2.15
  27  0.750  1.000  0.550-  60 2.11  44 2.11  61 2.11  69 2.11  55 2.13  59 2.15
  28  0.500  1.000  0.649-  59 2.11  43 2.11  66 2.11  58 2.11  60 2.11
  29  0.750  0.750  0.649-  61 2.10  42 2.11  59 2.11  67 2.11  58 2.11
  30  0.500  0.250  0.352-  62 2.11  56 2.11  49 2.11  64 2.11  65 2.11
  31  0.750  0.500  0.352-  63 2.11  57 2.11  48 2.11  64 2.11  65 2.11
  32  0.500  0.500  0.451-  64 2.11  54 2.11  62 2.11  63 2.11  47 2.11  68 2.12
  33  0.750  0.250  0.451-  65 2.11  55 2.11  62 2.11  63 2.11  46 2.11  69 2.12
  34  0.500  0.250  0.550-  68 2.11  69 2.11  53 2.11  60 2.11  62 2.13  66 2.15
  35  0.750  0.500  0.550-  68 2.11  61 2.11  69 2.11  52 2.11  63 2.13  67 2.15
  36  0.500  0.500  0.649-  66 2.11  58 2.11  67 2.11  51 2.11  68 2.12
  37  0.750  0.250  0.649-  69 2.10  50 2.11  59 2.11  67 2.11  66 2.11
  38  0.000  0.750  0.451-   6 2.11   8 2.11   9 2.11  16 2.11  25 2.11  10 2.13
  39  0.250  0.000  0.451-   7 2.11   8 2.11   9 2.11  17 2.11  24 2.11  11 2.13
  40  0.000  0.000  0.352-   8 2.11   7 2.11   6 2.11  14 2.11  23 2.11
  41  0.250  0.750  0.352-   9 2.11   7 2.11   6 2.11  15 2.11  22 2.11
  42  0.000  0.750  0.651-  12 2.11  13 2.11  29 2.11  20 2.11  10 2.15
  43  0.250  1.000  0.651-  28 2.11  13 2.11  21 2.11  12 2.11  11 2.15
  44  0.000  1.000  0.550-  18 2.11  10 2.11  27 2.11  11 2.11  12 2.11   8 2.12
  45  0.250  0.750  0.550-  13 2.10  10 2.11  19 2.11  11 2.11  26 2.11   9 2.12
  46  0.000  0.250  0.451-  14 2.11   8 2.11  16 2.11  17 2.11  33 2.11  18 2.13
  47  0.250  0.500  0.451-  15 2.11   9 2.11  16 2.11  17 2.11  32 2.11  19 2.13
  48  0.000  0.500  0.352-  16 2.11  14 2.11  15 2.11   6 2.11  31 2.11
  49  0.250  0.250  0.352-  17 2.11  14 2.11  15 2.11   7 2.11  30 2.11
  50  0.000  0.250  0.651-  12 2.11  37 2.11  21 2.11  20 2.11  18 2.15
  51  0.250  0.500  0.651-  36 2.11  20 2.11  13 2.11  21 2.11  19 2.15
  52  0.000  0.500  0.550-  18 2.11  10 2.11  35 2.11  19 2.11  20 2.11  16 2.12
  53  0.250  0.250  0.550-  21 2.10  18 2.11  19 2.11  11 2.11  34 2.11  17 2.12
  54  0.500  0.750  0.451-  22 2.11   9 2.11  24 2.11  25 2.11  32 2.11  26 2.13
  55  0.750  0.000  0.451-  23 2.11   8 2.11  24 2.11  25 2.11  33 2.11  27 2.13
  56  0.500  0.000  0.352-  24 2.11  22 2.11  23 2.11   7 2.11  30 2.11
  57  0.750  0.750  0.352-  25 2.11  22 2.11  23 2.11   6 2.11  31 2.11
  58  0.500  0.750  0.651-  36 2.11  28 2.11  29 2.11  13 2.11  26 2.15
  59  0.750  1.000  0.651-  28 2.11  37 2.11  29 2.11  12 2.11  27 2.15
  60  0.500  1.000  0.550-  27 2.11  11 2.11  34 2.11  26 2.11  28 2.11  24 2.12
  61  0.750  0.750  0.550-  29 2.10  10 2.11  35 2.11  27 2.11  26 2.11  25 2.12
  62  0.500  0.250  0.451-  30 2.11  24 2.11  17 2.11  32 2.11  33 2.11  34 2.13
  63  0.750  0.500  0.451-  31 2.11  25 2.11  16 2.11  32 2.11  33 2.11  35 2.13
  64  0.500  0.500  0.352-  32 2.11  22 2.11  30 2.11  31 2.11  15 2.11
  65  0.750  0.250  0.352-  33 2.11  23 2.11  30 2.11  31 2.11  14 2.11
  66  0.500  0.250  0.651-  36 2.11  28 2.11  37 2.11  21 2.11  34 2.15
  67  0.750  0.500  0.651-  36 2.11  20 2.11  37 2.11  29 2.11  35 2.15
  68  0.500  0.500  0.550-  19 2.11  35 2.11  34 2.11  26 2.11  36 2.12  32 2.12
  69  0.750  0.250  0.550-  37 2.10  18 2.11  35 2.11  27 2.11  34 2.11  33 2.12

IMPORTANT INFORMATION: All symmetrisations will be switched off!
NOSYMM: (Re-)initialisation of all symmetry stuff for point group C_1.

                                     Primitive cell

  volume of cell :    1519.8199

  direct lattice vectors                    reciprocal lattice vectors
     8.440984654  0.000000000  0.000000000     0.118469591  0.000000000  0.000000000
     0.000000000  8.440984654  0.000000000     0.000000000  0.118469591  0.000000000
     0.000000000  0.000000000 21.330738491     0.000000000  0.000000000  0.046880702

  length of vectors
     8.440984654  8.440984654 21.330738491     0.118469591  0.118469591  0.046880702

  position of ions in fractional coordinates (direct lattice)
     0.499999938  0.500002092  0.795802507
     0.499999986  0.606438729  0.825284404
     0.499999977  0.393559557  0.825284808
     0.606994358  0.499999897  0.766457821
     0.393005654  0.499999900  0.766457819
     0.000000000  0.750000000  0.351605267
     0.250000000  0.000000000  0.351605267
     0.000000000  0.000000000  0.450535089
     0.250000000  0.750000000  0.450535089
     0.000000032  0.750000308  0.550157654
     0.250001804  0.999999985  0.550156830
     0.000000025  0.999999965  0.649044687
     0.249949639  0.750019913  0.648553984
     0.000000000  0.250000000  0.351605267
     0.250000000  0.500000000  0.351605267
     0.000000000  0.500000000  0.450535089
     0.250000000  0.250000000  0.450535089
     0.999999999  0.249999656  0.550157653
     0.250064324  0.499999978  0.550190700
     0.000000039  0.499999976  0.649021210
     0.249949646  0.249980067  0.648553964
     0.500000000  0.750000000  0.351605267
     0.750000000  0.000000000  0.351605267
     0.500000000  0.000000000  0.450535089
     0.750000000  0.750000000  0.450535089
     0.500000024  0.749952785  0.550165678
     0.749998232  0.999999984  0.550156825
     0.500000028  0.999999995  0.648979984
     0.750050384  0.750019928  0.648553979
     0.500000000  0.250000000  0.351605267
     0.750000000  0.500000000  0.351605267
     0.500000000  0.500000000  0.450535089
     0.750000000  0.250000000  0.450535089
     0.500000019  0.250047199  0.550165663
     0.749935743  0.499999993  0.550190720
     0.500000026  0.499999955  0.649075882
     0.750050382  0.249980033  0.648553973
     0.000000000  0.750000000  0.450535089
     0.250000000  0.000000000  0.450535089
     0.000000000  0.000000000  0.351605267
     0.250000000  0.750000000  0.351605267
     0.000000028  0.750053908  0.650888780
     0.250061307  0.999999979  0.650913268
     0.000000014  0.999999991  0.549896427
     0.249990992  0.749996648  0.549890507
     0.000000000  0.250000000  0.450535089
     0.250000000  0.500000000  0.450535089
     0.000000000  0.500000000  0.351605267
     0.250000000  0.250000000  0.351605267
     0.000000011  0.249946034  0.650888759
     0.250016454  0.499999995  0.650957230
     0.000000016  0.499999976  0.549906709
     0.249990989  0.250003322  0.549890505
     0.500000000  0.750000000  0.450535089
     0.750000000  0.000000000  0.450535089
     0.500000000  0.000000000  0.351605267
     0.750000000  0.750000000  0.351605267
     0.500000019  0.749946102  0.650910523
     0.749938711  0.999999990  0.650913287
     0.500000024  0.999999994  0.549886279
     0.750009067  0.749996662  0.549890515
     0.500000000  0.250000000  0.450535089
     0.750000000  0.500000000  0.450535089
     0.500000000  0.500000000  0.351605267
     0.750000000  0.250000000  0.351605267
     0.500000030  0.250053852  0.650910528
     0.749983571  0.499999967  0.650957227
     0.500000021  0.499999991  0.549922592
     0.750009042  0.250003314  0.549890512

  ion indices of the primitive-cell ions
   primitive index   ion index
                 1           1
                 2           2
                 3           3
                 4           4
                 5           5
                 6           6
                 7           7
                 8           8
                 9           9
                10          10
                11          11
                12          12
                13          13
                14          14
                15          15
                16          16
[...]
   2.11024616  0.00000000  7.50000000
   0.00000000  0.00000000  9.61024616
   2.11024616  6.33073849  9.61024616
   0.00000027  6.33074109 11.73526904
   2.11026139  8.44098453 11.73525146
   0.00000021  8.44098436 13.84460249
   2.10982106  6.33090657 13.83413543
   0.00000000  2.11024616  7.50000000
   2.11024616  4.22049233  7.50000000
   0.00000000  4.22049233  9.61024616
   2.11024616  2.11024616  9.61024616
   8.44098465  2.11024326 11.73526903
   2.11078912  4.22049214 11.73597394
   0.00000033  4.22049212 13.84410170
   2.10982113  2.11007791 13.83413500
   4.22049233  6.33073849  7.50000000
   6.33073849  0.00000000  7.50000000
   4.22049233  0.00000000  9.61024616
   6.33073849  6.33073849  9.61024616
   4.22049253  6.33033995 11.73544020
   6.33072357  8.44098452 11.73525136
   4.22049256  8.44098461 13.84322233
   6.33116378  6.33090670 13.83413532
   4.22049233  2.11024616  7.50000000
   6.33073849  4.22049233  7.50000000
   4.22049233  4.22049233  9.61024616
   6.33073849  2.11024616  9.61024616
   4.22049248  2.11064457 11.73543989
   6.33019609  4.22049226 11.73597437
   4.22049255  4.22049195 13.84526790
   6.33116377  2.11007762 13.83413519
   0.00000000  6.33073849  9.61024616
   2.11024616  0.00000000  9.61024616
   0.00000000  0.00000000  7.50000000
   2.11024616  6.33073849  7.50000000
   0.00000023  6.33119353 13.88393835
   2.11076366  8.44098447 13.88446070
   0.00000011  8.44098458 11.72969688
   2.11017013  6.33071020 11.72957061
   0.00000000  2.11024616  9.61024616
   2.11024616  4.22049233  9.61024616
   0.00000000  4.22049233  7.50000000
   2.11024616  2.11024616  7.50000000
   0.00000010  2.10979064 13.88393791
   2.11038505  4.22049228 13.88539843
   0.00000013  4.22049213 11.72991621
   2.11017010  2.11027420 11.72957056
   4.22049233  6.33073849  9.61024616
   6.33073849  0.00000000  9.61024616
   4.22049233  0.00000000  7.50000000
   6.33073849  6.33073849  7.50000000
   4.22049249  6.33028353 13.88440214
   6.33022115  8.44098457 13.88446110
   4.22049253  8.44098461 11.72948042
   6.33081503  6.33071032 11.72957078
   4.22049233  2.11024616  9.61024616
   6.33073849  4.22049233  9.61024616
   4.22049233  4.22049233  7.50000000
   6.33073849  2.11024616  7.50000000
   4.22049258  2.11070073 13.88440225
   6.33059982  4.22049205 13.88539837
   4.22049251  4.22049226 11.73025500
   6.33081481  2.11027413 11.72957072

--------------------------------------- Iteration      FINAL  ---------------------------------------

--------------------OUTCAR has been truncated-------------------------

[...]

--------------------OUTCAR has been truncated-------------------------

  DFT-D2 method for vdW energy calculation

  Parameters of vdW forcefield:
         C6(Jnm^6/mol)     R0(A)
   C        1.750          1.452
   H        0.140          1.001
   Mg       0.630          1.243
   O        0.700          1.342

  vdW correction parametrized for the method hÁÿ      

  IVDW =   1
  VDW_RADIUS =    50.000 A
  VDW_S6 =     1.050
  VDW_SR =     1.000
  VDW_D =    20.000
  LVDW_EWALD = F

  Number of pair interactions contributing to vdW energy:  838402
  Edisp (eV):   -5.23345

 VOLUME and BASIS-vectors are now :
  energy-cutoff  :      600.00
  volume of cell :     1519.82
      direct lattice vectors                 reciprocal lattice vectors
     8.440984654  0.000000000  0.000000000     0.118469591  0.000000000  0.000000000
     0.000000000  8.440984654  0.000000000     0.000000000  0.118469591  0.000000000
     0.000000000  0.000000000 21.330738491     0.000000000  0.000000000  0.046880702

  length of vectors
     8.440984654  8.440984654 21.330738491     0.118469591  0.118469591  0.046880702

 FORCES acting on ions:
    Electron-Ion                     Ewald-Force                    Non-Local-Force
   0.113E-04 0.656E-03 -.931E+03   0.156E-04 -.115E-02 0.932E+03   0.215E-04 -.756E-03 -.341E-01
   -.133E-04 -.430E+02 -.230E+03   0.175E-04 0.475E+02 0.234E+03   -.242E-05 -.451E+01 -.315E+01
   -.871E-05 0.430E+02 -.230E+03   0.132E-04 -.475E+02 0.234E+03   -.159E-05 0.451E+01 -.315E+01
   -.432E+02 0.771E-03 -.235E+03   0.477E+02 -.813E-03 0.232E+03   -.457E+01 0.113E-03 0.306E+01
   0.432E+02 0.772E-03 -.235E+03   -.477E+02 -.813E-03 0.232E+03   0.457E+01 0.113E-03 0.306E+01
   0.936E-05 -.143E+00 0.208E+04   -.246E-05 0.143E+00 -.207E+04   -.671E-05 0.683E-04 -.639E+01
   0.149E+00 -.608E-05 0.208E+04   -.149E+00 -.248E-05 -.207E+04   -.169E-03 0.751E-05 -.639E+01
   -.399E-05 0.783E-05 0.707E+03   0.516E-05 -.790E-05 -.707E+03   -.650E-06 0.135E-05 0.450E+00
   0.661E+00 -.648E+00 0.708E+03   -.660E+00 0.646E+00 -.709E+03   -.942E-03 0.132E-02 0.463E+00
   0.465E-05 -.239E+01 -.652E+03   -.435E-05 0.239E+01 0.652E+03   -.151E-05 0.171E-02 -.152E+00
   0.233E+01 0.584E-05 -.652E+03   -.231E+01 -.242E-05 0.652E+03   -.131E-01 -.604E-05 -.162E+00
   0.224E-04 -.558E-04 -.202E+04   -.199E-04 0.615E-04 0.201E+04   -.182E-05 -.203E-05 0.537E+01
   0.143E+02 -.152E+02 -.199E+04   -.142E+02 0.153E+02 0.199E+04   -.474E-01 -.325E-01 0.537E+01
   -.214E-05 0.143E+00 0.208E+04   -.186E-05 -.143E+00 -.207E+04   0.192E-05 -.742E-04 -.639E+01
   0.176E+00 -.156E-05 0.208E+04   -.175E+00 0.259E-05 -.207E+04   -.368E-03 -.748E-06 -.639E+01
   0.181E-04 -.100E-04 0.708E+03   -.187E-04 0.877E-05 -.708E+03   0.138E-05 -.181E-05 0.450E+00
   0.661E+00 0.648E+00 0.708E+03   -.660E+00 -.646E+00 -.709E+03   -.940E-03 -.132E-02 0.463E+00
   -.478E-04 0.239E+01 -.652E+03   0.448E-04 -.239E+01 0.652E+03   0.569E-05 -.171E-02 -.152E+00
   0.430E+01 -.178E-04 -.646E+03   -.430E+01 0.197E-04 0.646E+03   -.601E-02 -.366E-05 -.161E+00
   0.700E-04 0.632E-04 -.200E+04   -.708E-04 -.616E-04 0.200E+04   -.254E-05 -.210E-05 0.540E+01
   0.143E+02 0.152E+02 -.199E+04   -.142E+02 -.153E+02 0.199E+04   -.474E-01 0.325E-01 0.537E+01
   -.627E-05 -.170E+00 0.208E+04   0.258E-05 0.170E+00 -.207E+04   -.136E-05 0.269E-03 -.639E+01
   -.149E+00 0.687E-05 0.208E+04   0.149E+00 -.299E-05 -.207E+04   0.168E-03 0.143E-05 -.639E+01
   0.438E-05 0.173E-04 0.708E+03   -.665E-05 -.209E-04 -.708E+03   0.349E-07 0.569E-05 0.433E+00
   -.661E+00 -.648E+00 0.708E+03   0.660E+00 0.646E+00 -.709E+03   0.943E-03 0.132E-02 0.463E+00
   -.140E-04 -.437E+01 -.646E+03   0.105E-04 0.438E+01 0.646E+03   0.428E-05 -.424E-02 -.230E+00
   -.233E+01 0.179E-04 -.652E+03   0.231E+01 -.151E-04 0.652E+03   0.131E-01 -.273E-05 -.162E+00
   0.917E-04 -.606E-04 -.200E+04   -.877E-04 0.604E-04 0.200E+04   -.582E-05 0.488E-06 0.536E+01
   -.143E+02 -.152E+02 -.199E+04   0.142E+02 0.153E+02 0.199E+04   0.474E-01 -.325E-01 0.537E+01
   -.710E-06 0.170E+00 0.208E+04   0.220E-05 -.170E+00 -.207E+04   -.156E-05 -.267E-03 -.639E+01
   -.176E+00 -.563E-05 0.208E+04   0.175E+00 0.298E-05 -.207E+04   0.368E-03 0.439E-07 -.639E+01
   -.272E-04 -.205E-04 0.710E+03   0.298E-04 0.224E-04 -.710E+03   -.633E-05 -.233E-05 0.454E+00
   -.661E+00 0.648E+00 0.708E+03   0.660E+00 -.646E+00 -.709E+03   0.940E-03 -.133E-02 0.463E+00
   0.140E-04 0.437E+01 -.646E+03   -.102E-04 -.438E+01 0.646E+03   -.396E-05 0.424E-02 -.230E+00
   -.430E+01 -.139E-04 -.646E+03   0.430E+01 0.116E-04 0.646E+03   0.601E-02 0.100E-06 -.161E+00
   0.398E-04 0.164E-03 -.195E+04   -.318E-04 -.150E-03 0.194E+04   -.922E-05 -.642E-05 0.523E+01
   -.143E+02 0.152E+02 -.199E+04   0.142E+02 -.153E+02 0.199E+04   0.474E-01 0.325E-01 0.537E+01
   0.160E-04 -.408E+00 0.530E+03   -.119E-04 0.407E+00 -.530E+03   0.204E-06 0.102E-02 -.102E+00
   0.422E+00 0.563E-05 0.530E+03   -.419E+00 -.475E-05 -.530E+03   -.457E-02 -.132E-05 -.103E+00
   -.824E-06 0.141E-05 0.156E+04   -.310E-06 -.148E-05 -.156E+04   0.340E-06 0.324E-06 0.313E+01
   0.121E+00 -.117E+00 0.156E+04   -.121E+00 0.117E+00 -.156E+04   -.542E-03 0.312E-03 0.313E+01
   0.514E-04 -.627E+01 -.153E+04   -.587E-04 0.627E+01 0.153E+04   0.215E-05 -.972E-02 -.451E+01
   0.598E+01 -.819E-04 -.153E+04   -.595E+01 0.956E-04 0.153E+04   -.458E-01 -.243E-05 -.455E+01
   -.119E-04 0.213E-04 -.486E+03   0.142E-04 -.219E-04 0.486E+03   -.187E-05 -.494E-06 0.206E+00
   0.237E+01 -.247E+01 -.481E+03   -.235E+01 0.247E+01 0.480E+03   -.197E-01 -.476E-02 0.309E+00
   0.541E-06 0.408E+00 0.530E+03   -.178E-05 -.407E+00 -.530E+03   -.112E-05 -.102E-02 -.102E+00
   0.597E+00 -.679E-05 0.531E+03   -.600E+00 0.113E-04 -.531E+03   0.240E-02 -.130E-05 -.108E+00
   0.736E-05 -.420E-05 0.156E+04   -.293E-05 0.146E-05 -.156E+04   -.412E-05 0.136E-05 0.313E+01
   0.121E+00 0.117E+00 0.156E+04   -.121E+00 -.117E+00 -.156E+04   -.545E-03 -.310E-03 0.313E+01
   -.278E-04 0.627E+01 -.153E+04   0.184E-04 -.627E+01 0.153E+04   0.318E-05 0.973E-02 -.451E+01
   0.193E+02 0.921E-04 -.150E+04   -.192E+02 -.897E-04 0.151E+04   -.129E+00 -.806E-05 -.457E+01
   -.319E-04 -.164E-04 -.483E+03   0.321E-04 0.152E-04 0.482E+03   -.250E-05 0.779E-06 0.216E+00
   0.237E+01 0.247E+01 -.481E+03   -.235E+01 -.247E+01 0.480E+03   -.197E-01 0.477E-02 0.309E+00
   -.971E-05 -.580E+00 0.531E+03   0.650E-05 0.585E+00 -.531E+03   0.216E-05 -.539E-02 -.107E+00
   -.422E+00 0.123E-04 0.530E+03   0.419E+00 -.790E-05 -.530E+03   0.457E-02 -.233E-05 -.103E+00
   -.764E-05 0.464E-05 0.156E+04   0.392E-06 -.283E-05 -.156E+04   0.465E-05 -.109E-05 0.313E+01
   -.121E+00 -.117E+00 0.156E+04   0.121E+00 0.117E+00 -.156E+04   0.545E-03 0.313E-03 0.313E+01
   0.295E-04 -.193E+02 -.151E+04   -.265E-04 0.192E+02 0.151E+04   0.103E-05 0.808E-01 -.471E+01
   -.598E+01 -.121E-04 -.153E+04   0.595E+01 0.229E-04 0.153E+04   0.458E-01 -.332E-05 -.455E+01
   0.189E-04 0.104E-04 -.483E+03   -.218E-04 -.910E-05 0.482E+03   0.392E-06 0.827E-06 0.183E+00
   -.237E+01 -.247E+01 -.481E+03   0.235E+01 0.247E+01 0.480E+03   0.197E-01 -.476E-02 0.309E+00
   -.900E-05 0.580E+00 0.531E+03   0.486E-05 -.585E+00 -.531E+03   0.230E-05 0.540E-02 -.107E+00
   -.597E+00 -.134E-04 0.531E+03   0.600E+00 0.105E-04 -.531E+03   -.239E-02 0.109E-05 -.108E+00
   -.682E-05 -.157E-06 0.156E+04   0.330E-05 0.286E-05 -.156E+04   0.155E-05 -.250E-06 0.313E+01
   -.121E+00 0.117E+00 0.156E+04   0.121E+00 -.117E+00 -.156E+04   0.542E-03 -.314E-03 0.313E+01
   0.715E-04 0.193E+02 -.151E+04   -.667E-04 -.192E+02 0.151E+04   -.718E-05 -.808E-01 -.471E+01
   -.193E+02 0.358E-04 -.150E+04   0.192E+02 -.374E-04 0.151E+04   0.129E+00 -.256E-06 -.457E+01
   -.343E-04 -.893E-05 -.476E+03   0.381E-04 0.139E-04 0.476E+03   -.401E-05 -.359E-05 0.177E+00
   -.237E+01 0.247E+01 -.481E+03   0.235E+01 -.247E+01 0.480E+03   0.197E-01 0.476E-02 0.309E+00
   0.263E-04 0.112E-02 0.191E+02   -.366E-12 0.306E-12 0.301E-11   -.260E-05 -.101E-02 -.168E+02

 POSITION                                       TOTAL-FORCE (eV/Angst)
      4.22049      4.22051     16.97506         0.000049     -0.001284     -0.017984
      4.22049      5.11894     17.60393         0.000001     -0.178014     -0.110152
      4.22049      3.32203     17.60393         0.000002      0.179185     -0.110876
      5.12363      4.22049     16.34911        -0.183512      0.000076      0.111444
      3.31735      4.22049     16.34911         0.183497      0.000077      0.111432
      0.00000      6.33074      7.50000        -0.000001     -0.000039      0.466496
      2.11025      0.00000      7.50000         0.000082     -0.000001      0.466658
      0.00000      0.00000      9.61025        -0.000001      0.000001      0.046230
      2.11025      6.33074      9.61025         0.000453     -0.000571      0.043949
      0.00000      6.33074     11.73527        -0.000000     -0.000884      0.015705
      2.11026      8.44098     11.73525         0.005141     -0.000003      0.021973
      0.00000      8.44098     13.84460         0.000000      0.000004     -0.121704
      2.10982      6.33091     13.83414         0.024635      0.010325     -0.061692
      0.00000      2.11025      7.50000        -0.000002      0.000035      0.466568
      2.11025      4.22049      7.50000         0.000184     -0.000001      0.466911
      0.00000      4.22049      9.61025         0.000000     -0.000005      0.049033
      2.11025      2.11025      9.61025         0.000453      0.000566      0.043956
      8.44098      2.11024     11.73527         0.000003      0.000883      0.015700
      2.11079      4.22049     11.73597        -0.004341     -0.000003      0.017755
      0.00000      4.22049     13.84410        -0.000004     -0.000001     -0.137839
      2.10982      2.11008     13.83413         0.024634     -0.010332     -0.061759
      4.22049      6.33074      7.50000        -0.000005     -0.000119      0.467028
      6.33074      0.00000      7.50000        -0.000084      0.000005      0.466663
      4.22049      0.00000      9.61025        -0.000003      0.000002      0.050839
      6.33074      6.33074      9.61025        -0.000452     -0.000571      0.043955
      4.22049      6.33034     11.73544         0.000001      0.007026      0.037624
      6.33072      8.44098     11.73525        -0.005139      0.000000      0.021968
      4.22049      8.44098     13.84322        -0.000003      0.000000     -0.111610
      6.33116      6.33091     13.83414        -0.024632      0.010324     -0.061660
      4.22049      2.11025      7.50000        -0.000000      0.000121      0.467130
      6.33074      4.22049      7.50000        -0.000183     -0.000003      0.466941
      4.22049      4.22049      9.61025        -0.000005     -0.000001      0.047919
      6.33074      2.11025      9.61025        -0.000451      0.000566      0.043954
      4.22049      2.11064     11.73544        -0.000001     -0.007030      0.037626
      6.33020      4.22049     11.73597         0.004337     -0.000004      0.017752
      4.22049      4.22049     13.84527        -0.000002      0.000005     -0.004329
      6.33116      2.11008     13.83414        -0.024629     -0.010327     -0.061747
      0.00000      6.33074      9.61025         0.000004      0.000238      0.062753
      2.11025      0.00000      9.61025        -0.001490     -0.000001      0.062126
      0.00000      0.00000      7.50000        -0.000001     -0.000000     -0.434687
      2.11025      6.33074      7.50000        -0.000176      0.000100     -0.434498
      0.00000      6.33119     13.88394        -0.000005     -0.008422     -0.085024
      2.11076      8.44098     13.88446        -0.017795      0.000011     -0.096723
      0.00000      8.44098     11.72970        -0.000000     -0.000002      0.029368
      2.11017      6.33071     11.72957        -0.005382     -0.002052      0.014509
      0.00000      2.11025      9.61025        -0.000003     -0.000240      0.062752
      2.11025      4.22049      9.61025         0.000524      0.000002      0.064012
      0.00000      4.22049      7.50000        -0.000001     -0.000002     -0.434650
      2.11025      2.11025      7.50000        -0.000184     -0.000098     -0.434488
      0.00000      2.10979     13.88394        -0.000007      0.008418     -0.084988
      2.11039      4.22049     13.88540        -0.038106     -0.000008     -0.092687
      0.00000      4.22049     11.72992        -0.000003     -0.000001      0.028300
      2.11017      2.11027     11.72957        -0.005378      0.002049      0.014508
      4.22049      6.33074      9.61025        -0.000001     -0.001663      0.061824
      6.33074      0.00000      9.61025         0.001494      0.000001      0.062125
      4.22049      0.00000      7.50000        -0.000002     -0.000000     -0.434936
      6.33074      6.33074      7.50000         0.000184      0.000100     -0.434501
      4.22049      6.33028     13.88440         0.000004      0.023351     -0.139613
      6.33022      8.44098     13.88446         0.017801      0.000007     -0.096696
      4.22049      8.44098     11.72948        -0.000003      0.000002      0.016833
      6.33082      6.33071     11.72957         0.005375     -0.002054      0.014508
      4.22049      2.11025      9.61025        -0.000002      0.001661      0.061821
      6.33074      4.22049      9.61025        -0.000526     -0.000003      0.064012
      4.22049      4.22049      7.50000        -0.000002      0.000002     -0.434938
      6.33074      2.11025      7.50000         0.000176     -0.000100     -0.434485
      4.22049      2.11070     13.88440        -0.000004     -0.023354     -0.139609
      6.33060      4.22049     13.88540         0.038109     -0.000003     -0.092673
      4.22049      4.22049     11.73026        -0.000001      0.000000      0.019380
      6.33081      2.11027     11.72957         0.005376      0.002052      0.014506
    total drift:                                0.000024      0.000053      0.002200

  FREE ENERGIE OF THE ION-ELECTRON SYSTEM (eV)
  free  energy   TOTEN  =      -466.03226193 eV

  energy  without entropy=     -466.03226193  energy(sigma->0) =     -466.03226193