 vasp.6.3.0 20Jan22 (build Apr  1 2022 16:44:48) gamma-only
 executed on        HPECrayEX_GCC date 2023.02.22  03:42:23

 INCAR:
   SYSTEM = MgO-rocksalt
   ISMEAR = 0
   SIGMA = 0.05
   EDIFF = 1E-6
   ALGO = ALL
   ISTART = 0
   IBRION = -1
   NSW = 0
   ISYM = 0
   DIPOL = 0.5 0.5 0.5
   IDIPOL = 3
   LDIPOL = .TRUE.
   GGA = RE
   IVDW = 13
   VDW_S8 = 1.7468
   VDW_A1 = 0.5363
   VDW_A2 = 3.0726
   ENCUT = 520
   PREC = Accurate
   LASPH = .TRUE.
   LREAL = Auto
   ISPIN = 1
   NELM = 200
   NELMIN = 8
   NCORE = 8
   KPAR = 1
   LWAVE = .FALSE.
   LCHARG = .FALSE.

 POTCAR:    PAW_PBE H 15Jun2001
 POTCAR:    PAW_PBE O 08Apr2002
 POTCAR:    PAW_PBE Mg_pv 13Apr2007
 POTCAR:    PAW_PBE O 08Apr2002
 POTCAR:    PAW_PBE H 15Jun2001
   VRHFIN =H: ultrasoft test

   TITEL  = PAW_PBE H 15Jun2001
   POMASS =    1.000; ZVAL   =    1.000    mass and valenz
   ENMAX  =  250.000; ENMIN  =  200.000 eV

   TITEL  = PAW_PBE O 08Apr2002
   POMASS =   16.000; ZVAL   =    6.000    mass and valenz
   ENMAX  =  400.000; ENMIN  =  300.000 eV

   TITEL  = PAW_PBE Mg_pv 13Apr2007
   POMASS =   24.305; ZVAL   =    8.000    mass and valenz
   ENMAX  =  403.929; ENMIN  =  302.947 eV

   TITEL  = PAW_PBE O 08Apr2002
   POMASS =   16.000; ZVAL   =    6.000    mass and valenz
   ENMAX  =  400.000; ENMIN  =  300.000 eV

 Optimization of the real space projectors (new method)

 maximal supplied QI-value         = 34.20
 optimisation between [QCUT,QGAM] = [ 11.63, 23.26] = [ 37.87,151.49] Ry
 Optimized for a Real-space Cutoff    1.21 Angstroem

   l    n(q)    QCUT    max X(q) W(low)/X(q) W(high)/X(q)  e(spline)
   0      8    11.629    19.460    0.17E-03    0.34E-03    0.21E-06
   0      8    11.629    12.209    0.16E-03    0.33E-03    0.21E-06
   1      8    11.629     4.655    0.18E-03    0.16E-03    0.26E-06
 Optimization of the real space projectors (new method)

[...]

   l    n(q)    QCUT    max X(q) W(low)/X(q) W(high)/X(q)  e(spline)
   1      8    11.527     2.974    0.44E-04    0.56E-04    0.12E-06
   1      8    11.527     4.279    0.12E-03    0.12E-03    0.26E-06
   0      9    11.527    16.381    0.46E-04    0.64E-04    0.78E-07
   0      9    11.527     5.611    0.26E-04    0.43E-04    0.55E-07
   2      8    11.527     4.652    0.22E-03    0.72E-04    0.47E-07
 Optimization of the real space projectors (new method)

 maximal supplied QI-value         = 24.76
 optimisation between [QCUT,QGAM] = [ 11.64, 23.27] = [ 37.91,151.63] Ry
 Optimized for a Real-space Cutoff    1.14 Angstroem

   l    n(q)    QCUT    max X(q) W(low)/X(q) W(high)/X(q)  e(spline)
   0      8    11.635    20.381    0.10E-03    0.33E-03    0.24E-06
   0      8    11.635    15.268    0.11E-03    0.35E-03    0.26E-06
   1      7    11.635     5.964    0.24E-03    0.31E-03    0.30E-06
   1      7    11.635     5.382    0.22E-03    0.25E-03    0.26E-06
|               ----> ADVICE to this user running VASP <----                  |
|     You enforced a specific xc type in the INCAR file but a different       |
|     type was found in the POTCAR file.                                      |
|     I HOPE YOU KNOW WHAT YOU ARE DOING!                                     |

  PAW_PBE H 15Jun2001                   :
  PAW_PBE O 08Apr2002                   :
  PAW_PBE Mg_pv 13Apr2007               :
  PAW_PBE O 08Apr2002                   :

 POSCAR:  H  O Mg  O
  positions in direct lattice
|           W    W    AA    RRRRR   N    N  II  N    N   GGGG   !!!           |
|           W    W   A  A   R    R  NN   N  II  NN   N  G    G  !!!           |
|           W    W  A    A  R    R  N N  N  II  N N  N  G       !!!           |
|           W WW W  AAAAAA  RRRRR   N  N N  II  N  N N  G  GGG   !            |
|           WW  WW  A    A  R   R   N   NN  II  N   NN  G    G                |
|           W    W  A    A  R    R  N    N  II  N    N   GGGG   !!!           |
|     Specifying the vdW parameters                                           |
|     VDW_S8 = 1.747                                                          |
|     VDW_A1 = 0.536                                                          |
|     VDW_A2 = 3.073                                                          |
|     in the INCAR file will overwrite the defaults for revpbe. Please        |
|     make sure that is what you intended.                                    |

 ion  position               nearest neighbor table
   1  0.417  0.428  0.761-   9 1.00
   2  0.331  0.390  0.771-   9 0.98
   3  0.584  0.324  0.762-  10 0.99
   4  0.670  0.361  0.770-  10 0.98
   5  0.448  0.293  0.762-  11 1.00
   6  0.485  0.207  0.772-  11 0.98
   7  0.553  0.461  0.761-  12 0.99
   8  0.514  0.547  0.767-  12 0.98
   9  0.385  0.379  0.756-   2 0.98   1 1.00  43 2.25
  10  0.616  0.373  0.756-   4 0.98   3 0.99  91 2.24
  11  0.497  0.260  0.756-   6 0.98   5 1.00 108 2.25
  12  0.503  0.492  0.755-   8 0.98   7 0.99 132 2.24
  13  0.125  0.000  0.352- 141 2.11 143 2.11 144 2.11 160 2.11 183 2.11
  14  0.250  0.125  0.352- 142 2.11 143 2.11 144 2.11 152 2.11 159 2.11
  15  0.125  0.125  0.451- 147 2.11 143 2.11 141 2.11 142 2.11 149 2.11 158 2.11
  16  0.250  0.000  0.451- 148 2.11 144 2.11 141 2.11 142 2.11 157 2.11 182 2.11
  17  0.125  1.000  0.550- 164 2.11 187 2.11 147 2.11 148 2.11 141 2.11 145 2.14
  18  0.250  0.125  0.550- 156 2.11 163 2.11 147 2.11 148 2.11 142 2.11 146 2.14
  19  0.125  0.125  0.648- 147 2.10 146 2.10 162 2.11 153 2.11 145 2.11
  20  0.250  1.000  0.648- 148 2.10 146 2.10 186 2.11 161 2.11 145 2.11
  21  0.125  0.250  0.352- 149 2.11 143 2.11 151 2.11 152 2.11 168 2.11
  22  0.250  0.375  0.352- 150 2.11 151 2.11 152 2.11 167 2.11 176 2.11
  23  0.125  0.375  0.451- 151 2.11 150 2.11 149 2.11 166 2.11 173 2.11 155 2.11
  24  0.250  0.250  0.451- 156 2.11 152 2.11 150 2.11 142 2.11 149 2.11 165 2.11
  25  0.125  0.250  0.550- 156 2.10 172 2.11 155 2.11 147 2.11 149 2.11 153 2.14
  26  0.250  0.375  0.550- 171 2.09 156 2.11 180 2.11 155 2.12 150 2.12 154 2.15
  27  0.125  0.375  0.648- 155 2.09 154 2.10 170 2.11 153 2.11 177 2.11
  28  0.250  0.250  0.647- 156 2.09 169 2.09 153 2.11 146 2.11 154 2.12
  29  0.375  0.000  0.352- 157 2.11 144 2.11 159 2.11 199 2.11 224 2.11
  30  0.000  0.125  0.352- 158 2.11 143 2.11 160 2.11 168 2.11 223 2.11
  31  0.375  0.125  0.451- 163 2.11 159 2.11 142 2.11 157 2.11 165 2.11 222 2.11
  32  0.000  0.000  0.451- 160 2.11 158 2.11 141 2.11 198 2.11 221 2.11 164 2.11
  33  0.375  1.000  0.550- 163 2.10 203 2.11 228 2.11 148 2.11 157 2.11 161 2.14
  34  0.000  0.125  0.550- 147 2.11 227 2.11 164 2.11 172 2.11 158 2.11 162 2.14
  35  0.375  0.125  0.647- 163 2.08 169 2.09 161 2.11 146 2.11 226 2.12
  36  0.000  1.000  0.648- 164 2.10 145 2.11 225 2.11 202 2.11 162 2.11
  37  0.375  0.250  0.352- 165 2.11 159 2.11 152 2.11 167 2.11 232 2.11
  38  0.000  0.375  0.352- 166 2.11 151 2.11 168 2.11 192 2.11 231 2.11
  39  0.375  0.375  0.451- 167 2.11 165 2.11 150 2.11 189 2.11 230 2.11 171 2.12
  40  0.000  0.250  0.451- 168 2.11 158 2.11 166 2.11 149 2.11 229 2.11 172 2.11
  41  0.375  0.250  0.550- 171 2.10 236 2.10 169 2.11 163 2.12 156 2.12 165 2.13
  42  0.000  0.375  0.550- 155 2.11 235 2.11 196 2.11 172 2.11 166 2.12 170 2.14
  43  0.375  0.375  0.651- 234 2.11 169 2.13 154 2.13 193 2.14 171 2.15   9 2.25
  44  0.000  0.250  0.648- 172 2.10 153 2.11 233 2.11 162 2.11 170 2.11
  45  0.125  0.500  0.352- 173 2.11 151 2.11 175 2.11 176 2.11 192 2.11
  46  0.250  0.625  0.352- 174 2.11 175 2.11 176 2.11 184 2.11 191 2.11
  47  0.125  0.625  0.451- 179 2.11 175 2.11 173 2.11 174 2.11 181 2.11 190 2.11
  48  0.250  0.500  0.451- 180 2.11 176 2.11 174 2.11 150 2.11 173 2.11 189 2.11
  49  0.125  0.500  0.550- 180 2.10 196 2.11 155 2.11 179 2.11 173 2.11 177 2.14
  50  0.250  0.625  0.550- 195 2.11 180 2.11 188 2.11 174 2.11 179 2.11 178 2.14
  51  0.125  0.625  0.648- 179 2.10 178 2.10 194 2.11 177 2.11 185 2.11
  52  0.250  0.500  0.647- 180 2.08 193 2.09 177 2.11 178 2.11 154 2.12
  53  0.125  0.750  0.352- 181 2.11 175 2.11 183 2.11 184 2.11 200 2.11
  54  0.250  0.875  0.352- 182 2.11 144 2.11 183 2.11 184 2.11 199 2.11
  55  0.125  0.875  0.451- 187 2.11 183 2.11 182 2.11 141 2.11 181 2.11 198 2.11
  56  0.250  0.750  0.451- 188 2.11 184 2.11 182 2.11 174 2.11 181 2.11 197 2.11
  57  0.125  0.750  0.550- 187 2.11 204 2.11 179 2.11 188 2.11 181 2.11 185 2.14
  58  0.250  0.875  0.550- 188 2.11 148 2.11 187 2.11 203 2.11 182 2.11 186 2.14
  59  0.125  0.875  0.648- 187 2.10 145 2.11 185 2.11 202 2.11 186 2.11
  60  0.250  0.750  0.648- 188 2.10 178 2.10 186 2.11 201 2.11 185 2.11
[...]
 254  0.500  0.625  0.451- 126 2.11 111 2.11  63 2.11 128 2.11 136 2.11 130 2.12
 255  0.875  0.625  0.352- 127 2.11 110 2.11 125 2.11  62 2.11 133 2.11
 256  0.500  0.500  0.352- 128 2.11 102 2.11 109 2.11 126 2.11  61 2.11
 257  0.875  0.500  0.650-  68 2.11 131 2.11 116 2.11 107 2.11 129 2.14
 258  0.500  0.626  0.651- 140 2.10 115 2.12  67 2.12 132 2.14 130 2.16
 259  0.875  0.625  0.549- 131 2.10  66 2.11 127 2.11 137 2.11 114 2.11 129 2.11
 260  0.500  0.501  0.550- 130 2.09  65 2.10 113 2.10 128 2.12 106 2.12 132 2.14
 261  0.875  0.750  0.451- 133 2.11 120 2.11 127 2.11  72 2.11 135 2.11 137 2.11
 262  0.500  0.875  0.451- 134 2.11  96 2.11 119 2.11  71 2.11 136 2.11 138 2.12
 263  0.875  0.875  0.352- 135 2.11  93 2.11 118 2.11 133 2.11  70 2.11
 264  0.500  0.750  0.352- 136 2.11 117 2.11 126 2.11 134 2.11  69 2.11
 265  0.875  0.750  0.650-  76 2.11 139 2.11 124 2.11 131 2.11 137 2.14
 266  0.500  0.875  0.650- 140 2.11 100 2.11  75 2.11 123 2.11 138 2.14
 267  0.875  0.875  0.549- 139 2.10  97 2.11  74 2.11 137 2.11 135 2.11 122 2.11
 268  0.500  0.750  0.550- 140 2.09 138 2.11 121 2.11  73 2.11 136 2.11 130 2.12

IMPORTANT INFORMATION: All symmetrisations will be switched off!
NOSYMM: (Re-)initialisation of all symmetry stuff for point group C_1.

                                     Primitive cell

  volume of cell :    6078.6138

  direct lattice vectors                    reciprocal lattice vectors
    16.881164524  0.000000000  0.000000000     0.059237619  0.000000000  0.000000000
     0.000000000 16.881164524  0.000000000     0.000000000  0.059237619  0.000000000
     0.000000000  0.000000000 21.330436697     0.000000000  0.000000000  0.046881366

  length of vectors
    16.881164524 16.881164524 21.330436697     0.059237619  0.059237619  0.046881366

  position of ions in fractional coordinates (direct lattice)
     0.416960390  0.428216355  0.761195448
     0.331224393  0.390120482  0.770579085
     0.583537088  0.324046046  0.761945945
     0.669899462  0.361411432  0.769590900
     0.448316785  0.293302489  0.761858283
     0.485443730  0.207310897  0.771980332
     0.552577793  0.460775475  0.761276117
     0.514149699  0.546993198  0.767157869
     0.384817162  0.379285806  0.755767454
     0.615992964  0.372587761  0.755649232
     0.496628930  0.260299385  0.756059764
     0.503372321  0.492215285  0.755250335
     0.125000000  0.000000000  0.351610242
     0.250000000  0.125000000  0.351610242
     0.125000000  0.125000000  0.450536747
     0.250000000  0.000000000  0.450536747
     0.124943395  0.999932730  0.549682781
[...]
   2.11014557 14.77101896  9.61014557
   4.22029113 12.66087339  9.61014557
   2.10909122 12.66206178 11.72501269
   4.21955275 14.77085902 11.72471604
   2.10862076 14.77098704 13.81787229
   4.21733805 12.66267699 13.81609619
[...]
   8.44058226 10.55072783  9.61014557
  14.77101896 10.55072783  7.50000000
   8.44058226  8.44058226  7.50000000
  14.77453428  8.44447902 13.86358673
   8.44180142 10.56843834 13.88661339
  14.77330937 10.55259271 11.71943057
   8.43968798  8.44947287 11.72827126
  14.77101896 12.66087339  9.61014557
   8.44058226 14.77101896  9.61014557
  14.77101896 14.77101896  7.50000000
   8.44058226 12.66087339  7.50000000
  14.77398816 12.66396229 13.86210204
   8.44073771 14.77050308 13.86588169
  14.77208137 14.77127304 11.71999142
   8.44073067 12.66192073 11.72221622

--------------------------------------- Iteration      FINAL  ---------------------------------------

--------------------OUTCAR has been truncated-------------------------

[...]

--------------------OUTCAR has been truncated-------------------------

  FORCE on cell =-STRESS in cart. coord.  units (eV):
  Direction    XX          YY          ZZ          XY          YZ          ZX
  Alpha Z  3597.59123  3597.59123  3597.59123
  Ewald  643268.77052643272.93512************     0.35476   -10.12285    -3.08658
  Hartree684548.00767684551.32175************     0.12325    -4.20753    -0.61734
  E(xc)  -10008.84977-10008.84076-10041.88535     0.00193    -0.04784    -0.02035
  Local  ************************************    -0.42293    12.17493     2.78919
  n-local-11293.40619-11293.40448-11371.56893     0.00209    -0.01006     0.02479
  augment  4209.95954  4209.95125  4178.44468    -0.00495     0.14354     0.05776
  Kinetic 29819.04600 29818.92759 30049.97538    -0.05722     2.06765     0.87695
  Fock        0.00000     0.00000     0.00000     0.00000     0.00000     0.00000
  vdW       -87.70047   -87.70060   -67.27965     0.00036     0.00540     0.00206
  Total     -88.15563   -88.17020    16.63811    -0.00271     0.00323     0.02649
  in kB     -23.23572   -23.23956     4.38541    -0.00071     0.00085     0.00698

 VOLUME and BASIS-vectors are now :
  energy-cutoff  :      520.00
  volume of cell :     6078.61
      direct lattice vectors                 reciprocal lattice vectors
    16.881164524  0.000000000  0.000000000     0.059237619  0.000000000  0.000000000
     0.000000000 16.881164524  0.000000000     0.000000000  0.059237619  0.000000000
     0.000000000  0.000000000 21.330436697     0.000000000  0.000000000  0.046881366

  length of vectors
    16.881164524 16.881164524 21.330436697     0.059237619  0.059237619  0.046881366

 FORCES acting on ions:
    Electron-Ion                     Ewald-Force                    Non-Local-Force
   -.112E+02 -.650E+02 -.283E+03   0.155E+02 0.712E+02 0.283E+03   -.442E+01 -.634E+01 -.771E+00
   0.101E+03 -.156E+02 -.291E+03   -.109E+03 0.170E+02 0.294E+03   0.777E+01 -.136E+01 -.259E+01
   0.117E+02 0.644E+02 -.284E+03   -.160E+02 -.706E+02 0.285E+03   0.446E+01 0.629E+01 -.919E+00
   -.102E+03 0.160E+02 -.290E+03   0.109E+03 -.174E+02 0.293E+03   -.781E+01 0.140E+01 -.243E+01
   0.638E+02 -.121E+02 -.283E+03   -.699E+02 0.164E+02 0.284E+03   0.624E+01 -.451E+01 -.824E+00
   0.161E+02 0.100E+03 -.292E+03   -.175E+02 -.108E+03 0.295E+03   0.141E+01 0.769E+01 -.279E+01
   -.660E+02 0.106E+02 -.284E+03   0.723E+02 -.148E+02 0.285E+03   -.641E+01 0.436E+01 -.889E+00
   -.154E+02 -.103E+03 -.289E+03   0.168E+02 0.110E+03 0.291E+03   -.134E+01 -.792E+01 -.206E+01
   0.143E+03 0.305E+02 -.165E+04   -.128E+03 -.635E+02 0.164E+04   -.152E+02 0.332E+02 0.143E+02
   -.143E+03 -.320E+02 -.165E+04   0.127E+03 0.653E+02 0.164E+04   0.153E+02 -.335E+02 0.141E+02
   -.313E+02 0.144E+03 -.165E+04   0.643E+02 -.130E+03 0.163E+04   -.331E+02 -.145E+02 0.154E+02
   0.313E+02 -.142E+03 -.165E+04   -.647E+02 0.126E+03 0.164E+04   0.335E+02 0.162E+02 0.122E+02
   0.346E+01 0.340E+01 0.208E+04   -.345E+01 -.339E+01 -.207E+04   -.592E-02 -.615E-02 -.714E+01
   0.601E+01 0.600E+01 0.209E+04   -.598E+01 -.598E+01 -.208E+04   -.214E-01 -.211E-01 -.714E+01
   0.755E+01 0.803E+01 0.710E+03   -.754E+01 -.802E+01 -.711E+03   -.735E-02 -.833E-02 0.428E+00
   0.810E+01 0.745E+01 0.710E+03   -.808E+01 -.744E+01 -.711E+03   -.813E-02 -.692E-02 0.430E+00
   0.936E+01 0.924E+01 -.668E+03   -.935E+01 -.923E+01 0.669E+03   -.560E-02 -.420E-02 -.181E+00
   0.236E+02 0.234E+02 -.646E+03   -.235E+02 -.234E+02 0.647E+03   -.278E-01 -.471E-01 -.137E+00
   0.253E+02 0.228E+02 -.204E+04   -.252E+02 -.228E+02 0.203E+04   -.116E+00 -.151E-01 0.635E+01
   0.229E+02 0.252E+02 -.204E+04   -.229E+02 -.251E+02 0.203E+04   -.106E-01 -.118E+00 0.636E+01
   0.501E+01 0.352E+01 0.208E+04   -.499E+01 -.351E+01 -.208E+04   -.201E-01 -.845E-02 -.715E+01
   0.771E+01 0.114E+00 0.209E+04   -.766E+01 -.116E+00 -.208E+04   -.355E-01 0.143E-02 -.718E+01
   0.104E+02 0.223E+00 0.716E+03   -.103E+02 -.227E+00 -.716E+03   -.679E-01 0.255E-02 0.457E+00
   0.137E+02 0.805E+01 0.724E+03   -.136E+02 -.798E+01 -.725E+03   -.733E-01 -.529E-01 0.377E+00
   0.217E+02 0.109E+02 -.654E+03   -.215E+02 -.108E+02 0.654E+03   -.137E+00 -.356E-01 -.147E+00
   0.426E+02 0.513E+00 -.625E+03   -.421E+02 -.543E+00 0.625E+03   -.498E+00 0.308E-01 0.954E-01
   0.504E+02 0.390E+00 -.202E+04   -.501E+02 -.397E+00 0.201E+04   -.331E+00 0.760E-02 0.631E+01
   0.869E+02 0.455E+02 -.198E+04   -.863E+02 -.456E+02 0.197E+04   -.590E+00 0.103E+00 0.639E+01
   0.346E+01 0.494E+01 0.208E+04   -.345E+01 -.491E+01 -.208E+04   -.935E-02 -.207E-01 -.714E+01
   0.256E-02 0.445E+01 0.208E+04   -.249E-02 -.444E+01 -.207E+04   -.676E-04 -.642E-02 -.714E+01
   0.786E+01 0.136E+02 0.724E+03   -.779E+01 -.135E+02 -.725E+03   -.557E-01 -.726E-01 0.359E+00
   0.373E-02 0.474E+01 0.705E+03   -.350E-02 -.474E+01 -.705E+03   -.187E-03 -.855E-03 0.463E+00
   0.108E+02 0.216E+02 -.653E+03   -.108E+02 -.215E+02 0.653E+03   -.393E-01 -.129E+00 -.123E+00
   0.120E-01 0.109E+02 -.666E+03   -.839E-02 -.110E+02 0.667E+03   -.449E-02 0.156E-01 -.178E+00
   0.459E+02 0.869E+02 -.198E+04   -.460E+02 -.864E+02 0.197E+04   0.585E-01 -.583E+00 0.640E+01
   -.199E-01 0.103E+02 -.204E+04   0.213E-01 -.103E+02 0.204E+04   -.233E-02 0.220E-01 0.636E+01
   0.515E+01 0.523E+01 0.209E+04   -.512E+01 -.521E+01 -.208E+04   -.251E-01 -.230E-01 -.720E+01
   0.217E-01 0.622E-01 0.208E+04   -.219E-01 -.627E-01 -.208E+04   0.180E-03 0.298E-03 -.713E+01
   0.109E+02 0.322E+00 0.740E+03   -.108E+02 -.337E+00 -.740E+03   -.446E-01 0.112E-01 0.360E+00
   -.247E-01 0.490E+01 0.711E+03   0.277E-01 -.490E+01 -.711E+03   -.188E-02 -.115E-02 0.464E+00
   0.299E+02 0.304E+02 -.598E+03   -.296E+02 -.300E+02 0.599E+03   -.356E+00 -.357E+00 -.836E+00
   0.520E-01 0.150E+00 -.660E+03   -.506E-01 -.155E+00 0.660E+03   -.149E-02 0.331E-02 -.147E+00
   0.118E+03 0.344E+01 -.181E+04   -.117E+03 -.359E+01 0.180E+04   -.663E+00 0.160E+00 0.368E+01
   -.694E-01 0.125E+02 -.204E+04   0.779E-01 -.126E+02 0.203E+04   -.859E-02 0.603E-01 0.636E+01
   0.506E+01 -.341E+01 0.208E+04   -.504E+01 0.340E+01 -.208E+04   -.188E-01 0.937E-02 -.714E+01
   0.605E+01 -.604E+01 0.209E+04   -.602E+01 0.601E+01 -.208E+04   -.201E-01 0.203E-01 -.714E+01
   0.769E+01 -.813E+01 0.711E+03   -.769E+01 0.813E+01 -.711E+03   -.469E-02 0.519E-02 0.426E+00
   0.138E+02 -.779E+01 0.725E+03   -.137E+02 0.771E+01 -.725E+03   -.668E-01 0.551E-01 0.348E+00
   0.220E+02 -.106E+02 -.653E+03   -.219E+02 0.106E+02 0.653E+03   -.117E+00 0.387E-01 -.117E+00
   0.237E+02 -.238E+02 -.646E+03   -.236E+02 0.237E+02 0.646E+03   -.360E-01 0.206E-01 -.131E+00
   0.255E+02 -.230E+02 -.204E+04   -.254E+02 0.230E+02 0.203E+04   -.106E+00 0.917E-02 0.635E+01
   0.878E+02 -.457E+02 -.198E+04   -.872E+02 0.458E+02 0.197E+04   -.582E+00 -.787E-01 0.641E+01
   0.348E+01 -.350E+01 0.208E+04   -.347E+01 0.350E+01 -.207E+04   -.557E-02 0.522E-02 -.714E+01
   0.447E+01 -.757E-01 0.208E+04   -.446E+01 0.765E-01 -.207E+04   -.642E-02 -.746E-03 -.714E+01
   0.484E+01 -.121E+00 0.705E+03   -.484E+01 0.120E+00 -.705E+03   -.868E-03 0.357E-03 0.445E+00
   0.810E+01 -.771E+01 0.711E+03   -.809E+01 0.771E+01 -.711E+03   -.721E-02 0.355E-02 0.433E+00
   0.944E+01 -.946E+01 -.668E+03   -.944E+01 0.945E+01 0.669E+03   0.124E-02 -.253E-02 -.185E+00
   0.111E+02 -.229E+00 -.666E+03   -.111E+02 0.231E+00 0.666E+03   0.116E-01 -.265E-03 -.182E+00
   0.104E+02 -.149E+00 -.204E+04   -.104E+02 0.153E+00 0.204E+04   0.228E-01 -.300E-02 0.635E+01
   0.230E+02 -.255E+02 -.204E+04   -.230E+02 0.254E+02 0.203E+04   -.959E-02 0.991E-01 0.636E+01
[...]
   -.318E+01 -.367E+01 0.156E+04   0.317E+01 0.366E+01 -.157E+04   0.155E-01 0.992E-02 0.343E+01
   -.138E-01 -.406E+01 0.157E+04   0.139E-01 0.403E+01 -.158E+04   -.238E-03 0.340E-01 0.335E+01
   -.299E+02 -.145E+02 -.154E+04   0.298E+02 0.144E+02 0.155E+04   0.826E-01 0.800E-01 -.481E+01
   0.880E+00 -.854E+02 -.149E+04   -.886E+00 0.848E+02 0.150E+04   0.314E-02 0.545E+00 -.453E+01
   -.109E+02 -.105E+02 -.491E+03   0.109E+02 0.105E+02 0.491E+03   0.387E-01 0.361E-01 0.299E+00
   -.260E+00 -.245E+02 -.434E+03   0.287E+00 0.241E+02 0.434E+03   -.259E-01 0.371E+00 -.312E+00
   -.423E+01 -.423E+01 0.530E+03   0.422E+01 0.422E+01 -.529E+03   0.197E-01 0.181E-01 -.280E-01
   0.745E-02 -.133E+00 0.534E+03   -.845E-02 0.135E+00 -.534E+03   0.134E-02 -.357E-02 -.888E-02
   -.236E+01 -.497E-01 0.156E+04   0.236E+01 0.501E-01 -.157E+04   0.848E-02 0.277E-02 0.344E+01
   0.731E-02 -.406E+01 0.157E+04   -.768E-02 0.404E+01 -.157E+04   0.510E-03 0.293E-01 0.342E+01
   -.106E+02 -.106E+02 -.155E+04   0.106E+02 0.105E+02 0.156E+04   0.368E-01 0.405E-01 -.482E+01
   -.310E-02 -.465E+00 -.155E+04   0.504E-02 0.480E+00 0.155E+04   -.199E-02 -.156E-01 -.481E+01
   -.559E+01 -.102E+00 -.498E+03   0.557E+01 0.102E+00 0.497E+03   0.209E-01 -.987E-03 0.302E+00
   0.108E+00 -.168E+02 -.483E+03   -.108E+00 0.167E+02 0.482E+03   -.247E-03 0.147E+00 0.371E+00
   -.510E+00 -.107E+01 0.261E+02   -.789E-12 0.966E-12 0.236E-10   0.509E+00 0.105E+01 -.260E+02

 POSITION                                       TOTAL-FORCE (eV/Angst)
      7.03878      7.22879     16.23663        -0.142785     -0.144289     -0.007924
      5.59145      6.58569     16.43679         0.171000      0.007467     -0.059444
      9.85079      5.47027     16.25264         0.140433      0.138002     -0.013515
     11.30868      6.10105     16.41571        -0.174626     -0.009199     -0.053055
      7.56811      4.95129     16.25077         0.136993     -0.139984     -0.010296
      8.19486      3.49965     16.46668        -0.005627      0.162842     -0.063195
      9.32816      7.77843     16.23835        -0.137876      0.138061     -0.012287
      8.67945      9.23388     16.36381         0.012804     -0.173519     -0.041584
      6.49616      6.40279     16.12085        -0.049792      0.139328      0.134310
     10.39868      6.28972     16.11833         0.047965     -0.135454      0.136148
      8.38367      4.39416     16.12708        -0.126957     -0.041532      0.131363
      8.49751      8.30917     16.10982         0.135925      0.050596      0.131791
      2.11015      0.00000      7.50000         0.001706      0.001788      0.332366
      4.22029      2.11015      7.50000         0.006116      0.006289      0.335598
      2.11015      2.11015      9.61015         0.001338      0.002693      0.027984
      4.22029      0.00000      9.61015         0.002292      0.001575      0.028949
      2.10919     16.88003     11.72497         0.004618      0.003984     -0.028732
      4.21928      2.10984     11.72234         0.001834     -0.000743     -0.027742
      2.10861      2.10710     13.81627        -0.003433      0.000140      0.015270
      4.21736     16.87923     13.81595         0.001580     -0.002353      0.017369
      2.11015      4.22029      7.50000         0.005804      0.002693      0.335611
      4.22029      6.33044      7.50000         0.010138     -0.000462      0.346816
      2.11015      6.33044      9.61015         0.025590     -0.001075      0.042426
      4.22029      4.22029      9.61015         0.031486      0.018898      0.054992
      2.10974      4.22043     11.72418        -0.001976      0.000081     -0.026937
      4.22680      6.32970     11.72990         0.000302      0.000614     -0.019677
      2.10743      6.33043     13.81654         0.001437      0.000875      0.015433
      4.21796      4.21431     13.80701        -0.000563      0.007633      0.020619
      6.33044      0.00000      7.50000         0.002773      0.005908      0.335264
      0.00000      2.11015      7.50000         0.000011      0.002081      0.332640
      6.33044      2.11015      9.61015         0.019987      0.030619      0.052085
      0.00000      0.00000      9.61015         0.000050      0.000330      0.028126
      6.33084     16.88030     11.72345        -0.001466     -0.001411     -0.025243
      0.00015      2.10907     11.72467        -0.000805      0.003452     -0.026505
      6.32441      2.10747     13.80090         0.007694      0.001685      0.021624
      0.00021     16.87956     13.81827        -0.000862      0.002105      0.017642
      6.33044      4.22029      7.50000         0.007059      0.006727      0.351998
      0.00000      6.33044      7.50000        -0.000040     -0.000053      0.332156
      6.33044      6.33044      9.61015         0.023152     -0.004226      0.108307
      0.00000      4.22029      9.61015         0.001103      0.000306      0.027757
      6.33825      4.22681     11.73738         0.000730     -0.000329     -0.028637
      0.00002      6.33049     11.72561        -0.000029     -0.001459     -0.025134
      6.33507      6.32237     13.87923        -0.003463     -0.001363     -0.067982
      0.00018      4.21755     13.81742        -0.000149      0.003849      0.015494
      2.11015      8.44058      7.50000         0.005379     -0.002753      0.334999
      4.22029     10.55073      7.50000         0.005761     -0.005528      0.335036
      2.11015     10.55073      9.61015         0.000757     -0.000955      0.027355
      4.22029      8.44058      9.61015         0.027855     -0.019711      0.047642
      2.10893      8.44052     11.72314        -0.000153      0.000057     -0.024252
      4.21980     10.55204     11.72171         0.000461     -0.000953     -0.026420
      2.10827     10.55421     13.81581        -0.003736     -0.002012      0.016173
      4.21753      8.44734     13.79926         0.001671     -0.012569      0.022636
      2.11015     12.66087      7.50000         0.001701     -0.001334      0.332664
      4.22029     14.77102      7.50000         0.001897      0.000129      0.332998
      2.11015     14.77102      9.61015         0.000395     -0.000168      0.027616
      4.22029     12.66087      9.61015         0.002125      0.000441      0.027979
      2.10909     12.66206     11.72501         0.001991     -0.003781     -0.031207
      4.21955     14.77086     11.72472         0.000733      0.002125     -0.028579
      2.10862     14.77099     13.81787         0.001806      0.000204      0.017052
      4.21734     12.66268     13.81610         0.001215      0.002880      0.015365
[...]
      8.44058     10.55073      9.61015        -0.000791      0.028674      0.039542
     14.77102     10.55073      7.50000         0.006686      0.000514     -0.496997
      8.44058      8.44058      7.50000        -0.000055      0.009727     -0.520554
     14.77453      8.44448     13.86359        -0.002207      0.001260      0.095396
      8.44180     10.56844     13.88661        -0.001086     -0.008898      0.096271
     14.77331     10.55259     11.71943        -0.000494     -0.000970     -0.011814
      8.43969      8.44947     11.72827         0.000913     -0.000828     -0.002044
     14.77102     12.66087      9.61015         0.006903      0.004874      0.047597
      8.44058     14.77102      9.61015         0.000343     -0.002291      0.055641
     14.77102     14.77102      7.50000         0.004730      0.003237     -0.495792
      8.44058     12.66087      7.50000         0.000155      0.008383     -0.501259
     14.77399     12.66396     13.86210        -0.000055     -0.000908      0.094531
      8.44074     14.77050     13.86588        -0.000064     -0.000339      0.089924
     14.77208     14.77127     11.71999         0.000217     -0.000806     -0.009861
      8.44073     12.66192     11.72222         0.000057     -0.000539     -0.013626
    total drift:                               -0.001537     -0.026875      0.096663

  FREE ENERGIE OF THE ION-ELECTRON SYSTEM (eV)
  free  energy   TOTEN  =     -1543.70113132 eV

  energy  without entropy=    -1543.70113132  energy(sigma->0) =    -1543.70113132