 vasp.6.3.0 20Jan22 (build Dec 25 2023 18:06:01) complex
 executed on        HPECrayEX_GCC date 2024.02.07  22:21:37

 INCAR:
   SYSTEM = TiO2
   ISMEAR = 0
   SIGMA = 0.05
   EDIFF = 1E-4
   ALGO = ALL
   ICHARG = 1
   IBRION = -1
   NSW = 0
   ISYM = 0
   ISIF = 2
   EDIFFG = -0.01
   DIPOL = 0.5 0.5 0.5
   IDIPOL = 3
   LDIPOL = .TRUE.
   LHFCALC = .TRUE.
   HFSCREEN = 0.2
   GGA = PE
   IVDW = 13
   VDW_S8 = 1.19528249
   VDW_A1 = 0.38663183
   VDW_A2 = 5.19133469
   ENCUT = 520
   PREC = Normal
   PRECFOCK = Fast
   LASPH = .TRUE.
   LREAL = .FALSE.
   ISPIN = 1
   NELM = 200
   NELMIN = 8
   NCORE = 4
   KPAR = 1
   NKREDX = 2
   NKREDY = 2
   LWAVE = .FALSE.
   LCHARG = .FALSE.

 POTCAR:    PAW_PBE C 08Apr2002
 POTCAR:    PAW_PBE H 15Jun2001
 POTCAR:    PAW_PBE Ti 08Apr2002
 POTCAR:    PAW_PBE O 08Apr2002
 POTCAR:    PAW_PBE C 08Apr2002
   VRHFIN =C: s2p2

   TITEL  = PAW_PBE C 08Apr2002
   POMASS =   12.011; ZVAL   =    4.000    mass and valenz
   ENMAX  =  400.000; ENMIN  =  300.000 eV

   TITEL  = PAW_PBE H 15Jun2001
   POMASS =    1.000; ZVAL   =    1.000    mass and valenz
   ENMAX  =  250.000; ENMIN  =  200.000 eV

[...]

   TITEL  = PAW_PBE O 08Apr2002
   POMASS =   16.000; ZVAL   =    6.000    mass and valenz
   ENMAX  =  400.000; ENMIN  =  300.000 eV

  PAW_PBE C 08Apr2002                   :
  PAW_PBE H 15Jun2001                   :
  PAW_PBE Ti 08Apr2002                  :
  PAW_PBE O 08Apr2002                   :

 POSCAR:  C  H Ti  O
  positions in direct lattice
|           W    W    AA    RRRRR   N    N  II  N    N   GGGG   !!!           |
|           W    W   A  A   R    R  NN   N  II  NN   N  G    G  !!!           |
|           W    W  A    A  R    R  N N  N  II  N N  N  G       !!!           |
|           W WW W  AAAAAA  RRRRR   N  N N  II  N  N N  G  GGG   !            |
|           WW  WW  A    A  R   R   N   NN  II  N   NN  G    G                |
|           W    W  A    A  R    R  N    N  II  N    N   GGGG   !!!           |
|     Specifying the vdW parameters                                           |
|     VDW_S8 = 1.195                                                          |
|     VDW_A1 = 0.387                                                          |
|     VDW_A2 = 5.191                                                          |
|     in the INCAR file will overwrite the defaults for hse06. Please         |
|     make sure that is what you intended.                                    |

 ion  position               nearest neighbor table
   1  0.500  0.500  0.846-   2 1.09   3 1.09   4 1.09   5 1.09
   2  0.496  0.576  0.869-   1 1.09
   3  0.504  0.424  0.869-   1 1.09
   4  0.571  0.504  0.824-   1 1.09
   5  0.429  0.496  0.824-   1 1.09
   6  0.750  0.625  0.264-  87 1.94 147 1.94 146 1.94  86 1.94 168 1.97  89 1.97  16 2.94  36 2.94

   7  0.000  0.750  0.264-  89 1.94 109 1.94 108 1.94  88 1.94  90 1.97  37 2.94  17 2.94
   8  0.000  0.625  0.382-  91 1.94 151 1.94 150 1.94  90 1.94  92 1.97  93 1.97  18 2.94  38 2.94

[...]

  85  0.500  0.500  0.732- 239 1.83 244 1.93 185 1.93 184 1.93 245 1.93  75 2.94  55 2.94
  86  0.750  0.750  0.218-   6 1.94  16 1.94
  87  0.750  0.750  0.311-   6 1.94  16 1.94   9 1.97
  88  0.098  0.625  0.264-   7 1.94  37 1.94  46 1.97
  89  0.902  0.625  0.264-   7 1.94  37 1.94   6 1.97
  90  0.000  0.750  0.336-   8 1.94  18 1.94   7 1.97
  91  0.000  0.750  0.428-   8 1.94  18 1.94  11 1.97
  92  0.848  0.625  0.382-   9 1.94  39 1.94   8 1.97
  93  0.152  0.625  0.382-  49 1.94  79 1.94   8 1.97
  94  0.750  0.750  0.454-  10 1.94  20 1.94   9 1.97
  95  0.750  0.750  0.546-  10 1.94  20 1.94  13 2.08
  96  0.098  0.625  0.500-  11 1.94  41 1.94  50 1.97
  97  0.902  0.625  0.500-  11 1.94  41 1.94  10 1.97
  98  1.000  0.750  0.572-  12 1.89  22 1.89  11 1.98
  99  0.000  0.750  0.664-  15 1.82  22 1.99  12 1.99
 100  0.850  0.625  0.618-  12 1.94  13 1.96  43 1.96
 101  0.150  0.625  0.618-  12 1.94  53 1.96  83 1.96
 102  0.750  0.750  0.690-  13 1.86  14 2.07  24 2.07
 103  0.750  0.750  0.782-  14 1.83  24 1.83
 104  0.094  0.625  0.742-  45 1.93  15 1.93  54 2.02
 105  0.906  0.625  0.742-  45 1.93  15 1.93  14 2.02
 106  0.750  0.000  0.218-  16 1.94  26 1.94
 107  0.750  0.000  0.311-  16 1.94  26 1.94  19 1.97
 108  0.098  0.875  0.264-   7 1.94  17 1.94  56 1.97
 109  0.902  0.875  0.264-   7 1.94  17 1.94  16 1.97
 110  0.000  0.000  0.336-  18 1.94  28 1.94  17 1.97
 111  0.000  0.000  0.428-  18 1.94  28 1.94  21 1.97
 112  0.848  0.875  0.382-   9 1.94  19 1.94  18 1.97
 113  0.152  0.875  0.382-  49 1.94  59 1.94  18 1.97
 114  0.750  0.000  0.454-  20 1.94  30 1.94  19 1.97
 115  0.750  0.000  0.546-  20 1.94  30 1.94  23 2.09
 116  0.098  0.875  0.500-  11 1.94  21 1.94  60 1.97
 117  0.902  0.875  0.500-  11 1.94  21 1.94  20 1.97
 118  1.000  1.000  0.572-  22 1.89  32 1.89  21 1.98
 119  0.000  1.000  0.664-  25 1.82  22 1.99  32 1.99
 120  0.850  0.875  0.618-  22 1.94  23 1.96  13 1.96
 121  0.150  0.875  0.618-  22 1.94  63 1.96  53 1.96
 122  0.750  0.000  0.690-  23 1.86  24 2.07  34 2.07
 123  0.750  0.000  0.783-  24 1.83  34 1.83
 124  0.094  0.875  0.742-  15 1.93  25 1.93  64 2.02
 125  0.906  0.875  0.742-  15 1.93  25 1.93  24 2.02
 126  0.750  0.250  0.218-  26 1.94  36 1.94
 127  0.750  0.250  0.311-  26 1.94  36 1.94  29 1.97
 128  0.098  0.125  0.264-  17 1.94  27 1.94  66 1.97
 129  0.902  0.125  0.264-  17 1.94  27 1.94  26 1.97
 130  0.000  0.250  0.336-  28 1.94  38 1.94  27 1.97
 131  0.000  0.250  0.428-  28 1.94  38 1.94  31 1.97
 132  0.848  0.125  0.382-  19 1.94  29 1.94  28 1.97
 133  0.152  0.125  0.382-  59 1.94  69 1.94  28 1.97
 134  0.750  0.250  0.454-  30 1.94  40 1.94  29 1.97
 135  0.750  0.250  0.546-  30 1.94  40 1.94  33 2.08
 136  0.098  0.125  0.500-  21 1.94  31 1.94  70 1.97
 137  0.902  0.125  0.500-  21 1.94  31 1.94  30 1.97
 138  0.000  0.250  0.572-  42 1.89  32 1.89  31 1.98
 139  1.000  0.250  0.664-  35 1.82  32 1.99  42 1.99
 140  0.850  0.125  0.618-  32 1.94  23 1.96  33 1.96
 141  0.150  0.125  0.618-  32 1.94  63 1.96  73 1.96
 142  0.750  0.250  0.690-  33 1.86  44 2.07  34 2.07
 143  0.750  0.250  0.782-  44 1.83  34 1.83
 144  0.094  0.125  0.742-  35 1.93  25 1.93  74 2.02
[...]
 231  0.500  0.500  0.428-  48 1.94  78 1.94  81 1.97
 232  0.348  0.375  0.382-  69 1.94  79 1.94  78 1.97
 233  0.652  0.375  0.382-  29 1.94  39 1.94  78 1.97
 234  0.250  0.500  0.454-  50 1.94  80 1.94  79 1.97
 235  0.250  0.500  0.546-  50 1.94  80 1.94  83 2.08
 236  0.598  0.375  0.500-  71 1.94  81 1.94  40 1.97
 237  0.402  0.375  0.500-  71 1.94  81 1.94  80 1.97
 238  0.500  0.500  0.572-  52 1.89  82 1.89  81 1.99
 239  0.500  0.500  0.665-  85 1.83  52 1.99  82 1.99
 240  0.350  0.375  0.618-  82 1.94  83 1.96  73 1.96
 241  0.650  0.375  0.618-  82 1.94  43 1.96  33 1.96
 242  0.250  0.500  0.690-  83 1.86  84 2.07  54 2.07
 243  0.251  0.500  0.782-  54 1.83  84 1.83
 244  0.594  0.374  0.742-  75 1.93  85 1.93  44 2.02
 245  0.406  0.374  0.741-  75 1.93  85 1.93  84 2.02

IMPORTANT INFORMATION: All symmetrisations will be switched off!
NOSYMM: (Re-)initialisation of all symmetry stuff for point group C_1.

                                     Primitive cell

  volume of cell :    4180.4259

  direct lattice vectors                    reciprocal lattice vectors
    12.939701814  0.000000000  0.000000000     0.077281534  0.000000000  0.000000000
     0.000000000 11.760793336  0.000000000     0.000000000  0.085028278  0.000000000
     0.000000000  0.000000000 27.470062065     0.000000000  0.000000000  0.036403267

  length of vectors
    12.939701814 11.760793336 27.470062065     0.077281534  0.085028278  0.036403267

  position of ions in fractional coordinates (direct lattice)
     0.500062183  0.500004232  0.845747588
     0.496475892  0.575693438  0.868519355
     0.503648779  0.424306136  0.868524207
     0.570765740  0.503940069  0.824081722
     0.429347965  0.496050401  0.824085770
     0.750000000  0.625000000  0.264476291
     0.000000000  0.750000000  0.264476291
     0.000000000  0.625000000  0.382238145
     0.750000000  0.750000000  0.382238145
     0.750000000  0.625000000  0.500000000
     0.000000000  0.750000000  0.500000000
     0.000000035  0.625012245  0.615468562
     0.750023654  0.750010911  0.621892842
     0.750156542  0.625143546  0.742787124
     0.000016449  0.750104697  0.730572500
     0.750000000  0.875000000  0.264476291
     0.000000000  0.000000000  0.264476291
     0.000000000  0.875000000  0.382238145
     0.750000000  0.000000000  0.382238145
     0.750000000  0.875000000  0.500000000
     0.000000000  0.000000000  0.500000000
     0.999998914  0.875012845  0.615480382
     0.749992780  0.000000942  0.621958633
     0.749872843  0.875029032  0.742984279
     0.999999829  0.000000028  0.730587700
     0.750000000  0.125000000  0.264476291
     0.000000000  0.250000000  0.264476291
     0.000000000  0.125000000  0.382238145
     0.750000000  0.250000000  0.382238145
     0.750000000  0.125000000  0.500000000
     0.000000000  0.250000000  0.500000000
     0.000001178  0.124987168  0.615480385
     0.750022483  0.249991494  0.621902586
     0.749862745  0.124978788  0.742984908
     0.999983917  0.249895301  0.730572502
     0.750000000  0.375000000  0.264476291
     0.000000000  0.500000000  0.264476291
     0.000000000  0.375000000  0.382238145
     0.750000000  0.500000000  0.382238145
     0.750000000  0.375000000  0.500000000
     0.000000000  0.500000000  0.500000000
     0.000000020  0.374987741  0.615468565
     0.750035809  0.499997902  0.621918677
     0.750117213  0.374887147  0.742819751
     0.000000282  0.499999972  0.730549374
     0.250000000  0.625000000  0.264476291
     0.500000000  0.750000000  0.264476291
     0.500000000  0.625000000  0.382238145
     0.250000000  0.750000000  0.382238145
     0.250000000  0.625000000  0.500000000
     0.500000000  0.750000000  0.500000000
     0.500000580  0.624637247  0.615889698
     0.249977532  0.750008432  0.621902730
     0.249883610  0.625112233  0.742820374
     0.500000041  0.750067202  0.730457163
     0.250000000  0.875000000  0.264476291
     0.500000000  0.000000000  0.264476291
     0.500000000  0.875000000  0.382238145
     0.250000000  0.000000000  0.382238145
     0.250000000  0.875000000  0.500000000
[...]
     0.500000000  0.500000000  0.428294835
     0.347775060  0.375000000  0.382238145
     0.652224940  0.375000000  0.382238145
     0.250000000  0.500000000  0.453943310
     0.250000000  0.500000000  0.546056690
     0.597775060  0.375000000  0.500000000
     0.402224940  0.375000000  0.500000000
     0.499999852  0.500000015  0.572392140
     0.499999984  0.500000007  0.665082731
     0.349801619  0.375014401  0.618486525
     0.650198443  0.375017310  0.618484631
     0.249541660  0.500013337  0.689746380
     0.250811075  0.499961152  0.782381163
     0.593938504  0.374367754  0.741509538
     0.406012536  0.374338065  0.741432041

  ion indices of the primitive-cell ions
   primitive index   ion index
                 1           1
                 2           2
                 3           3
[...]
   6.46985143  8.82138535 20.06570361
   3.23492545 10.29069417  7.26518013
   6.46985091  0.00000000  7.26518013
   6.46985091 10.29069417 10.50010558
   3.23492545  0.00000000 10.50010558
   3.23492545 10.29069417 13.73503103
[...]
   6.46985091  5.88039667 11.76528570
   4.50010558  4.41029750 10.50010558
   8.43959623  4.41029750 10.50010558
   3.23492545  5.88039667 12.46985091
   3.23492545  5.88039667 15.00021116
   7.73503103  4.41029750 13.73503103
   5.20467078  4.41029750 13.73503103
   6.46984899  5.88039685 15.72364761
   6.46985070  5.88039675 18.26986389
   4.52632864  4.41046686 16.98986323
   8.41337397  4.41050108 16.98981119
   3.22899467  5.88055352 18.94737588
   3.24542053  5.87993979 21.49205910
   7.68538713  4.40286179 20.36931303
   5.25368114  4.40251262 20.36718419

--------------------------------------- Iteration      FINAL  ---------------------------------------

--------------------OUTCAR has been truncated-------------------------

[...]

--------------------OUTCAR has been truncated-------------------------

  FORCE on cell =-STRESS in cart. coord.  units (eV):
  Direction    XX          YY          ZZ          XY          YZ          ZX
  Alpha Z  3322.64941  3322.64941  3322.64941
  Ewald  350224.12038355427.70714************    -0.18153     0.00800    -0.05769
  Hartree372359.51797373637.83885************    -0.13144     0.00020    -0.04664
  E(xc)   -4667.45282 -4718.49536 -4667.61760     0.00047    -0.00001    -0.00005
  Local  ************************735837.97019     0.33970    -0.00517     0.10370
  n-local -2890.87796 -2784.61752 -2949.03965    -0.00060    -0.00021     0.00033
  augment  1337.94824  1317.89421  1342.95929    -0.00014    -0.00004     0.00001
  Kinetic 23485.64789 22945.73863 23538.07914    -0.01728    -0.00028    -0.00144
  Fock    -2136.46209 -2161.98186 -2138.72555     0.00051    -0.00003    -0.00000
  vdW       -50.87408   -50.97720   -44.52362     0.00001     0.00000     0.00000
  Total      10.90718   -42.81781   -33.82820     0.00970     0.00247    -0.00180
  in kB       4.18025   -16.41022   -12.96489     0.00372     0.00095    -0.00069

 VOLUME and BASIS-vectors are now :
  energy-cutoff  :      520.00
  volume of cell :     4180.43
      direct lattice vectors                 reciprocal lattice vectors
    12.939701814  0.000000000  0.000000000     0.077281534  0.000000000  0.000000000
     0.000000000 11.760793336  0.000000000     0.000000000  0.085028278  0.000000000
     0.000000000  0.000000000 27.470062065     0.000000000  0.000000000  0.036403267

  length of vectors
    12.939701814 11.760793336 27.470062065     0.077281534  0.085028278  0.036403267

 FORCES acting on ions:
    Electron-Ion                     Ewald-Force                    Non-Local-Force
   0.206E-01 0.238E-02 -.909E+03   -.190E-01 -.420E-02 0.910E+03   -.284E-02 -.293E-02 -.729E+00
   0.211E+01 -.439E+02 -.228E+03   -.235E+01 0.485E+02 0.231E+03   0.236E+00 -.448E+01 -.318E+01
   -.210E+01 0.439E+02 -.228E+03   0.235E+01 -.485E+02 0.231E+03   -.236E+00 0.447E+01 -.318E+01
   -.363E+02 -.222E+01 -.228E+03   0.412E+02 0.246E+01 0.225E+03   -.469E+01 -.233E+00 0.275E+01
   0.363E+02 0.223E+01 -.228E+03   -.412E+02 -.247E+01 0.225E+03   0.469E+01 0.234E+00 0.275E+01
   -.163E+00 -.604E-01 0.967E+03   0.163E+00 0.605E-01 -.969E+03   0.418E-04 0.979E-04 -.124E+01
   -.614E-04 -.718E-01 0.104E+04   0.504E-04 0.720E-01 -.104E+04   0.843E-05 0.182E-04 -.183E+01
   -.165E-03 -.305E-01 0.499E+03   0.182E-03 0.306E-01 -.499E+03   0.180E-05 0.660E-04 0.183E+00
   -.814E-01 -.426E-01 0.496E+03   0.812E-01 0.430E-01 -.496E+03   -.613E-04 0.178E-03 -.165E+00
   -.257E+00 -.123E+00 0.668E+00   0.254E+00 0.122E+00 -.205E+00   -.951E-03 -.714E-03 0.183E+00
   -.218E-02 -.170E+00 0.126E+01   0.233E-02 0.171E+00 -.188E+01   0.377E-04 0.188E-03 -.820E-01
   -.587E-02 -.527E+00 -.485E+03   0.592E-02 0.528E+00 0.486E+03   -.237E-04 -.461E-03 -.716E-01
   -.170E+01 -.139E+01 -.494E+03   0.170E+01 0.139E+01 0.493E+03   -.312E-02 -.118E-02 0.464E-01
   -.135E+02 -.562E+01 -.941E+03   0.136E+02 0.561E+01 0.940E+03   0.757E-02 0.408E-02 0.539E-02
   -.195E-01 -.196E+01 -.979E+03   0.191E-01 0.194E+01 0.980E+03   0.596E-03 -.331E-03 0.688E+00
   -.145E+00 -.600E-01 0.967E+03   0.145E+00 0.602E-01 -.969E+03   0.249E-04 0.103E-03 -.124E+01
   -.718E-04 0.552E-05 0.104E+04   0.585E-04 0.181E-06 -.104E+04   0.209E-04 -.266E-04 -.183E+01
   -.167E-03 -.307E-01 0.499E+03   0.184E-03 0.308E-01 -.499E+03   0.719E-05 0.298E-04 0.183E+00
   -.832E-01 -.197E-03 0.496E+03   0.828E-01 0.190E-03 -.496E+03   -.875E-04 0.192E-04 -.165E+00
   -.272E+00 -.129E+00 0.397E+00   0.271E+00 0.133E+00 0.690E-01   -.370E-03 0.287E-02 0.184E+00
   -.216E-03 -.454E-05 0.109E+01   0.215E-03 0.258E-05 -.172E+01   0.329E-05 -.248E-05 -.822E-01
   -.963E-02 -.526E+00 -.486E+03   0.995E-02 0.526E+00 0.487E+03   -.576E-04 -.229E-03 -.724E-01
   -.126E+01 -.453E-02 -.496E+03   0.126E+01 0.448E-02 0.495E+03   0.743E-04 -.348E-04 0.508E-01
   -.497E+01 -.396E+01 -.949E+03   0.497E+01 0.396E+01 0.948E+03   0.663E-02 0.103E-02 -.522E-02
   -.127E-02 0.847E-04 -.980E+03   0.128E-02 -.958E-04 0.981E+03   -.371E-05 -.302E-04 0.692E+00
   -.145E+00 0.600E-01 0.967E+03   0.145E+00 -.602E-01 -.969E+03   0.389E-04 -.102E-03 -.124E+01
   -.902E-04 0.718E-01 0.104E+04   0.766E-04 -.720E-01 -.104E+04   0.197E-04 -.433E-04 -.183E+01
   0.660E-04 0.307E-01 0.499E+03   -.727E-04 -.308E-01 -.499E+03   0.442E-05 -.359E-04 0.183E+00
   -.814E-01 0.427E-01 0.496E+03   0.812E-01 -.430E-01 -.496E+03   -.581E-04 -.174E-03 -.165E+00
   -.273E+00 0.127E+00 0.394E+00   0.272E+00 -.131E+00 0.732E-01   -.332E-03 -.242E-02 0.185E+00
   0.165E-02 0.170E+00 0.126E+01   -.180E-02 -.171E+00 -.188E+01   -.264E-04 -.197E-03 -.820E-01
   0.861E-02 0.526E+00 -.486E+03   -.895E-02 -.526E+00 0.487E+03   0.656E-04 0.221E-03 -.724E-01
   -.171E+01 0.139E+01 -.494E+03   0.171E+01 -.140E+01 0.493E+03   -.294E-02 0.752E-03 0.467E-01
   -.497E+01 0.393E+01 -.949E+03   0.497E+01 -.393E+01 0.948E+03   0.673E-02 -.864E-03 -.522E-02
   0.148E-01 0.196E+01 -.979E+03   -.144E-01 -.194E+01 0.980E+03   -.574E-03 0.353E-03 0.688E+00
   -.163E+00 0.603E-01 0.967E+03   0.163E+00 -.605E-01 -.969E+03   -.450E-06 -.111E-03 -.124E+01
   -.812E-04 -.288E-04 0.104E+04   0.686E-04 -.179E-06 -.104E+04   0.846E-05 0.498E-04 -.183E+01
   0.506E-04 0.305E-01 0.499E+03   -.567E-04 -.306E-01 -.499E+03   0.171E-05 -.492E-04 0.183E+00
   -.796E-01 0.175E-03 0.496E+03   0.796E-01 -.175E-03 -.496E+03   -.193E-04 -.201E-04 -.165E+00
   -.258E+00 0.125E+00 0.666E+00   0.254E+00 -.125E+00 -.202E+00   -.928E-03 0.277E-03 0.184E+00
   -.303E-03 -.368E-05 0.142E+01   0.306E-03 -.300E-05 -.205E+01   0.766E-05 0.991E-05 -.823E-01
   0.400E-02 0.527E+00 -.485E+03   -.406E-02 -.528E+00 0.486E+03   0.310E-04 0.465E-03 -.716E-01
   -.230E+01 0.138E-02 -.492E+03   0.230E+01 -.141E-02 0.492E+03   -.937E-03 0.317E-03 0.433E-01
   -.135E+02 0.566E+01 -.942E+03   0.135E+02 -.564E+01 0.941E+03   0.674E-02 -.407E-02 0.411E-02
   -.325E-02 -.832E-04 -.978E+03   0.325E-02 0.920E-04 0.978E+03   -.405E-05 0.817E-05 0.683E+00
   0.163E+00 -.603E-01 0.967E+03   -.163E+00 0.605E-01 -.969E+03   -.476E-04 0.999E-04 -.124E+01
   0.596E-04 -.988E-01 0.104E+04   -.477E-04 0.991E-01 -.104E+04   -.643E-05 0.102E-03 -.183E+01
   0.151E-03 -.250E-01 0.499E+03   -.171E-03 0.277E-01 -.499E+03   -.189E-05 0.835E-03 0.183E+00
   0.814E-01 -.426E-01 0.496E+03   -.812E-01 0.430E-01 -.496E+03   0.491E-04 0.177E-03 -.165E+00
   0.257E+00 -.125E+00 0.666E+00   -.254E+00 0.124E+00 -.202E+00   0.926E-03 -.286E-03 0.184E+00
   0.164E-02 -.260E+00 0.171E+01   -.179E-02 0.246E+00 -.230E+01   -.460E-04 0.538E-02 -.734E-01
   0.611E-02 -.101E+01 -.482E+03   -.612E-02 0.105E+01 0.483E+03   0.258E-04 -.263E-01 -.524E-01
   0.171E+01 -.139E+01 -.494E+03   -.171E+01 0.140E+01 0.493E+03   0.292E-02 -.750E-03 0.467E-01
   0.135E+02 -.565E+01 -.942E+03   -.135E+02 0.564E+01 0.941E+03   -.672E-02 0.409E-02 0.408E-02
   0.677E-01 -.135E+02 -.967E+03   -.673E-01 0.135E+02 0.967E+03   -.125E-02 -.113E-01 0.722E+00
   0.145E+00 -.600E-01 0.967E+03   -.145E+00 0.602E-01 -.969E+03   -.177E-04 0.108E-03 -.124E+01
   0.781E-04 0.197E-04 0.104E+04   -.591E-04 0.187E-06 -.104E+04   -.222E-04 -.405E-04 -.183E+01
   0.152E-03 -.261E-01 0.499E+03   -.169E-03 0.278E-01 -.499E+03   -.474E-05 0.410E-03 0.184E+00
   0.832E-01 0.167E-03 0.496E+03   -.828E-01 -.190E-03 -.496E+03   0.905E-04 0.396E-05 -.165E+00
   0.273E+00 -.126E+00 0.393E+00   -.272E+00 0.130E+00 0.736E-01   0.349E-03 0.240E-02 0.185E+00
[...]
   -.256E+02 0.430E-01 0.746E+03   0.300E+02 -.434E-01 -.746E+03   -.343E+01 0.666E-03 0.192E+00
   0.256E+02 0.432E-01 0.746E+03   -.300E+02 -.438E-01 -.746E+03   0.343E+01 0.706E-03 0.191E+00
   0.207E+00 -.797E-03 0.316E+03   -.205E+00 0.102E-02 -.321E+03   -.225E-02 -.412E-03 0.410E+01
   0.782E+00 -.354E-02 -.319E+03   -.774E+00 0.370E-02 0.327E+03   -.791E-02 -.343E-03 -.670E+01
   -.249E+02 0.695E-01 0.341E+01   0.302E+02 -.716E-01 -.367E+01   -.500E+01 0.953E-02 0.306E+00
   0.249E+02 0.674E-01 0.341E+01   -.302E+02 -.693E-01 -.367E+01   0.500E+01 0.928E-02 0.306E+00
   0.132E-02 0.293E-04 -.417E+03   -.139E-02 -.290E-04 0.410E+03   0.551E-04 0.668E-05 0.618E+01
   0.531E-02 -.126E-04 -.103E+04   -.553E-02 0.575E-04 0.103E+04   0.185E-03 -.419E-04 0.181E+01
   -.964E+01 0.169E+01 -.730E+03   0.129E+02 -.172E+01 0.730E+03   -.287E+01 0.268E-01 0.790E+00
   0.964E+01 0.170E+01 -.730E+03   -.129E+02 -.174E+01 0.730E+03   0.287E+01 0.280E-01 0.793E+00
   0.110E+02 -.678E-01 -.115E+04   -.110E+02 0.746E-01 0.115E+04   0.360E-01 -.594E-02 -.202E+01
   0.405E+02 -.976E-01 -.166E+04   -.406E+02 0.965E-01 0.168E+04   0.300E-01 0.679E-03 -.198E+02
   -.110E+02 0.221E+02 -.145E+04   0.178E+02 -.221E+02 0.146E+04   -.592E+01 -.148E-01 -.353E+01
   0.110E+02 0.220E+02 -.145E+04   -.178E+02 -.220E+02 0.146E+04   0.592E+01 -.181E-01 -.348E+01
   0.376E-02 0.394E-02 0.102E+03   0.166E-11 -.284E-13 -.887E-11   -.360E-02 -.365E-02 -.938E+02

 POSITION                                       TOTAL-FORCE (eV/Angst)
      6.47066      5.88045     23.23274        -0.001430     -0.004901     -0.001748
      6.42425      6.77061     23.85828         0.007301      0.001690      0.001158
      6.51707      4.99018     23.85841        -0.007582      0.002705     -0.001617
      7.38554      5.92674     22.63758        -0.000438     -0.007207     -0.004607
      5.55563      5.83395     22.63769         0.002012      0.007690     -0.003900
      9.70478      7.35050      7.26518         0.000279      0.000275     -3.959876
      0.00000      8.82060      7.26518        -0.000002      0.000185      3.131620
      0.00000      7.35050     10.50011         0.000018      0.000153      0.588028
      9.70478      8.82060     10.50011        -0.000270      0.000556     -0.850371
      9.70478      7.35050     13.73503        -0.004205     -0.002182      0.686429
      0.00000      8.82060     13.73503         0.000182      0.001437     -0.789446
      0.00000      7.35064     16.90696        -0.000002      0.000437      0.002199
      9.70508      8.82072     17.08343        -0.000530      0.003528     -0.000463
      9.70680      7.35218     20.40441        -0.000498      0.002795      0.001391
      0.00021      8.82183     20.06887         0.000167     -0.002232     -0.003389
      9.70478     10.29069      7.26518         0.000184      0.000277     -3.959935
      0.00000      0.00000      7.26518         0.000010     -0.000023      3.131557
      0.00000     10.29069     10.50011         0.000025      0.000130      0.588208
      9.70478      0.00000     10.50011        -0.000517      0.000013     -0.850055
      9.70478     10.29069     13.73503        -0.001772      0.008280      0.690425
      0.00000      0.00000     13.73503         0.000001     -0.000005     -0.788998
     12.93969     10.29085     16.90728         0.000015      0.000628      0.003202
      9.70468      0.00001     17.08524        -0.003293      0.000080     -0.000985
      9.70313     10.29104     20.40982         0.002424      0.004387      0.001348
     12.93970      0.00000     20.06929        -0.000002     -0.000041     -0.006071
      9.70478      1.47010      7.26518         0.000179     -0.000276     -3.959947
      0.00000      2.94020      7.26518         0.000009     -0.000197      3.131623
      0.00000      1.47010     10.50011        -0.000003     -0.000131      0.588207
      9.70478      2.94020     10.50011        -0.000264     -0.000547     -0.850181
      9.70478      1.47010     13.73503        -0.001756     -0.006955      0.691320
      0.00000      2.94020     13.73503        -0.000165     -0.001437     -0.789452
      0.00002      1.46995     16.90728        -0.000013     -0.000641      0.003191
      9.70507      2.94010     17.08370        -0.000660     -0.003481     -0.000314
      9.70300      1.46985     20.40984         0.002461     -0.004093      0.001680
     12.93949      2.93897     20.06887        -0.000149      0.002261     -0.003401
      9.70478      4.41030      7.26518         0.000277     -0.000303     -3.959859
      0.00000      5.88040      7.26518        -0.000003      0.000029      3.131705
      0.00000      4.41030     10.50011        -0.000005     -0.000139      0.588031
      9.70478      5.88040     10.50011         0.000020     -0.000022     -0.850513
      9.70478      4.41030     13.73503        -0.004204      0.000851      0.687322
      0.00000      5.88040     13.73503         0.000011      0.000004     -0.789700
      0.00000      4.41015     16.90696         0.000013     -0.000429      0.002197
      9.70524      5.88037     17.08414         0.002341     -0.000034     -0.003438
      9.70629      4.40897     20.40530        -0.000756     -0.002757      0.001503
      0.00000      5.88040     20.06824         0.000010      0.000013     -0.002059
      3.23493      7.35050      7.26518        -0.000280      0.000296     -3.959851
      6.46985      8.82060      7.26518         0.000005      0.000393      3.132758
      6.46985      7.35050     10.50011        -0.000023      0.003742      0.587895
      3.23493      8.82060     10.50011         0.000251      0.000559     -0.850158
      3.23493      7.35050     13.73503         0.004203     -0.000862      0.687356
      6.46985      8.82060     13.73503        -0.000187     -0.009891     -0.751766
      6.46986      7.34623     16.91853        -0.000021     -0.004713     -0.006574
      3.23463      8.82069     17.08371         0.000649      0.003489     -0.000265
      3.23342      7.35182     20.40532         0.000811      0.002855      0.001508
      6.46985      8.82139     20.06570         0.000365      0.001446     -0.007645
      3.23493     10.29069      7.26518        -0.000194      0.000275     -3.959931
      6.46985      0.00000      7.26518        -0.000006     -0.000028      3.132807
      6.46985     10.29069     10.50011        -0.000022      0.002308      0.590696
      3.23493      0.00000     10.50011         0.000519     -0.000018     -0.850051
      3.23493     10.29069     13.73503         0.001774      0.006932      0.691323
[...]
      6.46985      5.88040     11.76529         0.000002      0.000010     -0.130702
      4.50011      4.41030     10.50011         0.480649      0.000339      0.059358
      8.43960      4.41030     10.50011        -0.480678      0.000347      0.059340
      3.23493      5.88040     12.46985        -0.000757     -0.000260     -0.083207
      3.23493      5.88040     15.00021        -0.000616     -0.000245      0.050574
      7.73503      4.41030     13.73503        -0.491182      0.009154      0.092136
      5.20467      4.41030     13.73503         0.490945      0.009087      0.092175
      6.46985      5.88040     15.72365        -0.000010      0.000008      0.006710
      6.46985      5.88040     18.26986        -0.000007     -0.000003     -0.004893
      4.52633      4.41047     16.98986         0.004412     -0.000015      0.002301
      8.41337      4.41050     16.98981        -0.004419      0.000132      0.002060
      3.22899      5.88055     18.94738        -0.007061      0.000083     -0.000018
      3.24542      5.87994     21.49206         0.001488     -0.000220      0.000465
      7.68539      4.40286     20.36931         0.002231     -0.001090     -0.001291
      5.25368      4.40251     20.36718        -0.002490     -0.001437     -0.002004
    total drift:                                0.000050      0.000059      0.033460

  FREE ENERGIE OF THE ION-ELECTRON SYSTEM (eV)
  free  energy   TOTEN  =     -2646.41977204 eV

  energy  without entropy=    -2646.41977204  energy(sigma->0) =    -2646.41977204