 vasp.6.4.2 20Jul23 (build Nov 17 2023 15:39:20) complex
 executed on              LinuxNV date 2024.02.27  19:55:55
 OpenACC runtime initialized ...    4 GPUs detected

 INCAR:
   SYSTEM = Oxide-Surface
   ISMEAR = 0
   SIGMA = 0.05
   EDIFF = 1E-4
   ALGO = Normal
   ISTART = 2
   IBRION = -1
   NSW = 0
   ISYM = 0
   DIPOL = 0.5 0.5 0.5
   IDIPOL = 3
   LDIPOL = .TRUE.
   LHFCALC = .TRUE.
   GGA = PE
   IVDW = 21
   VDW_SR = 0.96
   ENCUT = 450
   PREC = Normal
   LASPH = .TRUE.
   LREAL = Auto
   ISPIN = 1
   NELM = 200
   NELMIN = 8
   NCORE = 1
   KPAR = 1
   LWAVE = .FALSE.
   LCHARG = .FALSE.

 POTCAR:    PAW_PBE Mg_pv 13Apr2007
 POTCAR:    PAW_PBE O 08Apr2002
 POTCAR:    PAW_PBE Mg_pv 13Apr2007
   VRHFIN =Mg: p6s2

   TITEL  = PAW_PBE Mg_pv 13Apr2007
   POMASS =   24.305; ZVAL   =    8.000    mass and valenz
   ENMAX  =  403.929; ENMIN  =  302.947 eV

   TITEL  = PAW_PBE O 08Apr2002
   POMASS =   16.000; ZVAL   =    6.000    mass and valenz
   ENMAX  =  400.000; ENMIN  =  300.000 eV

 Optimization of the real space projectors (new method)

 maximal supplied QI-value         = 18.90
 optimisation between [QCUT,QGAM] = [ 10.77, 21.73] = [ 32.49,132.25] Ry
 Optimized for a Real-space Cutoff    1.23 Angstroem

   l    n(q)    QCUT    max X(q) W(low)/X(q) W(high)/X(q)  e(spline)
   1      7    10.771     2.974    0.18E-03    0.56E-05    0.13E-06
   1      7    10.771     4.279    0.39E-03    0.94E-04    0.28E-06
   0      8    10.771    16.381    0.27E-03    0.38E-03    0.44E-07
   0      8    10.771     5.611    0.18E-03    0.26E-03    0.32E-07
   2      7    10.771     4.652    0.12E-03    0.23E-03    0.45E-07
 Optimization of the real space projectors (new method)

 maximal supplied QI-value         = 24.76
 optimisation between [QCUT,QGAM] = [ 10.64, 21.54] = [ 31.73,129.89] Ry
 Optimized for a Real-space Cutoff    1.23 Angstroem

   l    n(q)    QCUT    max X(q) W(low)/X(q) W(high)/X(q)  e(spline)
   0      8    10.645    20.381    0.38E-03    0.60E-03    0.15E-06
   0      8    10.645    15.268    0.40E-03    0.65E-03    0.17E-06
   1      7    10.645     5.964    0.30E-03    0.63E-03    0.18E-06
   1      7    10.645     5.382    0.24E-03    0.53E-03    0.16E-06
  PAW_PBE Mg_pv 13Apr2007               :
  PAW_PBE O 08Apr2002                   :

 POSCAR: Mg  O
  positions in direct lattice
 exchange correlation table for  LEXCH =        8
   RHO(1)=    0.500       N(1)  =     2000
   RHO(2)=  100.500       N(2)  =     4000

 ion  position               nearest neighbor table
   1  0.000  0.750  0.352-  33 2.11  35 2.11  36 2.11  43 2.11  52 2.11
   2  0.250  0.000  0.352-  34 2.11  35 2.11  36 2.11  44 2.11  51 2.11
   3  0.000  0.000  0.451-  35 2.11  34 2.11  33 2.11  41 2.11  50 2.11  39 2.12
   4  0.250  0.750  0.451-  36 2.11  34 2.11  33 2.11  42 2.11  49 2.11  40 2.12
   5  0.000  0.750  0.550-  56 2.11  40 2.11  39 2.11  47 2.11  33 2.12  37 2.15
   6  0.250  1.000  0.550-  48 2.11  40 2.11  39 2.11  55 2.11  34 2.12  38 2.15
   7  0.000  1.000  0.649-  39 2.11  54 2.11  38 2.11  37 2.11  45 2.11
   8  0.250  0.750  0.649-  40 2.11  53 2.11  38 2.11  46 2.11  37 2.11
   9  0.000  0.250  0.352-  41 2.11  35 2.11  43 2.11  44 2.11  60 2.11
  10  0.250  0.500  0.352-  42 2.11  36 2.11  43 2.11  44 2.11  59 2.11
  11  0.000  0.500  0.451-  43 2.11  41 2.11  42 2.11  33 2.11  58 2.11  47 2.12
  12  0.250  0.250  0.451-  44 2.11  41 2.11  42 2.11  34 2.11  57 2.11  48 2.12
  13  0.000  0.250  0.550-  48 2.11  64 2.11  39 2.11  47 2.11  41 2.12  45 2.15
  14  0.250  0.500  0.550-  63 2.11  40 2.11  48 2.11  47 2.11  42 2.12  46 2.15
  15  0.000  0.500  0.649-  47 2.11  62 2.11  46 2.11  37 2.11  45 2.11
  16  0.250  0.250  0.649-  48 2.11  61 2.11  38 2.11  46 2.11  45 2.11
  17  0.500  0.750  0.352-  49 2.11  36 2.11  51 2.11  52 2.11  59 2.11
  18  0.750  0.000  0.352-  50 2.11  35 2.11  51 2.11  52 2.11  60 2.11
  19  0.500  0.000  0.451-  51 2.11  49 2.11  50 2.11  34 2.11  57 2.11  55 2.12
  20  0.750  0.750  0.451-  52 2.11  49 2.11  50 2.11  33 2.11  58 2.11  56 2.12
  21  0.500  0.750  0.550-  63 2.11  40 2.11  56 2.11  55 2.11  49 2.13  53 2.15
  22  0.750  0.000  0.550-  64 2.11  56 2.11  39 2.11  55 2.11  50 2.12  54 2.15
  23  0.500  1.000  0.649-  61 2.11  53 2.11  55 2.11  38 2.11  54 2.11
  24  0.750  0.750  0.649-  56 2.11  53 2.11  54 2.11  62 2.11  37 2.11
  25  0.500  0.250  0.352-  57 2.11  51 2.11  44 2.11  59 2.11  60 2.11
  26  0.750  0.500  0.352-  58 2.11  52 2.11  43 2.11  59 2.11  60 2.11
  27  0.500  0.500  0.451-  59 2.11  49 2.11  57 2.11  58 2.11  42 2.11  63 2.12
  28  0.750  0.250  0.451-  60 2.11  50 2.11  57 2.11  58 2.11  41 2.11  64 2.12
  29  0.500  0.250  0.550-  63 2.11  48 2.11  64 2.11  55 2.11  57 2.13  61 2.15
  30  0.750  0.500  0.550-  63 2.11  56 2.11  64 2.11  47 2.11  58 2.12  62 2.15
  31  0.500  0.500  0.649-  61 2.11  53 2.11  46 2.11  62 2.11  63 2.12
  32  0.750  0.250  0.649-  64 2.11  61 2.11  54 2.11  62 2.11  45 2.11
  33  0.000  0.750  0.451-   1 2.11   3 2.11   4 2.11  11 2.11  20 2.11   5 2.12
  34  0.250  0.000  0.451-   2 2.11   3 2.11   4 2.11  12 2.11  19 2.11   6 2.12
  35  0.000  0.000  0.352-   3 2.11   2 2.11   1 2.11   9 2.11  18 2.11
  36  0.250  0.750  0.352-   4 2.11   2 2.11   1 2.11  10 2.11  17 2.11
  37  0.000  0.750  0.651-   7 2.11  15 2.11  24 2.11   8 2.11   5 2.15
  38  0.250  0.000  0.651-  16 2.11   8 2.11   7 2.11  23 2.11   6 2.15
  39  0.000  1.000  0.550-   5 2.11  13 2.11   7 2.11   6 2.11  22 2.11   3 2.12
  40  0.250  0.750  0.550-   8 2.11   5 2.11   6 2.11  14 2.11  21 2.11   4 2.12
  41  0.000  0.250  0.451-   9 2.11   3 2.11  11 2.11  12 2.11  28 2.11  13 2.12
  42  0.250  0.500  0.451-  10 2.11   4 2.11  11 2.11  12 2.11  27 2.11  14 2.12
  43  0.000  0.500  0.352-  11 2.11   9 2.11  10 2.11   1 2.11  26 2.11
  44  0.250  0.250  0.352-  12 2.11   9 2.11  10 2.11   2 2.11  25 2.11
  45  0.000  0.250  0.651-   7 2.11  15 2.11  16 2.11  32 2.11  13 2.15
  46  0.250  0.500  0.651-  15 2.11  16 2.11   8 2.11  31 2.11  14 2.15
  47  0.000  0.500  0.550-  15 2.11   5 2.11  13 2.11  14 2.11  30 2.11  11 2.12
  48  0.250  0.250  0.550-  16 2.11  13 2.11   6 2.11  14 2.11  29 2.11  12 2.12
  49  0.500  0.750  0.451-  17 2.11   4 2.11  19 2.11  20 2.11  27 2.11  21 2.13
  50  0.750  0.000  0.451-  18 2.11   3 2.11  19 2.11  20 2.11  28 2.11  22 2.12
  51  0.500  0.000  0.352-  19 2.11  17 2.11  18 2.11   2 2.11  25 2.11
  52  0.750  0.750  0.352-  20 2.11  17 2.11  18 2.11   1 2.11  26 2.11
  53  0.500  0.750  0.651-  23 2.11   8 2.11  24 2.11  31 2.11  21 2.15
  54  0.750  0.000  0.651-  32 2.11  24 2.11   7 2.11  23 2.11  22 2.15
  55  0.500  1.000  0.550-  23 2.11  22 2.11   6 2.11  21 2.11  29 2.11  19 2.12
  56  0.750  0.750  0.550-  24 2.11   5 2.11  22 2.11  30 2.11  21 2.11  20 2.12
  57  0.500  0.250  0.451-  25 2.11  19 2.11  12 2.11  27 2.11  28 2.11  29 2.13
  58  0.750  0.500  0.451-  26 2.11  20 2.11  11 2.11  27 2.11  28 2.11  30 2.12
  59  0.500  0.500  0.352-  27 2.11  17 2.11  25 2.11  26 2.11  10 2.11
  60  0.750  0.250  0.352-  28 2.11  18 2.11  25 2.11  26 2.11   9 2.11
  61  0.500  0.250  0.651-  23 2.11  16 2.11  32 2.11  31 2.11  29 2.15
  62  0.750  0.500  0.651-  15 2.11  24 2.11  32 2.11  31 2.11  30 2.15
  63  0.500  0.500  0.550-  30 2.11  14 2.11  29 2.11  21 2.11  31 2.12  27 2.12
  64  0.750  0.250  0.550-  32 2.11  13 2.11  22 2.11  30 2.11  29 2.11  28 2.12

IMPORTANT INFORMATION: All symmetrisations will be switched off!
NOSYMM: (Re-)initialisation of all symmetry stuff for point group C_1.

                                     Primitive cell

  volume of cell :    1519.8199

  direct lattice vectors                    reciprocal lattice vectors
     8.440984654  0.000000000  0.000000000     0.118469591  0.000000000  0.000000000
     0.000000000  8.440984654  0.000000000     0.000000000  0.118469591  0.000000000
     0.000000000  0.000000000 21.330738491     0.000000000  0.000000000  0.046880702

  length of vectors
     8.440984654  8.440984654 21.330738491     0.118469591  0.118469591  0.046880702

  position of ions in fractional coordinates (direct lattice)
     0.000000000  0.750000000  0.351605267
     0.250000000  0.000000000  0.351605267
     0.000000000  0.000000000  0.450535089
     0.250000000  0.750000000  0.450535089
     0.000000003  0.750032167  0.550141647
     0.249992769  0.999999998  0.550135640
     0.000000010  0.999999991  0.648847037
     0.250116514  0.750097339  0.648710816
     0.000000000  0.250000000  0.351605267
     0.250000000  0.500000000  0.351605267
     0.000000000  0.500000000  0.450535089
     0.250000000  0.250000000  0.450535089
     0.000000007  0.249967822  0.550141651
     0.250108445  0.500000001  0.550153757
     0.000000011  0.499999994  0.648675549
     0.250116504  0.249902631  0.648710813
     0.500000000  0.750000000  0.351605267
     0.750000000  0.000000000  0.351605267
     0.500000000  0.000000000  0.450535089
     0.750000000  0.750000000  0.450535089
     0.499999994  0.749901112  0.550182719
     0.750007254  0.000000005  0.550135636
     0.500000006  0.999999998  0.648747779
     0.749883526  0.750097344  0.648710829
     0.500000000  0.250000000  0.351605267
     0.750000000  0.500000000  0.351605267
     0.500000000  0.500000000  0.450535089
     0.750000000  0.250000000  0.450535089
     0.500000001  0.250098874  0.550182703
     0.749891587  0.499999991  0.550153763
     0.500000014  0.499999988  0.649279172
     0.749883523  0.249902625  0.648710829
     0.000000000  0.750000000  0.450535089
     0.250000000  0.000000000  0.450535089
     0.000000000  0.000000000  0.351605267
     0.250000000  0.750000000  0.351605267
     0.000000011  0.750041776  0.650981394
     0.249939864  0.000000003  0.651016895
     0.000000015  0.999999981  0.549923091
     0.249924098  0.750012792  0.549866046
     0.000000000  0.250000000  0.450535089
     0.250000000  0.500000000  0.450535089
     0.000000000  0.500000000  0.351605267
     0.250000000  0.250000000  0.351605267
     0.000000016  0.249958209  0.650981374
     0.249749451  0.499999982  0.651002082
     0.000000017  0.500000002  0.549828664
     0.249924102  0.249987198  0.549866042
     0.500000000  0.750000000  0.450535089
     0.750000000  0.000000000  0.450535089
     0.500000000  0.000000000  0.351605267
     0.750000000  0.750000000  0.351605267
     0.500000003  0.750141602  0.650762171
     0.750060174  0.000000004  0.651016901
     0.500000013  0.999999987  0.549819177
     0.750075914  0.750012790  0.549866047
     0.500000000  0.250000000  0.450535089
     0.750000000  0.500000000  0.450535089
     0.500000000  0.500000000  0.351605267
     0.750000000  0.250000000  0.351605267
     0.500000004  0.249858388  0.650762164
     0.750250597  0.499999987  0.651002086
     0.500000017  0.499999992  0.549996743
     0.750075901  0.249987189  0.549866047

  ion indices of the primitive-cell ions
   primitive index   ion index
                 1           1
                 2           2
                 3           3
                 4           4
                 5           5
                 6           6
                 7           7
[...]
   O         195.532          4.867         19.118          3.54034445
   O         195.503          4.867         19.116          3.54007642
   O         190.438          4.846         18.867          3.49392289
   O         191.022          4.849         18.896          3.49927157
   O         242.176          5.044         21.276          3.94005380
   O         242.243          5.044         21.279          3.94059639
   O         238.635          5.032         21.120          3.91113910
   O         238.584          5.032         21.118          3.91072442
   O         195.466          4.867         19.115          3.53974813
   O         195.503          4.867         19.116          3.54007612
   O         190.954          4.848         18.893          3.49865067
   O         190.919          4.848         18.891          3.49833023
   O         242.246          5.044         21.279          3.94061743
   O         242.243          5.044         21.279          3.94059612
   O         238.635          5.032         21.120          3.91113919
   O         238.658          5.032         21.121          3.91132821
   O         195.568          4.868         19.120          3.54067048
   O         195.503          4.867         19.116          3.54007621
   O         190.954          4.848         18.893          3.49865087
   O         191.022          4.849         18.896          3.49927196
   O         241.157          5.041         21.231          3.93175622
   O         242.243          5.044         21.279          3.94059616

  vdW correction parametrized for the method `4    þ

  IVDW =  21
  VDW_RADIUS =    50.000 A
  VDW_IDAMPF =  0
  VDW_S6 =     1.000
  VDW_SR =     0.960
  VDW_D =    20.000
  LVDW_ONECELL = F F F
  LVDW_SAMETYPE T T
  LVDW_EWALD = F

  Number of pair interactions contributing to vdW energy:  723304
  Edisp (eV):   -3.83994

 VOLUME and BASIS-vectors are now :
  energy-cutoff  :      450.00
  volume of cell :     1519.82
      direct lattice vectors                 reciprocal lattice vectors
     8.440984654  0.000000000  0.000000000     0.118469591  0.000000000  0.000000000
     0.000000000  8.440984654  0.000000000     0.000000000  0.118469591  0.000000000
     0.000000000  0.000000000 21.330738491     0.000000000  0.000000000  0.046880702

  length of vectors
     8.440984654  8.440984654 21.330738491     0.118469591  0.118469591  0.046880702

 FORCES acting on ions
    electron-ion (+dipol)            ewald-force                    non-local-force                 convergence-correction
   0.324E-05 0.116E-01 0.207E+04   -.250E-05 -.112E-01 -.206E+04   -.225E-07 -.252E-03 -.675E+01   -.999E-06 -.176E-05 -.231E+00
   -.103E-01 0.971E-06 0.207E+04   0.996E-02 -.194E-05 -.206E+04   0.251E-03 -.149E-07 -.675E+01   0.458E-05 0.546E-06 -.231E+00
   0.761E-05 -.654E-05 0.683E+03   -.607E-05 0.485E-05 -.684E+03   -.136E-06 0.693E-06 0.502E+00   -.550E-06 0.871E-06 -.973E-01
   -.108E+00 0.932E-01 0.683E+03   0.106E+00 -.933E-01 -.684E+03   0.106E-02 -.219E-04 0.489E+00   0.519E-05 0.553E-06 -.973E-01
   0.169E-04 0.158E+00 -.690E+03   -.191E-04 -.151E+00 0.691E+03   0.169E-05 -.782E-02 -.185E+00   0.190E-06 -.384E-05 0.706E-01
   -.310E-01 0.185E-04 -.690E+03   0.190E-01 -.193E-04 0.691E+03   0.843E-02 -.448E-06 -.154E+00   0.950E-05 0.209E-06 0.706E-01
   -.223E-04 0.180E-04 -.205E+04   0.202E-04 -.182E-04 0.205E+04   0.125E-05 -.281E-06 0.571E+01   0.140E-05 0.165E-06 0.214E+00
   0.201E+00 0.465E+00 -.205E+04   -.254E+00 -.443E+00 0.204E+04   0.241E-01 -.241E-01 0.571E+01   0.362E-04 -.102E-04 0.214E+00
   0.285E-05 -.116E-01 0.207E+04   -.233E-05 0.112E-01 -.206E+04   0.100E-05 0.252E-03 -.675E+01   -.174E-05 0.173E-05 -.231E+00
   -.279E-01 -.905E-06 0.207E+04   0.284E-01 0.183E-05 -.206E+04   -.361E-03 -.656E-06 -.675E+01   0.816E-06 0.875E-07 -.231E+00
   0.157E-04 0.620E-05 0.683E+03   -.154E-04 -.470E-05 -.684E+03   0.597E-06 0.137E-06 0.470E+00   -.116E-05 -.828E-06 -.973E-01
   -.108E+00 -.932E-01 0.683E+03   0.106E+00 0.933E-01 -.684E+03   0.106E-02 0.232E-04 0.489E+00   0.518E-05 -.932E-06 -.973E-01
   0.357E-04 -.158E+00 -.690E+03   -.345E-04 0.151E+00 0.691E+03   -.132E-05 0.782E-02 -.185E+00   -.552E-06 0.373E-05 0.706E-01
   -.236E+00 0.553E-05 -.691E+03   0.261E+00 -.596E-05 0.691E+03   -.240E-01 -.887E-06 -.174E+00   0.154E-06 0.105E-05 0.707E-01
   -.382E-04 -.162E-05 -.205E+04   0.360E-04 0.200E-05 0.204E+04   0.187E-05 0.201E-06 0.566E+01   0.992E-06 -.959E-06 0.214E+00
   0.201E+00 -.465E+00 -.205E+04   -.254E+00 0.443E+00 0.204E+04   0.241E-01 0.241E-01 0.571E+01   0.363E-04 0.978E-05 0.214E+00
   -.299E-05 0.291E-01 0.207E+04   0.273E-05 -.296E-01 -.206E+04   -.312E-06 0.374E-03 -.675E+01   0.698E-06 0.350E-05 -.231E+00
   0.103E-01 0.691E-06 0.207E+04   -.996E-02 -.227E-05 -.206E+04   -.251E-03 0.120E-06 -.675E+01   -.339E-05 0.108E-05 -.231E+00
   -.498E-05 0.171E-04 0.683E+03   0.533E-05 -.213E-04 -.684E+03   0.501E-06 0.179E-05 0.469E+00   0.341E-06 0.163E-05 -.973E-01
   0.108E+00 0.932E-01 0.683E+03   -.106E+00 -.933E-01 -.684E+03   -.106E-02 -.200E-04 0.489E+00   -.566E-05 -.493E-06 -.973E-01
   -.656E-04 0.316E+00 -.690E+03   0.684E-04 -.351E+00 0.690E+03   -.118E-05 0.299E-01 -.237E+00   0.550E-06 0.535E-05 0.707E-01
   0.310E-01 0.558E-04 -.690E+03   -.190E-01 -.560E-04 0.691E+03   -.843E-02 -.118E-05 -.154E+00   -.102E-04 0.184E-06 0.706E-01
   -.517E-04 0.182E-04 -.205E+04   0.485E-04 -.143E-04 0.204E+04   0.413E-05 -.275E-05 0.571E+01   -.107E-05 -.421E-06 0.214E+00
   -.201E+00 0.465E+00 -.205E+04   0.254E+00 -.443E+00 0.204E+04   -.241E-01 -.241E-01 0.571E+01   -.370E-04 -.961E-05 0.214E+00
   -.325E-05 -.291E-01 0.207E+04   0.234E-05 0.296E-01 -.206E+04   0.108E-06 -.374E-03 -.675E+01   0.111E-05 -.393E-05 -.231E+00
   0.279E-01 -.130E-05 0.207E+04   -.284E-01 0.209E-05 -.206E+04   0.361E-03 0.555E-07 -.675E+01   -.756E-06 -.642E-06 -.231E+00
   -.151E-04 -.196E-04 0.683E+03   0.162E-04 0.218E-04 -.683E+03   -.128E-05 -.144E-05 0.517E+00   0.906E-06 -.198E-06 -.972E-01
   0.108E+00 -.932E-01 0.683E+03   -.106E+00 0.933E-01 -.684E+03   -.106E-02 0.214E-04 0.489E+00   -.535E-05 -.917E-06 -.973E-01
   -.266E-04 -.316E+00 -.690E+03   0.280E-04 0.351E+00 0.690E+03   -.133E-05 -.299E-01 -.237E+00   0.132E-05 -.528E-05 0.707E-01
   0.236E+00 -.351E-05 -.691E+03   -.261E+00 0.619E-05 0.691E+03   0.240E-01 -.192E-05 -.174E+00   -.302E-06 -.216E-06 0.707E-01
   -.452E-04 -.141E-04 -.206E+04   0.415E-04 0.898E-05 0.205E+04   0.425E-05 0.433E-05 0.582E+01   -.137E-05 -.694E-06 0.214E+00
   -.201E+00 -.465E+00 -.205E+04   0.254E+00 0.443E+00 0.204E+04   -.241E-01 0.241E-01 0.571E+01   -.365E-04 0.107E-04 0.214E+00
   0.459E-05 0.135E-01 0.512E+03   -.829E-05 -.193E-01 -.512E+03   0.143E-05 0.679E-02 -.786E-01   0.306E-06 0.182E-05 -.708E-01
   0.403E-03 0.449E-05 0.512E+03   0.421E-02 -.597E-05 -.512E+03   -.561E-02 -.636E-06 -.728E-01   0.634E-05 -.184E-06 -.708E-01
   0.446E-05 0.616E-06 0.155E+04   -.130E-05 -.435E-06 -.156E+04   0.501E-06 -.393E-06 0.309E+01   -.257E-05 0.429E-06 -.173E+00
   -.150E-01 0.153E-01 0.155E+04   0.150E-01 -.153E-01 -.156E+04   0.865E-04 0.437E-04 0.309E+01   0.333E-05 0.888E-07 -.173E+00
   -.284E-04 0.262E+00 -.156E+04   0.291E-04 -.282E+00 0.156E+04   -.170E-05 0.174E-01 -.457E+01   0.101E-05 -.158E-04 0.163E+00
   -.852E-01 0.408E-04 -.156E+04   0.562E-01 -.442E-04 0.156E+04   0.391E-01 0.316E-06 -.456E+01   0.297E-04 0.118E-05 0.163E+00
   0.167E-04 -.777E-05 -.513E+03   -.147E-04 0.937E-05 0.512E+03   -.787E-06 0.624E-06 0.210E+00   -.654E-06 0.459E-06 0.519E-01
   -.899E-01 0.193E+00 -.512E+03   0.871E-01 -.198E+00 0.512E+03   0.625E-02 0.541E-02 0.259E+00   0.610E-05 -.270E-05 0.519E-01
   0.107E-04 -.135E-01 0.512E+03   -.939E-05 0.193E-01 -.512E+03   0.891E-07 -.679E-02 -.786E-01   -.975E-06 -.191E-07 -.708E-01
   -.109E+00 -.510E-05 0.512E+03   0.983E-01 0.417E-05 -.512E+03   0.119E-01 -.910E-06 -.748E-01   0.328E-05 0.190E-05 -.708E-01
   0.314E-05 -.132E-06 0.155E+04   -.223E-05 0.359E-06 -.156E+04   0.712E-06 0.195E-06 0.309E+01   -.953E-06 -.694E-06 -.173E+00
   -.150E-01 -.153E-01 0.155E+04   0.150E-01 0.153E-01 -.156E+04   0.874E-04 -.445E-04 0.309E+01   0.327E-05 -.200E-05 -.173E+00
   -.529E-06 -.262E+00 -.156E+04   0.491E-06 0.282E+00 0.156E+04   -.183E-05 -.174E-01 -.457E+01   0.121E-05 0.151E-04 0.163E+00
   -.342E+00 -.592E-05 -.156E+04   0.298E+00 0.308E-05 0.156E+04   0.697E-01 0.283E-05 -.450E+01   0.116E-04 0.404E-06 0.163E+00
   0.116E-04 0.934E-05 -.512E+03   -.914E-05 -.986E-05 0.511E+03   -.218E-05 -.411E-06 0.265E+00   -.101E-06 -.483E-06 0.518E-01
   -.899E-01 -.193E+00 -.512E+03   0.871E-01 0.198E+00 0.512E+03   0.625E-02 -.542E-02 0.259E+00   0.593E-05 0.205E-05 0.519E-01
   -.115E-04 0.119E+00 0.512E+03   0.129E-04 -.110E+00 -.512E+03   -.657E-06 -.111E-01 -.805E-01   -.431E-06 0.161E-05 -.708E-01
   -.406E-03 0.414E-05 0.512E+03   -.422E-02 -.104E-04 -.512E+03   0.561E-02 0.342E-06 -.728E-01   -.225E-05 0.311E-05 -.708E-01
   -.847E-06 0.188E-05 0.155E+04   0.137E-05 -.274E-05 -.156E+04   -.548E-06 0.491E-06 0.309E+01   0.490E-07 0.925E-06 -.173E+00
   0.150E-01 0.153E-01 0.155E+04   -.150E-01 -.153E-01 -.156E+04   -.868E-04 0.455E-04 0.309E+01   -.310E-05 0.701E-06 -.173E+00
   -.492E-04 0.388E+00 -.156E+04   0.531E-04 -.381E+00 0.156E+04   -.106E-05 -.178E-01 -.444E+01   -.125E-05 0.401E-05 0.163E+00
   0.853E-01 0.548E-04 -.156E+04   -.563E-01 -.537E-04 0.156E+04   -.391E-01 0.207E-05 -.456E+01   -.315E-04 -.280E-05 0.163E+00
   -.228E-04 0.126E-04 -.512E+03   0.243E-04 -.146E-04 0.511E+03   -.200E-05 0.116E-05 0.262E+00   -.224E-06 0.153E-05 0.518E-01
   0.899E-01 0.193E+00 -.512E+03   -.872E-01 -.198E+00 0.512E+03   -.625E-02 0.542E-02 0.259E+00   -.635E-05 -.156E-05 0.519E-01
   -.893E-05 -.119E+00 0.512E+03   0.799E-05 0.110E+00 -.512E+03   -.144E-06 0.111E-01 -.805E-01   0.177E-05 -.307E-05 -.708E-01
   0.109E+00 -.400E-05 0.512E+03   -.983E-01 0.693E-05 -.512E+03   -.119E-01 -.195E-05 -.748E-01   -.350E-05 0.886E-06 -.708E-01
   -.170E-05 -.230E-05 0.155E+04   0.235E-05 0.266E-05 -.156E+04   -.730E-06 -.558E-06 0.309E+01   -.178E-07 -.403E-06 -.173E+00
   0.150E-01 -.153E-01 0.155E+04   -.150E-01 0.153E-01 -.156E+04   -.869E-04 -.438E-04 0.309E+01   -.151E-05 -.227E-05 -.173E+00
   -.272E-04 -.388E+00 -.156E+04   0.280E-04 0.381E+00 0.156E+04   0.118E-05 0.178E-01 -.444E+01   -.944E-06 -.350E-05 0.163E+00
   0.342E+00 0.589E-05 -.156E+04   -.298E+00 -.496E-05 0.156E+04   -.697E-01 0.203E-05 -.450E+01   -.115E-04 -.145E-05 0.163E+00
   -.282E-04 -.150E-04 -.514E+03   0.311E-04 0.138E-04 0.514E+03   -.265E-05 0.872E-06 0.122E+00   -.847E-06 -.358E-06 0.520E-01
   0.899E-01 -.193E+00 -.512E+03   -.871E-01 0.198E+00 0.512E+03   -.624E-02 -.541E-02 0.259E+00   -.863E-05 0.945E-06 0.519E-01
   -.189E-05 -.295E-05 0.194E+02   -.423E-12 0.411E-12 -.119E-11   0.635E-05 0.713E-05 -.159E+02   -.446E-05 -.127E-07 -.591E+00

 POSITION                                       TOTAL-FORCE (eV/Angst)
      0.00000      6.33074      7.50000        -0.000000      0.000070      0.502927
      2.11025      0.00000      7.50000        -0.000066     -0.000000      0.502619
      0.00000      0.00000      9.61025         0.000001     -0.000000      0.026615
      2.11025      6.33074      9.61025        -0.000142     -0.000112      0.025494
      0.00000      6.33101     11.73493        -0.000000     -0.001157      0.054626
      2.11019      8.44098     11.73480        -0.002387     -0.000001      0.049434
      0.00000      8.44098     13.84039         0.000001     -0.000000     -0.114659
      2.11123      6.33156     13.83748        -0.024527     -0.004236     -0.108490
      0.00000      2.11025      7.50000        -0.000000     -0.000070      0.502926
      2.11025      4.22049      7.50000         0.000099      0.000000      0.502620
      0.00000      4.22049      9.61025        -0.000000      0.000001      0.027869
      2.11025      2.11025      9.61025        -0.000143      0.000112      0.025491
      0.00000      2.10997     11.73493        -0.000001      0.001157      0.054628
      2.11116      4.22049     11.73519        -0.001055     -0.000001      0.054212
      0.00000      4.22049     13.83673         0.000001     -0.000000     -0.091773
      2.11123      2.10942     13.83748        -0.024525      0.004237     -0.108482
      4.22049      6.33074      7.50000         0.000000     -0.000092      0.502881
      6.33074      0.00000      7.50000         0.000066     -0.000000      0.502621
      4.22049      0.00000      9.61025         0.000001     -0.000001      0.026831
      6.33074      6.33074      9.61025         0.000142     -0.000112      0.025494
      4.22049      6.32990     11.73580         0.000002     -0.001563      0.038764
      6.33080      0.00000     11.73480         0.002386     -0.000001      0.049435
      4.22049      8.44098     13.83827         0.000001      0.000000     -0.117903
      6.32976      6.33156     13.83748         0.024525     -0.004236     -0.108486
      4.22049      2.11025      7.50000         0.000000      0.000091      0.502880
      6.33074      4.22049      7.50000        -0.000098      0.000000      0.502620
      4.22049      4.22049      9.61025         0.000000      0.000000      0.029562
      6.33074      2.11025      9.61025         0.000142      0.000111      0.025493
      4.22049      2.11108     11.73580         0.000001      0.001563      0.038762
      6.32982      4.22049     11.73519         0.001053      0.000000      0.054217
      4.22049      4.22049     13.84960        -0.000000     -0.000001     -0.203685
      6.32976      2.10942     13.83748         0.024525      0.004237     -0.108479
      0.00000      6.33074      9.61025        -0.000002      0.002264      0.082194
      2.11025      0.00000      9.61025        -0.002019     -0.000003      0.083603
      0.00000      0.00000      7.50000         0.000001      0.000000     -0.424224
      2.11025      6.33074      7.50000         0.000046      0.000004     -0.424070
      0.00000      6.33109     13.88591        -0.000000      0.000406     -0.139482
      2.10974      0.00000     13.88667         0.017434     -0.000002     -0.138238
      0.00000      8.44098     11.73027         0.000000      0.000003     -0.006225
      2.10961      6.33085     11.72905         0.005360      0.001087      0.005309
      0.00000      2.11025      9.61025         0.000000     -0.002268      0.082196
      2.11025      4.22049      9.61025         0.003800     -0.000000      0.084898
      0.00000      4.22049      7.50000         0.000001     -0.000000     -0.424085
      2.11025      2.11025      7.50000         0.000047     -0.000004     -0.424068
      0.00000      2.10989     13.88591        -0.000001     -0.000405     -0.139479
      2.10813      4.22049     13.88636         0.038818      0.000001     -0.123010
      0.00000      4.22049     11.72825        -0.000000     -0.000002      0.009147
      2.10961      2.11014     11.72905         0.005361     -0.001087      0.005312
      4.22049      6.33074      9.61025         0.000000     -0.003625      0.085932
      6.33074      0.00000      9.61025         0.002016     -0.000003      0.083603
      4.22049      0.00000      7.50000        -0.000000      0.000001     -0.424069
      6.33074      6.33074      7.50000        -0.000046      0.000005     -0.424068
      4.22049      6.33193     13.88124         0.000001     -0.014822     -0.089316
      6.33125      0.00000     13.88667        -0.017434      0.000001     -0.138237
      4.22049      8.44098     11.72805        -0.000001      0.000001      0.016153
      6.33138      6.33085     11.72905        -0.005361      0.001087      0.005308
      4.22049      2.11025      9.61025         0.000001      0.003624      0.085932
      6.33074      4.22049      9.61025        -0.003799      0.000001      0.084898
      4.22049      4.22049      7.50000        -0.000000     -0.000001     -0.424559
      6.33074      2.11025      7.50000        -0.000047     -0.000003     -0.424069
      4.22049      2.10905     13.88124         0.000001      0.014822     -0.089312
      6.33285      4.22049     13.88636        -0.038820      0.000002     -0.123012
      4.22049      4.22049     11.73184        -0.000001     -0.000001     -0.007333
      6.33138      2.11014     11.72905        -0.005357     -0.001085      0.005309
    total drift:                                0.000002      0.000004      0.090198

  FREE ENERGIE OF THE ION-ELECTRON SYSTEM (eV)
  free  energy   TOTEN  =      -467.78602558 eV

  energy  without entropy=     -467.78602558  energy(sigma->0) =     -467.78602558