 vasp.6.3.0 20Jan22 (build Dec 25 2023 18:06:01) complex
 executed on        HPECrayEX_GCC date 2024.01.24  07:48:24

 INCAR:
   SYSTEM = MgO-rocksalt
   ISMEAR = 0
   SIGMA = 0.05
   EDIFF = 1E-8
   ALGO = ALL
   ISTART = 0
   IBRION = 5
   POTIM = 0.01
   NFREE = 2
   ISYM = 0
   DIPOL = 0.5 0.5 0.5
   IDIPOL = 3
   LDIPOL = .TRUE.
   GGA = RE
   AGGAC = 0.0
   LUSE_VDW = .TRUE.
   LASPH = .TRUE.
   ENCUT = 600
   PREC = Accurate
   LASPH = .TRUE.
   LREAL = .FALSE.
   ISPIN = 1
   NELM = 200
   NELMIN = 8
   NCORE = 8
   KPAR = 1
   LWAVE = .FALSE.
   LCHARG = .FALSE.

 POTCAR:    PAW_PBE N 08Apr2002
 POTCAR:    PAW_PBE H 15Jun2001
 POTCAR:    PAW_PBE Ti_pv 07Sep2000
 POTCAR:    PAW_PBE O 08Apr2002
|               ----> ADVICE to this user running VASP <----                  |
|     You have switched on vdW-DFT.                                           |
|     This routine was written and supplied by Jiri Klimes. We recommend      |
|     that you carefully read and cite the following publications:            |
|       J. Klimes, D.R. Bowler, A. Michelides                                 |
|          J. Phys.: Cond Matt. 22 022201 (2010)                              |
|       J. Klimes, D.R. Bowler, A. Michelides                                 |
|          Phys. Rev. B. 83, 195131 (2011)                                    |
|     and references therein.                                                 |

   TITEL  = PAW_PBE N 08Apr2002
   POMASS =   14.001; ZVAL   =    5.000    mass and valenz
   ENMAX  =  400.000; ENMIN  =  300.000 eV

   TITEL  = PAW_PBE H 15Jun2001
   POMASS =    1.000; ZVAL   =    1.000    mass and valenz
   ENMAX  =  250.000; ENMIN  =  200.000 eV

   TITEL  = PAW_PBE Ti_pv 07Sep2000
   POMASS =   47.880; ZVAL   =   10.000    mass and valenz
   ENMAX  =  222.335; ENMIN  =  166.751 eV

   TITEL  = PAW_PBE O 08Apr2002
   POMASS =   16.000; ZVAL   =    6.000    mass and valenz
   ENMAX  =  400.000; ENMIN  =  300.000 eV

  PAW_PBE N 08Apr2002                   :
  PAW_PBE H 15Jun2001                   :
  PAW_PBE Ti_pv 07Sep2000               :
  PAW_PBE O 08Apr2002                   :

 POSCAR:  N  H Ti  O
  positions in direct lattice
 exchange correlation table for  LEXCH =       40
   RHO(1)=    0.500       N(1)  =     2000
   RHO(2)=  100.500       N(2)  =     4000

 ion  position               nearest neighbor table
   1  0.600  0.500  0.783-   2 1.02   3 1.02   4 1.02  52 2.35
   2  0.532  0.500  0.809-   1 1.02
   3  0.657  0.429  0.788-   1 1.02
   4  0.657  0.571  0.788-   1 1.02
   5  0.815  0.833  0.293-  55 1.97  89 1.97  57 1.97  54 2.02  56 2.02  22 3.11   6 3.11   8 3.11

   6  0.599  0.667  0.325-  53 1.97 120 1.97  56 1.97  58 1.97  59 2.02  57 2.02  37 3.11   5 3.11
                             7 3.11  11 3.15
   7  0.315  0.667  0.293-  59 1.97 125 1.97  61 1.97  53 2.02  60 2.02  40 3.11   8 3.11   6 3.11

   8  0.099  0.833  0.325-  54 1.97  92 1.97  60 1.97  62 1.97  55 2.02  61 2.02  23 3.11   7 3.11
                             5 3.11   9 3.15
   9  0.949  0.833  0.422-  63 1.95  97 1.96  65 1.96  64 2.01  55 2.01  62 2.04  12 3.05  26 3.10
                            10 3.10   8 3.15
  10  0.730  0.666  0.451-  58 1.91 128 1.96  64 1.97  66 2.00  67 2.01  65 2.03  11 3.06   9 3.10
                            41 3.11
  11  0.448  0.666  0.422-  67 1.95 133 1.96  69 1.96  59 2.01  68 2.01  58 2.04  10 3.06  12 3.11
                            44 3.11   6 3.15
  12  0.229  0.833  0.451-  62 1.91 100 1.97  68 1.97  63 2.00  70 2.01  69 2.04   9 3.05  27 3.11
                            11 3.11
  13  0.088  0.833  0.551-  71 1.95 105 1.96  73 1.96  72 2.00  70 2.04  63 2.05  16 3.00  14 3.10
                            30 3.11
  14  0.866  0.666  0.576-  66 1.88 136 1.96  75 1.98  72 1.98  73 2.04  74 2.05  15 3.02  13 3.10
                            45 3.11
  15  0.587  0.666  0.550- 141 1.96  75 1.96  77 1.96  76 2.00  67 2.03  66 2.05  14 3.02  16 3.11
                            48 3.12
  16  0.365  0.833  0.577-  70 1.88 108 1.97  76 1.97  71 1.98  78 2.04  77 2.05  13 3.00  15 3.11
                            31 3.11
  17  0.231  0.833  0.683-  79 1.88  81 1.95 113 1.97  80 2.02  78 2.13  71 2.15  20 2.89  34 3.12
                            18 3.14
  18  0.001  0.666  0.702-  74 1.79  82 1.86 144 2.00  80 2.02  81 2.09  19 2.90  17 3.14  49 3.15

[...]

  21  0.815  0.167  0.293-  87 1.97  89 1.97 121 1.97  86 2.02  88 2.02  22 3.11  38 3.11  24 3.11

[...]

  37  0.815  0.500  0.293- 119 1.97  57 1.97 121 1.97 120 2.02 118 2.02   6 3.11  38 3.11  40 3.11

  38  0.599  0.333  0.325- 117 1.97 120 1.97  88 1.97 122 1.97 121 2.02 123 2.02  37 3.11  21 3.11
                            39 3.11  43 3.15
  39  0.315  0.333  0.293- 123 1.97 125 1.97  93 1.97 124 2.02 117 2.02  40 3.11  24 3.11  38 3.11

  40  0.099  0.500  0.325- 118 1.97  60 1.97 124 1.97 126 1.97 125 2.02 119 2.02  39 3.11   7 3.11
                            37 3.11  41 3.13
  41  0.950  0.500  0.422- 127 1.95 129 1.96  65 1.96 119 2.01 128 2.02 126 2.02  44 3.05  42 3.11
                            10 3.11  40 3.13
  42  0.730  0.334  0.451- 122 1.91 128 1.96  96 1.97 130 2.00 131 2.01 129 2.03  43 3.06  25 3.10
                            41 3.11
  43  0.448  0.334  0.422- 131 1.95 133 1.96 101 1.96 123 2.01 132 2.01 122 2.04  42 3.06  28 3.11
                            44 3.11  38 3.15
  44  0.229  0.500  0.452- 126 1.94  68 1.97 132 1.97 127 1.98 134 2.01 133 2.05  41 3.05  11 3.11
                            43 3.11  45 3.14
  45  0.091  0.500  0.551- 135 1.93  73 1.96 137 1.96 134 2.01 136 2.03 127 2.06  48 3.00  46 3.11
                            14 3.11  44 3.14
  46  0.866  0.334  0.576- 130 1.88 136 1.96 139 1.98 104 1.98 137 2.04 138 2.05  47 3.02  29 3.10
                            45 3.11
  47  0.587  0.334  0.550- 141 1.96 139 1.96 109 1.96 140 2.00 131 2.03 130 2.05  46 3.02  32 3.11
                            48 3.12
  48  0.366  0.500  0.580- 134 1.93 135 1.97  76 1.97 140 1.97 142 2.03 141 2.06  45 3.00  47 3.12
                            15 3.12
  49  0.235  0.500  0.684- 143 1.87 145 1.96  81 1.96 144 2.06 142 2.07 135 2.16  52 2.92  18 3.15
                            50 3.15
  50  0.001  0.334  0.702- 138 1.79 146 1.86 144 2.00 112 2.02 145 2.09  51 2.90  33 3.14  49 3.15

  51  0.730  0.333  0.680- 146 1.90 116 1.96 148 1.96 147 2.02 139 2.09 138 2.13  50 2.90  36 3.13
                            52 3.13
  52  0.506  0.500  0.707- 143 1.87 142 1.89  83 2.01 147 2.01 148 2.09   1 2.35  49 2.92  19 3.13
                            51 3.13
  53  0.494  0.667  0.267-   6 1.97   7 2.02
  54  0.994  0.833  0.267-   8 1.97   5 2.02
  55  0.919  0.833  0.351-   5 1.97   9 2.01   8 2.02
  56  0.636  0.833  0.320-  22 1.97   6 1.97   5 2.02
  57  0.778  0.667  0.299-  37 1.97   5 1.97   6 2.02
  58  0.628  0.667  0.394-  10 1.91   6 1.97  11 2.04
  59  0.419  0.667  0.351-   7 1.97  11 2.01   6 2.02
  60  0.136  0.667  0.320-  40 1.97   8 1.97   7 2.02
  61  0.278  0.833  0.299-  23 1.97   7 1.97   8 2.02
  62  0.128  0.833  0.394-  12 1.91   8 1.97   9 2.04
  63  0.054  0.833  0.479-   9 1.95  12 2.00  13 2.05
  64  0.769  0.833  0.447-  26 1.97  10 1.97   9 2.01
  65  0.912  0.667  0.426-   9 1.96  41 1.96  10 2.03
  66  0.765  0.667  0.521-  14 1.88  10 2.00  15 2.05
  67  0.554  0.666  0.479-  11 1.95  10 2.01  15 2.03
  68  0.269  0.667  0.447-  44 1.97  12 1.97  11 2.01
  69  0.411  0.833  0.426-  27 1.96  11 1.96  12 2.04
  70  0.265  0.833  0.521-  16 1.88  12 2.01  13 2.04
  71  0.195  0.833  0.607-  13 1.95  16 1.98  17 2.15
  72  0.907  0.833  0.574-  30 1.97  14 1.98  13 2.00
  73  0.051  0.666  0.554-  13 1.96  45 1.96  14 2.04
  74  0.913  0.667  0.647-  18 1.79  14 2.05  19 2.13
  75  0.696  0.667  0.607-  15 1.96  14 1.98  19 2.09
  76  0.407  0.666  0.575-  48 1.97  16 1.97  15 2.00
  77  0.550  0.833  0.554-  15 1.96  31 1.96  16 2.05
  78  0.411  0.835  0.647-  20 1.79  16 2.04  17 2.13
  79  0.348  0.833  0.734-  20 1.86  17 1.88
  80  0.053  0.833  0.710-  34 2.01  18 2.02  17 2.02
  81  0.194  0.666  0.683-  17 1.95  49 1.96  18 2.09
  82  0.844  0.665  0.733-  18 1.86  19 1.90
  83  0.554  0.669  0.709-  20 1.99  52 2.01  19 2.02
  84  0.695  0.834  0.681-  35 1.95  19 1.96  20 2.09
  85  0.494  0.000  0.267-  22 1.97  23 2.02
  86  0.994  0.167  0.267-  24 1.97  21 2.02
  87  0.919  0.167  0.351-  21 1.97  25 2.01  24 2.02
  88  0.636  0.167  0.320-  22 1.97  38 1.97  21 2.02
  89  0.778  0.000  0.299-   5 1.97  21 1.97  22 2.02
  90  0.628  0.000  0.394-  26 1.91  22 1.97  27 2.04
  91  0.419  0.000  0.351-  23 1.97  27 2.01  22 2.02
  92  0.136  0.000  0.320-   8 1.97  24 1.97  23 2.02
  93  0.278  0.167  0.299-  23 1.97  39 1.97  24 2.02
  94  0.128  0.167  0.394-  28 1.91  24 1.97  25 2.04
  95  0.054  0.167  0.479-  25 1.95  28 2.00  29 2.05
  96  0.769  0.167  0.447-  26 1.97  42 1.97  25 2.01
  97  0.912  0.000  0.426-  25 1.96   9 1.96  26 2.04
  98  0.765  0.000  0.521-  30 1.88  26 2.01  31 2.04
  99  0.554  1.000  0.479-  27 1.95  26 2.00  31 2.04
 100  0.269  0.000  0.447-  12 1.97  28 1.97  27 2.01
 101  0.411  0.167  0.426-  27 1.96  43 1.96  28 2.04
 102  0.265  0.167  0.521-  32 1.88  28 2.01  29 2.04
 103  0.195  0.167  0.607-  29 1.95  32 1.98  33 2.15
 104  0.907  0.167  0.574-  30 1.97  46 1.98  29 2.00
 105  0.051  0.000  0.554-  29 1.96  13 1.96  30 2.06
 106  0.912  1.000  0.647-  34 1.80  30 2.05  35 2.12
 107  0.696  1.000  0.607-  31 1.95  30 1.97  35 2.15
 108  0.407  1.000  0.574-  32 1.97  16 1.97  31 2.00
 109  0.550  0.167  0.554-  47 1.96  31 1.96  32 2.05
 110  0.411  0.165  0.647-  36 1.79  32 2.04  33 2.13
 111  0.348  0.167  0.734-  36 1.86  33 1.88
 112  0.053  0.167  0.710-  34 2.01  50 2.02  33 2.02
[...]
 134  0.266  0.500  0.522-  48 1.93  45 2.01  44 2.01
 135  0.195  0.500  0.608-  45 1.93  48 1.97  49 2.16
 136  0.907  0.500  0.574-  46 1.96  14 1.96  45 2.03
 137  0.051  0.334  0.554-  29 1.96  45 1.96  46 2.04
 138  0.913  0.333  0.647-  50 1.79  46 2.05  51 2.13
 139  0.696  0.333  0.607-  47 1.96  46 1.98  51 2.09
 140  0.407  0.334  0.575-  48 1.97  32 1.97  47 2.00
 141  0.551  0.500  0.555-  47 1.96  15 1.96  48 2.06
 142  0.411  0.500  0.650-  52 1.89  48 2.03  49 2.07
 143  0.345  0.500  0.736-  49 1.87  52 1.87
 144  0.052  0.500  0.710-  18 2.00  50 2.00  49 2.06
 145  0.194  0.334  0.683-  33 1.95  49 1.96  50 2.09
 146  0.844  0.335  0.733-  50 1.86  51 1.90
 147  0.554  0.331  0.709-  36 1.99  52 2.01  51 2.02
 148  0.692  0.500  0.681-  19 1.96  51 1.96  52 2.09

IMPORTANT INFORMATION: All symmetrisations will be switched off!
NOSYMM: (Re-)initialisation of all symmetry stuff for point group C_1.

                                     Primitive cell

  volume of cell :    3395.7474

  direct lattice vectors                    reciprocal lattice vectors
    10.494937820  0.000000000  0.000000000     0.095284033 -0.000000000  0.000000000
     0.000000000 11.517876715  0.000000000     0.000000000  0.086821558  0.000000000
     0.000000000  0.000000000 28.092027652     0.000000000  0.000000000  0.035597288

  length of vectors
[...]

 Eigenvectors and eigenvalues of the dynamical matrix

   1 f  =  104.209768 THz   654.769281 2PiTHz 3476.063685 cm-1   430.976775 meV
             X         Y         Z           dx          dy          dz
      6.295829  5.758848 21.991633     0.254802   -0.011593   -0.124848
      5.586472  5.758935 22.726336    -0.566028   -0.000632    0.577215
      6.891698  4.938708 22.124788    -0.211375    0.324073   -0.057333
      6.891754  6.579237 22.124814    -0.178706   -0.279839   -0.050544
      8.554040  9.598231  8.239614            0           0           0
      6.281431  7.678584  9.132906            0           0           0
      3.306571  7.678584  8.239614            0           0           0
      1.033962  9.598231  9.132906            0           0           0
      9.957363  9.598839 11.858367            0           0           0
      7.658650  7.674038 12.661790            0           0           0
      4.706405  7.675427 11.855631            0           0           0
      2.403013  9.597402 12.668405            0           0           0
      0.918679  9.598978 15.479021            0           0           0
      9.087282  7.670447 16.182090            0           0           0
      6.156344  7.675947 15.460206            0           0           0
      3.827364  9.598739 16.203556            0           0           0
      2.425816  9.590753 19.180985            0           0           0
      0.005862  7.666032 19.711571            0           0           0
      7.662423  7.680282 19.108065            0           0           0
      5.271869  9.612985 19.701946            0           0           0
      8.554040  1.919646  8.239614            0           0           0
      6.281431  0.000000  9.132906            0           0           0
      3.306571  0.000000  8.239614            0           0           0
      1.033962  1.919646  9.132906            0           0           0
      9.957363  1.919038 11.858368            0           0           0
      7.654004  0.000000 12.661916            0           0           0
      4.706207 11.517877 11.857807            0           0           0
      2.403013  1.920475 12.668405            0           0           0
      0.918678  1.918898 15.479021            0           0           0
      9.076426 11.517877 16.191468            0           0           0
      6.161776 11.517877 15.467814            0           0           0
      3.827364  1.919138 16.203555            0           0           0
      2.425815  1.927123 19.180984            0           0           0
      0.027290 11.517876 19.711183            0           0           0
      7.690840 11.517875 19.160449            0           0           0
      5.271868  1.904890 19.701944            0           0           0
      8.554040  5.758938  8.239614            0           0           0
      6.281431  3.839292  9.132906            0           0           0
      3.306571  3.839292  8.239614            0           0           0
      1.033962  5.758938  9.132906            0           0           0
      9.971794  5.758938 11.852325            0           0           0
      7.658650  3.843839 12.661789            0           0           0
      4.706405  3.842450 11.855631            0           0           0
      2.405097  5.758939 12.695944            0           0           0
      0.950334  5.758939 15.484216            0           0           0
      9.087283  3.847430 16.182089            0           0           0
      6.156343  3.841931 15.460205            0           0           0
      3.842347  5.758939 16.288468            0           0           0
      2.466057  5.758939 19.202489            0           0           0
      0.005861  3.851844 19.711571            0           0           0
      7.662422  3.837592 19.108062            0           0           0
      5.305572  5.758940 19.864992            0           0           0
      5.188209  7.678584  7.500000            0           0           0
     10.435678  9.598231  7.500000            0           0           0
      9.647261  9.598231  9.872520            0           0           0
      6.672401  9.598231  8.979228            0           0           0
      8.163069  7.678584  8.393292            0           0           0
      6.592711  7.678584 11.073169            0           0           0
      4.399792  7.678584  9.872520            0           0           0
      1.424932  7.678584  8.979228            0           0           0
[...]
      2.789745  5.758938 14.671201            0           0           0
      2.043280  5.758939 17.079747            0           0           0
      9.516477  5.758939 16.114062            0           0           0
      0.537927  3.841436 15.557227            0           0           0
      9.577948  3.840531 18.172853            0           0           0
      7.308509  3.831740 17.044834            0           0           0
      4.275515  3.841303 16.152145            0           0           0
      5.781276  5.758938 15.579274            0           0           0
      4.308554  5.758940 18.263666            0           0           0
      3.619020  5.758939 20.668986            0           0           0
      0.546080  5.758938 19.949933            0           0           0
      2.036231  3.841886 19.196639            0           0           0
      8.858361  3.858789 20.581957            0           0           0
      5.809824  3.810863 19.904299            0           0           0
      7.263456  5.758938 19.129200            0           0           0

[...]

  11 f  =    3.401395 THz    21.371596 2PiTHz  113.458330 cm-1    14.067034 meV
             X         Y         Z           dx          dy          dz
      6.295829  5.758848 21.991633    -0.803305   -0.018113    0.283811
      5.586472  5.758935 22.726336    -0.328836   -0.008779   -0.034727
      6.891698  4.938708 22.124788    -0.237038   -0.007304    0.156415
      6.891754  6.579237 22.124814    -0.239071   -0.001993    0.162920
      8.554040  9.598231  8.239614            0           0           0
      6.281431  7.678584  9.132906            0           0           0
      3.306571  7.678584  8.239614            0           0           0
      1.033962  9.598231  9.132906            0           0           0
      9.957363  9.598839 11.858367            0           0           0
      7.658650  7.674038 12.661790            0           0           0
      4.706405  7.675427 11.855631            0           0           0
      2.403013  9.597402 12.668405            0           0           0
      0.918679  9.598978 15.479021            0           0           0
      9.087282  7.670447 16.182090            0           0           0
      6.156344  7.675947 15.460206            0           0           0
      3.827364  9.598739 16.203556            0           0           0
      2.425816  9.590753 19.180985            0           0           0
      0.005862  7.666032 19.711571            0           0           0
      7.662423  7.680282 19.108065            0           0           0
      5.271869  9.612985 19.701946            0           0           0
      8.554040  1.919646  8.239614            0           0           0
      6.281431  0.000000  9.132906            0           0           0
      3.306571  0.000000  8.239614            0           0           0
      1.033962  1.919646  9.132906            0           0           0
      9.957363  1.919038 11.858368            0           0           0
      7.654004  0.000000 12.661916            0           0           0
      4.706207 11.517877 11.857807            0           0           0
      2.403013  1.920475 12.668405            0           0           0
      0.918678  1.918898 15.479021            0           0           0
      9.076426 11.517877 16.191468            0           0           0
      6.161776 11.517877 15.467814            0           0           0
      3.827364  1.919138 16.203555            0           0           0
      2.425815  1.927123 19.180984            0           0           0
      0.027290 11.517876 19.711183            0           0           0
      7.690840 11.517875 19.160449            0           0           0
      5.271868  1.904890 19.701944            0           0           0
      8.554040  5.758938  8.239614            0           0           0
      6.281431  3.839292  9.132906            0           0           0
      3.306571  3.839292  8.239614            0           0           0
      1.033962  5.758938  9.132906            0           0           0
      9.971794  5.758938 11.852325            0           0           0
      7.658650  3.843839 12.661789            0           0           0
      4.706405  3.842450 11.855631            0           0           0
      2.405097  5.758939 12.695944            0           0           0
      0.950334  5.758939 15.484216            0           0           0
      9.087283  3.847430 16.182089            0           0           0
      6.156343  3.841931 15.460205            0           0           0
      3.842347  5.758939 16.288468            0           0           0
      2.466057  5.758939 19.202489            0           0           0
      0.005861  3.851844 19.711571            0           0           0
      7.662422  3.837592 19.108062            0           0           0
      5.305572  5.758940 19.864992            0           0           0
      5.188209  7.678584  7.500000            0           0           0
     10.435678  9.598231  7.500000            0           0           0
      9.647261  9.598231  9.872520            0           0           0
      6.672401  9.598231  8.979228            0           0           0
      8.163069  7.678584  8.393292            0           0           0
      6.592711  7.678584 11.073169            0           0           0
      4.399792  7.678584  9.872520            0           0           0
      1.424932  7.678584  8.979228            0           0           0
[...]
      2.789745  5.758938 14.671201            0           0           0
      2.043280  5.758939 17.079747            0           0           0
      9.516477  5.758939 16.114062            0           0           0
      0.537927  3.841436 15.557227            0           0           0
      9.577948  3.840531 18.172853            0           0           0
      7.308509  3.831740 17.044834            0           0           0
      4.275515  3.841303 16.152145            0           0           0
      5.781276  5.758938 15.579274            0           0           0
      4.308554  5.758940 18.263666            0           0           0
      3.619020  5.758939 20.668986            0           0           0
      0.546080  5.758938 19.949933            0           0           0
      2.036231  3.841886 19.196639            0           0           0
      8.858361  3.858789 20.581957            0           0           0
      5.809824  3.810863 19.904299            0           0           0
      7.263456  5.758938 19.129200            0           0           0

  12 f/i=    2.769227 THz    17.399568 2PiTHz   92.371478 cm-1    11.452598 meV
             X         Y         Z           dx          dy          dz
      6.295829  5.758848 21.991633    -0.005781    0.149444    0.002850
      5.586472  5.758935 22.726336    -0.003278    0.615844   -0.000954
      6.891698  4.938708 22.124788    -0.439529   -0.239020    0.227590
      6.891754  6.579237 22.124814     0.435256   -0.238489   -0.223409
      8.554040  9.598231  8.239614            0           0           0
      6.281431  7.678584  9.132906            0           0           0
      3.306571  7.678584  8.239614            0           0           0
      1.033962  9.598231  9.132906            0           0           0
      9.957363  9.598839 11.858367            0           0           0
      7.658650  7.674038 12.661790            0           0           0
      4.706405  7.675427 11.855631            0           0           0
      2.403013  9.597402 12.668405            0           0           0
      0.918679  9.598978 15.479021            0           0           0
      9.087282  7.670447 16.182090            0           0           0
      6.156344  7.675947 15.460206            0           0           0
      3.827364  9.598739 16.203556            0           0           0
      2.425816  9.590753 19.180985            0           0           0
      0.005862  7.666032 19.711571            0           0           0
      7.662423  7.680282 19.108065            0           0           0
      5.271869  9.612985 19.701946            0           0           0
      8.554040  1.919646  8.239614            0           0           0
      6.281431  0.000000  9.132906            0           0           0
      3.306571  0.000000  8.239614            0           0           0
      1.033962  1.919646  9.132906            0           0           0
      9.957363  1.919038 11.858368            0           0           0
      7.654004  0.000000 12.661916            0           0           0
      4.706207 11.517877 11.857807            0           0           0
      2.403013  1.920475 12.668405            0           0           0
      0.918678  1.918898 15.479021            0           0           0
      9.076426 11.517877 16.191468            0           0           0
      6.161776 11.517877 15.467814            0           0           0
      3.827364  1.919138 16.203555            0           0           0
      2.425815  1.927123 19.180984            0           0           0
      0.027290 11.517876 19.711183            0           0           0
      7.690840 11.517875 19.160449            0           0           0
      5.271868  1.904890 19.701944            0           0           0
      8.554040  5.758938  8.239614            0           0           0
      6.281431  3.839292  9.132906            0           0           0
      3.306571  3.839292  8.239614            0           0           0
      1.033962  5.758938  9.132906            0           0           0
      9.971794  5.758938 11.852325            0           0           0
      7.658650  3.843839 12.661789            0           0           0
      4.706405  3.842450 11.855631            0           0           0
      2.405097  5.758939 12.695944            0           0           0
      0.950334  5.758939 15.484216            0           0           0
      9.087283  3.847430 16.182089            0           0           0
      6.156343  3.841931 15.460205            0           0           0
      3.842347  5.758939 16.288468            0           0           0
      2.466057  5.758939 19.202489            0           0           0
      0.005861  3.851844 19.711571            0           0           0
      7.662422  3.837592 19.108062            0           0           0
      5.305572  5.758940 19.864992            0           0           0
      5.188209  7.678584  7.500000            0           0           0
     10.435678  9.598231  7.500000            0           0           0
      9.647261  9.598231  9.872520            0           0           0
      6.672401  9.598231  8.979228            0           0           0
      8.163069  7.678584  8.393292            0           0           0
      6.592711  7.678584 11.073169            0           0           0
      4.399792  7.678584  9.872520            0           0           0
      1.424932  7.678584  8.979228            0           0           0
[...]
      2.789745  5.758938 14.671201            0           0           0
      2.043280  5.758939 17.079747            0           0           0
      9.516477  5.758939 16.114062            0           0           0
      0.537927  3.841436 15.557227            0           0           0
      9.577948  3.840531 18.172853            0           0           0
      7.308509  3.831740 17.044834            0           0           0
      4.275515  3.841303 16.152145            0           0           0
      5.781276  5.758938 15.579274            0           0           0
      4.308554  5.758940 18.263666            0           0           0
      3.619020  5.758939 20.668986            0           0           0
      0.546080  5.758938 19.949933            0           0           0
      2.036231  3.841886 19.196639            0           0           0
      8.858361  3.858789 20.581957            0           0           0
      5.809824  3.810863 19.904299            0           0           0
      7.263456  5.758938 19.129200            0           0           0

 Finite differences POTIM=   1.0000000000000000E-002