 vasp.6.3.0 20Jan22 (build Apr  1 2022 16:44:48) complex
 executed on        HPECrayEX_GCC date 2022.10.25  00:23:29

 INCAR:
   SYSTEM = MgO-rocksalt
   ISMEAR = 0
   SIGMA = 0.05
   EDIFF = 1E-6
   ALGO = ALL
   ISTART = 0
   IBRION = -1
   NSW = 0
   ISYM = 0
   DIPOL = 0.5 0.5 0.5
   IDIPOL = 3
   LDIPOL = .TRUE.
   LHFCALC = .TRUE.
   GGA = B5
   AEXX = 0.2
   AGGAX = 0.72
   AGGAC = 0.81
   ALDAC = 0.19
   IVDW = 1
   VDW_S6 = 1.05
   VDW_C6 = 1.75 0.14 0.63 0.70
   VDW_R0 = 1.452 1.001 1.243 1.342
   ENCUT = 600
   PREC = Accurate
   LASPH = .TRUE.
   LREAL = .FALSE.
   ISPIN = 1
   NELM = 200
   NELMIN = 8
   NCORE = 8
   KPAR = 1
   LWAVE = .FALSE.
   LCHARG = .FALSE.

 POTCAR:    PAW_PBE C 08Apr2002
 POTCAR:    PAW_PBE H 15Jun2001
 POTCAR:    PAW_PBE Mg_pv 13Apr2007
 POTCAR:    PAW_PBE O 08Apr2002
 POTCAR:    PAW_PBE C 08Apr2002
   VRHFIN =C: s2p2

   TITEL  = PAW_PBE C 08Apr2002
   POMASS =   12.011; ZVAL   =    4.000    mass and valenz
   ENMAX  =  400.000; ENMIN  =  300.000 eV

   TITEL  = PAW_PBE H 15Jun2001
   POMASS =    1.000; ZVAL   =    1.000    mass and valenz
   ENMAX  =  250.000; ENMIN  =  200.000 eV

   TITEL  = PAW_PBE Mg_pv 13Apr2007
   POMASS =   24.305; ZVAL   =    8.000    mass and valenz
   ENMAX  =  403.929; ENMIN  =  302.947 eV

   TITEL  = PAW_PBE O 08Apr2002
   POMASS =   16.000; ZVAL   =    6.000    mass and valenz
   ENMAX  =  400.000; ENMIN  =  300.000 eV

  PAW_PBE C 08Apr2002                   :
  PAW_PBE H 15Jun2001                   :
  PAW_PBE Mg_pv 13Apr2007               :
  PAW_PBE O 08Apr2002                   :

 POSCAR:  C  H Mg  O
  positions in direct lattice
 exchange correlation table for  LEXCH =       12
   RHO(1)=    0.500       N(1)  =     2000
   RHO(2)=  100.500       N(2)  =     4000

 ion  position               nearest neighbor table
   1  0.508  0.498  0.793-   5 1.09   4 1.09   3 1.09   2 1.52
   2  0.678  0.499  0.818-   6 1.09   8 1.09   7 1.09   1 1.52
   3  0.486  0.392  0.764-   1 1.09
   4  0.483  0.605  0.765-   1 1.09
   5  0.419  0.495  0.831-   1 1.09
   6  0.764  0.500  0.780-   2 1.09
   7  0.702  0.394  0.847-   2 1.09
   8  0.700  0.605  0.847-   2 1.09
   9  0.250  0.000  0.353-  43 2.09  44 2.09  60 2.09  41 2.09  51 2.09
  10  0.500  0.250  0.353-  59 2.09  44 2.09  52 2.09  43 2.09  42 2.09
  11  0.250  0.250  0.451-  41 2.09  42 2.09  49 2.09  58 2.09  43 2.09  47 2.10
  12  0.500  0.000  0.451-  57 2.09  42 2.09  41 2.09  44 2.09  50 2.09  48 2.10
  13  0.250  0.000  0.550-  47 2.09  55 2.09  48 2.09  64 2.09  41 2.10  45 2.12
  14  0.500  0.250  0.550-  56 2.09  63 2.09  47 2.09  48 2.09  42 2.10  46 2.12
  15  0.250  0.250  0.647-  47 2.08  62 2.09  53 2.09  45 2.09  46 2.09
  16  0.500  1.000  0.647-  48 2.08  54 2.08  46 2.08  45 2.09  61 2.09
  17  0.250  0.500  0.353-  51 2.09  43 2.09  52 2.09  68 2.09  49 2.09
  18  0.500  0.750  0.353-  52 2.09  67 2.09  51 2.09  50 2.09  44 2.09
  19  0.250  0.750  0.451-  49 2.09  50 2.09  66 2.09  51 2.09  41 2.09  55 2.10
  20  0.500  0.500  0.451-  50 2.09  65 2.09  42 2.09  49 2.09  52 2.09  56 2.10
  21  0.250  0.500  0.550-  56 2.09  55 2.09  47 2.09  72 2.09  49 2.10  53 2.12
  22  0.500  0.750  0.550-  56 2.09  71 2.09  55 2.09  48 2.09  50 2.10  54 2.12
  23  0.250  0.750  0.647-  55 2.08  70 2.09  53 2.09  45 2.09  54 2.09
  24  0.500  0.500  0.648-  53 2.09  54 2.09  46 2.09  69 2.09  56 2.09
  25  0.750  0.000  0.353-  44 2.09  59 2.09  57 2.09  60 2.09  67 2.09
  26  0.000  0.250  0.353-  43 2.09  60 2.09  68 2.09  58 2.09  59 2.09
  27  0.750  0.250  0.451-  42 2.09  57 2.09  65 2.09  59 2.09  58 2.09  63 2.10
  28  0.000  0.000  0.451-  41 2.09  58 2.09  60 2.09  57 2.09  66 2.09  64 2.10
  29  0.750  0.000  0.550-  71 2.09  63 2.09  48 2.09  64 2.09  57 2.10  61 2.12
  30  1.000  0.250  0.550-  72 2.09  63 2.09  47 2.09  64 2.09  58 2.10  62 2.12
  31  0.750  0.250  0.647-  63 2.08  62 2.09  61 2.09  69 2.09  46 2.09
  32  1.000  0.000  0.647-  64 2.08  45 2.09  61 2.09  62 2.09  70 2.09
  33  0.750  0.500  0.353-  52 2.09  67 2.09  59 2.09  65 2.09  68 2.09
  34  0.000  0.750  0.353-  68 2.09  51 2.09  66 2.09  67 2.09  60 2.09
  35  0.750  0.750  0.451-  50 2.09  65 2.09  67 2.09  66 2.09  57 2.09  71 2.10
  36  0.000  0.500  0.451-  66 2.09  58 2.09  49 2.09  68 2.09  65 2.09  72 2.09
  37  0.750  0.500  0.550-  56 2.09  71 2.09  63 2.09  72 2.09  65 2.10  69 2.12
  38  1.000  0.750  0.550-  72 2.09  71 2.09  55 2.09  64 2.09  66 2.10  70 2.12
  39  0.750  0.750  0.647-  71 2.08  70 2.09  61 2.09  69 2.09  54 2.09
  40  0.000  0.500  0.647-  72 2.08  53 2.08  69 2.09  70 2.09  62 2.09
  41  0.250  0.000  0.451-  11 2.09  12 2.09  28 2.09   9 2.09  19 2.09  13 2.10
  42  0.500  0.250  0.451-  27 2.09  12 2.09  20 2.09  11 2.09  10 2.09  14 2.10
  43  0.250  0.250  0.353-   9 2.09  10 2.09  17 2.09  26 2.09  11 2.09
  44  0.500  0.000  0.353-  25 2.09  10 2.09   9 2.09  12 2.09  18 2.09
  45  0.250  0.000  0.650-  32 2.09  23 2.09  15 2.09  16 2.09  13 2.12
  46  0.500  0.250  0.650-  16 2.08  31 2.09  15 2.09  24 2.09  14 2.12
  47  0.250  0.250  0.549-  15 2.08  13 2.09  30 2.09  14 2.09  21 2.09  11 2.10
  48  0.500  1.000  0.549-  16 2.08  29 2.09  13 2.09  22 2.09  14 2.09  12 2.10
  49  0.250  0.500  0.451-  19 2.09  11 2.09  20 2.09  36 2.09  17 2.09  21 2.10
  50  0.500  0.750  0.451-  20 2.09  35 2.09  19 2.09  18 2.09  12 2.09  22 2.10
  51  0.250  0.750  0.353-  17 2.09  18 2.09  34 2.09  19 2.09   9 2.09
  52  0.500  0.500  0.353-  18 2.09  33 2.09  10 2.09  17 2.09  20 2.09
  53  0.250  0.500  0.649-  40 2.08  15 2.09  23 2.09  24 2.09  21 2.12
  54  0.500  0.750  0.650-  16 2.08  39 2.09  23 2.09  24 2.09  22 2.12
  55  0.250  0.750  0.549-  23 2.08  13 2.09  38 2.09  22 2.09  21 2.09  19 2.10
  56  0.500  0.500  0.550-  37 2.09  22 2.09  14 2.09  21 2.09  24 2.09  20 2.10
  57  0.750  0.000  0.451-  12 2.09  27 2.09  25 2.09  28 2.09  35 2.09  29 2.10
  58  0.000  0.250  0.451-  11 2.09  28 2.09  36 2.09  26 2.09  27 2.09  30 2.10
  59  0.750  0.250  0.353-  10 2.09  25 2.09  33 2.09  27 2.09  26 2.09
  60  0.000  0.000  0.353-   9 2.09  26 2.09  28 2.09  25 2.09  34 2.09
  61  0.750  0.000  0.650-  31 2.09  39 2.09  32 2.09  16 2.09  29 2.12
  62  1.000  0.250  0.650-  31 2.09  15 2.09  32 2.09  40 2.09  30 2.12
  63  0.750  0.250  0.549-  31 2.08  29 2.09  30 2.09  14 2.09  37 2.09  27 2.10
  64  1.000  0.000  0.549-  32 2.08  29 2.09  38 2.09  30 2.09  13 2.09  28 2.10
  65  0.750  0.500  0.451-  20 2.09  35 2.09  27 2.09  33 2.09  36 2.09  37 2.10
  66  0.000  0.750  0.451-  36 2.09  19 2.09  34 2.09  35 2.09  28 2.09  38 2.10
  67  0.750  0.750  0.353-  18 2.09  33 2.09  35 2.09  34 2.09  25 2.09
  68  0.000  0.500  0.353-  34 2.09  26 2.09  17 2.09  36 2.09  33 2.09
  69  0.750  0.500  0.650-  40 2.09  31 2.09  39 2.09  24 2.09  37 2.12
  70  1.000  0.750  0.650-  39 2.09  23 2.09  32 2.09  40 2.09  38 2.12
  71  0.750  0.750  0.549-  39 2.08  29 2.09  38 2.09  22 2.09  37 2.09  35 2.10
  72  1.000  0.500  0.549-  40 2.08  30 2.09  38 2.09  37 2.09  21 2.09  36 2.09

IMPORTANT INFORMATION: All symmetrisations will be switched off!
NOSYMM: (Re-)initialisation of all symmetry stuff for point group C_1.

                                     Primitive cell

  volume of cell :    1482.1129

  direct lattice vectors                    reciprocal lattice vectors
     8.349111827  0.000000000  0.000000000     0.119773219  0.000000000  0.000000000
     0.000000000  8.349111827  0.000000000     0.000000000  0.119773219  0.000000000
     0.000000000  0.000000000 21.261833870     0.000000000  0.000000000  0.047032632

  length of vectors
     8.349111827  8.349111827 21.261833870     0.119773219  0.119773219  0.047032632

  position of ions in fractional coordinates (direct lattice)
     0.507537818  0.498099688  0.792887862
     0.677622976  0.499462708  0.818181541
     0.486145123  0.392436952  0.763563487
     0.483153188  0.605305104  0.764827253
     0.418716394  0.495341311  0.830576050
     0.764003421  0.500420893  0.779612431
     0.701857889  0.394051495  0.847072276
     0.700024161  0.604957761  0.847252411
     0.250000245  0.000000000  0.352744737
     0.500000489  0.250000245  0.352744737
     0.250000245  0.250000245  0.450915008
     0.500000489  0.000000000  0.450915008
     0.250008629  0.000003593  0.549732919
     0.499984919  0.250161939  0.549800176
     0.249803817  0.250039770  0.647312931
     0.499962162  0.999998583  0.647322337
     0.250000245  0.500000489  0.352744737
     0.500000489  0.749999536  0.352744737
     0.250000245  0.749999536  0.450915008
     0.500000489  0.500000489  0.450915008
     0.250166730  0.500004083  0.549787477
     0.499984919  0.749846227  0.549799705
     0.249802619  0.749976780  0.647312931
     0.499831609  0.500038817  0.648113426
     0.749999536  0.000000000  0.352744737
     0.000000000  0.250000245  0.352744737
     0.749999536  0.250000245  0.450915008
     0.000000000  0.000000000  0.450915008
     0.749969593  0.000001198  0.549731038
     0.999978222  0.250017013  0.549715517
     0.750085773  0.249952335  0.647328452
     0.999980836  0.000005989  0.647438038
     0.749999536  0.500000489  0.352744737
     0.000000000  0.749999536  0.352744737
     0.749999536  0.749999536  0.450915008
     0.000000000  0.500000489  0.450915008
     0.749809097  0.500005280  0.549809582
     0.999974629  0.749988757  0.549717398
     0.750074994  0.750059423  0.647339269
     0.000155705  0.500006478  0.647242382
     0.250000245  0.000000000  0.450915008
     0.500000489  0.250000245  0.450915008
     0.250000245  0.250000245  0.352744737
     0.500000489  0.000000000  0.352744737
     0.249924788  0.000007186  0.649664092
     0.499964557  0.249636134  0.649658448
     0.249976290  0.249931974  0.549454486
     0.499998094  0.999998802  0.549453075
     0.250000245  0.500000489  0.450915008
     0.500000489  0.749999536  0.450915008
     0.250000245  0.749999536  0.352744737
     0.500000489  0.500000489  0.352744737
     0.249684043  0.500006478  0.649390833
     0.499956173  0.750363647  0.649672558
     0.249976290  0.750074994  0.549455897
     0.500016060  0.500006478  0.549623333
     0.749999536  0.000000000  0.450915008
     0.000000000  0.250000245  0.450915008
     0.749999536  0.250000245  0.352744737
     0.000000000  0.000000000  0.352744737
     0.750015107  0.000007186  0.649657037
     0.999936301  0.250003838  0.649639635
     0.749987559  0.249958324  0.549477532
     0.999979420  0.000002395  0.549485998
     0.749999536  0.500000489  0.450915008
     0.000000000  0.749999536  0.450915008
     0.749999536  0.749999536  0.352744737
     0.000000000  0.500000489  0.352744737
     0.750255851  0.500004083  0.649567675
     0.999935104  0.750007921  0.649642928
     0.749983966  0.750048643  0.549480354
     0.999955684  0.500002885  0.549404161

  ion indices of the primitive-cell ions
   primitive index   ion index
                 1           1
                 2           2
                 3           3
                 4           4
                 5           5
                 6           6
                 7           7
                 8           8
[...]
   6.26183000  0.00000000  7.50000000
   0.00000000  2.08728000  7.50000000
   6.26183000  2.08728000  9.58728000
   0.00000000  0.00000000  9.58728000
   6.26158000  0.00001000 11.68829000
   8.34893000  2.08742000 11.68796000
   6.26255000  2.08688000 13.76339000
   8.34895183  0.00005000 13.76572000
   6.26183000  4.17456000  7.50000000
   0.00000000  6.26183000  7.50000000
   6.26183000  6.26183000  9.58728000
   0.00000000  4.17456000  9.58728000
   6.26024000  4.17460000 11.68996000
   8.34890000  6.26174000 11.68800000
   6.26246000  6.26233000 13.76362000
   0.00130000  4.17461000 13.76156000
   2.08728000  0.00000000  9.58728000
   4.17456000  2.08728000  9.58728000
   2.08728000  2.08728000  7.50000000
   4.17456000  0.00000000  7.50000000
   2.08665000  0.00006000 13.81305000
   4.17426000  2.08424000 13.81293000
   2.08708000  2.08671000 11.68241000
   4.17454000  8.34910183 11.68238000
   2.08728000  4.17456000  9.58728000
   4.17456000  6.26183000  9.58728000
   2.08728000  6.26183000  7.50000000
   4.17456000  4.17456000  7.50000000
   2.08464000  4.17461000 13.80724000
   4.17419000  6.26487000 13.81323000
   2.08708000  6.26246000 11.68244000
   4.17469000  4.17461000 11.68600000
   6.26183000  0.00000000  9.58728000
   0.00000000  2.08728000  9.58728000
   6.26183000  2.08728000  7.50000000
   0.00000000  0.00000000  7.50000000
   6.26196000  0.00006000 13.81290000
   8.34858000  2.08731000 13.81253000
   6.26173000  2.08693000 11.68290000
   8.34894000  0.00002000 11.68308000
   6.26183000  4.17456000  9.58728000
   0.00000000  6.26183000  9.58728000
   6.26183000  6.26183000  7.50000000
   0.00000000  4.17456000  7.50000000
   6.26397000  4.17459000 13.81100000
   8.34857000  6.26190000 13.81260000
   6.26170000  6.26224000 11.68296000
   8.34874183  4.17458000 11.68134000

--------------------------------------- Iteration      FINAL  ---------------------------------------

--------------------OUTCAR has been truncated-------------------------

[...]

--------------------OUTCAR has been truncated-------------------------

  DFT-D2 method for vdW energy calculation

  Parameters of vdW forcefield:
         C6(Jnm^6/mol)     R0(A)
   C        1.750          1.452
   H        0.140          1.001
   Mg       0.630          1.243
   O        0.700          1.342

  vdW correction parametrized for the method ÚBý      

  IVDW =   1
  VDW_RADIUS =    50.000 A
  VDW_S6 =     1.050
  VDW_SR =     1.000
  VDW_D =    20.000
  LVDW_EWALD = F

  Number of pair interactions contributing to vdW energy:  935538
  Edisp (eV):   -5.60079

 VOLUME and BASIS-vectors are now :
  energy-cutoff  :      600.00
  volume of cell :     1482.11
      direct lattice vectors                 reciprocal lattice vectors
     8.349111827  0.000000000  0.000000000     0.119773219  0.000000000  0.000000000
     0.000000000  8.349111827  0.000000000     0.000000000  0.119773219  0.000000000
     0.000000000  0.000000000 21.261833870     0.000000000  0.000000000  0.047032632

  length of vectors
     8.349111827  8.349111827 21.261833870     0.119773219  0.119773219  0.047032632

 FORCES acting on ions:
    Electron-Ion                     Ewald-Force                    Non-Local-Force
   0.696E+02 0.538E+00 -.936E+03   -.695E+02 -.545E+00 0.936E+03   -.309E+00 0.287E-02 -.200E+00
   -.697E+02 -.574E+00 -.878E+03   0.700E+02 0.579E+00 0.878E+03   -.486E-01 -.248E-02 0.268E+00
   0.176E+02 0.467E+02 -.237E+03   -.186E+02 -.514E+02 0.234E+03   0.945E+00 0.453E+01 0.309E+01
   0.190E+02 -.473E+02 -.237E+03   -.201E+02 0.520E+02 0.234E+03   0.107E+01 -.459E+01 0.295E+01
   0.469E+02 0.129E+01 -.238E+03   -.508E+02 -.140E+01 0.243E+03   0.381E+01 0.118E+00 -.405E+01
   -.462E+02 -.497E+00 -.215E+03   0.501E+02 0.541E+00 0.211E+03   -.370E+01 -.402E-01 0.422E+01
   -.188E+02 0.465E+02 -.217E+03   0.199E+02 -.511E+02 0.220E+03   -.107E+01 0.447E+01 -.314E+01
   -.180E+02 -.467E+02 -.217E+03   0.191E+02 0.513E+02 0.220E+03   -.997E+00 -.447E+01 -.316E+01
   0.144E+00 0.231E-02 0.214E+04   -.143E+00 -.228E-02 -.213E+04   -.228E-03 -.395E-04 -.644E+01
   0.934E-01 0.235E+00 0.214E+04   -.934E-01 -.234E+00 -.213E+04   -.740E-04 -.910E-03 -.644E+01
   0.580E+00 0.848E+00 0.744E+03   -.575E+00 -.847E+00 -.745E+03   -.310E-02 -.416E-03 0.434E+00
   0.292E+00 0.786E-02 0.744E+03   -.294E+00 -.784E-02 -.745E+03   0.141E-02 0.619E-05 0.424E+00
   0.272E+01 0.380E-01 -.644E+03   -.271E+01 -.379E-01 0.644E+03   -.727E-02 -.308E-04 -.151E+00
   0.164E+01 0.551E+01 -.635E+03   -.164E+01 -.548E+01 0.635E+03   -.467E-03 -.337E-01 -.203E+00
   0.166E+02 0.191E+02 -.202E+04   -.167E+02 -.191E+02 0.201E+04   0.597E-01 -.468E-02 0.542E+01
   0.472E+01 0.243E+00 -.202E+04   -.473E+01 -.243E+00 0.202E+04   0.485E-02 0.313E-03 0.537E+01
   0.151E+00 0.816E-03 0.214E+04   -.150E+00 -.681E-03 -.213E+04   -.816E-03 -.158E-03 -.644E+01
   0.933E-01 -.238E+00 0.214E+04   -.932E-01 0.237E+00 -.213E+04   -.777E-04 0.108E-02 -.644E+01
   0.582E+00 -.850E+00 0.744E+03   -.578E+00 0.849E+00 -.745E+03   -.306E-02 0.373E-03 0.435E+00
   0.355E+00 -.515E-02 0.746E+03   -.352E+00 0.552E-02 -.746E+03   -.223E-02 -.308E-03 0.472E+00
   0.423E+01 -.379E-01 -.635E+03   -.419E+01 0.379E-01 0.635E+03   -.411E-01 -.390E-04 -.312E+00
   0.163E+01 -.552E+01 -.635E+03   -.163E+01 0.548E+01 0.635E+03   -.956E-03 0.333E-01 -.198E+00
   0.165E+02 -.191E+02 -.202E+04   -.165E+02 0.191E+02 0.201E+04   0.578E-01 0.458E-02 0.541E+01
   0.120E+02 -.387E+00 -.195E+04   -.121E+02 0.400E+00 0.195E+04   0.551E-01 -.114E-01 0.535E+01
   -.147E+00 0.241E-02 0.214E+04   0.146E+00 -.238E-02 -.213E+04   0.406E-03 -.296E-04 -.644E+01
   -.905E-01 0.228E+00 0.214E+04   0.905E-01 -.227E+00 -.213E+04   -.606E-04 -.312E-03 -.644E+01
   -.586E+00 0.914E+00 0.745E+03   0.579E+00 -.907E+00 -.745E+03   0.442E-02 -.426E-02 0.443E+00
   -.292E+00 0.114E-01 0.743E+03   0.293E+00 -.113E-01 -.744E+03   -.107E-02 -.647E-04 0.446E+00
   -.273E+01 0.444E-01 -.641E+03   0.272E+01 -.451E-01 0.642E+03   0.829E-02 0.660E-03 -.155E+00
   -.162E+01 0.404E+01 -.641E+03   0.162E+01 -.403E+01 0.641E+03   0.116E-02 -.657E-02 -.149E+00
   -.169E+02 0.261E+02 -.200E+04   0.170E+02 -.261E+02 0.200E+04   -.579E-01 0.330E-01 0.543E+01
   -.465E+01 0.998E-01 -.204E+04   0.465E+01 -.999E-01 0.203E+04   -.442E-02 0.422E-04 0.537E+01
   -.154E+00 0.697E-03 0.214E+04   0.153E+00 -.563E-03 -.213E+04   0.105E-02 -.150E-03 -.644E+01
   -.903E-01 -.231E+00 0.214E+04   0.904E-01 0.230E+00 -.213E+04   -.574E-04 0.474E-03 -.644E+01
   -.589E+00 -.916E+00 0.745E+03   0.582E+00 0.909E+00 -.745E+03   0.450E-02 0.423E-02 0.444E+00
   -.356E+00 -.795E-02 0.745E+03   0.352E+00 0.821E-02 -.745E+03   0.267E-02 -.232E-03 0.405E+00
   -.427E+01 -.476E-01 -.631E+03   0.422E+01 0.481E-01 0.631E+03   0.415E-01 -.442E-03 -.258E+00
   -.161E+01 -.404E+01 -.641E+03   0.161E+01 0.403E+01 0.642E+03   0.161E-02 0.636E-02 -.149E+00
   -.167E+02 -.260E+02 -.200E+04   0.168E+02 0.261E+02 0.200E+04   -.557E-01 -.325E-01 0.542E+01
   -.112E+02 -.109E+00 -.201E+04   0.113E+02 0.109E+00 0.201E+04   -.671E-01 -.849E-04 0.540E+01
   0.431E+00 0.788E-02 0.557E+03   -.426E+00 -.803E-02 -.557E+03   -.605E-02 0.153E-03 -.948E-01
   0.236E+00 0.722E+00 0.558E+03   -.236E+00 -.732E+00 -.558E+03   0.388E-03 0.120E-01 -.103E+00
   0.110E+00 0.170E+00 0.161E+04   -.109E+00 -.169E+00 -.161E+04   -.107E-02 -.765E-03 0.310E+01
   0.671E-01 0.164E-02 0.161E+04   -.675E-01 -.167E-02 -.161E+04   0.388E-03 0.170E-04 0.310E+01
   0.717E+01 0.109E+00 -.155E+04   -.714E+01 -.108E+00 0.155E+04   -.260E-01 -.718E-03 -.466E+01
   0.612E+01 0.253E+02 -.152E+04   -.613E+01 -.252E+02 0.152E+04   0.197E-02 -.613E-01 -.464E+01
   0.253E+01 0.327E+01 -.473E+03   -.253E+01 -.325E+01 0.473E+03   -.622E-02 -.171E-01 0.299E+00
   0.976E+00 0.307E-01 -.474E+03   -.977E+00 -.291E-01 0.473E+03   0.446E-03 -.139E-02 0.299E+00
   0.483E+00 -.486E-02 0.558E+03   -.495E+00 0.452E-02 -.558E+03   0.149E-01 0.353E-03 -.103E+00
   0.235E+00 -.723E+00 0.558E+03   -.235E+00 0.733E+00 -.558E+03   0.369E-03 -.117E-01 -.103E+00
   0.110E+00 -.172E+00 0.161E+04   -.110E+00 0.171E+00 -.161E+04   -.109E-02 0.727E-03 0.310E+01
   0.735E-01 0.776E-03 0.161E+04   -.733E-01 -.860E-03 -.161E+04   -.318E-03 0.428E-04 0.310E+01
   0.203E+02 -.143E+00 -.152E+04   -.202E+02 0.143E+00 0.153E+04   -.748E-01 0.154E-03 -.471E+01
   0.607E+01 -.252E+02 -.152E+04   -.608E+01 0.251E+02 0.152E+04   0.173E-02 0.545E-01 -.464E+01
   0.253E+01 -.327E+01 -.473E+03   -.252E+01 0.325E+01 0.473E+03   -.568E-02 0.170E-01 0.300E+00
   0.145E+01 -.299E-01 -.468E+03   -.146E+01 0.285E-01 0.468E+03   0.393E-02 0.133E-02 0.114E+00
   -.435E+00 0.822E-02 0.558E+03   0.431E+00 -.824E-02 -.557E+03   0.487E-02 0.213E-05 -.904E-01
   -.236E+00 0.674E+00 0.558E+03   0.239E+00 -.667E+00 -.557E+03   -.291E-02 -.870E-02 -.884E-01
   -.113E+00 0.176E+00 0.161E+04   0.112E+00 -.175E+00 -.161E+04   0.925E-03 -.147E-02 0.310E+01
   -.647E-01 0.189E-02 0.161E+04   0.650E-01 -.190E-02 -.161E+04   -.365E-03 0.103E-04 0.310E+01
   -.724E+01 0.137E+00 -.154E+04   0.722E+01 -.137E+00 0.155E+04   0.201E-01 -.421E-03 -.465E+01
   -.594E+01 0.114E+02 -.154E+04   0.593E+01 -.114E+02 0.155E+04   0.474E-02 -.121E-01 -.466E+01
   -.255E+01 0.376E+01 -.471E+03   0.254E+01 -.375E+01 0.471E+03   0.441E-02 -.132E-01 0.303E+00
   -.976E+00 0.268E-01 -.478E+03   0.979E+00 -.266E-01 0.478E+03   -.277E-02 -.201E-03 0.268E+00
   -.487E+00 -.563E-02 0.559E+03   0.500E+00 0.520E-02 -.559E+03   -.163E-01 0.456E-03 -.109E+00
   -.236E+00 -.675E+00 0.558E+03   0.239E+00 0.668E+00 -.557E+03   -.319E-02 0.898E-02 -.885E-01
   -.113E+00 -.178E+00 0.161E+04   0.112E+00 0.177E+00 -.161E+04   0.925E-03 0.142E-02 0.310E+01
   -.711E-01 0.542E-03 0.161E+04   0.708E-01 -.643E-03 -.161E+04   0.364E-03 0.516E-04 0.310E+01
   -.209E+02 -.188E+00 -.150E+04   0.209E+02 0.187E+00 0.150E+04   0.485E-01 0.671E-03 -.467E+01
   -.591E+01 -.114E+02 -.154E+04   0.590E+01 0.114E+02 0.155E+04   0.564E-02 0.117E-01 -.466E+01
   -.254E+01 -.376E+01 -.471E+03   0.254E+01 0.374E+01 0.471E+03   0.394E-02 0.130E-01 0.301E+00
   -.143E+01 -.275E-01 -.471E+03   0.143E+01 0.271E-01 0.471E+03   -.361E-02 0.460E-03 0.301E+00
   0.353E+00 0.614E-02 0.199E+02   0.455E-12 -.412E-12 -.227E-11   -.334E+00 -.480E-02 -.175E+02

 POSITION                                       TOTAL-FORCE (eV/Angst)
      4.23749      4.15869     16.85825        -0.295289     -0.005407     -0.128347
      5.65755      4.17007     17.39604         0.290125      0.003043      0.101045
      4.05888      3.27650     16.23476         0.028587      0.023107      0.004186
      4.03390      5.05376     16.26163         0.031627     -0.023994     -0.003806
      3.49591      4.13566     17.65957         0.008064      0.003886      0.030996
      6.37875      4.17807     16.57599        -0.018516      0.002196     -0.012407
      5.85989      3.28998     18.01031        -0.014643     -0.018013      0.003325
      5.84458      5.05086     18.01414        -0.016415      0.015483      0.007165
      2.08728      0.00000      7.50000         0.000140     -0.000012      0.310731
      4.17456      2.08728      7.50000        -0.000036      0.000406      0.310906
      2.08728      2.08728      9.58728         0.001508      0.000659      0.051467
      4.17456      0.00000      9.58728        -0.000710      0.000025      0.054962
      2.08735      0.00003     11.68833         0.000460      0.000037      0.017201
      4.17443      2.08863     11.68976        -0.000346     -0.002710      0.019901
      2.08564      2.08761     13.76306        -0.001935     -0.002035      0.107336
      4.17424      8.34910     13.76326        -0.001240      0.000060      0.110796
      2.08728      4.17456      7.50000         0.000346     -0.000034      0.310978
      4.17456      6.26183      7.50000        -0.000038     -0.000371      0.310904
      2.08728      6.26183      9.58728         0.001458     -0.000502      0.051489
      4.17456      4.17456      9.58728         0.000787      0.000025      0.057311
      2.08867      4.17459     11.68949        -0.002909     -0.000093      0.018753
      4.17443      6.26055     11.68975        -0.000352      0.002671      0.019842
      2.08563      6.26164     13.76306        -0.001934      0.001855      0.107663
      4.17315      4.17488     13.78008        -0.004457     -0.000659      0.122393
      6.26183      0.00000      7.50000        -0.000119     -0.000004      0.310303
      0.00000      2.08728      7.50000        -0.000049      0.000220      0.310383
      6.26183      2.08728      9.58728        -0.002045      0.002170      0.051448
      0.00000      0.00000      9.58728         0.000417      0.000004      0.049576
      6.26158      0.00001     11.68829        -0.001106      0.000036      0.018280
      8.34893      2.08742     11.68796        -0.000056      0.000774      0.017521
      6.26255      2.08688     13.76339         0.002501     -0.002929      0.103978
      8.34895      0.00005     13.76572         0.000009     -0.000038      0.111658
      6.26183      4.17456      7.50000        -0.000264     -0.000027      0.311327
      0.00000      6.26183      7.50000        -0.000044     -0.000179      0.310375
      6.26183      6.26183      9.58728        -0.002072     -0.002035      0.051463
      0.00000      4.17456      9.58728        -0.001089      0.000010      0.054607
      6.26024      4.17460     11.68996         0.002871     -0.000057      0.020338
      8.34890      6.26174     11.68800        -0.000062     -0.000723      0.017485
      6.26246      6.26233     13.76362         0.002608      0.002840      0.104112
      0.00130      4.17461     13.76156        -0.000081     -0.000088      0.109400
      2.08728      0.00000      9.58728        -0.002037      0.000018      0.067714
      4.17456      2.08728      9.58728         0.000194      0.003718      0.072805
      2.08728      2.08728      7.50000        -0.000353     -0.000250     -0.591395
      4.17456      0.00000      7.50000         0.000079     -0.000008     -0.591307
      2.08665      0.00006     13.81305        -0.001954     -0.000043      0.020028
      4.17426      2.08424     13.81293        -0.000035      0.012141      0.032407
      2.08708      2.08671     11.68241        -0.000782     -0.001035      0.003420
      4.17454      8.34910     11.68238        -0.000478     -0.000040      0.003348
      2.08728      4.17456      9.58728         0.004774      0.000059      0.071582
      4.17456      6.26183      9.58728         0.000189     -0.003553      0.072727
      2.08728      6.26183      7.50000        -0.000354      0.000302     -0.591364
      4.17456      4.17456      7.50000        -0.000150     -0.000040     -0.591924
      2.08464      4.17461     13.80724         0.006367     -0.000046      0.025990
      4.17419      6.26487     13.81323        -0.000050     -0.012011      0.031924
      2.08708      6.26246     11.68244        -0.000781      0.001060      0.003333
      4.17469      4.17461     11.68600         0.000412      0.000072      0.000583
      6.26183      0.00000      9.58728         0.001791     -0.000022      0.069208
      0.00000      2.08728      9.58728        -0.000998     -0.003085      0.068084
      6.26183      2.08728      7.50000         0.000372     -0.000473     -0.591333
      0.00000      0.00000      7.50000        -0.000127     -0.000004     -0.590998
      6.26196      0.00006     13.81290         0.000892     -0.000109      0.022937
      8.34858      2.08731     13.81253        -0.000194     -0.000972      0.020680
      6.26173      2.08693     11.68290         0.000351     -0.000755      0.002283
      8.34894      0.00002     11.68308        -0.000186     -0.000043      0.002348
      6.26183      4.17456      9.58728        -0.005104      0.000089      0.071875
      0.00000      6.26183      9.58728        -0.001081      0.003233      0.068276
      6.26183      6.26183      7.50000         0.000361      0.000524     -0.591325
      0.00000      4.17456      7.50000         0.000115     -0.000047     -0.591422
      6.26397      4.17459     13.81100        -0.006663      0.000031      0.035905
      8.34857      6.26190     13.81260        -0.000264      0.000876      0.020586
      6.26170      6.26224     11.68296         0.000383      0.000675      0.002377
      8.34874      4.17458     11.68134        -0.000394      0.000144      0.003602
    total drift:                               -0.000451      0.000068      0.014249

  FREE ENERGIE OF THE ION-ELECTRON SYSTEM (eV)
  free  energy   TOTEN  =      -485.36466707 eV

  energy  without entropy=     -485.36466707  energy(sigma->0) =     -485.36466707