 vasp.6.3.0 20Jan22 (build Apr  1 2022 16:44:48) complex
 executed on        HPECrayEX_GCC date 2023.03.11  23:43:38

 INCAR:
   SYSTEM = MgO-rocksalt
   ISMEAR = 0
   SIGMA = 0.05
   EDIFF = 1E-6
   ALGO = ALL
   ISTART = 0
   IBRION = -1
   NSW = 0
   ISYM = 0
   DIPOL = 0.5 0.5 0.5
   IDIPOL = 3
   LDIPOL = .TRUE.
   LHFCALC = .TRUE.
   GGA = B5
   AEXX = 0.2
   AGGAX = 0.72
   AGGAC = 0.81
   ALDAC = 0.19
   IVDW = 1
   VDW_S6 = 1.05
   VDW_C6 = 0.63 0.70
   VDW_R0 = 1.243 1.342
   ENCUT = 600
   PREC = Accurate
   LASPH = .TRUE.
   LREAL = .FALSE.
   ISPIN = 1
   NELM = 200
   NELMIN = 8
   NCORE = 8
   KPAR = 1
   LWAVE = .FALSE.
   LCHARG = .FALSE.

 POTCAR:    PAW_PBE Mg_pv 13Apr2007
 POTCAR:    PAW_PBE O 08Apr2002
 POTCAR:    PAW_PBE Mg_pv 13Apr2007
   VRHFIN =Mg: p6s2

   TITEL  = PAW_PBE Mg_pv 13Apr2007
   POMASS =   24.305; ZVAL   =    8.000    mass and valenz
   ENMAX  =  403.929; ENMIN  =  302.947 eV

   TITEL  = PAW_PBE O 08Apr2002
   POMASS =   16.000; ZVAL   =    6.000    mass and valenz
   ENMAX  =  400.000; ENMIN  =  300.000 eV

  PAW_PBE Mg_pv 13Apr2007               :
  PAW_PBE O 08Apr2002                   :

 POSCAR: Mg  O
  positions in direct lattice
 exchange correlation table for  LEXCH =       12
   RHO(1)=    0.500       N(1)  =     2000
   RHO(2)=  100.500       N(2)  =     4000

 ion  position               nearest neighbor table
   1  0.250  0.000  0.353-  35 2.09  36 2.09  43 2.09  52 2.09  33 2.09
   2  0.500  0.250  0.353-  35 2.09  36 2.09  44 2.09  51 2.09  34 2.09
   3  0.250  0.250  0.451-  33 2.09  34 2.09  41 2.09  50 2.09  35 2.09  39 2.09
   4  0.500  0.000  0.451-  33 2.09  34 2.09  42 2.09  49 2.09  36 2.09  40 2.09
   5  0.250  1.000  0.550-  56 2.09  40 2.09  47 2.09  39 2.09  33 2.10  37 2.13
   6  0.500  0.250  0.550-  40 2.09  55 2.09  39 2.09  48 2.09  34 2.10  38 2.12
   7  0.250  0.250  0.647-  39 2.08  54 2.09  37 2.09  45 2.09  38 2.09
   8  0.500  0.000  0.647-  40 2.08  38 2.09  53 2.09  37 2.09  46 2.09
   9  0.250  0.500  0.353-  35 2.09  43 2.09  44 2.09  60 2.09  41 2.09
  10  0.500  0.750  0.353-  36 2.09  43 2.09  44 2.09  59 2.09  42 2.09
  11  0.250  0.750  0.451-  33 2.09  41 2.09  42 2.09  58 2.09  43 2.09  47 2.09
  12  0.500  0.500  0.451-  34 2.09  41 2.09  42 2.09  57 2.09  44 2.09  48 2.09
  13  0.250  0.500  0.550-  64 2.09  47 2.09  39 2.09  48 2.09  41 2.10  45 2.12
  14  0.500  0.750  0.550-  63 2.08  40 2.09  48 2.09  47 2.09  42 2.10  46 2.13
  15  0.250  0.750  0.647-  62 2.08  47 2.08  46 2.09  45 2.09  37 2.09
  16  0.499  0.499  0.647-  48 2.07  45 2.08  38 2.08  61 2.09  46 2.09
  17  0.750  0.000  0.353-  36 2.09  51 2.09  52 2.09  59 2.09  49 2.09
  18  0.000  0.250  0.353-  35 2.09  51 2.09  52 2.09  60 2.09  50 2.09
  19  0.750  0.250  0.451-  34 2.09  49 2.09  50 2.09  57 2.09  51 2.09  55 2.09
  20  0.000  0.000  0.451-  33 2.09  49 2.09  50 2.09  58 2.09  52 2.09  56 2.09
  21  0.750  1.000  0.550-  63 2.09  56 2.09  40 2.09  55 2.09  49 2.10  53 2.11
  22  1.000  0.250  0.550-  56 2.09  64 2.09  55 2.09  39 2.09  50 2.10  54 2.13
  23  0.750  0.250  0.647-  53 2.08  55 2.08  61 2.09  38 2.09  54 2.09
  24  0.000  0.000  0.647-  56 2.08  53 2.09  62 2.09  54 2.09  37 2.09
  25  0.750  0.500  0.353-  44 2.09  51 2.09  59 2.09  60 2.09  57 2.09
  26  0.000  0.750  0.353-  43 2.09  52 2.09  59 2.09  60 2.09  58 2.09
  27  0.750  0.750  0.451-  42 2.09  49 2.09  57 2.09  58 2.09  59 2.09  63 2.10
  28  0.000  0.500  0.451-  41 2.09  50 2.09  57 2.09  58 2.09  60 2.09  64 2.10
  29  0.750  0.500  0.550-  63 2.08  64 2.09  48 2.09  55 2.09  57 2.10  61 2.13
  30  1.000  0.750  0.550-  63 2.09  56 2.09  64 2.09  47 2.09  58 2.10  62 2.12
  31  0.751  0.751  0.649-  62 2.08  53 2.08  61 2.10  46 2.10  63 2.10
  32  1.000  0.500  0.647-  64 2.08  45 2.09  62 2.09  54 2.09  61 2.09
  33  0.250  0.000  0.451-   3 2.09   4 2.09  11 2.09  20 2.09   1 2.09   5 2.10
  34  0.500  0.250  0.451-   3 2.09   4 2.09  12 2.09  19 2.09   2 2.09   6 2.10
  35  0.250  0.250  0.353-   1 2.09   2 2.09   9 2.09  18 2.09   3 2.09
  36  0.500  0.000  0.353-   1 2.09   2 2.09  10 2.09  17 2.09   4 2.09
  37  0.250  1.000  0.650-   7 2.09   8 2.09  24 2.09  15 2.09   5 2.13
  38  0.500  0.250  0.649-  16 2.08   8 2.09   7 2.09  23 2.09   6 2.12
  39  0.250  0.250  0.549-   7 2.08   5 2.09  22 2.09   6 2.09  13 2.09   3 2.09
  40  0.500  1.000  0.549-   8 2.08  14 2.09   6 2.09   5 2.09  21 2.09   4 2.09
  41  0.250  0.500  0.451-   3 2.09  11 2.09  12 2.09  28 2.09   9 2.09  13 2.10
  42  0.500  0.750  0.451-   4 2.09  11 2.09  12 2.09  27 2.09  10 2.09  14 2.10
  43  0.250  0.750  0.353-   1 2.09   9 2.09  10 2.09  26 2.09  11 2.09
  44  0.500  0.500  0.353-   2 2.09   9 2.09  10 2.09  25 2.09  12 2.09
  45  0.250  0.500  0.649-  16 2.08  32 2.09   7 2.09  15 2.09  13 2.12
  46  0.499  0.750  0.650-  15 2.09   8 2.09  16 2.09  31 2.10  14 2.13
  47  0.250  0.750  0.549-  15 2.08   5 2.09  13 2.09  14 2.09  30 2.09  11 2.09
  48  0.500  0.500  0.549-  16 2.07  29 2.09  14 2.09   6 2.09  13 2.09  12 2.09
  49  0.750  0.000  0.451-   4 2.09  19 2.09  20 2.09  27 2.09  17 2.09  21 2.10
  50  0.000  0.250  0.451-   3 2.09  19 2.09  20 2.09  28 2.09  18 2.09  22 2.10
  51  0.750  0.250  0.353-   2 2.09  17 2.09  18 2.09  25 2.09  19 2.09
  52  0.000  0.000  0.353-   1 2.09  17 2.09  18 2.09  26 2.09  20 2.09
  53  0.750  0.001  0.649-  23 2.08  31 2.08   8 2.09  24 2.09  21 2.11
  54  1.000  0.250  0.650-   7 2.09  32 2.09  24 2.09  23 2.09  22 2.13
  55  0.750  0.250  0.549-  23 2.08  22 2.09   6 2.09  29 2.09  21 2.09  19 2.09
  56  0.000  0.000  0.549-  24 2.08   5 2.09  22 2.09  21 2.09  30 2.09  20 2.09
  57  0.750  0.500  0.451-  12 2.09  19 2.09  27 2.09  28 2.09  25 2.09  29 2.10
  58  0.000  0.750  0.451-  11 2.09  20 2.09  27 2.09  28 2.09  26 2.09  30 2.10
  59  0.750  0.750  0.353-  10 2.09  17 2.09  25 2.09  26 2.09  27 2.09
  60  0.000  0.500  0.353-   9 2.09  18 2.09  25 2.09  26 2.09  28 2.09
  61  0.749  0.500  0.650-  23 2.09  32 2.09  16 2.09  31 2.10  29 2.13
  62  0.001  0.750  0.649-  15 2.08  31 2.08  32 2.09  24 2.09  30 2.12
  63  0.750  0.750  0.550-  29 2.08  14 2.08  30 2.09  21 2.09  27 2.10  31 2.10
  64  1.000  0.500  0.549-  32 2.08  29 2.09  22 2.09  13 2.09  30 2.09  28 2.10

IMPORTANT INFORMATION: All symmetrisations will be switched off!
NOSYMM: (Re-)initialisation of all symmetry stuff for point group C_1.

                                     Primitive cell

  volume of cell :    1482.1129

  direct lattice vectors                    reciprocal lattice vectors
     8.349111827  0.000000000  0.000000000     0.119773219  0.000000000  0.000000000
     0.000000000  8.349111827  0.000000000     0.000000000  0.119773219  0.000000000
     0.000000000  0.000000000 21.261833870     0.000000000  0.000000000  0.047032632

  length of vectors
     8.349111827  8.349111827 21.261833870     0.119773219  0.119773219  0.047032632

  position of ions in fractional coordinates (direct lattice)
     0.250000000  0.000000000  0.352744737
     0.500000000  0.250000000  0.352744737
     0.250000000  0.250000000  0.450914912
     0.500000000  0.000000000  0.450914912
     0.249956618  0.999917683  0.549719934
     0.499906087  0.249737929  0.549648628
     0.249750995  0.249869825  0.647449302
     0.500057524  0.000084119  0.647268726
     0.250000000  0.500000000  0.352744737
     0.500000000  0.750000000  0.352744737
     0.250000000  0.750000000  0.450914912
     0.500000000  0.500000000  0.450914912
     0.249657779  0.499960743  0.549654158
     0.500293006  0.749966248  0.549891251
     0.249667345  0.749875063  0.647264433
     0.498717503  0.498823802  0.646785371
     0.750000000  0.000000000  0.352744737
     0.000000000  0.250000000  0.352744737
     0.750000000  0.250000000  0.450914912
     0.000000000  0.000000000  0.450914912
     0.750044377  0.999834442  0.549822684
     0.999857657  0.250025246  0.549726751
     0.749792815  0.249808845  0.647282851
     0.000014752  0.000120968  0.647347047
     0.750000000  0.500000000  0.352744737
     0.000000000  0.750000000  0.352744737
     0.750000000  0.750000000  0.450914912
     0.000000000  0.500000000  0.450914912
     0.749895413  0.500359104  0.549896405
     0.999762014  0.750081117  0.549825689
     0.751041761  0.751134064  0.648702733
     0.999929029  0.500144026  0.647329554
     0.250000000  0.000000000  0.450914912
     0.500000000  0.250000000  0.450914912
     0.250000000  0.250000000  0.352744737
     0.500000000  0.000000000  0.352744737
     0.250063111  0.999977639  0.649696453
     0.499695620  0.249769248  0.649388340
     0.249873835  0.249922002  0.549425717
     0.499908622  0.999790121  0.549444574
     0.250000000  0.500000000  0.450914912
     0.500000000  0.750000000  0.450914912
     0.250000000  0.750000000  0.352744737
     0.500000000  0.500000000  0.352744737
     0.249663079  0.499801460  0.649352356
     0.499474078  0.749541395  0.650096874
     0.250156310  0.749962764  0.549410349
     0.499899378  0.499957645  0.549403274
     0.750000000  0.000000000  0.450914912
     0.000000000  0.250000000  0.450914912
     0.750000000  0.250000000  0.352744737
     0.000000000  0.000000000  0.352744737
     0.749977627  0.000738255  0.649268103
     0.999881210  0.250156175  0.649692711
     0.749898152  0.250243389  0.549415897
     0.000086346  0.000130487  0.549416183
     0.750000000  0.500000000  0.450914912
     0.000000000  0.750000000  0.450914912
     0.750000000  0.750000000  0.352744737
     0.000000000  0.500000000  0.352744737
     0.749311190  0.499644086  0.650154291
     0.000593472  0.750073265  0.649312854
     0.749863384  0.749916238  0.549745486
     0.999698067  0.499968468  0.549461933

  ion indices of the primitive-cell ions
   primitive index   ion index
                 1           1
                 2           2
                 3           3
                 4           4
                 5           5
                 6           6
                 7           7
                 8           8
                 9           9
                10          10
                11          11
                12          12
                13          13
                14          14
                15          15
                16          16
                17          17
                18          18
                19          19
                20          20
                21          21
                22          22
                23          23
                24          24
                25          25
                26          26
                27          27
                28          28
                29          29
                30          30
                31          31
                32          32
                33          33
                34          34
                35          35
                36          36
                37          37
                38          38
                39          39
                40          40
                41          41
                42          42
                43          43
                44          44
[...]
   0.50000000  0.75000000  0.45091491
   0.25000000  0.75000000  0.35274474
   0.50000000  0.50000000  0.35274474
   0.24966308  0.49980146  0.64935236
   0.49947408  0.74954139  0.65009687
   0.25015631  0.74996276  0.54941035
   0.49989938  0.49995765  0.54940327
   0.75000000  0.00000000  0.45091491
   0.00000000  0.25000000  0.45091491
   0.75000000  0.25000000  0.35274474
   0.00000000  0.00000000  0.35274474
   0.74997763  0.00073826  0.64926810
   0.99988121  0.25015618  0.64969271
   0.74989815  0.25024339  0.54941590
   0.00008635  0.00013049  0.54941618
   0.75000000  0.50000000  0.45091491
   0.00000000  0.75000000  0.45091491
   0.75000000  0.75000000  0.35274474
   0.00000000  0.50000000  0.35274474
   0.74931119  0.49964409  0.65015429
   0.00059347  0.75007327  0.64931285
   0.74986338  0.74991624  0.54974549
   0.99969807  0.49996847  0.54946193

 position of ions in cartesian coordinates  (Angst):
   2.08727796  0.00000000  7.50000000
   4.17455591  2.08727796  7.50000000
   2.08727796  2.08727796  9.58727796
   4.17455591  0.00000000  9.58727796
   2.08691576  8.34842455 11.68805391
   4.17377182  2.08508990 11.68653782
   2.08519898  2.08619111 13.76595951
   4.17503619  0.00070232 13.76212012
   2.08727796  4.17455591  7.50000000
   4.17455591  6.26183387  7.50000000
   2.08727796  6.26183387  9.58727796
   4.17455591  4.17455591  9.58727796
   2.08442071  4.17422815 11.68665539
   4.17700226  6.26155207 11.69169642
   2.08450058  6.26079075 13.76202885
   4.16384821  4.16473570 13.75184311
   6.26183387  0.00000000  7.50000000
   0.00000000  2.08727796  7.50000000
   6.26183387  2.08727796  9.58727796
   0.00000000  0.00000000  9.58727796
   6.26220438  8.34772956 11.69023856
   8.34792339  2.08748873 11.68819886
   6.26010406  2.08568198 13.76242044
   0.00012317  0.00100997 13.76378536
   6.26183387  4.17455591  7.50000000
   0.00000000  6.26183387  7.50000000
   6.26183387  6.26183387  9.58727796
   0.00000000  4.17455591  9.58727796
   6.26096066  4.17755411 11.69180602
   8.34712485  6.26251112 11.69030246
   6.27053165  6.27130230 13.79260973
   8.34851928  4.17575840 13.76341345
   2.08727796  0.00000000  9.58727796
   4.17455591  2.08727796  9.58727796
   2.08727796  2.08727796  7.50000000
   4.17455591  0.00000000  7.50000000
   2.08780487  8.34892514 13.81373805
   4.17201461  2.08535138 13.80718701
   2.08622459  2.08662675 11.68179831
   4.17379299  8.34735952 11.68219926
   2.08727796  4.17455591  9.58727796
   4.17455591  6.26183387  9.58727796
   2.08727796  6.26183387  7.50000000
   4.17455591  4.17455591  7.50000000
   2.08446497  4.17289828 13.80642191
   4.17016493  6.25800492 13.82225174
   2.08858300  6.26152298 11.68147156
   4.17371581  4.17420229 11.68132113
   6.26183387  0.00000000  9.58727796
   0.00000000  2.08727796  9.58727796
   6.26183387  2.08727796  7.50000000
   0.00000000  0.00000000  7.50000000
   6.26164707  0.00616378 13.80463054
   8.34812004  2.08858188 13.81365849
   6.26098353  2.08931004 11.68158952
   0.00072091  0.00108945 11.68159560
   6.26183387  4.17455591  9.58727796
   0.00000000  6.26183387  9.58727796
   6.26183387  6.26183387  7.50000000
   0.00000000  4.17455591  7.50000000
   6.25608292  4.17158434 13.82347253
   0.00495497  6.26244557 13.80558204
   6.26069325  6.26113454 11.68859719
   8.34659095  4.17429265 11.68256833

--------------------------------------- Iteration      FINAL  ---------------------------------------

--------------------OUTCAR has been truncated-------------------------

[...]

--------------------OUTCAR has been truncated-------------------------

  DFT-D2 method for vdW energy calculation

  Parameters of vdW forcefield:
         C6(Jnm^6/mol)     R0(A)
   Mg       0.630          1.243
   O        0.700          1.342

  vdW correction parametrized for the method "ü      

  IVDW =   1
  VDW_RADIUS =    50.000 A
  VDW_S6 =     1.050
  VDW_SR =     1.000
  VDW_D =    20.000
  LVDW_EWALD = F

  Number of pair interactions contributing to vdW energy:  742603
  Edisp (eV):   -5.30544

 VOLUME and BASIS-vectors are now :
  energy-cutoff  :      600.00
  volume of cell :     1482.11
      direct lattice vectors                 reciprocal lattice vectors
     8.349111827  0.000000000  0.000000000     0.119773219  0.000000000  0.000000000
     0.000000000  8.349111827  0.000000000     0.000000000  0.119773219  0.000000000
     0.000000000  0.000000000 21.261833870     0.000000000  0.000000000  0.047032632

  length of vectors
     8.349111827  8.349111827 21.261833870     0.119773219  0.119773219  0.047032632

 FORCES acting on ions:
    Electron-Ion                     Ewald-Force                    Non-Local-Force
   -.678E-02 0.799E-01 0.212E+04   0.740E-02 -.813E-01 -.212E+04   -.395E-03 0.917E-03 -.644E+01
   -.819E-01 -.107E-01 0.212E+04   0.829E-01 0.106E-01 -.212E+04   -.617E-03 0.103E-03 -.643E+01
   0.434E-01 0.102E-01 0.703E+03   -.609E-01 -.259E-01 -.703E+03   0.111E-01 0.101E-01 0.422E+00
   -.382E+00 0.482E+00 0.702E+03   0.378E+00 -.521E+00 -.703E+03   0.314E-02 0.250E-01 0.439E+00
   -.219E+00 0.372E+00 -.709E+03   0.220E+00 -.367E+00 0.709E+03   0.308E-02 -.132E-02 -.140E+00
   -.414E+00 -.625E-01 -.707E+03   0.414E+00 0.409E-01 0.707E+03   -.109E-02 0.249E-01 -.190E+00
   0.311E+00 0.348E+00 -.211E+04   -.350E+00 -.396E+00 0.210E+04   0.277E-01 0.322E-01 0.538E+01
   -.343E-01 0.220E+01 -.211E+04   -.147E+00 -.218E+01 0.210E+04   0.117E+00 -.506E-01 0.537E+01
   -.419E-02 -.803E-01 0.212E+04   0.394E-02 0.814E-01 -.212E+04   0.238E-03 -.716E-03 -.643E+01
   -.105E+00 0.863E-02 0.212E+04   0.107E+00 -.934E-02 -.212E+04   -.167E-02 0.451E-03 -.645E+01
   -.751E-01 -.187E-01 0.703E+03   0.100E+00 0.288E-01 -.703E+03   -.162E-01 -.675E-02 0.412E+00
   -.485E+00 -.485E+00 0.702E+03   0.506E+00 0.508E+00 -.703E+03   -.142E-01 -.154E-01 0.426E+00
   -.245E-03 -.406E+00 -.707E+03   -.211E-01 0.405E+00 0.707E+03   0.250E-01 -.965E-03 -.204E+00
   -.128E+01 0.237E+00 -.713E+03   0.137E+01 -.217E+00 0.713E+03   -.799E-01 -.223E-01 -.155E+00
   -.172E+01 -.254E+00 -.211E+04   0.187E+01 0.295E+00 0.210E+04   -.680E-01 -.265E-01 0.531E+01
   -.320E+01 -.338E+01 -.210E+04   0.325E+01 0.343E+01 0.210E+04   0.506E-01 0.661E-01 0.525E+01
   0.703E-02 0.105E+00 0.212E+04   -.760E-02 -.107E+00 -.212E+04   0.368E-03 0.141E-02 -.644E+01
   0.812E-01 -.134E-01 0.212E+04   -.827E-01 0.142E-01 -.212E+04   0.997E-03 -.495E-03 -.644E+01
   -.631E-01 -.850E-01 0.702E+03   0.701E-01 0.115E+00 -.703E+03   -.483E-02 -.193E-01 0.414E+00
   0.375E+00 0.365E+00 0.703E+03   -.370E+00 -.359E+00 -.703E+03   -.378E-02 -.434E-02 0.433E+00
   0.262E+00 0.106E+01 -.708E+03   -.271E+00 -.115E+01 0.708E+03   0.116E-02 0.777E-01 -.263E+00
   0.381E+00 -.256E+00 -.709E+03   -.377E+00 0.261E+00 0.709E+03   -.691E-03 -.136E-02 -.142E+00
   -.237E+00 -.174E+01 -.211E+04   0.269E+00 0.187E+01 0.210E+04   -.219E-01 -.538E-01 0.531E+01
   -.180E+00 -.136E+00 -.211E+04   0.351E+00 0.305E+00 0.210E+04   -.112E+00 -.112E+00 0.542E+01
   0.155E-02 -.103E+00 0.212E+04   -.243E-02 0.106E+00 -.212E+04   0.577E-03 -.178E-02 -.645E+01
   0.106E+00 0.139E-01 0.212E+04   -.108E+00 -.144E-01 -.212E+04   0.151E-02 0.294E-03 -.644E+01
   0.621E-01 0.853E-01 0.701E+03   -.819E-01 -.104E+00 -.701E+03   0.133E-01 0.127E-01 0.505E+00
   0.469E+00 -.361E+00 0.702E+03   -.513E+00 0.361E+00 -.703E+03   0.280E-01 0.106E-02 0.445E+00
   0.162E+00 -.126E+01 -.713E+03   -.140E+00 0.135E+01 0.713E+03   -.232E-01 -.794E-01 -.136E+00
   0.106E+01 0.295E+00 -.708E+03   -.115E+01 -.307E+00 0.709E+03   0.778E-01 0.447E-02 -.249E+00
   0.347E+01 0.327E+01 -.212E+04   -.361E+01 -.342E+01 0.211E+04   -.173E-01 -.598E-02 0.554E+01
   0.221E+01 -.365E-01 -.211E+04   -.217E+01 -.140E+00 0.210E+04   -.603E-01 0.115E+00 0.537E+01
   -.410E-01 0.208E+00 0.527E+03   0.421E-01 -.209E+00 -.526E+03   -.108E-02 0.134E-02 -.960E-01
   -.230E+00 -.613E-01 0.527E+03   0.240E+00 0.775E-01 -.527E+03   -.121E-01 -.188E-01 -.689E-01
   0.335E-02 -.266E-02 0.160E+04   -.429E-02 0.152E-02 -.160E+04   0.117E-02 0.139E-02 0.311E+01
   -.657E-01 0.767E-01 0.160E+04   0.656E-01 -.800E-01 -.160E+04   0.148E-03 0.409E-02 0.310E+01
   -.323E+00 0.408E+00 -.160E+04   0.399E+00 -.461E+00 0.161E+04   -.927E-01 0.527E-01 -.472E+01
   -.455E+00 0.456E+00 -.160E+04   0.504E+00 -.502E+00 0.161E+04   -.484E-01 0.279E-01 -.470E+01
   0.204E+00 0.172E+00 -.525E+03   -.202E+00 -.171E+00 0.525E+03   -.171E-02 0.299E-03 0.235E+00
   -.327E+00 0.978E+00 -.525E+03   0.322E+00 -.998E+00 0.525E+03   0.117E-01 0.265E-01 0.325E+00
   -.449E-01 -.220E+00 0.527E+03   0.660E-01 0.227E+00 -.527E+03   -.248E-01 -.925E-02 -.687E-01
   -.354E+00 0.277E-01 0.526E+03   0.334E+00 -.248E-01 -.525E+03   0.233E-01 -.368E-02 -.133E+00
   -.956E-02 0.288E-02 0.160E+04   0.119E-01 -.157E-02 -.160E+04   -.288E-02 -.161E-02 0.310E+01
   -.753E-01 -.752E-01 0.160E+04   0.794E-01 0.791E-01 -.160E+04   -.512E-02 -.485E-02 0.310E+01
   0.468E+00 -.480E+00 -.160E+04   -.518E+00 0.532E+00 0.161E+04   0.295E-01 -.509E-01 -.468E+01
   -.239E+01 0.878E+00 -.161E+04   0.250E+01 -.108E+01 0.161E+04   -.516E-01 0.229E+00 -.478E+01
   -.477E+00 -.139E+00 -.525E+03   0.509E+00 0.132E+00 0.524E+03   -.461E-01 0.648E-02 0.327E+00
   -.103E+01 -.105E+01 -.524E+03   0.103E+01 0.106E+01 0.523E+03   -.775E-02 -.137E-01 0.433E+00
   0.438E-01 0.365E+00 0.526E+03   -.462E-01 -.355E+00 -.526E+03   0.268E-02 -.115E-01 -.924E-01
   0.208E+00 -.575E-01 0.527E+03   -.206E+00 0.549E-01 -.526E+03   -.258E-02 0.337E-02 -.955E-01
   -.297E-02 -.139E-01 0.160E+04   0.421E-02 0.163E-01 -.160E+04   -.157E-02 -.291E-02 0.310E+01
   0.655E-01 0.636E-01 0.160E+04   -.655E-01 -.637E-01 -.160E+04   -.748E-04 0.171E-03 0.310E+01
   0.449E+00 0.768E+00 -.160E+04   -.503E+00 -.637E+00 0.160E+04   0.653E-01 -.178E+00 -.442E+01
   0.400E+00 -.318E+00 -.160E+04   -.449E+00 0.385E+00 0.161E+04   0.478E-01 -.811E-01 -.471E+01
   -.172E+00 -.504E+00 -.525E+03   0.163E+00 0.532E+00 0.524E+03   0.865E-02 -.413E-01 0.326E+00
   0.275E+00 0.272E+00 -.525E+03   -.262E+00 -.259E+00 0.524E+03   -.219E-01 -.207E-01 0.327E+00
   -.194E-02 -.343E+00 0.526E+03   0.803E-02 0.320E+00 -.525E+03   -.742E-02 0.272E-01 -.134E+00
   0.364E+00 0.689E-01 0.526E+03   -.350E+00 -.728E-01 -.526E+03   -.164E-01 0.432E-02 -.937E-01
   0.865E-02 0.127E-01 0.159E+04   -.112E-01 -.155E-01 -.160E+04   0.318E-02 0.348E-02 0.310E+01
   0.771E-01 -.639E-01 0.160E+04   -.804E-01 0.639E-01 -.160E+04   0.407E-02 0.572E-04 0.310E+01
   0.749E+00 -.232E+01 -.161E+04   -.957E+00 0.243E+01 0.161E+04   0.241E+00 -.580E-01 -.478E+01
   0.688E+00 0.413E+00 -.160E+04   -.554E+00 -.460E+00 0.161E+04   -.178E+00 0.570E-01 -.442E+01
   0.596E+00 0.605E+00 -.531E+03   -.620E+00 -.622E+00 0.531E+03   0.363E-01 0.298E-01 0.245E-01
   0.979E+00 -.317E+00 -.525E+03   -.996E+00 0.312E+00 0.525E+03   0.238E-01 0.119E-01 0.318E+00
   0.941E-01 0.434E-01 0.198E+02   -.228E-12 0.179E-12 -.250E-11   -.881E-01 -.404E-01 -.174E+02

 POSITION                                       TOTAL-FORCE (eV/Angst)
      2.08728      0.00000      7.50000         0.000209     -0.000372      0.310622
      4.17456      2.08728      7.50000         0.000329      0.000053      0.308686
      2.08728      2.08728      9.58728        -0.004886     -0.004286      0.046773
      4.17456      0.00000      9.58728        -0.000508     -0.011589      0.047665
      2.08692      8.34842     11.68805         0.004032      0.003171      0.019650
      4.17377      2.08509     11.68654        -0.001318      0.005118      0.010265
      2.08520      2.08619     13.76596        -0.008120     -0.011977      0.100722
      4.17504      0.00070     13.76212        -0.049450     -0.031596      0.134169
      2.08728      4.17456      7.50000         0.000034      0.000345      0.308639
      4.17456      6.26183      7.50000         0.000579     -0.000186      0.312502
      2.08728      6.26183      9.58728         0.007077      0.002476      0.053766
      4.17456      4.17456      9.58728         0.004988      0.005780      0.050215
      2.08442      4.17423     11.68666         0.005466     -0.001092      0.008978
      4.17700      6.26155     11.69170         0.001830     -0.003825      0.034817
      2.08450      6.26079     13.76203         0.069606      0.011648      0.147964
      4.16385      4.16474     13.75184         0.102966      0.105041      0.239359
      6.26183      0.00000      7.50000        -0.000134     -0.000477      0.309229
      0.00000      2.08728      7.50000        -0.000367      0.000206      0.310528
      6.26183      2.08728      9.58728         0.001629      0.008454      0.053757
      0.00000      0.00000      9.58728         0.001130      0.001520      0.045888
      6.26220      8.34773     11.69024        -0.006987     -0.003485     -0.016895
      8.34792      2.08749     11.68820         0.003343      0.003840      0.018272
      6.26010      2.08568     13.76242         0.007312      0.065939      0.146031
      0.00012      0.00101     13.76379         0.044731      0.042938      0.099224
      6.26183      4.17456      7.50000        -0.000203      0.000599      0.312556
      0.00000      6.26183      7.50000        -0.000477     -0.000139      0.309364
      6.26183      6.26183      9.58728        -0.004807     -0.004239      0.061686
      0.00000      4.17456      9.58728        -0.012968      0.000378      0.048058
      6.26096      4.17755     11.69181        -0.003691      0.002006      0.034083
      8.34712      6.26251     11.69030        -0.003120     -0.006314     -0.016586
      6.27053      6.27130     13.79261        -0.143344     -0.138576     -0.070335
      8.34852      4.17576     13.76341        -0.028680     -0.047368      0.125519
      2.08728      0.00000      9.58728        -0.000076      0.000584      0.065212
      4.17456      2.08728      9.58728        -0.003713     -0.005328      0.067269
      2.08728      2.08728      7.50000         0.000413      0.000453     -0.591127
      4.17456      0.00000      7.50000         0.000073      0.001400     -0.591992
      2.08780      8.34893     13.81374        -0.028938      0.006226     -0.002192
      4.17201      2.08535     13.80719        -0.005502     -0.016257      0.023181
      2.08622      2.08663     11.68180         0.000236      0.001418      0.003991
      4.17379      8.34736     11.68220         0.009186      0.010032      0.007095
      2.08728      4.17456      9.58728        -0.007177     -0.002911      0.068073
      4.17456      6.26183      9.58728         0.007374     -0.001310      0.072008
      2.08728      6.26183      7.50000        -0.000944     -0.000516     -0.591825
      4.17456      4.17456      7.50000        -0.001710     -0.001657     -0.592212
      2.08446      4.17290     13.80642        -0.017294     -0.006441      0.029954
      4.17016      6.25800     13.82225         0.054675      0.055668     -0.035912
      2.08858      6.26152     11.68147        -0.020065      0.000420      0.012656
      4.17372      4.17420     11.68132        -0.007008     -0.007572     -0.005462
      6.26183      0.00000      9.58728         0.000629     -0.003783      0.079474
      0.00000      2.08728      9.58728        -0.000604      0.001267      0.066269
      6.26183      2.08728      7.50000        -0.000519     -0.000974     -0.591857
      0.00000      0.00000      7.50000        -0.000010      0.000091     -0.591602
      6.26165      0.00616     13.80463         0.020732     -0.072935      0.110336
      8.34812      2.08858     13.81366         0.004589     -0.025394      0.001410
      6.26098      2.08931     11.68159         0.001542     -0.019653      0.013423
      0.00072      0.00109     11.68160        -0.011990     -0.011084      0.020747
      6.26183      4.17456      9.58728        -0.002349      0.008469      0.072009
      0.00000      6.26183      9.58728        -0.005274      0.001069      0.079310
      6.26183      6.26183      7.50000         0.001096      0.001201     -0.592831
      0.00000      4.17456      7.50000         0.001386      0.000007     -0.591923
      6.25608      4.17158     13.82347         0.066703      0.048695     -0.041048
      0.00495      6.26245     13.80558        -0.070155      0.018556      0.105606
      6.26069      6.26113     11.68860         0.018273      0.017505      0.008526
      8.34659      4.17429     11.68257         0.010216      0.008762      0.008265
    total drift:                               -0.001593     -0.000589      0.009645

  FREE ENERGIE OF THE ION-ELECTRON SYSTEM (eV)
  free  energy   TOTEN  =      -438.96425957 eV

  energy  without entropy=     -438.96425957  energy(sigma->0) =     -438.96425957