 vasp.6.3.0 20Jan22 (build Mar 11 2022 13:48:16) complex

 executed on             LinuxIFC date 2024.02.15  15:30:13

 INCAR:
   SYSTEM = Oxide-Surface
   ISMEAR = 0
   SIGMA = 0.05
   EDIFF = 1E-5
   ALGO = ALL
   ISTART = 0
   IBRION = -1
   NSW = 0
   ISYM = 2
   DIPOL = 0.5 0.5 0.5
   IDIPOL = 3
   LDIPOL = .TRUE.
   GGA = PE
   IVDW = 263
   ENCUT = 600
   PREC = Accurate
   LASPH = .TRUE.
   LREAL = .FALSE.
   ISPIN = 1
   NELM = 200
   NELMIN = 8
   NCORE = 19
   KPAR = 1
   LWAVE = .FALSE.
   LCHARG = .FALSE.

 POTCAR:    PAW_PBE Ti_pv 07Sep2000
 POTCAR:    PAW_PBE O 08Apr2002
 POTCAR:    PAW_PBE Ti_pv 07Sep2000
   VRHFIN =Ti: d3 s1

   TITEL  = PAW_PBE Ti_pv 07Sep2000
   POMASS =   47.880; ZVAL   =   10.000    mass and valenz
   ENMAX  =  222.335; ENMIN  =  166.751 eV

   TITEL  = PAW_PBE O 08Apr2002
   POMASS =   16.000; ZVAL   =    6.000    mass and valenz
   ENMAX  =  400.000; ENMIN  =  300.000 eV

  PAW_PBE Ti_pv 07Sep2000               :
  PAW_PBE O 08Apr2002                   :

 POSCAR: Ti  O
  positions in direct lattice
 exchange correlation table for  LEXCH =        8
   RHO(1)=    0.500       N(1)  =     2000
   RHO(2)=  100.500       N(2)  =     4000

 ion  position               nearest neighbor table
   1  0.750  0.625  0.287-  82 1.95 142 1.95 141 1.95  81 1.95  84 1.98 163 1.98  11 2.96  31 2.96

   2  0.000  0.750  0.287-  83 1.95  84 1.95 103 1.95 104 1.95  85 1.98  32 2.96  12 2.96
   3  0.000  0.625  0.394-  85 1.95 145 1.95  86 1.95 146 1.95  87 1.98  88 1.98  13 2.96  33 2.96

[...]

  80  0.499  0.500  0.710- 234 1.83 239 1.95 179 1.95 240 1.95 180 1.95  50 2.96  70 2.96
  81  0.750  0.750  0.245-   1 1.95  11 1.95
  82  0.750  0.750  0.329-   1 1.95  11 1.95   4 1.98
  83  0.098  0.625  0.287-   2 1.95  32 1.95  41 1.98
  84  0.902  0.625  0.287-   2 1.95  32 1.95   1 1.98
  85  0.000  0.750  0.352-   3 1.95  13 1.95   2 1.98
  86  0.000  0.750  0.435-   3 1.95  13 1.95   6 1.98
  87  0.848  0.625  0.394-   4 1.95  34 1.95   3 1.98
  88  0.152  0.625  0.394-  44 1.95  74 1.95   3 1.98
  89  0.750  0.750  0.458-   5 1.95  15 1.95   4 1.98
  90  0.750  0.750  0.542-   5 1.95  15 1.95   8 2.11
  91  0.098  0.625  0.500-   6 1.95  36 1.95  45 1.98
  92  0.902  0.625  0.500-   6 1.95  36 1.95   5 1.98
  93  1.000  0.750  0.565-  17 1.89   7 1.90   6 2.00
  94  0.000  0.750  0.649-  10 1.81   7 2.02  17 2.02
  95  0.850  0.625  0.607-   7 1.95   8 1.97  38 1.97
  96  0.150  0.625  0.607-   7 1.95  48 1.97  78 1.97
  97  0.750  0.750  0.672-   8 1.86  19 2.10   9 2.10
  98  0.750  0.750  0.756-   9 1.83  19 1.83
  99  0.094  0.625  0.719-  40 1.95  10 1.95  49 2.02
 100  0.906  0.625  0.719-  40 1.94  10 1.95   9 2.03
 101  0.750  0.000  0.245-  11 1.95  21 1.95
 102  0.750  0.000  0.329-  11 1.95  21 1.95  14 1.98
 103  0.098  0.875  0.287-   2 1.95  12 1.95  51 1.98
 104  0.902  0.875  0.287-   2 1.95  12 1.95  11 1.98
 105  0.000  0.000  0.352-  13 1.95  23 1.95  12 1.98
 106  0.000  0.000  0.435-  13 1.95  23 1.95  16 1.98
 107  0.848  0.875  0.394-   4 1.95  14 1.95  13 1.98
 108  0.152  0.875  0.394-  44 1.95  54 1.95  13 1.98
 109  0.750  0.000  0.458-  15 1.95  25 1.95  14 1.98
 110  0.750  0.000  0.542-  15 1.95  25 1.95  18 2.11
 111  0.098  0.875  0.500-   6 1.95  16 1.95  55 1.98
 112  0.902  0.875  0.500-   6 1.95  16 1.95  15 1.98
 113  1.000  0.000  0.565-  27 1.90  17 1.90  16 2.00
 114  0.000  0.000  0.649-  20 1.81  27 2.02  17 2.02
 115  0.850  0.875  0.607-  17 1.95  18 1.97   8 1.98
 116  0.150  0.875  0.607-  17 1.95  58 1.97  48 1.97
 117  0.750  0.000  0.672-  18 1.86  29 2.10  19 2.10
 118  0.750  0.000  0.756-  29 1.83  19 1.83
 119  0.094  0.875  0.719-  10 1.95  20 1.95  59 2.03
 120  0.906  0.875  0.719-  10 1.94  20 1.95  19 2.03
 121  0.750  0.250  0.245-  21 1.95  31 1.95
 122  0.750  0.250  0.329-  21 1.95  31 1.95  24 1.98
 123  0.098  0.125  0.287-  12 1.95  22 1.95  61 1.98
 124  0.902  0.125  0.287-  12 1.95  22 1.95  21 1.98
 125  0.000  0.250  0.352-  23 1.95  33 1.95  22 1.98
 126  0.000  0.250  0.435-  23 1.95  33 1.95  26 1.98
 127  0.848  0.125  0.394-  14 1.95  24 1.95  23 1.98
 128  0.152  0.125  0.394-  54 1.95  64 1.95  23 1.98
 129  0.750  0.250  0.458-  25 1.95  35 1.95  24 1.98
 130  0.750  0.250  0.542-  25 1.95  35 1.95  28 2.11
 131  0.098  0.125  0.500-  16 1.95  26 1.95  65 1.98
 132  0.902  0.125  0.500-  16 1.95  26 1.95  25 1.98
 133  1.000  0.250  0.565-  27 1.89  37 1.90  26 2.00
 134  0.000  0.250  0.649-  30 1.81  37 2.02  27 2.02
 135  0.850  0.125  0.607-  27 1.95  18 1.97  28 1.98
 136  0.150  0.125  0.607-  27 1.95  58 1.97  68 1.97
 137  0.750  0.250  0.672-  28 1.86  29 2.10  39 2.10
 138  0.750  0.250  0.756-  39 1.83  29 1.83
 139  0.094  0.125  0.719-  30 1.95  20 1.95  69 2.03
[...]
 226  0.500  0.500  0.435-  43 1.95  73 1.95  76 1.98
 227  0.348  0.375  0.394-  64 1.95  74 1.95  73 1.98
 228  0.652  0.375  0.394-  24 1.95  34 1.95  73 1.98
 229  0.250  0.500  0.458-  45 1.95  75 1.95  74 1.98
 230  0.250  0.500  0.542-  45 1.95  75 1.95  78 2.10
 231  0.598  0.375  0.500-  66 1.95  76 1.95  35 1.98
 232  0.402  0.375  0.500-  66 1.95  76 1.95  75 1.98
 233  0.500  0.500  0.566-  47 1.90  77 1.90  76 2.00
 234  0.500  0.500  0.650-  80 1.83  77 2.01  47 2.01
 235  0.350  0.375  0.607-  77 1.95  78 1.97  68 1.97
 236  0.650  0.375  0.607-  77 1.95  28 1.97  38 1.97
 237  0.248  0.500  0.671-  78 1.86  79 2.10  49 2.10
 238  0.253  0.500  0.756-  49 1.84  79 1.84
 239  0.594  0.374  0.718-  70 1.94  80 1.95  39 2.02
 240  0.405  0.373  0.717-  70 1.93  80 1.95  79 2.03

  LATTYP: Found a simple orthorhombic cell.
 ALAT       =    11.8303781148
 B/A-ratio  =     1.0992024327
 C/A-ratio  =     2.5825673970

  Lattice vectors:

 A1 = (   0.0000000000, -11.8303781148,   0.0000000000)
 A2 = (  13.0039804036,   0.0000000000,   0.0000000000)
 A3 = (   0.0000000000,   0.0000000000,  30.5527488131)

Analysis of symmetry for initial positions (statically):
 Subroutine PRICEL returns:
 Original cell was already a primitive cell.

 Routine SETGRP: Setting up the symmetry group for a
 simple orthorhombic supercell.

 Subroutine GETGRP returns: Found  2 space group operations
 (whereof  2 operations were pure point group operations)
 out of a pool of  8 trial point group operations.

The static configuration has the point symmetry C_1h.

Analysis of symmetry for dynamics (positions and initial velocities):
 Subroutine PRICEL returns:
 Original cell was already a primitive cell.

[...]

The dynamic configuration has the point symmetry C_1h.

Analysis of constrained symmetry for selective dynamics:
 Subroutine PRICEL returns:
 Original cell was already a primitive cell.

 Routine SETGRP: Setting up the symmetry group for a
 simple orthorhombic supercell.

 Subroutine GETGRP returns: Found  2 space group operations
 (whereof  2 operations were pure point group operations)
 out of a pool of  8 trial point group operations.

The constrained configuration has the point symmetry C_1h.

 Subroutine INISYM returns: Found  2 space group operations
 (whereof  2 operations are pure point group operations),
 and found     1 'primitive' translations

                                     Primitive cell

  volume of cell :    4700.2961

  direct lattice vectors                    reciprocal lattice vectors
    13.003980404  0.000000000  0.000000000     0.076899531  0.000000000  0.000000000
     0.000000000 11.830378115  0.000000000     0.000000000  0.084528152  0.000000000
     0.000000000  0.000000000 30.552748813     0.000000000  0.000000000  0.032730279

  length of vectors
    13.003980404 11.830378115 30.552748813     0.076899531  0.084528152  0.032730279

  position of ions in fractional coordinates (direct lattice)
     0.750000000  0.625000000  0.287188045
     0.000000000  0.750000000  0.287188045
     0.000000000  0.625000000  0.393594023
     0.750000000  0.750000000  0.393594023
     0.750000000  0.625000000  0.500000000
     0.000000000  0.750000000  0.500000000
     0.000030263  0.625021955  0.604127154
     0.750032362  0.749971388  0.610746625
     0.749731784  0.625029289  0.720403779
     0.999935195  0.750136607  0.708197468
     0.750000000  0.875000000  0.287188045
     0.000000000  0.000000000  0.287188045
     0.000000000  0.875000000  0.393594023
     0.750000000  0.000000000  0.393594023
     0.750000000  0.875000000  0.500000000
     0.000000000  0.000000000  0.500000000
     0.999920704  0.875024125  0.604160308
     0.749949659  0.000000003  0.610754269
     0.749816754  0.875046716  0.720461943
     0.000203576  0.000000001  0.708205577
     0.750000000  0.125000000  0.287188045
     0.000000000  0.250000000  0.287188045
     0.000000000  0.125000000  0.393594023
     0.750000000  0.250000000  0.393594023
     0.750000000  0.125000000  0.500000000
     0.000000000  0.250000000  0.500000000
     0.999920802  0.124975870  0.604160311
     0.750032509  0.250028638  0.610746624
     0.749816769  0.124953279  0.720461940
     0.999935200  0.249863407  0.708197468
     0.750000000  0.375000000  0.287188045
     0.000000000  0.500000000  0.287188045
     0.000000000  0.375000000  0.393594023
     0.750000000  0.500000000  0.393594023
     0.750000000  0.375000000  0.500000000
     0.000000000  0.500000000  0.500000000
     0.000030398  0.374978044  0.604127149
     0.750097307  0.500000000  0.610773780
     0.749731785  0.374970706  0.720403779
     0.999542300  0.500000003  0.708167157
     0.250000000  0.625000000  0.287188045
     0.500000000  0.750000000  0.287188045
     0.500000000  0.625000000  0.393594023
     0.250000000  0.750000000  0.393594023
     0.250000000  0.625000000  0.500000000
     0.500000000  0.750000000  0.500000000
     0.500031638  0.624340840  0.604661207
     0.249948918  0.750119636  0.610607905
     0.249451412  0.625320990  0.719923266
     0.500143258  0.750053202  0.707770089
     0.250000000  0.875000000  0.287188045
     0.500000000  0.000000000  0.287188045
     0.500000000  0.875000000  0.393594023
     0.250000000  0.000000000  0.393594023
     0.250000000  0.875000000  0.500000000
     0.500000000  0.000000000  0.500000000
     0.500105643  0.874698160  0.603798456
     0.250058384  0.000000013  0.610785486
     0.250317485  0.875043647  0.720507658
     0.500048067  0.999999992  0.707840095
[...]
     0.500000000  0.500000000  0.435304973
     0.347999548  0.375000000  0.393594023
     0.652000452  0.375000000  0.393594023
     0.250000000  0.500000000  0.458289049
     0.250000000  0.500000000  0.541710951
     0.597999548  0.375000000  0.500000000
     0.402000452  0.375000000  0.500000000
     0.499960000  0.499999985  0.565548941
     0.500123817  0.500000009  0.649640772
     0.350033276  0.375003247  0.607321440
     0.649948086  0.375040970  0.607276350
     0.248437287  0.500000003  0.671453186
     0.253450530  0.499999993  0.755625965
     0.594149295  0.374169259  0.718095736
     0.405099605  0.373374002  0.717257638

  ion indices of the primitive-cell ions
   primitive index   ion index
                 1           1
                 2           2
                 3           3
                 4           4
                 5           5
[...]
   O          19.894          3.263          5.545          2.473          2.415          1.037
   O          20.093          3.268          5.573          2.414          2.245          1.042
   O          20.207          3.271          5.587          2.561          2.681          1.044
   O          20.204          3.271          5.587          2.561          2.682          1.044
   O          20.482          3.278          5.625          2.537          2.607          1.051
   O          19.367          3.250          5.482          2.707          3.166          1.028
   O          19.921          3.263          5.547          2.678          3.067          1.036
   O          19.920          3.263          5.547          2.676          3.059          1.037

  vdW correction parametrized for the method pbe

  IVDW = 263
  VDW_RADIUS =    50.000 A
  VDW_SR =     0.830
  VDW_D =     6.000
  SCSRAD =   120.000 A
  LVDWSCS = T
  LSCSGRAD = T
  LSCALER0 = T
  ITIM =  1
  Edisp (eV):  -66.87514

  FORCE on cell =-STRESS in cart. coord.  units (eV):
  Direction    XX          YY          ZZ          XY          YZ          ZX
  Alpha Z  4654.20310  4654.20310  4654.20310
  Ewald  981574.53802999323.53495************    -0.00002    -0.00015     8.02854
  Hartree************************************    -0.00000    -0.00005     3.83728
  E(xc)   -8594.32102 -8576.24020 -8603.89469     0.00000     0.00000     0.01482
  Local  ************************************     0.00002     0.00019   -11.92593
  n-local -5399.91546 -5325.10665 -5446.52606    -0.03255     0.00006     0.11250
  augment  5220.29126  5202.03799  5223.58396     0.00000     0.00000     0.04983
  Kinetic 28616.22525 28145.53958 28666.66700     0.12086    -0.00008    -0.34046
  Fock        0.00000     0.00000     0.00000     0.00000     0.00000     0.00000
  vdW      -102.34261  -100.18041   -86.47869     0.00898     0.00002     0.00223
  Total     -13.13401   -62.65358   -50.32829     0.00000     0.00000    -0.22119
  in kB      -4.47696   -21.35656   -17.15527     0.00000     0.00000    -0.07540

 VOLUME and BASIS-vectors are now :
  energy-cutoff  :      600.00
  volume of cell :     4700.30
      direct lattice vectors                 reciprocal lattice vectors
    13.003980404  0.000000000  0.000000000     0.076899531  0.000000000  0.000000000
     0.000000000 11.830378115  0.000000000     0.000000000  0.084528152  0.000000000
     0.000000000  0.000000000 30.552748813     0.000000000  0.000000000  0.032730279

  length of vectors
    13.003980404 11.830378115 30.552748813     0.076899531  0.084528152  0.032730279

 FORCES acting on ions:
    Electron-Ion                     Ewald-Force                    Non-Local-Force
   0.153E-01 0.121E-01 0.380E+04   -.154E-01 -.119E-01 -.380E+04   0.417E-04 -.145E-04 0.437E+00
   0.949E-02 0.961E-02 0.398E+04   -.987E-02 -.953E-02 -.397E+04   0.734E-04 -.110E-04 -.389E+01
   0.582E-01 0.188E-01 0.193E+04   -.603E-01 -.185E-01 -.193E+04   0.331E-03 0.236E-04 -.441E-01
   0.514E-01 0.958E-01 0.192E+04   -.520E-01 -.949E-01 -.192E+04   0.148E-03 -.665E-04 0.202E+00
   0.587E+00 0.331E+00 -.217E+02   -.591E+00 -.331E+00 0.225E+02   0.605E-03 0.209E-04 -.138E+00
   0.239E+00 0.149E-02 -.904E+01   -.244E+00 0.403E-02 0.796E+01   0.144E-02 -.176E-02 0.347E+00
   0.102E+01 0.230E-01 -.190E+04   -.100E+01 -.195E-01 0.190E+04   -.227E-02 -.321E-02 0.631E-02
   -.156E+00 0.121E-01 -.197E+04   0.181E+00 0.500E-02 0.196E+04   -.788E-02 -.410E-02 -.450E-01
   -.909E+00 0.717E+00 -.379E+04   0.107E+01 -.660E+00 0.379E+04   -.254E-01 -.900E-02 -.171E+00
   -.498E+00 0.172E+01 -.381E+04   0.530E+00 -.173E+01 0.381E+04   0.204E-02 -.183E-02 0.937E+00
   0.697E-02 0.121E-01 0.380E+04   -.734E-02 -.119E-01 -.380E+04   0.109E-03 -.137E-04 0.437E+00
   0.831E-02 -.880E-08 0.398E+04   -.866E-02 -.442E-07 -.397E+04   0.667E-04 0.751E-23 -.389E+01
   0.406E-01 0.178E-01 0.193E+04   -.422E-01 -.176E-01 -.193E+04   0.219E-03 0.136E-04 -.443E-01
   -.786E-02 -.226E-06 0.192E+04   0.660E-02 0.217E-06 -.192E+04   0.320E-03 0.139E-22 0.202E+00
   -.154E+00 0.319E+00 -.211E+02   0.152E+00 -.315E+00 0.220E+02   0.413E-03 -.188E-03 -.139E+00
   0.985E-01 -.234E-06 -.920E+01   -.101E+00 -.467E-05 0.813E+01   0.428E-03 -.342E-22 0.346E+00
   -.290E-01 0.378E-01 -.190E+04   0.481E-01 -.342E-01 0.190E+04   -.384E-02 -.350E-02 0.672E-02
   -.727E+00 -.724E-05 -.197E+04   0.736E+00 0.164E-04 0.197E+04   0.292E-02 0.645E-21 -.414E-01
   -.900E+00 0.292E+00 -.379E+04   0.912E+00 -.269E+00 0.379E+04   0.159E-01 -.287E-03 -.182E+00
   0.318E-01 -.475E-05 -.381E+04   -.131E-01 0.190E-04 0.381E+04   0.134E-03 -.652E-21 0.953E+00
   0.697E-02 -.121E-01 0.380E+04   -.734E-02 0.119E-01 -.380E+04   0.109E-03 0.137E-04 0.437E+00
   0.949E-02 -.961E-02 0.398E+04   -.987E-02 0.953E-02 -.397E+04   0.734E-04 0.110E-04 -.389E+01
   0.406E-01 -.178E-01 0.193E+04   -.422E-01 0.176E-01 -.193E+04   0.219E-03 -.136E-04 -.443E-01
   0.514E-01 -.958E-01 0.192E+04   -.520E-01 0.949E-01 -.192E+04   0.148E-03 0.665E-04 0.202E+00
   -.154E+00 -.319E+00 -.211E+02   0.152E+00 0.315E+00 0.220E+02   0.413E-03 0.188E-03 -.139E+00
   0.239E+00 -.148E-02 -.904E+01   -.244E+00 -.403E-02 0.796E+01   0.144E-02 0.176E-02 0.347E+00
   -.292E-01 -.378E-01 -.190E+04   0.479E-01 0.343E-01 0.190E+04   -.384E-02 0.350E-02 0.672E-02
   -.156E+00 -.121E-01 -.197E+04   0.181E+00 -.511E-02 0.196E+04   -.788E-02 0.410E-02 -.450E-01
   -.900E+00 -.292E+00 -.379E+04   0.912E+00 0.269E+00 0.379E+04   0.159E-01 0.287E-03 -.182E+00
   -.498E+00 -.172E+01 -.381E+04   0.530E+00 0.173E+01 0.381E+04   0.204E-02 0.183E-02 0.937E+00
   0.153E-01 -.121E-01 0.380E+04   -.154E-01 0.119E-01 -.380E+04   0.417E-04 0.145E-04 0.437E+00
   0.107E-01 0.738E-08 0.398E+04   -.111E-01 0.471E-07 -.397E+04   0.865E-04 -.743E-23 -.389E+01
   0.582E-01 -.188E-01 0.193E+04   -.603E-01 0.185E-01 -.193E+04   0.331E-03 -.236E-04 -.441E-01
   0.110E+00 0.229E-06 0.192E+04   -.110E+00 -.190E-06 -.192E+04   -.710E-04 -.101E-22 0.202E+00
   0.587E+00 -.331E+00 -.217E+02   -.591E+00 0.331E+00 0.225E+02   0.605E-03 -.209E-04 -.138E+00
   0.344E+00 -.228E-05 -.889E+01   -.352E+00 0.576E-05 0.781E+01   0.235E-02 0.369E-22 0.347E+00
   0.102E+01 -.230E-01 -.190E+04   -.100E+01 0.196E-01 0.190E+04   -.227E-02 0.321E-02 0.631E-02
   0.388E+00 -.136E-04 -.196E+04   -.356E+00 0.530E-04 0.196E+04   -.672E-02 0.450E-21 -.510E-01
   -.909E+00 -.717E+00 -.379E+04   0.107E+01 0.660E+00 0.379E+04   -.254E-01 0.900E-02 -.171E+00
   -.562E+00 0.788E-06 -.381E+04   0.639E+00 -.802E-06 0.381E+04   -.309E-01 0.123E-20 0.919E+00
   -.154E-01 0.104E-01 0.380E+04   0.156E-01 -.101E-01 -.380E+04   -.452E-04 -.382E-04 0.437E+00
   -.934E-02 0.225E-01 0.398E+04   0.973E-02 -.221E-01 -.397E+04   -.744E-04 -.471E-04 -.389E+01
   -.545E-01 0.119E+00 0.193E+04   0.565E-01 -.112E+00 -.193E+04   -.306E-03 -.146E-02 -.441E-01
   -.547E-01 0.687E-01 0.192E+04   0.555E-01 -.675E-01 -.192E+04   -.164E-03 0.326E-04 0.203E+00
   -.708E+00 0.158E+00 -.209E+02   0.712E+00 -.149E+00 0.217E+02   -.208E-03 -.803E-03 -.133E+00
   -.202E+00 0.980E+00 -.946E+01   0.206E+00 -.101E+01 0.843E+01   -.335E-03 0.177E-01 0.331E+00
   -.859E-01 0.588E+00 -.190E+04   0.679E-01 -.460E+00 0.190E+04   0.107E-02 -.609E-01 0.422E-01
   -.668E+00 0.461E-01 -.196E+04   0.641E+00 -.326E-01 0.196E+04   0.107E-01 -.811E-02 -.598E-01
   0.480E+01 0.403E+01 -.379E+04   -.487E+01 -.418E+01 0.379E+04   -.102E-01 0.182E-01 -.189E+00
   -.150E+01 -.365E+01 -.381E+04   0.142E+01 0.391E+01 0.380E+04   0.465E-01 -.560E-01 0.100E+01
   -.711E-02 0.105E-01 0.380E+04   0.748E-02 -.101E-01 -.380E+04   -.109E-03 -.479E-04 0.437E+00
   -.817E-02 -.614E-07 0.398E+04   0.853E-02 0.109E-06 -.397E+04   -.667E-04 0.643E-23 -.389E+01
   -.377E-01 0.115E+00 0.193E+04   0.392E-01 -.111E+00 -.193E+04   -.190E-03 -.101E-02 -.443E-01
   0.496E-02 -.970E-07 0.192E+04   -.370E-02 0.923E-08 -.192E+04   -.289E-03 0.137E-21 0.203E+00
   0.745E-01 0.806E-01 -.209E+02   -.725E-01 -.567E-01 0.217E+02   -.635E-03 -.146E-02 -.138E+00
   -.642E-01 -.443E-05 -.712E+01   0.653E-01 0.109E-04 0.602E+01   0.265E-03 -.212E-22 0.334E+00
   0.574E+00 -.236E+01 -.189E+04   -.589E+00 0.240E+01 0.189E+04   0.368E-03 -.905E-02 -.539E-01
   -.141E+00 0.644E-05 -.197E+04   0.127E+00 -.609E-04 0.197E+04   0.454E-02 -.136E-20 -.535E-01
   0.601E+00 0.301E+00 -.380E+04   -.609E+00 -.349E+00 0.380E+04   -.159E-01 0.559E-02 -.187E+00
   0.942E+00 0.511E-05 -.380E+04   -.958E+00 -.941E-06 0.380E+04   -.799E-02 0.379E-21 0.896E+00
[...]
   -.534E+02 -.486E-01 0.115E+04   0.574E+02 0.476E-01 -.115E+04   -.355E+01 0.172E-02 0.159E+00
   0.534E+02 -.575E-01 0.115E+04   -.573E+02 0.567E-01 -.115E+04   0.355E+01 0.125E-02 0.156E+00
   -.230E+00 -.660E-08 0.497E+03   0.233E+00 0.640E-06 -.501E+03   -.313E-02 0.144E-22 0.416E+01
   -.105E+01 0.306E-05 -.538E+03   0.106E+01 -.284E-05 0.545E+03   -.587E-03 0.124E-21 -.709E+01
   -.552E+02 -.531E+00 -.704E+01   0.599E+02 0.528E+00 0.680E+01   -.518E+01 0.179E-01 0.334E+00
   0.549E+02 -.477E+00 -.687E+01   -.596E+02 0.472E+00 0.663E+01   0.516E+01 0.200E-01 0.337E+00
   -.109E+00 0.240E-03 -.643E+03   0.908E-01 -.583E-04 0.636E+03   0.205E-01 -.843E-21 0.666E+01
   -.146E+01 -.150E-03 -.163E+04   0.155E+01 0.667E-04 0.163E+04   -.718E-01 0.782E-22 0.229E+01
   -.284E+02 0.439E-01 -.115E+04   0.314E+02 -.111E+00 0.115E+04   -.297E+01 0.699E-01 0.815E+00
   0.276E+02 -.362E+00 -.115E+04   -.306E+02 0.313E+00 0.115E+04   0.298E+01 0.542E-01 0.935E+00
   0.292E+01 -.610E-04 -.183E+04   -.320E+01 0.325E-04 0.183E+04   0.292E+00 -.415E-21 -.230E+01
   -.865E+01 0.131E-03 -.274E+04   0.944E+01 -.754E-04 0.276E+04   -.868E+00 0.747E-23 -.208E+02
   -.214E+02 -.196E+01 -.236E+04   0.274E+02 0.205E+01 0.236E+04   -.607E+01 0.720E-01 -.290E+01
   0.223E+02 -.173E+01 -.235E+04   -.285E+02 0.171E+01 0.235E+04   0.641E+01 0.212E+00 -.249E+01
   0.388E+00 -.195E-02 0.919E+02   -.119E-11 -.164E-11 0.209E-10   -.386E+00 -.278E-16 -.920E+02

 POSITION                                       TOTAL-FORCE (eV/Angst)
      9.75299      7.39399      8.77438        -0.000142      0.000096     -3.381664
      0.00000      8.87278      8.77438        -0.000320      0.000066      2.916661
      0.00000      7.39399     12.02538        -0.001712      0.000282      0.526472
      9.75299      8.87278     12.02538        -0.000524      0.000731     -0.693283
      9.75299      7.39399     15.27637        -0.003118      0.000290      0.703789
      0.00000      8.87278     15.27637        -0.003983      0.003786     -0.737410
      0.00039      7.39425     18.45775         0.017390      0.000164      0.063577
      9.75341      8.87245     18.65999         0.017310      0.011473     -0.064934
      9.74950      7.39433     22.01032         0.129058      0.046731     -0.029054
     13.00314      8.87440     21.63738         0.031484     -0.004902     -0.024170
      9.75299     10.35158      8.77438        -0.000270      0.000130     -3.381535
      0.00000      0.00000      8.77438        -0.000295     -0.000000      2.916684
      0.00000     10.35158     12.02538        -0.001401      0.000245      0.526832
      9.75299      0.00000     12.02538        -0.000946     -0.000000     -0.693070
      9.75299     10.35158     15.27637        -0.000999      0.003586      0.705890
      0.00000      0.00000     15.27637        -0.001964     -0.000000     -0.736169
     13.00295     10.35187     18.45876         0.013597      0.000389      0.063410
      9.75233      0.00000     18.66022         0.010007     -0.000000     -0.051647
      9.75060     10.35213     22.01209         0.024529      0.022719     -0.013248
      0.00265      0.00000     21.63763         0.018682     -0.000000     -0.027971
      9.75299      1.47880      8.77438        -0.000270     -0.000130     -3.381535
      0.00000      2.95759      8.77438        -0.000320     -0.000066      2.916661
      0.00000      1.47880     12.02538        -0.001401     -0.000245      0.526832
      9.75299      2.95759     12.02538        -0.000524     -0.000731     -0.693283
      9.75299      1.47880     15.27637        -0.000999     -0.003586      0.705890
      0.00000      2.95759     15.27637        -0.003983     -0.003786     -0.737410
     13.00295      1.47851     18.45876         0.013597     -0.000389      0.063410
      9.75341      2.95793     18.65999         0.017310     -0.011473     -0.064934
      9.75060      1.47824     22.01209         0.024529     -0.022719     -0.013248
     13.00314      2.95598     21.63738         0.031484      0.004902     -0.024170
      9.75299      4.43639      8.77438        -0.000142     -0.000096     -3.381664
      0.00000      5.91519      8.77438        -0.000332     -0.000000      2.916636
      0.00000      4.43639     12.02538        -0.001712     -0.000282      0.526472
      9.75299      5.91519     12.02538        -0.000105     -0.000000     -0.693264
      9.75299      4.43639     15.27637        -0.003118     -0.000290      0.703789
      0.00000      5.91519     15.27637        -0.005902     -0.000000     -0.739075
      0.00040      4.43613     18.45775         0.017390     -0.000164      0.063577
      9.75425      5.91519     18.66082         0.025739     -0.000000     -0.072207
      9.74950      4.43605     22.01032         0.129058     -0.046731     -0.029054
     12.99803      5.91519     21.63645         0.042960     -0.000000     -0.019237
      3.25100      7.39399      8.77438         0.000126      0.000305     -3.382523
      6.50199      8.87278      8.77438         0.000303      0.000307      2.917095
      6.50199      7.39399     12.02538         0.001638      0.005924      0.526297
      3.25100      8.87278     12.02538         0.000543      0.001230     -0.698173
      3.25100      7.39399     15.27637         0.003570      0.008931      0.679492
      6.50199      8.87278     15.27637         0.003198     -0.008216     -0.712705
      6.50240      7.38619     18.47406        -0.015955      0.067162     -0.020163
      3.25033      8.87420     18.65575        -0.017930      0.006457     -0.020822
      3.24386      7.39778     21.99563        -0.075951     -0.121291      0.157692
      6.50385      8.87341     21.62432        -0.044802      0.186837     -0.053937
      3.25100     10.35158      8.77438         0.000248      0.000348     -3.382148
      6.50199      0.00000      8.77438         0.000284     -0.000000      2.917568
      6.50199     10.35158     12.02538         0.001368      0.002770      0.530537
      3.25100      0.00000     12.02538         0.000964     -0.000000     -0.696258
      3.25100     10.35158     15.27637         0.001539      0.022211      0.700174
      6.50199      0.00000     15.27637         0.001255     -0.000000     -0.773582
      6.50336     10.34801     18.44770        -0.013207      0.024651      0.046346
      3.25175      0.00000     18.66118        -0.009518     -0.000000     -0.023448
      3.25512     10.35210     22.01349        -0.020377     -0.039334      0.033589
      6.50262     11.83038     21.62646        -0.022030     -0.000000     -0.020286
[...]
      6.50199      5.91519     13.29976        -0.000599     -0.000000     -0.026294
      4.52538      4.43639     12.02538         0.505092      0.000730      0.048982
      8.47860      4.43639     12.02538        -0.506934      0.000423      0.048308
      3.25100      5.91519     14.00199        -0.000987     -0.000000     -0.178411
      3.25100      5.91519     16.55076         0.003876     -0.000000      0.101801
      7.77637      4.43639     15.27637        -0.419213      0.014451      0.093891
      5.22761      4.43639     15.27637         0.408969      0.014997      0.094407
      6.50147      5.91519     17.27907         0.002104     -0.000000     -0.053508
      6.50360      5.91519     19.84831         0.007845     -0.000000      0.245922
      4.55183      4.43643     18.55534         0.103813      0.002331      0.000246
      8.45191      4.43688     18.55396        -0.082923      0.005156      0.005550
      3.23067      5.91519     20.51474         0.018192     -0.000000     -0.087880
      3.29587      5.91519     23.08645        -0.077189     -0.000000     -0.244490
      7.72631      4.42656     21.93980        -0.019561      0.152130      0.158131
      5.26791      4.41716     21.91419         0.145197      0.191457      0.159435
    total drift:                                0.002175     -0.001949     -0.091412

  FREE ENERGIE OF THE ION-ELECTRON SYSTEM (eV)
  free  energy   TOTEN  =     -2186.67688744 eV

  energy  without entropy=    -2186.67688744  energy(sigma->0) =    -2186.67688744