 vasp.6.3.0 20Jan22 (build Apr  1 2022 16:44:48) complex
 executed on        HPECrayEX_GCC date 2022.11.13  04:10:00

 INCAR:
   SYSTEM = MgO-rocksalt
   ISMEAR = 0
   SIGMA = 0.05
   EDIFF = 1E-6
   ALGO = ALL
   ISTART = 0
   IBRION = -1
   NSW = 0
   ISYM = 0
   DIPOL = 0.5 0.5 0.5
   IDIPOL = 3
   LDIPOL = .TRUE.
   LHFCALC = .TRUE.
   GGA = B5
   AEXX = 0.2
   AGGAX = 0.72
   AGGAC = 0.81
   ALDAC = 0.19
   IVDW = 1
   VDW_S6 = 1.05
   VDW_C6 = 0.63 0.70
   VDW_R0 = 1.243 1.342
   ENCUT = 600
   PREC = Accurate
   LASPH = .TRUE.
   LREAL = .FALSE.
   ISPIN = 1
   NELM = 200
   NELMIN = 8
   NCORE = 8
   KPAR = 1
   LWAVE = .FALSE.
   LCHARG = .FALSE.

 POTCAR:    PAW_PBE Mg_pv 13Apr2007
 POTCAR:    PAW_PBE O 08Apr2002
 POTCAR:    PAW_PBE Mg_pv 13Apr2007
   VRHFIN =Mg: p6s2

   TITEL  = PAW_PBE Mg_pv 13Apr2007
   POMASS =   24.305; ZVAL   =    8.000    mass and valenz
   ENMAX  =  403.929; ENMIN  =  302.947 eV

   TITEL  = PAW_PBE O 08Apr2002
   POMASS =   16.000; ZVAL   =    6.000    mass and valenz
   ENMAX  =  400.000; ENMIN  =  300.000 eV

  PAW_PBE Mg_pv 13Apr2007               :
  PAW_PBE O 08Apr2002                   :

 POSCAR: Mg  O
  positions in direct lattice
 exchange correlation table for  LEXCH =       12
   RHO(1)=    0.500       N(1)  =     2000
   RHO(2)=  100.500       N(2)  =     4000

 ion  position               nearest neighbor table
   1  0.250  0.000  0.351-  33 2.12  35 2.12  36 2.12  43 2.12  52 2.12
   2  0.500  0.250  0.351-  34 2.12  35 2.12  36 2.12  44 2.12  51 2.12
   3  0.250  0.250  0.450-  35 2.12  34 2.12  33 2.12  41 2.12  50 2.12  39 2.13
   4  0.500  0.000  0.450-  36 2.12  34 2.12  33 2.12  42 2.12  49 2.12  40 2.15
   5  0.252  0.999  0.551-  40 2.10  37 2.11  47 2.11  39 2.12  56 2.14  33 2.14
   6  0.500  0.250  0.548-  34 2.08  55 2.10  39 2.10  40 2.10  48 2.10
   7  0.236  0.250  0.647-  54 2.00  39 2.07  37 2.11  45 2.11  38 2.24
   8  0.500  0.988  0.658-  46 2.02  37 2.15  53 2.15  38 2.22
   9  0.250  0.500  0.351-  41 2.12  35 2.12  43 2.12  44 2.12  60 2.12
  10  0.500  0.750  0.351-  42 2.12  36 2.12  43 2.12  44 2.12  59 2.12
  11  0.250  0.750  0.450-  43 2.12  41 2.12  42 2.12  33 2.12  58 2.12  47 2.12
  12  0.500  0.500  0.450-  44 2.12  41 2.12  42 2.12  34 2.12  57 2.12  48 2.15
  13  0.252  0.501  0.551-  48 2.10  45 2.11  47 2.11  39 2.12  64 2.14  41 2.14
  14  0.500  0.750  0.551-  47 2.11  63 2.11  48 2.14  40 2.14  46 2.14  42 2.15
  15  0.247  0.750  0.649-  62 2.09  47 2.11  37 2.13  45 2.13  46 2.14
  16  0.500  0.512  0.658-  46 2.02  45 2.15  61 2.15  38 2.22
  17  0.750  0.000  0.351-  49 2.12  36 2.12  51 2.12  52 2.12  59 2.12
  18  0.000  0.250  0.351-  50 2.12  35 2.12  51 2.12  52 2.12  60 2.12
  19  0.750  0.250  0.450-  51 2.12  49 2.12  50 2.12  34 2.12  57 2.12  55 2.13
  20  0.000  0.000  0.450-  56 2.11  52 2.12  50 2.12  33 2.12  49 2.12  58 2.12
  21  0.748  0.999  0.551-  40 2.10  53 2.11  63 2.11  55 2.12  56 2.14  49 2.14
  22  1.000  0.250  0.549-  50 2.10  56 2.11  64 2.11  55 2.14  39 2.14  54 2.14
  23  0.764  0.250  0.647-  54 2.00  55 2.07  53 2.11  61 2.11  38 2.24
  24  0.000  0.997  0.648-  62 2.10  37 2.10  53 2.10  56 2.11  54 2.14
  25  0.750  0.500  0.351-  57 2.12  51 2.12  44 2.12  59 2.12  60 2.12
  26  0.000  0.750  0.351-  58 2.12  52 2.12  43 2.12  59 2.12  60 2.12
  27  0.750  0.750  0.450-  59 2.12  49 2.12  57 2.12  58 2.12  42 2.12  63 2.12
  28  0.000  0.500  0.450-  64 2.11  60 2.12  57 2.12  58 2.12  41 2.12  50 2.12
  29  0.748  0.501  0.551-  48 2.10  61 2.11  63 2.11  55 2.12  64 2.14  57 2.14
  30  0.000  0.750  0.550-  58 2.12  64 2.12  56 2.12  63 2.12  47 2.12  62 2.14
  31  0.753  0.750  0.649-  62 2.09  63 2.11  53 2.13  61 2.13  46 2.14
  32  0.000  0.503  0.648-  62 2.10  45 2.10  61 2.10  64 2.11  54 2.14
  33  0.250  0.000  0.450-   1 2.12   3 2.12   4 2.12  11 2.12  20 2.12   5 2.14
  34  0.500  0.250  0.450-   6 2.08   2 2.12   4 2.12   3 2.12  12 2.12  19 2.12
  35  0.250  0.250  0.351-   3 2.12   2 2.12   1 2.12   9 2.12  18 2.12
  36  0.500  0.000  0.351-   4 2.12   2 2.12   1 2.12  10 2.12  17 2.12
  37  0.248  0.001  0.650-  24 2.10   7 2.11   5 2.11  15 2.13   8 2.15
  38  0.500  0.250  0.655-  16 2.22   8 2.22   7 2.24  23 2.24
  39  0.252  0.250  0.550-   7 2.07   6 2.10  13 2.12   5 2.12   3 2.13  22 2.14
  40  0.500  0.002  0.551-   5 2.10  21 2.10   6 2.10  14 2.14   4 2.15
  41  0.250  0.500  0.450-   9 2.12   3 2.12  11 2.12  12 2.12  28 2.12  13 2.14
  42  0.500  0.750  0.450-  10 2.12   4 2.12  11 2.12  12 2.12  27 2.12  14 2.15
  43  0.250  0.750  0.351-  11 2.12   9 2.12  10 2.12   1 2.12  26 2.12
  44  0.500  0.500  0.351-  12 2.12   9 2.12  10 2.12   2 2.12  25 2.12
  45  0.248  0.499  0.650-  32 2.10   7 2.11  13 2.11  15 2.13  16 2.15
  46  0.500  0.750  0.652-   8 2.02  16 2.02  31 2.14  15 2.14  14 2.14
  47  0.251  0.750  0.550-  15 2.11  13 2.11   5 2.11  14 2.11  30 2.12  11 2.12
  48  0.500  0.498  0.551-  29 2.10  13 2.10   6 2.10  14 2.14  12 2.15
  49  0.750  0.000  0.450-  17 2.12   4 2.12  19 2.12  20 2.12  27 2.12  21 2.14
  50  0.000  0.250  0.450-  22 2.10  18 2.12  19 2.12  20 2.12   3 2.12  28 2.12
  51  0.750  0.250  0.351-  19 2.12  17 2.12  18 2.12   2 2.12  25 2.12
  52  0.000  0.000  0.351-  20 2.12  17 2.12  18 2.12   1 2.12  26 2.12
  53  0.752  0.001  0.650-  24 2.10  23 2.11  21 2.11  31 2.13   8 2.15
  54  0.000  0.250  0.649-   7 2.00  23 2.00  24 2.14  32 2.14  22 2.14
  55  0.748  0.250  0.550-  23 2.07   6 2.10  29 2.12  21 2.12  19 2.13  22 2.14
  56  1.000  0.001  0.549-  20 2.11  24 2.11  22 2.11  30 2.12  21 2.14   5 2.14
  57  0.750  0.500  0.450-  25 2.12  19 2.12  12 2.12  27 2.12  28 2.12  29 2.14
  58  0.000  0.750  0.450-  30 2.12  26 2.12  11 2.12  27 2.12  28 2.12  20 2.12
  59  0.750  0.750  0.351-  27 2.12  17 2.12  25 2.12  26 2.12  10 2.12
  60  0.000  0.500  0.351-  28 2.12  18 2.12  25 2.12  26 2.12   9 2.12
  61  0.752  0.499  0.650-  32 2.10  23 2.11  29 2.11  31 2.13  16 2.15
  62  0.000  0.750  0.650-  31 2.09  15 2.09  24 2.10  32 2.10  30 2.14
  63  0.749  0.750  0.550-  31 2.11  29 2.11  21 2.11  14 2.11  30 2.12  27 2.12
  64  1.000  0.499  0.549-  28 2.11  32 2.11  22 2.11  30 2.12  29 2.14  13 2.14

IMPORTANT INFORMATION: All symmetrisations will be switched off!
NOSYMM: (Re-)initialisation of all symmetry stuff for point group C_1.

                                     Primitive cell

  volume of cell :    1530.6606

  direct lattice vectors                    reciprocal lattice vectors
     8.467142631  0.000000000  0.000000000     0.118103597  0.000000000  0.000000000
     0.000000000  8.467142631  0.000000000     0.000000000  0.118103597  0.000000000
     0.000000000  0.000000000 21.350356973     0.000000000  0.000000000  0.046837624

  length of vectors
     8.467142631  8.467142631 21.350356973     0.118103597  0.118103597  0.046837624

  position of ions in fractional coordinates (direct lattice)
     0.250000000  0.000000000  0.351282183
     0.500000000  0.250000000  0.351282183
     0.250000000  0.250000000  0.450427394
     0.500000000  0.000000000  0.450427394
     0.252187456  0.999218129  0.550776630
     0.500000019  0.250000048  0.547670370
     0.236442556  0.250000023  0.646937147
     0.499999992  0.988273313  0.658107625
     0.250000000  0.500000000  0.351282183
     0.500000000  0.750000000  0.351282183
     0.250000000  0.750000000  0.450427394
     0.500000000  0.500000000  0.450427394
     0.252187462  0.500781858  0.550776642
     0.499999997  0.749999966  0.551136952
     0.247339422  0.750000035  0.648542901
     0.499999992  0.511727061  0.658107679
     0.750000000  0.000000000  0.351282183
     0.000000000  0.250000000  0.351282183
     0.750000000  0.250000000  0.450427394
     0.000000000  0.000000000  0.450427394
     0.747812555  0.999218137  0.550776662
     0.999999975  0.250000030  0.548752998
     0.763557474  0.250000016  0.646937212
     0.000000020  0.997451597  0.648096925
     0.750000000  0.500000000  0.351282183
     0.000000000  0.750000000  0.351282183
     0.750000000  0.750000000  0.450427394
     0.000000000  0.500000000  0.450427394
     0.747812541  0.500781842  0.550776680
     0.000000000  0.750000043  0.549551587
     0.752660595  0.750000046  0.648542879
     0.000000014  0.502548437  0.648096886
     0.250000000  0.000000000  0.450427394
     0.500000000  0.250000000  0.450427394
     0.250000000  0.250000000  0.351282183
     0.500000000  0.000000000  0.351282183
     0.247818729  0.001374993  0.649534958
     0.499999964  0.250000536  0.654792646
     0.252367363  0.250000006  0.550147124
     0.500000004  0.002265069  0.551004725
     0.250000000  0.500000000  0.450427394
     0.500000000  0.750000000  0.450427394
     0.250000000  0.750000000  0.351282183
     0.500000000  0.500000000  0.351282183
     0.247818680  0.498625074  0.649534986
     0.500000012  0.750000239  0.651561266
     0.250608859  0.749999972  0.549825607
     0.500000003  0.497735035  0.551004670
     0.750000000  0.000000000  0.450427394
     0.000000000  0.250000000  0.450427394
     0.750000000  0.250000000  0.351282183
     0.000000000  0.000000000  0.351282183
     0.752181285  0.001375014  0.649534966
     0.000000021  0.249999978  0.649054700
     0.747632638  0.250000003  0.550147159
     0.999999995  0.000528640  0.549208773
     0.750000000  0.500000000  0.450427394
     0.000000000  0.750000000  0.450427394
     0.750000000  0.750000000  0.351282183
     0.000000000  0.500000000  0.351282183
     0.752181328  0.498625046  0.649534989
     0.000000000  0.750000049  0.649806245
     0.749391149  0.749999976  0.549825628
     0.999999997  0.499471449  0.549208773

  ion indices of the primitive-cell ions
   primitive index   ion index
                 1           1
                 2           2
                 3           3
                 4           4
                 5           5
                 6           6
                 7           7
                 8           8
                 9           9
                10          10
                11          11
                12          12
                13          13
                14          14
                15          15
                16          16
                17          17
                18          18
                19          19
                20          20
                21          21
                22          22
                23          23
                24          24
                25          25
                26          26
                27          27
                28          28
                29          29
                30          30
                31          31
                32          32
                33          33
                34          34
                35          35
                36          36
                37          37
                38          38
                39          39
                40          40
                41          41
                42          42
                43          43
                44          44
                45          45
                46          46
[...]
   0.50000000  0.75000000  0.45042739
   0.25000000  0.75000000  0.35128218
   0.50000000  0.50000000  0.35128218
   0.24781868  0.49862507  0.64953499
   0.50000001  0.75000024  0.65156127
   0.25060886  0.74999997  0.54982561
   0.50000000  0.49773503  0.55100467
   0.75000000  0.00000000  0.45042739
   0.00000000  0.25000000  0.45042739
   0.75000000  0.25000000  0.35128218
   0.00000000  0.00000000  0.35128218
   0.75218129  0.00137501  0.64953497
   0.00000002  0.24999998  0.64905470
   0.74763264  0.25000000  0.55014716
   1.00000000  0.00052864  0.54920877
   0.75000000  0.50000000  0.45042739
   0.00000000  0.75000000  0.45042739
   0.75000000  0.75000000  0.35128218
   0.00000000  0.50000000  0.35128218
   0.75218133  0.49862505  0.64953499
   0.00000000  0.75000005  0.64980625
   0.74939115  0.74999998  0.54982563
   1.00000000  0.49947145  0.54920877

 position of ions in cartesian coordinates  (Angst):
   2.11678566  0.00000000  7.50000000
   4.23357132  2.11678566  7.50000000
   2.11678566  2.11678566  9.61678566
   4.23357132  0.00000000  9.61678566
   2.13530716  8.46052242 11.75927767
   4.23357148  2.11678606 11.69295789
   2.00199285  2.11678585 13.81233902
   4.23357125  8.36785110 14.05083273
   2.11678566  4.23357132  7.50000000
   4.23357132  6.35035697  7.50000000
   2.11678566  6.35035697  9.61678566
   4.23357132  4.23357132  9.61678566
   2.13530721  4.24019142 11.75927792
   4.23357129  6.35035668 11.76697066
   2.09425816  6.35035727 13.84662245
   4.23357125  4.33286601 14.05083388
   6.35035697  0.00000000  7.50000000
   0.00000000  2.11678566  7.50000000
   6.35035697  2.11678566  9.61678566
   0.00000000  0.00000000  9.61678566
   6.33183557  8.46052248 11.75927836
   8.46714242  2.11678591 11.71607240
   6.46515004  2.11678579 13.81234042
   0.00000017  8.44556494 13.83710070
   6.35035697  4.23357132  7.50000000
   0.00000000  6.35035697  7.50000000
   6.35035697  6.35035697  9.61678566
   0.00000000  4.23357132  9.61678566
   6.33183545  4.24019128 11.75927872
   0.00000000  6.35035733 11.73312257
   6.37288461  6.35035736 13.84662199
   0.00000012  4.25514930 13.83709988
   2.11678566  0.00000000  9.61678566
   4.23357132  2.11678566  9.61678566
   2.11678566  2.11678566  7.50000000
   4.23357132  0.00000000  7.50000000
   2.09831652  0.01164227 13.86780323
   4.23357101  2.11679019 13.98005673
   2.13683045  2.11678571 11.74583748
   4.23357135  0.01917867 11.76414758
   2.11678566  4.23357132  9.61678566
   4.23357132  6.35035697  9.61678566
   2.11678566  6.35035697  7.50000000
   4.23357132  4.23357132  7.50000000
   2.09831611  4.22192962 13.86780382
   4.23357142  6.35035900 13.91106562
   2.12194095  6.35035674 11.73897299
   4.23357134  4.21439353 11.76414640
   6.35035697  0.00000000  9.61678566
   0.00000000  2.11678566  9.61678566
   6.35035697  2.11678566  7.50000000
   0.00000000  0.00000000  7.50000000
   6.36882623  0.01164244 13.86780339
   0.00000018  2.11678547 13.85754955
   6.33031218  2.11678568 11.74583823
   8.46714259  0.00447607 11.72580336
   6.35035697  4.23357132  9.61678566
   0.00000000  6.35035697  9.61678566
   6.35035697  6.35035697  7.50000000
   0.00000000  4.23357132  7.50000000
   6.36882659  4.22192939 13.86780389
   0.00000000  6.35035739 13.87359530
   6.34520175  6.35035677 11.73897343
   8.46714260  4.22909600 11.72580336

--------------------------------------- Iteration      FINAL  ---------------------------------------

--------------------OUTCAR has been truncated-------------------------

[...]

--------------------OUTCAR has been truncated-------------------------

  DFT-D2 method for vdW energy calculation

  Parameters of vdW forcefield:
         C6(Jnm^6/mol)     R0(A)
   Mg       0.630          1.243
   O        0.700          1.342

  vdW correction parametrized for the method ìý      

  IVDW =   1
  VDW_RADIUS =    50.000 A
  VDW_S6 =     1.050
  VDW_SR =     1.000
  VDW_D =    20.000
  LVDW_EWALD = F

  Number of pair interactions contributing to vdW energy:  719288
  Edisp (eV):   -5.00765

 VOLUME and BASIS-vectors are now :
  energy-cutoff  :      600.00
  volume of cell :     1530.66
      direct lattice vectors                 reciprocal lattice vectors
     8.467142631  0.000000000  0.000000000     0.118103597  0.000000000  0.000000000
     0.000000000  8.467142631  0.000000000     0.000000000  0.118103597  0.000000000
     0.000000000  0.000000000 21.350356973     0.000000000  0.000000000  0.046837624

  length of vectors
     8.467142631  8.467142631 21.350356973     0.118103597  0.118103597  0.046837624

 FORCES acting on ions:
    Electron-Ion                     Ewald-Force                    Non-Local-Force
   -.678E+00 0.262E+00 0.205E+04   0.692E+00 -.280E+00 -.204E+04   -.959E-02 0.119E-01 -.641E+01
   -.102E-04 0.105E-04 0.205E+04   0.117E-04 -.103E-04 -.204E+04   -.298E-05 -.666E-06 -.632E+01
   -.129E+01 0.287E-04 0.677E+03   0.129E+01 -.249E-04 -.678E+03   -.109E-01 -.359E-05 0.442E+00
   -.497E-04 0.320E+01 0.672E+03   0.529E-04 -.341E+01 -.672E+03   -.313E-05 0.130E+00 0.415E+00
   -.103E+02 -.318E+01 -.687E+03   0.115E+02 0.361E+01 0.688E+03   -.947E+00 -.213E+00 -.654E+00
   -.127E-04 0.141E-03 -.697E+03   0.163E-04 -.130E-03 0.698E+03   -.965E-06 -.585E-05 0.140E+00
   -.535E+02 0.113E-03 -.202E+04   0.543E+02 -.101E-03 0.201E+04   0.804E+00 -.955E-06 0.568E+01
   -.134E-04 -.460E+02 -.210E+04   0.863E-05 0.480E+02 0.209E+04   0.520E-05 -.152E+00 0.670E+01
   -.678E+00 -.262E+00 0.205E+04   0.692E+00 0.280E+00 -.204E+04   -.959E-02 -.119E-01 -.641E+01
   -.118E-04 -.117E-04 0.205E+04   0.118E-04 0.109E-04 -.204E+04   0.139E-05 -.273E-07 -.642E+01
   -.381E+01 -.382E-04 0.678E+03   0.401E+01 0.314E-04 -.678E+03   -.124E+00 0.347E-05 0.570E+00
   -.560E-04 -.320E+01 0.672E+03   0.590E-04 0.341E+01 -.672E+03   -.225E-05 -.130E+00 0.415E+00
   -.103E+02 0.318E+01 -.687E+03   0.115E+02 -.361E+01 0.688E+03   -.947E+00 0.213E+00 -.654E+00
   -.247E-04 -.218E-03 -.694E+03   0.236E-04 0.202E-03 0.693E+03   -.263E-06 0.172E-04 0.582E+00
   -.634E+01 -.145E-04 -.203E+04   0.474E+01 0.151E-04 0.202E+04   0.130E+01 -.736E-06 0.622E+01
   -.202E-04 0.460E+02 -.210E+04   0.129E-04 -.480E+02 0.209E+04   0.988E-05 0.152E+00 0.670E+01
   0.678E+00 0.262E+00 0.205E+04   -.692E+00 -.280E+00 -.204E+04   0.959E-02 0.119E-01 -.641E+01
   0.103E-04 0.666E-05 0.205E+04   -.115E-04 -.244E-05 -.204E+04   -.157E-06 -.544E-06 -.631E+01
   0.129E+01 0.219E-04 0.677E+03   -.129E+01 -.184E-04 -.678E+03   0.109E-01 -.892E-06 0.442E+00
   0.420E-04 0.682E+00 0.681E+03   -.448E-04 -.714E+00 -.682E+03   0.199E-05 0.196E-01 0.239E+00
   0.103E+02 -.318E+01 -.687E+03   -.115E+02 0.361E+01 0.688E+03   0.947E+00 -.213E+00 -.654E+00
   -.400E-05 -.250E-04 -.657E+03   0.115E-05 0.124E-04 0.656E+03   0.109E-05 0.111E-04 0.569E+00
   0.535E+02 0.117E-03 -.202E+04   -.543E+02 -.960E-04 0.201E+04   -.804E+00 -.227E-04 0.568E+01
   -.139E-04 -.224E+01 -.203E+04   0.209E-04 0.161E+01 0.203E+04   -.151E-04 0.634E+00 0.586E+01
   0.678E+00 -.262E+00 0.205E+04   -.692E+00 0.280E+00 -.204E+04   0.959E-02 -.119E-01 -.641E+01
   0.943E-05 -.554E-05 0.205E+04   -.115E-04 0.240E-05 -.204E+04   0.285E-05 0.293E-05 -.633E+01
   0.381E+01 -.272E-04 0.678E+03   -.401E+01 0.210E-04 -.678E+03   0.124E+00 0.398E-05 0.570E+00
   0.513E-04 -.682E+00 0.681E+03   -.544E-04 0.714E+00 -.682E+03   0.255E-05 -.196E-01 0.239E+00
   0.103E+02 0.318E+01 -.687E+03   -.115E+02 -.361E+01 0.688E+03   0.947E+00 0.213E+00 -.654E+00
   -.126E-04 -.470E-04 -.669E+03   0.126E-04 0.402E-04 0.669E+03   0.762E-06 0.286E-05 0.359E+00
   0.634E+01 0.297E-04 -.203E+04   -.474E+01 -.226E-04 0.202E+04   -.130E+01 -.613E-05 0.622E+01
   -.150E-04 0.224E+01 -.203E+04   0.160E-04 -.161E+01 0.203E+04   0.479E-05 -.634E+00 0.586E+01
   -.215E+01 0.386E+00 0.506E+03   0.211E+01 -.367E+00 -.506E+03   0.440E-01 -.214E-01 -.283E+00
   -.319E-04 0.550E-04 0.512E+03   0.331E-04 -.546E-04 -.513E+03   0.149E-05 -.732E-06 0.231E+00
   -.381E+00 0.554E-05 0.154E+04   0.388E+00 -.463E-05 -.154E+04   -.856E-02 -.618E-06 0.315E+01
   -.936E-05 0.342E+00 0.154E+04   0.869E-05 -.369E+00 -.154E+04   0.437E-06 0.326E-01 0.312E+01
   -.156E+02 -.718E+01 -.153E+04   0.168E+02 0.847E+01 0.154E+04   -.114E+01 -.159E+01 -.310E+01
   -.497E-04 0.713E-03 -.155E+04   0.503E-04 -.706E-03 0.155E+04   -.150E-05 -.322E-04 -.223E+01
   -.116E+02 0.601E-04 -.510E+03   0.124E+02 -.664E-04 0.510E+03   -.106E+01 0.954E-05 0.154E+00
   -.185E-04 -.400E+01 -.543E+03   0.203E-04 0.480E+01 0.545E+03   -.122E-06 -.111E+01 -.201E+01
   -.215E+01 -.386E+00 0.506E+03   0.211E+01 0.367E+00 -.506E+03   0.440E-01 0.214E-01 -.283E+00
   -.360E-04 -.716E-04 0.503E+03   0.381E-04 0.665E-04 -.502E+03   0.312E-06 0.624E-05 -.258E+00
   -.605E+00 -.721E-05 0.154E+04   0.628E+00 0.485E-05 -.154E+04   -.290E-01 -.867E-06 0.312E+01
   -.100E-04 -.342E+00 0.154E+04   0.936E-05 0.369E+00 -.154E+04   -.546E-06 -.326E-01 0.312E+01
   -.156E+02 0.718E+01 -.153E+04   0.168E+02 -.847E+01 0.154E+04   -.114E+01 0.159E+01 -.310E+01
   -.349E-06 0.426E-04 -.153E+04   0.129E-05 -.174E-04 0.153E+04   -.170E-05 -.323E-04 -.166E+01
   -.546E+01 -.652E-04 -.502E+03   0.540E+01 0.584E-04 0.502E+03   0.356E-01 0.743E-05 0.939E+00
   -.153E-04 0.400E+01 -.543E+03   0.156E-04 -.480E+01 0.545E+03   0.128E-06 0.111E+01 -.201E+01
   0.215E+01 0.386E+00 0.506E+03   -.211E+01 -.367E+00 -.506E+03   -.440E-01 -.214E-01 -.283E+00
   0.276E-04 0.360E-05 0.513E+03   -.288E-04 -.536E-05 -.513E+03   -.150E-05 0.213E-05 0.246E+00
   0.381E+00 0.574E-05 0.154E+04   -.388E+00 -.397E-05 -.154E+04   0.856E-02 -.102E-05 0.315E+01
   0.650E-05 0.119E+00 0.154E+04   -.844E-05 -.129E+00 -.154E+04   0.104E-05 0.121E-01 0.314E+01
   0.156E+02 -.718E+01 -.153E+04   -.168E+02 0.847E+01 0.154E+04   0.114E+01 -.159E+01 -.310E+01
   -.393E-04 -.480E-04 -.154E+04   0.407E-04 0.527E-04 0.154E+04   0.559E-06 -.250E-05 -.402E+01
   0.116E+02 0.598E-04 -.510E+03   -.124E+02 -.668E-04 0.510E+03   0.106E+01 0.794E-05 0.154E+00
   -.108E-04 0.688E+00 -.496E+03   0.123E-04 -.549E+00 0.496E+03   -.261E-05 -.197E+00 0.640E+00
   0.215E+01 -.386E+00 0.506E+03   -.211E+01 0.367E+00 -.506E+03   -.440E-01 0.214E-01 -.283E+00
   0.329E-04 -.233E-05 0.511E+03   -.333E-04 -.276E-05 -.511E+03   0.642E-06 0.422E-05 0.146E+00
   0.605E+00 -.448E-05 0.154E+04   -.628E+00 0.410E-05 -.154E+04   0.290E-01 0.115E-05 0.312E+01
   0.102E-04 -.119E+00 0.154E+04   -.919E-05 0.129E+00 -.154E+04   0.307E-06 -.121E-01 0.314E+01
   0.156E+02 0.718E+01 -.153E+04   -.168E+02 -.847E+01 0.154E+04   0.114E+01 0.159E+01 -.310E+01
   -.229E-04 0.548E-04 -.154E+04   0.228E-04 -.668E-04 0.154E+04   0.475E-06 0.118E-04 -.393E+01
   0.546E+01 -.380E-04 -.502E+03   -.540E+01 0.313E-04 0.502E+03   -.356E-01 0.959E-05 0.939E+00
   0.522E-05 -.688E+00 -.496E+03   -.543E-05 0.549E+00 0.496E+03   0.443E-06 0.197E+00 0.640E+00
   0.204E-04 -.177E-03 0.308E+00   -.327E-12 0.367E-12 -.227E-12   -.118E-04 0.161E-03 -.229E+00

 POSITION                                       TOTAL-FORCE (eV/Angst)
      2.11679      0.00000      7.50000         0.003716     -0.004717      0.518456
      4.23357      2.11679      7.50000        -0.000002     -0.000000      0.499727
      2.11679      2.11679      9.61679        -0.003339      0.000000      0.051515
      4.23357      0.00000      9.61679        -0.000001     -0.065133      0.115202
      2.13531      8.46052     11.75928         0.157319      0.180805     -0.110055
      4.23357      2.11679     11.69296         0.000002      0.000005      1.172280
      2.00199      2.11679     13.81234         1.556467      0.000011     -0.004075
      4.23357      8.36785     14.05083         0.000001      1.671704     -1.312312
      2.11679      4.23357      7.50000         0.003717      0.004718      0.518448
      4.23357      6.35036      7.50000         0.000001     -0.000000      0.523011
      2.11679      6.35036      9.61679         0.052161     -0.000003      0.001856
      4.23357      4.23357      9.61679         0.000001      0.065136      0.115201
      2.13531      4.24019     11.75928         0.157317     -0.180802     -0.110060
      4.23357      6.35036     11.76697        -0.000002      0.000002     -0.314554
      2.09426      6.35036     13.84662        -0.178471     -0.000000     -0.439200
      4.23357      4.33287     14.05083         0.000003     -1.671723     -1.312291
      6.35036      0.00000      7.50000        -0.003717     -0.004717      0.518451
      0.00000      2.11679      7.50000        -0.000002      0.000004      0.497914
      6.35036      2.11679      9.61679         0.003339      0.000002      0.051517
      0.00000      0.00000      9.61679        -0.000001     -0.009926      0.020623
      6.33184      8.46052     11.75928        -0.157316      0.180808     -0.110054
      8.46714      2.11679     11.71607        -0.000001      0.000000     -0.158011
      6.46515      2.11679     13.81234        -1.556472     -0.000003     -0.004075
      0.00000      8.44556     13.83710        -0.000009      0.051109     -0.309494
      6.35036      4.23357      7.50000        -0.003712      0.004717      0.518455
      0.00000      6.35036      7.50000         0.000001     -0.000001      0.500267
      6.35036      6.35036      9.61679        -0.052162     -0.000002      0.001857
      0.00000      4.23357      9.61679        -0.000000      0.009927      0.020623
      6.33184      4.24019     11.75928        -0.157318     -0.180805     -0.110061
      0.00000      6.35036     11.73312         0.000001     -0.000003     -0.173159
      6.37288      6.35036     13.84662         0.178471      0.000000     -0.439203
      0.00000      4.25515     13.83710         0.000005     -0.051100     -0.309447
      2.11679      0.00000      9.61679         0.008916     -0.003917      0.047422
      4.23357      2.11679      9.61679         0.000003     -0.000000     -0.113882
      2.11679      2.11679      7.50000        -0.002780      0.000000     -0.386453
      4.23357      0.00000      7.50000        -0.000000      0.010839     -0.397960
      2.09832      0.01164     13.86780        -0.095594     -0.523085      0.407295
      4.23357      2.11679     13.98006        -0.000001     -0.000030      0.092256
      2.13683      2.11679     11.74584        -0.436068      0.000005     -0.215182
      4.23357      0.01918     11.76415         0.000002     -0.475108     -0.169670
      2.11679      4.23357      9.61679         0.008916      0.003916      0.047420
      4.23357      6.35036      9.61679         0.000002      0.000002      0.092776
      2.11679      6.35036      7.50000        -0.009669     -0.000003     -0.396392
      4.23357      4.23357      7.50000        -0.000001     -0.010837     -0.397956
      2.09832      4.22193     13.86780        -0.095601      0.523097      0.407294
      4.23357      6.35036     13.91107        -0.000001     -0.000012      0.540158
      2.12194      6.35036     11.73897        -0.024483      0.000002      0.198338
      4.23357      4.21439     11.76415         0.000000      0.475110     -0.169664
      6.35036      0.00000      9.61679        -0.008918     -0.003918      0.047425
      0.00000      2.11679      9.61679        -0.000003      0.000001      0.021127
      6.35036      2.11679      7.50000         0.002782      0.000001     -0.386453
      0.00000      0.00000      7.50000        -0.000001      0.003990     -0.390772
      6.36883      0.01164     13.86780         0.095595     -0.523084      0.407302
      0.00000      2.11679     13.85755         0.000002      0.000003      0.103563
      6.33031      2.11679     11.74584         0.436067      0.000002     -0.215179
      8.46714      0.00448     11.72580        -0.000002     -0.084969      0.176544
      6.35036      4.23357      9.61679        -0.008916      0.003916      0.047423
      0.00000      6.35036      9.61679         0.000000     -0.000000      0.070544
      6.35036      6.35036      7.50000         0.009669      0.000001     -0.396400
      0.00000      4.23357      7.50000         0.000001     -0.003991     -0.390771
      6.36883      4.22193     13.86780         0.095601      0.523092      0.407286
      0.00000      6.35036     13.87360         0.000000      0.000002      0.108316
      6.34520      6.35036     11.73897         0.024482      0.000004      0.198340
      8.46714      4.22910     11.72580         0.000000      0.084961      0.176548
    total drift:                                0.000010     -0.000000      0.009920

  FREE ENERGIE OF THE ION-ELECTRON SYSTEM (eV)
  free  energy   TOTEN  =      -437.47316252 eV

  energy  without entropy=     -437.47316252  energy(sigma->0) =     -437.47316252