 vasp.6.3.0 20Jan22 (build Apr  1 2022 16:44:48) gamma-only
 executed on        HPECrayEX_GCC date 2023.02.22  03:29:20

 INCAR:
   SYSTEM = MgO-rocksalt
   ISMEAR = 0
   SIGMA = 0.05
   EDIFF = 1E-6
   ALGO = ALL
   ISTART = 0
   IBRION = -1
   NSW = 0
   ISYM = 0
   DIPOL = 0.5 0.5 0.5
   IDIPOL = 3
   LDIPOL = .TRUE.
   GGA = PE
   IVDW = 1
   VDW_C6 = 0.14 0.70 0.63 0.70
   VDW_R0 = 1.001 1.342 1.243 1.342
   ENCUT = 520
   PREC = Accurate
   LASPH = .TRUE.
   LREAL = Auto
   ISPIN = 1
   NELM = 200
   NELMIN = 8
   NCORE = 8
   KPAR = 1
   LWAVE = .FALSE.
   LCHARG = .FALSE.

 POTCAR:    PAW_PBE H 15Jun2001
 POTCAR:    PAW_PBE O 08Apr2002
 POTCAR:    PAW_PBE Mg_pv 13Apr2007
 POTCAR:    PAW_PBE O 08Apr2002
 POTCAR:    PAW_PBE H 15Jun2001
   VRHFIN =H: ultrasoft test

   TITEL  = PAW_PBE H 15Jun2001
   POMASS =    1.000; ZVAL   =    1.000    mass and valenz
   ENMAX  =  250.000; ENMIN  =  200.000 eV

   TITEL  = PAW_PBE O 08Apr2002
   POMASS =   16.000; ZVAL   =    6.000    mass and valenz
   ENMAX  =  400.000; ENMIN  =  300.000 eV

   TITEL  = PAW_PBE Mg_pv 13Apr2007
   POMASS =   24.305; ZVAL   =    8.000    mass and valenz
   ENMAX  =  403.929; ENMIN  =  302.947 eV

   TITEL  = PAW_PBE O 08Apr2002
   POMASS =   16.000; ZVAL   =    6.000    mass and valenz
   ENMAX  =  400.000; ENMIN  =  300.000 eV

 Optimization of the real space projectors (new method)

 maximal supplied QI-value         = 34.20
 optimisation between [QCUT,QGAM] = [ 11.63, 23.26] = [ 37.87,151.49] Ry
 Optimized for a Real-space Cutoff    1.21 Angstroem

   l    n(q)    QCUT    max X(q) W(low)/X(q) W(high)/X(q)  e(spline)
   0      8    11.629    19.460    0.17E-03    0.34E-03    0.21E-06
   0      8    11.629    12.209    0.16E-03    0.33E-03    0.21E-06
   1      8    11.629     4.655    0.18E-03    0.16E-03    0.26E-06
 Optimization of the real space projectors (new method)

[...]

   l    n(q)    QCUT    max X(q) W(low)/X(q) W(high)/X(q)  e(spline)
   1      8    11.527     2.974    0.44E-04    0.56E-04    0.12E-06
   1      8    11.527     4.279    0.12E-03    0.12E-03    0.26E-06
   0      9    11.527    16.381    0.46E-04    0.64E-04    0.78E-07
   0      9    11.527     5.611    0.26E-04    0.43E-04    0.55E-07
   2      8    11.527     4.652    0.22E-03    0.72E-04    0.47E-07
 Optimization of the real space projectors (new method)

 maximal supplied QI-value         = 24.76
 optimisation between [QCUT,QGAM] = [ 11.64, 23.27] = [ 37.91,151.63] Ry
 Optimized for a Real-space Cutoff    1.14 Angstroem

   l    n(q)    QCUT    max X(q) W(low)/X(q) W(high)/X(q)  e(spline)
   0      8    11.635    20.381    0.10E-03    0.33E-03    0.24E-06
   0      8    11.635    15.268    0.11E-03    0.35E-03    0.26E-06
   1      7    11.635     5.964    0.24E-03    0.31E-03    0.30E-06
   1      7    11.635     5.382    0.22E-03    0.25E-03    0.26E-06
  PAW_PBE H 15Jun2001                   :
  PAW_PBE O 08Apr2002                   :
  PAW_PBE Mg_pv 13Apr2007               :
  PAW_PBE O 08Apr2002                   :

 POSCAR:  H  O Mg  O
  positions in direct lattice
 exchange correlation table for  LEXCH =        8
   RHO(1)=    0.500       N(1)  =     2000
   RHO(2)=  100.500       N(2)  =     4000

 ion  position               nearest neighbor table
   1  0.414  0.429  0.762-   9 0.99
   2  0.329  0.391  0.768-   9 0.97
   3  0.585  0.324  0.763-  10 0.99
   4  0.671  0.360  0.768-  10 0.97
   5  0.448  0.292  0.762-  11 0.99
   6  0.484  0.206  0.771-  11 0.97
   7  0.553  0.463  0.762-  12 0.99
   8  0.515  0.549  0.765-  12 0.97
   9  0.383  0.380  0.757-   2 0.97   1 0.99
  10  0.617  0.372  0.757-   4 0.97   3 0.99
  11  0.497  0.259  0.757-   6 0.97   5 0.99
  12  0.504  0.494  0.756-   8 0.97   7 0.99
  13  0.000  0.375  0.352- 141 2.11 144 2.11 151 2.11 175 2.11 224 2.11
  14  0.125  0.000  0.352- 142 2.11 143 2.11 152 2.11 159 2.11 176 2.11
  15  0.000  0.000  0.451- 147 2.11 143 2.11 142 2.11 149 2.11 173 2.11 222 2.11
  16  0.125  0.375  0.451- 144 2.11 141 2.11 150 2.11 157 2.11 174 2.11 148 2.11
  17  0.000  0.375  0.550- 228 2.11 148 2.11 155 2.11 179 2.11 141 2.11 145 2.15
  18  0.125  1.000  0.550- 163 2.11 156 2.11 147 2.11 180 2.11 142 2.11 146 2.15
  19  0.000  1.000  0.648- 147 2.10 226 2.11 146 2.11 177 2.11 153 2.11
  20  0.125  0.375  0.648- 148 2.10 161 2.10 145 2.11 154 2.11 178 2.11
  21  0.000  0.125  0.352- 149 2.11 143 2.11 151 2.11 152 2.11 232 2.11
  22  0.125  0.250  0.352- 150 2.11 144 2.11 151 2.11 152 2.11 167 2.11
  23  0.000  0.250  0.451- 155 2.11 151 2.11 150 2.11 141 2.11 149 2.11 230 2.11
  24  0.125  0.125  0.451- 156 2.11 152 2.11 150 2.11 142 2.11 149 2.11 165 2.11
  25  0.000  0.125  0.550- 236 2.11 156 2.11 147 2.11 155 2.11 149 2.11 153 2.15
  26  0.125  0.250  0.550- 171 2.10 155 2.11 148 2.11 156 2.11 150 2.11 154 2.15
  27  0.000  0.250  0.648- 155 2.10 154 2.11 234 2.11 153 2.11 145 2.11
  28  0.125  0.125  0.648- 156 2.10 169 2.11 153 2.11 154 2.11 146 2.11
  29  0.250  0.375  0.352- 157 2.11 144 2.11 160 2.11 167 2.11 191 2.11
  30  0.375  0.000  0.352- 158 2.11 159 2.11 168 2.11 192 2.11 207 2.11
  31  0.250  0.000  0.451- 163 2.11 159 2.11 142 2.11 158 2.11 165 2.11 189 2.11
  32  0.375  0.375  0.451- 160 2.11 157 2.11 166 2.11 190 2.11 205 2.11 164 2.12
  33  0.250  0.375  0.550- 164 2.09 171 2.11 195 2.11 148 2.12 157 2.12 161 2.17
  34  0.375  1.000  0.550- 172 2.10 211 2.11 196 2.11 163 2.11 158 2.11 162 2.15
  35  0.250  1.000  0.648- 163 2.10 169 2.10 193 2.11 162 2.11 146 2.11
  36  0.376  0.374  0.650- 209 2.10 170 2.12 161 2.14 194 2.14 164 2.15
  37  0.250  0.125  0.352- 165 2.11 159 2.11 152 2.11 167 2.11 168 2.11
  38  0.375  0.250  0.352- 166 2.11 160 2.11 167 2.11 168 2.11 215 2.11
  39  0.250  0.250  0.451- 171 2.11 167 2.11 165 2.11 166 2.11 150 2.11 157 2.11
  40  0.375  0.125  0.451- 172 2.11 168 2.11 166 2.11 158 2.11 165 2.11 213 2.11
  41  0.250  0.125  0.550- 171 2.11 172 2.11 156 2.11 165 2.11 163 2.11 169 2.15
  42  0.375  0.250  0.550- 164 2.10 219 2.10 170 2.12 172 2.12 171 2.12 166 2.12
  43  0.250  0.250  0.647- 171 2.09 170 2.09 154 2.11 169 2.11 161 2.12
  44  0.375  0.125  0.647- 172 2.08 170 2.09 162 2.11 169 2.11 217 2.12
  45  0.000  0.875  0.352- 173 2.11 143 2.11 176 2.11 183 2.11 256 2.11
  46  0.125  0.500  0.352- 174 2.11 144 2.11 175 2.11 184 2.11 191 2.11
  47  0.000  0.500  0.451- 179 2.11 175 2.11 141 2.11 174 2.11 181 2.11 254 2.11
  48  0.125  0.875  0.451- 180 2.11 176 2.11 142 2.11 173 2.11 182 2.11 189 2.11
  49  0.000  0.875  0.550- 180 2.11 147 2.11 260 2.11 187 2.11 173 2.11 177 2.14
  50  0.125  0.500  0.550- 195 2.10 179 2.11 148 2.11 188 2.11 174 2.11 178 2.15
  51  1.000  0.500  0.648- 179 2.10 258 2.11 178 2.11 185 2.11 145 2.11
  52  0.125  0.875  0.648- 180 2.10 186 2.11 146 2.11 177 2.11 193 2.11
  53  0.000  0.625  0.352- 181 2.11 175 2.11 183 2.11 184 2.11 264 2.11
  54  0.125  0.750  0.352- 182 2.11 176 2.11 183 2.11 184 2.11 199 2.11
  55  0.000  0.750  0.451- 187 2.11 183 2.11 182 2.11 173 2.11 181 2.11 262 2.11
  56  0.125  0.625  0.451- 188 2.11 184 2.11 182 2.11 174 2.11 181 2.11 197 2.11
  57  0.000  0.625  0.550- 268 2.11 188 2.11 187 2.11 179 2.11 181 2.11 185 2.15
  58  0.125  0.750  0.550- 203 2.11 188 2.11 180 2.11 187 2.11 182 2.11 186 2.15
  59  0.000  0.750  0.648- 187 2.10 266 2.11 186 2.11 177 2.11 185 2.11
  60  0.125  0.625  0.648- 188 2.10 201 2.11 185 2.11 178 2.11 186 2.11
[...]
 254  0.875  0.500  0.451- 126 2.11  96 2.11  47 2.11 127 2.11 136 2.11 130 2.11
 255  0.750  0.500  0.352- 127 2.11 110 2.11 126 2.11  93 2.11 133 2.11
 256  0.875  0.875  0.352- 128 2.11  94 2.11 125 2.11  45 2.11 134 2.11
 257  0.750  0.875  0.650- 139 2.11  99 2.11 132 2.11 116 2.11 129 2.15
 258  0.875  0.500  0.650-  51 2.11 140 2.11 131 2.11 100 2.11 130 2.15
 259  0.750  0.500  0.549- 131 2.09 130 2.10 127 2.11 137 2.11  97 2.11 114 2.12
 260  0.875  0.875  0.549- 132 2.10 128 2.11 138 2.11  49 2.11  98 2.11 129 2.11
 261  0.750  0.625  0.451- 133 2.11 127 2.11 120 2.11 135 2.11 136 2.11 137 2.11
 262  0.875  0.750  0.451- 134 2.11 128 2.11  55 2.11 135 2.11 136 2.11 138 2.11
 263  0.750  0.750  0.352- 135 2.11 125 2.11 133 2.11 134 2.11 118 2.11
 264  0.875  0.625  0.352- 136 2.11 126 2.11 133 2.11 134 2.11  53 2.11
 265  0.750  0.625  0.650- 140 2.11 139 2.11 124 2.11 131 2.11 137 2.15
 266  0.875  0.750  0.650-  59 2.11 132 2.11 139 2.11 140 2.11 138 2.14
 267  0.750  0.750  0.549- 139 2.10 135 2.11 129 2.11 138 2.11 122 2.11 137 2.11
 268  0.875  0.625  0.549- 140 2.10  57 2.11 136 2.11 138 2.11 137 2.11 130 2.11

IMPORTANT INFORMATION: All symmetrisations will be switched off!
NOSYMM: (Re-)initialisation of all symmetry stuff for point group C_1.

                                     Primitive cell

  volume of cell :    6079.2794

  direct lattice vectors                    reciprocal lattice vectors
    16.881969308  0.000000000  0.000000000     0.059234796  0.000000000  0.000000000
     0.000000000 16.881969308  0.000000000     0.000000000  0.059234796  0.000000000
     0.000000000  0.000000000 21.330738491     0.000000000  0.000000000  0.046880702

  length of vectors
    16.881969308 16.881969308 21.330738491     0.059234796  0.059234796  0.046880702

  position of ions in fractional coordinates (direct lattice)
     0.414341837  0.428715694  0.761860915
     0.328928198  0.391065431  0.768397373
     0.585107087  0.324094252  0.762729627
     0.671488833  0.359542978  0.768435381
     0.448176468  0.291715406  0.762344371
     0.484469126  0.205986330  0.770609068
     0.553080855  0.463483134  0.762191520
     0.515411944  0.549287239  0.764963745
     0.383350027  0.379545401  0.756545400
     0.617352665  0.372339636  0.756604586
     0.496544799  0.259474257  0.756719011
     0.503712865  0.493923001  0.756279389
     0.000000000  0.375000000  0.351605267
     0.125000000  0.000000000  0.351605267
     0.000000000  0.000000000  0.450535089
     0.125000000  0.375000000  0.450535089
     0.000000982  0.375008808  0.549650017
     0.124979125  0.999971962  0.549639455
     0.000024196  0.999918175  0.647814712
     0.124854050  0.375012226  0.647727005
     0.000000000  0.125000000  0.351605267
     0.125000000  0.250000000  0.351605267
     0.000000000  0.250000000  0.450535089
     0.125000000  0.125000000  0.450535089
     0.000007519  0.124951633  0.549634787
     0.124999479  0.250005894  0.549601661
     0.000035253  0.249878615  0.647774160
     0.124942638  0.124855602  0.647740073
     0.250000000  0.375000000  0.351605267
     0.375000000  0.000000000  0.351605267
     0.250000000  0.000000000  0.450535089
     0.375000000  0.375000000  0.450535089
     0.250397715  0.374968612  0.549844286
     0.375027219  0.999959975  0.549567073
     0.249869216  0.999922175  0.647722095
     0.375518346  0.374463124  0.650352315
     0.250000000  0.125000000  0.351605267
     0.375000000  0.250000000  0.351605267
     0.250000000  0.250000000  0.450535089
     0.375000000  0.125000000  0.450535089
     0.249973748  0.125000472  0.549537312
     0.375449977  0.250370471  0.550145253
     0.249933049  0.249712943  0.647326075
     0.374723605  0.124929126  0.646996268
[...]
  12.66147698 10.55123082  9.61024616
  14.77172314 12.66147698  9.61024616
  12.66147698 12.66147698  7.50000000
  14.77172314 10.55123082  7.50000000
  12.66903950 10.55861742 13.86931473
  14.77454102 12.66397709 13.86956136
  12.66303113 12.66300371 11.71890209
  14.77372764 10.55268286 11.71890424

--------------------------------------- Iteration      FINAL  ---------------------------------------

--------------------OUTCAR has been truncated-------------------------

[...]

--------------------OUTCAR has been truncated-------------------------

  DFT-D2 method for vdW energy calculation

  Parameters of vdW forcefield:
         C6(Jnm^6/mol)     R0(A)
   H        0.140          1.001
   O        0.700          1.342
   Mg       0.630          1.243
   O        0.700          1.342

  vdW correction parametrized for the method pbe

  IVDW =   1
  VDW_RADIUS =    50.000 A
  VDW_S6 =     0.750
  VDW_SR =     1.000
  VDW_D =    20.000
  LVDW_EWALD = F

  Number of pair interactions contributing to vdW energy: 3130714
  Edisp (eV):  -15.01233

  FORCE on cell =-STRESS in cart. coord.  units (eV):
  Direction    XX          YY          ZZ          XY          YZ          ZX
  Alpha Z  3597.19734  3597.19734  3597.19734
  Ewald  642833.07608642834.74099************    -0.11429   -11.62036    -1.06286
  Hartree683992.18839683993.87851************    -0.00421    -3.49983     0.35984
  E(xc)   -9972.95261 -9972.95137 -9994.35463     0.00016    -0.05092    -0.01013
  Local  ************************************     0.04456    12.13148     0.03702
  n-local-11363.04659-11363.06525-11440.68434    -0.00219     0.00820     0.06154
  augment  4215.02852  4215.03843  4184.94664     0.00342     0.19701     0.04362
  Kinetic 29789.02820 29789.19386 30031.23973     0.07883     2.81626     0.48218
  Fock        0.00000     0.00000     0.00000     0.00000     0.00000     0.00000
  vdW       -21.80878   -21.80851   -18.32155    -0.00048     0.00323     0.00081
  Total     -81.03240   -81.04823    19.60391     0.00579    -0.01494    -0.08798
  in kB     -21.35586   -21.36004     5.16656     0.00153    -0.00394    -0.02319

 VOLUME and BASIS-vectors are now :
  energy-cutoff  :      520.00
  volume of cell :     6079.28
      direct lattice vectors                 reciprocal lattice vectors
    16.881969308  0.000000000  0.000000000     0.059234796  0.000000000  0.000000000
     0.000000000 16.881969308  0.000000000     0.000000000  0.059234796  0.000000000
     0.000000000  0.000000000 21.330738491     0.000000000  0.000000000  0.046880702

  length of vectors
    16.881969308 16.881969308 21.330738491     0.059234796  0.059234796  0.046880702

 FORCES acting on ions:
    Electron-Ion                     Ewald-Force                    Non-Local-Force
   -.120E+02 -.671E+02 -.282E+03   0.165E+02 0.738E+02 0.283E+03   -.442E+01 -.660E+01 -.806E+00
   0.102E+03 -.167E+02 -.288E+03   -.111E+03 0.182E+02 0.290E+03   0.799E+01 -.148E+01 -.209E+01
   0.133E+02 0.652E+02 -.283E+03   -.179E+02 -.718E+02 0.284E+03   0.456E+01 0.644E+01 -.941E+00
   -.102E+03 0.186E+02 -.287E+03   0.110E+03 -.203E+02 0.290E+03   -.796E+01 0.167E+01 -.209E+01
   0.653E+02 -.131E+02 -.282E+03   -.718E+02 0.177E+02 0.283E+03   0.645E+01 -.455E+01 -.843E+00
   0.176E+02 0.101E+03 -.289E+03   -.191E+02 -.109E+03 0.292E+03   0.157E+01 0.788E+01 -.247E+01
   -.679E+02 0.114E+02 -.283E+03   0.746E+02 -.158E+02 0.284E+03   -.664E+01 0.436E+01 -.928E+00
   -.169E+02 -.104E+03 -.285E+03   0.184E+02 0.112E+03 0.286E+03   -.149E+01 -.811E+01 -.150E+01
   0.138E+03 0.327E+02 -.165E+04   -.121E+03 -.674E+02 0.164E+04   -.162E+02 0.346E+02 0.117E+02
   -.138E+03 -.348E+02 -.165E+04   0.123E+03 0.699E+02 0.163E+04   0.155E+02 -.350E+02 0.121E+02
   -.333E+02 0.139E+03 -.164E+04   0.678E+02 -.124E+03 0.163E+04   -.344E+02 -.152E+02 0.136E+02
   0.339E+02 -.136E+03 -.165E+04   -.691E+02 0.119E+03 0.164E+04   0.351E+02 0.170E+02 0.936E+01
   0.830E-02 0.386E-01 0.208E+04   -.970E-02 -.391E-01 -.208E+04   0.110E-02 0.325E-03 -.702E+01
   0.351E+01 0.347E+01 0.208E+04   -.351E+01 -.347E+01 -.207E+04   -.605E-02 -.665E-02 -.702E+01
   0.367E-01 0.487E+01 0.704E+03   -.373E-01 -.487E+01 -.705E+03   0.401E-03 -.392E-02 0.448E+00
   0.105E+02 0.164E+00 0.716E+03   -.104E+02 -.167E+00 -.716E+03   -.693E-01 0.215E-02 0.444E+00
   -.705E-01 0.108E+00 -.660E+03   0.650E-01 -.118E+00 0.661E+03   0.612E-02 0.719E-02 -.109E+00
   0.960E+01 0.945E+01 -.670E+03   -.959E+01 -.944E+01 0.670E+03   -.103E-01 -.870E-02 -.138E+00
   -.282E-01 0.105E+02 -.204E+04   0.260E-01 -.106E+02 0.204E+04   0.200E-02 0.147E-01 0.607E+01
   0.503E+02 0.500E+00 -.201E+04   -.500E+02 -.509E+00 0.201E+04   -.285E+00 0.718E-02 0.601E+01
   0.325E-02 0.453E+01 0.208E+04   -.413E-02 -.452E+01 -.207E+04   0.678E-03 -.696E-02 -.702E+01
   0.508E+01 0.357E+01 0.208E+04   -.505E+01 -.356E+01 -.208E+04   -.191E-01 -.846E-02 -.703E+01
   -.629E-01 0.501E+01 0.710E+03   0.649E-01 -.502E+01 -.711E+03   -.904E-03 0.112E-03 0.449E+00
   0.767E+01 0.819E+01 0.710E+03   -.766E+01 -.817E+01 -.710E+03   -.921E-02 -.105E-01 0.418E+00
   -.637E-01 0.112E+02 -.668E+03   0.657E-01 -.112E+02 0.668E+03   -.729E-03 0.159E-01 -.132E+00
   0.218E+02 0.110E+02 -.655E+03   -.216E+02 -.109E+02 0.655E+03   -.139E+00 -.250E-01 -.929E-01
   -.101E+00 0.128E+02 -.203E+04   0.105E+00 -.128E+02 0.203E+04   -.623E-02 0.519E-01 0.606E+01
   0.252E+02 0.230E+02 -.203E+04   -.251E+02 -.230E+02 0.203E+04   -.949E-01 -.114E-01 0.604E+01
   0.783E+01 0.723E-01 0.209E+04   -.779E+01 -.740E-01 -.208E+04   -.337E-01 0.125E-02 -.707E+01
   0.351E+01 0.505E+01 0.208E+04   -.350E+01 -.502E+01 -.208E+04   -.989E-02 -.201E-01 -.703E+01
   0.825E+01 0.760E+01 0.710E+03   -.823E+01 -.759E+01 -.710E+03   -.101E-01 -.959E-02 0.412E+00
   0.112E+02 0.199E+00 0.740E+03   -.111E+02 -.213E+00 -.740E+03   -.360E-01 0.102E-01 0.331E+00
   0.429E+02 0.500E+00 -.627E+03   -.425E+02 -.529E+00 0.627E+03   -.480E+00 0.288E-01 0.222E+00
   0.109E+02 0.219E+02 -.654E+03   -.109E+02 -.218E+02 0.654E+03   -.366E-01 -.132E+00 -.806E-01
   0.231E+02 0.252E+02 -.203E+04   -.231E+02 -.251E+02 0.203E+04   -.146E-01 -.103E+00 0.604E+01
   0.115E+03 0.356E+01 -.180E+04   -.114E+03 -.374E+01 0.180E+04   -.745E+00 0.180E+00 0.344E+01
   0.611E+01 0.610E+01 0.208E+04   -.608E+01 -.607E+01 -.208E+04   -.212E-01 -.207E-01 -.703E+01
   0.525E+01 0.531E+01 0.209E+04   -.522E+01 -.528E+01 -.208E+04   -.244E-01 -.215E-01 -.708E+01
   0.140E+02 0.822E+01 0.724E+03   -.139E+02 -.815E+01 -.724E+03   -.683E-01 -.515E-01 0.369E+00
   0.807E+01 0.139E+02 0.724E+03   -.799E+01 -.138E+02 -.725E+03   -.550E-01 -.668E-01 0.344E+00
   0.238E+02 0.236E+02 -.648E+03   -.238E+02 -.235E+02 0.648E+03   -.272E-01 -.387E-01 -.746E-01
   0.302E+02 0.306E+02 -.598E+03   -.299E+02 -.302E+02 0.599E+03   -.342E+00 -.337E+00 -.775E+00
   0.865E+02 0.456E+02 -.198E+04   -.860E+02 -.458E+02 0.197E+04   -.557E+00 0.109E+00 0.608E+01
   0.460E+02 0.867E+02 -.197E+04   -.460E+02 -.861E+02 0.197E+04   0.538E-01 -.565E+00 0.610E+01
   0.130E-01 -.320E-01 0.208E+04   -.136E-01 0.326E-01 -.207E+04   0.507E-03 -.522E-03 -.702E+01
   0.511E+01 -.351E+01 0.208E+04   -.508E+01 0.350E+01 -.208E+04   -.180E-01 0.934E-02 -.703E+01
   0.824E-01 -.494E+01 0.710E+03   -.865E-01 0.494E+01 -.711E+03   0.260E-02 -.200E-03 0.459E+00
   0.494E+01 -.363E-01 0.704E+03   -.494E+01 0.367E-01 -.705E+03   -.396E-02 -.443E-03 0.433E+00
   0.905E-01 -.689E-01 -.673E+03   -.965E-01 0.641E-01 0.674E+03   0.259E-02 0.159E-02 -.153E+00
   0.220E+02 -.108E+02 -.654E+03   -.219E+02 0.107E+02 0.654E+03   -.116E+00 0.268E-01 -.728E-01
   -.851E-01 -.126E+02 -.203E+04   0.665E-01 0.126E+02 0.203E+04   0.191E-01 -.477E-01 0.607E+01
   0.106E+02 -.188E+00 -.204E+04   -.106E+02 0.184E+00 0.204E+04   0.182E-01 0.299E-02 0.605E+01
   0.142E-01 -.454E+01 0.208E+04   -.153E-01 0.453E+01 -.207E+04   0.826E-03 0.703E-02 -.702E+01
   0.352E+01 -.353E+01 0.208E+04   -.351E+01 0.352E+01 -.207E+04   -.586E-02 0.564E-02 -.702E+01
   0.281E-01 -.495E+01 0.704E+03   -.284E-01 0.494E+01 -.705E+03   0.397E-03 0.212E-02 0.437E+00
   0.772E+01 -.831E+01 0.710E+03   -.771E+01 0.830E+01 -.710E+03   -.814E-02 0.714E-02 0.422E+00
   0.450E-01 -.112E+02 -.667E+03   -.508E-01 0.113E+02 0.667E+03   0.426E-02 -.216E-01 -.137E+00
   0.962E+01 -.962E+01 -.670E+03   -.963E+01 0.962E+01 0.670E+03   -.915E-03 0.613E-02 -.141E+00
   -.795E-01 -.107E+02 -.204E+04   0.755E-01 0.108E+02 0.204E+04   0.622E-02 -.185E-01 0.606E+01
   0.256E+02 -.233E+02 -.203E+04   -.255E+02 0.233E+02 0.203E+04   -.925E-01 0.877E-02 0.605E+01
[...]
   -.547E+01 -.326E+01 0.157E+04   0.545E+01 0.324E+01 -.157E+04   0.381E-01 0.260E-01 0.348E+01
   -.239E+01 -.288E-01 0.156E+04   0.238E+01 0.292E-01 -.157E+04   0.992E-02 0.278E-02 0.351E+01
   -.126E+02 -.217E+00 -.155E+04   0.126E+02 0.223E+00 0.156E+04   0.179E-01 -.661E-02 -.512E+01
   -.300E+02 -.147E+02 -.154E+04   0.299E+02 0.146E+02 0.155E+04   0.918E-01 0.731E-01 -.512E+01
   -.250E+02 -.135E+02 -.465E+03   0.247E+02 0.135E+02 0.465E+03   0.269E+00 0.346E-01 0.442E+00
   -.572E+01 -.111E+00 -.498E+03   0.571E+01 0.114E+00 0.498E+03   0.114E-01 -.166E-02 0.282E+00
   -.841E+01 -.837E+01 0.538E+03   0.837E+01 0.834E+01 -.538E+03   0.504E-01 0.432E-01 -.165E-02
   -.427E+01 -.430E+01 0.529E+03   0.426E+01 0.429E+01 -.529E+03   0.209E-01 0.128E-01 -.258E-01
   -.376E+01 -.324E+01 0.156E+04   0.375E+01 0.323E+01 -.157E+04   0.126E-01 0.118E-01 0.351E+01
   -.321E+01 -.375E+01 0.156E+04   0.320E+01 0.374E+01 -.157E+04   0.165E-01 0.102E-01 0.351E+01
   -.350E+02 -.344E+02 -.154E+04   0.349E+02 0.342E+02 0.154E+04   0.108E+00 0.132E+00 -.516E+01
   -.107E+02 -.108E+02 -.155E+04   0.107E+02 0.107E+02 0.156E+04   0.303E-01 0.405E-01 -.513E+01
   -.109E+02 -.110E+02 -.491E+03   0.109E+02 0.110E+02 0.491E+03   0.312E-01 0.441E-01 0.290E+00
   -.110E+02 -.107E+02 -.491E+03   0.109E+02 0.107E+02 0.491E+03   0.312E-01 0.418E-01 0.283E+00
   -.454E-01 -.104E+01 0.453E+02   0.846E-12 -.117E-11 -.246E-10   0.469E-01 0.102E+01 -.453E+02

 POSITION                                       TOTAL-FORCE (eV/Angst)
      6.99491      7.23757     16.25106         0.103192      0.064899     -0.026605
      5.55296      6.60195     16.39048        -0.040506     -0.017304     -0.016316
      9.87776      5.47135     16.26959        -0.105778     -0.066385     -0.026927
     11.33605      6.06979     16.39129         0.047967      0.021599     -0.016121
      7.56610      4.92473     16.26137        -0.067425      0.103752     -0.025824
      8.17879      3.47745     16.43766         0.015480     -0.050286     -0.011698
      9.33709      7.82451     16.25811         0.060332     -0.101526     -0.026374
      8.70117      9.27305     16.31724        -0.016940      0.049108     -0.017222
      6.47170      6.40747     16.13767        -0.009043     -0.063035      0.023000
     10.42213      6.28583     16.13893         0.001386      0.064896      0.019859
      8.38265      4.38044     16.14138         0.068944     -0.002494      0.020861
      8.50367      8.33839     16.13200        -0.062259     -0.002336      0.022106
      0.00000      6.33074      7.50000        -0.000313     -0.000072      0.343185
      2.11025      0.00000      7.50000         0.001727      0.001923      0.343650
      0.00000      0.00000      9.61025        -0.000130      0.001365     -0.012238
      2.11025      6.33074      9.61025         0.025543     -0.000793     -0.000852
      0.00002      6.33089     11.72444         0.000554     -0.002434      0.045910
      2.10989     16.88150     11.72422         0.000928      0.001225      0.043608
      0.00041     16.88059     13.81837        -0.000258      0.002010      0.050569
      2.10778      6.33094     13.81650        -0.003903     -0.001436      0.048661
      0.00000      2.11025      7.50000        -0.000207      0.002214      0.343993
      2.11025      4.22049      7.50000         0.005566      0.002669      0.346883
      0.00000      4.22049      9.61025         0.001051     -0.000094     -0.014105
      2.11025      2.11025      9.61025         0.002088      0.003469     -0.013322
      0.00013      2.10943     11.72412         0.001295      0.002826      0.045186
      2.11024      4.22059     11.72341        -0.003033      0.001368      0.044804
      0.00060      4.21844     13.81750        -0.001897     -0.000481      0.049518
      2.10928      2.10781     13.81677        -0.002844      0.000958      0.050091
      4.22049      6.33074      7.50000         0.009734     -0.000439      0.357658
      6.33074      0.00000      7.50000         0.002927      0.005774      0.346721
      4.22049      0.00000      9.61025         0.003136      0.002662     -0.013674
      6.33074      6.33074      9.61025         0.019665     -0.003572      0.057535
      4.22721      6.33021     11.72858        -0.002778     -0.000472      0.041720
      6.33120     16.88129     11.72267        -0.001325     -0.002272      0.043931
      4.21828     16.88066     13.81639         0.001171     -0.001726      0.051294
      6.33949      6.32167     13.87250        -0.013258      0.001727      0.078128
      4.22049      2.11025      7.50000         0.006069      0.006187      0.346974
      6.33074      4.22049      7.50000         0.006866      0.006342      0.362279
      4.22049      4.22049      9.61025         0.028809      0.018297      0.009901
      6.33074      2.11025      9.61025         0.019512      0.027751      0.006149
      4.22005      2.11025     11.72204        -0.000094      0.000283      0.041878
      6.33833      4.22675     11.73500         0.001487     -0.002584      0.036995
      4.21936      4.21565     13.80794        -0.010416     -0.005266      0.045895
      6.32607      2.10905     13.80091        -0.005437     -0.010681      0.043506
      0.00000     14.77172      7.50000        -0.000168      0.000164      0.342702
      2.11025      8.44098      7.50000         0.005195     -0.002760      0.346269
      0.00000      8.44098      9.61025        -0.001488      0.000497     -0.015250
      2.11025     14.77172      9.61025         0.001446      0.000101     -0.013282
      0.00048     14.77202     11.72444        -0.003230     -0.003006      0.044333
      2.10923      8.44116     11.72269         0.000697     -0.001436      0.043136
     16.88184      8.44339     13.81729         0.000391     -0.001496      0.051581
      2.10915     14.77188     13.81822         0.001781     -0.000901      0.050863
      0.00000     10.55123      7.50000        -0.000242     -0.001902      0.343798
      2.11025     12.66148      7.50000         0.001786     -0.001486      0.343761
      0.00000     12.66148      9.61025         0.000060     -0.000328     -0.011050
      2.11025     10.55123      9.61025         0.002459     -0.001610     -0.012572
      0.00027     10.55221     11.72411        -0.001438      0.000750      0.045060
      2.11018     12.66227     11.72449        -0.003199     -0.002184      0.043444
      0.00015     12.66321     13.81815         0.002112     -0.001845      0.050538
      2.10890     10.55398     13.81722        -0.002082      0.002449      0.047508
[...]
     14.77172      8.44098      9.61025         0.018726      0.005058      0.025712
     12.66148      8.44098      7.50000         0.010651      0.007372     -0.522256
     14.77172     14.77172      7.50000         0.005090      0.003204     -0.510896
     12.66384     14.77186     13.86949         0.000780     -0.000347      0.032614
     14.77481      8.44434     13.87051         0.000633      0.000800      0.031971
     12.66813      8.44210     11.71779        -0.002449      0.000530      0.011351
     14.77279     14.77164     11.71922         0.001148      0.000814      0.010885
     12.66148     10.55123      9.61025         0.013779      0.010730      0.027947
     14.77172     12.66148      9.61025         0.007582      0.003688      0.032011
     12.66148     12.66148      7.50000         0.003485      0.003364     -0.514211
     14.77172     10.55123      7.50000         0.006940      0.000536     -0.512182
     12.66904     10.55862     13.86931        -0.000846      0.000792      0.030535
     14.77454     12.66398     13.86956        -0.000577      0.000710      0.031989
     12.66303     12.66300     11.71890         0.000292     -0.000509      0.011672
     14.77373     10.55268     11.71890        -0.000664      0.000029      0.009878
    total drift:                                0.001471     -0.022582      0.056954

  FREE ENERGIE OF THE ION-ELECTRON SYSTEM (eV)
  free  energy   TOTEN  =     -1562.26418370 eV

  energy  without entropy=    -1562.26418370  energy(sigma->0) =    -1562.26418370