 vasp.6.3.0 20Jan22 (build Dec 25 2023 18:06:01) complex
 executed on        HPECrayEX_GCC date 2024.01.24  07:31:40

 INCAR:
   SYSTEM = MgO-rocksalt
   ISMEAR = 0
   SIGMA = 0.05
   EDIFF = 1E-8
   ALGO = ALL
   ISTART = 0
   IBRION = 5
   POTIM = 0.01
   NFREE = 2
   ISYM = 0
   DIPOL = 0.5 0.5 0.5
   IDIPOL = 3
   LDIPOL = .TRUE.
   GGA = MK
   LUSE_VDW = .TRUE.
   PARAM1 = 0.1234
   PARAM2 = 0.711357
   ZAB_VDW = -1.8867
   AGGAC = 0.0
   ENCUT = 600
   PREC = Accurate
   LASPH = .TRUE.
   LREAL = .FALSE.
   ISPIN = 1
   NELM = 200
   NELMIN = 8
   NCORE = 8
   KPAR = 1
   LWAVE = .FALSE.
   LCHARG = .FALSE.

 POTCAR:    PAW_PBE N 08Apr2002
 POTCAR:    PAW_PBE H 15Jun2001
 POTCAR:    PAW_PBE Ti_pv 07Sep2000
 POTCAR:    PAW_PBE O 08Apr2002
|               ----> ADVICE to this user running VASP <----                  |
|     You have switched on vdW-DFT.                                           |
|     This routine was written and supplied by Jiri Klimes. We recommend      |
|     that you carefully read and cite the following publications:            |
|       J. Klimes, D.R. Bowler, A. Michelides                                 |
|          J. Phys.: Cond Matt. 22 022201 (2010)                              |
|       J. Klimes, D.R. Bowler, A. Michelides                                 |
|          Phys. Rev. B. 83, 195131 (2011)                                    |
|     and references therein.                                                 |

   TITEL  = PAW_PBE N 08Apr2002
   POMASS =   14.001; ZVAL   =    5.000    mass and valenz
   ENMAX  =  400.000; ENMIN  =  300.000 eV

   TITEL  = PAW_PBE H 15Jun2001
   POMASS =    1.000; ZVAL   =    1.000    mass and valenz
   ENMAX  =  250.000; ENMIN  =  200.000 eV

   TITEL  = PAW_PBE Ti_pv 07Sep2000
   POMASS =   47.880; ZVAL   =   10.000    mass and valenz
   ENMAX  =  222.335; ENMIN  =  166.751 eV

   TITEL  = PAW_PBE O 08Apr2002
   POMASS =   16.000; ZVAL   =    6.000    mass and valenz
   ENMAX  =  400.000; ENMIN  =  300.000 eV

  PAW_PBE N 08Apr2002                   :
  PAW_PBE H 15Jun2001                   :
  PAW_PBE Ti_pv 07Sep2000               :
  PAW_PBE O 08Apr2002                   :

 POSCAR:  N  H Ti  O
  positions in direct lattice
 exchange correlation table for  LEXCH =       43
   RHO(1)=    0.500       N(1)  =     2000
   RHO(2)=  100.500       N(2)  =     4000

 ion  position               nearest neighbor table
   1  0.610  0.500  0.778-   2 1.02   4 1.03   3 1.03  52 2.28
   2  0.547  0.500  0.806-   1 1.02
   3  0.669  0.428  0.781-   1 1.03
   4  0.669  0.572  0.781-   1 1.03
   5  0.810  0.833  0.295-  55 1.94  89 1.94  57 1.94  56 2.00  54 2.00   8 3.06  22 3.06   6 3.06

   6  0.594  0.667  0.326-  58 1.94 120 1.94  53 1.94  56 1.94  59 2.00  57 2.00   7 3.06  37 3.06
                             5 3.06  11 3.09
   7  0.310  0.667  0.295-  59 1.94 125 1.94  61 1.94  60 2.00  53 2.00   6 3.06  40 3.06   8 3.06

   8  0.094  0.833  0.326-  62 1.94  92 1.94  54 1.94  60 1.94  55 2.00  61 2.00   5 3.06  23 3.06
                             7 3.06   9 3.09
   9  0.946  0.833  0.422-  63 1.93  97 1.94  65 1.94  55 1.98  64 1.99  62 2.00  12 3.01  26 3.06
                            10 3.06   8 3.09
  10  0.728  0.666  0.451-  58 1.90 128 1.94  64 1.95  66 1.96  67 1.99  65 2.00  11 3.02   9 3.06
                            41 3.06  15 3.11
  11  0.446  0.666  0.422-  67 1.93 133 1.94  69 1.94  59 1.98  68 1.99  58 2.01  10 3.02  12 3.06
                            44 3.06   6 3.09
  12  0.227  0.833  0.451-  62 1.90 100 1.94  68 1.94  70 1.97  63 1.98  69 2.01   9 3.01  27 3.06
                            11 3.06  13 3.11
  13  0.087  0.833  0.550-  71 1.93 105 1.93  73 1.94  72 1.98  63 2.01  70 2.01  16 2.96  14 3.05
                            30 3.06  12 3.11
  14  0.866  0.666  0.575-  66 1.87 136 1.94  72 1.95  75 1.96  74 2.01  73 2.01  15 2.98  13 3.05
                            45 3.06
  15  0.585  0.666  0.549- 141 1.93  77 1.94  75 1.94  76 1.98  67 1.98  66 2.01  14 2.98  16 3.06
                            48 3.07  10 3.11
  16  0.365  0.833  0.576-  70 1.87 108 1.94  76 1.95  71 1.96  78 2.00  77 2.02  13 2.96  15 3.06
                            31 3.06
  17  0.232  0.833  0.680-  79 1.87  81 1.93 113 1.94  80 2.00  71 2.09  78 2.09  20 2.86  34 3.08
                            18 3.09
  18  0.002  0.666  0.700-  74 1.78  82 1.84 144 1.97  80 1.99  81 2.06  19 2.87  17 3.09  49 3.11

[...]

  21  0.810  0.167  0.295-  87 1.94  89 1.94 121 1.94  88 2.00  86 2.00  24 3.06  22 3.06  38 3.06

[...]

  37  0.810  0.500  0.295- 119 1.94  57 1.94 121 1.94 120 2.00 118 2.00  40 3.06   6 3.06  38 3.06

  38  0.594  0.333  0.326- 122 1.94 120 1.94 117 1.94  88 1.94 123 2.00 121 2.00  39 3.06  37 3.06
                            21 3.06  43 3.09
  39  0.310  0.333  0.295- 123 1.94 125 1.94  93 1.94 124 2.00 117 2.00  38 3.06  40 3.06  24 3.06

  40  0.094  0.500  0.326- 126 1.94 124 1.94  60 1.94 118 1.94 119 2.00 125 2.00  37 3.06   7 3.06
                            39 3.06  41 3.08
  41  0.948  0.500  0.422- 127 1.93 129 1.94  65 1.94 119 1.98 126 1.99 128 2.00  44 3.01  10 3.06
                            42 3.06  40 3.08
  42  0.728  0.334  0.451- 122 1.90 128 1.94  96 1.95 130 1.96 131 1.99 129 2.00  43 3.02  25 3.06
                            41 3.06  47 3.11
  43  0.446  0.334  0.422- 131 1.93 133 1.94 101 1.94 123 1.98 132 1.99 122 2.01  42 3.02  28 3.06
                            44 3.06  38 3.09
  44  0.227  0.500  0.453- 126 1.93  68 1.94 132 1.94 127 1.97 134 1.97 133 2.01  41 3.01  11 3.06
                            43 3.06  45 3.08
  45  0.090  0.500  0.550- 135 1.92 137 1.94  73 1.94 134 1.98 136 2.01 127 2.01  48 2.97  14 3.06
                            46 3.06  44 3.08
  46  0.866  0.334  0.575- 130 1.87 136 1.94 104 1.95 139 1.96 138 2.01 137 2.01  47 2.98  29 3.05
                            45 3.06
  47  0.585  0.334  0.549- 141 1.93 109 1.94 139 1.94 140 1.98 131 1.98 130 2.01  46 2.98  32 3.06
                            48 3.07  42 3.11
  48  0.367  0.500  0.579- 134 1.93 140 1.95  76 1.95 135 1.95 142 1.97 141 2.03  45 2.97  47 3.07
                            15 3.07  49 3.14
  49  0.236  0.500  0.681- 143 1.86 145 1.94  81 1.94 144 2.03 142 2.04 135 2.10  52 2.89  18 3.11
                            50 3.11  48 3.14
  50  0.002  0.334  0.700- 138 1.78 146 1.84 144 1.97 112 1.99 145 2.06  51 2.87  33 3.09  49 3.11

  51  0.731  0.333  0.678- 146 1.89 148 1.94 116 1.94 147 1.99 139 2.04 138 2.09  50 2.87  36 3.08
                            52 3.09
  52  0.507  0.500  0.706- 143 1.84 142 1.88 147 1.99  83 1.99 148 2.06   1 2.28  49 2.89  51 3.09
                            19 3.09
  53  0.490  0.667  0.268-   6 1.94   7 2.00
  54  0.990  0.833  0.268-   8 1.94   5 2.00
  55  0.914  0.833  0.353-   5 1.94   9 1.98   8 2.00
  56  0.630  0.833  0.321-  22 1.94   6 1.94   5 2.00
  57  0.773  0.667  0.300-  37 1.94   5 1.94   6 2.00
  58  0.625  0.667  0.395-  10 1.90   6 1.94  11 2.01
  59  0.414  0.667  0.353-   7 1.94  11 1.98   6 2.00
  60  0.130  0.667  0.321-  40 1.94   8 1.94   7 2.00
  61  0.273  0.833  0.300-  23 1.94   7 1.94   8 2.00
  62  0.125  0.833  0.395-  12 1.90   8 1.94   9 2.00
  63  0.051  0.834  0.480-   9 1.93  12 1.98  13 2.01
  64  0.766  0.833  0.447-  26 1.94  10 1.95   9 1.99
  65  0.910  0.667  0.427-   9 1.94  41 1.94  10 2.00
  66  0.764  0.666  0.520-  14 1.87  10 1.96  15 2.01
  67  0.551  0.666  0.480-  11 1.93  15 1.98  10 1.99
  68  0.266  0.667  0.448-  44 1.94  12 1.94  11 1.99
  69  0.409  0.833  0.427-  27 1.94  11 1.94  12 2.01
  70  0.264  0.833  0.521-  16 1.87  12 1.97  13 2.01
  71  0.194  0.833  0.607-  13 1.93  16 1.96  17 2.09
  72  0.905  0.833  0.573-  30 1.94  14 1.95  13 1.98
  73  0.051  0.667  0.553-  13 1.94  45 1.94  14 2.01
  74  0.913  0.667  0.645-  18 1.78  14 2.01  19 2.09
  75  0.695  0.668  0.606-  15 1.94  14 1.96  19 2.04
  76  0.405  0.667  0.574-  48 1.95  16 1.95  15 1.98
  77  0.550  0.833  0.553-  31 1.94  15 1.94  16 2.02
  78  0.412  0.836  0.646-  20 1.78  16 2.00  17 2.09
  79  0.348  0.833  0.731-  20 1.84  17 1.87
  80  0.053  0.833  0.708-  34 1.98  18 1.99  17 2.00
  81  0.195  0.666  0.681-  17 1.93  49 1.94  18 2.06
  82  0.844  0.664  0.730-  18 1.84  19 1.89
  83  0.554  0.669  0.707-  20 1.96  52 1.99  19 1.99
  84  0.696  0.834  0.679-  35 1.93  19 1.94  20 2.06
  85  0.490  0.000  0.268-  22 1.94  23 2.00
  86  0.990  0.167  0.268-  24 1.94  21 2.00
  87  0.914  0.167  0.353-  21 1.94  25 1.98  24 2.00
  88  0.630  0.167  0.321-  22 1.94  38 1.94  21 2.00
  89  0.773  0.000  0.300-   5 1.94  21 1.94  22 2.00
  90  0.625  0.000  0.395-  26 1.90  22 1.94  27 2.00
  91  0.414  0.000  0.353-  23 1.94  27 1.98  22 2.00
  92  0.130  0.000  0.321-   8 1.94  24 1.94  23 2.00
  93  0.273  0.167  0.300-  23 1.94  39 1.94  24 2.00
  94  0.125  0.167  0.395-  28 1.90  24 1.94  25 2.00
  95  0.051  0.166  0.480-  25 1.93  28 1.98  29 2.01
  96  0.766  0.167  0.447-  26 1.94  42 1.95  25 1.99
  97  0.910  0.000  0.426-   9 1.94  25 1.94  26 2.00
  98  0.764  0.000  0.520-  30 1.87  26 1.97  31 2.01
  99  0.551  0.000  0.479-  27 1.93  26 1.99  31 2.00
 100  0.266  0.000  0.448-  12 1.94  28 1.94  27 1.99
 101  0.409  0.167  0.427-  27 1.94  43 1.94  28 2.01
 102  0.264  0.167  0.521-  32 1.87  28 1.97  29 2.01
 103  0.194  0.167  0.607-  29 1.93  32 1.96  33 2.09
 104  0.905  0.167  0.573-  30 1.94  46 1.95  29 1.98
 105  0.051  1.000  0.553-  13 1.93  29 1.93  30 2.02
 106  0.913  0.000  0.645-  34 1.79  30 2.01  35 2.08
 107  0.694  1.000  0.606-  31 1.93  30 1.95  35 2.10
 108  0.405  0.000  0.573-  32 1.94  16 1.94  31 1.98
 109  0.550  0.167  0.553-  31 1.94  47 1.94  32 2.02
 110  0.412  0.164  0.646-  36 1.78  32 2.00  33 2.09
 111  0.348  0.167  0.731-  36 1.84  33 1.87
 112  0.053  0.167  0.708-  34 1.98  50 1.99  33 2.00
[...]
 134  0.265  0.500  0.522-  48 1.93  44 1.97  45 1.98
 135  0.193  0.500  0.607-  45 1.92  48 1.95  49 2.10
 136  0.905  0.500  0.573-  14 1.94  46 1.94  45 2.01
 137  0.051  0.333  0.553-  29 1.94  45 1.94  46 2.01
 138  0.913  0.333  0.645-  50 1.78  46 2.01  51 2.09
 139  0.695  0.332  0.606-  47 1.94  46 1.96  51 2.04
 140  0.405  0.333  0.574-  48 1.95  32 1.95  47 1.98
 141  0.550  0.500  0.554-  15 1.93  47 1.93  48 2.03
 142  0.412  0.500  0.648-  52 1.88  48 1.97  49 2.04
 143  0.346  0.500  0.734-  52 1.84  49 1.86
 144  0.052  0.500  0.708-  18 1.97  50 1.97  49 2.03
 145  0.195  0.334  0.681-  33 1.93  49 1.94  50 2.06
 146  0.844  0.336  0.730-  50 1.84  51 1.89
 147  0.554  0.331  0.707-  36 1.96  52 1.99  51 1.99
 148  0.693  0.500  0.678-  19 1.94  51 1.94  52 2.06

IMPORTANT INFORMATION: All symmetrisations will be switched off!
NOSYMM: (Re-)initialisation of all symmetry stuff for point group C_1.

                                     Primitive cell

  volume of cell :    3284.6826

  direct lattice vectors                    reciprocal lattice vectors
    10.317568932  0.000000000  0.000000000     0.096922057 -0.000000000  0.000000000
     0.000000000 11.392502081  0.000000000     0.000000000  0.087777030  0.000000000
[...]

 Eigenvectors and eigenvalues of the dynamical matrix

   1 f  =  104.236309 THz   654.936048 2PiTHz 3476.949022 cm-1   431.086543 meV
             X         Y         Z           dx          dy          dz
      6.297885  5.696300 21.736936     0.237838    0.002250   -0.153791
      5.641390  5.696250 22.521886    -0.551483    0.000068    0.647907
      6.906546  4.873443 21.816096    -0.167107    0.255854   -0.034926
      6.906517  6.519018 21.816090    -0.173421   -0.264390   -0.035730
      8.354390  9.493752  8.234521            0           0           0
      6.124427  7.595001  9.117251            0           0           0
      3.195606  7.595001  8.234521            0           0           0
      0.965642  9.493752  9.117251            0           0           0
      9.761174  9.493934 11.803821            0           0           0
      7.508872  7.590423 12.606173            0           0           0
      4.597427  7.592264 11.800573            0           0           0
      2.342353  9.493266 12.614457            0           0           0
      0.893094  9.494952 15.371213            0           0           0
      8.934644  7.588537 16.078664            0           0           0
      6.040041  7.591787 15.351380            0           0           0
      3.764675  9.493941 16.102441            0           0           0
      2.392422  9.486673 19.008054            0           0           0
      0.019802  7.583514 19.554846            0           0           0
      7.537009  7.594772 18.937224            0           0           0
      5.198322  9.509023 19.550321            0           0           0
      8.354390  1.898750  8.234521            0           0           0
      6.124427  0.000000  9.117251            0           0           0
      3.195606  0.000000  8.234521            0           0           0
      0.965642  1.898750  9.117251            0           0           0
      9.761174  1.898568 11.803821            0           0           0
      7.505450 11.392502 12.607772            0           0           0
      4.599484 11.392502 11.803550            0           0           0
      2.342353  1.899236 12.614457            0           0           0
      0.893094  1.897550 15.371213            0           0           0
      8.923306  0.000000 16.090664            0           0           0
      6.046511  0.000000 15.360766            0           0           0
      3.764675  1.898562 16.102440            0           0           0
      2.392422  1.905829 19.008054            0           0           0
      0.041042 11.392502 19.555547            0           0           0
      7.567006  0.000000 18.991594            0           0           0
      5.198322  1.883480 19.550321            0           0           0
      8.354390  5.696251  8.234521            0           0           0
      6.124427  3.797501  9.117251            0           0           0
      3.195606  3.797501  8.234521            0           0           0
      0.965642  5.696251  9.117251            0           0           0
      9.776539  5.696251 11.798992            0           0           0
      7.508872  3.802079 12.606174            0           0           0
      4.597427  3.800238 11.800573            0           0           0
      2.345526  5.696251 12.644989            0           0           0
      0.923537  5.696251 15.377519            0           0           0
      8.934644  3.803965 16.078665            0           0           0
      6.040041  3.800715 15.351380            0           0           0
      3.782035  5.696251 16.192597            0           0           0
      2.430966  5.696251 19.028221            0           0           0
      0.019801  3.808988 19.554846            0           0           0
      7.537008  3.797730 18.937225            0           0           0
      5.233614  5.696251 19.718130            0           0           0
      5.051161  7.595001  7.500000            0           0           0
     10.209945  9.493752  7.500000            0           0           0
      9.427656  9.493752  9.851772            0           0           0
      6.498835  9.493752  8.969042            0           0           0
      7.979982  7.595001  8.382730            0           0           0
      6.448875  7.595001 11.030922            0           0           0
      4.268872  7.595001  9.851772            0           0           0
      1.340051  7.595001  8.969042            0           0           0
[...]
      2.734483  5.696251 14.576681            0           0           0
      1.994711  5.696251 16.971633            0           0           0
      9.338899  5.696251 16.011478            0           0           0
      0.526888  3.798880 15.455267            0           0           0
      9.420403  3.792542 18.024479            0           0           0
      7.169318  3.786213 16.928078            0           0           0
      4.183409  3.798423 16.045769            0           0           0
      5.679640  5.696251 15.477626            0           0           0
      4.248669  5.696251 18.110980            0           0           0
      3.567649  5.696251 20.498401            0           0           0
      0.541667  5.696251 19.782662            0           0           0
      2.011847  3.800803 19.034129            0           0           0
      8.710085  3.829214 20.413369            0           0           0
      5.715262  3.768874 19.747539            0           0           0
      7.150521  5.696251 18.952066            0           0           0

[...]

  11 f  =    3.549049 THz    22.299333 2PiTHz  118.383535 cm-1    14.677681 meV
             X         Y         Z           dx          dy          dz
      6.297885  5.696300 21.736936    -0.787709   -0.006832    0.321219
      5.641390  5.696250 22.521886    -0.335172   -0.000620   -0.018692
      6.906546  4.873443 21.816096    -0.230760   -0.006708    0.171251
      6.906517  6.519018 21.816090    -0.226860    0.000136    0.171782
      8.354390  9.493752  8.234521            0           0           0
      6.124427  7.595001  9.117251            0           0           0
      3.195606  7.595001  8.234521            0           0           0
      0.965642  9.493752  9.117251            0           0           0
      9.761174  9.493934 11.803821            0           0           0
      7.508872  7.590423 12.606173            0           0           0
      4.597427  7.592264 11.800573            0           0           0
      2.342353  9.493266 12.614457            0           0           0
      0.893094  9.494952 15.371213            0           0           0
      8.934644  7.588537 16.078664            0           0           0
      6.040041  7.591787 15.351380            0           0           0
      3.764675  9.493941 16.102441            0           0           0
      2.392422  9.486673 19.008054            0           0           0
      0.019802  7.583514 19.554846            0           0           0
      7.537009  7.594772 18.937224            0           0           0
      5.198322  9.509023 19.550321            0           0           0
      8.354390  1.898750  8.234521            0           0           0
      6.124427  0.000000  9.117251            0           0           0
      3.195606  0.000000  8.234521            0           0           0
      0.965642  1.898750  9.117251            0           0           0
      9.761174  1.898568 11.803821            0           0           0
      7.505450 11.392502 12.607772            0           0           0
      4.599484 11.392502 11.803550            0           0           0
      2.342353  1.899236 12.614457            0           0           0
      0.893094  1.897550 15.371213            0           0           0
      8.923306  0.000000 16.090664            0           0           0
      6.046511  0.000000 15.360766            0           0           0
      3.764675  1.898562 16.102440            0           0           0
      2.392422  1.905829 19.008054            0           0           0
      0.041042 11.392502 19.555547            0           0           0
      7.567006  0.000000 18.991594            0           0           0
      5.198322  1.883480 19.550321            0           0           0
      8.354390  5.696251  8.234521            0           0           0
      6.124427  3.797501  9.117251            0           0           0
      3.195606  3.797501  8.234521            0           0           0
      0.965642  5.696251  9.117251            0           0           0
      9.776539  5.696251 11.798992            0           0           0
      7.508872  3.802079 12.606174            0           0           0
      4.597427  3.800238 11.800573            0           0           0
      2.345526  5.696251 12.644989            0           0           0
      0.923537  5.696251 15.377519            0           0           0
      8.934644  3.803965 16.078665            0           0           0
      6.040041  3.800715 15.351380            0           0           0
      3.782035  5.696251 16.192597            0           0           0
      2.430966  5.696251 19.028221            0           0           0
      0.019801  3.808988 19.554846            0           0           0
      7.537008  3.797730 18.937225            0           0           0
      5.233614  5.696251 19.718130            0           0           0
      5.051161  7.595001  7.500000            0           0           0
     10.209945  9.493752  7.500000            0           0           0
      9.427656  9.493752  9.851772            0           0           0
      6.498835  9.493752  8.969042            0           0           0
      7.979982  7.595001  8.382730            0           0           0
      6.448875  7.595001 11.030922            0           0           0
      4.268872  7.595001  9.851772            0           0           0
      1.340051  7.595001  8.969042            0           0           0
[...]
      2.734483  5.696251 14.576681            0           0           0
      1.994711  5.696251 16.971633            0           0           0
      9.338899  5.696251 16.011478            0           0           0
      0.526888  3.798880 15.455267            0           0           0
      9.420403  3.792542 18.024479            0           0           0
      7.169318  3.786213 16.928078            0           0           0
      4.183409  3.798423 16.045769            0           0           0
      5.679640  5.696251 15.477626            0           0           0
      4.248669  5.696251 18.110980            0           0           0
      3.567649  5.696251 20.498401            0           0           0
      0.541667  5.696251 19.782662            0           0           0
      2.011847  3.800803 19.034129            0           0           0
      8.710085  3.829214 20.413369            0           0           0
      5.715262  3.768874 19.747539            0           0           0
      7.150521  5.696251 18.952066            0           0           0

  12 f/i=    2.461256 THz    15.464527 2PiTHz   82.098659 cm-1    10.178932 meV
             X         Y         Z           dx          dy          dz
      6.297885  5.696300 21.736936     0.000801    0.187599   -0.000268
      5.641390  5.696250 22.521886     0.000655    0.624165    0.000321
      6.906546  4.873443 21.816096    -0.410952   -0.223980    0.260805
      6.906517  6.519018 21.816090     0.411605   -0.224005   -0.261837
      8.354390  9.493752  8.234521            0           0           0
      6.124427  7.595001  9.117251            0           0           0
      3.195606  7.595001  8.234521            0           0           0
      0.965642  9.493752  9.117251            0           0           0
      9.761174  9.493934 11.803821            0           0           0
      7.508872  7.590423 12.606173            0           0           0
      4.597427  7.592264 11.800573            0           0           0
      2.342353  9.493266 12.614457            0           0           0
      0.893094  9.494952 15.371213            0           0           0
      8.934644  7.588537 16.078664            0           0           0
      6.040041  7.591787 15.351380            0           0           0
      3.764675  9.493941 16.102441            0           0           0
      2.392422  9.486673 19.008054            0           0           0
      0.019802  7.583514 19.554846            0           0           0
      7.537009  7.594772 18.937224            0           0           0
      5.198322  9.509023 19.550321            0           0           0
      8.354390  1.898750  8.234521            0           0           0
      6.124427  0.000000  9.117251            0           0           0
      3.195606  0.000000  8.234521            0           0           0
      0.965642  1.898750  9.117251            0           0           0
      9.761174  1.898568 11.803821            0           0           0
      7.505450 11.392502 12.607772            0           0           0
      4.599484 11.392502 11.803550            0           0           0
      2.342353  1.899236 12.614457            0           0           0
      0.893094  1.897550 15.371213            0           0           0
      8.923306  0.000000 16.090664            0           0           0
      6.046511  0.000000 15.360766            0           0           0
      3.764675  1.898562 16.102440            0           0           0
      2.392422  1.905829 19.008054            0           0           0
      0.041042 11.392502 19.555547            0           0           0
      7.567006  0.000000 18.991594            0           0           0
      5.198322  1.883480 19.550321            0           0           0
      8.354390  5.696251  8.234521            0           0           0
      6.124427  3.797501  9.117251            0           0           0
      3.195606  3.797501  8.234521            0           0           0
      0.965642  5.696251  9.117251            0           0           0
      9.776539  5.696251 11.798992            0           0           0
      7.508872  3.802079 12.606174            0           0           0
      4.597427  3.800238 11.800573            0           0           0
      2.345526  5.696251 12.644989            0           0           0
      0.923537  5.696251 15.377519            0           0           0
      8.934644  3.803965 16.078665            0           0           0
      6.040041  3.800715 15.351380            0           0           0
      3.782035  5.696251 16.192597            0           0           0
      2.430966  5.696251 19.028221            0           0           0
      0.019801  3.808988 19.554846            0           0           0
      7.537008  3.797730 18.937225            0           0           0
      5.233614  5.696251 19.718130            0           0           0
      5.051161  7.595001  7.500000            0           0           0
     10.209945  9.493752  7.500000            0           0           0
      9.427656  9.493752  9.851772            0           0           0
      6.498835  9.493752  8.969042            0           0           0
      7.979982  7.595001  8.382730            0           0           0
      6.448875  7.595001 11.030922            0           0           0
      4.268872  7.595001  9.851772            0           0           0
      1.340051  7.595001  8.969042            0           0           0
[...]
      2.734483  5.696251 14.576681            0           0           0
      1.994711  5.696251 16.971633            0           0           0
      9.338899  5.696251 16.011478            0           0           0
      0.526888  3.798880 15.455267            0           0           0
      9.420403  3.792542 18.024479            0           0           0
      7.169318  3.786213 16.928078            0           0           0
      4.183409  3.798423 16.045769            0           0           0
      5.679640  5.696251 15.477626            0           0           0
      4.248669  5.696251 18.110980            0           0           0
      3.567649  5.696251 20.498401            0           0           0
      0.541667  5.696251 19.782662            0           0           0
      2.011847  3.800803 19.034129            0           0           0
      8.710085  3.829214 20.413369            0           0           0
      5.715262  3.768874 19.747539            0           0           0
      7.150521  5.696251 18.952066            0           0           0

 Finite differences POTIM=   1.0000000000000000E-002