 vasp.6.3.0 20Jan22 (build Apr  1 2022 16:44:48) complex
 executed on        HPECrayEX_GCC date 2023.02.21  23:19:56

 INCAR:
   SYSTEM = MgO-rocksalt
   ISMEAR = 0
   SIGMA = 0.05
   EDIFF = 1E-8
   ALGO = ALL
   ISTART = 0
   IBRION = 5
   POTIM = 0.01
   NFREE = 2
   ISYM = 0
   DIPOL = 0.5 0.5 0.5
   IDIPOL = 3
   LDIPOL = .TRUE.
   GGA = MK
   LUSE_VDW = .TRUE.
   PARAM1 = 0.1234
   PARAM2 = 0.711357
   ZAB_VDW = -1.8867
   AGGAC = 0.0
   ENCUT = 520
   PREC = Accurate
   LASPH = .TRUE.
   LREAL = Auto
   ISPIN = 1
   NELM = 200
   NELMIN = 8
   NCORE = 8
   KPAR = 1
   LWAVE = .FALSE.
   LCHARG = .FALSE.

 POTCAR:    PAW_PBE C 08Apr2002
 POTCAR:    PAW_PBE H 15Jun2001
 POTCAR:    PAW_PBE Mg 13Apr2007
 POTCAR:    PAW_PBE O 08Apr2002
|               ----> ADVICE to this user running VASP <----                  |
|     You have switched on vdW-DFT.                                           |
|     This routine was written and supplied by Jiri Klimes. We recommend      |
|     that you carefully read and cite the following publications:            |
|       J. Klimes, D.R. Bowler, A. Michelides                                 |
|          J. Phys.: Cond Matt. 22 022201 (2010)                              |
|       J. Klimes, D.R. Bowler, A. Michelides                                 |
|          Phys. Rev. B. 83, 195131 (2011)                                    |
|     and references therein.                                                 |

   TITEL  = PAW_PBE C 08Apr2002
   POMASS =   12.011; ZVAL   =    4.000    mass and valenz
   ENMAX  =  400.000; ENMIN  =  300.000 eV

   TITEL  = PAW_PBE H 15Jun2001
   POMASS =    1.000; ZVAL   =    1.000    mass and valenz
   ENMAX  =  250.000; ENMIN  =  200.000 eV

[...]

   TITEL  = PAW_PBE O 08Apr2002
   POMASS =   16.000; ZVAL   =    6.000    mass and valenz
   ENMAX  =  400.000; ENMIN  =  300.000 eV

 Optimization of the real space projectors (new method)

 maximal supplied QI-value         = 25.13
 optimisation between [QCUT,QGAM] = [ 11.56, 23.12] = [ 37.43,149.72] Ry
 Optimized for a Real-space Cutoff    1.04 Angstroem

   l    n(q)    QCUT    max X(q) W(low)/X(q) W(high)/X(q)  e(spline)
   0      7    11.561   115.676    0.20E-03    0.60E-03    0.21E-06
   0      7    11.561    87.132    0.20E-03    0.59E-03    0.21E-06
   1      7    11.561     4.429    0.23E-03    0.35E-03    0.15E-06
   1      7    11.561     2.733    0.18E-03    0.25E-03    0.12E-06
 Optimization of the real space projectors (new method)

[...]

   l    n(q)    QCUT    max X(q) W(low)/X(q) W(high)/X(q)  e(spline)
   0      9    11.527    28.265    0.62E-04    0.53E-04    0.73E-07
   0      9    11.527    10.429    0.52E-04    0.40E-04    0.58E-07
   1      8    11.527    13.073    0.98E-04    0.18E-03    0.86E-07
   1      8    11.527     9.625    0.79E-04    0.15E-03    0.74E-07
   2      8    11.527     4.652    0.22E-03    0.72E-04    0.47E-07
 Optimization of the real space projectors (new method)

 maximal supplied QI-value         = 24.76
 optimisation between [QCUT,QGAM] = [ 11.64, 23.27] = [ 37.91,151.63] Ry
 Optimized for a Real-space Cutoff    1.14 Angstroem

   l    n(q)    QCUT    max X(q) W(low)/X(q) W(high)/X(q)  e(spline)
   0      8    11.635    20.381    0.10E-03    0.33E-03    0.24E-06
   0      8    11.635    15.268    0.11E-03    0.35E-03    0.26E-06
   1      7    11.635     5.964    0.24E-03    0.31E-03    0.30E-06
   1      7    11.635     5.382    0.22E-03    0.25E-03    0.26E-06
|               ----> ADVICE to this user running VASP <----                  |
|     You enforced a specific xc type in the INCAR file but a different       |
|     type was found in the POTCAR file.                                      |
|     I HOPE YOU KNOW WHAT YOU ARE DOING!                                     |

  PAW_PBE C 08Apr2002                   :
  PAW_PBE H 15Jun2001                   :
  PAW_PBE Mg 13Apr2007                  :
  PAW_PBE O 08Apr2002                   :

 POSCAR:  C  H Mg  O
  positions in direct lattice
 exchange correlation table for  LEXCH =       43
   RHO(1)=    0.500       N(1)  =     2000
   RHO(2)=  100.500       N(2)  =     4000

 ion  position               nearest neighbor table
   1  0.477  0.465  0.796-   7 1.09   2 1.40   6 1.40
   2  0.559  0.455  0.795-   8 1.09   1 1.40   3 1.40
   3  0.591  0.379  0.797-   9 1.09   4 1.40   2 1.40
   4  0.541  0.313  0.800-  10 1.09   3 1.40   5 1.40
   5  0.459  0.323  0.801-  11 1.09   6 1.40   4 1.40
   6  0.427  0.399  0.799-  12 1.09   5 1.40   1 1.40
   7  0.451  0.525  0.795-   1 1.09
   8  0.598  0.506  0.792-   2 1.09
   9  0.655  0.371  0.796-   3 1.09
  10  0.567  0.253  0.801-   4 1.09
  11  0.420  0.271  0.804-   5 1.09
  12  0.362  0.407  0.800-   6 1.09
  13  0.125  0.000  0.352- 141 2.11 143 2.11 144 2.11 160 2.11 183 2.11  16 2.98  32 2.98  55 2.98
                            15 2.98  54 2.98  30 2.98  70 2.98  14 2.98
  14  0.250  0.125  0.352- 142 2.11 143 2.11 144 2.11 152 2.11 159 2.11  16 2.98  24 2.98  31 2.98
                            15 2.98  29 2.98  21 2.98  37 2.98  13 2.98
  15  0.125  0.125  0.451- 143 2.11 142 2.11 141 2.11 149 2.11 158 2.11 147 2.11  21 2.98  30 2.98
                            13 2.98  14 2.98  32 2.98  40 2.98  24 2.98  16 2.98  25 2.99  34 2.99
  16  0.250  0.000  0.451- 144 2.11 142 2.11 141 2.11 157 2.11 182 2.11 148 2.11  29 2.98  54 2.98
                            13 2.98  14 2.98  55 2.98  71 2.98  31 2.98  15 2.98  58 2.99  33 2.99
  17  0.125  1.000  0.550- 147 2.11 164 2.11 148 2.11 187 2.11 141 2.12 145 2.13  19 2.97  20 2.97
                            59 2.97  36 2.97  34 2.98  74 2.98  58 2.98  18 2.98  32 2.99  55 2.99
  18  0.250  0.125  0.550- 156 2.11 163 2.11 147 2.11 148 2.11 142 2.12 146 2.14  35 2.97  28 2.97
                            19 2.97  20 2.97  25 2.98  33 2.98  17 2.98  41 2.99  24 2.99  31 2.99
  19  0.125  0.125  0.648- 147 2.10 146 2.11 153 2.11 145 2.11 162 2.11  17 2.97  25 2.97  18 2.97
                            34 2.97  20 2.98  44 2.98  36 2.98  28 2.99
  20  0.250  1.000  0.648- 148 2.10 161 2.11 146 2.11 145 2.11 186 2.11  17 2.97  58 2.97  33 2.97
                            18 2.97  19 2.98  75 2.98  59 2.98  35 2.99
  21  0.125  0.250  0.352- 149 2.11 143 2.11 151 2.11 152 2.11 168 2.11  23 2.98  24 2.98  40 2.98
                            15 2.98  30 2.98  38 2.98  14 2.98  22 2.98
  22  0.250  0.375  0.352- 150 2.11 151 2.11 152 2.11 167 2.11 176 2.11  24 2.98  39 2.98  48 2.98
                            23 2.98  45 2.98  37 2.98  61 2.98  21 2.98
  23  0.125  0.375  0.451- 151 2.11 150 2.11 149 2.11 166 2.11 173 2.11 155 2.11  38 2.98  45 2.98
                            21 2.98  22 2.98  48 2.98  64 2.98  40 2.98  24 2.98  49 2.99  25 2.99
  24  0.250  0.250  0.451- 152 2.11 149 2.11 150 2.11 142 2.11 165 2.11 156 2.11  22 2.98  37 2.98
                            14 2.98  21 2.98  15 2.98  39 2.98  23 2.98  31 2.98  25 2.99  18 2.99
  25  0.125  0.250  0.550- 156 2.11 155 2.11 147 2.11 172 2.11 149 2.12 153 2.14  28 2.97  27 2.97
                            19 2.97  44 2.97  18 2.98  42 2.98  34 2.98  26 2.99  24 2.99  23 2.99
  26  0.250  0.375  0.550- 171 2.10 180 2.11 156 2.11 155 2.11 150 2.12 154 2.14  52 2.97  28 2.97
                            27 2.97  43 2.98  41 2.98  65 2.98  25 2.99  49 2.99  39 2.99  24 2.99
  27  0.125  0.375  0.648- 155 2.10 153 2.11 177 2.11 154 2.11 170 2.11  25 2.97  49 2.97  42 2.97
                            26 2.97  28 2.98  52 2.98  68 2.98  44 2.98
  28  0.250  0.250  0.648- 156 2.10 169 2.11 154 2.11 146 2.11 153 2.11  26 2.97  41 2.97  18 2.97
                            25 2.97  35 2.98  27 2.98  19 2.99  43 2.99
  29  0.375  0.000  0.352- 157 2.11 144 2.11 159 2.11 199 2.11 224 2.11  31 2.98  71 2.98  96 2.98
                            16 2.98  94 2.98  54 2.98 134 2.98  14 2.98
  30  0.000  0.125  0.352- 158 2.11 143 2.11 160 2.11 168 2.11 223 2.11  32 2.98  40 2.98  95 2.98
                            15 2.98  93 2.98  13 2.98 101 2.98  21 2.98
  31  0.375  0.125  0.451- 159 2.11 157 2.11 142 2.11 165 2.11 222 2.11 163 2.11  37 2.98  94 2.98
                            14 2.98  29 2.98  96 2.98 104 2.98  24 2.98  16 2.98  18 2.99  33 2.99
  32  0.000  0.000  0.451- 160 2.11 158 2.11 141 2.11 198 2.11 221 2.11 164 2.11  70 2.98  93 2.98
                            13 2.98  30 2.98  95 2.98 135 2.98  15 2.98  55 2.98  34 2.99  17 2.99
  33  0.375  0.000  0.550- 163 2.11 228 2.11 203 2.11 148 2.11 157 2.12 161 2.14  35 2.97  20 2.97
                           100 2.97  75 2.97  18 2.98 138 2.98  58 2.98  98 2.99  31 2.99  96 2.99
  34  1.000  0.125  0.550- 227 2.11 147 2.11 164 2.11 172 2.11 158 2.12 162 2.13  44 2.97  99 2.97
                            19 2.97  36 2.97  17 2.98  97 2.98 105 2.98  25 2.98  32 2.99  95 2.99
  35  0.375  0.125  0.648- 163 2.10 169 2.11 226 2.11 146 2.11 161 2.11  98 2.97  41 2.97  18 2.97
                            33 2.97  28 2.98 100 2.98  20 2.99 108 2.99
  36  0.000  1.000  0.648- 164 2.10 202 2.11 225 2.11 145 2.11 162 2.11  74 2.97  17 2.97  97 2.97
                            34 2.97  59 2.98 139 2.98  99 2.98  19 2.98
  37  0.375  0.250  0.352- 165 2.11 159 2.11 152 2.11 167 2.11 232 2.11  31 2.98  39 2.98 104 2.98
                            24 2.98  94 2.98 102 2.98  22 2.98  14 2.98
  38  0.000  0.375  0.352- 166 2.11 151 2.11 168 2.11 192 2.11 231 2.11  40 2.98  64 2.98 103 2.98
                            23 2.98 101 2.98  45 2.98 125 2.98  21 2.98
  39  0.375  0.375  0.451- 171 2.11 167 2.11 150 2.11 165 2.11 189 2.11 230 2.11  61 2.98 102 2.98
                            22 2.98  37 2.98 104 2.98 128 2.98  24 2.98  48 2.98  26 2.99  41 2.99
  40  0.000  0.250  0.451- 168 2.11 158 2.11 166 2.11 149 2.11 229 2.11 172 2.11  38 2.98 101 2.98
                            21 2.98  30 2.98  15 2.98 103 2.98  23 2.98  95 2.98  42 2.99  34 2.99
  41  0.375  0.250  0.550- 171 2.11 236 2.11 156 2.11 163 2.11 165 2.12 169 2.14  28 2.97  35 2.97
                           108 2.97  43 2.98  26 2.98 106 2.98  98 2.98  18 2.99  39 2.99 104 2.99
  42  1.000  0.375  0.550- 172 2.11 196 2.11 235 2.11 155 2.11 166 2.12 170 2.14  68 2.97  44 2.97
                            27 2.97 107 2.97 129 2.98  49 2.98 105 2.98  25 2.98  40 2.99 103 2.99
  43  0.376  0.375  0.648- 234 2.10 171 2.11 193 2.11 169 2.11 154 2.12 132 2.97 106 2.97 108 2.97
                            65 2.97  41 2.98  26 2.98  52 2.99  28 2.99
  44  1.000  0.250  0.648- 172 2.10 162 2.11 170 2.11 153 2.11 233 2.11  42 2.97  34 2.97 105 2.97
                            25 2.97  19 2.98  99 2.98  27 2.98 107 2.98
  45  0.125  0.500  0.352- 173 2.11 151 2.11 175 2.11 176 2.11 192 2.11  47 2.98  48 2.98  64 2.98
                            23 2.98  38 2.98  62 2.98  46 2.98  22 2.98
  46  0.250  0.625  0.352- 174 2.11 175 2.11 176 2.11 184 2.11 191 2.11  48 2.98  56 2.98  63 2.98
                            47 2.98  61 2.98  53 2.98  69 2.98  45 2.98
  47  0.125  0.625  0.451- 175 2.11 174 2.11 173 2.11 181 2.11 190 2.11 179 2.11  53 2.98  62 2.98
[...]

[...]

  34 f  =    1.326366 THz     8.333802 2PiTHz   44.242803 cm-1     5.485406 meV
             X         Y         Z           dx          dy          dz
      8.046093  7.853516 16.983101     0.240090    0.239589    0.132575
      9.432627  7.681004 16.957058     0.211122    0.029469    0.012740
      9.977002  6.393285 16.991138     0.013816   -0.049976    0.098767
      9.134912  5.280138 17.058963    -0.152059    0.087048    0.308122
      7.747408  5.452284 17.089666    -0.122070    0.301483    0.419739
      7.203712  6.738920 17.047695     0.071608    0.379807    0.329872
      7.618907  8.859242 16.955577     0.113548    0.087685    0.019224
     10.091953  8.549586 16.903556     0.097391   -0.022254   -0.043568
     11.062387  6.258056 16.971393    -0.002608   -0.063899    0.002182
      9.563757  4.275092 17.085464    -0.087846    0.006826    0.109272
      7.088179  4.582380 17.140328    -0.071281    0.117048    0.167120
      6.119074  6.876513 17.069773     0.027863    0.159180    0.118615
      2.110146  0.000000  7.500000            0           0           0
      4.220291  2.110146  7.500000            0           0           0
      2.110146  2.110146  9.610146            0           0           0
      4.220291  0.000000  9.610146            0           0           0
      2.110051 16.881113 11.726906            0           0           0
      4.220664  2.110559 11.726782            0           0           0
      2.110428  2.110172 13.820004            0           0           0
      4.220412 16.881139 13.819915            0           0           0
      2.110146  4.220291  7.500000            0           0           0
      4.220291  6.330437  7.500000            0           0           0
      2.110146  6.330437  9.610146            0           0           0
      4.220291  4.220291  9.610146            0           0           0
      2.110653  4.220388 11.726797            0           0           0
      4.222703  6.330378 11.727317            0           0           0
      2.110595  6.330101 13.820332            0           0           0
      4.221766  4.221171 13.818813            0           0           0
      6.330437  0.000000  7.500000            0           0           0
      0.000000  2.110146  7.500000            0           0           0
      6.330437  2.110146  9.610146            0           0           0
      0.000000  0.000000  9.610146            0           0           0
      6.330634  0.000261 11.726725            0           0           0
     16.881110  2.109991 11.726859            0           0           0
      6.331310  2.111323 13.818328            0           0           0
      0.000003 16.880856 13.820397            0           0           0
      6.330437  4.220291  7.500000            0           0           0
      0.000000  6.330437  7.500000            0           0           0
      6.330437  6.330437  9.610146            0           0           0
      0.000000  4.220291  9.610146            0           0           0
      6.332142  4.222234 11.727574            0           0           0
     16.881017  6.330145 11.727119            0           0           0
      6.340017  6.331588 13.825632            0           0           0
     16.881043  4.220012 13.819891            0           0           0
      2.110146  8.440582  7.500000            0           0           0
      4.220291 10.550728  7.500000            0           0           0
      2.110146 10.550728  9.610146            0           0           0
      4.220291  8.440582  9.610146            0           0           0
      2.110280  8.440060 11.726461            0           0           0
      4.220377 10.550358 11.726201            0           0           0
      2.110087 10.550409 13.819840            0           0           0
      4.221438  8.439978 13.816957            0           0           0
      2.110146 12.660873  7.500000            0           0           0
      4.220291 14.771019  7.500000            0           0           0
      2.110146 14.771019  9.610146            0           0           0
      4.220291 12.660873  9.610146            0           0           0
      2.110127 12.660738 11.726803            0           0           0
      4.220201 14.770889 11.726756            0           0           0
      2.110105 14.770804 13.820077            0           0           0
      4.220164 12.660557 13.819589            0           0           0
[...]
      8.440582 10.550728  9.610146            0           0           0
     14.771019 10.550728  7.500000            0           0           0
      8.440582  8.440582  7.500000            0           0           0
     14.770462  8.440381 13.862195            0           0           0
      8.440428 10.550099 13.869041            0           0           0
     14.771209 10.550695 11.720691            0           0           0
      8.440179  8.444951 11.719783            0           0           0
     14.771019 12.660873  9.610146            0           0           0
      8.440582 14.771019  9.610146            0           0           0
     14.771019 14.771019  7.500000            0           0           0
      8.440582 12.660873  7.500000            0           0           0
     14.771099 12.660871 13.861373            0           0           0
      8.440347 14.770314 13.862244            0           0           0
     14.771100 14.770906 11.720636            0           0           0
      8.440390 12.660325 11.721656            0           0           0

  35 f/i=    0.372814 THz     2.342461 2PiTHz   12.435745 cm-1     1.541835 meV
             X         Y         Z           dx          dy          dz
      8.046093  7.853516 16.983101     0.272323   -0.057796    0.138710
      9.432627  7.681004 16.957058     0.238214   -0.281176   -0.068545
      9.977002  6.393285 16.991138     0.021515   -0.378925   -0.354308
      9.134912  5.280138 17.058963    -0.154686   -0.247534   -0.409662
      7.747408  5.452284 17.089666    -0.120971   -0.024378   -0.193889
      7.203712  6.738920 17.047695     0.092272    0.074630    0.070296
      7.618907  8.859242 16.955577     0.125687    0.005137    0.101366
     10.091953  8.549586 16.903556     0.108674   -0.110810   -0.005975
     11.062387  6.258056 16.971393    -0.000664   -0.161228   -0.147937
      9.563757  4.275092 17.085464    -0.090492   -0.092860   -0.177585
      7.088179  4.582380 17.140328    -0.074627    0.022421   -0.069237
      6.119074  6.876513 17.069773     0.034418    0.073756    0.066044
      2.110146  0.000000  7.500000            0           0           0
      4.220291  2.110146  7.500000            0           0           0
      2.110146  2.110146  9.610146            0           0           0
      4.220291  0.000000  9.610146            0           0           0
      2.110051 16.881113 11.726906            0           0           0
      4.220664  2.110559 11.726782            0           0           0
      2.110428  2.110172 13.820004            0           0           0
      4.220412 16.881139 13.819915            0           0           0
      2.110146  4.220291  7.500000            0           0           0
      4.220291  6.330437  7.500000            0           0           0
      2.110146  6.330437  9.610146            0           0           0
      4.220291  4.220291  9.610146            0           0           0
      2.110653  4.220388 11.726797            0           0           0
      4.222703  6.330378 11.727317            0           0           0
      2.110595  6.330101 13.820332            0           0           0
      4.221766  4.221171 13.818813            0           0           0
      6.330437  0.000000  7.500000            0           0           0
      0.000000  2.110146  7.500000            0           0           0
      6.330437  2.110146  9.610146            0           0           0
      0.000000  0.000000  9.610146            0           0           0
      6.330634  0.000261 11.726725            0           0           0
     16.881110  2.109991 11.726859            0           0           0
      6.331310  2.111323 13.818328            0           0           0
      0.000003 16.880856 13.820397            0           0           0
      6.330437  4.220291  7.500000            0           0           0
      0.000000  6.330437  7.500000            0           0           0
      6.330437  6.330437  9.610146            0           0           0
      0.000000  4.220291  9.610146            0           0           0
      6.332142  4.222234 11.727574            0           0           0
     16.881017  6.330145 11.727119            0           0           0
      6.340017  6.331588 13.825632            0           0           0
     16.881043  4.220012 13.819891            0           0           0
      2.110146  8.440582  7.500000            0           0           0
      4.220291 10.550728  7.500000            0           0           0
      2.110146 10.550728  9.610146            0           0           0
      4.220291  8.440582  9.610146            0           0           0
      2.110280  8.440060 11.726461            0           0           0
      4.220377 10.550358 11.726201            0           0           0
      2.110087 10.550409 13.819840            0           0           0
      4.221438  8.439978 13.816957            0           0           0
      2.110146 12.660873  7.500000            0           0           0
      4.220291 14.771019  7.500000            0           0           0
      2.110146 14.771019  9.610146            0           0           0
      4.220291 12.660873  9.610146            0           0           0
      2.110127 12.660738 11.726803            0           0           0
      4.220201 14.770889 11.726756            0           0           0
      2.110105 14.770804 13.820077            0           0           0
      4.220164 12.660557 13.819589            0           0           0
[...]
      8.440582 10.550728  9.610146            0           0           0
     14.771019 10.550728  7.500000            0           0           0
      8.440582  8.440582  7.500000            0           0           0
     14.770462  8.440381 13.862195            0           0           0
      8.440428 10.550099 13.869041            0           0           0
     14.771209 10.550695 11.720691            0           0           0
      8.440179  8.444951 11.719783            0           0           0
     14.771019 12.660873  9.610146            0           0           0
      8.440582 14.771019  9.610146            0           0           0
     14.771019 14.771019  7.500000            0           0           0
      8.440582 12.660873  7.500000            0           0           0
     14.771099 12.660871 13.861373            0           0           0
      8.440347 14.770314 13.862244            0           0           0
     14.771100 14.770906 11.720636            0           0           0
      8.440390 12.660325 11.721656            0           0           0

  36 f/i=    1.082569 THz     6.801981 2PiTHz   36.110610 cm-1     4.477143 meV
             X         Y         Z           dx          dy          dz
      8.046093  7.853516 16.983101    -0.290552   -0.010448   -0.041912
      9.432627  7.681004 16.957058    -0.299086   -0.104984    0.015623
      9.977002  6.393285 16.991138    -0.379503   -0.139099    0.057738
      9.134912  5.280138 17.058963    -0.458252   -0.079260    0.051600
      7.747408  5.452284 17.089666    -0.448651    0.012629    0.002729
      7.203712  6.738920 17.047695    -0.368272    0.045904   -0.035708
      7.618907  8.859242 16.955577    -0.063552    0.005178   -0.022972
     10.091953  8.549586 16.903556    -0.069505   -0.042756    0.005969
     11.062387  6.258056 16.971393    -0.111886   -0.060556    0.029295
      9.563757  4.275092 17.085464    -0.152526   -0.031449    0.025416
      7.088179  4.582380 17.140328    -0.145235    0.015670   -0.001144
      6.119074  6.876513 17.069773    -0.103779    0.033126   -0.021257
      2.110146  0.000000  7.500000            0           0           0
      4.220291  2.110146  7.500000            0           0           0
      2.110146  2.110146  9.610146            0           0           0
      4.220291  0.000000  9.610146            0           0           0
      2.110051 16.881113 11.726906            0           0           0
      4.220664  2.110559 11.726782            0           0           0
      2.110428  2.110172 13.820004            0           0           0
      4.220412 16.881139 13.819915            0           0           0
      2.110146  4.220291  7.500000            0           0           0
      4.220291  6.330437  7.500000            0           0           0
      2.110146  6.330437  9.610146            0           0           0
      4.220291  4.220291  9.610146            0           0           0
      2.110653  4.220388 11.726797            0           0           0
      4.222703  6.330378 11.727317            0           0           0
      2.110595  6.330101 13.820332            0           0           0
      4.221766  4.221171 13.818813            0           0           0
      6.330437  0.000000  7.500000            0           0           0
      0.000000  2.110146  7.500000            0           0           0
      6.330437  2.110146  9.610146            0           0           0
      0.000000  0.000000  9.610146            0           0           0
      6.330634  0.000261 11.726725            0           0           0
     16.881110  2.109991 11.726859            0           0           0
      6.331310  2.111323 13.818328            0           0           0
      0.000003 16.880856 13.820397            0           0           0
      6.330437  4.220291  7.500000            0           0           0
      0.000000  6.330437  7.500000            0           0           0
      6.330437  6.330437  9.610146            0           0           0
      0.000000  4.220291  9.610146            0           0           0
      6.332142  4.222234 11.727574            0           0           0
     16.881017  6.330145 11.727119            0           0           0
      6.340017  6.331588 13.825632            0           0           0
     16.881043  4.220012 13.819891            0           0           0
      2.110146  8.440582  7.500000            0           0           0
      4.220291 10.550728  7.500000            0           0           0
      2.110146 10.550728  9.610146            0           0           0
      4.220291  8.440582  9.610146            0           0           0
      2.110280  8.440060 11.726461            0           0           0
      4.220377 10.550358 11.726201            0           0           0
      2.110087 10.550409 13.819840            0           0           0
      4.221438  8.439978 13.816957            0           0           0
      2.110146 12.660873  7.500000            0           0           0
      4.220291 14.771019  7.500000            0           0           0
      2.110146 14.771019  9.610146            0           0           0
      4.220291 12.660873  9.610146            0           0           0
      2.110127 12.660738 11.726803            0           0           0
      4.220201 14.770889 11.726756            0           0           0
      2.110105 14.770804 13.820077            0           0           0
      4.220164 12.660557 13.819589            0           0           0
[...]
      8.440582 10.550728  9.610146            0           0           0
     14.771019 10.550728  7.500000            0           0           0
      8.440582  8.440582  7.500000            0           0           0
     14.770462  8.440381 13.862195            0           0           0
      8.440428 10.550099 13.869041            0           0           0
     14.771209 10.550695 11.720691            0           0           0
      8.440179  8.444951 11.719783            0           0           0
     14.771019 12.660873  9.610146            0           0           0
      8.440582 14.771019  9.610146            0           0           0
     14.771019 14.771019  7.500000            0           0           0
      8.440582 12.660873  7.500000            0           0           0
     14.771099 12.660871 13.861373            0           0           0
      8.440347 14.770314 13.862244            0           0           0
     14.771100 14.770906 11.720636            0           0           0
      8.440390 12.660325 11.721656            0           0           0

 Finite differences POTIM=   1.0000000000000000E-002