 vasp.6.3.0 20Jan22 (build Aug 21 2024 11:13:42) complex
 executed on        HPECrayEX_GCC date 2024.11.26  22:41:57

 INCAR:
   SYSTEM = TiO2
   ISMEAR = 0
   SIGMA = 0.05
   EDIFF = 1E-4
   ALGO = ALL
   ISTART = 0
   IBRION = -1
   NSW = 0
   ISYM = 0
   ISIF = 2
   EDIFFG = -0.01
   DIPOL = 0.5 0.5 0.5
   IDIPOL = 3
   LDIPOL = .TRUE.
   GGA = RE
   AGGAC = 0.0
   LUSE_VDW = .TRUE.
   LASPH = .TRUE.
   ENCUT = 600
   PREC = Accurate
   LASPH = .TRUE.
   LREAL = .FALSE.
   ISPIN = 1
   NELM = 200
   NELMIN = 8
   NCORE = 16
   KPAR = 1
   LWAVE = .FALSE.
   LCHARG = .FALSE.

 POTCAR:    PAW_PBE Ti_pv 07Sep2000
 POTCAR:    PAW_PBE O 08Apr2002
|               ----> ADVICE to this user running VASP <----                  |
|     You have switched on vdW-DFT.                                           |
|     This routine was written and supplied by Jiri Klimes. We recommend      |
|     that you carefully read and cite the following publications:            |
|       J. Klimes, D.R. Bowler, A. Michelides                                 |
|          J. Phys.: Cond Matt. 22 022201 (2010)                              |
|       J. Klimes, D.R. Bowler, A. Michelides                                 |
|          Phys. Rev. B. 83, 195131 (2011)                                    |
|     and references therein.                                                 |

   TITEL  = PAW_PBE Ti_pv 07Sep2000
   POMASS =   47.880; ZVAL   =   10.000    mass and valenz
   ENMAX  =  222.335; ENMIN  =  166.751 eV

   TITEL  = PAW_PBE O 08Apr2002
   POMASS =   16.000; ZVAL   =    6.000    mass and valenz
   ENMAX  =  400.000; ENMIN  =  300.000 eV

  PAW_PBE Ti_pv 07Sep2000               :
  PAW_PBE O 08Apr2002                   :

 POSCAR: Ti  O
  positions in direct lattice
 exchange correlation table for  LEXCH =       40
   RHO(1)=    0.500       N(1)  =     2000
   RHO(2)=  100.500       N(2)  =     4000

 ion  position               nearest neighbor table
   1  0.815  0.833  0.293-  85 1.97  53 1.97  51 1.97  50 2.02  52 2.02  18 3.11   4 3.11   2 3.11

   2  0.599  0.667  0.325-  49 1.97 116 1.97  54 1.97  52 1.97  53 2.02  55 2.02  33 3.11   3 3.11
                             1 3.11   7 3.14
   3  0.315  0.667  0.293- 121 1.97  57 1.97  55 1.97  49 2.02  56 2.02  36 3.11   2 3.11   4 3.11

   4  0.099  0.833  0.325-  50 1.97  88 1.97  58 1.97  56 1.97  57 2.02  51 2.02  19 3.11   1 3.11
                             3 3.11   5 3.14
   5  0.949  0.833  0.422-  59 1.95  93 1.96  61 1.96  60 2.01  51 2.01  58 2.04   8 3.05   6 3.10
                            22 3.10   4 3.14
   6  0.730  0.666  0.451-  54 1.91 124 1.96  60 1.97  62 2.00  63 2.01  61 2.03   7 3.06   5 3.10
                            37 3.11  11 3.17
   7  0.449  0.667  0.422-  63 1.95 129 1.96  65 1.96  55 2.01  64 2.01  54 2.04   6 3.06   8 3.11
                            40 3.11   2 3.14
   8  0.229  0.833  0.451-  58 1.92  96 1.97  64 1.97  59 2.00  66 2.01  65 2.04   5 3.05  23 3.11
                             7 3.11
   9  0.088  0.834  0.551-  67 1.94 101 1.96  69 1.96  68 2.00  66 2.04  59 2.05  12 3.00  10 3.10
                            26 3.11
  10  0.866  0.666  0.576-  62 1.88 132 1.96  68 1.97  71 1.98  69 2.04  70 2.05  11 3.02   9 3.10
                            41 3.11
  11  0.587  0.667  0.550-  71 1.96 137 1.96  73 1.96  72 2.00  63 2.02  62 2.05  10 3.02  12 3.11
                            44 3.12   6 3.17
  12  0.365  0.833  0.577-  66 1.88 104 1.97  72 1.98  67 1.98  74 2.04  73 2.05   9 3.00  27 3.11
                            11 3.11
  13  0.231  0.833  0.683-  75 1.87  77 1.96 109 1.97  76 2.02  74 2.14  67 2.16  16 2.90  30 3.12
                            14 3.14
  14  1.000  0.666  0.702-  70 1.79  78 1.86 140 2.00  76 2.01  77 2.10  15 2.91  13 3.14  45 3.15

[...]

  17  0.815  0.167  0.293-  85 1.97 117 1.97  83 1.97  82 2.02  84 2.02  18 3.11  20 3.11  34 3.11

[...]

  36  0.099  0.500  0.325- 114 1.97  56 1.97 120 1.97 122 1.97 121 2.02 115 2.02   3 3.11  35 3.11
                            33 3.11  37 3.13
  37  0.950  0.500  0.422- 123 1.95 125 1.96  61 1.96 115 2.01 124 2.02 122 2.02  40 3.05   6 3.11
                            38 3.11  36 3.13
  38  0.730  0.334  0.451- 118 1.91 124 1.96  92 1.97 126 2.00 127 2.01 125 2.03  39 3.06  21 3.10
                            37 3.11  43 3.17
  39  0.449  0.333  0.422- 127 1.95 129 1.96  97 1.96 119 2.01 128 2.01 118 2.04  38 3.06  24 3.11
                            40 3.11  34 3.14
  40  0.229  0.500  0.452- 122 1.94  64 1.97 128 1.97 123 1.98 130 2.01 129 2.04  37 3.05  39 3.11
                             7 3.11  41 3.15
  41  0.090  0.500  0.551- 131 1.94 133 1.96  69 1.96 130 2.02 132 2.02 123 2.05  44 3.00  42 3.11
                            10 3.11  40 3.15
  42  0.866  0.334  0.576- 126 1.88 132 1.96 100 1.97 135 1.98 133 2.04 134 2.05  43 3.02  25 3.10
                            41 3.11
  43  0.587  0.333  0.550- 135 1.96 137 1.96 105 1.96 136 2.00 127 2.02 126 2.05  42 3.02  28 3.11
                            44 3.12  38 3.17
  44  0.366  0.500  0.579- 130 1.92 131 1.96 136 1.97  72 1.97 138 2.05 137 2.06  41 3.00  43 3.12
                            11 3.12
  45  0.233  0.500  0.683- 139 1.87 141 1.96  77 1.96 140 2.05 138 2.09 131 2.15  48 2.91  46 3.15
                            14 3.15
  46  1.000  0.334  0.702- 134 1.79 142 1.86 140 2.00 108 2.01 141 2.10  47 2.91  29 3.14  45 3.15

  47  0.729  0.334  0.680- 142 1.90 144 1.95 112 1.97 143 2.02 135 2.09 134 2.13  46 2.91  32 3.13
                            48 3.14
  48  0.503  0.500  0.707- 139 1.85 138 1.86 143 2.01  79 2.01 144 2.14  45 2.91  15 3.14  47 3.14

  49  0.494  0.667  0.267-   2 1.97   3 2.02
  50  0.994  0.833  0.267-   4 1.97   1 2.02
  51  0.919  0.833  0.351-   1 1.97   5 2.01   4 2.02
  52  0.636  0.833  0.320-  18 1.97   2 1.97   1 2.02
  53  0.778  0.667  0.299-  33 1.97   1 1.97   2 2.02
  54  0.628  0.667  0.394-   6 1.91   2 1.97   7 2.04
  55  0.419  0.667  0.351-   3 1.97   7 2.01   2 2.02
  56  0.136  0.667  0.320-  36 1.97   4 1.97   3 2.02
  57  0.278  0.833  0.299-  19 1.97   3 1.97   4 2.02
  58  0.128  0.833  0.394-   8 1.92   4 1.97   5 2.04
  59  0.055  0.833  0.479-   5 1.95   8 2.00   9 2.05
  60  0.770  0.833  0.447-  22 1.97   6 1.97   5 2.01
  61  0.912  0.667  0.426-  37 1.96   5 1.96   6 2.03
  62  0.765  0.666  0.521-  10 1.88   6 2.00  11 2.05
  63  0.554  0.666  0.479-   7 1.95   6 2.01  11 2.02
  64  0.269  0.667  0.447-  40 1.97   8 1.97   7 2.01
  65  0.412  0.833  0.426-   7 1.96  23 1.96   8 2.04
  66  0.265  0.833  0.521-  12 1.88   8 2.01   9 2.04
  67  0.195  0.833  0.607-   9 1.94  12 1.98  13 2.16
  68  0.907  0.833  0.573-  26 1.97  10 1.97   9 2.00
  69  0.051  0.666  0.554-  41 1.96   9 1.96  10 2.04
  70  0.912  0.668  0.647-  14 1.79  10 2.05  15 2.13
  71  0.696  0.668  0.606-  11 1.96  10 1.98  15 2.09
  72  0.408  0.666  0.575-  44 1.97  12 1.98  11 2.00
  73  0.550  0.833  0.554-  11 1.96  27 1.96  12 2.05
  74  0.411  0.835  0.648-  16 1.79  12 2.04  13 2.14
  75  0.347  0.833  0.734-  16 1.86  13 1.87
  76  0.052  0.833  0.710-  30 2.01  14 2.01  13 2.02
  77  0.193  0.666  0.683-  13 1.96  45 1.96  14 2.10
  78  0.843  0.663  0.733-  14 1.86  15 1.90
  79  0.554  0.668  0.709-  16 2.00  48 2.01  15 2.02
  80  0.694  0.834  0.681-  31 1.96  15 1.97  16 2.09
  81  0.494  0.000  0.267-  18 1.97  19 2.02
  82  0.994  0.167  0.267-  20 1.97  17 2.02
  83  0.919  0.167  0.351-  17 1.97  21 2.01  20 2.02
  84  0.636  0.167  0.320-  18 1.97  34 1.97  17 2.02
  85  0.778  0.000  0.299-   1 1.97  17 1.97  18 2.02
  86  0.628  0.000  0.394-  22 1.91  18 1.97  23 2.04
  87  0.419  0.000  0.351-  19 1.97  23 2.01  18 2.02
  88  0.136  0.000  0.320-   4 1.97  20 1.97  19 2.02
  89  0.278  0.167  0.299-  19 1.97  35 1.97  20 2.02
  90  0.128  0.167  0.394-  24 1.92  20 1.97  21 2.04
  91  0.055  0.167  0.479-  21 1.95  24 2.00  25 2.05
  92  0.770  0.167  0.447-  22 1.97  38 1.97  21 2.01
  93  0.912  1.000  0.426-   5 1.96  21 1.96  22 2.04
  94  0.765  1.000  0.521-  26 1.88  22 2.00  27 2.04
  95  0.554  1.000  0.479-  23 1.95  22 2.00  27 2.04
  96  0.269  0.000  0.447-  24 1.97   8 1.97  23 2.01
  97  0.412  0.167  0.426-  39 1.96  23 1.96  24 2.04
  98  0.265  0.167  0.521-  28 1.88  24 2.01  25 2.04
  99  0.195  0.167  0.607-  25 1.94  28 1.98  29 2.16
 100  0.907  0.167  0.573-  26 1.97  42 1.97  25 2.00
 101  0.052  0.000  0.554-   9 1.96  25 1.96  26 2.06
 102  0.912  1.000  0.647-  30 1.80  26 2.05  31 2.13
 103  0.696  0.000  0.607-  27 1.94  26 1.97  31 2.15
 104  0.407  1.000  0.574-  12 1.97  28 1.97  27 2.00
 105  0.550  0.167  0.554-  43 1.96  27 1.96  28 2.05
 106  0.411  0.165  0.648-  32 1.79  28 2.04  29 2.14
 107  0.347  0.167  0.734-  32 1.86  29 1.87
 108  0.052  0.167  0.710-  30 2.01  46 2.01  29 2.02
[...]
 130  0.266  0.500  0.522-  44 1.92  40 2.01  41 2.02
 131  0.196  0.500  0.608-  41 1.94  44 1.96  45 2.15
 132  0.907  0.500  0.574-  10 1.96  42 1.96  41 2.02
 133  0.051  0.334  0.554-  41 1.96  25 1.96  42 2.04
 134  0.912  0.332  0.647-  46 1.79  42 2.05  47 2.13
 135  0.696  0.332  0.606-  43 1.96  42 1.98  47 2.09
 136  0.408  0.334  0.575-  44 1.97  28 1.98  43 2.00
 137  0.551  0.500  0.554-  11 1.96  43 1.96  44 2.06
 138  0.412  0.500  0.650-  48 1.86  44 2.05  45 2.09
 139  0.344  0.500  0.735-  48 1.85  45 1.87
 140  0.052  0.500  0.710-  46 2.00  14 2.00  45 2.05
 141  0.193  0.334  0.683-  29 1.96  45 1.96  46 2.10
 142  0.843  0.337  0.733-  46 1.86  47 1.90
 143  0.554  0.332  0.709-  32 2.00  48 2.01  47 2.02
 144  0.692  0.500  0.679-  47 1.95  15 1.95  48 2.14

IMPORTANT INFORMATION: All symmetrisations will be switched off!
NOSYMM: (Re-)initialisation of all symmetry stuff for point group C_1.

                                     Primitive cell

  volume of cell :    3395.7251

  direct lattice vectors                    reciprocal lattice vectors
    10.494931139  0.000000000  0.000000000     0.095284094 -0.000000000  0.000000000
     0.000000000 11.517834055  0.000000000     0.000000000  0.086821879  0.000000000
     0.000000000  0.000000000 28.091964603     0.000000000  0.000000000  0.035597368

  length of vectors
    10.494931139 11.517834055 28.091964603     0.095284094  0.086821879  0.035597368

  position of ions in fractional coordinates (direct lattice)
     0.815066060  0.833333333  0.293308113
     0.598522517  0.666666667  0.325106865
     0.315066060  0.666666667  0.293308113
     0.098522517  0.833333333  0.325106865
     0.949012658  0.833419617  0.422127748
     0.729946545  0.666325155  0.450696311
     0.448531623  0.666520512  0.421997017
     0.229043224  0.833299279  0.451006959
     0.087937998  0.833590817  0.551054848
     0.866104175  0.666271499  0.575952409
     0.586642929  0.666510490  0.550188414
     0.364864933  0.833393036  0.576964524
     0.230832372  0.832711645  0.682952035
     0.999677109  0.665881694  0.701710442
     0.729144173  0.665927547  0.679747092
     0.502142269  0.834282217  0.701668725
     0.815066060  0.166666667  0.293308113
     0.598522517  0.000000000  0.325106865
     0.315066060  0.000000000  0.293308113
[...]
   8.16306520  7.67855604  8.39328941
   6.59270205  7.67855604 11.07315764
   4.39984000  7.67855604  9.87249167
   1.42498401  7.67855604  8.97920226
   2.91559963  9.59819505  8.39328941
   1.34523648  9.59819505 11.07315764
   0.57225379  9.59963617 13.46072750
   8.07653731  9.59769114 12.55234235
[...]
   2.79391799  5.75891714 14.66881172
   2.05242236  5.75891665 17.07925918
   9.52011423  5.75891763 16.11783572
   0.54017689  3.84157351 15.55704790
   9.57590665  3.82953298 18.16987009
   7.30834879  3.82019371 17.03686315
   4.27767289  3.84186259 16.15254734
   5.78410720  5.75891709 15.57699374
   4.32103584  5.75891642 18.26590610
   3.61156251  5.75891501 20.65980329
   0.54123315  5.75891648 19.93758630
   2.02812153  3.84200381 19.19081000
   8.84490662  3.88042743 20.57796277
   5.81336551  3.82021324 19.92156188
   7.26378779  5.75891566 19.07653719

--------------------------------------- Iteration      FINAL  ---------------------------------------

--------------------OUTCAR has been truncated-------------------------

[...]

--------------------OUTCAR has been truncated-------------------------

  FORCE on cell =-STRESS in cart. coord.  units (eV):
  Direction    XX          YY          ZZ          XY          YZ          ZX
  Alpha Z  2319.21243  2319.21243  2319.21243
  Ewald  467175.11201460337.94209************    -0.00186    -0.00004 -1827.41353
  Hartree488172.34757484019.02694************    -0.00109    -0.00003 -1249.63163
  E(xc)   -5263.64223 -5268.90267 -5271.34867    -0.00000    -0.00000    -0.78366
  Local  ************************963791.67907     0.00315     0.00014  3085.91188
  n-local -3275.53897 -3248.93474 -3289.52848     0.00003     0.00004     0.88765
  augment  3181.64428  3179.46662  3170.59119    -0.00018     0.00002     0.37578
  Kinetic 16998.91122 17067.30490 17114.83116     0.00007    -0.00019   -18.29284
  Fock        0.00000     0.00000     0.00000     0.00000     0.00000     0.00000
  Total     -49.30744   -21.84012   -15.69059     0.00011    -0.00006    -8.94634
  in kB     -23.26433   -10.30465    -7.40317     0.00005    -0.00003    -4.22108

 VOLUME and BASIS-vectors are now :
  energy-cutoff  :      600.00
  volume of cell :     3395.73
      direct lattice vectors                 reciprocal lattice vectors
    10.494931139  0.000000000  0.000000000     0.095284094 -0.000000000  0.000000000
     0.000000000 11.517834055  0.000000000     0.000000000  0.086821879  0.000000000
     0.000000000  0.000000000 28.091964603     0.000000000  0.000000000  0.035597368

  length of vectors
    10.494931139 11.517834055 28.091964603     0.095284094  0.086821879  0.035597368

 FORCES acting on ions:
    Electron-Ion                     Ewald-Force                    Non-Local-Force
   0.412E+01 0.236E-01 0.323E+04   0.514E+00 -.178E-01 -.322E+04   -.987E+00 -.114E-02 -.323E+01
   0.551E+01 -.563E-01 0.265E+04   -.701E+01 0.615E-01 -.265E+04   -.905E-01 -.134E-02 -.770E-01
   0.401E+01 0.159E+00 0.323E+04   0.607E+00 -.158E+00 -.322E+04   -.985E+00 -.308E-04 -.323E+01
   0.430E+01 0.134E+00 0.265E+04   -.584E+01 -.134E+00 -.265E+04   -.824E-01 0.141E-03 -.824E-01
   -.101E+01 0.498E+00 0.119E+04   0.824E+00 -.491E+00 -.119E+04   0.187E+00 -.371E-02 -.267E-01
   -.100E+01 -.107E+01 0.745E+03   0.103E+01 0.105E+01 -.745E+03   -.116E-02 0.194E-01 -.108E+00
   -.167E+00 0.919E-01 0.119E+04   -.206E-02 -.950E-01 -.119E+04   0.178E+00 0.662E-02 -.412E-01
   -.775E+01 0.738E+00 0.739E+03   0.775E+01 -.735E+00 -.739E+03   0.293E-01 0.141E-02 -.108E+00
   -.444E+01 0.373E+00 -.779E+03   0.410E+01 -.359E+00 0.778E+03   0.327E+00 -.502E-02 0.297E-01
   -.905E+01 -.248E+00 -.116E+04   0.916E+01 0.278E+00 0.116E+04   -.416E-01 -.146E-01 -.178E+00
   0.706E+00 0.139E+01 -.762E+03   -.942E+00 -.136E+01 0.762E+03   0.279E+00 -.588E-03 0.233E-01
   -.688E+01 0.266E+01 -.118E+04   0.697E+01 -.261E+01 0.118E+04   -.444E-01 -.211E-01 -.211E+00
   0.213E+02 -.101E+01 -.270E+04   -.224E+02 0.105E+01 0.270E+04   0.989E+00 0.937E-02 -.317E+00
   -.679E+02 -.602E+01 -.307E+04   0.677E+02 0.589E+01 0.307E+04   0.135E+00 0.131E+00 0.711E+00
   0.130E+02 -.469E+01 -.266E+04   -.136E+02 0.478E+01 0.267E+04   0.860E+00 -.363E-02 -.179E+00
   -.722E+02 -.143E+01 -.307E+04   0.722E+02 0.159E+01 0.307E+04   0.865E-01 -.367E-01 0.710E+00
   0.412E+01 -.237E-01 0.323E+04   0.514E+00 0.178E-01 -.322E+04   -.987E+00 0.116E-02 -.323E+01
   0.549E+01 -.960E-05 0.265E+04   -.702E+01 -.135E-04 -.265E+04   -.842E-01 -.247E-04 -.833E-01
   0.392E+01 -.154E-04 0.323E+04   0.707E+00 -.884E-05 -.322E+04   -.987E+00 -.231E-04 -.323E+01
   0.430E+01 -.134E+00 0.265E+04   -.584E+01 0.134E+00 -.265E+04   -.825E-01 -.141E-03 -.824E-01
   -.101E+01 -.498E+00 0.119E+04   0.824E+00 0.491E+00 -.119E+04   0.187E+00 0.372E-02 -.267E-01
   -.360E+01 0.115E-03 0.743E+03   0.359E+01 -.134E-03 -.743E+03   0.343E-01 -.112E-04 -.115E+00
   0.145E+00 0.172E-03 0.119E+04   -.317E+00 -.170E-03 -.119E+04   0.177E+00 0.661E-05 -.416E-01
   -.775E+01 -.738E+00 0.739E+03   0.775E+01 0.735E+00 -.739E+03   0.293E-01 -.141E-02 -.108E+00
   -.444E+01 -.373E+00 -.779E+03   0.410E+01 0.359E+00 0.778E+03   0.327E+00 0.501E-02 0.297E-01
   -.110E+02 0.185E-03 -.117E+04   0.111E+02 -.218E-03 0.117E+04   -.699E-03 -.366E-05 -.180E+00
   -.202E+01 0.185E-03 -.770E+03   0.173E+01 -.215E-03 0.770E+03   0.313E+00 -.256E-05 0.628E-01
   -.688E+01 -.266E+01 -.118E+04   0.697E+01 0.261E+01 0.118E+04   -.443E-01 0.211E-01 -.212E+00
   0.213E+02 0.101E+01 -.270E+04   -.224E+02 -.105E+01 0.270E+04   0.989E+00 -.936E-02 -.317E+00
   -.697E+02 0.176E-03 -.307E+04   0.697E+02 -.169E-03 0.307E+04   0.608E-01 0.101E-04 0.709E+00
   0.163E+02 0.173E-03 -.269E+04   -.171E+02 -.185E-03 0.269E+04   0.901E+00 -.702E-05 -.255E+00
   -.722E+02 0.143E+01 -.307E+04   0.722E+02 -.159E+01 0.307E+04   0.865E-01 0.368E-01 0.710E+00
   0.416E+01 -.167E-04 0.323E+04   0.472E+00 -.302E-05 -.322E+04   -.987E+00 0.965E-05 -.322E+01
   0.551E+01 0.563E-01 0.265E+04   -.701E+01 -.614E-01 -.265E+04   -.905E-01 0.137E-02 -.770E-01
   0.401E+01 -.159E+00 0.323E+04   0.607E+00 0.158E+00 -.322E+04   -.985E+00 0.491E-04 -.323E+01
   0.350E+01 -.693E-04 0.265E+04   -.498E+01 0.792E-05 -.265E+04   -.100E+00 -.241E-05 -.747E-01
   0.390E-01 -.612E-04 0.119E+04   -.223E+00 0.685E-04 -.119E+04   0.168E+00 0.524E-05 0.116E-01
   -.100E+01 0.107E+01 0.745E+03   0.103E+01 -.105E+01 -.745E+03   -.116E-02 -.194E-01 -.108E+00
   -.167E+00 -.920E-01 0.119E+04   -.194E-02 0.951E-01 -.119E+04   0.178E+00 -.662E-02 -.412E-01
   -.104E+02 0.995E-06 0.726E+03   0.104E+02 -.511E-05 -.726E+03   0.206E-01 0.494E-05 -.267E-01
   -.175E+01 -.145E-03 -.782E+03   0.140E+01 0.166E-03 0.782E+03   0.266E+00 -.460E-05 0.799E-01
   -.905E+01 0.248E+00 -.116E+04   0.916E+01 -.278E+00 0.116E+04   -.416E-01 0.146E-01 -.178E+00
   0.706E+00 -.139E+01 -.762E+03   -.942E+00 0.136E+01 0.762E+03   0.278E+00 0.588E-03 0.233E-01
   -.118E+02 -.157E-03 -.122E+04   0.118E+02 0.181E-03 0.122E+04   -.300E-01 0.109E-04 0.358E-01
   0.263E+02 -.522E-03 -.270E+04   -.276E+02 0.582E-03 0.270E+04   0.908E+00 0.106E-04 -.191E+00
   -.679E+02 0.602E+01 -.307E+04   0.677E+02 -.588E+01 0.307E+04   0.135E+00 -.131E+00 0.711E+00
   0.130E+02 0.469E+01 -.266E+04   -.136E+02 -.478E+01 0.267E+04   0.860E+00 0.363E-02 -.179E+00
   -.831E+02 -.829E-03 -.315E+04   0.823E+02 0.664E-03 0.315E+04   0.511E+00 -.131E-04 0.190E+01
   -.315E+02 0.180E-01 0.218E+04   0.362E+02 -.163E-01 -.220E+04   -.634E+01 -.213E-02 0.166E+02
   -.318E+02 0.140E-01 0.218E+04   0.364E+02 -.131E-01 -.220E+04   -.633E+01 -.101E-02 0.166E+02
   0.780E+02 0.148E+00 0.132E+04   -.821E+02 -.149E+00 -.132E+04   0.326E+01 -.130E-02 -.414E+01
   0.724E+02 0.211E-01 0.161E+04   -.787E+02 -.180E-01 -.161E+04   0.668E+01 -.635E-02 -.235E+01
   -.835E+02 -.333E-01 0.186E+04   0.900E+02 0.357E-01 -.186E+04   -.628E+01 -.797E-02 -.338E+00
   -.639E+02 -.567E+00 0.101E+04   0.687E+02 0.608E+00 -.101E+04   -.485E+01 -.384E-01 0.414E+01
   0.784E+02 0.137E+00 0.132E+04   -.826E+02 -.121E+00 -.132E+04   0.323E+01 -.185E-01 -.400E+01
   0.716E+02 0.940E-01 0.161E+04   -.779E+02 -.956E-01 -.161E+04   0.669E+01 0.482E-02 -.235E+01
   -.837E+02 0.598E-01 0.186E+04   0.902E+02 -.574E-01 -.186E+04   -.626E+01 -.738E-02 -.342E+00
   -.671E+02 0.280E+00 0.101E+04   0.721E+02 -.279E+00 -.101E+04   -.493E+01 -.494E-02 0.423E+01
   0.753E+02 -.119E+00 0.137E+03   -.811E+02 0.130E+00 -.131E+03   0.579E+01 -.121E-01 -.520E+01
   0.773E+02 0.403E+00 0.452E+03   -.834E+02 -.457E+00 -.449E+03   0.602E+01 0.501E-01 -.287E+01
[...]
   0.809E+02 -.797E-04 -.106E+04   -.871E+02 0.599E-04 0.107E+04   0.633E+01 0.757E-05 -.749E+01
   0.708E+02 0.277E-03 -.707E+03   -.762E+02 -.303E-03 0.709E+03   0.549E+01 0.143E-04 -.296E+01
   -.778E+02 0.518E-01 -.460E+03   0.835E+02 -.152E+00 0.458E+03   -.568E+01 0.122E+00 0.251E+01
   -.525E+02 0.473E+01 -.125E+04   0.540E+02 -.517E+01 0.124E+04   -.154E+01 0.445E+00 0.965E+01
   0.791E+02 0.533E+01 -.103E+04   -.846E+02 -.581E+01 0.104E+04   0.549E+01 0.495E+00 -.614E+01
   0.746E+02 -.975E+00 -.721E+03   -.804E+02 0.819E+00 0.724E+03   0.575E+01 0.201E+00 -.309E+01
   -.705E+02 0.663E-05 -.469E+03   0.759E+02 0.126E-04 0.467E+03   -.545E+01 0.137E-05 0.214E+01
   -.622E+02 -.316E-03 -.128E+04   0.655E+02 0.279E-03 0.127E+04   -.304E+01 0.312E-04 0.896E+01
   0.515E+02 -.263E-04 -.221E+04   -.573E+02 0.874E-07 0.223E+04   0.621E+01 0.397E-04 -.200E+02
   0.565E+02 -.439E-03 -.194E+04   -.603E+02 0.430E-03 0.194E+04   0.397E+01 0.159E-04 -.724E+01
   -.534E+02 0.156E-01 -.161E+04   0.578E+02 0.788E-01 0.160E+04   -.422E+01 -.833E-02 0.267E+01
   0.482E+02 -.283E+01 -.220E+04   -.538E+02 0.344E+01 0.222E+04   0.567E+01 -.685E+00 -.205E+02
   0.569E+02 -.841E+00 -.193E+04   -.613E+02 0.628E+00 0.194E+04   0.421E+01 0.680E+00 -.610E+01
   -.442E+02 -.799E-03 -.156E+04   0.479E+02 0.855E-03 0.156E+04   -.396E+01 -.316E-04 0.472E+01
   -.213E+02 -.361E-03 0.675E+02   0.455E-12 -.589E-12 -.164E-10   0.213E+02 -.221E-05 -.676E+02

 POSITION                                       TOTAL-FORCE (eV/Angst)
      8.55406      9.59820      8.23960         3.660540      0.004702      1.725277
      6.28145      7.67856      9.13289        -1.594859      0.003777     -1.910248
      3.30660      7.67856      8.23960         3.637352      0.001030      1.707830
      1.03399      9.59820      9.13289        -1.624651     -0.000142     -1.918336
      9.95982      9.59919     11.85840        -0.001604      0.004433      0.003736
      7.66074      7.67462     12.66094         0.004468      0.003262      0.004611
      4.70731      7.67687     11.85473         0.004773      0.002348     -0.000127
      2.40379      9.59780     12.66967        -0.004744      0.004623      0.002604
      0.92290      9.60116     15.48021        -0.011609      0.012579      0.016471
      9.08970      7.67400     16.17963         0.015836      0.011804      0.068616
      6.15678      7.67676     15.45587         0.037691      0.025145      0.004708
      3.82923      9.59888     16.20807        -0.012463      0.030255      0.009918
      2.42257      9.59103     19.18546        -0.053018      0.041706      0.038622
     10.49154      7.66951     19.71242        -0.242201     -0.005954      0.180973
      7.65232      7.67004     19.09543         0.332009      0.081024      0.358249
      5.26995      9.60912     19.71125         0.009937      0.122795      0.060199
      8.55406      1.91964      8.23960         3.660445     -0.004735      1.725449
      6.28145      0.00000      9.13289        -1.611320     -0.000045     -1.913072
      3.30660      0.00000      8.23960         3.654185     -0.000045      1.719222
      1.03399      1.91964      9.13289        -1.624742      0.000215     -1.918255
      9.95982      1.91865     11.85840        -0.001607     -0.004427      0.003757
      7.65543      0.00000     12.66248         0.001828     -0.000026      0.010562
      4.70832      0.00000     11.85790         0.003603      0.000012      0.005247
      2.40379      1.92003     12.66967        -0.004702     -0.004628      0.002602
      0.92290      1.91667     15.48021        -0.011585     -0.012606      0.016497
      9.07508      0.00000     16.19262         0.005430     -0.000034      0.046688
      6.16150      0.00000     15.46721         0.021488     -0.000029      0.020198
      3.82923      1.91895     16.20807        -0.012476     -0.030205      0.009925
      2.42257      1.92680     19.18546        -0.052953     -0.041636      0.038753
      0.01982      0.00000     19.71324        -0.025505      0.000019      0.064806
      7.68120     11.51783     19.16238         0.051843     -0.000018      0.065301
      5.26995      1.90871     19.71125         0.010149     -0.122745      0.060182
      8.55406      5.75892      8.23960         3.655361     -0.000008      1.710708
      6.28145      3.83928      9.13289        -1.594801     -0.003760     -1.910119
      3.30660      3.83928      8.23960         3.637282     -0.001011      1.707776
      1.03399      5.75892      9.13289        -1.589474     -0.000062     -1.879843
      9.97157      5.75892     11.85211        -0.011475      0.000015     -0.006064
      7.66074      3.84321     12.66095         0.004468     -0.003201      0.004629
      4.70731      3.84096     11.85473         0.004748     -0.002321     -0.000109
      2.40735      5.75892     12.69173        -0.002461      0.000003     -0.032288
      0.94657      5.75892     15.48065        -0.066980      0.000018     -0.024544
      9.08970      3.84383     16.17963         0.015843     -0.011772      0.068620
      6.15678      3.84108     15.45587         0.037629     -0.025136      0.004677
      3.84342      5.75892     16.27700        -0.055344      0.000037     -0.240037
      2.44852      5.75892     19.19225        -0.378890      0.000074     -0.082763
     10.49154      3.84832     19.71242        -0.242444      0.005942      0.181201
      7.65232      3.84779     19.09543         0.331950     -0.081102      0.358240
      5.27836      5.75892     19.86200        -0.485689     -0.000177     -1.472789
      5.18821      7.67856      7.50000        -1.712772     -0.000392      1.039174
     10.43567      9.59820      7.50000        -1.706888     -0.000175      1.034984
      9.64731      9.59820      9.87249        -0.900489     -0.002882     -0.148944
      6.67245      9.59820      8.97920         0.345344     -0.003300     -0.062810
      8.16307      7.67856      8.39329         0.259084     -0.005633     -1.074985
      6.59270      7.67856     11.07316        -0.069540      0.002269      0.403026
      4.39984      7.67856      9.87249        -0.909237     -0.002956     -0.130243
      1.42498      7.67856      8.97920         0.352845      0.003230     -0.066855
      2.91560      9.59820      8.39329         0.266073     -0.004999     -1.076921
      1.34524      9.59820     11.07316        -0.009912     -0.003693      0.424198
      0.57225      9.59964     13.46073         0.001864     -0.001036     -0.005709
      8.07654      9.59769     12.55234        -0.000426     -0.003712     -0.001748
[...]
      2.79392      5.75892     14.66881         0.045741     -0.000029      0.062533
      2.05242      5.75892     17.07926         0.089013     -0.000010      0.074754
      9.52011      5.75892     16.11784         0.018891     -0.000010     -0.014442
      0.54018      3.84157     15.55705         0.015012      0.022157     -0.005419
      9.57591      3.82953     18.16987        -0.042207      0.008581     -0.105457
      7.30835      3.82019     17.03686        -0.035280      0.015799     -0.043777
      4.27767      3.84186     16.15255        -0.013875      0.045490      0.018918
      5.78411      5.75892     15.57699        -0.029176      0.000023      0.016082
      4.32104      5.75892     18.26591         0.259891     -0.000003      0.521437
      3.61156      5.75892     20.65980         0.405128      0.000016      0.260367
      0.54123      5.75892     19.93759         0.136932      0.000009     -0.061322
      2.02812      3.84200     19.19081         0.106114      0.086075     -0.020411
      8.84491      3.88043     20.57796         0.113195     -0.071053     -0.338458
      5.81337      3.82021     19.92156        -0.107075      0.466839      0.244758
      7.26379      5.75892     19.07654        -0.259155      0.000027      0.310825
    total drift:                                0.002099     -0.000363     -0.103276

  FREE ENERGIE OF THE ION-ELECTRON SYSTEM (eV)
  free  energy   TOTEN  =      -940.85868173 eV

  energy  without entropy=     -940.85868173  energy(sigma->0) =     -940.85868173