 vasp.6.3.0 20Jan22 (build Apr  1 2022 16:44:48) complex
 executed on        HPECrayEX_GCC date 2022.11.13  21:20:44

 INCAR:
   SYSTEM = MgO-rocksalt
   ISMEAR = 0
   SIGMA = 0.05
   EDIFF = 1E-6
   ALGO = ALL
   ISTART = 0
   IBRION = -1
   NSW = 0
   ISYM = 0
   DIPOL = 0.5 0.5 0.5
   IDIPOL = 3
   LDIPOL = .TRUE.
   LHFCALC = .TRUE.
   GGA = B5
   AEXX = 0.2
   AGGAX = 0.72
   AGGAC = 0.81
   ALDAC = 0.19
   IVDW = 1
   VDW_S6 = 1.05
   VDW_C6 = 0.63 0.70
   VDW_R0 = 1.243 1.342
   ENCUT = 600
   PREC = Accurate
   LASPH = .TRUE.
   LREAL = .FALSE.
   ISPIN = 2
   MAGMOM = 0.0 0.0 0.0 0.0 0.0 0.0 0.0 0.0 0.0 0.0 0.0 0.0 0.0 0.0 0.0 0.0 0.0 0.0 0.0 0.0 0.0 0.0 0.0 0.0 0.0 0.0 0.0 0.0 0.0 0.0 0.0 0.0 0.0 0.0 0.0 0.0 0.0 0.0 0.0 0.0 0.0 0.0 0.0 0.0 0.0 0.0 0.0 0.0 0.0 0.0 0.0 0.0 0.0 0.0 0.0 0.0 0.0 0.0 0.0 0.0 0.0 0.0 0.0 0.0
   NELM = 200
   NELMIN = 8
   NCORE = 8
   KPAR = 1
   LWAVE = .FALSE.
   LCHARG = .FALSE.

 POTCAR:    PAW_PBE Mg_pv 13Apr2007
 POTCAR:    PAW_PBE O 08Apr2002
 POTCAR:    PAW_PBE Mg_pv 13Apr2007
   VRHFIN =Mg: p6s2

   TITEL  = PAW_PBE Mg_pv 13Apr2007
   POMASS =   24.305; ZVAL   =    8.000    mass and valenz
   ENMAX  =  403.929; ENMIN  =  302.947 eV

   TITEL  = PAW_PBE O 08Apr2002
   POMASS =   16.000; ZVAL   =    6.000    mass and valenz
   ENMAX  =  400.000; ENMIN  =  300.000 eV

  PAW_PBE Mg_pv 13Apr2007               :
  PAW_PBE O 08Apr2002                   :

 POSCAR: Mg  O
  positions in direct lattice
 exchange correlation table for  LEXCH =       12
   RHO(1)=    0.500       N(1)  =     2000
   RHO(2)=  100.500       N(2)  =     4000

 ion  position               nearest neighbor table
   1  0.250  0.000  0.352-  33 2.11  35 2.11  36 2.11  43 2.11  52 2.11
   2  0.500  0.250  0.352-  34 2.11  35 2.11  36 2.11  44 2.11  51 2.11
   3  0.250  0.250  0.451-  35 2.11  34 2.11  33 2.11  41 2.11  50 2.11  39 2.12
   4  0.500  0.000  0.451-  36 2.11  34 2.11  33 2.11  42 2.11  49 2.11  40 2.11
   5  0.250  0.000  0.550-  40 2.11  39 2.11  47 2.11  56 2.11  33 2.12  37 2.14
   6  0.500  0.250  0.550-  48 2.11  39 2.11  55 2.11  40 2.11  34 2.12  38 2.13
   7  0.250  0.250  0.648-  39 2.10  54 2.11  37 2.11  45 2.11  38 2.11
   8  0.500  0.000  0.648-  38 2.10  46 2.10  40 2.10  37 2.11  53 2.11
   9  0.250  0.500  0.352-  41 2.11  35 2.11  43 2.11  44 2.11  60 2.11
  10  0.500  0.750  0.352-  42 2.11  36 2.11  43 2.11  44 2.11  59 2.11
  11  0.250  0.750  0.451-  43 2.11  41 2.11  42 2.11  33 2.11  58 2.11  47 2.11
  12  0.500  0.500  0.451-  44 2.11  41 2.11  42 2.11  34 2.11  57 2.11  48 2.12
  13  0.250  0.500  0.550-  48 2.11  39 2.11  47 2.11  64 2.11  41 2.12  45 2.13
  14  0.500  0.750  0.550-  48 2.11  63 2.11  47 2.11  40 2.11  42 2.12  46 2.13
  15  0.250  0.750  0.648-  47 2.10  62 2.11  37 2.11  46 2.11  45 2.11
  16  0.500  0.500  0.650-  38 2.12  61 2.12  46 2.12  45 2.12  48 2.13
  17  0.750  0.000  0.352-  49 2.11  36 2.11  51 2.11  52 2.11  59 2.11
  18  0.000  0.250  0.352-  50 2.11  35 2.11  51 2.11  52 2.11  60 2.11
  19  0.750  0.250  0.451-  51 2.11  49 2.11  50 2.11  34 2.11  57 2.11  55 2.11
  20  0.000  0.000  0.451-  52 2.11  49 2.11  50 2.11  33 2.11  58 2.11  56 2.11
  21  0.750  1.000  0.550-  40 2.11  63 2.11  55 2.11  56 2.11  49 2.12  53 2.14
  22  0.000  0.250  0.550-  64 2.11  39 2.11  55 2.11  56 2.11  50 2.12  54 2.14
  23  0.750  0.250  0.648-  55 2.10  53 2.11  54 2.11  61 2.11  38 2.11
  24  1.000  1.000  0.648-  56 2.10  54 2.11  62 2.11  37 2.11  53 2.11
  25  0.750  0.500  0.352-  57 2.11  51 2.11  44 2.11  59 2.11  60 2.11
  26  0.000  0.750  0.352-  58 2.11  52 2.11  43 2.11  59 2.11  60 2.11
  27  0.750  0.750  0.451-  59 2.11  49 2.11  57 2.11  58 2.11  42 2.11  63 2.12
  28  0.000  0.500  0.451-  60 2.11  50 2.11  57 2.11  58 2.11  41 2.11  64 2.11
  29  0.750  0.500  0.550-  48 2.11  63 2.11  55 2.11  64 2.11  57 2.12  61 2.13
  30  1.000  0.750  0.550-  64 2.11  63 2.11  56 2.11  47 2.11  58 2.12  62 2.14
  31  0.750  0.750  0.648-  63 2.10  62 2.11  53 2.11  61 2.11  46 2.11
  32  1.000  0.500  0.648-  45 2.10  61 2.10  64 2.10  54 2.11  62 2.11
  33  0.250  0.000  0.451-   1 2.11   3 2.11   4 2.11  11 2.11  20 2.11   5 2.12
  34  0.500  0.250  0.451-   2 2.11   3 2.11   4 2.11  12 2.11  19 2.11   6 2.12
  35  0.250  0.250  0.352-   3 2.11   2 2.11   1 2.11   9 2.11  18 2.11
  36  0.500  0.000  0.352-   4 2.11   2 2.11   1 2.11  10 2.11  17 2.11
  37  0.250  1.000  0.650-  15 2.11   7 2.11  24 2.11   8 2.11   5 2.14
  38  0.500  0.249  0.650-   8 2.10  23 2.11   7 2.11  16 2.12   6 2.13
  39  0.250  0.250  0.550-   7 2.10   5 2.11  22 2.11   6 2.11  13 2.11   3 2.12
  40  0.500  1.000  0.550-   8 2.10  21 2.11   5 2.11  14 2.11   6 2.11   4 2.11
  41  0.250  0.500  0.451-   9 2.11   3 2.11  11 2.11  12 2.11  28 2.11  13 2.12
  42  0.500  0.750  0.451-  10 2.11   4 2.11  11 2.11  12 2.11  27 2.11  14 2.12
  43  0.250  0.750  0.352-  11 2.11   9 2.11  10 2.11   1 2.11  26 2.11
  44  0.500  0.500  0.352-  12 2.11   9 2.11  10 2.11   2 2.11  25 2.11
  45  0.249  0.500  0.650-  32 2.10  15 2.11   7 2.11  16 2.12  13 2.13
  46  0.500  0.751  0.650-   8 2.10  15 2.11  31 2.11  16 2.12  14 2.13
  47  0.250  0.750  0.550-  15 2.10   5 2.11  14 2.11  13 2.11  30 2.11  11 2.11
  48  0.500  0.500  0.550-  14 2.11  29 2.11   6 2.11  13 2.11  12 2.12  16 2.13
  49  0.750  0.000  0.451-  17 2.11   4 2.11  19 2.11  20 2.11  27 2.11  21 2.12
  50  0.000  0.250  0.451-  18 2.11   3 2.11  19 2.11  20 2.11  28 2.11  22 2.12
  51  0.750  0.250  0.352-  19 2.11  17 2.11  18 2.11   2 2.11  25 2.11
  52  0.000  0.000  0.352-  20 2.11  17 2.11  18 2.11   1 2.11  26 2.11
  53  0.750  1.000  0.650-  23 2.11  31 2.11  24 2.11   8 2.11  21 2.14
  54  1.000  0.250  0.650-  23 2.11   7 2.11  24 2.11  32 2.11  22 2.14
  55  0.750  0.250  0.550-  23 2.10  22 2.11   6 2.11  21 2.11  29 2.11  19 2.11
  56  1.000  1.000  0.550-  24 2.10  30 2.11  22 2.11  21 2.11   5 2.11  20 2.11
  57  0.750  0.500  0.451-  25 2.11  19 2.11  12 2.11  27 2.11  28 2.11  29 2.12
  58  0.000  0.750  0.451-  26 2.11  20 2.11  11 2.11  27 2.11  28 2.11  30 2.12
  59  0.750  0.750  0.352-  27 2.11  17 2.11  25 2.11  26 2.11  10 2.11
  60  0.000  0.500  0.352-  28 2.11  18 2.11  25 2.11  26 2.11   9 2.11
  61  0.751  0.500  0.650-  32 2.10  23 2.11  31 2.11  16 2.12  29 2.13
  62  1.000  0.750  0.650-  15 2.11  31 2.11  24 2.11  32 2.11  30 2.14
  63  0.750  0.750  0.550-  31 2.10  14 2.11  21 2.11  29 2.11  30 2.11  27 2.12
  64  1.000  0.500  0.550-  32 2.10  30 2.11  22 2.11  29 2.11  13 2.11  28 2.11

IMPORTANT INFORMATION: All symmetrisations will be switched off!
NOSYMM: (Re-)initialisation of all symmetry stuff for point group C_1.

                                     Primitive cell

  volume of cell :    1519.6535

  direct lattice vectors                    reciprocal lattice vectors
     8.440582262  0.000000000  0.000000000     0.118475239  0.000000000  0.000000000
     0.000000000  8.440582262  0.000000000     0.000000000  0.118475239  0.000000000
     0.000000000  0.000000000 21.330436697     0.000000000  0.000000000  0.046881366

  length of vectors
     8.440582262  8.440582262 21.330436697     0.118475239  0.118475239  0.046881366

  position of ions in fractional coordinates (direct lattice)
     0.250000000  0.000000000  0.351610242
     0.500000000  0.250000000  0.351610242
     0.250000000  0.250000000  0.450536747
     0.500000000  0.000000000  0.450536747
     0.250056400  0.000029047  0.549907760
     0.499972918  0.250356454  0.550074672
     0.249735841  0.249788781  0.648250530
     0.499916989  0.000045104  0.648287737
     0.250000000  0.500000000  0.351610242
     0.500000000  0.750000000  0.351610242
     0.250000000  0.750000000  0.450536747
     0.500000000  0.500000000  0.450536747
     0.250334272  0.499992018  0.550072557
     0.499960682  0.749600966  0.550021723
     0.249553961  0.750262788  0.648086514
     0.499958466  0.499966815  0.650011978
     0.750000000  0.000000000  0.351610242
     0.000000000  0.250000000  0.351610242
     0.750000000  0.250000000  0.450536747
     0.000000000  0.000000000  0.450536747
     0.749863733  0.999885755  0.549927596
     0.000018905  0.250036908  0.549908773
     0.750245257  0.249633288  0.648091921
     0.999939475  0.999977103  0.648285343
     0.750000000  0.500000000  0.351610242
     0.000000000  0.750000000  0.351610242
     0.750000000  0.750000000  0.450536747
     0.000000000  0.500000000  0.450536747
     0.749586901  0.499977734  0.550021295
     0.999871705  0.749912643  0.549925321
     0.750127172  0.750115397  0.648437271
     0.999993118  0.499932867  0.648254872
     0.250000000  0.000000000  0.450536747
     0.500000000  0.250000000  0.450536747
     0.250000000  0.250000000  0.351610242
     0.500000000  0.000000000  0.351610242
     0.249799792  0.999994588  0.650128996
     0.500082888  0.249026492  0.650124231
     0.249992619  0.249994183  0.549715119
     0.499972842  0.999941887  0.549662509
     0.250000000  0.500000000  0.450536747
     0.500000000  0.750000000  0.450536747
     0.250000000  0.750000000  0.351610242
     0.500000000  0.500000000  0.351610242
     0.248972835  0.500118155  0.650097809
     0.499668044  0.750942976  0.650093146
     0.249930806  0.750029018  0.549672682
     0.499983028  0.500004243  0.550024521
     0.750000000  0.000000000  0.450536747
     0.000000000  0.250000000  0.450536747
     0.750000000  0.250000000  0.351610242
     0.000000000  0.000000000  0.351610242
     0.750063320  0.999921197  0.650173266
     0.999977607  0.249786961  0.650143997
     0.750007949  0.249929579  0.549675337
     0.999946415  0.999967944  0.549661998
     0.750000000  0.500000000  0.450536747
     0.000000000  0.750000000  0.450536747
     0.750000000  0.750000000  0.351610242
     0.000000000  0.500000000  0.351610242
     0.750912326  0.499709049  0.650054827
     0.999904756  0.750121023  0.650169316
     0.749907687  0.749932049  0.549771338
     0.999933444  0.499982923  0.549651608

  ion indices of the primitive-cell ions
   primitive index   ion index
                 1           1
                 2           2
                 3           3
                 4           4
                 5           5
                 6           6
                 7           7
                 8           8
                 9           9
                10          10
                11          11
                12          12
                13          13
                14          14
                15          15
                16          16
                17          17
                18          18
                19          19
                20          20
                21          21
                22          22
                23          23
                24          24
                25          25
                26          26
                27          27
                28          28
                29          29
                30          30
                31          31
                32          32
                33          33
                34          34
                35          35
[...]
   0.50000000  0.75000000  0.45053675
   0.25000000  0.75000000  0.35161024
   0.50000000  0.50000000  0.35161024
   0.24897283  0.50011815  0.65009781
   0.49966804  0.75094298  0.65009315
   0.24993081  0.75002902  0.54967268
   0.49998303  0.50000424  0.55002452
   0.75000000  0.00000000  0.45053675
   0.00000000  0.25000000  0.45053675
   0.75000000  0.25000000  0.35161024
   0.00000000  0.00000000  0.35161024
   0.75006332  0.99992120  0.65017327
   0.99997761  0.24978696  0.65014400
   0.75000795  0.24992958  0.54967534
   0.99994641  0.99996794  0.54966200
   0.75000000  0.50000000  0.45053675
   0.00000000  0.75000000  0.45053675
   0.75000000  0.75000000  0.35161024
   0.00000000  0.50000000  0.35161024
   0.75091233  0.49970905  0.65005483
   0.99990476  0.75012102  0.65016932
   0.74990769  0.74993205  0.54977134
   0.99993344  0.49998292  0.54965161

 position of ions in cartesian coordinates  (Angst):
   2.11014557  0.00000000  7.50000000
   4.22029113  2.11014557  7.50000000
   2.11014557  2.11014557  9.61014557
   4.22029113  0.00000000  9.61014557
   2.11062162  0.00024517 11.72977265
   4.22006254  2.11315424 11.73333296
   2.10791591  2.10836275 13.82746689
   4.21959047  0.00038070 13.82826053
   2.11014557  4.22029113  7.50000000
   4.22029113  6.33043670  7.50000000
   2.11014557  6.33043670  9.61014557
   4.22029113  4.22029113  9.61014557
   2.11296702  4.22022375 11.73328786
   4.21995926  6.32706861 11.73220354
   2.10638074  6.33265478 13.82396837
   4.21994056  4.22001103 13.86503936
   6.33043670  0.00000000  7.50000000
   0.00000000  2.11014557  7.50000000
   6.33043670  2.11014557  9.61014557
   0.00000000  0.00000000  9.61014557
   6.32928652  8.43961797 11.73019577
   0.00015957  2.11045709 11.72979427
   6.33250680  2.10705031 13.82408370
   8.44007139  8.44038900 13.82820948
   6.33043670  4.22029113  7.50000000
   0.00000000  6.33043670  7.50000000
   6.33043670  6.33043670  9.61014557
   0.00000000  4.22029113  9.61014557
   6.32694990  4.22010320 11.73219441
   8.43949938  6.32969936 11.73014726
   6.33151010  6.33141072 13.83145016
   8.44052417  4.21972449 13.82755951
   2.11014557  0.00000000  9.61014557
   4.22029113  2.11014557  9.61014557
   2.11014557  2.11014557  7.50000000
   4.22029113  0.00000000  7.50000000
   2.10845570  8.44053658 13.86753540
   4.22099076  2.10192859 13.86743375
   2.11008326  2.11009647 11.72566354
   4.22006190  8.44009175 11.72454136
   2.11014557  4.22029113  9.61014557
   4.22029113  6.33043670  9.61014557
   2.11014557  6.33043670  7.50000000
   4.22029113  4.22029113  7.50000000
   2.10147569  4.22128843 13.86687016
   4.21748923  6.33839596 13.86677071
   2.10956152  6.33068162 11.72475834
   4.22014788  4.22032694 11.73226322
   6.33043670  0.00000000  9.61014557
   0.00000000  2.11014557  9.61014557
   6.33043670  2.11014557  7.50000000
   0.00000000  0.00000000  7.50000000
   6.33097115  8.43991712 13.86847969
   8.44039325  2.10834739 13.86785538
   6.33050379  2.10955117 11.72481497
   8.44012997  8.44031169 11.72453046
   6.33043670  4.22029113  9.61014557
   0.00000000  6.33043670  9.61014557
   6.33043670  6.33043670  7.50000000
   0.00000000  4.22029113  7.50000000
   6.33813726  4.21783533 13.86595334
   8.43977835  6.33145820 13.86839544
   6.32965752  6.32986315 11.72686273
   8.44002049  4.22014699 11.72430883

--------------------------------------- Iteration      FINAL  ---------------------------------------

--------------------OUTCAR has been truncated-------------------------

[...]

--------------------OUTCAR has been truncated-------------------------

  DFT-D2 method for vdW energy calculation

  Parameters of vdW forcefield:
         C6(Jnm^6/mol)     R0(A)
   Mg       0.630          1.243
   O        0.700          1.342

  vdW correction parametrized for the method ÿ      

  IVDW =   1
  VDW_RADIUS =    50.000 A
  VDW_S6 =     1.050
  VDW_SR =     1.000
  VDW_D =    20.000
  LVDW_EWALD = F

  Number of pair interactions contributing to vdW energy:  723279
  Edisp (eV):   -5.08011

 VOLUME and BASIS-vectors are now :
  energy-cutoff  :      600.00
  volume of cell :     1519.65
      direct lattice vectors                 reciprocal lattice vectors
     8.440582262  0.000000000  0.000000000     0.118475239  0.000000000  0.000000000
     0.000000000  8.440582262  0.000000000     0.000000000  0.118475239  0.000000000
     0.000000000  0.000000000 21.330436697     0.000000000  0.000000000  0.046881366

  length of vectors
     8.440582262  8.440582262 21.330436697     0.118475239  0.118475239  0.046881366

 FORCES acting on ions:
    Electron-Ion                     Ewald-Force                    Non-Local-Force
   -.684E-01 -.391E-02 0.207E+04   0.686E-01 0.434E-02 -.206E+04   -.116E-03 -.293E-03 -.639E+01
   0.244E-02 -.904E-01 0.207E+04   -.281E-02 0.920E-01 -.206E+04   0.250E-03 -.114E-02 -.640E+01
   -.400E+00 -.398E+00 0.685E+03   0.410E+00 0.408E+00 -.685E+03   -.630E-02 -.654E-02 0.418E+00
   -.468E-01 -.516E-01 0.685E+03   0.478E-01 0.552E-01 -.685E+03   -.725E-03 -.221E-02 0.374E+00
   -.219E+00 -.102E+00 -.689E+03   0.248E+00 0.101E+00 0.689E+03   -.265E-01 -.924E-03 -.196E+00
   0.846E-01 -.125E+01 -.691E+03   -.916E-01 0.133E+01 0.691E+03   0.628E-02 -.801E-01 -.256E+00
   -.160E+01 -.155E+01 -.206E+04   0.144E+01 0.140E+01 0.205E+04   0.132E+00 0.130E+00 0.562E+01
   -.656E-01 0.232E+00 -.206E+04   0.564E-01 -.242E+00 0.205E+04   0.727E-02 -.684E-03 0.555E+01
   -.919E-01 0.411E-02 0.207E+04   0.935E-01 -.445E-02 -.206E+04   -.112E-02 0.231E-03 -.640E+01
   -.972E-02 0.904E-01 0.207E+04   0.949E-02 -.921E-01 -.206E+04   0.147E-03 0.120E-02 -.639E+01
   -.322E+00 0.398E+00 0.685E+03   0.321E+00 -.406E+00 -.685E+03   0.531E-03 0.547E-02 0.402E+00
   0.339E-01 0.428E-01 0.683E+03   -.404E-01 -.482E-01 -.684E+03   0.403E-02 0.332E-02 0.489E+00
   -.129E+01 0.108E+00 -.691E+03   0.137E+01 -.112E+00 0.691E+03   -.807E-01 0.418E-02 -.262E+00
   -.245E+00 0.126E+01 -.691E+03   0.272E+00 -.134E+01 0.691E+03   -.206E-01 0.757E-01 -.262E+00
   -.146E+01 0.135E+01 -.205E+04   0.137E+01 -.122E+01 0.205E+04   0.879E-01 -.104E+00 0.558E+01
   -.339E-01 -.151E+00 -.207E+04   0.367E-01 0.156E+00 0.206E+04   -.366E-02 -.198E-02 0.587E+01
   0.683E-01 0.732E-02 0.207E+04   -.686E-01 -.746E-02 -.206E+04   0.241E-03 0.121E-03 -.639E+01
   -.235E-02 -.671E-01 0.207E+04   0.276E-02 0.673E-01 -.206E+04   -.275E-03 -.899E-04 -.639E+01
   0.400E+00 -.320E+00 0.685E+03   -.409E+00 0.319E+00 -.685E+03   0.587E-02 0.802E-03 0.403E+00
   0.371E-01 0.341E-01 0.685E+03   -.415E-01 -.372E-01 -.686E+03   0.278E-02 0.192E-02 0.390E+00
   0.232E+00 0.205E+00 -.689E+03   -.260E+00 -.229E+00 0.689E+03   0.258E-01 0.189E-01 -.190E+00
   -.868E-01 -.274E+00 -.689E+03   0.865E-01 0.293E+00 0.689E+03   -.119E-02 -.171E-01 -.188E+00
   0.134E+01 -.133E+01 -.205E+04   -.122E+01 0.123E+01 0.205E+04   -.103E+00 0.864E-01 0.558E+01
   0.381E-01 0.553E-01 -.206E+04   -.311E-01 -.457E-01 0.205E+04   -.549E-02 -.853E-02 0.556E+01
   0.918E-01 -.805E-02 0.207E+04   -.935E-01 0.784E-02 -.206E+04   0.124E-02 0.130E-03 -.639E+01
   0.886E-02 0.670E-01 0.207E+04   -.903E-02 -.673E-01 -.206E+04   0.134E-03 0.164E-03 -.639E+01
   0.313E+00 0.312E+00 0.685E+03   -.320E+00 -.317E+00 -.685E+03   0.437E-02 0.342E-02 0.428E+00
   -.438E-01 -.391E-01 0.685E+03   0.470E-01 0.400E-01 -.685E+03   -.205E-02 -.665E-03 0.372E+00
   0.128E+01 -.223E+00 -.690E+03   -.136E+01 0.252E+00 0.691E+03   0.775E-01 -.224E-01 -.268E+00
   0.212E+00 0.274E+00 -.689E+03   -.237E+00 -.294E+00 0.689E+03   0.192E-01 0.175E-01 -.187E+00
   0.179E+01 0.168E+01 -.206E+04   -.163E+01 -.152E+01 0.205E+04   -.136E+00 -.136E+00 0.565E+01
   0.199E+00 -.695E-01 -.206E+04   -.198E+00 0.602E-01 0.205E+04   -.644E-02 0.802E-02 0.555E+01
   -.168E+00 -.258E-01 0.514E+03   0.171E+00 0.223E-01 -.514E+03   -.480E-02 0.427E-02 -.790E-01
   0.192E-01 -.302E+00 0.513E+03   -.172E-01 0.278E+00 -.513E+03   -.240E-02 0.292E-01 -.106E+00
   -.644E-01 -.634E-01 0.155E+04   0.655E-01 0.645E-01 -.156E+04   -.138E-02 -.136E-02 0.313E+01
   -.568E-02 -.278E-02 0.155E+04   0.589E-02 0.335E-02 -.156E+04   -.260E-03 -.707E-03 0.313E+01
   -.332E+00 -.769E-01 -.156E+04   0.374E+00 0.701E-01 0.157E+04   -.392E-01 0.103E-01 -.441E+01
   0.215E+00 -.270E+01 -.156E+04   -.199E+00 0.266E+01 0.156E+04   -.266E-01 0.129E+00 -.418E+01
   -.618E+00 -.624E+00 -.512E+03   0.617E+00 0.623E+00 0.512E+03   0.121E-02 0.237E-02 0.308E+00
   -.608E-01 -.358E-01 -.511E+03   0.598E-01 0.280E-01 0.511E+03   0.369E-03 0.125E-01 0.277E+00
   -.310E+00 0.274E-01 0.513E+03   0.287E+00 -.261E-01 -.513E+03   0.282E-01 -.169E-02 -.106E+00
   -.600E-01 0.301E+00 0.513E+03   0.602E-01 -.274E+00 -.513E+03   0.637E-04 -.318E-01 -.959E-01
   -.567E-01 0.633E-01 0.155E+04   0.574E-01 -.644E-01 -.156E+04   -.798E-03 0.146E-02 0.313E+01
   0.154E-02 0.274E-02 0.155E+04   -.208E-02 -.326E-02 -.156E+04   0.668E-03 0.637E-03 0.313E+01
   -.275E+01 0.196E+00 -.156E+04   0.272E+01 -.176E+00 0.156E+04   0.122E+00 -.321E-01 -.418E+01
   -.362E+00 0.261E+01 -.156E+04   0.338E+00 -.255E+01 0.156E+04   0.423E-01 -.153E+00 -.412E+01
   -.509E+00 0.603E+00 -.511E+03   0.508E+00 -.597E+00 0.511E+03   -.134E-02 -.897E-02 0.339E+00
   0.390E-01 0.301E-01 -.519E+03   -.364E-01 -.255E-01 0.519E+03   -.546E-02 -.794E-02 -.624E-01
   0.162E+00 0.394E-01 0.514E+03   -.162E+00 -.305E-01 -.513E+03   -.375E-04 -.107E-01 -.843E-01
   -.212E-01 -.169E+00 0.514E+03   0.183E-01 0.173E+00 -.514E+03   0.345E-02 -.509E-02 -.789E-01
   0.643E-01 -.559E-01 0.155E+04   -.655E-01 0.564E-01 -.156E+04   0.144E-02 -.646E-03 0.313E+01
   0.574E-02 0.460E-02 0.155E+04   -.584E-02 -.467E-02 -.156E+04   0.124E-03 0.849E-04 0.313E+01
   0.354E+00 0.182E+00 -.156E+04   -.395E+00 -.190E+00 0.157E+04   0.378E-01 0.726E-02 -.440E+01
   -.492E-01 -.393E+00 -.156E+04   0.426E-01 0.434E+00 0.157E+04   0.858E-02 -.350E-01 -.442E+01
   0.601E+00 -.499E+00 -.511E+03   -.594E+00 0.497E+00 0.511E+03   -.885E-02 0.166E-02 0.341E+00
   0.520E-01 0.522E-01 -.512E+03   -.517E-01 -.524E-01 0.511E+03   0.589E-03 0.687E-03 0.258E+00
   0.305E+00 -.521E-01 0.513E+03   -.277E+00 0.516E-01 -.513E+03   -.330E-01 0.732E-03 -.953E-01
   0.431E-01 0.164E+00 0.514E+03   -.334E-01 -.166E+00 -.513E+03   -.117E-01 0.215E-02 -.831E-01
   0.573E-01 0.564E-01 0.155E+04   -.577E-01 -.566E-01 -.156E+04   0.432E-03 0.321E-03 0.313E+01
   -.149E-02 -.454E-02 0.155E+04   0.213E-02 0.467E-02 -.156E+04   -.802E-03 -.164E-03 0.313E+01
   0.260E+01 -.369E+00 -.156E+04   -.255E+01 0.348E+00 0.156E+04   -.143E+00 0.371E-01 -.412E+01
   0.204E+00 0.404E+00 -.156E+04   -.213E+00 -.444E+00 0.157E+04   0.543E-02 0.340E-01 -.440E+01
   0.557E+00 0.537E+00 -.513E+03   -.563E+00 -.542E+00 0.513E+03   0.822E-02 0.594E-02 0.247E+00
   -.258E-01 -.533E-01 -.511E+03   0.188E-01 0.537E-01 0.511E+03   0.108E-01 -.103E-02 0.288E+00
   0.270E-01 0.370E-01 0.144E+02   -.346E-12 0.727E-13 -.159E-11   -.265E-01 -.350E-01 -.127E+02

 POSITION                                       TOTAL-FORCE (eV/Angst)
      2.11015      0.00000      7.50000         0.000095      0.000120      0.466278
      4.22029      2.11015      7.50000        -0.000061      0.000337      0.467135
      2.11015      2.11015      9.61015         0.003006      0.003166      0.031526
      4.22029      0.00000      9.61015         0.000234      0.001102      0.040164
      2.11062      0.00025     11.72977        -0.000002     -0.001349     -0.002757
      4.22006      2.11315     11.73333        -0.000058     -0.007054     -0.012740
      2.10792      2.10836     13.82747        -0.010746     -0.013307     -0.118436
      4.21959      0.00038     13.82826        -0.001137     -0.009363     -0.113096
      2.11015      4.22029      7.50000         0.000355     -0.000065      0.467158
      4.22029      6.33044      7.50000        -0.000041     -0.000328      0.466518
      2.11015      6.33044      9.61015        -0.000498     -0.002425      0.032150
      4.22029      4.22029      9.61015        -0.001946     -0.001616      0.037732
      2.11297      4.22022     11.73329        -0.005794     -0.000069     -0.013436
      4.21996      6.32707     11.73220         0.004462      0.008041      0.004880
      2.10638      6.33265     13.82397         0.001268      0.010073     -0.092295
      4.21994      4.22001     13.86504        -0.001117      0.002594     -0.379893
      6.33044      0.00000      7.50000        -0.000075      0.000010      0.466599
      0.00000      2.11015      7.50000         0.000126      0.000075      0.466296
      6.33044      2.11015      9.61015        -0.002578     -0.000549      0.032239
      0.00000      0.00000      9.61015        -0.001229     -0.000848      0.031479
      6.32929      8.43962     11.73020         0.000061     -0.003273     -0.003320
      0.00016      2.11046     11.72979        -0.001512      0.000515     -0.004410
      6.33251      2.10705     13.82408         0.008884     -0.004810     -0.093302
      8.44007      8.44039     13.82821         0.000973      0.000301     -0.111390
      6.33044      4.22029      7.50000        -0.000337     -0.000044      0.466427
      0.00000      6.33044      7.50000         0.000008     -0.000063      0.466531
      6.33044      6.33044      9.61015        -0.002214     -0.001831      0.033915
      0.00000      4.22029      9.61015         0.000953      0.000252      0.039847
      6.32695      4.22010     11.73219         0.007129      0.004550      0.001615
      8.43950      6.32970     11.73015        -0.003212     -0.000639     -0.004651
      6.33151      6.33141     13.83145         0.007025      0.012025     -0.151343
      8.44052      4.21972     13.82756        -0.005784     -0.000512     -0.110256
      2.11015      0.00000      9.61015        -0.001794      0.001421      0.042797
      4.22029      2.11015      9.61015        -0.000750      0.008834      0.051518
      2.11015      2.11015      7.50000        -0.000444     -0.000446     -0.435056
      4.22029      0.00000      7.50000        -0.000067     -0.000217     -0.434933
      2.10846      8.44054     13.86754        -0.002450      0.005098     -0.012826
      4.22099      2.10193     13.86743        -0.014703      0.113099      0.055078
      2.11008      2.11010     11.72566         0.000599      0.001835      0.012472
      4.22006      8.44009     11.72454        -0.000578      0.006643      0.014164
      2.11015      4.22029      9.61015         0.008623     -0.000592      0.051264
      4.22029      6.33044      9.61015         0.000269     -0.009608      0.049415
      2.11015      6.33044      7.50000        -0.000249      0.000508     -0.434890
      4.22029      4.22029      7.50000         0.000245      0.000227     -0.435616
      2.10148      4.22129     13.86687         0.112473     -0.016268      0.057079
      4.21749      6.33840     13.86677         0.024442     -0.116730      0.067017
      2.10956      6.33068     11.72476        -0.002260     -0.003753      0.012845
      4.22015      4.22033     11.73226        -0.003751     -0.004667      0.014962
      6.33044      0.00000      9.61015         0.000414     -0.003382      0.043134
      0.00000      2.11015      9.61015         0.001166     -0.001801      0.042928
      6.33044      2.11015      7.50000         0.000513     -0.000210     -0.434880
      0.00000      0.00000      7.50000         0.000067      0.000048     -0.434824
      6.33097      8.43992     13.86848         0.001543     -0.000579     -0.011463
      8.44039      2.10835     13.86786         0.003251      0.001739     -0.015081
      6.33050      2.10955     11.72481        -0.003208     -0.000296      0.013434
      8.44013      8.44031     11.72453         0.001039      0.000583      0.011909
      6.33044      4.22029      9.61015        -0.009986      0.000421      0.049613
      0.00000      6.33044      9.61015        -0.003665      0.000972      0.043318
      6.33044      6.33044      7.50000         0.000165      0.000119     -0.434798
      0.00000      4.22029      7.50000        -0.000248     -0.000046     -0.434913
      6.33814      4.21784     13.86595        -0.113505      0.022502      0.071424
      8.43978      6.33146     13.86840        -0.002355     -0.001980     -0.011782
      6.32966      6.32986     11.72686         0.003517      0.002273      0.003312
      8.44002      4.22015     11.72431         0.005454     -0.000760      0.016215
    total drift:                               -0.001651     -0.001008      0.016128

  FREE ENERGIE OF THE ION-ELECTRON SYSTEM (eV)
  free  energy   TOTEN  =      -438.44511694 eV

  energy  without entropy=     -438.44511694  energy(sigma->0) =     -438.44511694