 vasp.6.3.0 20Jan22 (build Apr  1 2022 16:44:48) complex
 executed on        HPECrayEX_GCC date 2022.10.08  14:40:10

 INCAR:
   SYSTEM = MgO-rocksalt
   ISMEAR = 0
   SIGMA = 0.05
   EDIFF = 1E-7
   ALGO = ALL
   ISTART = 0
   IBRION = 2
   NSW = 1000
   ISYM = 0
   ISIF = 2
   EDIFFG = -0.01
   DIPOL = 0.5 0.5 0.5
   IDIPOL = 3
   LDIPOL = .TRUE.
   GGA = RE
   IVDW = 13
   VDW_S8 = 1.7468
   VDW_A1 = 0.5363
   VDW_A2 = 3.0726
   ENCUT = 600
   PREC = Accurate
   LASPH = .TRUE.
   LREAL = .FALSE.
   ISPIN = 1
   NELM = 200
   NELMIN = 8
   NCORE = 8
   KPAR = 1
   LWAVE = .FALSE.
   LCHARG = .FALSE.

 POTCAR:    PAW_PBE H 15Jun2001
 POTCAR:    PAW_PBE O 08Apr2002
 POTCAR:    PAW_PBE Mg_pv 13Apr2007
 POTCAR:    PAW_PBE O 08Apr2002
 POTCAR:    PAW_PBE H 15Jun2001
   VRHFIN =H: ultrasoft test

   TITEL  = PAW_PBE H 15Jun2001
   POMASS =    1.000; ZVAL   =    1.000    mass and valenz
   ENMAX  =  250.000; ENMIN  =  200.000 eV

   TITEL  = PAW_PBE O 08Apr2002
   POMASS =   16.000; ZVAL   =    6.000    mass and valenz
   ENMAX  =  400.000; ENMIN  =  300.000 eV

   TITEL  = PAW_PBE Mg_pv 13Apr2007
   POMASS =   24.305; ZVAL   =    8.000    mass and valenz
   ENMAX  =  403.929; ENMIN  =  302.947 eV

   TITEL  = PAW_PBE O 08Apr2002
   POMASS =   16.000; ZVAL   =    6.000    mass and valenz
   ENMAX  =  400.000; ENMIN  =  300.000 eV

  PAW_PBE H 15Jun2001                   :
  PAW_PBE O 08Apr2002                   :
  PAW_PBE Mg_pv 13Apr2007               :
  PAW_PBE O 08Apr2002                   :

 POSCAR:  H  O Mg  O
  positions in direct lattice
|           W    W    AA    RRRRR   N    N  II  N    N   GGGG   !!!           |
|           W    W   A  A   R    R  NN   N  II  NN   N  G    G  !!!           |
|           W    W  A    A  R    R  N N  N  II  N N  N  G       !!!           |
|           W WW W  AAAAAA  RRRRR   N  N N  II  N  N N  G  GGG   !            |
|           WW  WW  A    A  R   R   N   NN  II  N   NN  G    G                |
|           W    W  A    A  R    R  N    N  II  N    N   GGGG   !!!           |
|     Specifying the vdW parameters                                           |
|     VDW_S8 = 1.747                                                          |
|     VDW_A1 = 0.536                                                          |
|     VDW_A2 = 3.073                                                          |
|     in the INCAR file will overwrite the defaults for revpbe. Please        |
|     make sure that is what you intended.                                    |

 ion  position               nearest neighbor table
   1  0.613  0.553  0.763-   3 0.97
   2  0.510  0.672  0.726-   3 0.97
   3  0.506  0.571  0.748-   2 0.97   1 0.97  34 2.21
   4  0.000  0.750  0.352-  36 2.11  38 2.11  39 2.11  46 2.11  55 2.11
   5  0.250  0.000  0.352-  37 2.11  38 2.11  39 2.11  47 2.11  54 2.11
   6  0.000  0.000  0.451-  38 2.11  37 2.11  36 2.11  44 2.11  53 2.11  42 2.12
   7  0.250  0.750  0.451-  39 2.11  37 2.11  36 2.11  45 2.11  52 2.11  43 2.12
   8  0.000  0.750  0.550-  42 2.11  43 2.11  50 2.11  59 2.11  36 2.13  40 2.15
   9  0.250  0.000  0.550-  42 2.11  43 2.11  51 2.11  58 2.11  37 2.13  41 2.15
  10  0.000  0.000  0.649-  40 2.11  41 2.11  48 2.11  57 2.11  42 2.11
  11  0.250  0.750  0.649-  40 2.11  41 2.11  49 2.11  56 2.11  43 2.11
  12  0.000  0.250  0.352-  44 2.11  38 2.11  46 2.11  47 2.11  63 2.11
  13  0.250  0.500  0.352-  45 2.11  39 2.11  46 2.11  47 2.11  62 2.11
  14  0.000  0.500  0.451-  46 2.11  44 2.11  45 2.11  36 2.11  61 2.11  50 2.12
  15  0.250  0.250  0.451-  47 2.11  44 2.11  45 2.11  37 2.11  60 2.11  51 2.12
  16  0.000  0.250  0.550-  42 2.11  50 2.11  51 2.11  67 2.11  44 2.13  48 2.15
  17  0.250  0.500  0.550-  43 2.11  50 2.11  51 2.11  66 2.11  45 2.13  49 2.15
  18  0.000  0.500  0.649-  40 2.11  48 2.11  49 2.11  65 2.11  50 2.11
  19  0.250  0.250  0.649-  41 2.11  48 2.11  49 2.11  64 2.11  51 2.11
  20  0.500  0.750  0.352-  52 2.11  39 2.11  54 2.11  55 2.11  62 2.11
  21  0.750  0.000  0.352-  53 2.11  38 2.11  54 2.11  55 2.11  63 2.11
  22  0.500  0.000  0.451-  54 2.11  52 2.11  53 2.11  37 2.11  60 2.11  58 2.12
  23  0.750  0.750  0.451-  55 2.11  52 2.11  53 2.11  36 2.11  61 2.11  59 2.12
  24  0.500  0.750  0.550-  43 2.11  58 2.11  59 2.11  66 2.11  52 2.13  56 2.15
  25  0.750  0.000  0.550-  42 2.11  58 2.11  59 2.11  67 2.11  53 2.13  57 2.15
  26  0.500  0.000  0.649-  41 2.11  56 2.11  57 2.11  64 2.11  58 2.11
  27  0.750  0.750  0.649-  40 2.11  56 2.11  57 2.11  65 2.11  59 2.11
  28  0.500  0.250  0.352-  60 2.11  54 2.11  47 2.11  62 2.11  63 2.11
  29  0.750  0.500  0.352-  61 2.11  55 2.11  46 2.11  62 2.11  63 2.11
  30  0.500  0.500  0.451-  62 2.11  52 2.11  60 2.11  61 2.11  45 2.11  66 2.12
  31  0.750  0.250  0.451-  63 2.11  53 2.11  60 2.11  61 2.11  44 2.11  67 2.12
  32  0.500  0.250  0.550-  51 2.11  58 2.11  66 2.11  67 2.11  60 2.13  64 2.15
  33  0.750  0.500  0.550-  50 2.11  59 2.11  66 2.11  67 2.11  61 2.13  65 2.15
  34  0.500  0.500  0.649-  49 2.11  56 2.11  64 2.11  65 2.11  66 2.11   3 2.21
  35  0.750  0.250  0.649-  48 2.11  57 2.11  64 2.11  65 2.11  67 2.11
  36  0.000  0.750  0.451-   4 2.11   6 2.11   7 2.11  14 2.11  23 2.11   8 2.13
  37  0.250  0.000  0.451-   5 2.11   6 2.11   7 2.11  15 2.11  22 2.11   9 2.13
  38  0.000  0.000  0.352-   6 2.11   5 2.11   4 2.11  12 2.11  21 2.11
  39  0.250  0.750  0.352-   7 2.11   5 2.11   4 2.11  13 2.11  20 2.11
  40  0.000  0.750  0.651-  10 2.11  11 2.11  18 2.11  27 2.11   8 2.15
  41  0.250  0.000  0.651-  10 2.11  11 2.11  19 2.11  26 2.11   9 2.15
  42  0.000  0.000  0.550-   8 2.11   9 2.11  16 2.11  25 2.11  10 2.11   6 2.12
  43  0.250  0.750  0.550-   8 2.11   9 2.11  17 2.11  24 2.11  11 2.11   7 2.12
  44  0.000  0.250  0.451-  12 2.11   6 2.11  14 2.11  15 2.11  31 2.11  16 2.13
  45  0.250  0.500  0.451-  13 2.11   7 2.11  14 2.11  15 2.11  30 2.11  17 2.13
  46  0.000  0.500  0.352-  14 2.11  12 2.11  13 2.11   4 2.11  29 2.11
  47  0.250  0.250  0.352-  15 2.11  12 2.11  13 2.11   5 2.11  28 2.11
  48  0.000  0.250  0.651-  10 2.11  18 2.11  19 2.11  35 2.11  16 2.15
  49  0.250  0.500  0.651-  11 2.11  18 2.11  19 2.11  34 2.11  17 2.15
  50  0.000  0.500  0.550-   8 2.11  16 2.11  17 2.11  33 2.11  18 2.11  14 2.12
  51  0.250  0.250  0.550-   9 2.11  16 2.11  17 2.11  32 2.11  19 2.11  15 2.12
  52  0.500  0.750  0.451-  20 2.11   7 2.11  22 2.11  23 2.11  30 2.11  24 2.13
  53  0.750  0.000  0.451-  21 2.11   6 2.11  22 2.11  23 2.11  31 2.11  25 2.13
  54  0.500  0.000  0.352-  22 2.11  20 2.11  21 2.11   5 2.11  28 2.11
  55  0.750  0.750  0.352-  23 2.11  20 2.11  21 2.11   4 2.11  29 2.11
  56  0.500  0.750  0.651-  11 2.11  26 2.11  27 2.11  34 2.11  24 2.15
  57  0.750  0.000  0.651-  10 2.11  26 2.11  27 2.11  35 2.11  25 2.15
  58  0.500  0.000  0.550-   9 2.11  24 2.11  25 2.11  32 2.11  26 2.11  22 2.12
  59  0.750  0.750  0.550-   8 2.11  24 2.11  25 2.11  33 2.11  27 2.11  23 2.12
  60  0.500  0.250  0.451-  28 2.11  22 2.11  15 2.11  30 2.11  31 2.11  32 2.13
  61  0.750  0.500  0.451-  29 2.11  23 2.11  14 2.11  30 2.11  31 2.11  33 2.13
  62  0.500  0.500  0.352-  30 2.11  20 2.11  28 2.11  29 2.11  13 2.11
  63  0.750  0.250  0.352-  31 2.11  21 2.11  28 2.11  29 2.11  12 2.11
  64  0.500  0.250  0.651-  19 2.11  26 2.11  34 2.11  35 2.11  32 2.15
  65  0.750  0.500  0.651-  18 2.11  27 2.11  34 2.11  35 2.11  33 2.15
  66  0.500  0.500  0.550-  17 2.11  24 2.11  32 2.11  33 2.11  34 2.11  30 2.12
  67  0.750  0.250  0.550-  16 2.11  25 2.11  32 2.11  33 2.11  35 2.11  31 2.12

IMPORTANT INFORMATION: All symmetrisations will be switched off!
NOSYMM: (Re-)initialisation of all symmetry stuff for point group C_1.

                                     Primitive cell

  volume of cell :    1519.8199

  direct lattice vectors                    reciprocal lattice vectors
     8.440984654  0.000000000  0.000000000     0.118469591  0.000000000  0.000000000
     0.000000000  8.440984654  0.000000000     0.000000000  0.118469591  0.000000000
     0.000000000  0.000000000 21.330738491     0.000000000  0.000000000  0.046880702

  length of vectors
     8.440984654  8.440984654 21.330738491     0.118469591  0.118469591  0.046880702

  position of ions in fractional coordinates (direct lattice)
     0.613025873  0.552679911  0.763105224
     0.509855679  0.671699001  0.726196750
     0.505599830  0.571163941  0.748377409
     0.000000000  0.750000000  0.351605267
     0.250000000  0.000000000  0.351605267
     0.000000000  0.000000000  0.450535089
     0.250000000  0.750000000  0.450535089
     0.000000000  0.750000000  0.550171424
     0.250000000  0.000000000  0.550171424
     0.000000000  0.000000000  0.648861363
     0.250000000  0.750000000  0.648861363
     0.000000000  0.250000000  0.351605267
     0.250000000  0.500000000  0.351605267
     0.000000000  0.500000000  0.450535089
     0.250000000  0.250000000  0.450535089
     0.000000000  0.250000000  0.550171424
     0.250000000  0.500000000  0.550171424
     0.000000000  0.500000000  0.648861363
     0.250000000  0.250000000  0.648861363
     0.500000000  0.750000000  0.351605267
     0.750000000  0.000000000  0.351605267
     0.500000000  0.000000000  0.450535089
     0.750000000  0.750000000  0.450535089
     0.500000000  0.750000000  0.550171424
     0.750000000  0.000000000  0.550171424
     0.500000000  0.000000000  0.648861363
     0.750000000  0.750000000  0.648861363
     0.500000000  0.250000000  0.351605267
     0.750000000  0.500000000  0.351605267
     0.500000000  0.500000000  0.450535089
     0.750000000  0.250000000  0.450535089
     0.500000000  0.250000000  0.550171424
     0.750000000  0.500000000  0.550171424
     0.500000000  0.500000000  0.648861363
     0.750000000  0.250000000  0.648861363
     0.000000000  0.750000000  0.450535089
     0.250000000  0.000000000  0.450535089
     0.000000000  0.000000000  0.351605267
     0.250000000  0.750000000  0.351605267
     0.000000000  0.750000000  0.651006323
     0.250000000  0.000000000  0.651006323
     0.000000000  0.000000000  0.549890244
     0.250000000  0.750000000  0.549890244
     0.000000000  0.250000000  0.450535089
     0.250000000  0.500000000  0.450535089
     0.000000000  0.500000000  0.351605267
     0.250000000  0.250000000  0.351605267
     0.000000000  0.250000000  0.651006323
     0.250000000  0.500000000  0.651006323
     0.000000000  0.500000000  0.549890244
     0.250000000  0.250000000  0.549890244
     0.500000000  0.750000000  0.450535089
     0.750000000  0.000000000  0.450535089
     0.500000000  0.000000000  0.351605267
     0.750000000  0.750000000  0.351605267
     0.500000000  0.750000000  0.651006323
     0.750000000  0.000000000  0.651006323
     0.500000000  0.000000000  0.549890244
     0.750000000  0.750000000  0.549890244
     0.500000000  0.250000000  0.450535089
     0.750000000  0.500000000  0.450535089
     0.500000000  0.500000000  0.351605267
     0.750000000  0.250000000  0.351605267
     0.500000000  0.250000000  0.651006323
     0.750000000  0.500000000  0.651006323
     0.500000000  0.500000000  0.549890244
[...]
   2.11024616  4.22049233 11.73556278
   0.00000000  4.22049233 13.84069205
   2.11024616  2.11024616 13.84069205
   4.22049233  6.33073849  7.50000000
   6.33073849  0.00000000  7.50000000
   4.22049233  0.00000000  9.61024616
   6.33073849  6.33073849  9.61024616
   4.22049233  6.33073849 11.73556278
   6.33073849  0.00000000 11.73556278
   4.22049233  0.00000000 13.84069205
   6.33073849  6.33073849 13.84069205
   4.22049233  2.11024616  7.50000000
   6.33073849  4.22049233  7.50000000
   4.22049233  4.22049233  9.61024616
   6.33073849  2.11024616  9.61024616
   4.22049233  2.11024616 11.73556278
   6.33073849  4.22049233 11.73556278
   4.22049233  4.22049233 13.84069205
   6.33073849  2.11024616 13.84069205
   0.00000000  6.33073849  9.61024616
   2.11024616  0.00000000  9.61024616
   0.00000000  0.00000000  7.50000000
   2.11024616  6.33073849  7.50000000
   0.00000000  6.33073849 13.88644563
   2.11024616  0.00000000 13.88644563
   0.00000000  0.00000000 11.72956500
   2.11024616  6.33073849 11.72956500
   0.00000000  2.11024616  9.61024616
   2.11024616  4.22049233  9.61024616
   0.00000000  4.22049233  7.50000000
   2.11024616  2.11024616  7.50000000
   0.00000000  2.11024616 13.88644563
   2.11024616  4.22049233 13.88644563
   0.00000000  4.22049233 11.72956500
   2.11024616  2.11024616 11.72956500
   4.22049233  6.33073849  9.61024616
   6.33073849  0.00000000  9.61024616
   4.22049233  0.00000000  7.50000000
   6.33073849  6.33073849  7.50000000
   4.22049233  6.33073849 13.88644563
   6.33073849  0.00000000 13.88644563
   4.22049233  0.00000000 11.72956500
   6.33073849  6.33073849 11.72956500
   4.22049233  2.11024616  9.61024616
   6.33073849  4.22049233  9.61024616
   4.22049233  4.22049233  7.50000000
   6.33073849  2.11024616  7.50000000
   4.22049233  2.11024616 13.88644563
   6.33073849  4.22049233 13.88644563
   4.22049233  4.22049233 11.72956500
   6.33073849  2.11024616 11.72956500

--------------------------------------- Iteration      FINAL  ---------------------------------------

--------------------OUTCAR has been truncated-------------------------

[...]

--------------------OUTCAR has been truncated-------------------------

  FORCE on cell =-STRESS in cart. coord.  units (eV):
  Direction    XX          YY          ZZ          XY          YZ          ZX
  Alpha Z   899.29934   899.29934   899.29934
  Ewald  160252.11361160264.72282************   -13.83408   -25.87346    31.07552
  Hartree170507.13417170523.35177************    -3.01428    -0.67283     6.81304
  E(xc)   -2502.15572 -2502.16053 -2510.00071    -0.07527    -0.32687     0.11713
  Local  ************************340618.79846    13.13182    16.17618   -29.88192
  n-local -2825.72207 -2825.47979 -2846.16843    -0.22748     0.24273     0.37898
  augment  1052.96853  1053.35994  1044.54708     0.23861     0.66550    -0.54785
  Kinetic  7456.03545  7461.43016  7506.96440     3.82297     9.86732    -7.91666
  Fock        0.00000     0.00000     0.00000     0.00000     0.00000     0.00000
  vdW       -21.76267   -21.73819   -16.68790     0.00871    -0.00885     0.00869
  Total     -25.29686   -25.12095    -1.73221     0.05099     0.06972     0.04693
  in kB     -26.66767   -26.48222    -1.82608     0.05376     0.07350     0.04947

 VOLUME and BASIS-vectors are now :
  energy-cutoff  :      600.00
  volume of cell :     1519.82
      direct lattice vectors                 reciprocal lattice vectors
     8.440984654  0.000000000  0.000000000     0.118469591  0.000000000  0.000000000
     0.000000000  8.440984654  0.000000000     0.000000000  0.118469591  0.000000000
     0.000000000  0.000000000 21.330738491     0.000000000  0.000000000  0.046880702

  length of vectors
     8.440984654  8.440984654 21.330738491     0.118469591  0.118469591  0.046880702

 FORCES acting on ions:
    Electron-Ion                     Ewald-Force                    Non-Local-Force
   -.819E+02 0.154E+02 -.292E+03   0.897E+02 -.169E+02 0.295E+03   -.778E+01 0.147E+01 -.243E+01
   0.692E+00 -.672E+02 -.264E+03   -.800E+00 0.731E+02 0.260E+03   0.106E+00 -.598E+01 0.378E+01
   0.486E+02 0.272E+02 -.170E+04   -.858E+02 -.473E+02 0.171E+04   0.372E+02 0.201E+02 -.110E+02
   -.169E-01 -.207E-01 0.208E+04   0.185E-01 0.173E-01 -.208E+04   -.111E-02 0.236E-02 -.713E+01
   -.322E-01 -.299E-01 0.208E+04   0.336E-01 0.322E-01 -.208E+04   -.982E-03 -.153E-02 -.716E+01
   -.148E+00 -.258E+00 0.715E+03   0.164E+00 0.294E+00 -.715E+03   -.115E-01 -.259E-01 0.447E+00
   -.342E-01 -.110E-02 0.715E+03   0.114E+00 -.985E-02 -.715E+03   -.590E-01 0.611E-02 0.596E+00
   -.398E+00 -.284E+01 -.640E+03   0.479E+00 0.278E+01 0.640E+03   -.788E-01 0.525E-01 -.131E+00
   0.256E+01 -.107E+01 -.645E+03   -.252E+01 0.114E+01 0.646E+03   -.387E-01 -.719E-01 -.245E+00
   -.927E+00 -.432E+01 -.202E+04   0.994E+00 0.448E+01 0.201E+04   -.671E-01 -.155E+00 0.610E+01
   0.250E+02 -.211E+02 -.198E+04   -.260E+02 0.212E+02 0.198E+04   0.970E+00 -.350E-01 0.628E+01
   -.960E-02 0.200E-01 0.208E+04   0.103E-01 -.168E-01 -.208E+04   -.464E-03 -.218E-02 -.716E+01
   -.636E-01 0.306E-01 0.208E+04   0.698E-01 -.331E-01 -.208E+04   -.478E-02 0.175E-02 -.717E+01
   -.915E-01 0.249E+00 0.716E+03   0.611E-01 -.289E+00 -.716E+03   0.223E-01 0.285E-01 0.352E+00
   -.154E+00 -.315E-01 0.715E+03   0.149E+00 0.379E-01 -.716E+03   0.449E-02 -.280E-02 0.455E+00
   -.655E-01 0.285E+01 -.646E+03   0.108E+00 -.279E+01 0.646E+03   -.417E-01 -.588E-01 -.130E+00
   0.355E+01 0.111E+01 -.636E+03   -.334E+01 -.117E+01 0.637E+03   -.212E+00 0.612E-01 -.978E+00
   -.120E+01 0.513E+01 -.200E+04   0.138E+01 -.527E+01 0.200E+04   -.174E+00 0.146E+00 0.613E+01
   0.165E+02 0.180E+02 -.201E+04   -.168E+02 -.181E+02 0.200E+04   0.313E+00 0.548E-01 0.621E+01
   0.177E-01 0.930E-02 0.208E+04   -.193E-01 -.180E-01 -.208E+04   0.120E-02 0.651E-02 -.717E+01
   0.311E-01 -.374E-01 0.208E+04   -.329E-01 0.405E-01 -.208E+04   0.132E-02 -.216E-02 -.715E+01
   0.141E+00 -.306E+00 0.715E+03   -.164E+00 0.261E+00 -.715E+03   0.161E-01 0.329E-01 0.502E+00
   0.226E-02 0.483E-01 0.715E+03   -.838E-01 -.102E+00 -.716E+03   0.601E-01 0.378E-01 0.613E+00
   0.412E+00 -.295E+01 -.645E+03   -.483E+00 0.273E+01 0.644E+03   0.713E-01 0.225E+00 0.925E+00
   -.256E+01 -.142E+01 -.643E+03   0.253E+01 0.153E+01 0.643E+03   0.365E-01 -.107E+00 -.190E+00
   0.118E+01 -.111E+02 -.200E+04   -.124E+01 0.116E+02 0.199E+04   0.630E-01 -.464E+00 0.601E+01
   -.259E+02 -.221E+02 -.197E+04   0.270E+02 0.223E+02 0.196E+04   -.106E+01 -.256E+00 0.633E+01
   0.932E-02 -.129E-01 0.208E+04   -.104E-01 0.206E-01 -.208E+04   0.786E-03 -.577E-02 -.715E+01
   0.620E-01 0.389E-01 0.208E+04   -.690E-01 -.419E-01 -.208E+04   0.537E-02 0.219E-02 -.718E+01
   0.755E-01 0.336E+00 0.713E+03   -.578E-01 -.308E+00 -.714E+03   -.141E-01 -.229E-01 0.712E+00
   0.132E+00 -.853E-01 0.715E+03   -.134E+00 0.139E+00 -.716E+03   0.135E-03 -.374E-01 0.510E+00
   0.685E-01 0.364E+01 -.638E+03   -.106E+00 -.346E+01 0.639E+03   0.375E-01 -.178E+00 -.493E+00
   -.339E+01 0.148E+01 -.641E+03   0.317E+01 -.158E+01 0.641E+03   0.219E+00 0.925E-01 -.367E+00
   0.479E+01 0.302E+02 -.191E+04   -.518E+01 -.320E+02 0.191E+04   0.385E+00 0.183E+01 0.275E+01
   -.168E+02 0.182E+02 -.200E+04   0.171E+02 -.184E+02 0.199E+04   -.289E+00 0.200E+00 0.620E+01
   -.224E-01 -.220E+00 0.537E+03   0.200E-01 0.206E+00 -.537E+03   0.176E-02 0.211E-01 0.188E-01
   -.217E-01 -.187E-01 0.536E+03   0.252E-01 0.378E-01 -.536E+03   -.401E-02 -.286E-01 -.108E+00
   -.149E-01 -.271E-01 0.156E+04   0.181E-01 0.337E-01 -.157E+04   -.458E-02 -.923E-02 0.341E+01
   -.328E-01 -.436E-02 0.156E+04   0.411E-01 0.111E-02 -.157E+04   -.115E-01 0.452E-02 0.341E+01
   -.224E+01 -.717E+01 -.153E+04   0.230E+01 0.706E+01 0.153E+04   -.523E-01 0.105E+00 -.501E+01
   0.841E+01 -.583E+01 -.153E+04   -.820E+01 0.578E+01 0.153E+04   -.203E+00 0.518E-01 -.498E+01
   -.374E+00 -.124E+01 -.480E+03   0.384E+00 0.127E+01 0.480E+03   -.100E-01 -.275E-01 0.181E+00
   0.200E+01 -.245E+01 -.475E+03   -.209E+01 0.240E+01 0.474E+03   0.908E-01 0.574E-01 0.435E+00
   0.109E-01 0.212E+00 0.536E+03   -.184E-02 -.192E+00 -.536E+03   -.133E-01 -.277E-01 -.860E-01
   -.181E+00 0.198E-01 0.535E+03   0.131E+00 -.329E-01 -.535E+03   0.686E-01 0.206E-01 -.161E+00
   -.729E-02 0.276E-01 0.156E+04   0.614E-02 -.341E-01 -.157E+04   0.161E-02 0.899E-02 0.340E+01
   -.359E-01 0.375E-02 0.156E+04   0.361E-01 -.350E-03 -.157E+04   -.279E-03 -.474E-02 0.340E+01
   -.935E+00 0.659E+01 -.153E+04   0.934E+00 -.649E+01 0.154E+04   0.360E-02 -.948E-01 -.497E+01
   0.294E+02 0.816E+01 -.149E+04   -.291E+02 -.810E+01 0.150E+04   -.382E+00 -.717E-01 -.512E+01
   0.277E-01 0.125E+01 -.474E+03   0.729E-02 -.128E+01 0.473E+03   -.348E-01 0.315E-01 0.241E+00
   0.234E+01 0.240E+01 -.476E+03   -.234E+01 -.234E+01 0.476E+03   -.457E-02 -.606E-01 0.196E+00
   0.302E-01 -.749E-01 0.536E+03   -.260E-01 0.124E+00 -.536E+03   -.447E-02 -.646E-01 -.143E+00
   0.107E-02 -.562E-01 0.536E+03   0.474E-02 0.647E-01 -.536E+03   -.831E-02 -.144E-01 -.525E-01
   0.156E-01 -.291E-01 0.156E+04   -.186E-01 0.280E-01 -.157E+04   0.414E-02 0.159E-02 0.341E+01
   0.322E-01 0.266E-02 0.156E+04   -.404E-01 -.106E-01 -.157E+04   0.115E-01 0.111E-01 0.341E+01
   0.381E+01 -.371E+02 -.147E+04   -.391E+01 0.369E+02 0.147E+04   0.102E+00 0.224E+00 -.199E+01
   -.853E+01 -.718E+01 -.153E+04   0.832E+01 0.719E+01 0.153E+04   0.217E+00 -.588E-02 -.500E+01
   0.411E+00 -.616E+00 -.476E+03   -.429E+00 0.664E+00 0.476E+03   0.202E-01 -.507E-01 0.318E+00
   -.200E+01 -.206E+01 -.471E+03   0.209E+01 0.204E+01 0.471E+03   -.878E-01 0.208E-01 0.748E+00
   -.242E-01 0.188E-02 0.535E+03   0.240E-01 -.287E-01 -.535E+03   0.164E-02 0.362E-01 -.961E-01
   0.153E+00 0.720E-01 0.535E+03   -.872E-01 -.802E-01 -.535E+03   -.902E-01 0.139E-01 -.196E+00
   0.844E-02 0.317E-01 0.156E+04   -.673E-02 -.299E-01 -.157E+04   -.243E-02 -.259E-02 0.340E+01
   0.360E-01 -.383E-02 0.156E+04   -.360E-01 0.117E-01 -.157E+04   -.713E-04 -.110E-01 0.340E+01
   0.113E+01 0.263E+02 -.151E+04   -.114E+01 -.263E+02 0.151E+04   0.878E-02 0.328E-01 -.488E+01
   -.310E+02 0.106E+02 -.149E+04   0.304E+02 -.106E+02 0.150E+04   0.630E+00 -.587E-01 -.477E+01
   -.134E+00 0.147E+00 -.484E+03   0.869E-01 -.219E+00 0.484E+03   0.480E-01 0.722E-01 -.755E+00
   -.235E+01 0.202E+01 -.476E+03   0.234E+01 -.199E+01 0.476E+03   0.743E-02 -.238E-01 0.332E+00
   -.300E+02 -.171E+02 0.269E+02   -.142E-13 0.249E-13 -.108E-11   0.300E+02 0.171E+02 -.269E+02

 POSITION                                       TOTAL-FORCE (eV/Angst)
      5.20595      4.67946     16.35883        -0.003859      0.000312      0.007942
      4.30431      5.67900     15.53856         0.001573     -0.003553     -0.005522
      4.28384      4.82937     16.08552        -0.004994      0.004426     -0.004053
      0.00000      6.33074      7.50000         0.000428     -0.000997      0.333101
      2.11025      0.00000      7.50000         0.000406      0.000693      0.339972
      0.00000      0.00000      9.61025         0.004270      0.009985      0.064585
      2.11025      6.33074      9.61025         0.020564     -0.004488      0.071321
      0.00175      6.32879     11.72745         0.002195     -0.001240     -0.000685
      2.11061      0.00106     11.73276         0.002258      0.001721      0.003684
      0.00062      0.00346     13.83502        -0.000227     -0.002184     -0.001769
      2.09069      6.33005     13.83160        -0.001759      0.002172      0.002323
      0.00000      2.11025      7.50000         0.000256      0.000912      0.341090
      2.11025      4.22049      7.50000         0.001375     -0.000742      0.340364
      0.00000      4.22049      9.61025        -0.008003     -0.011353      0.088747
      2.11025      2.11025      9.61025        -0.000719      0.003341      0.076740
      0.00026      2.11143     11.72998         0.001378      0.000591      0.000560
      2.11604      4.21832     11.74046         0.003281     -0.000532      0.004199
      0.00359      4.21639     13.83025        -0.000438      0.003190      0.001032
      2.10166      2.10903     13.83819         0.006022     -0.000530      0.002790
      4.22049      6.33074      7.50000        -0.000376     -0.002055      0.340685
      6.33074      0.00000      7.50000        -0.000448      0.000857      0.336337
      4.22049      0.00000      9.61025        -0.006756     -0.011582      0.090842
      6.33074      6.33074      9.61025        -0.020700     -0.015279      0.067515
      4.21818      6.32213     11.73949        -0.000547     -0.000341      0.001429
      6.32886      0.00240     11.73049        -0.000583      0.002566      0.003504
      4.21777      0.01682     13.83630         0.001894      0.002486      0.001913
      6.35154      6.33641     13.81223         0.003342      0.002599      0.000953
      4.22049      2.11025      7.50000        -0.000269      0.001820      0.337472
      6.33074      4.22049      7.50000        -0.001485     -0.000853      0.343028
      4.22049      4.22049      9.61025         0.003576      0.005087      0.108174
      6.33074      2.11025      9.61025        -0.001351      0.015741      0.072300
      4.21865      2.11487     11.73768        -0.000561      0.002774      0.005061
      6.32242      4.21778     11.74181        -0.001553     -0.000895      0.003392
      4.20463      4.16578     13.93712         0.001435     -0.005686     -0.002924
      6.33639      2.10651     13.83212        -0.004176     -0.000573      0.001785
      0.00000      6.33074      9.61025        -0.000568      0.006863      0.078712
      2.11025      0.00000      9.61025        -0.000681     -0.009424      0.066015
      0.00000      0.00000      7.50000        -0.001279     -0.002622     -0.499470
      2.11025      6.33074      7.50000        -0.003325      0.001276     -0.499992
     -0.00192      6.33359     13.87705         0.002872     -0.000427      0.002782
      2.10402     -0.00095     13.88071         0.000652      0.000539      0.000658
     -0.00143     -0.00190     11.72473        -0.000159     -0.000168     -0.000640
      2.11497      6.33271     11.73124        -0.000281      0.001212     -0.001115
      0.00000      2.11025      9.61025        -0.004254     -0.008556      0.058624
      2.11025      4.22049      9.61025         0.018266      0.007305      0.090323
      0.00000      4.22049      7.50000         0.000502      0.002520     -0.501695
      2.11025      2.11025      7.50000        -0.000091     -0.001371     -0.501924
     -0.00216      2.10668     13.88052         0.002165      0.004980     -0.002622
      2.09489      4.22127     13.85874        -0.003545     -0.000086      0.000654
     -0.00353      4.22140     11.72242         0.000359      0.002488     -0.002325
      2.10948      2.10701     11.72619        -0.000303      0.000919     -0.003060
      4.22049      6.33074      9.61025        -0.000181     -0.015387      0.087653
      6.33074      0.00000      9.61025        -0.002277     -0.005909      0.071621
      4.22049      0.00000      7.50000         0.001192      0.000472     -0.500049
      6.33074      6.33074      7.50000         0.003372      0.003173     -0.499261
      4.22154      6.36778     13.93502         0.001242     -0.000506      0.003505
      6.33491     -0.00113     13.88004         0.002164      0.000826      0.002535
      4.22045     -0.00596     11.72954         0.002047     -0.001867     -0.001597
      6.32507      6.33100     11.72992         0.001813      0.001765     -0.002044
      4.22049      2.11025      9.61025         0.001418      0.008990      0.096434
      6.33074      4.22049      9.61025        -0.023564      0.005565      0.084599
      4.22049      4.22049      7.50000        -0.000703     -0.000809     -0.504129
      6.33074      2.11025      7.50000         0.000033     -0.003179     -0.501456
      4.22062      2.09110     13.87599         0.000315      0.001645      0.003039
      6.34494      4.22297     13.88752         0.004446     -0.000054      0.001155
      4.22176      4.22431     11.74807         0.001118      0.000768     -0.001136
      6.32990      2.10929     11.72767         0.001788      0.000669     -0.003679
    total drift:                               -0.001856      0.000770      0.004475

  FREE ENERGIE OF THE ION-ELECTRON SYSTEM (eV)
  free  energy   TOTEN  =      -386.03208535 eV

  energy  without entropy=     -386.03208535  energy(sigma->0) =     -386.03208535

 d Force = 0.4433970E-06[ 0.181E-06, 0.706E-06]  d Energy = 0.4955490E-06-0.522E-07
 d Force = 0.1047104E+01[ 0.105E+01, 0.105E+01]  d Ewald  = 0.1047104E+01 0.144E-09

 reached required accuracy - stopping structural energy minimisation