 vasp.6.3.0 20Jan22 (build Apr  1 2022 16:44:48) complex
 executed on        HPECrayEX_GCC date 2022.11.13  10:54:26

 INCAR:
   SYSTEM = MgO-rocksalt
   ISMEAR = 0
   SIGMA = 0.05
   EDIFF = 1E-6
   ALGO = ALL
   ISTART = 0
   IBRION = -1
   NSW = 0
   ISYM = 0
   DIPOL = 0.5 0.5 0.5
   IDIPOL = 3
   LDIPOL = .TRUE.
   LHFCALC = .TRUE.
   GGA = B5
   AEXX = 0.2
   AGGAX = 0.72
   AGGAC = 0.81
   ALDAC = 0.19
   IVDW = 1
   VDW_S6 = 1.05
   VDW_C6 = 1.75 0.70 0.14 0.63 0.70
   VDW_R0 = 1.452 1.342 1.001 1.243 1.342
   ENCUT = 600
   PREC = Accurate
   LASPH = .TRUE.
   LREAL = .FALSE.
   ISPIN = 1
   NELM = 200
   NELMIN = 8
   NCORE = 8
   KPAR = 1
   LWAVE = .FALSE.
   LCHARG = .FALSE.

 POTCAR:    PAW_PBE C 08Apr2002
 POTCAR:    PAW_PBE O 08Apr2002
 POTCAR:    PAW_PBE H 15Jun2001
 POTCAR:    PAW_PBE Mg_pv 13Apr2007
 POTCAR:    PAW_PBE O 08Apr2002
 POTCAR:    PAW_PBE C 08Apr2002
   VRHFIN =C: s2p2

   TITEL  = PAW_PBE C 08Apr2002
   POMASS =   12.011; ZVAL   =    4.000    mass and valenz
   ENMAX  =  400.000; ENMIN  =  300.000 eV

[...]

   TITEL  = PAW_PBE H 15Jun2001
   POMASS =    1.000; ZVAL   =    1.000    mass and valenz
   ENMAX  =  250.000; ENMIN  =  200.000 eV

   TITEL  = PAW_PBE Mg_pv 13Apr2007
   POMASS =   24.305; ZVAL   =    8.000    mass and valenz
   ENMAX  =  403.929; ENMIN  =  302.947 eV

   TITEL  = PAW_PBE O 08Apr2002
   POMASS =   16.000; ZVAL   =    6.000    mass and valenz
   ENMAX  =  400.000; ENMIN  =  300.000 eV

  PAW_PBE C 08Apr2002                   :
  PAW_PBE O 08Apr2002                   :
  PAW_PBE H 15Jun2001                   :
  PAW_PBE Mg_pv 13Apr2007               :
  PAW_PBE O 08Apr2002                   :

 POSCAR:  C  O  H Mg  O
  positions in direct lattice
 exchange correlation table for  LEXCH =       12
   RHO(1)=    0.500       N(1)  =     2000
   RHO(2)=  100.500       N(2)  =     4000

 ion  position               nearest neighbor table
   1  0.456  0.611  0.804-   3 1.09   6 1.10   5 1.10   2 1.45
   2  0.433  0.491  0.756-   4 0.99   1 1.45
   3  0.574  0.594  0.822-   1 1.09
   4  0.328  0.502  0.737-   2 0.99
   5  0.447  0.729  0.783-   1 1.10
   6  0.370  0.597  0.841-   1 1.10
   7  0.000  0.750  0.350-  39 2.14  41 2.14  42 2.14  49 2.14  58 2.14
   8  0.250  0.000  0.350-  40 2.14  41 2.14  42 2.14  50 2.14  57 2.14
   9  0.000  0.000  0.450-  41 2.14  40 2.14  39 2.14  47 2.14  56 2.14  45 2.14
  10  0.250  0.750  0.450-  42 2.14  40 2.14  39 2.14  48 2.14  55 2.14  46 2.14
  11  1.000  0.750  0.550-  62 2.13  53 2.13  46 2.14  45 2.14  39 2.14  43 2.17
  12  0.250  0.000  0.550-  61 2.13  45 2.14  40 2.14  54 2.14  46 2.14  44 2.17
  13  0.999  0.000  0.649-  45 2.13  51 2.13  60 2.13  43 2.13  44 2.14
  14  0.249  0.752  0.648-  46 2.10  44 2.12  43 2.13  59 2.14  52 2.16
  15  0.000  0.250  0.350-  47 2.14  41 2.14  49 2.14  50 2.14  66 2.14
  16  0.250  0.500  0.350-  48 2.14  42 2.14  49 2.14  50 2.14  65 2.14
  17  0.000  0.500  0.450-  49 2.14  47 2.14  48 2.14  39 2.14  64 2.14  53 2.14
  18  0.250  0.250  0.450-  50 2.14  47 2.14  48 2.14  40 2.14  63 2.14  54 2.14
  19  1.000  0.250  0.550-  70 2.13  54 2.13  53 2.14  45 2.14  47 2.14  51 2.17
  20  0.251  0.500  0.551-  69 2.12  54 2.13  46 2.13  53 2.14  48 2.15  52 2.21
  21  0.998  0.500  0.649-  68 2.10  52 2.12  53 2.12  51 2.14  43 2.15
  22  0.250  0.248  0.649-  54 2.12  44 2.12  67 2.14  51 2.14  52 2.16
  23  0.500  0.750  0.350-  55 2.14  42 2.14  57 2.14  58 2.14  65 2.14
  24  0.750  0.000  0.350-  56 2.14  41 2.14  57 2.14  58 2.14  66 2.14
  25  0.500  0.000  0.450-  61 2.13  57 2.14  56 2.14  40 2.14  55 2.14  63 2.14
  26  0.750  0.750  0.450-  58 2.14  55 2.14  56 2.14  39 2.14  64 2.14  62 2.14
  27  0.500  0.749  0.551-  69 2.12  62 2.14  46 2.14  61 2.14  59 2.15  55 2.16
  28  0.750  0.000  0.550-  61 2.14  70 2.14  62 2.14  45 2.14  56 2.14  60 2.17
  29  0.500  0.000  0.649-  67 2.11  61 2.12  59 2.12  60 2.14  44 2.14
  30  0.750  0.751  0.649-  62 2.12  60 2.13  43 2.13  59 2.14  68 2.14
  31  0.500  0.250  0.350-  63 2.14  57 2.14  50 2.14  65 2.14  66 2.14
  32  0.750  0.500  0.350-  64 2.14  58 2.14  49 2.14  65 2.14  66 2.14
  33  0.500  0.500  0.450-  65 2.14  55 2.14  63 2.14  64 2.14  48 2.14  69 2.16
  34  0.750  0.250  0.450-  66 2.14  56 2.14  63 2.14  64 2.14  47 2.14  70 2.14
  35  0.500  0.251  0.551-  67 2.13  69 2.13  70 2.14  54 2.14  61 2.15  63 2.15
  36  0.749  0.500  0.551-  69 2.13  70 2.14  62 2.14  53 2.15  64 2.15  68 2.16
  37  0.505  0.499  0.655-  68 2.11  67 2.15  59 2.16  52 2.22  69 2.23
  38  0.750  0.249  0.649-  70 2.13  60 2.13  67 2.14  51 2.14  68 2.15
  39  0.000  0.750  0.450-   7 2.14   9 2.14  10 2.14  17 2.14  26 2.14  11 2.14
  40  0.250  0.000  0.450-   8 2.14   9 2.14  10 2.14  18 2.14  25 2.14  12 2.14
  41  0.000  0.000  0.350-   9 2.14   8 2.14   7 2.14  15 2.14  24 2.14
  42  0.250  0.750  0.350-  10 2.14   8 2.14   7 2.14  16 2.14  23 2.14
  43  1.000  0.751  0.651-  13 2.13  14 2.13  30 2.13  21 2.15  11 2.17
  44  0.249  1.000  0.651-  14 2.12  22 2.12  13 2.14  29 2.14  12 2.17
  45  0.000  1.000  0.550-  13 2.13   9 2.14  12 2.14  11 2.14  19 2.14  28 2.14
  46  0.250  0.749  0.550-  14 2.10  20 2.13  11 2.14  27 2.14  10 2.14  12 2.14
  47  0.000  0.250  0.450-  15 2.14   9 2.14  17 2.14  18 2.14  34 2.14  19 2.14
  48  0.250  0.500  0.450-  16 2.14  10 2.14  17 2.14  18 2.14  33 2.14  20 2.15
  49  0.000  0.500  0.350-  17 2.14  15 2.14  16 2.14   7 2.14  32 2.14
  50  0.250  0.250  0.350-  18 2.14  15 2.14  16 2.14   8 2.14  31 2.14
  51  1.000  0.249  0.651-  13 2.13  38 2.14  22 2.14  21 2.14  19 2.17
  52  0.246  0.500  0.654-  21 2.12  14 2.16  22 2.16  20 2.21  37 2.22
  53  0.000  0.500  0.550-  21 2.12  11 2.13  19 2.14  20 2.14  17 2.14  36 2.15
  54  0.249  0.251  0.550-  22 2.12  20 2.13  19 2.13  12 2.14  35 2.14  18 2.14
  55  0.500  0.750  0.450-  23 2.14  10 2.14  25 2.14  26 2.14  33 2.14  27 2.16
  56  0.750  0.000  0.450-  24 2.14   9 2.14  25 2.14  26 2.14  34 2.14  28 2.14
  57  0.500  0.000  0.350-  25 2.14  23 2.14  24 2.14   8 2.14  31 2.14
  58  0.750  0.750  0.350-  26 2.14  23 2.14  24 2.14   7 2.14  32 2.14
  59  0.500  0.752  0.651-  29 2.12  30 2.14  14 2.14  27 2.15  37 2.16
  60  0.750  1.000  0.651-  30 2.13  38 2.13  13 2.13  29 2.14  28 2.17
  61  0.500  1.000  0.550-  29 2.12  25 2.13  12 2.13  28 2.14  27 2.14  35 2.15
  62  0.750  0.750  0.550-  30 2.12  11 2.13  27 2.14  36 2.14  28 2.14  26 2.14
  63  0.500  0.250  0.450-  31 2.14  25 2.14  18 2.14  33 2.14  34 2.14  35 2.15
  64  0.750  0.500  0.450-  32 2.14  26 2.14  17 2.14  33 2.14  34 2.14  36 2.15
  65  0.500  0.500  0.350-  33 2.14  23 2.14  31 2.14  32 2.14  16 2.14
  66  0.750  0.250  0.350-  34 2.14  24 2.14  31 2.14  32 2.14  15 2.14
  67  0.500  0.248  0.650-  29 2.11  35 2.13  38 2.14  22 2.14  37 2.15
  68  0.752  0.500  0.652-  21 2.10  37 2.11  30 2.14  38 2.15  36 2.16
  69  0.499  0.500  0.551-  20 2.12  27 2.12  35 2.13  36 2.13  33 2.16  37 2.23
  70  0.750  0.250  0.550-  38 2.13  19 2.13  36 2.14  28 2.14  35 2.14  34 2.14

IMPORTANT INFORMATION: All symmetrisations will be switched off!
NOSYMM: (Re-)initialisation of all symmetry stuff for point group C_1.

                                     Primitive cell

  volume of cell :    1563.6717

  direct lattice vectors                    reciprocal lattice vectors
     8.546113626  0.000000000  0.000000000     0.117012252  0.000000000  0.000000000
     0.000000000  8.546113626  0.000000000     0.000000000  0.117012252  0.000000000
     0.000000000  0.000000000 21.409585219     0.000000000  0.000000000  0.046708051

  length of vectors
     8.546113626  8.546113626 21.409585219     0.117012252  0.117012252  0.046708051

  position of ions in fractional coordinates (direct lattice)
     0.455572886  0.610860981  0.803514568
     0.432942488  0.490797496  0.756441595
     0.573511633  0.594262006  0.822274256
     0.328259611  0.501787851  0.736616156
     0.446793799  0.728624272  0.783145673
     0.370056123  0.597489798  0.841427586
     0.000000000  0.750000000  0.350310383
     0.250000000  0.000000000  0.350310383
     0.000000000  0.000000000  0.450103461
     0.250000000  0.750000000  0.450103461
     0.999587396  0.749807555  0.550161153
     0.250153706  0.000195283  0.549971425
     0.999412261  0.000151311  0.649246970
     0.249273612  0.752323379  0.648294634
     0.000000000  0.250000000  0.350310383
     0.250000000  0.500000000  0.350310383
     0.000000000  0.500000000  0.450103461
     0.250000000  0.250000000  0.450103461
     0.999715188  0.250186346  0.550256794
     0.251018957  0.499836351  0.550736815
     0.997986534  0.499829240  0.649309723
     0.249944733  0.247702430  0.649013345
     0.500000000  0.750000000  0.350310383
     0.750000000  0.000000000  0.350310383
     0.500000000  0.000000000  0.450103461
     0.750000000  0.750000000  0.450103461
     0.500147142  0.748788752  0.550769963
     0.749648203  0.000100221  0.550077768
     0.500259408  0.000383003  0.648857310
     0.750110287  0.750977024  0.649082642
     0.500000000  0.250000000  0.350310383
     0.750000000  0.500000000  0.350310383
     0.500000000  0.500000000  0.450103461
     0.750000000  0.250000000  0.450103461
     0.500103767  0.251078294  0.550711108
     0.748893733  0.499877005  0.550632316
     0.505394357  0.498930092  0.655090104
     0.749740634  0.248977442  0.649348320
     0.000000000  0.750000000  0.450103461
     0.250000000  0.000000000  0.450103461
     0.000000000  0.000000000  0.350310383
     0.250000000  0.750000000  0.350310383
     0.999759395  0.750786675  0.651412155
     0.249390762  0.999792376  0.651189468
     0.000053276  0.999927226  0.549904811
     0.249570233  0.749445341  0.550162011
     0.000000000  0.250000000  0.450103461
     0.250000000  0.500000000  0.450103461
     0.000000000  0.500000000  0.350310383
     0.250000000  0.250000000  0.350310383
     0.999770689  0.249217390  0.651385473
     0.245506211  0.500322101  0.653898833
     0.000334054  0.500077306  0.550201944
     0.249451130  0.250567090  0.550225375
     0.500000000  0.750000000  0.450103461
     0.750000000  0.000000000  0.450103461
     0.500000000  0.000000000  0.350310383
     0.750000000  0.750000000  0.350310383
     0.499708168  0.751871918  0.651086471
     0.750272182  0.999863944  0.651250402
     0.499743844  0.999687057  0.549699342
     0.750176339  0.749913556  0.550050326
     0.500000000  0.250000000  0.450103461
     0.750000000  0.500000000  0.450103461
     0.500000000  0.500000000  0.350310383
     0.750000000  0.250000000  0.350310383
     0.499859154  0.247807687  0.650049750
     0.751806827  0.500143173  0.651591826
     0.499433919  0.500147097  0.550928257
     0.750370980  0.250059365  0.550008108

  ion indices of the primitive-cell ions
   primitive index   ion index
                 1           1
                 2           2
                 3           3
                 4           4
                 5           5
                 6           6
                 7           7
                 8           8
                 9           9
                10          10
[...]
   2.13032061  6.42944108 13.87971921
   0.00000000  2.13652841  7.50000000
   2.13652841  4.27305681  7.50000000
   0.00000000  4.27305681  9.63652841
   2.13652841  2.13652841  9.63652841
   8.54367959  2.13812094 11.78076973
   2.14523652  4.27165825 11.79104677
   8.52890631  4.27159748 13.90145184
   2.13605609  2.11689311 13.89510653
   4.27305681  6.40958522  7.50000000
   6.40958522  0.00000000  7.50000000
   4.27305681  0.00000000  9.63652841
   6.40958522  6.40958522  9.63652841
   4.27431430  6.39923376 11.79175646
   6.40657872  0.00085650 11.77693685
   4.27527374  0.00327319 13.89176587
   6.41052774  6.41793498 13.89659015
   4.27305681  2.13652841  7.50000000
   6.40958522  4.27305681  7.50000000
   4.27305681  4.27305681  9.63652841
   6.40958522  2.13652841  9.63652841
   4.27394362  2.14574363 11.79049640
   6.40013094  4.27200568 11.78880949
   4.31915760  4.26391325 14.02520741
   6.40736865  2.12778951 13.90227820
   0.00000000  6.40958522  9.63652841
   2.13652841  0.00000000  9.63652841
   0.00000000  0.00000000  7.50000000
   2.13652841  6.40958522  7.50000000
   8.54405738  6.41630823 13.94646404
   2.13132179  8.54433925 13.94169641
   0.00045530  8.54549169 11.77323392
   2.13285557  6.40484504 11.77874045
   0.00000000  2.13652841  9.63652841
   2.13652841  4.27305681  9.63652841
   0.00000000  4.27305681  7.50000000
   2.13652841  2.13652841  7.50000000
   8.54415391  2.12984013 13.94589279
   2.09812397  4.27580953 13.99970280
   0.00285486  4.27371748 11.77959540
   2.13183770  2.14137482 11.78009705
   4.27305681  6.40958522  9.63652841
   6.40958522  0.00000000  9.63652841
   4.27305681  0.00000000  7.50000000
   6.40958522  6.40958522  7.50000000
   4.27056279  6.42558284 13.93949128
   6.41191132  8.54495087 13.94300099
   4.27086767  8.54343918 11.76883490
   6.41109223  6.40884646 11.77634932
   4.27305681  2.13652841  9.63652841
   6.40958522  4.27305681  9.63652841
   4.27305681  4.27305681  7.50000000
   6.40958522  2.13652841  7.50000000
   4.27185313  2.11779265 13.91729551
   6.42502656  4.27428039 13.95031072
   4.26821902  4.27431392 11.79514548
   6.41275566  2.13703575 11.77544546

--------------------------------------- Iteration      FINAL  ---------------------------------------

--------------------OUTCAR has been truncated-------------------------

[...]

--------------------OUTCAR has been truncated-------------------------

  DFT-D2 method for vdW energy calculation

  Parameters of vdW forcefield:
         C6(Jnm^6/mol)     R0(A)
   C        1.750          1.452
   O        0.700          1.342
   H        0.140          1.001
   Mg       0.630          1.243
   O        0.700          1.342

  vdW correction parametrized for the method        ìá{

  IVDW =   1
  VDW_RADIUS =    50.000 A
  VDW_S6 =     1.050
  VDW_SR =     1.000
  VDW_D =    20.000
  LVDW_EWALD = F

  Number of pair interactions contributing to vdW energy:  840662
  Edisp (eV):   -5.06049

 VOLUME and BASIS-vectors are now :
  energy-cutoff  :      600.00
  volume of cell :     1563.67
      direct lattice vectors                 reciprocal lattice vectors
     8.546113626  0.000000000  0.000000000     0.117012252  0.000000000  0.000000000
     0.000000000  8.546113626  0.000000000     0.000000000  0.117012252  0.000000000
     0.000000000  0.000000000 21.409585219     0.000000000  0.000000000  0.046708051

  length of vectors
     8.546113626  8.546113626 21.409585219     0.117012252  0.117012252  0.046708051

 FORCES acting on ions:
    Electron-Ion                     Ewald-Force                    Non-Local-Force
   -.176E+02 -.845E+02 -.963E+03   0.185E+02 0.888E+02 0.967E+03   -.959E+00 -.435E+01 -.400E+01
   -.133E+02 0.126E+03 -.152E+04   0.394E+02 -.156E+03 0.152E+04   -.235E+02 0.274E+02 0.522E+01
   -.578E+02 -.634E+00 -.231E+03   0.631E+02 -.954E-01 0.233E+03   -.530E+01 0.741E+00 -.211E+01
   0.808E+02 0.116E+01 -.244E+03   -.874E+02 -.739E+00 0.240E+03   0.674E+01 -.476E+00 0.338E+01
   0.220E+01 -.628E+02 -.225E+03   -.251E+01 0.679E+02 0.223E+03   0.320E+00 -.518E+01 0.226E+01
   0.380E+02 -.187E+01 -.232E+03   -.417E+02 0.128E+01 0.237E+03   0.373E+01 0.582E+00 -.420E+01
   0.493E-01 0.339E-01 0.203E+04   -.524E-01 -.392E-01 -.202E+04   0.204E-02 0.342E-02 -.632E+01
   0.121E+00 -.779E-01 0.203E+04   -.114E+00 0.791E-01 -.202E+04   -.406E-02 -.770E-03 -.630E+01
   0.273E+00 -.329E+00 0.711E+03   -.308E+00 0.344E+00 -.711E+03   0.229E-01 -.938E-02 0.355E+00
   0.271E+00 0.105E+00 0.711E+03   -.221E+00 -.201E+00 -.712E+03   -.315E-01 0.629E-01 0.496E+00
   0.158E+01 -.292E+01 -.597E+03   -.168E+01 0.286E+01 0.597E+03   0.860E-01 0.501E-01 -.108E+00
   0.451E+01 -.137E+01 -.593E+03   -.444E+01 0.142E+01 0.593E+03   -.639E-01 -.501E-01 -.528E-01
   0.498E+01 -.358E+01 -.193E+04   -.513E+01 0.363E+01 0.192E+04   0.136E+00 -.438E-01 0.551E+01
   0.315E+02 -.296E+02 -.187E+04   -.316E+02 0.304E+02 0.186E+04   0.158E+00 -.773E+00 0.573E+01
   0.414E-01 -.343E-01 0.203E+04   -.441E-01 0.396E-01 -.202E+04   0.170E-02 -.342E-02 -.633E+01
   0.116E+00 0.785E-01 0.203E+04   -.106E+00 -.795E-01 -.202E+04   -.650E-02 0.698E-03 -.635E+01
   0.275E+00 0.337E+00 0.710E+03   -.247E+00 -.351E+00 -.710E+03   -.189E-01 0.942E-02 0.423E+00
   0.301E+00 -.114E+00 0.711E+03   -.284E+00 0.213E+00 -.711E+03   -.942E-02 -.643E-01 0.492E+00
   0.127E+01 0.288E+01 -.600E+03   -.135E+01 -.283E+01 0.600E+03   0.639E-01 -.467E-01 -.175E+00
   0.517E+01 0.143E+01 -.597E+03   -.485E+01 -.148E+01 0.597E+03   -.285E+00 0.501E-01 0.671E+00
   0.125E+02 0.383E+01 -.191E+04   -.128E+02 -.388E+01 0.190E+04   0.248E+00 0.479E-01 0.542E+01
   0.276E+02 0.291E+02 -.189E+04   -.276E+02 -.300E+02 0.188E+04   -.254E-01 0.796E+00 0.568E+01
   -.507E-01 0.382E-01 0.203E+04   0.533E-01 -.473E-01 -.202E+04   -.165E-02 0.613E-02 -.636E+01
   -.121E+00 -.699E-01 0.203E+04   0.114E+00 0.707E-01 -.202E+04   0.428E-02 -.474E-03 -.633E+01
   -.299E+00 -.316E+00 0.712E+03   0.326E+00 0.291E+00 -.713E+03   -.179E-01 0.168E-01 0.223E+00
   -.285E+00 0.169E+00 0.711E+03   0.223E+00 -.197E+00 -.712E+03   0.386E-01 0.170E-01 0.413E+00
   -.156E+01 -.434E+01 -.589E+03   0.165E+01 0.401E+01 0.589E+03   -.790E-01 0.289E+00 -.595E+00
   -.445E+01 -.104E+01 -.598E+03   0.438E+01 0.108E+01 0.598E+03   0.600E-01 -.323E-01 -.840E-01
   -.591E+01 -.700E+01 -.191E+04   0.606E+01 0.722E+01 0.190E+04   -.134E+00 -.191E+00 0.557E+01
   -.280E+02 -.206E+02 -.190E+04   0.282E+02 0.209E+02 0.190E+04   -.115E+00 -.299E+00 0.561E+01
   -.423E-01 -.388E-01 0.203E+04   0.446E-01 0.475E-01 -.202E+04   -.143E-02 -.587E-02 -.635E+01
   -.116E+00 0.700E-01 0.203E+04   0.106E+00 -.708E-01 -.202E+04   0.673E-02 0.474E-03 -.634E+01
   -.310E+00 0.292E+00 0.710E+03   0.276E+00 -.276E+00 -.711E+03   0.229E-01 -.115E-01 0.547E+00
   -.312E+00 -.174E+00 0.711E+03   0.288E+00 0.202E+00 -.711E+03   0.137E-01 -.168E-01 0.376E+00
   -.126E+01 0.441E+01 -.588E+03   0.132E+01 -.409E+01 0.589E+03   -.576E-01 -.285E+00 -.104E+01
   -.592E+01 0.107E+01 -.593E+03   0.564E+01 -.111E+01 0.594E+03   0.250E+00 0.309E-01 -.329E+00
   -.312E+02 0.937E+01 -.180E+04   0.328E+02 -.962E+01 0.180E+04   -.152E+01 0.208E+00 0.254E+01
   -.245E+02 0.200E+02 -.192E+04   0.245E+02 -.203E+02 0.191E+04   0.359E-01 0.315E+00 0.561E+01
   0.756E-01 0.785E-01 0.533E+03   -.754E-01 -.802E-01 -.533E+03   0.207E-02 0.142E-02 -.409E-01
   0.491E+00 -.197E+00 0.534E+03   -.460E+00 0.192E+00 -.534E+03   -.387E-01 0.565E-02 0.357E-01
   0.379E-01 -.584E-01 0.152E+04   -.434E-01 0.608E-01 -.153E+04   0.672E-02 -.295E-02 0.316E+01
   0.815E-01 0.275E-01 0.152E+04   -.714E-01 -.387E-01 -.153E+04   -.125E-01 0.139E-01 0.316E+01
   0.758E+01 -.101E+02 -.146E+04   -.755E+01 0.991E+01 0.146E+04   -.205E-01 0.213E+00 -.447E+01
   0.115E+02 -.533E+01 -.146E+04   -.114E+02 0.537E+01 0.146E+04   -.105E+00 -.352E-01 -.449E+01
   0.127E+01 -.909E+00 -.446E+03   -.129E+01 0.922E+00 0.446E+03   0.250E-01 -.120E-01 0.238E+00
   0.343E+01 -.244E+01 -.435E+03   -.337E+01 0.251E+01 0.434E+03   -.492E-01 -.636E-01 0.709E+00
   0.352E-01 -.843E-01 0.533E+03   -.449E-01 0.862E-01 -.532E+03   0.137E-01 -.158E-02 -.797E-01
   0.511E+00 0.206E+00 0.533E+03   -.541E+00 -.203E+00 -.532E+03   0.334E-01 -.227E-02 -.156E+00
   0.369E-01 0.587E-01 0.152E+04   -.356E-01 -.611E-01 -.153E+04   -.160E-02 0.293E-02 0.315E+01
   0.850E-01 -.280E-01 0.152E+04   -.786E-01 0.390E-01 -.153E+04   -.789E-02 -.138E-01 0.315E+01
   0.635E+01 0.996E+01 -.146E+04   -.630E+01 -.973E+01 0.147E+04   -.472E-01 -.211E+00 -.445E+01
   0.431E+02 0.593E+01 -.140E+04   -.426E+02 -.598E+01 0.140E+04   -.486E+00 0.465E-01 -.240E+01
   0.948E+00 0.948E+00 -.442E+03   -.979E+00 -.960E+00 0.441E+03   0.293E-01 0.109E-01 0.410E+00
   0.350E+01 0.240E+01 -.440E+03   -.342E+01 -.247E+01 0.439E+03   -.716E-01 0.608E-01 0.489E+00
   -.103E+00 0.395E-01 0.533E+03   0.118E+00 0.266E-01 -.533E+03   -.190E-01 -.787E-01 -.193E+00
   -.503E+00 -.153E+00 0.533E+03   0.482E+00 0.156E+00 -.533E+03   0.266E-01 -.414E-02 -.435E-01
   -.378E-01 -.547E-01 0.152E+04   0.435E-01 0.536E-01 -.153E+04   -.705E-02 0.138E-02 0.315E+01
   -.805E-01 0.272E-01 0.152E+04   0.708E-01 -.315E-01 -.153E+04   0.120E-01 0.535E-02 0.315E+01
   -.107E+02 -.347E+02 -.140E+04   0.106E+02 0.341E+02 0.141E+04   0.790E-01 0.515E+00 -.431E+01
   -.109E+02 -.400E+01 -.146E+04   0.108E+02 0.402E+01 0.147E+04   0.990E-01 -.182E-01 -.444E+01
   -.131E+01 -.896E+00 -.437E+03   0.133E+01 0.932E+00 0.436E+03   -.218E-01 -.352E-01 0.312E+00
   -.344E+01 -.262E+01 -.440E+03   0.338E+01 0.263E+01 0.439E+03   0.543E-01 -.711E-02 0.392E+00
   -.537E-01 -.408E-01 0.532E+03   0.722E-01 -.154E-01 -.532E+03   -.241E-01 0.665E-01 -.165E+00
   -.508E+00 0.152E+00 0.532E+03   0.545E+00 -.155E+00 -.532E+03   -.422E-01 0.364E-02 -.116E+00
   -.371E-01 0.551E-01 0.152E+04   0.361E-01 -.537E-01 -.153E+04   0.130E-02 -.181E-02 0.314E+01
   -.844E-01 -.273E-01 0.152E+04   0.782E-01 0.315E-01 -.153E+04   0.758E-02 -.531E-02 0.315E+01
   -.882E+01 0.332E+02 -.142E+04   0.872E+01 -.327E+02 0.142E+04   0.927E-01 -.491E+00 -.463E+01
   -.338E+02 0.441E+01 -.143E+04   0.338E+02 -.443E+01 0.144E+04   0.676E-02 0.183E-01 -.433E+01
   -.359E+00 0.883E+00 -.447E+03   0.391E+00 -.922E+00 0.448E+03   -.281E-01 0.373E-01 -.857E+00
   -.349E+01 0.259E+01 -.442E+03   0.341E+01 -.260E+01 0.441E+03   0.755E-01 0.623E-02 0.280E+00
   0.236E+02 -.220E+02 0.154E+02   0.195E-12 -.675E-13 -.546E-11   -.206E+02 0.189E+02 -.140E+02

 POSITION                                       TOTAL-FORCE (eV/Angst)
      3.89338      5.22049     17.20291        -0.001244     -0.263070     -0.276325
      3.69998      4.19441     16.19510        -0.346496      0.503489      0.117478
      4.90130      5.07863     17.60455        -0.169085      0.029603     -0.062502
      2.80534      4.28834     15.77065         0.393425     -0.053870      0.070325
      3.81835      6.22691     16.76682         0.012345     -0.212717      0.025864
      3.16254      5.10622     18.01462         0.112653      0.004226     -0.148031
      0.00000      6.40959      7.50000        -0.000848     -0.001428      0.624708
      2.13653      0.00000      7.50000         0.001779      0.000351      0.620622
      0.00000      0.00000      9.63653        -0.010025      0.004154      0.009026
      2.13653      6.40959      9.63653         0.014517     -0.025357      0.012130
      8.54259      6.40794     11.77872        -0.002547     -0.002322     -0.008082
      2.13784      0.00167     11.77466        -0.000082      0.001916     -0.010443
      8.54109      0.00129     13.90011        -0.003732      0.000445     -0.273823
      2.13032      6.42944     13.87972         0.001751      0.004193     -0.259873
      0.00000      2.13653      7.50000        -0.000723      0.001467      0.627431
      2.13653      4.27306      7.50000         0.002540     -0.000273      0.631400
      0.00000      4.27306      9.63653         0.006709     -0.004179      0.037883
      2.13653      2.13653      9.63653         0.005901      0.026246      0.014469
      8.54368      2.13812     11.78077        -0.002265      0.002296     -0.006459
      2.14524      4.27166     11.79105         0.006731     -0.002369     -0.031004
      8.52891      4.27160     13.90145        -0.002120     -0.001623     -0.266840
      2.13606      2.11689     13.89511         0.009456     -0.003093     -0.255307
      4.27306      6.40959      7.50000         0.000728     -0.002215      0.633634
      6.40959      0.00000      7.50000        -0.001865      0.000242      0.627600
      4.27306      0.00000      9.63653         0.007472     -0.006550      0.038852
      6.40959      6.40959      9.63653        -0.018484     -0.007885      0.016477
      4.27431      6.39923     11.79176         0.001321     -0.008661     -0.005394
      6.40658      0.00086     11.77694         0.000912      0.001463     -0.010343
      4.27527      0.00327     13.89177         0.003626      0.007233     -0.269322
      6.41053      6.41793     13.89659         0.004053      0.000792     -0.265908
      4.27306      2.13653      7.50000         0.000676      0.002140      0.631076
      6.40959      4.27306      7.50000        -0.002597     -0.000211      0.628630
      4.27306      4.27306      9.63653        -0.008413      0.003783      0.043607
      6.40959      2.13653      9.63653        -0.008294      0.007926      0.021014
      4.27394      2.14574     11.79050         0.000658      0.008631      0.010274
      6.40013      4.27201     11.78881        -0.005216     -0.001241     -0.003205
      4.31916      4.26391     14.02521         0.032981     -0.010248     -0.127882
      6.40737      2.12779     13.90228        -0.002968     -0.001335     -0.267389
      0.00000      6.40959      9.63653         0.002624      0.000074      0.032540
      2.13653      0.00000      9.63653        -0.013577      0.001086      0.041484
      0.00000      0.00000      7.50000         0.002203     -0.000950     -0.271001
      2.13653      6.40959      7.50000        -0.004122      0.004650     -0.272682
      8.54406      6.41631     13.94646         0.001338      0.005696     -0.162458
      2.13132      8.54434     13.94170        -0.002073     -0.002222     -0.163491
      0.00046      8.54549     11.77323         0.003024     -0.001575      0.015663
      2.13286      6.40485     11.77874         0.000761     -0.001232      0.029267
      0.00000      2.13653      9.63653         0.006128     -0.000039      0.028224
      2.13653      4.27306      9.63653         0.007854     -0.000119      0.047066
      0.00000      4.27306      7.50000        -0.000555      0.000988     -0.273784
      2.13653      2.13653      7.50000        -0.002583     -0.004583     -0.273088
      8.54415      2.12984     13.94589         0.000401     -0.006017     -0.158142
      2.09812      4.27581     13.99970        -0.022590      0.007226     -0.042770
      0.00285      4.27372     11.77960         0.001933      0.000414      0.021914
      2.13184      2.14137     11.78010        -0.002074      0.000508      0.018770
      4.27306      6.40959      9.63653        -0.007447     -0.023537      0.038474
      6.40959      0.00000      9.63653         0.010031     -0.001909      0.023573
      4.27306      0.00000      7.50000        -0.002330      0.000504     -0.275256
      6.40959      6.40959      7.50000         0.003993      0.001813     -0.274568
      4.27056      6.42558     13.93949        -0.005969      0.012361     -0.108043
      6.41191      8.54495     13.94300         0.000622     -0.002276     -0.158996
      4.27087      8.54344     11.76883        -0.001547     -0.003612      0.019478
      6.41109      6.40885     11.77635         0.000066      0.000274      0.017731
      4.27306      2.13653      9.63653        -0.009036      0.019764      0.043958
      6.40959      4.27306      9.63653        -0.010780      0.001797      0.053249
      4.27306      4.27306      7.50000         0.000466     -0.000605     -0.278936
      6.40959      2.13653      7.50000         0.002495     -0.001736     -0.274853
      4.27185      2.11779     13.91730         0.001240     -0.014376     -0.155455
      6.42503      4.27428     13.95031         0.004299      0.002110     -0.165344
      4.26822      4.27431     11.79515        -0.000115      0.003529     -0.028318
      6.41276      2.13704     11.77545         0.002090      0.000042      0.011425
    total drift:                               -0.000917     -0.001635      0.003725

  FREE ENERGIE OF THE ION-ELECTRON SYSTEM (eV)
  free  energy   TOTEN  =      -473.31754974 eV

  energy  without entropy=     -473.31754974  energy(sigma->0) =     -473.31754974