 vasp.6.3.0 20Jan22 (build Apr  1 2022 16:44:48) complex
 executed on        HPECrayEX_GCC date 2023.03.02  02:10:51

 INCAR:
   SYSTEM = MgO-rocksalt
   ISMEAR = 0
   SIGMA = 0.05
   EDIFF = 1E-8
   ALGO = ALL
   ISTART = 0
   IBRION = 5
   POTIM = 0.01
   NFREE = 2
   ISYM = 0
   DIPOL = 0.5 0.5 0.5
   IDIPOL = 3
   LDIPOL = .TRUE.
   GGA = RE
   AGGAC = 0.0
   LUSE_VDW = .TRUE.
   LASPH = .TRUE.
   ENCUT = 600
   PREC = Accurate
   LASPH = .TRUE.
   LREAL = .FALSE.
   ISPIN = 1
   NELM = 200
   NELMIN = 8
   NCORE = 8
   KPAR = 1
   LWAVE = .FALSE.
   LCHARG = .FALSE.

 POTCAR:    PAW_PBE N 08Apr2002
 POTCAR:    PAW_PBE O 08Apr2002
 POTCAR:    PAW_PBE Mg_pv 13Apr2007
 POTCAR:    PAW_PBE O 08Apr2002
|               ----> ADVICE to this user running VASP <----                  |
|     You have switched on vdW-DFT.                                           |
|     This routine was written and supplied by Jiri Klimes. We recommend      |
|     that you carefully read and cite the following publications:            |
|       J. Klimes, D.R. Bowler, A. Michelides                                 |
|          J. Phys.: Cond Matt. 22 022201 (2010)                              |
|       J. Klimes, D.R. Bowler, A. Michelides                                 |
|          Phys. Rev. B. 83, 195131 (2011)                                    |
|     and references therein.                                                 |

   TITEL  = PAW_PBE N 08Apr2002
   POMASS =   14.001; ZVAL   =    5.000    mass and valenz
   ENMAX  =  400.000; ENMIN  =  300.000 eV

[...]

   TITEL  = PAW_PBE Mg_pv 13Apr2007
   POMASS =   24.305; ZVAL   =    8.000    mass and valenz
   ENMAX  =  403.929; ENMIN  =  302.947 eV

   TITEL  = PAW_PBE O 08Apr2002
   POMASS =   16.000; ZVAL   =    6.000    mass and valenz
   ENMAX  =  400.000; ENMIN  =  300.000 eV

  PAW_PBE N 08Apr2002                   :
  PAW_PBE O 08Apr2002                   :
  PAW_PBE Mg_pv 13Apr2007               :
  PAW_PBE O 08Apr2002                   :

 POSCAR:  N  O Mg  O
  positions in direct lattice
 exchange correlation table for  LEXCH =       40
   RHO(1)=    0.500       N(1)  =     2000
   RHO(2)=  100.500       N(2)  =     4000

 ion  position               nearest neighbor table
   1  0.541  0.550  0.804-   2 1.14
   2  0.635  0.641  0.792-   1 1.14   3 1.21
   3  0.733  0.737  0.778-   2 1.21
   4  0.000  0.750  0.350-  36 2.14  38 2.14  39 2.14  46 2.14  55 2.14
   5  0.250  0.000  0.350-  37 2.14  38 2.14  39 2.14  47 2.14  54 2.14
   6  0.000  0.000  0.450-  38 2.14  37 2.14  36 2.14  44 2.14  53 2.14  42 2.14
   7  0.250  0.750  0.450-  39 2.14  37 2.14  36 2.14  45 2.14  52 2.14  43 2.14
   8  1.000  0.750  0.550-  59 2.14  42 2.14  50 2.14  43 2.14  36 2.15  40 2.16
   9  0.250  1.000  0.550-  42 2.14  43 2.14  58 2.14  51 2.14  37 2.15  41 2.17
  10  0.000  0.000  0.650-  42 2.13  48 2.14  41 2.14  57 2.14  40 2.14
  11  0.250  0.750  0.649-  43 2.13  40 2.13  56 2.14  41 2.14  49 2.14
  12  0.000  0.250  0.350-  44 2.14  38 2.14  46 2.14  47 2.14  63 2.14
  13  0.250  0.500  0.350-  45 2.14  39 2.14  46 2.14  47 2.14  62 2.14
  14  0.000  0.500  0.450-  46 2.14  44 2.14  45 2.14  36 2.14  61 2.14  50 2.14
  15  0.250  0.250  0.450-  47 2.14  44 2.14  45 2.14  37 2.14  60 2.14  51 2.14
  16  0.000  0.250  0.550-  42 2.14  67 2.14  50 2.14  51 2.14  44 2.15  48 2.17
  17  0.250  0.500  0.550-  50 2.14  43 2.14  51 2.14  66 2.14  45 2.15  49 2.16
  18  0.000  0.500  0.650-  50 2.13  49 2.13  48 2.14  40 2.14  65 2.14
  19  0.250  0.250  0.650-  51 2.13  48 2.14  41 2.14  49 2.14  64 2.14
  20  0.500  0.750  0.350-  52 2.14  39 2.14  54 2.14  55 2.14  62 2.14
  21  0.750  0.000  0.350-  53 2.14  38 2.14  54 2.14  55 2.14  63 2.14
  22  0.500  0.000  0.450-  54 2.14  52 2.14  53 2.14  37 2.14  60 2.14  58 2.14
  23  0.750  0.750  0.450-  55 2.14  52 2.14  53 2.14  36 2.14  61 2.14  59 2.15
  24  0.500  0.750  0.551-  59 2.13  58 2.13  66 2.14  43 2.14  52 2.15  56 2.17
  25  0.750  1.000  0.550-  59 2.14  42 2.14  58 2.14  67 2.14  53 2.15  57 2.16
  26  0.500  0.000  0.649-  58 2.13  64 2.13  41 2.14  57 2.14  56 2.14
  27  0.751  0.751  0.651-  40 2.13  57 2.13  65 2.15  56 2.15  59 2.15
  28  0.500  0.250  0.350-  60 2.14  54 2.14  47 2.14  62 2.14  63 2.14
  29  0.750  0.500  0.350-  61 2.14  55 2.14  46 2.14  62 2.14  63 2.14
  30  0.500  0.500  0.450-  62 2.14  52 2.14  60 2.14  61 2.14  45 2.14  66 2.14
  31  0.750  0.250  0.450-  63 2.14  53 2.14  60 2.14  61 2.14  44 2.14  67 2.14
  32  0.500  0.250  0.550-  58 2.14  67 2.14  51 2.14  66 2.14  60 2.15  64 2.16
  33  0.750  0.500  0.551-  59 2.13  50 2.13  66 2.14  67 2.14  61 2.15  65 2.17
  34  0.499  0.499  0.649-  66 2.12  64 2.13  49 2.13  65 2.14  56 2.14
  35  0.750  0.250  0.649-  67 2.13  57 2.13  65 2.14  48 2.14  64 2.14
  36  0.000  0.750  0.450-   4 2.14   6 2.14   7 2.14  14 2.14  23 2.14   8 2.15
  37  0.250  0.000  0.450-   5 2.14   6 2.14   7 2.14  15 2.14  22 2.14   9 2.15
  38  0.000  0.000  0.350-   6 2.14   5 2.14   4 2.14  12 2.14  21 2.14
  39  0.250  0.750  0.350-   7 2.14   5 2.14   4 2.14  13 2.14  20 2.14
  40  0.001  0.750  0.651-  11 2.13  27 2.13  18 2.14  10 2.14   8 2.16
  41  0.250  0.000  0.652-  19 2.14  10 2.14  26 2.14  11 2.14   9 2.17
  42  0.000  0.000  0.550-  10 2.13   9 2.14  16 2.14  25 2.14   8 2.14   6 2.14
  43  0.250  0.750  0.550-  11 2.13   9 2.14  17 2.14  24 2.14   8 2.14   7 2.14
  44  0.000  0.250  0.450-  12 2.14   6 2.14  14 2.14  15 2.14  31 2.14  16 2.15
  45  0.250  0.500  0.450-  13 2.14   7 2.14  14 2.14  15 2.14  30 2.14  17 2.15
  46  0.000  0.500  0.350-  14 2.14  12 2.14  13 2.14   4 2.14  29 2.14
  47  0.250  0.250  0.350-  15 2.14  12 2.14  13 2.14   5 2.14  28 2.14
  48  0.000  0.250  0.652-  19 2.14  10 2.14  18 2.14  35 2.14  16 2.17
  49  0.250  0.500  0.651-  34 2.13  18 2.13  19 2.14  11 2.14  17 2.16
  50  1.000  0.500  0.550-  18 2.13  33 2.13  17 2.14  16 2.14   8 2.14  14 2.14
  51  0.250  0.250  0.550-  19 2.13   9 2.14  16 2.14  17 2.14  32 2.14  15 2.14
  52  0.500  0.750  0.450-  20 2.14   7 2.14  22 2.14  23 2.14  30 2.14  24 2.15
  53  0.750  0.000  0.450-  21 2.14   6 2.14  22 2.14  23 2.14  31 2.14  25 2.15
  54  0.500  0.000  0.350-  22 2.14  20 2.14  21 2.14   5 2.14  28 2.14
  55  0.750  0.750  0.350-  23 2.14  20 2.14  21 2.14   4 2.14  29 2.14
  56  0.500  0.750  0.652-  11 2.14  26 2.14  34 2.14  27 2.15  24 2.17
  57  0.750  0.001  0.651-  35 2.13  27 2.13  26 2.14  10 2.14  25 2.16
  58  0.500  1.000  0.550-  26 2.13  24 2.13  32 2.14   9 2.14  25 2.14  22 2.14
  59  0.750  0.750  0.550-  33 2.13  24 2.13   8 2.14  25 2.14  23 2.15  27 2.15
  60  0.500  0.250  0.450-  28 2.14  22 2.14  15 2.14  30 2.14  31 2.14  32 2.15
  61  0.750  0.500  0.450-  29 2.14  23 2.14  14 2.14  30 2.14  31 2.14  33 2.15
  62  0.500  0.500  0.350-  30 2.14  20 2.14  28 2.14  29 2.14  13 2.14
  63  0.750  0.250  0.350-  31 2.14  21 2.14  28 2.14  29 2.14  12 2.14
  64  0.500  0.250  0.651-  34 2.13  26 2.13  19 2.14  35 2.14  32 2.16
  65  0.750  0.500  0.652-  35 2.14  18 2.14  34 2.14  27 2.15  33 2.17
  66  0.500  0.500  0.550-  34 2.12  24 2.14  33 2.14  32 2.14  17 2.14  30 2.14
  67  0.750  0.250  0.550-  35 2.13  16 2.14  32 2.14  33 2.14  25 2.14  31 2.14

IMPORTANT INFORMATION: All symmetrisations will be switched off!
NOSYMM: (Re-)initialisation of all symmetry stuff for point group C_1.

                                     Primitive cell

  volume of cell :    1563.6717

  direct lattice vectors                    reciprocal lattice vectors
     8.546113626  0.000000000  0.000000000     0.117012252  0.000000000  0.000000000
     0.000000000  8.546113626  0.000000000     0.000000000  0.117012252  0.000000000
     0.000000000  0.000000000 21.409585219     0.000000000  0.000000000  0.046708051

  length of vectors
     8.546113626  8.546113626 21.409585219     0.117012252  0.117012252  0.046708051

  position of ions in fractional coordinates (direct lattice)
     0.541442875  0.549624828  0.804329537
     0.634581797  0.640567961  0.792121278
     0.732864434  0.736542046  0.778431156
     0.000000000  0.750000000  0.350310383
     0.250000000  0.000000000  0.350310383
     0.000000000  0.000000000  0.450103461
     0.250000000  0.750000000  0.450103461
     0.999875424  0.750079784  0.550486685
     0.250025802  0.999965419  0.550350887
     0.000234091  0.000173349  0.649549771
     0.249879741  0.749978123  0.649452443
     0.000000000  0.250000000  0.350310383
     0.250000000  0.500000000  0.350310383
     0.000000000  0.500000000  0.450103461
     0.250000000  0.250000000  0.450103461
     0.000009634  0.249986660  0.550353614
     0.249812239  0.500009577  0.550298447
     0.000252109  0.500022089  0.649505022
     0.249970671  0.249907454  0.649591298
     0.500000000  0.750000000  0.350310383
     0.750000000  0.000000000  0.350310383
     0.500000000  0.000000000  0.450103461
     0.750000000  0.750000000  0.450103461
     0.500344427  0.750052956  0.550556646
     0.750130143  0.999837444  0.550484101
     0.500093739  0.000204507  0.649474628
     0.750950648  0.750890143  0.650681374
     0.500000000  0.250000000  0.350310383
     0.750000000  0.500000000  0.350310383
     0.500000000  0.500000000  0.450103461
     0.750000000  0.250000000  0.450103461
     0.500057273  0.249779870  0.550294848
     0.750103260  0.500304137  0.550556789
     0.499135362  0.499061321  0.648969043
     0.750053397  0.249823434  0.649460311
     0.000000000  0.750000000  0.450103461
     0.250000000  0.000000000  0.450103461
     0.000000000  0.000000000  0.350310383
     0.250000000  0.750000000  0.350310383
     0.000606822  0.750089394  0.651226611
     0.250149020  0.000078091  0.651507394
     0.000163850  0.000114977  0.550097299
     0.250215496  0.750010878  0.550096809
     0.000000000  0.250000000  0.450103461
     0.250000000  0.500000000  0.450103461
     0.000000000  0.500000000  0.350310383
     0.250000000  0.250000000  0.350310383
     0.000144524  0.250082599  0.651506146
     0.249923816  0.499826470  0.651244455
     0.999899317  0.499951104  0.550145051
     0.250011921  0.249965276  0.550086336
     0.500000000  0.750000000  0.450103461
     0.750000000  0.000000000  0.450103461
     0.500000000  0.000000000  0.350310383
     0.750000000  0.750000000  0.350310383
     0.499761832  0.749647309  0.651938670
     0.750152449  0.000562198  0.651199286
     0.499989593  0.999868864  0.550137754
     0.749977783  0.749930926  0.550385705
     0.500000000  0.250000000  0.450103461
     0.750000000  0.500000000  0.450103461
     0.500000000  0.500000000  0.350310383
     0.750000000  0.250000000  0.350310383
     0.499891965  0.249859354  0.651258053
     0.749686141  0.499727411  0.651960473
     0.500035043  0.499986437  0.550103177
     0.750052503  0.250189762  0.550098675

  ion indices of the primitive-cell ions
   primitive index   ion index
                 1           1
                 2           2
                 3           3
                 4           4
                 5           5
                 6           6
                 7           7
                 8           8
[...]
      0.00200      0.00148     13.90659        -0.003755     -0.003273      0.000998
      2.13550      6.40940     13.90451        -0.001764     -0.000101      0.000863
      0.00000      2.13653      7.50000        -0.000343     -0.000004      0.323927
      2.13653      4.27306      7.50000        -0.000150      0.000377      0.321609
      0.00000      4.27306      9.63653        -0.009788      0.001183      0.022317
      2.13653      2.13653      9.63653        -0.003000     -0.003593      0.019507
      0.00008      2.13641     11.78284        -0.001460      0.000025      0.003515
      2.13492      4.27314     11.78166        -0.000103      0.000521      0.002168
      0.00215      4.27325     13.90563        -0.002748      0.002112     -0.000604
      2.13628      2.13574     13.90748        -0.000387      0.000424     -0.000797
      4.27306      6.40959      7.50000         0.000681      0.000021      0.325553
      6.40959      0.00000      7.50000         0.000062     -0.000549      0.323364
      4.27306      0.00000      9.63653         0.001592     -0.010219      0.022114
      6.40959      6.40959      9.63653        -0.002494     -0.003203      0.032898
      4.27600      6.41004     11.78719        -0.000929     -0.001054      0.001355
      6.41070      8.54472     11.78564        -0.000180      0.000797      0.003040
      4.27386      0.00175     13.90498         0.001427     -0.002331     -0.000636
      6.41771      6.41719     13.93082         0.000564      0.000961      0.004979
      4.27306      2.13653      7.50000         0.000393     -0.000157      0.321637
      6.40959      4.27306      7.50000         0.000059      0.000670      0.325604
      4.27306      4.27306      9.63653         0.007495      0.006898      0.022322
      6.40959      2.13653      9.63653         0.003990      0.005927      0.028588
      4.27355      2.13465     11.78158         0.000128      0.000185      0.002047
      6.41047      4.27566     11.78719        -0.001559     -0.000567      0.001523
      4.26567      4.26503     13.89416        -0.000835     -0.000181     -0.001417
      6.41004      2.13502     13.90468        -0.000538     -0.000977      0.000946
      0.00000      6.40959      9.63653        -0.002404     -0.000665      0.056967
      2.13653      0.00000      9.63653         0.002583      0.001495      0.045743
      0.00000      0.00000      7.50000         0.000287      0.000283     -0.396907
      2.13653      6.40959      7.50000        -0.000470     -0.000673     -0.396805
      0.00519      6.41035     13.94249         0.000628     -0.001294     -0.002238
      2.13780      0.00067     13.94850         0.001009     -0.001224     -0.004032
      0.00140      0.00098     11.77736        -0.001400     -0.000995     -0.002028
      2.13837      6.40968     11.77734        -0.000516     -0.001296     -0.002890
      0.00000      2.13653      9.63653         0.002204      0.001921      0.046071
      2.13653      4.27306      9.63653        -0.001791     -0.001876      0.050778
      0.00000      4.27306      7.50000         0.001466     -0.000244     -0.396852
      2.13653      2.13653      7.50000         0.000706      0.000664     -0.395806
      0.00124      2.13723     13.94848        -0.001678      0.001277     -0.003974
      2.13588      4.27157     13.94287         0.001559      0.000621      0.000832
      8.54525      4.27264     11.77838        -0.000715      0.001142     -0.003379
      2.13663      2.13623     11.77712        -0.000039      0.000301     -0.003491
      4.27306      6.40959      9.63653         0.006606     -0.001311      0.054051
      6.40959      0.00000      9.63653         0.000176     -0.002941      0.057089
      4.27306      0.00000      7.50000        -0.000167      0.001418     -0.396834
      6.40959      6.40959      7.50000         0.000679      0.000699     -0.398289
      4.27102      6.40657     13.95774        -0.003589     -0.002530     -0.003303
      6.41089      0.00480     13.94191        -0.001963      0.001186     -0.001738
      4.27297      8.54499     11.77822         0.000824     -0.000498     -0.003452
      6.40940      6.40899     11.78353        -0.000429     -0.000028     -0.004983
      4.27306      2.13653      9.63653        -0.001059     -0.002341      0.050476
      6.40959      4.27306      9.63653        -0.000537      0.005963      0.053804
      4.27306      4.27306      7.50000        -0.001579     -0.001603     -0.396687
      6.40959      2.13653      7.50000        -0.000632     -0.000551     -0.396791
      4.27213      2.13533     13.94316         0.000127      0.002048      0.000555
      6.40690      4.27073     13.95820        -0.003560     -0.002893     -0.003585
      4.27336      4.27294     11.77748        -0.000324      0.000148     -0.003535
      6.41003      2.13815     11.77738        -0.001615     -0.000362     -0.002958
    total drift:                               -0.000528      0.000057      0.019479

  FREE ENERGIE OF THE ION-ELECTRON SYSTEM (eV)
  free  energy   TOTEN  =      -242.84549390 eV

  energy  without entropy=     -242.84549390  energy(sigma->0) =     -242.84549390

 d Force = 0.2922123E-04[-0.132E-02, 0.137E-02]  d Energy = 0.4396262E-04-0.147E-04
 d Force =-0.2776361E+02[-0.278E+02,-0.277E+02]  d Ewald  =-0.2776332E+02-0.293E-03

 Finite differences progress:
  Degree of freedom:   9/  9
  Displacement:        2/  2
  Total:              18/ 18

 SECOND DERIVATIVES (NOT SYMMETRIZED)
               1X          1Y          1Z          2X          2Y          2Z          3X          3Y          3Z
  1X   -56.710450  -52.723486   17.925828   55.359502   48.912687  -16.823029    1.483518    3.891089   -1.320119
  1Y   -52.709863  -54.190645   17.498804   48.897277   53.010217  -16.408290    3.895628    1.293970   -1.298981
  1Z    17.907708   17.483883   -8.575851  -16.603812  -16.199030   10.564644   -1.289899   -1.267946   -1.975649
  2X    55.338666   48.909288  -16.622748  -88.630768  -76.538282   26.821028   32.892136   27.273572   -9.904105
  2Y    48.919941   53.009682  -16.220752  -76.538557  -85.010860   26.158714   27.259995   31.592093   -9.651089
  2Z   -16.814257  -16.403322   10.556885   26.792747   26.136795  -19.499538   -9.715106   -9.472877    8.537511
  3X     1.481010    3.896358   -1.288682   32.888616   27.253919   -9.725874  -34.415875  -31.040156   10.935020
  3Y     3.891640    1.297532   -1.271282   27.263952   31.592257   -9.476627  -31.037796  -32.885989   10.669034
  3Z    -1.319279   -1.298891   -1.972630   -9.890468   -9.636653    8.556170   10.918695   10.658570   -6.727807

 Eigenvectors and eigenvalues of the dynamical matrix

   1 f  =   68.061170 THz   427.640946 2PiTHz 2270.276271 cm-1   281.478257 meV
             X         Y         Z           dx          dy          dz
      4.627232  4.697156 17.220362     0.393362    0.384028   -0.130354
      5.423208  5.474367 16.958988    -0.554007   -0.540990    0.188468
      6.263143  6.294572 16.665888     0.148277    0.144776   -0.052310
      0.000000  6.409585  7.500000            0           0           0
      2.136528  0.000000  7.500000            0           0           0
      0.000000  0.000000  9.636528            0           0           0
      2.136528  6.409585  9.636528            0           0           0
      8.545049  6.410267 11.785692            0           0           0
      2.136749  8.545818 11.782784            0           0           0
      0.002001  0.001481 13.906591            0           0           0
      2.135501  6.409398 13.904507            0           0           0
      0.000000  2.136528  7.500000            0           0           0
      2.136528  4.273057  7.500000            0           0           0
      0.000000  4.273057  9.636528            0           0           0
      2.136528  2.136528  9.636528            0           0           0
      0.000082  2.136414 11.782843            0           0           0
      2.134924  4.273139 11.781661            0           0           0
      0.002155  4.273246 13.905633            0           0           0
      2.136278  2.135738 13.907480            0           0           0
      4.273057  6.409585  7.500000            0           0           0
      6.409585  0.000000  7.500000            0           0           0
      4.273057  0.000000  9.636528            0           0           0
      6.409585  6.409585  9.636528            0           0           0
      4.276000  6.410038 11.787189            0           0           0
      6.410697  8.544724 11.785636            0           0           0
      4.273858  0.001748 13.904982            0           0           0
      6.417710  6.417192 13.930818            0           0           0
      4.273057  2.136528  7.500000            0           0           0
      6.409585  4.273057  7.500000            0           0           0
      4.273057  4.273057  9.636528            0           0           0
      6.409585  2.136528  9.636528            0           0           0
      4.273546  2.134647 11.781584            0           0           0
      6.410468  4.275656 11.787192            0           0           0
      4.265668  4.265035 13.894158            0           0           0
      6.410042  2.135019 13.904676            0           0           0
      0.000000  6.409585  9.636528            0           0           0
      2.136528  0.000000  9.636528            0           0           0
      0.000000  0.000000  7.500000            0           0           0
      2.136528  6.409585  7.500000            0           0           0
      0.005186  6.410349 13.942492            0           0           0
      2.137802  0.000667 13.948503            0           0           0
      0.001400  0.000983 11.777355            0           0           0
      2.138370  6.409678 11.777345            0           0           0
      0.000000  2.136528  9.636528            0           0           0
      2.136528  4.273057  9.636528            0           0           0
      0.000000  4.273057  7.500000            0           0           0
      2.136528  2.136528  7.500000            0           0           0
      0.001235  2.137234 13.948476            0           0           0
      2.135877  4.271574 13.942874            0           0           0
      8.545253  4.272639 11.778377            0           0           0
      2.136630  2.136232 11.777120            0           0           0
      4.273057  6.409585  9.636528            0           0           0
      6.409585  0.000000  9.636528            0           0           0
      4.273057  0.000000  7.500000            0           0           0
      6.409585  6.409585  7.500000            0           0           0
      4.271021  6.406571 13.957737            0           0           0
      6.410888  0.004805 13.941907            0           0           0
      4.272968  8.544993 11.778221            0           0           0
      6.409395  6.408995 11.783530            0           0           0
      4.273057  2.136528  9.636528            0           0           0
      6.409585  4.273057  9.636528            0           0           0
      4.273057  4.273057  7.500000            0           0           0
      6.409585  2.136528  7.500000            0           0           0
      4.272134  2.135326 13.943165            0           0           0
      6.406903  4.270727 13.958203            0           0           0
      4.273356  4.272941 11.777481            0           0           0
      6.410034  2.138150 11.777384            0           0           0

[...]

   9 f  =    0.467198 THz     2.935490 2PiTHz   15.584039 cm-1     1.932174 meV
             X         Y         Z           dx          dy          dz
      4.627232  4.697156 17.220362    -0.608532    0.558000   -0.019276
      5.423208  5.474367 16.958988    -0.391516    0.343049    0.002012
      6.263143  6.294572 16.665888    -0.174737    0.125502    0.026435
      0.000000  6.409585  7.500000            0           0           0
      2.136528  0.000000  7.500000            0           0           0
      0.000000  0.000000  9.636528            0           0           0
      2.136528  6.409585  9.636528            0           0           0
      8.545049  6.410267 11.785692            0           0           0
      2.136749  8.545818 11.782784            0           0           0
      0.002001  0.001481 13.906591            0           0           0
      2.135501  6.409398 13.904507            0           0           0
      0.000000  2.136528  7.500000            0           0           0
      2.136528  4.273057  7.500000            0           0           0
      0.000000  4.273057  9.636528            0           0           0
      2.136528  2.136528  9.636528            0           0           0
      0.000082  2.136414 11.782843            0           0           0
      2.134924  4.273139 11.781661            0           0           0
      0.002155  4.273246 13.905633            0           0           0
      2.136278  2.135738 13.907480            0           0           0
      4.273057  6.409585  7.500000            0           0           0
      6.409585  0.000000  7.500000            0           0           0
      4.273057  0.000000  9.636528            0           0           0
      6.409585  6.409585  9.636528            0           0           0
      4.276000  6.410038 11.787189            0           0           0
      6.410697  8.544724 11.785636            0           0           0
      4.273858  0.001748 13.904982            0           0           0
      6.417710  6.417192 13.930818            0           0           0
      4.273057  2.136528  7.500000            0           0           0
      6.409585  4.273057  7.500000            0           0           0
      4.273057  4.273057  9.636528            0           0           0
      6.409585  2.136528  9.636528            0           0           0
      4.273546  2.134647 11.781584            0           0           0
      6.410468  4.275656 11.787192            0           0           0
      4.265668  4.265035 13.894158            0           0           0
      6.410042  2.135019 13.904676            0           0           0
      0.000000  6.409585  9.636528            0           0           0
      2.136528  0.000000  9.636528            0           0           0
      0.000000  0.000000  7.500000            0           0           0
      2.136528  6.409585  7.500000            0           0           0
      0.005186  6.410349 13.942492            0           0           0
      2.137802  0.000667 13.948503            0           0           0
      0.001400  0.000983 11.777355            0           0           0
      2.138370  6.409678 11.777345            0           0           0
      0.000000  2.136528  9.636528            0           0           0
      2.136528  4.273057  9.636528            0           0           0
      0.000000  4.273057  7.500000            0           0           0
      2.136528  2.136528  7.500000            0           0           0
      0.001235  2.137234 13.948476            0           0           0
      2.135877  4.271574 13.942874            0           0           0
      8.545253  4.272639 11.778377            0           0           0
      2.136630  2.136232 11.777120            0           0           0
      4.273057  6.409585  9.636528            0           0           0
      6.409585  0.000000  9.636528            0           0           0
      4.273057  0.000000  7.500000            0           0           0
      6.409585  6.409585  7.500000            0           0           0
      4.271021  6.406571 13.957737            0           0           0
      6.410888  0.004805 13.941907            0           0           0
      4.272968  8.544993 11.778221            0           0           0
      6.409395  6.408995 11.783530            0           0           0
      4.273057  2.136528  9.636528            0           0           0
      6.409585  4.273057  9.636528            0           0           0
      4.273057  4.273057  7.500000            0           0           0
      6.409585  2.136528  7.500000            0           0           0
      4.272134  2.135326 13.943165            0           0           0
      6.406903  4.270727 13.958203            0           0           0
      4.273356  4.272941 11.777481            0           0           0
      6.410034  2.138150 11.777384            0           0           0

 Finite differences POTIM=   1.0000000000000000E-002