 vasp.6.3.0 20Jan22 (build Apr  1 2022 16:44:48) complex
 executed on        HPECrayEX_GCC date 2023.04.12  04:40:10

 INCAR:
   SYSTEM = TiO2
   ISMEAR = 0
   SIGMA = 0.05
   EDIFF = 1E-7
   ALGO = ALL
   ISTART = 0
   IBRION = 2
   NSW = 1000
   ISYM = 0
   ISIF = 2
   EDIFFG = -0.01
   DIPOL = 0.5 0.5 0.5
   IDIPOL = 3
   LDIPOL = .TRUE.
   GGA = RE
   IVDW = 13
   VDW_S8 = 1.7468
   VDW_A1 = 0.5363
   VDW_A2 = 3.0726
   ENCUT = 600
   PREC = Accurate
   LASPH = .TRUE.
   LREAL = .FALSE.
   ISPIN = 1
   NELM = 200
   NELMIN = 8
   NCORE = 8
   KPAR = 1
   LWAVE = .FALSE.
   LCHARG = .FALSE.

 POTCAR:    PAW_PBE H 15Jun2001
 POTCAR:    PAW_PBE O 08Apr2002
 POTCAR:    PAW_PBE Ti_pv 07Sep2000
 POTCAR:    PAW_PBE O 08Apr2002
 POTCAR:    PAW_PBE H 15Jun2001
   VRHFIN =H: ultrasoft test

   TITEL  = PAW_PBE H 15Jun2001
   POMASS =    1.000; ZVAL   =    1.000    mass and valenz
   ENMAX  =  250.000; ENMIN  =  200.000 eV

   TITEL  = PAW_PBE O 08Apr2002
   POMASS =   16.000; ZVAL   =    6.000    mass and valenz
   ENMAX  =  400.000; ENMIN  =  300.000 eV

   TITEL  = PAW_PBE Ti_pv 07Sep2000
   POMASS =   47.880; ZVAL   =   10.000    mass and valenz
   ENMAX  =  222.335; ENMIN  =  166.751 eV

   TITEL  = PAW_PBE O 08Apr2002
   POMASS =   16.000; ZVAL   =    6.000    mass and valenz
   ENMAX  =  400.000; ENMIN  =  300.000 eV

  PAW_PBE H 15Jun2001                   :
  PAW_PBE O 08Apr2002                   :
  PAW_PBE Ti_pv 07Sep2000               :
  PAW_PBE O 08Apr2002                   :

 POSCAR:  H  O Ti  O
  positions in direct lattice
|           W    W    AA    RRRRR   N    N  II  N    N   GGGG   !!!           |
|           W    W   A  A   R    R  NN   N  II  NN   N  G    G  !!!           |
|           W    W  A    A  R    R  N N  N  II  N N  N  G       !!!           |
|           W WW W  AAAAAA  RRRRR   N  N N  II  N  N N  G  GGG   !            |
|           WW  WW  A    A  R   R   N   NN  II  N   NN  G    G                |
|           W    W  A    A  R    R  N    N  II  N    N   GGGG   !!!           |
|     Specifying the vdW parameters                                           |
|     VDW_S8 = 1.747                                                          |
|     VDW_A1 = 0.536                                                          |
|     VDW_A2 = 3.073                                                          |
|     in the INCAR file will overwrite the defaults for revpbe. Please        |
|     make sure that is what you intended.                                    |

 ion  position               nearest neighbor table
   1  0.510  0.553  0.798-   3 0.97
   2  0.613  0.498  0.779-   3 1.00
   3  0.536  0.493  0.779-   1 0.97   2 1.00  83 2.23
   4  0.750  0.625  0.287-  85 1.95 145 1.95 144 1.95  84 1.95  87 1.98 166 1.98  14 2.96  34 2.96

   5  0.000  0.750  0.287-  86 1.95  87 1.95 106 1.95 107 1.95  88 1.98  35 2.96  15 2.96
   6  0.000  0.625  0.394-  88 1.95 148 1.95  89 1.95 149 1.95  90 1.98  91 1.98  16 2.96  36 2.96

[...]

  84  0.750  0.750  0.245-   4 1.95  14 1.95
  85  0.750  0.750  0.329-   4 1.95  14 1.95   7 1.98
  86  0.098  0.625  0.287-   5 1.95  35 1.95  44 1.98
  87  0.902  0.625  0.287-   5 1.95  35 1.95   4 1.98
  88  0.000  0.750  0.352-   6 1.95  16 1.95   5 1.98
  89  0.000  0.750  0.435-   6 1.95  16 1.95   9 1.98
  90  0.848  0.625  0.394-   7 1.95  37 1.95   6 1.98
  91  0.152  0.625  0.394-  47 1.95  77 1.95   6 1.98
  92  0.750  0.750  0.458-   8 1.95  18 1.95   7 1.98
  93  0.750  0.750  0.542-   8 1.95  18 1.95  11 2.11
  94  0.098  0.625  0.500-   9 1.95  39 1.95  48 1.98
  95  0.902  0.625  0.500-   9 1.95  39 1.95   8 1.98
  96  1.000  0.750  0.565-  10 1.89  20 1.89   9 2.00
  97  0.000  0.750  0.649-  13 1.81  20 2.02  10 2.02
  98  0.850  0.625  0.607-  10 1.95  41 1.97  11 1.97
  99  0.150  0.625  0.607-  10 1.95  51 1.97  81 1.97
 100  0.750  0.750  0.672-  11 1.86  22 2.10  12 2.10
 101  0.750  0.750  0.756-  12 1.83  22 1.83
 102  0.094  0.625  0.719-  13 1.95  43 1.95  52 2.03
 103  0.906  0.625  0.719-  13 1.95  43 1.95  12 2.03
 104  0.750  0.000  0.245-  14 1.95  24 1.95
 105  0.750  0.000  0.329-  14 1.95  24 1.95  17 1.98
 106  0.098  0.875  0.287-   5 1.95  15 1.95  54 1.98
 107  0.902  0.875  0.287-   5 1.95  15 1.95  14 1.98
 108  0.000  0.000  0.352-  16 1.95  26 1.95  15 1.98
 109  0.000  0.000  0.435-  16 1.95  26 1.95  19 1.98
 110  0.848  0.875  0.394-   7 1.95  17 1.95  16 1.98
 111  0.152  0.875  0.394-  47 1.95  57 1.95  16 1.98
 112  0.750  0.000  0.458-  18 1.95  28 1.95  17 1.98
 113  0.750  0.000  0.542-  18 1.95  28 1.95  21 2.11
 114  0.098  0.875  0.500-   9 1.95  19 1.95  58 1.98
 115  0.902  0.875  0.500-   9 1.95  19 1.95  18 1.98
 116  1.000  0.000  0.565-  30 1.89  20 1.89  19 2.00
 117  0.000  1.000  0.649-  23 1.81  20 2.02  30 2.02
 118  0.850  0.875  0.607-  20 1.95  21 1.97  11 1.97
 119  0.150  0.875  0.607-  20 1.95  51 1.97  61 1.97
 120  0.750  0.000  0.672-  21 1.86  32 2.10  22 2.10
 121  0.750  1.000  0.756-  22 1.83  32 1.83
 122  0.094  0.875  0.719-  23 1.95  13 1.95  62 2.03
 123  0.906  0.875  0.719-  23 1.95  13 1.95  22 2.03
 124  0.750  0.250  0.245-  24 1.95  34 1.95
 125  0.750  0.250  0.329-  24 1.95  34 1.95  27 1.98
 126  0.098  0.125  0.287-  15 1.95  25 1.95  64 1.98
 127  0.902  0.125  0.287-  15 1.95  25 1.95  24 1.98
 128  0.000  0.250  0.352-  26 1.95  36 1.95  25 1.98
 129  0.000  0.250  0.435-  26 1.95  36 1.95  29 1.98
 130  0.848  0.125  0.394-  17 1.95  27 1.95  26 1.98
 131  0.152  0.125  0.394-  57 1.95  67 1.95  26 1.98
 132  0.750  0.250  0.458-  28 1.95  38 1.95  27 1.98
 133  0.750  0.250  0.542-  28 1.95  38 1.95  31 2.11
 134  0.098  0.125  0.500-  19 1.95  29 1.95  68 1.98
 135  0.902  0.125  0.500-  19 1.95  29 1.95  28 1.98
 136  1.000  0.250  0.565-  40 1.89  30 1.89  29 2.00
 137  1.000  0.250  0.649-  33 1.81  30 2.02  40 2.02
 138  0.850  0.125  0.607-  30 1.95  31 1.97  21 1.97
 139  0.150  0.125  0.607-  30 1.95  61 1.97  71 1.97
 140  0.750  0.250  0.672-  31 1.86  32 2.10  42 2.10
 141  0.750  0.250  0.756-  42 1.83  32 1.83
 142  0.094  0.125  0.719-  23 1.95  33 1.95  72 2.03
 143  0.906  0.125  0.719-  33 1.95  23 1.95  32 2.03
[...]
 229  0.500  0.500  0.435-  46 1.95  76 1.95  79 1.98
 230  0.348  0.375  0.394-  67 1.95  77 1.95  76 1.98
 231  0.652  0.375  0.394-  27 1.95  37 1.95  76 1.98
 232  0.250  0.500  0.458-  48 1.95  78 1.95  77 1.98
 233  0.250  0.500  0.542-  48 1.95  78 1.95  81 2.11
 234  0.598  0.375  0.500-  69 1.95  79 1.95  38 1.98
 235  0.402  0.375  0.500-  69 1.95  79 1.95  78 1.98
 236  0.500  0.500  0.565-  80 1.89  50 1.89  79 2.00
 237  0.500  0.500  0.649-  83 1.81  50 2.02  80 2.02
 238  0.350  0.375  0.607-  80 1.95  71 1.97  81 1.97
 239  0.650  0.375  0.607-  80 1.95  41 1.97  31 1.97
 240  0.250  0.500  0.672-  81 1.86  52 2.10  82 2.10
 241  0.250  0.500  0.756-  52 1.83  82 1.83
 242  0.594  0.375  0.719-  73 1.95  83 1.95  42 2.03
 243  0.406  0.375  0.719-  73 1.95  83 1.95  82 2.03

IMPORTANT INFORMATION: All symmetrisations will be switched off!
NOSYMM: (Re-)initialisation of all symmetry stuff for point group C_1.

                                     Primitive cell

  volume of cell :    4700.2961

  direct lattice vectors                    reciprocal lattice vectors
    13.003980404  0.000000000  0.000000000     0.076899531  0.000000000  0.000000000
     0.000000000 11.830378115  0.000000000     0.000000000  0.084528152  0.000000000
     0.000000000  0.000000000 30.552748813     0.000000000  0.000000000  0.032730279

  length of vectors
    13.003980404 11.830378115 30.552748813     0.076899531  0.084528152  0.032730279

  position of ions in fractional coordinates (direct lattice)
     0.510448359  0.552719911  0.798188946
     0.612860075  0.497848712  0.779319195
     0.536339448  0.493050556  0.779310280
     0.750000000  0.625000000  0.287188045
     0.000000000  0.750000000  0.287188045
     0.000000000  0.625000000  0.393594023
     0.750000000  0.750000000  0.393594023
     0.750000000  0.625000000  0.500000000
     0.000000000  0.750000000  0.500000000
     0.999999955  0.625000002  0.604130556
     0.749999964  0.750000003  0.610777676
     0.750000006  0.625000015  0.720488722
     0.000000007  0.749999999  0.708137356
     0.750000000  0.875000000  0.287188045
     0.000000000  0.000000000  0.287188045
     0.000000000  0.875000000  0.393594023
     0.750000000  0.000000000  0.393594023
     0.750000000  0.875000000  0.500000000
     0.000000000  0.000000000  0.500000000
     0.999999988  0.875000010  0.604130566
     0.750000007  0.000000005  0.610777698
     0.750000008  0.875000003  0.720488715
     0.000000013  0.000000002  0.708137369
     0.750000000  0.125000000  0.287188045
     0.000000000  0.250000000  0.287188045
     0.000000000  0.125000000  0.393594023
     0.750000000  0.250000000  0.393594023
     0.750000000  0.125000000  0.500000000
     0.000000000  0.250000000  0.500000000
     0.000000025  0.125000008  0.604130562
     0.750000035  0.250000018  0.610777675
     0.750000000  0.125000012  0.720488716
     0.999999975  0.249999992  0.708137360
     0.750000000  0.375000000  0.287188045
     0.000000000  0.500000000  0.287188045
     0.000000000  0.375000000  0.393594023
     0.750000000  0.500000000  0.393594023
     0.750000000  0.375000000  0.500000000
     0.000000000  0.500000000  0.500000000
     0.000000044  0.374999984  0.604130557
     0.749999994  0.499999982  0.610777696
     0.749999991  0.374999994  0.720488723
     0.000000003  0.499999993  0.708137373
     0.250000000  0.625000000  0.287188045
     0.500000000  0.750000000  0.287188045
     0.500000000  0.625000000  0.393594023
     0.250000000  0.750000000  0.393594023
     0.250000000  0.625000000  0.500000000
     0.500000000  0.750000000  0.500000000
     0.499999991  0.624999998  0.604130558
     0.249999964  0.749999998  0.610777689
     0.250000005  0.625000004  0.720488721
     0.500000001  0.750000008  0.708137359
     0.250000000  0.875000000  0.287188045
     0.500000000  0.000000000  0.287188045
     0.500000000  0.875000000  0.393594023
     0.250000000  0.000000000  0.393594023
     0.250000000  0.875000000  0.500000000
     0.500000000  0.000000000  0.500000000
     0.499999981  0.875000006  0.604130559
[...]
     0.500000000  0.500000000  0.435304973
     0.347999548  0.375000000  0.393594023
     0.652000452  0.375000000  0.393594023
     0.250000000  0.500000000  0.458289049
     0.250000000  0.500000000  0.541710951
     0.597999548  0.375000000  0.500000000
     0.402000452  0.375000000  0.500000000
     0.499999995  0.499999996  0.565347940
     0.500000004  0.499999996  0.648994558
     0.350197920  0.374999994  0.607139181
     0.649802075  0.374999993  0.607139172
     0.249999993  0.499999995  0.671650649
     0.249999997  0.500000011  0.755932774
     0.594073977  0.374999992  0.718728066
     0.405926019  0.375000002  0.718728071

  ion indices of the primitive-cell ions
   primitive index   ion index
                 1           1
                 2           2
                 3           3
                 4           4
                 5           5
                 6           6
[...]
   3.25099501  5.91518900 20.52077357
   3.25099506  5.91518919 23.09582416
   7.72532635  4.43639170 21.95911805
   5.27865399  4.43639182 21.95911821

--------------------------------------- Iteration      FINAL  ---------------------------------------

--------------------OUTCAR has been truncated-------------------------

[...]

--------------------OUTCAR has been truncated-------------------------

  FORCE on cell =-STRESS in cart. coord.  units (eV):
  Direction    XX          YY          ZZ          XY          YZ          ZX
  Alpha Z  4685.90249  4685.90249  4685.90249
  Ewald  979554.02592996997.29157************   -25.82525    39.48440   -37.36920
  Hartree************************************    -6.74545     7.29580   -21.57221
  E(xc)   -8654.99326 -8628.27177 -8669.47720    -0.10536     0.20131    -0.20030
  Local  ************************************    26.58592   -35.14604    54.83586
  n-local -5370.23124 -5293.15204 -5413.80026    -0.31943     0.07870    -0.07309
  augment  5221.19892  5208.47835  5225.41412     0.37667    -0.78577     0.06913
  Kinetic 28787.05904 28328.84813 28848.40083     6.02478   -11.04136     4.23760
  Fock        0.00000     0.00000     0.00000     0.00000     0.00000     0.00000
  vdW      -131.08515  -130.55745  -117.67282     0.00830     0.00246     0.03171
  Total      18.99942   -27.66503   -31.48332     0.00018     0.08950    -0.04049
  in kB       6.47628    -9.43010   -10.73163     0.00006     0.03051    -0.01380

 VOLUME and BASIS-vectors are now :
  energy-cutoff  :      600.00
  volume of cell :     4700.30
      direct lattice vectors                 reciprocal lattice vectors
    13.003980404  0.000000000  0.000000000     0.076899531  0.000000000  0.000000000
     0.000000000 11.830378115  0.000000000     0.000000000  0.084528152  0.000000000
     0.000000000  0.000000000 30.552748813     0.000000000  0.000000000  0.032730279

  length of vectors
    13.003980404 11.830378115 30.552748813     0.076899531  0.084528152  0.032730279

 FORCES acting on ions:
    Electron-Ion                     Ewald-Force                    Non-Local-Force
   0.344E+02 -.617E+02 -.453E+03   -.376E+02 0.676E+02 0.458E+03   0.320E+01 -.590E+01 -.514E+01
   -.636E+02 -.240E+01 -.436E+03   0.714E+02 0.265E+01 0.436E+03   -.774E+01 -.241E+00 0.944E-02
   0.530E+02 0.401E+02 -.258E+04   -.720E+02 -.722E+02 0.256E+04   0.189E+02 0.321E+02 0.148E+02
   -.107E+00 -.153E-01 0.380E+04   0.103E+00 0.155E-01 -.380E+04   0.984E-03 -.114E-04 0.454E+00
   -.500E-01 -.301E-01 0.398E+04   0.513E-01 0.302E-01 -.397E+04   -.238E-03 -.138E-04 -.403E+01
   -.142E+00 -.483E-01 0.194E+04   0.148E+00 0.484E-01 -.194E+04   -.977E-03 0.655E-04 -.458E-01
   -.339E+00 -.984E-02 0.193E+04   0.330E+00 0.102E-01 -.193E+04   0.249E-02 0.407E-04 0.210E+00
   -.130E+01 -.120E+00 0.213E+01   0.126E+01 0.104E+00 -.136E+01   0.100E-01 0.103E-02 -.131E+00
   0.153E+01 -.657E+00 0.109E+02   -.153E+01 0.660E+00 -.119E+02   -.270E-02 -.225E-02 0.349E+00
   0.135E+02 -.183E+01 -.187E+04   -.137E+02 0.184E+01 0.187E+04   0.273E-01 -.833E-02 0.749E-01
   0.372E+01 -.713E+01 -.193E+04   -.376E+01 0.714E+01 0.193E+04   -.457E-01 -.885E-02 -.115E+00
   -.685E+02 -.172E+02 -.374E+04   0.684E+02 0.171E+02 0.374E+04   0.181E+00 0.109E+00 -.382E-01
   -.519E+01 -.232E+01 -.379E+04   0.523E+01 0.232E+01 0.379E+04   -.452E-01 -.190E-01 0.100E+01
   -.117E+00 -.200E-01 0.380E+04   0.114E+00 0.202E-01 -.380E+04   0.103E-02 0.626E-06 0.454E+00
   -.476E-01 -.233E-02 0.398E+04   0.488E-01 0.238E-02 -.397E+04   -.237E-03 -.548E-05 -.403E+01
   -.111E+00 -.612E-01 0.194E+04   0.116E+00 0.609E-01 -.194E+04   -.944E-03 0.528E-04 -.458E-01
   -.429E+00 -.154E-01 0.193E+04   0.420E+00 0.151E-01 -.193E+04   0.240E-02 -.635E-05 0.210E+00
   -.264E+01 -.462E+00 0.116E+01   0.262E+01 0.485E+00 -.382E+00   0.779E-02 -.109E-02 -.133E+00
   0.193E+01 -.326E-01 0.100E+02   -.193E+01 0.296E-01 -.111E+02   -.277E-02 0.141E-02 0.347E+00
   0.164E+02 -.146E+01 -.188E+04   -.166E+02 0.147E+01 0.188E+04   0.259E-01 -.762E-02 0.834E-01
   0.546E+01 0.306E-01 -.194E+04   -.549E+01 -.277E-01 0.194E+04   -.545E-01 -.232E-02 -.119E+00
   -.153E+02 -.164E+02 -.378E+04   0.153E+02 0.164E+02 0.378E+04   0.542E-01 0.874E-02 -.158E+00
   -.461E+01 0.304E+00 -.380E+04   0.459E+01 -.303E+00 0.380E+04   0.239E-01 -.149E-02 0.104E+01
   -.116E+00 0.153E-01 0.380E+04   0.112E+00 -.156E-01 -.380E+04   0.102E-02 0.229E-04 0.454E+00
   -.502E-01 0.301E-01 0.398E+04   0.515E-01 -.302E-01 -.397E+04   -.245E-03 0.133E-04 -.403E+01
   -.111E+00 0.509E-01 0.194E+04   0.116E+00 -.509E-01 -.194E+04   -.100E-02 -.601E-04 -.457E-01
   -.320E+00 0.924E-02 0.193E+04   0.311E+00 -.954E-02 -.193E+04   0.241E-02 -.475E-04 0.210E+00
   -.258E+01 0.382E+00 0.116E+01   0.255E+01 -.412E+00 -.387E+00   0.841E-02 0.187E-02 -.132E+00
   0.156E+01 0.633E+00 0.109E+02   -.156E+01 -.635E+00 -.120E+02   -.305E-02 0.227E-02 0.350E+00
   0.171E+02 0.153E+01 -.188E+04   -.173E+02 -.154E+01 0.188E+04   0.281E-01 0.863E-02 0.821E-01
   0.351E+01 0.681E+01 -.193E+04   -.355E+01 -.682E+01 0.193E+04   -.471E-01 0.386E-02 -.122E+00
   -.154E+02 0.143E+02 -.378E+04   0.154E+02 -.142E+02 0.378E+04   0.565E-01 -.142E-01 -.161E+00
   -.467E+01 0.220E+01 -.379E+04   0.470E+01 -.220E+01 0.379E+04   -.389E-01 0.149E-01 0.100E+01
   -.105E+00 0.201E-01 0.380E+04   0.102E+00 -.202E-01 -.380E+04   0.975E-03 -.128E-04 0.454E+00
   -.526E-01 0.236E-02 0.398E+04   0.539E-01 -.241E-02 -.397E+04   -.243E-03 0.506E-05 -.403E+01
   -.143E+00 0.587E-01 0.194E+04   0.149E+00 -.585E-01 -.194E+04   -.101E-02 -.123E-03 -.458E-01
   -.232E+00 0.160E-01 0.193E+04   0.224E+00 -.157E-01 -.193E+04   0.225E-02 -.255E-04 0.210E+00
   -.120E+01 0.207E+00 0.204E+01   0.116E+01 -.184E+00 -.127E+01   0.103E-01 -.139E-02 -.130E+00
   0.137E+01 -.834E-02 0.117E+02   -.137E+01 0.831E-02 -.128E+02   -.382E-02 0.409E-03 0.348E+00
   0.140E+02 0.191E+01 -.187E+04   -.141E+02 -.191E+01 0.187E+04   0.258E-01 0.461E-02 0.799E-01
   0.245E+01 -.170E-01 -.192E+04   -.244E+01 0.180E-01 0.192E+04   -.920E-01 -.172E-02 -.116E+00
   -.685E+02 0.139E+02 -.374E+04   0.684E+02 -.137E+02 0.374E+04   0.131E+00 -.141E+00 -.350E-01
   -.730E+01 0.249E+00 -.379E+04   0.726E+01 -.251E+00 0.379E+04   0.400E-01 0.944E-03 0.951E+00
   0.101E+00 -.115E-01 0.380E+04   -.976E-01 0.114E-01 -.380E+04   -.899E-03 0.929E-05 0.454E+00
   0.558E-01 -.135E-01 0.398E+04   -.570E-01 0.138E-01 -.397E+04   0.234E-03 -.452E-04 -.403E+01
   0.275E+00 0.129E+00 0.194E+04   -.280E+00 -.118E+00 -.194E+04   0.513E-03 -.264E-02 -.475E-01
   0.210E+00 0.350E-01 0.193E+04   -.202E+00 -.347E-01 -.193E+04   -.139E-02 -.492E-04 0.206E+00
   -.107E+00 0.112E+00 -.804E-01   0.156E+00 -.125E+00 0.906E+00   -.782E-02 0.933E-03 -.141E+00
   0.349E+01 0.108E+01 0.142E+02   -.351E+01 -.116E+01 -.151E+02   0.227E-03 0.373E-01 0.278E+00
   0.209E+02 -.115E+02 -.187E+04   -.210E+02 0.116E+02 0.187E+04   0.163E-01 -.706E-01 0.496E-01
   0.181E+02 -.491E+01 -.194E+04   -.182E+02 0.491E+01 0.194E+04   -.522E-01 0.857E-02 -.118E+00
   0.368E+02 -.141E+02 -.376E+04   -.369E+02 0.141E+02 0.376E+04   0.704E-01 0.313E-02 -.190E+00
   0.197E+02 -.546E+02 -.375E+04   -.196E+02 0.547E+02 0.375E+04   -.148E+00 -.405E-01 0.112E+01
   0.111E+00 -.163E-01 0.380E+04   -.108E+00 0.165E-01 -.380E+04   -.958E-03 0.188E-05 0.454E+00
   0.535E-01 -.461E-02 0.398E+04   -.547E-01 0.463E-02 -.397E+04   0.232E-03 -.122E-05 -.403E+01
   0.248E+00 0.808E-01 0.194E+04   -.253E+00 -.799E-01 -.194E+04   0.618E-03 -.117E-02 -.482E-01
   0.296E+00 -.175E-01 0.193E+04   -.287E+00 0.173E-01 -.193E+04   -.147E-02 0.579E-04 0.206E+00
   0.965E+00 -.141E-01 -.350E+00   -.929E+00 0.186E-01 0.117E+01   -.345E-02 -.680E-03 -.139E+00
   0.306E+01 -.241E+00 0.172E+02   -.309E+01 0.237E+00 -.183E+02   0.781E-02 0.571E-03 0.302E+00
   0.174E+02 -.103E+02 -.185E+04   -.175E+02 0.104E+02 0.185E+04   0.120E-01 -.122E-01 -.664E-01
[...]
   -.531E+02 -.308E-01 0.116E+04   0.572E+02 0.301E-01 -.116E+04   -.357E+01 0.924E-03 0.153E+00
   0.533E+02 -.184E-01 0.116E+04   -.573E+02 0.178E-01 -.116E+04   0.357E+01 0.853E-03 0.160E+00
   -.427E-01 0.342E-01 0.507E+03   0.639E-01 -.344E-01 -.512E+03   -.308E-01 0.594E-03 0.417E+01
   0.250E+01 0.197E+00 -.524E+03   -.277E+01 -.193E+00 0.531E+03   0.261E+00 -.659E-02 -.714E+01
   -.548E+02 -.338E+00 0.795E+01   0.594E+02 0.336E+00 -.816E+01   -.509E+01 0.212E-01 0.281E+00
   0.556E+02 -.424E+00 0.500E+01   -.603E+02 0.420E+00 -.516E+01   0.513E+01 0.244E-01 0.246E+00
   0.122E+02 0.602E+00 -.621E+03   -.133E+02 -.692E+00 0.614E+03   0.108E+01 0.879E-01 0.682E+01
   0.197E+02 -.189E+01 -.161E+04   -.210E+02 0.196E+01 0.161E+04   0.136E+01 -.694E-01 -.119E+01
   -.495E+02 0.198E+01 -.113E+04   0.558E+02 -.202E+01 0.113E+04   -.625E+01 0.465E-01 0.131E+01
   0.939E+00 0.407E+01 -.114E+04   -.875E+00 -.422E+01 0.114E+04   -.386E-01 0.142E+00 0.410E+00
   0.184E+02 -.534E+00 -.181E+04   -.188E+02 0.514E+00 0.182E+04   0.384E+00 0.195E-01 -.215E+01
   0.368E+02 0.612E+00 -.273E+04   -.367E+02 -.670E+00 0.275E+04   -.176E+00 0.580E-01 -.206E+02
   -.474E+02 0.418E+02 -.223E+04   0.535E+02 -.415E+02 0.223E+04   -.601E+01 -.293E+00 -.465E+00
   0.634E+02 0.337E+02 -.231E+04   -.696E+02 -.338E+02 0.231E+04   0.617E+01 0.590E-01 -.316E+01
   0.140E+02 -.268E+02 0.789E+02   0.203E-11 -.448E-12 0.214E-10   -.140E+02 0.268E+02 -.789E+02

 POSITION                                       TOTAL-FORCE (eV/Angst)
      6.64340      6.50369     24.50426         0.002117     -0.000995     -0.005152
      7.98158      5.86884     23.92743         0.002565      0.001420     -0.001542
      6.98782      5.81013     23.91697        -0.002625      0.007727      0.004703
      9.75299      7.39399      8.77438        -0.002300      0.000122     -3.377824
      0.00000      8.87278      8.77438         0.001067      0.000112      2.808414
      0.00000      7.39399     12.02538         0.004682      0.000168      0.541048
      9.75299      8.87278     12.02538        -0.006613      0.000413     -0.722328
      9.75299      7.39399     15.27637        -0.029564     -0.014947      0.636225
      0.00000      8.87278     15.27637        -0.001651      0.001788     -0.740113
      0.09303      7.39416     18.45543         0.004420      0.001161     -0.000674
      9.83496      8.87368     18.64520         0.000457      0.000408     -0.001637
      9.77437      7.40065     21.97515         0.000511     -0.000790      0.001803
      0.01034      8.87482     21.63687        -0.000031     -0.000080     -0.001038
      9.75299     10.35158      8.77438        -0.002386      0.000206     -3.377867
      0.00000      0.00000      8.77438         0.001063      0.000056      2.808242
      0.00000     10.35158     12.02538         0.004529     -0.000190      0.541165
      9.75299      0.00000     12.02538        -0.006860     -0.000367     -0.723123
      9.75299     10.35158     15.27637        -0.016831      0.022582      0.642403
      0.00000      0.00000     15.27637        -0.002235     -0.001710     -0.738079
      0.09464     10.35144     18.45754        -0.000171      0.000247     -0.001130
      9.82872     -0.00075     18.65370        -0.001040      0.000243      0.000533
      9.76025     10.34924     22.00442        -0.000262      0.000650     -0.000772
      0.01264     -0.00165     21.63555        -0.000070     -0.000110     -0.001184
      9.75299      1.47880      8.77438        -0.002372     -0.000220     -3.378072
      0.00000      2.95759      8.77438         0.001087     -0.000092      2.808241
      0.00000      1.47880     12.02538         0.004635     -0.000102      0.540897
      9.75299      2.95759     12.02538        -0.006408     -0.000369     -0.723439
      9.75299      1.47880     15.27637        -0.015591     -0.029005      0.638227
      0.00000      2.95759     15.27637        -0.000205     -0.000540     -0.740891
      0.09491      1.47782     18.45692         0.000473     -0.001069     -0.001787
      9.83471      2.95533     18.64443        -0.002489      0.000326     -0.000999
      9.75889      1.46892     22.00408        -0.000313      0.000357     -0.001598
      0.01160      2.95224     21.63635         0.000020      0.000119     -0.000248
      9.75299      4.43639      8.77438        -0.002285     -0.000063     -3.378027
      0.00000      5.91519      8.77438         0.001104     -0.000034      2.808412
      0.00000      4.43639     12.02538         0.004801      0.000165      0.540848
      9.75299      5.91519     12.02538        -0.006264      0.000358     -0.722604
      9.75299      4.43639     15.27637        -0.030741      0.021408      0.632827
      0.00000      5.91519     15.27637        -0.000713      0.000358     -0.743204
      0.09335      4.43572     18.45546         0.002507     -0.000290     -0.000610
      9.83833      5.91470     18.65004         0.000610     -0.001213     -0.000996
      9.78137      4.41717     21.97620        -0.000901      0.000854      0.002304
      0.02119      5.91516     21.63480         0.000129     -0.000002      0.001921
      3.25100      7.39399      8.77438         0.002400     -0.000038     -3.375834
      6.50199      8.87278      8.77438        -0.000933      0.000285      2.814155
      6.50199      7.39399     12.02538        -0.004378      0.008920      0.561319
      3.25100      8.87278     12.02538         0.006998      0.000329     -0.708434
      3.25100      7.39399     15.27637         0.039302     -0.011520      0.681745
      6.50199      8.87278     15.27637        -0.023761     -0.039753     -0.629280
      6.59718      7.36924     18.49046         0.002707     -0.001033      0.000586
      3.33310      8.87117     18.65354         0.002331     -0.001215     -0.000764
      3.26822      7.39486     22.00593        -0.002028     -0.000856      0.000235
      6.52184      8.87333     21.60077        -0.001784     -0.000048      0.001186
      3.25100     10.35158      8.77438         0.002497      0.000190     -3.375990
      6.50199      0.00000      8.77438        -0.000909      0.000033      2.814236
      6.50199     10.35158     12.02538        -0.004575     -0.000129      0.563698
      3.25100      0.00000     12.02538         0.007350     -0.000138     -0.708977
      3.25100     10.35158     15.27637         0.032132      0.004265      0.676243
      6.50199      0.00000     15.27637        -0.028217     -0.002930     -0.802952
      6.59416     10.34079     18.42794         0.002346     -0.001824      0.001785
[...]
      6.50199      5.91519     13.29976         0.003217     -0.000738     -0.121642
      4.52538      4.43639     12.02538         0.433107      0.000233      0.048106
      8.47860      4.43639     12.02538        -0.427941      0.000262      0.049807
      3.25100      5.91519     14.00199        -0.009512      0.000394     -0.107194
      3.25100      5.91519     16.55076        -0.007087     -0.002576      0.034991
      7.77637      4.43639     15.27637        -0.436464      0.019285      0.063822
      5.22761      4.43639     15.27637         0.470851      0.020871      0.086127
      6.51652      5.91257     17.27859         0.000624      0.000108      0.000766
      6.49826      5.91976     19.84679         0.001813      0.000118     -0.001642
      4.55649      4.43633     18.54881        -0.003325     -0.000267      0.000471
      8.46983      4.43629     18.56617        -0.000391     -0.001460     -0.000564
      3.26637      5.91968     20.51974         0.002169     -0.000315      0.000214
      3.28156      5.91325     23.09083        -0.000946      0.000037      0.000595
      7.77014      4.39492     21.81608        -0.001783      0.000602      0.001949
      5.29699      4.42315     21.93300         0.001367     -0.000605      0.000719
    total drift:                               -0.009104     -0.002810     -0.038758

  FREE ENERGIE OF THE ION-ELECTRON SYSTEM (eV)
  free  energy   TOTEN  =     -2141.06477568 eV

  energy  without entropy=    -2141.06477568  energy(sigma->0) =    -2141.06477568

 d Force = 0.1761273E-04[ 0.134E-04, 0.219E-04]  d Energy = 0.1729456E-04 0.318E-06
 d Force = 0.2063040E+01[ 0.206E+01, 0.206E+01]  d Ewald  = 0.2063040E+01 0.213E-06

 Conjugate gradient step on ions:
 trial-energy change:   -0.000017  1 .order   -0.000018   -0.000022   -0.000013
  (g-gl).g = 0.499E-04      g.g   = 0.662E-04  gl.gl    = 0.830E-04
 g(Force)  = 0.662E-04   g(Stress)= 0.000E+00 ortho     = 0.759E-06
 gamma     =   0.60142
 trial     =   0.32801
 opt step  =   0.84365  (harmonic =   0.84365) maximal distance =0.00219839
 next E    = -2141.064787   (d E  =  -0.00003)

 reached required accuracy - stopping structural energy minimisation