 vasp.6.3.0 20Jan22 (build Apr  1 2022 16:44:48) complex
 executed on        HPECrayEX_GCC date 2023.02.18  05:19:06

 INCAR:
   SYSTEM = MgO-rocksalt
   ISMEAR = 0
   SIGMA = 0.05
   EDIFF = 1E-7
   ALGO = ALL
   ISTART = 0
   IBRION = 2
   NSW = 1000
   ISYM = 0
   ISIF = 2
   EDIFFG = -0.01
   DIPOL = 0.5 0.5 0.5
   IDIPOL = 3
   LDIPOL = .TRUE.
   GGA = RE
   AGGAC = 0.0
   LUSE_VDW = .TRUE.
   LASPH = .TRUE.
   ENCUT = 520
   PREC = Accurate
   LASPH = .TRUE.
   LREAL = Auto
   ISPIN = 1
   NELM = 200
   NELMIN = 8
   NCORE = 8
   KPAR = 1
   LWAVE = .FALSE.
   LCHARG = .FALSE.

 POTCAR:    PAW_PBE H 15Jun2001
 POTCAR:    PAW_PBE O 08Apr2002
 POTCAR:    PAW_PBE Mg 13Apr2007
 POTCAR:    PAW_PBE O 08Apr2002
|               ----> ADVICE to this user running VASP <----                  |
|     You have switched on vdW-DFT.                                           |
|     This routine was written and supplied by Jiri Klimes. We recommend      |
|     that you carefully read and cite the following publications:            |
|       J. Klimes, D.R. Bowler, A. Michelides                                 |
|          J. Phys.: Cond Matt. 22 022201 (2010)                              |
|       J. Klimes, D.R. Bowler, A. Michelides                                 |
|          Phys. Rev. B. 83, 195131 (2011)                                    |
|     and references therein.                                                 |

   TITEL  = PAW_PBE H 15Jun2001
   POMASS =    1.000; ZVAL   =    1.000    mass and valenz
   ENMAX  =  250.000; ENMIN  =  200.000 eV

   TITEL  = PAW_PBE O 08Apr2002
   POMASS =   16.000; ZVAL   =    6.000    mass and valenz
   ENMAX  =  400.000; ENMIN  =  300.000 eV

[...]

   TITEL  = PAW_PBE O 08Apr2002
   POMASS =   16.000; ZVAL   =    6.000    mass and valenz
   ENMAX  =  400.000; ENMIN  =  300.000 eV

 Optimization of the real space projectors (new method)

 maximal supplied QI-value         = 34.20
 optimisation between [QCUT,QGAM] = [ 11.63, 23.26] = [ 37.87,151.49] Ry
 Optimized for a Real-space Cutoff    1.21 Angstroem

   l    n(q)    QCUT    max X(q) W(low)/X(q) W(high)/X(q)  e(spline)
   0      8    11.629    19.460    0.17E-03    0.34E-03    0.21E-06
   0      8    11.629    12.209    0.16E-03    0.33E-03    0.21E-06
   1      8    11.629     4.655    0.18E-03    0.16E-03    0.26E-06
 Optimization of the real space projectors (new method)

[...]

   l    n(q)    QCUT    max X(q) W(low)/X(q) W(high)/X(q)  e(spline)
   0      9    11.527    28.265    0.62E-04    0.53E-04    0.73E-07
   0      9    11.527    10.429    0.52E-04    0.40E-04    0.58E-07
   1      8    11.527    13.073    0.98E-04    0.18E-03    0.86E-07
   1      8    11.527     9.625    0.79E-04    0.15E-03    0.74E-07
   2      8    11.527     4.652    0.22E-03    0.72E-04    0.47E-07
 Optimization of the real space projectors (new method)

 maximal supplied QI-value         = 24.76
 optimisation between [QCUT,QGAM] = [ 11.64, 23.27] = [ 37.91,151.63] Ry
 Optimized for a Real-space Cutoff    1.14 Angstroem

   l    n(q)    QCUT    max X(q) W(low)/X(q) W(high)/X(q)  e(spline)
   0      8    11.635    20.381    0.10E-03    0.33E-03    0.24E-06
   0      8    11.635    15.268    0.11E-03    0.35E-03    0.26E-06
   1      7    11.635     5.964    0.24E-03    0.31E-03    0.30E-06
   1      7    11.635     5.382    0.22E-03    0.25E-03    0.26E-06
|               ----> ADVICE to this user running VASP <----                  |
|     You enforced a specific xc type in the INCAR file but a different       |
|     type was found in the POTCAR file.                                      |
|     I HOPE YOU KNOW WHAT YOU ARE DOING!                                     |

  PAW_PBE H 15Jun2001                   :
  PAW_PBE O 08Apr2002                   :
  PAW_PBE Mg 13Apr2007                  :
  PAW_PBE O 08Apr2002                   :

 POSCAR:  H  O Mg  O
  positions in direct lattice
 exchange correlation table for  LEXCH =       40
   RHO(1)=    0.500       N(1)  =     2000
   RHO(2)=  100.500       N(2)  =     4000

 ion  position               nearest neighbor table
   1  0.416  0.430  0.761-   9 0.99
   2  0.332  0.393  0.767-   9 0.97
   3  0.585  0.327  0.762-  10 0.99
   4  0.670  0.362  0.767-  10 0.97
   5  0.449  0.295  0.761-  11 0.99
   6  0.485  0.210  0.770-  11 0.97
   7  0.553  0.465  0.761-  12 0.99
   8  0.516  0.549  0.764-  12 0.97
   9  0.385  0.382  0.756-   2 0.97   1 0.99  36 2.28
  10  0.616  0.375  0.756-   4 0.97   3 0.99  84 2.27
  11  0.497  0.263  0.756-   6 0.97   5 0.99  91 2.28
  12  0.504  0.495  0.755-   8 0.97   7 0.99 115 2.27
  13  0.000  0.375  0.350- 141 2.14 144 2.14 151 2.14 175 2.14 224 2.14  23 3.02  47 3.02  96 3.02
                            16 3.02  46 3.02 102 3.02 126 3.02  22 3.02
  14  0.125  0.000  0.350- 142 2.14 143 2.14 152 2.14 159 2.14 176 2.14  24 3.02  31 3.02  48 3.02
                            15 3.02  45 3.02  21 3.02  61 3.02  37 3.02
  15  0.000  0.000  0.450- 143 2.14 142 2.14 149 2.14 173 2.14 222 2.14 147 2.14  45 3.02  94 3.02
                            14 3.02  21 3.02 104 3.02 128 3.02  48 3.02  24 3.02  25 3.03  49 3.03
  16  0.125  0.375  0.450- 144 2.14 141 2.14 150 2.14 157 2.14 174 2.14 148 2.14  29 3.02  46 3.02
                            13 3.02  22 3.02  47 3.02  63 3.02  39 3.02  23 3.02  50 3.03  26 3.03
  17  0.000  0.375  0.550- 148 2.14 155 2.14 179 2.14 228 2.14 141 2.15 145 2.16  51 3.01 100 3.01
                            20 3.01  27 3.01 106 3.02 130 3.02  26 3.02  50 3.02  16 3.03  23 3.03
  18  0.125  0.000  0.550- 147 2.14 156 2.14 163 2.14 180 2.14 142 2.15 146 2.16  35 3.01  52 3.01
                            19 3.01  28 3.01  25 3.02  65 3.02  41 3.02  49 3.02  15 3.03  24 3.03
  19  0.000  0.000  0.650- 147 2.13 146 2.14 153 2.14 177 2.14 226 2.14  25 3.01  49 3.01  98 3.01
                            18 3.01  28 3.02 108 3.02 132 3.02  52 3.02
  20  0.125  0.375  0.650- 148 2.13 145 2.14 154 2.14 161 2.14 178 2.14  26 3.01  33 3.01  50 3.01
                            17 3.01  27 3.02  51 3.02  67 3.02  43 3.02
  21  0.000  0.125  0.350- 149 2.14 143 2.14 151 2.14 152 2.14 232 2.14  23 3.02  24 3.02 104 3.02
                            15 3.02  94 3.02 102 3.02  14 3.02  22 3.02
  22  0.125  0.250  0.350- 150 2.14 144 2.14 151 2.14 152 2.14 167 2.14  23 3.02  24 3.02  39 3.02
                            16 3.02  29 3.02  37 3.02  13 3.02  21 3.02
  23  0.000  0.250  0.450- 151 2.14 149 2.14 150 2.14 141 2.14 230 2.14 155 2.14  22 3.02 102 3.02
                            13 3.02  21 3.02  16 3.02 104 3.02  24 3.02  96 3.02  26 3.03 106 3.03
  24  0.125  0.125  0.450- 152 2.14 149 2.14 150 2.14 142 2.14 165 2.14 156 2.14  22 3.02  37 3.02
                            14 3.02  21 3.02  15 3.02  39 3.02  23 3.02  31 3.02  26 3.03  41 3.03
  25  0.000  0.125  0.550- 147 2.14 155 2.14 156 2.14 236 2.14 149 2.15 153 2.16  28 3.01 108 3.01
                            19 3.01  27 3.01 106 3.02  18 3.02  26 3.02  98 3.02  23 3.03  24 3.03
  26  0.125  0.250  0.550- 148 2.14 155 2.14 156 2.14 171 2.14 150 2.15 154 2.16  28 3.01  43 3.01
                            20 3.01  27 3.01  41 3.02  17 3.02  25 3.02  33 3.02  23 3.03  24 3.03
  27  0.000  0.250  0.650- 155 2.13 153 2.14 154 2.14 145 2.14 234 2.14  25 3.01  26 3.01 106 3.01
                            17 3.01 100 3.02  20 3.02 108 3.02  28 3.02
  28  0.125  0.125  0.650- 156 2.13 153 2.14 154 2.14 146 2.14 169 2.14  25 3.01  26 3.01  41 3.01
                            18 3.01  35 3.02  19 3.02  43 3.02  27 3.02
  29  0.250  0.375  0.350- 157 2.14 144 2.14 160 2.14 167 2.14 191 2.14  32 3.02  39 3.02  63 3.02
                            16 3.02  46 3.02  62 3.02  38 3.02  22 3.02
  30  0.375  0.000  0.350- 158 2.14 159 2.14 168 2.14 192 2.14 207 2.14  40 3.02  64 3.02  79 3.02
                            31 3.02  61 3.02  85 3.02 109 3.02  37 3.02
  31  0.250  0.000  0.450- 159 2.14 158 2.14 142 2.14 165 2.14 189 2.14 163 2.14  37 3.02  61 3.02
                            14 3.02  30 3.02  24 3.02  64 3.02  40 3.02  48 3.02  41 3.03  65 3.03
  32  0.375  0.375  0.450- 160 2.14 157 2.14 166 2.14 190 2.14 205 2.14 164 2.14  62 3.02  77 3.02
                            29 3.02  38 3.02  87 3.02 111 3.02  63 3.02  39 3.02  42 3.03  66 3.03
  33  0.250  0.375  0.550- 148 2.14 164 2.14 171 2.14 195 2.14 157 2.15 161 2.16  43 3.01  67 3.01
                            20 3.01  36 3.01  66 3.02  42 3.02  26 3.02  50 3.02  32 3.03  16 3.03
  34  0.375  0.000  0.550- 163 2.14 172 2.14 196 2.14 211 2.14 158 2.15 162 2.16  68 3.01  83 3.01
                            35 3.01  44 3.01  89 3.02 113 3.02  41 3.02  65 3.02  31 3.03  40 3.03
  35  0.250  0.000  0.650- 163 2.13 162 2.14 146 2.14 169 2.14 193 2.14  34 3.01  41 3.01  65 3.01
                            18 3.01  52 3.02  28 3.02  68 3.02  44 3.02
  36  0.375  0.375  0.650- 164 2.13 161 2.14 170 2.14 194 2.14 209 2.14   9 2.28  42 3.01  66 3.01
                            81 3.01  33 3.01  43 3.02  91 3.02 115 3.02  67 3.02
  37  0.250  0.125  0.350- 165 2.14 159 2.14 152 2.14 167 2.14 168 2.14  31 3.02  39 3.02  40 3.02
                            24 3.02  38 3.02  14 3.02  30 3.02  22 3.02
  38  0.375  0.250  0.350- 166 2.14 160 2.14 167 2.14 168 2.14 215 2.14  39 3.02  40 3.02  87 3.02
                            32 3.02  77 3.02  85 3.02  29 3.02  37 3.02
  39  0.250  0.250  0.450- 167 2.14 157 2.14 165 2.14 166 2.14 150 2.14 171 2.14  37 3.02  38 3.02
                            22 3.02  29 3.02  16 3.02  40 3.02  32 3.02  24 3.02  41 3.03  42 3.03
  40  0.375  0.125  0.450- 168 2.14 165 2.14 166 2.14 158 2.14 213 2.14 172 2.14  38 3.02  85 3.02
                            30 3.02  37 3.02  31 3.02  87 3.02  39 3.02  79 3.02  42 3.03  89 3.03
  41  0.250  0.125  0.550- 156 2.14 163 2.14 171 2.14 172 2.14 165 2.15 169 2.16  43 3.01  44 3.01
                            28 3.01  35 3.01  18 3.02  34 3.02  26 3.02  42 3.02  31 3.03  39 3.03
  42  0.375  0.250  0.550- 164 2.14 171 2.14 172 2.14 219 2.14 166 2.15 170 2.16  44 3.01  91 3.01
                            36 3.01  43 3.01  89 3.02  33 3.02  41 3.02  81 3.02  39 3.03  40 3.03
  43  0.250  0.250  0.650- 171 2.13 161 2.14 169 2.14 170 2.14 154 2.14  33 3.01  41 3.01  42 3.01
                            26 3.01  28 3.02  20 3.02  44 3.02  36 3.02
  44  0.375  0.125  0.650- 172 2.13 169 2.14 170 2.14 162 2.14 217 2.14  41 3.01  42 3.01  89 3.01
                            34 3.01  83 3.02  35 3.02  91 3.02  43 3.02
  45  0.000  0.875  0.350- 173 2.14 143 2.14 176 2.14 183 2.14 256 2.14  48 3.02  55 3.02 128 3.02
                            15 3.02  94 3.02  54 3.02 134 3.02  14 3.02
  46  0.125  0.500  0.350- 174 2.14 144 2.14 175 2.14 184 2.14 191 2.14  47 3.02  56 3.02  63 3.02
                            16 3.02  29 3.02  13 3.02  69 3.02  53 3.02
  47  0.000  0.500  0.450- 175 2.14 174 2.14 141 2.14 181 2.14 254 2.14 179 2.14  53 3.02 126 3.02
                            13 3.02  46 3.02  16 3.02 136 3.02  56 3.02  96 3.02 130 3.03  57 3.03
  48  0.125  0.875  0.450- 176 2.14 173 2.14 142 2.14 182 2.14 189 2.14 180 2.14  54 3.02  61 3.02
[...]
  12.81917044 12.81917044  7.50000000
  14.95569884 10.68264203  7.50000000
  12.81917044 10.68264203 13.94813025
  14.95569884 12.81917044 13.94813025
  12.81917044 12.81917044 11.77868095
  14.95569884 10.68264203 11.77868095

--------------------------------------- Iteration      FINAL  ---------------------------------------

--------------------OUTCAR has been truncated-------------------------

[...]

--------------------OUTCAR has been truncated-------------------------

  FORCE on cell =-STRESS in cart. coord.  units (eV):
  Direction    XX          YY          ZZ          XY          YZ          ZX
  Alpha Z  1005.71567  1005.71567  1005.71567
  Ewald  199768.99830199771.94962************     0.29717   -17.20650    -3.86729
  Hartree215233.67645215236.55825************     0.11878    -8.87180    -1.74643
  E(xc)   -4856.01383 -4856.01372 -4856.66363     0.00180    -0.07664    -0.02181
  Local  ************************417009.82283    -0.42122    23.22687     4.83887
  n-local -2544.35085 -2544.36490 -2612.20029     0.00216     0.02419     0.04249
  augment   910.69834   910.70823   923.57874    -0.00039     0.18029     0.04831
  Kinetic 18581.90239 18582.01601 18834.52598     0.00572     2.55583     0.67572
  Fock        0.00000     0.00000     0.00000     0.00000     0.00000     0.00000
  Total    -116.96878  -116.99470    -0.84572     0.00403    -0.16776    -0.03015
  in kB     -29.96229   -29.96893    -0.21664     0.00103    -0.04297    -0.00772

 VOLUME and BASIS-vectors are now :
  energy-cutoff  :      520.00
  volume of cell :     6254.69
      direct lattice vectors                 reciprocal lattice vectors
    17.092227251  0.000000000  0.000000000     0.058506126  0.000000000  0.000000000
     0.000000000 17.092227251  0.000000000     0.000000000  0.058506126  0.000000000
     0.000000000  0.000000000 21.409585219     0.000000000  0.000000000  0.046708051

  length of vectors
    17.092227251 17.092227251 21.409585219     0.058506126  0.058506126  0.046708051

 FORCES acting on ions:
    Electron-Ion                     Ewald-Force                    Non-Local-Force
   -.148E+02 -.683E+02 -.161E+03   0.192E+02 0.751E+02 0.163E+03   -.441E+01 -.687E+01 -.113E+01
   0.100E+03 -.146E+02 -.167E+03   -.108E+03 0.159E+02 0.169E+03   0.807E+01 -.131E+01 -.202E+01
   0.156E+02 0.670E+02 -.163E+03   -.201E+02 -.737E+02 0.165E+03   0.452E+01 0.675E+01 -.134E+01
   -.100E+03 0.156E+02 -.167E+03   0.108E+03 -.170E+02 0.169E+03   -.807E+01 0.140E+01 -.195E+01
   0.665E+02 -.163E+02 -.162E+03   -.732E+02 0.209E+02 0.163E+03   0.671E+01 -.460E+01 -.120E+01
   0.157E+02 0.992E+02 -.169E+03   -.171E+02 -.107E+03 0.172E+03   0.142E+01 0.796E+01 -.236E+01
   -.693E+02 0.138E+02 -.163E+03   0.762E+02 -.181E+02 0.164E+03   -.693E+01 0.431E+01 -.131E+01
   -.142E+02 -.101E+03 -.163E+03   0.154E+02 0.109E+03 0.164E+03   -.126E+01 -.819E+01 -.146E+01
   0.122E+03 0.360E+02 -.880E+03   -.105E+03 -.719E+02 0.867E+03   -.170E+02 0.359E+02 0.128E+02
   -.121E+03 -.370E+02 -.880E+03   0.105E+03 0.731E+02 0.866E+03   0.167E+02 -.361E+02 0.133E+02
   -.362E+02 0.124E+03 -.877E+03   0.720E+02 -.108E+03 0.862E+03   -.358E+02 -.158E+02 0.147E+02
   0.363E+02 -.119E+03 -.884E+03   -.724E+02 0.101E+03 0.873E+03   0.361E+02 0.180E+02 0.109E+02
   -.380E-02 0.165E-01 0.296E+03   0.352E-02 -.166E-01 -.294E+03   0.860E-04 0.591E-04 -.203E+01
   0.860E+00 0.851E+00 0.295E+03   -.858E+00 -.848E+00 -.293E+03   -.744E-03 -.827E-03 -.203E+01
   -.613E-02 0.117E+01 0.991E+02   0.627E-02 -.117E+01 -.992E+02   0.358E-04 -.190E-03 0.131E+00
   0.260E+01 0.478E-01 0.102E+03   -.257E+01 -.490E-01 -.102E+03   -.256E-02 0.460E-04 0.146E+00
   -.248E-01 0.353E-01 -.885E+02   0.235E-01 -.365E-01 0.885E+02   0.190E-02 0.190E-02 -.451E-01
   0.230E+01 0.228E+01 -.907E+02   -.230E+01 -.228E+01 0.907E+02   -.107E-02 -.165E-02 -.556E-01
   -.151E-01 0.258E+01 -.286E+03   0.150E-01 -.259E+01 0.284E+03   0.313E-03 0.833E-02 0.205E+01
   0.124E+02 0.166E+00 -.279E+03   -.123E+02 -.168E+00 0.278E+03   -.119E+00 0.338E-02 0.203E+01
   -.513E-02 0.112E+01 0.295E+03   0.506E-02 -.112E+01 -.293E+03   0.275E-04 -.764E-03 -.203E+01
   0.125E+01 0.895E+00 0.296E+03   -.124E+01 -.892E+00 -.294E+03   -.255E-02 -.828E-03 -.203E+01
   -.165E-01 0.125E+01 0.101E+03   0.172E-01 -.125E+01 -.101E+03   0.372E-03 -.158E-03 0.136E+00
   0.183E+01 0.200E+01 0.100E+03   -.183E+01 -.200E+01 -.101E+03   -.157E-02 -.800E-03 0.127E+00
   -.215E-01 0.275E+01 -.902E+02   0.217E-01 -.276E+01 0.902E+02   -.990E-05 0.643E-02 -.554E-01
   0.518E+01 0.277E+01 -.872E+02   -.515E+01 -.276E+01 0.872E+02   -.464E-01 -.123E-01 -.386E-01
   -.586E-01 0.315E+01 -.284E+03   0.598E-01 -.317E+01 0.282E+03   -.595E-03 0.207E-01 0.205E+01
   0.611E+01 0.565E+01 -.284E+03   -.608E+01 -.565E+01 0.282E+03   -.377E-01 -.513E-02 0.205E+01
   0.193E+01 0.263E-01 0.297E+03   -.192E+01 -.270E-01 -.295E+03   -.447E-02 0.170E-03 -.203E+01
   0.882E+00 0.124E+01 0.296E+03   -.878E+00 -.123E+01 -.294E+03   -.955E-03 -.266E-02 -.203E+01
   0.200E+01 0.182E+01 0.100E+03   -.200E+01 -.182E+01 -.101E+03   -.859E-03 -.121E-02 0.127E+00
   0.280E+01 0.654E-01 0.108E+03   -.277E+01 -.690E-01 -.108E+03   0.240E-02 0.638E-03 0.173E+00
   0.103E+02 0.119E+00 -.801E+02   -.102E+02 -.129E+00 0.801E+02   -.172E+00 0.122E-01 0.419E-01
   0.273E+01 0.515E+01 -.871E+02   -.271E+01 -.512E+01 0.872E+02   -.148E-01 -.404E-01 -.313E-01
   0.569E+01 0.611E+01 -.284E+03   -.569E+01 -.608E+01 0.282E+03   -.493E-02 -.401E-01 0.205E+01
   0.250E+02 0.104E+01 -.229E+03   -.248E+02 -.110E+01 0.228E+03   -.231E+00 0.666E-01 0.127E+01
   0.151E+01 0.151E+01 0.296E+03   -.151E+01 -.151E+01 -.294E+03   -.251E-02 -.248E-02 -.203E+01
   0.130E+01 0.132E+01 0.297E+03   -.129E+01 -.131E+01 -.295E+03   -.308E-02 -.283E-02 -.204E+01
   0.347E+01 0.205E+01 0.104E+03   -.343E+01 -.203E+01 -.104E+03   -.470E-03 -.315E-02 0.135E+00
   0.201E+01 0.346E+01 0.104E+03   -.199E+01 -.342E+01 -.104E+03   -.314E-02 -.946E-03 0.129E+00
   0.567E+01 0.566E+01 -.857E+02   -.567E+01 -.565E+01 0.857E+02   -.890E-02 -.155E-01 -.310E-01
   0.739E+01 0.746E+01 -.735E+02   -.727E+01 -.734E+01 0.737E+02   -.136E+00 -.134E+00 -.286E+00
   0.204E+02 0.110E+02 -.271E+03   -.202E+02 -.110E+02 0.269E+03   -.195E+00 0.409E-01 0.205E+01
   0.111E+02 0.204E+02 -.270E+03   -.111E+02 -.203E+02 0.268E+03   0.306E-01 -.187E+00 0.207E+01
   -.298E-02 -.155E-01 0.295E+03   0.292E-02 0.157E-01 -.293E+03   0.150E-04 -.667E-04 -.203E+01
   0.126E+01 -.869E+00 0.296E+03   -.125E+01 0.865E+00 -.294E+03   -.237E-02 0.966E-03 -.203E+01
   0.219E-02 -.122E+01 0.101E+03   -.376E-02 0.121E+01 -.101E+03   -.236E-03 0.235E-03 0.135E+00
   0.119E+01 -.274E-01 0.991E+02   -.119E+01 0.281E-01 -.992E+02   -.154E-03 -.151E-04 0.131E+00
   -.101E-01 -.387E-01 -.917E+02   0.988E-02 0.390E-01 0.917E+02   0.449E-03 -.436E-04 -.545E-01
   0.524E+01 -.270E+01 -.871E+02   -.521E+01 0.269E+01 0.871E+02   -.362E-01 0.137E-01 -.295E-01
   0.278E-02 -.309E+01 -.283E+03   -.624E-02 0.311E+01 0.282E+03   0.267E-02 -.194E-01 0.205E+01
   0.262E+01 -.526E-01 -.286E+03   -.262E+01 0.540E-01 0.284E+03   0.903E-02 -.623E-03 0.205E+01
   -.178E-02 -.112E+01 0.295E+03   0.154E-02 0.112E+01 -.293E+03   0.654E-04 0.753E-03 -.203E+01
   0.865E+00 -.877E+00 0.295E+03   -.863E+00 0.875E+00 -.293E+03   -.702E-03 0.665E-03 -.203E+01
   -.424E-02 -.121E+01 0.991E+02   0.412E-02 0.121E+01 -.992E+02   0.471E-04 0.172E-03 0.130E+00
   0.186E+01 -.201E+01 0.100E+03   -.186E+01 0.201E+01 -.101E+03   -.979E-03 0.852E-03 0.125E+00
   -.739E-02 -.276E+01 -.902E+02   0.589E-02 0.276E+01 0.902E+02   0.135E-02 -.690E-02 -.549E-01
   0.233E+01 -.235E+01 -.907E+02   -.233E+01 0.235E+01 0.907E+02   0.546E-04 -.402E-04 -.565E-01
   -.638E-02 -.264E+01 -.286E+03   0.583E-02 0.265E+01 0.284E+03   0.295E-03 -.102E-01 0.205E+01
   0.624E+01 -.574E+01 -.283E+03   -.621E+01 0.574E+01 0.282E+03   -.362E-01 0.404E-02 0.205E+01
[...]
   -.543E+01 -.322E+01 0.857E+03   0.540E+01 0.320E+01 -.861E+03   0.416E-01 0.288E-01 0.347E+01
   -.237E+01 -.514E-01 0.852E+03   0.236E+01 0.519E-01 -.856E+03   0.548E-02 -.704E-03 0.351E+01
   -.126E+02 -.363E+00 -.833E+03   0.125E+02 0.368E+00 0.838E+03   0.204E-01 -.572E-02 -.491E+01
   -.294E+02 -.148E+02 -.822E+03   0.293E+02 0.147E+02 0.827E+03   0.670E-01 0.825E-01 -.491E+01
   -.252E+02 -.133E+02 -.241E+03   0.249E+02 0.133E+02 0.241E+03   0.300E+00 0.380E-01 0.491E+00
   -.567E+01 -.137E+00 -.271E+03   0.566E+01 0.140E+00 0.271E+03   0.166E-01 -.273E-02 0.272E+00
   -.833E+01 -.822E+01 0.307E+03   0.829E+01 0.818E+01 -.307E+03   0.551E-01 0.515E-01 0.447E-01
   -.420E+01 -.422E+01 0.299E+03   0.419E+01 0.421E+01 -.299E+03   0.150E-01 0.158E-01 0.460E-02
   -.373E+01 -.321E+01 0.854E+03   0.372E+01 0.320E+01 -.858E+03   0.123E-01 0.111E-01 0.350E+01
   -.318E+01 -.371E+01 0.854E+03   0.318E+01 0.370E+01 -.858E+03   0.116E-01 0.139E-01 0.350E+01
   -.341E+02 -.333E+02 -.817E+03   0.340E+02 0.332E+02 0.822E+03   0.969E-01 0.127E+00 -.495E+01
   -.107E+02 -.107E+02 -.834E+03   0.107E+02 0.107E+02 0.839E+03   0.336E-01 0.348E-01 -.492E+01
   -.108E+02 -.108E+02 -.264E+03   0.108E+02 0.108E+02 0.264E+03   0.431E-01 0.449E-01 0.276E+00
   -.108E+02 -.106E+02 -.264E+03   0.107E+02 0.106E+02 0.264E+03   0.310E-01 0.449E-01 0.274E+00
   -.604E-01 -.151E+01 -.110E+01   -.167E-11 0.284E-13 -.637E-11   0.592E-01 0.150E+01 0.941E+00

 POSITION                                       TOTAL-FORCE (eV/Angst)
      6.99204      7.33116     16.42563        -0.003998     -0.008145      0.000052
      5.56499      6.67580     16.52146        -0.002044     -0.004990     -0.000596
     10.10379      5.54243     16.44602        -0.001044     -0.002554     -0.000283
     11.54364      6.17380     16.50909         0.003556      0.000533     -0.000209
      7.66567      4.90022     16.44049        -0.001284     -0.002904     -0.000025
      8.29326      3.46338     16.56583         0.002823     -0.003900     -0.004059
      9.45146      8.02854     16.43211         0.004374     -0.004899      0.001327
      8.78644      9.45572     16.44442        -0.002001      0.000572      0.003134
      6.49108      6.49802     16.27704         0.003224      0.003045      0.000270
     10.61777      6.36245     16.27205        -0.001212      0.004099      0.000115
      8.48257      4.37554     16.28198         0.003516     -0.003395     -0.001162
      8.61347      8.51345     16.26467        -0.007718     -0.001497     -0.000958
      0.00000      6.40959      7.50000        -0.000206     -0.000098      0.356564
      2.13653      0.00000      7.50000         0.001575      0.001781      0.356778
      0.00000      0.00000      9.63653         0.000175      0.001533     -0.004912
      2.13653      6.40959      9.63653         0.026742     -0.001081      0.008388
     -0.00002      6.40957     11.77782         0.000322      0.000578      0.000972
      2.13594     -0.00045     11.77733         0.000180     -0.000255      0.000416
      0.00014     -0.00177     13.89517         0.000292      0.000744      0.001013
      2.13368      6.40976     13.89358        -0.001908      0.000857     -0.000462
      0.00000      2.13653      7.50000        -0.000037      0.001983      0.357258
      2.13653      4.27306      7.50000         0.005622      0.002665      0.359397
      0.00000      4.27306      9.63653         0.001069     -0.000012     -0.006633
      2.13653      2.13653      9.63653        -0.000175      0.003017     -0.005358
      0.00008      2.13581     11.77738         0.000101      0.000536     -0.000677
      2.13624      4.27355     11.77665        -0.001596     -0.000656     -0.000224
      0.00005      4.27040     13.89502         0.000751      0.000561     -0.002161
      2.13459      2.13338     13.89419        -0.003614     -0.001848     -0.001866
      4.27306      6.40959      7.50000         0.011098     -0.000442      0.370714
      6.40959      0.00000      7.50000         0.002920      0.006009      0.359278
      4.27306      0.00000      9.63653         0.002359      0.000905     -0.004779
      6.40959      6.40959      9.63653         0.031007     -0.002950      0.072468
      4.28141      6.40898     11.78336         0.000403      0.000198     -0.000650
      6.41011     -0.00060     11.77588        -0.001407     -0.001779      0.000525
      4.26962     -0.00180     13.89391        -0.001597     -0.003373     -0.001580
      6.41424      6.40182     13.96684         0.004054      0.000449     -0.002889
      4.27306      2.13653      7.50000         0.006295      0.006369      0.358968
      6.40959      4.27306      7.50000         0.008134      0.007576      0.377124
      4.27306      4.27306      9.63653         0.034499      0.020267      0.021890
      6.40959      2.13653      9.63653         0.021191      0.034381      0.020116
      4.27222      2.13667     11.77441        -0.001006     -0.001644      0.001145
      6.41912      4.28172     11.79269         0.000703      0.000157     -0.001648
      4.26945      4.26616     13.88373        -0.000579     -0.001963      0.000483
      6.40170      2.13342     13.87656        -0.000006     -0.000306      0.001116
      0.00000     14.95570      7.50000        -0.000042      0.000204      0.355837
      2.13653      8.54611      7.50000         0.005320     -0.002911      0.358922
      0.00000      8.54611      9.63653        -0.001791      0.000085     -0.007182
      2.13653     14.95570      9.63653         0.001079      0.000770     -0.004988
      0.00006     14.95591     11.77726         0.000181      0.000380      0.002296
      2.13537      8.54586     11.77558        -0.001693      0.000851      0.000576
      0.00003      8.54924     13.89483        -0.001131     -0.001055     -0.002402
      2.13452     14.95597     13.89514         0.000618      0.000894      0.000937
      0.00000     10.68264      7.50000        -0.000206     -0.001866      0.357132
      2.13653     12.81917      7.50000         0.001422     -0.001324      0.356580
      0.00000     12.81917      9.63653        -0.000074     -0.000541     -0.005302
      2.13653     10.68264      9.63653        -0.000801     -0.001558     -0.006012
     -0.00003     10.68373     11.77728        -0.000260     -0.000707     -0.000867
      2.13577     12.82011     11.77728        -0.000038     -0.000078     -0.000329
      0.00004     12.82163     13.89513        -0.000312     -0.000794      0.000567
      2.13422     10.68652     13.89376        -0.003180      0.001347     -0.001534
[...]
     14.95570      8.54611      9.63653         0.018580      0.005809      0.032194
     12.81917      8.54611      7.50000         0.011651      0.008132     -0.415785
     14.95570     14.95570      7.50000         0.001523     -0.000147     -0.405802
     12.82238     14.95598     13.94034         0.000443     -0.000285      0.002391
     14.96002      8.55079     13.94162        -0.002618     -0.000695      0.000854
     12.82580      8.54762     11.77181         0.001012     -0.000343      0.002259
     14.95677     14.95588     11.77273        -0.000488     -0.000203     -0.001582
     12.81917     10.68264      9.63653         0.014844      0.014367      0.033450
     14.95570     12.81917      9.63653         0.004241      0.004426      0.036248
     12.81917     12.81917      7.50000         0.003423      0.003124     -0.406687
     14.95570     10.68264      7.50000         0.003238      0.003916     -0.406940
     12.82870     10.69256     13.93895        -0.001353     -0.001378     -0.001778
     14.95895     12.82272     13.94020        -0.000262     -0.001198     -0.000069
     12.82087     12.82125     11.77199        -0.000408     -0.001506      0.001501
     14.95788     10.68441     11.77206        -0.001938      0.000280      0.001662
    total drift:                               -0.001205     -0.012376     -0.162544

  FREE ENERGIE OF THE ION-ELECTRON SYSTEM (eV)
  free  energy   TOTEN  =     -1094.89235580 eV

  energy  without entropy=    -1094.89235580  energy(sigma->0) =    -1094.89235580

 d Force = 0.1531004E-04[ 0.133E-04, 0.174E-04]  d Energy = 0.1477144E-04 0.539E-06
 d Force = 0.3374175E+00[ 0.337E+00, 0.337E+00]  d Ewald  = 0.3374173E+00 0.224E-06

 Conjugate gradient step on ions:
 trial-energy change:   -0.000015  1 .order   -0.000015   -0.000017   -0.000013
  (g-gl).g = 0.704E-04      g.g   = 0.107E-03  gl.gl    = 0.268E-03
 g(Force)  = 0.107E-03   g(Stress)= 0.000E+00 ortho     =-0.436E-05
 gamma     =   0.26236
 trial     =   0.16430
 opt step  =   0.65721  (harmonic =   0.69406) maximal distance =0.00057700
 next E    = -1094.892378   (d E  =  -0.00004)

 reached required accuracy - stopping structural energy minimisation