 vasp.6.3.0 20Jan22 (build Apr  1 2022 16:44:48) complex
 executed on        HPECrayEX_GCC date 2022.11.14  06:39:24

 INCAR:
   SYSTEM = MgO-rocksalt
   ISMEAR = 0
   SIGMA = 0.05
   EDIFF = 1E-6
   ALGO = ALL
   ISTART = 0
   IBRION = -1
   NSW = 0
   ISYM = 0
   DIPOL = 0.5 0.5 0.5
   IDIPOL = 3
   LDIPOL = .TRUE.
   LHFCALC = .TRUE.
   GGA = B5
   AEXX = 0.2
   AGGAX = 0.72
   AGGAC = 0.81
   ALDAC = 0.19
   IVDW = 1
   VDW_S6 = 1.05
   VDW_C6 = 1.23 0.70 0.63 0.70
   VDW_R0 = 1.397 1.342 1.243 1.342
   ENCUT = 600
   PREC = Accurate
   LASPH = .TRUE.
   LREAL = .FALSE.
   ISPIN = 2
   MAGMOM = 1.0 0.0 0.0 0.0 0.0 0.0 0.0 0.0 0.0 0.0 0.0 0.0 0.0 0.0 0.0 0.0 0.0 0.0 0.0 0.0 0.0 0.0 0.0 0.0 0.0 0.0 0.0 0.0 0.0 0.0 0.0 0.0 0.0 0.0 0.0 0.0 0.0 0.0 0.0 0.0 0.0 0.0 0.0 0.0 0.0 0.0 0.0 0.0 0.0 0.0 0.0 0.0 0.0 0.0 0.0 0.0 0.0 0.0 0.0 0.0 0.0 0.0 0.0 0.0 0.0 0.0
   NELM = 200
   NELMIN = 8
   NCORE = 8
   KPAR = 1
   LWAVE = .FALSE.
   LCHARG = .FALSE.

 POTCAR:    PAW_PBE N 08Apr2002
 POTCAR:    PAW_PBE O 08Apr2002
 POTCAR:    PAW_PBE Mg_pv 13Apr2007
 POTCAR:    PAW_PBE O 08Apr2002
 POTCAR:    PAW_PBE N 08Apr2002
   VRHFIN =N: s2p3

   TITEL  = PAW_PBE N 08Apr2002
   POMASS =   14.001; ZVAL   =    5.000    mass and valenz
   ENMAX  =  400.000; ENMIN  =  300.000 eV

[...]

   TITEL  = PAW_PBE Mg_pv 13Apr2007
   POMASS =   24.305; ZVAL   =    8.000    mass and valenz
   ENMAX  =  403.929; ENMIN  =  302.947 eV

   TITEL  = PAW_PBE O 08Apr2002
   POMASS =   16.000; ZVAL   =    6.000    mass and valenz
   ENMAX  =  400.000; ENMIN  =  300.000 eV

  PAW_PBE N 08Apr2002                   :
  PAW_PBE O 08Apr2002                   :
  PAW_PBE Mg_pv 13Apr2007               :
  PAW_PBE O 08Apr2002                   :

 POSCAR:  N  O Mg  O
  positions in direct lattice
 exchange correlation table for  LEXCH =       12
   RHO(1)=    0.500       N(1)  =     2000
   RHO(2)=  100.500       N(2)  =     4000

 ion  position               nearest neighbor table
   1  0.625  0.625  0.770-   2 1.15
   2  0.625  0.625  0.825-   1 1.15
   3  0.250  0.000  0.353-  37 2.09  38 2.09  45 2.09  54 2.09  35 2.09
   4  0.500  0.250  0.353-  37 2.09  38 2.09  46 2.09  53 2.09  36 2.09
   5  0.250  0.250  0.451-  35 2.09  36 2.09  43 2.09  52 2.09  37 2.09  41 2.10
   6  0.500  0.000  0.451-  35 2.09  36 2.09  44 2.09  51 2.09  38 2.09  42 2.09
   7  0.250  0.000  0.550-  49 2.09  42 2.09  58 2.09  41 2.09  35 2.10  39 2.13
   8  0.500  0.250  0.550-  50 2.09  42 2.09  57 2.09  41 2.09  36 2.10  40 2.12
   9  0.250  0.250  0.647-  41 2.08  39 2.09  56 2.09  47 2.09  40 2.09
  10  0.500  0.000  0.647-  42 2.08  48 2.08  40 2.09  39 2.09  55 2.09
  11  0.250  0.500  0.353-  37 2.09  45 2.09  46 2.09  62 2.09  43 2.09
  12  0.500  0.750  0.353-  38 2.09  45 2.09  46 2.09  61 2.09  44 2.09
  13  0.250  0.750  0.451-  35 2.09  43 2.09  44 2.09  60 2.09  45 2.09  49 2.09
  14  0.500  0.500  0.451-  36 2.09  43 2.09  44 2.09  59 2.09  46 2.09  50 2.10
  15  0.250  0.500  0.550-  50 2.09  66 2.09  49 2.09  41 2.09  43 2.10  47 2.12
  16  0.500  0.750  0.550-  65 2.09  50 2.09  49 2.09  42 2.09  44 2.10  48 2.11
  17  0.250  0.750  0.647-  49 2.08  48 2.08  64 2.09  39 2.09  47 2.09
  18  0.500  0.500  0.648-  40 2.09  47 2.09  50 2.09  63 2.09  48 2.09
  19  0.750  0.000  0.353-  38 2.09  53 2.09  54 2.09  61 2.09  51 2.09
  20  0.000  0.250  0.353-  37 2.09  53 2.09  54 2.09  62 2.09  52 2.09
  21  0.750  0.250  0.451-  36 2.09  51 2.09  52 2.09  59 2.09  53 2.09  57 2.09
  22  0.000  0.000  0.451-  35 2.09  51 2.09  52 2.09  60 2.09  54 2.09  58 2.10
  23  0.750  1.000  0.550-  65 2.09  57 2.09  42 2.09  58 2.09  51 2.10  55 2.12
  24  0.000  0.250  0.550-  57 2.09  66 2.09  58 2.09  41 2.09  52 2.10  56 2.13
  25  0.750  0.250  0.647-  57 2.08  63 2.08  55 2.09  56 2.09  40 2.09
  26  1.000  1.000  0.647-  58 2.08  56 2.09  39 2.09  64 2.09  55 2.09
  27  0.750  0.500  0.353-  46 2.09  53 2.09  61 2.09  62 2.09  59 2.09
  28  0.000  0.750  0.353-  45 2.09  54 2.09  61 2.09  62 2.09  60 2.09
  29  0.750  0.750  0.451-  44 2.09  51 2.09  59 2.09  60 2.09  61 2.09  65 2.10
  30  0.000  0.500  0.451-  43 2.09  52 2.09  59 2.09  60 2.09  62 2.09  66 2.09
  31  0.750  0.500  0.550-  65 2.09  50 2.09  57 2.09  66 2.09  59 2.10  63 2.11
  32  1.000  0.750  0.550-  65 2.09  49 2.09  66 2.09  58 2.09  60 2.10  64 2.12
  33  0.750  0.750  0.648-  55 2.09  64 2.09  65 2.09  48 2.09  63 2.09
  34  0.000  0.500  0.647-  66 2.08  63 2.08  47 2.09  56 2.09  64 2.09
  35  0.250  0.000  0.451-   5 2.09   6 2.09  13 2.09  22 2.09   3 2.09   7 2.10
  36  0.500  0.250  0.451-   5 2.09   6 2.09  14 2.09  21 2.09   4 2.09   8 2.10
  37  0.250  0.250  0.353-   3 2.09   4 2.09  11 2.09  20 2.09   5 2.09
  38  0.500  0.000  0.353-   3 2.09   4 2.09  12 2.09  19 2.09   6 2.09
  39  0.250  0.000  0.650-  26 2.09   9 2.09  17 2.09  10 2.09   7 2.13
  40  0.500  0.250  0.650-  10 2.09  25 2.09   9 2.09  18 2.09   8 2.12
  41  0.250  0.250  0.549-   9 2.08  24 2.09   7 2.09   8 2.09  15 2.09   5 2.10
  42  0.500  0.000  0.549-  10 2.08   7 2.09   8 2.09  23 2.09  16 2.09   6 2.09
  43  0.250  0.500  0.451-   5 2.09  13 2.09  14 2.09  30 2.09  11 2.09  15 2.10
  44  0.500  0.750  0.451-   6 2.09  13 2.09  14 2.09  29 2.09  12 2.09  16 2.10
  45  0.250  0.750  0.353-   3 2.09  11 2.09  12 2.09  28 2.09  13 2.09
  46  0.500  0.500  0.353-   4 2.09  11 2.09  12 2.09  27 2.09  14 2.09
  47  0.250  0.500  0.650-  34 2.09  17 2.09   9 2.09  18 2.09  15 2.12
  48  0.499  0.751  0.649-  10 2.08  17 2.08  33 2.09  18 2.09  16 2.11
  49  0.250  0.750  0.549-  17 2.08   7 2.09  32 2.09  15 2.09  16 2.09  13 2.09
  50  0.500  0.500  0.549-   8 2.09  15 2.09  31 2.09  16 2.09  18 2.09  14 2.10
  51  0.750  0.000  0.451-   6 2.09  21 2.09  22 2.09  29 2.09  19 2.09  23 2.10
  52  0.000  0.250  0.451-   5 2.09  21 2.09  22 2.09  30 2.09  20 2.09  24 2.10
  53  0.750  0.250  0.353-   4 2.09  19 2.09  20 2.09  27 2.09  21 2.09
  54  0.000  0.000  0.353-   3 2.09  19 2.09  20 2.09  28 2.09  22 2.09
  55  0.750  1.000  0.650-  25 2.09  10 2.09  26 2.09  33 2.09  23 2.12
  56  0.000  0.250  0.650-  26 2.09   9 2.09  25 2.09  34 2.09  24 2.13
  57  0.750  0.250  0.549-  25 2.08  24 2.09  23 2.09   8 2.09  31 2.09  21 2.09
  58  1.000  1.000  0.549-  26 2.08   7 2.09  24 2.09  23 2.09  32 2.09  22 2.10
  59  0.750  0.500  0.451-  14 2.09  21 2.09  29 2.09  30 2.09  27 2.09  31 2.10
  60  0.000  0.750  0.451-  13 2.09  22 2.09  29 2.09  30 2.09  28 2.09  32 2.10
  61  0.750  0.750  0.353-  12 2.09  19 2.09  27 2.09  28 2.09  29 2.09
  62  0.000  0.500  0.353-  11 2.09  20 2.09  27 2.09  28 2.09  30 2.09
  63  0.751  0.499  0.649-  34 2.08  25 2.08  33 2.09  18 2.09  31 2.11
  64  1.000  0.750  0.650-  17 2.09  34 2.09  26 2.09  33 2.09  32 2.12
  65  0.750  0.750  0.549-  23 2.09  32 2.09  16 2.09  31 2.09  33 2.09  29 2.10
  66  0.000  0.500  0.549-  34 2.08  24 2.09  15 2.09  32 2.09  31 2.09  30 2.09

IMPORTANT INFORMATION: All symmetrisations will be switched off!
NOSYMM: (Re-)initialisation of all symmetry stuff for point group C_1.

                                     Primitive cell

  volume of cell :    1482.1129

  direct lattice vectors                    reciprocal lattice vectors
     8.349111827  0.000000000  0.000000000     0.119773219  0.000000000  0.000000000
     0.000000000  8.349111827  0.000000000     0.000000000  0.119773219  0.000000000
     0.000000000  0.000000000 21.261833870     0.000000000  0.000000000  0.047032632

  length of vectors
     8.349111827  8.349111827 21.261833870     0.119773219  0.119773219  0.047032632

  position of ions in fractional coordinates (direct lattice)
     0.624945373  0.624945494  0.770265881
     0.624895022  0.624895013  0.824526701
     0.250000000  0.000000000  0.352744737
     0.500000000  0.250000000  0.352744737
     0.250000000  0.250000000  0.450914912
     0.500000000  0.000000000  0.450914912
     0.249948450  0.000051335  0.549665683
     0.500063798  0.250218749  0.549698116
     0.250093767  0.250093727  0.647365192
     0.499871913  0.000237558  0.647157840
     0.250000000  0.500000000  0.352744737
     0.500000000  0.750000000  0.352744737
     0.250000000  0.750000000  0.450914912
     0.500000000  0.500000000  0.450914912
     0.250218766  0.500063760  0.549698132
     0.499961740  0.750038720  0.549689812
     0.249762703  0.750130592  0.647159122
     0.500235009  0.500234993  0.647793814
     0.750000000  0.000000000  0.352744737
     0.000000000  0.250000000  0.352744737
     0.750000000  0.250000000  0.450914912
     0.000000000  0.000000000  0.450914912
     0.749937724  0.999782428  0.549698292
     0.000051410  0.249948530  0.549665690
     0.750130651  0.249762710  0.647159110
     0.999908464  0.999908525  0.647365789
     0.750000000  0.500000000  0.352744737
     0.000000000  0.750000000  0.352744737
     0.750000000  0.750000000  0.450914912
     0.000000000  0.500000000  0.450914912
     0.750038749  0.499961771  0.549689822
     0.999782411  0.749937738  0.549698303
     0.749766598  0.749766660  0.647793883
     0.000237574  0.499871971  0.647157849
     0.250000000  0.000000000  0.450914912
     0.500000000  0.250000000  0.450914912
     0.250000000  0.250000000  0.352744737
     0.500000000  0.000000000  0.352744737
     0.249889427  0.000112354  0.649663693
     0.500124343  0.250090537  0.649628757
     0.250012766  0.250012709  0.549453619
     0.499906227  0.000246350  0.549357116
     0.250000000  0.500000000  0.450914912
     0.500000000  0.750000000  0.450914912
     0.250000000  0.750000000  0.352744737
     0.500000000  0.500000000  0.352744737
     0.250090551  0.500124217  0.649628760
     0.499226526  0.750775330  0.649054066
     0.249755087  0.750094918  0.549357888
     0.500014243  0.500014163  0.549460223
     0.750000000  0.000000000  0.450914912
     0.000000000  0.250000000  0.450914912
     0.750000000  0.250000000  0.352744737
     0.000000000  0.000000000  0.352744737
     0.749877684  0.999910959  0.649629429
     0.000112329  0.249889427  0.649663678
     0.750094950  0.249755092  0.549357895
     0.999988051  0.999988088  0.549453445
     0.750000000  0.500000000  0.450914912
     0.000000000  0.750000000  0.450914912
     0.750000000  0.750000000  0.352744737
     0.000000000  0.500000000  0.352744737
     0.750775336  0.499226584  0.649054096
     0.999910975  0.749877804  0.649629424
     0.749985820  0.749985888  0.549460607
     0.000246334  0.499906260  0.549357122

  ion indices of the primitive-cell ions
   primitive index   ion index
                 1           1
                 2           2
                 3           3
                 4           4
                 5           5
                 6           6
                 7           7
                 8           8
                 9           9
                10          10
                11          11
                12          12
                13          13
                14          14
                15          15
                16          16
                17          17
                18          18
                19          19
                20          20
[...]
   0.75009495  0.24975509  0.54935790
   0.99998805  0.99998809  0.54945345
   0.75000000  0.50000000  0.45091491
   0.00000000  0.75000000  0.45091491
   0.75000000  0.75000000  0.35274474
   0.00000000  0.50000000  0.35274474
   0.75077534  0.49922658  0.64905410
   0.99991097  0.74987780  0.64962942
   0.74998582  0.74998589  0.54946061
   0.00024633  0.49990626  0.54935712

 position of ions in cartesian coordinates  (Angst):
   5.21773880  5.21773982 16.37726519
   5.21731842  5.21731834 17.53094974
   2.08727796  0.00000000  7.50000000
   4.17455591  2.08727796  7.50000000
   2.08727796  2.08727796  9.58727796
   4.17455591  0.00000000  9.58727796
   2.08684756  0.00042860 11.68690044
   4.17508857  2.08910432 11.68759002
   2.08806083  2.08806050 13.76417117
   4.17348650  0.00198340 13.75976248
   2.08727796  4.17455591  7.50000000
   4.17455591  6.26183387  7.50000000
   2.08727796  6.26183387  9.58727796
   4.17455591  4.17455591  9.58727796
   2.08910446  4.17508825 11.68759036
   4.17423648  6.26215715 11.68741346
   2.08529674  6.26292420 13.75978973
   4.17651803  4.17651789 13.77328445
   6.26183387  0.00000000  7.50000000
   0.00000000  2.08727796  7.50000000
   6.26183387  2.08727796  9.58727796
   0.00000000  0.00000000  9.58727796
   6.26131392  8.34729529 11.68759376
   0.00042923  2.08684823 11.68690058
   6.26292469  2.08529680 13.75978949
   8.34834759  8.34834810 13.76418387
   6.26183387  4.17455591  7.50000000
   0.00000000  6.26183387  7.50000000
   6.26183387  6.26183387  9.58727796
   0.00000000  4.17455591  9.58727796
   6.26215739  4.17423673 11.68741367
   8.34729515  6.26131403 11.68759399
   6.25988517  6.25988569 13.77328592
   0.00198353  4.17348699 13.75976267
   2.08727796  0.00000000  9.58727796
   4.17455591  2.08727796  9.58727796
   2.08727796  2.08727796  7.50000000
   4.17455591  0.00000000  7.50000000
   2.08635477  0.00093805 13.81304152
   4.17559407  2.08803386 13.81229871
   2.08738454  2.08738406 11.68239156
   4.17377299  0.00205680 11.68033974
   2.08727796  4.17455591  9.58727796
   4.17455591  6.26183387  9.58727796
   2.08727796  6.26183387  7.50000000
   4.17455591  4.17455591  7.50000000
   2.08803397  4.17559301 13.81229877
   4.16809810  6.26830718 13.80007973
   2.08523315  6.26262635 11.68035616
   4.17467483  4.17467416 11.68253197
   6.26183387  0.00000000  9.58727796
   0.00000000  2.08727796  9.58727796
   6.26183387  2.08727796  7.50000000
   0.00000000  0.00000000  7.50000000
   6.26081264  8.34836841 13.81231300
   0.00093785  2.08635477 13.81304120
   6.26262662  2.08523319 11.68035631
   8.34901206  8.34901237 11.68238787
   6.26183387  4.17455591  9.58727796
   0.00000000  6.26183387  9.58727796
   6.26183387  6.26183387  7.50000000
   0.00000000  4.17455591  7.50000000
   6.26830724  4.16809858 13.80008036
   8.34836854  6.26081365 13.81231289
   6.26171548  6.26171605 11.68254015
   0.00205667  4.17377327 11.68033987

--------------------------------------- Iteration      FINAL  ---------------------------------------

--------------------OUTCAR has been truncated-------------------------

[...]

--------------------OUTCAR has been truncated-------------------------

  DFT-D2 method for vdW energy calculation

  Parameters of vdW forcefield:
         C6(Jnm^6/mol)     R0(A)
   N        1.230          1.397
   O        0.700          1.342
   Mg       0.630          1.243
   O        0.700          1.342

  vdW correction parametrized for the method        ÷

  IVDW =   1
  VDW_RADIUS =    50.000 A
  VDW_S6 =     1.050
  VDW_SR =     1.000
  VDW_D =    20.000
  LVDW_EWALD = F

  Number of pair interactions contributing to vdW energy:  788801
  Edisp (eV):   -5.40510

 VOLUME and BASIS-vectors are now :
  energy-cutoff  :      600.00
  volume of cell :     1482.11
      direct lattice vectors                 reciprocal lattice vectors
     8.349111827  0.000000000  0.000000000     0.119773219  0.000000000  0.000000000
     0.000000000  8.349111827  0.000000000     0.000000000  0.119773219  0.000000000
     0.000000000  0.000000000 21.261833870     0.000000000  0.000000000  0.047032632

  length of vectors
     8.349111827  8.349111827 21.261833870     0.119773219  0.119773219  0.047032632

 FORCES acting on ions:
    Electron-Ion                     Ewald-Force                    Non-Local-Force
   -.101E+00 -.101E+00 -.105E+04   0.118E+00 0.119E+00 0.101E+04   -.158E-01 -.158E-01 0.419E+02
   0.938E-01 0.941E-01 -.149E+04   -.117E+00 -.117E+00 0.155E+04   0.201E-01 0.202E-01 -.554E+02
   0.156E+00 -.156E+00 0.214E+04   -.157E+00 0.156E+00 -.213E+04   0.179E-03 -.171E-03 -.644E+01
   0.157E+00 0.153E+00 0.214E+04   -.157E+00 -.152E+00 -.213E+04   0.629E-05 -.580E-03 -.644E+01
   0.534E+00 0.534E+00 0.736E+03   -.527E+00 -.527E+00 -.736E+03   -.445E-02 -.444E-02 0.439E+00
   0.531E+00 -.664E+00 0.737E+03   -.529E+00 0.681E+00 -.738E+03   -.113E-02 -.113E-01 0.402E+00
   0.272E+01 -.272E+01 -.658E+03   -.273E+01 0.273E+01 0.658E+03   0.248E-02 -.239E-02 -.113E+00
   0.281E+01 0.327E+01 -.654E+03   -.281E+01 -.325E+01 0.654E+03   0.411E-02 -.195E-01 -.139E+00
   0.851E+01 0.851E+01 -.205E+04   -.854E+01 -.854E+01 0.204E+04   0.188E-01 0.188E-01 0.537E+01
   0.960E+01 -.179E+02 -.204E+04   -.962E+01 0.179E+02 0.203E+04   0.129E-01 0.463E-01 0.540E+01
   0.153E+00 0.157E+00 0.214E+04   -.152E+00 -.157E+00 -.213E+04   -.576E-03 0.815E-07 -.644E+01
   0.151E+00 -.152E+00 0.214E+04   -.151E+00 0.152E+00 -.213E+04   -.242E-04 0.211E-04 -.644E+01
   0.665E+00 -.532E+00 0.737E+03   -.683E+00 0.530E+00 -.738E+03   0.113E-01 0.112E-02 0.402E+00
   0.683E+00 0.683E+00 0.738E+03   -.685E+00 -.685E+00 -.739E+03   0.201E-02 0.202E-02 0.427E+00
   0.327E+01 0.281E+01 -.654E+03   -.325E+01 -.281E+01 0.654E+03   -.195E-01 0.411E-02 -.139E+00
   0.347E+01 -.347E+01 -.644E+03   -.344E+01 0.344E+01 0.644E+03   -.221E-01 0.222E-01 -.319E+00
   0.179E+02 -.961E+01 -.204E+04   -.179E+02 0.963E+01 0.203E+04   -.461E-01 -.130E-01 0.540E+01
   0.253E+02 0.253E+02 -.199E+04   -.255E+02 -.255E+02 0.199E+04   0.136E+00 0.136E+00 0.539E+01
   -.157E+00 -.153E+00 0.214E+04   0.157E+00 0.152E+00 -.213E+04   -.336E-05 0.574E-03 -.644E+01
   -.156E+00 0.156E+00 0.214E+04   0.156E+00 -.157E+00 -.213E+04   -.180E-03 0.171E-03 -.644E+01
   -.532E+00 0.665E+00 0.737E+03   0.530E+00 -.682E+00 -.738E+03   0.112E-02 0.113E-01 0.402E+00
   -.533E+00 -.533E+00 0.736E+03   0.526E+00 0.526E+00 -.736E+03   0.442E-02 0.443E-02 0.439E+00
   -.281E+01 -.327E+01 -.654E+03   0.282E+01 0.325E+01 0.654E+03   -.412E-02 0.193E-01 -.139E+00
   -.272E+01 0.272E+01 -.658E+03   0.273E+01 -.273E+01 0.658E+03   -.237E-02 0.251E-02 -.113E+00
   -.961E+01 0.179E+02 -.204E+04   0.963E+01 -.179E+02 0.203E+04   -.130E-01 -.461E-01 0.540E+01
   -.850E+01 -.850E+01 -.205E+04   0.852E+01 0.852E+01 0.204E+04   -.189E-01 -.189E-01 0.537E+01
   -.152E+00 0.151E+00 0.214E+04   0.152E+00 -.151E+00 -.213E+04   0.168E-04 -.295E-04 -.644E+01
   -.153E+00 -.157E+00 0.214E+04   0.152E+00 0.157E+00 -.213E+04   0.573E-03 0.224E-05 -.644E+01
   -.684E+00 -.684E+00 0.738E+03   0.686E+00 0.686E+00 -.739E+03   -.201E-02 -.202E-02 0.427E+00
   -.664E+00 0.531E+00 0.737E+03   0.681E+00 -.529E+00 -.738E+03   -.113E-01 -.115E-02 0.402E+00
   -.347E+01 0.347E+01 -.644E+03   0.344E+01 -.344E+01 0.644E+03   0.222E-01 -.221E-01 -.319E+00
   -.327E+01 -.281E+01 -.654E+03   0.325E+01 0.282E+01 0.654E+03   0.193E-01 -.412E-02 -.139E+00
   -.254E+02 -.254E+02 -.199E+04   0.255E+02 0.255E+02 0.199E+04   -.136E+00 -.136E+00 0.539E+01
   -.179E+02 0.960E+01 -.204E+04   0.179E+02 -.962E+01 0.203E+04   0.463E-01 0.130E-01 0.540E+01
   0.487E+00 -.487E+00 0.552E+03   -.480E+00 0.479E+00 -.551E+03   -.973E-02 0.968E-02 -.854E-01
   0.502E+00 0.476E+00 0.552E+03   -.501E+00 -.491E+00 -.552E+03   -.218E-02 0.182E-01 -.984E-01
   0.108E+00 0.108E+00 0.160E+04   -.108E+00 -.108E+00 -.161E+04   -.776E-03 -.772E-03 0.310E+01
   0.109E+00 -.122E+00 0.160E+04   -.108E+00 0.123E+00 -.161E+04   -.968E-03 -.462E-03 0.310E+01
   0.680E+01 -.679E+01 -.156E+04   -.680E+01 0.680E+01 0.157E+04   0.379E-02 -.413E-02 -.467E+01
   0.768E+01 0.132E+02 -.155E+04   -.767E+01 -.131E+02 0.156E+04   -.542E-02 -.446E-01 -.465E+01
   0.172E+01 0.172E+01 -.488E+03   -.171E+01 -.171E+01 0.488E+03   -.857E-02 -.854E-02 0.279E+00
   0.179E+01 -.280E+01 -.483E+03   -.178E+01 0.278E+01 0.483E+03   -.181E-02 0.103E-01 0.305E+00
   0.476E+00 0.502E+00 0.552E+03   -.491E+00 -.501E+00 -.552E+03   0.182E-01 -.218E-02 -.984E-01
   0.457E+00 -.458E+00 0.553E+03   -.454E+00 0.455E+00 -.553E+03   -.370E-02 0.371E-02 -.864E-01
   0.123E+00 -.109E+00 0.160E+04   -.123E+00 0.108E+00 -.161E+04   0.456E-03 0.968E-03 0.310E+01
   0.121E+00 0.121E+00 0.160E+04   -.122E+00 -.122E+00 -.161E+04   0.125E-02 0.125E-02 0.310E+01
   0.132E+02 0.768E+01 -.155E+04   -.131E+02 -.767E+01 0.156E+04   -.446E-01 -.539E-02 -.465E+01
   0.192E+02 -.192E+02 -.151E+04   -.191E+02 0.191E+02 0.152E+04   -.845E-01 0.848E-01 -.467E+01
   0.280E+01 -.179E+01 -.483E+03   -.278E+01 0.178E+01 0.483E+03   -.105E-01 0.200E-02 0.304E+00
   0.287E+01 0.287E+01 -.479E+03   -.283E+01 -.283E+01 0.479E+03   -.320E-01 -.319E-01 0.156E+00
   -.502E+00 -.475E+00 0.552E+03   0.501E+00 0.490E+00 -.552E+03   0.233E-02 -.182E-01 -.984E-01
   -.487E+00 0.487E+00 0.552E+03   0.479E+00 -.480E+00 -.551E+03   0.969E-02 -.972E-02 -.854E-01
   -.109E+00 0.123E+00 0.160E+04   0.108E+00 -.123E+00 -.161E+04   0.973E-03 0.460E-03 0.310E+01
   -.108E+00 -.108E+00 0.160E+04   0.108E+00 0.108E+00 -.161E+04   0.771E-03 0.770E-03 0.310E+01
   -.768E+01 -.132E+02 -.155E+04   0.767E+01 0.131E+02 0.156E+04   0.539E-02 0.445E-01 -.465E+01
   -.679E+01 0.680E+01 -.156E+04   0.680E+01 -.680E+01 0.157E+04   -.413E-02 0.379E-02 -.467E+01
   -.179E+01 0.280E+01 -.483E+03   0.178E+01 -.278E+01 0.483E+03   0.200E-02 -.105E-01 0.304E+00
   -.171E+01 -.171E+01 -.488E+03   0.170E+01 0.170E+01 0.488E+03   0.848E-02 0.846E-02 0.279E+00
   -.458E+00 0.457E+00 0.553E+03   0.455E+00 -.454E+00 -.553E+03   0.372E-02 -.370E-02 -.864E-01
   -.475E+00 -.502E+00 0.552E+03   0.490E+00 0.501E+00 -.552E+03   -.182E-01 0.233E-02 -.984E-01
   -.122E+00 -.122E+00 0.160E+04   0.122E+00 0.122E+00 -.161E+04   -.124E-02 -.124E-02 0.310E+01
   -.122E+00 0.109E+00 0.160E+04   0.123E+00 -.108E+00 -.161E+04   -.462E-03 -.964E-03 0.310E+01
   -.192E+02 0.192E+02 -.151E+04   0.191E+02 -.191E+02 0.152E+04   0.849E-01 -.845E-01 -.467E+01
   -.132E+02 -.768E+01 -.155E+04   0.131E+02 0.767E+01 0.156E+04   0.445E-01 0.535E-02 -.465E+01
   -.287E+01 -.287E+01 -.479E+03   0.284E+01 0.284E+01 0.479E+03   0.321E-01 0.321E-01 0.156E+00
   -.280E+01 0.179E+01 -.483E+03   0.278E+01 -.178E+01 0.483E+03   0.103E-01 -.182E-02 0.305E+00
   -.595E-02 -.595E-02 0.371E+02   -.162E-12 -.327E-12 0.188E-11   0.469E-02 0.471E-02 -.311E+02

 POSITION                                       TOTAL-FORCE (eV/Angst)
      5.21774      5.21774     16.37727         0.000121      0.000132     -0.450561
      5.21732      5.21732     17.53095        -0.000195     -0.000168      0.475306
      2.08728      0.00000      7.50000        -0.000021      0.000022      0.310078
      4.17456      2.08728      7.50000         0.000038      0.000179      0.311113
      2.08728      2.08728      9.58728         0.002202      0.002214      0.046126
      4.17456      0.00000      9.58728         0.000438      0.005057      0.045705
      2.08685      0.00043     11.68690        -0.001220      0.001326      0.024017
      4.17509      2.08910     11.68759        -0.003261     -0.000623      0.022013
      2.08806      2.08806     13.76417        -0.002963     -0.002966      0.116501
      4.17349      0.00198     13.75976        -0.001166      0.005864      0.110490
      2.08728      4.17456      7.50000         0.000180      0.000022      0.311109
      4.17456      6.26183      7.50000         0.000057     -0.000066      0.309823
      2.08728      6.26183      9.58728        -0.005037     -0.000418      0.045633
      4.17456      4.17456      9.58728         0.000555      0.000550      0.047656
      2.08910      4.17509     11.68759        -0.000619     -0.003258      0.022008
      4.17424      6.26216     11.68741         0.002719     -0.002714      0.013774
      2.08530      6.26292     13.75979        -0.005833      0.001113      0.110297
      4.17652      4.17652     13.77328        -0.003293     -0.003299      0.135185
      6.26183      0.00000      7.50000        -0.000032     -0.000177      0.311120
      0.00000      2.08728      7.50000         0.000022     -0.000022      0.310044
      6.26183      2.08728      9.58728        -0.000423     -0.005039      0.045632
      0.00000      0.00000      9.58728        -0.002198     -0.002188      0.046153
      6.26131      8.34730     11.68759         0.003183      0.000636      0.021972
      0.00043      2.08685     11.68690         0.001326     -0.001213      0.024016
      6.26292      2.08530     13.75979         0.001106     -0.005836      0.110263
      8.34835      8.34835     13.76418         0.002969      0.002960      0.116396
      6.26183      4.17456      7.50000        -0.000064      0.000051      0.309792
      0.00000      6.26183      7.50000        -0.000182     -0.000028      0.311068
      6.26183      6.26183      9.58728        -0.000550     -0.000552      0.047602
      0.00000      4.17456      9.58728         0.005060      0.000421      0.045705
      6.26216      4.17424     11.68741        -0.002711      0.002722      0.013769
      8.34730      6.26131     11.68759         0.000627      0.003186      0.021961
      6.25989      6.25989     13.77329         0.003269      0.003279      0.135055
      0.00198      4.17349     13.75976         0.005861     -0.001178      0.110491
      2.08728      0.00000      9.58728        -0.003407      0.003395      0.062481
      4.17456      2.08728      9.58728        -0.001079      0.005597      0.061661
      2.08728      2.08728      7.50000        -0.000250     -0.000243     -0.592557
      4.17456      0.00000      7.50000        -0.000305     -0.000125     -0.592586
      2.08635      0.00094     13.81304         0.001546     -0.001584      0.015204
      4.17559      2.08803     13.81230        -0.000285     -0.001297      0.022372
      2.08738      2.08738     11.68239         0.000389      0.000400      0.006873
      4.17377      0.00206     11.68034         0.002320     -0.003360      0.007817
      2.08728      4.17456      9.58728         0.005598     -0.001094      0.061657
      4.17456      6.26183      9.58728        -0.001103      0.001114      0.065593
      2.08728      6.26183      7.50000         0.000124      0.000313     -0.592585
      4.17456      4.17456      7.50000         0.000441      0.000436     -0.592721
      2.08803      4.17559     13.81230        -0.001296     -0.000256      0.022380
      4.16810      6.26831     13.80008         0.005581     -0.005575      0.026766
      2.08523      6.26263     11.68036         0.003281     -0.002299      0.007723
      4.17467      4.17467     11.68253         0.000075      0.000082      0.016316
      6.26183      0.00000      9.58728         0.001129     -0.005574      0.061686
      0.00000      2.08728      9.58728         0.003394     -0.003408      0.062477
      6.26183      2.08728      7.50000         0.000310      0.000127     -0.592568
      0.00000      0.00000      7.50000         0.000245      0.000246     -0.592568
      6.26081      8.34837     13.81231         0.000290      0.001239      0.022275
      0.00094      2.08635     13.81304        -0.001570      0.001561      0.015180
      6.26263      2.08523     11.68036        -0.002286      0.003282      0.007706
      8.34901      8.34901     11.68239        -0.000444     -0.000450      0.006926
      6.26183      4.17456      9.58728         0.001112     -0.001110      0.065596
      0.00000      6.26183      9.58728        -0.005581      0.001132      0.061688
      6.26183      6.26183      7.50000        -0.000435     -0.000438     -0.592705
      0.00000      4.17456      7.50000        -0.000129     -0.000318     -0.592581
      6.26831      4.16810     13.80008        -0.005545      0.005606      0.026766
      8.34837      6.26081     13.81231         0.001242      0.000274      0.022292
      6.26172      6.26172     11.68254         0.000032      0.000020      0.016297
      0.00206      4.17377     11.68034        -0.003358      0.002317      0.007825
    total drift:                                0.000013      0.000038      0.015737

  FREE ENERGIE OF THE ION-ELECTRON SYSTEM (eV)
  free  energy   TOTEN  =      -455.00084383 eV

  energy  without entropy=     -455.00084383  energy(sigma->0) =     -455.00084383