 vasp.6.3.0 20Jan22 (build Apr  1 2022 16:44:48) complex
 executed on        HPECrayEX_GCC date 2022.10.24  23:44:11

 INCAR:
   SYSTEM = MgO-rocksalt
   ISMEAR = 0
   SIGMA = 0.05
   EDIFF = 1E-8
   ALGO = ALL
   ISTART = 0
   IBRION = 2
   NSW = 1000
   ISYM = 0
   ISIF = 2
   EDIFFG = -0.015
   DIPOL = 0.5 0.5 0.5
   IDIPOL = 3
   LDIPOL = .TRUE.
   LHFCALC = .TRUE.
   GGA = PE
   IVDW = 13
   VDW_S8 = 1.2007
   VDW_A1 = 0.4009
   VDW_A2 = 5.0293
   ENCUT = 600
   PREC = Accurate
   LASPH = .TRUE.
   LREAL = .FALSE.
   ISPIN = 1
   NELM = 200
   NELMIN = 8
   NCORE = 8
   KPAR = 1
   LWAVE = .FALSE.
   LCHARG = .FALSE.

 POTCAR:    PAW_PBE C 08Apr2002
 POTCAR:    PAW_PBE H 15Jun2001
 POTCAR:    PAW_PBE Mg_pv 13Apr2007
 POTCAR:    PAW_PBE O 08Apr2002
 POTCAR:    PAW_PBE C 08Apr2002
   VRHFIN =C: s2p2

   TITEL  = PAW_PBE C 08Apr2002
   POMASS =   12.011; ZVAL   =    4.000    mass and valenz
   ENMAX  =  400.000; ENMIN  =  300.000 eV

   TITEL  = PAW_PBE H 15Jun2001
   POMASS =    1.000; ZVAL   =    1.000    mass and valenz
   ENMAX  =  250.000; ENMIN  =  200.000 eV

   TITEL  = PAW_PBE Mg_pv 13Apr2007
   POMASS =   24.305; ZVAL   =    8.000    mass and valenz
   ENMAX  =  403.929; ENMIN  =  302.947 eV

   TITEL  = PAW_PBE O 08Apr2002
   POMASS =   16.000; ZVAL   =    6.000    mass and valenz
   ENMAX  =  400.000; ENMIN  =  300.000 eV

  PAW_PBE C 08Apr2002                   :
  PAW_PBE H 15Jun2001                   :
  PAW_PBE Mg_pv 13Apr2007               :
  PAW_PBE O 08Apr2002                   :

 POSCAR:  C  H Mg  O
  positions in direct lattice
|           W    W    AA    RRRRR   N    N  II  N    N   GGGG   !!!           |
|           W    W   A  A   R    R  NN   N  II  NN   N  G    G  !!!           |
|           W    W  A    A  R    R  N N  N  II  N N  N  G       !!!           |
|           W WW W  AAAAAA  RRRRR   N  N N  II  N  N N  G  GGG   !            |
|           WW  WW  A    A  R   R   N   NN  II  N   NN  G    G                |
|           W    W  A    A  R    R  N    N  II  N    N   GGGG   !!!           |
|     Specifying the vdW parameters                                           |
|     VDW_S8 = 1.201                                                          |
|     VDW_A1 = 0.401                                                          |
|     VDW_A2 = 5.029                                                          |
|     in the INCAR file will overwrite the defaults for pbe0. Please make     |
|     sure that is what you intended.                                         |

 ion  position               nearest neighbor table
   1  0.508  0.498  0.793-   5 1.09   4 1.09   3 1.09   2 1.52
   2  0.678  0.499  0.818-   6 1.09   8 1.09   7 1.09   1 1.52
   3  0.486  0.392  0.764-   1 1.09
   4  0.483  0.605  0.765-   1 1.09
   5  0.419  0.495  0.831-   1 1.09
   6  0.764  0.500  0.780-   2 1.09
   7  0.702  0.394  0.847-   2 1.09
   8  0.700  0.605  0.847-   2 1.09
   9  0.250  0.000  0.353-  43 2.09  44 2.09  60 2.09  41 2.09  51 2.09
  10  0.500  0.250  0.353-  59 2.09  44 2.09  52 2.09  43 2.09  42 2.09
  11  0.250  0.250  0.451-  41 2.09  42 2.09  49 2.09  58 2.09  43 2.09  47 2.10
  12  0.500  0.000  0.451-  57 2.09  42 2.09  41 2.09  44 2.09  50 2.09  48 2.10
  13  0.250  0.000  0.550-  47 2.09  55 2.09  48 2.09  64 2.09  41 2.10  45 2.12
  14  0.500  0.250  0.550-  56 2.09  63 2.09  47 2.09  48 2.09  42 2.10  46 2.12
  15  0.250  0.250  0.647-  47 2.08  62 2.09  53 2.09  45 2.09  46 2.09
  16  0.500  1.000  0.647-  48 2.08  54 2.08  46 2.08  45 2.09  61 2.09
  17  0.250  0.500  0.353-  51 2.09  43 2.09  52 2.09  68 2.09  49 2.09
  18  0.500  0.750  0.353-  52 2.09  67 2.09  51 2.09  50 2.09  44 2.09
  19  0.250  0.750  0.451-  49 2.09  50 2.09  66 2.09  51 2.09  41 2.09  55 2.10
  20  0.500  0.500  0.451-  50 2.09  65 2.09  42 2.09  49 2.09  52 2.09  56 2.10
  21  0.250  0.500  0.550-  56 2.09  55 2.09  47 2.09  72 2.09  49 2.10  53 2.12
  22  0.500  0.750  0.550-  56 2.09  71 2.09  55 2.09  48 2.09  50 2.10  54 2.12
  23  0.250  0.750  0.647-  55 2.08  70 2.09  53 2.09  45 2.09  54 2.09
  24  0.500  0.500  0.648-  53 2.09  54 2.09  46 2.09  69 2.09  56 2.09
  25  0.750  0.000  0.353-  44 2.09  59 2.09  57 2.09  60 2.09  67 2.09
  26  0.000  0.250  0.353-  43 2.09  60 2.09  68 2.09  58 2.09  59 2.09
  27  0.750  0.250  0.451-  42 2.09  57 2.09  65 2.09  59 2.09  58 2.09  63 2.10
  28  0.000  0.000  0.451-  41 2.09  58 2.09  60 2.09  57 2.09  66 2.09  64 2.10
  29  0.750  0.000  0.550-  71 2.09  63 2.09  48 2.09  64 2.09  57 2.10  61 2.12
  30  1.000  0.250  0.550-  72 2.09  63 2.09  47 2.09  64 2.09  58 2.10  62 2.12
  31  0.750  0.250  0.647-  63 2.08  62 2.09  61 2.09  69 2.09  46 2.09
  32  1.000  0.000  0.647-  64 2.08  45 2.09  61 2.09  62 2.09  70 2.09
  33  0.750  0.500  0.353-  52 2.09  67 2.09  59 2.09  65 2.09  68 2.09
  34  0.000  0.750  0.353-  68 2.09  51 2.09  66 2.09  67 2.09  60 2.09
  35  0.750  0.750  0.451-  50 2.09  65 2.09  67 2.09  66 2.09  57 2.09  71 2.10
  36  0.000  0.500  0.451-  66 2.09  58 2.09  49 2.09  68 2.09  65 2.09  72 2.09
  37  0.750  0.500  0.550-  56 2.09  71 2.09  63 2.09  72 2.09  65 2.10  69 2.12
  38  1.000  0.750  0.550-  72 2.09  71 2.09  55 2.09  64 2.09  66 2.10  70 2.12
  39  0.750  0.750  0.647-  71 2.08  70 2.09  61 2.09  69 2.09  54 2.09
  40  0.000  0.500  0.647-  72 2.08  53 2.08  69 2.09  70 2.09  62 2.09
  41  0.250  0.000  0.451-  11 2.09  12 2.09  28 2.09   9 2.09  19 2.09  13 2.10
  42  0.500  0.250  0.451-  27 2.09  12 2.09  20 2.09  11 2.09  10 2.09  14 2.10
  43  0.250  0.250  0.353-   9 2.09  10 2.09  17 2.09  26 2.09  11 2.09
  44  0.500  0.000  0.353-  25 2.09  10 2.09   9 2.09  12 2.09  18 2.09
  45  0.250  0.000  0.650-  32 2.09  23 2.09  15 2.09  16 2.09  13 2.12
  46  0.500  0.250  0.650-  16 2.08  31 2.09  15 2.09  24 2.09  14 2.12
  47  0.250  0.250  0.549-  15 2.08  13 2.09  30 2.09  14 2.09  21 2.09  11 2.10
  48  0.500  1.000  0.549-  16 2.08  29 2.09  13 2.09  22 2.09  14 2.09  12 2.10
  49  0.250  0.500  0.451-  19 2.09  11 2.09  20 2.09  36 2.09  17 2.09  21 2.10
  50  0.500  0.750  0.451-  20 2.09  35 2.09  19 2.09  18 2.09  12 2.09  22 2.10
  51  0.250  0.750  0.353-  17 2.09  18 2.09  34 2.09  19 2.09   9 2.09
  52  0.500  0.500  0.353-  18 2.09  33 2.09  10 2.09  17 2.09  20 2.09
  53  0.250  0.500  0.649-  40 2.08  15 2.09  23 2.09  24 2.09  21 2.12
  54  0.500  0.750  0.650-  16 2.08  39 2.09  23 2.09  24 2.09  22 2.12
  55  0.250  0.750  0.549-  23 2.08  13 2.09  38 2.09  22 2.09  21 2.09  19 2.10
  56  0.500  0.500  0.550-  37 2.09  22 2.09  14 2.09  21 2.09  24 2.09  20 2.10
  57  0.750  0.000  0.451-  12 2.09  27 2.09  25 2.09  28 2.09  35 2.09  29 2.10
  58  0.000  0.250  0.451-  11 2.09  28 2.09  36 2.09  26 2.09  27 2.09  30 2.10
  59  0.750  0.250  0.353-  10 2.09  25 2.09  33 2.09  27 2.09  26 2.09
  60  0.000  0.000  0.353-   9 2.09  26 2.09  28 2.09  25 2.09  34 2.09
  61  0.750  0.000  0.650-  31 2.09  39 2.09  32 2.09  16 2.09  29 2.12
  62  1.000  0.250  0.650-  31 2.09  15 2.09  32 2.09  40 2.09  30 2.12
  63  0.750  0.250  0.549-  31 2.08  29 2.09  30 2.09  14 2.09  37 2.09  27 2.10
  64  1.000  0.000  0.549-  32 2.08  29 2.09  38 2.09  30 2.09  13 2.09  28 2.10
  65  0.750  0.500  0.451-  20 2.09  35 2.09  27 2.09  33 2.09  36 2.09  37 2.10
  66  0.000  0.750  0.451-  36 2.09  19 2.09  34 2.09  35 2.09  28 2.09  38 2.10
  67  0.750  0.750  0.353-  18 2.09  33 2.09  35 2.09  34 2.09  25 2.09
  68  0.000  0.500  0.353-  34 2.09  26 2.09  17 2.09  36 2.09  33 2.09
  69  0.750  0.500  0.650-  40 2.09  31 2.09  39 2.09  24 2.09  37 2.12
  70  1.000  0.750  0.650-  39 2.09  23 2.09  32 2.09  40 2.09  38 2.12
  71  0.750  0.750  0.549-  39 2.08  29 2.09  38 2.09  22 2.09  37 2.09  35 2.10
  72  1.000  0.500  0.549-  40 2.08  30 2.09  38 2.09  37 2.09  21 2.09  36 2.09

IMPORTANT INFORMATION: All symmetrisations will be switched off!
NOSYMM: (Re-)initialisation of all symmetry stuff for point group C_1.

                                     Primitive cell

  volume of cell :    1482.1129

  direct lattice vectors                    reciprocal lattice vectors
     8.349111827  0.000000000  0.000000000     0.119773219  0.000000000  0.000000000
     0.000000000  8.349111827  0.000000000     0.000000000  0.119773219  0.000000000
     0.000000000  0.000000000 21.261833870     0.000000000  0.000000000  0.047032632

  length of vectors
     8.349111827  8.349111827 21.261833870     0.119773219  0.119773219  0.047032632

  position of ions in fractional coordinates (direct lattice)
     0.507537818  0.498099688  0.792887862
     0.677622976  0.499462708  0.818181541
     0.486145123  0.392436952  0.763563487
     0.483153188  0.605305104  0.764827253
     0.418716394  0.495341311  0.830576050
     0.764003421  0.500420893  0.779612431
     0.701857889  0.394051495  0.847072276
     0.700024161  0.604957761  0.847252411
     0.250000245  0.000000000  0.352744737
     0.500000489  0.250000245  0.352744737
     0.250000245  0.250000245  0.450915008
     0.500000489  0.000000000  0.450915008
     0.250008629  0.000003593  0.549732919
     0.499984919  0.250161939  0.549800176
     0.249803817  0.250039770  0.647312931
     0.499962162  0.999998583  0.647322337
     0.250000245  0.500000489  0.352744737
     0.500000489  0.749999536  0.352744737
     0.250000245  0.749999536  0.450915008
     0.500000489  0.500000489  0.450915008
     0.250166730  0.500004083  0.549787477
     0.499984919  0.749846227  0.549799705
     0.249802619  0.749976780  0.647312931
     0.499831609  0.500038817  0.648113426
     0.749999536  0.000000000  0.352744737
     0.000000000  0.250000245  0.352744737
     0.749999536  0.250000245  0.450915008
     0.000000000  0.000000000  0.450915008
     0.749969593  0.000001198  0.549731038
     0.999978222  0.250017013  0.549715517
     0.750085773  0.249952335  0.647328452
     0.999980836  0.000005989  0.647438038
     0.749999536  0.500000489  0.352744737
     0.000000000  0.749999536  0.352744737
     0.749999536  0.749999536  0.450915008
     0.000000000  0.500000489  0.450915008
     0.749809097  0.500005280  0.549809582
     0.999974629  0.749988757  0.549717398
     0.750074994  0.750059423  0.647339269
     0.000155705  0.500006478  0.647242382
     0.250000245  0.000000000  0.450915008
     0.500000489  0.250000245  0.450915008
     0.250000245  0.250000245  0.352744737
     0.500000489  0.000000000  0.352744737
     0.249924788  0.000007186  0.649664092
     0.499964557  0.249636134  0.649658448
     0.249976290  0.249931974  0.549454486
     0.499998094  0.999998802  0.549453075
     0.250000245  0.500000489  0.450915008
     0.500000489  0.749999536  0.450915008
     0.250000245  0.749999536  0.352744737
     0.500000489  0.500000489  0.352744737
     0.249684043  0.500006478  0.649390833
     0.499956173  0.750363647  0.649672558
     0.249976290  0.750074994  0.549455897
     0.500016060  0.500006478  0.549623333
     0.749999536  0.000000000  0.450915008
     0.000000000  0.250000245  0.450915008
     0.749999536  0.250000245  0.352744737
     0.000000000  0.000000000  0.352744737
     0.750015107  0.000007186  0.649657037
[...]
   2.08728000  0.00000000  9.58728000
   4.17456000  2.08728000  9.58728000
   2.08728000  2.08728000  7.50000000
   4.17456000  0.00000000  7.50000000
   2.08665000  0.00006000 13.81305000
   4.17426000  2.08424000 13.81293000
   2.08708000  2.08671000 11.68241000
   4.17454000  8.34910183 11.68238000
   2.08728000  4.17456000  9.58728000
   4.17456000  6.26183000  9.58728000
   2.08728000  6.26183000  7.50000000
   4.17456000  4.17456000  7.50000000
   2.08464000  4.17461000 13.80724000
   4.17419000  6.26487000 13.81323000
   2.08708000  6.26246000 11.68244000
   4.17469000  4.17461000 11.68600000
   6.26183000  0.00000000  9.58728000
   0.00000000  2.08728000  9.58728000
   6.26183000  2.08728000  7.50000000
   0.00000000  0.00000000  7.50000000
   6.26196000  0.00006000 13.81290000
   8.34858000  2.08731000 13.81253000
   6.26173000  2.08693000 11.68290000
   8.34894000  0.00002000 11.68308000
   6.26183000  4.17456000  9.58728000
   0.00000000  6.26183000  9.58728000
   6.26183000  6.26183000  7.50000000
   0.00000000  4.17456000  7.50000000
   6.26397000  4.17459000 13.81100000
   8.34857000  6.26190000 13.81260000
   6.26170000  6.26224000 11.68296000
   8.34874183  4.17458000 11.68134000

--------------------------------------- Iteration      FINAL  ---------------------------------------

--------------------OUTCAR has been truncated-------------------------

[...]

--------------------OUTCAR has been truncated-------------------------

  FORCE on cell =-STRESS in cart. coord.  units (eV):
  Direction    XX          YY          ZZ          XY          YZ          ZX
  Alpha Z   942.93445   942.93445   942.93445
  Ewald  160883.45904160727.34596************     1.04038     0.31958    51.26539
  Hartree171210.38596171088.43947************     0.77525     0.27340    38.26919
  E(xc)   -1894.89153 -1894.94411 -1897.91033     0.00059     0.00067     0.02075
  Local  ************************341864.37199    -1.86399    -0.63080   -91.55105
  n-local  -738.35334  -739.51917  -763.98135     0.00898     0.00240     0.46344
  augment   827.09322   827.04498   816.06999     0.00043     0.00101     0.01635
  Kinetic  7525.55541  7521.34246  7559.72290     0.03562     0.03112     1.49624
  Fock    -2517.76471 -2517.96245 -2513.93526     0.00158     0.00101     0.07483
  vdW        -9.29879    -9.28596    -6.66467    -0.00008     0.00017    -0.00226
  Total     -30.40023   -30.42392    -2.62256    -0.00125    -0.00145     0.05288
  in kB     -32.86293   -32.88853    -2.83502    -0.00135    -0.00156     0.05716

 VOLUME and BASIS-vectors are now :
  energy-cutoff  :      600.00
  volume of cell :     1482.11
      direct lattice vectors                 reciprocal lattice vectors
     8.349111827  0.000000000  0.000000000     0.119773219  0.000000000  0.000000000
     0.000000000  8.349111827  0.000000000     0.000000000  0.119773219  0.000000000
     0.000000000  0.000000000 21.261833870     0.000000000  0.000000000  0.047032632

  length of vectors
     8.349111827  8.349111827 21.261833870     0.119773219  0.119773219  0.047032632

 FORCES acting on ions:
    Electron-Ion                     Ewald-Force                    Non-Local-Force
   0.696E+02 0.539E+00 -.936E+03   -.695E+02 -.545E+00 0.936E+03   -.105E+00 0.439E-02 -.175E+00
   -.697E+02 -.573E+00 -.878E+03   0.700E+02 0.579E+00 0.878E+03   -.258E+00 -.416E-02 0.168E+00
   0.177E+02 0.468E+02 -.237E+03   -.186E+02 -.514E+02 0.234E+03   0.911E+00 0.438E+01 0.300E+01
   0.190E+02 -.473E+02 -.237E+03   -.201E+02 0.520E+02 0.234E+03   0.103E+01 -.444E+01 0.287E+01
   0.469E+02 0.129E+01 -.239E+03   -.508E+02 -.140E+01 0.243E+03   0.369E+01 0.115E+00 -.393E+01
   -.463E+02 -.498E+00 -.215E+03   0.501E+02 0.541E+00 0.211E+03   -.358E+01 -.389E-01 0.409E+01
   -.189E+02 0.466E+02 -.217E+03   0.199E+02 -.511E+02 0.220E+03   -.104E+01 0.433E+01 -.304E+01
   -.180E+02 -.467E+02 -.217E+03   0.191E+02 0.513E+02 0.220E+03   -.964E+00 -.433E+01 -.306E+01
   0.144E+00 0.232E-02 0.214E+04   -.143E+00 -.228E-02 -.213E+04   -.182E-03 -.358E-04 -.683E+01
   0.934E-01 0.235E+00 0.214E+04   -.934E-01 -.234E+00 -.213E+04   -.899E-04 -.941E-03 -.683E+01
   0.580E+00 0.848E+00 0.744E+03   -.575E+00 -.847E+00 -.745E+03   -.293E-02 -.203E-03 0.451E+00
   0.292E+00 0.786E-02 0.744E+03   -.294E+00 -.784E-02 -.745E+03   0.142E-02 0.573E-05 0.442E+00
   0.271E+01 0.379E-01 -.644E+03   -.271E+01 -.379E-01 0.644E+03   -.532E-02 0.602E-05 -.183E+00
   0.164E+01 0.552E+01 -.635E+03   -.164E+01 -.548E+01 0.635E+03   -.165E-04 -.335E-01 -.221E+00
   0.166E+02 0.191E+02 -.202E+04   -.167E+02 -.191E+02 0.201E+04   0.581E-01 -.540E-02 0.582E+01
   0.472E+01 0.242E+00 -.202E+04   -.473E+01 -.243E+00 0.202E+04   0.345E-02 0.737E-03 0.579E+01
   0.151E+00 0.813E-03 0.214E+04   -.150E+00 -.681E-03 -.213E+04   -.840E-03 -.153E-03 -.683E+01
   0.933E-01 -.238E+00 0.214E+04   -.932E-01 0.237E+00 -.213E+04   -.910E-04 0.111E-02 -.683E+01
   0.582E+00 -.850E+00 0.744E+03   -.578E+00 0.849E+00 -.745E+03   -.289E-02 0.171E-03 0.451E+00
   0.355E+00 -.514E-02 0.746E+03   -.352E+00 0.552E-02 -.746E+03   -.215E-02 -.310E-03 0.488E+00
   0.424E+01 -.379E-01 -.635E+03   -.419E+01 0.379E-01 0.635E+03   -.411E-01 -.873E-04 -.330E+00
   0.163E+01 -.552E+01 -.635E+03   -.163E+01 0.548E+01 0.635E+03   -.474E-03 0.332E-01 -.217E+00
   0.165E+02 -.191E+02 -.202E+04   -.165E+02 0.191E+02 0.201E+04   0.559E-01 0.518E-02 0.582E+01
   0.120E+02 -.388E+00 -.195E+04   -.121E+02 0.400E+00 0.195E+04   0.537E-01 -.108E-01 0.559E+01
   -.147E+00 0.241E-02 0.214E+04   0.146E+00 -.238E-02 -.213E+04   0.387E-03 -.306E-04 -.683E+01
   -.904E-01 0.228E+00 0.214E+04   0.905E-01 -.227E+00 -.213E+04   -.271E-04 -.273E-03 -.683E+01
   -.586E+00 0.913E+00 0.745E+03   0.579E+00 -.907E+00 -.745E+03   0.418E-02 -.395E-02 0.460E+00
   -.292E+00 0.114E-01 0.743E+03   0.293E+00 -.113E-01 -.744E+03   -.108E-02 -.534E-04 0.461E+00
   -.273E+01 0.444E-01 -.641E+03   0.272E+01 -.451E-01 0.642E+03   0.630E-02 0.658E-03 -.188E+00
   -.162E+01 0.404E+01 -.641E+03   0.162E+01 -.403E+01 0.641E+03   0.820E-03 -.457E-02 -.180E+00
   -.169E+02 0.261E+02 -.200E+04   0.170E+02 -.261E+02 0.200E+04   -.565E-01 0.326E-01 0.582E+01
   -.465E+01 0.999E-01 -.204E+04   0.465E+01 -.999E-01 0.203E+04   -.298E-02 -.121E-04 0.579E+01
   -.154E+00 0.700E-03 0.214E+04   0.153E+00 -.563E-03 -.213E+04   0.106E-02 -.156E-03 -.683E+01
   -.903E-01 -.231E+00 0.214E+04   0.904E-01 0.230E+00 -.213E+04   -.195E-04 0.442E-03 -.683E+01
   -.589E+00 -.915E+00 0.745E+03   0.582E+00 0.909E+00 -.745E+03   0.426E-02 0.394E-02 0.461E+00
   -.356E+00 -.794E-02 0.745E+03   0.352E+00 0.821E-02 -.745E+03   0.254E-02 -.229E-03 0.424E+00
   -.427E+01 -.476E-01 -.631E+03   0.422E+01 0.481E-01 0.631E+03   0.412E-01 -.461E-03 -.270E+00
   -.161E+01 -.403E+01 -.641E+03   0.161E+01 0.403E+01 0.642E+03   0.124E-02 0.437E-02 -.180E+00
   -.167E+02 -.260E+02 -.200E+04   0.168E+02 0.261E+02 0.200E+04   -.541E-01 -.324E-01 0.582E+01
   -.112E+02 -.109E+00 -.201E+04   0.113E+02 0.109E+00 0.201E+04   -.658E-01 -.219E-04 0.581E+01
   0.431E+00 0.787E-02 0.557E+03   -.426E+00 -.803E-02 -.557E+03   -.534E-02 0.162E-03 -.104E+00
   0.236E+00 0.723E+00 0.558E+03   -.236E+00 -.732E+00 -.558E+03   0.455E-03 0.113E-01 -.112E+00
   0.110E+00 0.169E+00 0.161E+04   -.109E+00 -.169E+00 -.161E+04   -.100E-02 -.676E-03 0.300E+01
   0.671E-01 0.164E-02 0.161E+04   -.675E-01 -.167E-02 -.161E+04   0.409E-03 0.215E-04 0.300E+01
   0.717E+01 0.109E+00 -.155E+04   -.714E+01 -.108E+00 0.155E+04   -.233E-01 -.657E-03 -.453E+01
   0.613E+01 0.253E+02 -.152E+04   -.613E+01 -.252E+02 0.152E+04   -.338E-02 -.683E-01 -.449E+01
   0.253E+01 0.327E+01 -.473E+03   -.253E+01 -.325E+01 0.473E+03   -.389E-02 -.144E-01 0.296E+00
   0.976E+00 0.305E-01 -.474E+03   -.977E+00 -.291E-01 0.473E+03   0.423E-03 -.117E-02 0.298E+00
   0.483E+00 -.486E-02 0.558E+03   -.495E+00 0.452E-02 -.558E+03   0.139E-01 0.330E-03 -.112E+00
   0.235E+00 -.724E+00 0.558E+03   -.235E+00 0.733E+00 -.558E+03   0.438E-03 -.109E-01 -.112E+00
   0.110E+00 -.172E+00 0.161E+04   -.110E+00 0.171E+00 -.161E+04   -.101E-02 0.637E-03 0.300E+01
   0.735E-01 0.771E-03 0.161E+04   -.733E-01 -.860E-03 -.161E+04   -.281E-03 0.406E-04 0.300E+01
   0.203E+02 -.144E+00 -.152E+04   -.202E+02 0.143E+00 0.153E+04   -.799E-01 0.247E-03 -.457E+01
   0.608E+01 -.252E+02 -.152E+04   -.608E+01 0.251E+02 0.152E+04   -.380E-02 0.623E-01 -.449E+01
   0.252E+01 -.327E+01 -.473E+03   -.252E+01 0.325E+01 0.473E+03   -.352E-02 0.143E-01 0.297E+00
   0.145E+01 -.298E-01 -.468E+03   -.146E+01 0.285E-01 0.468E+03   0.546E-02 0.115E-02 0.115E+00
   -.435E+00 0.822E-02 0.558E+03   0.431E+00 -.824E-02 -.557E+03   0.419E-02 0.125E-04 -.996E-01
   -.236E+00 0.673E+00 0.558E+03   0.239E+00 -.667E+00 -.557E+03   -.290E-02 -.778E-02 -.976E-01
   -.113E+00 0.176E+00 0.161E+04   0.112E+00 -.175E+00 -.161E+04   0.868E-03 -.137E-02 0.300E+01
   -.647E-01 0.188E-02 0.161E+04   0.650E-01 -.190E-02 -.161E+04   -.381E-03 0.157E-04 0.300E+01
   -.723E+01 0.137E+00 -.154E+04   0.722E+01 -.137E+00 0.155E+04   0.177E-01 -.384E-03 -.452E+01
   -.594E+01 0.114E+02 -.154E+04   0.593E+01 -.114E+02 0.155E+04   0.529E-02 -.941E-02 -.453E+01
   -.255E+01 0.376E+01 -.471E+03   0.254E+01 -.375E+01 0.471E+03   0.183E-02 -.911E-02 0.300E+00
   -.976E+00 0.268E-01 -.478E+03   0.979E+00 -.266E-01 0.478E+03   -.260E-02 -.188E-03 0.263E+00
   -.487E+00 -.562E-02 0.559E+03   0.500E+00 0.520E-02 -.559E+03   -.153E-01 0.427E-03 -.117E+00
   -.236E+00 -.675E+00 0.558E+03   0.239E+00 0.668E+00 -.557E+03   -.317E-02 0.804E-02 -.977E-01
   -.113E+00 -.178E+00 0.161E+04   0.112E+00 0.177E+00 -.161E+04   0.866E-03 0.133E-02 0.300E+01
   -.711E-01 0.550E-03 0.161E+04   0.708E-01 -.643E-03 -.161E+04   0.308E-03 0.446E-04 0.300E+01
   -.210E+02 -.188E+00 -.150E+04   0.209E+02 0.187E+00 0.150E+04   0.638E-01 0.591E-03 -.452E+01
   -.591E+01 -.114E+02 -.154E+04   0.590E+01 0.114E+02 0.155E+04   0.609E-02 0.895E-02 -.453E+01
   -.254E+01 -.375E+01 -.471E+03   0.254E+01 0.374E+01 0.471E+03   0.153E-02 0.894E-02 0.298E+00
   -.143E+01 -.275E-01 -.471E+03   0.143E+01 0.271E-01 0.471E+03   -.470E-02 0.437E-03 0.300E+00
   0.367E+00 0.557E-02 0.205E+02   0.455E-12 -.412E-12 -.227E-11   -.342E+00 -.414E-02 -.174E+02

 POSITION                                       TOTAL-FORCE (eV/Angst)
      4.23749      4.15869     16.85825        -0.007130     -0.002105     -0.007003
      5.65755      4.17007     17.39604         0.007661      0.000826      0.003843
      4.05888      3.27650     16.23476         0.005144      0.001089      0.006281
      4.03390      5.05376     16.26163         0.007870     -0.003905     -0.001263
      3.49591      4.13566     17.65957         0.000961      0.004157      0.001055
      6.37875      4.17807     16.57599         0.002715      0.002417     -0.003424
      5.85989      3.28998     18.01031        -0.001765     -0.000880     -0.006692
      5.84458      5.05086     18.01414        -0.003397     -0.001592     -0.002956
      2.08728      0.00000      7.50000         0.000119     -0.000005      0.427351
      4.17456      2.08728      7.50000        -0.000068      0.000349      0.427536
      2.08728      2.08728      9.58728         0.001441      0.000574      0.065584
      4.17456      0.00000      9.58728        -0.000718      0.000020      0.069284
      2.08735      0.00003     11.68833        -0.000193      0.000017      0.004376
      4.17443      2.08863     11.68976        -0.000382     -0.001858      0.005311
      2.08564      2.08761     13.76306        -0.000580      0.000489      0.001245
      4.17424      8.34910     13.76326        -0.000247     -0.000039      0.003666
      2.08728      4.17456      7.50000         0.000311     -0.000036      0.427528
      4.17456      6.26183      7.50000        -0.000068     -0.000298      0.427530
      2.08728      6.26183      9.58728         0.001392     -0.000416      0.065648
      4.17456      4.17456      9.58728         0.000745      0.000030      0.072454
      2.08867      4.17459     11.68949        -0.001977     -0.000076      0.004252
      4.17443      6.26055     11.68975        -0.000403      0.001825      0.005409
      2.08563      6.26164     13.76306        -0.000439     -0.000653      0.001489
      4.17315      4.17488     13.78008        -0.000736     -0.000168     -0.002937
      6.26183      0.00000      7.50000        -0.000074     -0.000005      0.426878
      0.00000      2.08728      7.50000        -0.000001      0.000155      0.426956
      6.26183      2.08728      9.58728        -0.001997      0.002080      0.066178
      0.00000      0.00000      9.58728         0.000452      0.000007      0.064598
      6.26158      0.00001     11.68829        -0.000426      0.000027      0.005842
      8.34893      2.08742     11.68796        -0.000128      0.000107      0.004515
      6.26255      2.08688     13.76339         0.000189     -0.000421      0.002972
      8.34895      0.00005     13.76572        -0.000985      0.000003     -0.001057
      6.26183      4.17456      7.50000        -0.000255     -0.000034      0.427832
      0.00000      6.26183      7.50000        -0.000003     -0.000107      0.426947
      6.26183      6.26183      9.58728        -0.002022     -0.001939      0.066208
      0.00000      4.17456      9.58728        -0.001050      0.000017      0.068592
      6.26024      4.17460     11.68996         0.002076     -0.000055      0.005113
      8.34890      6.26174     11.68800        -0.000115     -0.000058      0.004458
      6.26246      6.26233     13.76362         0.000077      0.000331      0.003011
      0.00130      4.17461     13.76156         0.000176     -0.000139      0.003003
      2.08728      0.00000      9.58728        -0.001847      0.000032      0.071247
      4.17456      2.08728      9.58728         0.000186      0.003451      0.076393
      2.08728      2.08728      7.50000        -0.000349     -0.000232     -0.564484
      4.17456      0.00000      7.50000         0.000081     -0.000002     -0.564400
      2.08665      0.00006     13.81305        -0.001047     -0.000022     -0.003608
      4.17426      2.08424     13.81293        -0.000425     -0.001363     -0.002516
      2.08708      2.08671     11.68241        -0.000092     -0.000202     -0.006147
      4.17454      8.34910     11.68238        -0.000504      0.000031     -0.005896
      2.08728      4.17456      9.58728         0.004417      0.000050      0.075130
      4.17456      6.26183      9.58728         0.000178     -0.003290      0.076305
      2.08728      6.26183      7.50000        -0.000352      0.000292     -0.564484
      4.17456      4.17456      7.50000        -0.000158     -0.000044     -0.565010
      2.08464      4.17461     13.80724        -0.001147     -0.000005      0.000846
      4.17419      6.26487     13.81323        -0.000355      0.001184     -0.002614
      2.08708      6.26246     11.68244        -0.000149      0.000233     -0.006284
      4.17469      4.17461     11.68600         0.000901      0.000027     -0.008064
      6.26183      0.00000      9.58728         0.001591     -0.000009      0.072738
      0.00000      2.08728      9.58728        -0.000989     -0.002809      0.071711
      6.26183      2.08728      7.50000         0.000379     -0.000469     -0.564400
      0.00000      0.00000      7.50000        -0.000135     -0.000004     -0.564129
      6.26196      0.00006     13.81290         0.000002     -0.000083     -0.001351
      8.34858      2.08731     13.81253        -0.000179      0.000307     -0.002099
      6.26173      2.08693     11.68290        -0.000459      0.000530     -0.007353
      8.34894      0.00002     11.68308        -0.000104     -0.000037     -0.008304
      6.26183      4.17456      9.58728        -0.004742      0.000078      0.075515
      0.00000      6.26183      9.58728        -0.001068      0.002954      0.071886
      6.26183      6.26183      7.50000         0.000378      0.000528     -0.564402
      0.00000      4.17456      7.50000         0.000104     -0.000043     -0.564476
      6.26397      4.17459     13.81100         0.001029      0.000067     -0.004656
      8.34857      6.26190     13.81260        -0.000266     -0.000404     -0.002136
      6.26170      6.26224     11.68296        -0.000377     -0.000614     -0.007280
      8.34874      4.17458     11.68134        -0.000671      0.000138     -0.005294
    total drift:                               -0.000347     -0.000079      0.005852

  FREE ENERGIE OF THE ION-ELECTRON SYSTEM (eV)
  free  energy   TOTEN  =      -521.22166934 eV

  energy  without entropy=     -521.22166934  energy(sigma->0) =     -521.22166934

 reached required accuracy - stopping structural energy minimisation