 vasp.6.3.0 20Jan22 (build Apr  1 2022 16:44:48) complex
 executed on        HPECrayEX_GCC date 2022.11.13  05:01:43

 INCAR:
   SYSTEM = MgO-rocksalt
   ISMEAR = 0
   SIGMA = 0.05
   EDIFF = 1E-6
   ALGO = ALL
   ISTART = 0
   IBRION = -1
   NSW = 0
   ISYM = 0
   DIPOL = 0.5 0.5 0.5
   IDIPOL = 3
   LDIPOL = .TRUE.
   LHFCALC = .TRUE.
   GGA = B5
   AEXX = 0.2
   AGGAX = 0.72
   AGGAC = 0.81
   ALDAC = 0.19
   IVDW = 1
   VDW_S6 = 1.05
   VDW_C6 = 0.63 0.70
   VDW_R0 = 1.243 1.342
   ENCUT = 600
   PREC = Accurate
   LASPH = .TRUE.
   LREAL = .FALSE.
   ISPIN = 1
   NELM = 200
   NELMIN = 8
   NCORE = 8
   KPAR = 1
   LWAVE = .FALSE.
   LCHARG = .FALSE.

 POTCAR:    PAW_PBE Mg_pv 13Apr2007
 POTCAR:    PAW_PBE O 08Apr2002
 POTCAR:    PAW_PBE Mg_pv 13Apr2007
   VRHFIN =Mg: p6s2

   TITEL  = PAW_PBE Mg_pv 13Apr2007
   POMASS =   24.305; ZVAL   =    8.000    mass and valenz
   ENMAX  =  403.929; ENMIN  =  302.947 eV

   TITEL  = PAW_PBE O 08Apr2002
   POMASS =   16.000; ZVAL   =    6.000    mass and valenz
   ENMAX  =  400.000; ENMIN  =  300.000 eV

  PAW_PBE Mg_pv 13Apr2007               :
  PAW_PBE O 08Apr2002                   :

 POSCAR: Mg  O
  positions in direct lattice
 exchange correlation table for  LEXCH =       12
   RHO(1)=    0.500       N(1)  =     2000
   RHO(2)=  100.500       N(2)  =     4000

 ion  position               nearest neighbor table
   1  0.000  0.750  0.352-  33 2.11  35 2.11  36 2.11  43 2.11  52 2.11
   2  0.250  0.000  0.352-  34 2.11  35 2.11  36 2.11  44 2.11  51 2.11
   3  0.000  0.000  0.451-  35 2.11  34 2.11  33 2.11  41 2.11  50 2.11  39 2.12
   4  0.250  0.750  0.451-  36 2.11  34 2.11  33 2.11  42 2.11  49 2.11  40 2.12
   5  0.000  0.750  0.550-  47 2.11  39 2.11  56 2.11  40 2.11  33 2.12  37 2.14
   6  0.250  1.000  0.550-  48 2.11  39 2.11  55 2.11  40 2.11  34 2.12  38 2.15
   7  0.000  0.000  0.649-  45 2.11  38 2.11  37 2.11  54 2.11  39 2.11
   8  0.250  0.750  0.649-  37 2.10  40 2.11  46 2.11  38 2.11  53 2.12
   9  0.000  0.250  0.352-  41 2.11  35 2.11  43 2.11  44 2.11  60 2.11
  10  0.250  0.500  0.352-  42 2.11  36 2.11  43 2.11  44 2.11  59 2.11
  11  0.000  0.500  0.451-  43 2.11  41 2.11  42 2.11  33 2.11  58 2.11  47 2.12
  12  0.250  0.250  0.451-  44 2.11  41 2.11  42 2.11  34 2.11  57 2.11  48 2.12
  13  1.000  0.250  0.550-  48 2.11  39 2.11  64 2.11  47 2.11  41 2.12  45 2.15
  14  0.250  0.500  0.550-  40 2.11  48 2.11  63 2.11  47 2.11  42 2.12  46 2.14
  15  0.000  0.500  0.649-  46 2.10  47 2.11  37 2.11  45 2.11  62 2.12
  16  0.250  0.250  0.649-  38 2.11  45 2.11  61 2.11  46 2.11  48 2.11
  17  0.500  0.750  0.352-  49 2.11  36 2.11  51 2.11  52 2.11  59 2.11
  18  0.750  0.000  0.352-  50 2.11  35 2.11  51 2.11  52 2.11  60 2.11
  19  0.500  0.000  0.451-  51 2.11  49 2.11  50 2.11  34 2.11  57 2.11  55 2.12
  20  0.750  0.750  0.451-  52 2.11  49 2.11  50 2.11  33 2.11  58 2.11  56 2.12
  21  0.500  0.750  0.550-  63 2.11  56 2.11  40 2.11  55 2.11  49 2.13  53 2.16
  22  0.750  0.000  0.550-  55 2.11  39 2.11  56 2.11  64 2.11  50 2.12  54 2.14
  23  0.500  0.000  0.649-  61 2.10  55 2.11  54 2.11  38 2.11  53 2.12
  24  0.752  0.752  0.649-  54 2.10  37 2.10  56 2.11  53 2.12  62 2.12
  25  0.500  0.250  0.352-  57 2.11  51 2.11  44 2.11  59 2.11  60 2.11
  26  0.750  0.500  0.352-  58 2.11  52 2.11  43 2.11  59 2.11  60 2.11
  27  0.500  0.500  0.451-  59 2.11  49 2.11  57 2.11  58 2.11  42 2.11  63 2.12
  28  0.750  0.250  0.451-  60 2.11  50 2.11  57 2.11  58 2.11  41 2.11  64 2.12
  29  0.500  0.250  0.550-  64 2.11  48 2.11  63 2.11  55 2.11  57 2.12  61 2.14
  30  0.750  0.500  0.550-  63 2.11  56 2.11  64 2.11  47 2.11  58 2.13  62 2.16
  31  0.498  0.498  0.649-  61 2.10  46 2.10  63 2.11  53 2.12  62 2.12
  32  0.750  0.250  0.649-  54 2.10  64 2.11  61 2.11  45 2.11  62 2.12
  33  0.000  0.750  0.451-   1 2.11   3 2.11   4 2.11  11 2.11  20 2.11   5 2.12
  34  0.250  0.000  0.451-   2 2.11   3 2.11   4 2.11  12 2.11  19 2.11   6 2.12
  35  0.000  0.000  0.352-   3 2.11   2 2.11   1 2.11   9 2.11  18 2.11
  36  0.250  0.750  0.352-   4 2.11   2 2.11   1 2.11  10 2.11  17 2.11
  37  0.001  0.750  0.651-  24 2.10   8 2.10  15 2.11   7 2.11   5 2.14
  38  0.250  1.000  0.651-   7 2.11  16 2.11   8 2.11  23 2.11   6 2.15
  39  0.000  0.000  0.550-  13 2.11   6 2.11   5 2.11  22 2.11   7 2.11   3 2.12
  40  0.250  0.750  0.550-  21 2.11   8 2.11   6 2.11  14 2.11   5 2.11   4 2.12
  41  0.000  0.250  0.451-   9 2.11   3 2.11  11 2.11  12 2.11  28 2.11  13 2.12
  42  0.250  0.500  0.451-  10 2.11   4 2.11  11 2.11  12 2.11  27 2.11  14 2.12
  43  0.000  0.500  0.352-  11 2.11   9 2.11  10 2.11   1 2.11  26 2.11
  44  0.250  0.250  0.352-  12 2.11   9 2.11  10 2.11   2 2.11  25 2.11
  45  1.000  0.250  0.651-   7 2.11  16 2.11  32 2.11  15 2.11  13 2.15
  46  0.249  0.500  0.651-  31 2.10  15 2.10   8 2.11  16 2.11  14 2.14
  47  1.000  0.500  0.550-  30 2.11  15 2.11  13 2.11   5 2.11  14 2.11  11 2.12
  48  0.250  0.250  0.550-   6 2.11  13 2.11  14 2.11  29 2.11  16 2.11  12 2.12
  49  0.500  0.750  0.451-  17 2.11   4 2.11  19 2.11  20 2.11  27 2.11  21 2.13
  50  0.750  0.000  0.451-  18 2.11   3 2.11  19 2.11  20 2.11  28 2.11  22 2.12
  51  0.500  0.000  0.352-  19 2.11  17 2.11  18 2.11   2 2.11  25 2.11
  52  0.750  0.750  0.352-  20 2.11  17 2.11  18 2.11   1 2.11  26 2.11
  53  0.500  0.750  0.652-   8 2.12  23 2.12  31 2.12  24 2.12  21 2.16
  54  0.750  0.001  0.651-  24 2.10  32 2.10  23 2.11   7 2.11  22 2.14
  55  0.500  1.000  0.550-  21 2.11  23 2.11   6 2.11  22 2.11  29 2.11  19 2.12
  56  0.750  0.750  0.550-  30 2.11  21 2.11   5 2.11  22 2.11  24 2.11  20 2.12
  57  0.500  0.250  0.451-  25 2.11  19 2.11  12 2.11  27 2.11  28 2.11  29 2.12
  58  0.750  0.500  0.451-  26 2.11  20 2.11  11 2.11  27 2.11  28 2.11  30 2.13
  59  0.500  0.500  0.352-  27 2.11  17 2.11  25 2.11  26 2.11  10 2.11
  60  0.750  0.250  0.352-  28 2.11  18 2.11  25 2.11  26 2.11   9 2.11
  61  0.500  0.249  0.651-  31 2.10  23 2.10  32 2.11  16 2.11  29 2.14
  62  0.750  0.500  0.652-  32 2.12  15 2.12  31 2.12  24 2.12  30 2.16
  63  0.500  0.500  0.550-  30 2.11  21 2.11  14 2.11  29 2.11  31 2.11  27 2.12
  64  0.750  0.250  0.550-  30 2.11  32 2.11  13 2.11  29 2.11  22 2.11  28 2.12

IMPORTANT INFORMATION: All symmetrisations will be switched off!
NOSYMM: (Re-)initialisation of all symmetry stuff for point group C_1.

                                     Primitive cell

  volume of cell :    1519.8199

  direct lattice vectors                    reciprocal lattice vectors
     8.440984654  0.000000000  0.000000000     0.118469591  0.000000000  0.000000000
     0.000000000  8.440984654  0.000000000     0.000000000  0.118469591  0.000000000
     0.000000000  0.000000000 21.330738491     0.000000000  0.000000000  0.046880702

  length of vectors
     8.440984654  8.440984654 21.330738491     0.118469591  0.118469591  0.046880702

  position of ions in fractional coordinates (direct lattice)
     0.000000000  0.750000000  0.351605267
     0.250000000  0.000000000  0.351605267
     0.000000000  0.000000000  0.450535089
     0.250000000  0.750000000  0.450535089
     0.000170472  0.750065529  0.550134920
     0.250061573  0.999938530  0.550145492
     0.000200186  0.000200186  0.648841524
     0.249828182  0.749789003  0.648754906
     0.000000000  0.250000000  0.351605267
     0.250000000  0.500000000  0.351605267
     0.000000000  0.500000000  0.450535089
     0.250000000  0.250000000  0.450535089
     0.999938525  0.250061567  0.550145489
     0.249829706  0.499934572  0.550134937
     0.000171958  0.500211139  0.648754903
     0.249799949  0.249799949  0.648841577
     0.500000000  0.750000000  0.351605267
     0.750000000  0.000000000  0.351605267
     0.500000000  0.000000000  0.450535089
     0.750000000  0.750000000  0.450535089
     0.500270350  0.749729670  0.550330173
     0.750065521  0.000170473  0.550134923
     0.500211148  0.000171955  0.648754900
     0.751918702  0.751918715  0.649114650
     0.500000000  0.250000000  0.351605267
     0.750000000  0.500000000  0.351605267
     0.500000000  0.500000000  0.450535089
     0.750000000  0.250000000  0.450535089
     0.499934575  0.249829699  0.550134936
     0.749729660  0.500270350  0.550330171
     0.498081444  0.498081442  0.649114742
     0.749788996  0.249828183  0.648754905
     0.000000000  0.750000000  0.450535089
     0.250000000  0.000000000  0.450535089
     0.000000000  0.000000000  0.351605267
     0.250000000  0.750000000  0.351605267
     0.000660961  0.750176837  0.650529582
     0.250168661  0.999831464  0.651058193
     0.000114890  0.000114892  0.549832723
     0.250404141  0.749981448  0.549877119
     0.000000000  0.250000000  0.450535089
     0.250000000  0.500000000  0.450535089
     0.000000000  0.500000000  0.351605267
     0.250000000  0.250000000  0.351605267
     0.999831464  0.250168659  0.651058194
     0.249339233  0.499823327  0.650529652
     0.999595943  0.500018646  0.549877121
     0.249885200  0.249885199  0.549832736
     0.500000000  0.750000000  0.450535089
     0.750000000  0.000000000  0.450535089
     0.500000000  0.000000000  0.351605267
     0.750000000  0.750000000  0.351605267
     0.500320192  0.749679842  0.651810825
     0.750176827  0.000660961  0.650529580
     0.500018644  0.999595957  0.549877121
     0.749970659  0.749970656  0.550040631
     0.500000000  0.250000000  0.450535089
     0.750000000  0.500000000  0.450535089
     0.500000000  0.500000000  0.351605267
     0.750000000  0.250000000  0.351605267
     0.499823327  0.249339232  0.650529649
     0.749679851  0.500320189  0.651810830
     0.500029444  0.500029444  0.550040659
     0.749981448  0.250404145  0.549877121

  ion indices of the primitive-cell ions
   primitive index   ion index
                 1           1
                 2           2
                 3           3
                 4           4
                 5           5
                 6           6
                 7           7
                 8           8
                 9           9
                10          10
                11          11
                12          12
                13          13
                14          14
                15          15
                16          16
                17          17
                18          18
                19          19
                20          20
                21          21
                22          22
                23          23
                24          24
                25          25
                26          26
                27          27
                28          28
                29          29
                30          30
                31          31
                32          32
                33          33
                34          34
                35          35
                36          36
                37          37
                38          38
                39          39
                40          40
                41          41
                42          42
                43          43
                44          44
[...]
   0.25000000  0.50000000  0.45053509
   0.00000000  0.50000000  0.35160527
   0.25000000  0.25000000  0.35160527
   0.99983146  0.25016866  0.65105819
   0.24933923  0.49982333  0.65052965
   0.99959594  0.50001865  0.54987712
   0.24988520  0.24988520  0.54983274
   0.50000000  0.75000000  0.45053509
   0.75000000  0.00000000  0.45053509
   0.50000000  0.00000000  0.35160527
   0.75000000  0.75000000  0.35160527
   0.50032019  0.74967984  0.65181082
   0.75017683  0.00066096  0.65052958
   0.50001864  0.99959596  0.54987712
   0.74997066  0.74997066  0.55004063
   0.50000000  0.25000000  0.45053509
   0.75000000  0.50000000  0.45053509
   0.50000000  0.50000000  0.35160527
   0.75000000  0.25000000  0.35160527
   0.49982333  0.24933923  0.65052965
   0.74967985  0.50032019  0.65181083
   0.50002944  0.50002944  0.55004066
   0.74998145  0.25040414  0.54987712

 position of ions in cartesian coordinates  (Angst):
   0.00000000  6.33073849  7.50000000
   2.11024616  0.00000000  7.50000000
   0.00000000  0.00000000  9.61024616
   2.11024616  6.33073849  9.61024616
   0.00143895  6.33129162 11.73478412
   2.11076590  8.44046579 11.73500962
   0.00168977  0.00168977 13.84026887
   2.10879585  6.32895746 13.83842125
   0.00000000  2.11024616  7.50000000
   2.11024616  4.22049233  7.50000000
   0.00000000  4.22049233  9.61024616
   2.11024616  2.11024616  9.61024616
   8.44046574  2.11076585 11.73500956
   2.10880871  4.21994005 11.73478448
   0.00145150  4.22227455 13.83842119
   2.10855754  2.10855753 13.84026999
   4.22049233  6.33073849  7.50000000
   6.33073849  0.00000000  7.50000000
   4.22049233  0.00000000  9.61024616
   6.33073849  6.33073849  9.61024616
   4.22277435  6.32845664 11.73894901
   6.33129155  0.00143896 11.73478418
   4.22227462  0.00145147 13.83842113
   6.34693422  6.34693433 13.84609485
   4.22049233  2.11024616  7.50000000
   6.33073849  4.22049233  7.50000000
   4.22049233  4.22049233  9.61024616
   6.33073849  2.11024616  9.61024616
   4.21994007  2.10880865 11.73478446
   6.32845656  4.22277435 11.73894895
   4.20429783  4.20429781 13.84609682
   6.32895741  2.10879586 13.83842122
   0.00000000  6.33073849  9.61024616
   2.11024616  0.00000000  9.61024616
   0.00000000  0.00000000  7.50000000
   2.11024616  6.33073849  7.50000000
   0.00557916  6.33223117 13.87627639
   2.11166983  8.43956205 13.88755206
   0.00096978  0.00096980 11.72833803
   2.11365751  6.33058189 11.72928503
   0.00000000  2.11024616  9.61024616
   2.11024616  4.22049233  9.61024616
   0.00000000  4.22049233  7.50000000
   2.11024616  2.11024616  7.50000000
   8.43956205  2.11166981 13.88755208
   2.10466864  4.21900103 13.87627789
   8.43757402  4.22064972 11.72928508
   2.10927714  2.10927713 11.72833831
   4.22049233  6.33073849  9.61024616
   6.33073849  0.00000000  9.61024616
   4.22049233  0.00000000  7.50000000
   6.33073849  6.33073849  7.50000000
   4.22319506  6.32803605 13.90360625
   6.33223109  0.00557916 13.87627635
   4.22064970  8.43757413 11.72928507
   6.33049082  6.33049080 11.73277286
   4.22049233  2.11024616  9.61024616
   6.33073849  4.22049233  9.61024616
   4.22049233  4.22049233  7.50000000
   6.33073849  2.11024616  7.50000000
   4.21900103  2.10466863 13.87627782
   6.32803612  4.22319504 13.90360637
   4.22074086  4.22074086 11.73277345
   6.33058189  2.11365754 11.72928507

--------------------------------------- Iteration      FINAL  ---------------------------------------

--------------------OUTCAR has been truncated-------------------------

[...]

--------------------OUTCAR has been truncated-------------------------

  DFT-D2 method for vdW energy calculation

  Parameters of vdW forcefield:
         C6(Jnm^6/mol)     R0(A)
   Mg       0.630          1.243
   O        0.700          1.342

  vdW correction parametrized for the method ®zÿ      

  IVDW =   1
  VDW_RADIUS =    50.000 A
  VDW_S6 =     1.050
  VDW_SR =     1.000
  VDW_D =    20.000
  LVDW_EWALD = F

  Number of pair interactions contributing to vdW energy:  723324
  Edisp (eV):   -5.06722

 VOLUME and BASIS-vectors are now :
  energy-cutoff  :      600.00
  volume of cell :     1519.82
      direct lattice vectors                 reciprocal lattice vectors
     8.440984654  0.000000000  0.000000000     0.118469591  0.000000000  0.000000000
     0.000000000  8.440984654  0.000000000     0.000000000  0.118469591  0.000000000
     0.000000000  0.000000000 21.330738491     0.000000000  0.000000000  0.046880702

  length of vectors
     8.440984654  8.440984654 21.330738491     0.118469591  0.118469591  0.046880702

 FORCES acting on ions:
    Electron-Ion                     Ewald-Force                    Non-Local-Force
   0.680E-01 0.552E-01 0.207E+04   -.689E-01 -.562E-01 -.206E+04   0.606E-03 0.686E-03 -.639E+01
   -.553E-01 0.553E-01 0.207E+04   0.567E-01 -.567E-01 -.206E+04   -.898E-03 0.891E-03 -.640E+01
   0.182E+00 0.182E+00 0.683E+03   -.166E+00 -.166E+00 -.684E+03   -.108E-01 -.108E-01 0.442E+00
   -.337E+00 0.163E+00 0.683E+03   0.389E+00 -.152E+00 -.683E+03   -.324E-01 -.709E-02 0.450E+00
   0.622E+00 0.455E+00 -.688E+03   -.662E+00 -.468E+00 0.688E+03   0.275E-01 0.790E-02 -.223E+00
   -.440E+00 0.440E+00 -.690E+03   0.453E+00 -.453E+00 0.690E+03   -.713E-02 0.713E-02 -.113E+00
   -.495E+00 -.495E+00 -.205E+04   0.640E+00 0.640E+00 0.205E+04   -.964E-01 -.964E-01 0.539E+01
   -.306E+01 -.326E+00 -.205E+04   0.316E+01 0.465E+00 0.204E+04   -.186E-01 -.889E-01 0.530E+01
   0.553E-01 -.553E-01 0.207E+04   -.566E-01 0.567E-01 -.206E+04   0.899E-03 -.892E-03 -.640E+01
   -.680E-01 -.552E-01 0.207E+04   0.689E-01 0.562E-01 -.206E+04   -.604E-03 -.681E-03 -.639E+01
   0.337E+00 -.163E+00 0.683E+03   -.389E+00 0.152E+00 -.683E+03   0.324E-01 0.708E-02 0.450E+00
   -.182E+00 -.182E+00 0.683E+03   0.166E+00 0.166E+00 -.684E+03   0.108E-01 0.108E-01 0.442E+00
   0.440E+00 -.440E+00 -.690E+03   -.453E+00 0.453E+00 0.690E+03   0.713E-02 -.713E-02 -.113E+00
   -.622E+00 -.455E+00 -.688E+03   0.662E+00 0.467E+00 0.688E+03   -.275E-01 -.790E-02 -.223E+00
   0.306E+01 0.326E+00 -.205E+04   -.316E+01 -.465E+00 0.204E+04   0.185E-01 0.889E-01 0.530E+01
   0.495E+00 0.495E+00 -.205E+04   -.640E+00 -.640E+00 0.205E+04   0.964E-01 0.964E-01 0.539E+01
   -.644E-01 0.645E-01 0.207E+04   0.666E-01 -.666E-01 -.206E+04   -.143E-02 0.141E-02 -.641E+01
   0.552E-01 0.680E-01 0.207E+04   -.562E-01 -.689E-01 -.206E+04   0.693E-03 0.597E-03 -.639E+01
   -.163E+00 0.337E+00 0.683E+03   0.152E+00 -.389E+00 -.683E+03   0.708E-02 0.324E-01 0.450E+00
   0.336E+00 0.336E+00 0.682E+03   -.362E+00 -.362E+00 -.683E+03   0.182E-01 0.182E-01 0.491E+00
   -.910E+00 0.910E+00 -.696E+03   0.945E+00 -.945E+00 0.696E+03   -.269E-01 0.269E-01 -.899E-01
   0.455E+00 0.622E+00 -.688E+03   -.467E+00 -.662E+00 0.688E+03   0.790E-02 0.275E-01 -.223E+00
   0.326E+00 0.306E+01 -.205E+04   -.465E+00 -.316E+01 0.204E+04   0.889E-01 0.186E-01 0.530E+01
   0.514E+01 0.514E+01 -.205E+04   -.531E+01 -.531E+01 0.205E+04   -.349E-01 -.349E-01 0.532E+01
   -.551E-01 -.680E-01 0.207E+04   0.562E-01 0.689E-01 -.206E+04   -.689E-03 -.596E-03 -.639E+01
   0.644E-01 -.644E-01 0.207E+04   -.666E-01 0.666E-01 -.206E+04   0.142E-02 -.142E-02 -.641E+01
   -.336E+00 -.336E+00 0.682E+03   0.362E+00 0.362E+00 -.683E+03   -.182E-01 -.182E-01 0.491E+00
   0.163E+00 -.337E+00 0.683E+03   -.152E+00 0.389E+00 -.683E+03   -.709E-02 -.324E-01 0.450E+00
   -.455E+00 -.622E+00 -.688E+03   0.467E+00 0.662E+00 0.688E+03   -.789E-02 -.275E-01 -.223E+00
   0.910E+00 -.910E+00 -.696E+03   -.945E+00 0.945E+00 0.696E+03   0.269E-01 -.269E-01 -.899E-01
   -.514E+01 -.514E+01 -.205E+04   0.531E+01 0.531E+01 0.205E+04   0.349E-01 0.349E-01 0.532E+01
   -.326E+00 -.306E+01 -.205E+04   0.465E+00 0.316E+01 0.204E+04   -.889E-01 -.186E-01 0.530E+01
   0.264E+00 0.172E+00 0.512E+03   -.275E+00 -.178E+00 -.512E+03   0.127E-01 0.680E-02 -.815E-01
   -.167E+00 0.167E+00 0.512E+03   0.166E+00 -.166E+00 -.512E+03   0.156E-02 -.155E-02 -.107E+00
   0.367E-01 0.367E-01 0.155E+04   -.357E-01 -.357E-01 -.156E+04   -.125E-02 -.125E-02 0.313E+01
   -.548E-01 0.366E-01 0.155E+04   0.586E-01 -.354E-01 -.156E+04   -.474E-02 -.146E-02 0.313E+01
   -.165E+00 0.627E+00 -.156E+04   0.305E+00 -.710E+00 0.156E+04   -.147E+00 0.961E-01 -.442E+01
   -.510E+00 0.510E+00 -.156E+04   0.606E+00 -.605E+00 0.156E+04   -.109E+00 0.109E+00 -.462E+01
   -.274E-01 -.274E-01 -.511E+03   0.264E-01 0.264E-01 0.511E+03   -.227E-02 -.227E-02 0.253E+00
   -.105E+01 -.384E-01 -.512E+03   0.109E+01 0.438E-01 0.511E+03   -.643E-01 -.872E-02 0.281E+00
   0.167E+00 -.167E+00 0.512E+03   -.166E+00 0.166E+00 -.512E+03   -.155E-02 0.156E-02 -.107E+00
   -.264E+00 -.172E+00 0.512E+03   0.275E+00 0.178E+00 -.512E+03   -.127E-01 -.679E-02 -.815E-01
   0.548E-01 -.366E-01 0.155E+04   -.586E-01 0.354E-01 -.156E+04   0.475E-02 0.146E-02 0.313E+01
   -.367E-01 -.367E-01 0.155E+04   0.357E-01 0.357E-01 -.156E+04   0.125E-02 0.125E-02 0.313E+01
   0.510E+00 -.510E+00 -.156E+04   -.605E+00 0.606E+00 0.156E+04   0.109E+00 -.109E+00 -.462E+01
   0.165E+00 -.627E+00 -.156E+04   -.306E+00 0.710E+00 0.156E+04   0.147E+00 -.961E-01 -.442E+01
   0.105E+01 0.384E-01 -.512E+03   -.109E+01 -.438E-01 0.511E+03   0.643E-01 0.871E-02 0.281E+00
   0.273E-01 0.273E-01 -.511E+03   -.264E-01 -.264E-01 0.511E+03   0.227E-02 0.227E-02 0.253E+00
   -.213E+00 0.213E+00 0.511E+03   0.195E+00 -.195E+00 -.511E+03   0.217E-01 -.217E-01 -.155E+00
   0.172E+00 0.264E+00 0.512E+03   -.178E+00 -.275E+00 -.512E+03   0.680E-02 0.127E-01 -.815E-01
   -.366E-01 0.548E-01 0.155E+04   0.354E-01 -.586E-01 -.156E+04   0.146E-02 0.474E-02 0.313E+01
   0.521E-01 0.521E-01 0.155E+04   -.569E-01 -.569E-01 -.156E+04   0.596E-02 0.596E-02 0.312E+01
   -.212E+01 0.211E+01 -.156E+04   0.239E+01 -.239E+01 0.157E+04   -.281E+00 0.281E+00 -.480E+01
   0.627E+00 -.165E+00 -.156E+04   -.710E+00 0.305E+00 0.156E+04   0.961E-01 -.147E+00 -.442E+01
   0.384E-01 0.105E+01 -.512E+03   -.438E-01 -.109E+01 0.511E+03   0.872E-02 0.643E-01 0.281E+00
   0.115E+01 0.115E+01 -.514E+03   -.117E+01 -.117E+01 0.514E+03   0.342E-01 0.342E-01 0.203E+00
   -.172E+00 -.264E+00 0.512E+03   0.178E+00 0.275E+00 -.512E+03   -.679E-02 -.127E-01 -.815E-01
   0.213E+00 -.213E+00 0.511E+03   -.195E+00 0.195E+00 -.511E+03   -.217E-01 0.217E-01 -.155E+00
   -.521E-01 -.521E-01 0.155E+04   0.569E-01 0.569E-01 -.156E+04   -.596E-02 -.596E-02 0.312E+01
   0.366E-01 -.548E-01 0.155E+04   -.354E-01 0.586E-01 -.156E+04   -.146E-02 -.474E-02 0.313E+01
   -.627E+00 0.165E+00 -.156E+04   0.710E+00 -.306E+00 0.156E+04   -.961E-01 0.147E+00 -.442E+01
   0.211E+01 -.212E+01 -.156E+04   -.239E+01 0.239E+01 0.157E+04   0.281E+00 -.281E+00 -.480E+01
   -.115E+01 -.115E+01 -.514E+03   0.117E+01 0.117E+01 0.514E+03   -.342E-01 -.342E-01 0.203E+00
   -.384E-01 -.105E+01 -.512E+03   0.439E-01 0.109E+01 0.511E+03   -.873E-02 -.643E-01 0.281E+00
   0.182E-04 0.329E-04 0.188E+02   0.400E-13 0.995E-13 -.182E-11   -.289E-04 -.338E-04 -.165E+02

 POSITION                                       TOTAL-FORCE (eV/Angst)
      0.00000      6.33074      7.50000        -0.000263     -0.000310      0.464625
      2.11025      0.00000      7.50000         0.000366     -0.000361      0.467169
      0.00000      0.00000      9.61025         0.004277      0.004273      0.041096
      2.11025      6.33074      9.61025         0.014827      0.002478      0.046618
      0.00144      6.33129     11.73478        -0.009076     -0.003146      0.000351
      2.11077      8.44047     11.73501         0.004771     -0.004774      0.023984
      0.00169      0.00169     13.84027         0.036824      0.036819     -0.110215
      2.10880      6.32896     13.83842         0.077869      0.038328     -0.064124
      0.00000      2.11025      7.50000        -0.000355      0.000368      0.467173
      2.11025      4.22049      7.50000         0.000254      0.000312      0.464606
      0.00000      4.22049      9.61025        -0.014828     -0.002477      0.046684
      2.11025      2.11025      9.61025        -0.004273     -0.004273      0.041026
      8.44047      2.11077     11.73501        -0.004775      0.004770      0.023983
      2.10881      4.21994     11.73478         0.009095      0.003137      0.000353
      0.00145      4.22227     13.83842        -0.077875     -0.038330     -0.064076
      2.10856      2.10856     13.84027        -0.036848     -0.036841     -0.110194
      4.22049      6.33074      7.50000         0.000533     -0.000526      0.469919
      6.33074      0.00000      7.50000        -0.000313     -0.000264      0.464634
      4.22049      0.00000      9.61025        -0.002476     -0.014826      0.046677
      6.33074      6.33074      9.61025        -0.005793     -0.005793      0.052938
      4.22277      6.32846     11.73895         0.004981     -0.004956      0.062954
      6.33129      0.00144     11.73478        -0.003155     -0.009076      0.000350
      4.22227      0.00145     13.83842        -0.038331     -0.077869     -0.064106
      6.34693      6.34693     13.84609        -0.193293     -0.193296     -0.089077
      4.22049      2.11025      7.50000         0.000315      0.000256      0.464641
      6.33074      4.22049      7.50000        -0.000524      0.000533      0.469917
      4.22049      4.22049      9.61025         0.005801      0.005798      0.053016
      6.33074      2.11025      9.61025         0.002476      0.014827      0.046609
      4.21994      2.10881     11.73478         0.003144      0.009087      0.000347
      6.32846      4.22277     11.73895        -0.004957      0.004981      0.062955
      4.20430      4.20430     13.84610         0.193261      0.193267     -0.089082
      6.32896      2.10880     13.83842         0.038331      0.077870     -0.064130
      0.00000      6.33074      9.61025         0.003318      0.001946      0.067891
      2.11025      0.00000      9.61025         0.000611     -0.000610      0.058828
      0.00000      0.00000      7.50000        -0.000421     -0.000421     -0.434134
      2.11025      6.33074      7.50000        -0.001580     -0.000497     -0.434790
      0.00558      6.33223     13.87628        -0.026203      0.026426     -0.044261
      2.11167      8.43956     13.88755        -0.028838      0.028812     -0.128250
      0.00097      0.00097     11.72834        -0.003707     -0.003708      0.034321
      2.11366      6.33058     11.72929        -0.027139     -0.004571      0.026740
      0.00000      2.11025      9.61025        -0.000610      0.000613      0.058830
      2.11025      4.22049      9.61025        -0.003313     -0.001938      0.067894
      0.00000      4.22049      7.50000         0.001583      0.000497     -0.434790
      2.11025      2.11025      7.50000         0.000423      0.000423     -0.434135
      8.43956      2.11167     13.88755         0.028808     -0.028829     -0.128245
      2.10467      4.21900     13.87628         0.026191     -0.026447     -0.044261
      8.43757      4.22065     11.72929         0.027156      0.004573      0.026696
      2.10928      2.10928     11.72834         0.003722      0.003721      0.034349
      4.22049      6.33074      9.61025         0.006819     -0.006816      0.061493
      6.33074      0.00000      9.61025         0.001939      0.003319      0.067892
      4.22049      0.00000      7.50000         0.000496      0.001581     -0.434797
      6.33074      6.33074      7.50000         0.002032      0.002030     -0.435606
      4.22320      6.32804     13.90361        -0.039315      0.039320     -0.212449
      6.33223      0.00558     13.87628         0.026435     -0.026198     -0.044272
      4.22065      8.43757     11.72929         0.004575      0.027153      0.026696
      6.33049      6.33049     11.73277         0.020708      0.020711      0.010889
      4.22049      2.11025      9.61025        -0.001938     -0.003318      0.067891
      6.33074      4.22049      9.61025        -0.006815      0.006821      0.061491
      4.22049      4.22049      7.50000        -0.002027     -0.002030     -0.435599
      6.33074      2.11025      7.50000        -0.000502     -0.001578     -0.434793
      4.21900      2.10467     13.87628        -0.026446      0.026195     -0.044269
      6.32804      4.22320     13.90361         0.039331     -0.039313     -0.212435
      4.22074      4.22074     11.73277        -0.020712     -0.020709      0.010831
      6.33058      2.11366     11.72929        -0.004574     -0.027141      0.026736
    total drift:                               -0.000055     -0.000044      0.003208

  FREE ENERGIE OF THE ION-ELECTRON SYSTEM (eV)
  free  energy   TOTEN  =      -438.42493461 eV

  energy  without entropy=     -438.42493461  energy(sigma->0) =     -438.42493461