 vasp.6.3.0 20Jan22 (build Apr  1 2022 16:44:48) complex
 executed on        HPECrayEX_GCC date 2023.02.26  11:41:22

 INCAR:
   SYSTEM = MgO-rocksalt
   ISMEAR = 0
   SIGMA = 0.05
   EDIFF = 1E-7
   ALGO = ALL
   ISTART = 0
   IBRION = 2
   NSW = 1000
   ISYM = 0
   ISIF = 2
   EDIFFG = -0.01
   DIPOL = 0.5 0.5 0.5
   IDIPOL = 3
   LDIPOL = .TRUE.
   LHFCALC = .TRUE.
   GGA = PE
   IVDW = 13
   VDW_S8 = 1.2007
   VDW_A1 = 0.4009
   VDW_A2 = 5.0293
   ENCUT = 600
   PREC = Accurate
   LASPH = .TRUE.
   LREAL = .FALSE.
   ISPIN = 1
   NELM = 200
   NELMIN = 8
   NCORE = 8
   KPAR = 1
   LWAVE = .FALSE.
   LCHARG = .FALSE.

 POTCAR:    PAW_PBE N 08Apr2002
 POTCAR:    PAW_PBE O 08Apr2002
 POTCAR:    PAW_PBE Mg_pv 13Apr2007
 POTCAR:    PAW_PBE O 08Apr2002
 POTCAR:    PAW_PBE N 08Apr2002
   VRHFIN =N: s2p3

   TITEL  = PAW_PBE N 08Apr2002
   POMASS =   14.001; ZVAL   =    5.000    mass and valenz
   ENMAX  =  400.000; ENMIN  =  300.000 eV

[...]

   TITEL  = PAW_PBE Mg_pv 13Apr2007
   POMASS =   24.305; ZVAL   =    8.000    mass and valenz
   ENMAX  =  403.929; ENMIN  =  302.947 eV

   TITEL  = PAW_PBE O 08Apr2002
   POMASS =   16.000; ZVAL   =    6.000    mass and valenz
   ENMAX  =  400.000; ENMIN  =  300.000 eV

  PAW_PBE N 08Apr2002                   :
  PAW_PBE O 08Apr2002                   :
  PAW_PBE Mg_pv 13Apr2007               :
  PAW_PBE O 08Apr2002                   :

 POSCAR:  N  O Mg  O
  positions in direct lattice
|           W    W    AA    RRRRR   N    N  II  N    N   GGGG   !!!           |
|           W    W   A  A   R    R  NN   N  II  NN   N  G    G  !!!           |
|           W    W  A    A  R    R  N N  N  II  N N  N  G       !!!           |
|           W WW W  AAAAAA  RRRRR   N  N N  II  N  N N  G  GGG   !            |
|           WW  WW  A    A  R   R   N   NN  II  N   NN  G    G                |
|           W    W  A    A  R    R  N    N  II  N    N   GGGG   !!!           |
|     Specifying the vdW parameters                                           |
|     VDW_S8 = 1.201                                                          |
|     VDW_A1 = 0.401                                                          |
|     VDW_A2 = 5.029                                                          |
|     in the INCAR file will overwrite the defaults for pbe0. Please make     |
|     sure that is what you intended.                                         |

 ion  position               nearest neighbor table
   1  0.493  0.520  0.765-   2 1.14
   2  0.471  0.595  0.809-   1 1.14   3 1.20
   3  0.447  0.675  0.855-   2 1.20
   4  0.250  0.000  0.353-  38 2.09  39 2.09  46 2.09  55 2.09  36 2.09
   5  0.500  0.250  0.353-  38 2.09  39 2.09  47 2.09  54 2.09  37 2.09
   6  0.250  0.250  0.451-  36 2.09  37 2.09  44 2.09  53 2.09  38 2.09  42 2.10
   7  0.500  0.000  0.451-  36 2.09  37 2.09  45 2.09  52 2.09  39 2.09  43 2.10
   8  0.250  0.000  0.550-  42 2.09  43 2.09  50 2.09  59 2.09  36 2.10  40 2.12
   9  0.500  0.250  0.550-  42 2.09  43 2.09  51 2.09  58 2.09  37 2.10  41 2.12
  10  0.250  0.250  0.648-  42 2.08  41 2.09  40 2.09  48 2.09  57 2.09
  11  0.500  0.000  0.648-  43 2.08  41 2.09  40 2.09  49 2.09  56 2.09
  12  0.250  0.500  0.353-  38 2.09  46 2.09  47 2.09  63 2.09  44 2.09
  13  0.500  0.750  0.353-  39 2.09  46 2.09  47 2.09  62 2.09  45 2.09
  14  0.250  0.750  0.451-  36 2.09  44 2.09  45 2.09  61 2.09  46 2.09  50 2.10
  15  0.500  0.500  0.451-  37 2.09  44 2.09  45 2.09  60 2.09  47 2.09  51 2.10
  16  0.250  0.500  0.550-  42 2.09  50 2.09  51 2.09  67 2.09  44 2.10  48 2.12
  17  0.500  0.750  0.550-  43 2.09  50 2.09  51 2.09  66 2.09  45 2.10  49 2.12
  18  0.250  0.750  0.648-  50 2.08  48 2.09  49 2.09  40 2.09  65 2.09
  19  0.500  0.500  0.648-  51 2.08  48 2.09  49 2.09  41 2.09  64 2.09
  20  0.750  0.000  0.353-  39 2.09  54 2.09  55 2.09  62 2.09  52 2.09
  21  0.000  0.250  0.353-  38 2.09  54 2.09  55 2.09  63 2.09  53 2.09
  22  0.750  0.250  0.451-  37 2.09  52 2.09  53 2.09  60 2.09  54 2.09  58 2.10
  23  0.000  0.000  0.451-  36 2.09  52 2.09  53 2.09  61 2.09  55 2.09  59 2.10
  24  0.750  0.000  0.550-  43 2.09  58 2.09  59 2.09  66 2.09  52 2.10  56 2.12
  25  0.000  0.250  0.550-  42 2.09  58 2.09  59 2.09  67 2.09  53 2.10  57 2.12
  26  0.750  0.250  0.648-  58 2.08  56 2.09  57 2.09  41 2.09  64 2.09
  27  0.000  0.000  0.648-  59 2.08  56 2.09  57 2.09  40 2.09  65 2.09
  28  0.750  0.500  0.353-  47 2.09  54 2.09  62 2.09  63 2.09  60 2.09
  29  0.000  0.750  0.353-  46 2.09  55 2.09  62 2.09  63 2.09  61 2.09
  30  0.750  0.750  0.451-  45 2.09  52 2.09  60 2.09  61 2.09  62 2.09  66 2.10
  31  0.000  0.500  0.451-  44 2.09  53 2.09  60 2.09  61 2.09  63 2.09  67 2.10
  32  0.750  0.500  0.550-  51 2.09  58 2.09  66 2.09  67 2.09  60 2.10  64 2.12
  33  0.000  0.750  0.550-  50 2.09  59 2.09  66 2.09  67 2.09  61 2.10  65 2.12
  34  0.750  0.750  0.648-  66 2.08  56 2.09  64 2.09  65 2.09  49 2.09
  35  0.000  0.500  0.648-  67 2.08  57 2.09  64 2.09  65 2.09  48 2.09
  36  0.250  0.000  0.451-   6 2.09   7 2.09  14 2.09  23 2.09   4 2.09   8 2.10
  37  0.500  0.250  0.451-   6 2.09   7 2.09  15 2.09  22 2.09   5 2.09   9 2.10
  38  0.250  0.250  0.353-   4 2.09   5 2.09  12 2.09  21 2.09   6 2.09
  39  0.500  0.000  0.353-   4 2.09   5 2.09  13 2.09  20 2.09   7 2.09
  40  0.250  0.000  0.650-  10 2.09  11 2.09  18 2.09  27 2.09   8 2.12
  41  0.500  0.250  0.650-  10 2.09  11 2.09  19 2.09  26 2.09   9 2.12
  42  0.250  0.250  0.550-  10 2.08   9 2.09   8 2.09  16 2.09  25 2.09   6 2.10
  43  0.500  0.000  0.550-  11 2.08   9 2.09   8 2.09  17 2.09  24 2.09   7 2.10
  44  0.250  0.500  0.451-   6 2.09  14 2.09  15 2.09  31 2.09  12 2.09  16 2.10
  45  0.500  0.750  0.451-   7 2.09  14 2.09  15 2.09  30 2.09  13 2.09  17 2.10
  46  0.250  0.750  0.353-   4 2.09  12 2.09  13 2.09  29 2.09  14 2.09
  47  0.500  0.500  0.353-   5 2.09  12 2.09  13 2.09  28 2.09  15 2.09
  48  0.250  0.500  0.650-  10 2.09  18 2.09  19 2.09  35 2.09  16 2.12
  49  0.500  0.750  0.650-  11 2.09  18 2.09  19 2.09  34 2.09  17 2.12
  50  0.250  0.750  0.550-  18 2.08  16 2.09  17 2.09   8 2.09  33 2.09  14 2.10
  51  0.500  0.500  0.550-  19 2.08  16 2.09  17 2.09   9 2.09  32 2.09  15 2.10
  52  0.750  0.000  0.451-   7 2.09  22 2.09  23 2.09  30 2.09  20 2.09  24 2.10
  53  0.000  0.250  0.451-   6 2.09  22 2.09  23 2.09  31 2.09  21 2.09  25 2.10
  54  0.750  0.250  0.353-   5 2.09  20 2.09  21 2.09  28 2.09  22 2.09
  55  0.000  0.000  0.353-   4 2.09  20 2.09  21 2.09  29 2.09  23 2.09
  56  0.750  0.000  0.650-  11 2.09  26 2.09  27 2.09  34 2.09  24 2.12
  57  0.000  0.250  0.650-  10 2.09  26 2.09  27 2.09  35 2.09  25 2.12
  58  0.750  0.250  0.550-  26 2.08  24 2.09  25 2.09   9 2.09  32 2.09  22 2.10
  59  0.000  0.000  0.550-  27 2.08  24 2.09  25 2.09   8 2.09  33 2.09  23 2.10
  60  0.750  0.500  0.451-  15 2.09  22 2.09  30 2.09  31 2.09  28 2.09  32 2.10
  61  0.000  0.750  0.451-  14 2.09  23 2.09  30 2.09  31 2.09  29 2.09  33 2.10
  62  0.750  0.750  0.353-  13 2.09  20 2.09  28 2.09  29 2.09  30 2.09
  63  0.000  0.500  0.353-  12 2.09  21 2.09  28 2.09  29 2.09  31 2.09
  64  0.750  0.500  0.650-  19 2.09  26 2.09  34 2.09  35 2.09  32 2.12
  65  0.000  0.750  0.650-  18 2.09  27 2.09  34 2.09  35 2.09  33 2.12
  66  0.750  0.750  0.550-  34 2.08  24 2.09  32 2.09  33 2.09  17 2.09  30 2.10
  67  0.000  0.500  0.550-  35 2.08  25 2.09  32 2.09  33 2.09  16 2.09  31 2.10

IMPORTANT INFORMATION: All symmetrisations will be switched off!
NOSYMM: (Re-)initialisation of all symmetry stuff for point group C_1.

                                     Primitive cell

  volume of cell :    1482.1129

  direct lattice vectors                    reciprocal lattice vectors
     8.349111827  0.000000000  0.000000000     0.119773219  0.000000000  0.000000000
     0.000000000  8.349111827  0.000000000     0.000000000  0.119773219  0.000000000
     0.000000000  0.000000000 21.261833870     0.000000000  0.000000000  0.047032632

  length of vectors
     8.349111827  8.349111827 21.261833870     0.119773219  0.119773219  0.047032632

  position of ions in fractional coordinates (direct lattice)
     0.493135448  0.519716155  0.765114596
     0.470763313  0.595091379  0.809218252
     0.447111688  0.674743415  0.855305933
     0.250000000  0.000000000  0.352744737
     0.500000000  0.250000000  0.352744737
     0.250000000  0.250000000  0.450914912
     0.500000000  0.000000000  0.450914912
     0.250000000  0.000000000  0.549824939
     0.500000000  0.250000000  0.549824939
     0.250000000  0.250000000  0.647529520
     0.500000000  0.000000000  0.647529520
     0.250000000  0.500000000  0.352744737
     0.500000000  0.750000000  0.352744737
     0.250000000  0.750000000  0.450914912
     0.500000000  0.500000000  0.450914912
     0.250000000  0.500000000  0.549824939
     0.500000000  0.750000000  0.549824939
     0.250000000  0.750000000  0.647529520
     0.500000000  0.500000000  0.647529520
     0.750000000  0.000000000  0.352744737
     0.000000000  0.250000000  0.352744737
     0.750000000  0.250000000  0.450914912
     0.000000000  0.000000000  0.450914912
     0.750000000  0.000000000  0.549824939
     0.000000000  0.250000000  0.549824939
     0.750000000  0.250000000  0.647529520
     0.000000000  0.000000000  0.647529520
     0.750000000  0.500000000  0.352744737
     0.000000000  0.750000000  0.352744737
     0.750000000  0.750000000  0.450914912
     0.000000000  0.500000000  0.450914912
     0.750000000  0.500000000  0.549824939
     0.000000000  0.750000000  0.549824939
     0.750000000  0.750000000  0.647529520
     0.000000000  0.500000000  0.647529520
     0.250000000  0.000000000  0.450914912
     0.500000000  0.250000000  0.450914912
     0.250000000  0.250000000  0.352744737
     0.500000000  0.000000000  0.352744737
     0.250000000  0.000000000  0.649744381
     0.500000000  0.250000000  0.649744381
     0.250000000  0.250000000  0.549531649
     0.500000000  0.000000000  0.549531649
     0.250000000  0.500000000  0.450914912
     0.500000000  0.750000000  0.450914912
     0.250000000  0.750000000  0.352744737
     0.500000000  0.500000000  0.352744737
     0.250000000  0.500000000  0.649744381
     0.500000000  0.750000000  0.649744381
     0.250000000  0.750000000  0.549531649
     0.500000000  0.500000000  0.549531649
     0.750000000  0.000000000  0.450914912
     0.000000000  0.250000000  0.450914912
     0.750000000  0.250000000  0.352744737
     0.000000000  0.000000000  0.352744737
     0.750000000  0.000000000  0.649744381
     0.000000000  0.250000000  0.649744381
     0.750000000  0.250000000  0.549531649
     0.000000000  0.000000000  0.549531649
     0.750000000  0.500000000  0.450914912
     0.000000000  0.750000000  0.450914912
     0.750000000  0.750000000  0.352744737
     0.000000000  0.500000000  0.352744737
     0.750000000  0.500000000  0.649744381
     0.000000000  0.750000000  0.649744381
     0.750000000  0.750000000  0.549531649
     0.000000000  0.500000000  0.549531649

  ion indices of the primitive-cell ions
   primitive index   ion index
                 1           1
[...]
   4.17455591  6.26183387 11.69028651
   2.08727796  6.26183387 13.76766509
   4.17455591  4.17455591 13.76766509
   6.26183387  0.00000000  7.50000000
   0.00000000  2.08727796  7.50000000
   6.26183387  2.08727796  9.58727796
   0.00000000  0.00000000  9.58727796
   6.26183387  0.00000000 11.69028651
   0.00000000  2.08727796 11.69028651
   6.26183387  2.08727796 13.76766509
   0.00000000  0.00000000 13.76766509
   6.26183387  4.17455591  7.50000000
   0.00000000  6.26183387  7.50000000
   6.26183387  6.26183387  9.58727796
   0.00000000  4.17455591  9.58727796
   6.26183387  4.17455591 11.69028651
   0.00000000  6.26183387 11.69028651
   6.26183387  6.26183387 13.76766509
   0.00000000  4.17455591 13.76766509
   2.08727796  0.00000000  9.58727796
   4.17455591  2.08727796  9.58727796
   2.08727796  2.08727796  7.50000000
   4.17455591  0.00000000  7.50000000
   2.08727796  0.00000000 13.81475709
   4.17455591  2.08727796 13.81475709
   2.08727796  2.08727796 11.68405063
   4.17455591  0.00000000 11.68405063
   2.08727796  4.17455591  9.58727796
   4.17455591  6.26183387  9.58727796
   2.08727796  6.26183387  7.50000000
   4.17455591  4.17455591  7.50000000
   2.08727796  4.17455591 13.81475709
   4.17455591  6.26183387 13.81475709
   2.08727796  6.26183387 11.68405063
   4.17455591  4.17455591 11.68405063
   6.26183387  0.00000000  9.58727796
   0.00000000  2.08727796  9.58727796
   6.26183387  2.08727796  7.50000000
   0.00000000  0.00000000  7.50000000
   6.26183387  0.00000000 13.81475709
   0.00000000  2.08727796 13.81475709
   6.26183387  2.08727796 11.68405063
   0.00000000  0.00000000 11.68405063
   6.26183387  4.17455591  9.58727796
   0.00000000  6.26183387  9.58727796
   6.26183387  6.26183387  7.50000000
   0.00000000  4.17455591  7.50000000
   6.26183387  4.17455591 13.81475709
   0.00000000  6.26183387 13.81475709
   6.26183387  6.26183387 11.68405063
   0.00000000  4.17455591 11.68405063

--------------------------------------- Iteration      FINAL  ---------------------------------------

--------------------OUTCAR has been truncated-------------------------

[...]

--------------------OUTCAR has been truncated-------------------------

  FORCE on cell =-STRESS in cart. coord.  units (eV):
  Direction    XX          YY          ZZ          XY          YZ          ZX
  Alpha Z   950.32462   950.32462   950.32462
  Ewald  159357.54023159610.45204************   -77.61231   388.60786  -116.42028
  Hartree170047.13640170167.82441************   -34.25188   174.21074   -52.55661
  E(xc)   -1913.05807 -1912.71646 -1915.29534    -0.11175     0.54700    -0.16318
  Local  ************************338842.08590   103.57237  -522.23525   156.90788
  n-local  -752.89435  -754.49935  -780.90370     0.52157    -2.55024     0.75953
  augment   835.45501   834.60577   822.59081     0.27967    -1.33934     0.39715
  Kinetic  7686.77981  7664.61821  7673.03676     7.29308   -35.76638    10.65439
  Fock    -2528.26326 -2529.16332 -2526.35597     0.29297    -1.46837     0.43785
  vdW        -9.20160    -9.20693    -6.53835     0.00119    -0.01156     0.00380
  Total     -30.17484   -30.18144    -2.57670    -0.01509    -0.00554     0.02054
  in kB     -32.61927   -32.62641    -2.78543    -0.01632    -0.00599     0.02220

 VOLUME and BASIS-vectors are now :
  energy-cutoff  :      600.00
  volume of cell :     1482.11
      direct lattice vectors                 reciprocal lattice vectors
     8.349111827  0.000000000  0.000000000     0.119773219  0.000000000  0.000000000
     0.000000000  8.349111827  0.000000000     0.000000000  0.119773219  0.000000000
     0.000000000  0.000000000 21.261833870     0.000000000  0.000000000  0.047032632

  length of vectors
     8.349111827  8.349111827 21.261833870     0.119773219  0.119773219  0.047032632

 FORCES acting on ions:
    Electron-Ion                     Ewald-Force                    Non-Local-Force
   -.500E+02 0.168E+03 -.110E+04   0.587E+02 -.197E+03 0.106E+04   -.784E+01 0.263E+02 0.381E+02
   -.403E+01 0.134E+02 -.109E+04   0.367E+01 -.121E+02 0.109E+04   0.333E+00 -.119E+01 -.115E+01
   0.515E+02 -.172E+03 -.129E+04   -.630E+02 0.211E+03 0.134E+04   0.982E+01 -.329E+02 -.482E+02
   0.203E+00 -.145E+00 0.214E+04   -.201E+00 0.146E+00 -.213E+04   -.121E-02 -.240E-03 -.682E+01
   -.503E-01 0.155E+00 0.214E+04   0.503E-01 -.151E+00 -.213E+04   -.255E-04 -.219E-02 -.683E+01
   0.656E+00 0.553E+00 0.748E+03   -.647E+00 -.534E+00 -.749E+03   -.443E-02 -.113E-01 0.455E+00
   -.171E+00 -.511E+00 0.748E+03   0.174E+00 0.502E+00 -.749E+03   -.162E-02 0.635E-02 0.416E+00
   0.410E+01 -.212E+01 -.634E+03   -.407E+01 0.215E+01 0.634E+03   -.232E-01 -.271E-01 -.119E+00
   -.621E+00 0.513E+01 -.627E+03   0.627E+00 -.502E+01 0.628E+03   -.467E-02 -.106E+00 -.402E+00
   0.215E+02 0.215E+02 -.201E+04   -.215E+02 -.216E+02 0.200E+04   -.590E-02 0.404E-01 0.583E+01
   -.250E+01 -.117E+02 -.201E+04   0.251E+01 0.118E+02 0.200E+04   -.338E-02 -.986E-01 0.578E+01
   0.207E+00 0.146E+00 0.214E+04   -.203E+00 -.146E+00 -.213E+04   -.252E-02 0.162E-03 -.683E+01
   -.556E-01 -.155E+00 0.214E+04   0.557E-01 0.152E+00 -.213E+04   -.545E-04 0.232E-02 -.683E+01
   0.722E+00 -.557E+00 0.749E+03   -.698E+00 0.541E+00 -.749E+03   -.149E-01 0.100E-01 0.461E+00
   -.186E+00 0.516E+00 0.749E+03   0.184E+00 -.510E+00 -.749E+03   0.110E-02 -.453E-02 0.525E+00
   0.592E+01 0.220E+01 -.626E+03   -.579E+01 -.223E+01 0.626E+03   -.110E+00 0.259E-01 -.264E+00
   -.875E+00 -.519E+01 -.624E+03   0.887E+00 0.507E+01 0.624E+03   -.101E-01 0.107E+00 -.155E+00
   0.294E+02 -.234E+02 -.198E+04   -.295E+02 0.235E+02 0.198E+04   0.848E-01 -.434E-01 0.585E+01
   -.578E+01 0.177E+02 -.192E+04   0.583E+01 -.179E+02 0.192E+04   -.446E-01 0.165E+00 0.509E+01
   -.203E+00 -.140E+00 0.214E+04   0.201E+00 0.141E+00 -.213E+04   0.123E-02 -.154E-03 -.682E+01
   0.502E-01 0.151E+00 0.214E+04   -.502E-01 -.150E+00 -.213E+04   0.310E-04 -.996E-03 -.683E+01
   -.655E+00 0.538E+00 0.748E+03   0.646E+00 -.525E+00 -.748E+03   0.452E-02 -.768E-02 0.450E+00
   0.168E+00 -.449E+00 0.747E+03   -.171E+00 0.458E+00 -.747E+03   0.201E-02 -.545E-02 0.452E+00
   -.409E+01 -.188E+01 -.635E+03   0.406E+01 0.191E+01 0.635E+03   0.233E-01 -.213E-01 -.123E+00
   0.595E+00 0.338E+01 -.637E+03   -.602E+00 -.335E+01 0.637E+03   0.522E-02 -.231E-01 -.132E+00
   -.211E+02 0.199E+02 -.201E+04   0.211E+02 -.199E+02 0.201E+04   0.613E-02 0.140E-01 0.583E+01
   0.224E+01 -.567E+01 -.203E+04   -.225E+01 0.569E+01 0.202E+04   0.393E-02 -.216E-01 0.578E+01
   -.206E+00 0.141E+00 0.214E+04   0.203E+00 -.141E+00 -.213E+04   0.250E-02 0.129E-03 -.683E+01
   0.553E-01 -.151E+00 0.214E+04   -.554E-01 0.150E+00 -.213E+04   0.115E-03 0.957E-03 -.682E+01
   -.721E+00 -.542E+00 0.749E+03   0.695E+00 0.530E+00 -.749E+03   0.159E-01 0.730E-02 0.464E+00
   0.182E+00 0.453E+00 0.748E+03   -.180E+00 -.461E+00 -.749E+03   -.137E-02 0.482E-02 0.413E+00
   -.589E+01 0.196E+01 -.627E+03   0.576E+01 -.198E+01 0.627E+03   0.110E+00 0.203E-01 -.331E+00
   0.827E+00 -.340E+01 -.633E+03   -.840E+00 0.338E+01 0.633E+03   0.110E-01 0.236E-01 -.104E+00
   -.283E+02 -.213E+02 -.199E+04   0.284E+02 0.213E+02 0.199E+04   -.812E-01 -.137E-01 0.584E+01
   0.364E+01 0.606E+01 -.201E+04   -.367E+01 -.608E+01 0.201E+04   0.257E-01 0.213E-01 0.579E+01
   0.565E+00 -.336E+00 0.561E+03   -.555E+00 0.334E+00 -.560E+03   -.109E-01 0.209E-02 -.836E-01
   -.112E+00 0.488E+00 0.561E+03   0.113E+00 -.509E+00 -.560E+03   -.876E-03 0.231E-01 -.124E+00
   0.149E+00 0.114E+00 0.161E+04   -.147E+00 -.112E+00 -.161E+04   -.233E-02 -.320E-02 0.300E+01
   -.390E-01 -.111E+00 0.161E+04   0.394E-01 0.111E+00 -.161E+04   -.433E-03 0.587E-03 0.300E+01
   0.115E+02 -.757E+01 -.154E+04   -.114E+02 0.760E+01 0.154E+04   -.468E-01 -.223E-01 -.452E+01
   -.210E+01 0.263E+02 -.151E+04   0.210E+01 -.262E+02 0.152E+04   -.260E-02 -.144E+00 -.454E+01
   0.344E+01 0.313E+01 -.467E+03   -.342E+01 -.311E+01 0.467E+03   -.221E-01 -.141E-01 0.334E+00
   -.503E+00 -.167E+01 -.466E+03   0.505E+00 0.169E+01 0.466E+03   -.916E-03 -.175E-01 0.334E+00
   0.602E+00 0.343E+00 0.561E+03   -.625E+00 -.344E+00 -.561E+03   0.261E-01 0.101E-02 -.127E+00
   -.138E+00 -.498E+00 0.561E+03   0.138E+00 0.522E+00 -.561E+03   0.734E-05 -.276E-01 -.131E+00
   0.156E+00 -.115E+00 0.161E+04   -.153E+00 0.112E+00 -.161E+04   -.438E-02 0.332E-02 0.300E+01
   -.406E-01 0.112E+00 0.161E+04   0.405E-01 -.111E+00 -.161E+04   0.169E-03 -.749E-03 0.300E+01
   0.314E+02 0.914E+01 -.150E+04   -.312E+02 -.916E+01 0.150E+04   -.191E+00 0.130E-01 -.449E+01
   -.393E+01 -.303E+02 -.149E+04   0.394E+01 0.300E+02 0.149E+04   -.621E-02 0.222E+00 -.442E+01
   0.387E+01 -.319E+01 -.463E+03   -.386E+01 0.318E+01 0.462E+03   -.503E-02 0.127E-01 0.439E+00
   -.601E+00 0.174E+01 -.464E+03   0.606E+00 -.176E+01 0.465E+03   -.495E-02 0.191E-01 -.152E+00
   -.565E+00 -.314E+00 0.560E+03   0.557E+00 0.314E+00 -.560E+03   0.999E-02 -.966E-03 -.904E-01
   0.111E+00 0.461E+00 0.560E+03   -.111E+00 -.452E+00 -.560E+03   0.658E-03 -.989E-02 -.960E-01
   -.148E+00 0.113E+00 0.160E+04   0.146E+00 -.111E+00 -.161E+04   0.232E-02 -.266E-02 0.300E+01
   0.390E-01 -.104E+00 0.160E+04   -.393E-01 0.105E+00 -.161E+04   0.410E-03 -.132E-02 0.301E+01
   -.113E+02 -.630E+01 -.154E+04   0.112E+02 0.631E+01 0.154E+04   0.464E-01 -.144E-01 -.452E+01
   0.178E+01 0.863E+01 -.154E+04   -.178E+01 -.858E+01 0.155E+04   0.250E-02 -.431E-01 -.452E+01
   -.342E+01 0.304E+01 -.468E+03   0.340E+01 -.302E+01 0.468E+03   0.217E-01 -.184E-01 0.320E+00
   0.490E+00 -.131E+01 -.473E+03   -.491E+00 0.132E+01 0.472E+03   0.820E-03 -.641E-02 0.298E+00
   -.599E+00 0.318E+00 0.561E+03   0.621E+00 -.319E+00 -.561E+03   -.254E-01 0.196E-02 -.126E+00
   0.133E+00 -.460E+00 0.561E+03   -.131E+00 0.450E+00 -.560E+03   -.245E-02 0.114E-01 -.755E-01
   -.156E+00 -.113E+00 0.161E+04   0.152E+00 0.111E+00 -.161E+04   0.430E-02 0.270E-02 0.300E+01
   0.404E-01 0.104E+00 0.161E+04   -.403E-01 -.105E+00 -.161E+04   -.138E-03 0.136E-02 0.300E+01
   -.300E+02 0.745E+01 -.151E+04   0.298E+02 -.746E+01 0.151E+04   0.167E+00 0.105E-01 -.452E+01
   0.299E+01 -.894E+01 -.154E+04   -.300E+01 0.889E+01 0.154E+04   0.114E-01 0.425E-01 -.452E+01
   -.383E+01 -.309E+01 -.465E+03   0.383E+01 0.307E+01 0.464E+03   0.523E-02 0.176E-01 0.396E+00
   0.567E+00 0.133E+01 -.467E+03   -.572E+00 -.134E+01 0.467E+03   0.405E-02 0.495E-02 0.332E+00
   -.310E+01 0.104E+02 0.357E+02   0.468E-12 0.107E-13 0.381E-11   0.228E+01 -.767E+01 -.286E+02

 POSITION                                       TOTAL-FORCE (eV/Angst)
      4.11746      4.34408     16.28855         0.003885     -0.006074      0.005056
      3.93133      4.96911     17.20425         0.000753      0.001711      0.001300
      3.73493      5.62736     18.16840        -0.001217      0.005347     -0.004216
      2.08728      0.00000      7.50000         0.000552      0.000094      0.425848
      4.17456      2.08728      7.50000         0.000014      0.000823      0.427647
      2.08728      2.08728      9.58728         0.002854      0.005753      0.062058
      4.17456      0.00000      9.58728         0.000730     -0.002478      0.070099
      2.08783      0.00088     11.68683         0.001079      0.000978     -0.004440
      4.17466      2.09047     11.69146         0.000171      0.000836     -0.000347
      2.08735      2.08694     13.76146         0.003170      0.000544     -0.001073
      4.17451      0.00212     13.76046        -0.000269      0.003326     -0.002601
      2.08728      4.17456      7.50000         0.000936     -0.000043      0.428037
      4.17456      6.26183      7.50000         0.000000     -0.000854      0.428220
      2.08728      6.26183      9.58728         0.006915     -0.004893      0.059138
      4.17456      4.17456      9.58728        -0.000288      0.001272      0.082083
      2.09085      4.17400     11.69135         0.000717     -0.000898     -0.002754
      4.17471      6.25816     11.69159         0.000193     -0.001086     -0.004312
      2.08504      6.26324     13.75429        -0.000818     -0.000911     -0.001528
      4.17599      4.16896     13.80741         0.000770     -0.002706     -0.004429
      6.26183      0.00000      7.50000        -0.000581      0.000072      0.426397
      0.00000      2.08728      7.50000        -0.000009      0.000498      0.426996
      6.26183      2.08728      9.58728        -0.002921      0.004223      0.063261
      0.00000      0.00000      9.58728        -0.000944      0.002580      0.056845
      6.26115      0.00059     11.68727        -0.001073      0.001080     -0.004461
     -0.00014      2.08799     11.68751        -0.000391      0.000987     -0.004319
      6.26170      2.08715     13.76219        -0.003293      0.001821     -0.001114
     -0.00025      0.00077     13.76313         0.000166     -0.000758     -0.003550
      6.26183      4.17456      7.50000        -0.000933     -0.000057      0.427923
      0.00000      6.26183      7.50000        -0.000045     -0.000442      0.425275
      6.26183      6.26183      9.58728        -0.007550     -0.003914      0.060143
      0.00000      4.17456      9.58728         0.000509     -0.002218      0.069915
      6.25832      4.17406     11.69142        -0.000745     -0.000891     -0.001664
     -0.00044      6.26133     11.68641        -0.000280     -0.001481     -0.004484
      6.26315      6.26222     13.75764         0.000818     -0.002082     -0.001451
     -0.00065      4.17416     13.76021        -0.001059      0.000518     -0.002600
      2.08728      0.00000      9.58728        -0.003853      0.000322      0.069983
      4.17456      2.08728      9.58728        -0.000351      0.007008      0.081334
      2.08728      2.08728      7.50000        -0.000802     -0.001096     -0.564646
      4.17456      0.00000      7.50000        -0.000151      0.000218     -0.564419
      2.08576     -0.00052     13.81270        -0.001259     -0.001096      0.000565
      4.17434      2.07994     13.80641        -0.000456     -0.001940     -0.000726
      2.08645      2.08698     11.68196        -0.001702     -0.000543      0.001696
      4.17443     -0.00115     11.68086         0.000077     -0.001581      0.002895
      2.08728      4.17456      9.58728         0.007897      0.000626      0.078937
      4.17456      6.26183      9.58728        -0.000062     -0.008344      0.078488
      2.08728      6.26183      7.50000        -0.001512      0.001155     -0.564033
      4.17456      4.17456      7.50000         0.000058     -0.000259     -0.566060
      2.08017      4.17597     13.81248        -0.001166      0.001184     -0.000194
      4.17376      6.26927     13.81811        -0.000389      0.000884     -0.000380
      2.08706      6.26242     11.68138         0.000135      0.000577      0.004316
      4.17432      4.17533     11.69036        -0.000529      0.001646     -0.000337
      6.26183      0.00000      9.58728         0.003579     -0.000620      0.069853
      0.00000      2.08728      9.58728         0.000286     -0.003565      0.069142
      6.26183      2.08728      7.50000         0.000793     -0.000908     -0.564826
      0.00000      0.00000      7.50000         0.000139     -0.000443     -0.563383
      6.26307     -0.00061     13.81323         0.001090     -0.001052      0.000215
      0.00012      2.08620     13.81312         0.000179     -0.001483     -0.000210
      6.26263      2.08667     11.68192         0.001481     -0.001038      0.000975
     -0.00000     -0.00024     11.68158        -0.000101      0.000078      0.005481
      6.26183      4.17456      9.58728        -0.007684      0.000932      0.080024
      0.00000      6.26183      9.58728        -0.000671      0.004028      0.070641
      6.26183      6.26183      7.50000         0.001479      0.000942     -0.564258
      0.00000      4.17456      7.50000        -0.000051      0.000475     -0.564512
      6.26869      4.17544     13.80956         0.001369      0.001250     -0.000508
      0.00004      6.26327     13.81280         0.000219      0.001274      0.000883
      6.26179      6.26252     11.68189        -0.000279      0.001169      0.003548
      0.00025      4.17500     11.68070         0.000419     -0.000471      0.002622
    total drift:                                0.000127     -0.000590      0.004363

  FREE ENERGIE OF THE ION-ELECTRON SYSTEM (eV)
  free  energy   TOTEN  =      -501.23088277 eV

  energy  without entropy=     -501.23088277  energy(sigma->0) =     -501.23088277

 d Force = 0.3432123E-05[ 0.287E-05, 0.399E-05]  d Energy = 0.4477482E-05-0.105E-05
 d Force =-0.8365035E+00[-0.837E+00,-0.837E+00]  d Ewald  =-0.8365023E+00-0.124E-05

 reached required accuracy - stopping structural energy minimisation