 vasp.6.3.0 20Jan22 (build Aug 21 2024 11:13:42) complex
 executed on        HPECrayEX_GCC date 2024.11.26  22:44:19

 INCAR:
   SYSTEM = TiO2
   ISMEAR = 0
   SIGMA = 0.05
   EDIFF = 1E-4
   ALGO = ALL
   ISTART = 0
   IBRION = -1
   NSW = 0
   ISYM = 0
   ISIF = 2
   EDIFFG = -0.01
   DIPOL = 0.5 0.5 0.5
   IDIPOL = 3
   LDIPOL = .TRUE.
   GGA = PE
   IVDW = 21
   ENCUT = 600
   PREC = Accurate
   LASPH = .TRUE.
   LREAL = .FALSE.
   ISPIN = 1
   NELM = 200
   NELMIN = 8
   NCORE = 16
   KPAR = 1
   LWAVE = .FALSE.
   LCHARG = .FALSE.

 POTCAR:    PAW_PBE H 15Jun2001
 POTCAR:    PAW_PBE O 08Apr2002
 POTCAR:    PAW_PBE Ti_pv 07Sep2000
 POTCAR:    PAW_PBE O 08Apr2002
 POTCAR:    PAW_PBE H 15Jun2001
   VRHFIN =H: ultrasoft test

   TITEL  = PAW_PBE H 15Jun2001
   POMASS =    1.000; ZVAL   =    1.000    mass and valenz
   ENMAX  =  250.000; ENMIN  =  200.000 eV

   TITEL  = PAW_PBE O 08Apr2002
   POMASS =   16.000; ZVAL   =    6.000    mass and valenz
   ENMAX  =  400.000; ENMIN  =  300.000 eV

   TITEL  = PAW_PBE Ti_pv 07Sep2000
   POMASS =   47.880; ZVAL   =   10.000    mass and valenz
   ENMAX  =  222.335; ENMIN  =  166.751 eV

   TITEL  = PAW_PBE O 08Apr2002
   POMASS =   16.000; ZVAL   =    6.000    mass and valenz
   ENMAX  =  400.000; ENMIN  =  300.000 eV

  PAW_PBE H 15Jun2001                   :
  PAW_PBE O 08Apr2002                   :
  PAW_PBE Ti_pv 07Sep2000               :
  PAW_PBE O 08Apr2002                   :

 POSCAR:  H  O Ti  O
  positions in direct lattice
 exchange correlation table for  LEXCH =        8
   RHO(1)=    0.500       N(1)  =     2000
   RHO(2)=  100.500       N(2)  =     4000

 ion  position               nearest neighbor table
   1  0.689  0.568  0.807-   3 0.97
   2  0.689  0.432  0.807-   3 0.97
   3  0.630  0.500  0.807-   2 0.97   1 0.97  51 2.23
   4  0.815  0.833  0.271-  88 1.92  54 1.92  56 1.92  53 1.97  55 1.97  21 3.03   7 3.03   5 3.03

   5  0.598  0.667  0.306- 119 1.92  52 1.92  55 1.92  57 1.92  56 1.97  58 1.97  36 3.03   6 3.03
                             4 3.03  10 3.06
   6  0.315  0.667  0.271- 124 1.92  58 1.92  60 1.92  52 1.97  59 1.97  39 3.03   5 3.03   7 3.03

   7  0.098  0.833  0.306-  91 1.92  53 1.92  59 1.92  61 1.92  54 1.97  60 1.97  22 3.03   4 3.03
                             6 3.03   8 3.06
   8  0.951  0.833  0.414-  96 1.92  64 1.92  62 1.92  54 1.96  61 1.97  63 1.97  11 2.98   9 3.04
                            25 3.04   7 3.06
   9  0.732  0.666  0.446-  57 1.89 127 1.92  63 1.92  65 1.95  66 1.97  64 1.98  10 3.00   8 3.04
                            40 3.04  14 3.08
  10  0.450  0.666  0.413- 132 1.92  68 1.92  66 1.92  58 1.96  67 1.97  57 1.98   9 3.00  11 3.04
                            43 3.04   5 3.06
  11  0.231  0.833  0.447-  61 1.90  99 1.92  67 1.92  62 1.95  69 1.96  68 1.99   8 2.98  26 3.04
                            10 3.04  12 3.08
  12  0.091  0.834  0.557- 104 1.91  70 1.92  72 1.92  71 1.97  69 1.97  62 1.99  15 2.94  13 3.03
                            29 3.04  11 3.08
  13  0.870  0.666  0.585-  65 1.87 135 1.92  71 1.92  74 1.94  73 1.99  72 1.99  14 2.97  12 3.03
                            44 3.05  18 3.14
  14  0.590  0.667  0.555- 140 1.92  76 1.92  74 1.93  66 1.96  75 1.97  65 1.98  13 2.97  15 3.04
                            47 3.05   9 3.08
  15  0.369  0.833  0.587-  69 1.87 107 1.92  75 1.93  70 1.94  77 1.98  76 1.99  12 2.94  30 3.04
                            14 3.04
  16  0.236  0.833  0.703-  78 1.85  80 1.92 112 1.93  79 2.00  77 2.05  70 2.08  19 2.84  33 3.06
                            17 3.08
  17  0.004  0.666  0.725-  73 1.79  81 1.84 143 1.95  79 1.96  80 2.03  18 2.86  16 3.08  48 3.09

[...]

  20  0.815  0.167  0.271-  88 1.92  86 1.92 120 1.92  85 1.97  87 1.97  21 3.03  23 3.03  37 3.03

[...]

  36  0.815  0.500  0.271-  56 1.92 120 1.92 118 1.92 117 1.97 119 1.97  37 3.03   5 3.03  39 3.03

  37  0.598  0.333  0.306- 119 1.92 116 1.92  87 1.92 121 1.92 120 1.97 122 1.97  36 3.03  38 3.03
                            20 3.03  42 3.06
  38  0.315  0.333  0.271- 124 1.92 122 1.92  92 1.92 116 1.97 123 1.97  39 3.03  37 3.03  23 3.03

  39  0.098  0.500  0.306-  59 1.92 123 1.92 117 1.92 125 1.92 118 1.97 124 1.97   6 3.03  38 3.03
                            36 3.03  40 3.05
  40  0.952  0.500  0.413- 128 1.92  64 1.92 126 1.93 125 1.96 118 1.96 127 1.98  43 2.99   9 3.04
                            41 3.04  39 3.05
  41  0.732  0.334  0.446- 121 1.89 127 1.92  95 1.92 129 1.95 130 1.97 128 1.98  42 3.00  24 3.04
                            40 3.04  46 3.08
  42  0.450  0.334  0.413- 132 1.92 100 1.92 130 1.92 122 1.96 131 1.97 121 1.98  41 3.00  27 3.04
                            43 3.04  37 3.06
  43  0.231  0.500  0.448-  67 1.92 131 1.92 125 1.92 126 1.94 133 1.96 132 1.99  40 2.99  10 3.04
                            42 3.04  44 3.05
  44  0.094  0.500  0.557- 134 1.92 136 1.92  72 1.92 133 1.95 135 1.99 126 1.99  47 2.95  13 3.05
                            45 3.05  43 3.05
  45  0.870  0.334  0.585- 129 1.87 135 1.92 103 1.92 138 1.94 137 1.99 136 1.99  46 2.97  28 3.03
                            44 3.05  50 3.14
  46  0.590  0.333  0.555- 140 1.92 108 1.92 138 1.93 130 1.96 139 1.97 129 1.98  45 2.97  31 3.04
                            47 3.05  41 3.08
  47  0.371  0.500  0.590- 133 1.92 139 1.92  75 1.92 134 1.93 141 1.97 140 2.01  44 2.95  14 3.05
                            46 3.05  48 3.11
  48  0.239  0.500  0.703- 142 1.85  80 1.92 144 1.92 141 2.01 143 2.03 134 2.07  51 2.87  49 3.09
                            17 3.09  47 3.11
  49  0.004  0.334  0.725- 137 1.79 145 1.84 143 1.95 111 1.96 144 2.03  50 2.86  32 3.08  48 3.09

  50  0.733  0.334  0.699- 145 1.88 147 1.91 115 1.93 146 1.99 138 2.01 137 2.05  49 2.86  35 3.07
                            51 3.07  45 3.14
  51  0.510  0.500  0.732- 142 1.82 141 1.87  82 1.96 146 1.96 147 2.07   3 2.23  48 2.87  50 3.07
                            18 3.07
  52  0.494  0.667  0.242-   5 1.92   6 1.97
  53  0.994  0.833  0.242-   7 1.92   4 1.97
  54  0.919  0.833  0.336-   4 1.92   8 1.96   7 1.97
  55  0.636  0.833  0.300-  21 1.92   5 1.92   4 1.97
  56  0.778  0.667  0.277-  36 1.92   4 1.92   5 1.97
  57  0.628  0.667  0.383-   9 1.89   5 1.92  10 1.98
  58  0.419  0.667  0.336-   6 1.92  10 1.96   5 1.97
  59  0.136  0.667  0.300-  39 1.92   7 1.92   6 1.97
  60  0.278  0.833  0.277-  22 1.92   6 1.92   7 1.97
  61  0.128  0.833  0.383-  11 1.90   7 1.92   8 1.97
  62  0.055  0.834  0.478-   8 1.92  11 1.95  12 1.99
  63  0.770  0.833  0.441-  25 1.92   9 1.92   8 1.97
  64  0.913  0.667  0.419-   8 1.92  40 1.92   9 1.98
  65  0.767  0.666  0.523-  13 1.87   9 1.95  14 1.98
  66  0.555  0.666  0.478-  10 1.92  14 1.96   9 1.97
  67  0.270  0.667  0.442-  43 1.92  11 1.92  10 1.97
  68  0.412  0.833  0.419-  10 1.92  26 1.92  11 1.99
  69  0.267  0.833  0.524-  15 1.87  11 1.96  12 1.97
  70  0.198  0.833  0.620-  12 1.92  15 1.94  16 2.08
  71  0.909  0.833  0.582-  29 1.92  13 1.92  12 1.97
  72  0.054  0.667  0.561-  44 1.92  12 1.92  13 1.99
  73  0.914  0.668  0.663-  17 1.79  13 1.99  18 2.05
  74  0.699  0.669  0.619-  14 1.93  13 1.94  18 2.01
  75  0.410  0.667  0.584-  47 1.92  15 1.93  14 1.97
  76  0.552  0.833  0.560-  30 1.92  14 1.92  15 1.99
  77  0.413  0.835  0.664-  19 1.79  15 1.98  16 2.05
  78  0.350  0.833  0.760-  19 1.83  16 1.85
  79  0.056  0.833  0.734-  33 1.96  17 1.96  16 2.00
  80  0.196  0.666  0.704-  16 1.92  48 1.92  17 2.03
  81  0.845  0.661  0.759-  17 1.84  18 1.88
  82  0.559  0.669  0.734-  19 1.95  51 1.96  18 1.99
  83  0.696  0.834  0.701-  34 1.92  18 1.93  19 2.03
  84  0.494  0.000  0.242-  21 1.92  22 1.97
  85  0.994  0.167  0.242-  23 1.92  20 1.97
  86  0.919  0.167  0.336-  20 1.92  24 1.96  23 1.97
  87  0.636  0.167  0.300-  21 1.92  37 1.92  20 1.97
  88  0.778  0.000  0.277-   4 1.92  20 1.92  21 1.97
  89  0.628  0.000  0.383-  25 1.89  21 1.92  26 1.98
  90  0.419  0.000  0.336-  22 1.92  26 1.96  21 1.97
  91  0.136  0.000  0.300-   7 1.92  23 1.92  22 1.97
  92  0.278  0.167  0.277-  22 1.92  38 1.92  23 1.97
  93  0.128  0.167  0.383-  27 1.90  23 1.92  24 1.97
  94  0.055  0.166  0.478-  24 1.92  27 1.95  28 1.99
  95  0.770  0.167  0.441-  25 1.92  41 1.92  24 1.97
  96  0.913  0.000  0.419-  24 1.92   8 1.92  25 1.99
  97  0.766  0.000  0.524-  29 1.87  25 1.95  30 1.98
  98  0.555  0.000  0.478-  26 1.92  25 1.96  30 1.98
  99  0.270  0.000  0.442-  27 1.92  11 1.92  26 1.97
 100  0.412  0.167  0.419-  42 1.92  26 1.92  27 1.99
 101  0.267  0.167  0.524-  31 1.87  27 1.96  28 1.97
 102  0.198  0.167  0.620-  28 1.92  31 1.94  32 2.08
 103  0.909  0.167  0.582-  29 1.92  45 1.92  28 1.97
 104  0.054  0.000  0.561-  28 1.91  12 1.91  29 2.00
 105  0.914  1.000  0.664-  33 1.79  29 1.99  34 2.05
 106  0.698  0.000  0.619-  30 1.92  29 1.93  34 2.07
 107  0.409  0.000  0.583-  31 1.92  15 1.92  30 1.97
 108  0.552  0.167  0.560-  30 1.92  46 1.92  31 1.99
 109  0.413  0.165  0.664-  35 1.79  31 1.98  32 2.05
 110  0.350  0.167  0.760-  35 1.83  32 1.85
 111  0.056  0.167  0.734-  33 1.96  49 1.96  32 2.00
[...]
 133  0.268  0.500  0.525-  47 1.92  44 1.95  43 1.96
 134  0.198  0.500  0.621-  44 1.92  47 1.93  48 2.07
 135  0.910  0.500  0.582-  13 1.92  45 1.92  44 1.99
 136  0.054  0.333  0.561-  44 1.92  28 1.92  45 1.99
 137  0.914  0.332  0.663-  49 1.79  45 1.99  50 2.05
 138  0.699  0.331  0.619-  46 1.93  45 1.94  50 2.01
 139  0.410  0.333  0.584-  47 1.92  31 1.93  46 1.97
 140  0.553  0.500  0.561-  46 1.92  14 1.92  47 2.01
 141  0.415  0.500  0.668-  51 1.87  47 1.97  48 2.01
 142  0.348  0.500  0.763-  51 1.82  48 1.85
 143  0.056  0.500  0.734-  49 1.95  17 1.95  48 2.03
 144  0.196  0.334  0.704-  32 1.92  48 1.92  49 2.03
 145  0.845  0.339  0.759-  49 1.84  50 1.88
 146  0.559  0.331  0.734-  35 1.95  51 1.96  50 1.99
 147  0.693  0.500  0.697-  50 1.91  18 1.91  51 2.07

IMPORTANT INFORMATION: All symmetrisations will be switched off!
NOSYMM: (Re-)initialisation of all symmetry stuff for point group C_1.

                                     Primitive cell

  volume of cell :    2859.6974

  direct lattice vectors                    reciprocal lattice vectors
    10.250982430  0.000000000  0.000000000     0.097551626 -0.000000000  0.000000000
     0.000000000 11.253211329  0.000000000     0.000000000  0.088863523  0.000000000
     0.000000000  0.000000000 24.790090512     0.000000000  0.000000000  0.040338699

  length of vectors
    10.250982430 11.253211329 24.790090512     0.097551626  0.088863523  0.040338699

  position of ions in fractional coordinates (direct lattice)
     0.688507698  0.568139000  0.806541063
     0.688506640  0.431862225  0.806541358
     0.630461152  0.499999401  0.806919063
     0.814826118  0.833333333  0.271169148
     0.598301032  0.666666667  0.306373894
     0.314826118  0.666666667  0.271169148
     0.098301032  0.833333333  0.306373894
     0.950547308  0.833443166  0.413564835
     0.731500825  0.666355664  0.446087453
     0.449810573  0.666490549  0.413391386
     0.230515778  0.833311927  0.446642346
     0.091301144  0.833520288  0.556623289
[...]
   O          49.778          3.875          9.646          1.78630138
   O          52.021          3.904          9.861          1.82610644
   O          51.696          3.899          9.830          1.82039446
   O          51.540          3.898          9.815          1.81763503
   O          35.888          3.669          8.190          1.51674578
   O          50.912          3.890          9.755          1.80652873
   O          53.300          3.919          9.981          1.84841864
   O          38.860          3.718          8.523          1.57829007
   O          51.170          3.893          9.780          1.81111446
   O          53.747          3.925         10.023          1.85614864

  vdW correction parametrized for the method pbe

  IVDW =  21
  VDW_RADIUS =    50.000 A
  VDW_IDAMPF =  0
  VDW_S6 =     1.000
  VDW_SR =     0.950
  VDW_D =    20.000
  LVDW_ONECELL = F F F
  LVDW_SAMETYPE T T T T
  LVDW_EWALD = F

  Number of pair interactions contributing to vdW energy: 1969775
  Edisp (eV):  -18.64628

  FORCE on cell =-STRESS in cart. coord.  units (eV):
  Direction    XX          YY          ZZ          XY          YZ          ZX
  Alpha Z  2785.22319  2785.22319  2785.22319
  Ewald  332945.09870326129.82761************    -0.00172    -0.00071 -2076.84622
  Hartree354897.99205350754.17769************    -0.00023     0.00010 -1362.19095
  E(xc)   -5193.51837 -5198.01415 -5205.08802     0.00000    -0.00000    -1.68766
  Local  ************************696888.91052     0.00121     0.00049  3447.67112
  n-local -3280.66642 -3249.04271 -3295.20958     0.00018     0.00002     0.50604
  augment  3138.84237  3132.62930  3125.97457     0.00003    -0.00001    -2.48596
  Kinetic 17214.98643 17258.72176 17334.38045    -0.00004     0.00020   -21.73227
  Fock        0.00000     0.00000     0.00000     0.00000     0.00000     0.00000
  vdW       -19.11642   -26.95166   -21.62048    -0.00000     0.00000    -1.15772
  Total      28.47801    48.05565    34.45066    -0.00057     0.00009   -17.92362
  in kB      15.95512    26.92372    19.30137    -0.00032     0.00005   -10.04191

 VOLUME and BASIS-vectors are now :
  energy-cutoff  :      600.00
  volume of cell :     2859.70
      direct lattice vectors                 reciprocal lattice vectors
    10.250982430  0.000000000  0.000000000     0.097551626 -0.000000000  0.000000000
     0.000000000 11.253211329  0.000000000     0.000000000  0.088863523  0.000000000
     0.000000000  0.000000000 24.790090512     0.000000000  0.000000000  0.040338699

  length of vectors
    10.250982430 11.253211329 24.790090512     0.097551626  0.088863523  0.040338699

 FORCES acting on ions:
    Electron-Ion                     Ewald-Force                    Non-Local-Force
   -.521E+02 -.673E+02 -.312E+03   0.575E+02 0.745E+02 0.312E+03   -.512E+01 -.686E+01 0.338E-01
   -.521E+02 0.673E+02 -.312E+03   0.575E+02 -.746E+02 0.312E+03   -.512E+01 0.686E+01 0.337E-01
   0.980E+01 -.287E-02 -.189E+04   -.513E+02 0.459E-02 0.190E+04   0.410E+02 -.588E-03 -.833E+01
   0.429E+01 -.217E+00 0.300E+04   0.606E+00 0.219E+00 -.300E+04   -.102E+01 -.368E-03 -.332E+01
   0.489E+01 -.259E+00 0.246E+04   -.643E+01 0.261E+00 -.246E+04   -.141E+00 -.781E-03 -.447E-01
   0.464E+01 0.161E-01 0.300E+04   0.220E+00 -.190E-01 -.300E+04   -.102E+01 0.904E-03 -.332E+01
   0.342E+01 0.315E-01 0.246E+04   -.500E+01 -.379E-01 -.246E+04   -.134E+00 0.144E-02 -.488E-01
   0.421E+00 -.140E+00 0.112E+04   -.587E+00 0.134E+00 -.112E+04   0.183E+00 0.162E-02 0.471E-01
   0.917E+00 -.185E+01 0.708E+03   -.836E+00 0.184E+01 -.708E+03   -.781E-01 0.170E-01 -.133E+00
   0.304E+01 -.122E+00 0.112E+04   -.319E+01 0.122E+00 -.112E+04   0.166E+00 0.423E-02 0.221E-01
   -.478E+01 0.452E+00 0.697E+03   0.486E+01 -.454E+00 -.697E+03   -.729E-01 0.554E-03 -.123E+00
   -.489E+01 -.261E+01 -.694E+03   0.459E+01 0.260E+01 0.694E+03   0.317E+00 0.688E-02 0.139E+00
   -.115E+02 -.411E+01 -.103E+04   0.117E+02 0.415E+01 0.103E+04   -.144E+00 -.430E-01 -.251E+00
   0.444E+01 -.250E+01 -.662E+03   -.469E+01 0.249E+01 0.662E+03   0.263E+00 0.409E-02 0.843E-01
   0.231E+01 -.217E+01 -.107E+04   -.213E+01 0.218E+01 0.107E+04   -.163E+00 -.975E-02 -.295E+00
   0.306E+02 -.118E+02 -.247E+04   -.315E+02 0.118E+02 0.247E+04   0.918E+00 0.564E-02 -.393E-01
   -.817E+02 -.273E+02 -.282E+04   0.819E+02 0.272E+02 0.282E+04   -.164E+00 0.163E+00 0.748E+00
   -.112E+02 -.530E+02 -.237E+04   0.104E+02 0.531E+02 0.237E+04   0.764E+00 -.495E-01 0.713E-01
   -.493E+02 -.365E+02 -.282E+04   0.494E+02 0.365E+02 0.282E+04   -.108E+00 0.249E-01 0.776E+00
   0.429E+01 0.217E+00 0.300E+04   0.606E+00 -.219E+00 -.300E+04   -.102E+01 0.398E-03 -.332E+01
   0.476E+01 -.634E-05 0.246E+04   -.634E+01 0.296E-04 -.246E+04   -.134E+00 0.102E-05 -.513E-01
   0.448E+01 -.166E-03 0.300E+04   0.404E+00 0.186E-04 -.300E+04   -.102E+01 -.238E-04 -.332E+01
   0.342E+01 -.317E-01 0.246E+04   -.500E+01 0.380E-01 -.246E+04   -.134E+00 -.148E-02 -.489E-01
   0.421E+00 0.140E+00 0.112E+04   -.587E+00 -.134E+00 -.112E+04   0.183E+00 -.162E-02 0.471E-01
   -.151E+01 -.125E-03 0.703E+03   0.158E+01 0.120E-03 -.703E+03   -.541E-01 -.283E-05 -.132E+00
   0.261E+01 -.210E-04 0.112E+04   -.276E+01 0.505E-04 -.112E+04   0.173E+00 0.250E-06 0.337E-01
   -.478E+01 -.452E+00 0.697E+03   0.486E+01 0.454E+00 -.697E+03   -.729E-01 -.542E-03 -.123E+00
   -.489E+01 0.261E+01 -.694E+03   0.459E+01 -.260E+01 0.694E+03   0.317E+00 -.690E-02 0.139E+00
   -.807E+01 -.225E-05 -.106E+04   0.822E+01 0.158E-04 0.106E+04   -.132E+00 -.516E-05 -.263E+00
   -.877E-01 0.113E-03 -.683E+03   -.199E+00 -.856E-04 0.683E+03   0.302E+00 -.356E-05 0.155E+00
   0.231E+01 0.218E+01 -.107E+04   -.213E+01 -.218E+01 0.107E+04   -.163E+00 0.975E-02 -.295E+00
   0.306E+02 0.118E+02 -.247E+04   -.315E+02 -.118E+02 0.247E+04   0.918E+00 -.564E-02 -.393E-01
   -.681E+02 -.475E-04 -.283E+04   0.683E+02 -.131E-04 0.283E+04   -.172E+00 -.159E-04 0.743E+00
   0.114E+02 0.106E-03 -.246E+04   -.123E+02 -.291E-04 0.246E+04   0.849E+00 0.755E-05 0.105E-01
   -.493E+02 0.365E+02 -.282E+04   0.494E+02 -.365E+02 0.282E+04   -.108E+00 -.249E-01 0.776E+00
   0.423E+01 -.877E-05 0.300E+04   0.674E+00 -.203E-04 -.300E+04   -.102E+01 0.719E-05 -.332E+01
   0.489E+01 0.259E+00 0.246E+04   -.643E+01 -.261E+00 -.246E+04   -.141E+00 0.778E-03 -.447E-01
   0.464E+01 -.162E-01 0.300E+04   0.220E+00 0.190E-01 -.300E+04   -.102E+01 -.918E-03 -.332E+01
   0.252E+01 0.495E-04 0.246E+04   -.407E+01 -.169E-04 -.246E+04   -.148E+00 0.355E-05 -.472E-01
   0.278E+00 0.126E-03 0.112E+04   -.448E+00 -.906E-04 -.112E+04   0.181E+00 0.151E-04 0.835E-01
   0.917E+00 0.185E+01 0.708E+03   -.836E+00 -.184E+01 -.708E+03   -.781E-01 -.169E-01 -.133E+00
   0.304E+01 0.122E+00 0.112E+04   -.319E+01 -.122E+00 -.112E+04   0.166E+00 -.422E-02 0.221E-01
   -.708E+01 -.522E-08 0.683E+03   0.719E+01 -.122E-04 -.683E+03   -.919E-01 0.644E-06 -.287E-01
   -.358E+01 0.163E-03 -.697E+03   0.332E+01 -.161E-03 0.696E+03   0.266E+00 0.882E-05 0.149E+00
   -.115E+02 0.411E+01 -.103E+04   0.117E+02 -.415E+01 0.103E+04   -.144E+00 0.431E-01 -.251E+00
   0.444E+01 0.250E+01 -.662E+03   -.469E+01 -.249E+01 0.662E+03   0.263E+00 -.408E-02 0.843E-01
   0.172E+01 -.166E-03 -.110E+04   -.154E+01 0.177E-03 0.110E+04   -.168E+00 -.363E-05 -.132E+00
   0.456E+02 -.251E-03 -.246E+04   -.464E+02 0.205E-03 0.246E+04   0.727E+00 -.576E-05 0.287E-01
   -.817E+02 0.273E+02 -.282E+04   0.819E+02 -.272E+02 0.282E+04   -.164E+00 -.163E+00 0.748E+00
   -.112E+02 0.530E+02 -.237E+04   0.104E+02 -.531E+02 0.237E+04   0.764E+00 0.495E-01 0.713E-01
   0.439E+02 -.824E-03 -.276E+04   -.433E+02 0.725E-03 0.276E+04   -.567E+00 -.107E-04 0.334E+00
   -.331E+02 -.160E+00 0.203E+04   0.380E+02 0.160E+00 -.204E+04   -.656E+01 -.498E-03 0.170E+02
   -.336E+02 -.145E+00 0.203E+04   0.385E+02 0.144E+00 -.205E+04   -.655E+01 0.153E-02 0.170E+02
   0.834E+02 0.308E-01 0.122E+04   -.881E+02 -.390E-01 -.122E+04   0.344E+01 0.702E-02 -.421E+01
   0.754E+02 -.123E+00 0.149E+04   -.823E+02 0.126E+00 -.149E+04   0.701E+01 -.526E-02 -.250E+01
   -.877E+02 -.162E+00 0.172E+04   0.947E+02 0.161E+00 -.172E+04   -.650E+01 0.182E-02 -.277E+00
   -.737E+02 -.800E+00 0.938E+03   0.796E+02 0.837E+00 -.942E+03   -.574E+01 -.333E-01 0.398E+01
   0.843E+02 0.110E+00 0.122E+04   -.890E+02 -.935E-01 -.122E+04   0.341E+01 -.197E-01 -.404E+01
   0.745E+02 0.802E-01 0.149E+04   -.814E+02 -.874E-01 -.149E+04   0.703E+01 0.175E-01 -.251E+01
   -.876E+02 -.321E-01 0.172E+04   0.947E+02 0.337E-01 -.172E+04   -.647E+01 -.600E-02 -.280E+00
[...]
   0.925E+02 -.366E-04 -.963E+03   -.998E+02 0.434E-04 0.970E+03   0.704E+01 0.630E-06 -.697E+01
   0.686E+02 0.192E-03 -.633E+03   -.743E+02 -.200E-03 0.636E+03   0.554E+01 0.705E-05 -.276E+01
   -.832E+02 0.844E+00 -.411E+03   0.895E+02 -.863E+00 0.408E+03   -.599E+01 0.167E-01 0.238E+01
   -.783E+02 0.145E+02 -.113E+04   0.812E+02 -.150E+02 0.112E+04   -.263E+01 0.562E+00 0.914E+01
   0.846E+02 0.151E+02 -.924E+03   -.912E+02 -.157E+02 0.929E+03   0.639E+01 0.622E+00 -.538E+01
   0.806E+02 0.147E+01 -.647E+03   -.867E+02 -.152E+01 0.650E+03   0.591E+01 0.418E-01 -.285E+01
   -.725E+02 0.827E-04 -.411E+03   0.784E+02 -.728E-04 0.409E+03   -.565E+01 0.489E-05 0.198E+01
   -.600E+02 0.606E-03 -.115E+04   0.657E+02 -.636E-03 0.115E+04   -.547E+01 0.483E-04 0.636E+01
   0.112E+03 -.658E-03 -.202E+04   -.118E+03 0.699E-03 0.204E+04   0.606E+01 -.398E-04 -.207E+02
   0.409E+02 -.492E-03 -.178E+04   -.441E+02 0.516E-03 0.179E+04   0.307E+01 -.278E-06 -.720E+01
   -.517E+02 0.756E+01 -.147E+04   0.564E+02 -.744E+01 0.146E+04   -.458E+01 -.122E+00 0.267E+01
   0.373E+01 0.372E+02 -.201E+04   -.877E+01 -.369E+02 0.203E+04   0.500E+01 -.238E+00 -.189E+02
   0.822E+02 0.568E+02 -.173E+04   -.866E+02 -.568E+02 0.174E+04   0.422E+01 -.104E+00 -.659E+01
   -.588E+02 -.535E-03 -.133E+04   0.621E+02 0.558E-03 0.132E+04   -.312E+01 0.119E-05 0.522E+01
   -.337E+02 0.910E-04 0.735E+02   0.156E-12 0.150E-11 -.141E-10   0.337E+02 0.135E-03 -.735E+02

 POSITION                                       TOTAL-FORCE (eV/Angst)
      7.05788      6.39339     19.99423         0.326801      0.395902     -0.006035
      7.05787      4.85984     19.99423         0.327632     -0.397005     -0.006047
      6.46285      5.62660     20.00360        -0.541915      0.001131      0.251412
      8.35277      9.37768      6.72231         3.914845      0.001528      1.400530
      6.13317      7.50214      7.59504        -1.685997      0.001082     -1.949229
      3.22728      7.50214      6.72231         3.884265     -0.001929      1.379510
      1.00768      9.37768      7.59504        -1.722894     -0.004957     -1.953512
      9.74404      9.37891     10.25231         0.004999     -0.001811      0.003392
      7.49860      7.49864     11.05855        -0.006512     -0.003344     -0.008234
      4.61100      7.50016     10.24801         0.002998      0.001018     -0.001479
      2.36301      9.37744     11.07230        -0.004766     -0.001486     -0.004716
      0.93593      9.37978     13.79874        -0.005970      0.003585     -0.003128
      8.91709      7.49844     14.50936        -0.035482     -0.009187     -0.019881
      6.04317      7.50062     13.76945        -0.006944     -0.003737     -0.006708
      3.77817      9.37781     14.54729        -0.017617     -0.001285     -0.000468
      2.41416      9.37057     17.41649        -0.009580     -0.007580      0.028718
      0.04528      7.49173     17.97724        -0.121021      0.004966     -0.002392
      7.51802      7.49260     17.31685        -0.041178     -0.004196     -0.002087
      5.20142      9.38785     17.98095        -0.150674      0.011730      0.021397
      8.35277      1.87554      6.72231         3.914872     -0.001330      1.400482
      6.13317      0.00000      7.59504        -1.709118      0.000023     -1.947512
      3.22728      0.00000      6.72231         3.908054     -0.000175      1.394068
      1.00768      1.87554      7.59504        -1.722910      0.004792     -1.953720
      9.74404      1.87430     10.25231         0.004975      0.001814      0.003457
      7.49206     11.25321     11.06343        -0.003722     -0.000009     -0.005294
      4.61327      0.00000     10.25163         0.002288      0.000029     -0.000345
      2.36301      1.87578     11.07231        -0.004757      0.001519     -0.004731
      0.93593      1.87343     13.79874        -0.005970     -0.003606     -0.003140
      8.90392     11.25321     14.52581        -0.026318      0.000007     -0.002999
      6.04922      0.00000     13.78520        -0.006827      0.000023      0.002213
      3.77817      1.87540     14.54729        -0.017622      0.001272     -0.000449
      2.41416      1.88264     17.41649        -0.009544      0.007612      0.028709
      0.06895     11.25321     17.97711        -0.155344     -0.000079      0.014687
      7.54871     11.25321     17.38509        -0.014142      0.000083      0.034892
      5.20142      1.86536     17.98096        -0.150722     -0.011649      0.021320
      8.35277      5.62661      6.72231         3.925577     -0.000024      1.397822
      6.13317      3.75107      7.59504        -1.686045     -0.001138     -1.949256
      3.22728      3.75107      6.72231         3.884343      0.001825      1.379568
      1.00768      5.62661      7.59504        -1.698341      0.000035     -1.890276
      9.75673      5.62661     10.24849         0.001901      0.000049      0.008597
      7.49860      3.75457     11.05855        -0.006543      0.003347     -0.008244
      4.61100      3.75305     10.24801         0.003022     -0.000973     -0.001503
      2.36698      5.62661     11.09929         0.002195     -0.000013      0.010247
      0.96306      5.62660     13.80542        -0.002682      0.000009      0.017974
      8.91709      3.75477     14.50937        -0.035495      0.009261     -0.019868
      6.04317      3.75260     13.76945        -0.006958      0.003725     -0.006735
      3.79843      5.62661     14.62785        -0.004107      0.000006      0.043014
      2.44790      5.62661     17.43052        -0.025656     -0.000053      0.063081
      0.04529      3.76148     17.97724        -0.121365     -0.004969     -0.002663
      7.51803      3.76061     17.31685        -0.041114      0.004178     -0.002035
      5.22541      5.62660     18.14861        -0.149478     -0.000111      0.082972
      5.06431      7.50214      6.00000        -1.699846      0.000008      0.529677
     10.18980      9.37768      6.00000        -1.693998      0.000385      0.523809
      9.42163      9.37768      8.31734        -1.284457     -0.001234      0.031648
      6.51574      9.37768      7.44462         0.144481     -0.002659      0.028637
      7.97020      7.50214      6.87273         0.543984      0.000684     -1.200607
      6.43691      7.50214      9.49092         0.168673      0.004740      0.434767
      4.29614      7.50214      8.31734        -1.291793     -0.002962      0.035291
      1.39025      7.50214      7.44462         0.156064      0.010517      0.021124
      2.84471      9.37768      6.87273         0.555125     -0.004369     -1.202707
[...]
      2.75221      5.62661     13.02053         0.236312     -0.000008     -0.112234
      2.03329      5.62661     15.39841        -0.243128      0.000006      0.131115
      9.32725      5.62661     14.43728        -0.218798     -0.000003      0.087800
      0.55804      3.75285     13.89783         0.224134     -0.002646     -0.087233
      9.37342      3.73800     16.44339         0.296541     -0.006798      0.039485
      7.16476      3.72381     15.33466        -0.217461     -0.015455      0.130934
      4.20191      3.75270     14.47315        -0.209956     -0.005541      0.093889
      5.67301      5.62661     13.91598         0.226861      0.000013     -0.085455
      4.25365      5.62660     16.54817         0.247359      0.000017     -0.104695
      3.57218      5.62661     18.90589        -0.091038     -0.000000      0.305266
      0.57166      5.62661     18.19814        -0.166929      0.000022      0.203799
      2.00595      3.75550     17.44870         0.188810      0.000498     -0.101694
      8.66176      3.81525     18.81338        -0.046701      0.012535      0.355819
      5.72691      3.72991     18.18696        -0.175143     -0.017734      0.188480
      7.10386      5.62660     17.28553         0.166595      0.000022     -0.199465
    total drift:                                0.002880      0.000226     -0.086688

  FREE ENERGIE OF THE ION-ELECTRON SYSTEM (eV)
  free  energy   TOTEN  =     -1308.39498749 eV

  energy  without entropy=    -1308.39498749  energy(sigma->0) =    -1308.39498749