 vasp.6.3.0 20Jan22 (build Mar 11 2022 13:48:16) complex

 executed on             LinuxIFC date 2024.01.21  23:07:15

 INCAR:
   SYSTEM = TiO2
   ISMEAR = 0
   SIGMA = 0.05
   EDIFF = 1E-5
   ALGO = ALL
   ISTART = 0
   IBRION = -1
   NSW = 0
   ISYM = 0
   ISIF = 2
   EDIFFG = -0.01
   DIPOL = 0.5 0.5 0.5
   IDIPOL = 3
   LDIPOL = .TRUE.
   GGA = RE
   IVDW = 13
   VDW_S8 = 1.7468
   VDW_A1 = 0.5363
   VDW_A2 = 3.0726
   ENCUT = 600
   PREC = Accurate
   LASPH = .TRUE.
   LREAL = .FALSE.
   ISPIN = 1
   NELM = 200
   NELMIN = 8
   NCORE = 2
   KPAR = 1
   LWAVE = .FALSE.
   LCHARG = .FALSE.

 POTCAR:    PAW_PBE C 08Apr2002
 POTCAR:    PAW_PBE O 08Apr2002
 POTCAR:    PAW_PBE H 15Jun2001
 POTCAR:    PAW_PBE Ti_pv 07Sep2000
 POTCAR:    PAW_PBE O 08Apr2002
|           W    W    AA    RRRRR   N    N  II  N    N   GGGG   !!!           |
|           W    W   A  A   R    R  NN   N  II  NN   N  G    G  !!!           |
|           W    W  A    A  R    R  N N  N  II  N N  N  G       !!!           |
|           W WW W  AAAAAA  RRRRR   N  N N  II  N  N N  G  GGG   !            |
|           WW  WW  A    A  R   R   N   NN  II  N   NN  G    G                |
|           W    W  A    A  R    R  N    N  II  N    N   GGGG   !!!           |
|     For optimal performance we recommend to set                             |
|       NCORE = 2 up to number-of-cores-per-socket                            |
|     This setting can greatly improve the performance of VASP for DFT.       |
|     The default, NCORE=1 might be grossly inefficient on modern             |
|     multi-core architectures or massively parallel machines. Do your        |
|     Unfortunately you need to use the default for GW and RPA                |
|     calculations (for HF NCORE is supported but not extensively tested      |
|     yet).                                                                   |

   TITEL  = PAW_PBE C 08Apr2002
   POMASS =   12.011; ZVAL   =    4.000    mass and valenz
   ENMAX  =  400.000; ENMIN  =  300.000 eV

[...]

   TITEL  = PAW_PBE H 15Jun2001
   POMASS =    1.000; ZVAL   =    1.000    mass and valenz
   ENMAX  =  250.000; ENMIN  =  200.000 eV

   TITEL  = PAW_PBE Ti_pv 07Sep2000
   POMASS =   47.880; ZVAL   =   10.000    mass and valenz
   ENMAX  =  222.335; ENMIN  =  166.751 eV

   TITEL  = PAW_PBE O 08Apr2002
   POMASS =   16.000; ZVAL   =    6.000    mass and valenz
   ENMAX  =  400.000; ENMIN  =  300.000 eV

  PAW_PBE C 08Apr2002                   :
  PAW_PBE O 08Apr2002                   :
  PAW_PBE H 15Jun2001                   :
  PAW_PBE Ti_pv 07Sep2000               :
  PAW_PBE O 08Apr2002                   :

 POSCAR:  C  O  H Ti  O
  positions in direct lattice
|           W    W    AA    RRRRR   N    N  II  N    N   GGGG   !!!           |
|           W    W   A  A   R    R  NN   N  II  NN   N  G    G  !!!           |
|           W    W  A    A  R    R  N N  N  II  N N  N  G       !!!           |
|           W WW W  AAAAAA  RRRRR   N  N N  II  N  N N  G  GGG   !            |
|           WW  WW  A    A  R   R   N   NN  II  N   NN  G    G                |
|           W    W  A    A  R    R  N    N  II  N    N   GGGG   !!!           |
|     Specifying the vdW parameters                                           |
|     VDW_S8 = 1.747                                                          |
|     VDW_A1 = 0.536                                                          |
|     VDW_A2 = 3.073                                                          |
|     in the INCAR file will overwrite the defaults for revpbe. Please        |
|     make sure that is what you intended.                                    |

 ion  position               nearest neighbor table
   1  0.509  0.588  0.844-   3 1.09   5 1.09   6 1.09   2 1.43
   2  0.539  0.500  0.811-   4 0.99   1 1.43  86 2.13
   3  0.425  0.596  0.842-   1 1.09
   4  0.615  0.495  0.810-   2 0.99
   5  0.532  0.564  0.881-   1 1.09
   6  0.546  0.668  0.835-   1 1.09
   7  0.750  0.625  0.264-  88 1.94 148 1.94 147 1.94  87 1.94 169 1.97  90 1.97  17 2.94  37 2.94

   8  0.000  0.750  0.264-  90 1.94 110 1.94 109 1.94  89 1.94  91 1.97  38 2.94  18 2.94
   9  0.000  0.625  0.382-  92 1.94 152 1.94 151 1.94  91 1.94  93 1.97  94 1.97  19 2.94  39 2.94

[...]

  87  0.750  0.750  0.218-   7 1.94  17 1.94
  88  0.750  0.750  0.311-   7 1.94  17 1.94  10 1.97
  89  0.098  0.625  0.264-   8 1.94  38 1.94  47 1.97
  90  0.902  0.625  0.264-   8 1.94  38 1.94   7 1.97
  91  0.000  0.750  0.336-   9 1.94  19 1.94   8 1.97
  92  0.000  0.750  0.428-   9 1.94  19 1.94  12 1.97
  93  0.848  0.625  0.382-  10 1.94  40 1.94   9 1.97
  94  0.152  0.625  0.382-  50 1.94  80 1.94   9 1.97
  95  0.750  0.750  0.454-  11 1.94  21 1.94  10 1.97
  96  0.750  0.750  0.546-  11 1.94  21 1.94  14 2.07
  97  0.098  0.625  0.500-  12 1.94  42 1.94  51 1.97
  98  0.902  0.625  0.500-  12 1.94  42 1.94  11 1.97
  99  0.000  0.750  0.572-  23 1.89  13 1.89  12 1.98
 100  0.999  0.750  0.665-  16 1.81  13 2.00  23 2.00
 101  0.850  0.625  0.618-  13 1.95  44 1.96  14 1.96
 102  0.150  0.625  0.618-  13 1.93  54 1.96  84 1.97
 103  0.754  0.751  0.690-  14 1.87  15 2.05  25 2.07
 104  0.748  0.749  0.782-  15 1.83  25 1.84
 105  0.094  0.625  0.742-  46 1.93  16 1.94  55 2.02
 106  0.907  0.624  0.743-  46 1.93  16 1.94  15 2.01
 107  0.750  0.000  0.218-  17 1.94  27 1.94
 108  0.750  0.000  0.311-  17 1.94  27 1.94  20 1.97
 109  0.098  0.875  0.264-   8 1.94  18 1.94  57 1.97
 110  0.902  0.875  0.264-   8 1.94  18 1.94  17 1.97
 111  0.000  0.000  0.336-  19 1.94  29 1.94  18 1.97
 112  0.000  0.000  0.428-  19 1.94  29 1.94  22 1.97
 113  0.848  0.875  0.382-  10 1.94  20 1.94  19 1.97
 114  0.152  0.875  0.382-  50 1.94  60 1.94  19 1.97
 115  0.750  0.000  0.454-  21 1.94  31 1.94  20 1.97
 116  0.750  0.000  0.546-  21 1.94  31 1.94  24 2.08
 117  0.098  0.875  0.500-  12 1.94  22 1.94  61 1.97
 118  0.902  0.875  0.500-  12 1.94  22 1.94  21 1.97
 119  0.000  0.000  0.572-  33 1.89  23 1.89  22 1.98
 120  1.000  1.000  0.665-  26 1.81  23 2.00  33 2.00
 121  0.850  0.876  0.618-  23 1.94  14 1.96  24 1.96
 122  0.150  0.875  0.619-  23 1.94  64 1.96  54 1.97
 123  0.750  1.000  0.690-  24 1.87  35 2.06  25 2.06
 124  0.750  1.000  0.783-  35 1.83  25 1.83
 125  0.094  0.875  0.742-  16 1.93  26 1.93  65 2.03
 126  0.907  0.875  0.743-  16 1.93  26 1.93  25 2.03
 127  0.750  0.250  0.218-  27 1.94  37 1.94
 128  0.750  0.250  0.311-  27 1.94  37 1.94  30 1.97
 129  0.098  0.125  0.264-  18 1.94  28 1.94  67 1.97
 130  0.902  0.125  0.264-  18 1.94  28 1.94  27 1.97
 131  0.000  0.250  0.336-  29 1.94  39 1.94  28 1.97
 132  0.000  0.250  0.428-  29 1.94  39 1.94  32 1.97
 133  0.848  0.125  0.382-  20 1.94  30 1.94  29 1.97
 134  0.152  0.125  0.382-  60 1.94  70 1.94  29 1.97
 135  0.750  0.250  0.454-  31 1.94  41 1.94  30 1.97
 136  0.750  0.250  0.546-  31 1.94  41 1.94  34 2.07
 137  0.098  0.125  0.500-  22 1.94  32 1.94  71 1.97
 138  0.902  0.125  0.500-  22 1.94  32 1.94  31 1.97
 139  0.000  0.250  0.572-  33 1.89  43 1.89  32 1.98
 140  1.000  0.250  0.665-  36 1.81  43 2.00  33 2.00
 141  0.850  0.125  0.618-  33 1.94  24 1.96  34 1.96
 142  0.150  0.125  0.618-  33 1.94  64 1.96  74 1.96
 143  0.753  0.250  0.690-  34 1.88  45 2.04  35 2.07
 144  0.750  0.251  0.782-  45 1.82  35 1.84
 145  0.094  0.125  0.742-  36 1.93  26 1.93  75 2.03
 146  0.907  0.125  0.742-  36 1.93  26 1.93  35 2.03
[...]
 232  0.500  0.500  0.428-  49 1.94  79 1.94  82 1.97
 233  0.348  0.375  0.382-  70 1.94  80 1.94  79 1.97
 234  0.652  0.375  0.382-  30 1.94  40 1.94  79 1.97
 235  0.250  0.500  0.454-  51 1.94  81 1.94  80 1.97
 236  0.250  0.500  0.546-  51 1.94  81 1.94  84 2.08
 237  0.598  0.375  0.500-  72 1.94  82 1.94  41 1.97
 238  0.402  0.375  0.500-  72 1.94  82 1.94  81 1.97
 239  0.500  0.500  0.572-  53 1.89  83 1.89  82 1.99
 240  0.499  0.500  0.665-  86 1.92  53 1.96  83 1.96
 241  0.349  0.375  0.619-  84 1.95  74 1.95  83 1.95
 242  0.651  0.375  0.619-  83 1.95  34 1.95  44 1.96
 243  0.250  0.500  0.690-  84 1.87  55 2.06  85 2.07
 244  0.252  0.500  0.782-  55 1.83  85 1.83
 245  0.596  0.371  0.738-  76 1.91  86 1.94  45 2.01
 246  0.407  0.374  0.741-  76 1.92  86 1.93  85 2.02

IMPORTANT INFORMATION: All symmetrisations will be switched off!
NOSYMM: (Re-)initialisation of all symmetry stuff for point group C_1.

                                     Primitive cell

  volume of cell :    4180.4259

  direct lattice vectors                    reciprocal lattice vectors
    12.939701814  0.000000000  0.000000000     0.077281534  0.000000000  0.000000000
     0.000000000 11.760793336  0.000000000     0.000000000  0.085028278  0.000000000
     0.000000000  0.000000000 27.470062065     0.000000000  0.000000000  0.036403267

  length of vectors
    12.939701814 11.760793336 27.470062065     0.077281534  0.085028278  0.036403267

  position of ions in fractional coordinates (direct lattice)
     0.508715751  0.587650973  0.844134641
     0.539099792  0.500028967  0.810965985
     0.425098181  0.595718620  0.842177150
     0.615463063  0.494876614  0.809715555
     0.531796367  0.563542014  0.880873703
     0.545785792  0.668304185  0.834654736
     0.750000000  0.625000000  0.264476291
     0.000000000  0.750000000  0.264476291
     0.000000000  0.625000000  0.382238145
     0.750000000  0.750000000  0.382238145
     0.750000000  0.625000000  0.500000000
     0.000000000  0.750000000  0.500000000
     0.000655574  0.625037840  0.615455445
     0.750551015  0.750165610  0.621382553
     0.751059446  0.626062814  0.741455910
     0.000018669  0.750204295  0.730740361
     0.750000000  0.875000000  0.264476291
     0.000000000  0.000000000  0.264476291
     0.000000000  0.875000000  0.382238145
     0.750000000  0.000000000  0.382238145
     0.750000000  0.875000000  0.500000000
     0.000000000  0.000000000  0.500000000
     0.000133302  0.875015525  0.615542843
     0.749677296  0.000030157  0.621788573
     0.749830572  0.875150212  0.742791306
     0.000230788  0.999920399  0.730725939
     0.750000000  0.125000000  0.264476291
     0.000000000  0.250000000  0.264476291
     0.000000000  0.125000000  0.382238145
     0.750000000  0.250000000  0.382238145
     0.750000000  0.125000000  0.500000000
     0.000000000  0.250000000  0.500000000
     0.999984444  0.124936024  0.615559126
     0.750088618  0.249842574  0.621398638
     0.749729163  0.124526740  0.742827649
     0.000121192  0.249717652  0.730753461
     0.750000000  0.375000000  0.264476291
     0.000000000  0.500000000  0.264476291
     0.000000000  0.375000000  0.382238145
     0.750000000  0.500000000  0.382238145
     0.750000000  0.375000000  0.500000000
     0.000000000  0.500000000  0.500000000
     0.000447942  0.374933309  0.615454248
     0.751218451  0.499956561  0.621589150
     0.751448791  0.373543975  0.741665243
     0.000979714  0.500030166  0.730651364
     0.250000000  0.625000000  0.264476291
     0.500000000  0.750000000  0.264476291
     0.500000000  0.625000000  0.382238145
     0.250000000  0.750000000  0.382238145
     0.250000000  0.625000000  0.500000000
[...]
   3.24192231  7.35260038 20.40086291
   6.47319857  8.82606133 20.03292438
   3.23492545 10.29069417  7.26518013
   6.46985091  0.00000000  7.26518013
   6.46985091 10.29069417 10.50010558
   3.23492545  0.00000000 10.50010558
[...]
   6.46985091  5.88039667 11.76528570
   4.50010558  4.41029750 10.50010558
   8.43959623  4.41029750 10.50010558
   3.23492545  5.88039667 12.46985091
   3.23492545  5.88039667 15.00021116
   7.73503103  4.41029750 13.73503103
   5.20467078  4.41029750 13.73503103
   6.47436751  5.87889133 15.72614995
   6.46321721  5.88298882 18.27901501
   4.52179087  4.40997573 16.99039139
   8.42211845  4.41064727 17.00306484
   3.23058602  5.88340548 18.95038363
   3.26009287  5.88299868 21.49329278
   7.71480470  4.36889936 20.26518795
   5.26471194  4.40035959 20.36491685

--------------------------------------- Iteration      FINAL  ---------------------------------------

--------------------OUTCAR has been truncated-------------------------

[...]

--------------------OUTCAR has been truncated-------------------------

  FORCE on cell =-STRESS in cart. coord.  units (eV):
  Direction    XX          YY          ZZ          XY          YZ          ZX
  Alpha Z  5297.29543  5297.29543  5297.29543
  Ewald  669529.04216687313.51368************   -75.58910   135.55413   -77.37948
  Hartree712151.99687721790.23745************   -40.66736    78.35109   -49.48339
  E(xc)   -8687.66071 -8660.35375 -8702.08483    -0.14486     0.25309    -0.21412
  Local  ************************************   110.19771  -204.56741   123.64773
  n-local -5368.54238 -5285.22477 -5410.93775    -1.01079     1.73332    -0.64935
  augment  5219.80858  5207.56255  5223.78857     0.45669    -0.75559     0.09071
  Kinetic 28921.55709 28463.12706 28980.52155     6.59692   -10.42638     3.98156
  Fock        0.00000     0.00000     0.00000     0.00000     0.00000     0.00000
  vdW      -135.04717  -134.92191  -121.62729     0.01793    -0.00990     0.04942
  Total      70.57497    44.18085    18.87289    -0.14287     0.13236     0.04309
  in kB      27.04835    16.93262     7.23317    -0.05476     0.05073     0.01652

 VOLUME and BASIS-vectors are now :
  energy-cutoff  :      600.00
  volume of cell :     4180.43
      direct lattice vectors                 reciprocal lattice vectors
    12.939701814  0.000000000  0.000000000     0.077281534  0.000000000  0.000000000
     0.000000000 11.760793336  0.000000000     0.000000000  0.085028278  0.000000000
     0.000000000  0.000000000 27.470062065     0.000000000  0.000000000  0.036403267

  length of vectors
    12.939701814 11.760793336 27.470062065     0.077281534  0.085028278  0.036403267

 FORCES acting on ions:
    Electron-Ion                     Ewald-Force                    Non-Local-Force
   0.402E+02 -.919E+02 -.136E+04   -.429E+02 0.972E+02 0.136E+04   0.265E+01 -.504E+01 -.476E+01
   0.198E+02 0.125E+03 -.217E+04   -.422E+02 -.150E+03 0.216E+04   0.221E+02 0.253E+02 0.107E+02
   0.589E+02 -.147E+02 -.330E+03   -.651E+02 0.153E+02 0.330E+03   0.599E+01 -.561E+00 0.243E+00
   -.713E+02 0.161E+02 -.372E+03   0.796E+02 -.168E+02 0.371E+03   -.782E+01 0.667E+00 0.336E+00
   -.115E+02 0.692E+01 -.314E+03   0.131E+02 -.845E+01 0.320E+03   -.155E+01 0.148E+01 -.545E+01
   -.185E+02 -.625E+02 -.330E+03   0.212E+02 0.677E+02 0.329E+03   -.254E+01 -.500E+01 0.125E+01
   -.606E+00 -.109E+00 0.335E+04   0.603E+00 0.109E+00 -.336E+04   0.857E-03 -.174E-04 0.445E+00
   -.111E+00 -.234E+00 0.354E+04   0.113E+00 0.235E+00 -.353E+04   -.355E-03 -.777E-04 -.403E+01
   -.246E+00 -.548E-01 0.172E+04   0.253E+00 0.548E-01 -.172E+04   -.116E-02 0.103E-03 -.407E-01
   -.463E+00 -.111E+00 0.171E+04   0.453E+00 0.112E+00 -.171E+04   0.224E-02 0.720E-04 0.220E+00
   -.790E+00 -.624E-01 0.114E+02   0.740E+00 0.454E-01 -.107E+02   0.799E-02 0.864E-03 -.108E+00
   -.940E+00 -.954E+00 0.191E+02   0.962E+00 0.961E+00 -.201E+02   -.751E-02 -.323E-02 0.310E+00
   -.508E+01 -.196E+01 -.165E+04   0.507E+01 0.196E+01 0.165E+04   0.497E-02 -.770E-02 0.311E-01
   -.756E+01 -.956E+01 -.168E+04   0.758E+01 0.957E+01 0.168E+04   -.187E-01 -.833E-02 -.111E+00
   -.101E+03 -.172E+02 -.326E+04   0.100E+03 0.171E+02 0.326E+04   0.193E+00 0.123E+00 -.470E-02
   -.588E+01 -.631E+01 -.336E+04   0.593E+01 0.632E+01 0.336E+04   -.575E-01 -.107E-01 0.101E+01
   -.566E+00 -.276E+00 0.335E+04   0.563E+00 0.277E+00 -.336E+04   0.943E-03 -.727E-05 0.446E+00
   -.103E+00 -.987E-01 0.354E+04   0.105E+00 0.991E-01 -.353E+04   -.350E-03 -.444E-04 -.403E+01
   -.211E+00 -.193E+00 0.172E+04   0.218E+00 0.193E+00 -.172E+04   -.108E-02 0.857E-04 -.408E-01
   -.544E+00 -.117E+00 0.171E+04   0.534E+00 0.117E+00 -.171E+04   0.210E-02 -.148E-05 0.219E+00
   -.211E+01 -.109E+01 0.979E+01   0.208E+01 0.112E+01 -.911E+01   0.644E-02 -.211E-02 -.111E+00
   -.687E+00 -.356E+00 0.175E+02   0.709E+00 0.357E+00 -.185E+02   -.633E-02 -.455E-03 0.308E+00
   -.323E+01 -.316E+01 -.166E+04   0.322E+01 0.317E+01 0.166E+04   0.160E-02 -.972E-02 0.307E-01
   -.516E+01 -.200E+01 -.170E+04   0.518E+01 0.199E+01 0.170E+04   -.205E-01 0.217E-02 -.117E+00
   -.300E+02 -.287E+02 -.331E+04   0.300E+02 0.287E+02 0.331E+04   0.472E-01 0.129E-01 -.133E+00
   -.495E+01 -.233E+01 -.336E+04   0.493E+01 0.233E+01 0.336E+04   0.209E-01 -.143E-02 0.106E+01
   -.542E+00 0.108E+00 0.335E+04   0.539E+00 -.109E+00 -.336E+04   0.945E-03 0.321E-04 0.446E+00
   -.110E+00 0.234E+00 0.354E+04   0.112E+00 -.234E+00 -.353E+04   -.361E-03 0.752E-04 -.403E+01
   -.212E+00 0.574E-01 0.172E+04   0.219E+00 -.574E-01 -.172E+04   -.116E-02 -.873E-04 -.408E-01
   -.420E+00 0.111E+00 0.171E+04   0.410E+00 -.112E+00 -.171E+04   0.212E-02 -.623E-04 0.220E+00
   -.194E+01 0.349E+00 0.910E+01   0.190E+01 -.389E+00 -.843E+01   0.802E-02 0.245E-02 -.112E+00
   -.952E+00 0.935E+00 0.184E+02   0.978E+00 -.943E+00 -.194E+02   -.770E-02 0.410E-02 0.311E+00
   -.248E+01 0.158E+01 -.166E+04   0.248E+01 -.158E+01 0.166E+04   0.246E-02 0.692E-02 0.347E-01
   -.717E+01 0.929E+01 -.169E+04   0.718E+01 -.929E+01 0.169E+04   -.165E-01 -.230E-03 -.122E+00
   -.219E+02 0.160E+02 -.331E+04   0.218E+02 -.160E+02 0.331E+04   0.416E-01 0.522E-03 -.147E+00
   -.512E+01 0.587E+01 -.336E+04   0.517E+01 -.587E+01 0.336E+04   -.482E-01 0.912E-02 0.102E+01
   -.581E+00 0.276E+00 0.335E+04   0.578E+00 -.278E+00 -.336E+04   0.864E-03 -.815E-05 0.445E+00
   -.118E+00 0.990E-01 0.354E+04   0.120E+00 -.994E-01 -.353E+04   -.367E-03 0.459E-04 -.403E+01
   -.247E+00 0.191E+00 0.172E+04   0.255E+00 -.191E+00 -.172E+04   -.121E-02 -.140E-03 -.408E-01
   -.344E+00 0.116E+00 0.171E+04   0.334E+00 -.116E+00 -.171E+04   0.193E-02 -.408E-04 0.220E+00
   -.580E+00 0.801E+00 0.107E+02   0.530E+00 -.782E+00 -.101E+02   0.902E-02 -.101E-02 -.109E+00
   -.110E+01 0.349E+00 0.199E+02   0.112E+01 -.350E+00 -.209E+02   -.801E-02 0.306E-03 0.308E+00
   -.487E+01 0.357E+01 -.165E+04   0.486E+01 -.358E+01 0.165E+04   0.251E-02 0.642E-02 0.309E-01
   -.803E+01 0.198E+01 -.167E+04   0.807E+01 -.198E+01 0.167E+04   -.537E-01 0.471E-02 -.113E+00
   -.851E+02 0.284E+02 -.327E+04   0.851E+02 -.282E+02 0.327E+04   0.133E+00 -.151E+00 -.147E-01
   -.780E+01 0.274E+01 -.335E+04   0.777E+01 -.274E+01 0.335E+04   0.391E-01 0.370E-02 0.967E+00
   0.605E+00 -.988E-01 0.335E+04   -.602E+00 0.989E-01 -.336E+04   -.858E-03 0.925E-05 0.445E+00
   0.111E+00 -.295E+00 0.354E+04   -.113E+00 0.296E+00 -.353E+04   0.356E-03 -.140E-03 -.403E+01
   0.235E+00 0.146E+00 0.172E+04   -.242E+00 -.133E+00 -.172E+04   0.929E-03 -.281E-02 -.423E-01
   0.475E+00 -.561E-01 0.171E+04   -.466E+00 0.566E-01 -.171E+04   -.209E-02 -.146E-04 0.215E+00
   0.140E+01 0.201E+00 0.886E+01   -.135E+01 -.215E+00 -.813E+01   -.116E-01 0.959E-03 -.119E+00
   0.117E+01 0.791E+00 0.234E+02   -.118E+01 -.880E+00 -.242E+02   -.374E-02 0.442E-01 0.229E+00
   0.398E+01 -.126E+02 -.164E+04   -.400E+01 0.127E+02 0.164E+04   0.111E-01 -.117E+00 0.487E-01
   0.139E+02 -.696E+01 -.169E+04   -.139E+02 0.696E+01 0.169E+04   -.862E-02 0.712E-02 -.108E+00
   0.653E+02 -.157E+02 -.327E+04   -.654E+02 0.157E+02 0.327E+04   0.594E-01 0.241E-02 -.156E+00
   0.227E+02 -.829E+02 -.327E+04   -.226E+02 0.830E+02 0.327E+04   -.171E+00 -.720E-01 0.121E+01
   0.566E+00 -.263E+00 0.335E+04   -.563E+00 0.264E+00 -.336E+04   -.938E-03 -.984E-06 0.445E+00
   0.103E+00 -.137E+00 0.354E+04   -.105E+00 0.137E+00 -.353E+04   0.343E-03 -.600E-04 -.403E+01
   0.199E+00 -.606E-01 0.172E+04   -.205E+00 0.619E-01 -.172E+04   0.827E-03 -.128E-02 -.432E-01
   0.556E+00 -.120E+00 0.171E+04   -.546E+00 0.120E+00 -.171E+04   -.216E-02 0.677E-04 0.215E+00
[...]
   -.551E+02 0.545E-01 0.103E+04   0.593E+02 -.554E-01 -.103E+04   -.362E+01 0.141E-02 0.162E+00
   0.553E+02 0.703E-01 0.103E+04   -.595E+02 -.712E-01 -.103E+04   0.363E+01 0.149E-02 0.171E+00
   0.355E+00 0.177E+00 0.460E+03   -.337E+00 -.179E+00 -.465E+03   -.242E-01 0.378E-02 0.427E+01
   0.195E+01 0.690E+00 -.464E+03   -.193E+01 -.691E+00 0.471E+03   -.331E-01 0.116E-02 -.687E+01
   -.565E+02 0.368E-01 0.116E+02   0.614E+02 -.407E-01 -.117E+02   -.505E+01 0.274E-01 0.210E+00
   0.576E+02 -.349E-01 0.108E+02   -.624E+02 0.280E-01 -.110E+02   0.511E+01 0.319E-01 0.205E+00
   0.112E+01 0.159E+01 -.530E+03   -.113E+01 -.166E+01 0.523E+03   0.777E-02 0.754E-01 0.679E+01
   0.119E+02 0.370E+01 -.142E+04   -.124E+02 -.363E+01 0.143E+04   0.443E+00 -.618E-01 -.275E+01
   -.275E+02 0.555E+01 -.990E+03   0.311E+02 -.578E+01 0.989E+03   -.350E+01 0.224E+00 0.998E+00
   0.291E+02 0.501E+01 -.992E+03   -.325E+02 -.498E+01 0.992E+03   0.323E+01 -.266E-01 0.589E+00
   0.216E+02 0.310E+01 -.158E+04   -.216E+02 -.316E+01 0.158E+04   0.830E-01 0.611E-01 -.166E+01
   0.607E+02 0.109E+02 -.240E+04   -.606E+02 -.110E+02 0.242E+04   -.163E+00 0.759E-01 -.205E+02
   -.542E+02 0.625E+02 -.196E+04   0.604E+02 -.625E+02 0.196E+04   -.601E+01 -.610E-01 -.759E+00
   0.724E+02 0.480E+02 -.202E+04   -.787E+02 -.478E+02 0.203E+04   0.616E+01 -.248E+00 -.314E+01
   -.161E+02 -.174E+02 0.888E+02   -.171E-12 0.448E-12 -.164E-10   0.160E+02 0.174E+02 -.888E+02

 POSITION                                       TOTAL-FORCE (eV/Angst)
      6.58263      6.91124     23.18843        -0.080180      0.241758      0.182815
      6.97579      5.88074     22.27729        -0.254954     -0.433700     -0.088117
      5.50064      7.00612     23.13466        -0.220666      0.015683     -0.015864
      7.96391      5.82014     22.24294         0.440467     -0.021161      0.009809
      6.88129      6.62770     24.19766         0.067530     -0.054363      0.269285
      7.06231      7.85979     22.92802         0.099435      0.226887     -0.047443
      9.70478      7.35050      7.26518        -0.002003      0.000531     -3.435994
      0.00000      8.82060      7.26518         0.001549      0.000615      2.699679
      0.00000      7.35050     10.50011         0.005958      0.000099      0.561124
      9.70478      8.82060     10.50011        -0.007824      0.000966     -0.746511
      9.70478      7.35050     13.73503        -0.040946     -0.015816      0.548932
      0.00000      8.82060     13.73503         0.014689      0.002993     -0.688199
      0.00848      7.35094     16.90660         0.000830      0.000334     -0.111610
      9.71191      8.82254     17.06942         0.000586     -0.002089      0.015895
      9.71849      7.36300     20.36784        -0.002981      0.031520      0.137548
      0.00024      8.82300     20.07348        -0.002442      0.005612     -0.132976
      9.70478     10.29069      7.26518        -0.002201      0.001348     -3.436466
      0.00000      0.00000      7.26518         0.001482      0.000342      2.698855
      0.00000     10.29069     10.50011         0.005778      0.000030      0.561184
      9.70478      0.00000     10.50011        -0.008147     -0.000188     -0.745851
      9.70478     10.29069     13.73503        -0.029440      0.036620      0.563401
      0.00000      0.00000     13.73503         0.015314      0.001048     -0.683194
      0.00172     10.29088     16.90900        -0.000006     -0.000499     -0.112413
      9.70060      0.00035     17.08057        -0.007082     -0.000536      0.013838
      9.70258     10.29246     20.40452        -0.002582      0.002451      0.157586
      0.00299     11.75986     20.07309         0.000990      0.000031     -0.131555
      9.70478      1.47010      7.26518        -0.002229     -0.000652     -3.437014
      0.00000      2.94020      7.26518         0.001584     -0.000624      2.699087
      0.00000      1.47010     10.50011         0.005993     -0.000044      0.561122
      9.70478      2.94020     10.50011        -0.007534     -0.000982     -0.746843
      9.70478      1.47010     13.73503        -0.029887     -0.038189      0.562328
      0.00000      2.94020     13.73503         0.017405     -0.003631     -0.687210
     12.93950      1.46935     16.90945         0.001347      0.000410     -0.112753
      9.70592      2.93835     17.06986        -0.002520     -0.000113      0.008553
      9.70127      1.46453     20.40552        -0.002114     -0.011048      0.157550
      0.00157      2.93688     20.07384         0.001636     -0.006004     -0.133361
      9.70478      4.41030      7.26518        -0.002048     -0.001219     -3.436543
      0.00000      5.88040      7.26518         0.001605     -0.000363      2.699867
      0.00000      4.41030     10.50011         0.006183     -0.000112      0.561010
      9.70478      5.88040     10.50011        -0.007333      0.000165     -0.747568
      9.70478      4.41030     13.73503        -0.040910      0.017183      0.548642
      0.00000      5.88040     13.73503         0.015826     -0.000545     -0.690558
      0.00580      4.40951     16.90657        -0.000018      0.000802     -0.111771
      9.72054      5.87989     17.07509         0.003412      0.001400      0.015052
      9.72352      4.39317     20.37359         0.016091     -0.031690      0.134886
      0.01268      5.88075     20.07104         0.010698      0.001776     -0.137098
      3.23493      7.35050      7.26518         0.002053      0.000127     -3.434004
      6.46985      8.82060      7.26518        -0.001518      0.001034      2.708148
      6.46985      7.35050     10.50011        -0.005725      0.009839      0.585331
      3.23493      8.82060     10.50011         0.007592      0.000577     -0.729802
      3.23493      7.35050     13.73503         0.037904     -0.012386      0.604597
      6.46985      8.82060     13.73503        -0.011310     -0.047060     -0.549239
      6.47943      7.32179     16.94836         0.006045     -0.010223     -0.074977
      3.24271      8.81960     17.07884         0.006205      0.001049      0.012705
      3.24192      7.35260     20.40086         0.007014      0.003543      0.158362
      6.47320      8.82606     20.03292        -0.000303     -0.043176     -0.146330
      3.23493     10.29069      7.26518         0.002270      0.001224     -3.434648
      6.46985      0.00000      7.26518        -0.001453      0.000413      2.707080
      6.46985     10.29069     10.50011        -0.005466      0.000166      0.587377
      3.23493      0.00000     10.50011         0.007840      0.000190     -0.728886
[...]
      6.46985      5.88040     11.76529         0.002297     -0.000662     -0.014503
      4.50011      4.41030     10.50011         0.567114      0.000491      0.051630
      8.43960      4.41030     10.50011        -0.560304      0.000619      0.053867
      3.23493      5.88040     12.46985        -0.006659      0.002193     -0.215204
      3.23493      5.88040     15.00021        -0.016414     -0.000447      0.213555
      7.73503      4.41030     13.73503        -0.252602      0.023683      0.059453
      5.20467      4.41030     13.73503         0.285719      0.025062      0.063876
      6.47437      5.87889     15.72615         0.001058     -0.000287     -0.083982
      6.46322      5.88299     18.27902        -0.008200      0.004329      0.147162
      4.52179      4.40998     16.99039         0.096170     -0.001897     -0.017944
      8.42212      4.41065     17.00306        -0.102454     -0.000746     -0.008521
      3.23059      5.88341     18.95038         0.001870      0.000520     -0.143117
      3.26009      5.88300     21.49329         0.006302     -0.000344      0.250490
      7.71480      4.36890     20.26519         0.167288     -0.024144     -0.023238
      5.26471      4.40036     20.36492        -0.161899     -0.012425      0.036978
    total drift:                               -0.007018     -0.000141      0.021534

  FREE ENERGIE OF THE ION-ELECTRON SYSTEM (eV)
  free  energy   TOTEN  =     -2156.91290853 eV

  energy  without entropy=    -2156.91290853  energy(sigma->0) =    -2156.91290853