 vasp.6.3.0 20Jan22 (build Apr  1 2022 16:44:48) complex
 executed on        HPECrayEX_GCC date 2022.11.01  21:10:58

 INCAR:
   SYSTEM = MgO-rocksalt
   ISMEAR = 0
   SIGMA = 0.05
   EDIFF = 1E-9
   ALGO = ALL
   ISTART = 0
   IBRION = 2
   NSW = 1000
   ISYM = 0
   ISIF = 2
   EDIFFG = -0.01
   DIPOL = 0.5 0.5 0.5
   IDIPOL = 3
   LDIPOL = .TRUE.
   GGA = RE
   IVDW = 13
   VDW_S8 = 1.7468
   VDW_A1 = 0.5363
   VDW_A2 = 3.0726
   ENCUT = 600
   PREC = Accurate
   LASPH = .TRUE.
   LREAL = .FALSE.
   ISPIN = 2
   MAGMOM = 1.0 0.0 0.0 0.0 0.0 0.0 0.0 0.0 0.0 0.0 0.0 0.0 0.0 0.0 0.0 0.0 0.0 0.0 0.0 0.0 0.0 0.0 0.0 0.0 0.0 0.0 0.0 0.0 0.0 0.0 0.0 0.0 0.0 0.0 0.0 0.0 0.0 0.0 0.0 0.0 0.0 0.0 0.0 0.0 0.0 0.0 0.0 0.0 0.0 0.0 0.0 0.0 0.0 0.0 0.0 0.0 0.0 0.0 0.0 0.0 0.0 0.0 0.0 0.0 0.0 0.0
   NELM = 200
   NELMIN = 8
   NCORE = 8
   KPAR = 1
   LWAVE = .FALSE.
   LCHARG = .FALSE.

 POTCAR:    PAW_PBE N 08Apr2002
 POTCAR:    PAW_PBE O 08Apr2002
 POTCAR:    PAW_PBE Mg_pv 13Apr2007
 POTCAR:    PAW_PBE O 08Apr2002
 POTCAR:    PAW_PBE N 08Apr2002
   VRHFIN =N: s2p3

   TITEL  = PAW_PBE N 08Apr2002
   POMASS =   14.001; ZVAL   =    5.000    mass and valenz
   ENMAX  =  400.000; ENMIN  =  300.000 eV

[...]

   TITEL  = PAW_PBE Mg_pv 13Apr2007
   POMASS =   24.305; ZVAL   =    8.000    mass and valenz
   ENMAX  =  403.929; ENMIN  =  302.947 eV

   TITEL  = PAW_PBE O 08Apr2002
   POMASS =   16.000; ZVAL   =    6.000    mass and valenz
   ENMAX  =  400.000; ENMIN  =  300.000 eV

  PAW_PBE N 08Apr2002                   :
  PAW_PBE O 08Apr2002                   :
  PAW_PBE Mg_pv 13Apr2007               :
  PAW_PBE O 08Apr2002                   :

 POSCAR:  N  O Mg  O
  positions in direct lattice
|           W    W    AA    RRRRR   N    N  II  N    N   GGGG   !!!           |
|           W    W   A  A   R    R  NN   N  II  NN   N  G    G  !!!           |
|           W    W  A    A  R    R  N N  N  II  N N  N  G       !!!           |
|           W WW W  AAAAAA  RRRRR   N  N N  II  N  N N  G  GGG   !            |
|           WW  WW  A    A  R   R   N   NN  II  N   NN  G    G                |
|           W    W  A    A  R    R  N    N  II  N    N   GGGG   !!!           |
|     Specifying the vdW parameters                                           |
|     VDW_S8 = 1.747                                                          |
|     VDW_A1 = 0.536                                                          |
|     VDW_A2 = 3.073                                                          |
|     in the INCAR file will overwrite the defaults for revpbe. Please        |
|     make sure that is what you intended.                                    |

 ion  position               nearest neighbor table
   1  0.500  0.500  0.757-   2 1.17
   2  0.500  0.500  0.812-   1 1.17
   3  0.000  0.750  0.352-  35 2.11  37 2.11  38 2.11  45 2.11  54 2.11
   4  0.250  0.000  0.352-  36 2.11  37 2.11  38 2.11  46 2.11  53 2.11
   5  0.000  0.000  0.451-  37 2.11  36 2.11  35 2.11  43 2.11  52 2.11  41 2.12
   6  0.250  0.750  0.451-  38 2.11  36 2.11  35 2.11  44 2.11  51 2.11  42 2.12
   7  0.000  0.750  0.550-  41 2.11  42 2.11  49 2.11  58 2.11  35 2.13  39 2.15
   8  0.250  0.000  0.550-  41 2.11  42 2.11  50 2.11  57 2.11  36 2.13  40 2.15
   9  0.000  0.000  0.649-  39 2.11  40 2.11  47 2.11  56 2.11  41 2.11
  10  0.250  0.750  0.649-  39 2.11  40 2.11  48 2.11  55 2.11  42 2.11
  11  0.000  0.250  0.352-  43 2.11  37 2.11  45 2.11  46 2.11  62 2.11
  12  0.250  0.500  0.352-  44 2.11  38 2.11  45 2.11  46 2.11  61 2.11
  13  0.000  0.500  0.451-  45 2.11  43 2.11  44 2.11  35 2.11  60 2.11  49 2.12
  14  0.250  0.250  0.451-  46 2.11  43 2.11  44 2.11  36 2.11  59 2.11  50 2.12
  15  0.000  0.250  0.550-  41 2.11  49 2.11  50 2.11  66 2.11  43 2.13  47 2.15
  16  0.250  0.500  0.550-  42 2.11  49 2.11  50 2.11  65 2.11  44 2.13  48 2.15
  17  0.000  0.500  0.649-  39 2.11  47 2.11  48 2.11  64 2.11  49 2.11
  18  0.250  0.250  0.649-  40 2.11  47 2.11  48 2.11  63 2.11  50 2.11
  19  0.500  0.750  0.352-  51 2.11  38 2.11  53 2.11  54 2.11  61 2.11
  20  0.750  0.000  0.352-  52 2.11  37 2.11  53 2.11  54 2.11  62 2.11
  21  0.500  0.000  0.451-  53 2.11  51 2.11  52 2.11  36 2.11  59 2.11  57 2.12
  22  0.750  0.750  0.451-  54 2.11  51 2.11  52 2.11  35 2.11  60 2.11  58 2.12
  23  0.500  0.750  0.550-  42 2.11  57 2.11  58 2.11  65 2.11  51 2.13  55 2.15
  24  0.750  0.000  0.550-  41 2.11  57 2.11  58 2.11  66 2.11  52 2.13  56 2.15
  25  0.500  0.000  0.649-  40 2.11  55 2.11  56 2.11  63 2.11  57 2.11
  26  0.750  0.750  0.649-  39 2.11  55 2.11  56 2.11  64 2.11  58 2.11
  27  0.500  0.250  0.352-  59 2.11  53 2.11  46 2.11  61 2.11  62 2.11
  28  0.750  0.500  0.352-  60 2.11  54 2.11  45 2.11  61 2.11  62 2.11
  29  0.500  0.500  0.451-  61 2.11  51 2.11  59 2.11  60 2.11  44 2.11  65 2.12
  30  0.750  0.250  0.451-  62 2.11  52 2.11  59 2.11  60 2.11  43 2.11  66 2.12
  31  0.500  0.250  0.550-  50 2.11  57 2.11  65 2.11  66 2.11  59 2.13  63 2.15
  32  0.750  0.500  0.550-  49 2.11  58 2.11  65 2.11  66 2.11  60 2.13  64 2.15
  33  0.500  0.500  0.649-  48 2.11  55 2.11  63 2.11  64 2.11  65 2.11
  34  0.750  0.250  0.649-  47 2.11  56 2.11  63 2.11  64 2.11  66 2.11
  35  0.000  0.750  0.451-   3 2.11   5 2.11   6 2.11  13 2.11  22 2.11   7 2.13
  36  0.250  0.000  0.451-   4 2.11   5 2.11   6 2.11  14 2.11  21 2.11   8 2.13
  37  0.000  0.000  0.352-   5 2.11   4 2.11   3 2.11  11 2.11  20 2.11
  38  0.250  0.750  0.352-   6 2.11   4 2.11   3 2.11  12 2.11  19 2.11
  39  0.000  0.750  0.651-   9 2.11  10 2.11  17 2.11  26 2.11   7 2.15
  40  0.250  0.000  0.651-   9 2.11  10 2.11  18 2.11  25 2.11   8 2.15
  41  0.000  0.000  0.550-   7 2.11   8 2.11  15 2.11  24 2.11   9 2.11   5 2.12
  42  0.250  0.750  0.550-   7 2.11   8 2.11  16 2.11  23 2.11  10 2.11   6 2.12
  43  0.000  0.250  0.451-  11 2.11   5 2.11  13 2.11  14 2.11  30 2.11  15 2.13
  44  0.250  0.500  0.451-  12 2.11   6 2.11  13 2.11  14 2.11  29 2.11  16 2.13
  45  0.000  0.500  0.352-  13 2.11  11 2.11  12 2.11   3 2.11  28 2.11
  46  0.250  0.250  0.352-  14 2.11  11 2.11  12 2.11   4 2.11  27 2.11
  47  0.000  0.250  0.651-   9 2.11  17 2.11  18 2.11  34 2.11  15 2.15
  48  0.250  0.500  0.651-  10 2.11  17 2.11  18 2.11  33 2.11  16 2.15
  49  0.000  0.500  0.550-   7 2.11  15 2.11  16 2.11  32 2.11  17 2.11  13 2.12
  50  0.250  0.250  0.550-   8 2.11  15 2.11  16 2.11  31 2.11  18 2.11  14 2.12
  51  0.500  0.750  0.451-  19 2.11   6 2.11  21 2.11  22 2.11  29 2.11  23 2.13
  52  0.750  0.000  0.451-  20 2.11   5 2.11  21 2.11  22 2.11  30 2.11  24 2.13
  53  0.500  0.000  0.352-  21 2.11  19 2.11  20 2.11   4 2.11  27 2.11
  54  0.750  0.750  0.352-  22 2.11  19 2.11  20 2.11   3 2.11  28 2.11
  55  0.500  0.750  0.651-  10 2.11  25 2.11  26 2.11  33 2.11  23 2.15
  56  0.750  0.000  0.651-   9 2.11  25 2.11  26 2.11  34 2.11  24 2.15
  57  0.500  0.000  0.550-   8 2.11  23 2.11  24 2.11  31 2.11  25 2.11  21 2.12
  58  0.750  0.750  0.550-   7 2.11  23 2.11  24 2.11  32 2.11  26 2.11  22 2.12
  59  0.500  0.250  0.451-  27 2.11  21 2.11  14 2.11  29 2.11  30 2.11  31 2.13
  60  0.750  0.500  0.451-  28 2.11  22 2.11  13 2.11  29 2.11  30 2.11  32 2.13
  61  0.500  0.500  0.352-  29 2.11  19 2.11  27 2.11  28 2.11  12 2.11
  62  0.750  0.250  0.352-  30 2.11  20 2.11  27 2.11  28 2.11  11 2.11
  63  0.500  0.250  0.651-  18 2.11  25 2.11  33 2.11  34 2.11  31 2.15
  64  0.750  0.500  0.651-  17 2.11  26 2.11  33 2.11  34 2.11  32 2.15
  65  0.500  0.500  0.550-  16 2.11  23 2.11  31 2.11  32 2.11  33 2.11  29 2.12
  66  0.750  0.250  0.550-  15 2.11  24 2.11  31 2.11  32 2.11  34 2.11  30 2.12

IMPORTANT INFORMATION: All symmetrisations will be switched off!
NOSYMM: (Re-)initialisation of all symmetry stuff for point group C_1.

                                     Primitive cell

  volume of cell :    1519.8199

  direct lattice vectors                    reciprocal lattice vectors
     8.440984654  0.000000000  0.000000000     0.118469591  0.000000000  0.000000000
     0.000000000  8.440984654  0.000000000     0.000000000  0.118469591  0.000000000
     0.000000000  0.000000000 21.330738491     0.000000000  0.000000000  0.046880702

  length of vectors
     8.440984654  8.440984654 21.330738491     0.118469591  0.118469591  0.046880702

  position of ions in fractional coordinates (direct lattice)
     0.500000000  0.500000000  0.756686978
     0.500000003  0.500000013  0.811657554
     0.000000000  0.750000000  0.351605267
     0.250000000  0.000000000  0.351605267
     0.000000000  0.000000000  0.450535089
     0.250000000  0.750000000  0.450535089
     0.000000000  0.750000000  0.550171424
     0.250000000  0.000000000  0.550171424
     0.000000000  0.000000000  0.648861363
     0.250000000  0.750000000  0.648861363
     0.000000000  0.250000000  0.351605267
     0.250000000  0.500000000  0.351605267
     0.000000000  0.500000000  0.450535089
     0.250000000  0.250000000  0.450535089
     0.000000000  0.250000000  0.550171424
     0.250000000  0.500000000  0.550171424
     0.000000000  0.500000000  0.648861363
     0.250000000  0.250000000  0.648861363
     0.500000000  0.750000000  0.351605267
     0.750000000  0.000000000  0.351605267
     0.500000000  0.000000000  0.450535089
     0.750000000  0.750000000  0.450535089
     0.500000000  0.750000000  0.550171424
     0.750000000  0.000000000  0.550171424
     0.500000000  0.000000000  0.648861363
     0.750000000  0.750000000  0.648861363
     0.500000000  0.250000000  0.351605267
     0.750000000  0.500000000  0.351605267
     0.500000000  0.500000000  0.450535089
     0.750000000  0.250000000  0.450535089
     0.500000000  0.250000000  0.550171424
     0.750000000  0.500000000  0.550171424
     0.500000000  0.500000000  0.648861363
     0.750000000  0.250000000  0.648861363
     0.000000000  0.750000000  0.450535089
     0.250000000  0.000000000  0.450535089
     0.000000000  0.000000000  0.351605267
     0.250000000  0.750000000  0.351605267
     0.000000000  0.750000000  0.651006323
     0.250000000  0.000000000  0.651006323
     0.000000000  0.000000000  0.549890244
     0.250000000  0.750000000  0.549890244
     0.000000000  0.250000000  0.450535089
     0.250000000  0.500000000  0.450535089
     0.000000000  0.500000000  0.351605267
     0.250000000  0.250000000  0.351605267
     0.000000000  0.250000000  0.651006323
     0.250000000  0.500000000  0.651006323
     0.000000000  0.500000000  0.549890244
     0.250000000  0.250000000  0.549890244
     0.500000000  0.750000000  0.450535089
     0.750000000  0.000000000  0.450535089
     0.500000000  0.000000000  0.351605267
     0.750000000  0.750000000  0.351605267
     0.500000000  0.750000000  0.651006323
     0.750000000  0.000000000  0.651006323
     0.500000000  0.000000000  0.549890244
     0.750000000  0.750000000  0.549890244
     0.500000000  0.250000000  0.450535089
     0.750000000  0.500000000  0.450535089
     0.500000000  0.500000000  0.351605267
     0.750000000  0.250000000  0.351605267
     0.500000000  0.250000000  0.651006323
     0.750000000  0.500000000  0.651006323
[...]
   6.33073849  6.33073849  9.61024616
   4.22049233  6.33073849 11.73556278
   6.33073849  0.00000000 11.73556278
   4.22049233  0.00000000 13.84069205
   6.33073849  6.33073849 13.84069205
   4.22049233  2.11024616  7.50000000
   6.33073849  4.22049233  7.50000000
   4.22049233  4.22049233  9.61024616
   6.33073849  2.11024616  9.61024616
   4.22049233  2.11024616 11.73556278
   6.33073849  4.22049233 11.73556278
   4.22049233  4.22049233 13.84069205
   6.33073849  2.11024616 13.84069205
   0.00000000  6.33073849  9.61024616
   2.11024616  0.00000000  9.61024616
   0.00000000  0.00000000  7.50000000
   2.11024616  6.33073849  7.50000000
   0.00000000  6.33073849 13.88644563
   2.11024616  0.00000000 13.88644563
   0.00000000  0.00000000 11.72956500
   2.11024616  6.33073849 11.72956500
   0.00000000  2.11024616  9.61024616
   2.11024616  4.22049233  9.61024616
   0.00000000  4.22049233  7.50000000
   2.11024616  2.11024616  7.50000000
   0.00000000  2.11024616 13.88644563
   2.11024616  4.22049233 13.88644563
   0.00000000  4.22049233 11.72956500
   2.11024616  2.11024616 11.72956500
   4.22049233  6.33073849  9.61024616
   6.33073849  0.00000000  9.61024616
   4.22049233  0.00000000  7.50000000
   6.33073849  6.33073849  7.50000000
   4.22049233  6.33073849 13.88644563
   6.33073849  0.00000000 13.88644563
   4.22049233  0.00000000 11.72956500
   6.33073849  6.33073849 11.72956500
   4.22049233  2.11024616  9.61024616
   6.33073849  4.22049233  9.61024616
   4.22049233  4.22049233  7.50000000
   6.33073849  2.11024616  7.50000000
   4.22049233  2.11024616 13.88644563
   6.33073849  4.22049233 13.88644563
   4.22049233  4.22049233 11.72956500
   6.33073849  2.11024616 11.72956500

--------------------------------------- Iteration      FINAL  ---------------------------------------

--------------------OUTCAR has been truncated-------------------------

[...]

--------------------OUTCAR has been truncated-------------------------

  FORCE on cell =-STRESS in cart. coord.  units (eV):
  Direction    XX          YY          ZZ          XY          YZ          ZX
  Alpha Z   910.25235   910.25235   910.25235
  Ewald  157755.67387157755.67808************     0.20724     0.00023     0.00016
  Hartree168210.52519168210.51762************     5.98148     0.00010     0.00007
  E(xc)   -2516.66267 -2516.66282 -2522.98214     0.08364     0.00000     0.00000
  Local  ************************335399.32737   -17.25984    -0.00030    -0.00021
  n-local -2824.86353 -2824.85642 -2853.22177    -3.96111    -0.00000    -0.00000
  augment  1053.79811  1053.79618  1043.32042     1.05785    -0.00000    -0.00000
  Kinetic  7544.51849  7544.49324  7553.23940    13.69334    -0.00002    -0.00002
  Fock        0.00000     0.00000     0.00000     0.00000     0.00000     0.00000
  vdW       -21.66227   -21.66230   -16.76637    -0.00003    -0.00000    -0.00000
  Total     -26.01553   -26.01597    -1.38968    -0.19744     0.00000     0.00000
  in kB     -27.42528   -27.42575    -1.46498    -0.20814     0.00000     0.00000

 VOLUME and BASIS-vectors are now :
  energy-cutoff  :      600.00
  volume of cell :     1519.82
      direct lattice vectors                 reciprocal lattice vectors
     8.440984654  0.000000000  0.000000000     0.118469591  0.000000000  0.000000000
     0.000000000  8.440984654  0.000000000     0.000000000  0.118469591  0.000000000
     0.000000000  0.000000000 21.330738491     0.000000000  0.000000000  0.046880702

  length of vectors
     8.440984654  8.440984654 21.330738491     0.118469591  0.118469591  0.046880702

 FORCES acting on ions:
    Electron-Ion                     Ewald-Force                    Non-Local-Force
   0.107E-03 0.157E-03 -.110E+04   -.125E-03 -.184E-03 0.106E+04   0.186E-04 0.269E-04 0.406E+02
   -.106E-03 -.155E-03 -.152E+04   0.130E-03 0.190E-03 0.158E+04   -.239E-04 -.355E-04 -.591E+02
   0.692E-02 -.204E+00 0.208E+04   -.734E-02 0.206E+00 -.207E+04   0.335E-03 -.933E-03 -.716E+01
   0.204E+00 -.691E-02 0.208E+04   -.205E+00 0.733E-02 -.207E+04   0.934E-03 -.335E-03 -.716E+01
   0.118E-04 0.117E-04 0.718E+03   -.118E-04 -.121E-04 -.718E+03   0.423E-07 0.258E-06 0.483E+00
   0.915E+00 -.916E+00 0.719E+03   -.926E+00 0.926E+00 -.720E+03   0.711E-02 -.712E-02 0.490E+00
   0.205E+00 -.356E+01 -.638E+03   -.209E+00 0.355E+01 0.638E+03   0.540E-02 0.640E-02 -.196E+00
   0.356E+01 -.205E+00 -.638E+03   -.355E+01 0.209E+00 0.638E+03   -.641E-02 -.540E-02 -.196E+00
   0.137E-04 0.797E-05 -.200E+04   -.122E-04 -.649E-05 0.200E+04   -.135E-05 -.144E-05 0.610E+01
   0.227E+02 -.227E+02 -.197E+04   -.227E+02 0.227E+02 0.197E+04   0.723E-01 -.719E-01 0.619E+01
   -.691E-02 0.204E+00 0.208E+04   0.733E-02 -.206E+00 -.207E+04   -.335E-03 0.933E-03 -.716E+01
   0.228E+00 0.814E-02 0.208E+04   -.228E+00 -.807E-02 -.207E+04   -.139E-03 -.523E-04 -.716E+01
   0.217E-04 -.111E-04 0.719E+03   -.227E-04 0.115E-04 -.720E+03   0.653E-06 -.241E-06 0.470E+00
   0.918E+00 0.919E+00 0.719E+03   -.920E+00 -.920E+00 -.720E+03   0.149E-02 0.150E-02 0.513E+00
   -.205E+00 0.356E+01 -.638E+03   0.209E+00 -.355E+01 0.638E+03   -.540E-02 -.640E-02 -.196E+00
   0.611E+01 0.241E+00 -.627E+03   -.601E+01 -.250E+00 0.628E+03   -.101E+00 0.692E-02 -.245E+00
   0.272E-04 -.900E-06 -.199E+04   -.252E-04 -.283E-07 0.198E+04   -.222E-05 0.813E-06 0.612E+01
   0.225E+02 0.225E+02 -.198E+04   -.226E+02 -.226E+02 0.197E+04   0.121E+00 0.121E+00 0.619E+01
   -.815E-02 -.228E+00 0.208E+04   0.807E-02 0.228E+00 -.207E+04   0.521E-04 0.140E-03 -.716E+01
   -.204E+00 0.692E-02 0.208E+04   0.205E+00 -.734E-02 -.207E+04   -.934E-03 0.335E-03 -.716E+01
   -.123E-04 0.227E-04 0.719E+03   0.124E-04 -.237E-04 -.720E+03   -.643E-07 0.638E-06 0.470E+00
   -.918E+00 -.919E+00 0.719E+03   0.920E+00 0.920E+00 -.720E+03   -.149E-02 -.150E-02 0.513E+00
   -.242E+00 -.611E+01 -.627E+03   0.250E+00 0.601E+01 0.628E+03   -.692E-02 0.101E+00 -.245E+00
   -.356E+01 0.205E+00 -.638E+03   0.355E+01 -.209E+00 0.638E+03   0.641E-02 0.540E-02 -.196E+00
   -.134E-04 0.188E-04 -.199E+04   0.121E-04 -.170E-04 0.198E+04   0.132E-05 -.193E-05 0.612E+01
   -.225E+02 -.225E+02 -.198E+04   0.226E+02 0.226E+02 0.197E+04   -.121E+00 -.121E+00 0.619E+01
   0.814E-02 0.228E+00 0.208E+04   -.807E-02 -.228E+00 -.207E+04   -.523E-04 -.140E-03 -.716E+01
   -.228E+00 -.815E-02 0.208E+04   0.228E+00 0.807E-02 -.207E+04   0.139E-03 0.521E-04 -.716E+01
   -.220E-04 -.223E-04 0.721E+03   0.230E-04 0.232E-04 -.721E+03   -.654E-06 -.591E-06 0.556E+00
   -.915E+00 0.916E+00 0.719E+03   0.926E+00 -.926E+00 -.720E+03   -.711E-02 0.712E-02 0.490E+00
   0.241E+00 0.611E+01 -.627E+03   -.250E+00 -.601E+01 0.628E+03   0.692E-02 -.101E+00 -.245E+00
   -.611E+01 -.241E+00 -.627E+03   0.601E+01 0.250E+00 0.628E+03   0.101E+00 -.692E-02 -.245E+00
   -.287E-04 -.227E-04 -.188E+04   0.280E-04 0.214E-04 0.188E+04   0.947E-06 0.155E-05 0.486E+01
   -.227E+02 0.227E+02 -.197E+04   0.227E+02 -.227E+02 0.197E+04   -.723E-01 0.719E-01 0.619E+01
   0.359E-01 -.604E+00 0.538E+03   -.264E-01 0.604E+00 -.538E+03   -.129E-01 -.101E-03 -.101E+00
   0.603E+00 -.358E-01 0.538E+03   -.603E+00 0.264E-01 -.538E+03   0.148E-03 0.129E-01 -.101E+00
   0.209E-05 0.209E-05 0.156E+04   -.214E-05 -.216E-05 -.157E+04   0.596E-07 0.105E-06 0.340E+01
   0.163E+00 -.163E+00 0.156E+04   -.164E+00 0.164E+00 -.157E+04   0.102E-02 -.101E-02 0.341E+01
   0.257E+00 -.893E+01 -.152E+04   -.286E+00 0.890E+01 0.152E+04   0.300E-01 0.304E-01 -.495E+01
   0.893E+01 -.257E+00 -.152E+04   -.890E+01 0.286E+00 0.152E+04   -.303E-01 -.300E-01 -.495E+01
   0.143E-04 0.133E-04 -.475E+03   -.141E-04 -.135E-04 0.475E+03   -.232E-06 0.206E-06 0.250E+00
   0.363E+01 -.363E+01 -.468E+03   -.363E+01 0.363E+01 0.468E+03   0.739E-02 -.729E-02 0.307E+00
   -.358E-01 0.604E+00 0.538E+03   0.264E-01 -.604E+00 -.538E+03   0.129E-01 0.101E-03 -.101E+00
   0.785E+00 0.582E-01 0.540E+03   -.808E+00 -.601E-01 -.540E+03   0.296E-01 0.223E-02 -.942E-01
   0.298E-05 -.207E-05 0.156E+04   -.312E-05 0.214E-05 -.157E+04   0.191E-06 -.113E-06 0.341E+01
   0.162E+00 0.162E+00 0.156E+04   -.163E+00 -.163E+00 -.157E+04   0.156E-02 0.156E-02 0.341E+01
   -.257E+00 0.893E+01 -.152E+04   0.286E+00 -.890E+01 0.152E+04   -.300E-01 -.304E-01 -.495E+01
   0.306E+02 0.284E+00 -.148E+04   -.304E+02 -.299E+00 0.149E+04   -.245E+00 0.132E-01 -.496E+01
   0.169E-04 -.918E-05 -.469E+03   -.178E-04 0.942E-05 0.469E+03   0.685E-06 -.106E-06 0.251E+00
   0.356E+01 0.356E+01 -.470E+03   -.355E+01 -.355E+01 0.469E+03   -.153E-01 -.154E-01 0.235E+00
   -.583E-01 -.786E+00 0.540E+03   0.601E-01 0.808E+00 -.540E+03   -.223E-02 -.295E-01 -.941E-01
   -.603E+00 0.359E-01 0.538E+03   0.603E+00 -.264E-01 -.538E+03   -.148E-03 -.129E-01 -.101E+00
   -.212E-05 0.304E-05 0.156E+04   0.216E-05 -.318E-05 -.157E+04   -.465E-07 0.187E-06 0.341E+01
   -.162E+00 -.162E+00 0.156E+04   0.163E+00 0.163E+00 -.157E+04   -.156E-02 -.156E-02 0.341E+01
   -.284E+00 -.306E+02 -.148E+04   0.299E+00 0.304E+02 0.149E+04   -.132E-01 0.244E+00 -.496E+01
   -.893E+01 0.257E+00 -.152E+04   0.890E+01 -.286E+00 0.152E+04   0.303E-01 0.300E-01 -.495E+01
   -.177E-04 0.205E-04 -.469E+03   0.181E-04 -.215E-04 0.469E+03   -.170E-06 0.658E-06 0.251E+00
   -.356E+01 -.356E+01 -.470E+03   0.355E+01 0.355E+01 0.469E+03   0.153E-01 0.154E-01 0.235E+00
   0.582E-01 0.786E+00 0.540E+03   -.601E-01 -.808E+00 -.540E+03   0.223E-02 0.295E-01 -.941E-01
   -.785E+00 -.583E-01 0.540E+03   0.808E+00 0.601E-01 -.540E+03   -.296E-01 -.223E-02 -.942E-01
   -.299E-05 -.302E-05 0.156E+04   0.313E-05 0.316E-05 -.157E+04   -.189E-06 -.188E-06 0.341E+01
   -.163E+00 0.163E+00 0.156E+04   0.164E+00 -.164E+00 -.157E+04   -.102E-02 0.101E-02 0.341E+01
   0.284E+00 0.306E+02 -.148E+04   -.299E+00 -.304E+02 0.149E+04   0.132E-01 -.244E+00 -.496E+01
   -.306E+02 -.284E+00 -.148E+04   0.304E+02 0.299E+00 0.149E+04   0.245E+00 -.132E-01 -.496E+01
   -.178E-04 -.179E-04 -.466E+03   0.190E-04 0.188E-04 0.466E+03   -.884E-06 -.820E-06 -.228E+00
   -.363E+01 0.363E+01 -.468E+03   0.363E+01 -.363E+01 0.468E+03   -.739E-02 0.729E-02 0.307E+00
   0.726E-05 0.859E-05 0.371E+02   0.207E-12 -.817E-13 0.131E-11   -.748E-05 -.931E-05 -.371E+02

 POSITION                                       TOTAL-FORCE (eV/Angst)
      4.22049      4.22049     16.22123        -0.000000     -0.000000     -0.007496
      4.22049      4.22049     17.39713         0.000000      0.000000     -0.000361
      0.00000      6.33074      7.50000        -0.000079      0.000332      0.339593
      2.11025      0.00000      7.50000        -0.000333      0.000079      0.339594
      0.00000      0.00000      9.61025         0.000000     -0.000000      0.071815
      2.11025      6.33074      9.61025        -0.003446      0.003449      0.070229
     -0.00110      6.33047     11.73309         0.001111     -0.000446     -0.000019
      2.11051      0.00110     11.73310         0.000444     -0.001112     -0.000025
      0.00000      0.00000     13.83701         0.000000      0.000000      0.004135
      2.10768      6.33329     13.83211        -0.000847      0.000842      0.006974
      0.00000      2.11025      7.50000         0.000079     -0.000332      0.339593
      2.11025      4.22049      7.50000        -0.000077      0.000026      0.338495
      0.00000      4.22049      9.61025        -0.000000      0.000000      0.075583
      2.11025      2.11025      9.61025        -0.000005     -0.000008      0.071481
      0.00110      2.11051     11.73309        -0.001111      0.000446     -0.000019
      2.11348      4.22104     11.73332         0.000424     -0.001441      0.008833
      0.00000      4.22049     13.83493        -0.000000     -0.000000      0.004965
      2.11118      2.11118     13.83800        -0.002818     -0.002813      0.008883
      4.22049      6.33074      7.50000        -0.000026      0.000077      0.338492
      6.33074      0.00000      7.50000         0.000333     -0.000079      0.339594
      4.22049      0.00000      9.61025         0.000000     -0.000000      0.075589
      6.33074      6.33074      9.61025         0.000004      0.000007      0.071482
      4.21994      6.32750     11.73332         0.001442     -0.000428      0.008826
      6.33047     -0.00110     11.73310        -0.000444      0.001111     -0.000025
      4.22049      0.00000     13.83494         0.000000     -0.000000      0.004952
      6.32981      6.32980     13.83800         0.002818      0.002813      0.008883
      4.22049      2.11025      7.50000         0.000026     -0.000077      0.338492
      6.33074      4.22049      7.50000         0.000077     -0.000026      0.338495
      4.22049      4.22049      9.61025         0.000000      0.000000      0.079887
      6.33074      2.11025      9.61025         0.003447     -0.003449      0.070229
      4.22104      2.11348     11.73332        -0.001441      0.000428      0.008826
      6.32751      4.21994     11.73332        -0.000424      0.001441      0.008833
      4.22049      4.22049     13.87457         0.000000      0.000000      0.007949
      6.33330      2.10769     13.83211         0.000847     -0.000841      0.006974
      0.00000      6.33074      9.61025        -0.003419     -0.000076      0.069914
      2.11025      0.00000      9.61025         0.000090      0.003419      0.069919
      0.00000      0.00000      7.50000         0.000000      0.000000     -0.501901
      2.11025      6.33074      7.50000         0.000291     -0.000291     -0.500999
     -0.00111      6.33166     13.88292         0.001870     -0.000553      0.004129
      2.10932      0.00111     13.88293         0.000563     -0.001870      0.004125
      0.00000      0.00000     11.72674        -0.000000     -0.000000      0.008539
      2.10929      6.33170     11.72656         0.001912     -0.001912      0.001945
      0.00000      2.11025      9.61025         0.003419      0.000076      0.069914
      2.11025      4.22049      9.61025         0.006998      0.000434      0.073649
      0.00000      4.22049      7.50000         0.000000     -0.000000     -0.501031
      2.11025      2.11025      7.50000         0.000465      0.000465     -0.501085
      0.00111      2.10932     13.88292        -0.001870      0.000553      0.004129
      2.10247      4.22371     13.87818         0.000333     -0.001725      0.003646
      0.00000      4.22049     11.72634        -0.000000      0.000000      0.003050
      2.11084      2.11083     11.72827        -0.000254     -0.000253      0.002308
      4.22049      6.33074      9.61025        -0.000434     -0.006983      0.073660
      6.33074      0.00000      9.61025        -0.000090     -0.003419      0.069919
      4.22049      0.00000      7.50000        -0.000000      0.000000     -0.501029
      6.33074      6.33074      7.50000        -0.000465     -0.000464     -0.501085
      4.21727      6.33851     13.87821         0.001726     -0.000335      0.003659
      6.33166     -0.00111     13.88293        -0.000563      0.001870      0.004125
      4.22049      0.00000     11.72636         0.000000     -0.000000      0.003061
      6.33015      6.33015     11.72827         0.000254      0.000253      0.002307
      4.22049      2.11025      9.61025         0.000434      0.006983      0.073659
      6.33074      4.22049      9.61025        -0.006998     -0.000434      0.073650
      4.22049      4.22049      7.50000        -0.000000     -0.000000     -0.500615
      6.33074      2.11025      7.50000        -0.000291      0.000291     -0.500999
      4.22371      2.10248     13.87821        -0.001726      0.000334      0.003659
      6.33851      4.21727     13.87818        -0.000333      0.001725      0.003646
      4.22049      4.22049     11.73399         0.000000      0.000000      0.000457
      6.33170      2.10928     11.72656        -0.001912      0.001912      0.001945
    total drift:                               -0.000000     -0.000001      0.001005

  FREE ENERGIE OF THE ION-ELECTRON SYSTEM (eV)
  free  energy   TOTEN  =      -383.52754207 eV

  energy  without entropy=     -383.52754031  energy(sigma->0) =     -383.52754119

 d Force = 0.3079182E-04[ 0.393E-05, 0.577E-04]  d Energy = 0.3104722E-04-0.255E-06
 d Force = 0.5176591E+01[ 0.518E+01, 0.518E+01]  d Ewald  = 0.5176591E+01-0.223E-07

 Conjugate gradient step on ions:
 trial-energy change:   -0.000031  1 .order   -0.000031   -0.000058   -0.000004
  (g-gl).g = 0.403E-03      g.g   = 0.353E-03  gl.gl    = 0.344E-03
 g(Force)  = 0.353E-03   g(Stress)= 0.000E+00 ortho     = 0.145E-05
 gamma     =   1.17387
 trial     =   0.16272
 opt step  =   0.17426  (harmonic =   0.17462) maximal distance =0.00114832
 next E    =  -383.527542   (d E  =  -0.00003)

 reached required accuracy - stopping structural energy minimisation