 vasp.6.4.1 05Apr23 (build Sep 19 2024 10:44:22) complex

 executed on             LinuxIFC date 2024.10.20  09:26:27

 INCAR:
   SYSTEM = TiO2
   ISMEAR = 0
   SIGMA = 0.05
   EDIFF = 1E-7
   ALGO = ALL
   ISTART = 0
   IBRION = 2
   NSW = 1000
   ISYM = 0
   ISIF = 2
   EDIFFG = -0.01
   DIPOL = 0.5 0.5 0.5
   IDIPOL = 3
   LDIPOL = .TRUE.
   GGA = RE
   AGGAC = 0.0
   LUSE_VDW = .TRUE.
   LASPH = .TRUE.
   ENCUT = 600
   PREC = Accurate
   LASPH = .TRUE.
   LREAL = .FALSE.
   ISPIN = 1
   NELM = 200
   NELMIN = 8
   NCORE = 8
   KPAR = 1
   LWAVE = .FALSE.
   LCHARG = .FALSE.

 POTCAR:    PAW_PBE H 15Jun2001
 POTCAR:    PAW_PBE O 08Apr2002
 POTCAR:    PAW_PBE Ti_pv 07Sep2000
 POTCAR:    PAW_PBE O 08Apr2002
|           W    W    AA    RRRRR   N    N  II  N    N   GGGG   !!!           |
|           W    W   A  A   R    R  NN   N  II  NN   N  G    G  !!!           |
|           W    W  A    A  R    R  N N  N  II  N N  N  G       !!!           |
|           W WW W  AAAAAA  RRRRR   N  N N  II  N  N N  G  GGG   !            |
|           WW  WW  A    A  R   R   N   NN  II  N   NN  G    G                |
|           W    W  A    A  R    R  N    N  II  N    N   GGGG   !!!           |
|     For optimal performance we recommend to set                             |
|       NCORE = 2 up to number-of-cores-per-socket                            |
|     This setting can greatly improve the performance of VASP for DFT.       |
|     The default, NCORE=1 might be grossly inefficient on modern             |
|     multi-core architectures or massively parallel machines. Do your        |
|     Unfortunately you need to use the default for GW and RPA                |
|     calculations (for HF NCORE is supported but not extensively tested      |
|     yet).                                                                   |

   TITEL  = PAW_PBE H 15Jun2001
   POMASS =    1.000; ZVAL   =    1.000    mass and valenz
   ENMAX  =  250.000; ENMIN  =  200.000 eV

   TITEL  = PAW_PBE O 08Apr2002
   POMASS =   16.000; ZVAL   =    6.000    mass and valenz
   ENMAX  =  400.000; ENMIN  =  300.000 eV

   TITEL  = PAW_PBE Ti_pv 07Sep2000
   POMASS =   47.880; ZVAL   =   10.000    mass and valenz
   ENMAX  =  222.335; ENMIN  =  166.751 eV

   TITEL  = PAW_PBE O 08Apr2002
   POMASS =   16.000; ZVAL   =    6.000    mass and valenz
   ENMAX  =  400.000; ENMIN  =  300.000 eV

  PAW_PBE H 15Jun2001                   :
  PAW_PBE O 08Apr2002                   :
  PAW_PBE Ti_pv 07Sep2000               :
  PAW_PBE O 08Apr2002                   :

 POSCAR:  H  O Ti  O
  positions in direct lattice
 exchange correlation table for  LEXCH =       40
   RHO(1)=    0.500       N(1)  =     2000
   RHO(2)=  100.500       N(2)  =     4000

 ion  position               nearest neighbor table
   1  0.683  0.567  0.768-   3 0.98
   2  0.683  0.433  0.768-   3 0.98
   3  0.625  0.500  0.770-   2 0.98   1 0.98  51 2.30
   4  0.815  0.833  0.293-  88 1.97  56 1.97  54 1.97  53 2.02  55 2.02  21 3.11   7 3.11   5 3.11

   5  0.599  0.667  0.325-  52 1.97 119 1.97  57 1.97  55 1.97  56 2.02  58 2.02  36 3.11   6 3.11
                             4 3.11  10 3.15
   6  0.315  0.667  0.293- 124 1.97  60 1.97  58 1.97  52 2.02  59 2.02  39 3.11   5 3.11   7 3.11

   7  0.099  0.833  0.325-  53 1.97  91 1.97  61 1.97  59 1.97  60 2.02  54 2.02  22 3.11   4 3.11
                             6 3.11   8 3.15
   8  0.948  0.833  0.422-  62 1.95  64 1.96  96 1.96  63 2.01  54 2.01  61 2.04  11 3.05   9 3.11
                            25 3.11   7 3.15
   9  0.729  0.667  0.451-  57 1.91  63 1.97 127 1.97  66 2.00  65 2.01  64 2.04  10 3.05   8 3.11
                            40 3.11
  10  0.448  0.667  0.422-  66 1.95 132 1.96  68 1.96  67 2.01  58 2.01  57 2.04   9 3.05  43 3.11
                            11 3.11   5 3.15
  11  0.229  0.833  0.451-  61 1.91  67 1.97  99 1.97  62 2.00  69 2.01  68 2.04   8 3.05  26 3.11
                            10 3.11
  12  0.087  0.833  0.551-  70 1.95  72 1.96 104 1.96  71 2.00  69 2.04  62 2.04  15 3.00  13 3.11
                            29 3.11
  13  0.864  0.667  0.577-  65 1.88  74 1.97  71 1.97 135 1.97  73 2.05  72 2.05  14 3.00  12 3.11
                            44 3.11
  14  0.587  0.667  0.551-  74 1.95 140 1.96  76 1.96  75 2.00  65 2.04  66 2.04  13 3.00  15 3.11
                            47 3.11
  15  0.364  0.833  0.577-  69 1.88  70 1.97 107 1.97  75 1.97  77 2.05  76 2.05  12 3.00  30 3.11
                            14 3.11
  16  0.231  0.833  0.683-  78 1.87 112 1.96  80 1.96  79 2.02  77 2.13  70 2.15  19 2.89  33 3.13
                            17 3.13
  17  0.002  0.667  0.702-  73 1.80  81 1.85 143 2.01  79 2.01  80 2.09  18 2.89  16 3.13  48 3.13

[...]

  20  0.815  0.167  0.293-  88 1.97 120 1.97  86 1.97  85 2.02  87 2.02  21 3.11  23 3.11  37 3.11

[...]

  36  0.815  0.500  0.293-  56 1.97 120 1.97 118 1.97 117 2.02 119 2.02  37 3.11   5 3.11  39 3.11

  37  0.599  0.333  0.325- 116 1.97 119 1.97 121 1.97  87 1.97 120 2.02 122 2.02  36 3.11  38 3.11
                            20 3.11  42 3.15
  38  0.315  0.333  0.293- 124 1.97  92 1.97 122 1.97 116 2.02 123 2.02  39 3.11  37 3.11  23 3.11

  39  0.099  0.500  0.325- 117 1.97  59 1.97 123 1.97 125 1.97 124 2.02 118 2.02   6 3.11  38 3.11
                            36 3.11  40 3.15
  40  0.948  0.500  0.422- 126 1.95  64 1.96 128 1.96 127 2.01 118 2.01 125 2.04  43 3.05   9 3.11
                            41 3.11  39 3.15
  41  0.729  0.333  0.451- 121 1.91 127 1.97  95 1.97 130 2.00 129 2.01 128 2.04  42 3.05  40 3.11
                            24 3.11
  42  0.448  0.333  0.422- 130 1.95 100 1.96 132 1.96 131 2.01 122 2.01 121 2.04  41 3.05  27 3.11
                            43 3.11  37 3.15
  43  0.229  0.500  0.451- 125 1.91 131 1.97  67 1.97 126 2.00 133 2.01 132 2.04  40 3.05  10 3.11
                            42 3.11
  44  0.087  0.500  0.551- 134 1.95  72 1.96 136 1.96 135 2.00 133 2.04 126 2.04  47 3.00  45 3.11
                            13 3.11
  45  0.864  0.333  0.577- 129 1.88 138 1.97 135 1.97 103 1.97 137 2.05 136 2.05  46 3.00  44 3.11
                            28 3.11
  46  0.587  0.333  0.551- 138 1.95 108 1.96 140 1.96 139 2.00 129 2.04 130 2.04  45 3.00  47 3.11
                            31 3.11
  47  0.364  0.500  0.577- 133 1.88 134 1.97 139 1.97  75 1.97 141 2.05 140 2.05  44 3.00  46 3.11
                            14 3.11
  48  0.231  0.500  0.683- 142 1.87 144 1.96  80 1.96 143 2.02 141 2.13 134 2.15  51 2.89  49 3.13
                            17 3.13
  49  0.002  0.333  0.702- 137 1.80 145 1.85 111 2.01 143 2.01 144 2.09  50 2.89  48 3.13  32 3.13

  50  0.731  0.333  0.683- 145 1.87 147 1.96 115 1.96 146 2.02 137 2.13 138 2.15  49 2.89  51 3.13
                            35 3.13
  51  0.502  0.500  0.702- 141 1.80 142 1.85  82 2.01 146 2.01 147 2.09   3 2.30  48 2.89  50 3.13
                            18 3.13
  52  0.494  0.667  0.267-   5 1.97   6 2.02
  53  0.994  0.833  0.267-   7 1.97   4 2.02
  54  0.919  0.833  0.351-   4 1.97   8 2.01   7 2.02
  55  0.636  0.833  0.320-  21 1.97   5 1.97   4 2.02
  56  0.778  0.667  0.299-  36 1.97   4 1.97   5 2.02
  57  0.628  0.667  0.394-   9 1.91   5 1.97  10 2.04
  58  0.419  0.667  0.351-   6 1.97  10 2.01   5 2.02
  59  0.136  0.667  0.320-  39 1.97   7 1.97   6 2.02
  60  0.278  0.833  0.299-  22 1.97   6 1.97   7 2.02
  61  0.128  0.833  0.394-  11 1.91   7 1.97   8 2.04
  62  0.054  0.833  0.479-   8 1.95  11 2.00  12 2.04
  63  0.769  0.833  0.447-   9 1.97  25 1.97   8 2.01
  64  0.911  0.667  0.426-   8 1.96  40 1.96   9 2.04
  65  0.764  0.667  0.521-  13 1.88   9 2.01  14 2.04
  66  0.554  0.667  0.479-  10 1.95   9 2.00  14 2.04
  67  0.269  0.667  0.447-  11 1.97  43 1.97  10 2.01
  68  0.411  0.833  0.426-  26 1.96  10 1.96  11 2.04
  69  0.264  0.833  0.521-  15 1.88  11 2.01  12 2.04
  70  0.195  0.833  0.607-  12 1.95  15 1.97  16 2.15
  71  0.906  0.833  0.574-  29 1.97  13 1.97  12 2.00
  72  0.050  0.667  0.554-  44 1.96  12 1.96  13 2.05
  73  0.912  0.667  0.648-  17 1.80  13 2.05  18 2.13
  74  0.695  0.667  0.607-  14 1.95  13 1.97  18 2.15
  75  0.406  0.667  0.574-  15 1.97  47 1.97  14 2.00
  76  0.550  0.833  0.554-  14 1.96  30 1.96  15 2.05
  77  0.412  0.833  0.648-  19 1.80  15 2.05  16 2.13
  78  0.347  0.833  0.733-  19 1.85  16 1.87
  79  0.053  0.833  0.710-  17 2.01  33 2.01  16 2.02
  80  0.194  0.667  0.682-  16 1.96  48 1.96  17 2.09
  81  0.847  0.667  0.733-  17 1.85  18 1.87
  82  0.553  0.667  0.710-  19 2.01  51 2.01  18 2.02
  83  0.694  0.833  0.682-  34 1.96  18 1.96  19 2.09
  84  0.494  0.000  0.267-  21 1.97  22 2.02
  85  0.994  0.167  0.267-  23 1.97  20 2.02
  86  0.919  0.167  0.351-  20 1.97  24 2.01  23 2.02
  87  0.636  0.167  0.320-  21 1.97  37 1.97  20 2.02
  88  0.778  0.000  0.299-   4 1.97  20 1.97  21 2.02
  89  0.628  0.000  0.394-  25 1.91  21 1.97  26 2.04
  90  0.419  0.000  0.351-  22 1.97  26 2.01  21 2.02
  91  0.136  0.000  0.320-   7 1.97  23 1.97  22 2.02
  92  0.278  0.167  0.299-  22 1.97  38 1.97  23 2.02
  93  0.128  0.167  0.394-  27 1.91  23 1.97  24 2.04
  94  0.054  0.167  0.479-  24 1.95  27 2.00  28 2.04
  95  0.769  0.167  0.447-  25 1.97  41 1.97  24 2.01
  96  0.911  0.000  0.426-  24 1.96   8 1.96  25 2.04
  97  0.764  0.000  0.521-  29 1.88  25 2.01  30 2.04
  98  0.554  0.000  0.479-  26 1.95  25 2.00  30 2.04
  99  0.269  0.000  0.447-  27 1.97  11 1.97  26 2.01
 100  0.411  0.167  0.426-  42 1.96  26 1.96  27 2.04
 101  0.264  0.167  0.521-  31 1.88  27 2.01  28 2.04
 102  0.195  0.167  0.607-  28 1.95  31 1.97  32 2.15
 103  0.906  0.167  0.574-  45 1.97  29 1.97  28 2.00
 104  0.050  0.000  0.554-  28 1.96  12 1.96  29 2.05
 105  0.912  1.000  0.648-  33 1.80  29 2.05  34 2.13
 106  0.695  0.000  0.607-  30 1.95  29 1.97  34 2.15
 107  0.406  1.000  0.574-  15 1.97  31 1.97  30 2.00
 108  0.550  0.167  0.554-  30 1.96  46 1.96  31 2.05
 109  0.412  0.167  0.648-  35 1.80  31 2.05  32 2.13
 110  0.347  0.167  0.733-  35 1.85  32 1.87
 111  0.053  0.167  0.710-  49 2.01  33 2.01  32 2.02
[...]
 133  0.264  0.500  0.521-  47 1.88  43 2.01  44 2.04
 134  0.195  0.500  0.607-  44 1.95  47 1.97  48 2.15
 135  0.906  0.500  0.574-  45 1.97  13 1.97  44 2.00
 136  0.050  0.333  0.554-  28 1.96  44 1.96  45 2.05
 137  0.912  0.333  0.648-  49 1.80  45 2.05  50 2.13
 138  0.695  0.333  0.607-  46 1.95  45 1.97  50 2.15
 139  0.406  0.333  0.574-  47 1.97  31 1.97  46 2.00
 140  0.550  0.500  0.554-  14 1.96  46 1.96  47 2.05
 141  0.412  0.500  0.648-  51 1.80  47 2.05  48 2.13
 142  0.347  0.500  0.733-  51 1.85  48 1.87
 143  0.053  0.500  0.710-  49 2.01  17 2.01  48 2.02
 144  0.194  0.333  0.682-  48 1.96  32 1.96  49 2.09
 145  0.847  0.333  0.733-  49 1.85  50 1.87
 146  0.553  0.333  0.710-  51 2.01  35 2.01  50 2.02
 147  0.694  0.500  0.682-  50 1.96  18 1.96  51 2.09

IMPORTANT INFORMATION: All symmetrisations will be switched off!
NOSYMM: (Re-)initialisation of all symmetry stuff for point group C_1.

                                     Primitive cell

  volume of cell :    3395.7251

[...]
   1.42498401  7.67855604  8.97920226
   2.91559963  9.59819505  8.39328941
[...]
   2.77562699  5.75891709 14.64195643
   2.04678820  5.75891727 17.05840256
   9.51167242  5.75891615 16.12862628
   0.52508054  3.83927795 15.55944233
   9.56764980  3.83927811 18.19235714
   7.29425449  3.83927792 17.05840339
   4.26420709  3.83927859 16.12862635
   5.77254681  5.75891712 15.55944278
   4.32018520  5.75891740 18.19235965
   3.63749292  5.75891689 20.60526858
   0.55952485  5.75891741 19.94148400
   2.03363162  3.83927872 19.17104091
   8.88495741  3.83927831 20.60526876
   5.80699074  3.83927803 19.94148378
   7.28109745  5.75891595 19.17104088

--------------------------------------- Iteration      FINAL  ---------------------------------------

--------------------OUTCAR has been truncated-------------------------

[...]

--------------------OUTCAR has been truncated-------------------------

  FORCE on cell =-STRESS in cart. coord.  units (eV):
  Direction    XX          YY          ZZ          XY          YZ          ZX
  Alpha Z  2345.56545  2345.56545  2345.56545
  Ewald  464868.97367458000.45220************    -0.01361    -0.00039 -1729.27083
  Hartree486125.90047481919.95917************    -0.00365     0.00055 -1192.51300
  E(xc)   -5301.17532 -5306.12376 -5309.24314    -0.00004    -0.00001    -0.61799
  Local  ************************959010.07841     0.01326    -0.00036  2933.03783
  n-local -3305.94711 -3279.32460 -3319.27826     0.00069     0.00005     1.57584
  augment  3188.62814  3185.72118  3179.33977     0.00010    -0.00000     0.41853
  Kinetic 17149.21926 17204.47085 17283.02087     0.00020    -0.00001   -21.72749
  Fock        0.00000     0.00000     0.00000     0.00000     0.00000     0.00000
  Total     -48.86098   -21.03571   -14.52544    -0.00305    -0.00017    -9.09711
  in kB     -23.05368    -9.92511    -6.85342    -0.00144    -0.00008    -4.29221

 VOLUME and BASIS-vectors are now :
  energy-cutoff  :      600.00
  volume of cell :     3395.73
      direct lattice vectors                 reciprocal lattice vectors
    10.494931139  0.000000000  0.000000000     0.095284094 -0.000000000  0.000000000
     0.000000000 11.517834055  0.000000000     0.000000000  0.086821879  0.000000000
     0.000000000  0.000000000 28.091964603     0.000000000  0.000000000  0.035597368

  length of vectors
    10.494931139 11.517834055 28.091964603     0.095284094  0.086821879  0.035597368

 FORCES acting on ions:
    Electron-Ion                     Ewald-Force                    Non-Local-Force
   -.518E+02 -.683E+02 -.344E+03   0.568E+02 0.751E+02 0.345E+03   -.496E+01 -.678E+01 -.607E+00
   -.518E+02 0.683E+02 -.344E+03   0.568E+02 -.751E+02 0.345E+03   -.496E+01 0.678E+01 -.608E+00
   0.162E+02 -.881E-02 -.206E+04   -.594E+02 0.161E-01 0.206E+04   0.431E+02 -.197E-02 -.166E+01
   0.408E+01 -.759E-01 0.323E+04   0.562E+00 0.807E-01 -.323E+04   -.987E+00 -.957E-03 -.323E+01
   0.552E+01 -.181E+00 0.265E+04   -.702E+01 0.185E+00 -.266E+04   -.905E-01 -.114E-02 -.769E-01
   0.406E+01 0.618E-01 0.323E+04   0.555E+00 -.618E-01 -.323E+04   -.985E+00 0.215E-03 -.323E+01
   0.429E+01 0.188E-01 0.265E+04   -.583E+01 -.205E-01 -.266E+04   -.827E-01 0.425E-03 -.822E-01
   -.125E+01 0.888E-01 0.121E+04   0.106E+01 -.854E-01 -.121E+04   0.187E+00 -.310E-02 -.259E-01
   -.132E+01 -.179E+01 0.766E+03   0.134E+01 0.177E+01 -.766E+03   -.913E-03 0.201E-01 -.106E+00
   0.109E+00 -.356E+00 0.121E+04   -.284E+00 0.348E+00 -.121E+04   0.179E+00 0.760E-02 -.419E-01
   -.750E+01 0.137E+00 0.759E+03   0.750E+01 -.141E+00 -.758E+03   0.287E-01 0.266E-02 -.107E+00
   -.491E+01 -.193E+01 -.750E+03   0.459E+01 0.193E+01 0.750E+03   0.324E+00 -.262E-02 0.346E-01
   -.137E+02 -.490E+01 -.112E+04   0.138E+02 0.492E+01 0.112E+04   -.397E-01 -.121E-01 -.154E+00
   0.142E+01 -.248E+01 -.725E+03   -.170E+01 0.247E+01 0.725E+03   0.291E+00 0.505E-02 0.234E-01
   -.390E+01 -.157E+01 -.115E+04   0.400E+01 0.158E+01 0.115E+04   -.458E-01 -.136E-01 -.207E+00
   0.280E+02 -.119E+02 -.267E+04   -.290E+02 0.119E+02 0.267E+04   0.971E+00 0.200E-01 -.298E+00
   -.884E+02 -.225E+02 -.304E+04   0.885E+02 0.223E+02 0.304E+04   0.100E+00 0.134E+00 0.734E+00
   -.101E+02 -.458E+02 -.258E+04   0.924E+01 0.458E+02 0.258E+04   0.870E+00 -.572E-02 -.117E+00
   -.600E+02 -.325E+02 -.303E+04   0.600E+02 0.325E+02 0.303E+04   0.104E+00 0.133E-01 0.745E+00
   0.408E+01 0.759E-01 0.323E+04   0.562E+00 -.807E-01 -.323E+04   -.987E+00 0.957E-03 -.323E+01
   0.551E+01 0.153E-04 0.265E+04   -.703E+01 -.167E-04 -.266E+04   -.844E-01 0.354E-06 -.826E-01
   0.397E+01 0.102E-04 0.323E+04   0.661E+00 -.113E-04 -.323E+04   -.987E+00 0.294E-06 -.323E+01
   0.429E+01 -.188E-01 0.265E+04   -.583E+01 0.205E-01 -.266E+04   -.827E-01 -.424E-03 -.822E-01
   -.125E+01 -.888E-01 0.121E+04   0.106E+01 0.854E-01 -.121E+04   0.187E+00 0.310E-02 -.259E-01
   -.382E+01 0.135E-03 0.763E+03   0.382E+01 -.152E-03 -.763E+03   0.339E-01 0.303E-05 -.112E+00
   0.356E+00 0.170E-03 0.121E+04   -.533E+00 -.181E-03 -.121E+04   0.178E+00 0.171E-05 -.411E-01
   -.750E+01 -.137E+00 0.759E+03   0.750E+01 0.141E+00 -.758E+03   0.287E-01 -.266E-02 -.107E+00
   -.491E+01 0.193E+01 -.750E+03   0.459E+01 -.193E+01 0.750E+03   0.324E+00 0.263E-02 0.346E-01
   -.133E+02 0.308E-03 -.114E+04   0.133E+02 -.324E-03 0.114E+04   -.128E-02 0.129E-05 -.166E+00
   -.164E+01 0.296E-03 -.740E+03   0.132E+01 -.307E-03 0.740E+03   0.318E+00 0.140E-05 0.660E-01
   -.390E+01 0.157E+01 -.115E+04   0.400E+01 -.158E+01 0.115E+04   -.458E-01 0.136E-01 -.207E+00
   0.280E+02 0.119E+02 -.267E+04   -.290E+02 -.119E+02 0.267E+04   0.971E+00 -.200E-01 -.298E+00
   -.753E+02 0.473E-03 -.305E+04   0.755E+02 -.459E-03 0.305E+04   0.540E-01 -.326E-05 0.726E+00
   0.116E+02 0.744E-03 -.266E+04   -.125E+02 -.688E-03 0.266E+04   0.906E+00 -.863E-05 -.238E+00
   -.600E+02 0.325E+02 -.303E+04   0.600E+02 -.325E+02 0.303E+04   0.104E+00 -.133E-01 0.745E+00
   0.411E+01 0.119E-05 0.323E+04   0.526E+00 -.500E-06 -.323E+04   -.987E+00 -.187E-06 -.322E+01
   0.552E+01 0.181E+00 0.265E+04   -.702E+01 -.185E+00 -.266E+04   -.905E-01 0.114E-02 -.769E-01
   0.406E+01 -.618E-01 0.323E+04   0.555E+00 0.618E-01 -.323E+04   -.985E+00 -.215E-03 -.323E+01
   0.348E+01 -.101E-04 0.265E+04   -.497E+01 0.109E-04 -.266E+04   -.997E-01 -.420E-06 -.763E-01
   -.249E+00 -.696E-04 0.121E+04   0.787E-01 0.791E-04 -.121E+04   0.164E+00 -.126E-05 0.101E-01
   -.132E+01 0.179E+01 0.766E+03   0.134E+01 -.177E+01 -.766E+03   -.911E-03 -.201E-01 -.106E+00
   0.109E+00 0.356E+00 0.121E+04   -.284E+00 -.347E+00 -.121E+04   0.179E+00 -.760E-02 -.419E-01
   -.101E+02 -.472E-05 0.746E+03   0.101E+02 0.111E-04 -.746E+03   0.228E-01 -.195E-05 -.380E-01
   -.241E+01 -.212E-03 -.749E+03   0.215E+01 0.228E-03 0.749E+03   0.241E+00 -.197E-05 0.733E-01
   -.137E+02 0.490E+01 -.112E+04   0.138E+02 -.492E+01 0.112E+04   -.397E-01 0.121E-01 -.154E+00
   0.142E+01 0.248E+01 -.725E+03   -.170E+01 -.247E+01 0.725E+03   0.291E+00 -.505E-02 0.234E-01
   -.588E+01 -.314E-03 -.118E+04   0.595E+01 0.316E-03 0.118E+04   -.259E-01 0.849E-06 -.971E-01
   0.456E+02 -.995E-03 -.266E+04   -.465E+02 0.977E-03 0.266E+04   0.773E+00 0.397E-05 -.173E+00
   -.884E+02 0.225E+02 -.304E+04   0.885E+02 -.223E+02 0.304E+04   0.100E+00 -.134E+00 0.734E+00
   -.101E+02 0.458E+02 -.258E+04   0.924E+01 -.458E+02 0.258E+04   0.870E+00 0.573E-02 -.117E+00
   0.115E+02 -.447E-02 -.298E+04   -.112E+02 0.433E-02 0.298E+04   -.112E+00 0.584E-04 0.430E+00
   -.315E+02 -.422E-01 0.218E+04   0.361E+02 0.435E-01 -.220E+04   -.634E+01 -.160E-02 0.166E+02
   -.318E+02 -.436E-01 0.218E+04   0.364E+02 0.440E-01 -.220E+04   -.633E+01 -.423E-03 0.166E+02
   0.779E+02 0.535E-01 0.133E+04   -.821E+02 -.559E-01 -.132E+04   0.326E+01 -.184E-03 -.414E+01
   0.724E+02 -.501E-01 0.162E+04   -.787E+02 0.526E-01 -.161E+04   0.668E+01 -.505E-02 -.235E+01
   -.835E+02 -.947E-01 0.186E+04   0.900E+02 0.964E-01 -.186E+04   -.628E+01 -.633E-02 -.338E+00
   -.639E+02 -.751E+00 0.101E+04   0.687E+02 0.790E+00 -.102E+04   -.484E+01 -.367E-01 0.414E+01
   0.785E+02 0.394E-01 0.133E+04   -.826E+02 -.252E-01 -.132E+04   0.323E+01 -.167E-01 -.400E+01
   0.716E+02 0.276E-01 0.162E+04   -.779E+02 -.303E-01 -.161E+04   0.669E+01 0.726E-02 -.235E+01
   -.837E+02 0.932E-03 0.186E+04   0.902E+02 0.934E-03 -.186E+04   -.626E+01 -.615E-02 -.342E+00
[...]
   0.832E+02 -.149E-03 -.103E+04   -.893E+02 0.143E-03 0.104E+04   0.615E+01 0.685E-05 -.767E+01
   0.677E+02 0.215E-03 -.683E+03   -.732E+02 -.237E-03 0.686E+03   0.546E+01 0.691E-05 -.292E+01
   -.786E+02 0.157E+01 -.441E+03   0.843E+02 -.166E+01 0.439E+03   -.571E+01 0.909E-01 0.253E+01
   -.613E+02 0.120E+02 -.122E+04   0.628E+02 -.125E+02 0.121E+04   -.149E+01 0.424E+00 0.983E+01
   0.768E+02 0.116E+02 -.100E+04   -.824E+02 -.120E+02 0.101E+04   0.558E+01 0.434E+00 -.605E+01
   0.773E+02 0.192E+01 -.698E+03   -.831E+02 -.204E+01 0.701E+03   0.577E+01 0.115E+00 -.315E+01
   -.695E+02 -.811E-04 -.445E+03   0.748E+02 0.815E-04 0.443E+03   -.539E+01 -.787E-05 0.209E+01
   -.473E+02 -.623E-03 -.124E+04   0.511E+02 0.612E-03 0.123E+04   -.379E+01 0.159E-04 0.784E+01
   0.104E+03 -.988E-03 -.218E+04   -.109E+03 0.918E-03 0.220E+04   0.532E+01 0.839E-04 -.208E+02
   0.457E+02 -.647E-03 -.192E+04   -.494E+02 0.651E-03 0.192E+04   0.361E+01 0.226E-04 -.702E+01
   -.481E+02 0.692E+01 -.159E+04   0.526E+02 -.678E+01 0.158E+04   -.446E+01 -.138E+00 0.272E+01
   0.776E+01 0.313E+02 -.217E+04   -.126E+02 -.311E+02 0.219E+04   0.484E+01 -.171E+00 -.192E+02
   0.770E+02 0.499E+02 -.187E+04   -.815E+02 -.498E+02 0.187E+04   0.450E+01 -.741E-01 -.643E+01
   -.611E+02 -.185E-02 -.148E+04   0.645E+02 0.188E-02 0.148E+04   -.345E+01 0.272E-04 0.418E+01
   -.506E+02 -.924E-03 0.703E+02   -.171E-12 0.151E-11 -.500E-11   0.506E+02 0.910E-03 -.703E+02

 POSITION                                       TOTAL-FORCE (eV/Angst)
      7.03299      6.53163     21.97194        -0.002845      0.002456      0.001691
      7.03296      4.98624     21.97192         0.001075     -0.007648      0.002106
      6.43850      5.75886     21.90447        -0.007629      0.005284     -0.000359
      8.55406      9.59820      8.23960         3.660580      0.003843      1.727430
      6.28145      7.67856      9.13289        -1.594790      0.002965     -1.905093
      3.30660      7.67856      8.23960         3.637235      0.000227      1.710731
      1.03399      9.59820      9.13289        -1.623537     -0.001217     -1.912984
      9.95982      9.59919     11.85840        -0.000744      0.001491      0.000180
      7.66074      7.67462     12.66094         0.001293      0.000202     -0.001490
      4.70731      7.67687     11.85473         0.000262     -0.002434      0.001502
      2.40379      9.59780     12.66967        -0.001652     -0.000948      0.001655
      0.92290      9.60116     15.48021        -0.000608      0.000977      0.000705
      9.08970      7.67400     16.17963         0.001761      0.000892      0.002215
      6.15678      7.67676     15.45587        -0.002194      0.000363      0.001895
      3.82923      9.59888     16.20807        -0.001269     -0.000663      0.001135
      2.42257      9.59103     19.18546        -0.000634      0.000813     -0.001929
     -0.00339      7.66951     19.71242        -0.002120      0.001444     -0.001578
      7.65232      7.67004     19.09543         0.000236      0.000683      0.000346
      5.26995      9.60912     19.71125        -0.006834     -0.001198     -0.006764
      8.55406      1.91964      8.23960         3.660579     -0.003843      1.727430
      6.28145      0.00000      9.13289        -1.610939     -0.000001     -1.909440
      3.30660      0.00000      8.23960         3.653653     -0.000001      1.721206
      1.03399      1.91964      9.13289        -1.623538      0.001216     -1.912986
      9.95982      1.91865     11.85840        -0.000737     -0.001503      0.000174
      7.65543      0.00000     12.66248         0.000480     -0.000014      0.000602
      4.70832      0.00000     11.85790        -0.000173     -0.000010      0.001417
      2.40379      1.92003     12.66967        -0.001657      0.000943      0.001652
      0.92290      1.91667     15.48021        -0.000600     -0.000989      0.000706
      9.07508      0.00000     16.19262         0.003202     -0.000014      0.004785
      6.16150      0.00000     15.46721         0.000611     -0.000009      0.000609
      3.82923      1.91895     16.20807        -0.001268      0.000659      0.001162
      2.42257      1.92680     19.18546        -0.000597     -0.000795     -0.001900
      0.01982      0.00000     19.71324        -0.001324      0.000011     -0.002280
      7.68120     -0.00000     19.16238         0.003719      0.000047     -0.001174
      5.26995      1.90871     19.71125        -0.006783      0.001278     -0.006728
      8.55406      5.75892      8.23960         3.657231      0.000001      1.713671
      6.28145      3.83928      9.13289        -1.594788     -0.002964     -1.905094
      3.30660      3.83928      8.23960         3.637233     -0.000226      1.710729
      1.03399      5.75892      9.13289        -1.588483      0.000000     -1.869314
      9.97157      5.75892     11.85211        -0.001638      0.000008      0.000583
      7.66074      3.84321     12.66095         0.001289     -0.000188     -0.001506
      4.70731      3.84096     11.85473         0.000262      0.002442      0.001499
      2.40735      5.75892     12.69173         0.002246      0.000004      0.002993
      0.94657      5.75892     15.48065         0.001462      0.000013      0.002186
      9.08970      3.84383     16.17963         0.001756     -0.000878      0.002244
      6.15678      3.84108     15.45587        -0.002199     -0.000355      0.001913
      3.84342      5.75892     16.27700        -0.004277      0.000003     -0.002961
      2.44852      5.75892     19.19225        -0.003006     -0.000014     -0.001959
     -0.00339      3.84832     19.71242        -0.002178     -0.001455     -0.001501
      7.65232      3.84779     19.09543         0.000217     -0.000729      0.000441
      5.27836      5.75892     19.86200        -0.001709     -0.000088     -0.003155
      5.18821      7.67856      7.50000        -1.712740     -0.000272      1.041511
     10.43567      9.59820      7.50000        -1.707443     -0.000041      1.037320
      9.64731      9.59820      9.87249        -0.899848     -0.002599     -0.147236
      6.67245      9.59820      8.97920         0.345598     -0.002565     -0.060085
      8.16307      7.67856      8.39329         0.258901     -0.004584     -1.072399
      6.59270      7.67856     11.07316        -0.067248      0.002675      0.403366
      4.39984      7.67856      9.87249        -0.908077     -0.002495     -0.130315
      1.42498      7.67856      8.97920         0.353293      0.004617     -0.064655
      2.91560      9.59820      8.39329         0.266038     -0.004280     -1.074253
[...]
      2.79392      5.75892     14.66881        -0.001404     -0.000002      0.000770
      2.05242      5.75892     17.07926         0.000874      0.000001      0.001081
      9.52011      5.75892     16.11784         0.001966     -0.000016     -0.000151
      0.54018      3.84157     15.55705         0.001265      0.002657     -0.000262
      9.57591      3.82953     18.16987         0.000213      0.001536      0.003235
      7.30835      3.82019     17.03686        -0.001052      0.000939     -0.002255
      4.27767      3.84186     16.15255        -0.000143     -0.000955     -0.000533
      5.78411      5.75892     15.57699         0.000050     -0.000007     -0.001079
      4.32104      5.75892     18.26591        -0.002588      0.000006      0.001095
      3.61156      5.75892     20.65980         0.000122      0.000014      0.001936
      0.54123      5.75892     19.93759        -0.001537      0.000027      0.000105
      2.02812      3.84200     19.19081         0.002125      0.001613     -0.000282
      8.84491      3.88043     20.57796        -0.000924     -0.000036     -0.002724
      5.81337      3.82021     19.92156         0.000039      0.002244      0.001527
      7.26379      5.75892     19.07654        -0.001170      0.000057      0.001228
    total drift:                                0.002765     -0.000014     -0.001539

  FREE ENERGIE OF THE ION-ELECTRON SYSTEM (eV)
  free  energy   TOTEN  =      -953.98180202 eV

  energy  without entropy=     -953.98180202  energy(sigma->0) =     -953.98180202

 d Force = 0.1682037E-04[-0.882E-07, 0.337E-04]  d Energy = 0.1965123E-04-0.283E-05
 d Force =-0.1417111E+01[-0.142E+01,-0.142E+01]  d Ewald  =-0.1417108E+01-0.235E-05

 reached required accuracy - stopping structural energy minimisation