 vasp.6.3.0 20Jan22 (build Mar 11 2022 13:48:16) complex

 executed on             LinuxIFC date 2024.01.23  11:25:10

 INCAR:
   SYSTEM = TiO2
   ISMEAR = 0
   SIGMA = 0.05
   EDIFF = 1E-5
   ALGO = ALL
   ISTART = 0
   IBRION = -1
   NSW = 0
   ISYM = 0
   ISIF = 2
   EDIFFG = -0.01
   DIPOL = 0.5 0.5 0.5
   IDIPOL = 3
   LDIPOL = .TRUE.
   METAGGA = R2SCAN
   LUSE_VDW = .TRUE.
   BPARAM = 11.95
   CPARAM = 0.0093
   LASPH = .TRUE.
   ENCUT = 600
   PREC = Accurate
   LASPH = .TRUE.
   LREAL = .FALSE.
   ISPIN = 1
   NELM = 200
   NELMIN = 8
   NCORE = 2
   KPAR = 1
   LWAVE = .FALSE.
   LCHARG = .FALSE.

 POTCAR:    PAW_PBE H 15Jun2001
 POTCAR:    PAW_PBE O 08Apr2002
 POTCAR:    PAW_PBE Ti_pv 07Sep2000
 POTCAR:    PAW_PBE O 08Apr2002
|           W    W    AA    RRRRR   N    N  II  N    N   GGGG   !!!           |
|           W    W   A  A   R    R  NN   N  II  NN   N  G    G  !!!           |
|           W    W  A    A  R    R  N N  N  II  N N  N  G       !!!           |
|           W WW W  AAAAAA  RRRRR   N  N N  II  N  N N  G  GGG   !            |
|           WW  WW  A    A  R   R   N   NN  II  N   NN  G    G                |
|           W    W  A    A  R    R  N    N  II  N    N   GGGG   !!!           |
|     For optimal performance we recommend to set                             |
|       NCORE = 2 up to number-of-cores-per-socket                            |
|     This setting can greatly improve the performance of VASP for DFT.       |
|     The default, NCORE=1 might be grossly inefficient on modern             |
|     multi-core architectures or massively parallel machines. Do your        |
|     Unfortunately you need to use the default for GW and RPA                |
|     calculations (for HF NCORE is supported but not extensively tested      |
|     yet).                                                                   |

   TITEL  = PAW_PBE H 15Jun2001
   POMASS =    1.000; ZVAL   =    1.000    mass and valenz
   ENMAX  =  250.000; ENMIN  =  200.000 eV

   TITEL  = PAW_PBE O 08Apr2002
   POMASS =   16.000; ZVAL   =    6.000    mass and valenz
   ENMAX  =  400.000; ENMIN  =  300.000 eV

   TITEL  = PAW_PBE Ti_pv 07Sep2000
   POMASS =   47.880; ZVAL   =   10.000    mass and valenz
   ENMAX  =  222.335; ENMIN  =  166.751 eV

   TITEL  = PAW_PBE O 08Apr2002
   POMASS =   16.000; ZVAL   =    6.000    mass and valenz
   ENMAX  =  400.000; ENMIN  =  300.000 eV

  PAW_PBE H 15Jun2001                   :
  PAW_PBE O 08Apr2002                   :
  PAW_PBE Ti_pv 07Sep2000               :
  PAW_PBE O 08Apr2002                   :

 POSCAR:  H  O Ti  O
  positions in direct lattice

 METAGGA = R2SCA    LMAXTAU =  6    LMIXTAU =  F

 ion  position               nearest neighbor table
   1  0.514  0.549  0.801-   3 0.97
   2  0.617  0.497  0.781-   3 0.99
   3  0.540  0.492  0.781-   1 0.97   2 0.99  83 2.17
   4  0.750  0.625  0.287-  85 1.95 145 1.95 144 1.95  84 1.95  87 1.97 166 1.97  14 2.96  34 2.96

   5  0.000  0.750  0.287-  86 1.95  87 1.95 106 1.95 107 1.95  88 1.97  35 2.96  15 2.96
   6  0.000  0.625  0.394-  88 1.95  89 1.95 148 1.95 149 1.95  90 1.97  91 1.97  16 2.96  36 2.96

[...]

  84  0.750  0.750  0.246-   4 1.95  14 1.95
  85  0.750  0.750  0.329-   4 1.95  14 1.95   7 1.97
  86  0.098  0.625  0.287-   5 1.95  35 1.95  44 1.97
  87  0.902  0.625  0.287-   5 1.95  35 1.95   4 1.97
  88  0.000  0.750  0.352-   6 1.95  16 1.95   5 1.97
  89  0.000  0.750  0.435-   6 1.95  16 1.95   9 1.97
  90  0.848  0.625  0.394-   7 1.95  37 1.95   6 1.97
  91  0.152  0.625  0.394-  47 1.95  77 1.95   6 1.97
  92  0.750  0.750  0.458-   8 1.95  18 1.95   7 1.97
  93  0.750  0.750  0.542-   8 1.95  18 1.95  11 2.08
  94  0.098  0.625  0.500-   9 1.95  39 1.95  48 1.97
  95  0.902  0.625  0.500-   9 1.95  39 1.95   8 1.97
  96  0.000  0.750  0.565-  20 1.90  10 1.90   9 1.99
  97  0.999  0.750  0.649-  13 1.81  10 2.01  20 2.01
  98  0.850  0.625  0.606-  10 1.94  41 1.97  11 1.97
  99  0.150  0.625  0.607-  10 1.95  51 1.97  81 1.97
 100  0.754  0.751  0.671-  11 1.88  12 2.06  22 2.09
 101  0.749  0.749  0.755-  12 1.83  22 1.84
 102  0.095  0.625  0.718-  43 1.94  13 1.94  52 2.03
 103  0.907  0.624  0.719-  43 1.95  13 1.95  12 2.02
 104  0.750  0.000  0.246-  14 1.95  24 1.95
 105  0.750  0.000  0.329-  14 1.95  24 1.95  17 1.97
 106  0.098  0.875  0.287-   5 1.95  15 1.95  54 1.97
 107  0.902  0.875  0.287-   5 1.95  15 1.95  14 1.97
 108  0.000  0.000  0.352-  16 1.95  26 1.95  15 1.97
 109  0.000  0.000  0.435-  16 1.95  26 1.95  19 1.97
 110  0.848  0.875  0.394-   7 1.95  17 1.95  16 1.97
 111  0.152  0.875  0.394-  47 1.95  57 1.95  16 1.97
 112  0.750  0.000  0.458-  18 1.95  28 1.95  17 1.97
 113  0.750  0.000  0.542-  18 1.95  28 1.95  21 2.09
 114  0.098  0.875  0.500-   9 1.95  19 1.95  58 1.97
 115  0.902  0.875  0.500-   9 1.95  19 1.95  18 1.97
 116  0.000  1.000  0.565-  30 1.90  20 1.90  19 1.99
 117  1.000  0.000  0.649-  23 1.81  20 2.01  30 2.01
 118  0.850  0.875  0.607-  20 1.95  21 1.97  11 1.97
 119  0.150  0.875  0.607-  20 1.95  61 1.97  51 1.97
 120  0.751  1.000  0.671-  21 1.88  32 2.08  22 2.08
 121  0.751  1.000  0.755-  32 1.83  22 1.83
 122  0.095  0.875  0.718-  13 1.94  23 1.94  62 2.04
 123  0.907  0.875  0.719-  13 1.94  23 1.94  22 2.03
 124  0.750  0.250  0.246-  24 1.95  34 1.95
 125  0.750  0.250  0.329-  24 1.95  34 1.95  27 1.97
 126  0.098  0.125  0.287-  15 1.95  25 1.95  64 1.97
 127  0.902  0.125  0.287-  15 1.95  25 1.95  24 1.97
 128  0.000  0.250  0.352-  26 1.95  36 1.95  25 1.97
 129  0.000  0.250  0.435-  26 1.95  36 1.95  29 1.97
 130  0.848  0.125  0.394-  17 1.95  27 1.95  26 1.97
 131  0.152  0.125  0.394-  57 1.95  67 1.95  26 1.97
 132  0.750  0.250  0.458-  28 1.95  38 1.95  27 1.97
 133  0.750  0.250  0.542-  28 1.95  38 1.95  31 2.08
 134  0.098  0.125  0.500-  19 1.95  29 1.95  68 1.97
 135  0.902  0.125  0.500-  19 1.95  29 1.95  28 1.97
 136  0.000  0.250  0.565-  30 1.90  40 1.90  29 1.99
 137  1.000  0.250  0.649-  33 1.81  40 2.01  30 2.01
 138  0.850  0.125  0.607-  30 1.95  21 1.97  31 1.97
 139  0.150  0.125  0.607-  30 1.95  61 1.97  71 1.97
 140  0.753  0.250  0.671-  31 1.88  42 2.06  32 2.09
 141  0.750  0.251  0.755-  42 1.82  32 1.84
 142  0.094  0.125  0.718-  33 1.94  23 1.94  72 2.04
 143  0.907  0.125  0.719-  33 1.94  23 1.94  32 2.03
[...]
 229  0.500  0.500  0.435-  46 1.95  76 1.95  79 1.97
 230  0.348  0.375  0.394-  67 1.95  77 1.95  76 1.97
 231  0.652  0.375  0.394-  27 1.95  37 1.95  76 1.97
 232  0.250  0.500  0.458-  48 1.95  78 1.95  77 1.97
 233  0.250  0.500  0.542-  48 1.95  78 1.95  81 2.09
 234  0.598  0.375  0.500-  69 1.95  79 1.95  38 1.97
 235  0.402  0.375  0.500-  69 1.95  79 1.95  78 1.97
 236  0.501  0.500  0.565-  50 1.90  80 1.90  79 2.00
 237  0.499  0.500  0.649-  83 1.91  50 1.98  80 1.98
 238  0.350  0.375  0.607-  80 1.95  71 1.97  81 1.97
 239  0.651  0.375  0.608-  80 1.96  31 1.97  41 1.97
 240  0.251  0.500  0.671-  81 1.87  52 2.09  82 2.09
 241  0.252  0.500  0.755-  82 1.83  52 1.83
 242  0.597  0.371  0.714-  73 1.92  83 1.96  42 2.02
 243  0.407  0.374  0.718-  73 1.93  83 1.94  82 2.03

IMPORTANT INFORMATION: All symmetrisations will be switched off!
NOSYMM: (Re-)initialisation of all symmetry stuff for point group C_1.

                                     Primitive cell

  volume of cell :    4687.8040

  direct lattice vectors                    reciprocal lattice vectors
    12.981773603  0.000000000  0.000000000     0.077031077  0.000000000  0.000000000
     0.000000000 11.829932295  0.000000000     0.000000000  0.084531338  0.000000000
     0.000000000  0.000000000 30.524823105     0.000000000  0.000000000  0.032760223

  length of vectors
    12.981773603 11.829932295 30.524823105     0.077031077  0.084531338  0.032760223

  position of ions in fractional coordinates (direct lattice)
     0.513595840  0.548629554  0.800827429
     0.616511101  0.496671650  0.780657142
     0.540023538  0.492134456  0.780937476
     0.750000000  0.625000000  0.287357103
     0.000000000  0.750000000  0.287357103
     0.000000000  0.625000000  0.393678552
     0.750000000  0.750000000  0.393678552
     0.750000000  0.625000000  0.500000000
     0.000000000  0.750000000  0.500000000
     0.000211700  0.625057327  0.604115026
     0.750279003  0.750110161  0.609702264
     0.751615237  0.626170440  0.718437362
     0.000654728  0.750203895  0.708173326
     0.750000000  0.875000000  0.287357103
     0.000000000  0.000000000  0.287357103
     0.000000000  0.875000000  0.393678552
     0.750000000  0.000000000  0.393678552
     0.750000000  0.875000000  0.500000000
     0.000000000  0.000000000  0.500000000
     0.000011051  0.875026199  0.604229157
     0.749789769  0.000019713  0.609994467
     0.750502303  0.875268176  0.719525304
     0.000710856  0.999975342  0.708143533
     0.750000000  0.125000000  0.287357103
     0.000000000  0.250000000  0.287357103
     0.000000000  0.125000000  0.393678552
     0.750000000  0.250000000  0.393678552
     0.750000000  0.125000000  0.500000000
     0.000000000  0.250000000  0.500000000
     0.999967139  0.124948831  0.604201001
     0.750080171  0.249882947  0.609696278
     0.750345617  0.124543583  0.719521991
     0.000598786  0.249766106  0.708164569
     0.750000000  0.375000000  0.287357103
     0.000000000  0.500000000  0.287357103
     0.000000000  0.375000000  0.393678552
     0.750000000  0.500000000  0.393678552
     0.750000000  0.375000000  0.500000000
     0.000000000  0.500000000  0.500000000
     0.000117269  0.374964558  0.604123314
     0.750836674  0.500002331  0.609889288
     0.751912218  0.373617296  0.718509257
     0.001555925  0.500065338  0.708084294
     0.250000000  0.625000000  0.287357103
     0.500000000  0.750000000  0.287357103
     0.500000000  0.625000000  0.393678552
     0.250000000  0.750000000  0.393678552
     0.250000000  0.625000000  0.500000000
     0.500000000  0.750000000  0.500000000
     0.500159670  0.622876273  0.605277785
     0.250378258  0.749910103  0.610014681
     0.251362989  0.625174817  0.719603145
     0.501116565  0.750385290  0.706989256
     0.250000000  0.875000000  0.287357103
     0.500000000  0.000000000  0.287357103
     0.500000000  0.875000000  0.393678552
     0.250000000  0.000000000  0.393678552
     0.250000000  0.875000000  0.500000000
     0.500000000  0.000000000  0.500000000
     0.499659620  0.874183586  0.603248878
[...]
     0.500000000  0.500000000  0.435333986
     0.347946921  0.375000000  0.393678552
     0.652053079  0.375000000  0.393678552
     0.250000000  0.500000000  0.458344566
     0.250000000  0.500000000  0.541655434
     0.597946921  0.375000000  0.500000000
     0.402053079  0.375000000  0.500000000
     0.500502999  0.499800468  0.565358617
     0.498951037  0.500394648  0.649361059
     0.349724181  0.374971404  0.606814886
     0.650595140  0.375040517  0.607508947
     0.250702613  0.500381002  0.671355078
     0.251934872  0.499937446  0.754894042
     0.597085752  0.371302987  0.713632499
     0.407398304  0.373948546  0.717858986

  ion indices of the primitive-cell ions
   primitive index   ion index
[...]
   6.50538179  8.87700717 21.58072198
   3.24544340 10.35119076  8.77152475
   6.49088680  0.00000000  8.77152475
   6.49088680 10.35119076 12.01696815
   3.24544340  0.00000000 12.01696815
   3.24544340 10.35119076 15.26241155
   6.49088680  0.00000000 15.26241155
   6.48646807 10.34153263 18.41406530
[...]
   6.49088680  5.91496615 13.28849290
   4.51696815  4.43622461 12.01696815
   8.46480545  4.43622461 12.01696815
   3.24544340  5.91496615 13.99088680
   3.24544340  5.91496615 16.53393630
   7.76241155  4.43622461 15.26241155
   5.21936205  4.43622461 15.26241155
   6.49741662  5.91260569 17.25747176
   6.47726940  5.91963481 19.82163147
   4.54004014  4.43588632 18.52291706
   8.44587881  4.43670392 18.54410315
   3.25456456  5.91947338 20.49299499
   3.27056148  5.91422614 23.04300708
   7.75123205  4.39248920 21.78350580
   5.28875255  4.42378599 21.91251856

--------------------------------------- Iteration      FINAL  ---------------------------------------

--------------------OUTCAR has been truncated-------------------------

[...]

--------------------OUTCAR has been truncated-------------------------

  FORCE on cell =-STRESS in cart. coord.  units (eV):
  Direction    XX          YY          ZZ          XY          YZ          ZX
  Alpha Z  4698.38956  4698.38956  4698.38956
  Ewald  983628.03435************************   -26.33332    39.20542   -38.28286
  Hartree************************************    -6.93324     6.70652   -19.44236
  E(xc)   -9167.79111 -9177.04836 -9165.39195     0.14147    -0.24135     0.00148
  Local  ************************************    27.23818   -34.02454    52.71324
  n-local -5200.10317 -5105.75471 -5243.33994    -0.32474     0.03812     0.03083
  augment  5523.54844  5491.78004  5528.77960     0.40409    -0.82259     0.17162
  Kinetic 28815.42572 28343.80019 28874.90102     5.79712   -10.87968     4.69294
  Fock        0.00000     0.00000     0.00000     0.00000     0.00000     0.00000
  Total       4.44039   -44.88982   -35.66093    -0.01044    -0.01810    -0.11511
  in kB       1.51762   -15.34225   -12.18804    -0.00357    -0.00619    -0.03934

 VOLUME and BASIS-vectors are now :
  energy-cutoff  :      600.00
  volume of cell :     4687.80
      direct lattice vectors                 reciprocal lattice vectors
    12.981773603  0.000000000  0.000000000     0.077031077  0.000000000  0.000000000
     0.000000000 11.829932295  0.000000000     0.000000000  0.084531338  0.000000000
     0.000000000  0.000000000 30.524823105     0.000000000  0.000000000  0.032760223

  length of vectors
    12.981773603 11.829932295 30.524823105     0.077031077  0.084531338  0.032760223

 FORCES acting on ions:
    Electron-Ion                     Ewald-Force                    Non-Local-Force
   0.349E+02 -.605E+02 -.459E+03   -.382E+02 0.664E+02 0.465E+03   0.329E+01 -.589E+01 -.551E+01
   -.624E+02 -.215E+01 -.439E+03   0.702E+02 0.236E+01 0.439E+03   -.775E+01 -.211E+00 0.121E+00
   0.532E+02 0.386E+02 -.260E+04   -.712E+02 -.705E+02 0.259E+04   0.180E+02 0.319E+02 0.145E+02
   -.980E-01 -.162E-01 0.381E+04   0.946E-01 0.163E-01 -.381E+04   0.911E-03 0.346E-04 0.443E+00
   -.527E-01 -.316E-01 0.399E+04   0.541E-01 0.317E-01 -.399E+04   -.540E-04 -.137E-04 -.402E+01
   -.215E+00 -.575E-01 0.195E+04   0.223E+00 0.570E-01 -.195E+04   -.134E-02 0.170E-03 -.620E-01
   -.249E+00 -.222E-01 0.194E+04   0.239E+00 0.225E-01 -.194E+04   0.246E-02 0.529E-04 0.221E+00
   -.921E-01 -.155E+00 0.421E+01   0.418E-01 0.135E+00 -.349E+01   0.809E-02 0.115E-02 -.117E+00
   -.871E+00 -.681E+00 0.127E+02   0.900E+00 0.687E+00 -.137E+02   -.962E-02 -.373E-02 0.318E+00
   -.643E+01 -.184E+01 -.188E+04   0.643E+01 0.185E+01 0.188E+04   -.537E-02 -.690E-02 0.146E+00
   -.338E+01 -.740E+01 -.193E+04   0.340E+01 0.740E+01 0.193E+04   -.171E-01 -.665E-02 -.169E+00
   -.716E+02 -.154E+02 -.375E+04   0.714E+02 0.152E+02 0.375E+04   0.195E+00 0.133E+00 -.967E-01
   -.588E+01 -.257E+01 -.381E+04   0.593E+01 0.259E+01 0.381E+04   -.506E-01 -.191E-01 0.116E+01
   -.109E+00 -.210E-01 0.381E+04   0.105E+00 0.214E-01 -.382E+04   0.917E-03 -.411E-04 0.443E+00
   -.501E-01 -.243E-02 0.399E+04   0.514E-01 0.250E-02 -.399E+04   -.616E-04 -.291E-05 -.402E+01
   -.182E+00 -.700E-01 0.195E+04   0.190E+00 0.695E-01 -.195E+04   -.129E-02 0.131E-03 -.620E-01
   -.340E+00 -.165E-01 0.194E+04   0.329E+00 0.162E-01 -.194E+04   0.235E-02 0.963E-05 0.221E+00
   -.141E+01 -.516E+00 0.311E+01   0.137E+01 0.546E+00 -.238E+01   0.647E-02 -.148E-02 -.119E+00
   -.578E+00 -.102E-01 0.117E+02   0.605E+00 0.795E-02 -.127E+02   -.852E-02 0.872E-03 0.316E+00
   -.391E+01 -.144E+01 -.189E+04   0.392E+01 0.145E+01 0.189E+04   -.111E-03 -.746E-02 0.158E+00
   -.206E+01 0.218E+00 -.195E+04   0.208E+01 -.218E+00 0.195E+04   -.188E-01 -.319E-03 -.176E+00
   -.154E+02 -.153E+02 -.379E+04   0.154E+02 0.153E+02 0.379E+04   0.594E-01 0.124E-01 -.243E+00
   -.521E+01 0.230E+00 -.381E+04   0.520E+01 -.228E+00 0.381E+04   0.198E-01 -.165E-02 0.119E+01
   -.108E+00 0.161E-01 0.381E+04   0.104E+00 -.164E-01 -.382E+04   0.923E-03 0.704E-04 0.444E+00
   -.528E-01 0.315E-01 0.399E+04   0.542E-01 -.316E-01 -.399E+04   -.520E-04 0.133E-04 -.402E+01
   -.182E+00 0.597E-01 0.195E+04   0.189E+00 -.593E-01 -.195E+04   -.132E-02 -.131E-03 -.620E-01
   -.230E+00 0.218E-01 0.194E+04   0.220E+00 -.221E-01 -.194E+04   0.237E-02 -.553E-04 0.221E+00
   -.134E+01 0.418E+00 0.309E+01   0.131E+01 -.451E+00 -.236E+01   0.727E-02 0.181E-02 -.119E+00
   -.850E+00 0.683E+00 0.127E+02   0.880E+00 -.686E+00 -.138E+02   -.968E-02 0.275E-02 0.318E+00
   -.326E+01 0.141E+01 -.189E+04   0.326E+01 -.142E+01 0.189E+04   0.178E-02 0.890E-02 0.155E+00
   -.402E+01 0.717E+01 -.193E+04   0.404E+01 -.718E+01 0.193E+04   -.177E-01 0.424E-02 -.175E+00
   -.155E+02 0.154E+02 -.379E+04   0.154E+02 -.154E+02 0.379E+04   0.618E-01 -.219E-02 -.249E+00
   -.554E+01 0.248E+01 -.381E+04   0.559E+01 -.249E+01 0.381E+04   -.490E-01 0.186E-01 0.115E+01
   -.965E-01 0.212E-01 0.381E+04   0.931E-01 -.213E-01 -.381E+04   0.908E-03 -.480E-04 0.444E+00
   -.554E-01 0.244E-02 0.399E+04   0.568E-01 -.253E-02 -.399E+04   -.684E-04 0.960E-06 -.402E+01
   -.215E+00 0.678E-01 0.195E+04   0.223E+00 -.672E-01 -.195E+04   -.136E-02 -.164E-03 -.620E-01
   -.142E+00 0.169E-01 0.194E+04   0.132E+00 -.166E-01 -.194E+04   0.220E-02 -.285E-04 0.221E+00
   0.373E-02 0.254E+00 0.412E+01   -.558E-01 -.231E+00 -.340E+01   0.846E-02 -.131E-02 -.117E+00
   -.104E+01 0.108E-01 0.137E+02   0.107E+01 -.112E-01 -.147E+02   -.101E-01 0.372E-04 0.315E+00
   -.623E+01 0.186E+01 -.188E+04   0.624E+01 -.186E+01 0.188E+04   -.403E-02 0.510E-02 0.150E+00
   -.369E+01 -.572E-01 -.192E+04   0.374E+01 0.567E-01 0.192E+04   -.550E-01 0.547E-03 -.170E+00
   -.719E+02 0.143E+02 -.375E+04   0.718E+02 -.141E+02 0.375E+04   0.149E+00 -.150E+00 -.974E-01
   -.819E+01 -.805E-01 -.381E+04   0.816E+01 0.790E-01 0.381E+04   0.354E-01 0.190E-02 0.111E+01
   0.991E-01 -.122E-01 0.381E+04   -.954E-01 0.121E-01 -.381E+04   -.121E-02 0.218E-04 0.443E+00
   0.513E-01 -.145E-01 0.399E+04   -.532E-01 0.149E-01 -.399E+04   0.577E-03 -.245E-04 -.402E+01
   0.195E+00 0.121E+00 0.195E+04   -.202E+00 -.110E+00 -.195E+04   0.890E-03 -.225E-02 -.641E-01
   0.269E+00 0.258E-01 0.194E+04   -.260E+00 -.258E-01 -.194E+04   -.184E-02 0.345E-05 0.216E+00
   0.976E+00 0.689E-01 0.196E+01   -.929E+00 -.811E-01 -.117E+01   -.116E-01 0.817E-03 -.129E+00
   0.100E+01 0.106E+01 0.158E+02   -.101E+01 -.114E+01 -.166E+02   -.450E-02 0.366E-01 0.246E+00
   0.167E+01 -.116E+02 -.188E+04   -.167E+01 0.116E+02 0.188E+04   0.989E-02 -.687E-01 0.933E-01
   0.104E+02 -.474E+01 -.194E+04   -.104E+02 0.473E+01 0.194E+04   -.240E-01 0.128E-01 -.162E+00
   0.357E+02 -.135E+02 -.377E+04   -.357E+02 0.135E+02 0.377E+04   0.793E-01 0.288E-02 -.282E+00
   0.202E+02 -.553E+02 -.376E+04   -.201E+02 0.553E+02 0.376E+04   -.161E+00 -.211E-01 0.128E+01
   0.110E+00 -.171E-01 0.381E+04   -.106E+00 0.173E-01 -.381E+04   -.127E-02 -.222E-04 0.443E+00
   0.488E-01 -.478E-02 0.399E+04   -.507E-01 0.483E-02 -.399E+04   0.576E-03 0.123E-05 -.402E+01
   0.165E+00 0.739E-01 0.195E+04   -.171E+00 -.735E-01 -.195E+04   0.810E-03 -.889E-03 -.649E-01
   0.357E+00 -.174E-01 0.194E+04   -.347E+00 0.173E-01 -.194E+04   -.191E-02 0.343E-04 0.216E+00
   0.208E+01 -.430E-01 0.167E+01   -.205E+01 0.479E-01 -.885E+00   -.588E-02 -.637E-03 -.127E+00
   0.575E+00 -.209E+00 0.189E+02   -.581E+00 0.209E+00 -.199E+02   -.169E-02 -.691E-03 0.274E+00
   -.180E+01 -.103E+02 -.186E+04   0.178E+01 0.103E+02 0.186E+04   0.274E-01 -.165E-02 0.791E-03
[...]
   -.530E+02 -.265E-01 0.116E+04   0.570E+02 0.258E-01 -.116E+04   -.362E+01 0.832E-03 0.174E+00
   0.531E+02 -.126E-01 0.116E+04   -.572E+02 0.120E-01 -.116E+04   0.363E+01 0.999E-03 0.183E+00
   0.199E+00 0.339E-01 0.509E+03   -.182E+00 -.343E-01 -.514E+03   -.231E-01 0.972E-03 0.431E+01
   0.151E+01 0.211E+00 -.522E+03   -.147E+01 -.210E+00 0.529E+03   -.516E-01 -.235E-02 -.714E+01
   -.543E+02 -.305E+00 0.752E+01   0.591E+02 0.301E+00 -.769E+01   -.519E+01 0.237E-01 0.233E+00
   0.551E+02 -.365E+00 0.703E+01   -.599E+02 0.358E+00 -.720E+01   0.525E+01 0.277E-01 0.240E+00
   -.537E+00 0.694E+00 -.624E+03   0.674E+00 -.797E+00 0.617E+03   -.137E+00 0.103E+00 0.687E+01
   0.124E+02 -.176E+01 -.162E+04   -.130E+02 0.182E+01 0.162E+04   0.564E+00 -.625E-01 -.189E+01
   -.245E+02 0.283E+01 -.113E+04   0.277E+02 -.298E+01 0.113E+04   -.319E+01 0.155E+00 0.113E+01
   0.289E+02 0.293E+01 -.114E+04   -.322E+02 -.294E+01 0.114E+04   0.330E+01 0.237E-02 0.535E+00
   0.135E+02 -.714E+00 -.182E+04   -.134E+02 0.710E+00 0.182E+04   -.718E-01 0.483E-02 -.210E+01
   0.373E+02 0.674E+00 -.273E+04   -.373E+02 -.740E+00 0.276E+04   -.593E-01 0.664E-01 -.213E+02
   -.473E+02 0.450E+02 -.223E+04   0.536E+02 -.448E+02 0.223E+04   -.627E+01 -.153E+00 -.430E+00
   0.646E+02 0.328E+02 -.232E+04   -.710E+02 -.328E+02 0.232E+04   0.638E+01 -.801E-01 -.345E+01
   -.124E+02 -.262E+02 0.806E+02   0.568E-12 -.106E-11 -.227E-10   0.125E+02 0.262E+02 -.806E+02

 POSITION                                       TOTAL-FORCE (eV/Angst)
      6.66738      6.49025     24.44512         0.002114      0.005956     -0.003271
      8.00341      5.87559     23.82942         0.000742     -0.006405      0.005339
      7.01046      5.82192     23.83798        -0.007695      0.001116      0.001707
      9.73633      7.39371      8.77152        -0.003033      0.000134     -3.754153
      0.00000      8.87245      8.77152         0.000788      0.000105      2.941060
      0.00000      7.39371     12.01697         0.005613     -0.000282      0.539772
      9.73633      8.87245     12.01697        -0.008186      0.000382     -0.769346
      9.73633      7.39371     15.26241        -0.042347     -0.018740      0.597309
      0.00000      8.87245     15.26241         0.018993      0.002587     -0.735519
      0.00275      7.39439     18.44050         0.000500     -0.001546      0.001818
      9.73995      8.87375     18.61105         0.000850      0.000893     -0.002705
      9.75730      7.40755     21.93017        -0.004856      0.002168      0.001795
      0.00850      8.87486     21.61687         0.000871     -0.002910     -0.001876
      9.73633     10.35119      8.77152        -0.003161      0.000296     -3.754219
      0.00000      0.00000      8.77152         0.000760      0.000078      2.940807
      0.00000     10.35119     12.01697         0.005407     -0.000381      0.539578
      9.73633      0.00000     12.01697        -0.008434     -0.000213     -0.769687
      9.73633     10.35119     15.26241        -0.030640      0.027935      0.605312
      0.00000      0.00000     15.26241         0.018545     -0.001390     -0.730605
      0.00014     10.35150     18.44399         0.000188     -0.001194     -0.002151
      9.73360      0.00023     18.61997        -0.003462      0.000072      0.002277
      9.74285     10.35436     21.96338         0.005564      0.001989     -0.001311
      0.00923     11.82964     21.61596         0.002816      0.000213     -0.005257
      9.73633      1.47874      8.77152        -0.003131     -0.000187     -3.754342
      0.00000      2.95748      8.77152         0.000839     -0.000079      2.940913
      0.00000      1.47874     12.01697         0.005516      0.000309      0.539401
      9.73633      2.95748     12.01697        -0.008040     -0.000326     -0.769881
      9.73633      1.47874     15.26241        -0.029960     -0.030850      0.603230
      0.00000      2.95748     15.26241         0.020233     -0.000867     -0.736529
     12.98135      1.47814     18.44313         0.001360      0.001595     -0.000633
      9.73737      2.95610     18.61087         0.001253     -0.001128     -0.001566
      9.74082      1.47334     21.96328         0.004752     -0.002367     -0.000452
      0.00777      2.95472     21.61660         0.002960      0.001390     -0.001757
      9.73633      4.43622      8.77152        -0.003009     -0.000173     -3.754277
      0.00000      5.91497      8.77152         0.000809     -0.000073      2.941048
      0.00000      4.43622     12.01697         0.005723      0.000421      0.539699
      9.73633      5.91497     12.01697        -0.007867      0.000204     -0.769548
      9.73633      4.43622     15.26241        -0.043721      0.021624      0.596064
      0.00000      5.91497     15.26241         0.019727     -0.000314     -0.740055
      0.00152      4.43581     18.44076         0.001013      0.001674      0.001380
      9.74719      5.91499     18.61676        -0.005613     -0.000109      0.000066
      9.76115      4.41987     21.93237        -0.002882     -0.004136      0.001073
      0.02020      5.91574     21.61415         0.000342      0.000544      0.001805
      3.24544      7.39371      8.77152         0.001963     -0.000077     -3.751516
      6.49089      8.87245      8.77152        -0.001804      0.000313      2.947159
      6.49089      7.39371     12.01697        -0.006220      0.008194      0.562049
      3.24544      8.87245     12.01697         0.006689      0.000081     -0.751357
      3.24544      7.39371     15.26241         0.034470     -0.011231      0.656075
      6.49089      8.87245     15.26241        -0.009666     -0.044991     -0.609401
      6.49296      7.36858     18.47600        -0.001108     -0.002548     -0.000080
      3.25035      8.87139     18.62059         0.002133     -0.000708     -0.001317
      3.26314      7.39578     21.96576         0.003597      0.000342      0.001020
      6.50538      8.87701     21.58072         0.000035     -0.004636     -0.006194
      3.24544     10.35119      8.77152         0.002077      0.000239     -3.751721
      6.49089      0.00000      8.77152        -0.001775      0.000062      2.947119
      6.49089     10.35119     12.01697        -0.006055     -0.000540      0.563072
      3.24544      0.00000     12.01697         0.006900     -0.000037     -0.751901
      3.24544     10.35119     15.26241         0.021340      0.004233      0.651582
      6.49089      0.00000     15.26241        -0.008294     -0.001461     -0.802196
      6.48647     10.34153     18.41407         0.000333     -0.001176      0.000421
[...]
      6.49089      5.91497     13.28849         0.001929     -0.000565     -0.143432
      4.51697      4.43622     12.01697         0.443680      0.000197      0.055780
      8.46481      4.43622     12.01697        -0.437859      0.000339      0.058080
      3.24544      5.91497     13.99089        -0.006771      0.000569     -0.082302
      3.24544      5.91497     16.53394        -0.017970     -0.001781      0.039664
      7.76241      4.43622     15.26241        -0.408822      0.019603      0.064016
      5.21936      4.43622     15.26241         0.442128      0.021015      0.072442
      6.49742      5.91261     17.25747        -0.000172      0.000040      0.004327
      6.47727      5.91963     19.82163         0.003672     -0.000111      0.001410
      4.54004      4.43589     18.52292        -0.001087      0.000018      0.002079
      8.44588      4.43670     18.54410         0.003806     -0.003801     -0.002036
      3.25456      5.91947     20.49299         0.001779      0.000905      0.002654
      3.27056      5.91423     23.04301        -0.001000      0.000565      0.000352
      7.75123      4.39249     21.78351         0.000749      0.001866      0.002857
      5.28875      4.42379     21.91252         0.000467     -0.001958     -0.000616
    total drift:                                0.121627     -0.003205      0.066925

  FREE ENERGIE OF THE ION-ELECTRON SYSTEM (eV)
  free  energy   TOTEN  =     -2726.65367019 eV

  energy  without entropy=    -2726.65367019  energy(sigma->0) =    -2726.65367019