 vasp.6.4.2 20Jul23 (build Feb 22 2024 13:53:45) complex
 executed on              LinuxNV date 2024.08.30  16:58:54
 OpenACC runtime initialized ...    4 GPUs detected

 INCAR:
   SYSTEM = Oxide-Surface
   ISMEAR = 0
   SIGMA = 0.05
   EDIFF = 1E-5
   ALGO = Normal
   IBRION = -1
   NSW = 0
   ISYM = 0
   DIPOL = 0.5 0.5 0.5
   IDIPOL = 3
   LDIPOL = .TRUE.
   ISTART = 0
   LHFCALC = .FALSE.
   GGA = PE
   IVDW = 21
   VDW_SR = 0.96
   HFRCUT = -1
   ENCUT = 520
   PREC = Normal
   PRECFOCK = Normal
   LASPH = .TRUE.
   LREAL = Auto
   ISPIN = 1
   NELM = 200
   NELMIN = 8
   NCORE = 1
   KPAR = 1
   LWAVE = .TRUE.
   LCHARG = .FALSE.

 POTCAR:    PAW_PBE Ti_pv 07Sep2000
 POTCAR:    PAW_PBE O 08Apr2002
 POTCAR:    PAW_PBE Ti_pv 07Sep2000
   VRHFIN =Ti: d3 s1

   TITEL  = PAW_PBE Ti_pv 07Sep2000
   POMASS =   47.880; ZVAL   =   10.000    mass and valenz
   ENMAX  =  222.335; ENMIN  =  166.751 eV

   TITEL  = PAW_PBE O 08Apr2002
   POMASS =   16.000; ZVAL   =    6.000    mass and valenz
   ENMAX  =  400.000; ENMIN  =  300.000 eV

 Optimization of the real space projectors (new method)

 maximal supplied QI-value         = 15.12
 optimisation between [QCUT,QGAM] = [ 11.64, 23.28] = [ 37.95,151.78] Ry
 Optimized for a Real-space Cutoff    1.45 Angstroem

   l    n(q)    QCUT    max X(q) W(low)/X(q) W(high)/X(q)  e(spline)
   1     10    11.641     4.216    0.33E-04    0.72E-04    0.48E-07
   1     10    11.641     5.422    0.11E-03    0.20E-03    0.10E-06
   2      9    11.641    72.084    0.36E-03    0.27E-03    0.57E-06
   2      9    11.641    65.965    0.35E-03    0.27E-03    0.57E-06
   0     10    11.641    41.531    0.11E-03    0.93E-04    0.16E-06
   0     10    11.641    16.290    0.82E-04    0.72E-04    0.13E-06
 Optimization of the real space projectors (new method)

 maximal supplied QI-value         = 24.76
 optimisation between [QCUT,QGAM] = [ 11.64, 23.27] = [ 37.91,151.63] Ry
 Optimized for a Real-space Cutoff    1.04 Angstroem

   l    n(q)    QCUT    max X(q) W(low)/X(q) W(high)/X(q)  e(spline)
   0      7    11.635    20.381    0.14E-03    0.49E-03    0.18E-06
   0      7    11.635    15.268    0.16E-03    0.52E-03    0.19E-06
   1      7    11.635     5.964    0.30E-03    0.44E-03    0.22E-06
   1      7    11.635     5.382    0.27E-03    0.34E-03    0.19E-06
  PAW_PBE Ti_pv 07Sep2000               :
  PAW_PBE O 08Apr2002                   :

 POSCAR: Ti  O
  positions in direct lattice
 exchange correlation table for  LEXCH =        8
   RHO(1)=    0.500       N(1)  =     2000
   RHO(2)=  100.500       N(2)  =     4000

 ion  position               nearest neighbor table
   1  0.796  0.625  0.211-  82 1.95 142 1.95 141 1.95  81 1.95  84 1.98 163 1.98  11 2.96  31 2.96

   2  0.046  0.750  0.211-  83 1.95  84 1.95 103 1.95 104 1.95  85 1.98  32 2.96  12 2.96
   3  0.046  0.625  0.341-  85 1.95 145 1.95  86 1.95 146 1.95  87 1.98  88 1.98  13 2.96  33 2.96

[...]

  80  0.548  0.499  0.729- 234 1.89 240 1.93 180 1.94 239 1.96 179 1.98  70 2.96  50 2.97
  81  0.796  0.750  0.160-   1 1.95  11 1.95
  82  0.796  0.750  0.262-   1 1.95  11 1.95   4 1.98
  83  0.144  0.625  0.211-   2 1.95  32 1.95  41 1.98
  84  0.948  0.625  0.211-   2 1.95  32 1.95   1 1.98
  85  0.046  0.750  0.290-   3 1.95  13 1.95   2 1.98
  86  0.046  0.750  0.392-   3 1.95  13 1.95   6 1.98
  87  0.894  0.625  0.341-   4 1.95  34 1.95   3 1.98
  88  0.198  0.625  0.341-  44 1.95  74 1.95   3 1.98
  89  0.796  0.750  0.420-   5 1.95  15 1.95   4 1.98
  90  0.796  0.750  0.522-   5 1.95  15 1.95   8 2.10
  91  0.144  0.625  0.471-   6 1.95  36 1.95  45 1.98
  92  0.948  0.625  0.471-   6 1.95  36 1.95   5 1.98
  93  0.047  0.750  0.551-  17 1.90   7 1.90   6 2.00
  94  0.047  0.750  0.653-  10 1.81   7 2.02  17 2.02
  95  0.898  0.625  0.601-   8 1.93  38 1.93   7 2.03
  96  0.197  0.625  0.602-   7 1.87  48 2.02  78 2.02
  97  0.801  0.751  0.680-   8 1.87   9 2.08  19 2.09
  98  0.796  0.749  0.783-   9 1.83  19 1.84
  99  0.142  0.625  0.738-  40 1.94  10 1.95  49 2.03
 100  0.954  0.624  0.740-  40 1.95  10 1.96   9 2.02
 101  0.796  0.000  0.160-  11 1.95  21 1.95
 102  0.796  0.000  0.262-  11 1.95  21 1.95  14 1.98
 103  0.144  0.875  0.211-   2 1.95  12 1.95  51 1.98
 104  0.948  0.875  0.211-   2 1.95  12 1.95  11 1.98
 105  0.046  0.000  0.290-  13 1.95  23 1.95  12 1.98
 106  0.046  0.000  0.392-  13 1.95  23 1.95  16 1.98
 107  0.894  0.875  0.341-   4 1.95  14 1.95  13 1.98
 108  0.198  0.875  0.341-  44 1.95  54 1.95  13 1.98
 109  0.796  0.000  0.420-  15 1.95  25 1.95  14 1.98
 110  0.796  0.000  0.522-  15 1.95  25 1.95  18 2.10
 111  0.144  0.875  0.471-   6 1.95  16 1.95  55 1.98
 112  0.948  0.875  0.471-   6 1.95  16 1.95  15 1.98
 113  0.047  1.000  0.551-  27 1.90  17 1.90  16 2.00
 114  0.047  1.000  0.653-  20 1.81  17 2.02  27 2.02
 115  0.897  0.875  0.602-  18 1.93   8 1.93  17 2.04
 116  0.197  0.875  0.602-  17 1.87  48 2.02  58 2.02
 117  0.798  1.000  0.681-  18 1.87  29 2.09  19 2.10
 118  0.797  1.000  0.784-  29 1.83  19 1.84
 119  0.142  0.875  0.738-  10 1.94  20 1.95  59 2.04
 120  0.954  0.875  0.739-  10 1.94  20 1.95  19 2.04
 121  0.796  0.250  0.160-  21 1.95  31 1.95
 122  0.796  0.250  0.262-  21 1.95  31 1.95  24 1.98
 123  0.144  0.125  0.211-  12 1.95  22 1.95  61 1.98
 124  0.948  0.125  0.211-  12 1.95  22 1.95  21 1.98
 125  0.046  0.250  0.290-  23 1.95  33 1.95  22 1.98
 126  0.046  0.250  0.392-  23 1.95  33 1.95  26 1.98
 127  0.894  0.125  0.341-  14 1.95  24 1.95  23 1.98
 128  0.198  0.125  0.341-  54 1.95  64 1.95  23 1.98
 129  0.796  0.250  0.420-  25 1.95  35 1.95  24 1.98
 130  0.796  0.250  0.522-  25 1.95  35 1.95  28 2.10
 131  0.144  0.125  0.471-  16 1.95  26 1.95  65 1.98
 132  0.948  0.125  0.471-  16 1.95  26 1.95  25 1.98
 133  0.047  0.250  0.551-  37 1.90  27 1.90  26 2.00
 134  0.047  0.250  0.653-  30 1.81  37 2.02  27 2.02
 135  0.897  0.125  0.602-  18 1.93  28 1.93  27 2.04
 136  0.197  0.125  0.602-  27 1.87  58 2.02  68 2.02
 137  0.800  0.250  0.680-  28 1.87  39 2.07  29 2.10
 138  0.796  0.251  0.783-  39 1.83  29 1.84
 139  0.142  0.125  0.738-  30 1.94  20 1.95  69 2.04
[...]
 226  0.546  0.500  0.392-  43 1.95  73 1.95  76 1.98
 227  0.394  0.375  0.341-  64 1.95  74 1.95  73 1.98
 228  0.698  0.375  0.341-  24 1.95  34 1.95  73 1.98
 229  0.296  0.500  0.420-  45 1.95  75 1.95  74 1.98
 230  0.296  0.500  0.522-  45 1.95  75 1.95  78 2.11
 231  0.644  0.375  0.471-  66 1.95  76 1.95  35 1.98
 232  0.448  0.375  0.471-  66 1.95  76 1.95  75 1.98
 233  0.548  0.500  0.551-  47 1.90  77 1.90  76 2.00
 234  0.546  0.500  0.654-  80 1.89  47 1.99  77 1.99
 235  0.397  0.375  0.602-  68 1.92  78 1.93  77 2.04
 236  0.698  0.375  0.603-  77 1.87  28 2.02  38 2.02
 237  0.298  0.500  0.681-  78 1.86  49 2.09  79 2.10
 238  0.299  0.500  0.784-  79 1.84  49 1.84
 239  0.644  0.372  0.733-  70 1.92  80 1.96  39 2.02
 240  0.454  0.374  0.737-  80 1.93  70 1.94  79 2.03

IMPORTANT INFORMATION: All symmetrisations will be switched off!
NOSYMM: (Re-)initialisation of all symmetry stuff for point group C_1.

                                     Primitive cell

  volume of cell :    3846.0501

  direct lattice vectors                    reciprocal lattice vectors
    13.003980404  0.000000000  0.000000000     0.076899531  0.000000000  0.000000000
     0.000000000 11.830378115  0.000000000     0.000000000  0.084528152  0.000000000
     0.000000000  0.000000000 25.000000000     0.000000000  0.000000000  0.040000000

  length of vectors
    13.003980404 11.830378115 25.000000000     0.076899531  0.084528152  0.040000000

  position of ions in fractional coordinates (direct lattice)
     0.796469805  0.625012682  0.210890236
     0.046469805  0.750012682  0.210890236
     0.046469805  0.625012682  0.340930040
     0.796469805  0.750012682  0.340930040
     0.796469805  0.625012682  0.470969844
     0.046469805  0.750012682  0.470969844
     0.053623656  0.625026990  0.598131909
     0.802773807  0.750088464  0.605722728
     0.798114496  0.625575600  0.738920944
     0.047264667  0.750185234  0.725389851
     0.796469805  0.875012682  0.210890236
     0.046469805  0.000012682  0.210890236
     0.046469805  0.875012682  0.340930040
     0.796469805  0.000012682  0.340930040
     0.796469805  0.875012682  0.470969844
     0.046469805  0.000012682  0.470969844
     0.053747774  0.875000886  0.598216515
     0.802293775  0.999949401  0.606062736
     0.797028260  0.874814460  0.740091583
     0.047442171  0.999873346  0.725337059
     0.796469805  0.125012682  0.210890236
     0.046469805  0.250012682  0.210890236
     0.046469805  0.125012682  0.340930040
     0.796469805  0.250012682  0.340930040
     0.796469805  0.125012682  0.470969844
     0.046469805  0.250012682  0.470969844
     0.053768063  0.124930326  0.598191771
     0.802754763  0.249821140  0.605692176
     0.796924074  0.124177669  0.740077984
     0.047361621  0.249559835  0.725368873
     0.796469805  0.375012682  0.210890236
     0.046469805  0.500012682  0.210890236
     0.046469805  0.375012682  0.340930040
     0.796469805  0.500012682  0.340930040
     0.796469805  0.375012682  0.470969844
     0.046469805  0.500012682  0.470969844
     0.053648518  0.374955751  0.598133362
     0.803033051  0.499971001  0.605916512
     0.798652412  0.373387703  0.738962983
     0.048099410  0.500010489  0.725307002
     0.296469805  0.625012682  0.210890236
     0.546469805  0.750012682  0.210890236
     0.546469805  0.625012682  0.340930040
     0.296469805  0.750012682  0.340930040
     0.296469805  0.625012682  0.470969844
     0.546469805  0.750012682  0.470969844
     0.553789888  0.622920794  0.599533192
     0.302783524  0.749876682  0.606056658
     0.297794688  0.625086510  0.740151961
     0.547996109  0.750059170  0.723945844
     0.296469805  0.875012682  0.210890236
     0.546469805  0.000012682  0.210890236
     0.546469805  0.875012682  0.340930040
     0.296469805  0.000012682  0.340930040
     0.296469805  0.875012682  0.470969844
     0.546469805  0.000012682  0.470969844
     0.553557721  0.874100632  0.597032342
     0.302597894  0.999958622  0.606104960
     0.298197932  0.874978298  0.740168140
     0.546757142  0.999874189  0.724189594
[...]
     0.546469805  0.500012682  0.391905408
     0.394469353  0.375012682  0.340930040
     0.698470257  0.375012682  0.340930040
     0.296469805  0.500012682  0.419994476
     0.296469805  0.500012682  0.521945212
     0.644469353  0.375012682  0.470969844
     0.448470257  0.375012682  0.470969844
     0.547587190  0.499791526  0.551058290
     0.546182982  0.500399425  0.653786666
     0.396861682  0.375007442  0.601867252
     0.697795746  0.375003800  0.602561805
     0.297652105  0.500392716  0.680704424
     0.298820498  0.499848928  0.783548042
     0.643989967  0.371507167  0.732558045
     0.453805715  0.373893743  0.737234794

  ion indices of the primitive-cell ions
   primitive index   ion index
                 1           1
                 2           2
                 3           3
                 4           4
                 5           5
                 6           6
[...]
     0.000000000  0.000000000 25.000000000     0.000000000  0.000000000  0.040000000

  length of vectors
    13.003980404 11.830378115 25.000000000     0.076899531  0.084528152  0.040000000

 FORCES acting on ions
    electron-ion (+dipol)            ewald-force                    non-local-force                 convergence-correction
   0.160E-01 0.328E-01 0.282E+04   -.172E-01 -.326E-01 -.282E+04   0.185E-02 0.417E-03 0.437E+00   0.207E-05 0.236E-04 0.244E-02
   0.219E-02 0.288E-01 0.300E+04   -.115E-02 -.287E-01 -.299E+04   0.107E-02 0.399E-04 -.389E+01   -.316E-03 -.195E-04 0.702E-03
   -.540E-01 0.561E-01 0.144E+04   0.575E-01 -.560E-01 -.144E+04   -.278E-06 -.140E-03 -.431E-01   -.880E-04 0.857E-04 0.993E-03
   -.461E-01 0.167E+00 0.143E+04   0.410E-01 -.166E+00 -.143E+04   0.152E-02 -.206E-03 0.207E+00   -.256E-04 -.105E-03 -.321E-03
   0.221E+00 0.602E+00 -.219E+02   -.240E+00 -.619E+00 0.227E+02   0.821E-02 0.309E-03 -.129E+00   -.768E-04 0.407E-04 0.433E-03
   0.189E+01 0.147E-01 -.108E+02   -.190E+01 -.102E-01 0.971E+01   -.126E-02 -.225E-02 0.331E+00   0.158E-03 -.974E-04 0.359E-03
   0.152E+02 0.921E-01 -.142E+04   -.153E+02 -.852E-01 0.142E+04   0.524E-01 -.725E-02 0.519E-01   0.210E-03 0.351E-04 0.982E-03
   0.106E+02 -.115E+01 -.146E+04   -.106E+02 0.119E+01 0.146E+04   -.542E-01 -.155E-01 -.983E-01   -.365E-03 -.891E-04 0.115E-02
   -.132E+02 0.141E+02 -.279E+04   0.133E+02 -.147E+02 0.279E+04   0.128E+00 0.102E+00 -.154E+00   -.452E-03 -.549E-03 0.222E-02
   -.796E+00 0.474E+01 -.286E+04   0.755E+00 -.477E+01 0.286E+04   -.245E-01 -.657E-02 0.905E+00   0.736E-04 -.212E-04 0.123E-02
   0.247E-02 0.231E-01 0.282E+04   -.421E-02 -.228E-01 -.282E+04   0.189E-02 -.787E-03 0.437E+00   0.138E-03 -.136E-03 0.236E-02
   0.529E-03 -.591E-02 0.300E+04   -.805E-04 0.580E-02 -.299E+04   0.393E-02 0.836E-04 -.389E+01   -.218E-03 -.196E-04 0.643E-03
   -.316E-01 0.388E-01 0.144E+04   0.349E-01 -.391E-01 -.144E+04   -.421E-06 0.518E-03 -.431E-01   0.325E-04 -.768E-04 0.102E-02
   -.159E+00 -.193E-01 0.143E+04   0.153E+00 0.187E-01 -.143E+04   0.430E-02 -.297E-03 0.208E+00   -.271E-04 0.114E-03 -.192E-03
   -.146E+01 0.213E+00 -.214E+02   0.145E+01 -.190E+00 0.222E+02   0.787E-02 -.433E-03 -.133E+00   -.173E-03 -.804E-04 0.355E-03
   0.224E+01 -.442E-01 -.110E+02   -.224E+01 0.406E-01 0.100E+02   0.168E-02 0.142E-02 0.330E+00   0.126E-03 0.929E-04 0.430E-03
   0.175E+02 0.317E+00 -.142E+04   -.176E+02 -.317E+00 0.142E+04   0.494E-01 -.506E-02 0.616E-01   0.264E-03 0.561E-04 0.105E-02
   0.997E+01 -.741E-01 -.146E+04   -.991E+01 0.714E-01 0.146E+04   -.541E-01 -.182E-02 -.102E+00   -.213E-03 0.100E-04 0.146E-02
   0.135E+00 -.109E+01 -.279E+04   -.111E+00 0.968E+00 0.279E+04   0.286E-01 0.161E-01 -.170E+00   -.143E-03 0.764E-04 0.162E-02
   -.211E+01 0.214E+00 -.286E+04   0.205E+01 -.229E+00 0.286E+04   0.357E-01 0.117E-02 0.943E+00   0.402E-05 0.712E-04 0.121E-02
   0.484E-02 -.333E-01 0.282E+04   -.621E-02 0.326E-01 -.282E+04   0.191E-02 0.412E-03 0.437E+00   -.154E-03 0.143E-03 0.237E-02
   0.136E-02 -.289E-01 0.300E+04   -.407E-03 0.287E-01 -.299E+04   0.107E-02 0.494E-04 -.389E+01   -.211E-03 0.710E-04 0.722E-03
   -.312E-01 -.535E-01 0.144E+04   0.348E-01 0.533E-01 -.144E+04   -.582E-04 -.265E-03 -.430E-01   -.549E-04 0.986E-04 0.102E-02
   -.263E-01 -.167E+00 0.143E+04   0.216E-01 0.167E+00 -.143E+04   0.143E-02 -.158E-03 0.208E+00   -.594E-04 -.702E-04 -.245E-03
   -.138E+01 -.321E+00 -.215E+02   0.138E+01 0.289E+00 0.223E+02   0.809E-02 0.106E-02 -.132E+00   -.458E-04 0.727E-04 0.253E-03
   0.193E+01 -.387E-01 -.108E+02   -.193E+01 0.356E-01 0.972E+01   -.156E-02 0.232E-02 0.333E+00   0.664E-04 -.816E-04 0.375E-03
   0.182E+02 -.303E+00 -.142E+04   -.183E+02 0.296E+00 0.142E+04   0.524E-01 0.626E-02 0.612E-01   0.236E-03 -.603E-04 0.102E-02
   0.106E+02 0.801E+00 -.146E+04   -.105E+02 -.832E+00 0.146E+04   -.572E-01 0.105E-01 -.103E+00   -.207E-03 0.459E-04 0.130E-02
   0.315E+00 -.177E+01 -.279E+04   -.254E+00 0.186E+01 0.279E+04   0.205E-01 -.299E-01 -.162E+00   -.857E-04 -.224E-03 0.138E-02
   -.127E+00 -.488E+01 -.286E+04   0.758E-01 0.492E+01 0.286E+04   -.177E-01 0.176E-02 0.905E+00   0.174E-04 -.126E-04 0.128E-02
   0.180E-01 -.226E-01 0.282E+04   -.192E-01 0.228E-01 -.282E+04   0.179E-02 -.850E-03 0.437E+00   0.268E-04 -.253E-04 0.241E-02
   0.197E-02 0.599E-02 0.300E+04   -.156E-02 -.584E-02 -.299E+04   0.397E-02 0.612E-04 -.389E+01   -.237E-03 -.328E-04 0.639E-03
   -.544E-01 -.414E-01 0.144E+04   0.579E-01 0.419E-01 -.144E+04   -.271E-04 0.309E-03 -.430E-01   -.202E-05 -.107E-03 0.965E-03
   0.837E-01 0.198E-01 0.143E+04   -.881E-01 -.194E-01 -.143E+04   0.386E-02 -.311E-03 0.208E+00   -.704E-04 0.611E-04 -.338E-03
   0.327E+00 -.487E+00 -.220E+02   -.347E+00 0.511E+00 0.228E+02   0.862E-02 -.101E-02 -.129E+00   -.955E-04 -.334E-04 0.349E-03
   0.180E+01 0.337E-02 -.105E+02   -.180E+01 -.307E-02 0.945E+01   0.891E-03 0.393E-03 0.332E+00   0.911E-04 0.863E-04 0.444E-03
   0.156E+02 0.427E-01 -.142E+04   -.157E+02 -.408E-01 0.142E+04   0.512E-01 0.295E-02 0.576E-01   0.200E-03 -.302E-04 0.973E-03
   0.126E+02 0.128E+00 -.145E+04   -.125E+02 -.123E+00 0.146E+04   -.115E+00 -.250E-02 -.973E-01   -.371E-03 0.322E-04 0.106E-02
   -.115E+02 -.167E+02 -.279E+04   0.116E+02 0.174E+02 0.279E+04   0.594E-01 -.140E+00 -.148E+00   -.342E-03 0.687E-03 0.202E-02
   -.321E+00 0.372E+00 -.286E+04   0.148E+00 -.357E+00 0.285E+04   0.727E-01 -.964E-03 0.844E+00   -.271E-04 -.366E-04 0.138E-02
   -.211E-01 0.325E-01 0.282E+04   0.224E-01 -.320E-01 -.282E+04   0.107E-02 0.419E-03 0.437E+00   0.772E-04 -.246E-03 0.212E-02
   0.370E-02 0.498E-01 0.300E+04   -.408E-02 -.489E-01 -.299E+04   0.127E-02 -.469E-04 -.389E+01   0.143E-03 -.204E-03 0.692E-03
   0.186E+00 0.272E+00 0.144E+04   -.189E+00 -.258E+00 -.144E+04   0.862E-03 -.322E-02 -.437E-01   0.820E-04 -.632E-05 0.814E-03
   -.818E-01 0.197E+00 0.143E+04   0.862E-01 -.196E+00 -.143E+04   -.642E-03 -.254E-03 0.205E+00   -.236E-04 0.189E-04 -.138E-04
   -.160E+01 0.727E+00 -.232E+02   0.163E+01 -.736E+00 0.240E+02   -.813E-03 -.204E-03 -.139E+00   -.187E-03 0.150E-03 0.240E-03
   0.310E+01 0.226E+01 -.101E+02   -.312E+01 -.233E+01 0.917E+01   -.909E-04 0.380E-01 0.278E+00   0.143E-03 0.824E-04 0.469E-03
   0.187E+02 -.502E+01 -.143E+04   -.188E+02 0.539E+01 0.143E+04   0.392E-01 -.140E+00 0.861E-01   0.515E-03 0.251E-05 0.976E-03
   0.117E+02 -.301E+00 -.146E+04   -.117E+02 0.322E+00 0.146E+04   -.291E-01 0.339E-02 -.884E-01   -.354E-03 0.238E-04 0.127E-02
   -.780E+00 0.129E+01 -.278E+04   0.462E+00 -.123E+01 0.278E+04   0.137E+00 0.467E-02 -.179E+00   -.256E-03 0.352E-03 0.183E-02
   0.101E+02 -.529E+01 -.285E+04   -.996E+01 0.569E+01 0.285E+04   -.157E+00 -.975E-01 0.953E+00   0.505E-03 -.105E-03 0.138E-02
   -.771E-02 0.213E-01 0.282E+04   0.946E-02 -.210E-01 -.282E+04   0.905E-03 -.812E-03 0.437E+00   0.577E-04 0.149E-03 0.213E-02
   0.435E-02 -.948E-02 0.300E+04   -.523E-02 0.898E-02 -.299E+04   0.412E-02 0.110E-03 -.389E+01   0.111E-03 0.292E-03 0.634E-03
   0.168E+00 0.217E+00 0.144E+04   -.171E+00 -.214E+00 -.144E+04   0.999E-03 -.103E-02 -.442E-01   0.624E-04 -.823E-04 0.870E-03
   0.255E-01 -.208E-01 0.143E+04   -.206E-01 0.205E-01 -.143E+04   0.188E-02 -.238E-03 0.206E+00   -.429E-04 0.235E-04 -.169E-03
   -.209E+00 0.567E+00 -.224E+02   0.229E+00 -.560E+00 0.232E+02   0.248E-02 -.502E-03 -.139E+00   -.767E-04 -.518E-04 0.359E-03
   0.274E+01 -.262E+00 -.583E+01   -.277E+01 0.258E+00 0.473E+01   0.104E-01 0.496E-03 0.300E+00   0.130E-03 -.779E-04 0.523E-03
   0.163E+02 -.554E+01 -.141E+04   -.164E+02 0.562E+01 0.141E+04   0.314E-01 -.271E-01 -.647E-01   0.349E-03 0.278E-04 0.875E-03
   0.115E+02 0.202E+00 -.146E+04   -.115E+02 -.209E+00 0.146E+04   -.552E-01 0.774E-03 -.764E-01   -.380E-03 0.197E-04 0.112E-02
   0.329E+01 0.182E+01 -.279E+04   -.330E+01 -.182E+01 0.279E+04   -.426E-01 -.127E-03 -.179E+00   -.117E-03 0.827E-04 0.230E-02
   -.514E+01 0.360E+00 -.285E+04   0.513E+01 -.434E+00 0.285E+04   0.510E-01 0.151E-01 0.839E+00   0.230E-03 0.305E-04 0.135E-02
[...]
   -.534E+02 -.105E+00 0.859E+03   0.574E+02 0.104E+00 -.859E+03   -.356E+01 -.346E-03 0.158E+00   -.668E-04 0.989E-05 0.224E-03
   0.534E+02 -.974E-01 0.859E+03   -.574E+02 0.967E-01 -.859E+03   0.356E+01 0.402E-02 0.160E+00   0.933E-04 0.896E-05 0.192E-03
   -.536E+00 0.388E-01 0.381E+03   0.550E+00 -.388E-01 -.385E+03   -.273E-01 0.109E-03 0.415E+01   -.316E-04 0.173E-04 0.352E-03
   0.691E+00 0.213E+00 -.425E+03   -.976E+00 -.208E+00 0.433E+03   0.282E+00 -.105E-01 -.710E+01   -.794E-04 -.184E-04 0.291E-03
   -.545E+02 -.838E+00 -.719E+01   0.591E+02 0.834E+00 0.696E+01   -.510E+01 0.202E-01 0.297E+00   -.971E-05 -.861E-05 0.263E-03
   0.549E+02 -.885E+00 -.981E+01   -.596E+02 0.879E+00 0.963E+01   0.512E+01 0.310E-01 0.265E+00   0.649E-04 -.247E-04 0.242E-03
   0.114E+02 0.649E+00 -.462E+03   -.125E+02 -.735E+00 0.455E+03   0.107E+01 0.856E-01 0.696E+01   0.135E-03 -.126E-04 0.412E-03
   0.151E+02 -.149E+01 -.124E+04   -.163E+02 0.160E+01 0.125E+04   0.114E+01 -.131E+00 0.534E+00   0.195E-03 -.363E-05 0.587E-03
   -.546E+02 -.767E+00 -.855E+03   0.608E+02 0.691E+00 0.854E+03   -.611E+01 0.895E-01 0.137E+01   -.197E-04 -.589E-06 0.600E-03
   0.468E+01 0.581E+00 -.867E+03   -.457E+01 -.751E+00 0.867E+03   -.186E+00 0.183E+00 0.445E+00   0.322E-05 0.318E-04 0.638E-03
   0.428E+01 -.407E+00 -.136E+04   -.478E+01 0.410E+00 0.137E+04   0.530E+00 -.224E-01 -.214E+01   -.996E-04 -.111E-05 0.354E-03
   -.154E+01 0.692E+00 -.203E+04   0.159E+01 -.666E+00 0.205E+04   -.243E-01 -.734E-01 -.209E+02   -.794E-04 -.748E-05 0.102E-02
   -.249E+02 -.607E+01 -.172E+04   0.315E+02 0.646E+01 0.172E+04   -.702E+01 0.355E-02 0.232E+00   0.475E-04 0.715E-04 0.841E-03
   0.239E+02 0.159E+01 -.176E+04   -.304E+02 -.183E+01 0.176E+04   0.676E+01 0.523E+00 -.220E+01   0.140E-03 -.141E-03 0.858E-03
   0.245E+02 -.837E+00 0.883E+02   -.123E-11 -.191E-12 0.248E-10   -.244E+02 0.817E+00 -.885E+02   -.567E-04 -.460E-04 0.157E+00

 POSITION                                       TOTAL-FORCE (eV/Angst)
     10.35728      7.39414      5.27226         0.000426      0.000699     -3.477723
      0.60429      8.87293      5.27226         0.001576      0.000278      2.754783
      0.60429      7.39414      8.52325         0.003198      0.000117      0.528946
     10.35728      8.87293      8.52325        -0.003813      0.000608     -0.721043
     10.35728      7.39414     11.77425        -0.010920     -0.015979      0.642231
      0.60429      8.87293     11.77425        -0.004843      0.002182     -0.710204
      0.69732      7.39431     14.95330        -0.071632     -0.000766      0.130815
     10.43925      8.87383     15.14307         0.011378      0.021192      0.048595
     10.37867      7.40080     18.47302         0.158460     -0.506640      0.531108
      0.61463      8.87497     18.13475        -0.064488     -0.038709      0.141064
     10.35728     10.35173      5.27226         0.000083     -0.000503     -3.477822
      0.60429      0.00015      5.27226         0.003955      0.000047      2.753253
      0.60429     10.35173      8.52325         0.003196      0.000238      0.529022
     10.35728      0.00015      8.52325        -0.001862     -0.000651     -0.721331
     10.35728     10.35173     11.77425        -0.000414      0.022786      0.647455
      0.60429      0.00015     11.77425        -0.001682     -0.001934     -0.708101
      0.69894     10.35159     14.95541        -0.069473     -0.004944      0.123930
     10.43301     11.82978     15.15157        -0.011357     -0.004158      0.026603
     10.36454     10.34939     18.50229         0.055367     -0.107934      0.138805
      0.61694     11.82888     18.13343        -0.029478     -0.013194      0.121548
     10.35728      1.47895      5.27226         0.000185     -0.000116     -3.477868
      0.60429      2.95774      5.27226         0.001594     -0.000020      2.754862
      0.60429      1.47895      8.52325         0.003280     -0.000271      0.528726
     10.35728      2.95774      8.52325        -0.003575     -0.000771     -0.722226
     10.35728      1.47895     11.77425         0.000732     -0.030293      0.643107
      0.60429      2.95774     11.77425        -0.003546     -0.000858     -0.711792
      0.69920      1.47797     14.95479        -0.070054      0.000073      0.120573
     10.43901      2.95548     15.14230         0.012334     -0.018426      0.041159
     10.36319      1.46907     18.50195         0.084601      0.053725      0.115312
      0.61589      2.95239     18.13422        -0.068326      0.039359      0.132756
     10.35728      4.43654      5.27226         0.000432     -0.000553     -3.477712
      0.60429      5.91534      5.27226         0.003935      0.000266      2.753441
      0.60429      4.43654      8.52325         0.003313      0.000725      0.528700
     10.35728      5.91534      8.52325        -0.000770      0.000209     -0.720343
     10.35728      4.43654     11.77425        -0.011643      0.023358      0.637761
      0.60429      5.91534     11.77425        -0.001106      0.000852     -0.712197
      0.69764      4.43587     14.95333        -0.074362      0.005304      0.128440
     10.44263      5.91485     15.14791         0.029853      0.003119      0.073079
     10.38566      4.41732     18.47407         0.176793      0.572018      0.498240
      0.62548      5.91531     18.13268        -0.101718      0.012546      0.156680
      3.85529      7.39414      5.27226         0.002298      0.000751     -3.475886
      7.10628      8.87293      5.27226         0.000839      0.000765      2.758636
      7.10628      7.39414      8.52325        -0.002388      0.011253      0.538704
      3.85529      8.87293      8.52325         0.003534      0.000770     -0.711803
      3.85529      7.39414     11.77425         0.026127     -0.008293      0.672861
      7.10628      8.87293     11.77425        -0.019581     -0.031000     -0.648641
      7.20147      7.36939     14.98833        -0.009610      0.249543     -0.100761
      3.93739      8.87132     15.15142        -0.083154      0.025791     -0.037418
      3.87252      7.39501     18.50380        -0.180160      0.065672      0.076641
      7.12613      8.87348     18.09865        -0.001728      0.290003      0.174736
      3.85529     10.35173      5.27226         0.002519     -0.000339     -3.476039
      7.10628      0.00015      5.27226         0.003149     -0.000019      2.757447
      7.10628     10.35173      8.52325        -0.002680      0.002048      0.543677
      3.85529      0.00015      8.52325         0.006549     -0.000445     -0.711297
      3.85529     10.35173     11.77425         0.021957      0.006832      0.671044
      7.10628      0.00015     11.77425        -0.020418     -0.003359     -0.798531
      7.19845     10.34094     14.92581        -0.010913      0.057003      0.091270
      3.93498     11.82989     15.15262        -0.069050     -0.006304     -0.028266
      3.87776     10.35132     18.50420        -0.051967     -0.008099      0.055834
      7.11002     11.82889     18.10474         0.036409     -0.059439      0.114902
[...]
      7.10628      5.91534      9.79764        -0.000419     -0.001686     -0.091014
      5.12967      4.43654      8.52325         0.442877     -0.001343      0.056887
      9.08289      4.43654      8.52325        -0.441917      0.003407      0.056580
      3.85529      5.91534     10.49986        -0.013125      0.000267     -0.120842
      3.85529      5.91534     13.04863        -0.005247     -0.004845      0.084313
      8.38067      4.43654     11.77425        -0.434380      0.016211      0.066189
      5.83190      4.43654     11.77425         0.460405      0.024767      0.091304
      7.12081      5.91272     13.77646        -0.009288      0.000180      0.055834
      7.10255      5.91991     16.34467        -0.059724     -0.021637      0.744271
      5.16078      4.43648     15.04668         0.086210      0.012820     -0.002077
      9.07412      4.43644     15.06405        -0.064284      0.012297     -0.002421
      3.87066      5.91984     17.01761         0.027160     -0.020203      0.036480
      3.88586      5.91340     19.58870         0.020854     -0.047483     -0.008871
      8.37443      4.39507     18.31395        -0.471350      0.395949      0.453177
      5.90128      4.42330     18.43087         0.220198      0.278003      0.339505
    total drift:                                0.048762     -0.020353     -0.031029

  FREE ENERGIE OF THE ION-ELECTRON SYSTEM (eV)
  free  energy   TOTEN  =     -2153.44068714 eV

  energy  without entropy=    -2153.44068714  energy(sigma->0) =    -2153.44068714

 writing wavefunctions