 vasp.6.3.0 20Jan22 (build Apr  1 2022 16:44:48) complex
 executed on        HPECrayEX_GCC date 2022.11.13  19:16:43

 INCAR:
   SYSTEM = MgO-rocksalt
   ISMEAR = 0
   SIGMA = 0.05
   EDIFF = 1E-6
   ALGO = ALL
   ISTART = 0
   IBRION = -1
   NSW = 0
   ISYM = 0
   DIPOL = 0.5 0.5 0.5
   IDIPOL = 3
   LDIPOL = .TRUE.
   LHFCALC = .TRUE.
   GGA = B5
   AEXX = 0.2
   AGGAX = 0.72
   AGGAC = 0.81
   ALDAC = 0.19
   IVDW = 1
   VDW_S6 = 1.05
   VDW_C6 = 1.23 0.70 0.63 0.70
   VDW_R0 = 1.397 1.342 1.243 1.342
   ENCUT = 600
   PREC = Accurate
   LASPH = .TRUE.
   LREAL = .FALSE.
   ISPIN = 2
   MAGMOM = 1.0 0.0 0.0 0.0 0.0 0.0 0.0 0.0 0.0 0.0 0.0 0.0 0.0 0.0 0.0 0.0 0.0 0.0 0.0 0.0 0.0 0.0 0.0 0.0 0.0 0.0 0.0 0.0 0.0 0.0 0.0 0.0 0.0 0.0 0.0 0.0 0.0 0.0 0.0 0.0 0.0 0.0 0.0 0.0 0.0 0.0 0.0 0.0 0.0 0.0 0.0 0.0 0.0 0.0 0.0 0.0 0.0 0.0 0.0 0.0 0.0 0.0 0.0 0.0 0.0 0.0
   NELM = 200
   NELMIN = 8
   NCORE = 8
   KPAR = 1
   LWAVE = .FALSE.
   LCHARG = .FALSE.

 POTCAR:    PAW_PBE N 08Apr2002
 POTCAR:    PAW_PBE O 08Apr2002
 POTCAR:    PAW_PBE Mg_pv 13Apr2007
 POTCAR:    PAW_PBE O 08Apr2002
 POTCAR:    PAW_PBE N 08Apr2002
   VRHFIN =N: s2p3

   TITEL  = PAW_PBE N 08Apr2002
   POMASS =   14.001; ZVAL   =    5.000    mass and valenz
   ENMAX  =  400.000; ENMIN  =  300.000 eV

[...]

   TITEL  = PAW_PBE Mg_pv 13Apr2007
   POMASS =   24.305; ZVAL   =    8.000    mass and valenz
   ENMAX  =  403.929; ENMIN  =  302.947 eV

   TITEL  = PAW_PBE O 08Apr2002
   POMASS =   16.000; ZVAL   =    6.000    mass and valenz
   ENMAX  =  400.000; ENMIN  =  300.000 eV

  PAW_PBE N 08Apr2002                   :
  PAW_PBE O 08Apr2002                   :
  PAW_PBE Mg_pv 13Apr2007               :
  PAW_PBE O 08Apr2002                   :

 POSCAR:  N  O Mg  O
  positions in direct lattice
 exchange correlation table for  LEXCH =       12
   RHO(1)=    0.500       N(1)  =     2000
   RHO(2)=  100.500       N(2)  =     4000

 ion  position               nearest neighbor table
   1  0.639  0.483  0.749-   2 1.19
   2  0.697  0.574  0.784-   1 1.19
   3  0.000  0.750  0.352-  35 2.11  37 2.11  38 2.11  45 2.11  54 2.11
   4  0.250  0.000  0.352-  36 2.11  37 2.11  38 2.11  46 2.11  53 2.11
   5  0.000  0.000  0.451-  37 2.11  36 2.11  35 2.11  43 2.11  52 2.11  41 2.12
   6  0.250  0.750  0.451-  38 2.11  36 2.11  35 2.11  44 2.11  51 2.11  42 2.12
   7  0.000  0.750  0.550-  42 2.11  58 2.11  49 2.11  41 2.11  35 2.13  39 2.15
   8  0.250  0.000  0.550-  57 2.11  50 2.11  42 2.11  41 2.11  36 2.12  40 2.15
   9  0.001  0.000  0.649-  40 2.11  47 2.11  56 2.11  41 2.11  39 2.11
  10  0.251  0.751  0.649-  40 2.11  55 2.11  42 2.11  48 2.12  39 2.12
  11  0.000  0.250  0.352-  43 2.11  37 2.11  45 2.11  46 2.11  62 2.11
  12  0.250  0.500  0.352-  44 2.11  38 2.11  45 2.11  46 2.11  61 2.11
  13  0.000  0.500  0.451-  45 2.11  43 2.11  44 2.11  35 2.11  60 2.11  49 2.12
  14  0.250  0.250  0.451-  46 2.11  43 2.11  44 2.11  36 2.11  59 2.11  50 2.12
  15  1.000  0.250  0.550-  66 2.11  50 2.11  49 2.11  41 2.11  43 2.13  47 2.15
  16  0.251  0.500  0.550-  65 2.11  50 2.11  42 2.11  49 2.12  44 2.13  48 2.15
  17  0.003  0.500  0.649-  48 2.08  47 2.11  49 2.11  39 2.11  64 2.11
  18  0.251  0.249  0.649-  40 2.11  63 2.11  50 2.11  47 2.12  48 2.12
  19  0.500  0.750  0.352-  51 2.11  38 2.11  53 2.11  54 2.11  61 2.11
  20  0.750  0.000  0.352-  52 2.11  37 2.11  53 2.11  54 2.11  62 2.11
  21  0.500  0.000  0.451-  53 2.11  51 2.11  52 2.11  36 2.11  59 2.11  57 2.11
  22  0.750  0.750  0.451-  54 2.11  51 2.11  52 2.11  35 2.11  60 2.11  58 2.12
  23  0.500  0.750  0.550-  65 2.11  42 2.11  57 2.11  58 2.11  51 2.13  55 2.13
  24  0.750  0.000  0.550-  57 2.11  41 2.11  66 2.11  58 2.12  52 2.12  56 2.15
  25  0.500  0.000  0.649-  63 2.10  55 2.11  40 2.11  57 2.11  56 2.12
  26  0.750  0.753  0.649-  56 2.09  58 2.11  55 2.11  39 2.11  64 2.13
  27  0.500  0.250  0.352-  59 2.11  53 2.11  46 2.11  61 2.11  62 2.11
  28  0.750  0.500  0.352-  60 2.11  54 2.11  45 2.11  61 2.11  62 2.11
  29  0.500  0.500  0.451-  61 2.11  51 2.11  59 2.11  60 2.11  44 2.11  65 2.13
  30  0.750  0.250  0.451-  62 2.11  52 2.11  59 2.11  60 2.11  43 2.11  66 2.12
  31  0.500  0.250  0.550-  65 2.11  66 2.11  50 2.11  57 2.11  63 2.12  59 2.13
  32  0.749  0.500  0.550-  65 2.10  66 2.10  58 2.11  60 2.11  49 2.11  64 2.17
  33  0.498  0.500  0.651-  48 2.09  63 2.12  55 2.12  64 2.15  65 2.15
  34  0.750  0.248  0.649-  56 2.09  63 2.11  47 2.11  66 2.12  64 2.13
  35  0.000  0.750  0.451-   3 2.11   5 2.11   6 2.11  13 2.11  22 2.11   7 2.13
  36  0.250  0.000  0.451-   4 2.11   5 2.11   6 2.11  14 2.11  21 2.11   8 2.12
  37  0.000  0.000  0.352-   5 2.11   4 2.11   3 2.11  11 2.11  20 2.11
  38  0.250  0.750  0.352-   6 2.11   4 2.11   3 2.11  12 2.11  19 2.11
  39  1.000  0.750  0.651-  26 2.11  17 2.11   9 2.11  10 2.12   7 2.15
  40  0.250  0.000  0.651-  10 2.11   9 2.11  18 2.11  25 2.11   8 2.15
  41  1.000  0.000  0.550-  24 2.11   7 2.11  15 2.11   8 2.11   9 2.11   5 2.12
  42  0.250  0.750  0.550-   7 2.11  16 2.11  23 2.11   8 2.11  10 2.11   6 2.12
  43  0.000  0.250  0.451-  11 2.11   5 2.11  13 2.11  14 2.11  30 2.11  15 2.13
  44  0.250  0.500  0.451-  12 2.11   6 2.11  13 2.11  14 2.11  29 2.11  16 2.13
  45  0.000  0.500  0.352-  13 2.11  11 2.11  12 2.11   3 2.11  28 2.11
  46  0.250  0.250  0.352-  14 2.11  11 2.11  12 2.11   4 2.11  27 2.11
  47  1.000  0.250  0.651-  17 2.11   9 2.11  34 2.11  18 2.12  15 2.15
  48  0.250  0.500  0.651-  17 2.08  33 2.09  10 2.12  18 2.12  16 2.15
  49  1.000  0.500  0.550-  17 2.11   7 2.11  15 2.11  32 2.11  16 2.12  13 2.12
  50  0.250  0.250  0.550-  15 2.11  16 2.11  18 2.11   8 2.11  31 2.11  14 2.12
  51  0.500  0.750  0.451-  19 2.11   6 2.11  21 2.11  22 2.11  29 2.11  23 2.13
  52  0.750  0.000  0.451-  20 2.11   5 2.11  21 2.11  22 2.11  30 2.11  24 2.12
  53  0.500  0.000  0.352-  21 2.11  19 2.11  20 2.11   4 2.11  27 2.11
  54  0.750  0.750  0.352-  22 2.11  19 2.11  20 2.11   3 2.11  28 2.11
  55  0.501  0.751  0.650-  25 2.11  26 2.11  10 2.11  33 2.12  23 2.13
  56  0.750  0.000  0.651-  26 2.09  34 2.09   9 2.11  25 2.12  24 2.15
  57  0.500  1.000  0.550-  24 2.11   8 2.11  25 2.11  23 2.11  21 2.11  31 2.11
  58  0.750  0.750  0.550-  26 2.11  32 2.11   7 2.11  23 2.11  24 2.12  22 2.12
  59  0.500  0.250  0.451-  27 2.11  21 2.11  14 2.11  29 2.11  30 2.11  31 2.13
  60  0.750  0.500  0.451-  28 2.11  22 2.11  13 2.11  29 2.11  30 2.11  32 2.11
  61  0.500  0.500  0.352-  29 2.11  19 2.11  27 2.11  28 2.11  12 2.11
  62  0.750  0.250  0.352-  30 2.11  20 2.11  27 2.11  28 2.11  11 2.11
  63  0.500  0.249  0.650-  25 2.10  18 2.11  34 2.11  33 2.12  31 2.12
  64  0.753  0.501  0.651-  17 2.11  26 2.13  34 2.13  33 2.15  32 2.17
  65  0.501  0.500  0.550-  32 2.10  23 2.11  16 2.11  31 2.11  29 2.13  33 2.15
  66  0.750  0.251  0.550-  32 2.10  15 2.11  24 2.11  31 2.11  34 2.12  30 2.12

IMPORTANT INFORMATION: All symmetrisations will be switched off!
NOSYMM: (Re-)initialisation of all symmetry stuff for point group C_1.

                                     Primitive cell

  volume of cell :    1519.8199

  direct lattice vectors                    reciprocal lattice vectors
     8.440984654  0.000000000  0.000000000     0.118469591  0.000000000  0.000000000
     0.000000000  8.440984654  0.000000000     0.000000000  0.118469591  0.000000000
     0.000000000  0.000000000 21.330738491     0.000000000  0.000000000  0.046880702

  length of vectors
     8.440984654  8.440984654 21.330738491     0.118469591  0.118469591  0.046880702

  position of ions in fractional coordinates (direct lattice)
     0.638705692  0.482791833  0.748675970
     0.697354475  0.574449802  0.783972369
     0.000000000  0.750000000  0.351605267
     0.250000000  0.000000000  0.351605267
     0.000000000  0.000000000  0.450535089
     0.250000000  0.750000000  0.450535089
     0.000205502  0.750039177  0.550223578
     0.250179749  0.000061327  0.550011200
     0.000609174  0.000261594  0.648882696
     0.250583656  0.750672365  0.648872008
     0.000000000  0.250000000  0.351605267
     0.250000000  0.500000000  0.351605267
     0.000000000  0.500000000  0.450535089
     0.250000000  0.250000000  0.450535089
     0.999975671  0.250131481  0.550270989
     0.250794195  0.500015649  0.550238609
     0.003197971  0.500134154  0.649002941
     0.250561257  0.249463133  0.648749730
     0.500000000  0.750000000  0.351605267
     0.750000000  0.000000000  0.351605267
     0.500000000  0.000000000  0.450535089
     0.750000000  0.750000000  0.450535089
     0.500022340  0.749608272  0.550368279
     0.749991503  0.000400057  0.549987879
     0.499795883  0.000231456  0.648601913
     0.750189873  0.753176309  0.648650889
     0.500000000  0.250000000  0.351605267
     0.750000000  0.500000000  0.351605267
     0.500000000  0.500000000  0.450535089
     0.750000000  0.250000000  0.450535089
     0.500061819  0.250380597  0.550369134
     0.749293026  0.499879905  0.549512501
     0.497807100  0.499814175  0.651268068
     0.749692140  0.248240293  0.649388625
     0.000000000  0.750000000  0.450535089
     0.250000000  0.000000000  0.450535089
     0.000000000  0.000000000  0.351605267
     0.250000000  0.750000000  0.351605267
     0.999994137  0.750031476  0.651001288
     0.249972382  0.000019970  0.650724243
     0.999974907  0.000059780  0.549854991
     0.249881374  0.749868313  0.549864366
     0.000000000  0.250000000  0.450535089
     0.250000000  0.500000000  0.450535089
     0.000000000  0.500000000  0.351605267
     0.250000000  0.250000000  0.351605267
     0.999999107  0.250360092  0.651063486
     0.249988513  0.500109867  0.651006783
     0.999511618  0.500112360  0.550134767
     0.249684648  0.250211124  0.549787905
     0.500000000  0.750000000  0.450535089
     0.750000000  0.000000000  0.450535089
     0.500000000  0.000000000  0.351605267
     0.750000000  0.750000000  0.351605267
     0.500679971  0.750732886  0.650448838
     0.750424699  0.000337108  0.650682066
     0.500197432  0.999846331  0.549608034
     0.750335455  0.749588939  0.549977020
     0.500000000  0.250000000  0.450535089
     0.750000000  0.500000000  0.450535089
     0.500000000  0.500000000  0.351605267
     0.750000000  0.250000000  0.351605267
     0.500058095  0.249070166  0.649851433
     0.752701172  0.500737872  0.651103123
     0.500538199  0.500125592  0.550280335
     0.750336196  0.250622409  0.550021707

  ion indices of the primitive-cell ions
   primitive index   ion index
                 1           1
                 2           2
                 3           3
                 4           4
                 5           5
                 6           6
                 7           7
                 8           8
                 9           9
                10          10
                11          11
                12          12
                13          13
                14          14
                15          15
                16          16
                17          17
                18          18
                19          19
                20          20
[...]
   0.50019743  0.99984633  0.54960803
   0.75033545  0.74958894  0.54997702
   0.50000000  0.25000000  0.45053509
   0.75000000  0.50000000  0.45053509
   0.50000000  0.50000000  0.35160527
   0.75000000  0.25000000  0.35160527
   0.50005809  0.24907017  0.64985143
   0.75270117  0.50073787  0.65110312
   0.50053820  0.50012559  0.55028033
   0.75033620  0.25062241  0.55002171

 position of ions in cartesian coordinates  (Angst):
   5.39130495  4.07523845 15.96981134
   5.88635842  4.84892196 16.72270959
   0.00000000  6.33073849  7.50000000
   2.11024616  0.00000000  7.50000000
   0.00000000  0.00000000  9.61024616
   2.11024616  6.33073849  9.61024616
   0.00173464  6.33106918 11.73667525
   2.11176342  0.00051766 11.73214508
   0.00514203  0.00220811 13.84114710
   2.11517280  6.33641391 13.84091911
   0.00000000  2.11024616  7.50000000
   2.11024616  4.22049233  7.50000000
   0.00000000  4.22049233  9.61024616
   2.11024616  2.11024616  9.61024616
   8.44077930  2.11135599 11.73768656
   2.11694995  4.22062442 11.73699589
   0.02699402  4.22162472 13.84371202
   2.11498373  2.10571447 13.83831084
   4.22049233  6.33073849  7.50000000
   6.33073849  0.00000000  7.50000000
   4.22049233  0.00000000  9.61024616
   6.33073849  6.33073849  9.61024616
   4.22068090  6.32743192 11.73976183
   6.33066677  0.00337687 11.73164763
   4.21876938  0.00195371 13.83515779
   6.33234121  6.35754966 13.83620248
   4.22049233  2.11024616  7.50000000
   6.33073849  4.22049233  7.50000000
   4.22049233  4.22049233  9.61024616
   6.33073849  2.11024616  9.61024616
   4.22101414  2.11345878 11.73978007
   6.32477093  4.21947860 11.72150745
   4.20198210  4.21892378 13.89202884
   6.32813985  2.09539251 13.85193894
   0.00000000  6.33073849  9.61024616
   2.11024616  0.00000000  9.61024616
   0.00000000  0.00000000  7.50000000
   2.11024616  6.33073849  7.50000000
   8.44093516  6.33100418 13.88633822
   2.11001304  0.00016856 13.88042866
   8.44077285  0.00050460 11.72881301
   2.10924484  6.32962692 11.72901301
   0.00000000  2.11024616  9.61024616
   2.11024616  4.22049233  9.61024616
   0.00000000  4.22049233  7.50000000
   2.11024616  2.11024616  7.50000000
   8.44097712  2.11328569 13.88766496
   2.11014920  4.22141971 13.88645544
   8.43686223  4.22144076 11.73478086
   2.10758428  2.11202825 11.72738203
   4.22049233  6.33073849  9.61024616
   6.33073849  0.00000000  9.61024616
   4.22049233  0.00000000  7.50000000
   6.33073849  6.33073849  7.50000000
   4.22623195  6.33692477 13.87455406
   6.33432336  0.00284552 13.87952900
   4.22215884  8.43968754 11.72354525
   6.33357006  6.32726873 11.73141598
   4.22049233  2.11024616  9.61024616
   6.33073849  4.22049233  9.61024616
   4.22049233  4.22049233  7.50000000
   6.33073849  2.11024616  7.50000000
   4.22098271  2.10239745 13.86181098
   6.35353904  4.22672070 13.88851045
   4.22503526  4.22155245 11.73788592
   6.33357632  2.11549991 11.73236921

--------------------------------------- Iteration      FINAL  ---------------------------------------

--------------------OUTCAR has been truncated-------------------------

[...]

--------------------OUTCAR has been truncated-------------------------

  DFT-D2 method for vdW energy calculation

  Parameters of vdW forcefield:
         C6(Jnm^6/mol)     R0(A)
   N        1.230          1.397
   O        0.700          1.342
   Mg       0.630          1.243
   O        0.700          1.342

  vdW correction parametrized for the method        L|

  IVDW =   1
  VDW_RADIUS =    50.000 A
  VDW_S6 =     1.050
  VDW_SR =     1.000
  VDW_D =    20.000
  LVDW_EWALD = F

  Number of pair interactions contributing to vdW energy:  768339
  Edisp (eV):   -5.19112

 VOLUME and BASIS-vectors are now :
  energy-cutoff  :      600.00
  volume of cell :     1519.82
      direct lattice vectors                 reciprocal lattice vectors
     8.440984654  0.000000000  0.000000000     0.118469591  0.000000000  0.000000000
     0.000000000  8.440984654  0.000000000     0.000000000  0.118469591  0.000000000
     0.000000000  0.000000000 21.330738491     0.000000000  0.000000000  0.046880702

  length of vectors
     8.440984654  8.440984654 21.330738491     0.118469591  0.118469591  0.046880702

 FORCES acting on ions:
    Electron-Ion                     Ewald-Force                    Non-Local-Force
   0.104E+03 0.170E+03 -.126E+04   -.122E+03 -.198E+03 0.123E+04   0.176E+02 0.267E+02 0.217E+02
   -.103E+03 -.160E+03 -.164E+04   0.127E+03 0.197E+03 0.167E+04   -.218E+02 -.339E+02 -.337E+02
   -.302E+00 -.192E+00 0.209E+04   0.308E+00 0.197E+00 -.208E+04   -.450E-02 -.340E-02 -.640E+01
   0.161E+00 -.311E-01 0.209E+04   -.159E+00 0.315E-01 -.208E+04   -.122E-02 -.221E-03 -.640E+01
   -.929E+00 -.157E+00 0.722E+03   0.947E+00 0.169E+00 -.722E+03   -.111E-01 -.782E-02 0.434E+00
   0.661E+00 -.526E+00 0.723E+03   -.644E+00 0.522E+00 -.723E+03   -.102E-01 0.259E-02 0.438E+00
   -.539E+01 -.438E+01 -.631E+03   0.538E+01 0.431E+01 0.631E+03   -.111E-02 0.456E-01 -.187E+00
   0.294E+01 -.398E+00 -.634E+03   -.292E+01 0.400E+00 0.634E+03   -.189E-01 -.359E-02 -.115E+00
   -.122E+02 -.334E+01 -.200E+04   0.123E+02 0.334E+01 0.199E+04   -.133E+00 -.511E-02 0.535E+01
   0.136E+02 -.152E+02 -.199E+04   -.135E+02 0.154E+02 0.199E+04   -.281E-01 -.217E+00 0.539E+01
   -.297E+00 0.192E+00 0.209E+04   0.303E+00 -.197E+00 -.208E+04   -.395E-02 0.315E-02 -.640E+01
   0.182E+00 0.314E-01 0.209E+04   -.179E+00 -.316E-01 -.208E+04   -.250E-02 0.106E-03 -.639E+01
   -.209E+01 0.179E+00 0.723E+03   0.215E+01 -.183E+00 -.723E+03   -.375E-01 0.338E-02 0.516E+00
   0.651E+00 0.534E+00 0.723E+03   -.658E+00 -.526E+00 -.723E+03   0.510E-02 -.459E-02 0.404E+00
   -.467E+01 0.436E+01 -.633E+03   0.463E+01 -.429E+01 0.633E+03   0.290E-01 -.446E-01 -.179E+00
   0.494E+01 0.416E+00 -.628E+03   -.474E+01 -.420E+00 0.629E+03   -.186E+00 0.482E-02 -.140E+00
   -.288E+02 0.411E+01 -.197E+04   0.295E+02 -.411E+01 0.196E+04   -.680E+00 0.670E-02 0.545E+01
   0.143E+02 0.150E+02 -.199E+04   -.142E+02 -.152E+02 0.199E+04   -.130E+00 0.214E+00 0.541E+01
   0.303E+00 -.213E+00 0.209E+04   -.309E+00 0.216E+00 -.208E+04   0.415E-02 -.204E-02 -.641E+01
   -.160E+00 -.351E-01 0.209E+04   0.159E+00 0.363E-01 -.208E+04   0.923E-03 -.812E-03 -.639E+01
   0.952E+00 -.172E+00 0.724E+03   -.962E+00 0.160E+00 -.724E+03   0.632E-02 0.787E-02 0.320E+00
   -.657E+00 -.168E+01 0.725E+03   0.651E+00 0.172E+01 -.725E+03   0.364E-02 -.293E-01 0.488E+00
   0.569E+01 -.580E+01 -.624E+03   -.568E+01 0.567E+01 0.624E+03   -.580E-03 0.108E+00 -.466E+00
   -.304E+01 -.853E+00 -.627E+03   0.302E+01 0.931E+00 0.627E+03   0.215E-01 -.731E-01 -.111E+00
   0.131E+02 -.268E+01 -.199E+04   -.132E+02 0.279E+01 0.198E+04   0.130E+00 -.104E+00 0.539E+01
   -.195E+02 -.399E+02 -.194E+04   0.195E+02 0.410E+02 0.193E+04   -.332E-01 -.983E+00 0.562E+01
   0.297E+00 0.212E+00 0.209E+04   -.304E+00 -.216E+00 -.208E+04   0.395E-02 0.215E-02 -.640E+01
   -.183E+00 0.370E-01 0.209E+04   0.179E+00 -.376E-01 -.208E+04   0.242E-02 0.381E-03 -.636E+01
   0.211E+01 0.176E+00 0.725E+03   -.216E+01 -.168E+00 -.725E+03   0.356E-01 -.582E-02 0.532E+00
   -.661E+00 0.167E+01 0.724E+03   0.668E+00 -.171E+01 -.725E+03   -.513E-02 0.215E-01 0.490E+00
   0.497E+01 0.577E+01 -.623E+03   -.493E+01 -.564E+01 0.624E+03   -.309E-01 -.108E+00 -.707E+00
   -.502E+01 0.914E+00 -.612E+03   0.488E+01 -.972E+00 0.611E+03   0.149E+00 0.573E-01 0.619E+00
   0.548E+02 0.345E+01 -.191E+04   -.560E+02 -.339E+01 0.191E+04   0.107E+01 -.517E-01 0.444E+01
   -.200E+02 0.387E+02 -.196E+04   0.201E+02 -.398E+02 0.195E+04   0.129E-02 0.942E+00 0.558E+01
   -.920E+00 -.556E+00 0.542E+03   0.929E+00 0.569E+00 -.541E+03   -.110E-01 -.166E-01 -.130E+00
   0.588E+00 -.628E-01 0.541E+03   -.576E+00 0.654E-01 -.541E+03   -.155E-01 -.357E-02 -.915E-01
   -.181E+00 -.269E-01 0.157E+04   0.185E+00 0.281E-01 -.157E+04   -.528E-02 -.148E-02 0.312E+01
   0.123E+00 -.108E+00 0.157E+04   -.120E+00 0.110E+00 -.157E+04   -.353E-02 -.263E-02 0.312E+01
   -.187E+02 -.148E+02 -.151E+04   0.187E+02 0.147E+02 0.151E+04   0.548E-01 0.975E-01 -.459E+01
   0.541E+01 -.140E+01 -.152E+04   -.538E+01 0.140E+01 0.153E+04   -.209E-01 0.118E-02 -.455E+01
   -.297E+01 -.642E+00 -.471E+03   0.298E+01 0.638E+00 0.471E+03   -.452E-02 0.472E-02 0.238E+00
   0.248E+01 -.296E+01 -.468E+03   -.246E+01 0.298E+01 0.468E+03   -.151E-01 -.146E-01 0.266E+00
   -.900E+00 0.566E+00 0.541E+03   0.924E+00 -.587E+00 -.541E+03   -.297E-01 0.270E-01 -.152E+00
   0.795E+00 0.690E-01 0.542E+03   -.818E+00 -.757E-01 -.541E+03   0.241E-01 0.838E-02 -.105E+00
   -.280E+00 0.269E-01 0.157E+04   0.289E+00 -.283E-01 -.157E+04   -.113E-01 0.177E-02 0.313E+01
   0.124E+00 0.107E+00 0.157E+04   -.123E+00 -.110E+00 -.157E+04   -.152E-02 0.278E-02 0.312E+01
   -.147E+02 0.142E+02 -.151E+04   0.147E+02 -.142E+02 0.152E+04   0.676E-01 -.613E-01 -.452E+01
   0.154E+02 0.155E+01 -.150E+04   -.154E+02 -.155E+01 0.151E+04   -.625E-01 0.128E-02 -.443E+01
   -.491E+01 0.679E+00 -.466E+03   0.487E+01 -.673E+00 0.466E+03   0.691E-01 -.688E-02 0.218E+00
   0.270E+01 0.293E+01 -.468E+03   -.266E+01 -.295E+01 0.468E+03   -.305E-01 0.136E-01 0.279E+00
   0.949E+00 -.711E+00 0.542E+03   -.970E+00 0.760E+00 -.542E+03   0.261E-01 -.597E-01 -.175E+00
   -.580E+00 -.533E-01 0.543E+03   0.559E+00 0.381E-01 -.542E+03   0.273E-01 0.168E-01 -.620E-01
   0.181E+00 -.259E-01 0.157E+04   -.186E+00 0.255E-01 -.157E+04   0.564E-02 0.535E-03 0.312E+01
   -.124E+00 -.207E+00 0.157E+04   0.121E+00 0.214E+00 -.157E+04   0.400E-02 -.830E-02 0.313E+01
   0.233E+02 -.292E+02 -.148E+04   -.233E+02 0.290E+02 0.149E+04   -.327E-01 0.195E+00 -.454E+01
   -.616E+01 -.498E+01 -.151E+04   0.613E+01 0.507E+01 0.151E+04   0.208E-01 -.785E-01 -.452E+01
   0.303E+01 -.444E+00 -.465E+03   -.304E+01 0.460E+00 0.464E+03   -.108E-02 -.133E-01 0.246E+00
   -.268E+01 -.499E+01 -.461E+03   0.266E+01 0.499E+01 0.460E+03   0.123E-01 0.251E-01 0.281E+00
   0.914E+00 0.709E+00 0.542E+03   -.938E+00 -.754E+00 -.542E+03   0.295E-01 0.549E-01 -.164E+00
   -.801E+00 0.920E-01 0.546E+03   0.821E+00 -.923E-01 -.546E+03   -.209E-01 0.141E-02 0.414E-01
   0.280E+00 0.266E-01 0.157E+04   -.290E+00 -.260E-01 -.157E+04   0.113E-01 -.772E-03 0.313E+01
   -.125E+00 0.206E+00 0.157E+04   0.123E+00 -.213E+00 -.157E+04   0.147E-02 0.888E-02 0.313E+01
   0.191E+02 0.284E+02 -.148E+04   -.191E+02 -.281E+02 0.149E+04   -.657E-01 -.217E+00 -.455E+01
   -.349E+02 0.567E+01 -.141E+04   0.351E+02 -.551E+01 0.141E+04   -.194E+00 -.153E+00 -.328E+01
   0.529E+01 0.522E+00 -.465E+03   -.532E+01 -.545E+00 0.466E+03   0.578E-02 0.197E-01 -.343E+00
   -.289E+01 0.501E+01 -.465E+03   0.284E+01 -.501E+01 0.465E+03   0.343E-01 -.120E-01 0.782E-01
   0.557E+01 0.980E+01 0.323E+02   -.277E-12 0.142E-12 -.404E-11   -.417E+01 -.759E+01 -.277E+02

 POSITION                                       TOTAL-FORCE (eV/Angst)
      5.39130      4.07524     15.96981         0.722402      1.156947      1.313849
      5.88636      4.84892     16.72271        -0.731663     -1.162124     -1.123138
      0.00000      6.33074      7.50000         0.001846      0.001412      0.466486
      2.11025      0.00000      7.50000         0.000498      0.000112      0.468076
      0.00000      0.00000      9.61025         0.005135      0.003413      0.047487
      2.11025      6.33074      9.61025         0.005268     -0.001067      0.049669
      0.00173      6.33107     11.73668        -0.011612     -0.015339      0.024238
      2.11176      0.00052     11.73215        -0.002665     -0.000974      0.017907
      0.00514      0.00221     13.84115         0.003214     -0.003461     -0.087609
      2.11517      6.33641     13.84092        -0.017106      0.011008     -0.097127
      0.00000      2.11025      7.50000         0.001682     -0.001366      0.468218
      2.11025      4.22049      7.50000         0.000828     -0.000070      0.466761
      0.00000      4.22049      9.61025         0.018850     -0.001103      0.058219
      2.11025      2.11025      9.61025        -0.001204      0.002115      0.052129
      8.44078      2.11136     11.73769        -0.009791      0.014937      0.021641
      2.11695      4.22062     11.73700        -0.007961      0.000827      0.010692
      0.02699      4.22162     13.84371        -0.046769      0.005887     -0.121880
      2.11498      2.10571     13.83831        -0.016093     -0.010307     -0.099182
      4.22049      6.33074      7.50000        -0.001766      0.001020      0.469363
      6.33074      0.00000      7.50000        -0.000505      0.000230      0.465246
      4.22049      0.00000      9.61025        -0.002606     -0.003137      0.055797
      6.33074      6.33074      9.61025        -0.001648      0.015827      0.045836
      4.22068      6.32743     11.73976         0.010219     -0.006815      0.019700
      6.33067      0.00338     11.73165         0.002034     -0.001430      0.015597
      4.21877      0.00195     13.83516        -0.003812     -0.003572     -0.095956
      6.33234      6.35755     13.83620         0.025801     -0.026121     -0.119322
      4.22049      2.11025      7.50000        -0.001734     -0.001104      0.468437
      6.33074      4.22049      7.50000        -0.000891     -0.000144      0.458052
      4.22049      4.22049      9.61025        -0.018428      0.001662      0.050664
      6.33074      2.11025      9.61025         0.000978     -0.011460      0.042497
      4.22101      2.11346     11.73978         0.008137      0.006654      0.021222
      6.32477      4.21948     11.72151         0.019601      0.004017      0.071665
      4.20198      4.21892     13.89203        -0.028703      0.006264     -0.212697
      6.32814      2.09539     13.85194         0.028133      0.008269     -0.156367
      0.00000      6.33074      9.61025        -0.004473     -0.006320      0.059974
      2.11025      0.00000      9.61025        -0.006266     -0.001539      0.051288
      0.00000      0.00000      7.50000        -0.001752     -0.000490     -0.435508
      2.11025      6.33074      7.50000        -0.001176     -0.000840     -0.436383
      8.44094      6.33100     13.88634         0.022364      0.022676     -0.105047
      2.11001      0.00017     13.88043         0.006812      0.002084     -0.098093
      8.44077      0.00050     11.72881         0.003483      0.001565      0.031934
      2.10924      6.32963     11.72901         0.005280      0.003566      0.035460
      0.00000      2.11025      9.61025        -0.010056      0.009433      0.057018
      2.11025      4.22049      9.61025         0.004431      0.002950      0.072186
      0.00000      4.22049      7.50000        -0.003779      0.000572     -0.431963
      2.11025      2.11025      7.50000        -0.000515      0.000875     -0.436728
      8.44098      2.11329     13.88766         0.015943     -0.019173     -0.095338
      2.11015      4.22142     13.88646         0.019040     -0.001708     -0.086019
      8.43686      4.22144     11.73478         0.038291     -0.002155      0.001630
      2.10758      2.11203     11.72738         0.004739     -0.003947      0.037893
      4.22049      6.33074      9.61025         0.008954     -0.019434      0.059362
      6.33074      0.00000      9.61025         0.009658      0.003904      0.060383
      4.22049      0.00000      7.50000         0.001813      0.000172     -0.436859
      6.33074      6.33074      7.50000         0.001278     -0.002750     -0.431978
      4.22623      6.33692     13.87455        -0.014891     -0.001746     -0.080790
      6.33432      0.00285     13.87953        -0.007105      0.004232     -0.093036
      4.22216      8.43969     11.72355        -0.004958      0.001398      0.040403
      6.33357      6.32727     11.73142        -0.006517      0.028186      0.014400
      4.22049      2.11025      9.61025         0.009822      0.017836      0.063573
      6.33074      4.22049      9.61025        -0.003529      0.001294      0.044763
      4.22049      4.22049      7.50000         0.003737     -0.000283     -0.433740
      6.33074      2.11025      7.50000         0.000428      0.002943     -0.432587
      4.22098      2.10240     13.86181        -0.006487      0.001410     -0.066171
      6.35354      4.22672     13.88851        -0.009087     -0.010931     -0.085593
      4.22504      4.22155     11.73789        -0.019594     -0.000865      0.005520
      6.33358      2.11550     11.73237        -0.005559     -0.023918      0.013878
    total drift:                                0.002223      0.000824      0.004516

  FREE ENERGIE OF THE ION-ELECTRON SYSTEM (eV)
  free  energy   TOTEN  =      -454.48435174 eV

  energy  without entropy=     -454.48435174  energy(sigma->0) =     -454.48435174