 vasp.6.3.0 20Jan22 (build Dec 25 2023 18:06:01) complex
 executed on        HPECrayEX_GCC date 2024.11.20  21:22:15

 INCAR:
   SYSTEM = TiO2
   ISMEAR = 0
   SIGMA = 0.05
   EDIFF = 1E-7
   ALGO = Normal
   ISTART = 0
   IBRION = 2
   NSW = 1000
   ISYM = 0
   ISIF = 2
   EDIFFG = -0.01
   DIPOL = 0.5 0.5 0.5
   IDIPOL = 3
   LDIPOL = .TRUE.
   LHFCALC = .TRUE.
   HFSCREEN = 0.2
   GGA = PE
   IVDW = 13
   VDW_S8 = 1.19528249
   VDW_A1 = 0.38663183
   VDW_A2 = 5.19133469
   ENCUT = 520
   PREC = Normal
   PRECFOCK = Fast
   LASPH = .TRUE.
   LREAL = .FALSE.
   ISPIN = 1
   NKREDX = 3
   NKREDY = 3
   NELM = 200
   NELMIN = 8
   NCORE = 8
   KPAR = 1
   LWAVE = .FALSE.
   LCHARG = .FALSE.

 POTCAR:    PAW_PBE N 08Apr2002
 POTCAR:    PAW_PBE H 15Jun2001
 POTCAR:    PAW_PBE Ti 08Apr2002
 POTCAR:    PAW_PBE O 08Apr2002
 POTCAR:    PAW_PBE N 08Apr2002
   VRHFIN =N: s2p3

   TITEL  = PAW_PBE N 08Apr2002
   POMASS =   14.001; ZVAL   =    5.000    mass and valenz
   ENMAX  =  400.000; ENMIN  =  300.000 eV

   TITEL  = PAW_PBE H 15Jun2001
   POMASS =    1.000; ZVAL   =    1.000    mass and valenz
   ENMAX  =  250.000; ENMIN  =  200.000 eV

[...]

   TITEL  = PAW_PBE O 08Apr2002
   POMASS =   16.000; ZVAL   =    6.000    mass and valenz
   ENMAX  =  400.000; ENMIN  =  300.000 eV

  PAW_PBE N 08Apr2002                   :
  PAW_PBE H 15Jun2001                   :
  PAW_PBE Ti 08Apr2002                  :
  PAW_PBE O 08Apr2002                   :

 POSCAR:  N  H Ti  O
  positions in direct lattice
|           W    W    AA    RRRRR   N    N  II  N    N   GGGG   !!!           |
|           W    W   A  A   R    R  NN   N  II  NN   N  G    G  !!!           |
|           W    W  A    A  R    R  N N  N  II  N N  N  G       !!!           |
|           W WW W  AAAAAA  RRRRR   N  N N  II  N  N N  G  GGG   !            |
|           WW  WW  A    A  R   R   N   NN  II  N   NN  G    G                |
|           W    W  A    A  R    R  N    N  II  N    N   GGGG   !!!           |
|     Specifying the vdW parameters                                           |
|     VDW_S8 = 1.195                                                          |
|     VDW_A1 = 0.387                                                          |
|     VDW_A2 = 5.191                                                          |
|     in the INCAR file will overwrite the defaults for hse06. Please         |
|     make sure that is what you intended.                                    |

 ion  position               nearest neighbor table
   1  0.613  0.500  0.807-   2 1.02   4 1.02   3 1.02  52 2.30
   2  0.550  0.500  0.839-   1 1.02
   3  0.673  0.427  0.810-   1 1.02
   4  0.673  0.573  0.810-   1 1.02
   5  0.815  0.833  0.271-  89 1.92  55 1.92  57 1.92  54 1.97  56 1.97  22 3.03   8 3.03   6 3.03

   6  0.598  0.667  0.306- 120 1.92  53 1.92  56 1.92  58 1.92  57 1.97  59 1.97  37 3.03   7 3.03
                             5 3.03  11 3.06
   7  0.315  0.667  0.271- 125 1.92  59 1.92  61 1.92  53 1.97  60 1.97  40 3.03   6 3.03   8 3.03

   8  0.098  0.833  0.306-  92 1.92  54 1.92  60 1.92  62 1.92  55 1.97  61 1.97  23 3.03   5 3.03
                             7 3.03   9 3.06
   9  0.950  0.833  0.414-  97 1.92  65 1.92  63 1.92  55 1.96  64 1.97  62 1.98  12 2.99  26 3.04
                            10 3.04   8 3.06
  10  0.730  0.667  0.447-  58 1.90 128 1.92  64 1.92  66 1.95  67 1.96  65 1.99  11 2.99  41 3.04
                             9 3.04  15 3.08
  11  0.450  0.667  0.414- 133 1.92  69 1.92  67 1.92  59 1.96  68 1.97  58 1.98  10 2.99  44 3.04
                            12 3.04   6 3.06
  12  0.230  0.833  0.447-  62 1.90 100 1.92  68 1.92  70 1.95  63 1.96  69 1.99   9 2.99  27 3.04
                            11 3.04  13 3.08
  13  0.090  0.833  0.556- 105 1.92  73 1.92  71 1.92  72 1.97  70 1.98  63 1.98  16 2.94  30 3.04
                            14 3.04  12 3.08
  14  0.868  0.667  0.586-  66 1.87 136 1.92  72 1.92  75 1.93  74 1.98  73 2.00  15 2.94  45 3.04
                            13 3.04  19 3.17
  15  0.590  0.667  0.556- 141 1.92  77 1.92  75 1.92  76 1.97  66 1.98  67 1.98  14 2.94  48 3.04
                            16 3.04  10 3.08
  16  0.368  0.833  0.586-  70 1.87 108 1.92  76 1.92  71 1.93  78 1.98  77 2.00  13 2.94  31 3.04
                            15 3.04  17 3.17
  17  0.236  0.833  0.702-  79 1.85 113 1.92  81 1.92  80 2.00  78 2.05  71 2.07  20 2.84  34 3.06
                            18 3.06  16 3.17
  18  0.007  0.667  0.725-  74 1.79  82 1.83 144 1.96  80 1.96  81 2.02  19 2.84  49 3.06  17 3.06

[...]

  21  0.815  0.167  0.271-  89 1.92  87 1.92 121 1.92  86 1.97  88 1.97  22 3.03  24 3.03  38 3.03

[...]

  37  0.815  0.500  0.271-  57 1.92 121 1.92 119 1.92 118 1.97 120 1.97  38 3.03   6 3.03  40 3.03

  38  0.598  0.333  0.306- 120 1.92 117 1.92  88 1.92 122 1.92 121 1.97 123 1.97  37 3.03  39 3.03
                            21 3.03  43 3.06
  39  0.315  0.333  0.271- 125 1.92 123 1.92  93 1.92 117 1.97 124 1.97  40 3.03  38 3.03  24 3.03

  40  0.098  0.500  0.306-  60 1.92 124 1.92 118 1.92 126 1.92 119 1.97 125 1.97   7 3.03  39 3.03
                            37 3.03  41 3.06
  41  0.950  0.500  0.414-  65 1.92 129 1.92 127 1.92 119 1.96 128 1.97 126 1.98  44 2.99  10 3.04
                            42 3.04  40 3.06
  42  0.730  0.333  0.447- 122 1.90 128 1.92  96 1.92 130 1.95 131 1.96 129 1.99  43 2.99  41 3.04
                            25 3.04  47 3.08
  43  0.450  0.333  0.414- 133 1.92 101 1.92 131 1.92 123 1.96 132 1.97 122 1.98  42 2.99  44 3.04
                            28 3.04  38 3.06
  44  0.230  0.500  0.447- 126 1.90  68 1.92 132 1.92 134 1.95 127 1.96 133 1.99  41 2.99  11 3.04
                            43 3.04  45 3.08
  45  0.090  0.500  0.556- 137 1.92  73 1.92 135 1.92 136 1.97 134 1.98 127 1.98  48 2.94  14 3.04
                            46 3.04  44 3.08
  46  0.868  0.333  0.586- 130 1.87 136 1.92 104 1.92 139 1.93 138 1.98 137 2.00  47 2.94  45 3.04
                            29 3.04  51 3.17
  47  0.590  0.333  0.556- 141 1.92 109 1.92 139 1.92 140 1.97 130 1.98 131 1.98  46 2.94  48 3.04
                            32 3.04  42 3.08
  48  0.368  0.500  0.586- 134 1.87  76 1.92 140 1.92 135 1.93 142 1.98 141 2.00  45 2.94  15 3.04
                            47 3.04  49 3.17
  49  0.236  0.500  0.702- 143 1.85  81 1.92 145 1.92 144 2.00 142 2.05 135 2.07  52 2.84  18 3.06
                            50 3.06  48 3.17
  50  0.007  0.333  0.725- 138 1.79 146 1.83 144 1.96 112 1.96 145 2.02  51 2.84  49 3.06  33 3.06

  51  0.736  0.333  0.702- 146 1.85 148 1.92 116 1.92 147 2.00 138 2.05 139 2.07  50 2.84  52 3.06
                            36 3.06  46 3.17
  52  0.507  0.500  0.725- 142 1.79 143 1.83  83 1.96 147 1.96 148 2.02   1 2.30  49 2.84  19 3.06
                            51 3.06
  53  0.494  0.667  0.242-   6 1.92   7 1.97
  54  0.994  0.833  0.242-   8 1.92   5 1.97
  55  0.919  0.833  0.336-   5 1.92   9 1.96   8 1.97
  56  0.636  0.833  0.300-  22 1.92   6 1.92   5 1.97
  57  0.778  0.667  0.277-  37 1.92   5 1.92   6 1.97
  58  0.628  0.667  0.383-  10 1.90   6 1.92  11 1.98
  59  0.419  0.667  0.336-   7 1.92  11 1.96   6 1.97
  60  0.136  0.667  0.300-  40 1.92   8 1.92   7 1.97
  61  0.278  0.833  0.277-  23 1.92   7 1.92   8 1.97
  62  0.128  0.833  0.383-  12 1.90   8 1.92   9 1.98
  63  0.055  0.833  0.478-   9 1.92  12 1.96  13 1.98
  64  0.770  0.833  0.442-  26 1.92  10 1.92   9 1.97
  65  0.912  0.667  0.419-  41 1.92   9 1.92  10 1.99
  66  0.766  0.667  0.524-  14 1.87  10 1.95  15 1.98
  67  0.555  0.667  0.478-  11 1.92  10 1.96  15 1.98
  68  0.270  0.667  0.442-  44 1.92  12 1.92  11 1.97
  69  0.412  0.833  0.419-  27 1.92  11 1.92  12 1.99
  70  0.266  0.833  0.524-  16 1.87  12 1.95  13 1.98
  71  0.198  0.833  0.620-  13 1.92  16 1.93  17 2.07
  72  0.909  0.833  0.583-  30 1.92  14 1.92  13 1.97
  73  0.053  0.667  0.561-  13 1.92  45 1.92  14 2.00
  74  0.914  0.667  0.664-  18 1.79  14 1.98  19 2.05
  75  0.698  0.667  0.620-  15 1.92  14 1.93  19 2.07
  76  0.409  0.667  0.583-  48 1.92  16 1.92  15 1.97
  77  0.553  0.833  0.561-  15 1.92  31 1.92  16 2.00
  78  0.414  0.833  0.664-  20 1.79  16 1.98  17 2.05
  79  0.350  0.833  0.760-  20 1.83  17 1.85
  80  0.058  0.833  0.734-  34 1.96  18 1.96  17 2.00
  81  0.197  0.667  0.703-  49 1.92  17 1.92  18 2.02
  82  0.850  0.667  0.760-  18 1.83  19 1.85
  83  0.558  0.667  0.734-  52 1.96  20 1.96  19 2.00
  84  0.697  0.833  0.703-  35 1.92  19 1.92  20 2.02
  85  0.494  0.000  0.242-  22 1.92  23 1.97
  86  0.994  0.167  0.242-  24 1.92  21 1.97
  87  0.919  0.167  0.336-  21 1.92  25 1.96  24 1.97
  88  0.636  0.167  0.300-  22 1.92  38 1.92  21 1.97
  89  0.778  0.000  0.277-   5 1.92  21 1.92  22 1.97
  90  0.628  0.000  0.383-  26 1.90  22 1.92  27 1.98
  91  0.419  0.000  0.336-  23 1.92  27 1.96  22 1.97
  92  0.136  0.000  0.300-   8 1.92  24 1.92  23 1.97
  93  0.278  0.167  0.277-  23 1.92  39 1.92  24 1.97
  94  0.128  0.167  0.383-  28 1.90  24 1.92  25 1.98
  95  0.055  0.167  0.478-  25 1.92  28 1.96  29 1.98
  96  0.770  0.167  0.442-  26 1.92  42 1.92  25 1.97
  97  0.912  0.000  0.419-  25 1.92   9 1.92  26 1.99
  98  0.766  1.000  0.524-  30 1.87  26 1.95  31 1.98
  99  0.555  1.000  0.478-  27 1.92  26 1.96  31 1.98
 100  0.270  0.000  0.442-  28 1.92  12 1.92  27 1.97
 101  0.412  0.167  0.419-  27 1.92  43 1.92  28 1.99
 102  0.266  0.167  0.524-  32 1.87  28 1.95  29 1.98
 103  0.198  0.167  0.620-  29 1.92  32 1.93  33 2.07
 104  0.909  0.167  0.583-  30 1.92  46 1.92  29 1.97
 105  0.053  1.000  0.561-  13 1.92  29 1.92  30 2.00
 106  0.914  0.000  0.664-  34 1.79  30 1.98  35 2.05
 107  0.698  0.000  0.620-  31 1.92  30 1.93  35 2.07
 108  0.409  0.000  0.583-  32 1.92  16 1.92  31 1.97
 109  0.553  0.167  0.561-  47 1.92  31 1.92  32 2.00
 110  0.414  0.167  0.664-  36 1.79  32 1.98  33 2.05
 111  0.350  0.167  0.760-  36 1.83  33 1.85
 112  0.058  0.167  0.734-  34 1.96  50 1.96  33 2.00
[...]
 134  0.266  0.500  0.524-  48 1.87  44 1.95  45 1.98
 135  0.198  0.500  0.620-  45 1.92  48 1.93  49 2.07
 136  0.909  0.500  0.583-  46 1.92  14 1.92  45 1.97
 137  0.053  0.333  0.561-  29 1.92  45 1.92  46 2.00
 138  0.914  0.333  0.664-  50 1.79  46 1.98  51 2.05
 139  0.698  0.333  0.620-  47 1.92  46 1.93  51 2.07
 140  0.409  0.333  0.583-  48 1.92  32 1.92  47 1.97
 141  0.553  0.500  0.561-  47 1.92  15 1.92  48 2.00
 142  0.414  0.500  0.664-  52 1.79  48 1.98  49 2.05
 143  0.350  0.500  0.760-  52 1.83  49 1.85
 144  0.058  0.500  0.734-  18 1.96  50 1.96  49 2.00
 145  0.197  0.333  0.703-  49 1.92  33 1.92  50 2.02
 146  0.850  0.333  0.760-  50 1.83  51 1.85
 147  0.558  0.333  0.734-  52 1.96  36 1.96  51 2.00
 148  0.697  0.500  0.703-  19 1.92  51 1.92  52 2.02

IMPORTANT INFORMATION: All symmetrisations will be switched off!
NOSYMM: (Re-)initialisation of all symmetry stuff for point group C_1.

                                     Primitive cell

  volume of cell :    2859.6974

  direct lattice vectors                    reciprocal lattice vectors
[...]
   -.399E+02 0.550E+02 -.221E+03   0.445E+02 -.612E+02 0.221E+03   -.435E+01 0.588E+01 -.318E+00   0.563E-05 -.903E-05 0.177E-03
   -.399E+02 -.550E+02 -.221E+03   0.445E+02 0.612E+02 0.221E+03   -.435E+01 -.588E+01 -.318E+00   0.562E-05 0.923E-05 0.177E-03
   0.958E+01 -.688E-01 0.884E+03   -.640E+01 0.696E-01 -.881E+03   0.959E+00 0.295E-03 -.204E+01   -.994E-05 -.566E-05 -.216E-03
   -.159E+01 -.840E-01 0.711E+03   0.518E+00 0.848E-01 -.712E+03   -.738E+00 -.573E-03 -.874E+00   0.762E-05 -.405E-05 -.527E-03
   0.969E+01 -.487E-01 0.884E+03   -.652E+01 0.450E-01 -.880E+03   0.949E+00 -.893E-03 -.204E+01   -.107E-04 -.422E-05 -.214E-03
   -.192E+01 -.129E-01 0.711E+03   0.832E+00 0.760E-02 -.712E+03   -.745E+00 -.125E-02 -.878E+00   0.554E-05 -.511E-05 -.527E-03
   -.510E+00 0.882E-01 0.326E+03   0.365E+00 -.895E-01 -.326E+03   0.136E+00 -.790E-03 0.391E-01   -.608E-05 -.816E-05 -.121E-02
   0.178E+00 -.668E+00 0.206E+03   -.609E-01 0.664E+00 -.206E+03   -.686E-01 0.967E-02 -.111E+00   -.309E-05 -.667E-05 -.134E-02
   0.569E-01 -.209E+00 0.326E+03   -.190E+00 0.211E+00 -.326E+03   0.130E+00 0.331E-02 0.229E-01   -.781E-05 -.366E-05 -.121E-02
   -.108E+01 0.599E-01 0.205E+03   0.121E+01 -.596E-01 -.204E+03   -.657E-01 0.226E-03 -.111E+00   -.758E-05 -.971E-05 -.134E-02
   -.240E+01 -.891E+00 -.199E+03   0.216E+01 0.877E+00 0.199E+03   0.223E+00 0.105E-01 0.146E+00   -.173E-05 -.145E-04 -.131E-02
   -.347E+01 -.179E+01 -.299E+03   0.375E+01 0.181E+01 0.299E+03   -.158E+00 -.152E-01 -.222E+00   -.849E-05 -.116E-04 -.120E-02
   -.158E+00 -.106E+01 -.192E+03   -.282E-01 0.106E+01 0.192E+03   0.188E+00 0.141E-02 0.960E-01   -.234E-05 -.150E-04 -.132E-02
   0.672E+00 -.387E+00 -.305E+03   -.382E+00 0.400E+00 0.305E+03   -.166E+00 -.157E-01 -.247E+00   -.152E-04 -.960E-05 -.119E-02
   0.951E+01 -.429E+01 -.708E+03   -.103E+02 0.432E+01 0.708E+03   0.580E+00 -.110E-01 0.336E-01   -.695E-05 -.706E-05 -.349E-03
   -.313E+02 -.838E+01 -.817E+03   0.320E+02 0.831E+01 0.816E+03   -.133E+00 0.926E-01 0.674E+00   -.487E-05 0.239E-06 -.120E-03
   -.569E+01 -.154E+02 -.682E+03   0.504E+01 0.154E+02 0.682E+03   0.528E+00 -.189E-01 0.113E+00   0.161E-05 -.463E-05 -.383E-03
   -.205E+02 -.140E+02 -.813E+03   0.211E+02 0.139E+02 0.813E+03   -.901E-01 0.489E-01 0.680E+00   -.109E-04 -.998E-05 -.116E-03
   0.958E+01 0.688E-01 0.884E+03   -.640E+01 -.696E-01 -.881E+03   0.959E+00 -.295E-03 -.204E+01   -.997E-05 0.563E-05 -.216E-03
   -.160E+01 0.399E-05 0.711E+03   0.522E+00 -.392E-05 -.712E+03   -.741E+00 0.375E-07 -.878E+00   0.589E-05 0.371E-08 -.526E-03
   0.966E+01 0.444E-05 0.884E+03   -.648E+01 -.430E-05 -.881E+03   0.955E+00 0.354E-07 -.204E+01   -.926E-05 0.111E-08 -.211E-03
   -.192E+01 0.129E-01 0.711E+03   0.832E+00 -.761E-02 -.712E+03   -.745E+00 0.125E-02 -.878E+00   0.559E-05 0.512E-05 -.527E-03
   -.510E+00 -.882E-01 0.326E+03   0.365E+00 0.895E-01 -.326E+03   0.136E+00 0.790E-03 0.391E-01   -.611E-05 0.819E-05 -.121E-02
   -.444E+00 -.782E-06 0.206E+03   0.552E+00 0.105E-05 -.205E+03   -.553E-01 -.291E-06 -.111E+00   0.830E-06 0.133E-07 -.134E-02
   0.711E-01 0.182E-04 0.326E+03   -.209E+00 -.182E-04 -.326E+03   0.129E+00 -.211E-06 0.295E-01   -.564E-05 -.479E-09 -.122E-02
   -.108E+01 -.599E-01 0.205E+03   0.121E+01 0.596E-01 -.204E+03   -.657E-01 -.227E-03 -.111E+00   -.759E-05 0.970E-05 -.134E-02
   -.240E+01 0.891E+00 -.199E+03   0.216E+01 -.877E+00 0.199E+03   0.223E+00 -.105E-01 0.146E+00   -.177E-05 0.144E-04 -.131E-02
   -.286E+01 -.627E-05 -.305E+03   0.316E+01 0.794E-05 0.305E+03   -.160E+00 -.964E-06 -.213E+00   -.121E-04 -.419E-07 -.120E-02
   -.176E+01 0.568E-04 -.197E+03   0.152E+01 -.555E-04 0.197E+03   0.224E+00 -.117E-05 0.169E+00   -.823E-07 -.388E-07 -.132E-02
   0.672E+00 0.387E+00 -.305E+03   -.382E+00 -.400E+00 0.305E+03   -.166E+00 0.157E-01 -.247E+00   -.152E-04 0.953E-05 -.119E-02
   0.951E+01 0.429E+01 -.708E+03   -.103E+02 -.432E+01 0.708E+03   0.580E+00 0.110E-01 0.336E-01   -.695E-05 0.690E-05 -.349E-03
   -.269E+02 -.103E-04 -.821E+03   0.276E+02 0.116E-04 0.821E+03   -.138E+00 0.152E-05 0.668E+00   -.280E-06 -.169E-06 -.115E-03
   0.314E+01 -.941E-05 -.707E+03   -.385E+01 0.140E-04 0.707E+03   0.539E+00 0.193E-05 0.617E-01   0.129E-04 -.138E-06 -.365E-03
   -.205E+02 0.140E+02 -.813E+03   0.211E+02 -.139E+02 0.813E+03   -.901E-01 -.489E-01 0.680E+00   -.109E-04 0.978E-05 -.116E-03
   0.957E+01 -.202E-05 0.884E+03   -.637E+01 0.191E-05 -.881E+03   0.963E+00 -.436E-07 -.204E+01   -.810E-05 0.255E-07 -.218E-03
   -.159E+01 0.840E-01 0.711E+03   0.518E+00 -.848E-01 -.712E+03   -.738E+00 0.573E-03 -.874E+00   0.759E-05 0.404E-05 -.527E-03
   0.969E+01 0.487E-01 0.884E+03   -.652E+01 -.450E-01 -.880E+03   0.949E+00 0.893E-03 -.204E+01   -.107E-04 0.423E-05 -.214E-03
   -.204E+01 -.553E-05 0.711E+03   0.978E+00 0.556E-05 -.712E+03   -.742E+00 -.479E-07 -.848E+00   0.398E-05 -.511E-08 -.525E-03
   -.172E+00 -.179E-04 0.325E+03   0.237E-02 0.179E-04 -.325E+03   0.136E+00 0.400E-06 0.585E-01   -.496E-05 -.942E-08 -.121E-02
   0.178E+00 0.668E+00 0.206E+03   -.608E-01 -.664E+00 -.206E+03   -.686E-01 -.967E-02 -.111E+00   -.306E-05 0.666E-05 -.134E-02
   0.569E-01 0.209E+00 0.326E+03   -.190E+00 -.211E+00 -.326E+03   0.130E+00 -.331E-02 0.229E-01   -.782E-05 0.365E-05 -.121E-02
   -.168E+01 -.230E-04 0.200E+03   0.181E+01 0.229E-04 -.200E+03   -.724E-01 0.442E-06 -.220E-01   -.187E-06 -.478E-08 -.134E-02
   -.155E+01 0.253E-04 -.199E+03   0.128E+01 -.254E-04 0.199E+03   0.205E+00 -.376E-06 0.157E+00   0.123E-04 0.253E-07 -.131E-02
   -.347E+01 0.179E+01 -.299E+03   0.375E+01 -.181E+01 0.299E+03   -.158E+00 0.152E-01 -.222E+00   -.851E-05 0.117E-04 -.120E-02
   -.158E+00 0.106E+01 -.192E+03   -.281E-01 -.106E+01 0.192E+03   0.188E+00 -.141E-02 0.960E-01   -.232E-05 0.150E-04 -.132E-02
   0.110E+01 -.625E-04 -.315E+03   -.861E+00 0.605E-04 0.315E+03   -.146E+00 0.151E-05 -.107E+00   -.922E-05 0.562E-07 -.117E-02
   0.167E+02 -.103E-04 -.705E+03   -.173E+02 0.723E-05 0.705E+03   0.402E+00 0.932E-06 0.110E+00   0.151E-04 0.163E-06 -.352E-03
   -.313E+02 0.838E+01 -.817E+03   0.320E+02 -.831E+01 0.816E+03   -.133E+00 -.926E-01 0.674E+00   -.487E-05 -.774E-07 -.121E-03
   -.569E+01 0.154E+02 -.682E+03   0.504E+01 -.154E+02 0.682E+03   0.528E+00 0.189E-01 0.113E+00   0.159E-05 0.478E-05 -.383E-03
   0.914E+01 -.150E-03 -.784E+03   -.818E+01 0.137E-03 0.784E+03   -.554E+00 -.867E-06 -.241E+00   -.140E-04 0.185E-06 -.728E-04
   -.675E+01 -.185E+00 0.142E+04   0.120E+02 0.187E+00 -.144E+04   -.628E+01 -.236E-02 0.164E+02   0.238E-04 -.730E-05 -.945E-06
   -.708E+01 -.153E+00 0.142E+04   0.123E+02 0.153E+00 -.144E+04   -.628E+01 0.179E-02 0.164E+02   0.153E-04 -.967E-05 0.185E-05
   0.452E+02 0.922E-01 0.898E+03   -.499E+02 -.895E-01 -.893E+03   0.315E+01 -.362E-02 -.391E+01   -.140E-05 -.849E-05 -.108E-02
   0.322E+02 -.782E-01 0.109E+04   -.394E+02 0.798E-01 -.109E+04   0.667E+01 -.136E-02 -.235E+01   -.808E-05 -.552E-05 -.683E-03
   -.445E+02 -.141E+00 0.125E+04   0.518E+02 0.139E+00 -.125E+04   -.605E+01 0.107E-02 -.393E+00   -.671E-05 -.608E-05 -.411E-03
   -.384E+02 -.466E+00 0.672E+03   0.444E+02 0.510E+00 -.676E+03   -.532E+01 -.360E-01 0.389E+01   0.102E-04 -.704E-05 -.155E-02
   0.458E+02 0.380E-02 0.897E+03   -.505E+02 0.130E-01 -.893E+03   0.313E+01 -.169E-01 -.379E+01   -.713E-06 -.572E-05 -.108E-02
   0.317E+02 -.106E-01 0.109E+04   -.390E+02 -.105E-02 -.109E+04   0.668E+01 0.207E-01 -.237E+01   -.129E-04 -.553E-05 -.686E-03
[...]
   0.475E+02 -.192E-04 -.671E+03   -.550E+02 0.255E-04 0.679E+03   0.655E+01 -.543E-05 -.701E+01   0.107E-04 0.112E-06 -.148E-02
   0.343E+02 0.696E-04 -.447E+03   -.402E+02 -.700E-04 0.450E+03   0.512E+01 0.121E-05 -.250E+01   0.930E-06 -.640E-07 -.179E-02
   -.437E+02 0.832E+00 -.301E+03   0.501E+02 -.777E+00 0.298E+03   -.550E+01 -.461E-01 0.228E+01   -.207E-05 0.126E-04 -.192E-02
   -.504E+02 0.798E+01 -.845E+03   0.530E+02 -.828E+01 0.835E+03   -.229E+01 0.260E+00 0.872E+01   -.352E-05 0.871E-05 -.102E-02
   0.435E+02 0.726E+01 -.652E+03   -.504E+02 -.758E+01 0.658E+03   0.602E+01 0.279E+00 -.543E+01   0.421E-07 0.177E-04 -.150E-02
   0.419E+02 0.931E+00 -.456E+03   -.482E+02 -.905E+00 0.459E+03   0.553E+01 -.249E-01 -.262E+01   -.879E-05 0.180E-04 -.178E-02
   -.375E+02 0.276E-04 -.301E+03   0.434E+02 -.291E-04 0.298E+03   -.513E+01 0.187E-05 0.190E+01   -.138E-04 0.655E-07 -.191E-02
   -.293E+02 0.301E-03 -.848E+03   0.357E+02 -.353E-03 0.842E+03   -.562E+01 0.447E-04 0.537E+01   -.711E-05 0.131E-06 -.969E-03
   0.716E+02 -.232E-03 -.138E+04   -.779E+02 0.251E-03 0.140E+04   0.553E+01 -.151E-04 -.194E+02   0.173E-04 0.422E-06 0.312E-03
   0.212E+02 -.952E-04 -.126E+04   -.243E+02 0.987E-04 0.127E+04   0.272E+01 -.111E-05 -.695E+01   -.141E-05 0.384E-06 -.651E-04
   -.205E+02 0.732E+01 -.106E+04   0.253E+02 -.711E+01 0.106E+04   -.421E+01 -.186E+00 0.260E+01   -.491E-05 0.916E-05 -.495E-03
   -.219E+02 0.325E+02 -.138E+04   0.161E+02 -.323E+02 0.140E+04   0.510E+01 -.111E+00 -.187E+02   0.159E-04 -.125E-05 0.270E-03
   0.487E+02 0.466E+02 -.121E+04   -.534E+02 -.461E+02 0.122E+04   0.412E+01 -.450E+00 -.587E+01   0.167E-05 0.248E-05 -.725E-04
   -.408E+02 -.122E-03 -.988E+03   0.450E+02 0.142E-03 0.984E+03   -.361E+01 -.131E-04 0.406E+01   -.925E-05 0.250E-06 -.526E-03
   -.132E+02 -.473E-03 0.566E+02   -.341E-12 0.126E-11 0.000E+00   0.149E+02 0.441E-03 -.516E+02   -.268E-03 0.971E-06 -.145E+00

 POSITION                                       TOTAL-FORCE (eV/Angst)
      6.29014      5.62660     20.12064         0.006424      0.000789      0.003144
      5.64264      5.62661     20.89897        -0.003589     -0.000041      0.002190
      6.89201      4.81152     20.18791        -0.005532      0.003122      0.001392
      6.89201      6.44170     20.18791        -0.006029     -0.003852      0.001298
      8.35277      9.37768      6.72231         4.337179      0.001061      1.779545
      6.13317      7.50214      7.59504        -1.922751      0.000180     -2.135686
      3.22728      7.50214      6.72231         4.305101     -0.004698      1.765739
      1.00768      9.37768      7.59504        -1.954872     -0.006721     -2.143179
      9.74169      9.37793     10.25229        -0.000167     -0.000873     -0.002440
      7.49507      7.49848     11.06094         0.002758     -0.002413      0.000725
      4.61121      7.49977     10.24907        -0.000519     -0.000396     -0.000226
      2.36284      9.37725     11.06881        -0.000632      0.000864      0.001491
      0.93080      9.37865     13.79543        -0.000580     -0.001577     -0.000923
      8.91328      7.49715     14.51368        -0.001451     -0.003653      0.001796
      6.04392      7.49854     13.77627         0.001885      0.003185      0.003664
      3.77696      9.37771     14.53651        -0.000319      0.000126      0.001122
      2.41950      9.37116     17.40584        -0.000710      0.000053      0.000734
      0.05863      7.49132     17.97235         0.001848     -0.001128      0.001184
      7.53118      7.50065     17.33638        -0.001583      0.002424      0.000285
      5.20459      9.39314     17.96452         0.003204     -0.001846      0.002273
      8.35277      1.87554      6.72231         4.337178     -0.001061      1.779544
      6.13317      0.00000      7.59504        -1.939136      0.000000     -2.139950
      3.22728      0.00000      6.72231         4.326363      0.000000      1.771628
      1.00768      1.87554      7.59504        -1.954872      0.006721     -2.143179
      9.74169      1.87528     10.25229        -0.000167      0.000873     -0.002440
      7.49210      0.00000     11.06267        -0.004078     -0.000000      0.000616
      4.61327     -0.00000     10.25164         0.000415     -0.000000      0.000750
      2.36284      1.87596     11.06881        -0.000632     -0.000865      0.001491
      0.93080      1.87456     13.79543        -0.000580      0.001578     -0.000922
      8.90274      0.00000     14.52548        -0.001534      0.000001      0.005935
      6.05033      0.00000     13.78516        -0.003090      0.000001      0.001888
      3.77696      1.87550     14.53651        -0.000319     -0.000126      0.001125
      2.41950      1.88205     17.40584        -0.000709     -0.000052      0.000737
      0.07898     -0.00000     17.97376         0.000877      0.000002      0.000849
      7.56066     -0.00000     17.38837         0.001144      0.000006     -0.005178
      5.20459      1.86007     17.96453         0.003212      0.001858      0.002278
      8.35277      5.62661      6.72231         4.349901     -0.000000      1.778449
      6.13317      3.75107      7.59504        -1.922752     -0.000180     -2.135686
      3.22728      3.75107      6.72231         4.305102      0.004698      1.765739
      1.00768      5.62661      7.59504        -1.924709     -0.000000     -2.059290
      9.75442      5.62661     10.24832        -0.002034      0.000000      0.001142
      7.49507      3.75473     11.06094         0.002759      0.002413      0.000725
      4.61121      3.75344     10.24907        -0.000519      0.000397     -0.000226
      2.36621      5.62661     11.09685         0.000100      0.000000      0.004160
      0.95801      5.62661     13.80161         0.002276     -0.000001      0.004283
      8.91328      3.75606     14.51368        -0.001451      0.003653      0.001797
      6.04392      3.75467     13.77627         0.001885     -0.003186      0.003665
      3.79273      5.62661     14.62351        -0.003679     -0.000001     -0.000304
      2.45660      5.62661     17.42571        -0.000007     -0.000002      0.002101
      0.05863      3.76189     17.97235         0.001837      0.001125      0.001187
      7.53118      3.75256     17.33639        -0.001584     -0.002430      0.000293
      5.23824      5.62661     18.13439        -0.001694     -0.000013     -0.001717
      5.06431      7.50214      6.00000        -2.041929     -0.001533      1.041460
     10.18980      9.37768      6.00000        -2.038584      0.001754      1.039772
      9.42163      9.37768      8.31734        -1.130380     -0.001505     -0.096271
      6.51574      9.37768      7.44462         0.416161     -0.000001     -0.073569
      7.97020      7.50214      6.87273         0.360502     -0.000527     -1.193182
      6.43691      7.50214      9.49092        -0.048927      0.002459      0.628971
      4.29614      7.50214      8.31734        -1.136068     -0.002723     -0.088986
      1.39025      7.50214      7.44462         0.428357      0.012686     -0.082633
[...]
      2.74648      5.62661     13.01541        -0.001765      0.000000     -0.002774
      2.02372      5.62661     15.39187         0.001698      0.000000      0.000969
      9.32287      5.62661     14.43390        -0.000336      0.000001     -0.001311
      0.55217      3.75204     13.89438         0.001789      0.002027     -0.000226
      9.37647      3.74777     16.44460         0.000369      0.001142      0.003031
      7.16316      3.73893     15.34654         0.001577      0.002734     -0.000057
      4.19808      3.75175     14.46694        -0.000824     -0.002168      0.000750
      5.67001      5.62661     13.91593         0.000379      0.000001     -0.002482
      4.24382      5.62660     16.53143         0.002133     -0.000001      0.006562
      3.57527      5.62661     18.90209         0.000103      0.000002      0.003035
      0.57980      5.62661     18.20394        -0.001950      0.000003      0.001679
      2.01544      3.75440     17.44145         0.001353     -0.000257      0.000554
      8.68412      3.78207     18.81858        -0.001521     -0.001478      0.001276
      5.71967      3.72089     18.15914         0.000820      0.002815      0.001058
      7.12062      5.62660     17.35687         0.001771      0.000006     -0.003220
    total drift:                                0.017828     -0.000001      0.032984

  FREE ENERGIE OF THE ION-ELECTRON SYSTEM (eV)
  free  energy   TOTEN  =     -1596.11756128 eV

  energy  without entropy=    -1596.11756128  energy(sigma->0) =    -1596.11756128

 d Force = 0.5491090E-04[ 0.240E-04, 0.858E-04]  d Energy = 0.5507347E-04-0.163E-06
 d Force = 0.5875362E+01[ 0.588E+01, 0.588E+01]  d Ewald  = 0.5875361E+01 0.100E-05

 Conjugate gradient step on ions:
 trial-energy change:   -0.000055  1 .order   -0.000055   -0.000086   -0.000024
  (g-gl).g = 0.133E-03      g.g   = 0.139E-03  gl.gl    = 0.178E-03
 g(Force)  = 0.139E-03   g(Stress)= 0.000E+00 ortho     =-0.342E-05
 gamma     =   0.75139
 trial     =   0.62992
 opt step  =   0.87396  (harmonic =   0.87396) maximal distance =0.00096518
 next E    = -1596.117566   (d E  =  -0.00006)

 reached required accuracy - stopping structural energy minimisation