 vasp.6.3.0 20Jan22 (build Apr  1 2022 16:44:48) gamma-only
 executed on        HPECrayEX_GCC date 2023.03.12  01:17:31

 INCAR:
   SYSTEM = MgO-rocksalt
   ISMEAR = 0
   SIGMA = 0.05
   EDIFF = 1E-6
   ALGO = ALL
   ISTART = 0
   IBRION = -1
   NSW = 0
   ISYM = 0
   DIPOL = 0.5 0.5 0.5
   IDIPOL = 3
   LDIPOL = .TRUE.
   LHFCALC = .TRUE.
   GGA = B5
   AEXX = 0.2
   AGGAX = 0.72
   AGGAC = 0.81
   ALDAC = 0.19
   IVDW = 1
   VDW_S6 = 1.05
   VDW_C6 = 1.75 0.70 0.14 0.63 0.70
   VDW_R0 = 1.452 1.342 1.001 1.243 1.342
   ENCUT = 520
   PREC = Accurate
   LASPH = .TRUE.
   LREAL = Auto
   ISPIN = 1
   NELM = 200
   NELMIN = 8
   NCORE = 8
   KPAR = 1
   LWAVE = .FALSE.
   LCHARG = .FALSE.

 POTCAR:    PAW_PBE C 08Apr2002
 POTCAR:    PAW_PBE O 08Apr2002
 POTCAR:    PAW_PBE H 15Jun2001
 POTCAR:    PAW_PBE Mg_pv 13Apr2007
 POTCAR:    PAW_PBE O 08Apr2002
 POTCAR:    PAW_PBE C 08Apr2002
   VRHFIN =C: s2p2

   TITEL  = PAW_PBE C 08Apr2002
   POMASS =   12.011; ZVAL   =    4.000    mass and valenz
   ENMAX  =  400.000; ENMIN  =  300.000 eV

[...]

   TITEL  = PAW_PBE H 15Jun2001
   POMASS =    1.000; ZVAL   =    1.000    mass and valenz
   ENMAX  =  250.000; ENMIN  =  200.000 eV

   TITEL  = PAW_PBE Mg_pv 13Apr2007
   POMASS =   24.305; ZVAL   =    8.000    mass and valenz
   ENMAX  =  403.929; ENMIN  =  302.947 eV

   TITEL  = PAW_PBE O 08Apr2002
   POMASS =   16.000; ZVAL   =    6.000    mass and valenz
   ENMAX  =  400.000; ENMIN  =  300.000 eV

 Optimization of the real space projectors (new method)

 maximal supplied QI-value         = 25.13
 optimisation between [QCUT,QGAM] = [ 11.56, 23.12] = [ 37.43,149.72] Ry
 Optimized for a Real-space Cutoff    1.04 Angstroem

   l    n(q)    QCUT    max X(q) W(low)/X(q) W(high)/X(q)  e(spline)
   0      7    11.561   115.676    0.20E-03    0.60E-03    0.21E-06
   0      7    11.561    87.132    0.20E-03    0.59E-03    0.21E-06
   1      7    11.561     4.429    0.23E-03    0.35E-03    0.15E-06
   1      7    11.561     2.733    0.18E-03    0.25E-03    0.12E-06
 Optimization of the real space projectors (new method)

[...]

   l    n(q)    QCUT    max X(q) W(low)/X(q) W(high)/X(q)  e(spline)
   1      8    11.527     2.974    0.44E-04    0.56E-04    0.12E-06
   1      8    11.527     4.279    0.12E-03    0.12E-03    0.26E-06
   0      9    11.527    16.381    0.46E-04    0.64E-04    0.78E-07
   0      9    11.527     5.611    0.26E-04    0.43E-04    0.55E-07
   2      8    11.527     4.652    0.22E-03    0.72E-04    0.47E-07
 Optimization of the real space projectors (new method)

 maximal supplied QI-value         = 24.76
 optimisation between [QCUT,QGAM] = [ 11.64, 23.27] = [ 37.91,151.63] Ry
 Optimized for a Real-space Cutoff    1.14 Angstroem

   l    n(q)    QCUT    max X(q) W(low)/X(q) W(high)/X(q)  e(spline)
   0      8    11.635    20.381    0.10E-03    0.33E-03    0.24E-06
   0      8    11.635    15.268    0.11E-03    0.35E-03    0.26E-06
   1      7    11.635     5.964    0.24E-03    0.31E-03    0.30E-06
   1      7    11.635     5.382    0.22E-03    0.25E-03    0.26E-06
|               ----> ADVICE to this user running VASP <----                  |
|     You enforced a specific xc type in the INCAR file but a different       |
|     type was found in the POTCAR file.                                      |
|     I HOPE YOU KNOW WHAT YOU ARE DOING!                                     |

  PAW_PBE C 08Apr2002                   :
  PAW_PBE O 08Apr2002                   :
  PAW_PBE H 15Jun2001                   :
  PAW_PBE Mg_pv 13Apr2007               :
  PAW_PBE O 08Apr2002                   :

 POSCAR:  C  O  H Mg  O
  positions in direct lattice
 exchange correlation table for  LEXCH =       12
   RHO(1)=    0.500       N(1)  =     2000
   RHO(2)=  100.500       N(2)  =     4000

 ion  position               nearest neighbor table
   1  0.528  0.556  0.794-  12 1.10  11 1.10   9 1.10   5 1.44
   2  0.319  0.401  0.795-  16 1.10  15 1.10  13 1.10   6 1.44
   3  0.474  0.194  0.795-  20 1.10  19 1.10  17 1.10   7 1.44
   4  0.681  0.347  0.794-  24 1.10  23 1.10  21 1.10   8 1.44
   5  0.508  0.488  0.757-  10 1.00   1 1.44
   6  0.387  0.383  0.757-  14 1.00   2 1.44
   7  0.492  0.262  0.757-  18 1.00   3 1.44
   8  0.613  0.367  0.757-  22 1.00   4 1.44
   9  0.520  0.543  0.845-   1 1.10
  10  0.552  0.449  0.759-   5 1.00
  11  0.590  0.574  0.786-   1 1.10
  12  0.489  0.605  0.780-   1 1.10
  13  0.333  0.392  0.845-   2 1.10
  14  0.426  0.427  0.760-   6 1.00
  15  0.301  0.463  0.788-   2 1.10
  16  0.271  0.362  0.781-   2 1.10
  17  0.484  0.208  0.845-   3 1.10
  18  0.448  0.301  0.759-   7 1.00
  19  0.412  0.176  0.788-   3 1.10
  20  0.513  0.146  0.781-   3 1.10
  21  0.669  0.355  0.844-   4 1.10
  22  0.574  0.323  0.759-   8 1.00
  23  0.699  0.285  0.786-   4 1.10
  24  0.730  0.385  0.779-   4 1.10
  25  0.000  0.375  0.352- 153 2.11 156 2.11 163 2.11 187 2.11 236 2.11
  26  0.125  0.000  0.352- 154 2.11 155 2.11 164 2.11 171 2.11 188 2.11
  27  0.000  0.000  0.451- 155 2.11 154 2.11 161 2.11 185 2.11 234 2.11 159 2.11
  28  0.125  0.375  0.451- 160 2.11 156 2.11 153 2.11 162 2.11 169 2.11 186 2.11
  29  0.000  0.375  0.550- 240 2.11 160 2.11 191 2.11 167 2.11 153 2.11 157 2.15
  30  0.125  1.000  0.550- 168 2.11 175 2.11 159 2.11 192 2.11 154 2.11 158 2.15
  31  0.000  1.000  0.648- 159 2.10 158 2.11 238 2.11 189 2.11 165 2.11
  32  0.125  0.375  0.647- 173 2.09 160 2.09 157 2.11 190 2.11 166 2.11
  33  0.000  0.125  0.352- 161 2.11 155 2.11 163 2.11 164 2.11 244 2.11
  34  0.125  0.250  0.352- 162 2.11 156 2.11 163 2.11 164 2.11 179 2.11
  35  0.000  0.250  0.451- 167 2.11 163 2.11 162 2.11 153 2.11 161 2.11 242 2.11
  36  0.125  0.125  0.451- 168 2.11 164 2.11 162 2.11 154 2.11 161 2.11 177 2.11
  37  0.000  0.125  0.550- 248 2.11 168 2.11 167 2.11 159 2.11 161 2.11 165 2.15
  38  0.125  0.250  0.550- 183 2.10 167 2.11 160 2.11 162 2.11 168 2.11 166 2.15
  39  0.000  0.250  0.648- 167 2.10 246 2.11 166 2.11 165 2.11 157 2.11
  40  0.125  0.125  0.648- 168 2.10 181 2.10 165 2.11 166 2.11 158 2.11
  41  0.250  0.375  0.352- 169 2.11 156 2.11 172 2.11 179 2.11 203 2.11
  42  0.375  0.000  0.352- 170 2.11 171 2.11 180 2.11 204 2.11 219 2.11
  43  0.250  0.000  0.451- 175 2.11 171 2.11 154 2.11 170 2.11 177 2.11 201 2.11
  44  0.375  0.375  0.451- 172 2.11 169 2.11 178 2.11 202 2.11 217 2.11 176 2.12
  45  0.250  0.375  0.550- 176 2.10 183 2.11 207 2.11 169 2.12 160 2.12 173 2.14
  46  0.375  1.000  0.550- 184 2.10 208 2.11 223 2.11 170 2.11 175 2.11 174 2.15
  47  0.250  1.000  0.648- 175 2.10 181 2.10 205 2.11 174 2.11 158 2.11
  48  0.375  0.375  0.651- 221 2.12 173 2.12 182 2.13 206 2.14 176 2.16
  49  0.250  0.125  0.352- 177 2.11 171 2.11 164 2.11 179 2.11 180 2.11
  50  0.375  0.250  0.352- 178 2.11 172 2.11 179 2.11 180 2.11 227 2.11
  51  0.250  0.250  0.451- 183 2.11 179 2.11 177 2.11 178 2.11 162 2.11 169 2.11
  52  0.375  0.125  0.451- 184 2.11 180 2.11 178 2.11 170 2.11 177 2.11 225 2.11
  53  0.250  0.125  0.549- 183 2.11 184 2.11 177 2.11 168 2.11 175 2.11 181 2.15
  54  0.375  0.251  0.550- 231 2.10 176 2.10 182 2.12 183 2.13 184 2.13 178 2.13
  55  0.250  0.250  0.647- 182 2.09 183 2.09 166 2.11 173 2.11 181 2.12
  56  0.375  0.125  0.647- 184 2.08 182 2.09 174 2.11 229 2.12 181 2.12
  57  0.000  0.875  0.352- 185 2.11 155 2.11 188 2.11 195 2.11 268 2.11
  58  0.125  0.500  0.352- 186 2.11 156 2.11 187 2.11 196 2.11 203 2.11
  59  0.000  0.500  0.451- 187 2.11 186 2.11 153 2.11 193 2.11 266 2.11 191 2.11
  60  0.125  0.875  0.451- 192 2.11 188 2.11 154 2.11 185 2.11 194 2.11 201 2.11
[...]
 266  0.875  0.500  0.451- 138 2.11 108 2.11  59 2.11 139 2.11 148 2.11 142 2.11
 267  0.750  0.500  0.352- 139 2.11 122 2.11 138 2.11 105 2.11 145 2.11
 268  0.875  0.875  0.352- 140 2.11 106 2.11 137 2.11  57 2.11 146 2.11
 269  0.750  0.875  0.650- 111 2.11 151 2.11 144 2.11 128 2.11 141 2.15
 270  0.875  0.500  0.650-  63 2.11 152 2.11 143 2.11 112 2.11 142 2.15
 271  0.750  0.500  0.549- 143 2.09 142 2.10 139 2.11 149 2.11 109 2.11 126 2.13
 272  0.875  0.875  0.549- 144 2.10 140 2.11  61 2.11 110 2.11 150 2.11 141 2.11
 273  0.750  0.625  0.451- 145 2.11 139 2.11 132 2.11 147 2.11 148 2.11 149 2.11
 274  0.875  0.750  0.451- 146 2.11 140 2.11  67 2.11 147 2.11 148 2.11 150 2.11
 275  0.750  0.750  0.352- 147 2.11 137 2.11 145 2.11 146 2.11 130 2.11
 276  0.875  0.625  0.352- 148 2.11 138 2.11 145 2.11 146 2.11  65 2.11
 277  0.750  0.625  0.650- 151 2.10 152 2.11 136 2.11 143 2.12 149 2.15
 278  0.875  0.750  0.650- 144 2.11  71 2.11 152 2.11 151 2.11 150 2.15
 279  0.750  0.750  0.549- 151 2.10 141 2.11 150 2.11 147 2.11 149 2.11 134 2.11
 280  0.875  0.625  0.549- 152 2.10  69 2.11 150 2.11 148 2.11 142 2.11 149 2.11

IMPORTANT INFORMATION: All symmetrisations will be switched off!
NOSYMM: (Re-)initialisation of all symmetry stuff for point group C_1.

                                     Primitive cell

  volume of cell :    6079.2794

  direct lattice vectors                    reciprocal lattice vectors
    16.881969308  0.000000000  0.000000000     0.059234796  0.000000000  0.000000000
     0.000000000 16.881969308  0.000000000     0.000000000  0.059234796  0.000000000
     0.000000000  0.000000000 21.330738491     0.000000000  0.000000000  0.046880702

  length of vectors
    16.881969308 16.881969308 21.330738491     0.059234796  0.059234796  0.046880702

  position of ions in fractional coordinates (direct lattice)
     0.528222681  0.556132492  0.794340469
     0.319301119  0.401045437  0.795271378
     0.474238084  0.194175506  0.795401519
     0.681254642  0.346584835  0.794092045
     0.508242562  0.487837687  0.756771032
     0.387157520  0.382643661  0.756737555
     0.492196414  0.261853267  0.756566724
     0.613019269  0.366623831  0.756507484
     0.520044209  0.543441352  0.844589678
     0.552349315  0.448679195  0.759487494
     0.590049919  0.573673351  0.785699544
     0.489407581  0.604710593  0.779693838
     0.332961680  0.391879586  0.845252345
     0.426056281  0.426945773  0.759692949
     0.300841607  0.462820698  0.787703868
     0.270934155  0.361966174  0.780625921
     0.483807297  0.208086506  0.845291735
     0.447841908  0.300744467  0.759499169
     0.412433735  0.175546937  0.788196765
     0.513330454  0.145840181  0.780702366
     0.668657795  0.355176649  0.844320077
     0.573712673  0.322605410  0.759220498
     0.698548975  0.284636958  0.785697791
     0.729951644  0.385142120  0.779236018
     0.000000000  0.375000000  0.351605267
     0.125000000  0.000000000  0.351605267
     0.000000000  0.000000000  0.450535089
     0.125000000  0.375000000  0.450535089
     0.000008808  0.375018536  0.549586802
     0.124971452  0.999978444  0.549628335
     0.000003672  0.999919490  0.647797068
     0.124936914  0.375003271  0.647492343
     0.000000000  0.125000000  0.351605267
     0.125000000  0.250000000  0.351605267
     0.000000000  0.250000000  0.450535089
     0.125000000  0.125000000  0.450535089
     0.000003937  0.124963571  0.549627352
     0.124977474  0.250014811  0.549537325
     0.000002242  0.249910598  0.647727262
     0.124929818  0.124861943  0.647718410
[...]
   4.22049233  6.33073849  7.50000000
   6.33073849  0.00000000  7.50000000
   4.22049233  0.00000000  9.61024616
   6.33073849  6.33073849  9.61024616
   4.22792616  6.33015654 11.72860358
   6.33106801 16.88131275 11.72196562
   4.21830327 16.88055257 13.81604565
   6.32474207  6.32948308 13.88668449
   4.22049233  2.11024616  7.50000000
   6.33073849  4.22049233  7.50000000
   4.22049233  4.22049233  9.61024616
   6.33073849  2.11024616  9.61024616
   4.22041508  2.11017746 11.72108986
   6.33883175  4.22899720 11.73702417
   4.21907408  4.21657976 13.80205728
   6.32753969  2.10830865 13.80075976
   0.00000000 14.77172314  7.50000000
   2.11024616  8.44098465  7.50000000
   0.00000000  8.44098465  9.61024616
   2.11024616 14.77172314  9.61024616
[...]
  14.77172314  8.44098465  9.61024616
  12.66147698  8.44098465  7.50000000
  14.77172314 14.77172314  7.50000000
  12.66369875 14.77160367 13.87013360
  14.77463213  8.44457437 13.87185843
  12.66814966  8.44403845 11.71530529
  14.77264247 14.77157415 11.71945103
  12.66147698 10.55123082  9.61024616
  14.77172314 12.66147698  9.61024616
  12.66147698 12.66147698  7.50000000
  14.77172314 10.55123082  7.50000000
  12.66813391 10.55871800 13.87060607
  14.77429225 12.66394353 13.87030646
  12.66316151 12.66317184 11.71912916
  14.77353776 10.55306372 11.71912031

--------------------------------------- Iteration      FINAL  ---------------------------------------

--------------------OUTCAR has been truncated-------------------------

[...]

--------------------OUTCAR has been truncated-------------------------

  DFT-D2 method for vdW energy calculation

  Parameters of vdW forcefield:
         C6(Jnm^6/mol)     R0(A)
   C        1.750          1.452
   O        0.700          1.342
   H        0.140          1.001
   Mg       0.630          1.243
   O        0.700          1.342

  vdW correction parametrized for the method ®ëý      

  IVDW =   1
  VDW_RADIUS =    50.000 A
  VDW_S6 =     1.050
  VDW_SR =     1.000
  VDW_D =    20.000
  LVDW_EWALD = F

  Number of pair interactions contributing to vdW energy: 3413271
  Edisp (eV):  -21.63714

 VOLUME and BASIS-vectors are now :
  energy-cutoff  :      520.00
  volume of cell :     6079.28
      direct lattice vectors                 reciprocal lattice vectors
    16.881969308  0.000000000  0.000000000     0.059234796  0.000000000  0.000000000
     0.000000000 16.881969308  0.000000000     0.000000000  0.059234796  0.000000000
     0.000000000  0.000000000 21.330738491     0.000000000  0.000000000  0.046880702

  length of vectors
    16.881969308 16.881969308 21.330738491     0.059234796  0.059234796  0.046880702

 FORCES acting on ions:
    Electron-Ion                     Ewald-Force                    Non-Local-Force
   -.389E+02 -.194E+03 -.102E+04   0.401E+02 0.199E+03 0.102E+04   -.115E+01 -.549E+01 -.314E+01
   0.193E+03 -.366E+02 -.102E+04   -.199E+03 0.377E+02 0.102E+04   0.546E+01 -.105E+01 -.323E+01
   0.361E+02 0.193E+03 -.102E+04   -.371E+02 -.199E+03 0.102E+04   0.101E+01 0.544E+01 -.326E+01
   -.194E+03 0.390E+02 -.102E+04   0.200E+03 -.402E+02 0.103E+04   -.550E+01 0.114E+01 -.313E+01
   0.397E+02 -.105E+03 -.154E+04   -.700E+02 0.101E+03 0.152E+04   0.274E+02 0.350E+01 0.174E+02
   0.106E+03 0.362E+02 -.154E+04   -.102E+03 -.660E+02 0.152E+04   -.344E+01 0.269E+02 0.181E+02
   -.351E+02 0.106E+03 -.154E+04   0.647E+02 -.102E+03 0.152E+04   -.267E+02 -.343E+01 0.182E+02
   -.105E+03 -.397E+02 -.154E+04   0.102E+03 0.699E+02 0.152E+04   0.347E+01 -.272E+02 0.174E+02
   0.248E+01 -.186E+02 -.254E+03   -.317E+01 0.176E+02 0.259E+03   0.700E+00 0.103E+01 -.545E+01
   -.583E+02 0.218E+02 -.267E+03   0.637E+02 -.268E+02 0.267E+03   -.551E+01 0.504E+01 -.265E+00
   -.651E+02 -.474E+02 -.242E+03   0.703E+02 0.490E+02 0.241E+03   -.534E+01 -.157E+01 0.941E+00
   0.328E+02 -.748E+02 -.241E+03   -.362E+02 0.791E+02 0.239E+03   0.341E+01 -.438E+01 0.173E+01
   0.177E+02 0.364E+01 -.253E+03   -.166E+02 -.441E+01 0.259E+03   -.111E+01 0.786E+00 -.543E+01
   -.215E+02 -.590E+02 -.267E+03   0.265E+02 0.644E+02 0.267E+03   -.501E+01 -.554E+01 -.298E+00
   0.481E+02 -.647E+02 -.242E+03   -.497E+02 0.700E+02 0.241E+03   0.166E+01 -.534E+01 0.824E+00
   0.746E+02 0.333E+02 -.240E+03   -.789E+02 -.367E+02 0.238E+03   0.436E+01 0.343E+01 0.172E+01
   -.411E+01 0.175E+02 -.253E+03   0.492E+01 -.164E+02 0.259E+03   -.821E+00 -.113E+01 -.542E+01
   0.588E+02 -.213E+02 -.267E+03   -.642E+02 0.262E+02 0.267E+03   0.552E+01 -.499E+01 -.290E+00
   0.646E+02 0.483E+02 -.242E+03   -.699E+02 -.500E+02 0.241E+03   0.534E+01 0.167E+01 0.784E+00
   -.334E+02 0.747E+02 -.240E+03   0.368E+02 -.790E+02 0.238E+03   -.343E+01 0.436E+01 0.173E+01
   -.188E+02 -.290E+01 -.254E+03   0.177E+02 0.363E+01 0.260E+03   0.102E+01 -.736E+00 -.545E+01
   0.219E+02 0.577E+02 -.267E+03   -.269E+02 -.631E+02 0.267E+03   0.504E+01 0.547E+01 -.262E+00
   -.474E+02 0.652E+02 -.242E+03   0.489E+02 -.704E+02 0.242E+03   -.155E+01 0.535E+01 0.914E+00
   -.749E+02 -.325E+02 -.241E+03   0.792E+02 0.358E+02 0.239E+03   -.439E+01 -.339E+01 0.175E+01
   -.554E-01 -.497E-01 0.209E+04   0.556E-01 0.498E-01 -.208E+04   -.134E-03 -.798E-04 -.637E+01
   0.558E+01 0.561E+01 0.209E+04   -.556E+01 -.560E+01 -.208E+04   -.780E-02 -.737E-02 -.637E+01
   -.678E-01 0.790E+01 0.716E+03   0.690E-01 -.789E+01 -.716E+03   -.772E-03 -.381E-02 0.396E+00
   0.147E+02 -.469E-01 0.735E+03   -.146E+02 0.451E-01 -.735E+03   -.605E-01 0.824E-03 0.332E+00
   -.210E+00 -.629E-01 -.635E+03   0.207E+00 0.643E-01 0.635E+03   0.167E-02 -.347E-02 0.263E-01
   0.154E+02 0.154E+02 -.652E+03   -.153E+02 -.154E+02 0.652E+03   -.185E-01 -.188E-01 -.330E-01
   -.216E+00 0.185E+02 -.203E+04   0.219E+00 -.185E+02 0.202E+04   -.277E-02 0.137E-01 0.540E+01
   0.782E+02 0.163E+01 -.197E+04   -.777E+02 -.163E+01 0.197E+04   -.412E+00 -.183E-02 0.540E+01
   -.524E-01 0.739E+01 0.209E+04   0.528E-01 -.738E+01 -.208E+04   -.253E-03 -.822E-02 -.637E+01
   0.754E+01 0.564E+01 0.209E+04   -.751E+01 -.562E+01 -.208E+04   -.217E-01 -.945E-02 -.638E+01
   -.147E+00 0.825E+01 0.726E+03   0.150E+00 -.824E+01 -.727E+03   -.216E-02 -.513E-02 0.392E+00
   0.114E+02 0.129E+02 0.725E+03   -.114E+02 -.129E+02 -.725E+03   -.174E-01 -.130E-01 0.368E+00
   -.311E+00 0.190E+02 -.648E+03   0.313E+00 -.190E+02 0.649E+03   -.926E-03 -.879E-02 -.253E-01
   0.313E+02 0.180E+02 -.628E+03   -.312E+02 -.179E+02 0.628E+03   -.147E+00 -.385E-01 0.669E-01
   -.125E+01 0.226E+02 -.201E+04   0.125E+01 -.226E+02 0.200E+04   -.163E-02 0.287E-01 0.540E+01
   0.395E+02 0.380E+02 -.201E+04   -.394E+02 -.380E+02 0.200E+04   -.107E+00 -.205E-01 0.539E+01
   0.113E+02 -.554E-01 0.210E+04   -.113E+02 0.552E-01 -.209E+04   -.409E-01 -.252E-05 -.642E+01
   0.571E+01 0.761E+01 0.209E+04   -.570E+01 -.758E+01 -.208E+04   -.934E-02 -.211E-01 -.638E+01
   0.130E+02 0.115E+02 0.725E+03   -.130E+02 -.115E+02 -.725E+03   -.123E-01 -.157E-01 0.364E+00
   0.147E+02 -.136E+00 0.765E+03   -.146E+02 0.141E+00 -.765E+03   -.984E-01 -.340E-02 0.310E+00
   0.561E+02 0.258E+00 -.581E+03   -.555E+02 -.265E+00 0.581E+03   -.499E+00 0.694E-02 -.136E+00
   0.182E+02 0.319E+02 -.627E+03   -.181E+02 -.317E+02 0.627E+03   -.393E-01 -.137E+00 0.606E-01
   0.396E+02 0.403E+02 -.201E+04   -.396E+02 -.401E+02 0.200E+04   -.225E-01 -.114E+00 0.538E+01
   0.131E+03 0.550E+01 -.171E+04   -.131E+03 -.551E+01 0.171E+04   -.362E+00 0.147E-01 0.307E+01
   0.938E+01 0.934E+01 0.209E+04   -.935E+01 -.931E+01 -.208E+04   -.223E-01 -.223E-01 -.638E+01
   0.767E+01 0.756E+01 0.210E+04   -.763E+01 -.752E+01 -.209E+04   -.277E-01 -.281E-01 -.644E+01
   0.196E+02 0.117E+02 0.746E+03   -.195E+02 -.116E+02 -.746E+03   -.825E-01 -.421E-01 0.255E+00
   0.119E+02 0.195E+02 0.746E+03   -.118E+02 -.194E+02 -.746E+03   -.443E-01 -.843E-01 0.262E+00
   0.357E+02 0.350E+02 -.619E+03   -.356E+02 -.349E+02 0.619E+03   -.864E-01 -.959E-01 0.701E-01
   0.392E+02 0.384E+02 -.551E+03   -.388E+02 -.380E+02 0.552E+03   -.392E+00 -.408E+00 -.694E+00
   0.119E+03 0.676E+02 -.192E+04   -.118E+03 -.676E+02 0.192E+04   -.645E+00 0.311E-02 0.549E+01
   0.711E+02 0.119E+03 -.191E+04   -.712E+02 -.118E+03 0.190E+04   0.261E-01 -.516E+00 0.554E+01
   -.379E-01 0.423E-01 0.208E+04   0.381E-01 -.424E-01 -.208E+04   -.183E-03 0.872E-04 -.637E+01
   0.753E+01 -.570E+01 0.209E+04   -.750E+01 0.569E+01 -.208E+04   -.219E-01 0.945E-02 -.638E+01
   -.578E-01 -.837E+01 0.726E+03   0.560E-01 0.837E+01 -.726E+03   0.136E-02 0.473E-02 0.407E+00
   0.782E+01 0.897E-01 0.716E+03   -.781E+01 -.909E-01 -.716E+03   -.612E-02 0.315E-03 0.377E+00
[...]
   -.804E+01 -.502E+01 0.157E+04   0.800E+01 0.500E+01 -.158E+04   0.428E-01 0.238E-01 0.311E+01
   -.391E+01 0.337E-01 0.157E+04   0.390E+01 -.338E-01 -.157E+04   0.104E-01 0.342E-02 0.316E+01
   -.218E+02 -.253E+00 -.154E+04   0.218E+02 0.255E+00 0.154E+04   0.223E-01 -.193E-02 -.467E+01
   -.461E+02 -.256E+02 -.152E+04   0.460E+02 0.255E+02 0.152E+04   0.853E-01 0.645E-01 -.466E+01
   -.345E+02 -.202E+02 -.436E+03   0.342E+02 0.201E+02 0.435E+03   0.291E+00 0.725E-01 0.457E+00
   -.951E+01 0.693E-01 -.486E+03   0.949E+01 -.693E-01 0.486E+03   0.135E-01 -.795E-03 0.294E+00
   -.124E+02 -.124E+02 0.551E+03   0.124E+02 0.124E+02 -.551E+03   0.650E-01 0.682E-01 -.168E-01
   -.674E+01 -.663E+01 0.538E+03   0.672E+01 0.662E+01 -.538E+03   0.196E-01 0.153E-01 -.146E-01
   -.599E+01 -.491E+01 0.157E+04   0.598E+01 0.489E+01 -.157E+04   0.150E-01 0.156E-01 0.315E+01
   -.496E+01 -.598E+01 0.157E+04   0.495E+01 0.597E+01 -.157E+04   0.193E-01 0.118E-01 0.315E+01
   -.540E+02 -.513E+02 -.151E+04   0.539E+02 0.511E+02 0.151E+04   0.143E+00 0.162E+00 -.469E+01
   -.180E+02 -.177E+02 -.154E+04   0.179E+02 0.176E+02 0.155E+04   0.354E-01 0.331E-01 -.467E+01
   -.174E+02 -.164E+02 -.475E+03   0.173E+02 0.164E+02 0.475E+03   0.457E-01 0.531E-01 0.305E+00
   -.165E+02 -.171E+02 -.475E+03   0.165E+02 0.170E+02 0.475E+03   0.523E-01 0.445E-01 0.301E+00
   -.466E+00 0.122E+00 0.321E+02   -.540E-11 -.327E-12 -.364E-11   0.391E+00 -.123E+00 -.300E+02

 POSITION                                       TOTAL-FORCE (eV/Angst)
      8.91744      9.38861     16.94387        -0.035933      0.080671     -0.011379
      5.39043      6.77044     16.96373        -0.081280     -0.036410     -0.004415
      8.00607      3.27806     16.96650         0.032581     -0.086602     -0.013711
     11.50092      5.85103     16.93857         0.083705      0.037529     -0.005706
      8.58014      8.23566     16.14248         0.426822     -0.026485      0.224094
      6.53598      6.45978     16.14177         0.033630      0.422383      0.232963
      8.30924      4.42060     16.13813        -0.422110      0.041502      0.228322
     10.34897      6.18933     16.13686        -0.032423     -0.425046      0.222713
      8.77937      9.17436     18.01572         0.027600      0.017122     -0.276706
      9.32474      7.57459     16.20043        -0.336118      0.236610     -0.090319
      9.96120      9.68474     16.75955        -0.257985     -0.110848      0.035817
      8.26216     10.20871     16.63145         0.152850     -0.215132      0.071667
      5.62105      6.61570     18.02986        -0.024422      0.034558     -0.273835
      7.19267      7.20769     16.20481        -0.233602     -0.335953     -0.093241
      5.07880      7.81332     16.80231         0.115892     -0.254418      0.026386
      4.57390      6.11070     16.65133         0.213377      0.153416      0.070275
      8.16762      3.51291     18.03070        -0.039059     -0.024405     -0.273054
      7.56045      5.07716     16.20068         0.339847     -0.237093     -0.091950
      6.96269      2.96358     16.81282         0.259076      0.115296      0.026724
      8.66603      2.46207     16.65296        -0.157449      0.210221      0.071943
     11.28826      5.99608     18.00997         0.018605     -0.032922     -0.279312
      9.68540      5.44621     16.19473         0.241135      0.337483     -0.090142
     11.79288      4.80523     16.75951        -0.110284      0.256354      0.033663
     12.32302      6.50196     16.62168        -0.215553     -0.158946      0.076141
      0.00000      6.33074      7.50000         0.000041      0.000048      0.459485
      2.11025      0.00000      7.50000         0.002553      0.002409      0.456625
      0.00000      0.00000      9.61025         0.000284      0.001439     -0.010321
      2.11025      6.33074      9.61025         0.026971     -0.000489      0.000819
      0.00015      6.33105     11.72309        -0.000444     -0.002622      0.024526
      2.10976     16.88161     11.72398         0.000612     -0.002155      0.028545
      0.00006     16.88061     13.81799         0.000063     -0.000941     -0.022751
      2.10918      6.33079     13.81149        -0.001340     -0.000078     -0.035829
      0.00000      2.11025      7.50000         0.000090      0.002801      0.457026
      2.11025      4.22049      7.50000         0.007072      0.003301      0.462433
      0.00000      4.22049      9.61025         0.000786      0.001978     -0.014576
      2.11025      2.11025      9.61025         0.005378      0.004664     -0.011400
      0.00007      2.10963     11.72396         0.000423     -0.002178      0.027381
      2.10987      4.22074     11.72204         0.004662     -0.000608      0.025325
      0.00004      4.21898     13.81650         0.000750     -0.001663     -0.023080
      2.10906      2.10792     13.81631         0.001052     -0.001625     -0.024916
      4.22049      6.33074      7.50000         0.013149     -0.000087      0.475800
      6.33074      0.00000      7.50000         0.003117      0.006782      0.461814
      4.22049      0.00000      9.61025         0.003973      0.004274     -0.011337
      6.33074      6.33074      9.61025         0.046016      0.001389      0.085198
      4.22793      6.33016     11.72860         0.012565      0.001500      0.026582
      6.33107     16.88131     11.72197        -0.001173      0.005700      0.026335
      4.21830     16.88055     13.81605        -0.001779      0.002009     -0.024363
      6.32474      6.32948     13.88668         0.019244      0.004123      0.065328
      4.22049      2.11025      7.50000         0.007293      0.007550      0.463946
      6.33074      4.22049      7.50000         0.009050      0.009369      0.484286
      4.22049      4.22049      9.61025         0.037070      0.016892      0.018712
      6.33074      2.11025      9.61025         0.017567      0.038285      0.018384
      4.22042      2.11018     11.72109         0.003816      0.003304      0.024892
      6.33883      4.22900     11.73702         0.009575      0.010312      0.037205
      4.21907      4.21658     13.80206         0.004064     -0.006089     -0.046287
      6.32754      2.10831     13.80076        -0.010897      0.002173     -0.047385
      0.00000     14.77172      7.50000         0.000064     -0.000000      0.455000
      2.11025      8.44098      7.50000         0.007002     -0.003136      0.461558
      0.00000      8.44098      9.61025        -0.000314     -0.001468     -0.014666
      2.11025     14.77172      9.61025         0.002437     -0.000396     -0.009746
[...]
     14.77172      8.44098      9.61025         0.025783      0.010267      0.019335
     12.66148      8.44098      7.50000         0.014051      0.007926     -0.440885
     14.77172     14.77172      7.50000         0.005522      0.003386     -0.423676
     12.66370     14.77160     13.87013        -0.000771     -0.000528     -0.099260
     14.77463      8.44457     13.87186         0.004010      0.000009     -0.098514
     12.66815      8.44404     11.71531         0.011276      0.002060      0.031195
     14.77264     14.77157     11.71945         0.000002     -0.000821      0.028617
     12.66148     10.55123      9.61025         0.022063      0.021842      0.016748
     14.77172     12.66148      9.61025         0.008362      0.005350      0.032252
     12.66148     12.66148      7.50000         0.004848      0.005130     -0.429204
     14.77172     10.55123      7.50000         0.008476      0.001686     -0.427000
     12.66813     10.55872     13.87061         0.005772      0.006119     -0.097824
     14.77429     12.66394     13.87031        -0.000814     -0.000789     -0.100768
     12.66316     12.66317     11.71913         0.000519      0.002321      0.029010
     14.77354     10.55306     11.71912         0.002751     -0.000490      0.030273
    total drift:                               -0.000510     -0.022416     -0.086191

  FREE ENERGIE OF THE ION-ELECTRON SYSTEM (eV)
  free  energy   TOTEN  =     -1899.08694458 eV

  energy  without entropy=    -1899.08694458  energy(sigma->0) =    -1899.08694458