 vasp.6.4.2 20Jul23 (build Feb 22 2024 13:53:45) complex
 executed on              LinuxNV date 2024.08.27  14:10:50
 OpenACC runtime initialized ...    4 GPUs detected

 INCAR:
   SYSTEM = Oxide-Surface
   ISMEAR = 0
   SIGMA = 0.05
   EDIFF = 1E-5
   ALGO = Normal
   IBRION = -1
   NSW = 0
   ISYM = 0
   DIPOL = 0.5 0.5 0.5
   IDIPOL = 3
   LDIPOL = .TRUE.
   ISTART = 1
   METAGGA = R2SCAN
   ENCUT = 1000
   PREC = Normal
   PRECFOCK = Normal
   LASPH = .TRUE.
   LREAL = Auto
   ISPIN = 1
   NELM = 200
   NELMIN = 8
   NCORE = 1
   KPAR = 1
   LWAVE = .FALSE.
   LCHARG = .FALSE.

 POTCAR:    PAW_PBE C_h 06Feb2004
 POTCAR:    PAW_PBE H_h 06Feb2004
 POTCAR:    PAW_PBE Mg_sv 12Apr2007
 POTCAR:    PAW_PBE O_h 06Feb2004
 POTCAR:    PAW_PBE C_h 06Feb2004
   VRHFIN =C: s2p2

   TITEL  = PAW_PBE C_h 06Feb2004
   POMASS =   12.011; ZVAL   =    4.000    mass and valenz
   ENMAX  =  700.000; ENMIN  =  500.000 eV

[...]

   TITEL  = PAW_PBE Mg_sv 12Apr2007
   POMASS =   24.305; ZVAL   =   10.000    mass and valenz
   ENMAX  =  495.223; ENMIN  =  371.417 eV

   TITEL  = PAW_PBE O_h 06Feb2004
   POMASS =   16.000; ZVAL   =    6.000    mass and valenz
   ENMAX  =  700.000; ENMIN  =  500.000 eV

 Optimization of the real space projectors (new method)

 maximal supplied QI-value         = 34.20
 optimisation between [QCUT,QGAM] = [ 16.08, 32.15] = [ 72.37,289.48] Ry
 Optimized for a Real-space Cutoff    0.71 Angstroem

   l    n(q)    QCUT    max X(q) W(low)/X(q) W(high)/X(q)  e(spline)
   0      7    16.076   134.812    0.49E-03    0.92E-03    0.59E-07
   0      7    16.076    80.524    0.48E-03    0.91E-03    0.58E-07
   1      6    16.076    79.026    0.37E-03    0.58E-03    0.12E-06
   1      6    16.076    45.188    0.36E-03    0.56E-03    0.12E-06
 Optimization of the real space projectors (new method)

[...]

   l    n(q)    QCUT    max X(q) W(low)/X(q) W(high)/X(q)  e(spline)
   0      9    16.140     8.730    0.14E-04    0.12E-04    0.27E-07
   0      9    16.140     8.910    0.19E-04    0.17E-04    0.41E-07
   1      9    16.140     2.513    0.16E-04    0.28E-04    0.54E-07
   1      9    16.140     3.341    0.27E-04    0.13E-03    0.17E-06
   2      9    16.140     3.683    0.18E-03    0.21E-03    0.81E-07
 Optimization of the real space projectors (new method)

 maximal supplied QI-value         = 34.20
 optimisation between [QCUT,QGAM] = [ 16.08, 32.15] = [ 72.37,289.48] Ry
 Optimized for a Real-space Cutoff    0.71 Angstroem

   l    n(q)    QCUT    max X(q) W(low)/X(q) W(high)/X(q)  e(spline)
   0      7    16.076   280.207    0.42E-03    0.69E-03    0.60E-07
   0      7    16.076   228.978    0.42E-03    0.69E-03    0.61E-07
   1      6    16.076    86.127    0.11E-03    0.66E-03    0.10E-06
   1      6    16.076    65.368    0.11E-03    0.65E-03    0.10E-06
  PAW_PBE C_h 06Feb2004                 :
  PAW_PBE H_h 06Feb2004                 :
  PAW_PBE Mg_sv 12Apr2007               :
  PAW_PBE O_h 06Feb2004                 :

 POSCAR:  C  H Mg  O
  positions in direct lattice

 METAGGA = R2SCAN                                      LMAXTAU =  6    LMIXTAU =  F

 ion  position               nearest neighbor table
   1  0.504  0.498  0.743-   5 1.10   3 1.10   4 1.10   2 1.53
   2  0.675  0.499  0.774-   6 1.10   8 1.10   7 1.10   1 1.53
   3  0.482  0.392  0.707-   1 1.10
   4  0.479  0.604  0.708-   1 1.10
   5  0.418  0.495  0.792-   1 1.10
   6  0.759  0.502  0.724-   2 1.10
   7  0.701  0.394  0.809-   2 1.10
   8  0.698  0.604  0.811-   2 1.10
   9  0.000  0.750  0.189-
  10  0.250  0.000  0.189-
  11  0.000  0.000  0.313-
  12  0.250  0.750  0.313-
  13  1.000  0.750  0.438-
  14  0.250  1.000  0.438-
  15  1.000  1.000  0.562-
  16  0.250  0.750  0.562-
  17  0.000  0.250  0.189-
  18  0.250  0.500  0.189-
  19  0.000  0.500  0.313-
  20  0.250  0.250  0.313-
  21  1.000  0.250  0.438-
  22  0.250  0.500  0.439-
  23  0.000  0.500  0.562-
  24  0.250  0.250  0.562-
  25  0.500  0.750  0.189-
  26  0.750  0.000  0.189-
  27  0.500  0.000  0.313-
  28  0.750  0.750  0.313-
  29  0.500  0.750  0.439-
  30  0.750  1.000  0.438-
  31  0.500  1.000  0.562-
  32  0.750  0.750  0.562-
  33  0.500  0.250  0.189-
  34  0.750  0.500  0.189-
  35  0.500  0.500  0.313-
  36  0.750  0.250  0.313-
  37  0.500  0.250  0.439-
  38  0.750  0.500  0.439-
  39  0.500  0.500  0.563-
  40  0.750  0.250  0.562-
  41  0.000  0.750  0.313-
  42  0.250  0.000  0.313-
  43  0.000  0.000  0.189-
  44  0.250  0.750  0.189-
  45  1.000  0.750  0.565-
  46  0.250  1.000  0.565-
  47  1.000  1.000  0.438-
  48  0.250  0.750  0.438-
  49  0.000  0.250  0.313-
  50  0.250  0.500  0.313-
  51  0.000  0.500  0.189-
  52  0.250  0.250  0.189-
  53  1.000  0.250  0.565-
  54  0.250  0.500  0.565-
  55  1.000  0.500  0.438-
  56  0.250  0.250  0.438-
  57  0.500  0.750  0.313-
  58  0.750  0.000  0.313-
  59  0.500  0.000  0.189-
  60  0.750  0.750  0.189-
  61  0.500  0.750  0.565-
  62  0.750  1.000  0.565-
  63  0.500  1.000  0.438-
  64  0.750  0.750  0.438-
  65  0.500  0.250  0.313-
  66  0.750  0.500  0.313-
  67  0.500  0.500  0.189-
  68  0.750  0.250  0.189-
  69  0.500  0.250  0.565-
  70  0.750  0.500  0.565-
  71  0.500  0.500  0.438-
  72  0.750  0.250  0.438-

IMPORTANT INFORMATION: All symmetrisations will be switched off!
NOSYMM: (Re-)initialisation of all symmetry stuff for point group C_1.

                                     Primitive cell

  volume of cell :    1211.2538

  direct lattice vectors                    reciprocal lattice vectors
     8.440984654  0.000000000  0.000000000     0.118469591  0.000000000  0.000000000
     0.000000000  8.440984654  0.000000000     0.000000000  0.118469591  0.000000000
     0.000000000  0.000000000 17.000000000     0.000000000  0.000000000  0.058823529

  length of vectors
     8.440984654  8.440984654 17.000000000     0.118469591  0.118469591  0.058823529

  position of ions in fractional coordinates (direct lattice)
     0.504442512  0.497603211  0.743410718
     0.675427142  0.499371115  0.773615542
     0.481946286  0.392260978  0.706770344
     0.478809683  0.604144071  0.708156302
     0.417859844  0.495031697  0.791753827
     0.759160533  0.502033602  0.724065079
     0.701478841  0.393602621  0.809133108
     0.698200527  0.603760305  0.810658094
     0.000007636  0.750031286  0.189341906
     0.250007636  0.000031286  0.189341906
     0.000007636  0.000031286  0.313474033
     0.250007636  0.750031286  0.313474033
     0.999976970  0.749963850  0.438457003
     0.249986644  0.999964140  0.438470494
     0.999992364  0.999910906  0.562348157
     0.249873245  0.749845785  0.562202626
     0.000007636  0.250031286  0.189341906
     0.250007636  0.500031286  0.189341906
     0.000007636  0.500031286  0.313474033
     0.250007636  0.250031286  0.313474033
     0.999977352  0.249980617  0.438453686
     0.250127274  0.499963970  0.438535724
     0.000145226  0.499923750  0.562114841
     0.249869118  0.249973003  0.562195641
     0.500007636  0.750031286  0.189341906
     0.750007636  0.000031286  0.189341906
     0.500007636  0.000031286  0.313474033
     0.750007636  0.750031286  0.313474033
     0.499991240  0.749815526  0.438527908
     0.749986537  0.999961265  0.438479227
     0.499961494  0.999896839  0.562145227
     0.750043134  0.749924142  0.562250345
     0.500007636  0.250031286  0.189341906
     0.750007636  0.500031286  0.189341906
     0.500007636  0.500031286  0.313474033
     0.750007636  0.250031286  0.313474033
     0.499993003  0.250082768  0.438527210
     0.749860656  0.499960669  0.438562571
     0.499843564  0.499898967  0.563085918
     0.750058171  0.249889399  0.562241868
     0.000007636  0.750031286  0.313474033
     0.250007636  0.000031286  0.313474033
     0.000007636  0.000031286  0.189341906
     0.250007636  0.750031286  0.189341906
     0.999943344  0.749886766  0.565046454
     0.249946089  0.999912111  0.565050657
     0.999971036  0.999968714  0.438179888
     0.249965036  0.750040437  0.438149594
     0.000007636  0.250031286  0.313474033
     0.250007636  0.500031286  0.313474033
     0.000007636  0.500031286  0.189341906
     0.250007636  0.250031286  0.189341906
     0.999945875  0.249945679  0.565037155
     0.249719068  0.499911441  0.564728513
     0.999971089  0.499970067  0.438088058
     0.249956936  0.249888775  0.438144915
     0.500007636  0.750031286  0.313474033
     0.750007636  0.000031286  0.313474033
     0.500007636  0.000031286  0.189341906
     0.750007636  0.750031286  0.189341906
     0.499989702  0.750219279  0.564996442
     0.750006699  0.999909280  0.565084458
     0.499996442  0.999947314  0.438110544
     0.750005020  0.750030779  0.438172055
     0.500007636  0.250031286  0.313474033
     0.750007636  0.500031286  0.313474033
     0.500007636  0.500031286  0.189341906
     0.750007636  0.250031286  0.189341906
     0.499997048  0.249555778  0.564962164
     0.750207288  0.499910047  0.564892284
     0.500015401  0.499961148  0.438334676
     0.750015257  0.249893599  0.438167343

  ion indices of the primitive-cell ions
   primitive index   ion index
                 1           1
                 2           2
                 3           3
                 4           4
                 5           5
                 6           6
                 7           7
                 8           8
                 9           9
                10          10
                11          11
                12          12
                13          13
                14          14
                15          15
                16          16
                17          17
                18          18
                19          19
                20          20
                21          21
                22          22
                23          23
                24          24
                25          25
                26          26
                27          27
                28          28
                29          29
                30          30
                31          31
                32          32
                33          33
                34          34
                35          35
                36          36
                37          37
                38          38
                39          39
                40          40
                41          41
                42          42
                43          43
                44          44
                45          45
                46          46
                47          47
                48          48
                49          49
                50          50
                51          51
                52          52
                53          53
                54          54
                55          55
                56          56
                57          57
                58          58
                59          59
                60          60
                61          61
                62          62
                63          63
                64          64
                65          65
                66          66
[...]
     0.000000000  8.440984654  0.000000000     0.000000000  0.118469591  0.000000000
     0.000000000  0.000000000 17.000000000     0.000000000  0.000000000  0.058823529

  length of vectors
     8.440984654  8.440984654 17.000000000     0.118469591  0.118469591  0.058823529

 FORCES acting on ions
    electron-ion (+dipol)            ewald-force                    non-local-force                 convergence-correction
   0.682E+02 0.730E+00 -.664E+03   -.689E+02 -.760E+00 0.664E+03   0.595E+00 0.697E-01 -.334E-01   -.172E-02 -.399E-04 0.123E-01
   -.683E+02 -.721E+00 -.561E+03   0.696E+02 0.746E+00 0.561E+03   -.123E+01 -.119E-01 0.696E-01   0.270E-02 0.134E-04 0.136E-01
   0.181E+02 0.468E+02 -.183E+03   -.191E+02 -.512E+02 0.180E+03   0.998E+00 0.456E+01 0.308E+01   -.214E-03 -.412E-03 0.317E-02
   0.195E+02 -.471E+02 -.182E+03   -.206E+02 0.515E+02 0.180E+03   0.113E+01 -.460E+01 0.296E+01   -.235E-03 0.425E-03 0.320E-02
   0.457E+02 0.122E+01 -.151E+03   -.492E+02 -.133E+01 0.155E+03   0.375E+01 0.111E+00 -.415E+01   -.129E-02 -.354E-04 0.446E-02
   -.449E+02 -.127E+01 -.155E+03   0.484E+02 0.137E+01 0.151E+03   -.361E+01 -.113E+00 0.434E+01   0.551E-03 0.156E-04 0.333E-02
   -.196E+02 0.464E+02 -.124E+03   0.207E+02 -.507E+02 0.127E+03   -.116E+01 0.452E+01 -.308E+01   0.716E-03 -.129E-02 0.425E-02
   -.181E+02 -.460E+02 -.123E+03   0.191E+02 0.502E+02 0.126E+03   -.102E+01 -.447E+01 -.321E+01   0.689E-03 0.130E-02 0.427E-02
   -.926E+00 -.163E+01 0.243E+04   0.926E+00 0.163E+01 -.242E+04   0.185E-03 0.113E-02 -.958E+01   0.214E-03 0.290E-03 -.255E-01
   0.992E+00 0.169E-01 0.243E+04   -.993E+00 -.172E-01 -.242E+04   0.116E-02 0.588E-03 -.958E+01   -.151E-03 -.259E-05 -.258E-01
   -.512E+00 0.203E-01 0.829E+03   0.511E+00 -.232E-01 -.830E+03   0.688E-03 0.141E-02 0.562E+00   0.232E-04 0.111E-04 -.266E-01
   0.970E+00 -.136E+01 0.830E+03   -.967E+00 0.136E+01 -.831E+03   -.228E-02 0.230E-02 0.538E+00   0.291E-04 -.470E-04 -.263E-01
   -.202E+01 -.523E+01 -.761E+03   0.202E+01 0.522E+01 0.761E+03   0.430E-02 0.762E-02 -.338E+00   -.666E-04 -.390E-03 -.232E-01
   0.355E+01 0.759E-01 -.764E+03   -.355E+01 -.764E-01 0.764E+03   -.579E-02 0.571E-03 -.346E+00   0.275E-03 0.740E-05 -.233E-01
   -.576E+01 0.123E+00 -.236E+04   0.576E+01 -.121E+00 0.235E+04   -.386E-03 0.246E-02 0.810E+01   0.259E-03 0.141E-04 -.911E-02
   0.212E+02 -.247E+02 -.234E+04   -.213E+02 0.247E+02 0.233E+04   0.594E-01 0.323E-01 0.815E+01   0.925E-03 -.767E-03 -.905E-02
   -.926E+00 0.163E+01 0.243E+04   0.926E+00 -.163E+01 -.242E+04   0.268E-03 -.761E-04 -.958E+01   0.213E-03 -.288E-03 -.255E-01
   0.128E+01 -.177E-01 0.243E+04   -.128E+01 0.176E-01 -.242E+04   0.211E-03 0.448E-03 -.958E+01   -.227E-03 0.126E-04 -.251E-01
   -.613E+00 -.318E-01 0.831E+03   0.609E+00 0.290E-01 -.831E+03   0.319E-02 0.140E-02 0.511E+00   -.359E-05 -.140E-04 -.261E-01
   0.963E+00 0.136E+01 0.830E+03   -.960E+00 -.136E+01 -.831E+03   -.165E-02 0.211E-02 0.537E+00   0.859E-05 0.342E-04 -.263E-01
   -.203E+01 0.525E+01 -.761E+03   0.203E+01 -.525E+01 0.761E+03   0.426E-02 -.772E-02 -.341E+00   -.797E-04 0.379E-03 -.232E-01
   0.535E+01 -.724E-01 -.752E+03   -.531E+01 0.728E-01 0.753E+03   -.456E-01 -.913E-04 -.564E+00   0.553E-03 -.542E-04 -.227E-01
   -.141E+02 -.112E+00 -.233E+04   0.142E+02 0.114E+00 0.232E+04   -.114E+00 0.835E-04 0.813E+01   -.535E-03 0.127E-05 -.951E-02
   0.215E+02 0.248E+02 -.234E+04   -.216E+02 -.247E+02 0.233E+04   0.679E-01 -.307E-01 0.815E+01   0.998E-03 0.811E-03 -.908E-02
   0.932E+00 -.192E+01 0.243E+04   -.932E+00 0.192E+01 -.242E+04   0.947E-04 0.161E-02 -.958E+01   -.216E-03 0.363E-03 -.250E-01
   -.996E+00 0.170E-01 0.243E+04   0.996E+00 -.171E-01 -.242E+04   -.833E-03 0.470E-03 -.958E+01   0.164E-03 -.132E-04 -.256E-01
   0.507E+00 0.192E-01 0.830E+03   -.508E+00 -.238E-01 -.831E+03   0.316E-03 0.272E-02 0.520E+00   0.134E-05 0.175E-04 -.262E-01
   -.971E+00 -.146E+01 0.831E+03   0.966E+00 0.146E+01 -.831E+03   0.414E-02 0.580E-02 0.549E+00   -.206E-04 -.131E-04 -.261E-01
   0.204E+01 -.703E+01 -.752E+03   -.204E+01 0.699E+01 0.753E+03   -.402E-02 0.416E-01 -.420E+00   0.450E-04 -.652E-03 -.227E-01
   -.354E+01 0.814E-01 -.761E+03   0.354E+01 -.819E-01 0.762E+03   0.330E-02 0.586E-03 -.344E+00   -.242E-03 0.354E-04 -.234E-01
   0.583E+01 0.405E+00 -.234E+04   -.583E+01 -.402E+00 0.233E+04   0.252E-02 -.175E-04 0.811E+01   -.318E-03 0.390E-04 -.943E-02
   -.215E+02 -.336E+02 -.232E+04   0.215E+02 0.336E+02 0.231E+04   -.486E-01 -.384E-01 0.813E+01   -.902E-03 -.162E-02 -.935E-02
   0.932E+00 0.192E+01 0.243E+04   -.932E+00 -.192E+01 -.242E+04   0.526E-05 -.560E-03 -.958E+01   -.219E-03 -.368E-03 -.250E-01
   -.129E+01 -.177E-01 0.242E+04   0.129E+01 0.175E-01 -.241E+04   -.373E-03 0.587E-03 -.958E+01   0.227E-03 0.702E-06 -.247E-01
   0.610E+00 -.191E-01 0.832E+03   -.607E+00 0.158E-01 -.832E+03   -.283E-02 0.156E-02 0.587E+00   -.372E-04 0.844E-06 -.259E-01
   -.963E+00 0.146E+01 0.831E+03   0.959E+00 -.146E+01 -.831E+03   0.350E-02 -.108E-02 0.548E+00   -.140E-04 0.318E-04 -.261E-01
   0.205E+01 0.699E+01 -.752E+03   -.205E+01 -.696E+01 0.753E+03   -.411E-02 -.406E-01 -.431E+00   0.222E-04 0.677E-03 -.226E-01
   -.540E+01 -.821E-01 -.748E+03   0.535E+01 0.831E-01 0.748E+03   0.500E-01 -.518E-03 -.493E+00   -.486E-03 -.282E-04 -.222E-01
   0.150E+02 -.635E+00 -.225E+04   -.150E+02 0.652E+00 0.224E+04   0.824E-01 -.126E-01 0.771E+01   0.390E-03 -.922E-04 -.498E-02
   -.218E+02 0.336E+02 -.232E+04   0.219E+02 -.337E+02 0.231E+04   -.584E-01 0.407E-01 0.813E+01   -.932E-03 0.161E-02 -.937E-02
   -.338E+00 -.859E+00 0.497E+03   0.340E+00 0.854E+00 -.497E+03   -.352E-02 0.490E-02 -.737E-01   0.190E-04 -.957E-05 -.158E-01
   0.566E+00 0.616E-02 0.497E+03   -.558E+00 -.156E-02 -.497E+03   -.107E-01 -.637E-02 -.808E-01   0.109E-04 0.872E-05 -.158E-01
   -.477E+00 0.101E-01 0.147E+04   0.477E+00 -.984E-02 -.147E+04   -.474E-03 -.679E-03 0.232E+01   0.970E-04 0.734E-05 -.164E-01
   0.680E+00 -.983E+00 0.147E+04   -.680E+00 0.983E+00 -.147E+04   -.459E-04 -.240E-03 0.232E+01   -.161E-03 0.200E-03 -.162E-01
   -.592E+01 -.117E+02 -.144E+04   0.591E+01 0.117E+02 0.144E+04   0.981E-03 0.152E-01 -.451E+01   -.434E-04 -.309E-03 -.490E-02
   0.728E+01 0.148E+00 -.144E+04   -.725E+01 -.152E+00 0.145E+04   -.255E-01 0.651E-02 -.450E+01   0.191E-03 -.221E-07 -.469E-02
   -.985E+00 0.272E-01 -.454E+03   0.984E+00 -.251E-01 0.454E+03   0.119E-02 -.274E-02 0.290E+00   -.238E-04 0.119E-04 -.150E-01
   0.262E+01 -.337E+01 -.449E+03   -.261E+01 0.335E+01 0.449E+03   -.821E-02 0.185E-01 0.289E+00   0.225E-03 -.257E-03 -.148E-01
   -.338E+00 0.846E+00 0.497E+03   0.341E+00 -.834E+00 -.497E+03   -.341E-02 -.163E-01 -.742E-01   0.167E-04 0.183E-04 -.157E-01
   0.638E+00 -.229E-01 0.498E+03   -.650E+00 0.272E-01 -.497E+03   0.160E-01 -.598E-02 -.848E-01   0.558E-04 0.293E-05 -.156E-01
   -.637E+00 -.964E-02 0.147E+04   0.636E+00 0.990E-02 -.147E+04   0.101E-02 -.671E-03 0.232E+01   0.127E-03 -.375E-05 -.161E-01
   0.681E+00 0.984E+00 0.147E+04   -.681E+00 -.983E+00 -.147E+04   0.525E-04 -.167E-02 0.232E+01   -.160E-03 -.202E-03 -.162E-01
   -.593E+01 0.117E+02 -.144E+04   0.593E+01 -.117E+02 0.144E+04   0.740E-03 -.870E-02 -.451E+01   -.638E-04 0.317E-03 -.496E-02
   0.211E+02 -.163E+00 -.142E+04   -.209E+02 0.160E+00 0.142E+04   -.135E+00 0.663E-03 -.464E+01   0.129E-02 -.417E-04 -.439E-02
   -.143E+01 -.476E-01 -.447E+03   0.144E+01 0.473E-01 0.447E+03   -.939E-02 0.136E-02 0.309E+00   -.134E-03 -.730E-05 -.148E-01
   0.262E+01 0.337E+01 -.449E+03   -.261E+01 -.335E+01 0.449E+03   -.648E-02 -.149E-01 0.290E+00   0.236E-03 0.275E-03 -.148E-01
   0.331E+00 -.934E+00 0.498E+03   -.330E+00 0.951E+00 -.497E+03   -.907E-03 -.227E-01 -.828E-01   -.172E-04 -.756E-04 -.156E-01
   -.570E+00 0.633E-02 0.497E+03   0.565E+00 -.153E-02 -.497E+03   0.657E-02 -.661E-02 -.797E-01   -.198E-04 0.385E-05 -.157E-01
   0.479E+00 0.112E-01 0.147E+04   -.479E+00 -.110E-01 -.147E+04   0.125E-03 -.667E-03 0.232E+01   -.105E-03 0.101E-04 -.163E-01
   -.683E+00 -.115E+01 0.147E+04   0.684E+00 0.114E+01 -.147E+04   -.449E-03 0.123E-02 0.232E+01   0.152E-03 0.219E-03 -.160E-01
   0.603E+01 -.259E+02 -.141E+04   -.603E+01 0.258E+02 0.142E+04   -.167E-02 0.151E+00 -.460E+01   -.866E-05 -.153E-02 -.401E-02
   -.733E+01 0.163E+00 -.144E+04   0.731E+01 -.167E+00 0.144E+04   0.248E-01 0.745E-02 -.452E+01   -.144E-03 0.579E-05 -.511E-02
   0.976E+00 0.654E-01 -.449E+03   -.978E+00 -.683E-01 0.449E+03   0.206E-02 0.482E-02 0.319E+00   -.466E-04 0.223E-04 -.149E-01
   -.263E+01 -.384E+01 -.447E+03   0.262E+01 0.383E+01 0.447E+03   0.890E-02 0.105E-01 0.287E+00   -.183E-03 -.369E-03 -.147E-01
   0.332E+00 0.909E+00 0.498E+03   -.332E+00 -.915E+00 -.497E+03   -.745E-03 0.743E-02 -.816E-01   -.307E-05 0.663E-04 -.156E-01
   -.641E+00 -.244E-01 0.498E+03   0.655E+00 0.290E-01 -.498E+03   -.183E-01 -.629E-02 -.899E-01   -.548E-04 -.146E-04 -.155E-01
   0.643E+00 -.104E-01 0.147E+04   -.641E+00 0.108E-01 -.147E+04   -.143E-02 -.806E-03 0.232E+01   -.126E-03 -.450E-05 -.157E-01
   -.684E+00 0.115E+01 0.147E+04   0.685E+00 -.114E+01 -.147E+04   -.518E-03 -.319E-02 0.232E+01   0.158E-03 -.213E-03 -.160E-01
   0.606E+01 0.261E+02 -.141E+04   -.606E+01 -.260E+02 0.142E+04   -.161E-02 -.144E+00 -.460E+01   -.280E-04 0.156E-02 -.398E-02
   -.216E+02 -.174E+00 -.139E+04   0.215E+02 0.170E+00 0.140E+04   0.835E-01 0.665E-02 -.465E+01   -.104E-02 -.222E-05 -.375E-02
   0.146E+01 -.263E-01 -.443E+03   -.146E+01 0.229E-01 0.443E+03   0.514E-02 0.445E-02 0.116E+00   0.551E-04 -.146E-04 -.142E-01
   -.263E+01 0.385E+01 -.447E+03   0.262E+01 -.384E+01 0.447E+03   0.751E-02 -.512E-02 0.288E+00   -.179E-03 0.368E-03 -.147E-01
   0.640E+00 -.978E-02 0.274E+02   -.423E-12 -.249E-13 0.853E-12   -.621E+00 0.774E-01 -.274E+02   0.119E-02 0.257E-05 -.102E+01

 POSITION                                       TOTAL-FORCE (eV/Angst)
      4.25799      4.20026     12.63798         0.000069      0.039765      0.035856
      5.70127      4.21518     13.15146         0.009282      0.010731      0.060932
      4.06810      3.31107     12.01510         0.054428      0.190140      0.165059
      4.04163      5.09957     12.03866         0.059970     -0.198243      0.158555
      3.52715      4.17855     13.45982         0.197387      0.005615     -0.196789
      6.40806      4.23766     12.30911        -0.172320     -0.005839      0.224549
      5.92117      3.32239     13.75526        -0.063729      0.233249     -0.149281
      5.89350      5.09633     13.78119        -0.052974     -0.232513     -0.157315
      0.00006      6.33100      3.21881        -0.000316     -0.000930      0.514655
      2.11031      0.00026      3.21881        -0.000369     -0.000574      0.515196
      0.00006      0.00026      5.32906        -0.000882     -0.002366     -0.034806
      2.11031      6.33100      5.32906         0.000477     -0.002456     -0.039755
      8.44079      6.33043      7.45377        -0.000337     -0.001840     -0.024456
      2.11013      8.44068      7.45400         0.001120     -0.000839     -0.024242
      8.44092      8.44023      9.55992        -0.001129      0.003302     -0.055425
      2.10918      6.32944      9.55744        -0.005134      0.003938     -0.053407
      0.00006      2.11051      3.21881        -0.000350     -0.000239      0.514700
      2.11031      4.22076      3.21881        -0.000630     -0.000549      0.516048
      0.00006      4.22076      5.32906        -0.001492     -0.002328     -0.030430
      2.11031      2.11051      5.32906         0.000409     -0.001408     -0.039772
      8.44079      2.11008      7.45371        -0.000216     -0.000457     -0.024063
      2.11132      4.22019      7.45511        -0.001544     -0.000676     -0.023042
      0.00123      4.21985      9.55595         0.005585      0.000566     -0.043156
      2.10914      2.11002      9.55733        -0.007266     -0.001715     -0.051917
      4.22056      6.33100      3.21881        -0.000092     -0.001225      0.515668
      6.33080      0.00026      3.21881         0.000009     -0.000586      0.515582
      4.22056      0.00026      5.32906        -0.000751     -0.002836     -0.030679
      6.33080      6.33100      5.32906        -0.001650     -0.002553     -0.037546
      4.22042      6.32918      7.45497         0.000068      0.002099     -0.023004
      6.33062      8.44066      7.45415        -0.001295     -0.000746     -0.023513
      4.22017      8.44011      9.55647         0.002469      0.002186     -0.044294
      6.33110      6.33010      9.55826         0.002268      0.011237     -0.053351
      4.22056      2.11051      3.21881        -0.000054     -0.000081      0.515668
      6.33080      4.22076      3.21881        -0.000253     -0.000554      0.515043
      4.22056      4.22076      5.32906         0.000075     -0.002629     -0.025638
      6.33080      2.11051      5.32906        -0.001444     -0.001292     -0.037767
      4.22043      2.11094      7.45496         0.000036     -0.002282     -0.024348
      6.32956      4.22016      7.45556        -0.000171     -0.000454     -0.027789
      4.21917      4.21964      9.57246        -0.006784      0.003423     -0.061969
      6.33123      2.10931      9.55811         0.003238     -0.007545     -0.053790
      0.00006      6.33100      5.32906        -0.001192     -0.000211      0.075896
      2.11031      0.00026      5.32906        -0.002853     -0.002770      0.074917
      0.00006      0.00026      3.21881        -0.000474     -0.001387     -0.399842
      2.11031      6.33100      3.21881        -0.000414     -0.001437     -0.401438
      8.44051      6.32978      9.60579        -0.000385      0.002270     -0.131114
      2.10979      8.44024      9.60586        -0.001561      0.001865     -0.129955
      8.44074      8.44072      7.44906         0.000411     -0.001624      0.045048
      2.10995      6.33108      7.44854         0.000059     -0.001058      0.023706
      0.00006      2.11051      5.32906        -0.001159     -0.005231      0.075546
      2.11031      4.22076      5.32906         0.003158     -0.002656      0.078449
      0.00006      4.22076      3.21881        -0.000135     -0.001376     -0.400082
      2.11031      2.11051      3.21881        -0.000393     -0.001744     -0.401435
      8.44053      2.10979      9.60563         0.000151     -0.001602     -0.129353
      2.10787      4.21974      9.60038        -0.004743     -0.002994     -0.131691
      8.44074      4.22024      7.44750        -0.001653      0.000083      0.040262
      2.10988      2.10931      7.44846         0.001126      0.001389      0.023992
      4.22056      6.33100      5.32906        -0.000568     -0.006382      0.078696
      6.33080      0.00026      5.32906         0.001139     -0.002822      0.075708
      4.22056      0.00026      3.21881        -0.000342     -0.001388     -0.400275
      6.33080      6.33100      3.21881        -0.000489     -0.001130     -0.401347
      4.22041      6.33259      9.60494        -0.002512      0.012507     -0.130501
      6.33080      8.44022      9.60644         0.002196      0.002052     -0.134266
      4.22046      8.44054      7.44788        -0.000313      0.001079      0.041310
      6.33078      6.33100      7.44892         0.000233     -0.002876      0.022029
      4.22056      2.11051      5.32906        -0.000527      0.000204      0.078964
      6.33080      4.22076      5.32906        -0.004461     -0.002729      0.078954
      4.22056      4.22076      3.21881        -0.000678     -0.001418     -0.398569
      6.33080      2.11051      3.21881        -0.000495     -0.002078     -0.400775
      4.22047      2.10650      9.60436        -0.002660     -0.012426     -0.127647
      6.33249      4.21973      9.60317         0.004570      0.001681     -0.125703
      4.22062      4.22016      7.45169         0.000067      0.000097      0.032395
      6.33087      2.10935      7.44884        -0.000810      0.003618      0.022154
    total drift:                                0.020820      0.067622     -0.993038

  FREE ENERGIE OF THE ION-ELECTRON SYSTEM (eV)
  free  energy   TOTEN  =      -549.60217551 eV

  energy  without entropy=     -549.60217551  energy(sigma->0) =     -549.60217551

     |            E. Caldeweyher, S. Ehlert & S. Grimme          |
     |          Mulliken Center for Theoretical Chemistry        |
     |                    University of Bonn                     |

Rational (Becke-Johnson) damping: r2scan-D4-ATM
  s6         1.0000
  s8         0.6019
  s9         1.0000
  a1         0.5156
  a2         5.7734
 alp        16.0000

Dispersion energy:      -1.1785451022802E-01 Eh