 vasp.6.3.0 20Jan22 (build Apr  1 2022 16:44:48) complex
 executed on        HPECrayEX_GCC date 2022.11.13  01:05:43

 INCAR:
   SYSTEM = MgO-rocksalt
   ISMEAR = 0
   SIGMA = 0.05
   EDIFF = 1E-6
   ALGO = ALL
   ISTART = 0
   IBRION = -1
   NSW = 0
   ISYM = 0
   DIPOL = 0.5 0.5 0.5
   IDIPOL = 3
   LDIPOL = .TRUE.
   GGA = RE
   AGGAC = 0.0
   LUSE_VDW = .TRUE.
   LASPH = .TRUE.
   ENCUT = 600
   PREC = Accurate
   LASPH = .TRUE.
   LREAL = .FALSE.
   ISPIN = 1
   NELM = 200
   NELMIN = 8
   NCORE = 8
   KPAR = 1
   LWAVE = .FALSE.
   LCHARG = .FALSE.

 POTCAR:    PAW_PBE C 08Apr2002
 POTCAR:    PAW_PBE H 15Jun2001
 POTCAR:    PAW_PBE Mg_pv 13Apr2007
 POTCAR:    PAW_PBE O 08Apr2002
|               ----> ADVICE to this user running VASP <----                  |
|     You have switched on vdW-DFT.                                           |
|     This routine was written and supplied by Jiri Klimes. We recommend      |
|     that you carefully read and cite the following publications:            |
|       J. Klimes, D.R. Bowler, A. Michelides                                 |
|          J. Phys.: Cond Matt. 22 022201 (2010)                              |
|       J. Klimes, D.R. Bowler, A. Michelides                                 |
|          Phys. Rev. B. 83, 195131 (2011)                                    |
|     and references therein.                                                 |

   TITEL  = PAW_PBE C 08Apr2002
   POMASS =   12.011; ZVAL   =    4.000    mass and valenz
   ENMAX  =  400.000; ENMIN  =  300.000 eV

   TITEL  = PAW_PBE H 15Jun2001
   POMASS =    1.000; ZVAL   =    1.000    mass and valenz
   ENMAX  =  250.000; ENMIN  =  200.000 eV

   TITEL  = PAW_PBE Mg_pv 13Apr2007
   POMASS =   24.305; ZVAL   =    8.000    mass and valenz
   ENMAX  =  403.929; ENMIN  =  302.947 eV

   TITEL  = PAW_PBE O 08Apr2002
   POMASS =   16.000; ZVAL   =    6.000    mass and valenz
   ENMAX  =  400.000; ENMIN  =  300.000 eV

  PAW_PBE C 08Apr2002                   :
  PAW_PBE H 15Jun2001                   :
  PAW_PBE Mg_pv 13Apr2007               :
  PAW_PBE O 08Apr2002                   :

 POSCAR:  C  H Mg  O
  positions in direct lattice
 exchange correlation table for  LEXCH =       40
   RHO(1)=    0.500       N(1)  =     2000
   RHO(2)=  100.500       N(2)  =     4000

 ion  position               nearest neighbor table
   1  0.453  0.501  0.795-   5 1.09   3 1.09   4 1.09   2 1.53
   2  0.293  0.439  0.818-   6 1.09   8 1.09   7 1.09   1 1.53
   3  0.441  0.615  0.770-   1 1.09
   4  0.509  0.415  0.763-   1 1.09
   5  0.536  0.519  0.834-   1 1.09
   6  0.210  0.426  0.779-   2 1.09
   7  0.238  0.521  0.851-   2 1.09
   8  0.305  0.324  0.841-   2 1.09
   9  0.250  0.000  0.352-  43 2.10  44 2.10  51 2.10  60 2.10  41 2.10
  10  0.500  0.250  0.352-  43 2.10  44 2.10  52 2.10  59 2.10  42 2.10
  11  0.250  0.250  0.451-  47 2.10  42 2.10  41 2.10  49 2.10  58 2.10  43 2.10
  12  0.500  0.000  0.451-  41 2.10  42 2.10  50 2.10  57 2.10  44 2.10  48 2.11
  13  0.250  0.000  0.550-  48 2.10  47 2.10  55 2.10  64 2.10  41 2.11  45 2.13
  14  0.500  0.250  0.550-  63 2.10  48 2.10  56 2.10  47 2.10  42 2.11  46 2.13
  15  0.250  0.251  0.647-  47 2.08  62 2.10  53 2.10  46 2.10  45 2.10
  16  0.499  0.001  0.648-  48 2.10  46 2.10  45 2.10  54 2.10  61 2.11
  17  0.250  0.500  0.352-  43 2.10  51 2.10  52 2.10  68 2.10  49 2.10
  18  0.500  0.750  0.352-  44 2.10  51 2.10  52 2.10  67 2.10  50 2.10
  19  0.250  0.750  0.451-  55 2.10  49 2.10  50 2.10  41 2.10  66 2.10  51 2.10
  20  0.500  0.500  0.451-  42 2.10  49 2.10  50 2.10  65 2.10  52 2.10  56 2.11
  21  0.250  0.500  0.550-  56 2.10  55 2.10  47 2.10  72 2.10  49 2.11  53 2.13
  22  0.500  0.750  0.550-  71 2.10  48 2.10  56 2.10  55 2.10  50 2.11  54 2.13
  23  0.250  0.751  0.647-  55 2.08  70 2.10  54 2.10  53 2.10  45 2.10
  24  0.500  0.501  0.648-  56 2.10  54 2.10  46 2.10  53 2.10  69 2.11
  25  0.750  0.000  0.352-  44 2.10  59 2.10  60 2.10  67 2.10  57 2.10
  26  0.000  0.250  0.352-  43 2.10  59 2.10  60 2.10  68 2.10  58 2.10
  27  0.750  0.250  0.451-  42 2.10  57 2.10  58 2.10  65 2.10  59 2.10  63 2.11
  28  0.000  0.000  0.451-  64 2.10  57 2.10  58 2.10  41 2.10  66 2.10  60 2.10
  29  0.750  0.000  0.550-  48 2.10  63 2.10  71 2.10  64 2.10  57 2.11  61 2.13
  30  1.000  0.250  0.550-  63 2.10  72 2.10  64 2.10  47 2.10  58 2.11  62 2.13
  31  0.750  0.251  0.648-  63 2.10  69 2.10  61 2.10  62 2.10  46 2.11
  32  0.000  0.001  0.647-  64 2.08  45 2.10  62 2.10  61 2.10  70 2.10
  33  0.750  0.500  0.352-  52 2.10  59 2.10  67 2.10  68 2.10  65 2.10
  34  0.000  0.750  0.352-  51 2.10  60 2.10  67 2.10  68 2.10  66 2.10
  35  0.750  0.750  0.451-  50 2.10  57 2.10  65 2.10  66 2.10  67 2.10  71 2.11
  36  0.000  0.500  0.451-  72 2.10  58 2.10  65 2.10  66 2.10  49 2.10  68 2.10
  37  0.750  0.500  0.550-  56 2.10  71 2.10  63 2.10  72 2.10  65 2.11  69 2.13
  38  1.000  0.750  0.550-  71 2.10  64 2.10  72 2.10  55 2.10  66 2.11  70 2.13
  39  0.750  0.751  0.648-  61 2.10  71 2.10  70 2.10  69 2.10  54 2.11
  40  0.000  0.501  0.647-  72 2.08  53 2.10  69 2.10  70 2.10  62 2.10
  41  0.250  0.000  0.451-  11 2.10  12 2.10  19 2.10  28 2.10   9 2.10  13 2.11
  42  0.500  0.250  0.451-  11 2.10  12 2.10  20 2.10  27 2.10  10 2.10  14 2.11
  43  0.250  0.250  0.352-   9 2.10  10 2.10  17 2.10  26 2.10  11 2.10
  44  0.500  0.000  0.352-   9 2.10  10 2.10  18 2.10  25 2.10  12 2.10
  45  0.249  0.001  0.649-  32 2.10  16 2.10  23 2.10  15 2.10  13 2.13
  46  0.500  0.251  0.650-  16 2.10  15 2.10  24 2.10  31 2.11  14 2.13
  47  0.250  0.250  0.549-  15 2.08  11 2.10  21 2.10  13 2.10  14 2.10  30 2.10
  48  0.500  0.000  0.550-  16 2.10  29 2.10  13 2.10  22 2.10  14 2.10  12 2.11
  49  0.250  0.500  0.451-  11 2.10  19 2.10  20 2.10  36 2.10  17 2.10  21 2.11
  50  0.500  0.750  0.451-  12 2.10  19 2.10  20 2.10  35 2.10  18 2.10  22 2.11
  51  0.250  0.750  0.352-   9 2.10  17 2.10  18 2.10  34 2.10  19 2.10
  52  0.500  0.500  0.352-  10 2.10  17 2.10  18 2.10  33 2.10  20 2.10
  53  0.249  0.501  0.649-  40 2.10  15 2.10  23 2.10  24 2.10  21 2.13
  54  0.500  0.751  0.650-  24 2.10  23 2.10  16 2.10  39 2.11  22 2.13
  55  0.250  0.750  0.549-  23 2.08  21 2.10  19 2.10  13 2.10  22 2.10  38 2.10
  56  0.500  0.500  0.550-  24 2.10  37 2.10  21 2.10  14 2.10  22 2.10  20 2.11
  57  0.750  0.000  0.451-  12 2.10  27 2.10  28 2.10  35 2.10  25 2.10  29 2.11
  58  0.000  0.250  0.451-  11 2.10  27 2.10  28 2.10  36 2.10  26 2.10  30 2.11
  59  0.750  0.250  0.352-  10 2.10  25 2.10  26 2.10  33 2.10  27 2.10
  60  0.000  0.000  0.352-   9 2.10  25 2.10  26 2.10  34 2.10  28 2.10
  61  0.750  0.001  0.650-  39 2.10  32 2.10  31 2.10  16 2.11  29 2.13
  62  0.000  0.251  0.649-  15 2.10  32 2.10  40 2.10  31 2.10  30 2.13
  63  0.750  0.250  0.550-  14 2.10  30 2.10  31 2.10  29 2.10  37 2.10  27 2.11
  64  1.000  0.000  0.549-  32 2.08  28 2.10  38 2.10  30 2.10  29 2.10  13 2.10
  65  0.750  0.500  0.451-  20 2.10  27 2.10  35 2.10  36 2.10  33 2.10  37 2.11
  66  0.000  0.750  0.451-  19 2.10  28 2.10  35 2.10  36 2.10  34 2.10  38 2.11
  67  0.750  0.750  0.352-  18 2.10  25 2.10  33 2.10  34 2.10  35 2.10
  68  0.000  0.500  0.352-  17 2.10  26 2.10  33 2.10  34 2.10  36 2.10
  69  0.750  0.501  0.650-  40 2.10  31 2.10  39 2.10  24 2.11  37 2.13
  70  0.000  0.751  0.649-  23 2.10  40 2.10  32 2.10  39 2.10  38 2.13
  71  0.750  0.750  0.550-  22 2.10  38 2.10  39 2.10  29 2.10  37 2.10  35 2.11
  72  1.000  0.500  0.549-  40 2.08  36 2.10  30 2.10  38 2.10  37 2.10  21 2.10

IMPORTANT INFORMATION: All symmetrisations will be switched off!
NOSYMM: (Re-)initialisation of all symmetry stuff for point group C_1.

                                     Primitive cell

  volume of cell :    1504.9259

  direct lattice vectors                    reciprocal lattice vectors
     8.404861995  0.000000000  0.000000000     0.118978753  0.000000000  0.000000000
     0.000000000  8.404861995  0.000000000     0.000000000  0.118978753  0.000000000
     0.000000000  0.000000000 21.303646496     0.000000000  0.000000000  0.046940321

  length of vectors
     8.404861995  8.404861995 21.303646496     0.118978753  0.118978753  0.046940321

  position of ions in fractional coordinates (direct lattice)
     0.453194147  0.501174457  0.794945483
     0.292541327  0.439292675  0.817828426
     0.441131090  0.614671531  0.770465214
     0.508562997  0.415126488  0.763257185
     0.536027150  0.519329348  0.833706686
     0.209995794  0.425748983  0.778703469
     0.238041275  0.521056257  0.851324303
     0.304890581  0.323657524  0.840625228
     0.250000000  0.000000000  0.352052406
     0.500000000  0.250000000  0.352052406
     0.250000000  0.250000000  0.450684135
     0.500000000  0.000000000  0.450684135
     0.250254111  0.000347606  0.549611813
     0.500347921  0.250346800  0.549930243
     0.249689291  0.250801151  0.647036680
     0.499382131  0.000907927  0.648064099
     0.250000000  0.500000000  0.352052406
     0.500000000  0.750000000  0.352052406
     0.250000000  0.750000000  0.450684135
     0.500000000  0.500000000  0.450684135
     0.250218568  0.500350319  0.549602762
     0.500354917  0.750383312  0.549930339
     0.249706420  0.750647765  0.647037379
     0.499544487  0.500895917  0.648056715
     0.750000000  0.000000000  0.352052406
     0.000000000  0.250000000  0.352052406
     0.750000000  0.250000000  0.450684135
     0.000000000  0.000000000  0.450684135
     0.749616566  0.000366817  0.549958491
     0.999693471  0.250349361  0.549618119
     0.750261570  0.250824966  0.648222718
     0.000119592  0.000729231  0.646933621
     0.750000000  0.500000000  0.352052406
     0.000000000  0.750000000  0.352052406
     0.750000000  0.750000000  0.450684135
     0.000000000  0.500000000  0.450684135
     0.749694673  0.500363962  0.549943709
     0.999693815  0.750355493  0.549618412
     0.750253074  0.750985177  0.648224450
     0.000014670  0.500740786  0.646972578
     0.250000000  0.000000000  0.450684135
     0.500000000  0.250000000  0.450684135
     0.250000000  0.250000000  0.352052406
     0.500000000  0.000000000  0.352052406
     0.249351406  0.000692227  0.649447167
     0.499571239  0.250785144  0.649875088
     0.250074036  0.250355604  0.549313568
     0.499998250  0.000358199  0.549602221
     0.250000000  0.500000000  0.450684135
     0.500000000  0.750000000  0.450684135
     0.250000000  0.750000000  0.352052406
     0.500000000  0.500000000  0.352052406
     0.249328052  0.500699303  0.649455935
     0.499580693  0.750778083  0.649874908
     0.250079532  0.750326291  0.549313749
     0.500052919  0.500355838  0.549608071
     0.750000000  0.000000000  0.450684135
     0.000000000  0.250000000  0.450684135
     0.750000000  0.250000000  0.352052406
     0.000000000  0.000000000  0.352052406
     0.750158529  0.000782645  0.649934131
     0.000426368  0.250679738  0.649469549
     0.749959532  0.250341235  0.549650651
     0.999866640  0.000340680  0.549289887
     0.750000000  0.500000000  0.450684135
     0.000000000  0.750000000  0.450684135
[...]
   6.30108027  4.20549005 11.71580637
   8.40228855  6.30663437 11.70887636
   6.30577355  6.31192677 13.80954453
   0.00012330  4.20865720 13.78287509
   2.10121550  0.00000000  9.60121550
   4.20243100  2.10121550  9.60121550
   2.10121550  2.10121550  7.50000000
   4.20243100  0.00000000  7.50000000
   2.09576416  0.00581807 13.83559286
   4.19882732  2.10781453 13.84470913
   2.10183776  2.10420430 11.70238206
   4.20241629  0.00301062 11.70853143
   2.10121550  4.20243100  9.60121550
   4.20243100  6.30364650  9.60121550
   2.10121550  6.30364650  7.50000000
   4.20243100  4.20243100  7.50000000
   2.09556787  4.20830854 13.83577965
   4.19890678  6.31018618 13.84470530
   2.10188396  6.30638893 11.70238593
   4.20287577  4.20542177 11.70865605
   6.30364650  0.00000000  9.60121550
   0.00000000  2.10121550  9.60121550
   6.30364650  2.10121550  7.50000000
   0.00000000  0.00000000  7.50000000
   6.30497891  0.00657803 13.84596697
   0.00358356  2.10692860 13.83606968
   6.30330637  2.10408353 11.70956316
   8.40374113  0.00286337 11.70187757
   6.30364650  4.20243100  9.60121550
   0.00000000  6.30364650  9.60121550
   6.30364650  6.30364650  7.50000000
   0.00000000  4.20243100  7.50000000
   6.30550705  4.20895402 13.84563221
   0.00356941  6.30970059 13.83607489
   6.30330621  6.30678831 11.70957375
   8.40356742  4.20532454 11.70200521

--------------------------------------- Iteration      FINAL  ---------------------------------------

--------------------OUTCAR has been truncated-------------------------

[...]

--------------------OUTCAR has been truncated-------------------------

  FORCE on cell =-STRESS in cart. coord.  units (eV):
  Direction    XX          YY          ZZ          XY          YZ          ZX
  Alpha Z   928.64058   928.64058   928.64058
  Ewald  158336.79455158219.01517************    43.56453   -14.76534   -45.93570
  Hartree168590.62281168497.98023************    32.84539   -11.44418   -34.07962
  E(xc)   -2574.95310 -2574.67939 -2577.61795    -0.10926     0.04188     0.09582
  Local  ************************336538.50118   -78.50853    26.86074    81.73537
  n-local -2838.06145 -2838.91490 -2858.22961     0.38543    -0.03370    -0.42024
  augment  1077.39059  1077.33532  1068.57024     0.02853     0.01133    -0.02670
  Kinetic  7525.67970  7521.78788  7556.33169     1.83990    -1.17537    -1.26724
  Fock        0.00000     0.00000     0.00000     0.00000     0.00000     0.00000
  Total       0.13790    -0.01305    21.78702     0.04599    -0.50463     0.10169
  in kB       0.14681    -0.01389    23.19494     0.04896    -0.53724     0.10826

 VOLUME and BASIS-vectors are now :
  energy-cutoff  :      600.00
  volume of cell :     1504.93
      direct lattice vectors                 reciprocal lattice vectors
     8.404861995  0.000000000  0.000000000     0.118978753  0.000000000  0.000000000
     0.000000000  8.404861995  0.000000000     0.000000000  0.118978753  0.000000000
     0.000000000  0.000000000 21.303646496     0.000000000  0.000000000  0.046940321

  length of vectors
     8.404861995  8.404861995 21.303646496     0.118978753  0.118978753  0.046940321

 FORCES acting on ions:
    Electron-Ion                     Ewald-Force                    Non-Local-Force
   -.645E+02 -.261E+02 -.916E+03   0.642E+02 0.262E+02 0.916E+03   0.392E+00 -.105E+00 -.182E+00
   0.654E+02 0.254E+02 -.864E+03   -.654E+02 -.254E+02 0.864E+03   -.191E-01 -.261E-01 0.158E+00
   -.215E+01 -.533E+02 -.231E+03   0.166E+01 0.585E+02 0.228E+03   0.491E+00 -.507E+01 0.271E+01
   -.321E+02 0.352E+02 -.231E+03   0.347E+02 -.392E+02 0.227E+03   -.247E+01 0.385E+01 0.340E+01
   -.441E+02 -.112E+02 -.234E+03   0.479E+02 0.120E+02 0.238E+03   -.370E+01 -.819E+00 -.432E+01
   0.444E+02 0.921E+01 -.211E+03   -.482E+02 -.982E+01 0.206E+03   0.369E+01 0.575E+00 0.440E+01
   0.317E+02 -.333E+02 -.214E+03   -.343E+02 0.370E+02 0.218E+03   0.245E+01 -.359E+01 -.375E+01
   0.243E+01 0.542E+02 -.214E+03   -.193E+01 -.595E+02 0.216E+03   -.501E+00 0.512E+01 -.256E+01
   0.102E-01 0.451E-01 0.210E+04   -.720E-02 -.443E-01 -.210E+04   -.210E-02 -.506E-03 -.648E+01
   -.300E+00 0.258E+00 0.210E+04   0.303E+00 -.257E+00 -.210E+04   -.244E-02 -.874E-03 -.650E+01
   0.341E-01 0.108E+01 0.736E+03   -.610E-02 -.106E+01 -.736E+03   -.196E-01 -.104E-01 0.362E+00
   -.116E+01 0.186E+00 0.733E+03   0.119E+01 -.172E+00 -.734E+03   -.176E-01 -.962E-02 0.450E+00
   0.166E+01 0.865E+00 -.628E+03   -.157E+01 -.867E+00 0.629E+03   -.951E-01 0.172E-02 -.215E+00
   -.361E+01 0.550E+01 -.626E+03   0.368E+01 -.550E+01 0.626E+03   -.832E-01 0.808E-03 -.271E+00
   0.141E+02 0.282E+02 -.196E+04   -.142E+02 -.281E+02 0.196E+04   0.125E+00 -.502E-01 0.560E+01
   -.831E+01 0.335E+01 -.200E+04   0.822E+01 -.337E+01 0.199E+04   0.107E+00 0.604E-02 0.565E+01
   0.281E-01 -.430E-01 0.210E+04   -.250E-01 0.438E-01 -.210E+04   -.225E-02 -.551E-03 -.649E+01
   -.296E+00 -.256E+00 0.210E+04   0.299E+00 0.256E+00 -.210E+04   -.252E-02 -.277E-03 -.650E+01
   0.329E-01 -.101E+01 0.736E+03   -.504E-02 0.103E+01 -.736E+03   -.195E-01 -.832E-02 0.358E+00
   -.128E+01 -.122E+00 0.735E+03   0.130E+01 0.137E+00 -.736E+03   -.190E-01 -.101E-01 0.446E+00
   0.322E+01 -.904E+00 -.617E+03   -.316E+01 0.915E+00 0.618E+03   -.633E-01 -.767E-02 -.343E+00
   -.332E+01 -.549E+01 -.628E+03   0.339E+01 0.550E+01 0.628E+03   -.803E-01 -.973E-02 -.296E+00
   0.143E+02 -.264E+02 -.197E+04   -.145E+02 0.263E+02 0.197E+04   0.117E+00 0.666E-01 0.560E+01
   -.206E+02 -.425E+01 -.193E+04   0.205E+02 0.430E+01 0.192E+04   0.781E-01 -.428E-01 0.565E+01
   -.110E-01 0.407E-01 0.210E+04   0.762E-02 -.400E-01 -.210E+04   0.240E-02 -.512E-03 -.649E+01
   0.300E+00 0.240E+00 0.210E+04   -.304E+00 -.239E+00 -.210E+04   0.236E-02 -.722E-03 -.648E+01
   -.357E-01 0.950E+00 0.733E+03   0.106E-01 -.935E+00 -.733E+03   0.181E-01 -.102E-01 0.463E+00
   0.115E+01 0.181E+00 0.734E+03   -.119E+01 -.167E+00 -.734E+03   0.223E-01 -.875E-02 0.368E+00
   -.164E+01 0.561E+00 -.637E+03   0.155E+01 -.555E+00 0.637E+03   0.924E-01 -.349E-02 -.221E+00
   0.354E+01 0.390E+01 -.628E+03   -.363E+01 -.387E+01 0.628E+03   0.897E-01 -.192E-01 -.226E+00
   -.137E+02 0.169E+02 -.200E+04   0.138E+02 -.169E+02 0.199E+04   -.967E-01 -.310E-01 0.567E+01
   0.812E+01 0.293E+01 -.200E+04   -.797E+01 -.293E+01 0.200E+04   -.145E+00 0.409E-03 0.551E+01
   -.285E-01 -.385E-01 0.210E+04   0.251E-01 0.394E-01 -.210E+04   0.248E-02 -.642E-03 -.650E+01
   0.296E+00 -.238E+00 0.210E+04   -.299E+00 0.238E+00 -.210E+04   0.241E-02 -.375E-03 -.648E+01
   -.342E-01 -.882E+00 0.733E+03   0.939E-02 0.896E+00 -.733E+03   0.178E-01 -.934E-02 0.463E+00
   0.126E+01 -.122E+00 0.735E+03   -.130E+01 0.137E+00 -.736E+03   0.229E-01 -.991E-02 0.352E+00
   -.313E+01 -.639E+00 -.629E+03   0.307E+01 0.645E+00 0.629E+03   0.650E-01 -.402E-02 -.284E+00
   0.323E+01 -.382E+01 -.630E+03   -.331E+01 0.380E+01 0.630E+03   0.873E-01 0.140E-01 -.223E+00
   -.132E+02 -.159E+02 -.200E+04   0.133E+02 0.159E+02 0.199E+04   -.640E-01 0.114E-01 0.563E+01
   0.177E+02 -.375E+01 -.198E+04   -.176E+02 0.376E+01 0.197E+04   -.121E+00 -.864E-02 0.557E+01
   0.206E-01 0.156E+00 0.551E+03   -.280E-01 -.175E+00 -.550E+03   0.969E-02 0.246E-01 -.284E-01
   -.868E+00 0.816E+00 0.550E+03   0.851E+00 -.833E+00 -.550E+03   0.221E-01 0.227E-01 -.940E-01
   0.136E-01 0.192E+00 0.158E+04   -.103E-01 -.192E+00 -.158E+04   -.464E-02 0.198E-03 0.354E+01
   -.219E+00 0.308E-01 0.158E+04   0.222E+00 -.314E-01 -.158E+04   -.511E-02 0.921E-03 0.354E+01
   0.568E+01 0.322E+01 -.152E+04   -.571E+01 -.321E+01 0.152E+04   0.825E-01 -.114E-01 -.511E+01
   -.114E+02 0.242E+02 -.149E+04   0.114E+02 -.241E+02 0.150E+04   -.306E-02 -.162E+00 -.506E+01
   0.168E+01 0.400E+01 -.460E+03   -.168E+01 -.398E+01 0.460E+03   -.362E-02 -.285E-01 0.398E+00
   -.226E+01 0.570E+00 -.469E+03   0.224E+01 -.581E+00 0.469E+03   0.227E-01 0.150E-01 0.220E+00
   0.126E+00 -.958E-01 0.552E+03   -.135E+00 0.789E-01 -.552E+03   0.122E-01 0.226E-01 -.332E-01
   -.843E+00 -.753E+00 0.550E+03   0.826E+00 0.733E+00 -.550E+03   0.231E-01 0.271E-01 -.951E-01
   0.132E-01 -.193E+00 0.158E+04   -.997E-02 0.192E+00 -.158E+04   -.461E-02 0.133E-02 0.354E+01
   -.230E+00 -.322E-01 0.158E+04   0.234E+00 0.317E-01 -.158E+04   -.511E-02 0.741E-03 0.354E+01
   0.186E+02 -.487E+01 -.147E+04   -.185E+02 0.488E+01 0.148E+04   -.403E-01 -.138E-01 -.535E+01
   -.970E+01 -.238E+02 -.150E+04   0.975E+01 0.237E+02 0.150E+04   -.313E-01 0.775E-01 -.511E+01
   0.168E+01 -.396E+01 -.461E+03   -.168E+01 0.394E+01 0.461E+03   -.108E-01 0.338E-01 0.388E+00
   -.313E+01 -.549E+00 -.460E+03   0.310E+01 0.548E+00 0.460E+03   0.323E-01 0.144E-02 0.214E+00
   -.298E-01 0.133E+00 0.548E+03   0.459E-01 -.152E+00 -.548E+03   -.217E-01 0.251E-01 -.956E-01
   0.871E+00 0.708E+00 0.551E+03   -.858E+00 -.722E+00 -.550E+03   -.173E-01 0.191E-01 -.298E-01
   -.140E-01 0.180E+00 0.158E+04   0.105E-01 -.180E+00 -.158E+04   0.491E-02 0.257E-03 0.354E+01
   0.219E+00 0.304E-01 0.158E+04   -.223E+00 -.310E-01 -.158E+04   0.460E-02 0.912E-03 0.354E+01
   -.539E+01 0.130E+01 -.153E+04   0.534E+01 -.126E+01 0.153E+04   0.278E-01 -.437E-01 -.500E+01
   0.108E+02 0.117E+02 -.151E+04   -.108E+02 -.117E+02 0.152E+04   -.485E-01 -.325E-01 -.512E+01
   -.173E+01 0.307E+01 -.469E+03   0.175E+01 -.305E+01 0.469E+03   -.199E-01 -.196E-01 0.188E+00
   0.225E+01 0.517E+00 -.467E+03   -.223E+01 -.517E+00 0.467E+03   -.161E-01 0.167E-02 0.460E+00
   -.127E+00 -.731E-01 0.550E+03   0.143E+00 0.548E-01 -.550E+03   -.215E-01 0.244E-01 -.998E-01
   0.847E+00 -.643E+00 0.550E+03   -.834E+00 0.621E+00 -.550E+03   -.179E-01 0.285E-01 -.311E-01
   -.136E-01 -.181E+00 0.158E+04   0.102E-01 0.180E+00 -.158E+04   0.488E-02 0.138E-02 0.354E+01
   0.231E+00 -.319E-01 0.158E+04   -.234E+00 0.315E-01 -.158E+04   0.469E-02 0.653E-03 0.354E+01
   -.165E+02 -.226E+01 -.150E+04   0.164E+02 0.233E+01 0.151E+04   0.890E-01 -.749E-01 -.510E+01
   0.847E+01 -.112E+02 -.152E+04   -.847E+01 0.111E+02 0.152E+04   -.495E-01 0.904E-02 -.512E+01
   -.172E+01 -.298E+01 -.470E+03   0.173E+01 0.295E+01 0.470E+03   -.164E-01 0.325E-01 0.186E+00
   0.303E+01 -.560E+00 -.462E+03   -.300E+01 0.559E+00 0.462E+03   -.391E-01 0.128E-02 0.394E+00
   -.318E+00 0.248E+00 0.167E+02   0.469E-12 -.142E-12 -.784E-11   0.316E+00 -.232E+00 -.167E+02

 POSITION                                       TOTAL-FORCE (eV/Angst)
      3.80903      4.21230     16.93524         0.102429      0.010740      0.025651
      2.45877      3.69219     17.42273        -0.108218     -0.018630      0.040459
      3.70765      5.16623     16.41372        -0.001919      0.167241     -0.085192
      4.27440      3.48908     16.26016         0.103919     -0.118234     -0.108022
      4.50523      4.36489     17.76099         0.152894      0.038098      0.198442
      1.76499      3.57836     16.58922        -0.147429     -0.038732     -0.169713
      2.00070      4.37941     18.13631        -0.079818      0.116867      0.163896
      2.56256      2.72030     17.90838         0.001630     -0.180427      0.125223
      2.10122      0.00000      7.50000         0.000865      0.000043      0.082551
      4.20243      2.10122      7.50000         0.000980      0.000118      0.085102
      2.10122      2.10122      9.60122         0.008206      0.004933      0.018730
      4.20243      0.00000      9.60122         0.006552      0.004789      0.031297
      2.10335      0.00292     11.70874        -0.001590     -0.000638      0.002598
      4.20536      2.10413     11.71552        -0.007577      0.004540     -0.002850
      2.09860      2.10795     13.78424        -0.008632     -0.007366      0.334519
      4.19724      0.00763     13.80613         0.015858     -0.020440      0.228042
      2.10122      4.20243      7.50000         0.000862      0.000020      0.082571
      4.20243      6.30365      7.50000         0.000980     -0.000049      0.085154
      2.10122      6.30365      9.60122         0.008263      0.003987      0.019311
      4.20243      4.20243      9.60122         0.007192      0.004869      0.034288
      2.10305      4.20538     11.70854        -0.005276      0.002329      0.033845
      4.20541      6.30687     11.71552        -0.009205      0.000367      0.002820
      2.09875      6.30909     13.78426        -0.012034     -0.005977      0.327962
      4.19860      4.20996     13.80597         0.008135      0.009667      0.257510
      6.30365      0.00000      7.50000        -0.000939      0.000014      0.085388
      0.00000      2.10122      7.50000        -0.000831      0.000088      0.082491
      6.30365      2.10122      9.60122        -0.006876      0.005008      0.034335
      0.00000      0.00000      9.60122        -0.009303      0.004494      0.013276
      6.30042      0.00308     11.71612         0.001897      0.001766     -0.015314
      8.40229      2.10415     11.70887         0.002746      0.007053      0.007446
      6.30584      2.10815     13.80951         0.002733     -0.003479      0.205301
      0.00101      0.00613     13.78205         0.005405     -0.003099      0.389952
      6.30365      4.20243      7.50000        -0.000901      0.000032      0.085479
      0.00000      6.30365      7.50000        -0.000827     -0.000071      0.082711
      6.30365      6.30365      9.60122        -0.006838      0.004560      0.034523
      0.00000      4.20243      9.60122        -0.009175      0.004704      0.018620
      6.30108      4.20549     11.71581         0.002640      0.002620      0.002766
      8.40229      6.30663     11.70888         0.003710     -0.006030      0.006457
      6.30577      6.31193     13.80954        -0.009763     -0.032073      0.222919
      0.00012      4.20866     13.78288         0.003496      0.001414      0.352095
      2.10122      0.00000      9.60122         0.002405      0.006038      0.047991
      4.20243      2.10122      9.60122         0.005729      0.005620      0.064471
      2.10122      2.10122      7.50000        -0.001320     -0.000122     -0.620361
      4.20243      0.00000      7.50000        -0.001456      0.000089     -0.621916
      2.09576      0.00582     13.83559         0.050405     -0.001233      0.171141
      4.19883      2.10781     13.84471         0.026663     -0.043401      0.151193
      2.10184      2.10420     11.70238        -0.003134     -0.008782     -0.016047
      4.20242      0.00301     11.70853         0.002238      0.003934     -0.009773
      2.10122      4.20243      9.60122         0.003347      0.005422      0.045531
      4.20243      6.30365      9.60122         0.006010      0.006594      0.064159
      2.10122      6.30365      7.50000        -0.001311      0.000201     -0.620504
      4.20243      4.20243      7.50000        -0.001464      0.000028     -0.622122
      2.09557      4.20831     13.83578         0.014987     -0.000307      0.077484
      4.19891      6.31019     13.84471         0.020929      0.036833      0.139533
      2.10188      6.30639     11.70239        -0.005421      0.010551     -0.018833
      4.20288      4.20542     11.70866         0.001850     -0.000083     -0.010884
      6.30365      0.00000      9.60122        -0.005527      0.006162      0.067135
      0.00000      2.10122      9.60122        -0.004428      0.004482      0.048272
      6.30365      2.10122      7.50000         0.001459     -0.000116     -0.621799
      0.00000      0.00000      7.50000         0.001355      0.000088     -0.620450
      6.30498      0.00658     13.84597        -0.021626     -0.001589      0.177011
      0.00358      2.10693     13.83607        -0.042926     -0.004354      0.167552
      6.30331      2.10408     11.70956        -0.001441     -0.003862     -0.009097
      8.40374      0.00286     11.70188        -0.000450      0.000919     -0.007162
      6.30365      4.20243      9.60122        -0.005791      0.005976      0.064259
      0.00000      6.30365      9.60122        -0.004632      0.007059      0.047941
      6.30365      6.30365      7.50000         0.001447      0.000207     -0.621884
      0.00000      4.20243      7.50000         0.001384     -0.000003     -0.620639
      6.30551      4.20895     13.84563        -0.007671     -0.010196      0.151585
      0.00357      6.30970     13.83607        -0.042786      0.001672      0.166125
      6.30331      6.30679     11.70957         0.000085      0.006778     -0.009873
      8.40357      4.20532     11.70201        -0.003148      0.000284     -0.022678
    total drift:                               -0.001838      0.015786     -0.012115

  FREE ENERGIE OF THE ION-ELECTRON SYSTEM (eV)
  free  energy   TOTEN  =      -264.93126145 eV

  energy  without entropy=     -264.93126145  energy(sigma->0) =     -264.93126145