 vasp.6.3.0 20Jan22 (build Apr  1 2022 16:44:48) complex
 executed on        HPECrayEX_GCC date 2022.10.25  01:04:52

 INCAR:
   SYSTEM = MgO-rocksalt
   ISMEAR = 0
   SIGMA = 0.05
   EDIFF = 1E-6
   ALGO = ALL
   ISTART = 0
   IBRION = -1
   NSW = 0
   ISYM = 0
   DIPOL = 0.5 0.5 0.5
   IDIPOL = 3
   LDIPOL = .TRUE.
   GGA = RE
   AGGAC = 0.0
   LUSE_VDW = .TRUE.
   LASPH = .TRUE.
   ENCUT = 600
   PREC = Accurate
   LASPH = .TRUE.
   LREAL = .FALSE.
   ISPIN = 1
   NELM = 200
   NELMIN = 8
   NCORE = 8
   KPAR = 1
   LWAVE = .FALSE.
   LCHARG = .FALSE.

 POTCAR:    PAW_PBE C 08Apr2002
 POTCAR:    PAW_PBE H 15Jun2001
 POTCAR:    PAW_PBE Mg_pv 13Apr2007
 POTCAR:    PAW_PBE O 08Apr2002
|               ----> ADVICE to this user running VASP <----                  |
|     You have switched on vdW-DFT.                                           |
|     This routine was written and supplied by Jiri Klimes. We recommend      |
|     that you carefully read and cite the following publications:            |
|       J. Klimes, D.R. Bowler, A. Michelides                                 |
|          J. Phys.: Cond Matt. 22 022201 (2010)                              |
|       J. Klimes, D.R. Bowler, A. Michelides                                 |
|          Phys. Rev. B. 83, 195131 (2011)                                    |
|     and references therein.                                                 |

   TITEL  = PAW_PBE C 08Apr2002
   POMASS =   12.011; ZVAL   =    4.000    mass and valenz
   ENMAX  =  400.000; ENMIN  =  300.000 eV

   TITEL  = PAW_PBE H 15Jun2001
   POMASS =    1.000; ZVAL   =    1.000    mass and valenz
   ENMAX  =  250.000; ENMIN  =  200.000 eV

   TITEL  = PAW_PBE Mg_pv 13Apr2007
   POMASS =   24.305; ZVAL   =    8.000    mass and valenz
   ENMAX  =  403.929; ENMIN  =  302.947 eV

   TITEL  = PAW_PBE O 08Apr2002
   POMASS =   16.000; ZVAL   =    6.000    mass and valenz
   ENMAX  =  400.000; ENMIN  =  300.000 eV

  PAW_PBE C 08Apr2002                   :
  PAW_PBE H 15Jun2001                   :
  PAW_PBE Mg_pv 13Apr2007               :
  PAW_PBE O 08Apr2002                   :

 POSCAR:  C  H Mg  O
  positions in direct lattice
 exchange correlation table for  LEXCH =       40
   RHO(1)=    0.500       N(1)  =     2000
   RHO(2)=  100.500       N(2)  =     4000

 ion  position               nearest neighbor table
   1  0.500  0.500  0.797-   2 1.10   3 1.10   5 1.10   4 1.10
   2  0.500  0.606  0.827-   1 1.10
   3  0.500  0.394  0.827-   1 1.10
   4  0.607  0.500  0.768-   1 1.10
   5  0.393  0.500  0.768-   1 1.10
   6  0.250  0.000  0.352-  38 2.11  40 2.11  41 2.11  48 2.11  57 2.11
   7  0.500  0.250  0.352-  39 2.11  40 2.11  41 2.11  49 2.11  56 2.11
   8  0.250  0.250  0.451-  40 2.11  39 2.11  38 2.11  46 2.11  55 2.11  44 2.12
   9  0.500  0.000  0.451-  41 2.11  39 2.11  38 2.11  47 2.11  54 2.11  45 2.11
  10  0.250  0.000  0.550-  45 2.11  44 2.11  52 2.11  61 2.11  38 2.12  42 2.14
  11  0.500  0.250  0.550-  53 2.11  45 2.11  60 2.11  44 2.11  39 2.12  43 2.13
  12  0.250  0.250  0.648-  44 2.10  42 2.11  43 2.11  59 2.11  50 2.11
  13  0.500  0.000  0.648-  45 2.10  43 2.11  51 2.11  42 2.11  58 2.11
  14  0.250  0.500  0.352-  46 2.11  40 2.11  48 2.11  49 2.11  65 2.11
  15  0.500  0.750  0.352-  47 2.11  41 2.11  48 2.11  49 2.11  64 2.11
  16  0.250  0.750  0.451-  48 2.11  46 2.11  47 2.11  38 2.11  63 2.11  52 2.12
  17  0.500  0.500  0.451-  49 2.11  46 2.11  47 2.11  39 2.11  62 2.11  53 2.12
  18  0.250  0.500  0.550-  53 2.11  52 2.11  44 2.11  69 2.11  46 2.12  50 2.14
  19  0.500  0.750  0.550-  53 2.11  45 2.11  68 2.11  52 2.11  47 2.12  51 2.13
  20  0.250  0.750  0.648-  52 2.10  42 2.11  51 2.11  67 2.11  50 2.11
  21  0.500  0.500  0.649-  43 2.11  51 2.11  53 2.11  50 2.11  66 2.11
  22  0.750  0.000  0.352-  54 2.11  41 2.11  56 2.11  57 2.11  64 2.11
  23  0.000  0.250  0.352-  55 2.11  40 2.11  56 2.11  57 2.11  65 2.11
  24  0.750  0.250  0.451-  56 2.11  54 2.11  55 2.11  39 2.11  62 2.11  60 2.12
  25  0.000  0.000  0.451-  57 2.11  54 2.11  55 2.11  38 2.11  63 2.11  61 2.12
  26  0.750  0.000  0.550-  45 2.11  60 2.11  68 2.11  61 2.11  54 2.12  58 2.14
  27  1.000  0.250  0.550-  60 2.11  44 2.11  61 2.11  69 2.11  55 2.12  59 2.14
  28  0.750  0.250  0.648-  60 2.10  58 2.11  43 2.11  59 2.11  66 2.11
  29  1.000  0.000  0.648-  61 2.10  58 2.11  42 2.11  59 2.11  67 2.11
  30  0.750  0.500  0.352-  62 2.11  56 2.11  49 2.11  64 2.11  65 2.11
  31  0.000  0.750  0.352-  63 2.11  57 2.11  48 2.11  64 2.11  65 2.11
  32  0.750  0.750  0.451-  64 2.11  54 2.11  62 2.11  63 2.11  47 2.11  68 2.12
  33  0.000  0.500  0.451-  65 2.11  55 2.11  62 2.11  63 2.11  46 2.11  69 2.12
  34  0.750  0.500  0.550-  53 2.11  60 2.11  68 2.11  69 2.11  62 2.12  66 2.14
  35  1.000  0.750  0.550-  68 2.11  52 2.11  61 2.11  69 2.11  63 2.12  67 2.14
  36  0.750  0.750  0.648-  68 2.10  58 2.11  51 2.11  67 2.11  66 2.11
  37  1.000  0.500  0.648-  69 2.10  50 2.11  66 2.11  59 2.11  67 2.11
  38  0.250  0.000  0.451-   6 2.11   8 2.11   9 2.11  16 2.11  25 2.11  10 2.12
  39  0.500  0.250  0.451-   7 2.11   8 2.11   9 2.11  17 2.11  24 2.11  11 2.12
  40  0.250  0.250  0.352-   8 2.11   7 2.11   6 2.11  14 2.11  23 2.11
  41  0.500  0.000  0.352-   9 2.11   7 2.11   6 2.11  15 2.11  22 2.11
  42  0.250  0.000  0.650-  12 2.11  20 2.11  29 2.11  13 2.11  10 2.14
  43  0.500  0.250  0.650-  13 2.11  28 2.11  12 2.11  21 2.11  11 2.13
  44  0.250  0.250  0.550-  12 2.10  27 2.11  18 2.11  10 2.11  11 2.11   8 2.12
  45  0.500  0.000  0.550-  13 2.10  10 2.11  26 2.11  19 2.11  11 2.11   9 2.11
  46  0.250  0.500  0.451-  14 2.11   8 2.11  16 2.11  17 2.11  33 2.11  18 2.12
  47  0.500  0.750  0.451-  15 2.11   9 2.11  16 2.11  17 2.11  32 2.11  19 2.12
  48  0.250  0.750  0.352-  16 2.11  14 2.11  15 2.11   6 2.11  31 2.11
  49  0.500  0.500  0.352-  17 2.11  14 2.11  15 2.11   7 2.11  30 2.11
  50  0.250  0.500  0.650-  37 2.11  12 2.11  20 2.11  21 2.11  18 2.14
  51  0.500  0.750  0.650-  13 2.11  36 2.11  20 2.11  21 2.11  19 2.13
  52  0.250  0.750  0.550-  20 2.10  35 2.11  18 2.11  10 2.11  19 2.11  16 2.12
  53  0.500  0.500  0.550-  18 2.11  34 2.11  11 2.11  19 2.11  21 2.11  17 2.12
  54  0.750  0.000  0.451-  22 2.11   9 2.11  24 2.11  25 2.11  32 2.11  26 2.12
  55  0.000  0.250  0.451-  23 2.11   8 2.11  24 2.11  25 2.11  33 2.11  27 2.12
  56  0.750  0.250  0.352-  24 2.11  22 2.11  23 2.11   7 2.11  30 2.11
  57  0.000  0.000  0.352-  25 2.11  22 2.11  23 2.11   6 2.11  31 2.11
  58  0.750  0.000  0.650-  28 2.11  36 2.11  29 2.11  13 2.11  26 2.14
  59  1.000  0.250  0.650-  29 2.11  37 2.11  12 2.11  28 2.11  27 2.14
  60  0.750  0.250  0.550-  28 2.10  27 2.11  34 2.11  26 2.11  11 2.11  24 2.12
  61  1.000  0.000  0.550-  29 2.10  27 2.11  35 2.11  10 2.11  26 2.11  25 2.12
  62  0.750  0.500  0.451-  30 2.11  24 2.11  17 2.11  32 2.11  33 2.11  34 2.12
  63  0.000  0.750  0.451-  31 2.11  25 2.11  16 2.11  32 2.11  33 2.11  35 2.12
  64  0.750  0.750  0.352-  32 2.11  22 2.11  30 2.11  31 2.11  15 2.11
  65  0.000  0.500  0.352-  33 2.11  23 2.11  30 2.11  31 2.11  14 2.11
  66  0.750  0.500  0.650-  37 2.11  36 2.11  28 2.11  21 2.11  34 2.14
  67  1.000  0.750  0.650-  29 2.11  37 2.11  36 2.11  20 2.11  35 2.14
  68  0.750  0.750  0.550-  36 2.10  35 2.11  34 2.11  26 2.11  19 2.11  32 2.12
  69  1.000  0.500  0.550-  37 2.10  27 2.11  35 2.11  34 2.11  18 2.11  33 2.12

IMPORTANT INFORMATION: All symmetrisations will be switched off!
NOSYMM: (Re-)initialisation of all symmetry stuff for point group C_1.

                                     Primitive cell

  volume of cell :    1519.6535

  direct lattice vectors                    reciprocal lattice vectors
     8.440582262  0.000000000  0.000000000     0.118475239  0.000000000  0.000000000
     0.000000000  8.440582262  0.000000000     0.000000000  0.118475239  0.000000000
     0.000000000  0.000000000 21.330436697     0.000000000  0.000000000  0.046881366

  length of vectors
     8.440582262  8.440582262 21.330436697     0.118475239  0.118475239  0.046881366

  position of ions in fractional coordinates (direct lattice)
     0.500000043  0.500000039  0.797447370
     0.500000077  0.606464350  0.826971269
     0.500000031  0.393535593  0.826971251
     0.607143184  0.500000005  0.768077853
     0.392856886  0.500000051  0.768077864
     0.250000000  0.000000000  0.351610242
     0.500000000  0.250000000  0.351610242
     0.250000000  0.250000000  0.450536747
     0.500000000  0.000000000  0.450536747
     0.250020383  0.000000002  0.549964511
     0.499999995  0.250059851  0.550024624
     0.250059453  0.249849588  0.648270450
     0.499999989  0.000000005  0.648330813
     0.250000000  0.500000000  0.351610242
     0.500000000  0.750000000  0.351610242
     0.250000000  0.750000000  0.450536747
     0.500000000  0.500000000  0.450536747
     0.250073483  0.500000003  0.550017913
     0.499999994  0.749940154  0.550024627
     0.250059451  0.750150420  0.648270445
     0.499999985  0.500000002  0.648823829
     0.750000000  0.000000000  0.351610242
     0.000000000  0.250000000  0.351610242
     0.750000000  0.250000000  0.450536747
     0.000000000  0.000000000  0.450536747
     0.749979604  0.000000004  0.549964510
     0.999999993  0.249994039  0.549974874
     0.749940525  0.249849582  0.648270453
     0.999999988  0.000000003  0.648413763
     0.750000000  0.500000000  0.351610242
     0.000000000  0.750000000  0.351610242
     0.750000000  0.750000000  0.450536747
     0.000000000  0.500000000  0.450536747
     0.749926503  0.500000000  0.550017911
     0.999999993  0.750005964  0.549974872
     0.749940526  0.750150423  0.648270447
     0.999999993  0.500000001  0.648293177
     0.250000000  0.000000000  0.450536747
     0.500000000  0.250000000  0.450536747
     0.250000000  0.250000000  0.351610242
     0.500000000  0.000000000  0.351610242
     0.249967574  0.000000004  0.650232023
     0.499999992  0.249790432  0.650054103
     0.249935855  0.250001082  0.549704381
     0.499999991  0.000000000  0.549674093
     0.250000000  0.500000000  0.450536747
     0.500000000  0.750000000  0.450536747
     0.250000000  0.750000000  0.351610242
     0.500000000  0.500000000  0.351610242
     0.249741506  0.500000004  0.650297624
     0.499999994  0.750209573  0.650054100
     0.249935854  0.749998920  0.549704382
     0.499999993  0.500000002  0.549802910
     0.750000000  0.000000000  0.450536747
     0.000000000  0.250000000  0.450536747
     0.750000000  0.250000000  0.351610242
     0.000000000  0.000000000  0.351610242
     0.750032406  0.000000003  0.650232024
     0.999999991  0.249978599  0.650229220
     0.750064135  0.250001085  0.549704379
     0.999999996  0.000000003  0.549734307
     0.750000000  0.500000000  0.450536747
     0.000000000  0.750000000  0.450536747
     0.750000000  0.750000000  0.351610242
     0.000000000  0.500000000  0.351610242
     0.750258474  0.500000004  0.650297619
     0.999999985  0.750021408  0.650229221
     0.750064133  0.749998918  0.549704381
     0.999999993  0.500000001  0.549711215

  ion indices of the primitive-cell ions
[...]
   2.11064737  6.33170633 13.82789168
   4.22029100  4.22029115 13.83969561
   6.33043670  0.00000000  7.50000000
   0.00000000  2.11014557  7.50000000
   6.33043670  2.11014557  9.61014557
   0.00000000  0.00000000  9.61014557
   6.33026455  0.00000003 11.73098317
   8.44058221  2.11009525 11.73120423
   6.32993470  2.10887595 13.82789187
   8.44058216  0.00000003 13.83094873
   6.33043670  4.22029113  7.50000000
   0.00000000  6.33043670  7.50000000
   6.33043670  6.33043670  9.61014557
   0.00000000  4.22029113  9.61014557
   6.32981634  4.22029113 11.73212224
   8.44058220  6.33048703 11.73120420
   6.32993470  6.33170636 13.82789174
   8.44058221  4.22029114 13.82837658
   2.11014557  0.00000000  9.61014557
   4.22029113  2.11014557  9.61014557
   2.11014557  2.11014557  7.50000000
   4.22029113  0.00000000  7.50000000
   2.10987187  0.00000003 13.86973301
   4.22029106  2.10837669 13.86593789
   2.10960414  2.11015470 11.72543450
   4.22029105  0.00000000 11.72478843
   2.11014557  4.22029113  9.61014557
   4.22029113  6.33043670  9.61014557
   2.11014557  6.33043670  7.50000000
   4.22029113  4.22029113  7.50000000
   2.10796372  4.22029116 13.87113230
   4.22029108  6.33220561 13.86593782
   2.10960414  6.33042758 11.72543453
   4.22029107  4.22029115 11.72753617
   6.33043670  0.00000000  9.61014557
   0.00000000  2.11014557  9.61014557
   6.33043670  2.11014557  7.50000000
   0.00000000  0.00000000  7.50000000
   6.33071023  0.00000003 13.86973303
   8.44058218  2.10996492 13.86967322
   6.33097803  2.11015472 11.72543445
   8.44058223  0.00000002 11.72607284
   6.33043670  4.22029113  9.61014557
   0.00000000  6.33043670  9.61014557
   6.33043670  6.33043670  7.50000000
   0.00000000  4.22029113  7.50000000
   6.33261837  4.22029116 13.87113220
   8.44058213  6.33061739 13.86967324
   6.33097801  6.33042756 11.72543451
   8.44058220  4.22029114 11.72558028

--------------------------------------- Iteration      FINAL  ---------------------------------------

--------------------OUTCAR has been truncated-------------------------

[...]

--------------------OUTCAR has been truncated-------------------------

  FORCE on cell =-STRESS in cart. coord.  units (eV):
  Direction    XX          YY          ZZ          XY          YZ          ZX
  Alpha Z   900.07294   900.07294   900.07294
  Ewald  158787.19954158785.01483************     0.00000     0.00006    -0.00003
  Hartree168972.94602168971.70830************     0.00000     0.00001    -0.00002
  E(xc)   -2551.02062 -2551.06033 -2553.84900    -0.00000     0.00000     0.00000
  Local  ************************337681.81561    -0.00000    -0.00005     0.00005
  n-local -2829.38281 -2829.37825 -2848.65582    -0.00000     0.00000    -0.00000
  augment  1077.81894  1077.82049  1069.01172    -0.00000    -0.00000    -0.00000
  Kinetic  7430.58703  7430.67993  7465.45229    -0.00000    -0.00001    -0.00000
  Fock        0.00000     0.00000     0.00000     0.00000     0.00000     0.00000
  Total      -8.88489    -8.81122    14.14609    -0.00000     0.00001     0.00000
  in kB      -9.36738    -9.28970    14.91428    -0.00000     0.00001     0.00000

 VOLUME and BASIS-vectors are now :
  energy-cutoff  :      600.00
  volume of cell :     1519.65
      direct lattice vectors                 reciprocal lattice vectors
     8.440582262  0.000000000  0.000000000     0.118475239  0.000000000  0.000000000
     0.000000000  8.440582262  0.000000000     0.000000000  0.118475239  0.000000000
     0.000000000  0.000000000 21.330436697     0.000000000  0.000000000  0.046881366

  length of vectors
     8.440582262  8.440582262 21.330436697     0.118475239  0.118475239  0.046881366

 FORCES acting on ions:
    Electron-Ion                     Ewald-Force                    Non-Local-Force
   -.391E-06 0.855E-05 -.923E+03   0.115E-05 -.179E-04 0.923E+03   0.670E-06 -.116E-04 -.575E-01
   -.140E-04 -.428E+02 -.228E+03   0.152E-04 0.474E+02 0.232E+03   -.163E-05 -.464E+01 -.324E+01
   0.460E-05 0.428E+02 -.228E+03   -.529E-05 -.474E+02 0.232E+03   0.440E-06 0.464E+01 -.324E+01
   -.430E+02 0.112E-04 -.233E+03   0.476E+02 -.120E-04 0.230E+03   -.469E+01 0.170E-05 0.313E+01
   0.430E+02 -.795E-05 -.233E+03   -.476E+02 0.832E-05 0.230E+03   0.469E+01 -.410E-06 0.313E+01
   0.136E+00 0.513E-05 0.208E+04   -.135E+00 -.314E-06 -.207E+04   -.345E-03 0.133E-05 -.646E+01
   0.289E-05 0.133E+00 0.208E+04   -.548E-06 -.132E+00 -.207E+04   0.181E-05 -.772E-03 -.647E+01
   0.535E+00 0.521E+00 0.710E+03   -.531E+00 -.516E+00 -.710E+03   -.237E-02 -.339E-02 0.437E+00
   0.376E-06 0.524E-05 0.710E+03   0.618E-06 -.296E-05 -.710E+03   -.400E-06 -.342E-05 0.412E+00
   0.236E+01 -.383E-05 -.652E+03   -.235E+01 0.332E-05 0.652E+03   -.110E-01 -.340E-05 -.203E+00
   -.215E-05 0.354E+01 -.646E+03   0.616E-06 -.353E+01 0.646E+03   0.670E-05 -.134E-01 -.355E+00
   0.140E+02 0.142E+02 -.200E+04   -.140E+02 -.142E+02 0.199E+04   -.269E-01 0.453E-01 0.566E+01
   0.819E-05 0.597E-05 -.201E+04   -.499E-05 -.358E-05 0.200E+04   0.270E-05 -.354E-05 0.564E+01
   0.143E+00 -.744E-05 0.208E+04   -.141E+00 0.282E-06 -.207E+04   -.896E-03 0.128E-05 -.647E+01
   0.828E-05 -.133E+00 0.208E+04   -.325E-06 0.132E+00 -.207E+04   0.449E-05 0.773E-03 -.647E+01
   0.535E+00 -.521E+00 0.710E+03   -.531E+00 0.516E+00 -.710E+03   -.237E-02 0.338E-02 0.437E+00
   0.552E-06 -.754E-05 0.711E+03   -.277E-05 0.322E-05 -.711E+03   0.147E-06 0.129E-05 0.452E+00
   0.358E+01 0.102E-04 -.646E+03   -.356E+01 -.973E-05 0.647E+03   -.177E-01 0.370E-05 -.245E+00
   -.272E-05 -.354E+01 -.646E+03   0.175E-05 0.353E+01 0.646E+03   0.310E-05 0.134E-01 -.355E+00
   0.140E+02 -.142E+02 -.200E+04   -.140E+02 0.142E+02 0.199E+04   -.269E-01 -.453E-01 0.566E+01
   -.209E-05 0.798E-05 -.195E+04   0.606E-05 -.638E-05 0.195E+04   0.190E-05 -.619E-06 0.579E+01
   -.136E+00 0.150E-05 0.208E+04   0.135E+00 -.531E-06 -.207E+04   0.344E-03 -.524E-06 -.646E+01
   -.314E-05 0.126E+00 0.208E+04   0.569E-06 -.126E+00 -.207E+04   -.170E-05 -.213E-03 -.647E+01
   -.535E+00 0.521E+00 0.710E+03   0.531E+00 -.516E+00 -.710E+03   0.237E-02 -.338E-02 0.437E+00
   -.321E-05 0.145E-05 0.709E+03   0.396E-06 -.558E-06 -.709E+03   0.257E-05 -.250E-05 0.449E+00
   -.236E+01 -.423E-05 -.652E+03   0.235E+01 -.418E-06 0.652E+03   0.110E-01 0.147E-04 -.203E+00
   0.641E-06 0.230E+01 -.652E+03   0.841E-06 -.229E+01 0.652E+03   -.629E-05 -.316E-02 -.213E+00
   -.140E+02 0.142E+02 -.200E+04   0.140E+02 -.142E+02 0.199E+04   0.269E-01 0.453E-01 0.566E+01
   -.159E-04 0.527E-05 -.202E+04   0.103E-04 -.246E-05 0.201E+04   -.793E-06 0.137E-05 0.563E+01
   -.143E+00 0.215E-05 0.208E+04   0.141E+00 0.514E-06 -.207E+04   0.898E-03 -.676E-06 -.647E+01
   -.958E-05 -.126E+00 0.208E+04   0.349E-06 0.126E+00 -.207E+04   0.650E-06 0.212E-03 -.647E+01
   -.535E+00 -.521E+00 0.710E+03   0.531E+00 0.516E+00 -.710E+03   0.237E-02 0.338E-02 0.437E+00
   -.499E-05 -.534E-06 0.710E+03   0.368E-05 -.385E-06 -.710E+03   0.151E-05 0.427E-05 0.432E+00
   -.358E+01 0.808E-05 -.646E+03   0.356E+01 -.352E-05 0.647E+03   0.177E-01 -.114E-04 -.245E+00
   0.937E-07 -.230E+01 -.652E+03   -.823E-06 0.229E+01 0.652E+03   0.214E-05 0.316E-02 -.213E+00
   -.140E+02 -.142E+02 -.200E+04   0.140E+02 0.142E+02 0.199E+04   0.269E-01 -.453E-01 0.566E+01
   0.254E-05 -.722E-05 -.201E+04   -.944E-05 0.574E-05 0.200E+04   0.826E-06 0.450E-05 0.563E+01
   0.414E+00 -.780E-06 0.532E+03   -.409E+00 -.118E-05 -.531E+03   -.831E-02 -.125E-05 -.634E-01
   0.171E-04 0.418E+00 0.532E+03   -.131E-05 -.423E+00 -.532E+03   -.348E-05 0.750E-02 -.817E-01
   0.104E+00 0.970E-01 0.156E+04   -.103E+00 -.963E-01 -.156E+04   -.124E-02 -.103E-02 0.355E+01
   -.961E-05 -.520E-05 0.156E+04   -.202E-06 -.461E-06 -.156E+04   0.431E-05 0.259E-05 0.355E+01
   0.582E+01 0.111E-04 -.153E+04   -.581E+01 -.195E-05 0.153E+04   -.191E-01 -.728E-06 -.487E+01
   0.323E-05 0.176E+02 -.151E+04   -.611E-05 -.175E+02 0.151E+04   0.433E-05 -.507E-01 -.492E+01
   0.219E+01 0.215E+01 -.481E+03   -.217E+01 -.214E+01 0.481E+03   -.205E-01 -.117E-01 0.301E+00
   -.958E-05 -.650E-05 -.482E+03   0.723E-05 0.639E-05 0.482E+03   0.118E-05 0.699E-06 0.258E+00
   0.453E+00 0.168E-05 0.532E+03   -.456E+00 -.162E-07 -.532E+03   0.415E-02 -.742E-06 -.760E-01
   0.831E-06 -.418E+00 0.532E+03   0.189E-06 0.423E+00 -.532E+03   -.203E-05 -.751E-02 -.817E-01
   0.104E+00 -.970E-01 0.156E+04   -.103E+00 0.963E-01 -.156E+04   -.124E-02 0.103E-02 0.355E+01
   0.801E-06 0.379E-05 0.156E+04   -.459E-06 0.464E-06 -.156E+04   0.152E-05 -.338E-05 0.355E+01
   0.178E+02 -.685E-06 -.151E+04   -.178E+02 0.129E-05 0.151E+04   -.427E-01 -.252E-05 -.489E+01
   0.105E-04 -.176E+02 -.151E+04   -.125E-04 0.175E+02 0.151E+04   0.278E-05 0.507E-01 -.492E+01
   0.219E+01 -.215E+01 -.481E+03   -.217E+01 0.214E+01 0.481E+03   -.205E-01 0.117E-01 0.301E+00
   0.452E-05 -.150E-05 -.477E+03   -.930E-06 -.363E-05 0.477E+03   -.182E-05 0.578E-06 0.164E+00
   -.415E+00 0.686E-05 0.532E+03   0.409E+00 -.275E-05 -.531E+03   0.831E-02 0.299E-07 -.634E-01
   -.471E-05 0.376E+00 0.532E+03   0.307E-05 -.373E+00 -.531E+03   0.415E-06 -.533E-02 -.675E-01
   -.104E+00 0.970E-01 0.156E+04   0.103E+00 -.963E-01 -.156E+04   0.124E-02 -.103E-02 0.355E+01
   0.467E-05 -.315E-05 0.156E+04   0.207E-06 -.150E-06 -.156E+04   -.382E-05 0.477E-05 0.355E+01
   -.582E+01 -.215E-05 -.153E+04   0.581E+01 -.142E-05 0.153E+04   0.191E-01 0.336E-05 -.487E+01
   0.540E-05 0.606E+01 -.153E+04   -.245E-05 -.604E+01 0.153E+04   -.283E-05 -.264E-01 -.487E+01
   -.219E+01 0.215E+01 -.481E+03   0.217E+01 -.214E+01 0.481E+03   0.205E-01 -.117E-01 0.301E+00
   0.701E-05 0.483E-05 -.486E+03   -.560E-05 -.264E-05 0.485E+03   -.269E-06 -.155E-05 0.266E+00
   -.453E+00 -.129E-04 0.532E+03   0.456E+00 0.197E-05 -.532E+03   -.414E-02 -.491E-06 -.760E-01
   -.910E-05 -.376E+00 0.532E+03   0.181E-05 0.373E+00 -.531E+03   0.259E-05 0.533E-02 -.675E-01
   -.104E+00 -.970E-01 0.156E+04   0.103E+00 0.963E-01 -.156E+04   0.124E-02 0.103E-02 0.355E+01
   0.589E-06 0.340E-05 0.156E+04   0.459E-06 0.127E-06 -.156E+04   0.196E-06 -.538E-05 0.355E+01
   -.178E+02 0.661E-05 -.151E+04   0.178E+02 -.451E-05 0.151E+04   0.427E-01 -.185E-05 -.489E+01
   -.129E-04 -.606E+01 -.153E+04   0.101E-04 0.604E+01 0.153E+04   0.798E-06 0.264E-01 -.487E+01
   -.219E+01 -.215E+01 -.481E+03   0.217E+01 0.214E+01 0.481E+03   0.205E-01 0.117E-01 0.301E+00
   -.365E-05 -.134E-05 -.482E+03   0.911E-06 -.215E-06 0.482E+03   0.957E-06 0.171E-05 0.289E+00
   -.617E-05 0.930E-05 0.144E+02   0.249E-12 0.185E-12 -.318E-11   0.138E-04 -.170E-04 -.143E+02

 POSITION                                       TOTAL-FORCE (eV/Angst)
      4.22029      4.22029     17.00990         0.000001     -0.000021     -0.000814
      4.22029      5.11891     17.63966        -0.000001     -0.068706     -0.036605
      4.22029      3.32167     17.63966        -0.000000      0.068726     -0.036616
      5.12464      4.22029     16.38344        -0.107697      0.000001      0.094936
      3.31594      4.22029     16.38344         0.107696      0.000000      0.094936
      2.11015      0.00000      7.50000         0.000179      0.000006      0.151245
      4.22029      2.11015      7.50000         0.000004      0.000246      0.151476
      2.11015      2.11015      9.61015         0.001207      0.001349      0.031877
      4.22029      0.00000      9.61015         0.000000     -0.000001      0.034988
      2.11032      0.00000     11.73098         0.001536     -0.000004     -0.000155
      4.22029      2.11065     11.73227         0.000005      0.000825      0.004200
      2.11065      2.10888     13.82789        -0.002760     -0.001315      0.162380
      4.22029      0.00000     13.82918         0.000006     -0.000001      0.163525
      2.11015      4.22029      7.50000         0.000302     -0.000006      0.151198
      4.22029      6.33044      7.50000         0.000012     -0.000247      0.151493
      2.11015      6.33044      9.61015         0.001206     -0.001350      0.031892
      4.22029      4.22029      9.61015        -0.000002     -0.000003      0.038153
      2.11077      4.22029     11.73212         0.001183      0.000004      0.007088
      4.22029      6.32993     11.73227         0.000002     -0.000823      0.004201
      2.11065      6.33171     13.82789        -0.002761      0.001317      0.162377
      4.22029      4.22029     13.83970         0.000006      0.000001      0.112342
      6.33044      0.00000      7.50000        -0.000179      0.000001      0.151256
      0.00000      2.11015      7.50000        -0.000004      0.000105      0.151298
      6.33044      2.11015      9.61015        -0.001209      0.001348      0.031870
      0.00000      0.00000      9.61015        -0.000000     -0.000002      0.031268
      6.33026      0.00000     11.73098        -0.001536      0.000010     -0.000150
      8.44058      2.11010     11.73120        -0.000005      0.001779      0.000366
      6.32993      2.10888     13.82789         0.002757     -0.001320      0.162377
      8.44058      0.00000     13.83095        -0.000007      0.000004      0.163817
      6.33044      4.22029      7.50000        -0.000303      0.000002      0.151197
      0.00000      6.33044      7.50000        -0.000009     -0.000110      0.151309
      6.33044      6.33044      9.61015        -0.001205     -0.001350      0.031877
      0.00000      4.22029      9.61015         0.000000      0.000003      0.034879
      6.32982      4.22029     11.73212        -0.001181     -0.000007      0.007094
      8.44058      6.33049     11.73120         0.000001     -0.001781      0.000363
      6.32993      6.33171     13.82789         0.002761      0.001319      0.162379
      8.44058      4.22029     13.82838        -0.000006      0.000003      0.167026
      2.11015      0.00000      9.61015        -0.002536     -0.000003      0.059315
      4.22029      2.11015      9.61015         0.000012      0.002221      0.060450
      2.11015      2.11015      7.50000        -0.000355     -0.000297     -0.561634
      4.22029      0.00000      7.50000        -0.000006     -0.000003     -0.561669
      2.10987      0.00000     13.86973        -0.002761      0.000009      0.149686
      4.22029      2.10838     13.86594         0.000001      0.002613      0.147568
      2.10960      2.11015     11.72543        -0.001681     -0.001973     -0.002077
      4.22029      0.00000     11.72479        -0.000001      0.000001     -0.004623
      2.11015      4.22029      9.61015         0.001075      0.000001      0.061373
      4.22029      6.33044      9.61015        -0.000001     -0.002214      0.060445
      2.11015      6.33044      7.50000        -0.000349      0.000298     -0.561628
      4.22029      4.22029      7.50000         0.000002      0.000001     -0.562180
      2.10796      4.22029     13.87113        -0.001281     -0.000002      0.129684
      4.22029      6.33221     13.86594         0.000001     -0.002612      0.147571
      2.10960      6.33043     11.72543        -0.001684      0.001971     -0.002084
      4.22029      4.22029     11.72754         0.000002     -0.000004      0.000586
      6.33044      0.00000      9.61015         0.002534      0.000004      0.059311
      0.00000      2.11015      9.61015        -0.000001     -0.001451      0.059153
      6.33044      2.11015      7.50000         0.000355     -0.000302     -0.561631
      0.00000      0.00000      7.50000         0.000001      0.000002     -0.561156
      6.33071      0.00000     13.86973         0.002760     -0.000000      0.149687
      8.44058      2.10996     13.86967         0.000000     -0.003063      0.152663
      6.33098      2.11015     11.72543         0.001679     -0.001971     -0.002077
      8.44058      0.00000     11.72607         0.000001      0.000001     -0.001497
      6.33044      4.22029      9.61015        -0.001076     -0.000011      0.061368
      0.00000      6.33044      9.61015        -0.000005      0.001453      0.059146
      6.33044      6.33044      7.50000         0.000351      0.000298     -0.561627
      0.00000      4.22029      7.50000         0.000001     -0.000002     -0.561404
      6.33262      4.22029     13.87113         0.001283      0.000000      0.129685
      8.44058      6.33062     13.86967        -0.000002      0.003058      0.152668
      6.33098      6.33043     11.72543         0.001683      0.001974     -0.002077
      8.44058      4.22029     11.72558        -0.000002      0.000000     -0.005335
    total drift:                                0.000008     -0.000008      0.031661

  FREE ENERGIE OF THE ION-ELECTRON SYSTEM (eV)
  free  energy   TOTEN  =      -250.16992407 eV

  energy  without entropy=     -250.16992407  energy(sigma->0) =     -250.16992407