 vasp.6.3.0 20Jan22 (build Apr  1 2022 16:44:48) complex
 executed on        HPECrayEX_GCC date 2022.10.15  15:56:20

 INCAR:
   SYSTEM = MgO-rocksalt
   ISMEAR = 0
   SIGMA = 0.05
   EDIFF = 1E-7
   ALGO = ALL
   ISTART = 0
   IBRION = 2
   NSW = 1000
   ISYM = 0
   ISIF = 2
   EDIFFG = -0.01
   DIPOL = 0.5 0.5 0.5
   IDIPOL = 3
   LDIPOL = .TRUE.
   GGA = PE
   IVDW = 1
   VDW_C6 = 1.75 0.14 0.63 0.70
   VDW_R0 = 1.452 1.001 1.243 1.342
   ENCUT = 600
   PREC = Accurate
   LASPH = .TRUE.
   LREAL = .FALSE.
   ISPIN = 1
   NELM = 200
   NELMIN = 8
   NCORE = 8
   KPAR = 1
   LWAVE = .FALSE.
   LCHARG = .FALSE.

 POTCAR:    PAW_PBE C 08Apr2002
 POTCAR:    PAW_PBE H 15Jun2001
 POTCAR:    PAW_PBE Mg_pv 13Apr2007
 POTCAR:    PAW_PBE O 08Apr2002
 POTCAR:    PAW_PBE C 08Apr2002
   VRHFIN =C: s2p2

   TITEL  = PAW_PBE C 08Apr2002
   POMASS =   12.011; ZVAL   =    4.000    mass and valenz
   ENMAX  =  400.000; ENMIN  =  300.000 eV

   TITEL  = PAW_PBE H 15Jun2001
   POMASS =    1.000; ZVAL   =    1.000    mass and valenz
   ENMAX  =  250.000; ENMIN  =  200.000 eV

   TITEL  = PAW_PBE Mg_pv 13Apr2007
   POMASS =   24.305; ZVAL   =    8.000    mass and valenz
   ENMAX  =  403.929; ENMIN  =  302.947 eV

   TITEL  = PAW_PBE O 08Apr2002
   POMASS =   16.000; ZVAL   =    6.000    mass and valenz
   ENMAX  =  400.000; ENMIN  =  300.000 eV

  PAW_PBE C 08Apr2002                   :
  PAW_PBE H 15Jun2001                   :
  PAW_PBE Mg_pv 13Apr2007               :
  PAW_PBE O 08Apr2002                   :

 POSCAR:  C  H Mg  O
  positions in direct lattice
 exchange correlation table for  LEXCH =        8
   RHO(1)=    0.500       N(1)  =     2000
   RHO(2)=  100.500       N(2)  =     4000

 ion  position               nearest neighbor table
   1  0.500  0.500  0.790-   4 1.10   3 1.10   5 1.10   2 1.53
   2  0.670  0.500  0.815-   7 1.10   8 1.10   6 1.10   1 1.53
   3  0.479  0.400  0.758-   1 1.10
   4  0.474  0.609  0.764-   1 1.10
   5  0.414  0.492  0.829-   1 1.10
   6  0.756  0.508  0.776-   2 1.10
   7  0.696  0.391  0.841-   2 1.10
   8  0.691  0.600  0.846-   2 1.10
   9  0.250  0.000  0.351-  41 2.12  43 2.12  44 2.12  51 2.12  60 2.12
  10  0.500  0.250  0.351-  42 2.12  43 2.12  44 2.12  52 2.12  59 2.12
  11  0.250  0.250  0.450-  43 2.12  42 2.12  41 2.12  49 2.12  58 2.12  47 2.12
  12  0.500  0.000  0.450-  44 2.12  42 2.12  41 2.12  50 2.12  57 2.12  48 2.12
  13  0.250  0.000  0.550-  47 2.12  48 2.12  55 2.12  64 2.12  41 2.13  45 2.15
  14  0.500  0.250  0.550-  47 2.12  48 2.12  56 2.12  63 2.12  42 2.13  46 2.15
  15  0.250  0.250  0.649-  47 2.11  46 2.12  45 2.12  53 2.12  62 2.12
  16  0.500  0.000  0.649-  48 2.11  46 2.12  45 2.12  54 2.12  61 2.12
  17  0.250  0.500  0.351-  49 2.12  43 2.12  51 2.12  52 2.12  68 2.12
  18  0.500  0.750  0.351-  50 2.12  44 2.12  51 2.12  52 2.12  67 2.12
  19  0.250  0.750  0.450-  51 2.12  49 2.12  50 2.12  41 2.12  66 2.12  55 2.12
  20  0.500  0.500  0.450-  52 2.12  49 2.12  50 2.12  42 2.12  65 2.12  56 2.12
  21  0.250  0.500  0.550-  47 2.12  55 2.12  56 2.12  72 2.12  49 2.13  53 2.15
  22  0.500  0.750  0.550-  48 2.12  55 2.12  56 2.12  71 2.12  50 2.13  54 2.15
  23  0.250  0.750  0.649-  55 2.11  53 2.12  54 2.12  45 2.12  70 2.12
  24  0.500  0.500  0.649-  56 2.11  53 2.12  54 2.12  46 2.12  69 2.12
  25  0.750  0.000  0.351-  57 2.12  44 2.12  59 2.12  60 2.12  67 2.12
  26  0.000  0.250  0.351-  58 2.12  43 2.12  59 2.12  60 2.12  68 2.12
  27  0.750  0.250  0.450-  59 2.12  57 2.12  58 2.12  42 2.12  65 2.12  63 2.12
  28  0.000  0.000  0.450-  60 2.12  57 2.12  58 2.12  41 2.12  66 2.12  64 2.12
  29  0.750  0.000  0.550-  48 2.12  63 2.12  64 2.12  71 2.12  57 2.13  61 2.15
  30  0.000  0.250  0.550-  47 2.12  63 2.12  64 2.12  72 2.12  58 2.13  62 2.15
  31  0.750  0.250  0.649-  63 2.11  61 2.12  62 2.12  46 2.12  69 2.12
  32  0.000  0.000  0.649-  64 2.11  61 2.12  62 2.12  45 2.12  70 2.12
  33  0.750  0.500  0.351-  65 2.12  59 2.12  52 2.12  67 2.12  68 2.12
  34  0.000  0.750  0.351-  66 2.12  60 2.12  51 2.12  67 2.12  68 2.12
  35  0.750  0.750  0.450-  67 2.12  57 2.12  65 2.12  66 2.12  50 2.12  71 2.12
  36  0.000  0.500  0.450-  68 2.12  58 2.12  65 2.12  66 2.12  49 2.12  72 2.12
  37  0.750  0.500  0.550-  56 2.12  63 2.12  71 2.12  72 2.12  65 2.13  69 2.15
  38  0.000  0.750  0.550-  55 2.12  64 2.12  71 2.12  72 2.12  66 2.13  70 2.15
  39  0.750  0.750  0.649-  71 2.11  61 2.12  69 2.12  70 2.12  54 2.12
  40  0.000  0.500  0.649-  72 2.11  62 2.12  69 2.12  70 2.12  53 2.12
  41  0.250  0.000  0.450-   9 2.12  11 2.12  12 2.12  19 2.12  28 2.12  13 2.13
  42  0.500  0.250  0.450-  10 2.12  11 2.12  12 2.12  20 2.12  27 2.12  14 2.13
  43  0.250  0.250  0.351-  11 2.12  10 2.12   9 2.12  17 2.12  26 2.12
  44  0.500  0.000  0.351-  12 2.12  10 2.12   9 2.12  18 2.12  25 2.12
  45  0.250  0.000  0.651-  15 2.12  16 2.12  23 2.12  32 2.12  13 2.15
  46  0.500  0.250  0.651-  15 2.12  16 2.12  24 2.12  31 2.12  14 2.15
  47  0.250  0.250  0.550-  15 2.11  14 2.12  13 2.12  21 2.12  30 2.12  11 2.12
  48  0.500  0.000  0.550-  16 2.11  14 2.12  13 2.12  22 2.12  29 2.12  12 2.12
  49  0.250  0.500  0.450-  17 2.12  11 2.12  19 2.12  20 2.12  36 2.12  21 2.13
  50  0.500  0.750  0.450-  18 2.12  12 2.12  19 2.12  20 2.12  35 2.12  22 2.13
  51  0.250  0.750  0.351-  19 2.12  17 2.12  18 2.12   9 2.12  34 2.12
  52  0.500  0.500  0.351-  20 2.12  17 2.12  18 2.12  10 2.12  33 2.12
  53  0.250  0.500  0.651-  15 2.12  23 2.12  24 2.12  40 2.12  21 2.15
  54  0.500  0.750  0.651-  16 2.12  23 2.12  24 2.12  39 2.12  22 2.15
  55  0.250  0.750  0.550-  23 2.11  21 2.12  22 2.12  13 2.12  38 2.12  19 2.12
  56  0.500  0.500  0.550-  24 2.11  21 2.12  22 2.12  14 2.12  37 2.12  20 2.12
  57  0.750  0.000  0.450-  25 2.12  12 2.12  27 2.12  28 2.12  35 2.12  29 2.13
  58  0.000  0.250  0.450-  26 2.12  11 2.12  27 2.12  28 2.12  36 2.12  30 2.13
  59  0.750  0.250  0.351-  27 2.12  25 2.12  26 2.12  10 2.12  33 2.12
  60  0.000  0.000  0.351-  28 2.12  25 2.12  26 2.12   9 2.12  34 2.12
  61  0.750  0.000  0.651-  16 2.12  31 2.12  32 2.12  39 2.12  29 2.15
  62  0.000  0.250  0.651-  15 2.12  31 2.12  32 2.12  40 2.12  30 2.15
  63  0.750  0.250  0.550-  31 2.11  29 2.12  30 2.12  14 2.12  37 2.12  27 2.12
  64  0.000  0.000  0.550-  32 2.11  29 2.12  30 2.12  13 2.12  38 2.12  28 2.12
  65  0.750  0.500  0.450-  33 2.12  27 2.12  20 2.12  35 2.12  36 2.12  37 2.13
  66  0.000  0.750  0.450-  34 2.12  28 2.12  19 2.12  35 2.12  36 2.12  38 2.13
  67  0.750  0.750  0.351-  35 2.12  25 2.12  33 2.12  34 2.12  18 2.12
  68  0.000  0.500  0.351-  36 2.12  26 2.12  33 2.12  34 2.12  17 2.12
  69  0.750  0.500  0.651-  24 2.12  31 2.12  39 2.12  40 2.12  37 2.15
  70  0.000  0.750  0.651-  23 2.12  32 2.12  39 2.12  40 2.12  38 2.15
  71  0.750  0.750  0.550-  39 2.11  29 2.12  37 2.12  38 2.12  22 2.12  35 2.12
  72  0.000  0.500  0.550-  40 2.11  30 2.12  37 2.12  38 2.12  21 2.12  36 2.12

IMPORTANT INFORMATION: All symmetrisations will be switched off!
NOSYMM: (Re-)initialisation of all symmetry stuff for point group C_1.

                                     Primitive cell

  volume of cell :    1530.6606

  direct lattice vectors                    reciprocal lattice vectors
     8.467142631  0.000000000  0.000000000     0.118103597  0.000000000  0.000000000
     0.000000000  8.467142631  0.000000000     0.000000000  0.118103597  0.000000000
     0.000000000  0.000000000 21.350356973     0.000000000  0.000000000  0.046837624

  length of vectors
     8.467142631  8.467142631 21.350356973     0.118103597  0.118103597  0.046837624

  position of ions in fractional coordinates (direct lattice)
     0.500000000  0.500000000  0.789981712
     0.669912464  0.500000000  0.814507695
     0.478651706  0.399663764  0.758372763
     0.473691967  0.608707617  0.763776691
     0.414253420  0.491627867  0.828540624
     0.755658436  0.508372155  0.775948647
     0.696220120  0.391292891  0.840712624
     0.691260695  0.600336308  0.846116426
     0.250000000  0.000000000  0.351282183
     0.500000000  0.250000000  0.351282183
     0.250000000  0.250000000  0.450427394
     0.500000000  0.000000000  0.450427394
     0.250000000  0.000000000  0.550191116
     0.500000000  0.250000000  0.550191116
     0.250000000  0.250000000  0.648532086
     0.500000000  0.000000000  0.648532086
     0.250000000  0.500000000  0.351282183
     0.500000000  0.750000000  0.351282183
     0.250000000  0.750000000  0.450427394
     0.500000000  0.500000000  0.450427394
     0.250000000  0.500000000  0.550191116
     0.500000000  0.750000000  0.550191116
     0.250000000  0.750000000  0.648532086
     0.500000000  0.500000000  0.648532086
     0.750000000  0.000000000  0.351282183
     0.000000000  0.250000000  0.351282183
     0.750000000  0.250000000  0.450427394
     0.000000000  0.000000000  0.450427394
     0.750000000  0.000000000  0.550191116
     0.000000000  0.250000000  0.550191116
     0.750000000  0.250000000  0.648532086
     0.000000000  0.000000000  0.648532086
     0.750000000  0.500000000  0.351282183
     0.000000000  0.750000000  0.351282183
     0.750000000  0.750000000  0.450427394
     0.000000000  0.500000000  0.450427394
     0.750000000  0.500000000  0.550191116
     0.000000000  0.750000000  0.550191116
     0.750000000  0.750000000  0.648532086
     0.000000000  0.500000000  0.648532086
     0.250000000  0.000000000  0.450427394
     0.500000000  0.250000000  0.450427394
     0.250000000  0.250000000  0.351282183
     0.500000000  0.000000000  0.351282183
     0.250000000  0.000000000  0.650785562
     0.500000000  0.250000000  0.650785562
     0.250000000  0.250000000  0.549814593
     0.500000000  0.000000000  0.549814593
     0.250000000  0.500000000  0.450427394
     0.500000000  0.750000000  0.450427394
     0.250000000  0.750000000  0.351282183
     0.500000000  0.500000000  0.351282183
     0.250000000  0.500000000  0.650785562
     0.500000000  0.750000000  0.650785562
     0.250000000  0.750000000  0.549814593
     0.500000000  0.500000000  0.549814593
     0.750000000  0.000000000  0.450427394
     0.000000000  0.250000000  0.450427394
     0.750000000  0.250000000  0.351282183
     0.000000000  0.000000000  0.351282183
     0.750000000  0.000000000  0.650785562
     0.000000000  0.250000000  0.650785562
     0.750000000  0.250000000  0.549814593
     0.000000000  0.000000000  0.549814593
     0.750000000  0.500000000  0.450427394
     0.000000000  0.750000000  0.450427394
     0.750000000  0.750000000  0.351282183
     0.000000000  0.500000000  0.351282183
     0.750000000  0.500000000  0.650785562
     0.000000000  0.750000000  0.650785562
     0.750000000  0.750000000  0.549814593
     0.000000000  0.500000000  0.549814593

  ion indices of the primitive-cell ions
   primitive index   ion index
                 1           1
                 2           2
                 3           3
                 4           4
                 5           5
                 6           6
                 7           7
                 8           8
                 9           9
                10          10
[...]
   6.35035697  2.11678566  7.50000000
   0.00000000  0.00000000  7.50000000
   6.35035697  0.00000000 13.89450407
   0.00000000  2.11678566 13.89450407
   6.35035697  2.11678566 11.73873783
   0.00000000  0.00000000 11.73873783
   6.35035697  4.23357132  9.61678566
   0.00000000  6.35035697  9.61678566
   6.35035697  6.35035697  7.50000000
   0.00000000  4.23357132  7.50000000
   6.35035697  4.23357132 13.89450407
   0.00000000  6.35035697 13.89450407
   6.35035697  6.35035697 11.73873783
   0.00000000  4.23357132 11.73873783

--------------------------------------- Iteration      FINAL  ---------------------------------------

--------------------OUTCAR has been truncated-------------------------

[...]

--------------------OUTCAR has been truncated-------------------------

  Number of pair interactions contributing to vdW energy:  906037
  Edisp (eV):   -3.79864

  FORCE on cell =-STRESS in cart. coord.  units (eV):
  Direction    XX          YY          ZZ          XY          YZ          ZX
  Alpha Z   913.02756   913.02756   913.02756
  Ewald  155207.89941155056.09559************     1.48768     0.02073    52.41055
  Hartree165519.21204165399.78862************     1.12824     0.11796    39.39040
  E(xc)   -2504.21857 -2504.26201 -2509.16773     0.00083    -0.00022     0.02219
  Local  ************************330114.47529    -2.69303    -0.17448   -93.85677
  n-local -2837.49185 -2838.63074 -2858.67239     0.01311    -0.01957     0.48152
  augment  1047.92549  1047.87006  1038.86571     0.00073    -0.00361     0.02066
  Kinetic  7484.78050  7480.33741  7523.94810     0.06158     0.16656     1.59294
  Fock        0.00000     0.00000     0.00000     0.00000     0.00000     0.00000
  vdW        -5.32238    -5.26230    -4.69029    -0.00083     0.00001    -0.02283
  Total     -29.39031   -29.43324    -2.80616    -0.00168     0.10737     0.03866
  in kB     -30.76351   -30.80844    -2.93727    -0.00176     0.11239     0.04047

 VOLUME and BASIS-vectors are now :
  energy-cutoff  :      600.00
  volume of cell :     1530.66
      direct lattice vectors                 reciprocal lattice vectors
     8.467142631  0.000000000  0.000000000     0.118103597  0.000000000  0.000000000
     0.000000000  8.467142631  0.000000000     0.000000000  0.118103597  0.000000000
     0.000000000  0.000000000 21.350356973     0.000000000  0.000000000  0.046837624

  length of vectors
     8.467142631  8.467142631 21.350356973     0.118103597  0.118103597  0.046837624

 FORCES acting on ions:
    Electron-Ion                     Ewald-Force                    Non-Local-Force
   0.687E+02 0.887E+00 -.916E+03   -.686E+02 -.920E+00 0.916E+03   -.411E-01 0.346E-01 -.191E+00
   -.688E+02 -.820E+00 -.859E+03   0.692E+02 0.826E+00 0.859E+03   -.409E+00 -.499E-02 0.150E+00
   0.169E+02 0.467E+02 -.232E+03   -.178E+02 -.511E+02 0.229E+03   0.860E+00 0.448E+01 0.298E+01
   0.181E+02 -.465E+02 -.232E+03   -.191E+02 0.509E+02 0.229E+03   0.976E+00 -.447E+01 0.293E+01
   0.469E+02 0.742E+00 -.234E+03   -.507E+02 -.802E+00 0.238E+03   0.379E+01 0.610E-01 -.394E+01
   -.461E+02 -.646E+00 -.209E+03   0.498E+02 0.698E+00 0.205E+03   -.365E+01 -.517E-01 0.412E+01
   -.183E+02 0.460E+02 -.212E+03   0.193E+02 -.504E+02 0.215E+03   -.101E+01 0.439E+01 -.309E+01
   -.171E+02 -.464E+02 -.212E+03   0.180E+02 0.507E+02 0.215E+03   -.901E+00 -.441E+01 -.310E+01
   0.139E+00 0.522E-02 0.207E+04   -.138E+00 -.550E-02 -.206E+04   -.287E-03 0.223E-03 -.703E+01
   0.905E-01 0.227E+00 0.207E+04   -.905E-01 -.225E+00 -.206E+04   -.126E-04 -.142E-02 -.703E+01
   0.557E+00 0.795E+00 0.721E+03   -.549E+00 -.795E+00 -.721E+03   -.555E-02 0.947E-04 0.495E+00
   0.280E+00 0.165E-01 0.720E+03   -.282E+00 -.216E-01 -.721E+03   0.130E-02 0.342E-02 0.488E+00
   0.274E+01 0.737E-01 -.621E+03   -.273E+01 -.736E-01 0.621E+03   -.880E-02 0.343E-03 -.274E+00
   0.163E+01 0.553E+01 -.612E+03   -.163E+01 -.549E+01 0.613E+03   0.255E-04 -.462E-01 -.300E+00
   0.172E+02 0.196E+02 -.195E+04   -.173E+02 -.196E+02 0.194E+04   0.824E-01 0.402E-02 0.611E+01
   0.466E+01 0.391E+00 -.196E+04   -.467E+01 -.385E+00 0.195E+04   0.777E-02 -.478E-02 0.607E+01
   0.145E+00 -.591E-02 0.207E+04   -.143E+00 0.571E-02 -.206E+04   -.140E-02 0.166E-03 -.703E+01
   0.903E-01 -.228E+00 0.207E+04   -.902E-01 0.225E+00 -.206E+04   -.171E-04 0.184E-02 -.703E+01
   0.553E+00 -.812E+00 0.721E+03   -.545E+00 0.804E+00 -.721E+03   -.576E-02 0.533E-02 0.496E+00
   0.360E+00 -.334E-01 0.722E+03   -.355E+00 0.296E-01 -.722E+03   -.386E-02 0.246E-02 0.541E+00
   0.425E+01 -.834E-01 -.612E+03   -.420E+01 0.841E-01 0.613E+03   -.491E-01 -.223E-03 -.441E+00
   0.162E+01 -.555E+01 -.613E+03   -.162E+01 0.550E+01 0.613E+03   -.265E-03 0.468E-01 -.291E+00
   0.170E+02 -.196E+02 -.195E+04   -.171E+02 0.196E+02 0.194E+04   0.775E-01 -.332E-02 0.610E+01
   0.120E+02 -.584E+00 -.188E+04   -.121E+02 0.590E+00 0.188E+04   0.778E-01 -.455E-02 0.582E+01
   -.139E+00 0.540E-02 0.207E+04   0.138E+00 -.570E-02 -.206E+04   0.232E-03 0.235E-03 -.702E+01
   -.904E-01 0.221E+00 0.207E+04   0.904E-01 -.221E+00 -.206E+04   -.121E-04 -.332E-03 -.702E+01
   -.557E+00 0.875E+00 0.721E+03   0.549E+00 -.868E+00 -.722E+03   0.524E-02 -.512E-02 0.507E+00
   -.280E+00 0.127E-01 0.719E+03   0.283E+00 -.171E-01 -.720E+03   -.206E-02 0.290E-02 0.505E+00
   -.274E+01 0.813E-01 -.619E+03   0.273E+01 -.817E-01 0.619E+03   0.864E-02 0.824E-03 -.277E+00
   -.160E+01 0.405E+01 -.619E+03   0.160E+01 -.404E+01 0.619E+03   -.218E-03 -.108E-01 -.264E+00
   -.174E+02 0.267E+02 -.193E+04   0.175E+02 -.267E+02 0.193E+04   -.841E-01 0.499E-01 0.611E+01
   -.457E+01 0.157E+00 -.197E+04   0.458E+01 -.156E+00 0.196E+04   -.891E-02 -.483E-03 0.608E+01
   -.145E+00 -.610E-02 0.207E+04   0.143E+00 0.591E-02 -.206E+04   0.134E-02 0.157E-03 -.703E+01
   -.902E-01 -.222E+00 0.207E+04   0.902E-01 0.221E+00 -.206E+04   0.440E-05 0.720E-03 -.702E+01
   -.554E+00 -.893E+00 0.721E+03   0.546E+00 0.877E+00 -.722E+03   0.562E-02 0.106E-01 0.509E+00
   -.358E+00 -.313E-01 0.721E+03   0.354E+00 0.274E-01 -.722E+03   0.303E-02 0.252E-02 0.465E+00
   -.428E+01 -.898E-01 -.609E+03   0.423E+01 0.911E-01 0.609E+03   0.510E-01 -.940E-03 -.361E+00
   -.159E+01 -.405E+01 -.619E+03   0.159E+01 0.404E+01 0.619E+03   0.699E-04 0.101E-01 -.264E+00
   -.172E+02 -.266E+02 -.194E+04   0.172E+02 0.267E+02 0.193E+04   -.797E-01 -.491E-01 0.611E+01
   -.112E+02 -.172E+00 -.195E+04   0.112E+02 0.173E+00 0.194E+04   -.788E-01 -.327E-03 0.609E+01
   0.418E+00 0.729E-02 0.539E+03   -.416E+00 -.183E-02 -.539E+03   -.388E-02 -.720E-02 -.888E-01
   0.232E+00 0.682E+00 0.540E+03   -.234E+00 -.685E+00 -.540E+03   0.251E-02 0.425E-02 -.103E+00
   0.106E+00 0.164E+00 0.155E+04   -.105E+00 -.163E+00 -.156E+04   -.154E-02 -.184E-02 0.349E+01
   0.641E-01 0.465E-02 0.155E+04   -.644E-01 -.454E-02 -.156E+04   0.548E-03 -.167E-03 0.349E+01
   0.724E+01 0.204E+00 -.150E+04   -.720E+01 -.208E+00 0.150E+04   -.345E-01 0.465E-02 -.514E+01
   0.608E+01 0.265E+02 -.146E+04   -.608E+01 -.264E+02 0.147E+04   -.653E-02 -.885E-01 -.510E+01
   0.255E+01 0.329E+01 -.456E+03   -.254E+01 -.328E+01 0.456E+03   -.645E-02 -.155E-01 0.382E+00
   0.949E+00 0.891E-01 -.457E+03   -.951E+00 -.906E-01 0.456E+03   0.160E-02 0.140E-02 0.373E+00
   0.457E+00 -.270E-01 0.540E+03   -.471E+00 0.323E-01 -.540E+03   0.184E-01 -.699E-02 -.107E+00
   0.230E+00 -.704E+00 0.540E+03   -.232E+00 0.719E+00 -.540E+03   0.249E-02 -.197E-01 -.104E+00
   0.106E+00 -.164E+00 0.155E+04   -.105E+00 0.163E+00 -.156E+04   -.160E-02 0.136E-02 0.349E+01
   0.718E-01 -.412E-02 0.155E+04   -.714E-01 0.438E-02 -.156E+04   -.475E-03 -.368E-03 0.349E+01
   0.214E+02 -.207E+00 -.147E+04   -.213E+02 0.203E+00 0.147E+04   -.114E+00 0.405E-02 -.520E+01
   0.603E+01 -.263E+02 -.146E+04   -.603E+01 0.262E+02 0.147E+04   -.758E-02 0.960E-01 -.510E+01
   0.253E+01 -.327E+01 -.456E+03   -.252E+01 0.326E+01 0.456E+03   -.446E-02 0.208E-01 0.382E+00
   0.145E+01 -.634E-01 -.451E+03   -.145E+01 0.592E-01 0.451E+03   0.291E-02 0.469E-02 0.121E+00
   -.415E+00 0.828E-02 0.540E+03   0.410E+00 -.261E-02 -.540E+03   0.599E-02 -.749E-02 -.827E-01
   -.229E+00 0.646E+00 0.540E+03   0.229E+00 -.634E+00 -.540E+03   -.150E-02 -.170E-01 -.809E-01
   -.106E+00 0.172E+00 0.155E+04   0.105E+00 -.170E+00 -.156E+04   0.155E-02 -.288E-02 0.349E+01
   -.641E-01 0.431E-02 0.155E+04   0.645E-01 -.417E-02 -.156E+04   -.470E-03 -.194E-03 0.349E+01
   -.732E+01 0.227E+00 -.149E+04   0.730E+01 -.231E+00 0.150E+04   0.253E-01 0.464E-02 -.514E+01
   -.593E+01 0.115E+02 -.149E+04   0.592E+01 -.115E+02 0.150E+04   0.524E-02 -.157E-01 -.515E+01
   -.257E+01 0.380E+01 -.454E+03   0.257E+01 -.379E+01 0.453E+03   0.232E-02 -.119E-01 0.391E+00
   -.960E+00 0.532E-01 -.461E+03   0.964E+00 -.551E-01 0.460E+03   -.461E-02 0.240E-02 0.335E+00
   -.454E+00 -.280E-01 0.541E+03   0.466E+00 0.332E-01 -.541E+03   -.160E-01 -.682E-02 -.115E+00
   -.228E+00 -.665E+00 0.540E+03   0.229E+00 0.664E+00 -.540E+03   -.194E-02 0.284E-02 -.815E-01
   -.106E+00 -.171E+00 0.155E+04   0.105E+00 0.170E+00 -.156E+04   0.160E-02 0.239E-02 0.349E+01
   -.719E-01 -.390E-02 0.155E+04   0.714E-01 0.410E-02 -.156E+04   0.577E-03 -.286E-03 0.349E+01
   -.221E+02 -.254E+00 -.145E+04   0.220E+02 0.250E+00 0.145E+04   0.894E-01 0.440E-02 -.514E+01
   -.590E+01 -.115E+02 -.149E+04   0.589E+01 0.114E+02 0.150E+04   0.622E-02 0.232E-01 -.515E+01
   -.255E+01 -.378E+01 -.454E+03   0.255E+01 0.376E+01 0.453E+03   0.610E-03 0.172E-01 0.388E+00
   -.143E+01 -.416E-01 -.454E+03   0.144E+01 0.390E-01 0.454E+03   -.588E-02 0.307E-02 0.368E+00
   0.439E+00 -.445E-01 0.175E+02   -.242E-12 -.156E-12 -.421E-11   -.438E+00 0.394E-01 -.175E+02

 POSITION                                       TOTAL-FORCE (eV/Angst)
      4.28625      4.20927     16.89047        -0.000621      0.001365     -0.002993
      5.70945      4.22649     17.45149        -0.002733      0.002521     -0.000932
      4.11752      3.31215     16.26972         0.004249      0.006464      0.003623
      4.09400      5.10632     16.27630         0.005052     -0.004379      0.004829
      3.52809      4.19710     17.68776         0.000759      0.000618     -0.005386
      6.44212      4.23692     16.63021         0.002449     -0.000083      0.002094
      5.90612      3.33987     18.07234         0.001632      0.002602      0.000374
      5.88346      5.11622     18.07473         0.002481     -0.004335      0.000379
      2.11679      0.00000      7.50000         0.000118      0.000014      0.393303
      4.23357      2.11679      7.50000        -0.000012      0.000555      0.393674
      2.11679      2.11679      9.61679         0.002329      0.000242      0.022741
      4.23357      0.00000      9.61679        -0.000403     -0.001600      0.026921
      2.11720     -0.00095     11.74593        -0.000683      0.000464      0.000278
      4.23368      2.11737     11.74784        -0.000590      0.001993      0.001659
      2.11498      2.11533     13.84342        -0.001392     -0.000043     -0.000800
      4.23354     -0.00160     13.84413        -0.001175      0.001093     -0.000861
      2.11679      4.23357      7.50000         0.000418      0.000035      0.393827
      4.23357      6.35036      7.50000        -0.000012     -0.000517      0.393734
      2.11679      6.35036      9.61679         0.002377     -0.002821      0.022885
      4.23357      4.23357      9.61679         0.001368     -0.001270      0.031801
      2.11862      4.23264     11.74789         0.000173      0.000501     -0.000378
      4.23367      6.34776     11.74794        -0.000590     -0.000879      0.001440
      2.11508      6.34877     13.84358        -0.001775      0.002054     -0.001100
      4.23187      4.23189     13.86675        -0.000092      0.000569      0.002732
      6.35036      0.00000      7.50000        -0.000133      0.000009      0.392766
      0.00000      2.11679      7.50000        -0.000009      0.000280      0.392972
      6.35036      2.11679      9.61679        -0.002208      0.002026      0.023084
      0.00000      0.00000      9.61679         0.000846     -0.001364      0.021622
      6.35023     -0.00098     11.74593        -0.000259      0.000481      0.001082
      0.00010      2.11612     11.74554        -0.000297      0.000987      0.000096
      6.35214      2.11432     13.84367         0.000254      0.000634      0.000399
      0.00035     -0.00147     13.84603        -0.000646      0.000535     -0.001033
      6.35036      4.23357      7.50000        -0.000437      0.000036      0.394261
      0.00000      6.35036      7.50000        -0.000014     -0.000233      0.392980
      6.35036      6.35036      9.61679        -0.002351     -0.004630      0.023183
      0.00000      4.23357      9.61679        -0.000882     -0.001209      0.026835
      6.34882      4.23266     11.74838        -0.000897      0.000445      0.000936
      0.00006      6.34917     11.74563        -0.000237     -0.000055      0.000201
      6.35194      6.34974     13.84407         0.000571      0.001229     -0.000049
      0.00205      4.23207     13.84300        -0.001380      0.001063     -0.004188
      2.11679      0.00000      9.61679        -0.001210     -0.001682      0.056600
      4.23357      2.11679      9.61679         0.000723      0.001208      0.061959
      2.11679      2.11679      7.50000        -0.000453     -0.000450     -0.476027
      4.23357      0.00000      7.50000         0.000140      0.000014     -0.475817
      2.11622     -0.00140     13.89467        -0.000407      0.000358      0.000111
      4.23362      2.11133     13.89628        -0.000901      0.000311     -0.000130
      2.11690      2.11531     11.73872        -0.000550     -0.000501     -0.000566
      4.23376     -0.00098     11.73892         0.000223      0.000022     -0.002710
      2.11679      4.23357      9.61679         0.004809     -0.001618      0.061082
      4.23357      6.35036      9.61679         0.000722     -0.004820      0.062052
      2.11679      6.35036      7.50000        -0.000471      0.000440     -0.476043
      4.23357      4.23357      7.50000        -0.000155     -0.000042     -0.476814
      2.11373      4.23207     13.88979        -0.001279      0.000916     -0.001613
      4.23353      6.35251     13.89694        -0.000913      0.000745     -0.000179
      2.11690      6.35004     11.73878        -0.000214      0.001250     -0.000223
      4.23410      4.23265     11.74349        -0.000716      0.000537     -0.000010
      6.35036      0.00000      9.61679         0.001690     -0.001756      0.058555
      0.00000      2.11679      9.61679        -0.000550     -0.004601      0.057208
      6.35036      2.11679      7.50000         0.000426     -0.000747     -0.475957
      0.00000      0.00000      7.50000        -0.000148      0.000008     -0.475490
      6.35114     -0.00141     13.89464        -0.000698      0.000346      0.001255
     -0.00014      2.11495     13.89452        -0.000000      0.001416     -0.000960
      6.35039      2.11566     11.73930         0.000048     -0.001233     -0.001451
      0.00003     -0.00092     11.73937        -0.000579      0.000544     -0.005426
      6.35036      4.23357      9.61679        -0.004264     -0.001577      0.060789
      0.00000      6.35036      9.61679        -0.000661      0.001299      0.057457
      6.35036      6.35036      7.50000         0.000438      0.000736     -0.475979
      0.00000      4.23357      7.50000         0.000155     -0.000019     -0.476067
      6.35359      4.23205     13.89462        -0.000136      0.000950     -0.001469
     -0.00015      6.34932     13.89469        -0.000031      0.000030     -0.001089
      6.35035      6.34967     11.73942        -0.000258      0.002052     -0.001134
     -0.00028      4.23269     11.73778        -0.000027      0.000469     -0.000907
    total drift:                                0.001139     -0.005080      0.015964

  FREE ENERGIE OF THE ION-ELECTRON SYSTEM (eV)
  free  energy   TOTEN  =      -416.39590748 eV

  energy  without entropy=     -416.39590748  energy(sigma->0) =     -416.39590748

 d Force = 0.1145269E-04[ 0.747E-05, 0.154E-04]  d Energy = 0.1163712E-04-0.184E-06
 d Force =-0.1675679E+01[-0.168E+01,-0.168E+01]  d Ewald  =-0.1675679E+01 0.299E-08

 Conjugate gradient step on ions:
 trial-energy change:   -0.000012  1 .order   -0.000011   -0.000015   -0.000007
  (g-gl).g = 0.334E-04      g.g   = 0.308E-04  gl.gl    = 0.583E-04
 g(Force)  = 0.308E-04   g(Stress)= 0.000E+00 ortho     =-0.158E-05
 gamma     =   0.57302
 trial     =   0.51603
 opt step  =   1.00036  (harmonic =   1.00036) maximal distance =0.00123410
 next E    =  -416.395911   (d E  =  -0.00001)

 reached required accuracy - stopping structural energy minimisation