 vasp.6.3.0 20Jan22 (build Apr  1 2022 16:44:48) complex
 executed on        HPECrayEX_GCC date 2023.02.21  23:08:57

 INCAR:
   SYSTEM = MgO-rocksalt
   ISMEAR = 0
   SIGMA = 0.05
   EDIFF = 1E-8
   ALGO = ALL
   ISTART = 0
   IBRION = 5
   POTIM = 0.01
   NFREE = 2
   ISYM = 0
   DIPOL = 0.5 0.5 0.5
   IDIPOL = 3
   LDIPOL = .TRUE.
   GGA = MK
   LUSE_VDW = .TRUE.
   PARAM1 = 0.1234
   PARAM2 = 0.711357
   ZAB_VDW = -1.8867
   AGGAC = 0.0
   ENCUT = 520
   PREC = Accurate
   LASPH = .TRUE.
   LREAL = Auto
   ISPIN = 1
   NELM = 200
   NELMIN = 8
   NCORE = 8
   KPAR = 1
   LWAVE = .FALSE.
   LCHARG = .FALSE.

 POTCAR:    PAW_PBE C 08Apr2002
 POTCAR:    PAW_PBE O 08Apr2002
 POTCAR:    PAW_PBE H 15Jun2001
 POTCAR:    PAW_PBE Mg_pv 13Apr2007
 POTCAR:    PAW_PBE O 08Apr2002
|               ----> ADVICE to this user running VASP <----                  |
|     You have switched on vdW-DFT.                                           |
|     This routine was written and supplied by Jiri Klimes. We recommend      |
|     that you carefully read and cite the following publications:            |
|       J. Klimes, D.R. Bowler, A. Michelides                                 |
|          J. Phys.: Cond Matt. 22 022201 (2010)                              |
|       J. Klimes, D.R. Bowler, A. Michelides                                 |
|          Phys. Rev. B. 83, 195131 (2011)                                    |
|     and references therein.                                                 |

   TITEL  = PAW_PBE C 08Apr2002
   POMASS =   12.011; ZVAL   =    4.000    mass and valenz
   ENMAX  =  400.000; ENMIN  =  300.000 eV

[...]

   TITEL  = PAW_PBE H 15Jun2001
   POMASS =    1.000; ZVAL   =    1.000    mass and valenz
   ENMAX  =  250.000; ENMIN  =  200.000 eV

   TITEL  = PAW_PBE Mg_pv 13Apr2007
   POMASS =   24.305; ZVAL   =    8.000    mass and valenz
   ENMAX  =  403.929; ENMIN  =  302.947 eV

   TITEL  = PAW_PBE O 08Apr2002
   POMASS =   16.000; ZVAL   =    6.000    mass and valenz
   ENMAX  =  400.000; ENMIN  =  300.000 eV

 Optimization of the real space projectors (new method)

 maximal supplied QI-value         = 25.13
 optimisation between [QCUT,QGAM] = [ 11.56, 23.12] = [ 37.43,149.72] Ry
 Optimized for a Real-space Cutoff    1.04 Angstroem

   l    n(q)    QCUT    max X(q) W(low)/X(q) W(high)/X(q)  e(spline)
   0      7    11.561   115.676    0.20E-03    0.60E-03    0.21E-06
   0      7    11.561    87.132    0.20E-03    0.59E-03    0.21E-06
   1      7    11.561     4.429    0.23E-03    0.35E-03    0.15E-06
   1      7    11.561     2.733    0.18E-03    0.25E-03    0.12E-06
 Optimization of the real space projectors (new method)

[...]

   l    n(q)    QCUT    max X(q) W(low)/X(q) W(high)/X(q)  e(spline)
   1      8    11.527     2.974    0.44E-04    0.56E-04    0.12E-06
   1      8    11.527     4.279    0.12E-03    0.12E-03    0.26E-06
   0      9    11.527    16.381    0.46E-04    0.64E-04    0.78E-07
   0      9    11.527     5.611    0.26E-04    0.43E-04    0.55E-07
   2      8    11.527     4.652    0.22E-03    0.72E-04    0.47E-07
 Optimization of the real space projectors (new method)

 maximal supplied QI-value         = 24.76
 optimisation between [QCUT,QGAM] = [ 11.64, 23.27] = [ 37.91,151.63] Ry
 Optimized for a Real-space Cutoff    1.14 Angstroem

   l    n(q)    QCUT    max X(q) W(low)/X(q) W(high)/X(q)  e(spline)
   0      8    11.635    20.381    0.10E-03    0.33E-03    0.24E-06
   0      8    11.635    15.268    0.11E-03    0.35E-03    0.26E-06
   1      7    11.635     5.964    0.24E-03    0.31E-03    0.30E-06
   1      7    11.635     5.382    0.22E-03    0.25E-03    0.26E-06
|               ----> ADVICE to this user running VASP <----                  |
|     You enforced a specific xc type in the INCAR file but a different       |
|     type was found in the POTCAR file.                                      |
|     I HOPE YOU KNOW WHAT YOU ARE DOING!                                     |

  PAW_PBE C 08Apr2002                   :
  PAW_PBE O 08Apr2002                   :
  PAW_PBE H 15Jun2001                   :
  PAW_PBE Mg_pv 13Apr2007               :
  PAW_PBE O 08Apr2002                   :

 POSCAR:  C  O  H Mg  O
  positions in direct lattice
 exchange correlation table for  LEXCH =       43
   RHO(1)=    0.500       N(1)  =     2000
   RHO(2)=  100.500       N(2)  =     4000

 ion  position               nearest neighbor table
   1  0.526  0.555  0.795-  12 1.10   9 1.10  11 1.10   5 1.44
   2  0.321  0.400  0.796-  16 1.10  15 1.10  13 1.10   6 1.44
   3  0.474  0.195  0.796-  20 1.10  19 1.10  17 1.10   7 1.44
   4  0.679  0.348  0.795-  24 1.10  23 1.10  21 1.10   8 1.44
   5  0.508  0.488  0.756-  10 1.00   1 1.44 144 2.25
   6  0.388  0.383  0.756-  14 1.00   2 1.44  55 2.25
   7  0.492  0.262  0.756-  18 1.00   3 1.44 120 2.25
   8  0.613  0.367  0.756-  22 1.00   4 1.44 103 2.25
   9  0.519  0.539  0.845-   1 1.10
  10  0.553  0.448  0.759-   5 1.00
  11  0.587  0.575  0.787-   1 1.10
  12  0.485  0.602  0.783-   1 1.10
  13  0.337  0.393  0.845-   2 1.10
  14  0.427  0.427  0.759-   6 1.00
  15  0.300  0.461  0.787-   2 1.10
  16  0.273  0.359  0.783-   2 1.10
  17  0.482  0.211  0.845-   3 1.10
  18  0.448  0.301  0.758-   7 1.00
  19  0.413  0.175  0.787-   3 1.10
  20  0.515  0.147  0.783-   3 1.10
  21  0.664  0.355  0.845-   4 1.10
  22  0.573  0.322  0.758-   8 1.00
  23  0.699  0.286  0.787-   4 1.10
  24  0.728  0.388  0.782-   4 1.10
  25  0.125  0.000  0.352- 153 2.11 155 2.11 156 2.11 172 2.11 195 2.11
  26  0.250  0.125  0.352- 154 2.11 155 2.11 156 2.11 164 2.11 171 2.11
  27  0.125  0.125  0.451- 159 2.11 155 2.11 153 2.11 154 2.11 161 2.11 170 2.11
  28  0.250  0.000  0.451- 160 2.11 156 2.11 153 2.11 154 2.11 169 2.11 194 2.11
  29  0.125  1.000  0.550- 160 2.11 159 2.11 199 2.11 176 2.11 153 2.11 157 2.14
  30  0.250  0.125  0.549- 168 2.11 175 2.11 154 2.11 159 2.11 160 2.11 158 2.14
  31  0.125  0.125  0.648- 159 2.10 158 2.10 174 2.11 165 2.11 157 2.11
  32  0.250  1.000  0.648- 160 2.10 158 2.10 198 2.11 173 2.11 157 2.11
  33  0.125  0.250  0.352- 161 2.11 155 2.11 163 2.11 164 2.11 180 2.11
  34  0.250  0.375  0.352- 162 2.11 163 2.11 164 2.11 179 2.11 188 2.11
  35  0.125  0.375  0.451- 167 2.11 163 2.11 161 2.11 162 2.11 178 2.11 185 2.11
  36  0.250  0.250  0.451- 168 2.11 164 2.11 162 2.11 154 2.11 161 2.11 177 2.11
  37  0.125  0.250  0.550- 168 2.10 184 2.11 167 2.11 161 2.11 159 2.11 165 2.14
  38  0.250  0.375  0.550- 183 2.10 168 2.11 192 2.11 162 2.12 167 2.12 166 2.14
  39  0.125  0.375  0.647- 166 2.09 167 2.09 182 2.11 189 2.11 165 2.12
  40  0.250  0.250  0.647- 168 2.08 181 2.09 165 2.11 158 2.12 166 2.12
  41  0.375  0.000  0.352- 169 2.11 156 2.11 171 2.11 211 2.11 236 2.11
  42  0.000  0.125  0.352- 170 2.11 155 2.11 172 2.11 180 2.11 235 2.11
  43  0.375  0.125  0.451- 175 2.11 171 2.11 154 2.11 169 2.11 177 2.11 234 2.11
  44  0.000  0.000  0.451- 172 2.11 170 2.11 153 2.11 210 2.11 233 2.11 176 2.11
  45  0.375  1.000  0.550- 175 2.10 215 2.11 240 2.11 169 2.11 160 2.11 173 2.14
  46  0.000  0.125  0.550- 159 2.11 239 2.11 176 2.11 184 2.11 170 2.11 174 2.14
  47  0.375  0.125  0.647- 175 2.08 181 2.09 173 2.11 158 2.11 238 2.12
  48  0.000  1.000  0.648- 176 2.10 157 2.11 237 2.11 214 2.11 174 2.11
  49  0.375  0.250  0.352- 177 2.11 171 2.11 164 2.11 179 2.11 244 2.11
  50  0.000  0.375  0.352- 178 2.11 163 2.11 180 2.11 204 2.11 243 2.11
  51  0.375  0.375  0.451- 179 2.11 177 2.11 162 2.11 201 2.11 242 2.11 183 2.12
  52  0.000  0.250  0.451- 180 2.11 170 2.11 178 2.11 161 2.11 241 2.11 184 2.11
  53  0.375  0.251  0.550- 248 2.10 183 2.10 181 2.12 168 2.13 175 2.13 177 2.13
  54  1.000  0.375  0.550- 247 2.11 167 2.11 208 2.11 184 2.11 178 2.11 182 2.14
  55  0.374  0.375  0.651- 246 2.12 166 2.12 181 2.13 205 2.14 183 2.16   6 2.25
  56  0.000  0.250  0.648- 184 2.10 165 2.11 245 2.11 174 2.11 182 2.11
  57  0.125  0.500  0.352- 185 2.11 163 2.11 187 2.11 188 2.11 204 2.11
  58  0.250  0.625  0.352- 186 2.11 187 2.11 188 2.11 196 2.11 203 2.11
  59  0.125  0.625  0.451- 191 2.11 187 2.11 185 2.11 186 2.11 193 2.11 202 2.11
  60  0.250  0.500  0.451- 192 2.11 188 2.11 186 2.11 162 2.11 185 2.11 201 2.11
[...]
 266  0.500  0.625  0.451- 138 2.11 123 2.11  75 2.11 140 2.11 148 2.11 142 2.12
 267  0.875  0.625  0.352- 139 2.11 122 2.11 137 2.11  74 2.11 145 2.11
 268  0.500  0.500  0.352- 140 2.11 114 2.11 121 2.11 138 2.11  73 2.11
 269  0.875  0.500  0.650-  80 2.11 143 2.11 128 2.11 119 2.12 141 2.14
 270  0.500  0.626  0.650- 152 2.09  79 2.12 127 2.12 144 2.12 142 2.14
 271  0.875  0.625  0.549- 143 2.10  78 2.11 149 2.11 139 2.11 126 2.11 141 2.11
 272  0.500  0.500  0.550- 142 2.10 125 2.10  77 2.10 118 2.12 140 2.12 144 2.16
 273  0.875  0.750  0.451- 145 2.11 132 2.11 139 2.11  84 2.11 147 2.11 149 2.11
 274  0.500  0.875  0.451- 146 2.11 108 2.11 131 2.11  83 2.11 148 2.11 150 2.11
 275  0.875  0.875  0.352- 147 2.11 105 2.11 130 2.11 145 2.11  82 2.11
 276  0.500  0.750  0.352- 148 2.11 129 2.11 138 2.11 146 2.11  81 2.11
 277  0.875  0.750  0.650-  88 2.11 151 2.11 143 2.11 136 2.11 149 2.14
 278  0.500  0.875  0.650- 152 2.11 112 2.11  87 2.11 135 2.11 150 2.14
 279  0.875  0.875  0.549- 151 2.10  86 2.11 109 2.11 149 2.11 147 2.11 134 2.11
 280  0.500  0.750  0.549- 152 2.09 150 2.11 148 2.11 133 2.11  85 2.11 142 2.12

IMPORTANT INFORMATION: All symmetrisations will be switched off!
NOSYMM: (Re-)initialisation of all symmetry stuff for point group C_1.

                                     Primitive cell

  volume of cell :    6078.6138

  direct lattice vectors                    reciprocal lattice vectors
    16.881164524  0.000000000  0.000000000     0.059237619  0.000000000  0.000000000
     0.000000000 16.881164524  0.000000000     0.000000000  0.059237619  0.000000000
     0.000000000  0.000000000 21.330436697     0.000000000  0.000000000  0.046881366

  length of vectors
    16.881164524 16.881164524 21.330436697     0.059237619  0.059237619  0.046881366

  position of ions in fractional coordinates (direct lattice)
     0.526251138  0.554619132  0.795476403
     0.320791485  0.400044856  0.795632972
     0.474379516  0.195306248  0.795513868
     0.679489584  0.347747743  0.795205347
     0.508115329  0.487561152  0.756178187
     0.387574255  0.382588434  0.755873838
     0.492144125  0.262082545  0.755834157
     0.612646061  0.366701967  0.755919315
     0.519185076  0.539265451  0.845381925
     0.552524269  0.448128242  0.758678933
     0.587399819  0.574710773  0.786830118
     0.485413431  0.602478876  0.782641696
     0.336756975  0.392856759  0.845423445
     0.426939889  0.427040256  0.758554543
     0.300162361  0.461091651  0.787328629
     0.273102312  0.358905802  0.783029892
     0.481645595  0.211153193  0.845303395
     0.447693318  0.301496628  0.758296378
     0.413238551  0.174989365  0.787182694
     0.515306168  0.147439184  0.782845590
     0.664159631  0.354873597  0.845116281
     0.572943036  0.322484934  0.758249543
     0.698836889  0.286366208  0.786508830
     0.727838024  0.388034317  0.782450633
     0.125000000  0.000000000  0.351610242
[...]

 Eigenvectors and eigenvalues of the dynamical matrix

   1 f  =   96.394315 THz   605.663346 2PiTHz 3215.368261 cm-1   398.654677 meV
             X         Y         Z           dx          dy          dz
      8.883732  9.362617 16.967859    -0.002338    0.012703    0.006097
      5.415334  6.753223 16.971199     0.012239    0.002404   -0.005605
      8.008079  3.296997 16.968658     0.002135   -0.011196    0.005571
     11.470575  5.870387 16.962077    -0.011922   -0.002001   -0.005977
      8.577578  8.230600 16.129611    -0.094190    0.083819   -0.006112
      6.542705  6.458538 16.123119     0.084405    0.094701    0.006512
      8.307966  4.424259 16.122273     0.085603   -0.076384   -0.005535
     10.342179  6.190356 16.124089    -0.074911   -0.083296    0.005128
      8.764449  9.103429 18.032366     0.000928    0.000641   -0.022828
      9.327253  7.564927 16.182953     0.378298   -0.335402    0.025494
      9.915993  9.701787 16.783430    -0.022286   -0.013897   -0.001218
      8.194344 10.170545 16.694089     0.022689   -0.033244    0.004709
      5.684850  6.631880 18.033251     0.000678   -0.000946    0.021636
      7.207243  7.208937 16.180300    -0.336365   -0.380389   -0.027831
      5.067090  7.783764 16.794063    -0.013391    0.021271    0.001251
      4.610285  6.058748 16.702370    -0.032753   -0.022608   -0.004448
      8.130739  3.564512 18.030691    -0.000960   -0.000775   -0.020831
      7.557585  5.089614 16.174793    -0.344654    0.304898    0.023340
      6.975948  2.954024 16.790951     0.019770    0.012491   -0.001223
      8.698968  2.488945 16.698438    -0.020228    0.029771    0.004007
     11.211788  5.990680 18.026699    -0.000680    0.000922    0.021574
      9.671946  5.443921 16.173794     0.302020    0.335144   -0.020670
     11.797181  4.834195 16.776577     0.012931   -0.021076    0.001171
     12.286753  6.550471 16.690014     0.030552    0.020340   -0.004262
      2.110146  0.000000  7.500000            0           0           0
      4.220291  2.110146  7.500000            0           0           0
      2.110146  2.110146  9.610146            0           0           0
      4.220291  0.000000  9.610146            0           0           0
      2.109371 16.880517 11.723825            0           0           0
      4.219694  2.110062 11.720571            0           0           0
      2.108266  2.107063 13.814964            0           0           0
      4.216942 16.879024 13.814522            0           0           0
      2.110146  4.220291  7.500000            0           0           0
      4.220291  6.330437  7.500000            0           0           0
      2.110146  6.330437  9.610146            0           0           0
      4.220291  4.220291  9.610146            0           0           0
      2.109599  4.220727 11.722241            0           0           0
      4.227425  6.330424 11.729787            0           0           0
      2.108148  6.331092 13.811076            0           0           0
      4.216576  4.215237 13.800761            0           0           0
      6.330437  0.000000  7.500000            0           0           0
      0.000000  2.110146  7.500000            0           0           0
      6.330437  2.110146  9.610146            0           0           0
      0.000000  0.000000  9.610146            0           0           0
      6.330571 16.880211 11.722135            0           0           0
      0.000114  2.109228 11.723808            0           0           0
      6.324661  2.106029 13.798432            0           0           0
      0.000101 16.879368 13.817117            0           0           0
      6.330437  4.220291  7.500000            0           0           0
      0.000000  6.330437  7.500000            0           0           0
      6.330437  6.330437  9.610146            0           0           0
      0.000000  4.220291  9.610146            0           0           0
      6.338265  4.229358 11.738652            0           0           0
     16.881137  6.330727 11.723641            0           0           0
      6.321321  6.330389 13.891010            0           0           0
      0.000115  4.218150 13.815770            0           0           0
      2.110146  8.440582  7.500000            0           0           0
      4.220291 10.550728  7.500000            0           0           0
      2.110146 10.550728  9.610146            0           0           0
      4.220291  8.440582  9.610146            0           0           0
[...]
      8.440582 10.550728  9.610146            0           0           0
     14.771019 10.550728  7.500000            0           0           0
      8.440582  8.440582  7.500000            0           0           0
     14.774526  8.444554 13.864029            0           0           0
      8.441110 10.573838 13.866432            0           0           0
     14.773432 10.552626 11.719353            0           0           0
      8.441436  8.447269 11.733384            0           0           0
     14.771019 12.660873  9.610146            0           0           0
      8.440582 14.771019  9.610146            0           0           0
     14.771019 14.771019  7.500000            0           0           0
      8.440582 12.660873  7.500000            0           0           0
     14.774114 12.664089 13.861145            0           0           0
      8.440541 14.770695 13.863934            0           0           0
     14.772335 14.771302 11.719783            0           0           0
      8.440750 12.664631 11.718574            0           0           0

[...]

  71 f  =    0.757433 THz     4.759092 2PiTHz   25.265247 cm-1     3.132490 meV
             X         Y         Z           dx          dy          dz
      8.883732  9.362617 16.967859     0.013125   -0.045681    0.018411
      5.415334  6.753223 16.971199     0.143045   -0.535063    0.266931
      8.008079  3.296997 16.968658    -0.025052   -0.035284   -0.024915
     11.470575  5.870387 16.962077    -0.004673   -0.516568   -0.072420
      8.577578  8.230600 16.129611     0.015952   -0.072161    0.043289
      6.542705  6.458538 16.123119     0.070231   -0.147515    0.024390
      8.307966  4.424259 16.122273     0.001406   -0.062345   -0.041365
     10.342179  6.190356 16.124089     0.025686   -0.157390    0.033468
      8.764449  9.103429 18.032366     0.014140   -0.010662    0.007005
      9.327253  7.564927 16.182953     0.006601   -0.012839    0.012997
      9.915993  9.701787 16.783430     0.000051   -0.007511   -0.004284
      8.194344 10.170545 16.694089    -0.003954   -0.018882    0.008140
      5.684850  6.631880 18.033251     0.105449   -0.178099    0.058010
      7.207243  7.208937 16.180300    -0.005902   -0.017199    0.022984
      5.067090  7.783764 16.794063    -0.049224   -0.175166    0.137100
      4.610285  6.058748 16.702370     0.080538   -0.206007    0.092211
      8.130739  3.564512 18.030691     0.009381   -0.012076   -0.008483
      7.557585  5.089614 16.174793     0.006188   -0.005335   -0.011949
      6.975948  2.954024 16.790951    -0.015030    0.006325    0.005010
      8.698968  2.488945 16.698438    -0.023950   -0.022057   -0.014789
     11.211788  5.990680 18.026699     0.034449   -0.137389   -0.013503
      9.671946  5.443921 16.173794    -0.020673   -0.017226   -0.017417
     11.797181  4.834195 16.776577    -0.103409   -0.178207   -0.039963
     12.286753  6.550471 16.690014     0.054600   -0.221037   -0.033575
      2.110146  0.000000  7.500000            0           0           0
      4.220291  2.110146  7.500000            0           0           0
      2.110146  2.110146  9.610146            0           0           0
      4.220291  0.000000  9.610146            0           0           0
      2.109371 16.880517 11.723825            0           0           0
      4.219694  2.110062 11.720571            0           0           0
      2.108266  2.107063 13.814964            0           0           0
      4.216942 16.879024 13.814522            0           0           0
      2.110146  4.220291  7.500000            0           0           0
      4.220291  6.330437  7.500000            0           0           0
      2.110146  6.330437  9.610146            0           0           0
      4.220291  4.220291  9.610146            0           0           0
      2.109599  4.220727 11.722241            0           0           0
      4.227425  6.330424 11.729787            0           0           0
      2.108148  6.331092 13.811076            0           0           0
      4.216576  4.215237 13.800761            0           0           0
      6.330437  0.000000  7.500000            0           0           0
      0.000000  2.110146  7.500000            0           0           0
      6.330437  2.110146  9.610146            0           0           0
      0.000000  0.000000  9.610146            0           0           0
      6.330571 16.880211 11.722135            0           0           0
      0.000114  2.109228 11.723808            0           0           0
      6.324661  2.106029 13.798432            0           0           0
      0.000101 16.879368 13.817117            0           0           0
      6.330437  4.220291  7.500000            0           0           0
      0.000000  6.330437  7.500000            0           0           0
      6.330437  6.330437  9.610146            0           0           0
      0.000000  4.220291  9.610146            0           0           0
      6.338265  4.229358 11.738652            0           0           0
     16.881137  6.330727 11.723641            0           0           0
      6.321321  6.330389 13.891010            0           0           0
      0.000115  4.218150 13.815770            0           0           0
      2.110146  8.440582  7.500000            0           0           0
      4.220291 10.550728  7.500000            0           0           0
      2.110146 10.550728  9.610146            0           0           0
      4.220291  8.440582  9.610146            0           0           0
[...]
      8.440582 10.550728  9.610146            0           0           0
     14.771019 10.550728  7.500000            0           0           0
      8.440582  8.440582  7.500000            0           0           0
     14.774526  8.444554 13.864029            0           0           0
      8.441110 10.573838 13.866432            0           0           0
     14.773432 10.552626 11.719353            0           0           0
      8.441436  8.447269 11.733384            0           0           0
     14.771019 12.660873  9.610146            0           0           0
      8.440582 14.771019  9.610146            0           0           0
     14.771019 14.771019  7.500000            0           0           0
      8.440582 12.660873  7.500000            0           0           0
     14.774114 12.664089 13.861145            0           0           0
      8.440541 14.770695 13.863934            0           0           0
     14.772335 14.771302 11.719783            0           0           0
      8.440750 12.664631 11.718574            0           0           0

  72 f/i=    0.576443 THz     3.621897 2PiTHz   19.228065 cm-1     2.383975 meV
             X         Y         Z           dx          dy          dz
      8.883732  9.362617 16.967859     0.003470   -0.012162   -0.012900
      5.415334  6.753223 16.971199     0.109267   -0.464659    0.227920
      8.008079  3.296997 16.968658    -0.003004    0.011760   -0.018322
     11.470575  5.870387 16.962077     0.043349    0.601755    0.071717
      8.577578  8.230600 16.129611    -0.085624    0.008425   -0.010208
      6.542705  6.458538 16.123119     0.056012   -0.109198    0.027067
      8.307966  4.424259 16.122273     0.109571   -0.000013    0.002189
     10.342179  6.190356 16.124089    -0.007939    0.146596   -0.037023
      8.764449  9.103429 18.032366     0.004008   -0.002391   -0.002981
      9.327253  7.564927 16.182953    -0.027077   -0.007691   -0.012224
      9.915993  9.701787 16.783430     0.005154   -0.019143   -0.010006
      8.194344 10.170545 16.694089     0.011889    0.007788    0.002035
      5.684850  6.631880 18.033251     0.088117   -0.143637    0.050370
      7.207243  7.208937 16.180300    -0.017896    0.000908    0.014681
      5.067090  7.783764 16.794063    -0.057176   -0.156817    0.110114
      4.610285  6.058748 16.702370     0.072017   -0.188618    0.084864
      8.130739  3.564512 18.030691    -0.000291   -0.003678   -0.003424
      7.557585  5.089614 16.174793     0.036884    0.013663   -0.003869
      6.975948  2.954024 16.790951    -0.007673    0.026500   -0.011388
      8.698968  2.488945 16.698438    -0.017432   -0.011114   -0.004442
     11.211788  5.990680 18.026699    -0.027392    0.154755    0.013192
      9.671946  5.443921 16.173794     0.043012   -0.002388    0.015474
     11.797181  4.834195 16.776577     0.140548    0.210991    0.039859
     12.286753  6.550471 16.690014    -0.059278    0.265371    0.035311
      2.110146  0.000000  7.500000            0           0           0
      4.220291  2.110146  7.500000            0           0           0
      2.110146  2.110146  9.610146            0           0           0
      4.220291  0.000000  9.610146            0           0           0
      2.109371 16.880517 11.723825            0           0           0
      4.219694  2.110062 11.720571            0           0           0
      2.108266  2.107063 13.814964            0           0           0
      4.216942 16.879024 13.814522            0           0           0
      2.110146  4.220291  7.500000            0           0           0
      4.220291  6.330437  7.500000            0           0           0
      2.110146  6.330437  9.610146            0           0           0
      4.220291  4.220291  9.610146            0           0           0
      2.109599  4.220727 11.722241            0           0           0
      4.227425  6.330424 11.729787            0           0           0
      2.108148  6.331092 13.811076            0           0           0
      4.216576  4.215237 13.800761            0           0           0
      6.330437  0.000000  7.500000            0           0           0
      0.000000  2.110146  7.500000            0           0           0
      6.330437  2.110146  9.610146            0           0           0
      0.000000  0.000000  9.610146            0           0           0
      6.330571 16.880211 11.722135            0           0           0
      0.000114  2.109228 11.723808            0           0           0
      6.324661  2.106029 13.798432            0           0           0
      0.000101 16.879368 13.817117            0           0           0
      6.330437  4.220291  7.500000            0           0           0
      0.000000  6.330437  7.500000            0           0           0
      6.330437  6.330437  9.610146            0           0           0
      0.000000  4.220291  9.610146            0           0           0
      6.338265  4.229358 11.738652            0           0           0
     16.881137  6.330727 11.723641            0           0           0
      6.321321  6.330389 13.891010            0           0           0
      0.000115  4.218150 13.815770            0           0           0
      2.110146  8.440582  7.500000            0           0           0
      4.220291 10.550728  7.500000            0           0           0
      2.110146 10.550728  9.610146            0           0           0
      4.220291  8.440582  9.610146            0           0           0
[...]
      8.440582 10.550728  9.610146            0           0           0
     14.771019 10.550728  7.500000            0           0           0
      8.440582  8.440582  7.500000            0           0           0
     14.774526  8.444554 13.864029            0           0           0
      8.441110 10.573838 13.866432            0           0           0
     14.773432 10.552626 11.719353            0           0           0
      8.441436  8.447269 11.733384            0           0           0
     14.771019 12.660873  9.610146            0           0           0
      8.440582 14.771019  9.610146            0           0           0
     14.771019 14.771019  7.500000            0           0           0
      8.440582 12.660873  7.500000            0           0           0
     14.774114 12.664089 13.861145            0           0           0
      8.440541 14.770695 13.863934            0           0           0
     14.772335 14.771302 11.719783            0           0           0
      8.440750 12.664631 11.718574            0           0           0

 Finite differences POTIM=   1.0000000000000000E-002