 vasp.6.4.2 20Jul23 (build Feb 22 2024 13:53:45) complex
 executed on              LinuxNV date 2024.08.27  14:37:29
 OpenACC runtime initialized ...    4 GPUs detected

 INCAR:
   SYSTEM = Oxide-Surface
   ISMEAR = 0
   SIGMA = 0.05
   EDIFF = 1E-5
   ALGO = Normal
   IBRION = -1
   NSW = 0
   ISYM = 0
   DIPOL = 0.5 0.5 0.5
   IDIPOL = 3
   LDIPOL = .TRUE.
   ISTART = 1
   METAGGA = SCAN
   LUSE_VDW = .TRUE.
   BPARAM = 15.7
   CPARAM = 0.0093
   ENCUT = 1000
   PREC = Normal
   PRECFOCK = Normal
   LASPH = .TRUE.
   LREAL = Auto
   ISPIN = 1
   NELM = 200
   NELMIN = 8
   NCORE = 1
   KPAR = 1
   LWAVE = .FALSE.
   LCHARG = .FALSE.

 POTCAR:    PAW_PBE C_h 06Feb2004
 POTCAR:    PAW_PBE H_h 06Feb2004
 POTCAR:    PAW_PBE Mg_sv 12Apr2007
 POTCAR:    PAW_PBE O_h 06Feb2004
|               ----> ADVICE to this user running VASP <----                  |
|     You have switched on vdW-DFT.                                           |
|     This routine was written and supplied by Jiri Klimes. We recommend      |
|     that you carefully read and cite the following publications:            |
|       J. Klimes, D.R. Bowler, A. Michelides                                 |
|          J. Phys.: Cond Matt. 22 022201 (2010)                              |
|       J. Klimes, D.R. Bowler, A. Michelides                                 |
|          Phys. Rev. B. 83, 195131 (2011)                                    |
|     and references therein.                                                 |

   TITEL  = PAW_PBE C_h 06Feb2004
   POMASS =   12.011; ZVAL   =    4.000    mass and valenz
   ENMAX  =  700.000; ENMIN  =  500.000 eV

[...]

   TITEL  = PAW_PBE Mg_sv 12Apr2007
   POMASS =   24.305; ZVAL   =   10.000    mass and valenz
   ENMAX  =  495.223; ENMIN  =  371.417 eV

   TITEL  = PAW_PBE O_h 06Feb2004
   POMASS =   16.000; ZVAL   =    6.000    mass and valenz
   ENMAX  =  700.000; ENMIN  =  500.000 eV

 Optimization of the real space projectors (new method)

 maximal supplied QI-value         = 34.20
 optimisation between [QCUT,QGAM] = [ 16.08, 32.15] = [ 72.37,289.48] Ry
 Optimized for a Real-space Cutoff    0.71 Angstroem

   l    n(q)    QCUT    max X(q) W(low)/X(q) W(high)/X(q)  e(spline)
   0      7    16.076   134.812    0.49E-03    0.92E-03    0.59E-07
   0      7    16.076    80.524    0.48E-03    0.91E-03    0.58E-07
   1      6    16.076    79.026    0.37E-03    0.58E-03    0.12E-06
   1      6    16.076    45.188    0.36E-03    0.56E-03    0.12E-06
 Optimization of the real space projectors (new method)

[...]

   l    n(q)    QCUT    max X(q) W(low)/X(q) W(high)/X(q)  e(spline)
   0      9    16.140     8.730    0.14E-04    0.12E-04    0.27E-07
   0      9    16.140     8.910    0.19E-04    0.17E-04    0.41E-07
   1      9    16.140     2.513    0.16E-04    0.28E-04    0.54E-07
   1      9    16.140     3.341    0.27E-04    0.13E-03    0.17E-06
   2      9    16.140     3.683    0.18E-03    0.21E-03    0.81E-07
 Optimization of the real space projectors (new method)

 maximal supplied QI-value         = 34.20
 optimisation between [QCUT,QGAM] = [ 16.08, 32.15] = [ 72.37,289.48] Ry
 Optimized for a Real-space Cutoff    0.71 Angstroem

   l    n(q)    QCUT    max X(q) W(low)/X(q) W(high)/X(q)  e(spline)
   0      7    16.076   280.207    0.42E-03    0.69E-03    0.60E-07
   0      7    16.076   228.978    0.42E-03    0.69E-03    0.61E-07
   1      6    16.076    86.127    0.11E-03    0.66E-03    0.10E-06
   1      6    16.076    65.368    0.11E-03    0.65E-03    0.10E-06
  PAW_PBE C_h 06Feb2004                 :
  PAW_PBE H_h 06Feb2004                 :
  PAW_PBE Mg_sv 12Apr2007               :
  PAW_PBE O_h 06Feb2004                 :

 POSCAR:  C  H Mg  O
  positions in direct lattice

 METAGGA = SCAN                                        LMAXTAU =  6    LMIXTAU =  F

 ion  position               nearest neighbor table
   1  0.625  0.500  0.760-   3 1.10   2 1.10   4 1.10   5 1.10
   2  0.625  0.606  0.797-   1 1.10
   3  0.625  0.394  0.797-   1 1.10
   4  0.732  0.500  0.723-   1 1.10
   5  0.518  0.500  0.723-   1 1.10
   6  0.125  0.750  0.203-
   7  0.375  0.000  0.203-
   8  0.125  0.000  0.327-
   9  0.375  0.750  0.327-
  10  0.125  0.750  0.452-
  11  0.375  1.000  0.452-
  12  0.125  1.000  0.576-
  13  0.375  0.750  0.576-
  14  0.125  0.250  0.203-
  15  0.375  0.500  0.203-
  16  0.125  0.500  0.327-
  17  0.375  0.250  0.327-
  18  0.125  0.250  0.452-
  19  0.375  0.500  0.452-
  20  0.125  0.500  0.576-
  21  0.375  0.250  0.576-
  22  0.625  0.750  0.203-
  23  0.875  0.000  0.203-
  24  0.625  0.000  0.327-
  25  0.875  0.750  0.327-
  26  0.625  0.750  0.452-
  27  0.875  0.000  0.452-
  28  0.625  1.000  0.576-
  29  0.875  0.750  0.576-
  30  0.625  0.250  0.203-
  31  0.875  0.500  0.203-
  32  0.625  0.500  0.327-
  33  0.875  0.250  0.327-
  34  0.625  0.250  0.452-
  35  0.875  0.500  0.452-
  36  0.625  0.500  0.576-
  37  0.875  0.250  0.576-
  38  0.125  0.750  0.327-
  39  0.375  0.000  0.327-
  40  0.125  0.000  0.203-
  41  0.375  0.750  0.203-
  42  0.125  0.750  0.578-
  43  0.375  0.000  0.579-
  44  0.125  1.000  0.452-
  45  0.375  0.750  0.452-
  46  0.125  0.250  0.327-
  47  0.375  0.500  0.327-
  48  0.125  0.500  0.203-
  49  0.375  0.250  0.203-
  50  0.125  0.250  0.578-
  51  0.375  0.500  0.578-
  52  0.125  0.500  0.452-
  53  0.375  0.250  0.452-
  54  0.625  0.750  0.327-
  55  0.875  0.000  0.327-
  56  0.625  0.000  0.203-
  57  0.875  0.750  0.203-
  58  0.625  0.750  0.578-
  59  0.875  0.000  0.579-
  60  0.625  1.000  0.452-
  61  0.875  0.750  0.452-
  62  0.625  0.250  0.327-
  63  0.875  0.500  0.327-
  64  0.625  0.500  0.203-
  65  0.875  0.250  0.203-
  66  0.625  0.250  0.578-
  67  0.875  0.500  0.578-
  68  0.625  0.500  0.452-
  69  0.875  0.250  0.452-

IMPORTANT INFORMATION: All symmetrisations will be switched off!
NOSYMM: (Re-)initialisation of all symmetry stuff for point group C_1.

                                     Primitive cell

  volume of cell :    1211.2538

  direct lattice vectors                    reciprocal lattice vectors
     8.440984654  0.000000000  0.000000000     0.118469591  0.000000000  0.000000000
     0.000000000  8.440984654  0.000000000     0.000000000  0.118469591  0.000000000
     0.000000000  0.000000000 17.000000000     0.000000000  0.000000000  0.058823529

  length of vectors
     8.440984654  8.440984654 17.000000000     0.118469591  0.118469591  0.058823529

  position of ions in fractional coordinates (direct lattice)
     0.624874723  0.499997702  0.760129327
     0.624874667  0.606400246  0.797180401
     0.624874661  0.393601766  0.797179749
     0.731963124  0.500000082  0.723349296
     0.517786221  0.500000086  0.723349275
     0.124874701  0.750000001  0.202819599
     0.374874701  0.000000001  0.202819599
     0.124874701  0.000000001  0.326951726
     0.374874701  0.750000001  0.326951726
     0.124874704  0.750032169  0.451932988
     0.374867470  0.999999999  0.451925450
     0.124874712  0.999999992  0.575783509
     0.374991216  0.750097341  0.575612586
     0.124874701  0.250000001  0.202819599
     0.374874701  0.500000001  0.202819599
     0.124874701  0.500000001  0.326951726
     0.374874701  0.250000001  0.326951726
     0.124874708  0.249967823  0.451932992
     0.374983146  0.500000002  0.451948183
     0.124874712  0.499999995  0.575568334
     0.374991205  0.249902632  0.575612581
     0.624874701  0.750000001  0.202819599
     0.874874701  0.000000001  0.202819599
     0.624874701  0.000000001  0.326951726
     0.874874701  0.750000001  0.326951726
     0.624874696  0.749901113  0.451984522
     0.874881955  0.000000006  0.451925445
     0.624874708  0.999999999  0.575658965
     0.874758227  0.750097345  0.575612601
     0.624874701  0.250000001  0.202819599
     0.874874701  0.500000001  0.202819599
     0.624874701  0.500000001  0.326951726
     0.874874701  0.250000001  0.326951726
     0.624874702  0.250098875  0.451984502
     0.874766288  0.499999992  0.451948190
     0.624874715  0.499999989  0.576325730
     0.874758224  0.249902626  0.575612601
     0.124874701  0.750000001  0.326951726
     0.374874701  0.000000001  0.326951726
     0.124874701  0.000000001  0.202819599
     0.374874701  0.750000001  0.202819599
     0.124874712  0.750041777  0.578461591
     0.374814565  0.000000004  0.578506137
     0.124874716  0.999999982  0.451658755
     0.374798799  0.750012793  0.451587177
     0.124874701  0.250000001  0.326951726
     0.374874701  0.500000001  0.326951726
     0.124874701  0.500000001  0.202819599
     0.374874701  0.250000001  0.202819599
     0.124874718  0.249958210  0.578461567
     0.374624152  0.499999983  0.578487550
     0.124874718  0.500000004  0.451540272
     0.374798803  0.249987199  0.451587172
     0.624874701  0.750000001  0.326951726
     0.874874701  0.000000001  0.326951726
     0.624874701  0.000000001  0.202819599
     0.874874701  0.750000001  0.202819599
     0.624874705  0.750141603  0.578186521
     0.874934875  0.000000005  0.578506145
     0.624874715  0.999999988  0.451528368
     0.874950615  0.750012792  0.451587179
     0.624874701  0.250000001  0.326951726
     0.874874701  0.500000001  0.326951726
     0.624874701  0.500000001  0.202819599
     0.874874701  0.250000001  0.202819599
     0.624874705  0.249858389  0.578186513
     0.875125299  0.499999988  0.578487554
     0.624874718  0.499999993  0.451751169
     0.874950602  0.249987190  0.451587179

  ion indices of the primitive-cell ions
   primitive index   ion index
                 1           1
                 2           2
                 3           3
                 4           4
                 5           5
                 6           6
                 7           7
                 8           8
                 9           9
                10          10
                11          11
                12          12
                13          13
                14          14
                15          15
                16          16
                17          17
                18          18
                19          19
                20          20
                21          21
                22          22
                23          23
                24          24
                25          25
                26          26
                27          27
                28          28
                29          29
                30          30
                31          31
                32          32
                33          33
                34          34
                35          35
                36          36
                37          37
                38          38
                39          39
                40          40
                41          41
                42          42
                43          43
                44          44
                45          45
                46          46
                47          47
                48          48
                49          49
                50          50
                51          51
                52          52
[...]
  Alpha Z  1220.20342  1220.20342  1220.20342
  Ewald  108338.14358108335.51405************    -0.00000    -0.00271    -0.00001
  Hartree125142.59457125140.62729************     0.00001    -0.00013    -0.01303
  E(xc)   -3474.95308 -3474.71355 -3474.46931    -0.00000     0.00004    -0.00503
  Local  ************************242906.98855    -0.00000     0.00212     0.03192
  n-local -5557.35232 -5557.57409 -5558.23622     0.00000     0.00001     0.05567
  augment   824.90931   824.05955   815.75327    -0.00002    -0.00008    -0.23687
  Kinetic 12616.47908 12618.90740 12629.34773    -0.00000     0.00006    -0.03470
  Fock        0.00000     0.00000     0.00000     0.00000     0.00000     0.00000
  Total     -44.28072   -44.13724   -13.00491    -0.00002    -0.00068    -0.20205
  in kB     -58.57201   -58.38222   -17.20215    -0.00003    -0.00090    -0.26727

 VOLUME and BASIS-vectors are now :
  energy-cutoff  :     1000.00
  volume of cell :     1211.25
      direct lattice vectors                 reciprocal lattice vectors
     8.440984654  0.000000000  0.000000000     0.118469591  0.000000000  0.000000000
     0.000000000  8.440984654  0.000000000     0.000000000  0.118469591  0.000000000
     0.000000000  0.000000000 17.000000000     0.000000000  0.000000000  0.058823529

  length of vectors
     8.440984654  8.440984654 17.000000000     0.118469591  0.118469591  0.058823529

 FORCES acting on ions
    electron-ion (+dipol)            ewald-force                    non-local-force                 convergence-correction
   -.319E-02 -.200E-02 -.674E+03   -.198E-04 0.141E-02 0.674E+03   0.184E-01 0.195E-02 -.173E+00   0.210E-05 0.118E-04 0.266E-02
   -.975E-04 -.431E+02 -.151E+03   -.217E-04 0.474E+02 0.154E+03   0.534E-03 -.462E+01 -.323E+01   0.927E-06 0.149E-03 0.971E-03
   -.971E-04 0.431E+02 -.151E+03   -.246E-04 -.474E+02 0.154E+03   0.541E-03 0.462E+01 -.323E+01   0.807E-06 -.148E-03 0.972E-03
   -.435E+02 -.866E-03 -.186E+03   0.480E+02 0.885E-03 0.183E+03   -.468E+01 -.117E-03 0.312E+01   0.751E-04 0.183E-05 0.577E-03
   0.435E+02 -.867E-03 -.186E+03   -.480E+02 0.887E-03 0.183E+03   0.468E+01 -.116E-03 0.312E+01   -.755E-04 0.180E-05 0.575E-03
   0.397E-03 -.775E+00 0.244E+04   -.362E-05 0.774E+00 -.243E+04   -.151E-01 0.794E-04 -.967E+01   0.138E-04 0.745E-04 -.543E-02
   0.807E+00 0.549E-06 0.244E+04   -.806E+00 -.717E-05 -.243E+04   -.194E-01 -.625E-05 -.967E+01   -.837E-04 0.113E-04 -.542E-02
   -.727E-02 0.333E-05 0.823E+03   -.690E-05 -.756E-07 -.824E+03   0.585E-01 -.119E-04 0.709E+00   0.159E-04 0.127E-05 -.642E-02
   0.826E+00 -.882E+00 0.825E+03   -.832E+00 0.882E+00 -.825E+03   0.529E-01 -.249E-03 0.682E+00   0.567E-05 -.169E-04 -.630E-02
   -.771E-02 -.290E+01 -.786E+03   -.280E-04 0.290E+01 0.786E+03   0.545E-01 -.127E-01 -.261E+00   0.138E-05 -.197E-03 -.723E-02
   0.290E+01 0.516E-04 -.786E+03   -.290E+01 -.539E-04 0.786E+03   0.481E-01 -.745E-05 -.242E+00   0.136E-03 0.135E-05 -.725E-02
   0.247E-02 0.777E-04 -.239E+04   0.258E-04 -.874E-04 0.239E+04   -.187E-01 0.529E-04 0.815E+01   -.259E-04 0.165E-05 -.385E-02
   0.184E+02 -.185E+02 -.237E+04   -.184E+02 0.186E+02 0.236E+04   -.475E-01 -.335E-01 0.816E+01   0.325E-03 -.461E-03 -.371E-02
   0.393E-03 0.775E+00 0.244E+04   -.324E-05 -.774E+00 -.243E+04   -.151E-01 -.637E-04 -.967E+01   0.140E-04 -.721E-04 -.542E-02
   0.102E+01 0.253E-05 0.244E+04   -.102E+01 0.705E-05 -.243E+04   -.206E-01 -.422E-04 -.967E+01   -.106E-03 -.117E-04 -.522E-02
   -.738E-02 -.120E-05 0.825E+03   -.208E-04 -.986E-06 -.825E+03   0.585E-01 0.713E-05 0.656E+00   0.710E-05 -.402E-05 -.623E-02
   0.826E+00 0.882E+00 0.825E+03   -.832E+00 -.882E+00 -.825E+03   0.529E-01 0.263E-03 0.682E+00   0.480E-05 0.148E-04 -.632E-02
   -.769E-02 0.290E+01 -.786E+03   -.460E-04 -.290E+01 0.786E+03   0.545E-01 0.127E-01 -.261E+00   0.502E-05 0.199E-03 -.719E-02
   0.482E+01 -.173E-04 -.778E+03   -.479E+01 0.188E-04 0.779E+03   -.250E-01 -.894E-05 -.273E+00   0.386E-04 0.603E-06 -.690E-02
   0.952E-04 -.596E-04 -.238E+04   0.447E-04 0.706E-04 0.237E+04   -.991E-02 -.337E-04 0.814E+01   -.896E-06 -.687E-05 -.379E-02
   0.184E+02 0.185E+02 -.237E+04   -.184E+02 -.186E+02 0.236E+04   -.475E-01 0.335E-01 0.816E+01   0.320E-03 0.457E-03 -.373E-02
   0.403E-03 -.987E+00 0.244E+04   0.404E-05 0.985E+00 -.243E+04   -.151E-01 0.154E-02 -.967E+01   -.329E-05 0.983E-04 -.519E-02
   -.802E+00 0.198E-05 0.244E+04   0.806E+00 -.778E-05 -.243E+04   -.229E-01 -.216E-04 -.967E+01   0.892E-04 0.129E-04 -.544E-02
   -.733E-02 0.373E-04 0.825E+03   0.892E-05 -.406E-04 -.825E+03   0.583E-01 -.250E-04 0.638E+00   -.172E-04 0.557E-05 -.630E-02
   -.838E+00 -.882E+00 0.825E+03   0.832E+00 0.882E+00 -.825E+03   0.532E-01 -.154E-03 0.682E+00   0.823E-05 -.292E-04 -.628E-02
   -.760E-02 -.487E+01 -.778E+03   0.102E-03 0.484E+01 0.778E+03   0.536E-01 0.439E-01 -.432E+00   0.610E-05 -.122E-03 -.692E-02
   -.292E+01 0.107E-03 -.786E+03   0.290E+01 -.104E-03 0.786E+03   0.561E-01 -.139E-05 -.243E+00   -.118E-03 -.322E-05 -.726E-02
   0.257E-02 0.193E-03 -.238E+04   0.662E-04 -.176E-03 0.237E+04   -.149E-01 0.402E-04 0.816E+01   0.295E-04 0.933E-05 -.389E-02
   -.184E+02 -.185E+02 -.237E+04   0.184E+02 0.186E+02 0.236E+04   0.713E-02 -.231E-01 0.817E+01   -.295E-03 -.426E-03 -.372E-02
   0.405E-03 0.987E+00 0.244E+04   0.334E-05 -.985E+00 -.243E+04   -.152E-01 -.172E-02 -.967E+01   -.749E-05 -.103E-03 -.520E-02
   -.101E+01 -.344E-05 0.244E+04   0.102E+01 0.757E-05 -.243E+04   -.218E-01 0.247E-04 -.967E+01   0.101E-03 -.583E-05 -.524E-02
   -.719E-02 -.367E-04 0.826E+03   0.260E-04 0.395E-04 -.826E+03   0.585E-01 0.700E-05 0.719E+00   0.745E-05 -.473E-05 -.617E-02
   -.838E+00 0.882E+00 0.825E+03   0.832E+00 -.882E+00 -.825E+03   0.532E-01 0.160E-03 0.682E+00   0.455E-05 0.296E-04 -.629E-02
   -.754E-02 0.487E+01 -.778E+03   0.444E-04 -.484E+01 0.778E+03   0.536E-01 -.439E-01 -.432E+00   0.149E-06 0.112E-03 -.690E-02
   -.483E+01 -.370E-04 -.778E+03   0.479E+01 0.388E-04 0.779E+03   0.123E+00 -.771E-06 -.272E+00   -.291E-04 0.473E-05 -.688E-02
   -.326E-02 -.316E-03 -.231E+04   0.599E-04 0.293E-03 0.230E+04   0.337E-01 0.262E-04 0.792E+01   -.139E-04 -.153E-05 -.327E-02
   -.184E+02 0.185E+02 -.237E+04   0.184E+02 -.186E+02 0.236E+04   0.715E-02 0.231E-01 0.817E+01   -.294E-03 0.421E-03 -.370E-02
   0.164E-02 -.505E+00 0.494E+03   -.963E-05 0.496E+00 -.493E+03   -.150E-02 0.111E-01 -.521E-01   -.271E-05 -.242E-04 -.364E-02
   0.506E+00 0.102E-04 0.494E+03   -.494E+00 -.108E-04 -.493E+03   -.171E-01 -.877E-05 -.541E-01   0.654E-05 0.371E-05 -.364E-02
   0.255E-03 0.563E-05 0.148E+04   -.143E-05 -.290E-05 -.148E+04   -.223E-02 -.788E-05 0.250E+01   0.340E-05 0.240E-05 -.288E-02
   0.546E+00 -.527E+00 0.148E+04   -.546E+00 0.527E+00 -.148E+04   -.505E-02 0.671E-03 0.249E+01   -.533E-04 0.388E-04 -.277E-02
   -.104E-02 -.607E+01 -.146E+04   0.345E-04 0.606E+01 0.147E+04   0.662E-03 0.469E-02 -.456E+01   -.278E-05 -.214E-03 -.257E-02
   0.589E+01 0.111E-03 -.146E+04   -.590E+01 -.118E-03 0.147E+04   0.395E-02 0.759E-05 -.458E+01   0.164E-03 0.420E-07 -.264E-02
   0.206E-02 0.197E-05 -.468E+03   -.162E-04 -.201E-06 0.467E+03   0.131E-02 0.307E-05 0.246E+00   -.818E-05 -.333E-05 -.414E-02
   0.229E+01 -.228E+01 -.463E+03   -.228E+01 0.228E+01 0.463E+03   -.203E-01 0.535E-02 0.281E+00   0.532E-04 -.109E-03 -.402E-02
   0.163E-02 0.505E+00 0.494E+03   -.103E-04 -.496E+00 -.493E+03   -.149E-02 -.111E-01 -.518E-01   0.259E-05 0.300E-04 -.366E-02
   0.564E+00 -.504E-05 0.494E+03   -.574E+00 0.860E-05 -.494E+03   0.114E-01 -.113E-06 -.509E-01   -.188E-04 -.575E-05 -.357E-02
   0.238E-03 -.375E-05 0.148E+04   -.258E-05 0.282E-05 -.148E+04   -.223E-02 0.605E-05 0.250E+01   0.134E-04 -.147E-05 -.280E-02
   0.546E+00 0.527E+00 0.148E+04   -.546E+00 -.527E+00 -.148E+04   -.506E-02 -.675E-03 0.249E+01   -.420E-04 -.428E-04 -.277E-02
   -.995E-03 0.607E+01 -.146E+04   -.355E-06 -.606E+01 0.147E+04   0.648E-03 -.466E-02 -.456E+01   -.113E-06 0.196E-03 -.262E-02
   0.189E+02 -.109E-03 -.144E+04   -.188E+02 0.917E-04 0.144E+04   -.119E+00 0.189E-04 -.461E+01   0.304E-03 0.819E-05 -.221E-02
   0.272E-02 0.530E-05 -.464E+03   -.896E-05 -.271E-06 0.463E+03   -.223E-02 -.875E-05 0.299E+00   -.164E-05 -.285E-05 -.398E-02
   0.229E+01 0.228E+01 -.463E+03   -.228E+01 -.228E+01 0.463E+03   -.203E-01 -.535E-02 0.281E+00   0.578E-04 0.105E-03 -.402E-02
   0.161E-02 -.567E+00 0.494E+03   0.157E-04 0.581E+00 -.494E+03   -.149E-02 -.179E-01 -.551E-01   -.177E-05 -.213E-05 -.357E-02
   -.503E+00 0.192E-04 0.494E+03   0.494E+00 -.164E-04 -.493E+03   0.949E-02 -.288E-05 -.541E-01   -.108E-04 -.285E-06 -.365E-02
   0.235E-03 -.153E-04 0.148E+04   0.157E-05 -.613E-05 -.148E+04   -.223E-02 0.360E-04 0.249E+01   0.164E-04 0.976E-05 -.277E-02
   -.543E+00 -.527E+00 0.148E+04   0.546E+00 0.527E+00 -.148E+04   -.717E-02 0.685E-03 0.249E+01   0.776E-04 0.436E-04 -.279E-02
   -.305E-03 -.187E+02 -.144E+04   0.653E-04 0.186E+02 0.145E+04   0.107E-02 0.107E+00 -.462E+01   0.186E-04 -.309E-03 -.232E-02
   -.590E+01 0.122E-03 -.146E+04   0.590E+01 -.130E-03 0.147E+04   -.544E-02 0.142E-04 -.458E+01   -.118E-03 -.597E-05 -.264E-02
   0.224E-02 0.100E-03 -.464E+03   0.306E-04 -.365E-04 0.463E+03   -.116E-02 -.118E-03 0.264E+00   0.717E-06 -.218E-05 -.402E-02
   -.229E+01 -.228E+01 -.463E+03   0.228E+01 0.228E+01 0.463E+03   0.129E-01 0.471E-02 0.281E+00   -.602E-04 -.107E-03 -.402E-02
   0.162E-02 0.567E+00 0.494E+03   0.926E-05 -.581E+00 -.494E+03   -.149E-02 0.179E-01 -.548E-01   -.414E-05 0.341E-05 -.360E-02
   -.561E+00 -.129E-04 0.494E+03   0.574E+00 0.129E-04 -.494E+03   -.190E-01 0.348E-05 -.509E-01   0.762E-05 -.171E-05 -.357E-02
   0.255E-03 0.549E-05 0.148E+04   0.278E-05 0.605E-05 -.148E+04   -.222E-02 0.887E-05 0.249E+01   0.140E-04 -.671E-05 -.265E-02
   -.543E+00 0.527E+00 0.148E+04   0.546E+00 -.527E+00 -.148E+04   -.717E-02 -.686E-03 0.249E+01   0.683E-04 -.443E-04 -.279E-02
   -.279E-03 0.187E+02 -.144E+04   0.340E-04 -.186E+02 0.145E+04   0.108E-02 -.107E+00 -.462E+01   0.163E-04 0.302E-03 -.233E-02
   -.189E+02 -.939E-04 -.144E+04   0.188E+02 0.834E-04 0.144E+04   0.123E+00 -.123E-05 -.461E+01   -.271E-03 0.953E-05 -.217E-02
   0.162E-02 -.955E-04 -.460E+03   0.392E-04 0.367E-04 0.459E+03   0.243E-02 0.800E-04 0.139E+00   -.589E-06 0.526E-05 -.385E-02
   -.229E+01 0.228E+01 -.463E+03   0.228E+01 -.228E+01 0.463E+03   0.129E-01 -.471E-02 0.281E+00   -.592E-04 0.105E-03 -.403E-02
   -.973E-01 -.218E-02 0.256E+02   0.391E-12 0.227E-12 -.301E-11   0.583E+00 0.248E-02 -.248E+02   0.311E-03 -.134E-04 -.276E+00

 POSITION                                       TOTAL-FORCE (eV/Angst)
      5.27456      4.22047     12.92220         0.011581      0.001502      0.031284
      5.27456      5.11862     13.55207        -0.006632     -0.255846     -0.192545
      5.27456      3.32239     13.55206        -0.006628      0.254821     -0.191700
      6.17849      4.22049     12.29694        -0.227741     -0.000101      0.137314
      4.37063      4.22049     12.29694         0.211647     -0.000098      0.136922
      1.05407      6.33074      3.44793        -0.021738     -0.000047      0.373252
      3.16431      0.00000      3.44793        -0.026295     -0.000006      0.371418
      1.05407      0.00000      5.55818         0.044183     -0.000012      0.060755
      3.16431      6.33074      5.55818         0.040625     -0.000033      0.063146
      1.05407      6.33101      7.68286         0.039687     -0.008606      0.017063
      3.16425      8.44098      7.68273         0.044606     -0.000013      0.013367
      1.05407      8.44098      9.78832        -0.023276      0.000041     -0.014673
      3.16530      6.33156      9.78541        -0.015032      0.030628     -0.006334
      1.05407      2.11025      3.44793        -0.021708      0.000057      0.373103
      3.16431      4.22049      3.44793        -0.025834     -0.000049      0.371946
      1.05407      4.22049      5.55818         0.044017     -0.000003      0.064241
      3.16431      2.11025      5.55818         0.040625      0.000038      0.063136
      1.05407      2.10997      7.68286         0.039673      0.008612      0.016922
      3.16523      4.22049      7.68312        -0.002491     -0.000011      0.013335
      1.05407      4.22049      9.78466        -0.016816     -0.000034     -0.002395
      3.16530      2.10942      9.78541        -0.015049     -0.030669     -0.006259
      5.27456      6.33074      3.44793        -0.021768     -0.000282      0.375745
      7.38480      0.00000      3.44793        -0.025201     -0.000019      0.371534
      5.27456      0.00000      5.55818         0.043954     -0.000027      0.067088
      7.38480      6.33074      5.55818         0.040007     -0.000037      0.062923
      5.27456      6.32990      7.68374         0.039106      0.016403      0.019589
      7.38487      0.00000      7.68273         0.033916     -0.000006      0.011991
      5.27456      8.44098      9.78620        -0.019250      0.000063     -0.005203
      7.38382      6.33156      9.78541        -0.030275      0.040067     -0.002770
      5.27456      2.11025      3.44793        -0.021797      0.000092      0.375926
      7.38480      4.22049      3.44793        -0.025865      0.000019      0.372012
      5.27456      4.22049      5.55818         0.044307      0.000001      0.065705
      7.38480      2.11025      5.55818         0.040011      0.000035      0.062956
      5.27456      2.11108      7.68374         0.039109     -0.016385      0.020160
      7.38389      4.22049      7.68312         0.075346      0.000002      0.015005
      5.27456      4.22049      9.79754         0.023482     -0.000003      0.073485
      7.38382      2.10942      9.78541        -0.030274     -0.040090     -0.002774
      1.05407      6.33074      5.55818        -0.010253      0.002604      0.071328
      3.16431      0.00000      5.55818        -0.015986     -0.000012      0.066152
      1.05407      0.00000      3.44793        -0.009553     -0.000008     -0.316469
      3.16431      6.33074      3.44793        -0.012047      0.000143     -0.322533
      1.05407      6.33109      9.83385        -0.006869     -0.003935     -0.189168
      3.16380      0.00000      9.83460        -0.003493     -0.000000     -0.198317
      1.05407      8.44098      7.67820        -0.007006     -0.000003     -0.012684
      3.16367      6.33085      7.67698        -0.015419      0.000921     -0.014610
      1.05407      2.11025      5.55818        -0.010250     -0.002618      0.071501
      3.16431      4.22049      5.55818        -0.009311     -0.000007      0.070058
      1.05407      4.22049      3.44793        -0.009557      0.000000     -0.315762
      3.16431      2.11025      3.44793        -0.012053     -0.000153     -0.322547
      1.05407      2.10989      9.83385        -0.006863      0.003950     -0.189244
      3.16220      4.22049      9.83429        -0.017551      0.000008     -0.187527
      1.05407      4.22049      7.67618        -0.009856     -0.000012     -0.010300
      3.16367      2.11014      7.67698        -0.015416     -0.000923     -0.014605
      5.27456      6.33074      5.55818        -0.010243     -0.004235      0.075189
      7.38480      0.00000      5.55818        -0.009527     -0.000005      0.066145
      5.27456      0.00000      3.44793        -0.009561      0.000023     -0.317319
      7.38480      6.33074      3.44793        -0.012529      0.000146     -0.322438
      5.27456      6.33193      9.82917        -0.006331      0.008877     -0.170064
      7.38531      0.00000      9.83460        -0.011443     -0.000001     -0.197998
      5.27456      8.44098      7.67598        -0.009179     -0.000067     -0.012961
      7.38544      6.33085      7.67698        -0.008683     -0.000182     -0.014751
      5.27456      2.11025      5.55818        -0.010237      0.004204      0.075453
      7.38480      4.22049      5.55818        -0.016167     -0.000002      0.070167
      5.27456      4.22049      3.44793        -0.009540      0.000011     -0.317433
      7.38480      2.11025      3.44793        -0.012524     -0.000155     -0.322435
      5.27456      2.10905      9.82917        -0.006333     -0.008768     -0.170141
      7.38692      4.22049      9.83429         0.006511     -0.000007     -0.185592
      5.27456      4.22049      7.67977        -0.006266      0.000028     -0.003021
      7.38544      2.11014      7.67698        -0.008678      0.000175     -0.014741
    total drift:                                0.486303      0.000291      0.498423

  FREE ENERGIE OF THE ION-ELECTRON SYSTEM (eV)
  free  energy   TOTEN  =      -556.39890241 eV

  energy  without entropy=     -556.39890241  energy(sigma->0) =     -556.39890241