 vasp.6.3.0 20Jan22 (build Apr  1 2022 16:44:48) gamma-only
 executed on        HPECrayEX_GCC date 2023.03.12  06:25:59

 INCAR:
   SYSTEM = MgO-rocksalt
   ISMEAR = 0
   SIGMA = 0.05
   EDIFF = 1E-6
   ALGO = ALL
   ISTART = 0
   IBRION = -1
   NSW = 0
   ISYM = 0
   DIPOL = 0.5 0.5 0.5
   IDIPOL = 3
   LDIPOL = .TRUE.
   LHFCALC = .TRUE.
   GGA = B5
   AEXX = 0.2
   AGGAX = 0.72
   AGGAC = 0.81
   ALDAC = 0.19
   IVDW = 1
   VDW_S6 = 1.05
   VDW_C6 = 0.63 0.70
   VDW_R0 = 1.243 1.342
   ENCUT = 520
   PREC = Accurate
   LASPH = .TRUE.
   LREAL = Auto
   ISPIN = 1
   NELM = 200
   NELMIN = 8
   NCORE = 8
   KPAR = 1
   LWAVE = .FALSE.
   LCHARG = .FALSE.

 POTCAR:    PAW_PBE Mg_pv 13Apr2007
 POTCAR:    PAW_PBE O 08Apr2002
 POTCAR:    PAW_PBE Mg_pv 13Apr2007
   VRHFIN =Mg: p6s2

   TITEL  = PAW_PBE Mg_pv 13Apr2007
   POMASS =   24.305; ZVAL   =    8.000    mass and valenz
   ENMAX  =  403.929; ENMIN  =  302.947 eV

   TITEL  = PAW_PBE O 08Apr2002
   POMASS =   16.000; ZVAL   =    6.000    mass and valenz
   ENMAX  =  400.000; ENMIN  =  300.000 eV

 Optimization of the real space projectors (new method)

 maximal supplied QI-value         = 18.90
 optimisation between [QCUT,QGAM] = [ 11.53, 23.24] = [ 37.21,151.29] Ry
 Optimized for a Real-space Cutoff    1.28 Angstroem

   l    n(q)    QCUT    max X(q) W(low)/X(q) W(high)/X(q)  e(spline)
   1      8    11.527     2.974    0.44E-04    0.56E-04    0.12E-06
   1      8    11.527     4.279    0.12E-03    0.12E-03    0.26E-06
   0      9    11.527    16.381    0.46E-04    0.64E-04    0.78E-07
   0      9    11.527     5.611    0.26E-04    0.43E-04    0.55E-07
   2      8    11.527     4.652    0.22E-03    0.72E-04    0.47E-07
 Optimization of the real space projectors (new method)

 maximal supplied QI-value         = 24.76
 optimisation between [QCUT,QGAM] = [ 11.64, 23.27] = [ 37.91,151.63] Ry
 Optimized for a Real-space Cutoff    1.14 Angstroem

   l    n(q)    QCUT    max X(q) W(low)/X(q) W(high)/X(q)  e(spline)
   0      8    11.635    20.381    0.10E-03    0.33E-03    0.24E-06
   0      8    11.635    15.268    0.11E-03    0.35E-03    0.26E-06
   1      7    11.635     5.964    0.24E-03    0.31E-03    0.30E-06
   1      7    11.635     5.382    0.22E-03    0.25E-03    0.26E-06
|               ----> ADVICE to this user running VASP <----                  |
|     You enforced a specific xc type in the INCAR file but a different       |
|     type was found in the POTCAR file.                                      |
|     I HOPE YOU KNOW WHAT YOU ARE DOING!                                     |

  PAW_PBE Mg_pv 13Apr2007               :
  PAW_PBE O 08Apr2002                   :

 POSCAR: Mg  O
  positions in direct lattice
 exchange correlation table for  LEXCH =       12
   RHO(1)=    0.500       N(1)  =     2000
   RHO(2)=  100.500       N(2)  =     4000

 ion  position               nearest neighbor table
   1  0.125  0.000  0.353- 131 2.09 132 2.09 148 2.09 171 2.09 129 2.09
   2  0.250  0.125  0.353- 131 2.09 132 2.09 140 2.09 147 2.09 130 2.09
   3  0.125  0.125  0.451- 129 2.09 130 2.09 137 2.09 146 2.09 131 2.09 135 2.09
   4  0.250  0.000  0.451- 129 2.09 130 2.09 145 2.09 170 2.09 132 2.09 136 2.09
   5  0.125  1.000  0.549- 136 2.09 135 2.09 175 2.09 152 2.09 129 2.09 133 2.12
   6  0.250  0.125  0.549- 144 2.08 151 2.08 135 2.09 136 2.09 130 2.09 134 2.12
   7  0.125  0.125  0.647- 135 2.07 134 2.08 150 2.09 141 2.09 133 2.09
   8  0.250  1.000  0.647- 136 2.07 134 2.08 174 2.09 149 2.09 133 2.09
   9  0.125  0.250  0.353- 131 2.09 139 2.09 140 2.09 156 2.09 137 2.09
  10  0.250  0.375  0.353- 139 2.09 140 2.09 155 2.09 164 2.09 138 2.09
  11  0.125  0.375  0.451- 143 2.09 138 2.09 137 2.09 154 2.09 161 2.09 139 2.09
  12  0.250  0.250  0.451- 144 2.08 137 2.09 138 2.09 130 2.09 153 2.09 140 2.09
  13  0.125  0.250  0.549- 144 2.08 160 2.09 143 2.09 135 2.09 137 2.09 141 2.13
  14  0.250  0.375  0.550- 159 2.07 144 2.09 168 2.09 138 2.10 143 2.10 142 2.12
  15  0.125  0.375  0.646- 143 2.07 142 2.07 158 2.09 165 2.09 141 2.09
  16  0.250  0.250  0.646- 144 2.06 157 2.06 141 2.09 134 2.09 142 2.09
  17  0.375  0.000  0.353- 132 2.09 147 2.09 187 2.09 212 2.09 145 2.09
  18  0.000  0.125  0.353- 131 2.09 148 2.09 156 2.09 211 2.09 146 2.09
  19  0.375  0.125  0.451- 151 2.08 145 2.09 130 2.09 153 2.09 210 2.09 147 2.09
  20  0.000  0.000  0.451- 129 2.09 146 2.09 186 2.09 209 2.09 148 2.09 152 2.09
  21  0.375  1.000  0.549- 151 2.08 191 2.09 216 2.09 136 2.09 145 2.09 149 2.12
  22  0.000  0.125  0.549- 135 2.08 215 2.08 160 2.09 152 2.09 146 2.09 150 2.12
  23  0.375  0.125  0.646- 151 2.06 157 2.07 149 2.09 134 2.09 214 2.09
  24  0.000  1.000  0.647- 152 2.07 133 2.08 213 2.08 190 2.09 150 2.09
  25  0.375  0.250  0.353- 140 2.09 147 2.09 155 2.09 220 2.09 153 2.09
  26  0.000  0.375  0.353- 139 2.09 156 2.09 180 2.09 219 2.09 154 2.09
  27  0.375  0.375  0.451- 138 2.09 153 2.09 177 2.09 218 2.09 155 2.09 159 2.10
  28  0.000  0.250  0.451- 137 2.09 146 2.09 154 2.09 217 2.09 156 2.09 160 2.09
  29  0.375  0.250  0.550- 159 2.08 224 2.08 157 2.10 144 2.10 151 2.10 153 2.11
  30  0.000  0.375  0.549- 143 2.08 223 2.08 160 2.09 184 2.09 154 2.09 158 2.12
  31  0.375  0.375  0.650- 222 2.10 142 2.10 157 2.11 181 2.12 159 2.13
  32  0.000  0.250  0.647- 160 2.07 221 2.08 141 2.08 150 2.09 158 2.09
  33  0.125  0.500  0.353- 139 2.09 163 2.09 164 2.09 180 2.09 161 2.09
  34  0.250  0.625  0.353- 163 2.09 164 2.09 172 2.09 179 2.09 162 2.09
  35  0.125  0.625  0.451- 161 2.09 162 2.09 169 2.09 178 2.09 163 2.09 167 2.09
  36  0.250  0.500  0.451- 168 2.08 161 2.09 162 2.09 138 2.09 177 2.09 164 2.09
  37  0.125  0.500  0.549- 168 2.08 184 2.09 143 2.09 167 2.09 161 2.09 165 2.12
  38  0.250  0.625  0.549- 183 2.08 168 2.09 176 2.09 167 2.09 162 2.09 166 2.12
  39  0.125  0.625  0.647- 167 2.07 166 2.08 182 2.09 165 2.09 173 2.09
  40  0.250  0.500  0.646- 168 2.06 181 2.07 165 2.09 166 2.09 142 2.09
  41  0.125  0.750  0.353- 163 2.09 171 2.09 172 2.09 188 2.09 169 2.09
  42  0.250  0.875  0.353- 132 2.09 171 2.09 172 2.09 187 2.09 170 2.09
  43  0.125  0.875  0.451- 129 2.09 169 2.09 170 2.09 186 2.09 171 2.09 175 2.09
  44  0.250  0.750  0.451- 162 2.09 169 2.09 170 2.09 185 2.09 172 2.09 176 2.09
  45  0.125  0.750  0.549- 176 2.09 167 2.09 175 2.09 192 2.09 169 2.09 173 2.12
  46  0.250  0.875  0.549- 176 2.08 136 2.08 191 2.09 175 2.09 170 2.09 174 2.12
  47  0.125  0.875  0.647- 175 2.07 133 2.08 173 2.09 190 2.09 174 2.09
  48  0.250  0.750  0.647- 176 2.07 166 2.08 174 2.09 189 2.09 173 2.09
  49  0.375  0.500  0.353- 155 2.09 164 2.09 179 2.09 244 2.09 177 2.09
  50  0.000  0.625  0.353- 163 2.09 180 2.09 188 2.09 243 2.09 178 2.09
  51  0.375  0.625  0.451- 183 2.08 177 2.09 162 2.09 185 2.09 242 2.09 179 2.09
  52  0.000  0.500  0.451- 154 2.09 161 2.09 178 2.09 241 2.09 180 2.09 184 2.09
  53  0.376  0.499  0.550- 159 2.08 248 2.08 181 2.10 183 2.10 168 2.10 177 2.11
  54  1.000  0.625  0.549- 247 2.09 167 2.09 192 2.09 184 2.09 178 2.09 182 2.12
  55  0.375  0.625  0.646- 183 2.06 181 2.06 189 2.09 166 2.09 246 2.09
  56  0.000  0.500  0.647- 184 2.07 245 2.08 165 2.08 182 2.09 158 2.09
  57  0.375  0.750  0.353- 172 2.09 179 2.09 187 2.09 252 2.09 185 2.09
  58  0.000  0.875  0.353- 148 2.09 171 2.09 188 2.09 251 2.09 186 2.09
  59  0.375  0.875  0.451- 145 2.09 170 2.09 185 2.09 250 2.09 187 2.09 191 2.09
  60  0.000  0.750  0.451- 169 2.09 178 2.09 186 2.09 249 2.09 188 2.09 192 2.09
[...]
 242  0.500  0.625  0.451-  51 2.09  99 2.09 116 2.09 124 2.09 114 2.09 118 2.10
 243  0.875  0.625  0.353-  50 2.09  98 2.09 113 2.09 121 2.09 115 2.09
 244  0.500  0.500  0.353-  49 2.09  90 2.09  97 2.09 114 2.09 116 2.09
 245  0.875  0.500  0.649-  56 2.08 119 2.09 104 2.09  95 2.09 117 2.13
 246  0.500  0.626  0.649- 128 2.07  55 2.09 103 2.09 120 2.10 118 2.12
 247  0.875  0.625  0.549- 119 2.07  54 2.09 125 2.09 115 2.09 102 2.09 117 2.09
 248  0.500  0.500  0.550- 118 2.07 101 2.08  53 2.08  94 2.09 116 2.10 120 2.13
 249  0.875  0.750  0.451-  60 2.09 108 2.09 115 2.09 123 2.09 121 2.09 125 2.09
 250  0.500  0.875  0.451-  59 2.09  84 2.09 107 2.09 124 2.09 122 2.09 126 2.09
 251  0.875  0.875  0.353-  58 2.09  81 2.09 106 2.09 121 2.09 123 2.09
 252  0.500  0.750  0.353-  57 2.09 105 2.09 114 2.09 122 2.09 124 2.09
 253  0.875  0.750  0.649- 127 2.08  64 2.09 119 2.09 112 2.09 125 2.12
 254  0.500  0.875  0.649-  88 2.08 128 2.09 111 2.09  63 2.09 126 2.12
 255  0.875  0.875  0.549- 127 2.07  62 2.09  85 2.09 125 2.09 110 2.09 123 2.09
 256  0.500  0.750  0.549- 128 2.07 126 2.08 124 2.09 109 2.09  61 2.09 118 2.10

IMPORTANT INFORMATION: All symmetrisations will be switched off!
NOSYMM: (Re-)initialisation of all symmetry stuff for point group C_1.

                                     Primitive cell

  volume of cell :    5928.4515

  direct lattice vectors                    reciprocal lattice vectors
    16.698223653  0.000000000  0.000000000     0.059886610  0.000000000  0.000000000
     0.000000000 16.698223653  0.000000000     0.000000000  0.059886610  0.000000000
     0.000000000  0.000000000 21.261833870     0.000000000  0.000000000  0.047032632

  length of vectors
    16.698223653 16.698223653 21.261833870     0.059886610  0.059886610  0.047032632

  position of ions in fractional coordinates (direct lattice)
     0.125000000  0.000000000  0.352744737
     0.250000000  0.125000000  0.352744737
     0.125000000  0.125000000  0.450914912
     0.250000000  0.000000000  0.450914912
     0.124943058  0.999925251  0.549366778
     0.249938436  0.124943109  0.549192651
     0.124880922  0.124781382  0.646572128
     0.249801596  0.999854099  0.646561154
     0.125000000  0.250000000  0.352744737
     0.250000000  0.375000000  0.352744737
     0.125000000  0.375000000  0.450914912
     0.250000000  0.250000000  0.450914912
     0.124942521  0.249979771  0.549251213
     0.250418634  0.374950920  0.549565291
     0.124825198  0.375000144  0.646277945
     0.249742491  0.249627360  0.645796541
     0.375000000  0.000000000  0.352744737
     0.000000000  0.125000000  0.352744737
     0.375000000  0.125000000  0.450914912
     0.000000000  0.000000000  0.450914912
     0.374965746  0.999905671  0.549231359
     0.000005080  0.124913254  0.549358273
     0.374683080  0.124704120  0.645696304
     0.000001401  0.999868359  0.646680745
     0.375000000  0.250000000  0.352744737
     0.000000000  0.375000000  0.352744737
     0.375000000  0.375000000  0.450914912
     0.000000000  0.250000000  0.450914912
     0.375449967  0.250491032  0.549965802
     0.000006721  0.374990559  0.549276140
     0.374500542  0.374773764  0.649950330
     0.000002417  0.249839702  0.646593345
     0.125000000  0.500000000  0.352744737
     0.250000000  0.625000000  0.352744737
     0.125000000  0.625000000  0.450914912
     0.250000000  0.500000000  0.450914912
     0.124956664  0.500004803  0.549248185
     0.249978866  0.625026203  0.549216741
     0.124901929  0.625161855  0.646562494
     0.249786463  0.500234411  0.645762735
     0.125000000  0.750000000  0.352744737
     0.250000000  0.875000000  0.352744737
[...]
   4.17420301 10.43682732 11.67735511
   2.08564035 10.43909247 13.74710433
   4.17099022  8.35302607 13.73010000
   2.08727796 12.52366774  7.50000000
   4.17455591 14.61094570  7.50000000
   2.08727796 14.61094570  9.58727796
   4.17455591 12.52366774  9.58727796
   2.08645867 12.52447647 11.68078228
   4.17321696 14.61043477 11.68049143
   2.08569870 14.61054365 13.74968255
   4.17168727 12.52497319 13.74790276
   6.26183387  8.34911183  7.50000000
   0.00000000 10.43638978  7.50000000
   6.26183387 10.43638978  9.58727796
   0.00000000  8.34911183  9.58727796
   6.27067127  8.34043792 11.69439148
  16.69819165 10.43773309 11.68035053
   6.25708013 10.43896865 13.73250827
   0.00004993  8.35143576 13.74731089
   6.26183387 12.52366774  7.50000000
   0.00000000 14.61094570  7.50000000
   6.26183387 14.61094570  9.58727796
   0.00000000 12.52366774  9.58727796
[...]
   8.34911183 10.43638978  9.58727796
  14.61094570 10.43638978  7.50000000
   8.34911183  8.34911183  7.50000000
  14.61464251  8.35263168 13.80328868
   8.34882261 10.45734971 13.80292379
  14.61303175 10.43855653 11.67541621
   8.34982754  8.35503738 11.68788434
  14.61094570 12.52366774  9.58727796
   8.34911183 14.61094570  9.58727796
  14.61094570 14.61094570  7.50000000
   8.34911183 12.52366774  7.50000000
  14.61382482 12.52623803 13.80278155
   8.34911748 14.61051186 13.80255759
  14.61220484 14.61075342 11.67614313
   8.34917008 12.52700550 11.67398144

--------------------------------------- Iteration      FINAL  ---------------------------------------

--------------------OUTCAR has been truncated-------------------------

[...]

--------------------OUTCAR has been truncated-------------------------

  DFT-D2 method for vdW energy calculation

  Parameters of vdW forcefield:
         C6(Jnm^6/mol)     R0(A)
   Mg       0.630          1.243
   O        0.700          1.342

  vdW correction parametrized for the method Äqý      

  IVDW =   1
  VDW_RADIUS =    50.000 A
  VDW_S6 =     1.050
  VDW_SR =     1.000
  VDW_D =    20.000
  LVDW_EWALD = F

  Number of pair interactions contributing to vdW energy: 2935706
  Edisp (eV):  -21.27614

 VOLUME and BASIS-vectors are now :
  energy-cutoff  :      520.00
  volume of cell :     5928.45
      direct lattice vectors                 reciprocal lattice vectors
    16.698223653  0.000000000  0.000000000     0.059886610  0.000000000  0.000000000
     0.000000000 16.698223653  0.000000000     0.000000000  0.059886610  0.000000000
     0.000000000  0.000000000 21.261833870     0.000000000  0.000000000  0.047032632

  length of vectors
    16.698223653 16.698223653 21.261833870     0.059886610  0.059886610  0.047032632

 FORCES acting on ions:
    Electron-Ion                     Ewald-Force                    Non-Local-Force
   -.295E+00 -.267E+00 0.213E+04   0.285E+00 0.257E+00 -.212E+04   0.668E-02 0.685E-02 -.645E+01
   -.854E+00 -.881E+00 0.213E+04   0.843E+00 0.871E+00 -.212E+04   0.761E-02 0.688E-02 -.643E+01
   -.628E+00 -.720E+00 0.706E+03   0.590E+00 0.681E+00 -.706E+03   0.250E-01 0.254E-01 0.328E+00
   -.674E+00 -.588E+00 0.706E+03   0.634E+00 0.547E+00 -.707E+03   0.269E-01 0.266E-01 0.318E+00
   -.532E+00 -.549E+00 -.709E+03   0.505E+00 0.520E+00 0.709E+03   0.159E-01 0.194E-01 -.186E+00
   -.145E+01 -.140E+01 -.707E+03   0.135E+01 0.131E+01 0.707E+03   0.524E-01 0.403E-01 -.694E-01
   -.226E+00 -.159E+01 -.211E+04   0.241E+00 0.156E+01 0.210E+04   -.340E-01 0.177E-01 0.529E+01
   -.155E+01 -.109E+00 -.211E+04   0.153E+01 0.141E+00 0.210E+04   0.118E-01 -.498E-01 0.527E+01
   -.743E+00 -.473E+00 0.213E+04   0.736E+00 0.464E+00 -.212E+04   0.447E-02 0.606E-02 -.644E+01
   -.157E+01 -.927E-01 0.213E+04   0.157E+01 0.929E-01 -.212E+04   0.216E-03 0.915E-04 -.643E+01
   -.212E+01 -.136E+00 0.705E+03   0.212E+01 0.134E+00 -.706E+03   0.420E-02 0.113E-02 0.311E+00
   -.368E+01 -.206E+01 0.705E+03   0.368E+01 0.206E+01 -.705E+03   0.579E-02 0.612E-02 0.302E+00
   -.312E+00 -.112E+01 -.709E+03   0.262E+00 0.108E+01 0.709E+03   -.845E-03 0.148E-01 -.101E+00
   -.420E+01 -.433E+00 -.712E+03   0.435E+01 0.438E+00 0.712E+03   -.224E+00 -.129E-03 -.113E+00
   0.105E+01 -.102E+00 -.211E+04   -.107E+01 0.101E+00 0.210E+04   -.730E-01 -.274E-02 0.523E+01
   0.773E+00 -.295E+01 -.210E+04   -.106E+01 0.262E+01 0.210E+04   0.618E-01 0.240E+00 0.530E+01
   -.411E+00 -.681E+00 0.213E+04   0.402E+00 0.674E+00 -.212E+04   0.652E-02 0.515E-02 -.644E+01
   -.800E-02 -.383E+00 0.213E+04   0.797E-02 0.370E+00 -.212E+04   0.254E-04 0.923E-02 -.645E+01
   -.186E+01 -.370E+01 0.705E+03   0.185E+01 0.371E+01 -.705E+03   0.654E-02 0.209E-02 0.296E+00
   -.109E-01 -.298E+00 0.706E+03   0.107E-01 0.276E+00 -.706E+03   0.111E-03 0.146E-01 0.328E+00
   -.102E+01 -.353E+00 -.708E+03   0.979E+00 0.288E+00 0.709E+03   0.213E-01 0.157E-01 -.106E+00
   -.162E-01 -.960E+00 -.709E+03   0.175E-01 0.926E+00 0.710E+03   -.155E-02 0.234E-01 -.183E+00
   -.340E+01 -.194E+00 -.210E+04   0.301E+01 -.180E+00 0.210E+04   0.280E+00 0.149E+00 0.533E+01
   -.534E-02 -.980E+00 -.211E+04   0.454E-02 0.951E+00 0.210E+04   0.409E-03 0.242E-01 0.529E+01
   -.114E+01 -.124E+01 0.212E+04   0.114E+01 0.124E+01 -.212E+04   0.937E-04 -.133E-02 -.644E+01
   -.128E-01 -.561E-01 0.213E+04   0.127E-01 0.562E-01 -.212E+04   0.823E-04 0.240E-03 -.644E+01
   -.463E+01 -.305E+00 0.698E+03   0.469E+01 0.312E+00 -.699E+03   -.294E-01 -.384E-02 0.551E+00
   -.244E-01 -.468E+00 0.706E+03   0.268E-01 0.438E+00 -.706E+03   -.158E-02 0.200E-01 0.341E+00
   -.455E+01 -.456E+01 -.714E+03   0.475E+01 0.476E+01 0.714E+03   -.241E+00 -.244E+00 -.328E+00
   -.365E-01 -.155E+00 -.709E+03   0.363E-01 0.155E+00 0.709E+03   -.255E-03 0.872E-03 -.153E+00
   -.393E+01 -.158E+01 -.214E+04   0.313E+01 0.147E+01 0.213E+04   0.532E+00 0.122E+00 0.622E+01
   -.119E-01 -.154E+01 -.211E+04   0.133E-01 0.149E+01 0.210E+04   -.620E-03 0.439E-01 0.529E+01
   -.777E+00 0.386E+00 0.213E+04   0.770E+00 -.378E+00 -.212E+04   0.406E-02 -.611E-02 -.644E+01
   -.916E+00 0.891E+00 0.213E+04   0.906E+00 -.881E+00 -.212E+04   0.643E-02 -.727E-02 -.643E+01
   -.750E+00 0.732E+00 0.706E+03   0.716E+00 -.694E+00 -.706E+03   0.224E-01 -.255E-01 0.322E+00
   -.381E+01 0.182E+01 0.705E+03   0.383E+01 -.181E+01 -.705E+03   -.312E-02 -.282E-02 0.309E+00
   -.574E+00 0.919E+00 -.708E+03   0.513E+00 -.884E+00 0.709E+03   0.106E-01 -.142E-01 -.115E+00
   -.167E+01 0.163E+01 -.707E+03   0.158E+01 -.153E+01 0.707E+03   0.415E-01 -.535E-01 -.811E-01
   -.210E+00 0.154E+01 -.211E+04   0.239E+00 -.153E+01 0.210E+04   -.467E-01 -.821E-02 0.529E+01
   -.446E+00 0.322E+01 -.210E+04   0.745E-01 -.286E+01 0.210E+04   0.152E+00 -.260E+00 0.531E+01
   -.328E+00 0.353E+00 0.213E+04   0.318E+00 -.343E+00 -.212E+04   0.630E-02 -.669E-02 -.645E+01
   -.388E+00 0.816E-01 0.213E+04   0.374E+00 -.824E-01 -.212E+04   0.948E-02 0.755E-03 -.645E+01
   -.354E+00 0.117E+00 0.706E+03   0.334E+00 -.119E+00 -.706E+03   0.133E-01 0.857E-03 0.325E+00
   -.771E+00 0.805E+00 0.706E+03   0.735E+00 -.771E+00 -.706E+03   0.238E-01 -.228E-01 0.333E+00
   -.647E+00 0.713E+00 -.709E+03   0.622E+00 -.690E+00 0.709E+03   0.149E-01 -.149E-01 -.186E+00
   -.100E+01 0.240E+00 -.709E+03   0.969E+00 -.238E+00 0.710E+03   0.235E-01 -.305E-03 -.181E+00
   -.955E+00 0.142E+00 -.211E+04   0.929E+00 -.138E+00 0.210E+04   0.200E-01 -.319E-02 0.529E+01
   -.161E+01 0.392E+00 -.211E+04   0.158E+01 -.410E+00 0.210E+04   0.147E-01 0.354E-01 0.529E+01
   -.118E+01 0.109E+01 0.212E+04   0.118E+01 -.109E+01 -.212E+04   -.932E-03 0.164E-03 -.644E+01
   -.993E-02 0.389E+00 0.213E+04   0.966E-02 -.376E+00 -.212E+04   0.184E-03 -.973E-02 -.645E+01
   -.202E+01 0.378E+01 0.705E+03   0.201E+01 -.379E+01 -.705E+03   0.309E-02 0.119E-02 0.303E+00
   -.317E-01 0.345E+00 0.706E+03   0.294E-01 -.315E+00 -.706E+03   0.164E-02 -.195E-01 0.346E+00
   -.443E+01 0.434E+01 -.715E+03   0.464E+01 -.454E+01 0.715E+03   -.252E+00 0.246E+00 -.316E+00
   -.260E-01 0.102E+01 -.709E+03   0.239E-01 -.983E+00 0.710E+03   0.197E-02 -.237E-01 -.187E+00
   -.283E+01 -.665E+00 -.210E+04   0.252E+01 0.946E+00 0.210E+04   0.222E+00 -.550E-01 0.529E+01
   0.866E-03 0.143E+01 -.211E+04   -.719E-02 -.138E+01 0.210E+04   0.429E-02 -.455E-01 0.530E+01
   -.443E+00 0.831E+00 0.213E+04   0.435E+00 -.825E+00 -.212E+04   0.621E-02 -.374E-02 -.644E+01
   -.516E-02 0.501E-01 0.213E+04   0.504E-02 -.502E-01 -.212E+04   0.766E-04 0.364E-03 -.645E+01
   -.406E+00 0.214E+00 0.706E+03   0.375E+00 -.221E+00 -.706E+03   0.202E-01 0.454E-02 0.341E+00
   -.110E-01 0.413E+00 0.706E+03   0.108E-01 -.393E+00 -.706E+03   0.148E-03 -.136E-01 0.322E+00
[...]
   0.378E+00 0.371E+00 0.160E+04   -.372E+00 -.363E+00 -.160E+04   -.750E-02 -.932E-02 0.310E+01
   0.658E-02 0.981E+00 0.159E+04   -.664E-02 -.983E+00 -.160E+04   0.730E-04 0.290E-02 0.310E+01
   0.111E+01 0.122E+01 -.161E+04   -.108E+01 -.125E+01 0.161E+04   -.646E-01 0.112E-01 -.505E+01
   -.424E+00 0.601E+01 -.161E+04   0.407E+00 -.567E+01 0.161E+04   0.282E-01 -.592E+00 -.464E+01
   0.805E+00 0.991E+00 -.526E+03   -.810E+00 -.998E+00 0.526E+03   -.122E-01 -.898E-02 0.197E+00
   -.118E+00 0.615E+01 -.538E+03   0.126E+00 -.622E+01 0.538E+03   -.946E-02 -.261E-01 0.775E-01
   0.339E+00 0.359E+00 0.529E+03   -.335E+00 -.356E+00 -.529E+03   -.137E-02 -.321E-02 -.959E-01
   0.903E-02 0.167E+00 0.529E+03   -.884E-02 -.162E+00 -.529E+03   -.211E-03 -.689E-02 -.577E-01
   0.181E+00 0.460E-01 0.160E+04   -.176E+00 -.461E-01 -.160E+04   -.691E-02 -.140E-03 0.310E+01
   0.176E-02 0.742E+00 0.160E+04   -.200E-02 -.738E+00 -.160E+04   0.293E-03 -.460E-02 0.311E+01
   0.817E+00 0.849E+00 -.161E+04   -.837E+00 -.867E+00 0.161E+04   0.951E-02 0.660E-02 -.491E+01
   0.282E-02 0.150E+00 -.161E+04   -.180E-02 -.161E+00 0.161E+04   -.148E-02 0.912E-02 -.499E+01
   0.488E+00 0.135E+00 -.526E+03   -.488E+00 -.132E+00 0.526E+03   -.553E-02 -.334E-02 0.190E+00
   0.107E-01 0.331E+01 -.525E+03   -.115E-01 -.341E+01 0.524E+03   0.357E-03 0.446E-01 0.328E+00
   -.219E-01 -.946E-01 0.835E+02   0.277E-11 -.126E-11 -.819E-11   0.241E-01 0.866E-01 -.735E+02

 POSITION                                       TOTAL-FORCE (eV/Angst)
      2.08728      0.00000      7.50000        -0.002144     -0.002221      0.311928
      4.17456      2.08728      7.50000        -0.002448     -0.002137      0.308460
      2.08728      2.08728      9.58728        -0.010290     -0.009937      0.020063
      4.17456      0.00000      9.58728        -0.010522     -0.010877      0.021680
      2.08633     16.69698     11.68055        -0.008516     -0.007464      0.060676
      4.17353      2.08633     11.67684        -0.046471     -0.049013      0.048368
      2.08529      2.08363     13.74731        -0.020378     -0.006078      0.233223
      4.17124     16.69579     13.74708        -0.006608     -0.019977      0.230373
      2.08728      4.17456      7.50000        -0.001477     -0.001908      0.309214
      4.17456      6.26183      7.50000        -0.000451     -0.000046      0.308047
      2.08728      6.26183      9.58728         0.005058     -0.000335      0.019642
      4.17456      4.17456      9.58728         0.006314     -0.000978      0.011973
      2.08632      4.17422     11.67809        -0.046741     -0.018462      0.063473
      4.18155      6.26101     11.68477        -0.092805      0.003615     -0.023489
      2.08436      6.26184     13.74105        -0.089378     -0.003635      0.286031
      4.17026      4.16833     13.73082        -0.207238     -0.068232      0.305722
      6.26183      0.00000      7.50000        -0.002119     -0.001730      0.308868
      0.00000      2.08728      7.50000        -0.000024     -0.002948      0.311336
      6.26183      2.08728      9.58728        -0.000858      0.007866      0.010736
      0.00000      0.00000      9.58728        -0.000087     -0.005309      0.029337
      6.26126     16.69665     11.67767        -0.016492     -0.044306      0.063435
      0.00008      2.08583     11.68036        -0.000379     -0.008874      0.063663
      6.25654      2.08234     13.72869        -0.074869     -0.196036      0.317365
      0.00002     16.69603     13.74962        -0.000338     -0.001711      0.215245
      6.26183      4.17456      7.50000        -0.000202      0.000222      0.308306
      0.00000      6.26183      7.50000        -0.000051     -0.000117      0.308857
      6.26183      6.26183      9.58728         0.022473      0.002003      0.032092
      0.00000      4.17456      9.58728         0.000612     -0.007771      0.021009
      6.26935      4.18276     11.69328        -0.060608     -0.065200     -0.124544
      0.00011      6.26168     11.67862        -0.000508      0.000996      0.072983
      6.25349      6.25806     13.81914        -0.209410      0.020403     -0.432527
      0.00004      4.17188     13.74776         0.000633      0.000646      0.231665
      2.08728      8.34911      7.50000        -0.001367      0.001939      0.308831
      4.17456     10.43639      7.50000        -0.002074      0.002361      0.308529
      2.08728     10.43639      9.58728        -0.009128      0.009720      0.020632
      4.17456      8.34911      9.58728         0.010422     -0.000738      0.016385
      2.08655      8.34919     11.67802        -0.045895      0.017861      0.062907
      4.17420     10.43683     11.67736        -0.046094      0.045051      0.047928
      2.08564     10.43909     13.74710        -0.020141      0.005793      0.233569
      4.17099      8.35303     13.73010        -0.190150      0.071882      0.314275
      2.08728     12.52367      7.50000        -0.002022      0.002163      0.311933
      4.17456     14.61095      7.50000        -0.003080     -0.000280      0.311454
      2.08728     14.61095      9.58728        -0.004997     -0.000221      0.026793
      4.17456     12.52367      9.58728        -0.009093      0.008813      0.022858
      2.08646     12.52448     11.68078        -0.008082      0.006465      0.059382
      4.17322     14.61043     11.68049        -0.007156      0.001250      0.062302
      2.08570     14.61054     13.74968        -0.003255      0.000182      0.217079
      4.17169     12.52497     13.74790        -0.006683      0.019754      0.228232
      6.26183      8.34911      7.50000         0.000093      0.000150      0.308859
      0.00000     10.43639      7.50000        -0.000087      0.003172      0.311267
      6.26183     10.43639      9.58728         0.000542     -0.009640      0.013242
      0.00000      8.34911      9.58728        -0.000495      0.007481      0.022195
      6.27067      8.34044     11.69439        -0.061106      0.062079     -0.122123
     16.69819     10.43773     11.68035         0.000030      0.006221      0.063425
      6.25708     10.43897     13.73251        -0.067169      0.205659      0.301584
      0.00005      8.35144     13.74731        -0.001516     -0.002548      0.235164
      6.26183     12.52367      7.50000        -0.002010      0.001315      0.309231
      0.00000     14.61095      7.50000        -0.000047     -0.000142      0.312800
      6.26183     14.61095      9.58728        -0.007704     -0.002002      0.019051
      0.00000     12.52367      9.58728        -0.000043      0.004857      0.029193
[...]
      8.34911     10.43639      9.58728        -0.000038     -0.016434      0.061426
     14.61095     10.43639      7.50000        -0.002599     -0.002929     -0.594119
      8.34911      8.34911      7.50000         0.000011      0.001012     -0.595243
     14.61464      8.35263     13.80329        -0.041377     -0.020911     -0.070716
      8.34882     10.45735     13.80292         0.015091     -0.349048      0.060267
     14.61303     10.43856     11.67542        -0.019540     -0.018473     -0.036927
      8.34983      8.35504     11.68788        -0.002004     -0.106181      0.146390
     14.61095     12.52367      9.58728         0.001457     -0.001089      0.022308
      8.34911     14.61095      9.58728        -0.000069     -0.002756      0.024594
     14.61095     14.61095      7.50000        -0.002404     -0.000182     -0.596265
      8.34911     12.52367      7.50000         0.000081     -0.001531     -0.594393
     14.61382     12.52624     13.80278        -0.009958     -0.010985     -0.030109
      8.34912     14.61051     13.80256        -0.000700     -0.001080     -0.053968
     14.61220     14.61075     11.67614        -0.007101     -0.001307     -0.035924
      8.34917     12.52701     11.67398        -0.000492     -0.057265     -0.016913
    total drift:                                0.004246      0.001411     -0.022590

  FREE ENERGIE OF THE ION-ELECTRON SYSTEM (eV)
  free  energy   TOTEN  =     -1755.68475644 eV

  energy  without entropy=    -1755.68475644  energy(sigma->0) =    -1755.68475644