 vasp.6.3.0 20Jan22 (build Apr  1 2022 16:44:48) gamma-only
 executed on        HPECrayEX_GCC date 2023.03.12  07:35:02

 INCAR:
   SYSTEM = MgO-rocksalt
   ISMEAR = 0
   SIGMA = 0.05
   EDIFF = 1E-6
   ALGO = ALL
   ISTART = 0
   IBRION = -1
   NSW = 0
   ISYM = 0
   DIPOL = 0.5 0.5 0.5
   IDIPOL = 3
   LDIPOL = .TRUE.
   LHFCALC = .TRUE.
   GGA = B5
   AEXX = 0.2
   AGGAX = 0.72
   AGGAC = 0.81
   ALDAC = 0.19
   IVDW = 1
   VDW_S6 = 1.05
   VDW_C6 = 0.63 0.70
   VDW_R0 = 1.243 1.342
   ENCUT = 520
   PREC = Accurate
   LASPH = .TRUE.
   LREAL = Auto
   ISPIN = 1
   NELM = 200
   NELMIN = 8
   NCORE = 8
   KPAR = 1
   LWAVE = .FALSE.
   LCHARG = .FALSE.

 POTCAR:    PAW_PBE Mg_pv 13Apr2007
 POTCAR:    PAW_PBE O 08Apr2002
 POTCAR:    PAW_PBE Mg_pv 13Apr2007
   VRHFIN =Mg: p6s2

   TITEL  = PAW_PBE Mg_pv 13Apr2007
   POMASS =   24.305; ZVAL   =    8.000    mass and valenz
   ENMAX  =  403.929; ENMIN  =  302.947 eV

   TITEL  = PAW_PBE O 08Apr2002
   POMASS =   16.000; ZVAL   =    6.000    mass and valenz
   ENMAX  =  400.000; ENMIN  =  300.000 eV

 Optimization of the real space projectors (new method)

 maximal supplied QI-value         = 18.90
 optimisation between [QCUT,QGAM] = [ 11.53, 23.24] = [ 37.21,151.29] Ry
 Optimized for a Real-space Cutoff    1.28 Angstroem

   l    n(q)    QCUT    max X(q) W(low)/X(q) W(high)/X(q)  e(spline)
   1      8    11.527     2.974    0.44E-04    0.56E-04    0.12E-06
   1      8    11.527     4.279    0.12E-03    0.12E-03    0.26E-06
   0      9    11.527    16.381    0.46E-04    0.64E-04    0.78E-07
   0      9    11.527     5.611    0.26E-04    0.43E-04    0.55E-07
   2      8    11.527     4.652    0.22E-03    0.72E-04    0.47E-07
 Optimization of the real space projectors (new method)

 maximal supplied QI-value         = 24.76
 optimisation between [QCUT,QGAM] = [ 11.64, 23.27] = [ 37.91,151.63] Ry
 Optimized for a Real-space Cutoff    1.14 Angstroem

   l    n(q)    QCUT    max X(q) W(low)/X(q) W(high)/X(q)  e(spline)
   0      8    11.635    20.381    0.10E-03    0.33E-03    0.24E-06
   0      8    11.635    15.268    0.11E-03    0.35E-03    0.26E-06
   1      7    11.635     5.964    0.24E-03    0.31E-03    0.30E-06
   1      7    11.635     5.382    0.22E-03    0.25E-03    0.26E-06
|               ----> ADVICE to this user running VASP <----                  |
|     You enforced a specific xc type in the INCAR file but a different       |
|     type was found in the POTCAR file.                                      |
|     I HOPE YOU KNOW WHAT YOU ARE DOING!                                     |

  PAW_PBE Mg_pv 13Apr2007               :
  PAW_PBE O 08Apr2002                   :

 POSCAR: Mg  O
  positions in direct lattice
 exchange correlation table for  LEXCH =       12
   RHO(1)=    0.500       N(1)  =     2000
   RHO(2)=  100.500       N(2)  =     4000

 ion  position               nearest neighbor table
   1  0.125  0.000  0.352- 129 2.11 131 2.11 132 2.11 148 2.11 171 2.11
   2  0.250  0.125  0.352- 130 2.11 131 2.11 132 2.11 140 2.11 147 2.11
   3  0.125  0.125  0.451- 135 2.11 131 2.11 129 2.11 130 2.11 137 2.11 146 2.11
   4  0.250  0.000  0.451- 136 2.11 132 2.11 129 2.11 130 2.11 145 2.11 170 2.11
   5  0.125  1.000  0.550- 152 2.11 175 2.11 135 2.11 136 2.11 129 2.11 133 2.14
   6  0.250  0.125  0.550- 144 2.11 151 2.11 135 2.11 136 2.11 130 2.11 134 2.14
   7  0.125  0.125  0.648- 135 2.10 134 2.10 150 2.11 141 2.11 133 2.11
   8  0.250  1.000  0.648- 136 2.10 134 2.10 174 2.11 149 2.11 133 2.11
   9  0.125  0.250  0.352- 137 2.11 131 2.11 139 2.11 140 2.11 156 2.11
  10  0.250  0.375  0.352- 138 2.11 139 2.11 140 2.11 155 2.11 164 2.11
  11  0.125  0.375  0.451- 139 2.11 138 2.11 137 2.11 154 2.11 161 2.11 143 2.11
  12  0.250  0.250  0.451- 144 2.11 140 2.11 138 2.11 130 2.11 137 2.11 153 2.11
  13  0.125  0.250  0.550- 144 2.10 160 2.11 143 2.11 135 2.11 137 2.11 141 2.14
  14  0.250  0.375  0.550- 159 2.09 144 2.11 168 2.11 143 2.12 138 2.12 142 2.15
  15  0.125  0.375  0.648- 143 2.09 142 2.10 158 2.11 141 2.11 165 2.11
  16  0.250  0.250  0.647- 144 2.09 157 2.09 141 2.11 134 2.11 142 2.12
  17  0.375  0.000  0.352- 145 2.11 132 2.11 147 2.11 187 2.11 212 2.11
  18  0.000  0.125  0.352- 146 2.11 131 2.11 148 2.11 156 2.11 211 2.11
  19  0.375  0.125  0.451- 151 2.11 147 2.11 130 2.11 145 2.11 153 2.11 210 2.11
  20  0.000  0.000  0.451- 148 2.11 146 2.11 129 2.11 186 2.11 209 2.11 152 2.11
  21  0.375  1.000  0.550- 151 2.10 191 2.11 216 2.11 136 2.11 145 2.11 149 2.14
  22  0.000  0.125  0.550- 135 2.11 215 2.11 152 2.11 160 2.11 146 2.11 150 2.14
  23  0.375  0.125  0.647- 151 2.08 157 2.09 149 2.11 134 2.11 214 2.12
  24  0.000  1.000  0.648- 152 2.10 133 2.11 213 2.11 190 2.11 150 2.11
  25  0.375  0.250  0.352- 153 2.11 147 2.11 140 2.11 155 2.11 220 2.11
  26  0.000  0.375  0.352- 154 2.11 139 2.11 156 2.11 180 2.11 219 2.11
  27  0.375  0.375  0.451- 155 2.11 153 2.11 138 2.11 177 2.11 218 2.11 159 2.12
  28  0.000  0.250  0.451- 156 2.11 146 2.11 154 2.11 137 2.11 217 2.11 160 2.11
  29  0.375  0.250  0.550- 159 2.10 224 2.10 157 2.11 151 2.12 144 2.12 153 2.13
  30  0.000  0.375  0.550- 143 2.11 223 2.11 184 2.11 160 2.11 154 2.12 158 2.14
  31  0.375  0.375  0.651- 222 2.11 157 2.13 142 2.13 181 2.14 159 2.15
  32  0.000  0.250  0.648- 160 2.10 141 2.11 221 2.11 150 2.11 158 2.11
  33  0.125  0.500  0.352- 161 2.11 139 2.11 163 2.11 164 2.11 180 2.11
  34  0.250  0.625  0.352- 162 2.11 163 2.11 164 2.11 172 2.11 179 2.11
  35  0.125  0.625  0.451- 167 2.11 163 2.11 161 2.11 162 2.11 169 2.11 178 2.11
  36  0.250  0.500  0.451- 168 2.11 164 2.11 162 2.11 138 2.11 161 2.11 177 2.11
  37  0.125  0.500  0.550- 168 2.10 184 2.11 143 2.11 167 2.11 161 2.11 165 2.14
  38  0.250  0.625  0.550- 183 2.11 168 2.11 176 2.11 162 2.11 167 2.11 166 2.14
  39  0.125  0.625  0.648- 167 2.10 166 2.10 182 2.11 165 2.11 173 2.11
  40  0.250  0.500  0.647- 168 2.08 181 2.09 165 2.11 166 2.11 142 2.12
  41  0.125  0.750  0.352- 169 2.11 163 2.11 171 2.11 172 2.11 188 2.11
  42  0.250  0.875  0.352- 170 2.11 132 2.11 171 2.11 172 2.11 187 2.11
  43  0.125  0.875  0.451- 175 2.11 171 2.11 170 2.11 129 2.11 169 2.11 186 2.11
  44  0.250  0.750  0.451- 176 2.11 172 2.11 170 2.11 162 2.11 169 2.11 185 2.11
  45  0.125  0.750  0.550- 175 2.11 192 2.11 167 2.11 176 2.11 169 2.11 173 2.14
  46  0.250  0.875  0.550- 176 2.11 136 2.11 175 2.11 191 2.11 170 2.11 174 2.14
  47  0.125  0.875  0.648- 175 2.10 133 2.11 173 2.11 190 2.11 174 2.11
  48  0.250  0.750  0.648- 176 2.10 166 2.10 174 2.11 189 2.11 173 2.11
  49  0.375  0.500  0.352- 177 2.11 164 2.11 155 2.11 179 2.11 244 2.11
  50  0.000  0.625  0.352- 178 2.11 163 2.11 180 2.11 188 2.11 243 2.11
  51  0.375  0.625  0.451- 183 2.11 179 2.11 162 2.11 177 2.11 185 2.11 242 2.11
  52  0.000  0.500  0.451- 180 2.11 161 2.11 178 2.11 154 2.11 241 2.11 184 2.11
  53  0.375  0.500  0.550- 159 2.10 248 2.10 181 2.11 168 2.12 183 2.12 177 2.13
  54  1.000  0.625  0.550- 247 2.11 167 2.11 192 2.11 184 2.11 178 2.11 182 2.14
  55  0.375  0.625  0.647- 183 2.09 181 2.09 189 2.11 166 2.11 246 2.12
  56  0.000  0.500  0.648- 184 2.10 245 2.11 165 2.11 182 2.11 158 2.11
  57  0.375  0.750  0.352- 185 2.11 179 2.11 172 2.11 187 2.11 252 2.11
  58  0.000  0.875  0.352- 186 2.11 171 2.11 148 2.11 188 2.11 251 2.11
  59  0.375  0.875  0.451- 187 2.11 170 2.11 185 2.11 145 2.11 250 2.11 191 2.11
  60  0.000  0.750  0.451- 188 2.11 178 2.11 186 2.11 169 2.11 249 2.11 192 2.11
[...]
 242  0.500  0.625  0.451- 114 2.11  99 2.11  51 2.11 116 2.11 124 2.11 118 2.12
 243  0.875  0.625  0.352- 115 2.11  98 2.11 113 2.11  50 2.11 121 2.11
 244  0.500  0.500  0.352- 116 2.11  90 2.11  97 2.11 114 2.11  49 2.11
 245  0.875  0.500  0.650-  56 2.11 119 2.11 104 2.11  95 2.11 117 2.14
 246  0.500  0.626  0.651- 128 2.10 103 2.12  55 2.12 120 2.14 118 2.16
 247  0.875  0.625  0.549- 119 2.10  54 2.11 115 2.11 125 2.11 102 2.11 117 2.11
 248  0.500  0.501  0.550- 118 2.09  53 2.10 101 2.10 116 2.12  94 2.12 120 2.14
 249  0.875  0.750  0.451- 121 2.11 108 2.11 115 2.11  60 2.11 123 2.11 125 2.11
 250  0.500  0.875  0.451- 122 2.11  84 2.11 107 2.11  59 2.11 124 2.11 126 2.12
 251  0.875  0.875  0.352- 123 2.11  81 2.11 106 2.11 121 2.11  58 2.11
 252  0.500  0.750  0.352- 124 2.11 105 2.11 114 2.11 122 2.11  57 2.11
 253  0.875  0.750  0.650-  64 2.11 127 2.11 112 2.11 119 2.11 125 2.14
 254  0.500  0.875  0.650- 128 2.11  88 2.11  63 2.11 111 2.11 126 2.14
 255  0.875  0.875  0.549- 127 2.10  85 2.11  62 2.11 125 2.11 123 2.11 110 2.11
 256  0.500  0.750  0.550- 128 2.09 126 2.11 109 2.11  61 2.11 124 2.11 118 2.12

IMPORTANT INFORMATION: All symmetrisations will be switched off!
NOSYMM: (Re-)initialisation of all symmetry stuff for point group C_1.

                                     Primitive cell

  volume of cell :    6078.6138

  direct lattice vectors                    reciprocal lattice vectors
    16.881164524  0.000000000  0.000000000     0.059237619  0.000000000  0.000000000
     0.000000000 16.881164524  0.000000000     0.000000000  0.059237619  0.000000000
     0.000000000  0.000000000 21.330436697     0.000000000  0.000000000  0.046881366

  length of vectors
    16.881164524 16.881164524 21.330436697     0.059237619  0.059237619  0.046881366

  position of ions in fractional coordinates (direct lattice)
     0.125000000  0.000000000  0.351610242
     0.250000000  0.125000000  0.351610242
     0.125000000  0.125000000  0.450536747
     0.250000000  0.000000000  0.450536747
     0.124943395  0.999932730  0.549682781
     0.249940047  0.124981930  0.549559326
     0.124909329  0.124819445  0.647725645
     0.249826340  0.999885417  0.647710752
     0.125000000  0.250000000  0.351610242
     0.250000000  0.375000000  0.351610242
     0.125000000  0.375000000  0.450536747
     0.250000000  0.250000000  0.450536747
     0.124975963  0.250008431  0.549645673
     0.250385847  0.374956210  0.549913777
     0.124839384  0.374999508  0.647738270
     0.249861640  0.249645525  0.647291492
     0.375000000  0.000000000  0.351610242
     0.000000000  0.125000000  0.351610242
     0.375000000  0.125000000  0.450536747
     0.000000000  0.000000000  0.450536747
     0.375023842  0.999948640  0.549611160
     0.000009066  0.124936412  0.549668638
     0.374642766  0.124841517  0.647004938
     0.000012448  0.999904702  0.647819373
     0.375000000  0.250000000  0.351610242
     0.000000000  0.375000000  0.351610242
     0.375000000  0.375000000  0.450536747
     0.000000000  0.250000000  0.450536747
     0.375462919  0.250385952  0.550264382
     0.000001359  0.375002872  0.549712399
     0.375274480  0.374521903  0.650677421
     0.000010574  0.249837399  0.647779731
     0.125000000  0.500000000  0.351610242
     0.250000000  0.625000000  0.351610242
     0.125000000  0.625000000  0.450536747
     0.250000000  0.500000000  0.450536747
     0.124927887  0.499996435  0.549596682
     0.249970862  0.625077583  0.549529587
     0.124888723  0.625206380  0.647704019
     0.249836322  0.500400071  0.646928357
     0.125000000  0.750000000  0.351610242
     0.250000000  0.875000000  0.351610242
[...]
   4.21979925 10.55203752 11.72170607
   2.10826708 10.55421177 13.81580957
   4.21752806  8.44733593 13.79926437
   2.11014557 12.66087339  7.50000000
   4.22029113 14.77101896  7.50000000
   2.11014557 14.77101896  9.61014557
   4.22029113 12.66087339  9.61014557
   2.10909122 12.66206178 11.72501269
   4.21955275 14.77085902 11.72471604
   2.10862076 14.77098704 13.81787229
   4.21733805 12.66267699 13.81609619
   6.33043670  8.44058226  7.50000000
   0.00000000 10.55072783  7.50000000
   6.33043670 10.55072783  9.61014557
   0.00000000  8.44058226  9.61014557
   6.33655795  8.43260421 11.73580994
  16.88107034 10.55172469 11.72459987
   6.32382927 10.55317496 13.80596940
   0.00006983  8.44320195 13.81765336
   6.33043670 12.66087339  7.50000000
   0.00000000 14.77101896  7.50000000
   6.33043670 14.77101896  9.61014557
   0.00000000 12.66087339  9.61014557
[...]
   8.44058226 10.55072783  9.61014557
  14.77101896 10.55072783  7.50000000
   8.44058226  8.44058226  7.50000000
  14.77453428  8.44447902 13.86358673
   8.44180142 10.56843834 13.88661339
  14.77330937 10.55259271 11.71943057
   8.43968798  8.44947287 11.72827126
  14.77101896 12.66087339  9.61014557
   8.44058226 14.77101896  9.61014557
  14.77101896 14.77101896  7.50000000
   8.44058226 12.66087339  7.50000000
  14.77398816 12.66396229 13.86210204
   8.44073771 14.77050308 13.86588169
  14.77208137 14.77127304 11.71999142
   8.44073067 12.66192073 11.72221622

--------------------------------------- Iteration      FINAL  ---------------------------------------

--------------------OUTCAR has been truncated-------------------------

[...]

--------------------OUTCAR has been truncated-------------------------

  DFT-D2 method for vdW energy calculation

  Parameters of vdW forcefield:
         C6(Jnm^6/mol)     R0(A)
   Mg       0.630          1.243
   O        0.700          1.342

  vdW correction parametrized for the method %:þ      

  IVDW =   1
  VDW_RADIUS =    50.000 A
  VDW_S6 =     1.050
  VDW_SR =     1.000
  VDW_D =    20.000
  LVDW_EWALD = F

  Number of pair interactions contributing to vdW energy: 2859915
  Edisp (eV):  -20.35390

 VOLUME and BASIS-vectors are now :
  energy-cutoff  :      520.00
  volume of cell :     6078.61
      direct lattice vectors                 reciprocal lattice vectors
    16.881164524  0.000000000  0.000000000     0.059237619  0.000000000  0.000000000
     0.000000000 16.881164524  0.000000000     0.000000000  0.059237619  0.000000000
     0.000000000  0.000000000 21.330436697     0.000000000  0.000000000  0.046881366

  length of vectors
    16.881164524 16.881164524 21.330436697     0.059237619  0.059237619  0.046881366

 FORCES acting on ions:
    Electron-Ion                     Ewald-Force                    Non-Local-Force
   -.318E+00 -.349E+00 0.207E+04   0.307E+00 0.338E+00 -.206E+04   0.715E-02 0.773E-02 -.640E+01
   -.785E+00 -.797E+00 0.207E+04   0.773E+00 0.785E+00 -.206E+04   0.831E-02 0.842E-02 -.638E+01
   -.694E+00 -.964E+00 0.688E+03   0.652E+00 0.932E+00 -.688E+03   0.281E-01 0.216E-01 0.306E+00
   -.900E+00 -.752E+00 0.688E+03   0.867E+00 0.709E+00 -.688E+03   0.219E-01 0.292E-01 0.307E+00
   -.708E+00 -.762E+00 -.690E+03   0.687E+00 0.737E+00 0.690E+03   0.155E-01 0.190E-01 -.211E+00
   -.175E+01 -.181E+01 -.688E+03   0.161E+01 0.170E+01 0.688E+03   0.859E-01 0.645E-01 -.156E+00
   0.102E+00 -.126E+01 -.206E+04   -.809E-01 0.126E+01 0.205E+04   -.397E-01 -.468E-02 0.547E+01
   -.132E+01 0.626E-01 -.206E+04   0.133E+01 -.416E-01 0.205E+04   -.693E-02 -.394E-01 0.547E+01
   -.598E+00 -.455E+00 0.207E+04   0.588E+00 0.448E+00 -.206E+04   0.683E-02 0.523E-02 -.639E+01
   -.116E+01 0.535E-01 0.207E+04   0.115E+01 -.536E-01 -.206E+04   0.837E-02 -.663E-04 -.639E+01
   -.152E+01 0.132E+00 0.686E+03   0.153E+01 -.133E+00 -.687E+03   -.168E-02 0.463E-03 0.350E+00
   -.294E+01 -.158E+01 0.686E+03   0.293E+01 0.159E+01 -.686E+03   0.118E-01 -.753E-02 0.344E+00
   -.483E+00 -.147E+01 -.690E+03   0.448E+00 0.146E+01 0.690E+03   -.606E-02 -.629E-02 -.205E+00
   -.243E+01 0.798E-01 -.696E+03   0.256E+01 -.108E+00 0.696E+03   -.206E+00 0.260E-01 0.772E-01
   0.196E+00 -.111E+00 -.206E+04   -.157E+00 0.127E+00 0.205E+04   -.794E-01 -.888E-02 0.538E+01
   0.109E+01 -.351E+01 -.205E+04   -.138E+01 0.330E+01 0.204E+04   0.737E-01 0.171E+00 0.546E+01
   -.484E+00 -.638E+00 0.207E+04   0.476E+00 0.628E+00 -.206E+04   0.526E-02 0.741E-02 -.639E+01
   0.131E-01 -.481E+00 0.207E+04   -.130E-01 0.468E+00 -.206E+04   -.304E-04 0.902E-02 -.640E+01
   -.168E+01 -.300E+01 0.686E+03   0.170E+01 0.299E+01 -.687E+03   -.824E-02 0.128E-01 0.328E+00
   0.167E-01 -.466E+00 0.688E+03   -.165E-01 0.447E+00 -.688E+03   -.131E-03 0.126E-01 0.330E+00
   -.143E+01 -.459E+00 -.689E+03   0.143E+01 0.408E+00 0.689E+03   -.451E-02 0.712E-02 -.190E+00
   0.672E-01 -.138E+01 -.690E+03   -.646E-01 0.134E+01 0.690E+03   -.349E-02 0.290E-01 -.219E+00
   -.345E+01 0.720E+00 -.205E+04   0.327E+01 -.988E+00 0.204E+04   0.145E+00 0.689E-01 0.542E+01
   0.144E-01 -.103E+01 -.206E+04   -.128E-01 0.101E+01 0.205E+04   -.231E-02 0.221E-01 0.549E+01
   -.896E+00 -.853E+00 0.207E+04   0.889E+00 0.846E+00 -.206E+04   0.440E-02 0.502E-02 -.639E+01
   0.343E-01 0.233E-01 0.207E+04   -.346E-01 -.226E-01 -.206E+04   0.225E-03 -.494E-03 -.639E+01
   -.340E+01 0.141E+00 0.682E+03   0.337E+01 -.151E+00 -.682E+03   0.262E-01 0.619E-02 0.510E+00
   0.892E-02 -.767E+00 0.687E+03   -.597E-02 0.748E+00 -.687E+03   -.165E-02 0.127E-01 0.330E+00
   -.323E+01 -.294E+01 -.694E+03   0.336E+01 0.308E+01 0.694E+03   -.178E+00 -.186E+00 -.345E+00
   0.110E+00 0.466E-01 -.691E+03   -.110E+00 -.491E-01 0.691E+03   -.445E-03 0.165E-02 -.214E+00
   0.116E+01 -.210E+01 -.208E+04   -.219E+01 0.197E+01 0.207E+04   0.559E+00 0.169E+00 0.630E+01
   0.122E+00 -.136E+01 -.206E+04   -.132E+00 0.131E+01 0.205E+04   0.514E-02 0.484E-01 0.547E+01
   -.572E+00 0.497E+00 0.207E+04   0.561E+00 -.489E+00 -.206E+04   0.738E-02 -.582E-02 -.639E+01
   -.785E+00 0.768E+00 0.207E+04   0.773E+00 -.754E+00 -.206E+04   0.848E-02 -.910E-02 -.638E+01
   -.618E+00 0.880E+00 0.688E+03   0.576E+00 -.844E+00 -.688E+03   0.284E-01 -.240E-01 0.300E+00
   -.290E+01 0.170E+01 0.686E+03   0.288E+01 -.171E+01 -.687E+03   0.162E-01 0.603E-02 0.311E+00
   -.370E+00 0.154E+01 -.689E+03   0.320E+00 -.153E+01 0.689E+03   0.958E-02 0.470E-02 -.191E+00
   -.183E+01 0.169E+01 -.687E+03   0.172E+01 -.155E+01 0.688E+03   0.672E-01 -.893E-01 -.156E+00
   0.904E-02 0.139E+01 -.206E+04   0.122E-01 -.141E+01 0.205E+04   -.378E-01 0.109E-01 0.547E+01
   0.700E+00 0.372E+01 -.205E+04   -.943E+00 -.355E+01 0.204E+04   0.540E-01 -.149E+00 0.541E+01
   -.311E+00 0.308E+00 0.207E+04   0.301E+00 -.297E+00 -.206E+04   0.709E-02 -.715E-02 -.640E+01
   -.468E+00 -.244E-01 0.207E+04   0.455E+00 0.232E-01 -.206E+04   0.886E-02 0.678E-03 -.640E+01
   -.411E+00 -.539E-01 0.688E+03   0.394E+00 0.508E-01 -.688E+03   0.117E-01 0.172E-02 0.310E+00
   -.945E+00 0.639E+00 0.688E+03   0.914E+00 -.595E+00 -.688E+03   0.206E-01 -.289E-01 0.308E+00
   -.694E+00 0.734E+00 -.690E+03   0.667E+00 -.708E+00 0.690E+03   0.202E-01 -.210E-01 -.217E+00
   -.127E+01 -.792E-01 -.690E+03   0.124E+01 0.758E-01 0.690E+03   0.246E-01 0.374E-02 -.223E+00
   -.995E+00 -.836E-02 -.206E+04   0.974E+00 0.687E-02 0.205E+04   0.203E-01 0.212E-03 0.548E+01
   -.132E+01 0.529E-01 -.206E+04   0.134E+01 -.699E-01 0.205E+04   -.846E-02 0.328E-01 0.548E+01
   -.907E+00 0.898E+00 0.207E+04   0.899E+00 -.890E+00 -.206E+04   0.506E-02 -.506E-02 -.639E+01
   0.278E-01 0.480E+00 0.207E+04   -.281E-01 -.467E+00 -.206E+04   0.211E-03 -.913E-02 -.640E+01
   -.170E+01 0.286E+01 0.686E+03   0.171E+01 -.284E+01 -.686E+03   -.780E-02 -.169E-01 0.331E+00
   0.129E+00 0.822E+00 0.687E+03   -.133E+00 -.802E+00 -.687E+03   0.230E-02 -.136E-01 0.344E+00
   -.318E+01 0.308E+01 -.693E+03   0.329E+01 -.320E+01 0.693E+03   -.164E+00 0.172E+00 -.371E+00
   0.421E-01 0.133E+01 -.690E+03   -.460E-01 -.129E+01 0.690E+03   0.389E-02 -.300E-01 -.222E+00
   -.397E+01 -.853E+00 -.205E+04   0.379E+01 0.113E+01 0.204E+04   0.156E+00 -.732E-01 0.545E+01
   -.412E-01 0.132E+01 -.206E+04   0.493E-01 -.127E+01 0.205E+04   -.442E-02 -.477E-01 0.548E+01
   -.482E+00 0.593E+00 0.207E+04   0.474E+00 -.583E+00 -.206E+04   0.553E-02 -.707E-02 -.639E+01
   0.901E-02 -.230E-01 0.207E+04   -.907E-02 0.222E-01 -.206E+04   0.433E-04 0.555E-03 -.641E+01
   -.775E+00 -.748E-03 0.687E+03   0.755E+00 -.482E-02 -.688E+03   0.132E-01 0.314E-02 0.326E+00
   0.224E-01 0.419E+00 0.688E+03   -.229E-01 -.401E+00 -.688E+03   0.335E-03 -.126E-01 0.314E+00
[...]
   0.338E+00 0.424E+00 0.156E+04   -.330E+00 -.416E+00 -.156E+04   -.678E-02 -.135E-01 0.313E+01
   -.238E-01 0.784E+00 0.155E+04   0.241E-01 -.775E+00 -.156E+04   -.328E-03 -.102E-01 0.313E+01
   0.120E+01 0.120E+01 -.156E+04   -.120E+01 -.125E+01 0.157E+04   -.237E-01 0.406E-01 -.471E+01
   -.332E+00 0.623E+01 -.157E+04   0.398E+00 -.605E+01 0.157E+04   -.807E-01 -.412E+00 -.472E+01
   0.712E+00 0.116E+01 -.512E+03   -.709E+00 -.117E+01 0.512E+03   -.165E-01 -.672E-02 0.184E+00
   -.396E+00 0.398E+01 -.521E+03   0.423E+00 -.402E+01 0.521E+03   -.235E-01 -.800E-01 0.158E+00
   0.352E+00 0.368E+00 0.516E+03   -.350E+00 -.367E+00 -.516E+03   0.991E-05 -.169E-02 -.985E-01
   -.989E-03 -.222E-01 0.515E+03   0.278E-04 0.187E-01 -.515E+03   0.114E-02 0.241E-02 -.688E-01
   0.215E+00 -.181E-01 0.156E+04   -.209E+00 0.174E-01 -.156E+04   -.362E-02 0.404E-02 0.312E+01
   -.255E-03 0.510E+00 0.155E+04   -.496E-04 -.505E+00 -.156E+04   0.388E-03 -.611E-02 0.313E+01
   0.707E+00 0.728E+00 -.156E+04   -.725E+00 -.750E+00 0.157E+04   0.970E-02 0.126E-01 -.461E+01
   -.220E-01 -.524E-01 -.156E+04   0.243E-01 0.533E-01 0.157E+04   -.235E-02 0.272E-02 -.468E+01
   0.582E+00 -.152E-01 -.512E+03   -.593E+00 0.129E-01 0.512E+03   0.602E-02 0.228E-02 0.193E+00
   0.381E-01 0.262E+01 -.513E+03   -.355E-01 -.268E+01 0.513E+03   -.313E-02 0.230E-01 0.259E+00
   -.710E-01 -.883E-01 0.674E+02   0.135E-11 0.115E-11 0.482E-10   0.631E-01 0.516E-01 -.593E+02

 POSITION                                       TOTAL-FORCE (eV/Angst)
      2.11015      0.00000      7.50000        -0.002313     -0.002487      0.468681
      4.22029      2.11015      7.50000        -0.002753     -0.002526      0.464106
      2.11015      2.11015      9.61015        -0.010438     -0.007513      0.013862
      4.22029      0.00000      9.61015        -0.008009     -0.010648      0.014871
      2.10919     16.88003     11.72497        -0.002991     -0.003953      0.031069
      4.21928      2.10984     11.72234        -0.039469     -0.041408      0.021650
      2.10861      2.10710     13.81627        -0.020974     -0.002918     -0.027663
      4.21736     16.87923     13.81595         0.002026     -0.019742     -0.023338
      2.11015      4.22029      7.50000        -0.002110     -0.001535      0.466346
      4.22029      6.33044      7.50000        -0.002789     -0.000060      0.466428
      2.11015      6.33044      9.61015         0.005496     -0.000544      0.021574
      4.22029      4.22029      9.61015         0.003301      0.004350      0.013059
      2.10974      4.22043     11.72418        -0.038494     -0.009678      0.038158
      4.22680      6.32970     11.72990        -0.084265      0.001077     -0.000071
      2.10743      6.33043     13.81654        -0.043752      0.006827      0.020481
      4.21796      4.21431     13.80701        -0.186328     -0.023138      0.032584
      6.33044      0.00000      7.50000        -0.001699     -0.002366      0.465908
      0.00000      2.11015      7.50000         0.000027     -0.002815      0.468286
      6.33044      2.11015      9.61015         0.004660      0.002503      0.009787
      0.00000      0.00000      9.61015         0.000022     -0.004324      0.017176
      6.33084     16.88030     11.72345        -0.012904     -0.039507      0.041578
      0.00015      2.10907     11.72467        -0.001106     -0.002202      0.036662
      6.32441      2.10747     13.80090        -0.021192     -0.178238      0.076911
      0.00021     16.87956     13.81827        -0.000841      0.001153     -0.035494
      6.33044      4.22029      7.50000        -0.001733     -0.001666      0.464183
      0.00000      6.33044      7.50000        -0.000059      0.000209      0.465489
      6.33044      6.33044      9.61015        -0.002130     -0.003088      0.008819
      0.00000      4.22029      9.61015         0.001053     -0.004563      0.015942
      6.33825      4.22681     11.73738        -0.058707     -0.058080     -0.124724
      0.00002      6.33049     11.72561        -0.000303     -0.000861      0.044642
      6.33507      6.32237     13.87923        -0.388847      0.048943     -0.607527
      0.00018      4.21755     13.81742        -0.004213      0.005885     -0.022988
      2.11015      8.44058      7.50000        -0.002357      0.001913      0.466078
      4.22029     10.55073      7.50000        -0.002797      0.003262      0.464287
      2.11015     10.55073      9.61015        -0.010374      0.009249      0.014293
      4.22029      8.44058      9.61015         0.000317     -0.003912      0.007756
      2.10893      8.44052     11.72314        -0.036095      0.011323      0.044388
      4.21980     10.55204     11.72171        -0.037590      0.039642      0.025260
      2.10827     10.55421     13.81581        -0.018587     -0.003289     -0.023963
      4.21753      8.44734     13.79926        -0.170293      0.008414      0.087006
      2.11015     12.66087      7.50000        -0.002192      0.002461      0.469288
      4.22029     14.77102      7.50000        -0.002897     -0.000314      0.468972
      2.11015     14.77102      9.61015        -0.003834     -0.000751      0.017340
      4.22029     12.66087      9.61015        -0.007484      0.011365      0.014891
      2.10909     12.66206     11.72501        -0.005083      0.002790      0.029181
      4.21955     14.77086     11.72472        -0.004266      0.000795      0.034991
      2.10862     14.77099     13.81787         0.001345     -0.000770     -0.035652
      4.21734     12.66268     13.81610         0.001631      0.017395     -0.027571
      6.33044      8.44058      7.50000        -0.001822      0.001875      0.463462
      0.00000     10.55073      7.50000        -0.000072      0.003136      0.468451
      6.33044     10.55073      9.61015         0.004203     -0.000692      0.013041
      0.00000      8.44058      9.61015        -0.001413      0.005061      0.015198
      6.33656      8.43260     11.73581        -0.058028      0.064498     -0.117641
     16.88107     10.55172     11.72460         0.000281      0.006012      0.038203
      6.32383     10.55317     13.80597        -0.010170      0.181693      0.039800
      0.00007      8.44320     13.81765         0.003055     -0.003154     -0.022139
      6.33044     12.66087      7.50000        -0.001914      0.002416      0.466699
      0.00000     14.77102      7.50000        -0.000009     -0.000165      0.469481
      6.33044     14.77102      9.61015        -0.005062     -0.001600      0.015350
      0.00000     12.66087      9.61015        -0.000091      0.004652      0.018051
[...]
      8.44058     10.55073      9.61015        -0.001100     -0.011922      0.037478
     14.77102     10.55073      7.50000        -0.000034     -0.006501     -0.435860
      8.44058      8.44058      7.50000        -0.000101     -0.003267     -0.437252
     14.77453      8.44448     13.86359        -0.032127     -0.008021     -0.087461
      8.44180     10.56844     13.88661        -0.026278     -0.298008     -0.145582
     14.77331     10.55259     11.71943        -0.016800     -0.013292     -0.019931
      8.43969      8.44947     11.72827         0.000159     -0.130571      0.143415
     14.77102     12.66087      9.61015         0.001266     -0.000774      0.009908
      8.44058     14.77102      9.61015         0.000344     -0.000370      0.022676
     14.77102     14.77102      7.50000         0.001015      0.003596     -0.438170
      8.44058     12.66087      7.50000         0.000141     -0.001893     -0.435541
     14.77399     12.66396     13.86210        -0.007121     -0.007829     -0.057187
      8.44074     14.77050     13.86588        -0.000263      0.004858     -0.084027
     14.77208     14.77127     11.71999        -0.003694      0.000223     -0.016090
      8.44073     12.66192     11.72222        -0.000932     -0.034429     -0.016365
    total drift:                               -0.001369     -0.022341     -0.103840

  FREE ENERGIE OF THE ION-ELECTRON SYSTEM (eV)
  free  energy   TOTEN  =     -1753.73489943 eV

  energy  without entropy=    -1753.73489943  energy(sigma->0) =    -1753.73489943