 vasp.6.3.0 20Jan22 (build Apr  1 2022 16:44:48) complex
 executed on        HPECrayEX_GCC date 2022.11.14  01:17:13

 INCAR:
   SYSTEM = MgO-rocksalt
   ISMEAR = 0
   SIGMA = 0.05
   EDIFF = 1E-6
   ALGO = ALL
   ISTART = 0
   IBRION = -1
   NSW = 0
   ISYM = 0
   DIPOL = 0.5 0.5 0.5
   IDIPOL = 3
   LDIPOL = .TRUE.
   LHFCALC = .TRUE.
   GGA = B5
   AEXX = 0.2
   AGGAX = 0.72
   AGGAC = 0.81
   ALDAC = 0.19
   IVDW = 1
   VDW_S6 = 1.05
   VDW_C6 = 1.23 0.70 0.63 0.70
   VDW_R0 = 1.397 1.342 1.243 1.342
   ENCUT = 600
   PREC = Accurate
   LASPH = .TRUE.
   LREAL = .FALSE.
   ISPIN = 2
   MAGMOM = 1.0 0.0 0.0 0.0 0.0 0.0 0.0 0.0 0.0 0.0 0.0 0.0 0.0 0.0 0.0 0.0 0.0 0.0 0.0 0.0 0.0 0.0 0.0 0.0 0.0 0.0 0.0 0.0 0.0 0.0 0.0 0.0 0.0 0.0 0.0 0.0 0.0 0.0 0.0 0.0 0.0 0.0 0.0 0.0 0.0 0.0 0.0 0.0 0.0 0.0 0.0 0.0 0.0 0.0 0.0 0.0 0.0 0.0 0.0 0.0 0.0 0.0 0.0 0.0 0.0 0.0
   NELM = 200
   NELMIN = 8
   NCORE = 8
   KPAR = 1
   LWAVE = .FALSE.
   LCHARG = .FALSE.

 POTCAR:    PAW_PBE N 08Apr2002
 POTCAR:    PAW_PBE O 08Apr2002
 POTCAR:    PAW_PBE Mg_pv 13Apr2007
 POTCAR:    PAW_PBE O 08Apr2002
 POTCAR:    PAW_PBE N 08Apr2002
   VRHFIN =N: s2p3

   TITEL  = PAW_PBE N 08Apr2002
   POMASS =   14.001; ZVAL   =    5.000    mass and valenz
   ENMAX  =  400.000; ENMIN  =  300.000 eV

[...]

   TITEL  = PAW_PBE Mg_pv 13Apr2007
   POMASS =   24.305; ZVAL   =    8.000    mass and valenz
   ENMAX  =  403.929; ENMIN  =  302.947 eV

   TITEL  = PAW_PBE O 08Apr2002
   POMASS =   16.000; ZVAL   =    6.000    mass and valenz
   ENMAX  =  400.000; ENMIN  =  300.000 eV

  PAW_PBE N 08Apr2002                   :
  PAW_PBE O 08Apr2002                   :
  PAW_PBE Mg_pv 13Apr2007               :
  PAW_PBE O 08Apr2002                   :

 POSCAR:  N  O Mg  O
  positions in direct lattice
 exchange correlation table for  LEXCH =       12
   RHO(1)=    0.500       N(1)  =     2000
   RHO(2)=  100.500       N(2)  =     4000

 ion  position               nearest neighbor table
   1  0.500  0.500  0.765-   2 1.15
   2  0.500  0.500  0.819-   1 1.15
   3  0.250  0.000  0.353-  37 2.09  38 2.09  45 2.09  54 2.09  35 2.09
   4  0.500  0.250  0.353-  37 2.09  38 2.09  46 2.09  53 2.09  36 2.09
   5  0.250  0.250  0.451-  35 2.09  36 2.09  43 2.09  52 2.09  37 2.09  41 2.09
   6  0.500  0.000  0.451-  35 2.09  36 2.09  44 2.09  51 2.09  38 2.09  42 2.10
   7  0.250  1.000  0.550-  49 2.09  41 2.09  42 2.09  58 2.09  35 2.10  39 2.12
   8  0.500  0.250  0.550-  50 2.08  57 2.09  41 2.09  42 2.09  36 2.10  40 2.13
   9  0.250  0.250  0.647-  41 2.08  56 2.09  47 2.09  39 2.09  40 2.09
  10  0.500  1.000  0.647-  42 2.08  48 2.09  40 2.09  39 2.09  55 2.09
  11  0.250  0.500  0.353-  37 2.09  45 2.09  46 2.09  62 2.09  43 2.09
  12  0.500  0.750  0.353-  38 2.09  45 2.09  46 2.09  61 2.09  44 2.09
  13  0.250  0.750  0.451-  35 2.09  43 2.09  44 2.09  60 2.09  45 2.09  49 2.09
  14  0.500  0.500  0.451-  36 2.09  43 2.09  44 2.09  59 2.09  46 2.09  50 2.10
  15  0.250  0.500  0.550-  50 2.09  49 2.09  41 2.09  66 2.09  43 2.10  47 2.11
  16  0.500  0.750  0.550-  50 2.08  49 2.09  65 2.09  42 2.09  44 2.10  48 2.13
  17  0.250  0.750  0.647-  49 2.08  64 2.08  47 2.09  39 2.09  48 2.09
  18  0.500  0.500  0.649-  40 2.09  48 2.09  47 2.10  63 2.10  50 2.11
  19  0.750  0.000  0.353-  38 2.09  53 2.09  54 2.09  61 2.09  51 2.09
  20  0.000  0.250  0.353-  37 2.09  53 2.09  54 2.09  62 2.09  52 2.09
  21  0.750  0.250  0.451-  36 2.09  51 2.09  52 2.09  59 2.09  53 2.09  57 2.09
  22  0.000  0.000  0.451-  35 2.09  51 2.09  52 2.09  60 2.09  54 2.09  58 2.09
  23  0.750  0.000  0.550-  57 2.09  65 2.09  42 2.09  58 2.09  51 2.10  55 2.12
  24  1.000  0.250  0.550-  66 2.09  58 2.09  57 2.09  41 2.09  52 2.10  56 2.12
  25  0.750  0.250  0.647-  57 2.08  56 2.08  63 2.09  55 2.09  40 2.09
  26  0.000  1.000  0.647-  58 2.08  64 2.09  56 2.09  55 2.09  39 2.09
  27  0.750  0.500  0.353-  46 2.09  53 2.09  61 2.09  62 2.09  59 2.09
  28  0.000  0.750  0.353-  45 2.09  54 2.09  61 2.09  62 2.09  60 2.09
  29  0.750  0.750  0.451-  44 2.09  51 2.09  59 2.09  60 2.09  61 2.09  65 2.09
  30  0.000  0.500  0.451-  43 2.09  52 2.09  59 2.09  60 2.09  62 2.09  66 2.09
  31  0.750  0.500  0.550-  50 2.09  57 2.09  65 2.09  66 2.09  59 2.10  63 2.11
  32  0.000  0.750  0.550-  66 2.09  58 2.09  49 2.09  65 2.09  60 2.10  64 2.12
  33  0.750  0.750  0.647-  65 2.08  64 2.09  63 2.09  55 2.09  48 2.09
  34  0.000  0.500  0.647-  47 2.08  63 2.08  66 2.08  64 2.09  56 2.09
  35  0.250  0.000  0.451-   5 2.09   6 2.09  13 2.09  22 2.09   3 2.09   7 2.10
  36  0.500  0.250  0.451-   5 2.09   6 2.09  14 2.09  21 2.09   4 2.09   8 2.10
  37  0.250  0.250  0.353-   3 2.09   4 2.09  11 2.09  20 2.09   5 2.09
  38  0.500  0.000  0.353-   3 2.09   4 2.09  12 2.09  19 2.09   6 2.09
  39  0.250  1.000  0.650-  10 2.09  26 2.09  17 2.09   9 2.09   7 2.12
  40  0.500  0.250  0.650-  10 2.09  18 2.09  25 2.09   9 2.09   8 2.13
  41  0.250  0.250  0.549-   9 2.08   7 2.09   8 2.09  24 2.09  15 2.09   5 2.09
  42  0.500  1.000  0.549-  10 2.08   7 2.09  23 2.09   8 2.09  16 2.09   6 2.10
  43  0.250  0.500  0.451-   5 2.09  13 2.09  14 2.09  30 2.09  11 2.09  15 2.10
  44  0.500  0.750  0.451-   6 2.09  13 2.09  14 2.09  29 2.09  12 2.09  16 2.10
  45  0.250  0.750  0.353-   3 2.09  11 2.09  12 2.09  28 2.09  13 2.09
  46  0.500  0.500  0.353-   4 2.09  11 2.09  12 2.09  27 2.09  14 2.09
  47  0.249  0.500  0.649-  34 2.08  17 2.09   9 2.09  18 2.10  15 2.11
  48  0.500  0.750  0.650-  10 2.09  18 2.09  17 2.09  33 2.09  16 2.13
  49  0.250  0.750  0.549-  17 2.08   7 2.09  16 2.09  32 2.09  15 2.09  13 2.09
  50  0.500  0.500  0.550-   8 2.08  16 2.08  15 2.09  31 2.09  14 2.10  18 2.11
  51  0.750  0.000  0.451-   6 2.09  21 2.09  22 2.09  29 2.09  19 2.09  23 2.10
  52  0.000  0.250  0.451-   5 2.09  21 2.09  22 2.09  30 2.09  20 2.09  24 2.10
  53  0.750  0.250  0.353-   4 2.09  19 2.09  20 2.09  27 2.09  21 2.09
  54  0.000  0.000  0.353-   3 2.09  19 2.09  20 2.09  28 2.09  22 2.09
  55  0.750  0.000  0.650-  10 2.09  26 2.09  25 2.09  33 2.09  23 2.12
  56  1.000  0.250  0.649-  25 2.08   9 2.09  26 2.09  34 2.09  24 2.12
  57  0.750  0.250  0.549-  25 2.08  23 2.09   8 2.09  24 2.09  31 2.09  21 2.09
  58  0.000  1.000  0.549-  26 2.08   7 2.09  23 2.09  32 2.09  24 2.09  22 2.09
  59  0.750  0.500  0.451-  14 2.09  21 2.09  29 2.09  30 2.09  27 2.09  31 2.10
  60  0.000  0.750  0.451-  13 2.09  22 2.09  29 2.09  30 2.09  28 2.09  32 2.10
  61  0.750  0.750  0.353-  12 2.09  19 2.09  27 2.09  28 2.09  29 2.09
  62  0.000  0.500  0.353-  11 2.09  20 2.09  27 2.09  28 2.09  30 2.09
  63  0.751  0.500  0.649-  34 2.08  25 2.09  33 2.09  18 2.10  31 2.11
  64  0.000  0.750  0.649-  17 2.08  33 2.09  26 2.09  34 2.09  32 2.12
  65  0.750  0.750  0.549-  33 2.08  23 2.09  16 2.09  32 2.09  31 2.09  29 2.09
  66  0.000  0.500  0.549-  34 2.08  24 2.09  32 2.09  30 2.09  15 2.09  31 2.09

IMPORTANT INFORMATION: All symmetrisations will be switched off!
NOSYMM: (Re-)initialisation of all symmetry stuff for point group C_1.

                                     Primitive cell

  volume of cell :    1482.1129

  direct lattice vectors                    reciprocal lattice vectors
     8.349111827  0.000000000  0.000000000     0.119773219  0.000000000  0.000000000
     0.000000000  8.349111827  0.000000000     0.000000000  0.119773219  0.000000000
     0.000000000  0.000000000 21.261833870     0.000000000  0.000000000  0.047032632

  length of vectors
     8.349111827  8.349111827 21.261833870     0.119773219  0.119773219  0.047032632

  position of ions in fractional coordinates (direct lattice)
     0.500000156  0.500000131  0.764628296
     0.500000205  0.500000408  0.818832625
     0.250000000  0.000000000  0.352744737
     0.500000000  0.250000000  0.352744737
     0.250000000  0.250000000  0.450914912
     0.500000000  0.000000000  0.450914912
     0.250072308  0.999996146  0.549683617
     0.500015159  0.250378449  0.549759208
     0.249674991  0.250193398  0.647120357
     0.500000009  0.999999972  0.647339030
     0.250000000  0.500000000  0.352744737
     0.500000000  0.750000000  0.352744737
     0.250000000  0.750000000  0.450914912
     0.500000000  0.500000000  0.450914912
     0.250245649  0.500016194  0.549734875
     0.499984902  0.749621534  0.549759210
     0.249665739  0.749816592  0.647130160
     0.499999990  0.499999986  0.648679807
     0.750000000  0.000000000  0.352744737
     0.000000000  0.250000000  0.352744737
     0.750000000  0.250000000  0.450914912
     0.000000000  0.000000000  0.450914912
     0.749927701  0.000003813  0.549683627
     0.999996031  0.250091859  0.549596159
     0.750334299  0.250183366  0.647130125
     0.000000011  0.999999971  0.647226546
     0.750000000  0.500000000  0.352744737
     0.000000000  0.750000000  0.352744737
     0.750000000  0.750000000  0.450914912
     0.000000000  0.500000000  0.450914912
     0.749754366  0.499983815  0.549734868
     0.000003944  0.749908134  0.549596160
     0.750325057  0.749806591  0.647120317
     0.000000037  0.499999995  0.646970668
     0.250000000  0.000000000  0.450914912
     0.500000000  0.250000000  0.450914912
     0.250000000  0.250000000  0.352744737
     0.500000000  0.000000000  0.352744737
     0.250000428  0.999988907  0.649575106
     0.500010065  0.249707477  0.649953012
     0.250131613  0.249778609  0.549349846
     0.499999996  0.999999995  0.549485065
     0.250000000  0.500000000  0.450914912
     0.500000000  0.750000000  0.450914912
     0.250000000  0.750000000  0.352744737
     0.500000000  0.500000000  0.352744737
     0.248948445  0.500012250  0.648928848
     0.499990000  0.750292497  0.649952993
     0.250130667  0.750222058  0.549366398
     0.499999971  0.499999982  0.549645047
     0.750000000  0.000000000  0.450914912
     0.000000000  0.250000000  0.450914912
     0.750000000  0.250000000  0.352744737
     0.000000000  0.000000000  0.352744737
     0.749999607  0.000011034  0.649575100
     0.999989750  0.249814252  0.649438611
     0.749869349  0.249777895  0.549366386
     0.000000026  0.999999989  0.549361048
     0.750000000  0.500000000  0.450914912
     0.000000000  0.750000000  0.450914912
     0.750000000  0.750000000  0.352744737
     0.000000000  0.500000000  0.352744737
     0.751051597  0.499987752  0.648928766
     0.000010224  0.750185734  0.649438584
     0.749868402  0.750221402  0.549349822
     0.000000045  0.499999983  0.549159622

  ion indices of the primitive-cell ions
   primitive index   ion index
                 1           1
                 2           2
                 3           3
                 4           4
                 5           5
                 6           6
                 7           7
                 8           8
                 9           9
                10          10
                11          11
                12          12
                13          13
                14          14
                15          15
                16          16
                17          17
                18          18
                19          19
                20          20
[...]
   0.74986935  0.24977790  0.54936639
   0.00000003  0.99999999  0.54936105
   0.75000000  0.50000000  0.45091491
   0.00000000  0.75000000  0.45091491
   0.75000000  0.75000000  0.35274474
   0.00000000  0.50000000  0.35274474
   0.75105160  0.49998775  0.64892877
   0.00001022  0.75018573  0.64943858
   0.74986840  0.75022140  0.54934982
   0.00000004  0.49999998  0.54915962

 position of ions in cartesian coordinates  (Angst):
   4.17455721  4.17455701 16.25739980
   4.17455762  4.17455932 17.40988324
   2.08727796  0.00000000  7.50000000
   4.17455591  2.08727796  7.50000000
   2.08727796  2.08727796  9.58727796
   4.17455591  0.00000000  9.58727796
   2.08788166  8.34907965 11.68728174
   4.17468248  2.09043767 11.68888896
   2.08456442  2.08889266 13.75896552
   4.17455599  8.34911160 13.76361491
   2.08727796  4.17455591  7.50000000
   4.17455591  6.26183387  7.50000000
   2.08727796  6.26183387  9.58727796
   4.17455591  4.17455591  9.58727796
   2.08932891  4.17469112 11.68837159
   4.17442985  6.25867401 11.68888899
   2.08448718  6.26030257 13.75917395
   4.17455583  4.17455580 13.79212229
   6.26183387  0.00000000  7.50000000
   0.00000000  2.08727796  7.50000000
   6.26183387  2.08727796  9.58727796
   0.00000000  0.00000000  9.58727796
   6.26123024  0.00003184 11.68728195
   8.34907869  2.08804490 11.68542223
   6.26462497  2.08880890 13.75917321
   0.00000009  8.34911158 13.76122330
   6.26183387  4.17455591  7.50000000
   0.00000000  6.26183387  7.50000000
   6.26183387  6.26183387  9.58727796
   0.00000000  4.17455591  9.58727796
   6.25978304  4.17442078 11.68837143
   0.00003293  6.26106687 11.68542224
   6.26454780  6.26021908 13.75896466
   0.00000031  4.17455587 13.75578286
   2.08727796  0.00000000  9.58727796
   4.17455591  2.08727796  9.58727796
   2.08727796  2.08727796  7.50000000
   4.17455591  0.00000000  7.50000000
   2.08728153  8.34901921 13.81115800
   4.17463995  2.08483565 13.81919297
   2.08837681  2.08542954 11.68018515
   4.17455588  8.34911178 11.68306016
   2.08727796  4.17455591  9.58727796
   4.17455591  6.26183387  9.58727796
   2.08727796  6.26183387  7.50000000
   4.17455591  4.17455591  7.50000000
   2.07849841  4.17465819 13.79741737
   4.17447242  6.26427596 13.81919256
   2.08836891  6.26368786 11.68053708
   4.17455568  4.17455576 11.68646168
   6.26183387  0.00000000  9.58727796
   0.00000000  2.08727796  9.58727796
   6.26183387  2.08727796  7.50000000
   0.00000000  0.00000000  7.50000000
   6.26183059  0.00009212 13.81115787
   8.34902625  2.08572712 13.80825585
   6.26074305  2.08542358 11.68053682
   0.00000022  8.34911173 11.68042334
   6.26183387  4.17455591  9.58727796
   0.00000000  6.26183387  9.58727796
   6.26183387  6.26183387  7.50000000
   0.00000000  4.17455591  7.50000000
   6.27061377  4.17445365 13.79741561
   0.00008536  6.26338458 13.80825528
   6.26073514  6.26368238 11.68018465
   0.00000037  4.17455577 11.67614064

--------------------------------------- Iteration      FINAL  ---------------------------------------

--------------------OUTCAR has been truncated-------------------------

[...]

--------------------OUTCAR has been truncated-------------------------

  DFT-D2 method for vdW energy calculation

  Parameters of vdW forcefield:
         C6(Jnm^6/mol)     R0(A)
   N        1.230          1.397
   O        0.700          1.342
   Mg       0.630          1.243
   O        0.700          1.342

  vdW correction parametrized for the method        üI=

  IVDW =   1
  VDW_RADIUS =    50.000 A
  VDW_S6 =     1.050
  VDW_SR =     1.000
  VDW_D =    20.000
  LVDW_EWALD = F

  Number of pair interactions contributing to vdW energy:  788768
  Edisp (eV):   -5.40339

 VOLUME and BASIS-vectors are now :
  energy-cutoff  :      600.00
  volume of cell :     1482.11
      direct lattice vectors                 reciprocal lattice vectors
     8.349111827  0.000000000  0.000000000     0.119773219  0.000000000  0.000000000
     0.000000000  8.349111827  0.000000000     0.000000000  0.119773219  0.000000000
     0.000000000  0.000000000 21.261833870     0.000000000  0.000000000  0.047032632

  length of vectors
     8.349111827  8.349111827 21.261833870     0.119773219  0.119773219  0.047032632

 FORCES acting on ions:
    Electron-Ion                     Ewald-Force                    Non-Local-Force
   0.371E-04 0.542E-03 -.109E+04   -.517E-04 -.635E-03 0.105E+04   0.146E-04 0.817E-04 0.406E+02
   -.111E-03 -.526E-03 -.153E+04   0.140E-03 0.646E-03 0.160E+04   -.253E-04 -.996E-04 -.561E+02
   0.112E+00 0.218E-03 0.214E+04   -.112E+00 -.274E-03 -.213E+04   -.382E-04 0.446E-04 -.644E+01
   -.560E-04 0.257E+00 0.214E+04   0.129E-03 -.255E+00 -.213E+04   -.570E-04 -.130E-02 -.644E+01
   0.509E+00 0.972E+00 0.739E+03   -.496E+00 -.975E+00 -.739E+03   -.789E-02 0.255E-02 0.414E+00
   0.296E-04 -.194E-04 0.738E+03   -.258E-04 0.170E-04 -.738E+03   -.480E-06 0.257E-05 0.452E+00
   0.287E+01 -.367E-01 -.656E+03   -.285E+01 0.374E-01 0.656E+03   -.203E-01 -.251E-04 -.120E+00
   0.606E-01 0.649E+01 -.649E+03   -.605E-01 -.638E+01 0.649E+03   -.152E-02 -.991E-01 0.267E-02
   0.203E+02 0.225E+02 -.203E+04   -.205E+02 -.224E+02 0.202E+04   0.147E+00 -.686E-01 0.543E+01
   0.300E-04 -.121E-03 -.204E+04   -.339E-04 0.123E-03 0.203E+04   0.274E-05 0.407E-06 0.537E+01
   0.122E+00 -.458E-04 0.214E+04   -.121E+00 0.121E-03 -.213E+04   -.820E-03 -.545E-04 -.644E+01
   0.742E-04 -.257E+00 0.214E+04   -.144E-03 0.255E+00 -.213E+04   0.516E-04 0.131E-02 -.644E+01
   0.512E+00 -.977E+00 0.739E+03   -.500E+00 0.980E+00 -.739E+03   -.775E-02 -.271E-02 0.420E+00
   0.150E-04 0.151E-04 0.740E+03   -.194E-04 -.138E-04 -.740E+03   0.285E-05 -.173E-05 0.476E+00
   0.473E+01 0.633E-01 -.645E+03   -.468E+01 -.631E-01 0.645E+03   -.469E-01 -.171E-02 -.449E+00
   -.603E-01 -.649E+01 -.649E+03   0.603E-01 0.638E+01 0.649E+03   0.152E-02 0.991E-01 0.267E-02
   0.203E+02 -.225E+02 -.203E+04   -.205E+02 0.224E+02 0.202E+04   0.149E+00 0.668E-01 0.544E+01
   -.535E-04 0.107E-03 -.195E+04   0.576E-04 -.110E-03 0.195E+04   0.118E-06 -.189E-05 0.488E+01
   -.112E+00 -.228E-03 0.214E+04   0.112E+00 0.284E-03 -.213E+04   0.396E-04 -.357E-04 -.644E+01
   0.203E-03 0.247E+00 0.214E+04   -.262E-03 -.246E+00 -.213E+04   0.417E-04 -.500E-03 -.644E+01
   -.512E+00 0.977E+00 0.739E+03   0.501E+00 -.980E+00 -.739E+03   0.774E-02 0.271E-02 0.420E+00
   -.151E-04 -.233E-04 0.737E+03   0.193E-04 0.244E-04 -.738E+03   -.411E-05 -.156E-06 0.413E+00
   -.287E+01 0.366E-01 -.656E+03   0.285E+01 -.372E-01 0.656E+03   0.203E-01 0.266E-04 -.120E+00
   -.375E-01 0.416E+01 -.655E+03   0.382E-01 -.415E+01 0.655E+03   -.230E-04 -.167E-01 -.115E+00
   -.203E+02 0.225E+02 -.203E+04   0.205E+02 -.224E+02 0.202E+04   -.149E+00 -.668E-01 0.544E+01
   -.829E-04 -.131E-03 -.206E+04   0.867E-04 0.130E-03 0.205E+04   0.177E-05 0.178E-05 0.539E+01
   -.122E+00 0.506E-04 0.214E+04   0.121E+00 -.129E-03 -.213E+04   0.830E-03 0.542E-04 -.644E+01
   -.215E-03 -.247E+00 0.214E+04   0.277E-03 0.246E+00 -.213E+04   -.391E-04 0.499E-03 -.644E+01
   -.509E+00 -.972E+00 0.739E+03   0.496E+00 0.975E+00 -.739E+03   0.790E-02 -.255E-02 0.414E+00
   -.836E-05 0.106E-04 0.740E+03   0.173E-04 -.144E-04 -.740E+03   -.656E-05 0.251E-05 0.319E+00
   -.473E+01 -.631E-01 -.645E+03   0.468E+01 0.629E-01 0.645E+03   0.469E-01 0.171E-02 -.449E+00
   0.373E-01 -.416E+01 -.655E+03   -.380E-01 0.415E+01 0.655E+03   0.177E-04 0.167E-01 -.115E+00
   -.203E+02 -.225E+02 -.203E+04   0.205E+02 0.224E+02 0.202E+04   -.147E+00 0.686E-01 0.543E+01
   0.285E-04 0.635E-04 -.204E+04   -.370E-04 -.681E-04 0.203E+04   0.134E-05 0.238E-05 0.541E+01
   0.317E+00 0.236E-02 0.553E+03   -.322E+00 -.127E-02 -.553E+03   0.608E-02 -.137E-02 -.948E-01
   0.152E-02 0.897E+00 0.554E+03   -.303E-02 -.911E+00 -.554E+03   0.183E-02 0.146E-01 -.942E-01
   0.889E-01 0.186E+00 0.161E+04   -.882E-01 -.185E+00 -.161E+04   -.856E-03 -.109E-02 0.310E+01
   0.526E-05 -.374E-05 0.161E+04   -.497E-05 0.310E-05 -.161E+04   -.937E-06 -.185E-05 0.310E+01
   0.844E+01 -.694E-01 -.156E+04   -.843E+01 0.700E-01 0.157E+04   -.688E-02 0.113E-02 -.464E+01
   0.466E-01 0.298E+02 -.153E+04   -.449E-01 -.297E+02 0.153E+04   -.276E-02 -.562E-01 -.454E+01
   0.288E+01 0.368E+01 -.482E+03   -.290E+01 -.364E+01 0.481E+03   0.200E-01 -.331E-01 0.343E+00
   0.477E-04 -.429E-04 -.484E+03   -.588E-04 0.450E-04 0.484E+03   0.197E-05 -.270E-05 0.345E+00
   0.379E+00 0.188E-02 0.554E+03   -.406E+00 -.343E-02 -.554E+03   0.332E-01 0.186E-02 -.106E+00
   -.145E-02 -.897E+00 0.554E+03   0.297E-02 0.911E+00 -.554E+03   -.183E-02 -.146E-01 -.942E-01
   0.890E-01 -.186E+00 0.161E+04   -.883E-01 0.186E+00 -.161E+04   -.859E-03 0.110E-02 0.310E+01
   0.726E-05 0.106E-04 0.161E+04   -.496E-05 -.304E-05 -.161E+04   0.321E-06 0.413E-05 0.310E+01
   0.273E+02 0.496E-01 -.152E+04   -.271E+02 -.482E-01 0.153E+04   -.249E+00 -.273E-02 -.478E+01
   -.465E-01 -.298E+02 -.153E+04   0.449E-01 0.297E+02 0.153E+04   0.276E-02 0.562E-01 -.454E+01
   0.290E+01 -.371E+01 -.482E+03   -.292E+01 0.367E+01 0.481E+03   0.220E-01 0.311E-01 0.335E+00
   -.744E-05 0.287E-04 -.478E+03   0.110E-04 -.295E-04 0.478E+03   0.986E-06 0.217E-05 -.338E-01
   -.317E+00 -.241E-02 0.553E+03   0.322E+00 0.132E-02 -.553E+03   -.609E-02 0.137E-02 -.948E-01
   0.217E-02 0.811E+00 0.553E+03   -.107E-02 -.800E+00 -.553E+03   -.138E-02 -.147E-01 -.725E-01
   -.890E-01 0.186E+00 0.161E+04   0.883E-01 -.186E+00 -.161E+04   0.869E-03 -.110E-02 0.310E+01
   -.570E-05 -.192E-05 0.161E+04   0.484E-05 0.346E-05 -.161E+04   -.120E-05 0.275E-05 0.310E+01
   -.844E+01 0.692E-01 -.156E+04   0.843E+01 -.698E-01 0.157E+04   0.689E-02 -.113E-02 -.464E+01
   -.681E-01 0.892E+01 -.156E+04   0.684E-01 -.886E+01 0.156E+04   0.134E-02 -.599E-01 -.465E+01
   -.290E+01 0.371E+01 -.482E+03   0.292E+01 -.367E+01 0.481E+03   -.220E-01 -.311E-01 0.335E+00
   -.362E-04 -.778E-04 -.488E+03   0.339E-04 0.788E-04 0.487E+03   -.416E-05 -.150E-05 0.302E+00
   -.379E+00 -.185E-02 0.554E+03   0.406E+00 0.339E-02 -.554E+03   -.332E-01 -.186E-02 -.106E+00
   -.222E-02 -.811E+00 0.553E+03   0.113E-02 0.800E+00 -.553E+03   0.138E-02 0.147E-01 -.725E-01
   -.889E-01 -.186E+00 0.161E+04   0.882E-01 0.185E+00 -.161E+04   0.849E-03 0.109E-02 0.310E+01
   -.340E-05 0.414E-05 0.161E+04   0.492E-05 -.326E-05 -.161E+04   -.117E-05 -.119E-05 0.310E+01
   -.273E+02 -.494E-01 -.152E+04   0.271E+02 0.480E-01 0.153E+04   0.249E+00 0.274E-02 -.478E+01
   0.679E-01 -.892E+01 -.156E+04   -.682E-01 0.886E+01 0.156E+04   -.135E-02 0.599E-01 -.465E+01
   -.288E+01 -.368E+01 -.482E+03   0.290E+01 0.364E+01 0.481E+03   -.200E-01 0.331E-01 0.343E+00
   0.965E-05 0.222E-04 -.480E+03   -.101E-04 -.243E-04 0.480E+03   -.545E-06 0.129E-05 0.276E+00
   -.211E-04 0.892E-05 0.393E+02   0.400E-12 -.452E-13 -.165E-11   -.313E-04 0.646E-05 -.332E+02

 POSITION                                       TOTAL-FORCE (eV/Angst)
      4.17456      4.17456     16.25740         0.000002     -0.000004     -0.398780
      4.17456      4.17456     17.40988         0.000001      0.000008      0.480382
      2.08728      0.00000      7.50000        -0.000026     -0.000006      0.306982
      4.17456      2.08728      7.50000         0.000012      0.000513      0.306129
      2.08728      2.08728      9.58728         0.003212     -0.000158      0.041157
      4.17456      0.00000      9.58728         0.000005      0.000000      0.050383
      2.08788      8.34908     11.68728        -0.000739      0.000593      0.008535
      4.17468      2.09044     11.68889        -0.001510     -0.004096      0.012268
      2.08456      2.08889     13.75897        -0.006618      0.000888      0.111119
      4.17456      8.34911     13.76361        -0.000000      0.000003      0.109565
      2.08728      4.17456      7.50000         0.000251      0.000014      0.307100
      4.17456      6.26183      7.50000        -0.000011     -0.000518      0.306126
      2.08728      6.26183      9.58728         0.003069      0.000306      0.040847
      4.17456      4.17456      9.58728        -0.000000     -0.000000      0.051795
      2.08933      4.17469     11.68837        -0.003092     -0.001554      0.016982
      4.17443      6.25867     11.68889         0.001505      0.004095      0.012260
      2.08449      6.26030     13.75917        -0.005973     -0.001491      0.110992
      4.17456      4.17456     13.79212         0.000005     -0.000005      0.090119
      6.26183      0.00000      7.50000         0.000026      0.000015      0.306936
      0.00000      2.08728      7.50000        -0.000013      0.000239      0.306318
      6.26183      2.08728      9.58728        -0.003069     -0.000306      0.040839
      0.00000      0.00000      9.58728         0.000001      0.000001      0.041078
      6.26123      0.00003     11.68728         0.000745     -0.000592      0.008529
      8.34908      2.08804     11.68542         0.000618     -0.004581      0.012455
      6.26462      2.08881     13.75917         0.005964      0.001506      0.110996
      0.00000      8.34911     13.76122         0.000008      0.000002      0.115511
      6.26183      4.17456      7.50000        -0.000249     -0.000022      0.307105
      0.00000      6.26183      7.50000         0.000020     -0.000241      0.306312
      6.26183      6.26183      9.58728        -0.003214      0.000158      0.041159
      0.00000      4.17456      9.58728         0.000003     -0.000001      0.042962
      6.25978      4.17442     11.68837         0.003090      0.001549      0.016983
      0.00003      6.26107     11.68542        -0.000607      0.004581      0.012450
      6.26455      6.26022     13.75896         0.006612     -0.000890      0.111123
      0.00000      4.17456     13.75578        -0.000007     -0.000001      0.114852
      2.08728      0.00000      9.58728         0.002317     -0.000485      0.060882
      4.17456      2.08728      9.58728         0.000580      0.003338      0.070350
      2.08728      2.08728      7.50000        -0.000328     -0.000319     -0.592834
      4.17456      0.00000      7.50000         0.000000     -0.000003     -0.592255
      2.08728      8.34902     13.81116         0.000132      0.001930      0.031901
      4.17464      2.08484     13.81919        -0.001551      0.002888      0.037538
      2.08838      2.08543     11.68019         0.000865      0.002853      0.019952
      4.17456      8.34911     11.68306        -0.000008     -0.000001      0.019694
      2.08728      4.17456      9.58728         0.011352      0.000584      0.063637
      4.17456      6.26183      9.58728        -0.000581     -0.003340      0.070353
      2.08728      6.26183      7.50000        -0.000321      0.000316     -0.592846
      4.17456      4.17456      7.50000         0.000004      0.000013     -0.593067
      2.07850      4.17466     13.79742         0.001067     -0.001716      0.019309
      4.17447      6.26428     13.81919         0.001554     -0.002885      0.037546
      2.08837      6.26369     11.68054         0.000633     -0.002551      0.014963
      4.17456      4.17456     11.68646         0.000006      0.000001      0.013449
      6.26183      0.00000      9.58728        -0.002333      0.000486      0.060883
      0.00000      2.08728      9.58728        -0.000486     -0.005851      0.058879
      6.26183      2.08728      7.50000         0.000331     -0.000315     -0.592838
      0.00000      0.00000      7.50000        -0.000001      0.000005     -0.592608
      6.26183      0.00009     13.81116        -0.000135     -0.001933      0.031899
      8.34903      2.08573     13.80826         0.001940     -0.006357      0.033896
      6.26074      2.08542     11.68054        -0.000639      0.002557      0.014963
      0.00000      8.34911     11.68042        -0.000006     -0.000001      0.016593
      6.26183      4.17456      9.58728        -0.011355     -0.000588      0.063640
      0.00000      6.26183      9.58728         0.000491      0.005847      0.058884
      6.26183      6.26183      7.50000         0.000318      0.000318     -0.592840
      0.00000      4.17456      7.50000         0.000001     -0.000001     -0.593162
      6.27061      4.17445     13.79742        -0.001069      0.001719      0.019310
      0.00009      6.26338     13.80826        -0.001930      0.006351      0.033916
      6.26074      6.26368     11.68018        -0.000871     -0.002862      0.019952
      0.00000      4.17456     11.67614        -0.000000     -0.000001      0.010496
    total drift:                               -0.000061      0.000013      0.001924

  FREE ENERGIE OF THE ION-ELECTRON SYSTEM (eV)
  free  energy   TOTEN  =      -455.00131201 eV

  energy  without entropy=     -455.00131201  energy(sigma->0) =     -455.00131201