 vasp.6.3.0 20Jan22 (build Apr  1 2022 16:44:48) gamma-only
 executed on        HPECrayEX_GCC date 2023.02.21  22:42:49

 INCAR:
   SYSTEM = MgO-rocksalt
   ISMEAR = 0
   SIGMA = 0.05
   EDIFF = 1E-7
   ALGO = ALL
   ISTART = 0
   IBRION = 2
   NSW = 1000
   ISYM = 0
   ISIF = 2
   EDIFFG = -0.01
   DIPOL = 0.5 0.5 0.5
   IDIPOL = 3
   LDIPOL = .TRUE.
   LHFCALC = .TRUE.
   GGA = PE
   IVDW = 13
   VDW_S8 = 1.2007
   VDW_A1 = 0.4009
   VDW_A2 = 5.0293
   ENCUT = 520
   PREC = Accurate
   LASPH = .TRUE.
   LREAL = Auto
   ISPIN = 1
   NELM = 200
   NELMIN = 8
   NCORE = 8
   KPAR = 1
   LWAVE = .FALSE.
   LCHARG = .FALSE.

 POTCAR:    PAW_PBE H 15Jun2001
 POTCAR:    PAW_PBE O 08Apr2002
 POTCAR:    PAW_PBE Mg 13Apr2007
 POTCAR:    PAW_PBE O 08Apr2002
 POTCAR:    PAW_PBE H 15Jun2001
   VRHFIN =H: ultrasoft test

   TITEL  = PAW_PBE H 15Jun2001
   POMASS =    1.000; ZVAL   =    1.000    mass and valenz
   ENMAX  =  250.000; ENMIN  =  200.000 eV

   TITEL  = PAW_PBE O 08Apr2002
   POMASS =   16.000; ZVAL   =    6.000    mass and valenz
   ENMAX  =  400.000; ENMIN  =  300.000 eV

[...]

   TITEL  = PAW_PBE O 08Apr2002
   POMASS =   16.000; ZVAL   =    6.000    mass and valenz
   ENMAX  =  400.000; ENMIN  =  300.000 eV

 Optimization of the real space projectors (new method)

 maximal supplied QI-value         = 34.20
 optimisation between [QCUT,QGAM] = [ 11.63, 23.26] = [ 37.87,151.49] Ry
 Optimized for a Real-space Cutoff    1.21 Angstroem

   l    n(q)    QCUT    max X(q) W(low)/X(q) W(high)/X(q)  e(spline)
   0      8    11.629    19.460    0.17E-03    0.34E-03    0.21E-06
   0      8    11.629    12.209    0.16E-03    0.33E-03    0.21E-06
   1      8    11.629     4.655    0.18E-03    0.16E-03    0.26E-06
 Optimization of the real space projectors (new method)

[...]

   l    n(q)    QCUT    max X(q) W(low)/X(q) W(high)/X(q)  e(spline)
   0      9    11.527    28.265    0.62E-04    0.53E-04    0.73E-07
   0      9    11.527    10.429    0.52E-04    0.40E-04    0.58E-07
   1      8    11.527    13.073    0.98E-04    0.18E-03    0.86E-07
   1      8    11.527     9.625    0.79E-04    0.15E-03    0.74E-07
   2      8    11.527     4.652    0.22E-03    0.72E-04    0.47E-07
 Optimization of the real space projectors (new method)

 maximal supplied QI-value         = 24.76
 optimisation between [QCUT,QGAM] = [ 11.64, 23.27] = [ 37.91,151.63] Ry
 Optimized for a Real-space Cutoff    1.14 Angstroem

   l    n(q)    QCUT    max X(q) W(low)/X(q) W(high)/X(q)  e(spline)
   0      8    11.635    20.381    0.10E-03    0.33E-03    0.24E-06
   0      8    11.635    15.268    0.11E-03    0.35E-03    0.26E-06
   1      7    11.635     5.964    0.24E-03    0.31E-03    0.30E-06
   1      7    11.635     5.382    0.22E-03    0.25E-03    0.26E-06
  PAW_PBE H 15Jun2001                   :
  PAW_PBE O 08Apr2002                   :
  PAW_PBE Mg 13Apr2007                  :
  PAW_PBE O 08Apr2002                   :

 POSCAR:  H  O Mg  O
  positions in direct lattice
  velocities in cartesian coordinates
|           W    W    AA    RRRRR   N    N  II  N    N   GGGG   !!!           |
|           W    W   A  A   R    R  NN   N  II  NN   N  G    G  !!!           |
|           W    W  A    A  R    R  N N  N  II  N N  N  G       !!!           |
|           W WW W  AAAAAA  RRRRR   N  N N  II  N  N N  G  GGG   !            |
|           WW  WW  A    A  R   R   N   NN  II  N   NN  G    G                |
|           W    W  A    A  R    R  N    N  II  N    N   GGGG   !!!           |
|     Specifying the vdW parameters                                           |
|     VDW_S8 = 1.201                                                          |
|     VDW_A1 = 0.401                                                          |
|     VDW_A2 = 5.029                                                          |
|     in the INCAR file will overwrite the defaults for pbe0. Please make     |
|     sure that is what you intended.                                         |

 ion  position               nearest neighbor table
   1  0.415  0.428  0.759-   9 0.98
   2  0.329  0.391  0.766-   9 0.96
   3  0.586  0.323  0.760-  10 0.98
   4  0.672  0.360  0.765-  10 0.96
   5  0.448  0.291  0.760-  11 0.98
   6  0.485  0.205  0.767-  11 0.96
   7  0.553  0.463  0.759-  12 0.98
   8  0.516  0.549  0.763-  12 0.96
   9  0.383  0.379  0.755-   2 0.96   1 0.98  43 2.24
  10  0.618  0.372  0.754-   4 0.96   3 0.98  91 2.24
  11  0.497  0.259  0.755-   6 0.96   5 0.98 108 2.24
  12  0.504  0.494  0.754-   8 0.96   7 0.98 132 2.24
  13  0.125  0.000  0.353- 143 2.09 144 2.09 160 2.09 183 2.09 141 2.09  30 2.95  54 2.95  70 2.95
                            14 2.95  16 2.95  55 2.95  15 2.95  32 2.95
  14  0.250  0.125  0.353- 143 2.09 144 2.09 152 2.09 159 2.09 142 2.09  21 2.95  29 2.95  37 2.95
                            13 2.95  16 2.95  31 2.95  15 2.95  24 2.95
  15  0.125  0.125  0.451- 147 2.09 142 2.09 141 2.09 149 2.09 158 2.09 143 2.09  32 2.95  40 2.95
                            16 2.95  24 2.95  13 2.95  21 2.95  14 2.95  30 2.95  18 2.95  34 2.96
  16  0.250  0.000  0.451- 148 2.09 142 2.09 141 2.09 157 2.09 182 2.09 144 2.09  55 2.95  71 2.95
                            15 2.95  31 2.95  13 2.95  29 2.95  14 2.95  54 2.95  18 2.95  33 2.95
  17  0.125  1.000  0.549- 148 2.09 147 2.09 187 2.09 164 2.09 141 2.09 145 2.12  20 2.94  19 2.94
                            36 2.94  59 2.94  58 2.95  74 2.95  34 2.95  18 2.95  55 2.95  32 2.96
  18  0.250  0.125  0.549- 156 2.09 163 2.09 147 2.09 148 2.09 142 2.09 146 2.12  35 2.92  28 2.93
                            19 2.94  20 2.94  25 2.95  17 2.95  33 2.95  15 2.95  16 2.95  24 2.95
  19  0.125  0.125  0.647- 147 2.07 146 2.08 162 2.09 153 2.09 145 2.09  17 2.94  34 2.94  18 2.94
                            25 2.94  28 2.95  36 2.95  20 2.95  44 2.95
  20  0.250  1.000  0.647- 148 2.07 146 2.08 186 2.09 161 2.09 145 2.09  17 2.94  58 2.94  18 2.94
                            33 2.94  35 2.95  59 2.95  19 2.95  75 2.95
  21  0.125  0.250  0.353- 143 2.09 151 2.09 152 2.09 168 2.09 149 2.09  22 2.95  30 2.95  38 2.95
                            14 2.95  15 2.95  23 2.95  40 2.95  24 2.95
  22  0.250  0.375  0.353- 151 2.09 152 2.09 167 2.09 176 2.09 150 2.09  37 2.95  45 2.95  61 2.95
                            21 2.95  24 2.95  48 2.95  23 2.95  39 2.95
  23  0.125  0.375  0.451- 149 2.09 150 2.09 166 2.09 173 2.09 151 2.09 155 2.09  48 2.95  64 2.95
                            24 2.95  40 2.95  21 2.95  38 2.95  22 2.95  45 2.95  49 2.95  25 2.96
  24  0.250  0.250  0.451- 156 2.09 149 2.09 150 2.09 142 2.09 165 2.09 152 2.09  31 2.95  39 2.95
                            15 2.95  23 2.95  37 2.95  22 2.95  14 2.95  21 2.95  18 2.95  25 2.96
  25  0.125  0.250  0.549- 156 2.08 172 2.09 155 2.09 147 2.09 149 2.09 153 2.12  28 2.93  27 2.94
                            44 2.94  19 2.94  42 2.95  18 2.95  34 2.95  23 2.96  40 2.96  24 2.96
  26  0.250  0.375  0.550- 171 2.07 156 2.09 180 2.09 155 2.10 150 2.10 154 2.14  52 2.93  28 2.93
                            27 2.94  65 2.95  41 2.95  39 2.95  25 2.96  49 2.96  24 2.96  48 2.96
  27  0.125  0.375  0.647- 155 2.07 154 2.07 170 2.08 153 2.09 177 2.09  42 2.93  25 2.94  49 2.94
                            26 2.94  44 2.95  68 2.95  52 2.96  28 2.96
  28  0.250  0.250  0.646- 156 2.06 169 2.07 153 2.09 146 2.09 154 2.10  18 2.93  25 2.93  41 2.93
                            26 2.93  35 2.95  19 2.95  27 2.96  43 2.96
  29  0.375  0.000  0.353- 144 2.09 159 2.09 199 2.09 224 2.09 157 2.09  54 2.95  94 2.95 134 2.95
                            14 2.95  31 2.95  96 2.95  16 2.95  71 2.95
  30  0.000  0.125  0.353- 143 2.09 160 2.09 168 2.09 223 2.09 158 2.09  21 2.95  93 2.95 101 2.95
                            13 2.95  15 2.95  95 2.95  32 2.95  40 2.95
  31  0.375  0.125  0.451- 163 2.08 157 2.09 142 2.09 165 2.09 222 2.09 159 2.09  96 2.95 104 2.95
                            16 2.95  24 2.95  14 2.95  29 2.95  37 2.95  94 2.95  18 2.95  33 2.96
  32  0.000  0.000  0.451- 164 2.09 158 2.09 141 2.09 198 2.09 221 2.09 160 2.09  95 2.95 135 2.95
                            15 2.95  55 2.95  30 2.95  13 2.95  70 2.95  93 2.95  34 2.95  97 2.96
  33  0.375  1.000  0.549- 163 2.08 203 2.09 228 2.09 148 2.09 157 2.09 161 2.12  35 2.93  75 2.94
                           100 2.94  20 2.94 138 2.95  58 2.95  18 2.95  71 2.95  96 2.95  16 2.95
  34  0.000  0.125  0.549- 147 2.09 227 2.09 164 2.09 172 2.09 158 2.09 162 2.12  99 2.94  19 2.94
                            44 2.94  36 2.94  17 2.95  97 2.95 105 2.95  25 2.95  32 2.95  15 2.96
  35  0.375  0.125  0.646- 163 2.06 169 2.07 161 2.09 146 2.09 226 2.09  18 2.92  41 2.92  33 2.93
                            98 2.93  28 2.95  20 2.95 100 2.96 108 2.97
  36  0.000  1.000  0.647- 164 2.07 145 2.09 225 2.09 202 2.09 162 2.09  74 2.94  17 2.94  97 2.94
                            34 2.94  99 2.95 139 2.95  59 2.95  19 2.95
  37  0.375  0.250  0.353- 152 2.09 159 2.09 167 2.09 232 2.09 165 2.09  22 2.95  94 2.95 102 2.95
                            14 2.95  24 2.95  31 2.95 104 2.95  39 2.95
  38  0.000  0.375  0.353- 151 2.09 168 2.09 192 2.09 231 2.09 166 2.09  45 2.95 101 2.95 125 2.95
                            21 2.95  40 2.95 103 2.95  23 2.95  64 2.95
  39  0.375  0.375  0.451- 150 2.09 165 2.09 189 2.09 230 2.09 167 2.09 171 2.10 104 2.95 128 2.95
                            24 2.95  48 2.95  37 2.95  22 2.95  61 2.95 102 2.95  26 2.95  65 2.96
  40  0.000  0.250  0.451- 149 2.09 158 2.09 166 2.09 229 2.09 168 2.09 172 2.09  95 2.95 103 2.95
                            15 2.95  23 2.95 101 2.95  30 2.95  38 2.95  21 2.95 105 2.95  25 2.96
  41  0.375  0.250  0.550- 171 2.08 236 2.08 169 2.10 163 2.10 156 2.10 165 2.10  35 2.92  28 2.93
                           106 2.94  98 2.95  26 2.95 104 2.96  39 2.96  43 2.96  18 2.96  31 2.97
  42  0.000  0.375  0.549- 235 2.09 155 2.09 172 2.09 196 2.09 166 2.09 170 2.12 107 2.93  27 2.93
                            68 2.94  44 2.94 105 2.95  49 2.95  25 2.95 129 2.95  40 2.96  23 2.96
  43  0.375  0.374  0.649- 234 2.08 169 2.10 154 2.11 193 2.12 171 2.13   9 2.24 132 2.94 108 2.94
                            28 2.96  41 2.96 106 2.96  52 2.97  65 2.97  26 2.98
  44  0.000  0.250  0.647- 172 2.07 153 2.08 233 2.08 162 2.09 170 2.09  34 2.94  25 2.94 105 2.94
                            42 2.94  19 2.95  99 2.95  27 2.95 107 2.95
  45  0.125  0.500  0.353- 151 2.09 175 2.09 176 2.09 192 2.09 173 2.09  38 2.95  46 2.95  62 2.95
                            22 2.95  48 2.95  23 2.95  64 2.95  47 2.95
  46  0.250  0.625  0.353- 175 2.09 176 2.09 184 2.09 191 2.09 174 2.09  53 2.95  61 2.95  69 2.95
                            45 2.95  48 2.95  63 2.95  47 2.95  56 2.95
  47  0.125  0.625  0.451- 179 2.09 174 2.09 173 2.09 181 2.09 190 2.09 175 2.09  64 2.95  72 2.95
                            48 2.95  56 2.95  45 2.95  53 2.95  46 2.95  62 2.95  50 2.95  49 2.95
  48  0.250  0.500  0.451- 180 2.08 173 2.09 174 2.09 150 2.09 189 2.09 176 2.09  47 2.95  63 2.95
                            23 2.95  39 2.95  61 2.95  45 2.95  46 2.95  22 2.95  50 2.95  49 2.95
[...]
   2.08706582 12.52407324 11.67967238
   4.17393748 14.61082230 11.67965995
   2.08588483 14.61081217 13.74674015
   4.17187476 12.52570806 13.74694346
[...]
   8.34911183 10.43638978  9.58727796
  14.61094570 10.43638978  7.50000000
   8.34911183  8.34911183  7.50000000
  14.61458131  8.35279353 13.80091873
   8.35119520 10.45446755 13.82815268
  14.61292753 10.43786172 11.67377438
   8.34824046  8.35950005 11.68261967
  14.61094570 12.52366774  9.58727796
   8.34911183 14.61094570  9.58727796
  14.61094570 14.61094570  7.50000000
   8.34911183 12.52366774  7.50000000
  14.61412824 12.52624168 13.79982592
   8.34939244 14.61080210 13.80237925
  14.61160040 14.61068705 11.67388011
   8.34934329 12.52457083 11.67681782

--------------------------------------- Iteration      FINAL  ---------------------------------------

--------------------OUTCAR has been truncated-------------------------

[...]

--------------------OUTCAR has been truncated-------------------------

  FORCE on cell =-STRESS in cart. coord.  units (eV):
  Direction    XX          YY          ZZ          XY          YZ          ZX
  Alpha Z  1061.05897  1061.05897  1061.05897
  Ewald  213195.54837213197.88884************     0.08904   -12.62902    -4.47621
  Hartree228618.10442228620.34792************     0.04305    -5.98731    -2.05717
  E(xc)   -3636.02296 -3636.02210 -3631.17947     0.00076    -0.02384    -0.01064
  Local  ************************444714.80692    -0.15544    16.48759     5.62617
  n-local -1808.24415 -1808.25407 -1890.81977    -0.00300     0.05996     0.06484
  augment   843.00834   843.01793   855.90493     0.00121     0.14078     0.05329
  Kinetic 18676.79705 18676.89114 18926.65396     0.02972     1.95822     0.70100
  Fock    -1817.91993 -1817.92171 -1808.72608     0.00026     0.00538     0.00597
  vdW       -36.99404   -36.99399   -25.56997     0.00004     0.00028    -0.00031
  Total    -117.92583  -117.93723     1.59483     0.00566     0.01204    -0.09306
  in kB     -31.86972   -31.87280     0.43101     0.00153     0.00325    -0.02515

 VOLUME and BASIS-vectors are now :
  energy-cutoff  :      520.00
  volume of cell :     5928.45
      direct lattice vectors                 reciprocal lattice vectors
    16.698223653  0.000000000  0.000000000     0.059886610  0.000000000  0.000000000
     0.000000000 16.698223653  0.000000000     0.000000000  0.059886610  0.000000000
     0.000000000  0.000000000 21.261833870     0.000000000  0.000000000  0.047032632

  length of vectors
    16.698223653 16.698223653 21.261833870     0.059886610  0.059886610  0.047032632

 FORCES acting on ions:
    Electron-Ion                     Ewald-Force                    Non-Local-Force
   -.129E+02 -.668E+02 -.169E+03   0.176E+02 0.737E+02 0.170E+03   -.452E+01 -.659E+01 -.740E+00
   0.103E+03 -.169E+02 -.179E+03   -.112E+03 0.184E+02 0.181E+03   0.802E+01 -.149E+01 -.207E+01
   0.133E+02 0.660E+02 -.170E+03   -.181E+02 -.728E+02 0.171E+03   0.459E+01 0.651E+01 -.856E+00
   -.103E+03 0.178E+02 -.178E+03   0.112E+03 -.195E+02 0.180E+03   -.803E+01 0.158E+01 -.194E+01
   0.658E+02 -.134E+02 -.170E+03   -.726E+02 0.183E+02 0.171E+03   0.650E+01 -.460E+01 -.795E+00
   0.173E+02 0.103E+03 -.180E+03   -.189E+02 -.111E+03 0.183E+03   0.154E+01 0.796E+01 -.227E+01
   -.676E+02 0.123E+02 -.170E+03   0.746E+02 -.170E+02 0.171E+03   -.664E+01 0.446E+01 -.818E+00
   -.169E+02 -.104E+03 -.175E+03   0.184E+02 0.113E+03 0.177E+03   -.149E+01 -.812E+01 -.157E+01
   0.140E+03 0.343E+02 -.947E+03   -.124E+03 -.701E+02 0.936E+03   -.143E+02 0.308E+02 0.990E+01
   -.140E+03 -.352E+02 -.947E+03   0.124E+03 0.713E+02 0.936E+03   0.142E+02 -.311E+02 0.972E+01
   -.344E+02 0.141E+03 -.945E+03   0.700E+02 -.125E+03 0.932E+03   -.307E+02 -.138E+02 0.109E+02
   0.349E+02 -.138E+03 -.950E+03   -.710E+02 0.121E+03 0.941E+03   0.311E+02 0.149E+02 0.805E+01
   0.895E+00 0.889E+00 0.313E+03   -.892E+00 -.886E+00 -.310E+03   0.900E-03 -.835E-03 -.242E+01
   0.159E+01 0.159E+01 0.314E+03   -.159E+01 -.158E+01 -.311E+03   -.253E-02 -.207E-02 -.242E+01
   0.196E+01 0.212E+01 0.106E+03   -.195E+01 -.212E+01 -.107E+03   0.253E-03 0.104E-02 0.130E+00
   0.214E+01 0.195E+01 0.106E+03   -.214E+01 -.195E+01 -.107E+03   -.771E-03 -.106E-02 0.126E+00
   0.246E+01 0.244E+01 -.963E+02   -.246E+01 -.243E+01 0.963E+02   -.481E-02 -.433E-02 -.539E-02
   0.612E+01 0.610E+01 -.911E+02   -.611E+01 -.608E+01 0.911E+02   -.931E-02 -.189E-01 0.170E-01
   0.643E+01 0.595E+01 -.300E+03   -.640E+01 -.595E+01 0.298E+03   -.345E-01 -.144E-02 0.241E+01
   0.602E+01 0.646E+01 -.300E+03   -.602E+01 -.642E+01 0.298E+03   -.357E-02 -.399E-01 0.240E+01
   0.132E+01 0.931E+00 0.314E+03   -.131E+01 -.927E+00 -.311E+03   -.202E-02 -.901E-03 -.242E+01
   0.205E+01 0.210E-01 0.315E+03   -.204E+01 -.214E-01 -.312E+03   -.401E-02 -.292E-03 -.242E+01
   0.281E+01 0.438E-01 0.108E+03   -.278E+01 -.450E-01 -.108E+03   -.126E-02 -.181E-02 0.151E+00
   0.378E+01 0.221E+01 0.110E+03   -.375E+01 -.219E+01 -.110E+03   0.425E-03 -.316E-02 0.134E+00
   0.557E+01 0.294E+01 -.926E+02   -.553E+01 -.293E+01 0.926E+02   -.555E-01 -.114E-01 0.132E-01
   0.112E+02 0.100E+00 -.851E+02   -.111E+02 -.111E+00 0.851E+02   -.191E+00 0.128E-01 0.114E+00
   0.130E+02 0.144E+00 -.295E+03   -.129E+02 -.146E+00 0.293E+03   -.119E+00 0.140E-02 0.239E+01
   0.219E+02 0.117E+02 -.286E+03   -.217E+02 -.117E+02 0.284E+03   -.217E+00 0.417E-01 0.241E+01
   0.922E+00 0.131E+01 0.314E+03   -.918E+00 -.130E+01 -.311E+03   -.271E-02 -.248E-02 -.242E+01
   -.735E-02 0.117E+01 0.313E+03   0.734E-02 -.116E+01 -.310E+03   0.468E-05 0.918E-03 -.242E+01
   0.219E+01 0.376E+01 0.110E+03   -.217E+01 -.373E+01 -.110E+03   -.488E-02 0.138E-02 0.119E+00
   -.803E-02 0.124E+01 0.105E+03   0.833E-02 -.124E+01 -.105E+03   0.206E-05 -.110E-03 0.128E+00
   0.289E+01 0.557E+01 -.925E+02   -.288E+01 -.553E+01 0.925E+02   -.104E-01 -.481E-01 0.216E-01
   -.193E-01 0.293E+01 -.957E+02   0.204E-01 -.294E+01 0.958E+02   -.145E-02 0.562E-02 0.355E-03
   0.119E+02 0.220E+02 -.285E+03   -.119E+02 -.218E+02 0.283E+03   0.256E-01 -.222E+00 0.242E+01
   -.141E-01 0.275E+01 -.302E+03   0.146E-01 -.275E+01 0.300E+03   -.497E-03 0.788E-02 0.241E+01
   0.139E+01 0.139E+01 0.316E+03   -.138E+01 -.138E+01 -.313E+03   -.320E-02 -.259E-02 -.242E+01
   -.603E-02 0.117E-01 0.313E+03   0.587E-02 -.117E-01 -.311E+03   0.415E-04 -.171E-02 -.242E+01
   0.308E+01 0.456E-01 0.114E+03   -.307E+01 -.498E-01 -.114E+03   0.257E-02 -.112E-02 0.172E+00
   -.195E-01 0.132E+01 0.107E+03   0.209E-01 -.132E+01 -.107E+03   0.494E-03 0.637E-05 0.136E+00
   0.808E+01 0.807E+01 -.776E+02   -.797E+01 -.796E+01 0.778E+02   -.137E+00 -.133E+00 -.261E+00
   -.275E-01 0.249E-01 -.939E+02   0.267E-01 -.256E-01 0.939E+02   0.482E-03 0.131E-02 0.863E-02
   0.284E+02 0.939E+00 -.241E+03   -.282E+02 -.100E+01 0.239E+03   -.290E+00 0.764E-01 0.135E+01
   -.541E-01 0.334E+01 -.300E+03   0.575E-01 -.335E+01 0.298E+03   -.453E-02 0.193E-01 0.241E+01
   0.133E+01 -.912E+00 0.314E+03   -.132E+01 0.908E+00 -.311E+03   -.559E-03 0.968E-03 -.242E+01
   0.160E+01 -.160E+01 0.314E+03   -.159E+01 0.159E+01 -.311E+03   -.244E-02 0.283E-02 -.242E+01
   0.198E+01 -.215E+01 0.106E+03   -.198E+01 0.215E+01 -.107E+03   0.860E-03 0.240E-02 0.127E+00
   0.377E+01 -.217E+01 0.110E+03   -.374E+01 0.215E+01 -.110E+03   -.232E-03 0.308E-02 0.114E+00
   0.565E+01 -.288E+01 -.924E+02   -.561E+01 0.287E+01 0.925E+02   -.476E-01 0.120E-01 0.219E-01
   0.612E+01 -.615E+01 -.910E+02   -.611E+01 0.615E+01 0.910E+02   -.127E-01 0.480E-02 0.168E-01
   0.654E+01 -.604E+01 -.300E+03   -.651E+01 0.604E+01 0.298E+03   -.365E-01 0.244E-02 0.241E+01
   0.222E+02 -.119E+02 -.285E+03   -.220E+02 0.119E+02 0.283E+03   -.220E+00 -.314E-01 0.242E+01
   0.896E+00 -.908E+00 0.313E+03   -.893E+00 0.905E+00 -.310E+03   -.371E-03 0.773E-03 -.242E+01
   0.117E+01 -.109E-01 0.313E+03   -.116E+01 0.111E-01 -.311E+03   -.786E-03 -.465E-03 -.242E+01
   0.126E+01 -.196E-01 0.105E+03   -.125E+01 0.192E-01 -.105E+03   0.149E-02 -.166E-02 0.128E+00
   0.214E+01 -.199E+01 0.106E+03   -.213E+01 0.199E+01 -.107E+03   -.549E-03 0.144E-02 0.133E+00
   0.246E+01 -.249E+01 -.963E+02   -.246E+01 0.249E+01 0.963E+02   -.315E-02 0.327E-02 -.129E-02
   0.292E+01 -.281E-01 -.958E+02   -.293E+01 0.282E-01 0.958E+02   0.791E-02 -.516E-03 0.301E-02
   0.278E+01 -.299E-01 -.302E+03   -.279E+01 0.315E-01 0.300E+03   0.676E-02 -.156E-02 0.241E+01
   0.601E+01 -.653E+01 -.300E+03   -.601E+01 0.650E+01 0.298E+03   -.171E-02 0.349E-01 0.241E+01
[...]
   -.334E+01 -.386E+01 0.905E+03   0.333E+01 0.385E+01 -.909E+03   0.116E-01 0.128E-01 0.293E+01
   0.231E-01 -.438E+01 0.913E+03   -.227E-01 0.436E+01 -.917E+03   -.487E-03 0.278E-01 0.287E+01
   -.311E+02 -.157E+02 -.871E+03   0.310E+02 0.157E+02 0.877E+03   0.729E-01 0.666E-01 -.454E+01
   0.167E+01 -.891E+02 -.819E+03   -.169E+01 0.885E+02 0.824E+03   0.174E-01 0.492E+00 -.424E+01
   -.115E+02 -.113E+02 -.280E+03   0.114E+02 0.113E+02 0.280E+03   0.322E-01 0.437E-01 0.296E+00
   0.135E+00 -.269E+02 -.218E+03   -.105E+00 0.265E+02 0.218E+03   -.257E-01 0.341E+00 -.283E+00
   -.442E+01 -.443E+01 0.317E+03   0.441E+01 0.442E+01 -.317E+03   0.140E-01 0.104E-01 -.269E-01
   0.329E-01 -.913E-01 0.321E+03   -.334E-01 0.952E-01 -.321E+03   0.597E-03 -.553E-02 -.275E-02
   -.246E+01 -.358E-01 0.903E+03   0.246E+01 0.360E-01 -.907E+03   0.541E-02 -.386E-03 0.294E+01
   0.283E-01 -.429E+01 0.907E+03   -.285E-01 0.426E+01 -.911E+03   0.258E-03 0.286E-01 0.292E+01
   -.113E+02 -.113E+02 -.884E+03   0.113E+02 0.113E+02 0.889E+03   0.304E-01 0.348E-01 -.455E+01
   0.476E-01 -.414E+00 -.877E+03   -.473E-01 0.425E+00 0.882E+03   -.364E-03 -.933E-02 -.453E+01
   -.603E+01 -.926E-01 -.287E+03   0.603E+01 0.950E-01 0.287E+03   0.574E-02 -.200E-02 0.294E+00
   0.183E+00 -.184E+02 -.271E+03   -.181E+00 0.183E+02 0.271E+03   -.184E-02 0.127E+00 0.368E+00
   -.302E+00 -.762E+00 0.201E+02   0.554E-12 0.909E-12 -.273E-11   0.258E+00 0.640E+00 -.176E+02

 POSITION                                       TOTAL-FORCE (eV/Angst)
      6.92801      7.15270     16.14618         0.002633      0.001684     -0.000920
      5.49000      6.52994     16.28973         0.001708      0.000915      0.002442
      9.77792      5.40127     16.15778        -0.000238      0.000726     -0.001649
     11.22633      6.00630     16.27275        -0.004876      0.002092      0.001690
      7.48408      4.86086     16.15742         0.004514     -0.002692     -0.003471
      8.09446      3.41898     16.31579        -0.000338      0.002704     -0.000289
      9.23755      7.72358     16.14667         0.002447     -0.005158     -0.000587
      8.61068      9.16599     16.22559         0.000595      0.001372      0.007291
      6.39955      6.33627     16.04264         0.001229      0.000082     -0.002182
     10.31503      6.21035     16.04018        -0.000553     -0.002845     -0.001153
      8.29262      4.32091     16.04597        -0.009173      0.003621     -0.000478
      8.41667      8.24240     16.03556        -0.005445     -0.006609     -0.002270
      2.08728      0.00000      7.50000         0.003512      0.002002      0.479703
      4.17456      2.08728      7.50000         0.006897      0.007183      0.483519
      2.08728      2.08728      9.58728         0.003884      0.005357      0.020370
      4.17456      0.00000      9.58728         0.003580      0.002325      0.019891
      2.08725     16.69762     11.67944        -0.002499     -0.001111      0.001672
      4.17395      2.08727     11.67781        -0.001084     -0.000755     -0.000262
      2.08555      2.08418     13.74629         0.000519     -0.000672      0.000716
      4.17180     16.69610     13.74625        -0.001451      0.000580      0.000196
      2.08728      4.17456      7.50000         0.006753      0.003005      0.483445
      4.17456      6.26183      7.50000         0.011166     -0.000750      0.495962
      2.08728      6.26183      9.58728         0.031388     -0.002841      0.034879
      4.17456      4.17456      9.58728         0.032669      0.020772      0.048199
      2.08721      4.17469     11.67929        -0.001724     -0.000314      0.000829
      4.18166      6.26091     11.68533        -0.001854     -0.000172     -0.000329
      2.08436      6.26194     13.74628        -0.000254     -0.001168      0.000320
      4.17205      4.16864     13.73777         0.000224     -0.000454      0.002240
      6.26183      0.00000      7.50000         0.001716      0.006502      0.482743
      0.00000      2.08728      7.50000        -0.000023      0.003813      0.480032
      6.26183      2.08728      9.58728         0.020797      0.033160      0.043346
      0.00000      0.00000      9.58728         0.000315      0.001158      0.020204
      6.26197     16.69730     11.67824         0.000147     -0.001525      0.000711
      0.00023      2.08655     11.67946        -0.000113     -0.001084      0.001229
      6.25611      2.08425     13.72994        -0.000971      0.001598      0.003215
      0.00027     16.69640     13.74610         0.000065     -0.001976      0.003251
      6.26183      4.17456      7.50000         0.007378      0.007217      0.500901
      0.00000      6.26183      7.50000        -0.000122     -0.001588      0.479068
      6.26183      6.26183      9.58728         0.019149     -0.005292      0.103570
      0.00000      4.17456      9.58728         0.001847     -0.000295      0.017797
      6.26987      4.18099     11.69184        -0.000349      0.000421      0.000724
      0.00017      6.26163     11.68008        -0.000431      0.000351      0.001323
      6.26874      6.25227     13.80787         0.000546      0.000696      0.001110
      0.00044      4.17211     13.74687        -0.000541     -0.001087      0.000914
      2.08728      8.34911      7.50000         0.007566     -0.003237      0.482517
      4.17456     10.43639      7.50000         0.006650     -0.006267      0.482942
      2.08728     10.43639      9.58728         0.003969     -0.001009      0.019336
      4.17456      8.34911      9.58728         0.028960     -0.021611      0.040591
      2.08638      8.34898     11.67798        -0.001521     -0.000022      0.000708
      4.17460     10.43754     11.67761        -0.001190      0.000967     -0.000432
      2.08531     10.43948     13.74603         0.000550      0.001406      0.000378
      4.17121      8.35566     13.72848         0.000757      0.000016      0.003507
      2.08728     12.52367      7.50000         0.002272     -0.001860      0.480238
      4.17456     14.61095      7.50000         0.002255     -0.000267      0.480714
      2.08728     14.61095      9.58728         0.003710     -0.001966      0.019367
      4.17456     12.52367      9.58728         0.003877     -0.000840      0.020321
      2.08707     12.52407     11.67967        -0.001488      0.001566      0.001524
      4.17394     14.61082     11.67966        -0.000418     -0.000410      0.000806
      2.08588     14.61081     13.74674        -0.002168      0.000223      0.002927
      4.17187     12.52571     13.74694        -0.002039     -0.000789      0.000350
[...]
      8.34911     10.43639      9.58728        -0.001532      0.031518      0.035528
     14.61095     10.43639      7.50000         0.003905      0.004324     -0.564504
      8.34911      8.34911      7.50000        -0.000157      0.009442     -0.585361
     14.61458      8.35279     13.80092         0.001567      0.000961      0.001271
      8.35120     10.45447     13.82815         0.000136      0.000779     -0.002917
     14.61293     10.43786     11.67377         0.000594      0.001315      0.000700
      8.34824      8.35950     11.68262        -0.000045     -0.000581      0.000532
     14.61095     12.52367      9.58728         0.006759      0.003534      0.040988
      8.34911     14.61095      9.58728         0.000142     -0.002518      0.054861
     14.61095     14.61095      7.50000         0.001789     -0.000210     -0.562921
      8.34911     12.52367      7.50000         0.000104      0.009733     -0.570121
     14.61413     12.52624     13.79983        -0.000688      0.000249      0.001681
      8.34939     14.61080     13.80238        -0.000090     -0.000168      0.003197
     14.61160     14.61069     11.67388         0.000679      0.000217      0.000545
      8.34934     12.52457     11.67682         0.000222     -0.000455     -0.000164
    total drift:                               -0.000920      0.007822     -0.116618

  FREE ENERGIE OF THE ION-ELECTRON SYSTEM (eV)
  free  energy   TOTEN  =     -1966.16082900 eV

  energy  without entropy=    -1966.16082900  energy(sigma->0) =    -1966.16082900

 reached required accuracy - stopping structural energy minimisation