 vasp.6.3.0 20Jan22 (build Dec 25 2023 18:06:01) complex
 executed on        HPECrayEX_GCC date 2024.01.24  03:03:17

 INCAR:
   SYSTEM = MgO-rocksalt
   ISMEAR = 0
   SIGMA = 0.05
   EDIFF = 1E-8
   ALGO = ALL
   ISTART = 0
   IBRION = 5
   POTIM = 0.01
   NFREE = 2
   ISYM = 0
   DIPOL = 0.5 0.5 0.5
   IDIPOL = 3
   LDIPOL = .TRUE.
   GGA = MK
   LUSE_VDW = .TRUE.
   PARAM1 = 0.1234
   PARAM2 = 0.711357
   ZAB_VDW = -1.8867
   AGGAC = 0.0
   ENCUT = 600
   PREC = Accurate
   LASPH = .TRUE.
   LREAL = .FALSE.
   ISPIN = 1
   NELM = 200
   NELMIN = 8
   NCORE = 8
   KPAR = 1
   LWAVE = .FALSE.
   LCHARG = .FALSE.

 POTCAR:    PAW_PBE C 08Apr2002
 POTCAR:    PAW_PBE H 15Jun2001
 POTCAR:    PAW_PBE Ti_pv 07Sep2000
 POTCAR:    PAW_PBE O 08Apr2002
|               ----> ADVICE to this user running VASP <----                  |
|     You have switched on vdW-DFT.                                           |
|     This routine was written and supplied by Jiri Klimes. We recommend      |
|     that you carefully read and cite the following publications:            |
|       J. Klimes, D.R. Bowler, A. Michelides                                 |
|          J. Phys.: Cond Matt. 22 022201 (2010)                              |
|       J. Klimes, D.R. Bowler, A. Michelides                                 |
|          Phys. Rev. B. 83, 195131 (2011)                                    |
|     and references therein.                                                 |

   TITEL  = PAW_PBE C 08Apr2002
   POMASS =   12.011; ZVAL   =    4.000    mass and valenz
   ENMAX  =  400.000; ENMIN  =  300.000 eV

   TITEL  = PAW_PBE H 15Jun2001
   POMASS =    1.000; ZVAL   =    1.000    mass and valenz
   ENMAX  =  250.000; ENMIN  =  200.000 eV

   TITEL  = PAW_PBE Ti_pv 07Sep2000
   POMASS =   47.880; ZVAL   =   10.000    mass and valenz
   ENMAX  =  222.335; ENMIN  =  166.751 eV

   TITEL  = PAW_PBE O 08Apr2002
   POMASS =   16.000; ZVAL   =    6.000    mass and valenz
   ENMAX  =  400.000; ENMIN  =  300.000 eV

  PAW_PBE C 08Apr2002                   :
  PAW_PBE H 15Jun2001                   :
  PAW_PBE Ti_pv 07Sep2000               :
  PAW_PBE O 08Apr2002                   :

 POSCAR:  C  H Ti  O
  positions in direct lattice
 exchange correlation table for  LEXCH =       43
   RHO(1)=    0.500       N(1)  =     2000
   RHO(2)=  100.500       N(2)  =     4000

 ion  position               nearest neighbor table
   1  0.500  0.500  0.812-   2 1.10   3 1.10   4 1.10   5 1.10
   2  0.496  0.576  0.832-   1 1.10
   3  0.504  0.424  0.832-   1 1.10
   4  0.571  0.504  0.792-   1 1.10
   5  0.430  0.496  0.792-   1 1.10
   6  0.750  0.625  0.287-  86 1.96  87 1.96 146 1.96 147 1.96 168 1.99  89 1.99  16 2.96  36 2.96

   7  0.000  0.750  0.287-  89 1.96 109 1.96 108 1.96  88 1.96  90 1.99  37 2.96  17 2.96
   8  0.000  0.625  0.393-  90 1.96  91 1.96 150 1.96 151 1.96  92 1.99  93 1.99  18 2.96  38 2.96

[...]

  85  0.500  0.500  0.710- 239 1.83 244 1.95 185 1.95 184 1.95 245 1.95  75 2.96  55 2.96
  86  0.750  0.750  0.245-   6 1.96  16 1.96
  87  0.750  0.750  0.328-   6 1.96  16 1.96   9 1.99
  88  0.098  0.625  0.287-   7 1.96  37 1.96  46 1.99
  89  0.902  0.625  0.287-   7 1.96  37 1.96   6 1.99
  90  0.000  0.750  0.352-   8 1.96  18 1.96   7 1.99
  91  0.000  0.750  0.435-   8 1.96  18 1.96  11 1.99
  92  0.848  0.625  0.393-   9 1.96  39 1.96   8 1.99
  93  0.152  0.625  0.393-  49 1.96  79 1.96   8 1.99
  94  0.750  0.750  0.458-  10 1.96  20 1.96   9 1.99
  95  0.750  0.750  0.542-  10 1.96  20 1.96  13 2.11
  96  0.098  0.625  0.500-  11 1.96  41 1.96  50 1.99
  97  0.902  0.625  0.500-  11 1.96  41 1.96  10 1.99
  98  1.000  0.750  0.565-  12 1.90  22 1.90  11 2.00
  99  0.000  0.750  0.649-  15 1.82  22 2.02  12 2.02
 100  0.850  0.625  0.607-  12 1.96  13 1.98  43 1.98
 101  0.150  0.625  0.607-  12 1.96  53 1.98  83 1.98
 102  0.750  0.750  0.672-  13 1.87  14 2.10  24 2.10
 103  0.750  0.750  0.756-  14 1.83  24 1.83
 104  0.094  0.625  0.719-  45 1.95  15 1.95  54 2.04
 105  0.906  0.625  0.719-  45 1.95  15 1.95  14 2.04
 106  0.750  0.000  0.245-  16 1.96  26 1.96
 107  0.750  0.000  0.328-  16 1.96  26 1.96  19 1.99
 108  0.098  0.875  0.287-   7 1.96  17 1.96  56 1.99
 109  0.902  0.875  0.287-   7 1.96  17 1.96  16 1.99
 110  0.000  0.000  0.352-  18 1.96  28 1.96  17 1.99
 111  0.000  0.000  0.435-  18 1.96  28 1.96  21 1.99
 112  0.848  0.875  0.393-   9 1.96  19 1.96  18 1.99
 113  0.152  0.875  0.393-  49 1.96  59 1.96  18 1.99
 114  0.750  0.000  0.458-  20 1.96  30 1.96  19 1.99
 115  0.750  0.000  0.542-  20 1.96  30 1.96  23 2.11
 116  0.098  0.875  0.500-  11 1.96  21 1.96  60 1.99
 117  0.902  0.875  0.500-  11 1.96  21 1.96  20 1.99
 118  0.000  1.000  0.565-  32 1.90  22 1.90  21 2.00
 119  1.000  1.000  0.649-  25 1.82  22 2.02  32 2.02
 120  0.850  0.875  0.607-  22 1.96  13 1.98  23 1.98
 121  0.150  0.875  0.607-  22 1.96  53 1.98  63 1.98
 122  0.750  0.000  0.672-  23 1.87  24 2.10  34 2.10
 123  0.750  0.000  0.756-  24 1.83  34 1.83
 124  0.094  0.875  0.719-  15 1.95  25 1.95  64 2.04
 125  0.906  0.875  0.719-  15 1.95  25 1.95  24 2.04
 126  0.750  0.250  0.245-  26 1.96  36 1.96
 127  0.750  0.250  0.328-  26 1.96  36 1.96  29 1.99
 128  0.098  0.125  0.287-  17 1.96  27 1.96  66 1.99
 129  0.902  0.125  0.287-  17 1.96  27 1.96  26 1.99
 130  0.000  0.250  0.352-  28 1.96  38 1.96  27 1.99
 131  0.000  0.250  0.435-  28 1.96  38 1.96  31 1.99
 132  0.848  0.125  0.393-  19 1.96  29 1.96  28 1.99
 133  0.152  0.125  0.393-  59 1.96  69 1.96  28 1.99
 134  0.750  0.250  0.458-  30 1.96  40 1.96  29 1.99
 135  0.750  0.250  0.542-  30 1.96  40 1.96  33 2.11
 136  0.098  0.125  0.500-  21 1.96  31 1.96  70 1.99
 137  0.902  0.125  0.500-  21 1.96  31 1.96  30 1.99
 138  0.000  0.250  0.565-  42 1.90  32 1.90  31 2.00
 139  1.000  0.250  0.649-  35 1.82  32 2.02  42 2.02
 140  0.850  0.125  0.607-  32 1.96  33 1.98  23 1.98
 141  0.150  0.125  0.607-  32 1.96  73 1.98  63 1.98
 142  0.750  0.250  0.672-  33 1.87  44 2.10  34 2.10
 143  0.750  0.250  0.756-  44 1.83  34 1.83
 144  0.094  0.125  0.719-  35 1.95  25 1.95  74 2.04
[...]
 231  0.500  0.500  0.435-  48 1.96  78 1.96  81 1.99
 232  0.348  0.375  0.393-  69 1.96  79 1.96  78 1.99
 233  0.652  0.375  0.393-  29 1.96  39 1.96  78 1.99
 234  0.250  0.500  0.458-  50 1.96  80 1.96  79 1.99
 235  0.250  0.500  0.542-  50 1.96  80 1.96  83 2.11
 236  0.598  0.375  0.500-  71 1.96  81 1.96  40 1.99
 237  0.402  0.375  0.500-  71 1.96  81 1.96  80 1.99
 238  0.500  0.500  0.566-  82 1.90  52 1.90  81 2.01
 239  0.500  0.500  0.650-  85 1.83  82 2.02  52 2.02
 240  0.350  0.375  0.607-  82 1.96  83 1.98  73 1.98
 241  0.650  0.375  0.607-  82 1.96  43 1.98  33 1.98
 242  0.249  0.500  0.672-  83 1.87  84 2.10  54 2.10
 243  0.251  0.500  0.756-  54 1.84  84 1.84
 244  0.594  0.374  0.719-  75 1.94  85 1.95  44 2.04
 245  0.406  0.374  0.718-  75 1.94  85 1.95  84 2.04

IMPORTANT INFORMATION: All symmetrisations will be switched off!
NOSYMM: (Re-)initialisation of all symmetry stuff for point group C_1.

                                     Primitive cell

  volume of cell :    4737.1524

  direct lattice vectors                    reciprocal lattice vectors
    13.061127704  0.000000000  0.000000000     0.076563067  0.000000000  0.000000000
     0.000000000 11.845298948  0.000000000     0.000000000  0.084421677  0.000000000
     0.000000000  0.000000000 30.618975621     0.000000000  0.000000000  0.032659486

  length of vectors
    13.061127704 11.845298948 30.618975621     0.076563067  0.084421677  0.032659486

  position of ions in fractional coordinates (direct lattice)
     0.500059689  0.500008011  0.811837894
     0.496252497  0.575784910  0.832394015
     0.503872442  0.424211505  0.832398826
     0.570598932  0.504156823  0.792221298
     0.429504262  0.495833918  0.792227117
     0.750000000  0.625000000  0.286715143
     0.000000000  0.750000000  0.286715143
     0.000000000  0.625000000  0.393357571
     0.750000000  0.750000000  0.393357571
     0.750000000  0.625000000  0.500000000
     0.000000000  0.750000000  0.500000000
     0.999999625  0.625015376  0.604444969
     0.750030164  0.750039124  0.610671635
     0.750207450  0.625164804  0.720210052
     0.000022175  0.750121738  0.708568275
     0.750000000  0.875000000  0.286715143
     0.000000000  0.000000000  0.286715143
     0.000000000  0.875000000  0.393357571
     0.750000000  0.000000000  0.393357571
     0.750000000  0.875000000  0.500000000
     0.000000000  0.000000000  0.500000000
     0.999996762  0.875018295  0.604461287
     0.749966535  0.000002502  0.610731719
     0.749856862  0.875049787  0.720416936
     0.999999875  0.999999989  0.708576685
     0.750000000  0.125000000  0.286715143
     0.000000000  0.250000000  0.286715143
     0.000000000  0.125000000  0.393357571
     0.750000000  0.250000000  0.393357571
     0.750000000  0.125000000  0.500000000
     0.000000000  0.250000000  0.500000000
     0.000003328  0.124981688  0.604461284
     0.750029610  0.249962992  0.610681858
     0.749839637  0.124964502  0.720420132
     0.999978510  0.249878242  0.708568270
     0.750000000  0.375000000  0.286715143
     0.000000000  0.500000000  0.286715143
     0.000000000  0.375000000  0.393357571
     0.750000000  0.500000000  0.393357571
     0.750000000  0.375000000  0.500000000
     0.000000000  0.500000000  0.500000000
     0.000000454  0.374984630  0.604444972
     0.750054049  0.499997446  0.610684810
     0.750156935  0.374872934  0.720244024
     0.000000529  0.499999997  0.708549465
     0.250000000  0.625000000  0.286715143
     0.500000000  0.750000000  0.286715143
     0.500000000  0.625000000  0.393357571
     0.250000000  0.750000000  0.393357571
     0.250000000  0.625000000  0.500000000
     0.500000000  0.750000000  0.500000000
     0.499999015  0.624590740  0.604831395
     0.249970471  0.750036919  0.610682017
     0.249844431  0.625126597  0.720244699
     0.500006285  0.750056596  0.708432550
     0.250000000  0.875000000  0.286715143
     0.500000000  0.000000000  0.286715143
     0.500000000  0.875000000  0.393357571
     0.250000000  0.000000000  0.393357571
     0.250000000  0.875000000  0.500000000
[...]
     0.500000000  0.500000000  0.435126570
     0.347918341  0.375000000  0.393357571
     0.652081659  0.375000000  0.393357571
     0.250000000  0.500000000  0.458231001
     0.250000000  0.500000000  0.541768999
     0.597918341  0.375000000  0.500000000
     0.402081659  0.375000000  0.500000000
     0.500000014  0.499999984  0.565644733
     0.499999795  0.500000019  0.649743789
     0.350002491  0.374998919  0.607334526
     0.649998162  0.375004271  0.607330698
     0.249456338  0.500020426  0.671747354
     0.250942838  0.499955013  0.755583400
     0.594194504  0.374279646  0.718551030
     0.405737963  0.374238058  0.718455073

  ion indices of the primitive-cell ions
   primitive index   ion index
                 1           1
                 2           2
                 3           3
                 4           4
                 5           5
                 6           6
[...]

 Eigenvectors and eigenvalues of the dynamical matrix

   1 f  =   91.907041 THz   577.468971 2PiTHz 3065.688904 cm-1   380.096810 meV
             X         Y         Z           dx          dy          dz
      6.531343  5.922744 24.857645     0.020782   -0.302112   -0.010408
      6.481617  6.820344 25.487052    -0.030806    0.562727    0.408274
      6.581142  5.024912 25.487199    -0.028730    0.524655   -0.382827
      7.452666  5.971888 24.257005    -0.015419   -0.021576    0.010495
      5.609810  5.873301 24.257183     0.002659   -0.020609    0.000209
      9.795846  7.403312  8.778924            0           0           0
      0.000000  8.883974  8.778924            0           0           0
      0.000000  7.403312 12.044206            0           0           0
      9.795846  8.883974 12.044206            0           0           0
      9.795846  7.403312 15.309488            0           0           0
      0.000000  8.883974 15.309488            0           0           0
     13.061123  7.403494 18.507486            0           0           0
      9.796240  8.884438 18.698140            0           0           0
      9.798555  7.405264 22.052094            0           0           0
      0.000290  8.885416 21.695635            0           0           0
      9.795846 10.364637  8.778924            0           0           0
      0.000000  0.000000  8.778924            0           0           0
      0.000000 10.364637 12.044206            0           0           0
      9.795846  0.000000 12.044206            0           0           0
      9.795846 10.364637 15.309488            0           0           0
      0.000000  0.000000 15.309488            0           0           0
     13.061085 10.364853 18.507985            0           0           0
      9.795409  0.000030 18.699980            0           0           0
      9.793976 10.365226 22.058429            0           0           0
     13.061126 11.845299 21.695892            0           0           0
      9.795846  1.480662  8.778924            0           0           0
      0.000000  2.961325  8.778924            0           0           0
      0.000000  1.480662 12.044206            0           0           0
      9.795846  2.961325 12.044206            0           0           0
      9.795846  1.480662 15.309488            0           0           0
      0.000000  2.961325 15.309488            0           0           0
      0.000043  1.480445 18.507985            0           0           0
      9.796233  2.960886 18.698453            0           0           0
      9.793751  1.480242 22.058526            0           0           0
     13.060847  2.959882 21.695635            0           0           0
      9.795846  4.441987  8.778924            0           0           0
      0.000000  5.922649  8.778924            0           0           0
      0.000000  4.441987 12.044206            0           0           0
      9.795846  5.922649 12.044206            0           0           0
      9.795846  4.441987 15.309488            0           0           0
      0.000000  5.922649 15.309488            0           0           0
      0.000006  4.441805 18.507486            0           0           0
      9.796552  5.922619 18.698543            0           0           0
      9.797896  4.440482 22.053134            0           0           0
      0.000007  5.922649 21.695059            0           0           0
      3.265282  7.403312  8.778924            0           0           0
      6.530564  8.883974  8.778924            0           0           0
      6.530564  7.403312 12.044206            0           0           0
      3.265282  8.883974 12.044206            0           0           0
      3.265282  7.403312 15.309488            0           0           0
      6.530564  8.883974 15.309488            0           0           0
      6.530551  7.398464 18.519318            0           0           0
      3.264896  8.884412 18.698458            0           0           0
      3.263250  7.404811 22.053155            0           0           0
      6.530646  8.884645 21.691479            0           0           0
      3.265282 10.364637  8.778924            0           0           0
      6.530564  0.000000  8.778924            0           0           0
      6.530564 10.364637 12.044206            0           0           0
      3.265282  0.000000 12.044206            0           0           0
      3.265282 10.364637 15.309488            0           0           0
[...]
      6.530564  5.922649 13.323130            0           0           0
      4.544206  4.441987 12.044206            0           0           0
      8.516922  4.441987 12.044206            0           0           0
      3.265282  5.922649 14.030564            0           0           0
      3.265282  5.922649 16.588412            0           0           0
      7.809488  4.441987 15.309488            0           0           0
      5.251640  4.441987 15.309488            0           0           0
      6.530564  5.922649 17.319462            0           0           0
      6.530561  5.922650 19.894489            0           0           0
      4.571427  4.441974 18.595961            0           0           0
      8.489709  4.442038 18.595844            0           0           0
      3.258181  5.922891 20.568216            0           0           0
      3.277596  5.922117 23.135190            0           0           0
      7.760850  4.433454 22.001296            0           0           0
      5.299395  4.432962 21.998358            0           0           0

[...]

  14 f  =    2.266449 THz    14.240522 2PiTHz   75.600614 cm-1     9.373277 meV
             X         Y         Z           dx          dy          dz
      6.531343  5.922744 24.857645     0.870623    0.036618    0.008097
      6.481617  6.820344 25.487052     0.229134    0.015343   -0.006236
      6.581142  5.024912 25.487199     0.244672    0.016206    0.010875
      7.452666  5.971888 24.257005     0.251817    0.011450    0.008928
      5.609810  5.873301 24.257183     0.252842   -0.003860   -0.004547
      9.795846  7.403312  8.778924            0           0           0
      0.000000  8.883974  8.778924            0           0           0
      0.000000  7.403312 12.044206            0           0           0
      9.795846  8.883974 12.044206            0           0           0
      9.795846  7.403312 15.309488            0           0           0
      0.000000  8.883974 15.309488            0           0           0
     13.061123  7.403494 18.507486            0           0           0
      9.796240  8.884438 18.698140            0           0           0
      9.798555  7.405264 22.052094            0           0           0
      0.000290  8.885416 21.695635            0           0           0
      9.795846 10.364637  8.778924            0           0           0
      0.000000  0.000000  8.778924            0           0           0
      0.000000 10.364637 12.044206            0           0           0
      9.795846  0.000000 12.044206            0           0           0
      9.795846 10.364637 15.309488            0           0           0
      0.000000  0.000000 15.309488            0           0           0
     13.061085 10.364853 18.507985            0           0           0
      9.795409  0.000030 18.699980            0           0           0
      9.793976 10.365226 22.058429            0           0           0
     13.061126 11.845299 21.695892            0           0           0
      9.795846  1.480662  8.778924            0           0           0
      0.000000  2.961325  8.778924            0           0           0
      0.000000  1.480662 12.044206            0           0           0
      9.795846  2.961325 12.044206            0           0           0
      9.795846  1.480662 15.309488            0           0           0
      0.000000  2.961325 15.309488            0           0           0
      0.000043  1.480445 18.507985            0           0           0
      9.796233  2.960886 18.698453            0           0           0
      9.793751  1.480242 22.058526            0           0           0
     13.060847  2.959882 21.695635            0           0           0
      9.795846  4.441987  8.778924            0           0           0
      0.000000  5.922649  8.778924            0           0           0
      0.000000  4.441987 12.044206            0           0           0
      9.795846  5.922649 12.044206            0           0           0
      9.795846  4.441987 15.309488            0           0           0
      0.000000  5.922649 15.309488            0           0           0
      0.000006  4.441805 18.507486            0           0           0
      9.796552  5.922619 18.698543            0           0           0
      9.797896  4.440482 22.053134            0           0           0
      0.000007  5.922649 21.695059            0           0           0
      3.265282  7.403312  8.778924            0           0           0
      6.530564  8.883974  8.778924            0           0           0
      6.530564  7.403312 12.044206            0           0           0
      3.265282  8.883974 12.044206            0           0           0
      3.265282  7.403312 15.309488            0           0           0
      6.530564  8.883974 15.309488            0           0           0
      6.530551  7.398464 18.519318            0           0           0
      3.264896  8.884412 18.698458            0           0           0
      3.263250  7.404811 22.053155            0           0           0
      6.530646  8.884645 21.691479            0           0           0
      3.265282 10.364637  8.778924            0           0           0
      6.530564  0.000000  8.778924            0           0           0
      6.530564 10.364637 12.044206            0           0           0
      3.265282  0.000000 12.044206            0           0           0
      3.265282 10.364637 15.309488            0           0           0
[...]
      6.530564  5.922649 13.323130            0           0           0
      4.544206  4.441987 12.044206            0           0           0
      8.516922  4.441987 12.044206            0           0           0
      3.265282  5.922649 14.030564            0           0           0
      3.265282  5.922649 16.588412            0           0           0
      7.809488  4.441987 15.309488            0           0           0
      5.251640  4.441987 15.309488            0           0           0
      6.530564  5.922649 17.319462            0           0           0
      6.530561  5.922650 19.894489            0           0           0
      4.571427  4.441974 18.595961            0           0           0
      8.489709  4.442038 18.595844            0           0           0
      3.258181  5.922891 20.568216            0           0           0
      3.277596  5.922117 23.135190            0           0           0
      7.760850  4.433454 22.001296            0           0           0
      5.299395  4.432962 21.998358            0           0           0

  15 f/i=    0.631358 THz     3.966937 2PiTHz   21.059822 cm-1     2.611084 meV
             X         Y         Z           dx          dy          dz
      6.531343  5.922744 24.857645     0.035600   -0.615506    0.014846
      6.481617  6.820344 25.487052     0.016420   -0.424158    0.356534
      6.581142  5.024912 25.487199     0.036162   -0.422828   -0.347532
      7.452666  5.971888 24.257005    -0.005580    0.084722    0.001419
      5.609810  5.873301 24.257183    -0.004426    0.064975    0.006836
      9.795846  7.403312  8.778924            0           0           0
      0.000000  8.883974  8.778924            0           0           0
      0.000000  7.403312 12.044206            0           0           0
      9.795846  8.883974 12.044206            0           0           0
      9.795846  7.403312 15.309488            0           0           0
      0.000000  8.883974 15.309488            0           0           0
     13.061123  7.403494 18.507486            0           0           0
      9.796240  8.884438 18.698140            0           0           0
      9.798555  7.405264 22.052094            0           0           0
      0.000290  8.885416 21.695635            0           0           0
      9.795846 10.364637  8.778924            0           0           0
      0.000000  0.000000  8.778924            0           0           0
      0.000000 10.364637 12.044206            0           0           0
      9.795846  0.000000 12.044206            0           0           0
      9.795846 10.364637 15.309488            0           0           0
      0.000000  0.000000 15.309488            0           0           0
     13.061085 10.364853 18.507985            0           0           0
      9.795409  0.000030 18.699980            0           0           0
      9.793976 10.365226 22.058429            0           0           0
     13.061126 11.845299 21.695892            0           0           0
      9.795846  1.480662  8.778924            0           0           0
      0.000000  2.961325  8.778924            0           0           0
      0.000000  1.480662 12.044206            0           0           0
      9.795846  2.961325 12.044206            0           0           0
      9.795846  1.480662 15.309488            0           0           0
      0.000000  2.961325 15.309488            0           0           0
      0.000043  1.480445 18.507985            0           0           0
      9.796233  2.960886 18.698453            0           0           0
      9.793751  1.480242 22.058526            0           0           0
     13.060847  2.959882 21.695635            0           0           0
      9.795846  4.441987  8.778924            0           0           0
      0.000000  5.922649  8.778924            0           0           0
      0.000000  4.441987 12.044206            0           0           0
      9.795846  5.922649 12.044206            0           0           0
      9.795846  4.441987 15.309488            0           0           0
      0.000000  5.922649 15.309488            0           0           0
      0.000006  4.441805 18.507486            0           0           0
      9.796552  5.922619 18.698543            0           0           0
      9.797896  4.440482 22.053134            0           0           0
      0.000007  5.922649 21.695059            0           0           0
      3.265282  7.403312  8.778924            0           0           0
      6.530564  8.883974  8.778924            0           0           0
      6.530564  7.403312 12.044206            0           0           0
      3.265282  8.883974 12.044206            0           0           0
      3.265282  7.403312 15.309488            0           0           0
      6.530564  8.883974 15.309488            0           0           0
      6.530551  7.398464 18.519318            0           0           0
      3.264896  8.884412 18.698458            0           0           0
      3.263250  7.404811 22.053155            0           0           0
      6.530646  8.884645 21.691479            0           0           0
      3.265282 10.364637  8.778924            0           0           0
      6.530564  0.000000  8.778924            0           0           0
      6.530564 10.364637 12.044206            0           0           0
      3.265282  0.000000 12.044206            0           0           0
      3.265282 10.364637 15.309488            0           0           0
[...]
      6.530564  5.922649 13.323130            0           0           0
      4.544206  4.441987 12.044206            0           0           0
      8.516922  4.441987 12.044206            0           0           0
      3.265282  5.922649 14.030564            0           0           0
      3.265282  5.922649 16.588412            0           0           0
      7.809488  4.441987 15.309488            0           0           0
      5.251640  4.441987 15.309488            0           0           0
      6.530564  5.922649 17.319462            0           0           0
      6.530561  5.922650 19.894489            0           0           0
      4.571427  4.441974 18.595961            0           0           0
      8.489709  4.442038 18.595844            0           0           0
      3.258181  5.922891 20.568216            0           0           0
      3.277596  5.922117 23.135190            0           0           0
      7.760850  4.433454 22.001296            0           0           0
      5.299395  4.432962 21.998358            0           0           0

 Finite differences POTIM=   1.0000000000000000E-002