 vasp.6.3.0 20Jan22 (build Apr  1 2022 16:44:48) gamma-only
 executed on        HPECrayEX_GCC date 2023.02.21  22:42:48

 INCAR:
   SYSTEM = MgO-rocksalt
   ISMEAR = 0
   SIGMA = 0.05
   EDIFF = 1E-7
   ALGO = ALL
   ISTART = 0
   IBRION = 2
   NSW = 1000
   ISYM = 0
   ISIF = 2
   EDIFFG = -0.01
   DIPOL = 0.5 0.5 0.5
   IDIPOL = 3
   LDIPOL = .TRUE.
   LHFCALC = .TRUE.
   GGA = B5
   AEXX = 0.2
   AGGAX = 0.72
   AGGAC = 0.81
   ALDAC = 0.19
   IVDW = 1
   VDW_S6 = 1.05
   VDW_C6 = 0.14 0.70 0.63 0.70
   VDW_R0 = 1.001 1.342 1.243 1.342
   ENCUT = 520
   PREC = Accurate
   LASPH = .TRUE.
   LREAL = Auto
   ISPIN = 1
   NELM = 200
   NELMIN = 8
   NCORE = 8
   KPAR = 1
   LWAVE = .FALSE.
   LCHARG = .FALSE.

 POTCAR:    PAW_PBE H 15Jun2001
 POTCAR:    PAW_PBE O 08Apr2002
 POTCAR:    PAW_PBE Mg 13Apr2007
 POTCAR:    PAW_PBE O 08Apr2002
 POTCAR:    PAW_PBE H 15Jun2001
   VRHFIN =H: ultrasoft test

   TITEL  = PAW_PBE H 15Jun2001
   POMASS =    1.000; ZVAL   =    1.000    mass and valenz
   ENMAX  =  250.000; ENMIN  =  200.000 eV

   TITEL  = PAW_PBE O 08Apr2002
   POMASS =   16.000; ZVAL   =    6.000    mass and valenz
   ENMAX  =  400.000; ENMIN  =  300.000 eV

[...]

   TITEL  = PAW_PBE O 08Apr2002
   POMASS =   16.000; ZVAL   =    6.000    mass and valenz
   ENMAX  =  400.000; ENMIN  =  300.000 eV

 Optimization of the real space projectors (new method)

 maximal supplied QI-value         = 34.20
 optimisation between [QCUT,QGAM] = [ 11.63, 23.26] = [ 37.87,151.49] Ry
 Optimized for a Real-space Cutoff    1.21 Angstroem

   l    n(q)    QCUT    max X(q) W(low)/X(q) W(high)/X(q)  e(spline)
   0      8    11.629    19.460    0.17E-03    0.34E-03    0.21E-06
   0      8    11.629    12.209    0.16E-03    0.33E-03    0.21E-06
   1      8    11.629     4.655    0.18E-03    0.16E-03    0.26E-06
 Optimization of the real space projectors (new method)

[...]

   l    n(q)    QCUT    max X(q) W(low)/X(q) W(high)/X(q)  e(spline)
   0      9    11.527    28.265    0.62E-04    0.53E-04    0.73E-07
   0      9    11.527    10.429    0.52E-04    0.40E-04    0.58E-07
   1      8    11.527    13.073    0.98E-04    0.18E-03    0.86E-07
   1      8    11.527     9.625    0.79E-04    0.15E-03    0.74E-07
   2      8    11.527     4.652    0.22E-03    0.72E-04    0.47E-07
 Optimization of the real space projectors (new method)

 maximal supplied QI-value         = 24.76
 optimisation between [QCUT,QGAM] = [ 11.64, 23.27] = [ 37.91,151.63] Ry
 Optimized for a Real-space Cutoff    1.14 Angstroem

   l    n(q)    QCUT    max X(q) W(low)/X(q) W(high)/X(q)  e(spline)
   0      8    11.635    20.381    0.10E-03    0.33E-03    0.24E-06
   0      8    11.635    15.268    0.11E-03    0.35E-03    0.26E-06
   1      7    11.635     5.964    0.24E-03    0.31E-03    0.30E-06
   1      7    11.635     5.382    0.22E-03    0.25E-03    0.26E-06
|               ----> ADVICE to this user running VASP <----                  |
|     You enforced a specific xc type in the INCAR file but a different       |
|     type was found in the POTCAR file.                                      |
|     I HOPE YOU KNOW WHAT YOU ARE DOING!                                     |

  PAW_PBE H 15Jun2001                   :
  PAW_PBE O 08Apr2002                   :
  PAW_PBE Mg 13Apr2007                  :
  PAW_PBE O 08Apr2002                   :

 POSCAR:  H  O Mg  O
  positions in direct lattice
  velocities in cartesian coordinates
 exchange correlation table for  LEXCH =       12
   RHO(1)=    0.500       N(1)  =     2000
   RHO(2)=  100.500       N(2)  =     4000

 ion  position               nearest neighbor table
   1  0.415  0.429  0.759-   9 0.98
   2  0.329  0.391  0.766-   9 0.96
   3  0.585  0.324  0.760-  10 0.98
   4  0.672  0.360  0.765-  10 0.96
   5  0.449  0.292  0.760-  11 0.98
   6  0.485  0.206  0.768-  11 0.96
   7  0.553  0.463  0.760-  12 0.98
   8  0.516  0.550  0.762-  12 0.97
   9  0.384  0.380  0.755-   2 0.96   1 0.98  43 2.24
  10  0.618  0.372  0.755-   4 0.96   3 0.98  91 2.23
  11  0.497  0.260  0.755-   6 0.96   5 0.98 108 2.24
  12  0.504  0.494  0.755-   8 0.97   7 0.98 132 2.23
  13  0.125  0.000  0.352- 143 2.10 144 2.10 160 2.10 183 2.10 141 2.10  30 2.97  54 2.97  70 2.97
                            14 2.97  16 2.97  55 2.97  15 2.97  32 2.97
  14  0.250  0.125  0.352- 143 2.10 144 2.10 152 2.10 159 2.10 142 2.10  21 2.97  29 2.97  37 2.97
                            13 2.97  16 2.97  31 2.97  15 2.97  24 2.97
  15  0.125  0.125  0.451- 147 2.10 142 2.10 141 2.10 149 2.10 158 2.10 143 2.10  32 2.97  40 2.97
                            16 2.97  24 2.97  13 2.97  21 2.97  14 2.97  30 2.97  18 2.97  34 2.97
  16  0.250  0.000  0.451- 148 2.10 142 2.10 141 2.10 157 2.10 182 2.10 144 2.10  55 2.97  71 2.97
                            15 2.97  31 2.97  13 2.97  29 2.97  14 2.97  54 2.97  18 2.97  33 2.97
  17  0.125  1.000  0.550- 164 2.10 187 2.10 147 2.10 148 2.10 141 2.11 145 2.13  20 2.95  19 2.95
                            59 2.96  36 2.96  74 2.97  34 2.97  58 2.97  18 2.97  55 2.97  32 2.97
  18  0.250  0.125  0.549- 156 2.10 163 2.10 147 2.10 148 2.10 142 2.10 146 2.13  35 2.94  28 2.95
                            19 2.96  20 2.96  25 2.97  17 2.97  33 2.97  15 2.97  16 2.97  24 2.97
  19  0.125  0.125  0.647- 147 2.08 146 2.10 162 2.10 145 2.10 153 2.10  17 2.95  34 2.95  18 2.96
                            25 2.96  36 2.97  28 2.97  20 2.97  44 2.97
  20  0.250  1.000  0.647- 148 2.08 146 2.10 186 2.10 145 2.10 161 2.10  17 2.95  58 2.95  18 2.96
                            33 2.96  59 2.97  35 2.97  19 2.97  75 2.97
  21  0.125  0.250  0.352- 143 2.10 151 2.10 152 2.10 168 2.10 149 2.10  22 2.97  30 2.97  38 2.97
                            14 2.97  15 2.97  23 2.97  40 2.97  24 2.97
  22  0.250  0.375  0.352- 151 2.10 152 2.10 167 2.10 176 2.10 150 2.10  37 2.97  45 2.97  61 2.97
                            21 2.97  24 2.97  48 2.97  23 2.97  39 2.97
  23  0.125  0.375  0.451- 149 2.10 150 2.10 166 2.10 173 2.10 151 2.10 155 2.10  48 2.97  64 2.97
                            24 2.97  40 2.97  21 2.97  38 2.97  22 2.97  45 2.97  49 2.97  25 2.97
  24  0.250  0.250  0.451- 156 2.10 149 2.10 150 2.10 142 2.10 165 2.10 152 2.10  31 2.97  39 2.97
                            15 2.97  23 2.97  37 2.97  22 2.97  14 2.97  21 2.97  18 2.97  25 2.97
  25  0.125  0.250  0.550- 156 2.09 172 2.10 155 2.10 147 2.10 149 2.11 153 2.13  28 2.95  44 2.96
                            27 2.96  19 2.96  18 2.97  42 2.97  34 2.97  40 2.97  23 2.97  15 2.97
  26  0.250  0.375  0.550- 171 2.08 156 2.10 180 2.10 155 2.11 150 2.11 154 2.15  52 2.95  28 2.95
                            27 2.96  65 2.97  41 2.97  39 2.97  25 2.98  49 2.98  24 2.98  48 2.98
  27  0.125  0.375  0.647- 155 2.08 154 2.09 170 2.10 153 2.11 177 2.11  42 2.95  25 2.96  49 2.96
                            26 2.96  44 2.97  68 2.97  52 2.98  28 2.98
  28  0.250  0.250  0.647- 156 2.08 169 2.08 153 2.10 146 2.10 154 2.11  18 2.95  41 2.95  25 2.95
                            26 2.95  35 2.97  19 2.97  27 2.98  43 2.98
  29  0.375  0.000  0.352- 144 2.10 159 2.10 199 2.10 224 2.10 157 2.10  54 2.97  94 2.97 134 2.97
                            14 2.97  31 2.97  96 2.97  16 2.97  71 2.97
  30  0.000  0.125  0.352- 143 2.10 160 2.10 168 2.10 223 2.10 158 2.10  21 2.97  93 2.97 101 2.97
                            13 2.97  15 2.97  95 2.97  32 2.97  40 2.97
  31  0.375  0.125  0.451- 163 2.10 157 2.10 142 2.10 165 2.10 222 2.10 159 2.10  96 2.97 104 2.97
                            16 2.97  24 2.97  14 2.97  29 2.97  37 2.97  94 2.97  18 2.97  33 2.97
  32  0.000  0.000  0.451- 141 2.10 158 2.10 198 2.10 221 2.10 160 2.10 164 2.10  95 2.97 135 2.97
                            15 2.97  55 2.97  30 2.97  13 2.97  70 2.97  93 2.97  34 2.97  97 2.97
  33  0.375  1.000  0.549- 163 2.10 203 2.10 228 2.10 148 2.10 157 2.10 161 2.13  35 2.94  75 2.96
                           100 2.96  20 2.96 138 2.97  58 2.97  18 2.97  71 2.97  96 2.97  16 2.97
  34  0.000  0.125  0.550- 147 2.10 227 2.10 164 2.10 172 2.10 158 2.11 162 2.13  99 2.95  19 2.95
                            44 2.96  36 2.96  17 2.97  97 2.97 105 2.97  25 2.97  32 2.97  15 2.97
  35  0.375  0.125  0.646- 163 2.07 169 2.08 161 2.10 146 2.10 226 2.11  41 2.94  18 2.94  33 2.94
                            98 2.95  28 2.97  20 2.97 100 2.98 108 2.99
  36  0.000  1.000  0.647- 164 2.09 145 2.10 225 2.10 202 2.10 162 2.10  74 2.96  17 2.96  97 2.96
                            34 2.96  99 2.97  59 2.97 139 2.97  19 2.97
  37  0.375  0.250  0.352- 152 2.10 159 2.10 167 2.10 232 2.10 165 2.10  22 2.97  94 2.97 102 2.97
                            14 2.97  24 2.97  31 2.97 104 2.97  39 2.97
  38  0.000  0.375  0.352- 151 2.10 168 2.10 192 2.10 231 2.10 166 2.10  45 2.97 101 2.97 125 2.97
                            21 2.97  40 2.97 103 2.97  23 2.97  64 2.97
  39  0.375  0.375  0.451- 150 2.10 165 2.10 189 2.10 230 2.10 167 2.10 171 2.11 104 2.97 128 2.97
                            24 2.97  48 2.97  37 2.97  22 2.97  61 2.97 102 2.97  26 2.97  65 2.98
  40  0.000  0.250  0.451- 149 2.10 158 2.10 166 2.10 229 2.10 168 2.10 172 2.10  95 2.97 103 2.97
                            15 2.97  23 2.97 101 2.97  30 2.97  38 2.97  21 2.97 105 2.97  25 2.97
  41  0.375  0.250  0.550- 171 2.09 236 2.09 169 2.11 163 2.11 156 2.12 165 2.12  35 2.94  28 2.95
                           106 2.96  98 2.97  26 2.97 104 2.98  43 2.98  39 2.98  18 2.98  31 2.99
  42  0.000  0.375  0.550- 235 2.10 155 2.10 172 2.10 196 2.10 166 2.11 170 2.13 107 2.95  27 2.95
                            44 2.96  68 2.96 105 2.97  49 2.97 129 2.97  25 2.97  23 2.98  40 2.98
  43  0.376  0.374  0.650- 234 2.09 169 2.12 154 2.13 193 2.14 171 2.14   9 2.24 132 2.96 108 2.96
                            28 2.98 106 2.98  41 2.98  65 2.99  52 2.99  26 3.00
  44  0.000  0.250  0.647- 172 2.08 153 2.10 233 2.10 162 2.10 170 2.10  34 2.96  25 2.96 105 2.96
                            42 2.96  19 2.97  99 2.97  27 2.97 107 2.97
  45  0.125  0.500  0.352- 151 2.10 175 2.10 176 2.10 192 2.10 173 2.10  38 2.97  46 2.97  62 2.97
                            22 2.97  48 2.97  23 2.97  64 2.97  47 2.97
  46  0.250  0.625  0.352- 175 2.10 176 2.10 184 2.10 191 2.10 174 2.10  53 2.97  61 2.97  69 2.97
                            45 2.97  48 2.97  63 2.97  47 2.97  56 2.97
  47  0.125  0.625  0.451- 179 2.10 174 2.10 173 2.10 181 2.10 190 2.10 175 2.10  64 2.97  72 2.97
                            48 2.97  56 2.97  45 2.97  53 2.97  46 2.97  62 2.97  50 2.97  49 2.97
  48  0.250  0.500  0.451- 180 2.10 173 2.10 174 2.10 150 2.10 189 2.10 176 2.10  47 2.97  63 2.97
                            23 2.97  39 2.97  61 2.97  45 2.97  46 2.97  22 2.97  50 2.97  49 2.97
  49  0.125  0.500  0.549- 180 2.10 196 2.10 155 2.10 179 2.10 173 2.10 177 2.13  52 2.94  68 2.96
                            27 2.96  51 2.96  42 2.97  66 2.97  50 2.97  64 2.97  23 2.97  47 2.97
  50  0.250  0.625  0.549- 195 2.10 180 2.10 188 2.10 179 2.10 174 2.10 178 2.13  52 2.94  67 2.95
                            60 2.96  51 2.96  73 2.97  57 2.97  56 2.97  49 2.97  47 2.97  63 2.97
[...]
   8.40493147 12.60792629 11.70526303

--------------------------------------- Iteration      FINAL  ---------------------------------------

--------------------OUTCAR has been truncated-------------------------

[...]

--------------------OUTCAR has been truncated-------------------------

  Number of pair interactions contributing to vdW energy: 3164657
  Edisp (eV):  -21.42779

  FORCE on cell =-STRESS in cart. coord.  units (eV):
  Direction    XX          YY          ZZ          XY          YZ          ZX
  Alpha Z  1044.97446  1044.97446  1044.97446
  Ewald  209582.83773209584.94695************     0.03231   -17.02408    -4.32366
  Hartree225025.52446225027.74082************     0.05208    -7.86511    -1.79567
  E(xc)   -3927.71419 -3927.71424 -3925.44430     0.00003    -0.04634    -0.01636
  Local  ************************437213.31241    -0.13284    21.86494     5.10957
  n-local -2021.75507 -2021.76178 -2098.75984     0.00396     0.07958     0.07605
  augment   879.23804   879.25373   892.26202     0.00217     0.19725     0.05927
  Kinetic 18690.77819 18690.95633 18939.99295     0.04459     2.72351     0.76697
  Fock    -1455.58496 -1455.58516 -1448.24511     0.00061     0.00666     0.00560
  vdW       -31.13150   -31.13072   -26.15999    -0.00045     0.00360     0.00188
  Total    -119.96605  -119.99249    -1.56564     0.00245    -0.06001    -0.11637
  in kB     -31.92962   -31.93666    -0.41670     0.00065    -0.01597    -0.03097

 VOLUME and BASIS-vectors are now :
  energy-cutoff  :      520.00
  volume of cell :     6019.70
      direct lattice vectors                 reciprocal lattice vectors
    16.809723990  0.000000000  0.000000000     0.059489377  0.000000000  0.000000000
     0.000000000 16.809723990  0.000000000     0.000000000  0.059489377  0.000000000
     0.000000000  0.000000000 21.303646496     0.000000000  0.000000000  0.046940321

  length of vectors
    16.809723990 16.809723990 21.303646496     0.059489377  0.059489377  0.046940321

 FORCES acting on ions:
    Electron-Ion                     Ewald-Force                    Non-Local-Force
   -.132E+02 -.666E+02 -.167E+03   0.179E+02 0.734E+02 0.167E+03   -.456E+01 -.661E+01 -.704E+00
   0.103E+03 -.168E+02 -.176E+03   -.111E+03 0.183E+02 0.178E+03   0.808E+01 -.149E+01 -.198E+01
   0.139E+02 0.653E+02 -.168E+03   -.187E+02 -.720E+02 0.169E+03   0.466E+01 0.650E+01 -.868E+00
   -.103E+03 0.180E+02 -.175E+03   0.111E+03 -.197E+02 0.177E+03   -.808E+01 0.160E+01 -.189E+01
   0.650E+02 -.141E+02 -.167E+03   -.718E+02 0.190E+02 0.168E+03   0.648E+01 -.468E+01 -.767E+00
   0.174E+02 0.102E+03 -.178E+03   -.191E+02 -.110E+03 0.181E+03   0.155E+01 0.798E+01 -.232E+01
   -.676E+02 0.124E+02 -.168E+03   0.745E+02 -.171E+02 0.168E+03   -.668E+01 0.448E+01 -.806E+00
   -.167E+02 -.104E+03 -.171E+03   0.182E+02 0.112E+03 0.172E+03   -.147E+01 -.819E+01 -.133E+01
   0.139E+03 0.340E+02 -.934E+03   -.123E+03 -.696E+02 0.924E+03   -.148E+02 0.317E+02 0.956E+01
   -.139E+03 -.349E+02 -.934E+03   0.123E+03 0.709E+02 0.923E+03   0.144E+02 -.321E+02 0.973E+01
   -.339E+02 0.141E+03 -.931E+03   0.695E+02 -.125E+03 0.919E+03   -.316E+02 -.139E+02 0.113E+02
   0.347E+02 -.137E+03 -.938E+03   -.708E+02 0.119E+03 0.930E+03   0.321E+02 0.155E+02 0.711E+01
   0.888E+00 0.884E+00 0.308E+03   -.886E+00 -.882E+00 -.305E+03   0.253E-03 -.757E-03 -.226E+01
   0.158E+01 0.158E+01 0.309E+03   -.158E+01 -.158E+01 -.306E+03   -.234E-02 -.277E-02 -.226E+01
   0.193E+01 0.210E+01 0.105E+03   -.193E+01 -.210E+01 -.105E+03   0.678E-03 0.125E-02 0.121E+00
   0.211E+01 0.193E+01 0.105E+03   -.211E+01 -.193E+01 -.105E+03   -.580E-03 -.902E-03 0.120E+00
   0.240E+01 0.240E+01 -.946E+02   -.240E+01 -.240E+01 0.946E+02   -.110E-02 -.196E-02 -.353E-01
   0.602E+01 0.600E+01 -.894E+02   -.602E+01 -.599E+01 0.894E+02   -.619E-02 -.138E-01 -.147E-01
   0.634E+01 0.584E+01 -.295E+03   -.631E+01 -.584E+01 0.294E+03   -.381E-01 -.770E-03 0.228E+01
   0.591E+01 0.640E+01 -.295E+03   -.591E+01 -.636E+01 0.293E+03   -.565E-02 -.453E-01 0.227E+01
   0.131E+01 0.928E+00 0.308E+03   -.130E+01 -.924E+00 -.306E+03   -.273E-02 -.794E-03 -.226E+01
   0.204E+01 0.249E-01 0.310E+03   -.203E+01 -.255E-01 -.307E+03   -.385E-02 0.594E-03 -.226E+01
   0.279E+01 0.502E-01 0.106E+03   -.276E+01 -.515E-01 -.106E+03   -.129E-02 -.186E-02 0.145E+00
   0.375E+01 0.221E+01 0.108E+03   -.371E+01 -.218E+01 -.109E+03   0.186E-03 -.328E-02 0.128E+00
   0.550E+01 0.289E+01 -.909E+02   -.545E+01 -.288E+01 0.910E+02   -.509E-01 -.108E-01 -.218E-01
   0.112E+02 0.132E+00 -.836E+02   -.111E+02 -.143E+00 0.835E+02   -.193E+00 0.128E-01 0.103E+00
   0.128E+02 0.185E+00 -.291E+03   -.127E+02 -.186E+00 0.289E+03   -.107E+00 0.133E-02 0.226E+01
   0.217E+02 0.116E+02 -.282E+03   -.215E+02 -.116E+02 0.280E+03   -.210E+00 0.469E-01 0.229E+01
   0.916E+00 0.131E+01 0.308E+03   -.912E+00 -.130E+01 -.306E+03   -.180E-02 -.242E-02 -.226E+01
   -.991E-02 0.116E+01 0.308E+03   0.989E-02 -.116E+01 -.306E+03   0.704E-05 0.254E-03 -.226E+01
   0.218E+01 0.373E+01 0.109E+03   -.215E+01 -.370E+01 -.109E+03   -.504E-02 0.126E-02 0.117E+00
   -.129E-01 0.123E+01 0.103E+03   0.130E-01 -.123E+01 -.103E+03   0.361E-04 -.830E-04 0.130E+00
   0.287E+01 0.551E+01 -.909E+02   -.286E+01 -.547E+01 0.909E+02   -.137E-01 -.466E-01 -.139E-01
   -.329E-01 0.286E+01 -.941E+02   0.333E-01 -.287E+01 0.941E+02   -.429E-03 0.943E-02 -.325E-01
   0.118E+02 0.218E+02 -.281E+03   -.118E+02 -.216E+02 0.279E+03   0.233E-01 -.219E+00 0.230E+01
   -.218E-01 0.270E+01 -.298E+03   0.221E-01 -.271E+01 0.296E+03   -.566E-03 0.625E-02 0.228E+01
   0.138E+01 0.139E+01 0.310E+03   -.137E+01 -.139E+01 -.308E+03   -.229E-02 -.249E-02 -.227E+01
   -.912E-02 0.143E-01 0.308E+03   0.896E-02 -.145E-01 -.306E+03   0.448E-04 -.858E-03 -.226E+01
   0.306E+01 0.565E-01 0.113E+03   -.305E+01 -.614E-01 -.113E+03   0.231E-02 -.116E-02 0.162E+00
   -.267E-01 0.130E+01 0.105E+03   0.280E-01 -.130E+01 -.105E+03   0.510E-03 -.273E-04 0.130E+00
   0.808E+01 0.811E+01 -.761E+02   -.796E+01 -.799E+01 0.763E+02   -.141E+00 -.136E+00 -.285E+00
   -.421E-01 0.435E-01 -.923E+02   0.409E-01 -.437E-01 0.923E+02   0.164E-02 0.864E-04 -.292E-01
   0.284E+02 0.111E+01 -.236E+03   -.282E+02 -.119E+01 0.235E+03   -.285E+00 0.856E-01 0.122E+01
   -.874E-01 0.328E+01 -.295E+03   0.883E-01 -.330E+01 0.293E+03   -.178E-03 0.195E-01 0.228E+01
   0.132E+01 -.905E+00 0.308E+03   -.131E+01 0.901E+00 -.306E+03   -.125E-02 0.925E-03 -.226E+01
   0.159E+01 -.159E+01 0.309E+03   -.158E+01 0.159E+01 -.306E+03   -.224E-02 0.185E-02 -.226E+01
   0.196E+01 -.213E+01 0.105E+03   -.196E+01 0.212E+01 -.105E+03   0.131E-02 0.247E-02 0.119E+00
   0.375E+01 -.216E+01 0.109E+03   -.372E+01 0.213E+01 -.109E+03   -.461E-03 0.332E-02 0.112E+00
   0.557E+01 -.284E+01 -.908E+02   -.553E+01 0.283E+01 0.908E+02   -.406E-01 0.133E-01 -.111E-01
   0.605E+01 -.608E+01 -.893E+02   -.604E+01 0.608E+01 0.893E+02   -.768E-02 0.184E-02 -.141E-01
   0.647E+01 -.597E+01 -.295E+03   -.644E+01 0.597E+01 0.293E+03   -.376E-01 0.415E-02 0.228E+01
   0.221E+02 -.118E+02 -.281E+03   -.219E+02 0.118E+02 0.279E+03   -.214E+00 -.294E-01 0.230E+01
   0.891E+00 -.907E+00 0.308E+03   -.889E+00 0.905E+00 -.305E+03   -.107E-02 0.618E-03 -.226E+01
   0.116E+01 -.154E-01 0.308E+03   -.116E+01 0.157E-01 -.306E+03   -.621E-03 0.323E-03 -.226E+01
   0.123E+01 -.207E-01 0.103E+03   -.124E+01 0.211E-01 -.103E+03   0.189E-02 -.190E-02 0.126E+00
   0.211E+01 -.198E+01 0.105E+03   -.211E+01 0.198E+01 -.105E+03   -.419E-03 0.116E-02 0.120E+00
   0.241E+01 -.247E+01 -.946E+02   -.241E+01 0.247E+01 0.946E+02   0.992E-03 0.126E-02 -.342E-01
   0.288E+01 -.319E-01 -.941E+02   -.289E+01 0.338E-01 0.941E+02   0.712E-02 -.212E-02 -.312E-01
   0.269E+01 -.264E-01 -.298E+03   -.270E+01 0.288E-01 0.296E+03   0.776E-02 -.241E-02 0.228E+01
   0.594E+01 -.649E+01 -.295E+03   -.594E+01 0.646E+01 0.293E+03   -.291E-02 0.350E-01 0.228E+01
[...]
   -.333E+01 -.385E+01 0.890E+03   0.332E+01 0.384E+01 -.894E+03   0.100E-01 0.116E-01 0.305E+01
   0.295E-01 -.437E+01 0.899E+03   -.290E-01 0.434E+01 -.903E+03   -.610E-03 0.286E-01 0.298E+01
   -.308E+02 -.154E+02 -.858E+03   0.308E+02 0.154E+02 0.863E+03   0.709E-01 0.657E-01 -.456E+01
   0.182E+01 -.893E+02 -.806E+03   -.184E+01 0.888E+02 0.811E+03   0.149E-01 0.502E+00 -.426E+01
   -.114E+02 -.112E+02 -.275E+03   0.113E+02 0.112E+02 0.275E+03   0.321E-01 0.355E-01 0.289E+00
   0.162E+00 -.268E+02 -.213E+03   -.129E+00 0.264E+02 0.214E+03   -.300E-01 0.356E+00 -.278E+00
   -.442E+01 -.444E+01 0.312E+03   0.440E+01 0.443E+01 -.312E+03   0.145E-01 0.138E-01 -.194E-01
   0.446E-01 -.121E+00 0.316E+03   -.444E-01 0.124E+00 -.316E+03   -.233E-03 -.346E-02 -.125E-02
   -.245E+01 -.442E-01 0.889E+03   0.245E+01 0.448E-01 -.892E+03   0.405E-02 -.731E-03 0.305E+01
   0.345E-01 -.429E+01 0.892E+03   -.346E-01 0.426E+01 -.896E+03   0.159E-03 0.269E-01 0.304E+01
   -.111E+02 -.112E+02 -.870E+03   0.111E+02 0.111E+02 0.875E+03   0.303E-01 0.326E-01 -.456E+01
   0.712E-01 -.528E+00 -.863E+03   -.720E-01 0.546E+00 0.868E+03   0.801E-03 -.164E-01 -.454E+01
   -.591E+01 -.843E-01 -.282E+03   0.589E+01 0.858E-01 0.282E+03   0.114E-01 -.137E-02 0.284E+00
   0.211E+00 -.183E+02 -.267E+03   -.211E+00 0.182E+02 0.267E+03   -.148E-03 0.124E+00 0.377E+00
   -.266E+00 -.108E+01 0.170E+02   0.767E-12 0.227E-12 0.255E-10   0.239E+00 0.918E+00 -.154E+02

 POSITION                                       TOTAL-FORCE (eV/Angst)
      6.98037      7.20434     16.17605         0.003780     -0.001321     -0.002060
      5.53419      6.58010     16.31414         0.001070      0.002601      0.000827
      9.83806      5.45059     16.19624        -0.003604     -0.000573     -0.002846
     11.29738      6.05039     16.30433         0.000121     -0.001522     -0.002605
      7.54320      4.91167     16.19005        -0.004383      0.003800     -0.001043
      8.14818      3.46049     16.35781        -0.004343      0.001624     -0.001425
      9.30019      7.78545     16.18166        -0.001129     -0.006461     -0.002141
      8.67011      9.23637     16.23613        -0.000372     -0.006246     -0.001089
      6.44932      6.38633     16.07783         0.002000     -0.000007     -0.001552
     10.38256      6.25727     16.07788        -0.006530      0.000521     -0.002113
      8.34882      4.36280     16.08240         0.002349     -0.003024     -0.000255
      8.47655      8.30437     16.07361        -0.003957      0.000254     -0.000213
      2.10122      0.00000      7.50000         0.002334      0.001816      0.449509
      4.20243      2.10122      7.50000         0.006430      0.006139      0.453238
      2.10122      2.10122      9.60122         0.001847      0.004505      0.002549
      4.20243      0.00000      9.60122         0.001916      0.001269      0.003288
      2.10055     16.80903     11.70701        -0.001359     -0.000797     -0.001216
      4.20138      2.10099     11.70463        -0.000222     -0.000491     -0.000611
      2.09923      2.09802     13.78596        -0.001727     -0.002868     -0.002174
      4.19931     16.80791     13.78570        -0.003090     -0.001477     -0.002427
      2.10122      4.20243      7.50000         0.005499      0.002838      0.453579
      4.20243      6.30365      7.50000         0.010694     -0.000045      0.465554
      2.10122      6.30365      9.60122         0.029634     -0.003025      0.016911
      4.20243      4.20243      9.60122         0.032040      0.020442      0.029312
      2.10081      4.20254     11.70666        -0.000528      0.000342     -0.003439
      4.20985      6.30276     11.71221        -0.001656     -0.000177     -0.000877
      2.09830      6.30385     13.78632         0.001151      0.000274     -0.002332
      4.19973      4.19597     13.77693         0.002348     -0.000931     -0.000927
      6.30365      0.00000      7.50000         0.002233      0.006279      0.452121
      0.00000      2.10122      7.50000        -0.000036      0.002797      0.449897
      6.30365      2.10122      9.60122         0.019908      0.032635      0.026949
      0.00000      0.00000      9.60122         0.000119      0.000134      0.004076
      6.30388     16.80875     11.70558        -0.000126     -0.000375     -0.002780
      0.00018      2.10016     11.70692         0.000037     -0.001082     -0.002433
      6.29733      2.09833     13.76890        -0.000447      0.002392     -0.000900
      0.00019     16.80802     13.78767        -0.000193     -0.001347     -0.002936
      6.30365      4.20243      7.50000         0.007942      0.007009      0.470708
      0.00000      6.30365      7.50000        -0.000125     -0.000939      0.448825
      6.30365      6.30365      9.60122         0.019132     -0.005918      0.080214
      0.00000      4.20243      9.60122         0.001727     -0.000341      0.001125
      6.31233      4.20917     11.71983        -0.000960     -0.001084      0.001760
      0.00007      6.30365     11.70789         0.000240     -0.000155     -0.004676
      6.31126      6.29287     13.84785         0.005115     -0.000056      0.000327
      0.00020      4.19995     13.78682         0.000743     -0.002147     -0.003158
      2.10122      8.40486      7.50000         0.006414     -0.003124      0.451787
      4.20243     10.50608      7.50000         0.006188     -0.006604      0.452333
      2.10122     10.50608      9.60122         0.001640      0.000305      0.001804
      4.20243      8.40486      9.60122         0.028338     -0.021398      0.023994
      2.09988      8.40478     11.70534        -0.000266      0.000033     -0.003072
      4.20199     10.50738     11.70440        -0.000439      0.000202     -0.000395
      2.09897     10.50938     13.78569        -0.001227      0.002790     -0.002060
      4.19900      8.41203     13.76763         0.002445      0.000935     -0.000937
      2.10122     12.60729      7.50000         0.001049     -0.001372      0.450584
      4.20243     14.70851      7.50000         0.001820      0.000670      0.450996
      2.10122     14.70851      9.60122         0.001489     -0.001283      0.003528
      4.20243     12.60729      9.60122         0.002314      0.001114      0.000735
      2.10047     12.60813     11.70709        -0.001305      0.001304     -0.001667
      4.20148     14.70861     11.70700        -0.001547      0.000034     -0.002458
      2.09939     14.70877     13.78763        -0.002327      0.000450     -0.002036
      4.19912     12.60956     13.78602        -0.003042      0.001031     -0.001532
[...]
      8.40486     10.50608      9.60122        -0.001569      0.027296      0.024845
     14.70851     10.50608      7.50000         0.003281      0.003806     -0.499098
      8.40486      8.40486      7.50000        -0.000209      0.009435     -0.523055
     14.71227      8.40923     13.83667         0.000158     -0.002540     -0.001271
      8.40714     10.52310     13.86805        -0.000201      0.003959     -0.001013
     14.71094     10.50796     11.70109        -0.000372     -0.002006      0.000905
      8.40395      8.41518     11.71059        -0.000192      0.000430     -0.005997
     14.70851     12.60729      9.60122         0.005282      0.004618      0.032466
      8.40486     14.70851      9.60122        -0.000108     -0.000655      0.044791
     14.70851     14.70851      7.50000         0.001319     -0.000185     -0.498178
      8.40486     12.60729      7.50000         0.000046      0.008901     -0.502614
     14.71189     12.61037     13.83565        -0.001064     -0.001896     -0.001539
      8.40497     14.70857     13.83839         0.000172      0.000181      0.001232
     14.70987     14.70866     11.70201        -0.002161     -0.000252     -0.001424
      8.40494     12.60781     11.70477        -0.000051     -0.001057      0.004211
    total drift:                                0.002855     -0.009091     -0.037440

  FREE ENERGIE OF THE ION-ELECTRON SYSTEM (eV)
  free  energy   TOTEN  =     -1826.73042755 eV

  energy  without entropy=    -1826.73042755  energy(sigma->0) =    -1826.73042755

 d Force = 0.2388345E-04[ 0.207E-04, 0.270E-04]  d Energy = 0.2664435E-04-0.276E-05
 d Force =-0.1240038E+01[-0.124E+01,-0.124E+01]  d Ewald  =-0.1240038E+01 0.118E-06

 Conjugate gradient step on ions:
 trial-energy change:   -0.000027  1 .order   -0.000024   -0.000027   -0.000021
  (g-gl).g = 0.548E-04      g.g   = 0.124E-03  gl.gl    = 0.262E-03
 g(Force)  = 0.124E-03   g(Stress)= 0.000E+00 ortho     =-0.829E-05
 gamma     =   0.20866
 trial     =   0.22058
 opt step  =   0.88233  (harmonic =   0.94630) maximal distance =0.00044673
 next E    = -1826.730459   (d E  =  -0.00006)

 reached required accuracy - stopping structural energy minimisation