 vasp.6.3.0 20Jan22 (build Apr  1 2022 16:44:48) complex
 executed on        HPECrayEX_GCC date 2022.11.03  12:18:49

 INCAR:
   SYSTEM = MgO-rocksalt
   ISMEAR = 0
   SIGMA = 0.05
   EDIFF = 1E-7
   ALGO = ALL
   ISTART = 0
   IBRION = 2
   NSW = 1000
   ISYM = 0
   ISIF = 2
   EDIFFG = -0.01
   DIPOL = 0.5 0.5 0.5
   IDIPOL = 3
   LDIPOL = .TRUE.
   GGA = RE
   AGGAC = 0.0
   LUSE_VDW = .TRUE.
   LASPH = .TRUE.
   ENCUT = 600
   PREC = Accurate
   LASPH = .TRUE.
   LREAL = .FALSE.
   ISPIN = 1
   NELM = 200
   NELMIN = 8
   NCORE = 8
   KPAR = 1
   LWAVE = .FALSE.
   LCHARG = .FALSE.

 POTCAR:    PAW_PBE C 08Apr2002
 POTCAR:    PAW_PBE H 15Jun2001
 POTCAR:    PAW_PBE Mg_pv 13Apr2007
 POTCAR:    PAW_PBE O 08Apr2002
|               ----> ADVICE to this user running VASP <----                  |
|     You have switched on vdW-DFT.                                           |
|     This routine was written and supplied by Jiri Klimes. We recommend      |
|     that you carefully read and cite the following publications:            |
|       J. Klimes, D.R. Bowler, A. Michelides                                 |
|          J. Phys.: Cond Matt. 22 022201 (2010)                              |
|       J. Klimes, D.R. Bowler, A. Michelides                                 |
|          Phys. Rev. B. 83, 195131 (2011)                                    |
|     and references therein.                                                 |

   TITEL  = PAW_PBE C 08Apr2002
   POMASS =   12.011; ZVAL   =    4.000    mass and valenz
   ENMAX  =  400.000; ENMIN  =  300.000 eV

   TITEL  = PAW_PBE H 15Jun2001
   POMASS =    1.000; ZVAL   =    1.000    mass and valenz
   ENMAX  =  250.000; ENMIN  =  200.000 eV

   TITEL  = PAW_PBE Mg_pv 13Apr2007
   POMASS =   24.305; ZVAL   =    8.000    mass and valenz
   ENMAX  =  403.929; ENMIN  =  302.947 eV

   TITEL  = PAW_PBE O 08Apr2002
   POMASS =   16.000; ZVAL   =    6.000    mass and valenz
   ENMAX  =  400.000; ENMIN  =  300.000 eV

  PAW_PBE C 08Apr2002                   :
  PAW_PBE H 15Jun2001                   :
  PAW_PBE Mg_pv 13Apr2007               :
  PAW_PBE O 08Apr2002                   :

 POSCAR:  C  H Mg  O
  positions in direct lattice
 exchange correlation table for  LEXCH =       40
   RHO(1)=    0.500       N(1)  =     2000
   RHO(2)=  100.500       N(2)  =     4000

 ion  position               nearest neighbor table
   1  0.500  0.500  0.808-   6 1.09   5 1.09   8 1.10   7 1.10
   2  0.000  0.500  0.808-  10 1.09   9 1.09  12 1.10  11 1.10
   3  0.500  1.000  0.808-  14 1.09  13 1.09  16 1.10  15 1.10
   4  1.000  1.000  0.808-  18 1.09  17 1.09  20 1.10  19 1.10
   5  0.500  0.605  0.837-   1 1.09
   6  0.500  0.395  0.837-   1 1.09
   7  0.605  0.500  0.778-   1 1.10
   8  0.395  0.500  0.778-   1 1.10
   9  0.895  0.500  0.837-   2 1.09
  10  0.105  0.500  0.837-   2 1.09
  11  1.000  0.605  0.778-   2 1.10
  12  1.000  0.395  0.778-   2 1.10
  13  0.395  1.000  0.837-   3 1.09
  14  0.605  1.000  0.837-   3 1.09
  15  0.500  0.105  0.778-   3 1.10
  16  0.500  0.895  0.778-   3 1.10
  17  1.000  0.105  0.837-   4 1.09
  18  1.000  0.895  0.837-   4 1.09
  19  0.105  0.000  0.778-   4 1.10
  20  0.895  0.000  0.778-   4 1.10
  21  0.000  0.750  0.350-  53 2.14  55 2.14  56 2.14  63 2.14  72 2.14
  22  0.250  0.000  0.350-  54 2.14  55 2.14  56 2.14  64 2.14  71 2.14
  23  0.000  0.000  0.450-  55 2.14  54 2.14  53 2.14  61 2.14  70 2.14  59 2.14
  24  0.250  0.750  0.450-  56 2.14  54 2.14  53 2.14  62 2.14  69 2.14  60 2.14
  25  0.000  0.750  0.550-  60 2.14  76 2.14  59 2.14  67 2.14  53 2.15  57 2.16
  26  0.250  0.000  0.550-  75 2.14  68 2.14  60 2.14  59 2.14  54 2.15  58 2.16
  27  1.000  1.000  0.650-  59 2.13  74 2.14  58 2.14  57 2.14  65 2.14
  28  0.250  0.750  0.650-  60 2.13  73 2.14  58 2.14  66 2.14  57 2.14
  29  0.000  0.250  0.350-  61 2.14  55 2.14  63 2.14  64 2.14  80 2.14
  30  0.250  0.500  0.350-  62 2.14  56 2.14  63 2.14  64 2.14  79 2.14
  31  0.000  0.500  0.450-  63 2.14  61 2.14  62 2.14  53 2.14  78 2.14  67 2.14
  32  0.250  0.250  0.450-  64 2.14  61 2.14  62 2.14  54 2.14  77 2.14  68 2.14
  33  0.000  0.250  0.550-  68 2.14  84 2.14  59 2.14  67 2.14  61 2.15  65 2.16
  34  0.250  0.500  0.550-  67 2.14  68 2.14  60 2.14  83 2.14  62 2.15  66 2.16
  35  0.000  0.500  0.650-  67 2.13  66 2.14  82 2.14  57 2.14  65 2.14
  36  0.250  0.250  0.650-  68 2.13  81 2.14  58 2.14  66 2.14  65 2.14
  37  0.500  0.750  0.350-  69 2.14  56 2.14  71 2.14  72 2.14  79 2.14
  38  0.750  0.000  0.350-  70 2.14  55 2.14  71 2.14  72 2.14  80 2.14
  39  0.500  0.000  0.450-  71 2.14  69 2.14  70 2.14  54 2.14  77 2.14  75 2.14
  40  0.750  0.750  0.450-  72 2.14  69 2.14  70 2.14  53 2.14  78 2.14  76 2.14
  41  0.500  0.750  0.550-  75 2.14  83 2.14  60 2.14  76 2.14  69 2.15  73 2.16
  42  0.750  0.000  0.550-  75 2.14  84 2.14  76 2.14  59 2.14  70 2.15  74 2.16
  43  0.500  1.000  0.650-  75 2.13  73 2.14  81 2.14  74 2.14  58 2.14
  44  0.750  0.750  0.650-  76 2.13  73 2.14  74 2.14  82 2.14  57 2.14
  45  0.500  0.250  0.350-  77 2.14  71 2.14  64 2.14  79 2.14  80 2.14
  46  0.750  0.500  0.350-  78 2.14  72 2.14  63 2.14  79 2.14  80 2.14
  47  0.500  0.500  0.450-  79 2.14  69 2.14  77 2.14  78 2.14  62 2.14  83 2.14
  48  0.750  0.250  0.450-  80 2.14  70 2.14  77 2.14  78 2.14  61 2.14  84 2.14
  49  0.500  0.250  0.550-  75 2.14  83 2.14  68 2.14  84 2.14  77 2.15  81 2.16
  50  0.750  0.500  0.550-  67 2.14  84 2.14  76 2.14  83 2.14  78 2.15  82 2.16
  51  0.500  0.500  0.650-  83 2.13  73 2.14  81 2.14  66 2.14  82 2.14
  52  0.750  0.250  0.650-  84 2.13  81 2.14  74 2.14  82 2.14  65 2.14
  53  0.000  0.750  0.450-  21 2.14  23 2.14  24 2.14  31 2.14  40 2.14  25 2.15
  54  0.250  0.000  0.450-  22 2.14  23 2.14  24 2.14  32 2.14  39 2.14  26 2.15
  55  0.000  0.000  0.350-  23 2.14  22 2.14  21 2.14  29 2.14  38 2.14
  56  0.250  0.750  0.350-  24 2.14  22 2.14  21 2.14  30 2.14  37 2.14
  57  0.000  0.750  0.652-  35 2.14  27 2.14  28 2.14  44 2.14  25 2.16
  58  0.250  1.000  0.652-  28 2.14  36 2.14  43 2.14  27 2.14  26 2.16
  59  0.000  0.000  0.550-  27 2.13  33 2.14  25 2.14  26 2.14  42 2.14  23 2.14
  60  0.250  0.750  0.550-  28 2.13  25 2.14  26 2.14  34 2.14  41 2.14  24 2.14
[...]
  70  0.750  0.000  0.450-  38 2.14  23 2.14  39 2.14  40 2.14  48 2.14  42 2.15
  71  0.500  0.000  0.350-  39 2.14  37 2.14  38 2.14  22 2.14  45 2.14
  72  0.750  0.750  0.350-  40 2.14  37 2.14  38 2.14  21 2.14  46 2.14
  73  0.500  0.750  0.651-  44 2.14  28 2.14  43 2.14  51 2.14  41 2.16
  74  0.750  1.000  0.652-  44 2.14  52 2.14  43 2.14  27 2.14  42 2.16
  75  0.500  0.000  0.550-  43 2.13  49 2.14  41 2.14  26 2.14  42 2.14  39 2.14
  76  0.750  0.750  0.550-  44 2.13  25 2.14  42 2.14  50 2.14  41 2.14  40 2.14
  77  0.500  0.250  0.450-  45 2.14  39 2.14  32 2.14  47 2.14  48 2.14  49 2.15
  78  0.750  0.500  0.450-  46 2.14  40 2.14  31 2.14  47 2.14  48 2.14  50 2.15
  79  0.500  0.500  0.350-  47 2.14  37 2.14  45 2.14  46 2.14  30 2.14
  80  0.750  0.250  0.350-  48 2.14  38 2.14  45 2.14  46 2.14  29 2.14
  81  0.500  0.250  0.651-  52 2.14  36 2.14  43 2.14  51 2.14  49 2.16
  82  0.750  0.500  0.651-  35 2.14  44 2.14  52 2.14  51 2.14  50 2.16
  83  0.500  0.500  0.550-  51 2.13  49 2.14  41 2.14  34 2.14  50 2.14  47 2.14
  84  0.750  0.250  0.550-  52 2.13  33 2.14  42 2.14  50 2.14  49 2.14  48 2.14

IMPORTANT INFORMATION: All symmetrisations will be switched off!
NOSYMM: (Re-)initialisation of all symmetry stuff for point group C_1.

                                     Primitive cell

  volume of cell :    1563.6717

  direct lattice vectors                    reciprocal lattice vectors
     8.546113626  0.000000000  0.000000000     0.117012252  0.000000000  0.000000000
     0.000000000  8.546113626  0.000000000     0.000000000  0.117012252  0.000000000
     0.000000000  0.000000000 21.409585219     0.000000000  0.000000000  0.046708051

  length of vectors
     8.546113626  8.546113626 21.409585219     0.117012252  0.117012252  0.046708051

  position of ions in fractional coordinates (direct lattice)
     0.499999914  0.499999506  0.807548202
     0.000000089  0.499999646  0.807548202
     0.500000089  0.999999646  0.807548202
     0.999999914  0.999999506  0.807548202
     0.499999991  0.604827035  0.836921686
     0.499999950  0.395173390  0.836921535
     0.605111703  0.500000035  0.778233774
     0.394888287  0.500000075  0.778233785
     0.895172560  0.499999722  0.836921686
     0.104826205  0.499999682  0.836921535
     0.999999560  0.605111435  0.778233774
     0.999999520  0.394888019  0.778233785
     0.395172560  0.999999722  0.836921686
     0.604826205  0.999999682  0.836921535
     0.499999560  0.105111435  0.778233774
     0.499999520  0.894888019  0.778233785
     0.999999991  0.104827035  0.836921686
     0.999999950  0.895173390  0.836921535
     0.105111703  0.000000035  0.778233774
     0.894888287  0.000000075  0.778233785
     0.000000000  0.750000000  0.350310383
     0.250000000  0.000000000  0.350310383
     0.000000000  0.000000000  0.450103461
     0.250000000  0.750000000  0.450103461
     0.000000010  0.750048803  0.550439856
     0.250007043  0.000000008  0.550439704
     0.999999995  0.999999990  0.649719877
     0.250129022  0.750046398  0.649515153
     0.000000000  0.250000000  0.350310383
     0.250000000  0.500000000  0.350310383
     0.000000000  0.500000000  0.450103461
     0.250000000  0.250000000  0.450103461
     0.000000008  0.249951191  0.550439878
     0.249952443  0.499999988  0.550416708
     0.000000008  0.500000002  0.649556603
     0.250129040  0.249953598  0.649515180
     0.500000000  0.750000000  0.350310383
     0.750000000  0.000000000  0.350310383
     0.500000000  0.000000000  0.450103461
     0.750000000  0.750000000  0.450103461
     0.499999994  0.750023873  0.550431636
     0.749992958  0.000000009  0.550439691
     0.500000007  0.999999987  0.649588587
     0.749870979  0.750046409  0.649515150
     0.500000000  0.250000000  0.350310383
     0.750000000  0.500000000  0.350310383
     0.500000000  0.500000000  0.450103461
     0.750000000  0.250000000  0.450103461
     0.499999994  0.249976122  0.550431644
     0.750047559  0.499999989  0.550416700
     0.500000000  0.500000010  0.649650227
     0.749870966  0.249953590  0.649515177
     0.000000000  0.750000000  0.450103461
     0.250000000  0.000000000  0.450103461
     0.000000000  0.000000000  0.350310383
     0.250000000  0.750000000  0.350310383
     0.000000003  0.749984296  0.651540068
     0.250006609  0.999999987  0.651525352
     0.000000004  0.000000004  0.550202403
     0.249933110  0.750006583  0.550136903
[...]
     0.750000000  0.000000000  0.450103461
     0.500000000  0.000000000  0.350310383
     0.750000000  0.750000000  0.350310383
     0.500000003  0.750077766  0.651339700
     0.749993397  0.999999990  0.651525348
     0.499999997  0.000000005  0.550107257
     0.750066894  0.750006583  0.550136900
     0.500000000  0.250000000  0.450103461
     0.750000000  0.500000000  0.450103461
     0.500000000  0.500000000  0.350310383
[...]
   0.00000003  0.00000004 11.77960524
   2.13595676  6.40964148 11.77820290
[...]
   6.40958522  0.00000000  9.63652841
   4.27305681  0.00000000  7.50000000
   6.40958522  6.40958522  7.50000000
   4.27305684  6.41024982 13.94491281
   6.40952879  8.54611354 13.94888747
   4.27305679  0.00000004 11.77756820
   6.41015690  6.40964148 11.77820283
   4.27305681  2.13652841  9.63652841
   6.40958522  4.27305681  9.63652841
   4.27305681  4.27305681  7.50000000
   6.40958522  2.13652841  7.50000000
   4.27305684  2.13586377 13.94491349
   6.41125599  4.27305685 13.94795507
   4.27305678  4.27305673 11.77790598
   6.41015686  2.13647215 11.77820317

--------------------------------------- Iteration      FINAL  ---------------------------------------

--------------------OUTCAR has been truncated-------------------------

[...]

--------------------OUTCAR has been truncated-------------------------

  FORCE on cell =-STRESS in cart. coord.  units (eV):
  Direction    XX          YY          ZZ          XY          YZ          ZX
  Alpha Z   948.66045   948.66045   948.66045
  Ewald  144562.86152144562.90311************    -0.00000    -0.01199     0.01169
  Hartree155200.26795155200.30478************    -0.00000    -0.00074     0.00068
  E(xc)   -2631.68043 -2631.68034 -2634.52085     0.00000    -0.00007     0.00007
  Local  ************************309079.73993     0.00000     0.00875    -0.00847
  n-local -2879.37237 -2879.37214 -2898.17433     0.00000     0.00034    -0.00034
  augment  1079.12561  1079.12568  1070.61615    -0.00000     0.00005    -0.00005
  Kinetic  7715.06492  7715.06325  7753.74503    -0.00000     0.00040    -0.00038
  Fock        0.00000     0.00000     0.00000     0.00000     0.00000     0.00000
  Total     -30.88133   -30.88426    -2.64393    -0.00000    -0.00325     0.00321
  in kB     -31.64178   -31.64479    -2.70904    -0.00000    -0.00333     0.00329

 VOLUME and BASIS-vectors are now :
  energy-cutoff  :      600.00
  volume of cell :     1563.67
      direct lattice vectors                 reciprocal lattice vectors
     8.546113626  0.000000000  0.000000000     0.117012252  0.000000000  0.000000000
     0.000000000  8.546113626  0.000000000     0.000000000  0.117012252  0.000000000
     0.000000000  0.000000000 21.409585219     0.000000000  0.000000000  0.046708051

  length of vectors
     8.546113626  8.546113626 21.409585219     0.117012252  0.117012252  0.046708051

 FORCES acting on ions:
    Electron-Ion                     Ewald-Force                    Non-Local-Force
   -.135E-03 -.284E-02 -.832E+03   0.110E-03 0.414E-02 0.832E+03   -.631E-04 0.192E-02 0.115E-01
   0.282E-02 0.985E-04 -.832E+03   -.411E-02 -.427E-04 0.832E+03   -.190E-02 0.112E-03 0.129E-01
   0.289E-02 0.580E-04 -.832E+03   -.421E-02 -.863E-05 0.832E+03   -.195E-02 0.103E-03 0.120E-01
   -.107E-03 -.308E-02 -.832E+03   0.706E-04 0.448E-02 0.832E+03   -.796E-04 0.207E-02 0.131E-01
   -.169E-04 -.377E+02 -.212E+03   0.196E-04 0.423E+02 0.216E+03   0.218E-05 -.465E+01 -.327E+01
   -.633E-05 0.377E+02 -.212E+03   0.761E-05 -.423E+02 0.216E+03   0.342E-05 0.465E+01 -.327E+01
   -.378E+02 -.182E-02 -.203E+03   0.424E+02 0.195E-02 0.200E+03   -.469E+01 -.280E-03 0.322E+01
   0.378E+02 -.183E-02 -.203E+03   -.424E+02 0.196E-02 0.200E+03   0.469E+01 -.282E-03 0.322E+01
   0.377E+02 -.481E-05 -.212E+03   -.423E+02 0.338E-05 0.216E+03   0.465E+01 -.700E-05 -.327E+01
   -.377E+02 -.199E-04 -.212E+03   0.423E+02 0.203E-04 0.216E+03   -.465E+01 -.881E-05 -.327E+01
   0.181E-02 -.377E+02 -.203E+03   -.194E-02 0.424E+02 0.200E+03   0.278E-03 -.469E+01 0.322E+01
   0.179E-02 0.377E+02 -.203E+03   -.192E-02 -.424E+02 0.200E+03   0.276E-03 0.469E+01 0.322E+01
   0.377E+02 -.102E-04 -.212E+03   -.423E+02 0.869E-05 0.216E+03   0.465E+01 -.612E-05 -.327E+01
   -.377E+02 -.144E-04 -.212E+03   0.423E+02 0.132E-04 0.216E+03   -.465E+01 -.664E-05 -.327E+01
   0.185E-02 -.377E+02 -.203E+03   -.197E-02 0.424E+02 0.200E+03   0.284E-03 -.469E+01 0.322E+01
   0.184E-02 0.377E+02 -.203E+03   -.197E-02 -.424E+02 0.200E+03   0.283E-03 0.469E+01 0.322E+01
   0.105E-04 -.377E+02 -.212E+03   -.105E-04 0.423E+02 0.216E+03   0.586E-05 -.465E+01 -.327E+01
   -.165E-04 0.377E+02 -.212E+03   0.197E-04 -.423E+02 0.216E+03   0.262E-05 0.465E+01 -.327E+01
   -.377E+02 -.198E-02 -.203E+03   0.424E+02 0.212E-02 0.200E+03   -.469E+01 -.303E-03 0.322E+01
   0.377E+02 -.196E-02 -.203E+03   -.424E+02 0.209E-02 0.200E+03   0.469E+01 -.300E-03 0.322E+01
   0.215E-05 0.833E-02 0.203E+04   -.212E-05 -.854E-02 -.202E+04   -.750E-08 0.160E-03 -.640E+01
   -.243E-01 0.459E-05 0.203E+04   0.245E-01 -.456E-05 -.202E+04   -.158E-03 0.468E-07 -.640E+01
   0.181E-04 0.143E-04 0.751E+03   -.179E-04 -.157E-04 -.752E+03   -.344E-07 0.110E-05 0.439E+00
   -.869E-01 0.330E-01 0.751E+03   0.903E-01 -.349E-01 -.752E+03   -.240E-02 0.135E-02 0.455E+00
   0.355E-04 0.205E-01 -.518E+03   -.353E-04 -.256E-01 0.519E+03   -.739E-06 0.526E-02 -.288E+00
   -.126E+00 -.682E-05 -.518E+03   0.132E+00 0.656E-05 0.519E+03   -.494E-02 0.176E-05 -.292E+00
   -.605E-04 -.249E-03 -.177E+04   0.489E-04 0.228E-03 0.177E+04   0.792E-05 0.135E-04 0.566E+01
   0.133E-02 0.225E-01 -.179E+04   -.711E-02 -.193E-01 0.178E+04   0.559E-02 -.359E-02 0.561E+01
   0.163E-05 -.833E-02 0.203E+04   -.153E-05 0.854E-02 -.202E+04   -.202E-07 -.160E-03 -.640E+01
   -.227E-01 -.472E-05 0.203E+04   0.229E-01 0.461E-05 -.202E+04   -.208E-03 0.356E-07 -.640E+01
   0.101E-05 -.175E-04 0.751E+03   -.187E-05 0.178E-04 -.752E+03   0.696E-06 -.322E-06 0.445E+00
   -.869E-01 -.330E-01 0.751E+03   0.903E-01 0.349E-01 -.752E+03   -.240E-02 -.135E-02 0.455E+00
   0.154E-04 -.205E-01 -.518E+03   -.161E-04 0.256E-01 0.519E+03   0.596E-06 -.526E-02 -.288E+00
   -.234E-01 -.613E-05 -.519E+03   0.341E-01 0.889E-05 0.519E+03   -.107E-01 -.313E-05 -.290E+00
   0.149E-03 0.402E-04 -.177E+04   -.131E-03 -.285E-04 0.177E+04   -.104E-04 -.671E-05 0.567E+01
   0.157E-02 -.223E-01 -.179E+04   -.732E-02 0.192E-01 0.178E+04   0.557E-02 0.358E-02 0.561E+01
   -.176E-05 0.679E-02 0.203E+04   0.181E-05 -.702E-02 -.202E+04   -.202E-07 0.166E-03 -.640E+01
   0.243E-01 0.507E-05 0.203E+04   -.245E-01 -.510E-05 -.202E+04   0.158E-03 0.523E-07 -.640E+01
   -.613E-05 0.213E-04 0.751E+03   0.633E-05 -.230E-04 -.751E+03   -.216E-06 0.131E-05 0.464E+00
   0.869E-01 0.330E-01 0.751E+03   -.903E-01 -.349E-01 -.752E+03   0.240E-02 0.135E-02 0.455E+00
   0.214E-04 0.139E-01 -.519E+03   -.194E-04 -.146E-01 0.519E+03   -.202E-05 0.157E-02 -.281E+00
   0.126E+00 -.161E-04 -.518E+03   -.132E+00 0.137E-04 0.519E+03   0.495E-02 0.347E-05 -.292E+00
   0.231E-03 0.587E-04 -.177E+04   -.212E-03 -.433E-04 0.177E+04   -.126E-04 -.116E-04 0.568E+01
   -.148E-02 0.227E-01 -.179E+04   0.725E-02 -.195E-01 0.178E+04   -.558E-02 -.361E-02 0.561E+01
   -.141E-05 -.679E-02 0.203E+04   0.134E-05 0.702E-02 -.202E+04   0.295E-07 -.166E-03 -.640E+01
   0.227E-01 -.506E-05 0.203E+04   -.229E-01 0.509E-05 -.202E+04   0.208E-03 -.781E-08 -.640E+01
   0.319E-06 -.202E-04 0.751E+03   0.893E-06 0.210E-04 -.751E+03   -.954E-06 -.676E-06 0.470E+00
   0.869E-01 -.330E-01 0.751E+03   -.903E-01 0.349E-01 -.752E+03   0.240E-02 -.135E-02 0.455E+00
   0.182E-04 -.139E-01 -.519E+03   -.163E-04 0.146E-01 0.519E+03   -.187E-05 -.157E-02 -.281E+00
   0.234E-01 0.189E-04 -.519E+03   -.341E-01 -.150E-04 0.519E+03   0.107E-01 -.458E-05 -.290E+00
   -.227E-04 -.244E-03 -.177E+04   0.108E-04 0.221E-03 0.177E+04   0.780E-05 0.164E-04 0.568E+01
   -.170E-02 -.225E-01 -.179E+04   0.744E-02 0.194E-01 0.178E+04   -.556E-02 0.360E-02 0.561E+01
   0.109E-04 0.254E-01 0.563E+03   -.107E-04 -.247E-01 -.563E+03   -.773E-07 -.949E-03 -.745E-01
   -.860E-01 0.104E-04 0.563E+03   0.833E-01 -.812E-05 -.563E+03   0.396E-02 -.225E-05 -.773E-01
   0.181E-05 0.356E-05 0.152E+04   -.178E-05 -.354E-05 -.153E+04   0.618E-07 0.860E-07 0.358E+01
   -.172E-01 0.574E-02 0.152E+04   0.175E-01 -.599E-02 -.153E+04   -.376E-03 0.342E-03 0.358E+01
   0.460E-04 -.234E+00 -.135E+04   -.419E-04 0.244E+00 0.136E+04   -.666E-05 -.102E-01 -.494E+01
   -.310E+00 -.674E-04 -.135E+04   0.326E+00 0.618E-04 0.136E+04   -.130E-01 0.783E-05 -.494E+01
   0.408E-04 -.121E-04 -.383E+03   -.441E-04 0.112E-04 0.383E+03   0.372E-05 0.281E-05 0.272E+00
   -.297E-01 0.241E-01 -.383E+03   0.259E-01 -.224E-01 0.383E+03   0.222E-02 -.185E-02 0.341E+00
[...]
   -.152E-05 0.385E-05 0.152E+04   0.148E-05 -.388E-05 -.153E+04   -.904E-07 0.125E-06 0.358E+01
   0.172E-01 0.574E-02 0.152E+04   -.175E-01 -.599E-02 -.153E+04   0.376E-03 0.342E-03 0.358E+01
   0.725E-04 0.243E+00 -.135E+04   -.679E-04 -.255E+00 0.136E+04   -.709E-05 0.122E-01 -.494E+01
   0.310E+00 -.717E-04 -.135E+04   -.325E+00 0.650E-04 0.136E+04   0.130E-01 0.973E-05 -.494E+01
   0.201E-04 0.210E-04 -.384E+03   -.188E-04 -.178E-04 0.384E+03   -.244E-05 -.507E-05 0.253E+00
   0.297E-01 0.241E-01 -.383E+03   -.259E-01 -.224E-01 0.383E+03   -.222E-02 -.186E-02 0.341E+00
   -.176E-05 -.178E-01 0.563E+03   0.211E-05 0.171E-01 -.563E+03   -.584E-06 0.104E-02 -.816E-01
   0.713E-01 -.149E-04 0.563E+03   -.677E-01 0.145E-04 -.563E+03   -.506E-02 0.345E-06 -.818E-01
   -.776E-06 -.374E-05 0.152E+04   0.877E-06 0.381E-05 -.153E+04   -.136E-06 -.195E-06 0.358E+01
   0.172E-01 -.574E-02 0.152E+04   -.175E-01 0.599E-02 -.153E+04   0.376E-03 -.342E-03 0.358E+01
   0.723E-04 -.243E+00 -.135E+04   -.701E-04 0.255E+00 0.136E+04   -.427E-05 -.122E-01 -.494E+01
   -.282E+00 -.210E-04 -.135E+04   0.288E+00 0.153E-04 0.136E+04   -.674E-02 0.721E-05 -.494E+01
   0.192E-04 -.777E-05 -.384E+03   -.199E-04 0.344E-05 0.384E+03   0.692E-06 0.459E-05 0.245E+00
   0.297E-01 -.241E-01 -.383E+03   -.259E-01 0.224E-01 0.383E+03   -.221E-02 0.186E-02 0.341E+00
   0.563E-02 -.595E-02 0.143E+02   -.171E-12 0.284E-12 0.182E-11   -.556E-02 0.588E-02 -.142E+02

 POSITION                                       TOTAL-FORCE (eV/Angst)
      4.27306      4.27302     17.40507        -0.000088      0.003195      0.002707
      0.00004      4.27305     17.40507        -0.003163      0.000168      0.001193
      4.27310     -0.00000     17.40509        -0.003242      0.000152      0.000550
      0.00000     -0.00004     17.40509        -0.000116      0.003439      0.000384
      4.27306      5.16858     18.03550         0.000004      0.002764      0.003076
      4.27306      3.37758     18.03547         0.000004     -0.005686      0.004917
      5.17077      4.27306     16.77665         0.006703     -0.000150     -0.001621
      3.37534      4.27306     16.77665        -0.006627     -0.000151     -0.001575
      7.65059      4.27305     18.03545        -0.003136     -0.000008      0.003960
      0.89548      4.27306     18.03543         0.006028     -0.000008      0.005782
     -0.00001      5.17082     16.77667         0.000150      0.005337     -0.001739
     -0.00001      3.37530     16.77667         0.000150     -0.005486     -0.001831
      3.37759      8.54611     18.03555        -0.003743     -0.000007      0.003242
      5.16847      8.54611     18.03552         0.006708     -0.000007      0.005109
      4.27305      0.89773     16.77661         0.000153      0.005503     -0.000668
      4.27305      7.64838     16.77661         0.000153     -0.005638     -0.000751
     -0.00000      0.89555     18.03543         0.000005      0.002915      0.004320
     -0.00000      7.65061     18.03540         0.000005     -0.006060      0.006300
      0.89776      0.00000     16.77668         0.005076     -0.000163     -0.001862
      7.64834      0.00000     16.77668        -0.004974     -0.000163     -0.001799
      0.00000      6.40959      7.50000        -0.000001     -0.000021      0.322574
      2.13653      0.00000      7.50000         0.000072      0.000001      0.322599
      0.00000      0.00000      9.63653        -0.000001      0.000001      0.025144
      2.13653      6.40959      9.63653         0.000928     -0.000533      0.023430
      0.00000      6.40942     11.78453        -0.000001      0.000197     -0.001857
      2.13660     -0.00000     11.78486         0.001155      0.000002     -0.002706
      0.00000     -0.00000     13.90805        -0.000004     -0.000006      0.000694
      2.13638      6.40971     13.90370        -0.000163     -0.000443     -0.006674
      0.00000      2.13653      7.50000        -0.000001      0.000023      0.322574
      2.13653      4.27306      7.50000         0.000023      0.000001      0.322775
      0.00000      4.27306      9.63653        -0.000001      0.000001      0.026004
      2.13653      2.13653      9.63653         0.000927      0.000534      0.023429
     -0.00000      2.13669     11.78453        -0.000001     -0.000195     -0.001860
      2.13685      4.27306     11.78533        -0.000124      0.000000     -0.004233
     -0.00000      4.27306     13.90884         0.000007      0.000006     -0.001685
      2.13638      2.13640     13.90370        -0.000153      0.000446     -0.006673
      4.27306      6.40959      7.50000        -0.000001     -0.000086      0.322705
      6.40959      0.00000      7.50000        -0.000074      0.000001      0.322599
      4.27306      0.00000      9.63653        -0.000001      0.000001      0.028115
      6.40959      6.40959      9.63653        -0.000929     -0.000533      0.023430
      4.27306      6.40948     11.78544        -0.000001      0.000858     -0.002654
      6.40951     -0.00000     11.78486        -0.001156      0.000002     -0.002703
      4.27306     -0.00000     13.91020         0.000005      0.000005     -0.006434
      6.40974      6.40971     13.90370         0.000160     -0.000433     -0.006676
      4.27306      2.13653      7.50000        -0.000001      0.000088      0.322705
      6.40959      4.27306      7.50000        -0.000025      0.000001      0.322775
      4.27306      4.27306      9.63653        -0.000001      0.000001      0.028180
      6.40959      2.13653      9.63653        -0.000929      0.000535      0.023430
      4.27306      2.13663     11.78544        -0.000001     -0.000856     -0.002650
      6.40927      4.27306     11.78533         0.000121      0.000000     -0.004237
      4.27306      4.27306     13.91123        -0.000005     -0.000005     -0.009702
      6.40974      2.13640     13.90370         0.000150      0.000438     -0.006674
      0.00000      6.40959      9.63653        -0.000001     -0.000230      0.053696
      2.13653      0.00000      9.63653         0.001307      0.000001      0.054433
      0.00000      0.00000      7.50000        -0.000001      0.000001     -0.396774
      2.13653      6.40959      7.50000        -0.000109      0.000098     -0.396704
      0.00000      6.40948     13.94828        -0.000003     -0.000684      0.001383
      2.13589     -0.00000     13.94861         0.002351      0.000003      0.002399
      0.00000     -0.00000     11.77802        -0.000000      0.000003      0.001604
      2.13683      6.40952     11.77820        -0.001550     -0.000096      0.000578
[...]
      6.40959      0.00000      9.63653        -0.001309      0.000000      0.054433
      4.27306      0.00000      7.50000        -0.000001      0.000001     -0.396804
      6.40959      6.40959      7.50000         0.000107      0.000098     -0.396705
      4.27306      6.40984     13.95040        -0.000003      0.000219     -0.002334
      6.41023     -0.00000     13.94861        -0.002347      0.000004      0.002389
      4.27306     -0.00000     11.77982        -0.000002     -0.000001     -0.008410
      6.40928      6.40952     11.77820         0.001549     -0.000097      0.000576
      4.27306      2.13653      9.63653        -0.000001      0.000291      0.055873
      6.40959      4.27306      9.63653        -0.001485      0.000001      0.055241
      4.27306      4.27306      7.50000        -0.000001      0.000001     -0.396915
      6.40959      2.13653      7.50000         0.000107     -0.000096     -0.396704
      4.27306      2.13627     13.95040        -0.000003     -0.000223     -0.002341
      6.40963      4.27306     13.94947        -0.000273      0.000002     -0.000039
      4.27306      4.27306     11.78019        -0.000001      0.000001     -0.009190
      6.40928      2.13659     11.77820         0.001551      0.000101      0.000580
    total drift:                                0.000070     -0.000074      0.040274

  FREE ENERGIE OF THE ION-ELECTRON SYSTEM (eV)
  free  energy   TOTEN  =      -318.41896648 eV

  energy  without entropy=     -318.41896648  energy(sigma->0) =     -318.41896648

 d Force = 0.2677001E-04[ 0.884E-05, 0.447E-04]  d Energy = 0.2757549E-04-0.805E-06
 d Force =-0.4177918E+01[-0.418E+01,-0.418E+01]  d Ewald  =-0.4177920E+01 0.217E-05

 reached required accuracy - stopping structural energy minimisation