 vasp.6.3.0 20Jan22 (build Apr  1 2022 16:44:48) complex
 executed on        HPECrayEX_GCC date 2023.01.23  22:44:40

 INCAR:
   SYSTEM = MgO-rocksalt
   ISMEAR = 0
   SIGMA = 0.05
   EDIFF = 1E-8
   ALGO = ALL
   ISTART = 0
   IBRION = 5
   POTIM = 0.01
   NFREE = 2
   ISYM = 0
   DIPOL = 0.5 0.5 0.5
   IDIPOL = 3
   LDIPOL = .TRUE.
   GGA = MK
   LUSE_VDW = .TRUE.
   PARAM1 = 0.1234
   PARAM2 = 0.711357
   ZAB_VDW = -1.8867
   AGGAC = 0.0
   ENCUT = 600
   PREC = Accurate
   LASPH = .TRUE.
   LREAL = .FALSE.
   ISPIN = 2
   MAGMOM = 1.0 0.0 0.0 0.0 0.0 0.0 0.0 0.0 0.0 0.0 0.0 0.0 0.0 0.0 0.0 0.0 0.0 0.0 0.0 0.0 0.0 0.0 0.0 0.0 0.0 0.0 0.0 0.0 0.0 0.0 0.0 0.0 0.0 0.0 0.0 0.0 0.0 0.0 0.0 0.0 0.0 0.0 0.0 0.0 0.0 0.0 0.0 0.0 0.0 0.0 0.0 0.0 0.0 0.0 0.0 0.0 0.0 0.0 0.0 0.0 0.0 0.0 0.0 0.0 0.0 0.0
   NELM = 200
   NELMIN = 8
   NCORE = 8
   KPAR = 1
   LWAVE = .FALSE.
   LCHARG = .FALSE.

 POTCAR:    PAW_PBE N 08Apr2002
 POTCAR:    PAW_PBE O 08Apr2002
 POTCAR:    PAW_PBE Mg_pv 13Apr2007
 POTCAR:    PAW_PBE O 08Apr2002
|               ----> ADVICE to this user running VASP <----                  |
|     You have switched on vdW-DFT.                                           |
|     This routine was written and supplied by Jiri Klimes. We recommend      |
|     that you carefully read and cite the following publications:            |
|       J. Klimes, D.R. Bowler, A. Michelides                                 |
|          J. Phys.: Cond Matt. 22 022201 (2010)                              |
|       J. Klimes, D.R. Bowler, A. Michelides                                 |
|          Phys. Rev. B. 83, 195131 (2011)                                    |
|     and references therein.                                                 |

   TITEL  = PAW_PBE N 08Apr2002
   POMASS =   14.001; ZVAL   =    5.000    mass and valenz
   ENMAX  =  400.000; ENMIN  =  300.000 eV

[...]

   TITEL  = PAW_PBE Mg_pv 13Apr2007
   POMASS =   24.305; ZVAL   =    8.000    mass and valenz
   ENMAX  =  403.929; ENMIN  =  302.947 eV

   TITEL  = PAW_PBE O 08Apr2002
   POMASS =   16.000; ZVAL   =    6.000    mass and valenz
   ENMAX  =  400.000; ENMIN  =  300.000 eV

  PAW_PBE N 08Apr2002                   :
  PAW_PBE O 08Apr2002                   :
  PAW_PBE Mg_pv 13Apr2007               :
  PAW_PBE O 08Apr2002                   :

 POSCAR:  N  O Mg  O
  positions in direct lattice
 exchange correlation table for  LEXCH =       43
   RHO(1)=    0.500       N(1)  =     2000
   RHO(2)=  100.500       N(2)  =     4000

 ion  position               nearest neighbor table
   1  0.496  0.250  0.757-   2 1.19
   2  0.630  0.250  0.775-   1 1.19
   3  0.250  0.000  0.352-  35 2.11  37 2.11  38 2.11  45 2.11  54 2.11
   4  0.500  0.250  0.352-  36 2.11  37 2.11  38 2.11  46 2.11  53 2.11
   5  0.250  0.250  0.451-  37 2.11  36 2.11  35 2.11  43 2.11  52 2.11  41 2.12
   6  0.500  0.000  0.451-  38 2.11  36 2.11  35 2.11  44 2.11  51 2.11  42 2.12
   7  0.250  0.000  0.550-  58 2.11  41 2.11  49 2.11  42 2.11  35 2.12  39 2.13
   8  0.500  0.250  0.549-  36 2.10  41 2.11  50 2.11  42 2.11  57 2.11  40 2.14
   9  0.248  0.250  0.649-  56 2.09  47 2.11  39 2.11  41 2.11  40 2.13
  10  0.500  0.998  0.649-  48 2.09  39 2.11  42 2.11  55 2.11  40 2.13
  11  0.250  0.500  0.352-  43 2.11  37 2.11  45 2.11  46 2.11  62 2.11
  12  0.500  0.750  0.352-  44 2.11  38 2.11  45 2.11  46 2.11  61 2.11
  13  0.250  0.750  0.451-  45 2.11  43 2.11  44 2.11  35 2.11  60 2.11  49 2.12
  14  0.500  0.500  0.451-  46 2.11  43 2.11  44 2.11  36 2.11  59 2.11  50 2.12
  15  0.250  0.500  0.550-  66 2.11  41 2.11  49 2.11  50 2.11  43 2.12  47 2.13
  16  0.500  0.750  0.550-  65 2.11  49 2.11  42 2.11  50 2.11  44 2.12  48 2.13
  17  0.250  0.750  0.649-  49 2.11  64 2.11  48 2.11  39 2.11  47 2.11
  18  0.500  0.502  0.649-  48 2.09  47 2.11  50 2.11  63 2.11  40 2.13
  19  0.750  0.000  0.352-  51 2.11  38 2.11  53 2.11  54 2.11  61 2.11
  20  0.000  0.250  0.352-  52 2.11  37 2.11  53 2.11  54 2.11  62 2.11
  21  0.750  0.250  0.451-  53 2.11  51 2.11  52 2.11  36 2.11  59 2.11  57 2.12
  22  0.000  0.000  0.451-  54 2.11  51 2.11  52 2.11  35 2.11  60 2.11  58 2.12
  23  0.750  1.000  0.550-  65 2.11  58 2.11  42 2.11  57 2.11  51 2.12  55 2.13
  24  0.000  0.250  0.550-  66 2.11  58 2.11  41 2.11  57 2.11  52 2.12  56 2.13
  25  0.753  0.250  0.649-  56 2.09  57 2.11  63 2.11  55 2.11  40 2.13
  26  1.000  1.000  0.649-  64 2.11  58 2.11  39 2.11  56 2.11  55 2.11
  27  0.750  0.500  0.352-  59 2.11  53 2.11  46 2.11  61 2.11  62 2.11
  28  0.000  0.750  0.352-  60 2.11  54 2.11  45 2.11  61 2.11  62 2.11
  29  0.750  0.750  0.451-  61 2.11  51 2.11  59 2.11  60 2.11  44 2.11  65 2.12
  30  0.000  0.500  0.451-  62 2.11  52 2.11  59 2.11  60 2.11  43 2.11  66 2.12
  31  0.750  0.500  0.550-  65 2.11  66 2.11  50 2.11  57 2.11  59 2.12  63 2.13
  32  0.000  0.750  0.550-  58 2.11  66 2.11  65 2.11  49 2.11  60 2.12  64 2.13
  33  0.750  0.750  0.649-  65 2.11  64 2.11  48 2.11  63 2.11  55 2.11
  34  1.000  0.500  0.649-  64 2.11  66 2.11  47 2.11  56 2.11  63 2.11
  35  0.250  0.000  0.451-   3 2.11   5 2.11   6 2.11  13 2.11  22 2.11   7 2.12
  36  0.500  0.250  0.451-   8 2.10   4 2.11   6 2.11   5 2.11  14 2.11  21 2.11
  37  0.250  0.250  0.352-   5 2.11   4 2.11   3 2.11  11 2.11  20 2.11
  38  0.500  0.000  0.352-   6 2.11   4 2.11   3 2.11  12 2.11  19 2.11
  39  0.250  0.000  0.650-  10 2.11   9 2.11  26 2.11  17 2.11   7 2.13
  40  0.500  0.250  0.650-  18 2.13  10 2.13   9 2.13  25 2.13   8 2.14
  41  0.250  0.250  0.550-   8 2.11   7 2.11  15 2.11   9 2.11  24 2.11   5 2.12
  42  0.500  0.000  0.550-   8 2.11  10 2.11  23 2.11   7 2.11  16 2.11   6 2.12
  43  0.250  0.500  0.451-  11 2.11   5 2.11  13 2.11  14 2.11  30 2.11  15 2.12
  44  0.500  0.750  0.451-  12 2.11   6 2.11  13 2.11  14 2.11  29 2.11  16 2.12
  45  0.250  0.750  0.352-  13 2.11  11 2.11  12 2.11   3 2.11  28 2.11
  46  0.500  0.500  0.352-  14 2.11  11 2.11  12 2.11   4 2.11  27 2.11
  47  0.250  0.500  0.650-  18 2.11   9 2.11  34 2.11  17 2.11  15 2.13
  48  0.500  0.750  0.650-  10 2.09  18 2.09  17 2.11  33 2.11  16 2.13
  49  0.250  0.750  0.550-  17 2.11  16 2.11  15 2.11   7 2.11  32 2.11  13 2.12
  50  0.500  0.500  0.550-   8 2.11  18 2.11  31 2.11  15 2.11  16 2.11  14 2.12
  51  0.750  0.000  0.451-  19 2.11   6 2.11  21 2.11  22 2.11  29 2.11  23 2.12
  52  0.000  0.250  0.451-  20 2.11   5 2.11  21 2.11  22 2.11  30 2.11  24 2.12
  53  0.750  0.250  0.352-  21 2.11  19 2.11  20 2.11   4 2.11  27 2.11
  54  0.000  0.000  0.352-  22 2.11  19 2.11  20 2.11   3 2.11  28 2.11
  55  0.750  0.000  0.650-  25 2.11  10 2.11  33 2.11  26 2.11  23 2.13
  56  0.000  0.250  0.650-  25 2.09   9 2.09  34 2.11  26 2.11  24 2.13
  57  0.750  0.250  0.550-  25 2.11   8 2.11  23 2.11  31 2.11  24 2.11  21 2.12
  58  1.000  0.000  0.550-  26 2.11  24 2.11  23 2.11   7 2.11  32 2.11  22 2.12
  59  0.750  0.500  0.451-  27 2.11  21 2.11  14 2.11  29 2.11  30 2.11  31 2.12
  60  0.000  0.750  0.451-  28 2.11  22 2.11  13 2.11  29 2.11  30 2.11  32 2.12
  61  0.750  0.750  0.352-  29 2.11  19 2.11  27 2.11  28 2.11  12 2.11
  62  0.000  0.500  0.352-  30 2.11  20 2.11  27 2.11  28 2.11  11 2.11
  63  0.750  0.500  0.650-  25 2.11  18 2.11  33 2.11  34 2.11  31 2.13
  64  1.000  0.750  0.650-  17 2.11  33 2.11  26 2.11  34 2.11  32 2.13
  65  0.750  0.750  0.550-  33 2.11  16 2.11  31 2.11  23 2.11  32 2.11  29 2.12
  66  1.000  0.500  0.550-  34 2.11  24 2.11  31 2.11  15 2.11  32 2.11  30 2.12

IMPORTANT INFORMATION: All symmetrisations will be switched off!
NOSYMM: (Re-)initialisation of all symmetry stuff for point group C_1.

                                     Primitive cell

  volume of cell :    1519.6535

  direct lattice vectors                    reciprocal lattice vectors
     8.440582262  0.000000000  0.000000000     0.118475239  0.000000000  0.000000000
     0.000000000  8.440582262  0.000000000     0.000000000  0.118475239  0.000000000
     0.000000000  0.000000000 21.330436697     0.000000000  0.000000000  0.046881366

  length of vectors
     8.440582262  8.440582262 21.330436697     0.118475239  0.118475239  0.046881366

  position of ions in fractional coordinates (direct lattice)
     0.496095416  0.249999999  0.757474999
     0.629522530  0.250000001  0.775133528
     0.250000000  0.000000000  0.351610242
     0.500000000  0.250000000  0.351610242
     0.250000000  0.250000000  0.450536747
     0.500000000  0.000000000  0.450536747
     0.249953960  0.000003730  0.550033670
     0.499913688  0.250000001  0.549155913
     0.248354353  0.250000000  0.648783680
     0.499673941  0.998104123  0.648660026
     0.250000000  0.500000000  0.351610242
     0.500000000  0.750000000  0.351610242
     0.250000000  0.750000000  0.450536747
     0.500000000  0.500000000  0.450536747
     0.249953961  0.499996270  0.550033665
     0.500008343  0.750000000  0.549920880
     0.249718327  0.750000000  0.648521549
     0.499673942  0.501895874  0.648659994
     0.750000000  0.000000000  0.351610242
     0.000000000  0.250000000  0.351610242
     0.750000000  0.250000000  0.450536747
     0.000000000  0.000000000  0.450536747
     0.749987699  0.999960572  0.550048308
     0.000102316  0.250000001  0.549910668
     0.752910016  0.250000001  0.648515817
     0.999986652  0.999771400  0.648566533
     0.750000000  0.500000000  0.351610242
     0.000000000  0.750000000  0.351610242
     0.750000000  0.750000000  0.450536747
     0.000000000  0.500000000  0.450536747
     0.749987702  0.500039430  0.550048303
     0.000000602  0.750000000  0.549996683
     0.750231141  0.750000000  0.648533477
     0.999986651  0.500228600  0.648566534
     0.250000000  0.000000000  0.450536747
     0.500000000  0.250000000  0.450536747
     0.250000000  0.250000000  0.351610242
     0.500000000  0.000000000  0.351610242
     0.250184871  0.000258567  0.649903240
     0.500422480  0.249999999  0.649698709
     0.250331671  0.250000000  0.549801157
     0.499975405  0.000351305  0.549806781
     0.250000000  0.500000000  0.450536747
     0.500000000  0.750000000  0.450536747
     0.250000000  0.750000000  0.351610242
     0.500000000  0.500000000  0.351610242
     0.250184870  0.499741432  0.649903244
     0.499970918  0.750000000  0.649989195
     0.250099955  0.750000000  0.549713460
     0.499975405  0.499648694  0.549806790
     0.750000000  0.000000000  0.450536747
     0.000000000  0.250000000  0.450536747
     0.750000000  0.250000000  0.351610242
     0.000000000  0.000000000  0.351610242
     0.749552626  0.000363258  0.649950610
     0.000168722  0.250000001  0.649897615
     0.749647013  0.249999999  0.549805588
     0.999969366  0.000082941  0.549716737
     0.750000000  0.500000000  0.450536747
     0.000000000  0.750000000  0.450536747
     0.750000000  0.750000000  0.351610242
     0.000000000  0.500000000  0.351610242
     0.749552631  0.499636743  0.649950614
     0.999979803  0.750000001  0.650042269
     0.749907401  0.750000000  0.549713147
     0.999969367  0.499917059  0.549716738

  ion indices of the primitive-cell ions
   primitive index   ion index
[...]
      2.111706  0.002182 13.862720            0           0           0
      4.223857  2.110146 13.858357            0           0           0
      2.112945  2.110146 11.727499            0           0           0
      4.220084  0.002965 11.727619            0           0           0
      2.110146  4.220291  9.610146            0           0           0
      4.220291  6.330437  9.610146            0           0           0
      2.110146  6.330437  7.500000            0           0           0
      4.220291  4.220291  7.500000            0           0           0
      2.111706  4.218109 13.862720            0           0           0
      4.220046  6.330437 13.864553            0           0           0
      2.110989  6.330437 11.725628            0           0           0
      4.220084  4.217326 11.727619            0           0           0
      6.330437  0.000000  9.610146            0           0           0
      0.000000  2.110146  9.610146            0           0           0
      6.330437  2.110146  7.500000            0           0           0
      0.000000  0.000000  7.500000            0           0           0
      6.326661  0.003066 13.863730            0           0           0
      0.001424  2.110146 13.862600            0           0           0
      6.327457  2.110146 11.727593            0           0           0
      8.440324  0.000700 11.725698            0           0           0
      6.330437  4.220291  9.610146            0           0           0
      0.000000  6.330437  9.610146            0           0           0
      6.330437  6.330437  7.500000            0           0           0
      0.000000  4.220291  7.500000            0           0           0
      6.326661  4.217225 13.863730            0           0           0
      8.440412  6.330437 13.865685            0           0           0
      6.329655  6.330437 11.725621            0           0           0
      8.440324  4.219591 11.725698            0           0           0

[...]

   4 f  =    1.344697 THz     8.448983 2PiTHz   44.854279 cm-1     5.561219 meV
             X         Y         Z           dx          dy          dz
      4.187334  2.110146 16.157273    -0.013876   -0.331694    0.000980
      5.313537  2.110146 16.533937    -0.017188   -0.943096    0.007752
      2.110146  0.000000  7.500000            0           0           0
      4.220291  2.110146  7.500000            0           0           0
      2.110146  2.110146  9.610146            0           0           0
      4.220291  0.000000  9.610146            0           0           0
      2.109757  0.000031 11.732458            0           0           0
      4.219563  2.110146 11.713735            0           0           0
      2.096255  2.110146 13.838839            0           0           0
      4.217539  8.424580 13.836202            0           0           0
      2.110146  4.220291  7.500000            0           0           0
      4.220291  6.330437  7.500000            0           0           0
      2.110146  6.330437  9.610146            0           0           0
      4.220291  4.220291  9.610146            0           0           0
      2.109757  4.220260 11.732458            0           0           0
      4.220362  6.330437 11.730053            0           0           0
      2.107768  6.330437 13.833248            0           0           0
      4.217539  4.236293 13.836201            0           0           0
      6.330437  0.000000  7.500000            0           0           0
      0.000000  2.110146  7.500000            0           0           0
      6.330437  2.110146  9.610146            0           0           0
      0.000000  0.000000  9.610146            0           0           0
      6.330333  8.440249 11.732771            0           0           0
      0.000864  2.110146 11.729835            0           0           0
      6.354999  2.110146 13.833126            0           0           0
      8.440470  8.438653 13.834207            0           0           0
      6.330437  4.220291  7.500000            0           0           0
      0.000000  6.330437  7.500000            0           0           0
      6.330437  6.330437  9.610146            0           0           0
      0.000000  4.220291  9.610146            0           0           0
      6.330333  4.220624 11.732771            0           0           0
      0.000005  6.330437 11.731669            0           0           0
      6.332388  6.330437 13.833502            0           0           0
      8.440470  4.222221 13.834207            0           0           0
      2.110146  0.000000  9.610146            0           0           0
      4.220291  2.110146  9.610146            0           0           0
      2.110146  2.110146  7.500000            0           0           0
      4.220291  0.000000  7.500000            0           0           0
      2.111706  0.002182 13.862720            0           0           0
      4.223857  2.110146 13.858357            0           0           0
      2.112945  2.110146 11.727499            0           0           0
      4.220084  0.002965 11.727619            0           0           0
      2.110146  4.220291  9.610146            0           0           0
      4.220291  6.330437  9.610146            0           0           0
      2.110146  6.330437  7.500000            0           0           0
      4.220291  4.220291  7.500000            0           0           0
      2.111706  4.218109 13.862720            0           0           0
      4.220046  6.330437 13.864553            0           0           0
      2.110989  6.330437 11.725628            0           0           0
      4.220084  4.217326 11.727619            0           0           0
      6.330437  0.000000  9.610146            0           0           0
      0.000000  2.110146  9.610146            0           0           0
      6.330437  2.110146  7.500000            0           0           0
      0.000000  0.000000  7.500000            0           0           0
      6.326661  0.003066 13.863730            0           0           0
      0.001424  2.110146 13.862600            0           0           0
      6.327457  2.110146 11.727593            0           0           0
      8.440324  0.000700 11.725698            0           0           0
      6.330437  4.220291  9.610146            0           0           0
      0.000000  6.330437  9.610146            0           0           0
      6.330437  6.330437  7.500000            0           0           0
      0.000000  4.220291  7.500000            0           0           0
      6.326661  4.217225 13.863730            0           0           0
      8.440412  6.330437 13.865685            0           0           0
      6.329655  6.330437 11.725621            0           0           0
      8.440324  4.219591 11.725698            0           0           0

   5 f/i=    0.237573 THz     1.492716 2PiTHz    7.924586 cm-1     0.982523 meV
             X         Y         Z           dx          dy          dz
      4.187334  2.110146 16.157273    -0.576325    0.014233    0.024917
      5.313537  2.110146 16.533937    -0.733633    0.019816    0.358351
      2.110146  0.000000  7.500000            0           0           0
      4.220291  2.110146  7.500000            0           0           0
      2.110146  2.110146  9.610146            0           0           0
      4.220291  0.000000  9.610146            0           0           0
      2.109757  0.000031 11.732458            0           0           0
      4.219563  2.110146 11.713735            0           0           0
      2.096255  2.110146 13.838839            0           0           0
      4.217539  8.424580 13.836202            0           0           0
      2.110146  4.220291  7.500000            0           0           0
      4.220291  6.330437  7.500000            0           0           0
      2.110146  6.330437  9.610146            0           0           0
      4.220291  4.220291  9.610146            0           0           0
      2.109757  4.220260 11.732458            0           0           0
      4.220362  6.330437 11.730053            0           0           0
      2.107768  6.330437 13.833248            0           0           0
      4.217539  4.236293 13.836201            0           0           0
      6.330437  0.000000  7.500000            0           0           0
      0.000000  2.110146  7.500000            0           0           0
      6.330437  2.110146  9.610146            0           0           0
      0.000000  0.000000  9.610146            0           0           0
      6.330333  8.440249 11.732771            0           0           0
      0.000864  2.110146 11.729835            0           0           0
      6.354999  2.110146 13.833126            0           0           0
      8.440470  8.438653 13.834207            0           0           0
      6.330437  4.220291  7.500000            0           0           0
      0.000000  6.330437  7.500000            0           0           0
      6.330437  6.330437  9.610146            0           0           0
      0.000000  4.220291  9.610146            0           0           0
      6.330333  4.220624 11.732771            0           0           0
      0.000005  6.330437 11.731669            0           0           0
      6.332388  6.330437 13.833502            0           0           0
      8.440470  4.222221 13.834207            0           0           0
      2.110146  0.000000  9.610146            0           0           0
      4.220291  2.110146  9.610146            0           0           0
      2.110146  2.110146  7.500000            0           0           0
      4.220291  0.000000  7.500000            0           0           0
      2.111706  0.002182 13.862720            0           0           0
      4.223857  2.110146 13.858357            0           0           0
      2.112945  2.110146 11.727499            0           0           0
      4.220084  0.002965 11.727619            0           0           0
      2.110146  4.220291  9.610146            0           0           0
      4.220291  6.330437  9.610146            0           0           0
      2.110146  6.330437  7.500000            0           0           0
      4.220291  4.220291  7.500000            0           0           0
      2.111706  4.218109 13.862720            0           0           0
      4.220046  6.330437 13.864553            0           0           0
      2.110989  6.330437 11.725628            0           0           0
      4.220084  4.217326 11.727619            0           0           0
      6.330437  0.000000  9.610146            0           0           0
      0.000000  2.110146  9.610146            0           0           0
      6.330437  2.110146  7.500000            0           0           0
      0.000000  0.000000  7.500000            0           0           0
      6.326661  0.003066 13.863730            0           0           0
      0.001424  2.110146 13.862600            0           0           0
      6.327457  2.110146 11.727593            0           0           0
      8.440324  0.000700 11.725698            0           0           0
      6.330437  4.220291  9.610146            0           0           0
      0.000000  6.330437  9.610146            0           0           0
      6.330437  6.330437  7.500000            0           0           0
      0.000000  4.220291  7.500000            0           0           0
      6.326661  4.217225 13.863730            0           0           0
      8.440412  6.330437 13.865685            0           0           0
      6.329655  6.330437 11.725621            0           0           0
      8.440324  4.219591 11.725698            0           0           0

   6 f/i=    3.476264 THz    21.842008 2PiTHz  115.955671 cm-1    14.376664 meV
             X         Y         Z           dx          dy          dz
      4.187334  2.110146 16.157273    -0.005246   -0.943262   -0.003757
      5.313537  2.110146 16.533937    -0.006260    0.331924   -0.001881
      2.110146  0.000000  7.500000            0           0           0
      4.220291  2.110146  7.500000            0           0           0
      2.110146  2.110146  9.610146            0           0           0
      4.220291  0.000000  9.610146            0           0           0
      2.109757  0.000031 11.732458            0           0           0
      4.219563  2.110146 11.713735            0           0           0
      2.096255  2.110146 13.838839            0           0           0
      4.217539  8.424580 13.836202            0           0           0
      2.110146  4.220291  7.500000            0           0           0
      4.220291  6.330437  7.500000            0           0           0
      2.110146  6.330437  9.610146            0           0           0
      4.220291  4.220291  9.610146            0           0           0
      2.109757  4.220260 11.732458            0           0           0
      4.220362  6.330437 11.730053            0           0           0
      2.107768  6.330437 13.833248            0           0           0
      4.217539  4.236293 13.836201            0           0           0
      6.330437  0.000000  7.500000            0           0           0
      0.000000  2.110146  7.500000            0           0           0
      6.330437  2.110146  9.610146            0           0           0
      0.000000  0.000000  9.610146            0           0           0
      6.330333  8.440249 11.732771            0           0           0
      0.000864  2.110146 11.729835            0           0           0
      6.354999  2.110146 13.833126            0           0           0
      8.440470  8.438653 13.834207            0           0           0
      6.330437  4.220291  7.500000            0           0           0
      0.000000  6.330437  7.500000            0           0           0
      6.330437  6.330437  9.610146            0           0           0
      0.000000  4.220291  9.610146            0           0           0
      6.330333  4.220624 11.732771            0           0           0
      0.000005  6.330437 11.731669            0           0           0
      6.332388  6.330437 13.833502            0           0           0
      8.440470  4.222221 13.834207            0           0           0
      2.110146  0.000000  9.610146            0           0           0
      4.220291  2.110146  9.610146            0           0           0
      2.110146  2.110146  7.500000            0           0           0
      4.220291  0.000000  7.500000            0           0           0
      2.111706  0.002182 13.862720            0           0           0
      4.223857  2.110146 13.858357            0           0           0
      2.112945  2.110146 11.727499            0           0           0
      4.220084  0.002965 11.727619            0           0           0
      2.110146  4.220291  9.610146            0           0           0
      4.220291  6.330437  9.610146            0           0           0
      2.110146  6.330437  7.500000            0           0           0
      4.220291  4.220291  7.500000            0           0           0
      2.111706  4.218109 13.862720            0           0           0
      4.220046  6.330437 13.864553            0           0           0
      2.110989  6.330437 11.725628            0           0           0
      4.220084  4.217326 11.727619            0           0           0
      6.330437  0.000000  9.610146            0           0           0
      0.000000  2.110146  9.610146            0           0           0
      6.330437  2.110146  7.500000            0           0           0
      0.000000  0.000000  7.500000            0           0           0
      6.326661  0.003066 13.863730            0           0           0
      0.001424  2.110146 13.862600            0           0           0
      6.327457  2.110146 11.727593            0           0           0
      8.440324  0.000700 11.725698            0           0           0
      6.330437  4.220291  9.610146            0           0           0
      0.000000  6.330437  9.610146            0           0           0
      6.330437  6.330437  7.500000            0           0           0
      0.000000  4.220291  7.500000            0           0           0
      6.326661  4.217225 13.863730            0           0           0
      8.440412  6.330437 13.865685            0           0           0
      6.329655  6.330437 11.725621            0           0           0
      8.440324  4.219591 11.725698            0           0           0

 Finite differences POTIM=   1.0000000000000000E-002