 vasp.6.4.2 20Jul23 (build Feb 22 2024 13:53:45) complex
 executed on              LinuxNV date 2024.08.27  19:17:56
 OpenACC runtime initialized ...    4 GPUs detected

 INCAR:
   SYSTEM = Oxide-Surface
   ISMEAR = 0
   SIGMA = 0.05
   EDIFF = 1E-5
   ALGO = Normal
   IBRION = -1
   NSW = 0
   ISYM = 0
   DIPOL = 0.5 0.5 0.5
   IDIPOL = 3
   LDIPOL = .TRUE.
   ISTART = 1
   LHFCALC = .TRUE.
   HFSCREEN = 0.2
   GGA = PE
   HFRCUT = -1
   ENCUT = 520
   PREC = Normal
   PRECFOCK = Normal
   LASPH = .TRUE.
   LREAL = Auto
   ISPIN = 1
   NELM = 200
   NELMIN = 8
   NCORE = 1
   KPAR = 1
   LWAVE = .FALSE.
   LCHARG = .FALSE.

 POTCAR:    PAW_PBE H 15Jun2001
 POTCAR:    PAW_PBE O 08Apr2002
 POTCAR:    PAW_PBE Mg_pv 13Apr2007
 POTCAR:    PAW_PBE O 08Apr2002
 POTCAR:    PAW_PBE H 15Jun2001
   VRHFIN =H: ultrasoft test

   TITEL  = PAW_PBE H 15Jun2001
   POMASS =    1.000; ZVAL   =    1.000    mass and valenz
   ENMAX  =  250.000; ENMIN  =  200.000 eV

   TITEL  = PAW_PBE O 08Apr2002
   POMASS =   16.000; ZVAL   =    6.000    mass and valenz
   ENMAX  =  400.000; ENMIN  =  300.000 eV

   TITEL  = PAW_PBE Mg_pv 13Apr2007
   POMASS =   24.305; ZVAL   =    8.000    mass and valenz
   ENMAX  =  403.929; ENMIN  =  302.947 eV

   TITEL  = PAW_PBE O 08Apr2002
   POMASS =   16.000; ZVAL   =    6.000    mass and valenz
   ENMAX  =  400.000; ENMIN  =  300.000 eV

 Optimization of the real space projectors (new method)

 maximal supplied QI-value         = 34.20
 optimisation between [QCUT,QGAM] = [ 11.63, 23.26] = [ 37.87,151.49] Ry
 Optimized for a Real-space Cutoff    1.14 Angstroem

   l    n(q)    QCUT    max X(q) W(low)/X(q) W(high)/X(q)  e(spline)
   0      8    11.629    19.460    0.27E-03    0.65E-03    0.17E-06
   0      8    11.629    12.209    0.25E-03    0.62E-03    0.16E-06
   1      7    11.629     4.655    0.29E-03    0.85E-04    0.19E-06
 Optimization of the real space projectors (new method)

[...]

   l    n(q)    QCUT    max X(q) W(low)/X(q) W(high)/X(q)  e(spline)
   1      8    11.527     2.974    0.16E-03    0.13E-03    0.98E-07
   1      8    11.527     4.279    0.42E-03    0.30E-03    0.22E-06
   0      8    11.527    16.381    0.13E-03    0.20E-03    0.72E-07
   0      8    11.527     5.611    0.88E-04    0.13E-03    0.50E-07
   2      7    11.527     4.652    0.25E-03    0.73E-04    0.51E-07
 Optimization of the real space projectors (new method)

 maximal supplied QI-value         = 24.76
 optimisation between [QCUT,QGAM] = [ 11.64, 23.27] = [ 37.91,151.63] Ry
 Optimized for a Real-space Cutoff    1.04 Angstroem

   l    n(q)    QCUT    max X(q) W(low)/X(q) W(high)/X(q)  e(spline)
   0      7    11.635    20.381    0.14E-03    0.49E-03    0.18E-06
   0      7    11.635    15.268    0.16E-03    0.52E-03    0.19E-06
   1      7    11.635     5.964    0.30E-03    0.44E-03    0.22E-06
   1      7    11.635     5.382    0.27E-03    0.34E-03    0.19E-06
  PAW_PBE H 15Jun2001                   :
  PAW_PBE O 08Apr2002                   :
  PAW_PBE Mg_pv 13Apr2007               :
  PAW_PBE O 08Apr2002                   :

 POSCAR:  H  O Mg  O
  positions in direct lattice
 exchange correlation table for  LEXCH =        8
   RHO(1)=    0.500       N(1)  =     2000
   RHO(2)=  100.500       N(2)  =     4000

 ion  position               nearest neighbor table
   1  0.617  0.554  0.761-   3 0.97
   2  0.510  0.673  0.712-   3 1.01
   3  0.508  0.572  0.744-   1 0.97   2 1.01  34 2.25
   4  0.000  0.750  0.239-  36 2.11  46 2.11  55 2.11  38 2.11  39 2.11
   5  0.250  0.000  0.239-  37 2.11  47 2.11  54 2.11  38 2.11  39 2.11
   6  0.000  0.000  0.364-  38 2.11  44 2.11  53 2.11  37 2.11  36 2.11  42 2.11
   7  0.250  0.750  0.364-  39 2.11  45 2.11  52 2.11  37 2.11  36 2.11  43 2.12
   8  0.000  0.750  0.488-  50 2.11  42 2.11  43 2.11  36 2.12  59 2.12  40 2.15
   9  0.250  0.000  0.488-  51 2.11  43 2.11  58 2.11  42 2.11  37 2.12  41 2.15
  10  0.000  0.000  0.612-  48 2.10  41 2.10  57 2.11  42 2.11  40 2.11
  11  0.248  0.750  0.612-  40 2.09  43 2.10  49 2.11  41 2.11  56 2.13
  12  0.000  0.250  0.239-  44 2.11  46 2.11  38 2.11  63 2.11  47 2.11
  13  0.250  0.500  0.239-  45 2.11  47 2.11  39 2.11  62 2.11  46 2.11
  14  0.000  0.500  0.364-  46 2.11  44 2.11  36 2.11  61 2.11  45 2.11  50 2.11
  15  0.250  0.250  0.364-  47 2.11  45 2.11  37 2.11  60 2.11  44 2.11  51 2.12
  16  0.000  0.250  0.488-  51 2.11  50 2.11  67 2.11  42 2.11  44 2.12  48 2.15
  17  0.251  0.500  0.489-  66 2.11  51 2.11  43 2.11  49 2.12  50 2.12  45 2.13
  18  0.001  0.500  0.612-  49 2.09  65 2.10  50 2.11  48 2.11  40 2.12
  19  0.249  0.250  0.612-  48 2.10  41 2.11  51 2.11  49 2.11  64 2.12
  20  0.500  0.750  0.239-  52 2.11  55 2.11  39 2.11  62 2.11  54 2.11
  21  0.750  0.000  0.239-  53 2.11  54 2.11  38 2.11  63 2.11  55 2.11
  22  0.500  0.000  0.364-  54 2.11  53 2.11  37 2.11  60 2.11  52 2.11  58 2.12
  23  0.750  0.750  0.364-  55 2.11  52 2.11  36 2.11  61 2.11  53 2.11  59 2.12
  24  0.500  0.749  0.489-  66 2.10  43 2.10  59 2.11  58 2.11  52 2.13  56 2.20
  25  0.750  0.000  0.488-  67 2.11  58 2.11  42 2.11  59 2.11  53 2.12  57 2.15
  26  0.500  0.002  0.612-  64 2.07  56 2.09  58 2.11  41 2.11  57 2.12
  27  0.753  0.751  0.611-  59 2.08  40 2.09  57 2.10  65 2.11  56 2.13
  28  0.500  0.250  0.239-  60 2.11  62 2.11  63 2.11  54 2.11  47 2.11
  29  0.750  0.500  0.239-  61 2.11  62 2.11  63 2.11  55 2.11  46 2.11
  30  0.500  0.500  0.364-  62 2.11  61 2.11  60 2.11  52 2.11  45 2.11  66 2.14
  31  0.750  0.250  0.364-  63 2.11  61 2.11  60 2.11  53 2.11  44 2.11  67 2.12
  32  0.500  0.251  0.489-  51 2.11  66 2.11  67 2.11  58 2.12  60 2.13  64 2.14
  33  0.749  0.500  0.489-  66 2.10  67 2.11  59 2.11  50 2.12  61 2.13  65 2.15
  34  0.498  0.494  0.618-  64 2.08  49 2.11  65 2.14  66 2.19  56 2.20   3 2.25
  35  0.751  0.250  0.612-  48 2.10  67 2.10  57 2.11  64 2.12  65 2.12
  36  0.000  0.750  0.364-   4 2.11  14 2.11  23 2.11   6 2.11   7 2.11   8 2.12
  37  0.250  0.000  0.364-   5 2.11  15 2.11  22 2.11   6 2.11   7 2.11   9 2.12
  38  0.000  0.000  0.239-   6 2.11  12 2.11  21 2.11   5 2.11   4 2.11
  39  0.250  0.750  0.239-   7 2.11  13 2.11  20 2.11   5 2.11   4 2.11
  40  1.000  0.750  0.615-  27 2.09  11 2.09  10 2.11  18 2.12   8 2.15
  41  0.249  1.000  0.615-  10 2.10  19 2.11  11 2.11  26 2.11   9 2.15
  42  1.000  1.000  0.488-  10 2.11   8 2.11  25 2.11   9 2.11  16 2.11   6 2.11
  43  0.251  0.750  0.488-  11 2.10  24 2.10   9 2.11   8 2.11  17 2.11   7 2.12
  44  0.000  0.250  0.364-  12 2.11  14 2.11   6 2.11  31 2.11  15 2.11  16 2.12
  45  0.250  0.500  0.364-  13 2.11  15 2.11   7 2.11  30 2.11  14 2.11  17 2.13
  46  0.000  0.500  0.239-  14 2.11  12 2.11   4 2.11  29 2.11  13 2.11
  47  0.250  0.250  0.239-  15 2.11  13 2.11   5 2.11  28 2.11  12 2.11
  48  1.000  0.250  0.615-  35 2.10  10 2.10  19 2.10  18 2.11  16 2.15
  49  0.248  0.500  0.613-  18 2.09  11 2.11  34 2.11  19 2.11  17 2.12
  50  1.000  0.500  0.488-   8 2.11  18 2.11  16 2.11  14 2.11  33 2.12  17 2.12
  51  0.250  0.250  0.488-   9 2.11  32 2.11  16 2.11  17 2.11  19 2.11  15 2.12
  52  0.500  0.750  0.364-  20 2.11  23 2.11   7 2.11  30 2.11  22 2.11  24 2.13
  53  0.750  0.000  0.364-  21 2.11  22 2.11   6 2.11  31 2.11  23 2.11  25 2.12
  54  0.500  0.000  0.239-  22 2.11  21 2.11   5 2.11  28 2.11  20 2.11
  55  0.750  0.750  0.239-  23 2.11  20 2.11   4 2.11  29 2.11  21 2.11
  56  0.500  0.754  0.618-  26 2.09  11 2.13  27 2.13  24 2.20  34 2.20
  57  0.751  1.000  0.615-  27 2.10  10 2.11  35 2.11  26 2.12  25 2.15
  58  0.500  0.999  0.488-  26 2.11  25 2.11   9 2.11  24 2.11  22 2.12  32 2.12
  59  0.749  0.750  0.488-  27 2.08  24 2.11  25 2.11  33 2.11   8 2.12  23 2.12
  60  0.500  0.250  0.364-  28 2.11  30 2.11  31 2.11  22 2.11  15 2.11  32 2.13
  61  0.750  0.500  0.364-  29 2.11  30 2.11  31 2.11  23 2.11  14 2.11  33 2.13
  62  0.500  0.500  0.239-  30 2.11  29 2.11  28 2.11  20 2.11  13 2.11
  63  0.750  0.250  0.239-  31 2.11  29 2.11  28 2.11  21 2.11  12 2.11
  64  0.500  0.248  0.615-  26 2.07  34 2.08  35 2.12  19 2.12  32 2.14
  65  0.752  0.500  0.615-  18 2.10  27 2.11  35 2.12  34 2.14  33 2.15
  66  0.500  0.501  0.489-  24 2.10  33 2.10  17 2.11  32 2.11  30 2.14  34 2.19
  67  0.750  0.250  0.488-  35 2.10  25 2.11  33 2.11  32 2.11  16 2.11  31 2.12

IMPORTANT INFORMATION: All symmetrisations will be switched off!
NOSYMM: (Re-)initialisation of all symmetry stuff for point group C_1.

                                     Primitive cell

  volume of cell :    1211.2538

  direct lattice vectors                    reciprocal lattice vectors
     8.440984654  0.000000000  0.000000000     0.118469591  0.000000000  0.000000000
     0.000000000  8.440984654  0.000000000     0.000000000  0.118469591  0.000000000
     0.000000000  0.000000000 17.000000000     0.000000000  0.000000000  0.058823529

  length of vectors
     8.440984654  8.440984654 17.000000000     0.118469591  0.118469591  0.058823529

  position of ions in fractional coordinates (direct lattice)
     0.616832100  0.554429713  0.760553841
     0.510014054  0.672845498  0.712302790
     0.507589782  0.572189385  0.744476833
     0.000084749  0.750056171  0.239446159
     0.250084749  0.000056171  0.239446159
     0.000084749  0.000056171  0.363578286
     0.250084749  0.750056171  0.363578286
     0.000292034  0.749824964  0.488119943
     0.250127698  0.000181851  0.488431874
     0.000158555  0.000466213  0.612094268
     0.247767905  0.749974041  0.611893376
     0.000084749  0.250056171  0.239446159
     0.250084749  0.500056171  0.239446159
     0.000084749  0.500056171  0.363578286
     0.250084749  0.250056171  0.363578286
     0.000116012  0.250196651  0.488268359
     0.250770752  0.499798843  0.488884857
     0.000510418  0.499570052  0.611813977
     0.249067721  0.249912005  0.612281031
     0.500084749  0.750056171  0.239446159
     0.750084749  0.000056171  0.239446159
     0.500084749  0.000056171  0.363578286
     0.750084749  0.750056171  0.363578286
     0.499810778  0.749036438  0.488828048
     0.749862546  0.000340508  0.488298782
     0.499761848  0.002048857  0.612169767
     0.752549470  0.750728058  0.610753521
     0.500084749  0.250056171  0.239446159
     0.750084749  0.500056171  0.239446159
     0.500084749  0.500056171  0.363578286
     0.750084749  0.250056171  0.363578286
     0.499866424  0.250603695  0.488721432
     0.749099841  0.499734903  0.488964189
     0.498205335  0.493574688  0.618100110
     0.750753975  0.249613073  0.611923847
     0.000084749  0.750056171  0.363578286
     0.250084749  0.000056171  0.363578286
     0.000084749  0.000056171  0.239446159
     0.250084749  0.750056171  0.239446159
     0.999857188  0.750394105  0.614566772
     0.249346556  0.999943829  0.614781797
     0.999915251  0.999830927  0.487959860
     0.250643896  0.750289407  0.488342652
     0.000084749  0.250056171  0.363578286
     0.250084749  0.500056171  0.363578286
     0.000084749  0.500056171  0.239446159
     0.250084749  0.250056171  0.239446159
     0.999828427  0.249634011  0.614770607
     0.248265660  0.500148340  0.613489608
[...]
   4.22120770  6.33121263  6.18083086
   6.33145386  0.00047414  6.18083086
   4.22120770  0.00047414  4.07058470
   6.33145386  6.33121263  4.07058470
   4.22225219  6.36825754 10.50560089
   6.33562556  8.44032728 10.45062168
   4.22116790  8.43550345  8.30012507
   6.32578632  6.33147823  8.30050778
   4.22120770  2.11072030  6.18083086
   6.33145386  4.22096646  6.18083086
   4.22120770  4.22096646  4.07058470
   6.33145386  2.11072030  4.07058470
   4.22133473  2.09157468 10.44657096
   6.34565166  4.22344792 10.45810612
   4.22247888  4.22478466  8.31864981
   6.33061989  2.10976754  8.29825908

--------------------------------------- Iteration      FINAL  ---------------------------------------

--------------------OUTCAR has been truncated-------------------------

[...]

--------------------OUTCAR has been truncated-------------------------

 VOLUME and BASIS-vectors are now :
  energy-cutoff  :      520.00
  volume of cell :     1211.25
      direct lattice vectors                 reciprocal lattice vectors
     8.440984654  0.000000000  0.000000000     0.118469591  0.000000000  0.000000000
     0.000000000  8.440984654  0.000000000     0.000000000  0.118469591  0.000000000
     0.000000000  0.000000000 17.000000000     0.000000000  0.000000000  0.058823529

  length of vectors
     8.440984654  8.440984654 17.000000000     0.118469591  0.118469591  0.058823529

 FORCES acting on ions
    electron-ion (+dipol)            ewald-force                    non-local-force                 convergence-correction
   -.823E+02 0.155E+02 -.215E+03   0.897E+02 -.169E+02 0.218E+03   -.757E+01 0.142E+01 -.236E+01   0.323E-03 -.965E-05 0.244E-01
   0.643E+00 -.675E+02 -.198E+03   -.800E+00 0.731E+02 0.195E+03   0.933E-01 -.586E+01 0.372E+01   -.140E-03 -.279E-03 0.247E-01
   0.481E+02 0.269E+02 -.126E+04   -.858E+02 -.473E+02 0.127E+04   0.334E+02 0.182E+02 -.101E+02   -.366E-02 0.140E-03 0.148E+00
   -.547E-01 -.252E+00 0.172E+04   0.616E-01 0.247E+00 -.171E+04   -.472E-02 0.303E-02 -.681E+01   -.732E-04 0.795E-04 -.171E+00
   0.229E+00 -.160E+00 0.172E+04   -.224E+00 0.162E+00 -.171E+04   -.319E-02 -.130E-02 -.684E+01   -.555E-04 -.322E-04 -.171E+00
   -.155E+00 -.284E+00 0.587E+03   0.172E+00 0.320E+00 -.587E+03   -.107E-01 -.232E-01 0.401E+00   -.896E-04 -.138E-03 -.824E-01
   0.289E-01 -.547E-01 0.587E+03   0.537E-01 0.430E-01 -.587E+03   -.535E-01 0.614E-02 0.541E+00   0.187E-03 -.174E-04 -.822E-01
   -.393E+00 -.285E+01 -.534E+03   0.480E+00 0.279E+01 0.534E+03   -.732E-01 0.457E-01 -.125E+00   -.187E-03 -.121E-03 0.327E-01
   0.258E+01 -.107E+01 -.539E+03   -.253E+01 0.115E+01 0.539E+03   -.373E-01 -.642E-01 -.237E+00   0.569E-03 -.525E-03 0.330E-01
   -.918E+00 -.431E+01 -.168E+04   0.994E+00 0.448E+01 0.167E+04   -.652E-01 -.143E+00 0.577E+01   -.914E-04 -.921E-04 0.130E+00
   0.250E+02 -.211E+02 -.164E+04   -.260E+02 0.212E+02 0.164E+04   0.866E+00 -.239E-01 0.590E+01   0.273E-02 -.227E-03 0.130E+00
   -.442E-01 0.251E+00 0.172E+04   0.499E-01 -.246E+00 -.171E+04   -.389E-02 -.329E-02 -.684E+01   -.799E-04 -.789E-04 -.171E+00
   0.251E+00 0.162E+00 0.172E+04   -.242E+00 -.164E+00 -.171E+04   -.653E-02 0.105E-02 -.684E+01   -.878E-04 0.320E-04 -.170E+00
   -.101E+00 0.274E+00 0.588E+03   0.702E-01 -.315E+00 -.588E+03   0.199E-01 0.259E-01 0.317E+00   -.160E-03 0.135E-03 -.825E-01
   -.954E-01 0.217E-01 0.587E+03   0.912E-01 -.149E-01 -.587E+03   0.345E-02 -.288E-02 0.411E+00   0.154E-03 0.355E-04 -.825E-01
   -.638E-01 0.286E+01 -.540E+03   0.110E+00 -.280E+01 0.540E+03   -.393E-01 -.524E-01 -.128E+00   -.199E-03 0.121E-03 0.327E-01
   0.359E+01 0.111E+01 -.529E+03   -.335E+01 -.117E+01 0.530E+03   -.208E+00 0.537E-01 -.914E+00   0.610E-03 0.559E-03 0.335E-01
   -.118E+01 0.512E+01 -.167E+04   0.138E+01 -.527E+01 0.166E+04   -.165E+00 0.134E+00 0.579E+01   -.616E-03 0.857E-04 0.129E+00
   0.165E+02 0.180E+02 -.167E+04   -.168E+02 -.181E+02 0.166E+04   0.284E+00 0.487E-01 0.585E+01   0.357E-03 0.979E-04 0.130E+00
   0.557E-01 -.277E+00 0.172E+04   -.628E-01 0.266E+00 -.171E+04   0.418E-02 0.666E-02 -.684E+01   0.780E-04 0.115E-03 -.170E+00
   -.230E+00 -.171E+00 0.172E+04   0.225E+00 0.174E+00 -.171E+04   0.289E-02 -.210E-02 -.683E+01   0.573E-04 -.305E-04 -.171E+00
   0.147E+00 -.336E+00 0.586E+03   -.172E+00 0.290E+00 -.587E+03   0.155E-01 0.299E-01 0.453E+00   0.791E-04 -.169E-03 -.821E-01
   -.611E-01 -.723E-02 0.587E+03   -.232E-01 -.481E-01 -.587E+03   0.548E-01 0.347E-01 0.552E+00   -.161E-03 -.404E-04 -.821E-01
   0.407E+00 -.297E+01 -.538E+03   -.485E+00 0.274E+01 0.537E+03   0.665E-01 0.210E+00 0.817E+00   0.174E-03 -.623E-04 0.353E-01
   -.258E+01 -.142E+01 -.537E+03   0.254E+01 0.153E+01 0.537E+03   0.353E-01 -.973E-01 -.182E+00   -.532E-03 -.473E-03 0.331E-01
   0.117E+01 -.111E+02 -.166E+04   -.124E+01 0.116E+02 0.165E+04   0.616E-01 -.401E+00 0.567E+01   0.825E-04 -.246E-02 0.129E+00
   -.259E+02 -.220E+02 -.163E+04   0.270E+02 0.223E+02 0.162E+04   -.949E+00 -.232E+00 0.597E+01   -.281E-02 -.786E-03 0.128E+00
   0.441E-01 0.272E+00 0.172E+04   -.503E-01 -.262E+00 -.171E+04   0.358E-02 -.645E-02 -.683E+01   0.737E-04 -.113E-03 -.170E+00
   -.253E+00 0.173E+00 0.172E+04   0.243E+00 -.176E+00 -.171E+04   0.642E-02 0.168E-02 -.686E+01   0.935E-04 0.291E-04 -.170E+00
   0.836E-01 0.365E+00 0.585E+03   -.669E-01 -.337E+00 -.585E+03   -.117E-01 -.199E-01 0.652E+00   0.761E-04 0.166E-03 -.820E-01
   0.734E-01 -.298E-01 0.587E+03   -.765E-01 0.851E-01 -.587E+03   0.119E-02 -.342E-01 0.460E+00   -.160E-03 0.329E-04 -.823E-01
   0.671E-01 0.366E+01 -.531E+03   -.108E+00 -.347E+01 0.532E+03   0.359E-01 -.170E+00 -.461E+00   0.189E-03 0.213E-03 0.332E-01
   -.343E+01 0.149E+01 -.533E+03   0.318E+01 -.158E+01 0.534E+03   0.216E+00 0.829E-01 -.349E+00   -.627E-03 0.530E-03 0.342E-01
   0.473E+01 0.301E+02 -.156E+04   -.518E+01 -.320E+02 0.155E+04   0.378E+00 0.168E+01 0.257E+01   0.106E-02 0.436E-02 0.142E+00
   -.168E+02 0.182E+02 -.166E+04   0.171E+02 -.184E+02 0.165E+04   -.263E+00 0.185E+00 0.585E+01   -.335E-03 0.599E-03 0.129E+00
   -.280E-01 -.259E+00 0.440E+03   0.266E-01 0.244E+00 -.440E+03   -.311E-02 0.179E-01 0.161E-01   -.716E-04 -.281E-04 -.650E-01
   0.215E-01 -.384E-01 0.440E+03   -.170E-01 0.582E-01 -.439E+03   -.848E-02 -.265E-01 -.970E-01   0.133E-03 -.103E-03 -.650E-01
   -.397E-01 -.116E+00 0.129E+04   0.459E-01 0.122E+00 -.130E+04   -.583E-02 -.686E-02 0.311E+01   -.619E-04 -.294E-04 -.131E+00
   0.193E+00 -.195E+00 0.129E+04   -.183E+00 0.190E+00 -.130E+04   -.111E-01 0.660E-02 0.312E+01   -.622E-04 0.605E-04 -.130E+00
   -.223E+01 -.717E+01 -.127E+04   0.230E+01 0.706E+01 0.127E+04   -.603E-01 0.101E+00 -.465E+01   -.879E-04 0.345E-04 0.971E-01
   0.842E+01 -.584E+01 -.127E+04   -.821E+01 0.578E+01 0.128E+04   -.200E+00 0.523E-01 -.464E+01   0.575E-03 -.601E-03 0.975E-01
   -.374E+00 -.124E+01 -.401E+03   0.385E+00 0.127E+01 0.401E+03   -.111E-01 -.255E-01 0.169E+00   -.116E-03 -.196E-03 0.189E-01
   0.201E+01 -.246E+01 -.395E+03   -.210E+01 0.240E+01 0.395E+03   0.671E-01 0.482E-01 0.395E+00   0.646E-03 -.886E-04 0.196E-01
   0.611E-02 0.251E+00 0.440E+03   0.448E-02 -.230E+00 -.440E+03   -.168E-01 -.265E-01 -.769E-01   -.673E-04 0.323E-04 -.651E-01
   -.137E+00 0.397E-01 0.439E+03   0.847E-01 -.534E-01 -.439E+03   0.577E-01 0.168E-01 -.146E+00   0.140E-03 0.103E-03 -.649E-01
   -.383E-01 0.117E+00 0.129E+04   0.405E-01 -.123E+00 -.130E+04   -.109E-02 0.865E-02 0.310E+01   -.618E-04 0.276E-04 -.130E+00
   0.169E+00 0.194E+00 0.129E+04   -.167E+00 -.189E+00 -.130E+04   -.110E-02 -.476E-02 0.311E+01   -.385E-04 -.647E-04 -.130E+00
   -.930E+00 0.660E+01 -.127E+04   0.934E+00 -.650E+01 0.128E+04   -.431E-02 -.894E-01 -.462E+01   -.153E-03 -.310E-04 0.975E-01
   0.294E+02 0.817E+01 -.124E+04   -.291E+02 -.810E+01 0.124E+04   -.349E+00 -.708E-01 -.474E+01   0.201E-02 0.757E-03 0.970E-01
   0.281E-01 0.126E+01 -.395E+03   0.870E-02 -.129E+01 0.394E+03   -.309E-01 0.253E-01 0.240E+00   -.209E-03 0.188E-03 0.191E-01
   0.235E+01 0.241E+01 -.397E+03   -.235E+01 -.235E+01 0.397E+03   -.511E-02 -.591E-01 0.184E+00   0.285E-03 0.113E-03 0.190E-01
   0.359E-01 -.114E+00 0.439E+03   -.326E-01 0.166E+00 -.439E+03   -.647E-02 -.602E-01 -.131E+00   0.643E-04 -.340E-04 -.647E-01
   -.418E-01 -.769E-01 0.440E+03   0.469E-01 0.854E-01 -.440E+03   -.981E-02 -.136E-01 -.485E-01   -.126E-03 -.107E-03 -.649E-01
   0.405E-01 -.139E+00 0.129E+04   -.464E-01 0.137E+00 -.130E+04   0.851E-02 0.277E-02 0.311E+01   0.572E-04 -.325E-05 -.130E+00
   -.194E+00 -.194E+00 0.129E+04   0.184E+00 0.185E+00 -.130E+04   0.140E-01 0.116E-01 0.311E+01   0.568E-04 0.660E-04 -.130E+00
   0.378E+01 -.371E+02 -.121E+04   -.391E+01 0.369E+02 0.121E+04   0.118E+00 0.242E+00 -.192E+01   0.302E-03 -.259E-02 0.100E+00
   -.854E+01 -.718E+01 -.127E+04   0.832E+01 0.719E+01 0.127E+04   0.213E+00 -.652E-02 -.464E+01   -.566E-03 -.550E-03 0.973E-01
   0.411E+00 -.627E+00 -.397E+03   -.431E+00 0.669E+00 0.396E+03   0.185E-01 -.347E-01 0.293E+00   0.108E-03 -.636E-03 0.197E-01
   -.202E+01 -.207E+01 -.392E+03   0.210E+01 0.205E+01 0.391E+03   -.694E-01 0.175E-01 0.687E+00   -.627E-03 -.184E-03 0.197E-01
   -.191E-01 0.422E-01 0.439E+03   0.176E-01 -.708E-01 -.439E+03   -.815E-03 0.318E-01 -.886E-01   0.579E-04 0.345E-04 -.649E-01
   0.110E+00 0.925E-01 0.439E+03   -.406E-01 -.101E+00 -.439E+03   -.844E-01 0.106E-01 -.178E+00   -.125E-03 0.112E-03 -.649E-01
   0.396E-01 0.142E+00 0.129E+04   -.414E-01 -.140E+00 -.130E+04   0.350E-02 -.163E-02 0.310E+01   0.517E-04 0.277E-05 -.130E+00
   -.169E+00 0.192E+00 0.129E+04   0.167E+00 -.184E+00 -.130E+04   0.381E-02 -.956E-02 0.310E+01   0.409E-04 -.668E-04 -.130E+00
   0.112E+01 0.263E+02 -.125E+04   -.114E+01 -.263E+02 0.125E+04   0.171E-01 0.485E-01 -.454E+01   0.137E-03 0.113E-02 0.973E-01
   -.310E+02 0.106E+02 -.123E+04   0.304E+02 -.106E+02 0.124E+04   0.555E+00 -.464E-01 -.440E+01   -.231E-02 0.818E-03 0.974E-01
   -.134E+00 0.154E+00 -.403E+03   0.856E-01 -.223E+00 0.403E+03   0.451E-01 0.659E-01 -.715E+00   0.193E-03 0.551E-03 0.208E-01
   -.236E+01 0.202E+01 -.397E+03   0.235E+01 -.200E+01 0.396E+03   0.737E-02 -.216E-01 0.312E+00   -.269E-03 0.190E-03 0.192E-01
   -.310E+02 -.178E+02 0.320E+02   -.426E-12 0.174E-12 0.909E-12   0.264E+02 0.152E+02 -.264E+02   -.326E-02 0.581E-03 -.113E+01

 POSITION                                       TOTAL-FORCE (eV/Angst)
      5.20667      4.67993     12.92942        -0.512257      0.045865     -0.101896
      4.30502      5.67948     12.10915        -0.059459     -0.481582      0.265294
      4.28456      4.82984     12.65611         0.538097      0.420322     -0.301718
      0.00072      6.33121      4.07058         0.002611     -0.001662      0.525754
      2.11096      0.00047      4.07058         0.002021      0.000314      0.531176
      0.00072      0.00047      6.18083         0.005368      0.009811      0.020404
      2.11096      6.33121      6.18083         0.022665     -0.004853      0.024831
      0.00247      6.32926      8.29804         0.005305     -0.001430      0.043861
      2.11132      0.00153      8.30334         0.004333      0.001420      0.050982
      0.00134      0.00394     10.40560         0.003682      0.002511     -0.143466
      2.09141      6.33052     10.40219        -0.031105      0.009279     -0.144969
      0.00072      2.11072      4.07058         0.002329      0.001171      0.533957
      2.11096      4.22097      4.07058         0.003094     -0.000830      0.530520
      0.00072      4.22097      6.18083        -0.007307     -0.011505      0.044089
      2.11096      2.11072      6.18083         0.000555      0.003252      0.031318
      0.00098      2.11191      8.30056         0.003083      0.000535      0.045445
      2.11675      4.21879      8.31104         0.006616     -0.001074      0.052636
      0.00431      4.21686     10.40084         0.010066     -0.002822     -0.146413
      2.10238      2.10950     10.40878        -0.005809     -0.006929     -0.136538
      4.22121      6.33121      4.07058        -0.001130     -0.002813      0.532020
      6.33145      0.00047      4.07058        -0.000570      0.000592      0.529853
      4.22121      0.00047      6.18083        -0.006325     -0.012298      0.045505
      6.33145      6.33121      6.18083        -0.021320     -0.015905      0.021020
      4.21890      6.32261      8.31008        -0.001422      0.002038      0.027849
      6.32958      0.00287      8.30108        -0.000971      0.003397      0.049313
      4.21848      0.01729     10.40689        -0.000895      0.022735     -0.142399
      6.35226      6.33688     10.38281         0.036804      0.021943     -0.160698
      4.22121      2.11072      4.07058        -0.000888      0.002175      0.529160
      6.33145      4.22097      4.07058        -0.001690     -0.001083      0.536998
      4.22121      4.22097      6.18083         0.004256      0.005490      0.059412
      6.33145      2.11072      6.18083        -0.001138      0.016097      0.027121
      4.21936      2.11534      8.30826        -0.000178      0.003468      0.050246
      6.32314      4.21825      8.31239        -0.003179     -0.002163      0.043645
      4.20534      4.16626     10.50770        -0.015929     -0.007548     -0.011836
      6.33710      2.10698     10.40271         0.009243     -0.014988     -0.147225
      0.00072      6.33121      6.18083        -0.003153      0.005796      0.066656
      2.11096      0.00047      6.18083        -0.003301     -0.010964      0.052272
      0.00072      0.00047      4.07058        -0.000449     -0.002047     -0.468460
      2.11096      6.33121      4.07058        -0.002249      0.002417     -0.466221
      8.43978      6.33407     10.44764        -0.002239      0.007108     -0.095492
      2.10473      8.44051     10.45129        -0.013982      0.004705     -0.095717
      8.44027      8.43956      8.29532        -0.000624     -0.001224      0.026374
      2.11568      6.33318      8.30183        -0.006112     -0.001317      0.029820
      0.00072      2.11072      6.18083        -0.007144     -0.010206      0.045653
      2.11096      4.22097      6.18083         0.017273      0.006174      0.074668
      0.00072      4.22097      4.07058         0.001177      0.003138     -0.470578
      2.11096      2.11072      4.07058         0.001128     -0.001301     -0.468907
      8.43954      2.10716     10.45110        -0.000052     -0.000838     -0.098010
      2.09561      4.22174     10.42932        -0.020341     -0.010063     -0.092284
      8.43817      4.22188      8.29301         0.001481      0.000178      0.035222
      2.11019      2.10749      8.29677         0.000261     -0.004030      0.025158
      4.22121      6.33121      6.18083        -0.002203     -0.018319      0.072961
      6.33145      0.00047      6.18083        -0.004442     -0.007158      0.058300
      4.22121      0.00047      4.07058         0.004265      0.001214     -0.467817
      6.33145      6.33121      4.07058         0.006180      0.004152     -0.468413
      4.22225      6.36826     10.50560         0.010180      0.013086     -0.021020
      6.33563      8.44033     10.45062         0.018409      0.001508     -0.091924
      4.22117      8.43550      8.30013         0.002503      0.001173      0.028965
      6.32579      6.33148      8.30051         0.005117      0.000354      0.039191
      4.22121      2.11072      6.18083        -0.000435      0.008766      0.081584
      6.33145      4.22097      6.18083        -0.027491      0.004252      0.068716
      4.22121      4.22097      4.07058         0.002539     -0.000371     -0.469931
      6.33145      2.11072      4.07058         0.002698     -0.002944     -0.470896
      4.22133      2.09157     10.44657         0.003872      0.008165     -0.095915
      6.34565      4.22345     10.45811         0.022943     -0.008094     -0.094188
      4.22248      4.22478      8.31865         0.003298      0.003607     -0.015551
      6.33062      2.10977      8.29826         0.002339      0.000157      0.030535
    total drift:                               -0.048082      0.015925      0.188185

  FREE ENERGIE OF THE ION-ELECTRON SYSTEM (eV)
  free  energy   TOTEN  =      -463.89845675 eV

  energy  without entropy=     -463.89845675  energy(sigma->0) =     -463.89845675

     |            E. Caldeweyher, S. Ehlert & S. Grimme          |
     |          Mulliken Center for Theoretical Chemistry        |
     |                    University of Bonn                     |

Rational (Becke-Johnson) damping: hse06-D4-ATM
  s6         1.0000
  s8         1.1953
  s9         1.0000
  a1         0.3866
  a2         5.1913
 alp        16.0000

Dispersion energy:      -2.7317115007373E-01 Eh