 vasp.6.4.2 20Jul23 (build Feb 22 2024 13:53:45) complex
 executed on              LinuxNV date 2024.08.27  19:15:08
 OpenACC runtime initialized ...    4 GPUs detected

 INCAR:
   SYSTEM = Oxide-Surface
   ISMEAR = 0
   SIGMA = 0.05
   EDIFF = 1E-5
   ALGO = Normal
   IBRION = -1
   NSW = 0
   ISYM = 0
   DIPOL = 0.5 0.5 0.5
   IDIPOL = 3
   LDIPOL = .TRUE.
   ISTART = 0
   LHFCALC = .FALSE.
   GGA = PE
   HFRCUT = -1
   ENCUT = 1000
   PREC = Normal
   PRECFOCK = Normal
   LASPH = .TRUE.
   LREAL = Auto
   ISPIN = 1
   NELM = 200
   NELMIN = 8
   NCORE = 1
   KPAR = 1
   LWAVE = .FALSE.
   LCHARG = .FALSE.

 POTCAR:    PAW_PBE H_h 06Feb2004
 POTCAR:    PAW_PBE O_h 06Feb2004
 POTCAR:    PAW_PBE Mg_sv 12Apr2007
 POTCAR:    PAW_PBE O_h 06Feb2004
 POTCAR:    PAW_PBE H_h 06Feb2004
   VRHFIN =H: ultrasoft test

   TITEL  = PAW_PBE H_h 06Feb2004
   POMASS =    1.000; ZVAL   =    1.000    mass and valenz
   ENMAX  =  700.000; ENMIN  =  350.000 eV

[...]

   TITEL  = PAW_PBE Mg_sv 12Apr2007
   POMASS =   24.305; ZVAL   =   10.000    mass and valenz
   ENMAX  =  495.223; ENMIN  =  371.417 eV

   TITEL  = PAW_PBE O_h 06Feb2004
   POMASS =   16.000; ZVAL   =    6.000    mass and valenz
   ENMAX  =  700.000; ENMIN  =  500.000 eV

 Optimization of the real space projectors (new method)

 maximal supplied QI-value         = 47.24
 optimisation between [QCUT,QGAM] = [ 16.06, 32.13] = [ 72.25,289.00] Ry
 Optimized for a Real-space Cutoff    0.82 Angstroem

   l    n(q)    QCUT    max X(q) W(low)/X(q) W(high)/X(q)  e(spline)
   0      8    16.063    34.671    0.37E-03    0.85E-03    0.24E-06
   0      8    16.063    17.046    0.36E-03    0.82E-03    0.23E-06
   1      7    16.063     1.978    0.22E-03    0.92E-04    0.15E-06
 Optimization of the real space projectors (new method)

[...]

   l    n(q)    QCUT    max X(q) W(low)/X(q) W(high)/X(q)  e(spline)
   0      9    16.140     8.730    0.14E-04    0.12E-04    0.27E-07
   0      9    16.140     8.910    0.19E-04    0.17E-04    0.41E-07
   1      9    16.140     2.513    0.16E-04    0.28E-04    0.54E-07
   1      9    16.140     3.341    0.27E-04    0.13E-03    0.17E-06
   2      9    16.140     3.683    0.18E-03    0.21E-03    0.81E-07
 Optimization of the real space projectors (new method)

 maximal supplied QI-value         = 34.20
 optimisation between [QCUT,QGAM] = [ 16.08, 32.15] = [ 72.37,289.48] Ry
 Optimized for a Real-space Cutoff    0.71 Angstroem

   l    n(q)    QCUT    max X(q) W(low)/X(q) W(high)/X(q)  e(spline)
   0      7    16.076   280.207    0.42E-03    0.69E-03    0.60E-07
   0      7    16.076   228.978    0.42E-03    0.69E-03    0.61E-07
   1      6    16.076    86.127    0.11E-03    0.66E-03    0.10E-06
   1      6    16.076    65.368    0.11E-03    0.65E-03    0.10E-06
  PAW_PBE H_h 06Feb2004                 :
  PAW_PBE O_h 06Feb2004                 :
  PAW_PBE Mg_sv 12Apr2007               :
  PAW_PBE O_h 06Feb2004                 :

 POSCAR:  H  O Mg  O
  positions in direct lattice
 exchange correlation table for  LEXCH =        8
   RHO(1)=    0.500       N(1)  =     2000
   RHO(2)=  100.500       N(2)  =     4000

 ion  position               nearest neighbor table
   1  0.617  0.554  0.761-   3 0.97
   2  0.510  0.673  0.712-   3 1.01
   3  0.508  0.572  0.744-   1 0.97   2 1.01
   4  0.000  0.750  0.239-
   5  0.250  0.000  0.239-
   6  0.000  0.000  0.364-
   7  0.250  0.750  0.364-
   8  0.000  0.750  0.488-
   9  0.250  0.000  0.488-
  10  0.000  0.000  0.612-
  11  0.248  0.750  0.612-
  12  0.000  0.250  0.239-
  13  0.250  0.500  0.239-
  14  0.000  0.500  0.364-
  15  0.250  0.250  0.364-
  16  0.000  0.250  0.488-
  17  0.251  0.500  0.489-
  18  0.001  0.500  0.612-
  19  0.249  0.250  0.612-
  20  0.500  0.750  0.239-
  21  0.750  0.000  0.239-
  22  0.500  0.000  0.364-
  23  0.750  0.750  0.364-
  24  0.500  0.749  0.489-
  25  0.750  0.000  0.488-
  26  0.500  0.002  0.612-
  27  0.753  0.751  0.611-
  28  0.500  0.250  0.239-
  29  0.750  0.500  0.239-
  30  0.500  0.500  0.364-
  31  0.750  0.250  0.364-
  32  0.500  0.251  0.489-
  33  0.749  0.500  0.489-
  34  0.498  0.494  0.618-
  35  0.751  0.250  0.612-
  36  0.000  0.750  0.364-
  37  0.250  0.000  0.364-
  38  0.000  0.000  0.239-
  39  0.250  0.750  0.239-
  40  1.000  0.750  0.615-
  41  0.249  1.000  0.615-
  42  1.000  1.000  0.488-
  43  0.251  0.750  0.488-
  44  0.000  0.250  0.364-
  45  0.250  0.500  0.364-
  46  0.000  0.500  0.239-
  47  0.250  0.250  0.239-
  48  1.000  0.250  0.615-
  49  0.248  0.500  0.613-
  50  1.000  0.500  0.488-
  51  0.250  0.250  0.488-
  52  0.500  0.750  0.364-
  53  0.750  0.000  0.364-
  54  0.500  0.000  0.239-
  55  0.750  0.750  0.239-
  56  0.500  0.754  0.618-
  57  0.751  1.000  0.615-
  58  0.500  0.999  0.488-
  59  0.749  0.750  0.488-
  60  0.500  0.250  0.364-
  61  0.750  0.500  0.364-
  62  0.500  0.500  0.239-
  63  0.750  0.250  0.239-
  64  0.500  0.248  0.615-
  65  0.752  0.500  0.615-
  66  0.500  0.501  0.489-
  67  0.750  0.250  0.488-

IMPORTANT INFORMATION: All symmetrisations will be switched off!
NOSYMM: (Re-)initialisation of all symmetry stuff for point group C_1.

                                     Primitive cell

  volume of cell :    1211.2538

  direct lattice vectors                    reciprocal lattice vectors
     8.440984654  0.000000000  0.000000000     0.118469591  0.000000000  0.000000000
     0.000000000  8.440984654  0.000000000     0.000000000  0.118469591  0.000000000
     0.000000000  0.000000000 17.000000000     0.000000000  0.000000000  0.058823529

  length of vectors
     8.440984654  8.440984654 17.000000000     0.118469591  0.118469591  0.058823529

  position of ions in fractional coordinates (direct lattice)
     0.616832100  0.554429713  0.760553841
     0.510014054  0.672845498  0.712302790
     0.507589782  0.572189385  0.744476833
     0.000084749  0.750056171  0.239446159
     0.250084749  0.000056171  0.239446159
     0.000084749  0.000056171  0.363578286
     0.250084749  0.750056171  0.363578286
     0.000292034  0.749824964  0.488119943
     0.250127698  0.000181851  0.488431874
     0.000158555  0.000466213  0.612094268
     0.247767905  0.749974041  0.611893376
     0.000084749  0.250056171  0.239446159
     0.250084749  0.500056171  0.239446159
     0.000084749  0.500056171  0.363578286
     0.250084749  0.250056171  0.363578286
     0.000116012  0.250196651  0.488268359
     0.250770752  0.499798843  0.488884857
     0.000510418  0.499570052  0.611813977
     0.249067721  0.249912005  0.612281031
     0.500084749  0.750056171  0.239446159
     0.750084749  0.000056171  0.239446159
     0.500084749  0.000056171  0.363578286
     0.750084749  0.750056171  0.363578286
     0.499810778  0.749036438  0.488828048
     0.749862546  0.000340508  0.488298782
     0.499761848  0.002048857  0.612169767
     0.752549470  0.750728058  0.610753521
     0.500084749  0.250056171  0.239446159
     0.750084749  0.500056171  0.239446159
     0.500084749  0.500056171  0.363578286
     0.750084749  0.250056171  0.363578286
     0.499866424  0.250603695  0.488721432
     0.749099841  0.499734903  0.488964189
     0.498205335  0.493574688  0.618100110
     0.750753975  0.249613073  0.611923847
     0.000084749  0.750056171  0.363578286
     0.250084749  0.000056171  0.363578286
     0.000084749  0.000056171  0.239446159
     0.250084749  0.750056171  0.239446159
     0.999857188  0.750394105  0.614566772
     0.249346556  0.999943829  0.614781797
     0.999915251  0.999830927  0.487959860
     0.250643896  0.750289407  0.488342652
     0.000084749  0.250056171  0.363578286
     0.250084749  0.500056171  0.363578286
     0.000084749  0.500056171  0.239446159
     0.250084749  0.250056171  0.239446159
     0.999828427  0.249634011  0.614770607
     0.248265660  0.500148340  0.613489608
     0.999666695  0.500164134  0.487824047
     0.249993932  0.249673109  0.488045416
     0.500084749  0.750056171  0.363578286
     0.750084749  0.000056171  0.363578286
     0.500084749  0.000056171  0.239446159
     0.750084749  0.750056171  0.239446159
     0.500208490  0.754444867  0.617976523
     0.750578969  0.999922121  0.614742452
     0.500080035  0.999350643  0.488242651
     0.749413318  0.750087637  0.488265164
     0.500084749  0.250056171  0.363578286
     0.750084749  0.500056171  0.363578286
     0.500084749  0.500056171  0.239446159
     0.750084749  0.250056171  0.239446159
     0.500099799  0.247787997  0.614504174
     0.751766757  0.500350148  0.615182713
     0.500235346  0.500508510  0.489332342
     0.749985949  0.249943297  0.488132887

  ion indices of the primitive-cell ions
   primitive index   ion index
                 1           1
                 2           2
                 3           3
                 4           4
                 5           5
                 6           6
                 7           7
                 8           8
                 9           9
                10          10
                11          11
                12          12
                13          13
                14          14
                15          15
                16          16
                17          17
                18          18
                19          19
                20          20
                21          21
                22          22
                23          23
                24          24
                25          25
                26          26
                27          27
                28          28
                29          29
                30          30
                31          31
                32          32
                33          33
                34          34
                35          35
                36          36
                37          37
                38          38
                39          39
                40          40
                41          41
                42          42
                43          43
                44          44
                45          45
                46          46
                47          47
                48          48
                49          49
                50          50
                51          51
                52          52
                53          53
                54          54
                55          55
                56          56
                57          57
                58          58
                59          59
                60          60
                61          61
                62          62
                63          63
                64          64
                65          65
                66          66
                67          67

 KPOINTS: pymatgen v2020.8.13 with grid density =

Automatic generation of k-mesh.
 Grid dimensions read from file:
 generate k-points for:    2    2    1

 Generating k-lattice:

  Cartesian coordinates                     Fractional coordinates (reciprocal lattice)
     0.059234796  0.000000000  0.000000000     0.500000000  0.000000000  0.000000000
[...]
  Alpha Z  1218.92042  1218.92042  1218.92042
  Ewald  109687.81428109704.63638************   -12.54541   -12.82965    33.56330
  Hartree126474.24028126493.65951************    -2.00387    10.05214     8.84680
  E(xc)   -3260.99371 -3261.01143 -3266.86091    -0.06590    -0.27404     0.11239
  Local  ************************245496.95119    10.59225    -8.38333   -33.66351
  n-local -5641.57724 -5642.35941 -5643.78359    -0.73561    -1.45604     1.39140
  augment   724.49661   724.62628   715.73597     0.06607     0.21348    -0.17337
  Kinetic 12687.00323 12694.33538 12719.32585     4.74091    12.75211   -10.07237
  Fock        0.00000     0.00000     0.00000     0.00000     0.00000     0.00000
  Total     -14.51564   -14.34527     7.71021     0.04844     0.07467     0.00464
  in kB     -19.20046   -18.97511    10.19862     0.06407     0.09877     0.00614

 VOLUME and BASIS-vectors are now :
  energy-cutoff  :     1000.00
  volume of cell :     1211.25
      direct lattice vectors                 reciprocal lattice vectors
     8.440984654  0.000000000  0.000000000     0.118469591  0.000000000  0.000000000
     0.000000000  8.440984654  0.000000000     0.000000000  0.118469591  0.000000000
     0.000000000  0.000000000 17.000000000     0.000000000  0.000000000  0.058823529

  length of vectors
     8.440984654  8.440984654 17.000000000     0.118469591  0.118469591  0.058823529

 FORCES acting on ions
    electron-ion (+dipol)            ewald-force                    non-local-force                 convergence-correction
   -.824E+02 0.153E+02 -.242E+03   0.901E+02 -.167E+02 0.245E+03   -.775E+01 0.146E+01 -.242E+01   0.231E-03 -.130E-04 -.312E-03
   0.662E+00 -.687E+02 -.232E+03   -.753E+00 0.746E+02 0.228E+03   0.999E-01 -.593E+01 0.374E+01   0.351E-04 0.190E-03 -.641E-03
   0.464E+02 0.220E+02 -.144E+04   -.851E+02 -.427E+02 0.145E+04   0.387E+02 0.206E+02 -.109E+02   0.718E-03 0.623E-03 -.318E-02
   -.599E-01 -.274E+00 0.245E+04   0.676E-01 0.269E+00 -.244E+04   -.578E-02 0.413E-02 -.911E+01   0.671E-04 0.687E-04 -.986E-03
   0.224E+00 -.171E+00 0.245E+04   -.219E+00 0.173E+00 -.244E+04   -.323E-02 -.101E-02 -.916E+01   -.115E-03 0.219E-04 -.108E-02
   -.194E+00 -.299E+00 0.836E+03   0.215E+00 0.343E+00 -.836E+03   -.176E-01 -.344E-01 0.594E+00   0.371E-04 0.120E-04 0.743E-02
   -.357E+00 0.987E-01 0.835E+03   0.456E+00 -.112E+00 -.836E+03   -.778E-01 0.808E-02 0.788E+00   -.138E-03 0.144E-03 0.663E-02
   -.478E+00 -.341E+01 -.768E+03   0.583E+00 0.334E+01 0.769E+03   -.102E+00 0.681E-01 -.205E+00   0.387E-04 0.171E-03 0.893E-02
   0.264E+01 -.839E+00 -.775E+03   -.258E+01 0.933E+00 0.775E+03   -.512E-01 -.914E-01 -.356E+00   -.186E-03 0.628E-04 0.903E-02
   -.103E+01 -.513E+01 -.240E+04   0.112E+01 0.533E+01 0.239E+04   -.890E-01 -.204E+00 0.777E+01   0.676E-04 -.605E-04 -.121E-02
   0.293E+02 -.265E+02 -.235E+04   -.305E+02 0.266E+02 0.234E+04   0.123E+01 -.412E-01 0.798E+01   0.311E-04 0.225E-05 -.223E-03
   -.492E-01 0.272E+00 0.245E+04   0.553E-01 -.268E+00 -.244E+04   -.452E-02 -.343E-02 -.916E+01   0.110E-03 -.429E-04 -.107E-02
   0.261E+00 0.174E+00 0.245E+04   -.249E+00 -.176E+00 -.244E+04   -.933E-02 0.163E-02 -.916E+01   -.143E-03 -.713E-04 -.870E-03
   -.382E-01 0.294E+00 0.836E+03   0.203E-02 -.342E+00 -.837E+03   0.265E-01 0.369E-01 0.473E+00   0.376E-04 -.588E-04 0.775E-02
   -.334E+00 -.135E+00 0.836E+03   0.329E+00 0.143E+00 -.836E+03   0.464E-02 -.429E-02 0.604E+00   -.181E-03 -.352E-04 0.739E-02
   0.198E-01 0.343E+01 -.775E+03   0.355E-01 -.336E+01 0.776E+03   -.533E-01 -.759E-01 -.209E+00   -.528E-05 -.175E-03 0.937E-02
   0.318E+01 0.792E+00 -.763E+03   -.290E+01 -.870E+00 0.764E+03   -.277E+00 0.776E-01 -.129E+01   -.152E-04 -.182E-03 0.560E-02
   -.844E+00 0.608E+01 -.238E+04   0.106E+01 -.627E+01 0.237E+04   -.221E+00 0.191E+00 0.781E+01   0.302E-03 -.251E-04 -.712E-03
   0.212E+02 0.232E+02 -.238E+04   -.216E+02 -.233E+02 0.237E+04   0.404E+00 0.745E-01 0.791E+01   0.366E-03 0.148E-03 -.193E-03
   0.618E-01 -.314E+00 0.245E+04   -.696E-01 0.301E+00 -.244E+04   0.643E-02 0.106E-01 -.916E+01   -.808E-04 0.162E-03 -.725E-03
   -.226E+00 -.182E+00 0.245E+04   0.221E+00 0.186E+00 -.244E+04   0.438E-02 -.229E-02 -.914E+01   0.952E-04 0.358E-04 -.958E-03
   0.201E+00 -.176E+00 0.835E+03   -.229E+00 0.121E+00 -.835E+03   0.199E-01 0.423E-01 0.664E+00   -.204E-04 -.255E-04 0.710E-02
   0.313E+00 0.235E+00 0.835E+03   -.413E+00 -.300E+00 -.836E+03   0.781E-01 0.496E-01 0.804E+00   0.136E-03 0.208E-03 0.679E-02
   0.448E+00 -.267E+01 -.776E+03   -.542E+00 0.238E+01 0.775E+03   0.922E-01 0.291E+00 0.115E+01   -.481E-04 0.299E-04 0.619E-02
   -.264E+01 -.136E+01 -.772E+03   0.259E+01 0.150E+01 0.773E+03   0.491E-01 -.135E+00 -.286E+00   0.194E-03 0.108E-03 0.951E-02
   0.128E+01 -.116E+02 -.237E+04   -.137E+01 0.122E+02 0.236E+04   0.823E-01 -.588E+00 0.765E+01   -.198E-03 0.341E-03 -.103E-02
   -.301E+02 -.269E+02 -.233E+04   0.315E+02 0.273E+02 0.233E+04   -.134E+01 -.326E+00 0.804E+01   0.114E-03 0.171E-03 -.170E-03
   0.493E-01 0.307E+00 0.245E+04   -.558E-01 -.295E+00 -.244E+04   0.544E-02 -.924E-02 -.914E+01   -.946E-04 -.504E-04 -.884E-03
   -.264E+00 0.186E+00 0.245E+04   0.251E+00 -.189E+00 -.244E+04   0.108E-01 0.264E-02 -.918E+01   0.150E-03 -.569E-04 -.772E-03
   0.442E-01 0.253E+00 0.832E+03   -.228E-01 -.218E+00 -.833E+03   -.197E-01 -.301E-01 0.931E+00   -.969E-04 -.721E-04 0.657E-02
   0.317E+00 -.288E+00 0.836E+03   -.320E+00 0.353E+00 -.836E+03   0.931E-04 -.495E-01 0.671E+00   0.160E-03 -.723E-04 0.743E-02
   -.397E-01 0.385E+01 -.766E+03   -.965E-02 -.361E+01 0.767E+03   0.488E-01 -.232E+00 -.670E+00   -.257E-04 0.244E-04 0.912E-02
   -.290E+01 0.132E+01 -.769E+03   0.262E+01 -.144E+01 0.770E+03   0.286E+00 0.118E+00 -.505E+00   -.567E-05 -.117E-03 0.822E-02
   0.492E+01 0.341E+02 -.225E+04   -.541E+01 -.364E+02 0.224E+04   0.495E+00 0.236E+01 0.340E+01   -.244E-03 -.627E-03 -.128E-02
   -.215E+02 0.228E+02 -.237E+04   0.218E+02 -.230E+02 0.237E+04   -.372E+00 0.256E+00 0.789E+01   -.197E-03 0.167E-05 -.677E-03
   0.118E-01 -.178E+00 0.501E+03   -.124E-01 0.158E+00 -.501E+03   -.997E-03 0.268E-01 0.446E-01   0.243E-04 0.378E-04 0.408E-02
   -.134E+00 0.545E-01 0.500E+03   0.139E+00 -.281E-01 -.500E+03   -.340E-02 -.365E-01 -.888E-01   -.506E-04 0.247E-04 0.405E-02
   -.364E-01 -.102E+00 0.148E+04   0.440E-01 0.110E+00 -.149E+04   -.102E-01 -.112E-01 0.263E+01   0.331E-04 0.541E-04 -.166E-02
   0.154E+00 -.176E+00 0.148E+04   -.141E+00 0.170E+00 -.149E+04   -.186E-01 0.676E-02 0.264E+01   -.109E-03 0.908E-04 -.154E-02
   -.213E+01 -.696E+01 -.146E+04   0.218E+01 0.686E+01 0.147E+04   -.457E-01 0.101E+00 -.469E+01   0.376E-04 0.105E-03 -.544E-03
   0.765E+01 -.510E+01 -.146E+04   -.744E+01 0.504E+01 0.147E+04   -.210E+00 0.596E-01 -.466E+01   0.434E-04 -.602E-04 -.552E-03
   -.366E+00 -.117E+01 -.461E+03   0.377E+00 0.120E+01 0.461E+03   -.112E-01 -.265E-01 0.215E+00   0.206E-04 0.415E-04 0.527E-02
   0.139E+01 -.224E+01 -.455E+03   -.148E+01 0.218E+01 0.455E+03   0.887E-01 0.583E-01 0.452E+00   -.210E-03 0.116E-03 0.518E-02
   0.281E-01 0.165E+00 0.501E+03   -.146E-01 -.138E+00 -.501E+03   -.188E-01 -.343E-01 -.756E-01   0.443E-04 0.202E-04 0.413E-02
   -.247E+00 -.576E-01 0.500E+03   0.183E+00 0.388E-01 -.499E+03   0.842E-01 0.253E-01 -.119E+00   -.846E-04 -.516E-04 0.422E-02
   -.305E-01 0.103E+00 0.148E+04   0.328E-01 -.111E+00 -.149E+04   -.338E-02 0.104E-01 0.262E+01   0.728E-04 -.387E-04 -.155E-02
   0.139E+00 0.174E+00 0.148E+04   -.137E+00 -.168E+00 -.149E+04   -.434E-02 -.839E-02 0.263E+01   -.130E-03 -.655E-04 -.160E-02
   -.723E+00 0.642E+01 -.147E+04   0.718E+00 -.632E+01 0.147E+04   0.487E-02 -.887E-01 -.465E+01   0.365E-04 -.351E-04 -.697E-03
   0.287E+02 0.710E+01 -.143E+04   -.283E+02 -.703E+01 0.143E+04   -.397E+00 -.722E-01 -.481E+01   -.447E-04 -.672E-04 0.212E-03
   0.139E+00 0.117E+01 -.454E+03   -.105E+00 -.120E+01 0.454E+03   -.356E-01 0.336E-01 0.272E+00   -.260E-05 -.647E-04 0.507E-02
   0.215E+01 0.222E+01 -.457E+03   -.214E+01 -.216E+01 0.457E+03   -.536E-02 -.507E-01 0.215E+00   -.101E-03 -.121E-03 0.509E-02
   -.256E-02 -.889E-01 0.500E+03   0.586E-02 0.150E+00 -.499E+03   -.380E-02 -.764E-01 -.105E+00   -.351E-04 0.591E-04 0.409E-02
   0.103E+00 0.325E-01 0.501E+03   -.959E-01 -.194E-01 -.501E+03   -.698E-02 -.197E-01 -.317E-01   0.450E-04 0.101E-04 0.400E-02
   0.376E-01 -.115E+00 0.148E+04   -.448E-01 0.113E+00 -.149E+04   0.892E-02 0.252E-02 0.263E+01   -.452E-04 0.205E-05 -.161E-02
   -.156E+00 -.171E+00 0.148E+04   0.142E+00 0.159E+00 -.149E+04   0.165E-01 0.140E-01 0.263E+01   0.121E-03 0.161E-03 -.143E-02
   0.341E+01 -.343E+02 -.140E+04   -.350E+01 0.341E+02 0.140E+04   0.934E-01 0.239E+00 -.173E+01   -.444E-04 0.166E-03 -.116E-03
   -.774E+01 -.655E+01 -.146E+04   0.751E+01 0.655E+01 0.147E+04   0.225E+00 0.385E-02 -.468E+01   0.440E-04 -.600E-04 -.730E-03
   0.412E+00 -.437E-01 -.457E+03   -.432E+00 0.883E-01 0.457E+03   0.223E-01 -.476E-01 0.343E+00   -.334E-04 0.135E-03 0.523E-02
   -.138E+01 -.175E+01 -.451E+03   0.146E+01 0.173E+01 0.451E+03   -.832E-01 0.220E-01 0.757E+00   0.203E-03 0.114E-03 0.519E-02
   -.493E-01 -.130E-01 0.500E+03   0.469E-01 -.213E-01 -.500E+03   0.343E-02 0.437E-01 -.519E-01   -.194E-04 0.929E-05 0.410E-02
   0.202E+00 -.139E-01 0.499E+03   -.118E+00 0.136E-02 -.499E+03   -.106E+00 0.174E-01 -.160E+00   0.824E-04 -.715E-04 0.414E-02
   0.326E-01 0.120E+00 0.148E+04   -.342E-01 -.117E+00 -.149E+04   0.168E-02 -.429E-02 0.262E+01   -.923E-04 -.888E-04 -.141E-02
   -.139E+00 0.168E+00 0.148E+04   0.137E+00 -.157E+00 -.149E+04   0.180E-02 -.153E-01 0.262E+01   0.129E-03 -.116E-03 -.153E-02
   0.846E+00 0.269E+02 -.144E+04   -.855E+00 -.270E+02 0.144E+04   0.654E-02 0.223E-01 -.458E+01   -.114E-03 -.682E-04 -.115E-03
   -.295E+02 0.948E+01 -.143E+04   0.289E+02 -.943E+01 0.143E+04   0.660E+00 -.631E-01 -.446E+01   0.748E-04 0.499E-05 -.613E-04
   -.276E+00 -.572E+00 -.467E+03   0.228E+00 0.503E+00 0.467E+03   0.515E-01 0.705E-01 -.711E+00   -.444E-04 -.156E-03 0.497E-02
   -.214E+01 0.174E+01 -.456E+03   0.214E+01 -.172E+01 0.456E+03   0.983E-02 -.202E-01 0.345E+00   0.138E-03 -.815E-04 0.520E-02
   -.316E+02 -.181E+02 0.329E+02   -.860E-12 -.711E-13 0.495E-11   0.316E+02 0.181E+02 -.332E+02   0.108E-02 0.844E-03 0.165E+00

 POSITION                                       TOTAL-FORCE (eV/Angst)
      5.20667      4.67993     12.92942        -0.089701      0.018326     -0.014293
      4.30502      5.67948     12.10915         0.009244     -0.065557      0.040617
      4.28456      4.82984     12.65611         0.062991      0.035125      0.010103
      0.00072      6.33121      4.07058         0.002367     -0.000889      0.303825
      2.11096      0.00047      4.07058         0.001721      0.000754      0.309293
      0.00072      0.00047      6.18083         0.002928      0.009479      0.019432
      2.11096      6.33121      6.18083         0.020854     -0.004785      0.022701
      0.00247      6.32926      8.29804         0.002357     -0.000302      0.048596
      2.11132      0.00153      8.30334         0.002788      0.002333      0.050210
      0.00134      0.00394     10.40560        -0.001515     -0.005127      0.029972
      2.09141      6.33052     10.40219        -0.016460      0.011827      0.020804
      0.00072      2.11072      4.07058         0.002057      0.001483      0.311923
      2.11096      4.22097      4.07058         0.003003     -0.000203      0.308466
      0.00072      4.22097      6.18083        -0.009312     -0.011364      0.043265
      2.11096      2.11072      6.18083        -0.000518      0.003492      0.028306
      0.00098      2.11191      8.30056         0.002246     -0.000015      0.046758
      2.11675      4.21879      8.31104         0.001368     -0.001027      0.046928
      0.00431      4.21686     10.40084        -0.001623      0.005329      0.031507
      2.10238      2.10950     10.40878         0.006640     -0.005286      0.028597
      4.22121      6.33121      4.07058        -0.001100     -0.002291      0.310034
      6.33145      0.00047      4.07058        -0.000482      0.001059      0.307803
      4.22121      0.00047      6.18083        -0.008375     -0.011933      0.044833
      6.33145      6.33121      6.18083        -0.021617     -0.015561      0.019370
      4.21890      6.32261      8.31008        -0.001319      0.003961      0.035261
      6.32958      0.00287      8.30108         0.000069      0.004759      0.049449
      4.21848      0.01729     10.40689         0.001640      0.002802      0.029061
      6.35226      6.33688     10.38281         0.016429      0.008516      0.021128
      4.22121      2.11072      4.07058        -0.000859      0.002736      0.307030
      6.33145      4.22097      4.07058        -0.001861     -0.000451      0.314708
      4.22121      4.22097      6.18083         0.001913      0.005043      0.061820
      6.33145      2.11072      6.18083        -0.002187      0.015862      0.024681
      4.21936      2.11534      8.30826        -0.000249      0.000302      0.049003
      6.32314      4.21825      8.31239         0.000602     -0.001807      0.044240
      4.20534      4.16626     10.50770         0.005123     -0.004529      0.079697
      6.33710      2.10698     10.40271        -0.001612     -0.007408      0.026526
      0.00072      6.33121      6.18083        -0.001293      0.007035      0.060478
      2.11096      0.00047      6.18083         0.001742     -0.009929      0.048973
      0.00072      0.00047      4.07058        -0.002312     -0.002672     -0.554323
      2.11096      6.33121      4.07058        -0.004663      0.001113     -0.554010
      8.43978      6.33407     10.44764         0.004771     -0.002788      0.053137
      2.10473      8.44051     10.45129        -0.002267      0.001773      0.056803
      8.44027      8.43956      8.29532        -0.000620      0.000470      0.020979
      2.11568      6.33318      8.30183         0.004153      0.003646      0.010780
      0.00072      2.11072      6.18083        -0.004919     -0.007972      0.040500
      2.11096      4.22097      6.18083         0.020663      0.006548      0.072512
      0.00072      4.22097      4.07058        -0.000734      0.002232     -0.556113
      2.11096      2.11072      4.07058        -0.001379     -0.002278     -0.556513
      8.43954      2.10716     10.45110         0.000270      0.004977      0.053771
      2.09561      4.22174     10.42932        -0.015715     -0.006554      0.047749
      8.43817      4.22188      8.29301        -0.002107      0.003543      0.017387
      2.11019      2.10749      8.29677         0.000589      0.007431      0.006695
      4.22121      6.33121      6.18083        -0.000228     -0.015127      0.069487
      6.33145      0.00047      6.18083         0.000258     -0.006474      0.054197
      4.22121      0.00047      4.07058         0.001971      0.000465     -0.553625
      6.33145      6.33121      4.07058         0.003344      0.002797     -0.555904
      4.22225      6.36826     10.50560        -0.003611      0.015945      0.077299
      6.33563      8.44033     10.45062         0.004294      0.002429      0.056350
      4.22117      8.43550      8.30013         0.002559     -0.002858      0.019279
      6.32579      6.33148      8.30051        -0.000501      0.002569      0.009098
      4.22121      2.11072      6.18083         0.001337      0.009538      0.077490
      6.33145      4.22097      6.18083        -0.020949      0.004846      0.066843
      4.22121      4.22097      4.07058         0.000291     -0.001146     -0.556327
      6.33145      2.11072      4.07058        -0.000042     -0.003879     -0.558294
      4.22133      2.09157     10.44657        -0.002030     -0.006046      0.052699
      6.34565      4.22345     10.45811         0.023364     -0.008100      0.047749
      4.22248      4.22478      8.31865         0.004461      0.000834      0.009468
      6.33062      2.10977      8.29826         0.001751      0.002978      0.003735
    total drift:                               -0.020116     -0.005653     -0.077881

  FREE ENERGIE OF THE ION-ELECTRON SYSTEM (eV)
  free  energy   TOTEN  =      -387.36819613 eV

  energy  without entropy=     -387.36819613  energy(sigma->0) =     -387.36819613

     |            E. Caldeweyher, S. Ehlert & S. Grimme          |
     |          Mulliken Center for Theoretical Chemistry        |
     |                    University of Bonn                     |

Rational (Becke-Johnson) damping: hse06-D4-ATM
  s6         1.0000
  s8         1.1953
  s9         1.0000
  a1         0.3866
  a2         5.1913
 alp        16.0000

Dispersion energy:      -2.7317115007373E-01 Eh