 vasp.6.4.2 20Jul23 (build Nov 17 2023 15:39:20) complex
 executed on              LinuxNV date 2024.02.27  23:41:33
 OpenACC runtime initialized ...    4 GPUs detected

 INCAR:
   SYSTEM = Oxide-Surface
   ISMEAR = 0
   SIGMA = 0.05
   EDIFF = 1E-4
   ALGO = Normal
   ISTART = 2
   IBRION = -1
   NSW = 0
   ISYM = 0
   DIPOL = 0.5 0.5 0.5
   IDIPOL = 3
   LDIPOL = .TRUE.
   LHFCALC = .TRUE.
   GGA = PE
   IVDW = 21
   VDW_SR = 0.96
   ENCUT = 450
   PREC = Normal
   LASPH = .TRUE.
   LREAL = Auto
   ISPIN = 1
   NELM = 200
   NELMIN = 8
   NCORE = 1
   KPAR = 1
   LWAVE = .FALSE.
   LCHARG = .FALSE.

 POTCAR:    PAW_PBE Mg_pv 13Apr2007
 POTCAR:    PAW_PBE O 08Apr2002
 POTCAR:    PAW_PBE Mg_pv 13Apr2007
   VRHFIN =Mg: p6s2

   TITEL  = PAW_PBE Mg_pv 13Apr2007
   POMASS =   24.305; ZVAL   =    8.000    mass and valenz
   ENMAX  =  403.929; ENMIN  =  302.947 eV

   TITEL  = PAW_PBE O 08Apr2002
   POMASS =   16.000; ZVAL   =    6.000    mass and valenz
   ENMAX  =  400.000; ENMIN  =  300.000 eV

 Optimization of the real space projectors (new method)

 maximal supplied QI-value         = 18.90
 optimisation between [QCUT,QGAM] = [ 10.77, 21.73] = [ 32.49,132.25] Ry
 Optimized for a Real-space Cutoff    1.23 Angstroem

   l    n(q)    QCUT    max X(q) W(low)/X(q) W(high)/X(q)  e(spline)
   1      7    10.771     2.974    0.18E-03    0.56E-05    0.13E-06
   1      7    10.771     4.279    0.39E-03    0.94E-04    0.28E-06
   0      8    10.771    16.381    0.27E-03    0.38E-03    0.44E-07
   0      8    10.771     5.611    0.18E-03    0.26E-03    0.32E-07
   2      7    10.771     4.652    0.12E-03    0.23E-03    0.45E-07
 Optimization of the real space projectors (new method)

 maximal supplied QI-value         = 24.76
 optimisation between [QCUT,QGAM] = [ 10.64, 21.54] = [ 31.73,129.89] Ry
 Optimized for a Real-space Cutoff    1.23 Angstroem

   l    n(q)    QCUT    max X(q) W(low)/X(q) W(high)/X(q)  e(spline)
   0      8    10.645    20.381    0.38E-03    0.60E-03    0.15E-06
   0      8    10.645    15.268    0.40E-03    0.65E-03    0.17E-06
   1      7    10.645     5.964    0.30E-03    0.63E-03    0.18E-06
   1      7    10.645     5.382    0.24E-03    0.53E-03    0.16E-06
  PAW_PBE Mg_pv 13Apr2007               :
  PAW_PBE O 08Apr2002                   :

 POSCAR: Mg  O
  positions in direct lattice
 exchange correlation table for  LEXCH =        8
   RHO(1)=    0.500       N(1)  =     2000
   RHO(2)=  100.500       N(2)  =     4000

 ion  position               nearest neighbor table
   1  0.000  0.750  0.352-  33 2.11  35 2.11  36 2.11  43 2.11  52 2.11
   2  0.250  0.000  0.352-  34 2.11  35 2.11  36 2.11  44 2.11  51 2.11
   3  0.000  0.000  0.451-  35 2.11  34 2.11  33 2.11  41 2.11  50 2.11  39 2.11
   4  0.250  0.750  0.451-  36 2.11  34 2.11  33 2.11  42 2.11  49 2.11  40 2.12
   5  0.000  0.750  0.550-  47 2.11  39 2.11  40 2.11  33 2.12  56 2.12  37 2.15
   6  0.250  0.000  0.550-  48 2.11  40 2.11  55 2.11  39 2.11  34 2.12  38 2.15
   7  0.000  0.000  0.649-  45 2.10  38 2.10  54 2.11  39 2.11  37 2.11
   8  0.248  0.750  0.648-  37 2.09  40 2.10  46 2.11  38 2.11  53 2.13
   9  0.000  0.250  0.352-  41 2.11  35 2.11  43 2.11  44 2.11  60 2.11
  10  0.250  0.500  0.352-  42 2.11  36 2.11  43 2.11  44 2.11  59 2.11
  11  0.000  0.500  0.451-  43 2.11  41 2.11  42 2.11  33 2.11  58 2.11  47 2.11
  12  0.250  0.250  0.451-  44 2.11  41 2.11  42 2.11  34 2.11  57 2.11  48 2.12
  13  0.000  0.250  0.550-  48 2.11  47 2.11  64 2.11  39 2.11  41 2.12  45 2.15
  14  0.251  0.500  0.550-  63 2.11  48 2.11  40 2.11  46 2.12  47 2.12  42 2.13
  15  0.000  0.500  0.648-  46 2.09  62 2.10  47 2.11  45 2.11  37 2.12
  16  0.249  0.250  0.649-  45 2.10  38 2.11  48 2.11  46 2.11  61 2.12
  17  0.500  0.750  0.352-  49 2.11  36 2.11  51 2.11  52 2.11  59 2.11
  18  0.750  0.000  0.352-  50 2.11  35 2.11  51 2.11  52 2.11  60 2.11
  19  0.500  0.000  0.451-  51 2.11  49 2.11  50 2.11  34 2.11  57 2.11  55 2.12
  20  0.750  0.750  0.451-  52 2.11  49 2.11  50 2.11  33 2.11  58 2.11  56 2.12
  21  0.500  0.749  0.550-  63 2.10  40 2.10  56 2.11  55 2.11  49 2.13  53 2.20
  22  0.750  0.000  0.550-  64 2.11  55 2.11  39 2.11  56 2.11  50 2.12  54 2.15
  23  0.500  0.002  0.649-  61 2.07  53 2.09  55 2.11  38 2.11  54 2.12
  24  0.752  0.751  0.648-  56 2.08  37 2.09  54 2.10  62 2.11  53 2.13
  25  0.500  0.250  0.352-  57 2.11  51 2.11  44 2.11  59 2.11  60 2.11
  26  0.750  0.500  0.352-  58 2.11  52 2.11  43 2.11  59 2.11  60 2.11
  27  0.500  0.500  0.451-  59 2.11  49 2.11  57 2.11  58 2.11  42 2.11  63 2.14
  28  0.750  0.250  0.451-  60 2.11  50 2.11  57 2.11  58 2.11  41 2.11  64 2.12
  29  0.500  0.251  0.550-  48 2.11  63 2.11  64 2.11  55 2.12  57 2.13  61 2.14
  30  0.749  0.500  0.550-  63 2.10  64 2.11  56 2.11  47 2.12  58 2.13  62 2.15
  31  0.498  0.494  0.653-  61 2.08  46 2.11  62 2.14  63 2.19  53 2.20
  32  0.751  0.250  0.648-  45 2.10  64 2.10  54 2.11  61 2.12  62 2.12
  33  0.000  0.750  0.451-   1 2.11   3 2.11   4 2.11  11 2.11  20 2.11   5 2.12
  34  0.250  0.000  0.451-   2 2.11   3 2.11   4 2.11  12 2.11  19 2.11   6 2.12
  35  0.000  0.000  0.352-   3 2.11   2 2.11   1 2.11   9 2.11  18 2.11
  36  0.250  0.750  0.352-   4 2.11   2 2.11   1 2.11  10 2.11  17 2.11
  37  1.000  0.750  0.651-  24 2.09   8 2.09   7 2.11  15 2.12   5 2.15
  38  0.249  1.000  0.651-   7 2.10  16 2.11   8 2.11  23 2.11   6 2.15
  39  1.000  1.000  0.550-   7 2.11   5 2.11  22 2.11   6 2.11  13 2.11   3 2.11
  40  0.251  0.750  0.550-   8 2.10  21 2.10   6 2.11   5 2.11  14 2.11   4 2.12
  41  0.000  0.250  0.451-   9 2.11   3 2.11  11 2.11  12 2.11  28 2.11  13 2.12
  42  0.250  0.500  0.451-  10 2.11   4 2.11  11 2.11  12 2.11  27 2.11  14 2.13
  43  0.000  0.500  0.352-  11 2.11   9 2.11  10 2.11   1 2.11  26 2.11
  44  0.250  0.250  0.352-  12 2.11   9 2.11  10 2.11   2 2.11  25 2.11
  45  1.000  0.250  0.651-  32 2.10   7 2.10  16 2.10  15 2.11  13 2.15
  46  0.248  0.500  0.650-  15 2.09   8 2.11  31 2.11  16 2.11  14 2.12
  47  1.000  0.500  0.550-   5 2.11  15 2.11  13 2.11  11 2.11  30 2.12  14 2.12
  48  0.250  0.250  0.550-   6 2.11  29 2.11  13 2.11  14 2.11  16 2.11  12 2.12
  49  0.500  0.750  0.451-  17 2.11   4 2.11  19 2.11  20 2.11  27 2.11  21 2.13
  50  0.750  0.000  0.451-  18 2.11   3 2.11  19 2.11  20 2.11  28 2.11  22 2.12
  51  0.500  0.000  0.352-  19 2.11  17 2.11  18 2.11   2 2.11  25 2.11
  52  0.750  0.750  0.352-  20 2.11  17 2.11  18 2.11   1 2.11  26 2.11
  53  0.500  0.754  0.653-  23 2.09   8 2.13  24 2.13  21 2.20  31 2.20
  54  0.750  1.000  0.651-  24 2.10   7 2.11  32 2.11  23 2.12  22 2.15
  55  0.500  0.999  0.550-  23 2.11  22 2.11   6 2.11  21 2.11  19 2.12  29 2.12
  56  0.749  0.750  0.550-  24 2.08  21 2.11  22 2.11  30 2.11   5 2.12  20 2.12
  57  0.500  0.250  0.451-  25 2.11  19 2.11  12 2.11  27 2.11  28 2.11  29 2.13
  58  0.750  0.500  0.451-  26 2.11  20 2.11  11 2.11  27 2.11  28 2.11  30 2.13
  59  0.500  0.500  0.352-  27 2.11  17 2.11  25 2.11  26 2.11  10 2.11
  60  0.750  0.250  0.352-  28 2.11  18 2.11  25 2.11  26 2.11   9 2.11
  61  0.500  0.248  0.651-  23 2.07  31 2.08  32 2.12  16 2.12  29 2.14
  62  0.752  0.500  0.651-  15 2.10  24 2.11  32 2.12  31 2.14  30 2.15
  63  0.500  0.500  0.551-  21 2.10  30 2.10  14 2.11  29 2.11  27 2.14  31 2.19
  64  0.750  0.250  0.550-  32 2.10  22 2.11  30 2.11  29 2.11  13 2.11  28 2.12

IMPORTANT INFORMATION: All symmetrisations will be switched off!
NOSYMM: (Re-)initialisation of all symmetry stuff for point group C_1.

                                     Primitive cell

  volume of cell :    1519.8199

  direct lattice vectors                    reciprocal lattice vectors
     8.440984654  0.000000000  0.000000000     0.118469591  0.000000000  0.000000000
     0.000000000  8.440984654  0.000000000     0.000000000  0.118469591  0.000000000
     0.000000000  0.000000000 21.330738491     0.000000000  0.000000000  0.046880702

  length of vectors
     8.440984654  8.440984654 21.330738491     0.118469591  0.118469591  0.046880702

  position of ions in fractional coordinates (direct lattice)
     0.000000000  0.750000000  0.351605267
     0.250000000  0.000000000  0.351605267
     0.000000000  0.000000000  0.450535089
     0.250000000  0.750000000  0.450535089
     0.000207284  0.749768794  0.549791295
     0.250042949  0.000125680  0.550039895
     0.000073806  0.000410042  0.648595353
     0.247683155  0.749917871  0.648435248
     0.000000000  0.250000000  0.351605267
     0.250000000  0.500000000  0.351605267
     0.000000000  0.500000000  0.450535089
     0.250000000  0.250000000  0.450535089
     0.000031262  0.250140480  0.549909578
     0.250686002  0.499742672  0.550400910
     0.000425668  0.499513881  0.648371969
     0.248982972  0.249855834  0.648744198
     0.500000000  0.750000000  0.351605267
     0.750000000  0.000000000  0.351605267
     0.500000000  0.000000000  0.450535089
     0.750000000  0.750000000  0.450535089
     0.499726028  0.748980267  0.550355635
     0.749777797  0.000284338  0.549933824
     0.499677098  0.001992687  0.648655524
     0.752464721  0.750671887  0.647526815
     0.500000000  0.250000000  0.351605267
     0.750000000  0.500000000  0.351605267
     0.500000000  0.500000000  0.450535089
     0.750000000  0.250000000  0.450535089
     0.499781674  0.250547524  0.550270665
     0.749015091  0.499678732  0.550464135
     0.498120585  0.493518517  0.653381840
     0.750669226  0.249556903  0.648459532
     0.000000000  0.750000000  0.450535089
     0.250000000  0.000000000  0.450535089
     0.000000000  0.000000000  0.351605267
     0.250000000  0.750000000  0.351605267
     0.999772439  0.750337934  0.650565869
     0.249261806  0.999887658  0.650737238
     0.999830501  0.999774756  0.549663713
     0.250559146  0.750233236  0.549968787
     0.000000000  0.250000000  0.450535089
     0.250000000  0.500000000  0.450535089
     0.000000000  0.500000000  0.351605267
     0.250000000  0.250000000  0.351605267
     0.999743677  0.249577840  0.650728320
     0.248180911  0.500092169  0.649707399
     0.999581945  0.500107963  0.549555474
     0.249909182  0.249616938  0.549731899
     0.500000000  0.750000000  0.450535089
     0.750000000  0.000000000  0.450535089
     0.500000000  0.000000000  0.351605267
     0.750000000  0.750000000  0.351605267
     0.500123741  0.754388696  0.653283345
     0.750494219  0.999865950  0.650705881
     0.499995285  0.999294473  0.549889090
     0.749328569  0.750031466  0.549907032
     0.500000000  0.250000000  0.450535089
     0.750000000  0.500000000  0.450535089
     0.500000000  0.500000000  0.351605267
     0.750000000  0.250000000  0.351605267
     0.500015049  0.247731826  0.650515981
     0.751682008  0.500293977  0.651056757
     0.500150597  0.500452340  0.550757543
     0.749901199  0.249887127  0.549801611

  ion indices of the primitive-cell ions
   primitive index   ion index
                 1           1
                 2           2
                 3           3
                 4           4
                 5           5
                 6           6
                 7           7
[...]
   O         195.987          4.869         19.140          3.54445913
   O         196.026          4.869         19.142          3.54481617
   O         191.535          4.851         18.921          3.50397038
   O         195.397          4.867         19.111          3.53912063
   O         242.653          5.046         21.297          3.94392584
   O         243.143          5.047         21.319          3.94790694
   O         238.890          5.033         21.131          3.91323165
   O         238.520          5.031         21.115          3.91020022
   O         195.681          4.868         19.125          3.54169304
   O         195.681          4.868         19.125          3.54168734
   O         182.084          4.810         18.449          3.41642938
   O         189.338          4.841         18.813          3.48381175
   O         240.706          5.039         21.212          3.92807200
   O         243.297          5.048         21.325          3.94915599
   O         239.413          5.034         21.155          3.91750875
   O         238.632          5.032         21.120          3.91111324
   O         195.830          4.869         19.132          3.54304203
   O         195.964          4.869         19.139          3.54425486
   O         195.974          4.869         19.139          3.54434540
   O         191.825          4.852         18.936          3.50662652
   O         236.233          5.023         21.014          3.89140994
   O         243.214          5.048         21.322          3.94848936

  vdW correction parametrized for the method @
×5    þ

  IVDW =  21
  VDW_RADIUS =    50.000 A
  VDW_IDAMPF =  0
  VDW_S6 =     1.000
  VDW_SR =     0.960
  VDW_D =    20.000
  LVDW_ONECELL = F F F
  LVDW_SAMETYPE T T
  LVDW_EWALD = F

  Number of pair interactions contributing to vdW energy:  723286
  Edisp (eV):   -3.83988

 VOLUME and BASIS-vectors are now :
  energy-cutoff  :      450.00
  volume of cell :     1519.82
      direct lattice vectors                 reciprocal lattice vectors
     8.440984654  0.000000000  0.000000000     0.118469591  0.000000000  0.000000000
     0.000000000  8.440984654  0.000000000     0.000000000  0.118469591  0.000000000
     0.000000000  0.000000000 21.330738491     0.000000000  0.000000000  0.046880702

  length of vectors
     8.440984654  8.440984654 21.330738491     0.118469591  0.118469591  0.046880702

 FORCES acting on ions
    electron-ion (+dipol)            ewald-force                    non-local-force                 convergence-correction
   0.157E-01 0.202E+00 0.207E+04   -.160E-01 -.204E+00 -.206E+04   0.141E-03 0.112E-02 -.673E+01   0.111E-05 -.137E-04 -.232E+00
   -.294E+00 0.114E+00 0.207E+04   0.298E+00 -.116E+00 -.206E+04   -.235E-02 0.134E-02 -.675E+01   0.307E-05 0.149E-04 -.232E+00
   -.306E-01 0.269E+00 0.685E+03   0.378E-01 -.260E+00 -.685E+03   -.471E-02 -.603E-02 0.413E+00   0.949E-05 0.229E-04 -.967E-01
   -.149E+01 0.112E+01 0.682E+03   0.158E+01 -.112E+01 -.683E+03   -.542E-01 -.106E-02 0.518E+00   0.205E-04 -.293E-04 -.967E-01
   0.340E+00 0.849E+00 -.684E+03   -.292E+00 -.820E+00 0.684E+03   -.494E-01 -.638E-02 -.825E-01   0.897E-05 -.100E-03 0.719E-01
   -.187E+01 0.181E+01 -.688E+03   0.196E+01 -.187E+01 0.688E+03   -.624E-01 0.206E-01 -.219E+00   0.666E-04 0.371E-04 0.724E-01
   0.441E+00 0.125E+01 -.205E+04   -.452E+00 -.117E+01 0.204E+04   -.932E-02 -.904E-01 0.572E+01   0.106E-03 0.252E-03 0.216E+00
   -.111E+02 0.317E+01 -.205E+04   0.113E+02 -.265E+01 0.204E+04   0.898E-01 -.349E+00 0.571E+01   0.121E-03 -.247E-03 0.216E+00
   0.206E-01 -.203E+00 0.207E+04   -.215E-01 0.204E+00 -.206E+04   0.594E-03 -.965E-03 -.674E+01   0.582E-05 0.133E-04 -.232E+00
   -.374E+00 -.114E+00 0.207E+04   0.381E+00 0.116E+00 -.206E+04   -.462E-02 -.123E-02 -.675E+01   -.457E-05 -.136E-04 -.232E+00
   0.745E-01 -.287E+00 0.684E+03   -.112E+00 0.274E+00 -.685E+03   0.236E-01 0.850E-02 0.386E+00   0.744E-05 -.209E-04 -.967E-01
   -.133E+01 -.113E+01 0.684E+03   0.134E+01 0.113E+01 -.684E+03   -.436E-02 0.394E-02 0.483E+00   0.136E-04 0.256E-04 -.966E-01
   0.480E+00 -.736E+00 -.686E+03   -.479E+00 0.715E+00 0.686E+03   -.113E-01 -.234E-02 -.442E-01   0.166E-04 0.996E-04 0.723E-01
   -.474E+01 -.217E+01 -.689E+03   0.508E+01 0.224E+01 0.689E+03   -.274E+00 -.277E-01 -.496E+00   -.640E-04 -.390E-04 0.732E-01
   0.222E+01 -.133E+01 -.205E+04   -.249E+01 0.126E+01 0.204E+04   0.135E+00 0.806E-01 0.572E+01   0.796E-04 -.246E-03 0.216E+00
   -.164E+01 -.110E+01 -.205E+04   0.923E+00 0.488E+00 0.204E+04   0.533E+00 0.403E+00 0.598E+01   0.256E-04 0.246E-03 0.217E+00
   -.152E-01 0.281E+00 0.207E+04   0.153E-01 -.286E+00 -.206E+04   -.248E-04 0.366E-02 -.677E+01   -.143E-05 -.513E-05 -.232E+00
   0.293E+00 0.109E+00 0.207E+04   -.297E+00 -.110E+00 -.206E+04   0.260E-02 0.903E-03 -.674E+01   -.364E-05 0.101E-04 -.232E+00
   0.206E-01 0.494E+00 0.683E+03   -.356E-01 -.558E+00 -.683E+03   0.912E-02 0.399E-01 0.437E+00   -.660E-05 0.184E-04 -.967E-01
   0.147E+01 0.122E+01 0.682E+03   -.155E+01 -.126E+01 -.683E+03   0.558E-01 0.252E-01 0.507E+00   -.206E-04 -.287E-04 -.967E-01
   -.490E+00 0.509E+01 -.704E+03   0.450E+00 -.525E+01 0.704E+03   0.442E-01 0.162E+00 0.283E-01   -.830E-05 0.688E-04 0.730E-01
   0.190E+01 0.165E+01 -.686E+03   -.198E+01 -.167E+01 0.687E+03   0.583E-01 -.154E-01 -.221E+00   -.680E-04 0.298E-04 0.722E-01
   -.521E+00 0.625E+01 -.205E+04   0.544E+00 -.727E+01 0.204E+04   0.363E-02 0.574E+00 0.545E+01   -.104E-03 0.151E-03 0.216E+00
   0.124E+02 0.622E+01 -.204E+04   -.125E+02 -.592E+01 0.203E+04   -.127E+00 -.263E+00 0.549E+01   -.123E-03 -.272E-03 0.214E+00
   -.210E-01 -.283E+00 0.207E+04   0.215E-01 0.288E+00 -.206E+04   -.275E-03 -.304E-02 -.674E+01   -.415E-05 0.386E-05 -.232E+00
   0.372E+00 -.108E+00 0.207E+04   -.380E+00 0.110E+00 -.206E+04   0.504E-02 -.956E-03 -.676E+01   0.417E-05 -.900E-05 -.232E+00
   -.976E-01 -.495E+00 0.678E+03   0.122E+00 0.541E+00 -.679E+03   -.158E-01 -.304E-01 0.674E+00   -.739E-05 -.148E-04 -.966E-01
   0.131E+01 -.124E+01 0.684E+03   -.133E+01 0.128E+01 -.684E+03   0.869E-02 -.249E-01 0.502E+00   -.148E-04 0.275E-04 -.967E-01
   -.543E+00 -.354E+01 -.689E+03   0.546E+00 0.370E+01 0.689E+03   0.959E-02 -.153E+00 -.102E+00   -.141E-04 -.293E-04 0.729E-01
   0.507E+01 -.207E+01 -.695E+03   -.541E+01 0.211E+01 0.696E+03   0.275E+00 0.437E-02 -.292E+00   0.633E-04 -.324E-04 0.733E-01
   -.554E+01 -.233E+02 -.209E+04   0.563E+01 0.230E+02 0.208E+04   0.101E+00 0.835E+00 0.648E+01   -.103E-03 -.269E-03 0.222E+00
   0.195E+01 -.352E+01 -.205E+04   -.128E+01 0.317E+01 0.204E+04   -.500E+00 0.272E+00 0.583E+01   -.320E-04 0.275E-03 0.216E+00
   0.906E-01 0.485E+00 0.513E+03   -.101E+00 -.485E+00 -.513E+03   0.110E-01 0.122E-02 0.970E-02   0.442E-05 -.293E-04 -.704E-01
   -.851E+00 0.461E+00 0.513E+03   0.863E+00 -.466E+00 -.512E+03   -.134E-01 0.468E-02 -.824E-01   0.197E-04 0.178E-04 -.704E-01
   0.607E-02 0.683E-01 0.155E+04   -.470E-02 -.671E-01 -.156E+04   -.167E-02 -.144E-02 0.310E+01   0.255E-05 0.103E-04 -.174E+00
   -.258E+00 0.180E+00 0.155E+04   0.268E+00 -.180E+00 -.156E+04   -.122E-01 0.694E-03 0.309E+01   -.272E-05 -.103E-04 -.174E+00
   0.568E-01 0.127E+01 -.156E+04   -.154E+00 -.124E+01 0.156E+04   0.134E+00 -.591E-01 -.461E+01   0.442E-04 -.216E-03 0.164E+00
   -.194E+01 0.195E+01 -.156E+04   0.228E+01 -.233E+01 0.156E+04   -.341E+00 0.438E+00 -.455E+01   0.727E-04 0.141E-03 0.164E+00
   -.252E-01 0.269E+00 -.510E+03   0.111E-01 -.292E+00 0.509E+03   0.165E-01 0.323E-01 0.153E+00   0.191E-04 0.509E-04 0.530E-01
   -.353E+01 0.164E+01 -.513E+03   0.361E+01 -.161E+01 0.512E+03   -.121E+00 -.594E-01 0.287E+00   0.462E-04 -.408E-04 0.534E-01
   0.106E+00 -.487E+00 0.513E+03   -.105E+00 0.493E+00 -.513E+03   -.192E-02 -.726E-02 -.279E-01   0.778E-05 0.263E-04 -.704E-01
   -.133E+01 -.473E+00 0.511E+03   0.129E+01 0.484E+00 -.510E+03   0.483E-01 -.116E-01 -.102E+00   0.134E-04 -.111E-04 -.704E-01
   0.177E-01 -.681E-01 0.155E+04   -.207E-01 0.671E-01 -.156E+04   0.358E-02 0.123E-02 0.309E+01   0.302E-05 -.102E-04 -.174E+00
   -.238E+00 -.180E+00 0.155E+04   0.240E+00 0.181E+00 -.156E+04   -.293E-02 -.863E-03 0.309E+01   0.204E-05 0.953E-05 -.174E+00
   0.485E+00 -.118E+01 -.156E+04   -.614E+00 0.115E+01 0.156E+04   0.154E+00 0.776E-01 -.449E+01   0.610E-04 0.211E-03 0.165E+00
   -.548E+01 -.369E+01 -.155E+04   0.539E+01 0.413E+01 0.155E+04   0.219E+00 -.488E+00 -.362E+01   -.109E-03 -.136E-03 0.164E+00
   0.631E+00 -.331E+00 -.508E+03   -.671E+00 0.351E+00 0.507E+03   0.577E-01 -.302E-01 0.368E+00   0.133E-04 -.453E-04 0.529E-01
   -.149E+01 -.139E+01 -.510E+03   0.146E+01 0.136E+01 0.509E+03   0.303E-01 0.539E-01 0.330E+00   0.415E-05 0.429E-04 0.531E-01
   -.862E-01 0.958E+00 0.510E+03   0.988E-01 -.894E+00 -.510E+03   -.137E-01 -.724E-01 -.156E+00   -.434E-05 -.201E-04 -.704E-01
   0.833E+00 0.441E+00 0.513E+03   -.835E+00 -.457E+00 -.513E+03   0.247E-02 0.169E-01 -.517E-01   -.239E-04 0.151E-04 -.704E-01
   -.545E-02 0.889E-01 0.155E+04   0.434E-02 -.952E-01 -.156E+04   0.132E-02 0.753E-02 0.309E+01   -.106E-05 0.172E-04 -.174E+00
   0.257E+00 0.191E+00 0.155E+04   -.267E+00 -.196E+00 -.156E+04   0.122E-01 0.621E-02 0.309E+01   0.411E-05 -.754E-05 -.174E+00
   -.109E+01 0.151E+02 -.157E+04   0.131E+01 -.155E+02 0.157E+04   -.246E+00 -.294E-01 -.477E+01   -.447E-04 -.774E-04 0.167E+00
   0.205E+01 0.153E+01 -.156E+04   -.241E+01 -.187E+01 0.156E+04   0.362E+00 0.414E+00 -.470E+01   -.724E-04 0.125E-03 0.164E+00
   0.384E-01 0.238E+01 -.511E+03   -.340E-01 -.258E+01 0.511E+03   -.953E-02 0.255E+00 0.207E+00   -.173E-04 -.149E-04 0.533E-01
   0.362E+01 0.234E+01 -.510E+03   -.370E+01 -.232E+01 0.510E+03   0.116E+00 -.300E-01 0.489E+00   -.486E-04 -.503E-04 0.533E-01
   -.121E+00 -.101E+01 0.511E+03   0.129E+00 0.967E+00 -.511E+03   -.847E-02 0.472E-01 -.602E-01   -.683E-05 0.152E-04 -.704E-01
   0.131E+01 -.440E+00 0.510E+03   -.125E+01 0.456E+00 -.510E+03   -.675E-01 -.172E-01 -.151E+00   -.132E-04 -.835E-05 -.704E-01
   -.168E-01 -.873E-01 0.155E+04   0.203E-01 0.941E-01 -.156E+04   -.420E-02 -.824E-02 0.309E+01   -.394E-05 -.164E-04 -.174E+00
   0.238E+00 -.192E+00 0.155E+04   -.240E+00 0.197E+00 -.156E+04   0.263E-02 -.617E-02 0.309E+01   -.264E-05 0.574E-05 -.174E+00
   -.768E+00 -.118E+01 -.155E+04   0.916E+00 0.500E+00 0.156E+04   -.175E+00 0.795E+00 -.370E+01   -.551E-04 0.347E-04 0.164E+00
   0.826E+01 -.381E+01 -.156E+04   -.844E+01 0.431E+01 0.156E+04   0.337E-02 -.551E+00 -.424E+01   0.993E-04 -.124E-03 0.165E+00
   -.852E+00 -.351E+01 -.532E+03   0.882E+00 0.369E+01 0.532E+03   -.513E-01 -.234E+00 -.630E+00   -.126E-04 -.152E-04 0.543E-01
   0.153E+01 -.205E+01 -.510E+03   -.151E+01 0.204E+01 0.510E+03   -.313E-01 0.252E-01 0.368E+00   -.342E-05 0.512E-04 0.532E-01
   -.346E+00 -.228E+01 0.172E+02   -.194E-12 -.355E-13 0.284E-12   0.309E+00 0.203E+01 -.141E+02   -.317E-04 -.132E-03 -.532E+00

 POSITION                                       TOTAL-FORCE (eV/Angst)
      0.00000      6.33074      7.50000        -0.000073     -0.000406      0.499054
      2.11025      0.00000      7.50000         0.001084     -0.000518      0.504854
      0.00000      0.00000      9.61025         0.001835      0.002430      0.017644
      2.11025      6.33074      9.61025         0.023471     -0.001292      0.030511
      0.00175      6.32879     11.72745        -0.008202      0.020598      0.037529
      2.11061      0.00106     11.73276         0.015752     -0.035326      0.062956
      0.00062      0.00346     13.83502        -0.020483     -0.023966     -0.132706
      2.09069      6.33005     13.83160         0.279692      0.127149     -0.074297
      0.00000      2.11025      7.50000        -0.000189      0.000467      0.502196
      2.11025      4.22049      7.50000         0.001773      0.000515      0.504578
      0.00000      4.22049      9.61025        -0.010377     -0.003807      0.025721
      2.11025      2.11025      9.61025         0.003140      0.000137      0.010980
      0.00026      2.11143     11.72998        -0.010876     -0.022279      0.027544
      2.11604      4.21832     11.74046         0.029535      0.038106     -0.037193
      0.00359      4.21639     13.83025        -0.112579      0.023943     -0.115544
      2.10166      2.10903     13.83819        -0.103798     -0.152635     -0.237731
      4.22049      6.33074      7.50000         0.000161     -0.001190      0.510824
      6.33074      0.00000      7.50000        -0.001129     -0.000401      0.502560
      4.22049      0.00000      9.61025        -0.004400     -0.018088      0.050471
      6.33074      6.33074      9.61025        -0.023430     -0.011924      0.031214
      4.21818      6.32213     11.73949         0.009317      0.020484      0.232440
      6.32886      0.00240     11.73049        -0.014783     -0.033310      0.074496
      4.21777      0.01682     13.83630         0.024465     -0.349876     -0.047190
      6.35154      6.33641     13.81223        -0.311227      0.001135      0.113293
      4.22049      2.11025      7.50000         0.000234      0.001151      0.501696
      6.33074      4.22049      7.50000        -0.001932      0.000447      0.508154
      4.22049      4.22049      9.61025         0.005748      0.011780      0.054533
      6.33074      2.11025      9.61025        -0.005389      0.012457      0.014622
      4.21865      2.11487     11.73768         0.011515     -0.008340     -0.038579
      6.32242      4.21778     11.74181        -0.026768      0.035761      0.041315
      4.20463      4.16578     13.93712         0.190372      0.636010     -0.797183
      6.33639      2.10651     13.83212         0.097402     -0.049254     -0.140082
      0.00000      6.33074      9.61025         0.002481      0.001154      0.078297
      2.11025      0.00000      9.61025        -0.003550     -0.000002      0.071488
      0.00000      0.00000      7.50000        -0.000567     -0.000530     -0.421737
      2.11025      6.33074      7.50000        -0.004027      0.000132     -0.422683
      8.43906      6.33359     13.87705         0.062851     -0.050280     -0.136100
      2.10402      8.44004     13.88071        -0.054036      0.133232     -0.127691
      8.43955      8.43908     11.72473         0.006394      0.016251     -0.001528
      2.11497      6.33271     11.73124        -0.064177     -0.035224     -0.026888
      0.00000      2.11025      9.61025        -0.001269     -0.002906      0.076251
      2.11025      4.22049      9.61025         0.015818     -0.002034      0.102149
      0.00000      4.22049      7.50000         0.001293      0.000537     -0.422476
      2.11025      2.11025      7.50000        -0.000738     -0.000104     -0.421880
      8.43882      2.10668     13.88052         0.052918      0.059264     -0.110517
      2.09489      4.22127     13.85874         0.176728     -0.141202      0.203777
      8.43746      4.22140     11.72242         0.029103     -0.015195      0.054796
      2.10948      2.10701     11.72619         0.011272      0.035727      0.053633
      4.22049      6.33074      9.61025        -0.003425     -0.021735      0.076233
      6.33074      0.00000      9.61025         0.000376      0.003590      0.071688
      4.22049      0.00000      7.50000         0.000482      0.002689     -0.423795
      6.33074      6.33074      7.50000         0.004049      0.002087     -0.421053
      4.22154      6.36778     13.93502        -0.068316     -0.443409     -0.305021
      6.33491      8.43985     13.88004         0.060619      0.141693     -0.165411
      4.22045      8.43503     11.72954        -0.006912      0.095937     -0.019858
      6.32507      6.33100     11.72992         0.061931     -0.015143     -0.044365
      4.22049      2.11025      9.61025        -0.001834      0.014965      0.103605
      6.33074      4.22049      9.61025        -0.021497     -0.003747      0.091120
      4.22049      4.22049      7.50000        -0.001484     -0.002830     -0.426788
      6.33074      2.11025      7.50000         0.000667     -0.001983     -0.422130
      4.22062      2.09110     13.87599        -0.059860      0.251821      0.115676
      6.34494      4.22297     13.88752        -0.191930     -0.157361     -0.038087
      4.22176      4.22431     11.74807        -0.031010     -0.102079     -0.007053
      6.32990      2.10929     11.72767        -0.012212      0.016732      0.027668
    total drift:                               -0.002024     -0.003468      0.014082

  FREE ENERGIE OF THE ION-ELECTRON SYSTEM (eV)
  free  energy   TOTEN  =      -467.69112980 eV

  energy  without entropy=     -467.69112980  energy(sigma->0) =     -467.69112980