 vasp.6.3.0 20Jan22 (build Mar 11 2022 13:48:16) complex

 executed on             LinuxIFC date 2023.12.29  11:47:08

 INCAR:
   SYSTEM = TiO2
   ISMEAR = 0
   SIGMA = 0.05
   EDIFF = 1E-7
   ALGO = ALL
   ISTART = 0
   IBRION = 2
   NSW = 1000
   ISYM = 0
   ISIF = 2
   EDIFFG = -0.01
   DIPOL = 0.5 0.5 0.5
   IDIPOL = 3
   LDIPOL = .TRUE.
   GGA = PE
   IVDW = 21
   LDAU = .TRUE.
   LDAUTYPE = 2
   LDAUL = -1 -1 2 -1
   LDAUU = 0.0 0.0 4.2 0.0
   LDAUPRINT = 1
   LMAXMIX = 4
   ENCUT = 600
   PREC = Accurate
   LASPH = .TRUE.
   LREAL = .FALSE.
   ISPIN = 1
   NELM = 200
   NELMIN = 8
   NCORE = 19
   KPAR = 1
   LWAVE = .FALSE.
   LCHARG = .FALSE.

 POTCAR:    PAW_PBE C 08Apr2002
 POTCAR:    PAW_PBE H 15Jun2001
 POTCAR:    PAW_PBE Ti_pv 07Sep2000
 POTCAR:    PAW_PBE O 08Apr2002
 POTCAR:    PAW_PBE C 08Apr2002
   VRHFIN =C: s2p2

   TITEL  = PAW_PBE C 08Apr2002
   POMASS =   12.011; ZVAL   =    4.000    mass and valenz
   ENMAX  =  400.000; ENMIN  =  300.000 eV

   TITEL  = PAW_PBE H 15Jun2001
   POMASS =    1.000; ZVAL   =    1.000    mass and valenz
   ENMAX  =  250.000; ENMIN  =  200.000 eV

   TITEL  = PAW_PBE Ti_pv 07Sep2000
   POMASS =   47.880; ZVAL   =   10.000    mass and valenz
   ENMAX  =  222.335; ENMIN  =  166.751 eV

   TITEL  = PAW_PBE O 08Apr2002
   POMASS =   16.000; ZVAL   =    6.000    mass and valenz
   ENMAX  =  400.000; ENMIN  =  300.000 eV

  PAW_PBE C 08Apr2002                   :
  PAW_PBE H 15Jun2001                   :
  PAW_PBE Ti_pv 07Sep2000               :
  PAW_PBE O 08Apr2002                   :

 POSCAR:  C  H Ti  O
  positions in direct lattice
  velocities in cartesian coordinates
 exchange correlation table for  LEXCH =        8
   RHO(1)=    0.500       N(1)  =     2000
   RHO(2)=  100.500       N(2)  =     4000

 ion  position               nearest neighbor table
   1  0.500  0.500  0.813-   3 1.10   2 1.10   5 1.10   4 1.10
   2  0.496  0.574  0.833-   1 1.10
   3  0.504  0.426  0.833-   1 1.10
   4  0.570  0.504  0.793-   1 1.10
   5  0.430  0.496  0.793-   1 1.10
   6  0.750  0.625  0.286-  86 1.98  87 1.98 146 1.98 147 1.98 168 2.00  89 2.00  16 3.03  36 3.03

   7  0.000  0.750  0.286-  88 1.98  89 1.98 108 1.98 109 1.98  90 2.00  37 3.03  17 3.03
   8  0.000  0.625  0.393-  91 1.98 151 1.98 150 1.98  90 1.98  92 2.00  93 2.00  18 3.03  38 3.03

[...]

  85  0.500  0.500  0.711- 239 1.88 244 1.97 185 1.97 184 1.97 245 1.97  55 3.03  75 3.03
  86  0.750  0.750  0.244-   6 1.98  16 1.98
  87  0.750  0.750  0.328-   6 1.98  16 1.98   9 2.00
  88  0.098  0.625  0.286-   7 1.98  37 1.98  46 2.00
  89  0.902  0.625  0.286-   7 1.98  37 1.98   6 2.00
  90  0.000  0.750  0.351-   8 1.98  18 1.98   7 2.00
  91  0.000  0.750  0.435-   8 1.98  18 1.98  11 2.00
  92  0.848  0.625  0.393-   9 1.98  39 1.98   8 2.00
  93  0.152  0.625  0.393-  49 1.98  79 1.98   8 2.00
  94  0.750  0.750  0.458-  10 1.98  20 1.98   9 2.00
  95  0.750  0.750  0.542-  10 1.98  20 1.98  13 2.09
  96  0.098  0.625  0.500-  11 1.98  41 1.98  50 2.00
  97  0.902  0.625  0.500-  11 1.98  41 1.98  10 2.00
  98  1.000  0.750  0.565-  22 1.94  12 1.94  11 2.01
  99  0.000  0.750  0.649-  15 1.86  22 2.03  12 2.03
 100  0.850  0.625  0.607-  12 1.98  13 2.00  43 2.00
 101  0.150  0.625  0.607-  12 1.98  53 2.00  83 2.00
 102  0.750  0.750  0.672-  13 1.92  14 2.11  24 2.11
 103  0.750  0.750  0.756-  14 1.87  24 1.87
 104  0.093  0.625  0.719-  45 1.97  15 1.97  54 2.06
 105  0.907  0.625  0.719-  45 1.97  15 1.97  14 2.06
 106  0.750  0.000  0.244-  16 1.98  26 1.98
 107  0.750  0.000  0.328-  16 1.98  26 1.98  19 2.00
 108  0.098  0.875  0.286-   7 1.98  17 1.98  56 2.00
 109  0.902  0.875  0.286-   7 1.98  17 1.98  16 2.00
 110  0.000  0.000  0.351-  18 1.98  28 1.98  17 2.00
 111  0.000  0.000  0.435-  18 1.98  28 1.98  21 2.00
 112  0.848  0.875  0.393-   9 1.98  19 1.98  18 2.00
 113  0.152  0.875  0.393-  49 1.98  59 1.98  18 2.00
 114  0.750  0.000  0.458-  20 1.98  30 1.98  19 2.00
 115  0.750  0.000  0.542-  20 1.98  30 1.98  23 2.09
 116  0.098  0.875  0.500-  11 1.98  21 1.98  60 2.00
 117  0.902  0.875  0.500-  11 1.98  21 1.98  20 2.00
 118  0.000  1.000  0.565-  32 1.94  22 1.94  21 2.01
 119  1.000  1.000  0.649-  25 1.86  22 2.03  32 2.03
 120  0.850  0.875  0.607-  22 1.98  23 2.00  13 2.00
 121  0.150  0.875  0.607-  22 1.98  63 2.00  53 2.00
 122  0.750  0.000  0.672-  23 1.92  24 2.11  34 2.11
 123  0.750  0.000  0.756-  24 1.87  34 1.87
 124  0.093  0.875  0.719-  15 1.97  25 1.97  64 2.06
 125  0.907  0.875  0.719-  15 1.97  25 1.97  24 2.06
 126  0.750  0.250  0.244-  26 1.98  36 1.98
 127  0.750  0.250  0.328-  26 1.98  36 1.98  29 2.00
 128  0.098  0.125  0.286-  17 1.98  27 1.98  66 2.00
 129  0.902  0.125  0.286-  17 1.98  27 1.98  26 2.00
 130  0.000  0.250  0.351-  28 1.98  38 1.98  27 2.00
 131  0.000  0.250  0.435-  28 1.98  38 1.98  31 2.00
 132  0.848  0.125  0.393-  19 1.98  29 1.98  28 2.00
 133  0.152  0.125  0.393-  59 1.98  69 1.98  28 2.00
 134  0.750  0.250  0.458-  30 1.98  40 1.98  29 2.00
 135  0.750  0.250  0.542-  30 1.98  40 1.98  33 2.09
 136  0.098  0.125  0.500-  21 1.98  31 1.98  70 2.00
 137  0.902  0.125  0.500-  21 1.98  31 1.98  30 2.00
 138  0.000  0.250  0.565-  32 1.94  42 1.94  31 2.01
 139  1.000  0.250  0.649-  35 1.86  32 2.03  42 2.03
 140  0.850  0.125  0.607-  32 1.98  23 2.00  33 2.00
 141  0.150  0.125  0.607-  32 1.98  63 2.00  73 2.00
 142  0.750  0.250  0.672-  33 1.92  44 2.11  34 2.11
 143  0.750  0.250  0.756-  44 1.87  34 1.88
 144  0.093  0.125  0.719-  35 1.97  25 1.97  74 2.06
[...]
 231  0.500  0.500  0.435-  48 1.98  78 1.98  81 2.00
 232  0.348  0.375  0.393-  69 1.98  79 1.98  78 2.00
 233  0.652  0.375  0.393-  29 1.98  39 1.98  78 2.00
 234  0.250  0.500  0.458-  50 1.98  80 1.98  79 2.00
 235  0.250  0.500  0.542-  50 1.98  80 1.98  83 2.09
 236  0.598  0.375  0.500-  71 1.98  81 1.98  40 2.00
 237  0.402  0.375  0.500-  71 1.98  81 1.98  80 2.00
 238  0.500  0.500  0.566-  82 1.94  52 1.94  81 2.01
 239  0.500  0.500  0.650-  85 1.88  82 2.03  52 2.03
 240  0.349  0.375  0.607-  82 1.98  83 2.00  73 2.00
 241  0.651  0.375  0.607-  82 1.98  43 2.00  33 2.00
 242  0.249  0.500  0.672-  83 1.92  84 2.11  54 2.11
 243  0.251  0.500  0.756-  84 1.88  54 1.88
 244  0.594  0.374  0.719-  75 1.96  85 1.97  44 2.06
 245  0.406  0.374  0.719-  75 1.96  85 1.97  84 2.06

IMPORTANT INFORMATION: All symmetrisations will be switched off!
NOSYMM: (Re-)initialisation of all symmetry stuff for point group C_1.

                                     Primitive cell

  volume of cell :    4886.2662

  direct lattice vectors                    reciprocal lattice vectors
    13.143747607  0.000000000  0.000000000     0.076081802  0.000000000  0.000000000
     0.000000000 12.104894358  0.000000000     0.000000000  0.082611212  0.000000000
     0.000000000  0.000000000 30.711208800     0.000000000  0.000000000  0.032561401

  length of vectors
    13.143747607 12.104894358 30.711208800     0.076081802  0.082611212  0.032561401

  position of ions in fractional coordinates (direct lattice)
     0.500057363  0.499992086  0.812754322
     0.496276112  0.574107901  0.833162082
     0.503850459  0.425902761  0.833163525
     0.570423801  0.504063873  0.793396521
     0.429683276  0.495927863  0.793404084
     0.750000000  0.625000000  0.286010579
     0.000000000  0.750000000  0.286010579
     0.000000000  0.625000000  0.393005289
     0.750000000  0.750000000  0.393005289
     0.750000000  0.625000000  0.500000000
     0.000000000  0.750000000  0.500000000
     0.000000203  0.625006881  0.605092756
     0.750024826  0.750019313  0.609826640
     0.750062765  0.625140804  0.719895291
     0.000013886  0.750030955  0.709704636
     0.750000000  0.875000000  0.286010579
     0.000000000  0.000000000  0.286010579
     0.000000000  0.875000000  0.393005289
     0.750000000  0.000000000  0.393005289
     0.750000000  0.875000000  0.500000000
     0.000000000  0.000000000  0.500000000
     0.999999679  0.875007921  0.605103344
     0.749991269  0.000000917  0.609876534
     0.749944943  0.875038046  0.720104940
     0.999999935  0.999999984  0.709715428
     0.750000000  0.125000000  0.286010579
     0.000000000  0.250000000  0.286010579
     0.000000000  0.125000000  0.393005289
     0.750000000  0.250000000  0.393005289
     0.750000000  0.125000000  0.500000000
     0.000000000  0.250000000  0.500000000
     0.000000367  0.124992070  0.605103342
     0.750022572  0.249983758  0.609833537
     0.749937754  0.124971789  0.720105387
     0.999986559  0.249969019  0.709704638
     0.750000000  0.375000000  0.286010579
     0.000000000  0.500000000  0.286010579
     0.000000000  0.375000000  0.393005289
     0.750000000  0.500000000  0.393005289
     0.750000000  0.375000000  0.500000000
     0.000000000  0.500000000  0.500000000
     0.999999822  0.374993122  0.605092754
     0.750044354  0.499998605  0.609844871
     0.750030300  0.374886759  0.719924131
     0.000000361  0.500000003  0.709683421
     0.250000000  0.625000000  0.286010579
     0.500000000  0.750000000  0.286010579
     0.500000000  0.625000000  0.393005289
     0.250000000  0.750000000  0.393005289
     0.250000000  0.625000000  0.500000000
     0.500000000  0.750000000  0.500000000
     0.500000672  0.624624644  0.605473259
     0.249977520  0.750016138  0.609833652
     0.249970749  0.625112855  0.719924650
     0.500000192  0.750144126  0.709546080
     0.250000000  0.875000000  0.286010579
     0.500000000  0.000000000  0.286010579
     0.500000000  0.875000000  0.393005289
     0.250000000  0.000000000  0.393005289
     0.250000000  0.875000000  0.500000000
[...]
     0.500000000  0.500000000  0.434805357
     0.347668537  0.375000000  0.393005289
     0.652331463  0.375000000  0.393005289
     0.250000000  0.500000000  0.458199933
     0.250000000  0.500000000  0.541800067
     0.597668537  0.375000000  0.500000000
     0.402331463  0.375000000  0.500000000
     0.500000031  0.499999961  0.565528178
     0.499999851  0.500000021  0.649525851
     0.349492242  0.375002418  0.607405238
     0.650507342  0.375005190  0.607403826
     0.249454041  0.500011947  0.672244939
     0.250875413  0.499959271  0.756004028
     0.593611296  0.374260203  0.718727644
     0.406347790  0.374235719  0.718663173

  ion indices of the primitive-cell ions
   primitive index   ion index
                 1           1
                 2           2
                 3           3
                 4           4
                 5           5
                 6           6
                 7           7
                 8           8
                 9           9
                10          10
                11          11
                12          12
                13          13
                14          14
                15          15
                16          16
                17          17
                18          18
                19          19
                20          20
                21          21
                22          22
                23          23
                24          24
                25          25
                26          26
[...]
   O          58.382          3.979         10.446          1.93453014
   O          58.178          3.977         10.428          1.93114424
   O          58.805          3.984         10.484          1.94153137
   O          58.546          3.981         10.461          1.93724177
   O          58.549          3.981         10.461          1.93729118
   O          59.730          3.995         10.566          1.95673689
   O          39.136          3.723          8.553          1.58388994
   O          56.379          3.956         10.266          1.90106328
   O          56.485          3.957         10.275          1.90283598

  vdW correction parametrized for the method pbe

  IVDW =  21
  VDW_RADIUS =    50.000 A
  VDW_IDAMPF =  0
  VDW_S6 =     1.000
  VDW_SR =     0.950
  VDW_D =    20.000
  LVDW_ONECELL = F F F
  LVDW_SAMETYPE T T T T
  LVDW_EWALD = F

  Number of pair interactions contributing to vdW energy: 3266830
  Edisp (eV):  -33.39217

  FORCE on cell =-STRESS in cart. coord.  units (eV):
  Direction    XX          YY          ZZ          XY          YZ          ZX
  Alpha Z  4508.37230  4508.37230  4508.37230
  Ewald  939046.72431956324.19536************    -0.19782    -0.01141    -0.04505
  Hartree979558.30725988896.55380************    -0.13972    -0.00018    -0.04166
  E(xc)   -8583.54593 -8566.59935 -8592.67277    -0.00066    -0.00000    -0.00005
  Local  ************************************     0.36439     0.00749     0.08845
  n-local -5237.04198 -5114.73384 -5277.56672     0.00074     0.00034     0.00017
  augment  5269.10760  5262.28508  5271.40572    -0.00200     0.00005    -0.00005
  Kinetic 28571.16134 28013.90389 28616.13907    -0.01079     0.00047    -0.00169
  Fock        0.00000     0.00000     0.00000     0.00000     0.00000     0.00000
  vdW       -48.50533   -38.48465   -41.11128    -0.00191    -0.00001     0.00010
  Total      11.48698   -41.37119   -28.22426     0.01223    -0.00324     0.00021
  in kB       3.76651   -13.56536    -9.25456     0.00401    -0.00106     0.00007

 VOLUME and BASIS-vectors are now :
  energy-cutoff  :      600.00
  volume of cell :     4886.27
      direct lattice vectors                 reciprocal lattice vectors
    13.143747607  0.000000000  0.000000000     0.076081802  0.000000000  0.000000000
     0.000000000 12.104894358  0.000000000     0.000000000  0.082611212  0.000000000
     0.000000000  0.000000000 30.711208800     0.000000000  0.000000000  0.032561401

  length of vectors
    13.143747607 12.104894358 30.711208800     0.076081802  0.082611212  0.032561401

 FORCES acting on ions:
    Electron-Ion                     Ewald-Force                    Non-Local-Force
   0.179E-01 -.409E-02 -.147E+04   -.156E-01 0.701E-02 0.147E+04   -.125E-02 0.375E-02 -.919E+00
   0.221E+01 -.436E+02 -.361E+03   -.247E+01 0.481E+02 0.364E+03   0.255E+00 -.455E+01 -.321E+01
   -.221E+01 0.436E+02 -.361E+03   0.247E+01 -.481E+02 0.364E+03   -.256E+00 0.455E+01 -.321E+01
   -.365E+02 -.236E+01 -.374E+03   0.412E+02 0.260E+01 0.371E+03   -.475E+01 -.248E+00 0.271E+01
   0.365E+02 0.235E+01 -.374E+03   -.412E+02 -.260E+01 0.371E+03   0.475E+01 0.247E+00 0.271E+01
   -.111E+00 -.395E-01 0.365E+04   0.111E+00 0.396E-01 -.365E+04   0.493E-04 -.197E-04 0.820E+00
   -.111E-03 -.536E-01 0.383E+04   0.115E-03 0.537E-01 -.382E+04   -.138E-05 -.216E-04 -.474E+01
   -.615E-03 -.542E-01 0.186E+04   0.633E-03 0.544E-01 -.186E+04   -.534E-05 -.313E-04 -.132E+00
   -.125E+00 -.576E-01 0.186E+04   0.124E+00 0.581E-01 -.186E+04   0.243E-03 -.712E-04 0.280E+00
   -.412E+00 -.234E+00 0.241E+01   0.404E+00 0.233E+00 -.186E+01   0.187E-02 0.137E-03 -.131E+00
   -.808E-02 -.421E+00 0.125E+02   0.823E-02 0.423E+00 -.132E+02   -.331E-04 -.771E-03 0.254E+00
   -.197E-01 -.143E+01 -.181E+04   0.197E-01 0.143E+01 0.181E+04   -.343E-05 -.866E-03 0.415E+00
   -.397E+01 -.342E+01 -.186E+04   0.397E+01 0.343E+01 0.186E+04   -.178E-02 -.338E-02 -.676E+00
   -.332E+02 -.136E+02 -.360E+04   0.332E+02 0.136E+02 0.360E+04   0.235E-01 -.823E-02 -.114E+01
   -.548E-01 -.512E+01 -.366E+04   0.544E-01 0.513E+01 0.366E+04   0.571E-03 -.852E-02 0.221E+01
   -.109E+00 -.395E-01 0.365E+04   0.108E+00 0.396E-01 -.365E+04   0.958E-04 -.250E-04 0.820E+00
   -.540E-04 0.105E-05 0.383E+04   0.553E-04 -.123E-05 -.382E+04   -.199E-05 -.116E-05 -.474E+01
   -.621E-03 -.548E-01 0.186E+04   0.638E-03 0.550E-01 -.186E+04   -.443E-05 -.354E-04 -.132E+00
   -.148E+00 -.741E-03 0.186E+04   0.147E+00 0.755E-03 -.186E+04   0.319E-03 -.507E-06 0.280E+00
   -.661E+00 -.272E+00 0.181E+01   0.657E+00 0.279E+00 -.126E+01   0.954E-03 -.114E-02 -.132E+00
   -.473E-03 0.812E-05 0.120E+02   0.477E-03 -.718E-05 -.128E+02   -.180E-05 -.445E-07 0.253E+00
   -.238E-01 -.139E+01 -.181E+04   0.237E-01 0.139E+01 0.181E+04   0.102E-03 -.190E-02 0.414E+00
   -.296E+01 -.154E-01 -.186E+04   0.296E+01 0.156E-01 0.186E+04   0.428E-02 -.189E-03 -.671E+00
   -.117E+02 -.965E+01 -.362E+04   0.117E+02 0.966E+01 0.362E+04   0.137E-01 -.258E-02 -.115E+01
   -.298E-02 0.216E-04 -.366E+04   0.298E-02 -.147E-04 0.366E+04   -.115E-05 0.603E-06 0.221E+01
   -.109E+00 0.394E-01 0.365E+04   0.108E+00 -.396E-01 -.365E+04   0.987E-04 0.207E-04 0.820E+00
   -.352E-05 0.536E-01 0.383E+04   0.185E-05 -.537E-01 -.382E+04   -.268E-06 0.207E-04 -.474E+01
   0.373E-03 0.548E-01 0.186E+04   -.384E-03 -.550E-01 -.186E+04   0.296E-05 0.349E-04 -.132E+00
   -.125E+00 0.576E-01 0.186E+04   0.124E+00 -.581E-01 -.186E+04   0.243E-03 0.715E-04 0.280E+00
   -.663E+00 0.262E+00 0.179E+01   0.659E+00 -.268E+00 -.124E+01   0.978E-03 0.986E-03 -.132E+00
   0.677E-02 0.421E+00 0.125E+02   -.691E-02 -.423E+00 -.132E+02   0.309E-04 0.771E-03 0.254E+00
   0.203E-01 0.139E+01 -.181E+04   -.203E-01 -.139E+01 0.181E+04   -.105E-03 0.190E-02 0.414E+00
   -.399E+01 0.343E+01 -.186E+04   0.400E+01 -.343E+01 0.186E+04   -.152E-02 0.270E-02 -.676E+00
   -.117E+02 0.958E+01 -.362E+04   0.117E+02 -.959E+01 0.362E+04   0.138E-01 0.254E-02 -.115E+01
   0.433E-01 0.512E+01 -.366E+04   -.429E-01 -.513E+01 0.366E+04   -.566E-03 0.852E-02 0.221E+01
   -.111E+00 0.395E-01 0.365E+04   0.111E+00 -.397E-01 -.365E+04   0.536E-04 0.211E-04 0.820E+00
   -.596E-04 0.143E-05 0.383E+04   0.614E-04 0.123E-05 -.382E+04   -.570E-06 -.206E-06 -.474E+01
   0.323E-03 0.542E-01 0.186E+04   -.335E-03 -.544E-01 -.186E+04   0.288E-05 0.316E-04 -.132E+00
   -.102E+00 0.696E-03 0.186E+04   0.101E+00 -.709E-03 -.186E+04   0.129E-03 -.218E-06 0.280E+00
   -.413E+00 0.245E+00 0.240E+01   0.406E+00 -.245E+00 -.185E+01   0.188E-02 0.275E-04 -.131E+00
   -.786E-03 -.420E-05 0.129E+02   0.793E-03 0.451E-05 -.137E+02   -.177E-05 0.365E-06 0.254E+00
   0.140E-01 0.143E+01 -.181E+04   -.140E-01 -.143E+01 0.181E+04   0.466E-05 0.865E-03 0.415E+00
   -.522E+01 0.174E-01 -.185E+04   0.522E+01 -.180E-01 0.185E+04   0.961E-03 0.541E-03 -.686E+00
   -.330E+02 0.136E+02 -.360E+04   0.330E+02 -.136E+02 0.360E+04   0.229E-01 0.756E-02 -.114E+01
   -.813E-02 -.548E-04 -.366E+04   0.815E-02 0.458E-04 0.365E+04   -.140E-04 -.412E-06 0.220E+01
   0.111E+00 -.395E-01 0.365E+04   -.111E+00 0.397E-01 -.365E+04   -.516E-04 -.232E-04 0.820E+00
   0.111E-03 -.578E-01 0.383E+04   -.113E-03 0.580E-01 -.382E+04   0.267E-05 -.606E-04 -.474E+01
   0.577E-03 -.143E-01 0.186E+04   -.594E-03 0.185E-01 -.186E+04   0.397E-05 -.105E-02 -.132E+00
   0.125E+00 -.576E-01 0.186E+04   -.124E+00 0.581E-01 -.186E+04   -.243E-03 -.720E-04 0.280E+00
   0.413E+00 -.244E+00 0.240E+01   -.406E+00 0.244E+00 -.185E+01   -.188E-02 -.268E-04 -.131E+00
   0.638E-02 -.165E+00 0.134E+02   -.653E-02 0.142E+00 -.141E+02   0.266E-04 0.117E-01 0.244E+00
   0.160E-01 -.281E+01 -.181E+04   -.160E-01 0.280E+01 0.181E+04   0.769E-05 -.166E-02 0.415E+00
   0.400E+01 -.343E+01 -.186E+04   -.400E+01 0.343E+01 0.186E+04   0.151E-02 -.268E-02 -.676E+00
   0.330E+02 -.136E+02 -.360E+04   -.330E+02 0.136E+02 0.360E+04   -.228E-01 -.754E-02 -.114E+01
   0.135E+00 -.338E+02 -.363E+04   -.134E+00 0.338E+02 0.363E+04   -.171E-02 0.143E-01 0.227E+01
   0.109E+00 -.394E-01 0.365E+04   -.108E+00 0.395E-01 -.365E+04   -.928E-04 -.201E-04 0.820E+00
   0.534E-04 0.270E-06 0.383E+04   -.553E-04 -.141E-05 -.382E+04   0.272E-06 0.169E-05 -.474E+01
   0.571E-03 -.162E-01 0.186E+04   -.588E-03 0.181E-01 -.186E+04   0.501E-05 -.597E-03 -.132E+00
   0.148E+00 0.745E-03 0.186E+04   -.147E+00 -.759E-03 -.186E+04   -.319E-03 -.205E-06 0.280E+00
   0.663E+00 -.261E+00 0.179E+01   -.660E+00 0.267E+00 -.124E+01   -.978E-03 -.983E-03 -.132E+00
[...]
   -.495E+02 0.168E-01 0.112E+04   0.533E+02 -.172E-01 -.112E+04   -.336E+01 0.737E-03 0.180E+00
   0.495E+02 0.173E-01 0.112E+04   -.533E+02 -.178E-01 -.112E+04   0.336E+01 0.775E-03 0.180E+00
   0.122E+00 -.149E-02 0.485E+03   -.119E+00 0.165E-02 -.489E+03   -.375E-02 -.309E-03 0.414E+01
   0.505E+00 -.609E-02 -.493E+03   -.497E+00 0.621E-02 0.500E+03   -.780E-02 -.243E-03 -.613E+01
   -.510E+02 -.251E-01 0.651E+01   0.554E+02 0.217E-01 -.669E+01   -.478E+01 0.118E-01 0.233E+00
   0.510E+02 -.285E-01 0.652E+01   -.554E+02 0.252E-01 -.669E+01   0.478E+01 0.116E-01 0.233E+00
   0.103E-02 -.164E-03 -.610E+03   -.103E-02 0.174E-03 0.604E+03   -.512E-05 -.107E-05 0.568E+01
   0.660E-02 -.665E-04 -.154E+04   -.682E-02 0.363E-04 0.154E+04   0.210E-03 0.409E-04 0.120E+01
   -.263E+02 0.176E+01 -.109E+04   0.292E+02 -.178E+01 0.109E+04   -.285E+01 0.285E-01 0.604E+00
   0.263E+02 0.177E+01 -.109E+04   -.292E+02 -.180E+01 0.109E+04   0.285E+01 0.292E-01 0.606E+00
   0.113E+02 -.112E+00 -.173E+04   -.114E+02 0.119E+00 0.173E+04   0.605E-01 -.680E-02 -.159E+01
   0.387E+02 -.616E-01 -.260E+04   -.388E+02 0.633E-01 0.262E+04   0.763E-01 -.184E-02 -.208E+02
   -.411E+02 0.216E+02 -.222E+04   0.473E+02 -.216E+02 0.222E+04   -.617E+01 -.429E-02 -.350E+01
   0.411E+02 0.216E+02 -.222E+04   -.473E+02 -.216E+02 0.222E+04   0.617E+01 -.646E-02 -.345E+01
   0.144E-02 -.537E-02 0.103E+03   -.753E-12 -.183E-11 -.205E-10   -.144E-02 0.538E-02 -.103E+03

 POSITION                                       TOTAL-FORCE (eV/Angst)
      6.57263      6.05235     24.96067         0.001084      0.006623     -0.002887
      6.52293      6.94952     25.58741         0.002475     -0.003405     -0.000939
      6.62248      5.15551     25.58746        -0.002345     -0.002599      0.002855
      7.49751      6.10164     24.36617         0.001936     -0.002598      0.000784
      5.64765      6.00315     24.36640        -0.003374      0.002034      0.000021
      9.85781      7.56556      8.78373        -0.000099      0.000117     -3.245901
      0.00000      9.07867      8.78373         0.000003      0.000071      2.638104
      0.00000      7.56556     12.06967         0.000013      0.000169      0.486395
      9.85781      9.07867     12.06967        -0.000662      0.000406     -0.730107
      9.85781      7.56556     15.35560        -0.005633     -0.000742      0.409993
      0.00000      9.07867     15.35560         0.000115      0.001629     -0.528317
      0.00000      7.56564     18.58313         0.000030      0.002575      0.000328
      9.85814      9.07890     18.72851        -0.000764      0.001294     -0.000459
      9.85864      7.56726     22.10885         0.000591      0.001729      0.002482
      0.00018      9.07905     21.79589         0.000043      0.004042     -0.001135
      9.85781     10.59178      8.78373        -0.000180      0.000137     -3.245878
      0.00000      0.00000      8.78373        -0.000001     -0.000001      2.638079
      0.00000     10.59178     12.06967         0.000013      0.000153      0.486595
      9.85781      0.00000     12.06967        -0.000872      0.000013     -0.729833
      9.85781     10.59178     15.35560        -0.002691      0.005855      0.413491
      0.00000      0.00000     15.35560         0.000002      0.000001     -0.526764
     13.14374     10.59188     18.58346         0.000021      0.002671      0.001346
      9.85770      0.00001     18.73005        -0.000434      0.000070     -0.001845
      9.85709     10.59224     22.11529         0.000598      0.001765      0.000208
     13.14375     12.10489     21.79622        -0.000000      0.000007     -0.001881
      9.85781      1.51311      8.78373        -0.000176     -0.000130     -3.245865
      0.00000      3.02622      8.78373        -0.000002     -0.000075      2.638105
      0.00000      1.51311     12.06967        -0.000008     -0.000153      0.486595
      9.85781      3.02622     12.06967        -0.000661     -0.000404     -0.729991
      9.85781      1.51311     15.35560        -0.002701     -0.005064      0.414035
      0.00000      3.02622     15.35560        -0.000106     -0.001631     -0.528315
      0.00000      1.51302     18.58346        -0.000023     -0.002666      0.001351
      9.85811      3.02603     18.72873        -0.000887     -0.001257     -0.000336
      9.85699      1.51277     22.11531         0.000589     -0.001561      0.000383
     13.14357      3.02585     21.79589        -0.000037     -0.004035     -0.001139
      9.85781      4.53934      8.78373        -0.000095     -0.000126     -3.245891
      0.00000      6.05245      8.78373         0.000001      0.000002      2.638112
      0.00000      4.53934     12.06967        -0.000010     -0.000168      0.486396
      9.85781      6.05245     12.06967        -0.000446     -0.000014     -0.730181
      9.85781      4.53934     15.35560        -0.005641     -0.000054      0.410545
      0.00000      6.05245     15.35560         0.000005      0.000001     -0.529330
     13.14375      4.53925     18.58313        -0.000029     -0.002582      0.000332
      9.85839      6.05243     18.72907        -0.001383     -0.000015     -0.001671
      9.85821      4.53796     22.10974         0.000292     -0.001815      0.002591
      0.00000      6.05245     21.79524         0.000010     -0.000009     -0.001331
      3.28594      7.56556      8.78373         0.000097      0.000130     -3.245885
      6.57187      9.07867      8.78373         0.000002      0.000205      2.638794
      6.57187      7.56556     12.06967        -0.000013      0.003119      0.487627
      3.28594      9.07867     12.06967         0.000661      0.000404     -0.729986
      3.28594      7.56556     15.35560         0.005640      0.000046      0.410566
      6.57187      9.07867     15.35560        -0.000119     -0.011041     -0.491985
      6.57188      7.56102     18.59482        -0.000012     -0.001893     -0.003393
      3.28564      9.07887     18.72873         0.000884      0.001257     -0.000357
      3.28555      7.56693     22.10976        -0.000333      0.001772      0.002603
      6.57188      9.08042     21.79102         0.000136      0.004445     -0.007091
      3.28594     10.59178      8.78373         0.000183      0.000126     -3.245862
      6.57187      0.00000      8.78373        -0.000002      0.000001      2.638968
      6.57187     10.59178     12.06967        -0.000012      0.001352      0.489388
      3.28594      0.00000     12.06967         0.000872     -0.000014     -0.729831
      3.28594     10.59178     15.35560         0.002701      0.005051      0.414044
[...]
      6.57187      6.05245     13.35340         0.000001      0.000001     -0.155539
      4.56967      4.53934     12.06967         0.400186      0.000257      0.059673
      8.57408      4.53934     12.06967        -0.400194      0.000276      0.059668
      3.28594      6.05245     14.07187        -0.001055     -0.000149     -0.006939
      3.28594      6.05245     16.63933         0.000151     -0.000126      0.145825
      7.85560      4.53934     15.35560        -0.329490      0.008219      0.053761
      5.28814      4.53934     15.35560         0.329325      0.008168      0.053796
      6.57187      6.05245     17.36805        -0.000000      0.000009      0.006647
      6.57187      6.05245     19.94772        -0.000005      0.000010     -0.004379
      4.59364      4.53936     18.65415        -0.000539      0.000696      0.000668
      8.55010      4.53940     18.65411         0.000515      0.000785      0.000498
      3.27876      6.05259     20.64545        -0.004215      0.000053     -0.000474
      3.29744      6.05195     23.21780         0.000256     -0.000095     -0.000824
      7.80228      4.53038     22.07299         0.001134     -0.000600     -0.003013
      5.34093      4.53008     22.07101        -0.001375     -0.000785     -0.003500
    total drift:                                0.000005      0.000006     -0.012920

  FREE ENERGIE OF THE ION-ELECTRON SYSTEM (eV)
  free  energy   TOTEN  =     -1937.49011744 eV

  energy  without entropy=    -1937.49011744  energy(sigma->0) =    -1937.49011744

 reached required accuracy - stopping structural energy minimisation