 vasp.6.4.2 20Jul23 (build Feb 22 2024 13:53:45) complex
 executed on              LinuxNV date 2024.08.27  22:11:02
 OpenACC runtime initialized ...    4 GPUs detected

 INCAR:
   SYSTEM = Oxide-Surface
   ISMEAR = 0
   SIGMA = 0.05
   EDIFF = 1E-5
   ALGO = Normal
   IBRION = -1
   NSW = 0
   ISYM = 0
   DIPOL = 0.5 0.5 0.5
   IDIPOL = 3
   LDIPOL = .TRUE.
   ISTART = 1
   LHFCALC = .TRUE.
   HFSCREEN = 0.2
   GGA = PE
   HFRCUT = -1
   ENCUT = 520
   PREC = Normal
   PRECFOCK = Normal
   LASPH = .TRUE.
   LREAL = Auto
   ISPIN = 1
   NELM = 200
   NELMIN = 8
   NCORE = 1
   KPAR = 1
   LWAVE = .FALSE.
   LCHARG = .FALSE.

 POTCAR:    PAW_PBE N 08Apr2002
 POTCAR:    PAW_PBE H 15Jun2001
 POTCAR:    PAW_PBE Mg_pv 13Apr2007
 POTCAR:    PAW_PBE O 08Apr2002
 POTCAR:    PAW_PBE N 08Apr2002
   VRHFIN =N: s2p3

   TITEL  = PAW_PBE N 08Apr2002
   POMASS =   14.001; ZVAL   =    5.000    mass and valenz
   ENMAX  =  400.000; ENMIN  =  300.000 eV

   TITEL  = PAW_PBE H 15Jun2001
   POMASS =    1.000; ZVAL   =    1.000    mass and valenz
   ENMAX  =  250.000; ENMIN  =  200.000 eV

   TITEL  = PAW_PBE Mg_pv 13Apr2007
   POMASS =   24.305; ZVAL   =    8.000    mass and valenz
   ENMAX  =  403.929; ENMIN  =  302.947 eV

   TITEL  = PAW_PBE O 08Apr2002
   POMASS =   16.000; ZVAL   =    6.000    mass and valenz
   ENMAX  =  400.000; ENMIN  =  300.000 eV

 Optimization of the real space projectors (new method)

 maximal supplied QI-value         = 25.13
 optimisation between [QCUT,QGAM] = [ 11.56, 23.12] = [ 37.43,149.72] Ry
 Optimized for a Real-space Cutoff    1.25 Angstroem

   l    n(q)    QCUT    max X(q) W(low)/X(q) W(high)/X(q)  e(spline)
   0      9    11.561    79.467    0.52E-04    0.16E-03    0.37E-06
   0      9    11.561    66.151    0.51E-04    0.16E-03    0.37E-06
   1      8    11.561    18.886    0.46E-03    0.28E-03    0.80E-06
   1      8    11.561    13.488    0.47E-03    0.29E-03    0.82E-06
 Optimization of the real space projectors (new method)

[...]

   l    n(q)    QCUT    max X(q) W(low)/X(q) W(high)/X(q)  e(spline)
   1      8    11.527     2.974    0.16E-03    0.13E-03    0.98E-07
   1      8    11.527     4.279    0.42E-03    0.30E-03    0.22E-06
   0      8    11.527    16.381    0.13E-03    0.20E-03    0.72E-07
   0      8    11.527     5.611    0.88E-04    0.13E-03    0.50E-07
   2      7    11.527     4.652    0.25E-03    0.73E-04    0.51E-07
 Optimization of the real space projectors (new method)

 maximal supplied QI-value         = 24.76
 optimisation between [QCUT,QGAM] = [ 11.64, 23.27] = [ 37.91,151.63] Ry
 Optimized for a Real-space Cutoff    1.04 Angstroem

   l    n(q)    QCUT    max X(q) W(low)/X(q) W(high)/X(q)  e(spline)
   0      7    11.635    20.381    0.14E-03    0.49E-03    0.18E-06
   0      7    11.635    15.268    0.16E-03    0.52E-03    0.19E-06
   1      7    11.635     5.964    0.30E-03    0.44E-03    0.22E-06
   1      7    11.635     5.382    0.27E-03    0.34E-03    0.19E-06
  PAW_PBE N 08Apr2002                   :
  PAW_PBE H 15Jun2001                   :
  PAW_PBE Mg_pv 13Apr2007               :
  PAW_PBE O 08Apr2002                   :

 POSCAR:  N  H Mg  O
  positions in direct lattice
 exchange correlation table for  LEXCH =        8
   RHO(1)=    0.500       N(1)  =     2000
   RHO(2)=  100.500       N(2)  =     4000

 ion  position               nearest neighbor table
   1  0.500  0.516  0.743-   4 1.02   3 1.02   2 1.02
   2  0.500  0.635  0.753-   1 1.02
   3  0.402  0.469  0.770-   1 1.02
   4  0.598  0.469  0.770-   1 1.02
   5  0.000  0.750  0.230-  37 2.11  47 2.11  40 2.11  39 2.11  56 2.11
   6  0.250  0.000  0.230-  38 2.11  39 2.11  40 2.11  48 2.11  55 2.11
   7  0.000  0.000  0.354-  39 2.11  38 2.11  37 2.11  45 2.11  54 2.11  43 2.12
   8  0.250  0.750  0.354-  40 2.11  46 2.11  37 2.11  38 2.11  53 2.11  44 2.12
   9  0.000  0.750  0.479-  51 2.11  44 2.11  60 2.11  43 2.11  37 2.12  41 2.16
  10  0.250  1.000  0.479-  59 2.11  52 2.11  44 2.11  43 2.11  38 2.12  42 2.16
  11  0.000  1.000  0.603-  43 2.10  42 2.11  58 2.11  49 2.11  41 2.11
  12  0.250  0.750  0.602-  44 2.09  41 2.11  42 2.11  50 2.11  57 2.11
  13  0.000  0.250  0.230-  45 2.11  39 2.11  48 2.11  64 2.11  47 2.11
  14  0.250  0.500  0.230-  46 2.11  40 2.11  47 2.11  63 2.11  48 2.11
  15  0.000  0.500  0.354-  47 2.11  37 2.11  46 2.11  62 2.11  45 2.11  51 2.11
  16  0.250  0.250  0.354-  48 2.11  45 2.11  38 2.11  61 2.11  46 2.11  52 2.12
  17  1.000  0.250  0.479-  51 2.11  68 2.11  52 2.11  43 2.11  45 2.12  49 2.16
  18  0.251  0.500  0.480-  67 2.10  52 2.11  44 2.11  51 2.12  46 2.13  50 2.15
  19  0.000  0.500  0.602-  66 2.09  50 2.09  51 2.10  49 2.12  41 2.12
  20  0.250  0.250  0.602-  52 2.10  42 2.11  49 2.11  65 2.11  50 2.11
  21  0.500  0.750  0.230-  53 2.11  63 2.11  55 2.11  56 2.11  40 2.11
  22  0.750  0.000  0.230-  54 2.11  39 2.11  55 2.11  56 2.11  64 2.11
  23  0.500  0.000  0.354-  55 2.11  53 2.11  54 2.11  38 2.11  61 2.11  59 2.11
  24  0.750  0.750  0.354-  56 2.11  62 2.11  54 2.11  37 2.11  53 2.11  60 2.12
  25  0.500  0.749  0.480-  67 2.10  60 2.11  44 2.11  59 2.12  53 2.13  57 2.15
  26  0.750  1.000  0.479-  59 2.11  68 2.11  60 2.11  43 2.11  54 2.12  58 2.16
  27  0.500  0.000  0.602-  65 2.09  57 2.09  59 2.10  42 2.12  58 2.12
  28  0.750  0.750  0.602-  60 2.09  41 2.11  58 2.11  66 2.11  57 2.11
  29  0.500  0.250  0.230-  61 2.11  55 2.11  48 2.11  64 2.11  63 2.11
  30  0.750  0.500  0.230-  62 2.11  56 2.11  47 2.11  63 2.11  64 2.11
  31  0.500  0.500  0.354-  63 2.11  53 2.11  62 2.11  46 2.11  61 2.11  67 2.14
  32  0.750  0.250  0.354-  64 2.11  54 2.11  61 2.11  45 2.11  62 2.11  68 2.12
  33  0.500  0.251  0.480-  67 2.10  52 2.11  68 2.11  59 2.12  61 2.13  65 2.14
  34  0.749  0.500  0.480-  67 2.10  68 2.11  60 2.11  51 2.12  62 2.13  66 2.15
  35  0.500  0.499  0.611-  65 2.12  66 2.13  50 2.13  57 2.15  67 2.22
  36  0.750  0.250  0.602-  68 2.10  58 2.11  49 2.11  65 2.11  66 2.11
  37  0.000  0.750  0.354-   5 2.11  15 2.11   8 2.11   7 2.11  24 2.11   9 2.12
  38  0.250  0.000  0.354-   6 2.11   7 2.11   8 2.11  16 2.11  23 2.11  10 2.12
  39  0.000  0.000  0.230-   7 2.11   6 2.11   5 2.11  13 2.11  22 2.11
  40  0.250  0.750  0.230-   8 2.11  14 2.11   5 2.11   6 2.11  21 2.11
  41  1.000  0.750  0.606-  11 2.11  28 2.11  12 2.11  19 2.12   9 2.16
  42  0.249  1.000  0.606-  11 2.11  20 2.11  12 2.11  27 2.12  10 2.16
  43  1.000  1.000  0.479-  11 2.10   9 2.11  26 2.11  10 2.11  17 2.11   7 2.12
  44  0.250  0.750  0.479-  12 2.09  10 2.11   9 2.11  25 2.11  18 2.11   8 2.12
  45  0.000  0.250  0.354-  13 2.11   7 2.11  16 2.11  32 2.11  15 2.11  17 2.12
  46  0.250  0.500  0.354-  14 2.11   8 2.11  15 2.11  31 2.11  16 2.11  18 2.13
  47  0.000  0.500  0.230-  15 2.11   5 2.11  14 2.11  30 2.11  13 2.11
  48  0.250  0.250  0.230-  16 2.11  13 2.11   6 2.11  29 2.11  14 2.11
  49  0.000  0.249  0.606-  11 2.11  36 2.11  20 2.11  19 2.12  17 2.16
  50  0.247  0.500  0.606-  19 2.09  12 2.11  20 2.11  35 2.13  18 2.15
  51  0.000  0.500  0.479-  19 2.10   9 2.11  17 2.11  15 2.11  34 2.12  18 2.12
  52  0.250  0.250  0.479-  20 2.10  10 2.11  17 2.11  18 2.11  33 2.11  16 2.12
  53  0.500  0.750  0.354-  21 2.11  31 2.11  23 2.11  24 2.11   8 2.11  25 2.13
  54  0.750  0.000  0.354-  22 2.11   7 2.11  23 2.11  24 2.11  32 2.11  26 2.12
  55  0.500  0.000  0.230-  23 2.11  21 2.11  22 2.11   6 2.11  29 2.11
  56  0.750  0.750  0.230-  24 2.11  30 2.11  22 2.11   5 2.11  21 2.11
  57  0.500  0.753  0.606-  27 2.09  12 2.11  28 2.11  35 2.15  25 2.15
  58  0.751  1.000  0.606-  11 2.11  36 2.11  28 2.11  27 2.12  26 2.16
  59  0.500  1.000  0.479-  27 2.10  26 2.11  10 2.11  23 2.11  25 2.12  33 2.12
  60  0.750  0.750  0.479-  28 2.09  26 2.11   9 2.11  25 2.11  34 2.11  24 2.12
  61  0.500  0.250  0.354-  29 2.11  23 2.11  16 2.11  32 2.11  31 2.11  33 2.13
  62  0.750  0.500  0.354-  30 2.11  24 2.11  15 2.11  31 2.11  32 2.11  34 2.13
  63  0.500  0.500  0.230-  31 2.11  21 2.11  30 2.11  14 2.11  29 2.11
  64  0.750  0.250  0.230-  32 2.11  22 2.11  29 2.11  13 2.11  30 2.11
  65  0.500  0.247  0.606-  27 2.09  20 2.11  36 2.11  35 2.12  33 2.14
  66  0.753  0.500  0.606-  19 2.09  28 2.11  36 2.11  35 2.13  34 2.15
  67  0.500  0.500  0.480-  25 2.10  18 2.10  34 2.10  33 2.10  31 2.14  35 2.22
  68  0.750  0.250  0.479-  36 2.10  26 2.11  17 2.11  34 2.11  33 2.11  32 2.12

IMPORTANT INFORMATION: All symmetrisations will be switched off!
NOSYMM: (Re-)initialisation of all symmetry stuff for point group C_1.

                                     Primitive cell

  volume of cell :    1211.2538

  direct lattice vectors                    reciprocal lattice vectors
     8.440984654  0.000000000  0.000000000     0.118469591  0.000000000  0.000000000
     0.000000000  8.440984654  0.000000000     0.000000000  0.118469591  0.000000000
     0.000000000  0.000000000 17.000000000     0.000000000  0.000000000  0.058823529

  length of vectors
     8.440984654  8.440984654 17.000000000     0.118469591  0.118469591  0.058823529

  position of ions in fractional coordinates (direct lattice)
     0.500000238  0.515521052  0.743122297
     0.499999982  0.635072459  0.752584339
     0.402069062  0.469398098  0.769809164
     0.597931074  0.469398359  0.769809375
     0.000000001  0.750005063  0.230190625
     0.250000001  0.000005063  0.230190625
     0.000000001  0.000005063  0.354322752
     0.250000001  0.750005063  0.354322752
     0.000000003  0.749688989  0.478992539
     0.250263523  0.999994937  0.479012029
     0.000000001  0.999958952  0.602562889
     0.249680170  0.750040946  0.602146405
     0.000000001  0.250005063  0.230190625
     0.250000001  0.500005063  0.230190625
     0.000000001  0.500005063  0.354322752
     0.250000001  0.250005063  0.354322752
     0.999999996  0.250234310  0.479017192
     0.251264403  0.499912485  0.479817993
     0.000000018  0.499894003  0.602327959
     0.249874846  0.249737023  0.602282337
     0.500000001  0.750005063  0.230190625
     0.750000001  0.000005063  0.230190625
     0.500000001  0.000005063  0.354322752
     0.750000001  0.750005063  0.354322752
     0.499999997  0.748694190  0.479856547
     0.749736478  0.999994937  0.479012045
     0.499999996  0.000235948  0.602315670
     0.750319839  0.750040932  0.602146398
     0.500000001  0.250005063  0.230190625
     0.750000001  0.500005063  0.230190625
     0.500000001  0.500005063  0.354322752
     0.750000001  0.250005063  0.354322752
     0.500000000  0.251193808  0.479761393
     0.748735611  0.499912479  0.479818037
     0.500000034  0.498643644  0.610784368
     0.750125162  0.249737020  0.602282348
     0.000000001  0.750005063  0.354322752
     0.250000001  0.000005063  0.354322752
     0.000000001  0.000005063  0.230190625
     0.250000001  0.750005063  0.230190625
     0.999999999  0.750491851  0.605981896
     0.249403678  0.999911150  0.606023354
     0.999999998  0.999937384  0.478809541
     0.249933155  0.750101855  0.478982330
     0.000000001  0.250005063  0.354322752
     0.250000001  0.500005063  0.354322752
     0.000000001  0.500005063  0.230190625
[...]
   6.33577204  8.44023460 10.30239739
   4.22049234  8.43993970  8.13821697
   6.33130268  6.33159822  8.14269972
   4.22049233  2.11028890  6.02348679
   6.33073850  4.22053507  6.02348679
   4.22049233  4.22053507  3.91324063
   6.33073850  2.11028890  3.91324063
   4.22049235  2.08775557 10.29781240
   6.35291192  4.21992417 10.30231887
   4.22049238  4.22088659  8.16096527
   6.33227031  2.10861253  8.14203162

--------------------------------------- Iteration      FINAL  ---------------------------------------

--------------------OUTCAR has been truncated-------------------------

[...]

--------------------OUTCAR has been truncated-------------------------

 VOLUME and BASIS-vectors are now :
  energy-cutoff  :      520.00
  volume of cell :     1211.25
      direct lattice vectors                 reciprocal lattice vectors
     8.440984654  0.000000000  0.000000000     0.118469591  0.000000000  0.000000000
     0.000000000  8.440984654  0.000000000     0.000000000  0.118469591  0.000000000
     0.000000000  0.000000000 17.000000000     0.000000000  0.000000000  0.058823529

  length of vectors
     8.440984654  8.440984654 17.000000000     0.118469591  0.118469591  0.058823529

 FORCES acting on ions
    electron-ion (+dipol)            ewald-force                    non-local-force                 convergence-correction
   -.703E-04 0.804E+01 -.956E+03   0.922E-04 -.130E+02 0.931E+03   -.781E-04 0.461E+01 0.229E+02   0.834E-07 0.261E-03 0.120E+00
   0.141E-03 -.701E+02 -.196E+03   -.154E-03 0.771E+02 0.197E+03   0.152E-04 -.699E+01 -.859E+00   0.277E-07 -.368E-03 0.244E-01
   0.581E+02 0.280E+02 -.197E+03   -.638E+02 -.307E+02 0.200E+03   0.578E+01 0.275E+01 -.294E+01   0.107E-03 0.513E-04 0.235E-01
   -.581E+02 0.280E+02 -.197E+03   0.638E+02 -.307E+02 0.200E+03   -.578E+01 0.275E+01 -.294E+01   -.107E-03 0.513E-04 0.235E-01
   0.551E-05 -.267E+00 0.172E+04   -.565E-05 0.264E+00 -.171E+04   0.180E-06 0.208E-02 -.682E+01   -.200E-06 0.510E-04 -.174E+00
   0.268E+00 -.329E-01 0.172E+04   -.264E+00 0.321E-01 -.171E+04   -.253E-02 0.540E-03 -.682E+01   -.361E-04 -.893E-05 -.174E+00
   0.176E-04 -.478E-01 0.584E+03   -.190E-04 0.531E-01 -.584E+03   0.816E-06 -.341E-02 0.476E+00   0.145E-06 -.340E-04 -.974E-01
   -.281E+00 0.281E+00 0.584E+03   0.349E+00 -.339E+00 -.584E+03   -.425E-01 0.359E-01 0.529E+00   0.223E-03 -.206E-03 -.969E-01
   0.111E-04 -.277E+01 -.540E+03   -.993E-05 0.269E+01 0.540E+03   -.684E-06 0.786E-01 0.188E-01   -.811E-06 -.637E-03 0.143E-01
   0.281E+01 -.237E+00 -.540E+03   -.272E+01 0.253E+00 0.540E+03   -.761E-01 -.134E-01 0.230E-01   0.690E-03 -.116E-03 0.143E-01
   -.242E-04 -.949E+00 -.167E+04   0.243E-04 0.962E+00 0.167E+04   0.392E-06 -.110E-01 0.573E+01   -.654E-06 -.383E-05 0.116E+00
   0.208E+02 -.199E+02 -.165E+04   -.210E+02 0.200E+02 0.164E+04   0.118E+00 -.572E-01 0.587E+01   0.252E-02 -.213E-02 0.115E+00
   0.492E-05 0.267E+00 0.172E+04   -.531E-05 -.263E+00 -.171E+04   0.389E-06 -.190E-02 -.682E+01   -.136E-06 -.405E-04 -.174E+00
   0.313E+00 0.327E-01 0.172E+04   -.304E+00 -.322E-01 -.171E+04   -.545E-02 -.334E-03 -.685E+01   -.883E-04 0.181E-05 -.174E+00
   0.365E-04 0.389E-01 0.584E+03   -.398E-04 -.477E-01 -.584E+03   0.185E-05 0.553E-02 0.381E+00   -.209E-06 0.328E-04 -.969E-01
   -.249E+00 -.290E+00 0.584E+03   0.295E+00 0.344E+00 -.584E+03   -.280E-01 -.333E-01 0.510E+00   0.228E-03 0.203E-03 -.969E-01
   -.138E-04 0.277E+01 -.541E+03   0.122E-04 -.268E+01 0.541E+03   0.225E-05 -.786E-01 0.342E-01   -.591E-06 0.629E-03 0.143E-01
   0.274E+01 0.235E+00 -.536E+03   -.238E+01 -.248E+00 0.537E+03   -.324E+00 0.112E-01 -.386E+00   0.851E-03 0.124E-03 0.165E-01
   -.970E-04 0.107E+01 -.166E+04   0.939E-04 -.108E+01 0.165E+04   0.303E-05 0.108E-01 0.571E+01   -.426E-06 0.121E-04 0.114E+00
   0.188E+02 0.194E+02 -.165E+04   -.189E+02 -.194E+02 0.164E+04   0.496E-01 0.656E-01 0.587E+01   0.197E-02 0.205E-02 0.115E+00
   -.538E-05 -.312E+00 0.172E+04   0.566E-05 0.304E+00 -.171E+04   -.565E-06 0.501E-02 -.686E+01   0.462E-06 0.891E-04 -.174E+00
   -.268E+00 -.329E-01 0.172E+04   0.264E+00 0.321E-01 -.171E+04   0.253E-02 0.539E-03 -.682E+01   0.362E-04 -.878E-05 -.174E+00
   -.196E-04 -.331E-03 0.584E+03   0.208E-04 -.149E-01 -.584E+03   -.345E-06 0.967E-02 0.384E+00   0.427E-06 -.289E-04 -.969E-01
   0.281E+00 0.281E+00 0.584E+03   -.349E+00 -.339E+00 -.584E+03   0.425E-01 0.359E-01 0.529E+00   -.223E-03 -.206E-03 -.969E-01
   0.252E-06 -.253E+01 -.537E+03   0.450E-06 0.217E+01 0.538E+03   -.596E-07 0.319E+00 -.249E+00   -.299E-06 -.765E-03 0.171E-01
   -.281E+01 -.237E+00 -.540E+03   0.272E+01 0.253E+00 0.540E+03   0.761E-01 -.134E-01 0.230E-01   -.690E-03 -.116E-03 0.143E-01
   0.774E-05 -.265E+01 -.166E+04   -.806E-05 0.268E+01 0.165E+04   0.154E-06 -.254E-01 0.570E+01   0.553E-06 -.501E-03 0.115E+00
   -.208E+02 -.199E+02 -.165E+04   0.210E+02 0.200E+02 0.164E+04   -.118E+00 -.572E-01 0.587E+01   -.252E-02 -.213E-02 0.115E+00
   -.511E-05 0.311E+00 0.172E+04   0.546E-05 -.304E+00 -.171E+04   -.420E-06 -.483E-02 -.685E+01   0.261E-06 -.981E-04 -.174E+00
   -.313E+00 0.327E-01 0.172E+04   0.304E+00 -.322E-01 -.171E+04   0.545E-02 -.335E-03 -.685E+01   0.879E-04 0.203E-05 -.174E+00
   -.377E-04 -.635E-02 0.581E+03   0.417E-04 0.174E-01 -.582E+03   -.294E-05 -.716E-02 0.595E+00   0.765E-06 0.337E-04 -.962E-01
   0.249E+00 -.290E+00 0.584E+03   -.295E+00 0.344E+00 -.584E+03   0.280E-01 -.334E-01 0.510E+00   -.228E-03 0.203E-03 -.969E-01
   -.871E-05 0.272E+01 -.536E+03   0.890E-05 -.237E+01 0.536E+03   0.123E-06 -.315E+00 -.445E+00   -.252E-06 0.805E-03 0.164E-01
   -.274E+01 0.235E+00 -.536E+03   0.238E+01 -.248E+00 0.537E+03   0.324E+00 0.112E-01 -.386E+00   -.850E-03 0.124E-03 0.165E-01
   0.144E-03 0.593E+01 -.157E+04   -.136E-03 -.624E+01 0.157E+04   -.664E-05 0.270E+00 0.905E+00   0.141E-06 0.110E-02 0.137E+00
   -.188E+02 0.194E+02 -.165E+04   0.189E+02 -.194E+02 0.164E+04   -.496E-01 0.656E-01 0.587E+01   -.197E-02 0.205E-02 0.115E+00
   0.181E-04 -.911E-01 0.438E+03   -.183E-04 0.699E-01 -.438E+03   0.532E-06 0.266E-01 -.300E-01   0.126E-06 -.145E-03 -.760E-01
   0.952E-01 0.284E-03 0.438E+03   -.717E-01 0.354E-02 -.438E+03   -.292E-01 -.468E-02 -.406E-01   0.158E-03 -.247E-04 -.760E-01
   0.314E-05 -.240E-01 0.129E+04   -.344E-05 0.247E-01 -.129E+04   0.235E-06 -.714E-03 0.311E+01   -.123E-06 -.873E-05 -.134E+00
   0.215E+00 -.213E+00 0.129E+04   -.206E+00 0.206E+00 -.129E+04   -.107E-01 0.871E-02 0.309E+01   -.306E-04 0.339E-04 -.133E+00
   -.389E-04 -.751E+01 -.127E+04   0.386E-04 0.736E+01 0.128E+04   0.144E-05 0.138E+00 -.461E+01   -.679E-06 -.670E-03 0.871E-01
   0.758E+01 -.130E+01 -.127E+04   -.742E+01 0.129E+01 0.128E+04   -.150E+00 0.156E-01 -.460E+01   0.751E-03 -.111E-03 0.871E-01
   0.150E-05 -.245E+00 -.402E+03   -.114E-05 0.250E+00 0.402E+03   -.651E-07 -.505E-02 0.286E+00   -.386E-06 -.420E-04 0.502E-02
   0.187E+01 -.187E+01 -.396E+03   -.186E+01 0.185E+01 0.395E+03   -.153E-01 0.263E-01 0.493E+00   0.678E-03 -.591E-03 0.578E-02
   0.134E-04 0.839E-01 0.438E+03   -.139E-04 -.583E-01 -.438E+03   0.604E-06 -.315E-01 -.468E-01   0.152E-06 0.147E-03 -.760E-01
   -.503E-01 -.834E-02 0.436E+03   0.743E-03 0.992E-02 -.436E+03   0.551E-01 -.141E-02 -.183E+00   0.168E-03 0.281E-04 -.757E-01
   0.508E-05 0.242E-01 0.129E+04   -.527E-05 -.247E-01 -.129E+04   0.664E-06 0.760E-03 0.309E+01   -.208E-06 -.149E-05 -.133E+00
   0.213E+00 0.213E+00 0.129E+04   -.207E+00 -.206E+00 -.129E+04   -.799E-02 -.869E-02 0.309E+01   -.312E-04 -.362E-04 -.133E+00
   -.392E-04 0.742E+01 -.127E+04   0.380E-04 -.726E+01 0.128E+04   0.210E-05 -.137E+00 -.459E+01   -.500E-06 0.649E-03 0.872E-01
   0.256E+02 0.180E+01 -.124E+04   -.248E+02 -.179E+01 0.124E+04   -.674E+00 -.138E-01 -.451E+01   0.384E-02 0.182E-03 0.885E-01
   -.598E-05 0.248E+00 -.396E+03   0.523E-05 -.252E+00 0.395E+03   0.870E-06 0.351E-02 0.372E+00   -.544E-06 0.494E-04 0.564E-02
   0.195E+01 0.188E+01 -.397E+03   -.192E+01 -.185E+01 0.396E+03   -.318E-01 -.268E-01 0.443E+00   0.575E-03 0.590E-03 0.567E-02
   -.173E-04 0.576E-01 0.436E+03   0.179E-04 -.578E-02 -.436E+03   -.949E-06 -.576E-01 -.191E+00   0.555E-06 -.157E-03 -.757E-01
   -.952E-01 0.287E-03 0.438E+03   0.717E-01 0.353E-02 -.438E+03   0.292E-01 -.468E-02 -.406E-01   -.158E-03 -.242E-04 -.760E-01
   -.320E-05 -.254E-01 0.129E+04   0.349E-05 0.239E-01 -.129E+04   -.218E-06 0.192E-02 0.309E+01   -.185E-06 0.327E-06 -.133E+00
   -.215E+00 -.213E+00 0.129E+04   0.206E+00 0.206E+00 -.129E+04   0.107E-01 0.871E-02 0.309E+01   0.303E-04 0.334E-04 -.133E+00
   0.276E-04 -.259E+02 -.123E+04   -.254E-04 0.250E+02 0.124E+04   -.157E-05 0.808E+00 -.435E+01   0.283E-06 -.395E-02 0.889E-01
   -.758E+01 -.130E+01 -.127E+04   0.742E+01 0.129E+01 0.128E+04   0.150E+00 0.156E-01 -.460E+01   -.751E-03 -.111E-03 0.871E-01
   -.111E-04 -.106E+00 -.396E+03   0.107E-04 0.111E+00 0.395E+03   0.162E-06 -.321E-02 0.372E+00   -.390E-06 -.156E-03 0.572E-02
   -.187E+01 -.187E+01 -.396E+03   0.186E+01 0.185E+01 0.395E+03   0.153E-01 0.263E-01 0.493E+00   -.677E-03 -.591E-03 0.578E-02
   -.163E-04 -.681E-01 0.436E+03   0.173E-04 0.217E-01 -.436E+03   -.900E-06 0.518E-01 -.169E+00   0.344E-06 0.156E-03 -.758E-01
   0.503E-01 -.834E-02 0.436E+03   -.746E-03 0.992E-02 -.436E+03   -.551E-01 -.141E-02 -.183E+00   -.168E-03 0.284E-04 -.757E-01
   -.513E-05 0.258E-01 0.129E+04   0.535E-05 -.241E-01 -.129E+04   -.906E-06 -.193E-02 0.306E+01   0.757E-06 0.676E-05 -.133E+00
   -.213E+00 0.213E+00 0.129E+04   0.207E+00 -.206E+00 -.129E+04   0.799E-02 -.869E-02 0.309E+01   0.311E-04 -.361E-04 -.133E+00
   0.409E-04 0.249E+02 -.124E+04   -.407E-04 -.243E+02 0.124E+04   -.485E-06 -.571E+00 -.456E+01   0.306E-07 0.359E-02 0.883E-01
   -.256E+02 0.180E+01 -.124E+04   0.248E+02 -.179E+01 0.124E+04   0.674E+00 -.138E-01 -.451E+01   -.384E-02 0.182E-03 0.885E-01
   0.160E-05 -.490E-01 -.408E+03   -.152E-05 0.429E-01 0.410E+03   0.715E-07 0.576E-02 -.109E+01   -.532E-06 0.138E-03 0.785E-02
   -.195E+01 0.188E+01 -.397E+03   0.192E+01 -.185E+01 0.396E+03   0.318E-01 -.268E-01 0.443E+00   -.574E-03 0.590E-03 0.567E-02
   0.949E-04 -.403E+01 0.805E+01   0.313E-12 -.639E-13 0.114E-11   -.858E-04 0.361E+01 -.520E+01   0.142E-05 0.225E-03 -.183E+01

 POSITION                                       TOTAL-FORCE (eV/Angst)
      4.22049      4.35151     12.63308        -0.000062      0.082681      0.399139
      4.22049      5.36064     12.79393         0.000003     -0.344912     -0.060953
      3.39386      3.96218     13.08676         0.280261      0.129703     -0.156888
      5.04713      3.96218     13.08676        -0.280207      0.129679     -0.156864
      0.00000      6.33078      3.91324        -0.000000     -0.000803      0.527557
      2.11025      0.00004      3.91324         0.001180     -0.000033      0.528342
      0.00000      0.00004      6.02349        -0.000000      0.001499      0.017513
      2.11025      6.33078      6.02349         0.019657     -0.017174      0.030965
      0.00000      6.32811      8.14287        -0.000000     -0.000790      0.045083
      2.11247      8.44094      8.14320         0.001014      0.000322      0.044669
      0.00000      8.44064     10.24357        -0.000000      0.000178     -0.130303
      2.10755      6.33108     10.23649        -0.007404      0.004606     -0.150000
      0.00000      2.11029      3.91324        -0.000000      0.001091      0.529442
      2.11025      4.22054      3.91324         0.001998      0.000327      0.538624
      0.00000      4.22054      6.02349        -0.000001     -0.002310      0.053892
      2.11025      2.11029      6.02349         0.013869      0.016040      0.031279
      8.44098      2.11222      8.14329         0.000000      0.000870      0.044007
      2.12092      4.21975      8.15691         0.003342     -0.000090      0.049283
      0.00000      4.21960     10.23958        -0.000000     -0.000765     -0.142189
      2.10919      2.10803     10.23880        -0.003410     -0.005412     -0.147401
      4.22049      6.33078      3.91324         0.000000     -0.001621      0.538859
      6.33074      0.00004      3.91324        -0.001180     -0.000033      0.528342
      4.22049      0.00004      6.02349         0.000001     -0.004063      0.053570
      6.33074      6.33078      6.02349        -0.019657     -0.017175      0.030965
      4.22049      6.31972      8.15756         0.000000     -0.002965      0.047966
      6.32851      8.44094      8.14320        -0.001014      0.000322      0.044684
      4.22049      0.00199     10.23937         0.000000      0.004441     -0.142396
      6.33344      6.33108     10.23649         0.007404      0.004608     -0.150014
      4.22049      2.11029      3.91324         0.000000      0.001908      0.537516
      6.33074      4.22054      3.91324        -0.001998      0.000327      0.538624
      4.22049      4.22054      6.02349         0.000001      0.003103      0.075700
      6.33074      2.11029      6.02349        -0.013869      0.016040      0.031280
      4.22049      2.12032      8.15594        -0.000000      0.002901      0.050156
      6.32007      4.21975      8.15691        -0.003343     -0.000090      0.049349
      4.22049      4.20904     10.38333         0.000001     -0.000493      0.000232
      6.33179      2.10803     10.23880         0.003410     -0.005412     -0.147407
      0.00000      6.33078      6.02349         0.000001      0.009874      0.059993
      2.11025      0.00004      6.02349        -0.010395     -0.001544      0.057763
      0.00000      0.00004      3.91324        -0.000000     -0.000071     -0.471610
      2.11025      6.33078      3.91324        -0.003614      0.003125     -0.477138
      8.44098      6.33489     10.30169         0.000001      0.004385     -0.102681
      2.10521      8.44023     10.30240        -0.005001      0.001192     -0.102606
      8.44098      8.44046      8.13976        -0.000000     -0.000830      0.029382
      2.10968      6.33160      8.14270        -0.002155      0.002452      0.024761
      0.00000      2.11029      6.02349         0.000000     -0.010948      0.055961
      2.11025      4.22054      6.02349         0.014823      0.000096      0.076462
      0.00000      4.22054      3.91324         0.000000      0.000444     -0.478291
      2.11025      2.11029      3.91324        -0.002692     -0.002765     -0.477626
      0.00000      2.10492     10.30298         0.000001     -0.002796     -0.102695
      2.08807      4.21992     10.30232        -0.038886     -0.003245     -0.115343
      0.00000      4.22035      8.13812        -0.000000      0.000076      0.035219
      2.10871      2.10861      8.14203        -0.002437     -0.002214      0.026873
      4.22049      6.33078      6.02349         0.000000     -0.015387      0.076341
      6.33074      0.00004      6.02349         0.010395     -0.001544      0.057764
      4.22049      0.00004      3.91324        -0.000000      0.000827     -0.477798
      6.33074      6.33078      3.91324         0.003614      0.003124     -0.477138
      4.22049      6.35541     10.30990         0.000001      0.042851     -0.105272
      6.33577      8.44023     10.30240         0.005002      0.001192     -0.102606
      4.22049      8.43994      8.13822        -0.000001      0.001110      0.031886
      6.33130      6.33160      8.14270         0.002157      0.002452      0.024761
      4.22049      2.11029      6.02349         0.000000      0.014134      0.076695
      6.33074      4.22054      6.02349        -0.014823      0.000095      0.076463
      4.22049      4.22054      3.91324        -0.000000     -0.000454     -0.485798
      6.33074      2.11029      3.91324         0.002691     -0.002765     -0.477625
      4.22049      2.08776     10.29781        -0.000000     -0.034233     -0.111801
      6.35291      4.21992     10.30232         0.038887     -0.003245     -0.115349
      4.22049      4.22089      8.16097        -0.000000      0.000323     -0.038441
      6.33227      2.10861      8.14203         0.002438     -0.002214      0.026872
    total drift:                                0.000004     -0.008984     -0.297910

  FREE ENERGIE OF THE ION-ELECTRON SYSTEM (eV)
  free  energy   TOTEN  =      -469.58974379 eV

  energy  without entropy=     -469.58974379  energy(sigma->0) =     -469.58974379

     |            E. Caldeweyher, S. Ehlert & S. Grimme          |
     |          Mulliken Center for Theoretical Chemistry        |
     |                    University of Bonn                     |

Rational (Becke-Johnson) damping: hse06-D4-ATM
  s6         1.0000
  s8         1.1953
  s9         1.0000
  a1         0.3866
  a2         5.1913
 alp        16.0000

Dispersion energy:      -2.7427937219779E-01 Eh