 vasp.6.4.2 20Jul23 (build Feb 22 2024 13:53:45) complex
 executed on              LinuxNV date 2024.08.27  22:09:58
 OpenACC runtime initialized ...    4 GPUs detected

 INCAR:
   SYSTEM = Oxide-Surface
   ISMEAR = 0
   SIGMA = 0.05
   EDIFF = 1E-5
   ALGO = Normal
   IBRION = -1
   NSW = 0
   ISYM = 0
   DIPOL = 0.5 0.5 0.5
   IDIPOL = 3
   LDIPOL = .TRUE.
   ISTART = 0
   LHFCALC = .FALSE.
   GGA = PE
   HFRCUT = -1
   ENCUT = 520
   PREC = Normal
   PRECFOCK = Normal
   LASPH = .TRUE.
   LREAL = Auto
   ISPIN = 1
   NELM = 200
   NELMIN = 8
   NCORE = 1
   KPAR = 1
   LWAVE = .TRUE.
   LCHARG = .FALSE.

 POTCAR:    PAW_PBE N 08Apr2002
 POTCAR:    PAW_PBE H 15Jun2001
 POTCAR:    PAW_PBE Mg_pv 13Apr2007
 POTCAR:    PAW_PBE O 08Apr2002
 POTCAR:    PAW_PBE N 08Apr2002
   VRHFIN =N: s2p3

   TITEL  = PAW_PBE N 08Apr2002
   POMASS =   14.001; ZVAL   =    5.000    mass and valenz
   ENMAX  =  400.000; ENMIN  =  300.000 eV

   TITEL  = PAW_PBE H 15Jun2001
   POMASS =    1.000; ZVAL   =    1.000    mass and valenz
   ENMAX  =  250.000; ENMIN  =  200.000 eV

   TITEL  = PAW_PBE Mg_pv 13Apr2007
   POMASS =   24.305; ZVAL   =    8.000    mass and valenz
   ENMAX  =  403.929; ENMIN  =  302.947 eV

   TITEL  = PAW_PBE O 08Apr2002
   POMASS =   16.000; ZVAL   =    6.000    mass and valenz
   ENMAX  =  400.000; ENMIN  =  300.000 eV

 Optimization of the real space projectors (new method)

 maximal supplied QI-value         = 25.13
 optimisation between [QCUT,QGAM] = [ 11.56, 23.12] = [ 37.43,149.72] Ry
 Optimized for a Real-space Cutoff    1.25 Angstroem

   l    n(q)    QCUT    max X(q) W(low)/X(q) W(high)/X(q)  e(spline)
   0      9    11.561    79.467    0.52E-04    0.16E-03    0.37E-06
   0      9    11.561    66.151    0.51E-04    0.16E-03    0.37E-06
   1      8    11.561    18.886    0.46E-03    0.28E-03    0.80E-06
   1      8    11.561    13.488    0.47E-03    0.29E-03    0.82E-06
 Optimization of the real space projectors (new method)

[...]

   l    n(q)    QCUT    max X(q) W(low)/X(q) W(high)/X(q)  e(spline)
   1      8    11.527     2.974    0.16E-03    0.13E-03    0.98E-07
   1      8    11.527     4.279    0.42E-03    0.30E-03    0.22E-06
   0      8    11.527    16.381    0.13E-03    0.20E-03    0.72E-07
   0      8    11.527     5.611    0.88E-04    0.13E-03    0.50E-07
   2      7    11.527     4.652    0.25E-03    0.73E-04    0.51E-07
 Optimization of the real space projectors (new method)

 maximal supplied QI-value         = 24.76
 optimisation between [QCUT,QGAM] = [ 11.64, 23.27] = [ 37.91,151.63] Ry
 Optimized for a Real-space Cutoff    1.04 Angstroem

   l    n(q)    QCUT    max X(q) W(low)/X(q) W(high)/X(q)  e(spline)
   0      7    11.635    20.381    0.14E-03    0.49E-03    0.18E-06
   0      7    11.635    15.268    0.16E-03    0.52E-03    0.19E-06
   1      7    11.635     5.964    0.30E-03    0.44E-03    0.22E-06
   1      7    11.635     5.382    0.27E-03    0.34E-03    0.19E-06
  PAW_PBE N 08Apr2002                   :
  PAW_PBE H 15Jun2001                   :
  PAW_PBE Mg_pv 13Apr2007               :
  PAW_PBE O 08Apr2002                   :

 POSCAR:  N  H Mg  O
  positions in direct lattice
 exchange correlation table for  LEXCH =        8
   RHO(1)=    0.500       N(1)  =     2000
   RHO(2)=  100.500       N(2)  =     4000

 ion  position               nearest neighbor table
   1  0.500  0.516  0.743-   4 1.02   3 1.02   2 1.02
   2  0.500  0.635  0.753-   1 1.02
   3  0.402  0.469  0.770-   1 1.02
   4  0.598  0.469  0.770-   1 1.02
   5  0.000  0.750  0.230-  37 2.11  47 2.11  40 2.11  39 2.11  56 2.11
   6  0.250  0.000  0.230-  38 2.11  39 2.11  40 2.11  48 2.11  55 2.11
   7  0.000  0.000  0.354-  39 2.11  38 2.11  37 2.11  45 2.11  54 2.11  43 2.12
   8  0.250  0.750  0.354-  40 2.11  46 2.11  37 2.11  38 2.11  53 2.11  44 2.12
   9  0.000  0.750  0.479-  51 2.11  44 2.11  60 2.11  43 2.11  37 2.12  41 2.16
  10  0.250  1.000  0.479-  59 2.11  52 2.11  44 2.11  43 2.11  38 2.12  42 2.16
  11  0.000  1.000  0.603-  43 2.10  42 2.11  58 2.11  49 2.11  41 2.11
  12  0.250  0.750  0.602-  44 2.09  41 2.11  42 2.11  50 2.11  57 2.11
  13  0.000  0.250  0.230-  45 2.11  39 2.11  48 2.11  64 2.11  47 2.11
  14  0.250  0.500  0.230-  46 2.11  40 2.11  47 2.11  63 2.11  48 2.11
  15  0.000  0.500  0.354-  47 2.11  37 2.11  46 2.11  62 2.11  45 2.11  51 2.11
  16  0.250  0.250  0.354-  48 2.11  45 2.11  38 2.11  61 2.11  46 2.11  52 2.12
  17  1.000  0.250  0.479-  51 2.11  68 2.11  52 2.11  43 2.11  45 2.12  49 2.16
  18  0.251  0.500  0.480-  67 2.10  52 2.11  44 2.11  51 2.12  46 2.13  50 2.15
  19  0.000  0.500  0.602-  66 2.09  50 2.09  51 2.10  49 2.12  41 2.12
  20  0.250  0.250  0.602-  52 2.10  42 2.11  49 2.11  65 2.11  50 2.11
  21  0.500  0.750  0.230-  53 2.11  63 2.11  55 2.11  56 2.11  40 2.11
  22  0.750  0.000  0.230-  54 2.11  39 2.11  55 2.11  56 2.11  64 2.11
  23  0.500  0.000  0.354-  55 2.11  53 2.11  54 2.11  38 2.11  61 2.11  59 2.11
  24  0.750  0.750  0.354-  56 2.11  62 2.11  54 2.11  37 2.11  53 2.11  60 2.12
  25  0.500  0.749  0.480-  67 2.10  60 2.11  44 2.11  59 2.12  53 2.13  57 2.15
  26  0.750  1.000  0.479-  59 2.11  68 2.11  60 2.11  43 2.11  54 2.12  58 2.16
  27  0.500  0.000  0.602-  65 2.09  57 2.09  59 2.10  42 2.12  58 2.12
  28  0.750  0.750  0.602-  60 2.09  41 2.11  58 2.11  66 2.11  57 2.11
  29  0.500  0.250  0.230-  61 2.11  55 2.11  48 2.11  64 2.11  63 2.11
  30  0.750  0.500  0.230-  62 2.11  56 2.11  47 2.11  63 2.11  64 2.11
  31  0.500  0.500  0.354-  63 2.11  53 2.11  62 2.11  46 2.11  61 2.11  67 2.14
  32  0.750  0.250  0.354-  64 2.11  54 2.11  61 2.11  45 2.11  62 2.11  68 2.12
  33  0.500  0.251  0.480-  67 2.10  52 2.11  68 2.11  59 2.12  61 2.13  65 2.14
  34  0.749  0.500  0.480-  67 2.10  68 2.11  60 2.11  51 2.12  62 2.13  66 2.15
  35  0.500  0.499  0.611-  65 2.12  66 2.13  50 2.13  57 2.15  67 2.22
  36  0.750  0.250  0.602-  68 2.10  58 2.11  49 2.11  65 2.11  66 2.11
  37  0.000  0.750  0.354-   5 2.11  15 2.11   8 2.11   7 2.11  24 2.11   9 2.12
  38  0.250  0.000  0.354-   6 2.11   7 2.11   8 2.11  16 2.11  23 2.11  10 2.12
  39  0.000  0.000  0.230-   7 2.11   6 2.11   5 2.11  13 2.11  22 2.11
  40  0.250  0.750  0.230-   8 2.11  14 2.11   5 2.11   6 2.11  21 2.11
  41  1.000  0.750  0.606-  11 2.11  28 2.11  12 2.11  19 2.12   9 2.16
  42  0.249  1.000  0.606-  11 2.11  20 2.11  12 2.11  27 2.12  10 2.16
  43  1.000  1.000  0.479-  11 2.10   9 2.11  26 2.11  10 2.11  17 2.11   7 2.12
  44  0.250  0.750  0.479-  12 2.09  10 2.11   9 2.11  25 2.11  18 2.11   8 2.12
  45  0.000  0.250  0.354-  13 2.11   7 2.11  16 2.11  32 2.11  15 2.11  17 2.12
  46  0.250  0.500  0.354-  14 2.11   8 2.11  15 2.11  31 2.11  16 2.11  18 2.13
  47  0.000  0.500  0.230-  15 2.11   5 2.11  14 2.11  30 2.11  13 2.11
  48  0.250  0.250  0.230-  16 2.11  13 2.11   6 2.11  29 2.11  14 2.11
  49  0.000  0.249  0.606-  11 2.11  36 2.11  20 2.11  19 2.12  17 2.16
  50  0.247  0.500  0.606-  19 2.09  12 2.11  20 2.11  35 2.13  18 2.15
  51  0.000  0.500  0.479-  19 2.10   9 2.11  17 2.11  15 2.11  34 2.12  18 2.12
  52  0.250  0.250  0.479-  20 2.10  10 2.11  17 2.11  18 2.11  33 2.11  16 2.12
  53  0.500  0.750  0.354-  21 2.11  31 2.11  23 2.11  24 2.11   8 2.11  25 2.13
  54  0.750  0.000  0.354-  22 2.11   7 2.11  23 2.11  24 2.11  32 2.11  26 2.12
  55  0.500  0.000  0.230-  23 2.11  21 2.11  22 2.11   6 2.11  29 2.11
  56  0.750  0.750  0.230-  24 2.11  30 2.11  22 2.11   5 2.11  21 2.11
  57  0.500  0.753  0.606-  27 2.09  12 2.11  28 2.11  35 2.15  25 2.15
  58  0.751  1.000  0.606-  11 2.11  36 2.11  28 2.11  27 2.12  26 2.16
  59  0.500  1.000  0.479-  27 2.10  26 2.11  10 2.11  23 2.11  25 2.12  33 2.12
  60  0.750  0.750  0.479-  28 2.09  26 2.11   9 2.11  25 2.11  34 2.11  24 2.12
  61  0.500  0.250  0.354-  29 2.11  23 2.11  16 2.11  32 2.11  31 2.11  33 2.13
  62  0.750  0.500  0.354-  30 2.11  24 2.11  15 2.11  31 2.11  32 2.11  34 2.13
  63  0.500  0.500  0.230-  31 2.11  21 2.11  30 2.11  14 2.11  29 2.11
  64  0.750  0.250  0.230-  32 2.11  22 2.11  29 2.11  13 2.11  30 2.11
  65  0.500  0.247  0.606-  27 2.09  20 2.11  36 2.11  35 2.12  33 2.14
  66  0.753  0.500  0.606-  19 2.09  28 2.11  36 2.11  35 2.13  34 2.15
  67  0.500  0.500  0.480-  25 2.10  18 2.10  34 2.10  33 2.10  31 2.14  35 2.22
  68  0.750  0.250  0.479-  36 2.10  26 2.11  17 2.11  34 2.11  33 2.11  32 2.12

IMPORTANT INFORMATION: All symmetrisations will be switched off!
NOSYMM: (Re-)initialisation of all symmetry stuff for point group C_1.

                                     Primitive cell

  volume of cell :    1211.2538

  direct lattice vectors                    reciprocal lattice vectors
     8.440984654  0.000000000  0.000000000     0.118469591  0.000000000  0.000000000
     0.000000000  8.440984654  0.000000000     0.000000000  0.118469591  0.000000000
     0.000000000  0.000000000 17.000000000     0.000000000  0.000000000  0.058823529

  length of vectors
     8.440984654  8.440984654 17.000000000     0.118469591  0.118469591  0.058823529

  position of ions in fractional coordinates (direct lattice)
     0.500000238  0.515521052  0.743122297
     0.499999982  0.635072459  0.752584339
     0.402069062  0.469398098  0.769809164
     0.597931074  0.469398359  0.769809375
     0.000000001  0.750005063  0.230190625
     0.250000001  0.000005063  0.230190625
     0.000000001  0.000005063  0.354322752
     0.250000001  0.750005063  0.354322752
     0.000000003  0.749688989  0.478992539
     0.250263523  0.999994937  0.479012029
     0.000000001  0.999958952  0.602562889
     0.249680170  0.750040946  0.602146405
     0.000000001  0.250005063  0.230190625
     0.250000001  0.500005063  0.230190625
     0.000000001  0.500005063  0.354322752
     0.250000001  0.250005063  0.354322752
     0.999999996  0.250234310  0.479017192
     0.251264403  0.499912485  0.479817993
     0.000000018  0.499894003  0.602327959
     0.249874846  0.249737023  0.602282337
     0.500000001  0.750005063  0.230190625
     0.750000001  0.000005063  0.230190625
     0.500000001  0.000005063  0.354322752
     0.750000001  0.750005063  0.354322752
     0.499999997  0.748694190  0.479856547
     0.749736478  0.999994937  0.479012045
     0.499999996  0.000235948  0.602315670
     0.750319839  0.750040932  0.602146398
     0.500000001  0.250005063  0.230190625
     0.750000001  0.500005063  0.230190625
     0.500000001  0.500005063  0.354322752
     0.750000001  0.250005063  0.354322752
     0.500000000  0.251193808  0.479761393
     0.748735611  0.499912479  0.479818037
     0.500000034  0.498643644  0.610784368
     0.750125162  0.249737020  0.602282348
     0.000000001  0.750005063  0.354322752
     0.250000001  0.000005063  0.354322752
     0.000000001  0.000005063  0.230190625
     0.250000001  0.750005063  0.230190625
     0.999999999  0.750491851  0.605981896
     0.249403678  0.999911150  0.606023354
     0.999999998  0.999937384  0.478809541
     0.249933155  0.750101855  0.478982330
     0.000000001  0.250005063  0.354322752
     0.250000001  0.500005063  0.354322752
     0.000000001  0.500005063  0.230190625
[...]
  E(xc)   -2487.67021 -2487.68123 -2492.85668    -0.00000    -0.06163     0.00000
  Local  ************************187417.49926     0.00003     6.92143    -0.00022
  n-local -2831.99895 -2832.09886 -2853.12971    -0.00000    -0.27996     0.00000
  augment  1048.61751  1048.65430  1039.90052     0.00000     0.09611    -0.00000
  Kinetic  7423.47071  7424.79615  7482.67155     0.00001     4.08761    -0.00007
  Fock        0.00000     0.00000     0.00000     0.00000     0.00000     0.00000
  Total     -14.93381   -14.89670     7.41972    -0.00002     0.03950     0.00001
  in kB     -19.75359   -19.70450     9.81438    -0.00002     0.05225     0.00002

 VOLUME and BASIS-vectors are now :
  energy-cutoff  :      520.00
  volume of cell :     1211.25
      direct lattice vectors                 reciprocal lattice vectors
     8.440984654  0.000000000  0.000000000     0.118469591  0.000000000  0.000000000
     0.000000000  8.440984654  0.000000000     0.000000000  0.118469591  0.000000000
     0.000000000  0.000000000 17.000000000     0.000000000  0.000000000  0.058823529

  length of vectors
     8.440984654  8.440984654 17.000000000     0.118469591  0.118469591  0.058823529

 FORCES acting on ions
    electron-ion (+dipol)            ewald-force                    non-local-force                 convergence-correction
   -.754E-04 0.810E+01 -.956E+03   0.922E-04 -.130E+02 0.931E+03   -.798E-04 0.488E+01 0.244E+02   0.403E-05 -.148E-04 -.791E-03
   0.140E-03 -.698E+02 -.196E+03   -.154E-03 0.771E+02 0.197E+03   0.156E-04 -.720E+01 -.883E+00   0.247E-06 0.777E-04 -.157E-03
   0.579E+02 0.279E+02 -.197E+03   -.638E+02 -.307E+02 0.200E+03   0.595E+01 0.283E+01 -.303E+01   -.595E-04 -.315E-04 -.103E-03
   -.579E+02 0.279E+02 -.197E+03   0.638E+02 -.307E+02 0.200E+03   -.595E+01 0.283E+01 -.303E+01   0.596E-04 -.312E-04 -.103E-03
   0.264E-04 -.266E+00 0.172E+04   -.565E-05 0.264E+00 -.171E+04   0.128E-04 0.154E-02 -.703E+01   -.361E-04 0.698E-04 -.103E-02
   0.267E+00 -.329E-01 0.172E+04   -.264E+00 0.321E-01 -.171E+04   -.202E-02 0.559E-03 -.704E+01   -.990E-04 0.184E-04 -.105E-02
   0.315E-04 -.477E-01 0.583E+03   -.190E-04 0.531E-01 -.584E+03   0.598E-05 -.406E-02 0.514E+00   -.185E-04 0.186E-04 0.110E-03
   -.284E+00 0.284E+00 0.583E+03   0.349E+00 -.339E+00 -.584E+03   -.458E-01 0.384E-01 0.572E+00   -.182E-04 -.171E-04 0.147E-03
   0.304E-04 -.277E+01 -.540E+03   -.993E-05 0.269E+01 0.540E+03   0.377E-05 0.838E-01 0.958E-02   -.246E-04 0.914E-05 0.798E-03
   0.280E+01 -.237E+00 -.540E+03   -.272E+01 0.253E+00 0.540E+03   -.809E-01 -.150E-01 0.148E-01   -.262E-04 0.150E-04 0.821E-03
   -.202E-04 -.950E+00 -.167E+04   0.243E-04 0.962E+00 0.167E+04   0.298E-05 -.114E-01 0.593E+01   -.724E-05 -.383E-06 0.129E-03
   0.208E+02 -.199E+02 -.165E+04   -.210E+02 0.200E+02 0.164E+04   0.143E+00 -.726E-01 0.607E+01   0.987E-04 -.763E-04 0.199E-03
   0.722E-05 0.266E+00 0.172E+04   -.531E-05 -.263E+00 -.171E+04   -.191E-05 -.139E-02 -.704E+01   0.155E-05 -.682E-04 -.101E-02
   0.313E+00 0.327E-01 0.172E+04   -.304E+00 -.322E-01 -.171E+04   -.650E-02 -.372E-03 -.707E+01   -.915E-04 -.278E-04 -.948E-03
   0.329E-04 0.390E-01 0.584E+03   -.398E-04 -.477E-01 -.584E+03   -.213E-05 0.624E-02 0.409E+00   0.680E-05 -.228E-04 0.136E-03
   -.252E+00 -.293E+00 0.584E+03   0.295E+00 0.344E+00 -.584E+03   -.296E-01 -.358E-01 0.550E+00   -.471E-04 0.211E-04 0.130E-03
   -.574E-05 0.277E+01 -.541E+03   0.122E-04 -.268E+01 0.541E+03   0.280E-05 -.839E-01 0.271E-01   -.844E-05 -.348E-05 0.801E-03
   0.271E+01 0.234E+00 -.536E+03   -.238E+01 -.248E+00 0.537E+03   -.333E+00 0.134E-01 -.414E+00   0.285E-05 -.201E-04 0.922E-03
   -.981E-04 0.107E+01 -.166E+04   0.939E-04 -.108E+01 0.165E+04   -.142E-05 0.110E-01 0.591E+01   0.561E-05 -.814E-05 0.190E-03
   0.188E+02 0.194E+02 -.165E+04   -.189E+02 -.194E+02 0.164E+04   0.606E-01 0.799E-01 0.607E+01   0.648E-04 0.891E-04 0.164E-03
   -.241E-04 -.312E+00 0.172E+04   0.566E-05 0.304E+00 -.171E+04   -.116E-04 0.602E-02 -.707E+01   0.318E-04 0.688E-04 -.978E-03
   -.267E+00 -.329E-01 0.172E+04   0.264E+00 0.321E-01 -.171E+04   0.202E-02 0.574E-03 -.704E+01   0.939E-04 -.155E-04 -.103E-02
   -.356E-04 0.327E-03 0.584E+03   0.208E-04 -.149E-01 -.584E+03   -.545E-05 0.105E-01 0.413E+00   0.209E-04 -.830E-05 0.143E-03
   0.284E+00 0.284E+00 0.583E+03   -.349E+00 -.339E+00 -.584E+03   0.458E-01 0.384E-01 0.572E+00   0.191E-04 0.827E-05 0.121E-03
   -.188E-04 -.249E+01 -.537E+03   0.450E-06 0.217E+01 0.538E+03   -.511E-05 0.329E+00 -.260E+00   0.230E-04 -.166E-04 0.972E-03
   -.280E+01 -.237E+00 -.540E+03   0.272E+01 0.253E+00 0.540E+03   0.809E-01 -.150E-01 0.148E-01   0.208E-04 0.320E-05 0.819E-03
   0.348E-05 -.264E+01 -.166E+04   -.806E-05 0.268E+01 0.165E+04   -.148E-05 -.344E-01 0.590E+01   0.736E-05 -.424E-04 0.208E-03
   -.208E+02 -.199E+02 -.165E+04   0.210E+02 0.200E+02 0.164E+04   -.143E+00 -.726E-01 0.607E+01   -.990E-04 -.664E-04 0.168E-03
   -.748E-05 0.311E+00 0.172E+04   0.546E-05 -.304E+00 -.171E+04   0.143E-05 -.586E-02 -.707E+01   0.286E-06 -.656E-04 -.984E-03
   -.313E+00 0.327E-01 0.172E+04   0.304E+00 -.322E-01 -.171E+04   0.650E-02 -.384E-03 -.707E+01   0.933E-04 0.697E-05 -.939E-03
   -.345E-04 -.662E-02 0.581E+03   0.417E-04 0.174E-01 -.582E+03   0.900E-07 -.800E-02 0.640E+00   -.534E-05 -.612E-06 0.144E-03
   0.252E+00 -.293E+00 0.584E+03   -.295E+00 0.344E+00 -.584E+03   0.296E-01 -.357E-01 0.550E+00   0.450E-04 -.443E-05 0.144E-03
   -.195E-04 0.269E+01 -.536E+03   0.890E-05 -.237E+01 0.536E+03   -.233E-05 -.325E+00 -.481E+00   0.134E-04 0.380E-04 0.920E-03
   -.271E+01 0.234E+00 -.536E+03   0.238E+01 -.248E+00 0.537E+03   0.333E+00 0.134E-01 -.414E+00   -.100E-04 -.755E-05 0.941E-03
   0.142E-03 0.594E+01 -.157E+04   -.136E-03 -.624E+01 0.157E+04   -.276E-05 0.299E+00 0.861E+00   -.261E-05 0.578E-05 0.720E-03
   -.188E+02 0.194E+02 -.165E+04   0.189E+02 -.194E+02 0.164E+04   -.606E-01 0.800E-01 0.607E+01   -.674E-04 0.752E-04 0.148E-03
   0.269E-04 -.894E-01 0.438E+03   -.183E-04 0.699E-01 -.438E+03   0.431E-05 0.285E-01 -.186E-01   -.890E-05 0.133E-04 0.251E-03
   0.934E-01 0.355E-03 0.438E+03   -.717E-01 0.354E-02 -.438E+03   -.312E-01 -.558E-02 -.308E-01   -.295E-04 0.380E-05 0.260E-03
   0.710E-05 -.239E-01 0.129E+04   -.344E-05 0.247E-01 -.129E+04   0.227E-05 -.946E-03 0.349E+01   -.271E-05 0.424E-05 -.686E-03
   0.215E+00 -.213E+00 0.129E+04   -.206E+00 0.206E+00 -.129E+04   -.118E-01 0.959E-02 0.347E+01   -.383E-04 0.366E-04 -.583E-03
   -.359E-04 -.751E+01 -.127E+04   0.386E-04 0.736E+01 0.128E+04   0.370E-05 0.148E+00 -.506E+01   -.583E-05 -.587E-04 0.292E-03
   0.758E+01 -.130E+01 -.127E+04   -.742E+01 0.129E+01 0.128E+04   -.160E+00 0.158E-01 -.505E+01   0.699E-04 -.868E-05 0.288E-03
   0.348E-05 -.245E+00 -.402E+03   -.114E-05 0.250E+00 0.402E+03   0.309E-05 -.564E-02 0.310E+00   -.299E-05 0.762E-05 0.292E-03
   0.187E+01 -.187E+01 -.396E+03   -.186E+01 0.185E+01 0.395E+03   -.964E-02 0.236E-01 0.545E+00   0.536E-04 -.297E-04 0.349E-03
   0.168E-04 0.821E-01 0.438E+03   -.139E-04 -.583E-01 -.438E+03   0.489E-06 -.339E-01 -.382E-01   -.298E-05 -.970E-05 0.247E-03
   -.483E-01 -.856E-02 0.436E+03   0.743E-03 0.992E-02 -.436E+03   0.613E-01 -.127E-02 -.186E+00   -.105E-05 -.834E-05 0.304E-03
   0.619E-05 0.241E-01 0.129E+04   -.527E-05 -.247E-01 -.129E+04   0.277E-05 0.897E-03 0.347E+01   -.251E-05 -.864E-05 -.588E-03
   0.213E+00 0.213E+00 0.129E+04   -.207E+00 -.206E+00 -.129E+04   -.871E-02 -.969E-02 0.347E+01   -.391E-04 -.288E-04 -.582E-03
   -.402E-04 0.741E+01 -.127E+04   0.380E-04 -.726E+01 0.128E+04   0.226E-05 -.147E+00 -.504E+01   0.188E-05 0.639E-04 0.274E-03
   0.255E+02 0.180E+01 -.124E+04   -.248E+02 -.179E+01 0.124E+04   -.719E+00 -.114E-01 -.494E+01   0.799E-04 0.696E-06 0.319E-03
   -.815E-05 0.248E+00 -.396E+03   0.523E-05 -.252E+00 0.395E+03   -.214E-05 0.444E-02 0.398E+00   0.426E-05 -.155E-04 0.384E-03
   0.195E+01 0.188E+01 -.397E+03   -.192E+01 -.185E+01 0.396E+03   -.307E-01 -.245E-01 0.485E+00   0.125E-04 0.365E-04 0.353E-03
   -.264E-04 0.554E-01 0.436E+03   0.179E-04 -.578E-02 -.436E+03   -.746E-05 -.640E-01 -.195E+00   0.124E-04 -.169E-04 0.287E-03
   -.934E-01 0.365E-03 0.438E+03   0.717E-01 0.353E-02 -.438E+03   0.312E-01 -.558E-02 -.308E-01   0.247E-04 -.578E-05 0.259E-03
   -.630E-05 -.253E-01 0.129E+04   0.349E-05 0.239E-01 -.129E+04   -.520E-05 0.210E-02 0.347E+01   0.466E-05 -.333E-05 -.597E-03
   -.215E+00 -.213E+00 0.129E+04   0.206E+00 0.206E+00 -.129E+04   0.118E-01 0.959E-02 0.347E+01   0.432E-04 0.430E-04 -.567E-03
   0.250E-04 -.259E+02 -.123E+04   -.254E-04 0.250E+02 0.124E+04   -.365E-05 0.863E+00 -.476E+01   0.319E-05 -.687E-04 0.310E-03
   -.758E+01 -.130E+01 -.127E+04   0.742E+01 0.129E+01 0.128E+04   0.160E+00 0.158E-01 -.505E+01   -.682E-04 -.861E-05 0.276E-03
   -.174E-04 -.104E+00 -.396E+03   0.107E-04 0.111E+00 0.395E+03   -.440E-05 -.630E-02 0.400E+00   0.786E-05 -.159E-04 0.393E-03
   -.187E+01 -.187E+01 -.396E+03   0.186E+01 0.185E+01 0.395E+03   0.964E-02 0.236E-01 0.545E+00   -.431E-04 -.274E-04 0.355E-03
   -.204E-04 -.662E-01 0.436E+03   0.173E-04 0.217E-01 -.436E+03   -.207E-05 0.576E-01 -.171E+00   0.496E-05 0.174E-04 0.286E-03
   0.483E-01 -.857E-02 0.436E+03   -.746E-03 0.992E-02 -.436E+03   -.613E-01 -.127E-02 -.186E+00   0.540E-05 -.982E-06 0.299E-03
   -.538E-05 0.257E-01 0.129E+04   0.535E-05 -.241E-01 -.129E+04   -.207E-05 -.219E-02 0.344E+01   0.503E-06 -.504E-05 -.474E-03
   -.213E+00 0.213E+00 0.129E+04   0.207E+00 -.206E+00 -.129E+04   0.871E-02 -.968E-02 0.347E+01   0.370E-04 -.338E-04 -.579E-03
   0.397E-04 0.249E+02 -.124E+04   -.407E-04 -.243E+02 0.124E+04   -.168E-05 -.609E+00 -.500E+01   0.140E-05 0.904E-04 0.336E-03
   -.255E+02 0.180E+01 -.124E+04   0.248E+02 -.179E+01 0.124E+04   0.719E+00 -.114E-01 -.494E+01   -.876E-04 0.271E-05 0.329E-03
   -.567E-05 -.515E-01 -.408E+03   -.152E-05 0.429E-01 0.410E+03   -.284E-05 0.995E-02 -.117E+01   0.982E-05 0.156E-05 0.419E-03
   -.195E+01 0.188E+01 -.397E+03   0.192E+01 -.185E+01 0.396E+03   0.307E-01 -.245E-01 0.485E+00   -.204E-04 0.339E-04 0.363E-03
   0.806E-04 -.388E+01 0.401E+01   0.313E-12 -.639E-13 0.114E-11   -.987E-04 0.387E+01 -.435E+01   0.162E-04 -.230E-04 0.375E-02

 POSITION                                       TOTAL-FORCE (eV/Angst)
      4.22049      4.35151     12.63308        -0.000059      0.000504      0.101160
      4.22049      5.36064     12.79393         0.000002      0.017282      0.001171
      3.39386      3.96218     13.08676        -0.015983     -0.008079      0.007720
      5.04713      3.96218     13.08676         0.016036     -0.008102      0.007746
      0.00000      6.33078      3.91324        -0.000003     -0.000709      0.290464
      2.11025      0.00004      3.91324         0.000953     -0.000137      0.291262
      0.00000      0.00004      6.02349        -0.000000      0.001443      0.017792
      2.11025      6.33078      6.02349         0.018913     -0.016605      0.031553
      0.00000      6.32811      8.14287        -0.000000      0.000534      0.049930
      2.11247      8.44094      8.14320        -0.000386      0.000462      0.049389
      0.00000      8.44064     10.24357        -0.000000      0.000018      0.059156
      2.10755      6.33108     10.23649        -0.009837      0.007302      0.037934
      0.00000      2.11029      3.91324         0.000002      0.000780      0.292355
      2.11025      4.22054      3.91324         0.002040      0.000213      0.300492
      0.00000      4.22054      6.02349        -0.000002     -0.002429      0.053292
      2.11025      2.11029      6.02349         0.013256      0.015328      0.031761
      8.44098      2.11222      8.14329         0.000001     -0.000361      0.048883
      2.12092      4.21975      8.15691        -0.006208     -0.000090      0.041481
      0.00000      4.21960     10.23958        -0.000000     -0.000353      0.045615
      2.10919      2.10803     10.23880        -0.005026     -0.007064      0.040853
      4.22049      6.33078      3.91324         0.000002     -0.001803      0.300758
      6.33074      0.00004      3.91324        -0.000954     -0.000140      0.291265
      4.22049      0.00004      6.02349         0.000001     -0.003967      0.052883
      6.33074      6.33078      6.02349        -0.018912     -0.016609      0.031557
      4.22049      6.31972      8.15756        -0.000000      0.006387      0.040230
      6.32851      8.44094      8.14320         0.000384      0.000460      0.049402
      4.22049      0.00199     10.23937         0.000001      0.005020      0.045618
      6.33344      6.33108     10.23649         0.009836      0.007303      0.037918
      4.22049      2.11029      3.91324        -0.000000      0.001864      0.299465
      6.33074      4.22054      3.91324        -0.002039      0.000215      0.300501
      4.22049      4.22054      6.02349         0.000002      0.002848      0.076722
      6.33074      2.11029      6.02349        -0.013256      0.015329      0.031761
      4.22049      2.12032      8.15594         0.000000     -0.006280      0.042649
      6.32007      4.21975      8.15691         0.006207     -0.000090      0.041552
      4.22049      4.20904     10.38333         0.000001     -0.000480      0.096043
      6.33179      2.10803     10.23880         0.005026     -0.007065      0.040848
      0.00000      6.33078      6.02349         0.000004      0.009007      0.067950
      2.11025      0.00004      6.02349        -0.009509     -0.001628      0.065770
      0.00000      0.00004      3.91324         0.000003     -0.000162     -0.565132
      2.11025      6.33078      3.91324        -0.003363      0.002839     -0.570010
      8.44098      6.33489     10.30169         0.000001      0.000429      0.039258
      2.10521      8.44023     10.30240        -0.000491      0.000399      0.039182
      8.44098      8.44046      8.13976         0.000002     -0.000871      0.020844
      2.10968      6.33160      8.14270         0.000394      0.000290      0.013643
      0.00000      2.11029      6.02349         0.000000     -0.010112      0.063932
      2.11025      4.22054      6.02349         0.013771      0.000149      0.087586
      0.00000      4.22054      3.91324         0.000001      0.000362     -0.570933
      2.11025      2.11029      3.91324        -0.002478     -0.002656     -0.570505
      0.00000      2.10492     10.30298         0.000002      0.001127      0.039134
      2.08807      4.21992     10.30232        -0.019202     -0.002304      0.022359
      0.00000      4.22035      8.13812        -0.000001      0.000096      0.022646
      2.10871      2.10861      8.14203        -0.000472     -0.000192      0.016081
      4.22049      6.33078      6.02349        -0.000003     -0.014301      0.087718
      6.33074      0.00004      6.02349         0.009510     -0.001625      0.065770
      4.22049      0.00004      3.91324        -0.000003      0.000702     -0.570464
      6.33074      6.33078      3.91324         0.003363      0.002839     -0.570015
      4.22049      6.35541     10.30990        -0.000001      0.020142      0.030783
      6.33577      8.44023     10.30240         0.000492      0.000399      0.039188
      4.22049      8.43994      8.13822        -0.000003      0.000327      0.019660
      6.33130      6.33160      8.14270        -0.000394      0.000285      0.013643
      4.22049      2.11029      6.02349        -0.000000      0.013100      0.087615
      6.33074      4.22054      6.02349        -0.013772      0.000142      0.087588
      4.22049      4.22054      3.91324        -0.000002     -0.000502     -0.578153
      6.33074      2.11029      3.91324         0.002477     -0.002654     -0.570506
      4.22049      2.08776     10.29781        -0.000001     -0.017489      0.026490
      6.35291      4.21992     10.30232         0.019203     -0.002306      0.022355
      4.22049      4.22089      8.16097        -0.000000      0.001425     -0.008738
      6.33227      2.10861      8.14203         0.000475     -0.000188      0.016080
    total drift:                               -0.000002     -0.004117     -0.335959

  FREE ENERGIE OF THE ION-ELECTRON SYSTEM (eV)
  free  energy   TOTEN  =      -392.05798444 eV

  energy  without entropy=     -392.05798444  energy(sigma->0) =     -392.05798444

 writing wavefunctions

     |            E. Caldeweyher, S. Ehlert & S. Grimme          |
     |          Mulliken Center for Theoretical Chemistry        |
     |                    University of Bonn                     |

Rational (Becke-Johnson) damping: hse06-D4-ATM
  s6         1.0000
  s8         1.1953
  s9         1.0000
  a1         0.3866
  a2         5.1913
 alp        16.0000

Dispersion energy:      -2.7427937219779E-01 Eh