 vasp.6.3.0 20Jan22 (build Apr  1 2022 16:44:48) complex
 executed on        HPECrayEX_GCC date 2022.12.17  01:28:43

 INCAR:
   SYSTEM = MgO-rocksalt
   ISMEAR = 0
   SIGMA = 0.05
   EDIFF = 1E-7
   ALGO = ALL
   ISTART = 0
   IBRION = 2
   NSW = 1000
   ISYM = 0
   ISIF = 2
   EDIFFG = -0.01
   DIPOL = 0.5 0.5 0.5
   IDIPOL = 3
   LDIPOL = .TRUE.
   GGA = PE
   IVDW = 1
   VDW_C6 = 1.23 0.70 0.63 0.70
   VDW_R0 = 1.397 1.342 1.243 1.342
   ENCUT = 600
   PREC = Accurate
   LASPH = .TRUE.
   LREAL = .FALSE.
   ISPIN = 1
   NELM = 200
   NELMIN = 8
   NCORE = 8
   KPAR = 1
   LWAVE = .FALSE.
   LCHARG = .FALSE.

 POTCAR:    PAW_PBE N 08Apr2002
 POTCAR:    PAW_PBE O 08Apr2002
 POTCAR:    PAW_PBE Mg_pv 13Apr2007
 POTCAR:    PAW_PBE O 08Apr2002
 POTCAR:    PAW_PBE N 08Apr2002
   VRHFIN =N: s2p3

   TITEL  = PAW_PBE N 08Apr2002
   POMASS =   14.001; ZVAL   =    5.000    mass and valenz
   ENMAX  =  400.000; ENMIN  =  300.000 eV

[...]

   TITEL  = PAW_PBE Mg_pv 13Apr2007
   POMASS =   24.305; ZVAL   =    8.000    mass and valenz
   ENMAX  =  403.929; ENMIN  =  302.947 eV

   TITEL  = PAW_PBE O 08Apr2002
   POMASS =   16.000; ZVAL   =    6.000    mass and valenz
   ENMAX  =  400.000; ENMIN  =  300.000 eV

  PAW_PBE N 08Apr2002                   :
  PAW_PBE O 08Apr2002                   :
  PAW_PBE Mg_pv 13Apr2007               :
  PAW_PBE O 08Apr2002                   :

 POSCAR:  N  O Mg  O
  positions in direct lattice
 exchange correlation table for  LEXCH =        8
   RHO(1)=    0.500       N(1)  =     2000
   RHO(2)=  100.500       N(2)  =     4000

 ion  position               nearest neighbor table
   1  0.512  0.512  0.745-   3 1.17  20 2.07
   2  0.748  0.748  0.745-   4 1.17  35 2.07
   3  0.483  0.483  0.798-   1 1.17
   4  0.777  0.777  0.798-   2 1.17
   5  0.250  0.000  0.351-  37 2.12  39 2.12  40 2.12  47 2.12  56 2.12
   6  0.500  0.250  0.351-  38 2.12  39 2.12  40 2.12  48 2.12  55 2.12
   7  0.250  0.250  0.450-  39 2.12  38 2.12  37 2.12  45 2.12  54 2.12  43 2.12
   8  0.500  0.000  0.450-  40 2.12  38 2.12  37 2.12  46 2.12  53 2.12  44 2.12
   9  0.250  0.000  0.550-  43 2.12  44 2.12  51 2.12  60 2.12  37 2.13  41 2.15
  10  0.500  0.250  0.550-  43 2.12  44 2.12  52 2.12  59 2.12  38 2.13  42 2.15
  11  0.250  0.250  0.649-  43 2.11  42 2.12  41 2.12  49 2.12  58 2.12
  12  0.500  0.000  0.649-  44 2.11  42 2.12  41 2.12  50 2.12  57 2.12
  13  0.250  0.500  0.351-  45 2.12  39 2.12  47 2.12  48 2.12  64 2.12
  14  0.500  0.750  0.351-  46 2.12  40 2.12  47 2.12  48 2.12  63 2.12
  15  0.250  0.750  0.450-  47 2.12  45 2.12  46 2.12  37 2.12  62 2.12  51 2.12
  16  0.500  0.500  0.450-  48 2.12  45 2.12  46 2.12  38 2.12  61 2.12  52 2.12
  17  0.250  0.500  0.550-  43 2.12  51 2.12  52 2.12  68 2.12  45 2.13  49 2.15
  18  0.500  0.750  0.550-  44 2.12  51 2.12  52 2.12  67 2.12  46 2.13  50 2.15
  19  0.250  0.750  0.649-  51 2.11  49 2.12  50 2.12  41 2.12  66 2.12
  20  0.500  0.500  0.649-   1 2.07  52 2.11  49 2.12  50 2.12  42 2.12  65 2.12
  21  0.750  0.000  0.351-  53 2.12  40 2.12  55 2.12  56 2.12  63 2.12
  22  0.000  0.250  0.351-  54 2.12  39 2.12  55 2.12  56 2.12  64 2.12
  23  0.750  0.250  0.450-  55 2.12  53 2.12  54 2.12  38 2.12  61 2.12  59 2.12
  24  0.000  0.000  0.450-  56 2.12  53 2.12  54 2.12  37 2.12  62 2.12  60 2.12
  25  0.750  0.000  0.550-  44 2.12  59 2.12  60 2.12  67 2.12  53 2.13  57 2.15
  26  0.000  0.250  0.550-  43 2.12  59 2.12  60 2.12  68 2.12  54 2.13  58 2.15
  27  0.750  0.250  0.649-  59 2.11  57 2.12  58 2.12  42 2.12  65 2.12
  28  0.000  0.000  0.649-  60 2.11  57 2.12  58 2.12  41 2.12  66 2.12
  29  0.750  0.500  0.351-  61 2.12  55 2.12  48 2.12  63 2.12  64 2.12
  30  0.000  0.750  0.351-  62 2.12  56 2.12  47 2.12  63 2.12  64 2.12
  31  0.750  0.750  0.450-  63 2.12  53 2.12  61 2.12  62 2.12  46 2.12  67 2.12
  32  0.000  0.500  0.450-  64 2.12  54 2.12  61 2.12  62 2.12  45 2.12  68 2.12
  33  0.750  0.500  0.550-  52 2.12  59 2.12  67 2.12  68 2.12  61 2.13  65 2.15
  34  0.000  0.750  0.550-  51 2.12  60 2.12  67 2.12  68 2.12  62 2.13  66 2.15
  35  0.750  0.750  0.649-   2 2.07  67 2.11  57 2.12  65 2.12  66 2.12  50 2.12
  36  0.000  0.500  0.649-  68 2.11  58 2.12  65 2.12  66 2.12  49 2.12
  37  0.250  0.000  0.450-   5 2.12   7 2.12   8 2.12  15 2.12  24 2.12   9 2.13
  38  0.500  0.250  0.450-   6 2.12   7 2.12   8 2.12  16 2.12  23 2.12  10 2.13
  39  0.250  0.250  0.351-   7 2.12   6 2.12   5 2.12  13 2.12  22 2.12
  40  0.500  0.000  0.351-   8 2.12   6 2.12   5 2.12  14 2.12  21 2.12
  41  0.250  0.000  0.651-  11 2.12  12 2.12  19 2.12  28 2.12   9 2.15
  42  0.500  0.250  0.651-  11 2.12  12 2.12  20 2.12  27 2.12  10 2.15
  43  0.250  0.250  0.550-  11 2.11  10 2.12   9 2.12  17 2.12  26 2.12   7 2.12
  44  0.500  0.000  0.550-  12 2.11  10 2.12   9 2.12  18 2.12  25 2.12   8 2.12
  45  0.250  0.500  0.450-  13 2.12   7 2.12  15 2.12  16 2.12  32 2.12  17 2.13
  46  0.500  0.750  0.450-  14 2.12   8 2.12  15 2.12  16 2.12  31 2.12  18 2.13
  47  0.250  0.750  0.351-  15 2.12  13 2.12  14 2.12   5 2.12  30 2.12
  48  0.500  0.500  0.351-  16 2.12  13 2.12  14 2.12   6 2.12  29 2.12
  49  0.250  0.500  0.651-  11 2.12  19 2.12  20 2.12  36 2.12  17 2.15
  50  0.500  0.750  0.651-  12 2.12  19 2.12  20 2.12  35 2.12  18 2.15
  51  0.250  0.750  0.550-  19 2.11  17 2.12  18 2.12   9 2.12  34 2.12  15 2.12
  52  0.500  0.500  0.550-  20 2.11  17 2.12  18 2.12  10 2.12  33 2.12  16 2.12
  53  0.750  0.000  0.450-  21 2.12   8 2.12  23 2.12  24 2.12  31 2.12  25 2.13
  54  0.000  0.250  0.450-  22 2.12   7 2.12  23 2.12  24 2.12  32 2.12  26 2.13
  55  0.750  0.250  0.351-  23 2.12  21 2.12  22 2.12   6 2.12  29 2.12
  56  0.000  0.000  0.351-  24 2.12  21 2.12  22 2.12   5 2.12  30 2.12
  57  0.750  0.000  0.651-  12 2.12  27 2.12  28 2.12  35 2.12  25 2.15
  58  0.000  0.250  0.651-  11 2.12  27 2.12  28 2.12  36 2.12  26 2.15
  59  0.750  0.250  0.550-  27 2.11  25 2.12  26 2.12  10 2.12  33 2.12  23 2.12
  60  0.000  0.000  0.550-  28 2.11  25 2.12  26 2.12   9 2.12  34 2.12  24 2.12
  61  0.750  0.500  0.450-  29 2.12  23 2.12  16 2.12  31 2.12  32 2.12  33 2.13
  62  0.000  0.750  0.450-  30 2.12  24 2.12  15 2.12  31 2.12  32 2.12  34 2.13
  63  0.750  0.750  0.351-  31 2.12  21 2.12  29 2.12  30 2.12  14 2.12
  64  0.000  0.500  0.351-  32 2.12  22 2.12  29 2.12  30 2.12  13 2.12
  65  0.750  0.500  0.651-  20 2.12  27 2.12  35 2.12  36 2.12  33 2.15
  66  0.000  0.750  0.651-  19 2.12  28 2.12  35 2.12  36 2.12  34 2.15
  67  0.750  0.750  0.550-  35 2.11  25 2.12  33 2.12  34 2.12  18 2.12  31 2.12
  68  0.000  0.500  0.550-  36 2.11  26 2.12  33 2.12  34 2.12  17 2.12  32 2.12

IMPORTANT INFORMATION: All symmetrisations will be switched off!
NOSYMM: (Re-)initialisation of all symmetry stuff for point group C_1.

                                     Primitive cell

  volume of cell :    1530.6606

  direct lattice vectors                    reciprocal lattice vectors
     8.467142631  0.000000000  0.000000000     0.118103597  0.000000000  0.000000000
     0.000000000  8.467142631  0.000000000     0.000000000  0.118103597  0.000000000
     0.000000000  0.000000000 21.350356973     0.000000000  0.000000000  0.046837624

  length of vectors
     8.467142631  8.467142631 21.350356973     0.118103597  0.118103597  0.046837624

  position of ions in fractional coordinates (direct lattice)
     0.511810360  0.511810360  0.745485969
     0.748017553  0.748017553  0.745485969
     0.483271769  0.483271759  0.797838803
     0.776556141  0.776556131  0.797838805
     0.250000000  0.000000000  0.351282183
     0.500000000  0.250000000  0.351282183
     0.250000000  0.250000000  0.450427394
     0.500000000  0.000000000  0.450427394
     0.250000000  0.000000000  0.550191116
     0.500000000  0.250000000  0.550191116
     0.250000000  0.250000000  0.648532086
     0.500000000  0.000000000  0.648532086
     0.250000000  0.500000000  0.351282183
     0.500000000  0.750000000  0.351282183
     0.250000000  0.750000000  0.450427394
     0.500000000  0.500000000  0.450427394
     0.250000000  0.500000000  0.550191116
     0.500000000  0.750000000  0.550191116
     0.250000000  0.750000000  0.648532086
     0.500000000  0.500000000  0.648532086
     0.750000000  0.000000000  0.351282183
     0.000000000  0.250000000  0.351282183
     0.750000000  0.250000000  0.450427394
     0.000000000  0.000000000  0.450427394
     0.750000000  0.000000000  0.550191116
     0.000000000  0.250000000  0.550191116
     0.750000000  0.250000000  0.648532086
     0.000000000  0.000000000  0.648532086
     0.750000000  0.500000000  0.351282183
     0.000000000  0.750000000  0.351282183
     0.750000000  0.750000000  0.450427394
     0.000000000  0.500000000  0.450427394
     0.750000000  0.500000000  0.550191116
     0.000000000  0.750000000  0.550191116
     0.750000000  0.750000000  0.648532086
     0.000000000  0.500000000  0.648532086
     0.250000000  0.000000000  0.450427394
     0.500000000  0.250000000  0.450427394
     0.250000000  0.250000000  0.351282183
     0.500000000  0.000000000  0.351282183
     0.250000000  0.000000000  0.650785562
     0.500000000  0.250000000  0.650785562
     0.250000000  0.250000000  0.549814593
     0.500000000  0.000000000  0.549814593
     0.250000000  0.500000000  0.450427394
     0.500000000  0.750000000  0.450427394
     0.250000000  0.750000000  0.351282183
     0.500000000  0.500000000  0.351282183
     0.250000000  0.500000000  0.650785562
     0.500000000  0.750000000  0.650785562
     0.250000000  0.750000000  0.549814593
     0.500000000  0.500000000  0.549814593
     0.750000000  0.000000000  0.450427394
     0.000000000  0.250000000  0.450427394
     0.750000000  0.250000000  0.351282183
     0.000000000  0.000000000  0.351282183
     0.750000000  0.000000000  0.650785562
     0.000000000  0.250000000  0.650785562
     0.750000000  0.250000000  0.549814593
     0.000000000  0.000000000  0.549814593
     0.750000000  0.500000000  0.450427394
     0.000000000  0.750000000  0.450427394
     0.750000000  0.750000000  0.351282183
     0.000000000  0.500000000  0.351282183
     0.750000000  0.500000000  0.650785562
     0.000000000  0.750000000  0.650785562
     0.750000000  0.750000000  0.549814593
     0.000000000  0.500000000  0.549814593

  ion indices of the primitive-cell ions
   primitive index   ion index
                 1           1
                 2           2
                 3           3
                 4           4
                 5           5
                 6           6
                 7           7
                 8           8
                 9           9
                10          10
                11          11
                12          12
                13          13
                14          14
                15          15
                16          16
                17          17
                18          18
                19          19
                20          20
                21          21
                22          22
                23          23
                24          24
                25          25
[...]
   6.35035697  0.00000000 11.74677673
   0.00000000  2.11678566 11.74677673
   6.35035697  2.11678566 13.84639155
   0.00000000  0.00000000 13.84639155
   6.35035697  4.23357132  7.50000000
   0.00000000  6.35035697  7.50000000
   6.35035697  6.35035697  9.61678566
   0.00000000  4.23357132  9.61678566
   6.35035697  4.23357132 11.74677673
   0.00000000  6.35035697 11.74677673
   6.35035697  6.35035697 13.84639155
   0.00000000  4.23357132 13.84639155
   2.11678566  0.00000000  9.61678566
   4.23357132  2.11678566  9.61678566
   2.11678566  2.11678566  7.50000000
   4.23357132  0.00000000  7.50000000
   2.11678566  0.00000000 13.89450407
   4.23357132  2.11678566 13.89450407
   2.11678566  2.11678566 11.73873783
   4.23357132  0.00000000 11.73873783
   2.11678566  4.23357132  9.61678566
   4.23357132  6.35035697  9.61678566
   2.11678566  6.35035697  7.50000000
   4.23357132  4.23357132  7.50000000
   2.11678566  4.23357132 13.89450407
   4.23357132  6.35035697 13.89450407
   2.11678566  6.35035697 11.73873783
   4.23357132  4.23357132 11.73873783
   6.35035697  0.00000000  9.61678566
   0.00000000  2.11678566  9.61678566
   6.35035697  2.11678566  7.50000000
   0.00000000  0.00000000  7.50000000
   6.35035697  0.00000000 13.89450407
   0.00000000  2.11678566 13.89450407
   6.35035697  2.11678566 11.73873783
   0.00000000  0.00000000 11.73873783
   6.35035697  4.23357132  9.61678566
   0.00000000  6.35035697  9.61678566
   6.35035697  6.35035697  7.50000000
   0.00000000  4.23357132  7.50000000
   6.35035697  4.23357132 13.89450407
   0.00000000  6.35035697 13.89450407
   6.35035697  6.35035697 11.73873783
   0.00000000  4.23357132 11.73873783

--------------------------------------- Iteration      FINAL  ---------------------------------------

--------------------OUTCAR has been truncated-------------------------

[...]

--------------------OUTCAR has been truncated-------------------------

  Number of pair interactions contributing to vdW energy:  810100
  Edisp (eV):   -3.74812

  FORCE on cell =-STRESS in cart. coord.  units (eV):
  Direction    XX          YY          ZZ          XY          YZ          ZX
  Alpha Z   939.19342   939.19342   939.19342
  Ewald  154652.63886154652.63894************   326.74427     0.79704     0.79718
  Hartree165406.70351165406.70356************   243.50685     0.06913     0.06920
  E(xc)   -2557.35783 -2557.35783 -2560.13953     0.66780     0.00365     0.00365
  Local  ************************328540.28882  -585.47655    -0.70780    -0.70802
  n-local -2873.51621 -2873.51622 -2907.10928    -7.88565    -0.00351    -0.00360
  augment  1062.03407  1062.03407  1051.67812     2.08898    -0.00599    -0.00589
  Kinetic  7764.07172  7764.07172  7758.18408    20.36245    -0.21588    -0.21588
  Fock        0.00000     0.00000     0.00000     0.00000     0.00000     0.00000
  vdW        -5.31794    -5.31794    -4.48029     0.03518     0.00051     0.00051
  Total     -28.17862   -28.17862    -2.90263     0.04334    -0.06285    -0.06285
  in kB     -29.49520   -29.49520    -3.03824     0.04536    -0.06579    -0.06579

 VOLUME and BASIS-vectors are now :
  energy-cutoff  :      600.00
  volume of cell :     1530.66
      direct lattice vectors                 reciprocal lattice vectors
     8.467142631  0.000000000  0.000000000     0.118103597  0.000000000  0.000000000
     0.000000000  8.467142631  0.000000000     0.000000000  0.118103597  0.000000000
     0.000000000  0.000000000 21.350356973     0.000000000  0.000000000  0.046837624

  length of vectors
     8.467142631  8.467142631 21.350356973     0.118103597  0.118103597  0.046837624

 FORCES acting on ions:
    Electron-Ion                     Ewald-Force                    Non-Local-Force
   0.477E+02 0.477E+02 -.110E+04   -.453E+02 -.453E+02 0.106E+04   -.242E+01 -.242E+01 0.401E+02
   -.467E+02 -.467E+02 -.110E+04   0.441E+02 0.441E+02 0.106E+04   0.259E+01 0.259E+01 0.401E+02
   0.137E+03 0.137E+03 -.160E+04   -.150E+03 -.150E+03 0.165E+04   0.127E+02 0.127E+02 -.576E+02
   -.138E+03 -.138E+03 -.160E+04   0.151E+03 0.151E+03 0.165E+04   -.129E+02 -.129E+02 -.575E+02
   0.201E+00 -.210E+00 0.208E+04   -.203E+00 0.212E+00 -.208E+04   0.142E-02 -.169E-02 -.704E+01
   0.210E+00 0.214E+00 0.208E+04   -.212E+00 -.216E+00 -.208E+04   0.170E-02 0.105E-02 -.703E+01
   0.662E+00 0.662E+00 0.753E+03   -.668E+00 -.668E+00 -.753E+03   0.529E-02 0.529E-02 0.403E+00
   0.706E+00 -.137E+01 0.754E+03   -.713E+00 0.137E+01 -.754E+03   0.609E-02 0.490E-02 0.462E+00
   0.400E+01 -.408E+01 -.576E+03   -.401E+01 0.410E+01 0.576E+03   0.900E-02 -.110E-01 -.320E+00
   0.414E+01 0.658E+01 -.565E+03   -.416E+01 -.645E+01 0.566E+03   0.112E-01 -.127E+00 -.579E+00
   0.218E+02 0.218E+02 -.192E+04   -.220E+02 -.220E+02 0.192E+04   0.158E+00 0.158E+00 0.610E+01
   0.239E+02 -.273E+02 -.190E+04   -.240E+02 0.279E+02 0.189E+04   0.150E+00 -.556E+00 0.611E+01
   0.214E+00 0.210E+00 0.208E+04   -.216E+00 -.212E+00 -.208E+04   0.105E-02 0.170E-02 -.703E+01
   0.226E+00 -.216E+00 0.208E+04   -.227E+00 0.217E+00 -.208E+04   0.555E-03 -.574E-03 -.702E+01
   0.133E+01 -.656E+00 0.754E+03   -.132E+01 0.665E+00 -.754E+03   -.824E-02 -.687E-02 0.462E+00
   0.137E+01 0.137E+01 0.754E+03   -.137E+01 -.137E+01 -.755E+03   0.612E-03 0.612E-03 0.650E+00
   0.658E+01 0.414E+01 -.565E+03   -.645E+01 -.416E+01 0.566E+03   -.127E+00 0.112E-01 -.579E+00
   0.656E+01 -.644E+01 -.556E+03   -.645E+01 0.632E+01 0.555E+03   -.112E+00 0.119E+00 0.259E+00
   0.270E+02 -.236E+02 -.190E+04   -.276E+02 0.238E+02 0.189E+04   0.564E+00 -.148E+00 0.611E+01
   0.426E+02 0.426E+02 -.178E+04   -.434E+02 -.434E+02 0.178E+04   0.811E+00 0.811E+00 0.324E+01
   -.200E+00 -.224E+00 0.208E+04   0.203E+00 0.226E+00 -.208E+04   -.171E-02 -.136E-02 -.702E+01
   -.210E+00 0.201E+00 0.208E+04   0.212E+00 -.203E+00 -.208E+04   -.169E-02 0.142E-02 -.704E+01
   -.656E+00 0.133E+01 0.754E+03   0.665E+00 -.132E+01 -.754E+03   -.687E-02 -.824E-02 0.462E+00
   -.697E+00 -.697E+00 0.753E+03   0.708E+00 0.708E+00 -.753E+03   -.840E-02 -.840E-02 0.399E+00
   -.406E+01 -.669E+01 -.565E+03   0.407E+01 0.657E+01 0.565E+03   -.100E-01 0.118E+00 -.584E+00
   -.408E+01 0.400E+01 -.576E+03   0.410E+01 -.401E+01 0.576E+03   -.110E-01 0.900E-02 -.320E+00
   -.236E+02 0.270E+02 -.190E+04   0.238E+02 -.276E+02 0.189E+04   -.148E+00 0.564E+00 0.611E+01
   -.221E+02 -.221E+02 -.192E+04   0.222E+02 0.222E+02 0.192E+04   -.161E+00 -.161E+00 0.610E+01
   -.216E+00 0.226E+00 0.208E+04   0.217E+00 -.227E+00 -.208E+04   -.574E-03 0.555E-03 -.702E+01
   -.224E+00 -.200E+00 0.208E+04   0.226E+00 0.203E+00 -.208E+04   -.136E-02 -.171E-02 -.702E+01
   -.132E+01 -.132E+01 0.755E+03   0.132E+01 0.132E+01 -.755E+03   -.188E-02 -.188E-02 0.648E+00
   -.137E+01 0.706E+00 0.754E+03   0.137E+01 -.713E+00 -.754E+03   0.490E-02 0.609E-02 0.462E+00
   -.644E+01 0.656E+01 -.556E+03   0.632E+01 -.645E+01 0.555E+03   0.119E+00 -.112E+00 0.259E+00
   -.669E+01 -.406E+01 -.565E+03   0.657E+01 0.407E+01 0.565E+03   0.118E+00 -.100E-01 -.584E+00
   -.421E+02 -.421E+02 -.178E+04   0.429E+02 0.429E+02 0.177E+04   -.822E+00 -.822E+00 0.320E+01
   -.273E+02 0.239E+02 -.190E+04   0.279E+02 -.240E+02 0.189E+04   -.556E+00 0.150E+00 0.611E+01
   0.587E+00 -.611E+00 0.564E+03   -.601E+00 0.620E+00 -.564E+03   0.187E-01 -.133E-01 -.113E+00
   0.615E+00 0.726E+00 0.564E+03   -.625E+00 -.760E+00 -.564E+03   0.148E-01 0.461E-01 -.111E+00
   0.130E+00 0.130E+00 0.156E+04   -.133E+00 -.133E+00 -.157E+04   0.324E-02 0.324E-02 0.348E+01
   0.138E+00 -.193E+00 0.156E+04   -.140E+00 0.195E+00 -.157E+04   0.379E-02 -.266E-02 0.349E+01
   0.110E+02 -.112E+02 -.147E+04   -.109E+02 0.111E+02 0.147E+04   -.108E+00 0.106E+00 -.518E+01
   0.127E+02 0.319E+02 -.143E+04   -.126E+02 -.316E+02 0.144E+04   -.110E+00 -.298E+00 -.520E+01
   0.372E+01 0.372E+01 -.424E+03   -.372E+01 -.372E+01 0.424E+03   0.490E-03 0.492E-03 0.282E+00
   0.384E+01 -.432E+01 -.418E+03   -.384E+01 0.436E+01 0.418E+03   -.285E-02 -.309E-01 0.351E+00
   0.726E+00 0.615E+00 0.564E+03   -.760E+00 -.625E+00 -.564E+03   0.461E-01 0.148E-01 -.111E+00
   0.765E+00 -.728E+00 0.567E+03   -.813E+00 0.772E+00 -.567E+03   0.653E-01 -.599E-01 -.818E-01
   0.186E+00 -.130E+00 0.156E+04   -.188E+00 0.133E+00 -.157E+04   0.258E-02 -.334E-02 0.349E+01
   0.195E+00 0.195E+00 0.156E+04   -.196E+00 -.196E+00 -.157E+04   0.153E-02 0.153E-02 0.350E+01
   0.319E+02 0.127E+02 -.143E+04   -.316E+02 -.126E+02 0.144E+04   -.298E+00 -.110E+00 -.520E+01
   0.412E+02 -.408E+02 -.137E+04   -.408E+02 0.405E+02 0.138E+04   -.376E+00 0.368E+00 -.467E+01
   0.422E+01 -.376E+01 -.418E+03   -.425E+01 0.376E+01 0.418E+03   0.301E-01 0.267E-03 0.350E+00
   0.439E+01 0.439E+01 -.417E+03   -.443E+01 -.443E+01 0.417E+03   0.391E-01 0.391E-01 -.253E+00
   -.578E+00 -.746E+00 0.564E+03   0.585E+00 0.775E+00 -.564E+03   -.103E-01 -.395E-01 -.107E+00
   -.611E+00 0.587E+00 0.564E+03   0.620E+00 -.601E+00 -.564E+03   -.133E-01 0.187E-01 -.113E+00
   -.130E+00 0.186E+00 0.156E+04   0.133E+00 -.188E+00 -.157E+04   -.334E-02 0.258E-02 0.349E+01
   -.138E+00 -.138E+00 0.156E+04   0.140E+00 0.140E+00 -.157E+04   -.337E-02 -.337E-02 0.348E+01
   -.126E+02 -.323E+02 -.143E+04   0.124E+02 0.320E+02 0.144E+04   0.109E+00 0.295E+00 -.521E+01
   -.112E+02 0.110E+02 -.147E+04   0.111E+02 -.109E+02 0.147E+04   0.106E+00 -.108E+00 -.518E+01
   -.376E+01 0.422E+01 -.418E+03   0.376E+01 -.425E+01 0.418E+03   0.266E-03 0.301E-01 0.350E+00
   -.380E+01 -.380E+01 -.424E+03   0.380E+01 0.380E+01 0.423E+03   0.120E-02 0.120E-02 0.280E+00
   -.728E+00 0.765E+00 0.567E+03   0.772E+00 -.813E+00 -.567E+03   -.599E-01 0.653E-01 -.818E-01
   -.746E+00 -.578E+00 0.564E+03   0.775E+00 0.585E+00 -.564E+03   -.395E-01 -.103E-01 -.107E+00
   -.187E+00 -.187E+00 0.156E+04   0.188E+00 0.188E+00 -.157E+04   -.104E-02 -.104E-02 0.350E+01
   -.193E+00 0.138E+00 0.156E+04   0.195E+00 -.140E+00 -.157E+04   -.266E-02 0.379E-02 0.349E+01
   -.408E+02 0.412E+02 -.137E+04   0.405E+02 -.408E+02 0.138E+04   0.368E+00 -.376E+00 -.467E+01
   -.323E+02 -.126E+02 -.143E+04   0.320E+02 0.124E+02 0.144E+04   0.295E+00 0.109E+00 -.521E+01
   -.430E+01 -.430E+01 -.416E+03   0.434E+01 0.434E+01 0.417E+03   -.412E-01 -.412E-01 -.229E+00
   -.432E+01 0.384E+01 -.418E+03   0.436E+01 -.384E+01 0.418E+03   -.309E-01 -.285E-02 0.351E+00
   0.943E-01 0.943E-01 0.584E+02   0.199E-12 -.284E-13 0.227E-11   -.959E-01 -.959E-01 -.584E+02

 POSITION                                       TOTAL-FORCE (eV/Angst)
      4.63322      4.63322     16.08950         0.003931      0.003932      0.002959
      5.96091      5.96091     16.08532         0.001350      0.001350     -0.003077
      4.40620      4.40619     17.22424        -0.004537     -0.004537     -0.001282
      6.19273      6.19273     17.21813        -0.005744     -0.005744     -0.003769
      2.11679      0.00000      7.50000        -0.000570      0.000695      0.396076
      4.23357      2.11679      7.50000        -0.000652     -0.000620      0.392801
      2.11679      2.11679      9.61679        -0.001084     -0.001084      0.026801
      4.23357      0.00000      9.61679        -0.001342      0.000214      0.027470
      2.11744      0.00008     11.74390        -0.002119      0.001676      0.001577
      4.23384      2.12073     11.74845        -0.001189      0.001438      0.001507
      2.11369      2.11369     13.84335         0.000094      0.000094      0.000999
      4.23090      0.01413     13.84167         0.000356     -0.000165      0.001041
      2.11679      4.23357      7.50000        -0.000620     -0.000652      0.392801
      4.23357      6.35036      7.50000        -0.000407      0.000445      0.391862
      2.11679      6.35036      9.61679         0.001398      0.001910      0.027248
      4.23357      4.23357      9.61679        -0.003307     -0.003307      0.034168
      2.12073      4.23384     11.74845         0.001437     -0.001188      0.001507
      4.23864      6.34587     11.74470         0.001092     -0.001759      0.001431
      2.10384      6.35412     13.84167        -0.000652     -0.000515      0.000899
      4.21413      4.21413     13.89781        -0.000377     -0.000377     -0.001950
      6.35036      0.00000      7.50000         0.000687      0.000759      0.392661
      0.00000      2.11679      7.50000         0.000695     -0.000570      0.396076
      6.35036      2.11679      9.61679         0.001910      0.001398      0.027248
      0.00000      0.00000      9.61679         0.002506      0.002506      0.026514
      6.35068     -0.00296     11.74812         0.001470     -0.001537      0.001626
      0.00008      2.11744     11.74390         0.001675     -0.002120      0.001577
      6.35412      2.10384     13.84167        -0.000515     -0.000653      0.000899
      0.00433      0.00433     13.84305        -0.001168     -0.001168      0.001093
      6.35036      4.23357      7.50000         0.000445     -0.000407      0.391862
      0.00000      6.35036      7.50000         0.000759      0.000687      0.392661
      6.35036      6.35036      9.61679         0.004148      0.004148      0.033456
      0.00000      4.23357      9.61679         0.000215     -0.001342      0.027470
      6.34587      4.23864     11.74470        -0.001760      0.001092      0.001432
     -0.00296      6.35068     11.74812        -0.001537      0.001469      0.001626
      6.37157      6.37157     13.89553        -0.001322     -0.001324      0.000894
      0.01413      4.23090     13.84167        -0.000165      0.000356      0.001040
      2.11679      0.00000      9.61679         0.005486     -0.004094      0.039644
      4.23357      2.11679      9.61679         0.004984      0.011829      0.064739
      2.11679      2.11679      7.50000         0.000970      0.000970     -0.477959
      4.23357      0.00000      7.50000         0.001120     -0.000732     -0.475963
      2.11515      0.00274     13.88869         0.000797     -0.000816     -0.001434
      4.23208      2.10624     13.88332         0.000850     -0.001486     -0.001375
      2.11718      2.11718     11.73516         0.000072      0.000073     -0.002594
      4.23415     -0.00379     11.73737        -0.000144      0.000123     -0.001588
      2.11679      4.23357      9.61679         0.011829      0.004984      0.064739
      4.23357      6.35036      9.61679         0.017208     -0.015795      0.053335
      2.11679      6.35036      7.50000         0.000764     -0.000936     -0.475965
      4.23357      4.23357      7.50000         0.000416      0.000416     -0.474439
      2.10624      4.23208     13.88332        -0.001486      0.000851     -0.001376
      4.21597      6.36925     13.90143        -0.000971      0.000758     -0.000939
      2.12134      6.35035     11.73733         0.000005      0.000205     -0.001617
      4.23680      4.23680     11.75177         0.000261      0.000261     -0.001819
      6.35036      0.00000      9.61679        -0.003842     -0.010229      0.064245
      0.00000      2.11679      9.61679        -0.004094      0.005486      0.039644
      6.35036      2.11679      7.50000        -0.000936      0.000763     -0.475965
      0.00000      0.00000      7.50000        -0.000952     -0.000952     -0.477866
      6.35300      0.01199     13.88249        -0.001159      0.000824     -0.001017
      0.00274      2.11515     13.88869        -0.000817      0.000796     -0.001435
      6.35035      2.12134     11.73733         0.000205      0.000005     -0.001616
      0.00031      0.00031     11.73497        -0.000034     -0.000033     -0.002610
      6.35036      4.23357      9.61679        -0.015795      0.017208      0.053335
      0.00000      6.35036      9.61679        -0.010229     -0.003842      0.064245
      6.35036      6.35036      7.50000        -0.000222     -0.000222     -0.474334
      0.00000      4.23357      7.50000        -0.000732      0.001120     -0.475963
      6.36925      4.21597     13.90143         0.000759     -0.000970     -0.000938
      0.01199      6.35300     13.88249         0.000823     -0.001160     -0.001017
      6.34784      6.34784     11.75140        -0.000358     -0.000358     -0.001712
     -0.00379      4.23415     11.73737         0.000123     -0.000143     -0.001588
    total drift:                               -0.001622     -0.001622      0.013861

  FREE ENERGIE OF THE ION-ELECTRON SYSTEM (eV)
  free  energy   TOTEN  =      -401.40678813 eV

  energy  without entropy=     -401.40678813  energy(sigma->0) =     -401.40678813

 d Force = 0.7209970E-05[-0.176E-05, 0.162E-04]  d Energy = 0.7061472E-05 0.148E-06
 d Force =-0.1288604E+01[-0.129E+01,-0.129E+01]  d Ewald  =-0.1288604E+01 0.966E-09

 reached required accuracy - stopping structural energy minimisation