 vasp.6.3.0 20Jan22 (build Apr  1 2022 16:44:48) complex
 executed on        HPECrayEX_GCC date 2023.03.12  00:20:31

 INCAR:
   SYSTEM = MgO-rocksalt
   ISMEAR = 0
   SIGMA = 0.05
   EDIFF = 1E-6
   ALGO = ALL
   ISTART = 0
   IBRION = -1
   NSW = 0
   ISYM = 0
   DIPOL = 0.5 0.5 0.5
   IDIPOL = 3
   LDIPOL = .TRUE.
   LHFCALC = .TRUE.
   GGA = B5
   AEXX = 0.2
   AGGAX = 0.72
   AGGAC = 0.81
   ALDAC = 0.19
   IVDW = 1
   VDW_S6 = 1.05
   VDW_C6 = 0.63 0.70
   VDW_R0 = 1.243 1.342
   ENCUT = 600
   PREC = Accurate
   LASPH = .TRUE.
   LREAL = .FALSE.
   ISPIN = 1
   NELM = 200
   NELMIN = 8
   NCORE = 8
   KPAR = 1
   LWAVE = .FALSE.
   LCHARG = .FALSE.

 POTCAR:    PAW_PBE Mg_pv 13Apr2007
 POTCAR:    PAW_PBE O 08Apr2002
 POTCAR:    PAW_PBE Mg_pv 13Apr2007
   VRHFIN =Mg: p6s2

   TITEL  = PAW_PBE Mg_pv 13Apr2007
   POMASS =   24.305; ZVAL   =    8.000    mass and valenz
   ENMAX  =  403.929; ENMIN  =  302.947 eV

   TITEL  = PAW_PBE O 08Apr2002
   POMASS =   16.000; ZVAL   =    6.000    mass and valenz
   ENMAX  =  400.000; ENMIN  =  300.000 eV

  PAW_PBE Mg_pv 13Apr2007               :
  PAW_PBE O 08Apr2002                   :

 POSCAR: Mg  O
  positions in direct lattice
 exchange correlation table for  LEXCH =       12
   RHO(1)=    0.500       N(1)  =     2000
   RHO(2)=  100.500       N(2)  =     4000

 ion  position               nearest neighbor table
   1  0.250  0.000  0.352-  33 2.11  35 2.11  36 2.11  43 2.11  52 2.11
   2  0.500  0.250  0.352-  34 2.11  35 2.11  36 2.11  44 2.11  51 2.11
   3  0.250  0.250  0.451-  35 2.11  34 2.11  33 2.11  41 2.11  50 2.11  39 2.11
   4  0.500  0.000  0.451-  36 2.11  34 2.11  33 2.11  42 2.11  49 2.11  40 2.11
   5  0.250  0.000  0.550-  39 2.11  40 2.11  47 2.11  56 2.11  33 2.12  37 2.14
   6  0.500  0.250  0.550-  48 2.11  55 2.11  39 2.11  40 2.11  34 2.12  38 2.13
   7  0.250  0.250  0.648-  39 2.10  38 2.11  37 2.11  54 2.11  45 2.11
   8  0.500  0.000  0.648-  38 2.10  40 2.10  46 2.11  53 2.11  37 2.11
   9  0.250  0.500  0.352-  41 2.11  35 2.11  43 2.11  44 2.11  60 2.11
  10  0.500  0.750  0.352-  42 2.11  36 2.11  43 2.11  44 2.11  59 2.11
  11  0.250  0.750  0.451-  43 2.11  41 2.11  42 2.11  33 2.11  58 2.11  47 2.11
  12  0.500  0.500  0.451-  44 2.11  41 2.11  42 2.11  34 2.11  57 2.11  48 2.12
  13  0.250  0.500  0.550-  48 2.11  39 2.11  47 2.11  64 2.11  41 2.12  45 2.14
  14  0.500  0.750  0.550-  48 2.11  63 2.11  47 2.11  40 2.11  42 2.12  46 2.14
  15  0.250  0.750  0.648-  47 2.09  62 2.11  37 2.11  45 2.11  46 2.11
  16  0.500  0.499  0.651-  38 2.11  61 2.12  45 2.12  46 2.12  48 2.14
  17  0.750  0.000  0.352-  49 2.11  36 2.11  51 2.11  52 2.11  59 2.11
  18  0.000  0.250  0.352-  50 2.11  35 2.11  51 2.11  52 2.11  60 2.11
  19  0.750  0.250  0.451-  51 2.11  49 2.11  50 2.11  34 2.11  57 2.11  55 2.11
  20  0.000  0.000  0.451-  52 2.11  49 2.11  50 2.11  33 2.11  58 2.11  56 2.11
  21  0.750  0.000  0.550-  55 2.11  40 2.11  63 2.11  56 2.11  49 2.12  53 2.14
  22  1.000  0.250  0.550-  55 2.11  39 2.11  64 2.11  56 2.11  50 2.12  54 2.14
  23  0.750  0.250  0.648-  55 2.10  38 2.11  54 2.11  53 2.11  61 2.11
  24  1.000  0.000  0.648-  56 2.10  54 2.11  53 2.11  37 2.11  62 2.11
  25  0.750  0.500  0.352-  57 2.11  51 2.11  44 2.11  59 2.11  60 2.11
  26  0.000  0.750  0.352-  58 2.11  52 2.11  43 2.11  59 2.11  60 2.11
  27  0.750  0.750  0.451-  59 2.11  49 2.11  57 2.11  58 2.11  42 2.11  63 2.11
  28  0.000  0.500  0.451-  60 2.11  50 2.11  57 2.11  58 2.11  41 2.11  64 2.11
  29  0.750  0.500  0.550-  48 2.11  55 2.11  63 2.11  64 2.11  57 2.12  61 2.13
  30  1.000  0.750  0.550-  64 2.11  63 2.11  56 2.11  47 2.11  58 2.12  62 2.14
  31  0.750  0.750  0.648-  63 2.10  62 2.11  53 2.11  61 2.11  46 2.11
  32  1.000  0.500  0.648-  64 2.10  61 2.10  45 2.10  54 2.11  62 2.11
  33  0.250  0.000  0.451-   1 2.11   3 2.11   4 2.11  11 2.11  20 2.11   5 2.12
  34  0.500  0.250  0.451-   2 2.11   3 2.11   4 2.11  12 2.11  19 2.11   6 2.12
  35  0.250  0.250  0.352-   3 2.11   2 2.11   1 2.11   9 2.11  18 2.11
  36  0.500  0.000  0.352-   4 2.11   2 2.11   1 2.11  10 2.11  17 2.11
  37  0.250  1.000  0.650-  15 2.11  24 2.11   7 2.11   8 2.11   5 2.14
  38  0.500  0.249  0.650-   8 2.10   7 2.11  23 2.11  16 2.11   6 2.13
  39  0.250  0.250  0.550-   7 2.10   5 2.11  22 2.11  13 2.11   6 2.11   3 2.11
  40  0.500  1.000  0.550-   8 2.10   5 2.11  21 2.11  14 2.11   4 2.11   6 2.11
  41  0.250  0.500  0.451-   9 2.11   3 2.11  11 2.11  12 2.11  28 2.11  13 2.12
  42  0.500  0.750  0.451-  10 2.11   4 2.11  11 2.11  12 2.11  27 2.11  14 2.12
  43  0.250  0.750  0.352-  11 2.11   9 2.11  10 2.11   1 2.11  26 2.11
  44  0.500  0.500  0.352-  12 2.11   9 2.11  10 2.11   2 2.11  25 2.11
  45  0.249  0.500  0.650-  32 2.10  15 2.11   7 2.11  16 2.12  13 2.14
  46  0.500  0.751  0.650-   8 2.11  15 2.11  31 2.11  16 2.12  14 2.14
  47  0.250  0.750  0.550-  15 2.09  14 2.11  30 2.11   5 2.11  13 2.11  11 2.11
  48  0.500  0.500  0.550-  14 2.11  13 2.11  29 2.11   6 2.11  12 2.12  16 2.14
  49  0.750  0.000  0.451-  17 2.11   4 2.11  19 2.11  20 2.11  27 2.11  21 2.12
  50  0.000  0.250  0.451-  18 2.11   3 2.11  19 2.11  20 2.11  28 2.11  22 2.12
  51  0.750  0.250  0.352-  19 2.11  17 2.11  18 2.11   2 2.11  25 2.11
  52  0.000  0.000  0.352-  20 2.11  17 2.11  18 2.11   1 2.11  26 2.11
  53  0.750  1.000  0.650-  24 2.11  31 2.11  23 2.11   8 2.11  21 2.14
  54  0.000  0.250  0.650-  24 2.11   7 2.11  23 2.11  32 2.11  22 2.14
  55  0.750  0.250  0.550-  23 2.10  21 2.11  22 2.11  29 2.11   6 2.11  19 2.11
  56  1.000  1.000  0.550-  24 2.10  30 2.11   5 2.11  21 2.11  22 2.11  20 2.11
  57  0.750  0.500  0.451-  25 2.11  19 2.11  12 2.11  27 2.11  28 2.11  29 2.12
  58  0.000  0.750  0.451-  26 2.11  20 2.11  11 2.11  27 2.11  28 2.11  30 2.12
  59  0.750  0.750  0.352-  27 2.11  17 2.11  25 2.11  26 2.11  10 2.11
  60  0.000  0.500  0.352-  28 2.11  18 2.11  25 2.11  26 2.11   9 2.11
  61  0.751  0.500  0.650-  32 2.10  31 2.11  23 2.11  16 2.12  29 2.13
  62  0.000  0.750  0.650-  15 2.11  31 2.11  24 2.11  32 2.11  30 2.14
  63  0.750  0.750  0.550-  31 2.10  30 2.11  14 2.11  21 2.11  29 2.11  27 2.11
  64  0.000  0.500  0.550-  32 2.10  30 2.11  22 2.11  28 2.11  13 2.11  29 2.11

IMPORTANT INFORMATION: All symmetrisations will be switched off!
NOSYMM: (Re-)initialisation of all symmetry stuff for point group C_1.

                                     Primitive cell

  volume of cell :    1519.6535

  direct lattice vectors                    reciprocal lattice vectors
     8.440582262  0.000000000  0.000000000     0.118475239  0.000000000  0.000000000
     0.000000000  8.440582262  0.000000000     0.000000000  0.118475239  0.000000000
     0.000000000  0.000000000 21.330436697     0.000000000  0.000000000  0.046881366

  length of vectors
     8.440582262  8.440582262 21.330436697     0.118475239  0.118475239  0.046881366

  position of ions in fractional coordinates (direct lattice)
     0.250000000  0.000000000  0.351610242
     0.500000000  0.250000000  0.351610242
     0.250000000  0.250000000  0.450536747
     0.500000000  0.000000000  0.450536747
     0.250065043  0.000103957  0.549842162
     0.500015961  0.250411093  0.550117934
     0.250004934  0.249908479  0.648132938
     0.500003663  0.000324147  0.648091130
     0.250000000  0.500000000  0.351610242
     0.500000000  0.750000000  0.351610242
     0.250000000  0.750000000  0.450536747
     0.500000000  0.500000000  0.450536747
     0.250475680  0.499927290  0.550095461
     0.500022316  0.749508005  0.550105676
     0.249673176  0.750208424  0.647781664
     0.500193997  0.499261669  0.650538979
     0.750000000  0.000000000  0.351610242
     0.000000000  0.250000000  0.351610242
     0.750000000  0.250000000  0.450536747
     0.000000000  0.000000000  0.450536747
     0.749922336  0.000062662  0.549865174
     0.999987431  0.250080964  0.549881902
     0.749999243  0.249943391  0.648163001
     0.999966525  0.000104653  0.648261771
     0.750000000  0.500000000  0.351610242
     0.000000000  0.750000000  0.351610242
     0.750000000  0.750000000  0.450536747
     0.000000000  0.500000000  0.450536747
     0.749539623  0.499935386  0.550105525
     0.999945643  0.749939638  0.549821585
     0.750216969  0.750064458  0.647949962
     0.999900657  0.499931451  0.648084465
     0.250000000  0.000000000  0.450536747
     0.500000000  0.250000000  0.450536747
     0.250000000  0.250000000  0.351610242
     0.500000000  0.000000000  0.351610242
     0.249796893  0.999932964  0.650181742
     0.499981949  0.249040832  0.649877958
     0.249907324  0.249973999  0.549658438
     0.499988291  0.999840277  0.549625143
     0.250000000  0.500000000  0.450536747
     0.500000000  0.750000000  0.450536747
     0.250000000  0.750000000  0.351610242
     0.500000000  0.500000000  0.351610242
     0.249110963  0.500160517  0.650198246
     0.499904579  0.750913763  0.650477663
     0.249987512  0.750053445  0.549649156
     0.499975939  0.500081185  0.550059980
     0.750000000  0.000000000  0.450536747
     0.000000000  0.250000000  0.450536747
     0.750000000  0.250000000  0.351610242
     0.000000000  0.000000000  0.351610242
     0.750173516  0.999920109  0.650207541
     0.000018285  0.249849555  0.650205996
     0.750094732  0.249932226  0.549651239
     0.999998679  0.999977846  0.549664204
     0.750000000  0.500000000  0.450536747
     0.000000000  0.750000000  0.450536747
     0.750000000  0.750000000  0.351610242
     0.000000000  0.500000000  0.351610242
     0.750878258  0.500090634  0.650045340
     0.000007251  0.750185569  0.650183712
     0.749983575  0.750066122  0.549668639
     0.000038447  0.500041508  0.549619100

  ion indices of the primitive-cell ions
   primitive index   ion index
                 1           1
                 2           2
                 3           3
                 4           4
                 5           5
                 6           6
                 7           7
                 8           8
                 9           9
                10          10
                11          11
                12          12
                13          13
                14          14
                15          15
                16          16
                17          17
                18          18
                19          19
                20          20
                21          21
                22          22
                23          23
                24          24
                25          25
                26          26
                27          27
                28          28
                29          29
                30          30
                31          31
                32          32
                33          33
                34          34
                35          35
                36          36
                37          37
                38          38
                39          39
                40          40
                41          41
                42          42
                43          43
                44          44
[...]
   0.50000000  0.75000000  0.45053675
   0.25000000  0.75000000  0.35161024
   0.50000000  0.50000000  0.35161024
   0.24911096  0.50016052  0.65019825
   0.49990458  0.75091376  0.65047766
   0.24998751  0.75005345  0.54964916
   0.49997594  0.50008119  0.55005998
   0.75000000  0.00000000  0.45053675
   0.00000000  0.25000000  0.45053675
   0.75000000  0.25000000  0.35161024
   0.00000000  0.00000000  0.35161024
   0.75017352  0.99992011  0.65020754
   0.00001829  0.24984956  0.65020600
   0.75009473  0.24993223  0.54965124
   0.99999868  0.99997785  0.54966420
   0.75000000  0.50000000  0.45053675
   0.00000000  0.75000000  0.45053675
   0.75000000  0.75000000  0.35161024
   0.00000000  0.50000000  0.35161024
   0.75087826  0.50009063  0.65004534
   0.00000725  0.75018557  0.65018371
   0.74998358  0.75006612  0.54966864
   0.00003845  0.50004151  0.54961910

 position of ions in cartesian coordinates  (Angst):
   2.11014557  0.00000000  7.50000000
   4.22029113  2.11014557  7.50000000
   2.11014557  2.11014557  9.61014557
   4.22029113  0.00000000  9.61014557
   2.11069456  0.00087746 11.72837343
   4.22042585  2.11361543 11.73425577
   2.11018721  2.10937308 13.82495861
   4.22032205  0.00273599 13.82406682
   2.11014557  4.22029113  7.50000000
   4.22029113  6.33043670  7.50000000
   2.11014557  6.33043670  9.61014557
   4.22029113  4.22029113  9.61014557
   2.11416059  4.21967742 11.73377642
   4.22047949  6.32628397 11.73399429
   2.10738698  6.33219591 13.81746578
   4.22192858  4.21405918 13.87628050
   6.33043670  0.00000000  7.50000000
   0.00000000  2.11014557  7.50000000
   6.33043670  2.11014557  9.61014557
   0.00000000  0.00000000  9.61014557
   6.32978117  0.00052890 11.72886428
   8.44047618  2.11082895 11.72922109
   6.33043030  2.10966775 13.82559985
   8.44029971  0.00088333 13.82770666
   6.33043670  4.22029113  7.50000000
   0.00000000  6.33043670  7.50000000
   6.33043670  6.33043670  9.61014557
   0.00000000  4.22029113  9.61014557
   6.32655085  4.21974576 11.73399107
   8.44012346  6.32992720 11.72793452
   6.33226804  6.33098076 13.82105564
   8.43974375  4.21971254 13.82392466
   2.11014557  0.00000000  9.61014557
   4.22029113  2.11014557  9.61014557
   2.11014557  2.11014557  7.50000000
   4.22029113  0.00000000  7.50000000
   2.10843123  8.44001644 13.86866048
   4.22013877  2.10204963 13.86218064
   2.10936332  2.10992611 11.72445451
   4.22019230  8.43923411 11.72374432
   2.11014557  4.22029113  9.61014557
   4.22029113  6.33043670  9.61014557
   2.11014557  6.33043670  7.50000000
   4.22029113  4.22029113  7.50000000
   2.10264158  4.22164599 13.86901254
   4.21948572  6.33814938 13.87497262
   2.11004016  6.33088781 11.72425652
   4.22008804  4.22097638 11.73301958
   6.33043670  0.00000000  9.61014557
   0.00000000  2.11014557  9.61014557
   6.33043670  2.11014557  7.50000000
   0.00000000  0.00000000  7.50000000
   6.33190127  8.43990794 13.86921078
   0.00015434  2.10887572 13.86917784
   6.33123629  2.10957351 11.72430097
   8.44057111  8.44039527 11.72457750
   6.33043670  4.22029113  9.61014557
   0.00000000  6.33043670  9.61014557
   6.33043670  6.33043670  7.50000000
   0.00000000  4.22029113  7.50000000
   6.33784971  4.22105613 13.86575098
   0.00006120  6.33200301 13.86870250
   6.33029806  6.33099480 11.72467210
   0.00032452  4.22064148 11.72361543

--------------------------------------- Iteration      FINAL  ---------------------------------------

--------------------OUTCAR has been truncated-------------------------

[...]

--------------------OUTCAR has been truncated-------------------------

  DFT-D2 method for vdW energy calculation

  Parameters of vdW forcefield:
         C6(Jnm^6/mol)     R0(A)
   Mg       0.630          1.243
   O        0.700          1.342

  vdW correction parametrized for the method ¦ÿ      

  IVDW =   1
  VDW_RADIUS =    50.000 A
  VDW_S6 =     1.050
  VDW_SR =     1.000
  VDW_D =    20.000
  LVDW_EWALD = F

  Number of pair interactions contributing to vdW energy:  723257
  Edisp (eV):   -5.08077

 VOLUME and BASIS-vectors are now :
  energy-cutoff  :      600.00
  volume of cell :     1519.65
      direct lattice vectors                 reciprocal lattice vectors
     8.440582262  0.000000000  0.000000000     0.118475239  0.000000000  0.000000000
     0.000000000  8.440582262  0.000000000     0.000000000  0.118475239  0.000000000
     0.000000000  0.000000000 21.330436697     0.000000000  0.000000000  0.046881366

  length of vectors
     8.440582262  8.440582262 21.330436697     0.118475239  0.118475239  0.046881366

 FORCES acting on ions:
    Electron-Ion                     Ewald-Force                    Non-Local-Force
   -.999E-01 0.146E-02 0.207E+04   0.102E+00 -.112E-02 -.206E+04   -.134E-02 -.239E-03 -.639E+01
   -.193E-02 -.127E+00 0.207E+04   0.202E-02 0.130E+00 -.206E+04   -.686E-04 -.224E-02 -.640E+01
   -.532E+00 -.536E+00 0.685E+03   0.543E+00 0.558E+00 -.686E+03   -.701E-02 -.131E-01 0.407E+00
   -.237E-01 -.923E-03 0.685E+03   0.260E-01 -.962E-02 -.686E+03   -.146E-02 0.686E-02 0.373E+00
   -.280E+00 0.114E+00 -.688E+03   0.275E+00 -.102E+00 0.689E+03   -.204E-02 -.153E-01 -.179E+00
   0.523E-01 -.143E+01 -.690E+03   -.525E-01 0.158E+01 0.691E+03   -.110E-02 -.126E+00 -.301E+00
   -.235E+00 -.990E+00 -.205E+04   0.181E-01 0.835E+00 0.205E+04   0.144E+00 0.115E+00 0.558E+01
   0.211E-01 0.137E+01 -.205E+04   -.249E-01 -.149E+01 0.205E+04   0.801E-03 0.449E-01 0.548E+01
   -.131E+00 -.124E-02 0.207E+04   0.134E+00 0.984E-03 -.206E+04   -.246E-02 0.174E-03 -.640E+01
   -.324E-02 0.127E+00 0.207E+04   0.336E-02 -.130E+00 -.206E+04   -.830E-04 0.240E-02 -.640E+01
   -.568E+00 0.537E+00 0.685E+03   0.594E+00 -.556E+00 -.686E+03   -.167E-01 0.120E-01 0.405E+00
   -.116E-01 -.637E-02 0.683E+03   0.103E-01 0.122E-01 -.684E+03   0.908E-03 -.420E-02 0.483E+00
   -.150E+01 -.160E+00 -.692E+03   0.164E+01 0.146E+00 0.692E+03   -.128E+00 0.159E-01 -.253E+00
   0.148E-01 0.156E+01 -.693E+03   -.699E-02 -.170E+01 0.693E+03   -.804E-02 0.123E+00 -.206E+00
   -.167E+01 0.118E+01 -.205E+04   0.158E+01 -.105E+01 0.205E+04   0.931E-01 -.108E+00 0.549E+01
   0.656E+00 -.230E+01 -.207E+04   -.681E+00 0.237E+01 0.207E+04   -.247E-02 0.154E-01 0.589E+01
   0.999E-01 0.256E-02 0.207E+04   -.102E+00 -.233E-02 -.206E+04   0.136E-02 -.161E-03 -.639E+01
   0.196E-02 -.959E-01 0.207E+04   -.205E-02 0.979E-01 -.206E+04   0.575E-04 -.126E-02 -.639E+01
   0.531E+00 -.526E+00 0.685E+03   -.543E+00 0.542E+00 -.686E+03   0.693E-02 -.976E-02 0.404E+00
   0.223E-01 -.353E-01 0.686E+03   -.251E-01 0.427E-01 -.686E+03   0.180E-02 -.474E-02 0.390E+00
   0.278E+00 0.157E+00 -.689E+03   -.272E+00 -.152E+00 0.689E+03   0.191E-02 -.820E-02 -.177E+00
   -.418E-01 -.249E+00 -.689E+03   0.417E-01 0.244E+00 0.689E+03   0.122E-02 -.215E-02 -.175E+00
   0.200E+00 -.579E+00 -.205E+04   0.176E-01 0.394E+00 0.205E+04   -.145E+00 0.128E+00 0.560E+01
   -.117E-01 0.137E+00 -.206E+04   0.147E-01 -.148E+00 0.205E+04   -.413E-03 -.244E-03 0.551E+01
   0.131E+00 -.254E-02 0.207E+04   -.134E+00 0.232E-02 -.206E+04   0.242E-02 0.156E-03 -.640E+01
   0.305E-02 0.960E-01 0.207E+04   -.325E-02 -.979E-01 -.206E+04   0.142E-03 0.122E-02 -.639E+01
   0.567E+00 0.526E+00 0.685E+03   -.595E+00 -.542E+00 -.685E+03   0.177E-01 0.964E-02 0.410E+00
   0.126E-01 0.364E-01 0.685E+03   -.104E-01 -.429E-01 -.686E+03   -.146E-02 0.417E-02 0.371E+00
   0.146E+01 -.195E+00 -.691E+03   -.161E+01 0.190E+00 0.691E+03   0.129E+00 0.875E-02 -.277E+00
   0.274E-02 0.257E+00 -.688E+03   -.105E-01 -.253E+00 0.688E+03   0.813E-02 0.288E-02 -.174E+00
   0.159E+01 0.716E+00 -.205E+04   -.148E+01 -.543E+00 0.205E+04   -.956E-01 -.123E+00 0.552E+01
   -.382E+00 -.153E+00 -.205E+04   0.418E+00 0.165E+00 0.205E+04   -.151E-01 0.293E-04 0.549E+01
   -.248E+00 0.255E-01 0.514E+03   0.254E+00 -.295E-01 -.514E+03   -.722E-02 0.441E-02 -.641E-01
   0.140E-02 -.413E+00 0.513E+03   -.146E-02 0.393E+00 -.513E+03   -.215E-04 0.236E-01 -.108E+00
   -.863E-01 -.859E-01 0.155E+04   0.884E-01 0.888E-01 -.156E+04   -.252E-02 -.350E-02 0.313E+01
   -.277E-02 0.262E-02 0.155E+04   0.309E-02 -.320E-02 -.156E+04   -.407E-03 0.713E-03 0.313E+01
   -.316E+00 0.737E-01 -.156E+04   0.335E+00 -.126E+00 0.157E+04   -.662E-02 0.705E-01 -.454E+01
   0.935E-01 -.176E+01 -.156E+04   -.109E+00 0.163E+01 0.156E+04   0.199E-01 0.213E+00 -.410E+01
   -.510E+00 -.709E+00 -.511E+03   0.497E+00 0.705E+00 0.511E+03   0.213E-01 0.801E-02 0.335E+00
   -.298E-01 0.318E+00 -.511E+03   0.281E-01 -.339E+00 0.510E+03   0.225E-02 0.308E-01 0.335E+00
   -.419E+00 -.228E-01 0.513E+03   0.395E+00 0.244E-01 -.513E+03   0.280E-01 -.158E-02 -.113E+00
   -.653E-02 0.408E+00 0.513E+03   0.583E-02 -.383E+00 -.513E+03   0.765E-03 -.300E-01 -.119E+00
   -.903E-01 0.858E-01 0.155E+04   0.939E-01 -.887E-01 -.156E+04   -.454E-02 0.361E-02 0.313E+01
   -.166E-02 -.232E-02 0.155E+04   0.151E-02 0.307E-02 -.156E+04   0.184E-03 -.945E-03 0.312E+01
   -.222E+01 -.284E+00 -.156E+04   0.215E+01 0.372E+00 0.156E+04   0.155E+00 -.109E+00 -.426E+01
   0.715E-01 0.258E+01 -.156E+04   -.104E+00 -.255E+01 0.157E+04   0.400E-01 -.131E+00 -.437E+01
   -.877E+00 0.729E+00 -.511E+03   0.873E+00 -.721E+00 0.510E+03   0.607E-02 -.118E-01 0.399E+00
   0.101E+00 -.397E+00 -.521E+03   -.106E+00 0.412E+00 0.521E+03   0.714E-02 -.230E-01 -.169E+00
   0.247E+00 0.294E-01 0.514E+03   -.252E+00 -.306E-01 -.514E+03   0.643E-02 0.104E-02 -.702E-01
   -.556E-03 -.234E+00 0.514E+03   0.447E-03 0.239E+00 -.514E+03   0.220E-03 -.621E-02 -.752E-01
   0.863E-01 -.847E-01 0.155E+04   -.884E-01 0.871E-01 -.156E+04   0.252E-02 -.299E-02 0.313E+01
   0.277E-02 -.162E-02 0.155E+04   -.309E-02 0.251E-02 -.156E+04   0.389E-03 -.112E-02 0.313E+01
   0.306E+00 0.168E+00 -.156E+04   -.324E+00 -.225E+00 0.157E+04   0.496E-02 0.732E-01 -.452E+01
   -.665E-01 -.275E+00 -.156E+04   0.827E-01 0.283E+00 0.157E+04   -.203E-01 0.499E-02 -.449E+01
   0.501E+00 -.596E+00 -.511E+03   -.488E+00 0.588E+00 0.511E+03   -.218E-01 0.141E-01 0.336E+00
   0.301E-01 -.507E-01 -.512E+03   -.283E-01 0.474E-01 0.512E+03   -.239E-02 0.563E-02 0.212E+00
   0.420E+00 -.305E-01 0.513E+03   -.397E+00 0.313E-01 -.513E+03   -.266E-01 -.693E-03 -.111E+00
   0.332E-02 0.236E+00 0.514E+03   -.532E-03 -.242E+00 -.514E+03   -.322E-02 0.756E-02 -.577E-01
   0.904E-01 0.847E-01 0.155E+04   -.940E-01 -.871E-01 -.156E+04   0.446E-02 0.302E-02 0.313E+01
   0.158E-02 0.156E-02 0.155E+04   -.147E-02 -.249E-02 -.156E+04   -.135E-03 0.116E-02 0.313E+01
   0.198E+01 -.300E+00 -.156E+04   -.188E+01 0.371E+00 0.156E+04   -.179E+00 -.894E-01 -.418E+01
   0.344E-01 0.291E+00 -.156E+04   -.241E-01 -.300E+00 0.157E+04   -.167E-01 -.370E-02 -.456E+01
   0.869E+00 0.616E+00 -.511E+03   -.866E+00 -.606E+00 0.511E+03   -.487E-02 -.163E-01 0.366E+00
   -.785E-01 0.433E-01 -.511E+03   0.857E-01 -.385E-01 0.510E+03   -.100E-01 -.735E-02 0.334E+00
   0.272E-01 -.109E+00 0.155E+02   0.337E-12 -.867E-13 -.432E-11   -.251E-01 0.994E-01 -.137E+02

 POSITION                                       TOTAL-FORCE (eV/Angst)
      2.11015      0.00000      7.50000         0.000579      0.000084      0.464896
      4.22029      2.11015      7.50000         0.000019      0.000812      0.466495
      2.11015      2.11015      9.61015         0.003642      0.006172      0.027723
      4.22029      0.00000      9.61015         0.000618     -0.002815      0.037011
      2.11069      0.00088     11.72837        -0.006972     -0.003902      0.011185
      4.22043      2.11362     11.73426        -0.001334      0.004714     -0.042762
      2.11019      2.10937     13.82496        -0.055282     -0.026923     -0.096562
      4.22032      0.00274     13.82407        -0.002739     -0.060898     -0.058955
      2.11015      4.22029      7.50000         0.000874     -0.000049      0.467103
      4.22029      6.33044      7.50000         0.000028     -0.000843      0.467613
      2.11015      6.33044      9.61015         0.007330     -0.005394      0.029043
      4.22029      4.22029      9.61015        -0.000213      0.001156      0.042312
      2.11416      4.21968     11.73378         0.003160      0.003428     -0.012471
      4.22048      6.32628     11.73399        -0.000939     -0.003295      0.003048
      2.10739      6.33220     13.81747         0.004428      0.016341     -0.016785
      4.22193      4.21406     13.87628        -0.025274      0.087403     -0.438240
      6.33044      0.00000      7.50000        -0.000579      0.000064      0.465269
      0.00000      2.11015      7.50000        -0.000019      0.000545      0.465607
      6.33044      2.11015      9.61015        -0.003588      0.004733      0.027808
      0.00000      0.00000      9.61015        -0.000780      0.002104      0.028702
      6.32978      0.00053     11.72886         0.006944     -0.004027      0.009132
      8.44048      2.11083     11.72922         0.001133     -0.006981      0.005328
      6.33043      2.10967     13.82560         0.055459     -0.041496     -0.106714
      8.44030      0.00088     13.82771         0.002324     -0.010646     -0.089919
      6.33044      4.22029      7.50000        -0.000863     -0.000035      0.466815
      0.00000      6.33044      7.50000        -0.000046     -0.000530      0.464436
      6.33044      6.33044      9.61015        -0.007948     -0.004583      0.028728
      0.00000      4.22029      9.61015         0.000596     -0.001773      0.036883
      6.32655      4.21975     11.73399        -0.003706      0.003809     -0.026154
      8.44012      6.32993     11.72793         0.001028      0.006523      0.013613
      6.33227      6.33098     13.82106         0.001660      0.036605     -0.048928
      8.43974      4.21971     13.82392         0.017542      0.010919     -0.062577
      2.11015      0.00000      9.61015        -0.002570      0.001016      0.040732
      4.22029      2.11015      9.61015        -0.000090      0.006878      0.054953
      2.11015      2.11015      7.50000        -0.000836     -0.001156     -0.435608
      4.22029      0.00000      7.50000        -0.000137      0.000247     -0.435618
      2.10843      8.44002     13.86866         0.012465      0.028670     -0.052080
      4.22014      2.10205     13.86218         0.006729      0.118596      0.093422
      2.10936      2.10993     11.72445         0.011268      0.004781      0.019453
      4.22019      8.43923     11.72374         0.000895      0.014408      0.020035
      2.11015      4.22029      9.61015         0.008170     -0.000160      0.050809
      4.22029      6.33044      9.61015         0.000170     -0.008802      0.049382
      2.11015      6.33044      7.50000        -0.001528      0.001225     -0.435422
      4.22029      4.22029      7.50000         0.000066     -0.000316     -0.437374
      2.10264      4.22165     13.86901         0.113853     -0.036831      0.030589
      4.21949      6.33815     13.87497         0.013646     -0.118530     -0.016101
      2.11004      6.33089     11.72426         0.002161     -0.005722      0.005833
      4.22009      4.22098     11.73302         0.003373     -0.011792      0.020075
      6.33044      0.00000      9.61015         0.002334     -0.000001      0.041010
      0.00000      2.11015      9.61015         0.000153     -0.002299      0.040930
      6.33044      2.11015      7.50000         0.000835     -0.000994     -0.435692
      0.00000      0.00000      7.50000         0.000128     -0.000382     -0.434396
      6.33190      8.43991     13.86921        -0.012882      0.026718     -0.048368
      0.00015      2.10888     13.86918        -0.006934      0.014519     -0.040365
      6.33124      2.10957     11.72430        -0.011362      0.007758      0.023733
      8.44057      8.44040     11.72458        -0.000871      0.003098     -0.002991
      6.33044      4.22029      9.61015        -0.007746      0.000111      0.052690
      0.00000      6.33044      9.61015        -0.000881      0.002704      0.040889
      6.33044      6.33044      7.50000         0.001496      0.001015     -0.435553
      0.00000      4.22029      7.50000        -0.000043      0.000402     -0.435531
      6.33785      4.22106     13.86575        -0.113790     -0.030300      0.060648
      0.00006      6.33200     13.86870        -0.008936     -0.014139     -0.058360
      6.33030      6.33099     11.72467        -0.001906     -0.008385      0.009378
      0.00032      4.22064     11.72362        -0.004310     -0.003561      0.020217
    total drift:                               -0.000075     -0.000505      0.010551

  FREE ENERGIE OF THE ION-ELECTRON SYSTEM (eV)
  free  energy   TOTEN  =      -438.44196091 eV

  energy  without entropy=     -438.44196091  energy(sigma->0) =     -438.44196091