 vasp.6.3.0 20Jan22 (build Apr  1 2022 16:44:48) complex
 executed on        HPECrayEX_GCC date 2023.04.05  16:16:16

 INCAR:
   SYSTEM = MgO-rocksalt
   ISMEAR = 0
   SIGMA = 0.05
   EDIFF = 1E-7
   ALGO = ALL
   ISTART = 0
   IBRION = 2
   NSW = 1000
   ISYM = 2
   ISIF = 3
   EDIFFG = -0.005
   GGA = MK
   LUSE_VDW = .TRUE.
   PARAM1 = 0.1234
   PARAM2 = 0.711357
   ZAB_VDW = -1.8867
   AGGAC = 0.0
   ENCUT = 600
   PREC = Accurate
   LASPH = .TRUE.
   LREAL = .FALSE.
   ISPIN = 1
   NELM = 200
   NELMIN = 8
   NCORE = 8
   KPAR = 1
   LWAVE = .FALSE.
   LCHARG = .FALSE.

 POTCAR:    PAW_PBE Ti_pv 07Sep2000
 POTCAR:    PAW_PBE O 08Apr2002
|               ----> ADVICE to this user running VASP <----                  |
|     You have switched on vdW-DFT.                                           |
|     This routine was written and supplied by Jiri Klimes. We recommend      |
|     that you carefully read and cite the following publications:            |
|       J. Klimes, D.R. Bowler, A. Michelides                                 |
|          J. Phys.: Cond Matt. 22 022201 (2010)                              |
|       J. Klimes, D.R. Bowler, A. Michelides                                 |
|          Phys. Rev. B. 83, 195131 (2011)                                    |
|     and references therein.                                                 |

   TITEL  = PAW_PBE Ti_pv 07Sep2000
   POMASS =   47.880; ZVAL   =   10.000    mass and valenz
   ENMAX  =  222.335; ENMIN  =  166.751 eV

   TITEL  = PAW_PBE O 08Apr2002
   POMASS =   16.000; ZVAL   =    6.000    mass and valenz
   ENMAX  =  400.000; ENMIN  =  300.000 eV

  PAW_PBE Ti_pv 07Sep2000               :
  PAW_PBE O 08Apr2002                   :

 POSCAR: Ti2 O4
  positions in direct lattice
  velocities in cartesian coordinates
 exchange correlation table for  LEXCH =       43
   RHO(1)=    0.500       N(1)  =     2000
   RHO(2)=  100.500       N(2)  =     4000

 ion  position               nearest neighbor table
   1  0.500  0.500  0.000-   6 1.96   3 1.96   3 1.96   6 1.96   5 1.99   4 1.99
   2  0.000  0.000  0.500-   4 1.96   5 1.96   4 1.96   5 1.96   3 1.99   6 1.99
   3  0.696  0.696  0.500-   1 1.96   1 1.96   2 1.99
   4  0.196  0.804  0.000-   2 1.96   2 1.96   1 1.99
   5  0.804  0.196  0.000-   2 1.96   2 1.96   1 1.99
   6  0.304  0.304  0.500-   1 1.96   1 1.96   2 1.99

  LATTYP: Found a simple tetragonal cell.
 ALAT       =     4.6178059846
 C/A-ratio  =     0.6412839229

  Lattice vectors:

 A1 = (   4.6178059846,   0.0000000000,   0.0000000000)
 A2 = (   0.0000000000,   4.6178059846,   0.0000000000)
 A3 = (   0.0000000000,   0.0000000000,   2.9613247370)

Analysis of symmetry for initial positions (statically):
 Subroutine PRICEL returns:
 Original cell was already a primitive cell.

 Routine SETGRP: Setting up the symmetry group for a
 simple tetragonal supercell.

 Subroutine GETGRP returns: Found 16 space group operations
 (whereof  8 operations were pure point group operations)
 out of a pool of 16 trial point group operations.

The static configuration has the point symmetry D_2h.
 The point group associated with its full space group is D_4h.

Analysis of symmetry for dynamics (positions and initial velocities):
 Subroutine PRICEL returns:
 Original cell was already a primitive cell.

 Routine SETGRP: Setting up the symmetry group for a
 simple tetragonal supercell.

 Subroutine GETGRP returns: Found 16 space group operations
 (whereof  8 operations were pure point group operations)
 out of a pool of 16 trial point group operations.

The dynamic configuration has the point symmetry D_2h.
 The point group associated with its full space group is D_4h.

 Subroutine INISYM returns: Found 16 space group operations
 (whereof  8 operations are pure point group operations),
 and found     1 'primitive' translations

                                     Primitive cell

  volume of cell :      63.1477

  direct lattice vectors                    reciprocal lattice vectors
     4.617805985  0.000000000  0.000000000     0.216553056 -0.000000000  0.000000000
     0.000000000  4.617805985  0.000000000     0.000000000  0.216553056  0.000000000
     0.000000000  0.000000000  2.961324737    -0.000000000 -0.000000000  0.337686707

  length of vectors
     4.617805985  4.617805985  2.961324737     0.216553056  0.216553056  0.337686707

  position of ions in fractional coordinates (direct lattice)
     0.500000000  0.500000000  1.000000000
     0.000000000  0.000000000  0.500000000
     0.695836682  0.695836682  0.500000000
     0.195836682  0.804163318  1.000000000
     0.804163318  0.195836682  1.000000000
     0.304163318  0.304163318  0.500000000

  ion indices of the primitive-cell ions
   primitive index   ion index
                 1           1
                 2           2
                 3           3
                 4           4
                 5           5
                 6           6

 KPOINTS: pymatgen v2020.8.13 with grid density =

Automatic generation of k-mesh.
 Grid dimensions read from file:
 generate k-points for:    5    5    8

 Generating k-lattice:

  Cartesian coordinates                     Fractional coordinates (reciprocal lattice)
     0.043310611 -0.000000000  0.000000000     0.200000000  0.000000000  0.000000000
     0.000000000  0.043310611  0.000000000     0.000000000  0.200000000  0.000000000
    -0.000000000 -0.000000000  0.042210838    -0.000000000 -0.000000000  0.125000000

  Length of vectors
     0.043310611  0.043310611  0.042210838

  Shift w.r.t. Gamma in fractional coordinates (k-lattice)
     0.000000000  0.000000000  0.000000000

 Subroutine IBZKPT returns following result:

 Found     30 irreducible k-points:

 Following reciprocal coordinates:
            Coordinates               Weight
  0.000000  0.000000  0.000000      1.000000
  0.200000  0.000000  0.000000      4.000000
  0.400000  0.000000  0.000000      4.000000
  0.200000  0.200000  0.000000      4.000000
  0.400000  0.200000  0.000000      8.000000
  0.400000  0.400000  0.000000      4.000000
  0.000000  0.000000  0.125000      2.000000
  0.200000  0.000000  0.125000      8.000000
  0.400000  0.000000  0.125000      8.000000
  0.200000  0.200000  0.125000      8.000000
  0.400000  0.200000  0.125000     16.000000
  0.400000  0.400000  0.125000      8.000000
  0.000000  0.000000  0.250000      2.000000
  0.200000  0.000000  0.250000      8.000000
  0.400000  0.000000  0.250000      8.000000
  0.200000  0.200000  0.250000      8.000000
  0.400000  0.200000  0.250000     16.000000
  0.400000  0.400000  0.250000      8.000000
  0.000000  0.000000  0.375000      2.000000
  0.200000  0.000000  0.375000      8.000000
  0.400000  0.000000  0.375000      8.000000
  0.200000  0.200000  0.375000      8.000000
  0.400000  0.200000  0.375000     16.000000
  0.400000  0.400000  0.375000      8.000000
  0.000000  0.000000  0.500000      1.000000
  0.200000  0.000000  0.500000      4.000000
  0.400000  0.000000  0.500000      4.000000
  0.200000  0.200000  0.500000      4.000000
  0.400000  0.200000  0.500000      8.000000
  0.400000  0.400000  0.500000      4.000000

 Following cartesian coordinates:
            Coordinates               Weight
  0.000000  0.000000  0.000000      1.000000
  0.043311  0.000000  0.000000      4.000000
  0.086621  0.000000  0.000000      4.000000
  0.043311  0.043311  0.000000      4.000000
  0.086621  0.043311  0.000000      8.000000
  0.086621  0.086621  0.000000      4.000000
  0.000000  0.000000  0.042211      2.000000
  0.043311  0.000000  0.042211      8.000000
  0.086621  0.000000  0.042211      8.000000
  0.043311  0.043311  0.042211      8.000000
  0.086621  0.043311  0.042211     16.000000
  0.086621  0.086621  0.042211      8.000000
  0.000000  0.000000  0.084422      2.000000
  0.043311  0.000000  0.084422      8.000000
  0.086621  0.000000  0.084422      8.000000
  0.043311  0.043311  0.084422      8.000000
  0.086621  0.043311  0.084422     16.000000
  0.086621  0.086621  0.084422      8.000000
  0.000000  0.000000  0.126633      2.000000
  0.043311  0.000000  0.126633      8.000000
  0.086621  0.000000  0.126633      8.000000
  0.043311  0.043311  0.126633      8.000000
  0.086621  0.043311  0.126633     16.000000
  0.086621  0.086621  0.126633      8.000000
  0.000000  0.000000  0.168843      1.000000
  0.043311  0.000000  0.168843      4.000000
  0.086621  0.000000  0.168843      4.000000
  0.043311  0.043311  0.168843      4.000000
  0.086621  0.043311  0.168843      8.000000
  0.086621  0.086621  0.168843      4.000000

 SYSTEM =  MgO-rocksalt
 POSCAR =  Ti2 O4

  energy-cutoff  :      600.00
  volume of cell :       63.15
      direct lattice vectors                 reciprocal lattice vectors
     4.617805985  0.000000000  0.000000000     0.216553056 -0.000000000  0.000000000
     0.000000000  4.617805985  0.000000000     0.000000000  0.216553056  0.000000000
     0.000000000  0.000000000  2.961324737    -0.000000000 -0.000000000  0.337686707

[...]

 k-points in units of 2pi/SCALE and weight: pymatgen v2020.8.13 with grid density =
   0.00000000  0.00000000  0.00000000       0.005
   0.04331061  0.00000000  0.00000000       0.020
   0.08662122  0.00000000  0.00000000       0.020
   0.04331061  0.04331061  0.00000000       0.020
   0.08662122  0.04331061  0.00000000       0.040
   0.08662122  0.08662122  0.00000000       0.020
   0.00000000  0.00000000  0.04221084       0.010
   0.04331061  0.00000000  0.04221084       0.040
   0.08662122  0.00000000  0.04221084       0.040
   0.04331061  0.04331061  0.04221084       0.040
   0.08662122  0.04331061  0.04221084       0.080
   0.08662122  0.08662122  0.04221084       0.040
   0.00000000  0.00000000  0.08442168       0.010
   0.04331061  0.00000000  0.08442168       0.040
   0.08662122  0.00000000  0.08442168       0.040
   0.04331061  0.04331061  0.08442168       0.040
   0.08662122  0.04331061  0.08442168       0.080
   0.08662122  0.08662122  0.08442168       0.040
   0.00000000  0.00000000  0.12663252       0.010
   0.04331061  0.00000000  0.12663252       0.040
   0.08662122  0.00000000  0.12663252       0.040
   0.04331061  0.04331061  0.12663252       0.040
   0.08662122  0.04331061  0.12663252       0.080
   0.08662122  0.08662122  0.12663252       0.040
   0.00000000  0.00000000  0.16884335       0.005
   0.04331061  0.00000000  0.16884335       0.020
   0.08662122  0.00000000  0.16884335       0.020
   0.04331061  0.04331061  0.16884335       0.020
   0.08662122  0.04331061  0.16884335       0.040
   0.08662122  0.08662122  0.16884335       0.020

 k-points in reciprocal lattice and weights: pymatgen v2020.8.13 with grid density =
   0.00000000  0.00000000  0.00000000       0.005
   0.20000000  0.00000000  0.00000000       0.020
   0.40000000  0.00000000  0.00000000       0.020
   0.20000000  0.20000000  0.00000000       0.020
   0.40000000  0.20000000  0.00000000       0.040
   0.40000000  0.40000000  0.00000000       0.020
   0.00000000  0.00000000  0.12500000       0.010
   0.20000000  0.00000000  0.12500000       0.040
   0.40000000  0.00000000  0.12500000       0.040
   0.20000000  0.20000000  0.12500000       0.040
   0.40000000  0.20000000  0.12500000       0.080
   0.40000000  0.40000000  0.12500000       0.040
   0.00000000  0.00000000  0.25000000       0.010
   0.20000000  0.00000000  0.25000000       0.040
   0.40000000  0.00000000  0.25000000       0.040
   0.20000000  0.20000000  0.25000000       0.040
   0.40000000  0.20000000  0.25000000       0.080
   0.40000000  0.40000000  0.25000000       0.040
   0.00000000  0.00000000  0.37500000       0.010
   0.20000000  0.00000000  0.37500000       0.040
   0.40000000  0.00000000  0.37500000       0.040
   0.20000000  0.20000000  0.37500000       0.040
   0.40000000  0.20000000  0.37500000       0.080
   0.40000000  0.40000000  0.37500000       0.040
   0.00000000  0.00000000  0.50000000       0.005
   0.20000000  0.00000000  0.50000000       0.020
   0.40000000  0.00000000  0.50000000       0.020
   0.20000000  0.20000000  0.50000000       0.020
   0.40000000  0.20000000  0.50000000       0.040
   0.40000000  0.40000000  0.50000000       0.020

 position of ions in fractional coordinates (direct lattice)
   0.50000000  0.50000000  0.00000000
   0.00000000  0.00000000  0.50000000
   0.69583668  0.69583668  0.50000000
   0.19583668  0.80416332  0.00000000
   0.80416332  0.19583668  0.00000000
   0.30416332  0.30416332  0.50000000

 position of ions in cartesian coordinates  (Angst):
   2.30890299  2.30890299  0.00000000
   0.00000000  0.00000000  1.48066237
   3.21323880  3.21323880  1.48066237
   0.90433580  3.71347018  0.00000000
   3.71347018  0.90433580  0.00000000
   1.40456719  1.40456719  1.48066237

--------------------------------------- Iteration      FINAL  ---------------------------------------

--------------------OUTCAR has been truncated-------------------------

[...]

--------------------OUTCAR has been truncated-------------------------

  FORCE on cell =-STRESS in cart. coord.  units (eV):
  Direction    XX          YY          ZZ          XY          YZ          ZX
  Alpha Z   216.51758   216.51758   216.51758
  Ewald   -1116.84439 -1116.84439  -690.67577    -0.00000    -0.00000    -0.00000
  Hartree   216.52958   216.52958   439.16936    -0.00000    -0.00000    -0.00000
  E(xc)    -215.19321  -215.19321  -215.07744     0.00000    -0.00000     0.00000
  Local     188.27770   188.27770  -449.38230     0.00000     0.00000    -0.00000
  n-local  -136.02459  -137.06860  -134.62370     0.08318     0.13552    -0.00376
  augment   131.79577   131.79577   130.61016    -0.00000    -0.00000    -0.00000
  Kinetic   715.93797   714.98122   703.45882    -1.15172    -0.73247    -1.46492
  Fock        0.00000     0.00000     0.00000     0.00000     0.00000     0.00000
  Total      -0.00397    -0.00397    -0.00330     0.00000     0.00000     0.00000
  in kB      -0.10070    -0.10070    -0.08361     0.00000     0.00000     0.00000

 VOLUME and BASIS-vectors are now :
  energy-cutoff  :      600.00
  volume of cell :       63.15
      direct lattice vectors                 reciprocal lattice vectors
     4.617805985  0.000000000  0.000000000     0.216553056 -0.000000000  0.000000000
     0.000000000  4.617805985  0.000000000     0.000000000  0.216553056  0.000000000
     0.000000000  0.000000000  2.961324737    -0.000000000 -0.000000000  0.337686707

  length of vectors
     4.617805985  4.617805985  2.961324737     0.216553056  0.216553056  0.337686707

 FORCES acting on ions:
    Electron-Ion                     Ewald-Force                    Non-Local-Force
   -.764E-12 -.106E-11 -.183E-11   0.142E-12 0.000E+00 0.427E-14   0.000E+00 0.000E+00 0.222E-23
   0.138E-13 0.731E-14 0.126E-12   0.284E-13 0.000E+00 0.105E-13   0.000E+00 0.000E+00 0.323E-23
   -.372E+02 -.372E+02 0.275E-06   0.403E+02 0.403E+02 -.591E-13   -.309E+01 -.309E+01 -.406E-15
   -.372E+02 0.372E+02 -.231E-11   0.403E+02 -.403E+02 -.604E-14   -.309E+01 0.309E+01 0.452E-17
   0.372E+02 -.372E+02 -.653E-11   -.403E+02 0.403E+02 -.465E-14   0.309E+01 -.309E+01 0.209E-17
   0.372E+02 0.372E+02 -.275E-06   -.403E+02 -.403E+02 0.577E-13   0.309E+01 0.309E+01 0.406E-15
   -.285E-11 -.173E-11 -.131E-11   -.142E-13 -.568E-13 0.276E-14   -.444E-15 0.888E-15 0.655E-17

 POSITION                                       TOTAL-FORCE (eV/Angst)
      2.30890      2.30890      0.00000         0.000000      0.000000      0.000000
      0.00000      0.00000      1.48066         0.000000      0.000000      0.000000
      3.21324      3.21324      1.48066        -0.000520     -0.000520     -0.000000
      0.90434      3.71347      0.00000        -0.000520      0.000520      0.000000
      3.71347      0.90434      0.00000         0.000520     -0.000520     -0.000000
      1.40457      1.40457      1.48066         0.000520      0.000520      0.000000
    total drift:                               -0.000000     -0.000000     -0.000000

  FREE ENERGIE OF THE ION-ELECTRON SYSTEM (eV)
  free  energy   TOTEN  =       -44.11194442 eV

  energy  without entropy=      -44.11194442  energy(sigma->0) =      -44.11194442

 reached required accuracy - stopping structural energy minimisation