 vasp.6.3.0 20Jan22 (build Mar 11 2022 13:48:16) complex

 executed on             LinuxIFC date 2024.08.21  21:33:17

 INCAR:
   SYSTEM = MgO-rocksalt
   ISMEAR = 0
   SIGMA = 0.05
   EDIFF = 1E-7
   ALGO = Normal
   ISTART = 0
   IBRION = 2
   NSW = 1000
   ISYM = 2
   ISIF = 3
   EDIFFG = -0.005
   GGA = MK
   LUSE_VDW = .TRUE.
   PARAM1 = 0.1234
   PARAM2 = 0.711357
   ZAB_VDW = -1.8867
   AGGAC = 0.0
   ENCUT = 600
   PREC = Accurate
   LASPH = .TRUE.
   LREAL = .FALSE.
   ISPIN = 1
   NELM = 200
   NELMIN = 8
   NCORE = 8
   KPAR = 1
   LWAVE = .FALSE.
   LCHARG = .FALSE.

 POTCAR:    PAW_PBE Ti_pv 07Sep2000
 POTCAR:    PAW_PBE O 08Apr2002
|           W    W    AA    RRRRR   N    N  II  N    N   GGGG   !!!           |
|           W    W   A  A   R    R  NN   N  II  NN   N  G    G  !!!           |
|           W    W  A    A  R    R  N N  N  II  N N  N  G       !!!           |
|           W WW W  AAAAAA  RRRRR   N  N N  II  N  N N  G  GGG   !            |
|           WW  WW  A    A  R   R   N   NN  II  N   NN  G    G                |
|           W    W  A    A  R    R  N    N  II  N    N   GGGG   !!!           |
|     For optimal performance we recommend to set                             |
|       NCORE = 2 up to number-of-cores-per-socket                            |
|     This setting can greatly improve the performance of VASP for DFT.       |
|     The default, NCORE=1 might be grossly inefficient on modern             |
|     multi-core architectures or massively parallel machines. Do your        |
|     Unfortunately you need to use the default for GW and RPA                |
|     calculations (for HF NCORE is supported but not extensively tested      |
|     yet).                                                                   |

   TITEL  = PAW_PBE Ti_pv 07Sep2000
   POMASS =   47.880; ZVAL   =   10.000    mass and valenz
   ENMAX  =  222.335; ENMIN  =  166.751 eV

   TITEL  = PAW_PBE O 08Apr2002
   POMASS =   16.000; ZVAL   =    6.000    mass and valenz
   ENMAX  =  400.000; ENMIN  =  300.000 eV

  PAW_PBE Ti_pv 07Sep2000               :
  PAW_PBE O 08Apr2002                   :

 POSCAR: Ti2 O4
  positions in direct lattice
  velocities in cartesian coordinates
 exchange correlation table for  LEXCH =       43
   RHO(1)=    0.500       N(1)  =     2000
   RHO(2)=  100.500       N(2)  =     4000

 ion  position               nearest neighbor table
   1  0.500  0.500  0.000-   6 1.96   3 1.96   3 1.96   6 1.96   5 1.99   4 1.99
   2  0.000  0.000  0.500-   4 1.96   5 1.96   4 1.96   5 1.96   3 1.99   6 1.99
   3  0.696  0.696  0.500-   1 1.96   1 1.96   2 1.99
   4  0.196  0.804  0.000-   2 1.96   2 1.96   1 1.99
   5  0.804  0.196  0.000-   2 1.96   2 1.96   1 1.99
   6  0.304  0.304  0.500-   1 1.96   1 1.96   2 1.99

  LATTYP: Found a simple tetragonal cell.
 ALAT       =     4.6178311415
 C/A-ratio  =     0.6412786480

  Lattice vectors:

 A1 = (   4.6178311415,   0.0000000000,   0.0000000000)
 A2 = (   0.0000000000,   4.6178311415,   0.0000000000)
 A3 = (   0.0000000000,   0.0000000000,   2.9613165113)

Analysis of symmetry for initial positions (statically):
 Subroutine PRICEL returns:
 Original cell was already a primitive cell.

 Routine SETGRP: Setting up the symmetry group for a
 simple tetragonal supercell.

 Subroutine GETGRP returns: Found 16 space group operations
 (whereof  8 operations were pure point group operations)
 out of a pool of 16 trial point group operations.

The static configuration has the point symmetry D_2h.
 The point group associated with its full space group is D_4h.

Analysis of symmetry for dynamics (positions and initial velocities):
 Subroutine PRICEL returns:
 Original cell was already a primitive cell.

 Routine SETGRP: Setting up the symmetry group for a
 simple tetragonal supercell.

 Subroutine GETGRP returns: Found 16 space group operations
 (whereof  8 operations were pure point group operations)
 out of a pool of 16 trial point group operations.

The dynamic configuration has the point symmetry D_2h.
 The point group associated with its full space group is D_4h.

 Subroutine INISYM returns: Found 16 space group operations
 (whereof  8 operations are pure point group operations),
 and found     1 'primitive' translations

                                     Primitive cell

  volume of cell :      63.1482

  direct lattice vectors                    reciprocal lattice vectors
     4.617831141  0.000000000  0.000000000     0.216551877 -0.000000000  0.000000000
     0.000000000  4.617831141  0.000000000     0.000000000  0.216551877  0.000000000
     0.000000000  0.000000000  2.961316511    -0.000000000 -0.000000000  0.337687645

  length of vectors
     4.617831141  4.617831141  2.961316511     0.216551877  0.216551877  0.337687645

  position of ions in fractional coordinates (direct lattice)
     0.500000000  0.500000000  0.000000000
     0.000000000  0.000000000  0.500000000
     0.695834355  0.695834355  0.500000000
     0.195834355  0.804165645  0.000000000
     0.804165645  0.195834355  0.000000000
     0.304165645  0.304165645  0.500000000

  ion indices of the primitive-cell ions
   primitive index   ion index
                 1           1
                 2           2
                 3           3
                 4           4
                 5           5
                 6           6

 KPOINTS: pymatgen v2020.8.13 with grid density =

Automatic generation of k-mesh.
 Grid dimensions read from file:
 generate k-points for:    5    5    8

 Generating k-lattice:

  Cartesian coordinates                     Fractional coordinates (reciprocal lattice)
     0.043310375 -0.000000000  0.000000000     0.200000000  0.000000000  0.000000000
     0.000000000  0.043310375  0.000000000     0.000000000  0.200000000  0.000000000
    -0.000000000 -0.000000000  0.042210956     0.000000000  0.000000000  0.125000000

  Length of vectors
     0.043310375  0.043310375  0.042210956

  Shift w.r.t. Gamma in fractional coordinates (k-lattice)
     0.000000000  0.000000000  0.000000000

 Subroutine IBZKPT returns following result:

 Found     30 irreducible k-points:

 Following reciprocal coordinates:
            Coordinates               Weight
  0.000000  0.000000  0.000000      1.000000
  0.200000 -0.000000  0.000000      4.000000
  0.400000  0.000000  0.000000      4.000000
  0.200000  0.200000  0.000000      4.000000
  0.400000  0.200000  0.000000      8.000000
  0.400000  0.400000  0.000000      4.000000
 -0.000000  0.000000  0.125000      2.000000
  0.200000  0.000000  0.125000      8.000000
  0.400000  0.000000  0.125000      8.000000
  0.200000  0.200000  0.125000      8.000000
  0.400000  0.200000  0.125000     16.000000
  0.400000  0.400000  0.125000      8.000000
 -0.000000  0.000000  0.250000      2.000000
  0.200000 -0.000000  0.250000      8.000000
  0.400000  0.000000  0.250000      8.000000
  0.200000  0.200000  0.250000      8.000000
  0.400000  0.200000  0.250000     16.000000
  0.400000  0.400000  0.250000      8.000000
  0.000000  0.000000  0.375000      2.000000
  0.200000  0.000000  0.375000      8.000000
  0.400000  0.000000  0.375000      8.000000
  0.200000  0.200000  0.375000      8.000000
  0.400000  0.200000  0.375000     16.000000
  0.400000  0.400000  0.375000      8.000000
 -0.000000  0.000000  0.500000      1.000000
  0.200000  0.000000  0.500000      4.000000
  0.400000 -0.000000  0.500000      4.000000
  0.200000  0.200000  0.500000      4.000000
  0.400000  0.200000  0.500000      8.000000
  0.400000  0.400000  0.500000      4.000000

 Following cartesian coordinates:
            Coordinates               Weight
  0.000000  0.000000  0.000000      1.000000
  0.043310 -0.000000  0.000000      4.000000
  0.086621 -0.000000  0.000000      4.000000
  0.043310  0.043310  0.000000      4.000000
  0.086621  0.043310  0.000000      8.000000
  0.086621  0.086621  0.000000      4.000000
 -0.000000 -0.000000  0.042211      2.000000
  0.043310 -0.000000  0.042211      8.000000
  0.086621 -0.000000  0.042211      8.000000
  0.043310  0.043310  0.042211      8.000000
  0.086621  0.043310  0.042211     16.000000
  0.086621  0.086621  0.042211      8.000000
 -0.000000 -0.000000  0.084422      2.000000
  0.043310 -0.000000  0.084422      8.000000
  0.086621 -0.000000  0.084422      8.000000
  0.043310  0.043310  0.084422      8.000000
  0.086621  0.043310  0.084422     16.000000
  0.086621  0.086621  0.084422      8.000000
 -0.000000 -0.000000  0.126633      2.000000
  0.043310 -0.000000  0.126633      8.000000
  0.086621 -0.000000  0.126633      8.000000
  0.043310  0.043310  0.126633      8.000000
  0.086621  0.043310  0.126633     16.000000
  0.086621  0.086621  0.126633      8.000000
 -0.000000 -0.000000  0.168844      1.000000
  0.043310 -0.000000  0.168844      4.000000
  0.086621 -0.000000  0.168844      4.000000
  0.043310  0.043310  0.168844      4.000000
  0.086621  0.043310  0.168844      8.000000
  0.086621  0.086621  0.168844      4.000000

 SYSTEM =  MgO-rocksalt
 POSCAR =  Ti2 O4

  energy-cutoff  :      600.00
  volume of cell :       63.15
      direct lattice vectors                 reciprocal lattice vectors
     4.617831141  0.000000000  0.000000000     0.216551877 -0.000000000  0.000000000
     0.000000000  4.617831141  0.000000000     0.000000000  0.216551877  0.000000000
     0.000000000  0.000000000  2.961316511    -0.000000000 -0.000000000  0.337687645

[...]

 k-points in units of 2pi/SCALE and weight: pymatgen v2020.8.13 with grid density =
   0.00000000  0.00000000  0.00000000       0.005
   0.04331038 -0.00000000  0.00000000       0.020
   0.08662075 -0.00000000  0.00000000       0.020
   0.04331038  0.04331038  0.00000000       0.020
   0.08662075  0.04331038  0.00000000       0.040
   0.08662075  0.08662075  0.00000000       0.020
  -0.00000000 -0.00000000  0.04221096       0.010
   0.04331038 -0.00000000  0.04221096       0.040
   0.08662075 -0.00000000  0.04221096       0.040
   0.04331038  0.04331038  0.04221096       0.040
   0.08662075  0.04331038  0.04221096       0.080
   0.08662075  0.08662075  0.04221096       0.040
  -0.00000000 -0.00000000  0.08442191       0.010
   0.04331038 -0.00000000  0.08442191       0.040
   0.08662075 -0.00000000  0.08442191       0.040
   0.04331038  0.04331038  0.08442191       0.040
   0.08662075  0.04331038  0.08442191       0.080
   0.08662075  0.08662075  0.08442191       0.040
  -0.00000000 -0.00000000  0.12663287       0.010
   0.04331038 -0.00000000  0.12663287       0.040
   0.08662075 -0.00000000  0.12663287       0.040
   0.04331038  0.04331038  0.12663287       0.040
   0.08662075  0.04331038  0.12663287       0.080
   0.08662075  0.08662075  0.12663287       0.040
  -0.00000000 -0.00000000  0.16884382       0.005
   0.04331038 -0.00000000  0.16884382       0.020
   0.08662075 -0.00000000  0.16884382       0.020
   0.04331038  0.04331038  0.16884382       0.020
   0.08662075  0.04331038  0.16884382       0.040
   0.08662075  0.08662075  0.16884382       0.020

 k-points in reciprocal lattice and weights: pymatgen v2020.8.13 with grid density =
   0.00000000  0.00000000  0.00000000       0.005
   0.20000000 -0.00000000  0.00000000       0.020
   0.40000000  0.00000000  0.00000000       0.020
   0.20000000  0.20000000  0.00000000       0.020
   0.40000000  0.20000000  0.00000000       0.040
   0.40000000  0.40000000  0.00000000       0.020
  -0.00000000  0.00000000  0.12500000       0.010
   0.20000000  0.00000000  0.12500000       0.040
   0.40000000  0.00000000  0.12500000       0.040
   0.20000000  0.20000000  0.12500000       0.040
   0.40000000  0.20000000  0.12500000       0.080
   0.40000000  0.40000000  0.12500000       0.040
  -0.00000000  0.00000000  0.25000000       0.010
   0.20000000 -0.00000000  0.25000000       0.040
   0.40000000  0.00000000  0.25000000       0.040
   0.20000000  0.20000000  0.25000000       0.040
   0.40000000  0.20000000  0.25000000       0.080
   0.40000000  0.40000000  0.25000000       0.040
   0.00000000  0.00000000  0.37500000       0.010
   0.20000000  0.00000000  0.37500000       0.040
   0.40000000  0.00000000  0.37500000       0.040
   0.20000000  0.20000000  0.37500000       0.040
   0.40000000  0.20000000  0.37500000       0.080
   0.40000000  0.40000000  0.37500000       0.040
  -0.00000000  0.00000000  0.50000000       0.005
   0.20000000  0.00000000  0.50000000       0.020
   0.40000000 -0.00000000  0.50000000       0.020
   0.20000000  0.20000000  0.50000000       0.020
   0.40000000  0.20000000  0.50000000       0.040
   0.40000000  0.40000000  0.50000000       0.020

 position of ions in fractional coordinates (direct lattice)
   0.50000000  0.50000000  0.00000000
   0.00000000  0.00000000  0.50000000
   0.69583436  0.69583436  0.50000000
   0.19583436  0.80416564  0.00000000
   0.80416564  0.19583436  0.00000000
   0.30416564  0.30416564  0.50000000

 position of ions in cartesian coordinates  (Angst):
   2.30891557  2.30891557  0.00000000
   0.00000000  0.00000000  1.48065826
   3.21324556  3.21324556  1.48065826
   0.90432998  3.71350116  0.00000000
   3.71350116  0.90432998  0.00000000
   1.40458559  1.40458559  1.48065826

--------------------------------------- Iteration      FINAL  ---------------------------------------

--------------------OUTCAR has been truncated-------------------------

[...]

--------------------OUTCAR has been truncated-------------------------

  FORCE on cell =-STRESS in cart. coord.  units (eV):
  Direction    XX          YY          ZZ          XY          YZ          ZX
  Alpha Z   216.51583   216.51583   216.51583
  Ewald   -1116.85311 -1116.85311  -690.64462    -0.00000     0.00000     0.00000
  Hartree   216.52581   216.52581   439.18472    -0.00000    -0.00000    -0.00000
  E(xc)    -215.19318  -215.19318  -215.07738     0.00000     0.00000    -0.00000
  Local     188.29097   188.29097  -449.42817     0.00000     0.00000     0.00000
  n-local  -136.02485  -137.06880  -134.62342     0.08320     0.13550    -0.00375
  augment   131.79499   131.79499   130.60972     0.00000     0.00000     0.00000
  Kinetic   715.93850   714.98185   703.45993    -1.15173    -0.73238    -1.46480
  Fock        0.00000     0.00000     0.00000     0.00000     0.00000     0.00000
  Total      -0.00533    -0.00533    -0.00341     0.00000     0.00000     0.00000
  in kB      -0.13523    -0.13523    -0.08649     0.00000     0.00000     0.00000

 VOLUME and BASIS-vectors are now :
  energy-cutoff  :      600.00
  volume of cell :       63.15
      direct lattice vectors                 reciprocal lattice vectors
     4.617831141  0.000000000  0.000000000     0.216551877 -0.000000000  0.000000000
     0.000000000  4.617831141  0.000000000     0.000000000  0.216551877  0.000000000
     0.000000000  0.000000000  2.961316511    -0.000000000 -0.000000000  0.337687645

  length of vectors
     4.617831141  4.617831141  2.961316511     0.216551877  0.216551877  0.337687645

 FORCES acting on ions
    electron-ion (+dipol)            ewald-force                    non-local-force                 convergence-correction
   -.823E-12 -.108E-11 -.186E-11   0.000E+00 -.284E-13 -.611E-15   -.152E-25 -.274E-25 -.348E-25   -.119E-12 -.474E-13 0.296E-13
   -.916E-14 -.412E-14 0.150E-12   0.284E-13 0.711E-13 0.451E-14   0.116E-24 -.138E-25 -.460E-25   0.326E-13 -.385E-13 0.167E-13
   -.372E+02 -.372E+02 0.275E-06   0.403E+02 0.403E+02 0.771E-14   -.309E+01 -.309E+01 -.411E-15   -.113E-03 -.113E-03 0.102E-13
   -.372E+02 0.372E+02 -.186E-11   0.403E+02 -.403E+02 0.109E-13   -.309E+01 0.309E+01 -.334E-17   -.113E-03 0.113E-03 0.911E-13
   0.372E+02 -.372E+02 0.125E-11   -.403E+02 0.403E+02 -.148E-13   0.309E+01 -.309E+01 0.498E-17   0.113E-03 -.113E-03 -.434E-13
   0.372E+02 0.372E+02 -.275E-06   -.403E+02 -.403E+02 -.871E-14   0.309E+01 0.309E+01 0.413E-15   0.113E-03 0.113E-03 0.167E-13
   0.232E-11 -.332E-11 0.483E-12   -.213E-13 0.284E-13 -.107E-14   0.444E-15 0.000E+00 0.416E-17   -.127E-12 -.135E-12 0.121E-12

 POSITION                                       TOTAL-FORCE (eV/Angst)
      2.30892      2.30892      0.00000        -0.000000      0.000000      0.000000
      0.00000      0.00000      1.48066        -0.000000      0.000000      0.000000
      3.21325      3.21325      1.48066        -0.000429     -0.000429     -0.000000
      0.90433      3.71350      0.00000        -0.000429      0.000429     -0.000000
      3.71350      0.90433      0.00000         0.000429     -0.000429      0.000000
      1.40459      1.40459      1.48066         0.000429      0.000429      0.000000
    total drift:                                0.000000     -0.000000      0.000000

  FREE ENERGIE OF THE ION-ELECTRON SYSTEM (eV)
  free  energy   TOTEN  =       -44.11194445 eV

  energy  without entropy=      -44.11194445  energy(sigma->0) =      -44.11194445

 reached required accuracy - stopping structural energy minimisation