 vasp.6.3.0 20Jan22 (build Apr  1 2022 16:44:48) complex
 executed on        HPECrayEX_GCC date 2023.03.02  02:34:05

 INCAR:
   SYSTEM = MgO-rocksalt
   ISMEAR = 0
   SIGMA = 0.05
   EDIFF = 1E-8
   ALGO = ALL
   ISTART = 0
   IBRION = 5
   POTIM = 0.01
   NFREE = 2
   ISYM = 0
   DIPOL = 0.5 0.5 0.5
   IDIPOL = 3
   LDIPOL = .TRUE.
   GGA = PE
   IVDW = 1
   VDW_C6 = 1.75 0.14 0.63 0.70
   VDW_R0 = 1.452 1.001 1.243 1.342
   ENCUT = 600
   PREC = Accurate
   LASPH = .TRUE.
   LREAL = .FALSE.
   ISPIN = 1
   NELM = 200
   NELMIN = 8
   NCORE = 8
   KPAR = 1
   LWAVE = .FALSE.
   LCHARG = .FALSE.

 POTCAR:    PAW_PBE C 08Apr2002
 POTCAR:    PAW_PBE H 15Jun2001
 POTCAR:    PAW_PBE Mg_pv 13Apr2007
 POTCAR:    PAW_PBE O 08Apr2002
 POTCAR:    PAW_PBE C 08Apr2002
   VRHFIN =C: s2p2

   TITEL  = PAW_PBE C 08Apr2002
   POMASS =   12.011; ZVAL   =    4.000    mass and valenz
   ENMAX  =  400.000; ENMIN  =  300.000 eV

   TITEL  = PAW_PBE H 15Jun2001
   POMASS =    1.000; ZVAL   =    1.000    mass and valenz
   ENMAX  =  250.000; ENMIN  =  200.000 eV

   TITEL  = PAW_PBE Mg_pv 13Apr2007
   POMASS =   24.305; ZVAL   =    8.000    mass and valenz
   ENMAX  =  403.929; ENMIN  =  302.947 eV

   TITEL  = PAW_PBE O 08Apr2002
   POMASS =   16.000; ZVAL   =    6.000    mass and valenz
   ENMAX  =  400.000; ENMIN  =  300.000 eV

  PAW_PBE C 08Apr2002                   :
  PAW_PBE H 15Jun2001                   :
  PAW_PBE Mg_pv 13Apr2007               :
  PAW_PBE O 08Apr2002                   :

 POSCAR:  C  H Mg  O
  positions in direct lattice
 exchange correlation table for  LEXCH =        8
   RHO(1)=    0.500       N(1)  =     2000
   RHO(2)=  100.500       N(2)  =     4000

 ion  position               nearest neighbor table
   1  0.500  0.500  0.790-   3 1.10   2 1.10   4 1.10   5 1.10
   2  0.500  0.606  0.819-   1 1.10
   3  0.500  0.394  0.819-   1 1.10
   4  0.607  0.500  0.761-   1 1.10
   5  0.393  0.500  0.761-   1 1.10
   6  0.250  0.000  0.351-  38 2.12  40 2.12  41 2.12  48 2.12  57 2.12
   7  0.500  0.250  0.351-  39 2.12  40 2.12  41 2.12  49 2.12  56 2.12
   8  0.250  0.250  0.450-  40 2.12  39 2.12  38 2.12  46 2.12  55 2.12  44 2.12
   9  0.500  0.000  0.450-  41 2.12  39 2.12  38 2.12  47 2.12  54 2.12  45 2.12
  10  0.250  0.000  0.550-  45 2.12  44 2.12  52 2.12  61 2.12  38 2.13  42 2.15
  11  0.500  0.250  0.550-  53 2.12  60 2.12  44 2.12  45 2.12  39 2.13  43 2.14
  12  0.250  0.250  0.648-  44 2.10  42 2.12  43 2.12  59 2.12  50 2.12
  13  0.500  1.000  0.648-  45 2.11  51 2.11  43 2.11  42 2.12  58 2.12
  14  0.250  0.500  0.351-  46 2.12  40 2.12  48 2.12  49 2.12  65 2.12
  15  0.500  0.750  0.351-  47 2.12  41 2.12  48 2.12  49 2.12  64 2.12
  16  0.250  0.750  0.450-  48 2.12  46 2.12  47 2.12  38 2.12  63 2.12  52 2.12
  17  0.500  0.500  0.450-  49 2.12  46 2.12  47 2.12  39 2.12  62 2.12  53 2.13
  18  0.250  0.500  0.550-  53 2.12  44 2.12  52 2.12  69 2.12  46 2.13  50 2.15
  19  0.500  0.750  0.550-  53 2.12  68 2.12  52 2.12  45 2.12  47 2.13  51 2.14
  20  0.250  0.750  0.648-  52 2.10  42 2.12  51 2.12  67 2.12  50 2.12
  21  0.500  0.500  0.649-  53 2.12  43 2.12  51 2.12  50 2.12  66 2.12
  22  0.750  0.000  0.351-  54 2.12  41 2.12  56 2.12  57 2.12  64 2.12
  23  0.000  0.250  0.351-  55 2.12  40 2.12  56 2.12  57 2.12  65 2.12
  24  0.750  0.250  0.450-  56 2.12  54 2.12  55 2.12  39 2.12  62 2.12  60 2.12
  25  0.000  0.000  0.450-  57 2.12  54 2.12  55 2.12  38 2.12  63 2.12  61 2.12
  26  0.750  0.000  0.550-  45 2.12  60 2.12  68 2.12  61 2.12  54 2.13  58 2.15
  27  1.000  0.250  0.550-  60 2.12  44 2.12  69 2.12  61 2.12  55 2.13  59 2.15
  28  0.750  0.250  0.648-  60 2.10  58 2.12  43 2.12  59 2.12  66 2.12
  29  0.000  1.000  0.649-  61 2.11  67 2.12  59 2.12  42 2.12  58 2.12
  30  0.750  0.500  0.351-  62 2.12  56 2.12  49 2.12  64 2.12  65 2.12
  31  0.000  0.750  0.351-  63 2.12  57 2.12  48 2.12  64 2.12  65 2.12
  32  0.750  0.750  0.450-  64 2.12  54 2.12  62 2.12  63 2.12  47 2.12  68 2.12
  33  0.000  0.500  0.450-  65 2.12  55 2.12  62 2.12  63 2.12  46 2.12  69 2.12
  34  0.750  0.500  0.550-  53 2.12  60 2.12  68 2.12  69 2.12  62 2.13  66 2.15
  35  1.000  0.750  0.550-  68 2.12  52 2.12  69 2.12  61 2.12  63 2.13  67 2.15
  36  0.750  0.750  0.648-  68 2.10  58 2.12  51 2.12  67 2.12  66 2.12
  37  0.000  0.500  0.648-  69 2.11  50 2.11  66 2.11  67 2.12  59 2.12
  38  0.250  0.000  0.450-   6 2.12   8 2.12   9 2.12  16 2.12  25 2.12  10 2.13
  39  0.500  0.250  0.450-   7 2.12   8 2.12   9 2.12  17 2.12  24 2.12  11 2.13
  40  0.250  0.250  0.351-   8 2.12   7 2.12   6 2.12  14 2.12  23 2.12
  41  0.500  0.000  0.351-   9 2.12   7 2.12   6 2.12  15 2.12  22 2.12
  42  0.250  0.000  0.651-  12 2.12  20 2.12  29 2.12  13 2.12  10 2.15
  43  0.500  0.250  0.651-  13 2.11  28 2.12  12 2.12  21 2.12  11 2.14
  44  0.250  0.250  0.550-  12 2.10  27 2.12  10 2.12  18 2.12  11 2.12   8 2.12
  45  0.500  0.000  0.550-  13 2.11  10 2.12  26 2.12  11 2.12  19 2.12   9 2.12
  46  0.250  0.500  0.450-  14 2.12   8 2.12  16 2.12  17 2.12  33 2.12  18 2.13
  47  0.500  0.750  0.450-  15 2.12   9 2.12  16 2.12  17 2.12  32 2.12  19 2.13
  48  0.250  0.750  0.351-  16 2.12  14 2.12  15 2.12   6 2.12  31 2.12
  49  0.500  0.500  0.351-  17 2.12  14 2.12  15 2.12   7 2.12  30 2.12
  50  0.250  0.500  0.651-  37 2.11  12 2.12  20 2.12  21 2.12  18 2.15
  51  0.500  0.750  0.651-  13 2.11  36 2.12  20 2.12  21 2.12  19 2.14
  52  0.250  0.750  0.550-  20 2.10  35 2.12  10 2.12  18 2.12  19 2.12  16 2.12
  53  0.500  0.500  0.550-  18 2.12  34 2.12  11 2.12  19 2.12  21 2.12  17 2.13
  54  0.750  0.000  0.450-  22 2.12   9 2.12  24 2.12  25 2.12  32 2.12  26 2.13
  55  0.000  0.250  0.450-  23 2.12   8 2.12  24 2.12  25 2.12  33 2.12  27 2.13
  56  0.750  0.250  0.351-  24 2.12  22 2.12  23 2.12   7 2.12  30 2.12
  57  0.000  0.000  0.351-  25 2.12  22 2.12  23 2.12   6 2.12  31 2.12
  58  0.750  0.000  0.651-  28 2.12  36 2.12  29 2.12  13 2.12  26 2.15
  59  1.000  0.250  0.651-  29 2.12  28 2.12  12 2.12  37 2.12  27 2.15
  60  0.750  0.250  0.550-  28 2.10  27 2.12  26 2.12  34 2.12  11 2.12  24 2.12
  61  0.000  0.000  0.550-  29 2.11  27 2.12  35 2.12  10 2.12  26 2.12  25 2.12
  62  0.750  0.500  0.450-  30 2.12  24 2.12  17 2.12  32 2.12  33 2.12  34 2.13
  63  0.000  0.750  0.450-  31 2.12  25 2.12  16 2.12  32 2.12  33 2.12  35 2.13
  64  0.750  0.750  0.351-  32 2.12  22 2.12  30 2.12  31 2.12  15 2.12
  65  0.000  0.500  0.351-  33 2.12  23 2.12  30 2.12  31 2.12  14 2.12
  66  0.750  0.500  0.651-  37 2.11  28 2.12  36 2.12  21 2.12  34 2.15
  67  1.000  0.750  0.651-  29 2.12  36 2.12  20 2.12  37 2.12  35 2.15
  68  0.750  0.750  0.550-  36 2.10  35 2.12  26 2.12  34 2.12  19 2.12  32 2.12
  69  0.000  0.500  0.550-  37 2.11  35 2.12  27 2.12  18 2.12  34 2.12  33 2.12

IMPORTANT INFORMATION: All symmetrisations will be switched off!
NOSYMM: (Re-)initialisation of all symmetry stuff for point group C_1.

                                     Primitive cell

  volume of cell :    1530.6606

  direct lattice vectors                    reciprocal lattice vectors
     8.467142631  0.000000000  0.000000000     0.118103597  0.000000000  0.000000000
     0.000000000  8.467142631  0.000000000     0.000000000  0.118103597  0.000000000
     0.000000000  0.000000000 21.350356973     0.000000000  0.000000000  0.046837624

  length of vectors
     8.467142631  8.467142631 21.350356973     0.118103597  0.118103597  0.046837624

  position of ions in fractional coordinates (direct lattice)
     0.500000003  0.499999993  0.789964752
     0.500000002  0.606243309  0.819392312
     0.500000002  0.393756697  0.819392311
     0.607192698  0.500000000  0.760738792
     0.392807307  0.500000000  0.760738792
     0.250000000  0.000000000  0.351282183
     0.500000000  0.250000000  0.351282183
     0.250000000  0.250000000  0.450427394
     0.500000000  0.000000000  0.450427394
     0.250024517  0.000000002  0.550149152
     0.500000003  0.250118833  0.550222711
     0.250032565  0.249769713  0.648390872
     0.500000000  0.999999999  0.648414742
     0.250000000  0.500000000  0.351282183
     0.500000000  0.750000000  0.351282183
     0.250000000  0.750000000  0.450427394
     0.500000000  0.500000000  0.450427394
     0.250145110  0.499999999  0.550197164
     0.500000002  0.749881167  0.550222710
     0.250032566  0.750230287  0.648390860
     0.499999997  0.499999999  0.649224842
     0.750000000  0.000000000  0.351282183
     0.000000000  0.250000000  0.351282183
     0.750000000  0.250000000  0.450427394
     0.000000000  0.000000000  0.450427394
     0.749975483  0.000000002  0.550149155
     0.999999998  0.250002890  0.550178729
     0.749967435  0.249769715  0.648390880
     0.000000001  0.999999999  0.648516315
     0.750000000  0.500000000  0.351282183
     0.000000000  0.750000000  0.351282183
     0.750000000  0.750000000  0.450427394
     0.000000000  0.500000000  0.450427394
     0.749854889  0.499999998  0.550197166
     0.999999997  0.749997109  0.550178728
     0.749967435  0.750230285  0.648390869
     0.000000002  0.500000001  0.648385268
     0.250000000  0.000000000  0.450427394
     0.500000000  0.250000000  0.450427394
     0.250000000  0.250000000  0.351282183
     0.500000000  0.000000000  0.351282183
     0.249946407  0.000000001  0.650815760
     0.500000000  0.249647339  0.650538565
     0.249901312  0.249983413  0.549818940
     0.499999999  0.000000001  0.549759977
     0.250000000  0.500000000  0.450427394
     0.500000000  0.750000000  0.450427394
     0.250000000  0.750000000  0.351282183
     0.500000000  0.500000000  0.351282183
     0.249615710  0.500000000  0.650862589
     0.500000000  0.750352661  0.650538561
     0.249901311  0.750016587  0.549818938
     0.499999998  0.499999999  0.549961997
     0.750000000  0.000000000  0.450427394
     0.000000000  0.250000000  0.450427394
     0.750000000  0.250000000  0.351282183
     0.000000000  0.000000000  0.351282183
     0.750053593  0.000000000  0.650815762
     1.000000000  0.249941936  0.650831691
     0.750098688  0.249983413  0.549818939
     0.000000000  0.000000000  0.549837714
     0.750000000  0.500000000  0.450427394
     0.000000000  0.750000000  0.450427394
     0.750000000  0.750000000  0.351282183
     0.000000000  0.500000000  0.351282183
     0.750384290  0.500000000  0.650862590
     0.999999999  0.750058064  0.650831689
     0.750098689  0.750016587  0.549818938
     0.000000001  0.500000000  0.549780274

  ion indices of the primitive-cell ions
   primitive index   ion index
                 1           1
                 2           2
                 3           3
                 4           4
                 5           5
                 6           6
                 7           7
                 8           8
                 9           9
                10          10
                11          11
                12          12
                13          13
                14          14
                15          15
                16          16
                17          17
                18          18
                19          19
[...]
      0.00000      4.23357     13.84326        -0.000826     -0.000000      0.001056
      2.11679      0.00000      9.61679        -0.002657     -0.000000      0.057257
      4.23357      2.11679      9.61679        -0.000022      0.004045      0.059488
      2.11679      2.11679      7.50000        -0.000173     -0.000081     -0.475997
      4.23357      0.00000      7.50000        -0.000005     -0.000000     -0.476207
      2.11633      0.00000     13.89515        -0.003833     -0.000000     -0.003150
      4.23357      2.11380     13.88923        -0.000218      0.001213      0.000924
      2.11595      2.11665     11.73883        -0.001255      0.002419      0.000010
      4.23357      0.00000     11.73757        -0.000030     -0.000000     -0.003089
      2.11679      4.23357      9.61679         0.002835      0.000000      0.060495
      4.23357      6.35036      9.61679        -0.000022     -0.004045      0.059488
      2.11679      6.35036      7.50000        -0.000173      0.000081     -0.475997
      4.23357      4.23357      7.50000        -0.000004      0.000000     -0.476428
      2.11353      4.23357     13.89615        -0.004772      0.000000      0.005336
      4.23357      6.35334     13.88923        -0.000219     -0.001213      0.000924
      2.11595      6.35050     11.73883        -0.001255     -0.002419      0.000010
      4.23357      4.23357     11.74188        -0.000214      0.000000      0.000319
      6.35036      0.00000      9.61679         0.002656     -0.000000      0.057214
      0.00000      2.11679      9.61679         0.000021     -0.001425      0.057254
      6.35036      2.11679      7.50000         0.000173     -0.000081     -0.476005
      0.00000      0.00000      7.50000         0.000004     -0.000000     -0.475999
      6.35081      0.00000     13.89515         0.003832     -0.000000     -0.003050
      8.46714      2.11629     13.89549         0.000232      0.001637     -0.003195
      6.35119      2.11665     11.73883         0.001252      0.002208     -0.000180
      0.00000      0.00000     11.73923         0.000028     -0.000000      0.001350
      6.35036      4.23357      9.61679        -0.002832      0.000000      0.060460
      0.00000      6.35036      9.61679         0.000021      0.001425      0.057254
      6.35036      6.35036      7.50000         0.000173      0.000081     -0.476005
      0.00000      4.23357      7.50000         0.000004      0.000000     -0.475856
      6.35361      4.23357     13.89615         0.004950      0.000000      0.004493
      8.46714      6.35085     13.89549         0.000232     -0.001636     -0.003196
      6.35119      6.35050     11.73883         0.001252     -0.002208     -0.000181
      0.00000      4.23357     11.73801         0.000273     -0.000000      0.009091
    total drift:                                0.000022      0.000000      0.014572

  FREE ENERGIE OF THE ION-ELECTRON SYSTEM (eV)
  free  energy   TOTEN  =      -399.83464712 eV

  energy  without entropy=     -399.83464712  energy(sigma->0) =     -399.83464712

 d Force =-0.5045555E-04[-0.260E-02, 0.250E-02]  d Energy =-0.6232969E-04 0.119E-04
 d Force =-0.4748060E+01[-0.476E+01,-0.474E+01]  d Ewald  =-0.4747995E+01-0.643E-04

 Finite differences progress:
  Degree of freedom:  15/ 15
  Displacement:        2/  2
  Total:              30/ 30

 SECOND DERIVATIVES (NOT SYMMETRIZED)
               1X          1Y          1Z          2X          2Y          2Z          3X          3Y          3Z          4X          4Y          4Z          5X          5Y          5Z
  1X   -49.056441    0.000027    0.000169    3.879442    0.000092    0.000088    3.879434   -0.000099    0.000107   20.820325    0.000002  -11.169937   20.820373    0.000004   11.170144
  1Y     0.000747  -50.083826    0.000244    0.000559   21.076109   11.940595    0.000687   21.076482  -11.940948   -0.000259    3.874208    0.000459   -0.000931    3.874265   -0.000763
  1Z     0.000013   -0.000453  -48.794819   -0.000000   11.901335   12.350254    0.000005  -11.902580   12.351866  -11.333678    0.000389   11.887007   11.333669    0.000376   11.887001
  2X     3.879867   -0.000313    0.000202   -3.947507   -0.001287   -0.000626    0.186316    0.001072   -0.000474   -0.121380   -2.055287   -1.302905   -0.125626    2.055269    1.302429
  2Y     0.000931   21.077766   11.906569   -0.000970  -22.572300  -13.029695   -0.000458    1.632889    1.470441    0.023533   -0.064420   -0.192916   -0.024702   -0.064001   -0.192695
  2Z    -0.000021   11.934650   12.350154    0.000001  -13.026495  -13.017853   -0.000010   -1.468060   -1.122401    0.211783    1.251868    0.930508   -0.211772    1.251868    0.930519
  3X     3.880517   -0.000544    0.000308    0.186142    0.000055   -0.000801   -3.948366    0.000771   -0.000575   -0.123781    2.055588   -1.302662   -0.123779   -2.054853    1.302481
  3Y     0.000493   21.078094  -11.906415   -0.000286    1.632725   -1.470006   -0.000109  -22.572482   13.030249   -0.024666   -0.063940    0.192920    0.023701   -0.064420    0.193129
  3Z    -0.000018  -11.935334   12.351870   -0.000006    1.469105   -1.122443    0.000000   13.023570  -13.015434    0.212803   -1.251615    0.929435   -0.212812   -1.251627    0.929441
  4X    20.822896    0.000443  -11.339130   -0.122023    0.024140    0.211420   -0.122030   -0.024171    0.210328  -22.332006   -0.000493   12.129276    1.562250   -0.000503   -1.497547
  4Y     0.000436    3.875143    0.000808   -2.055284   -0.066996    1.249817    2.055372   -0.066030   -1.251167   -0.001503   -4.004232    0.000453    0.000566    0.237637   -0.000301
  4Z   -11.163691    0.000634   11.887589   -1.303735   -0.194191    0.929825   -1.303451    0.192466    0.930079   12.122689    0.000007  -12.763525    1.495872   -0.000447   -1.212631
  5X    20.822803   -0.000024   11.339433   -0.122406   -0.023931   -0.211533   -0.122403    0.023937   -0.211537    1.562257   -0.000006    1.497095  -22.331047    0.000001  -12.129415
  5Y     0.000099    3.874858   -0.000969    2.055428   -0.065997    1.250944   -2.055300   -0.066657   -1.250075    0.000385    0.237857    0.000346    0.000286   -4.003581    0.000156
  5Z    11.163753    0.000719   11.887664    1.303733   -0.194150    0.929863    1.303451    0.192431    0.930108   -1.495789   -0.000431   -1.212650  -12.122717    0.000028  -12.763540

 Eigenvectors and eigenvalues of the dynamical matrix

   1 f  =   92.193571 THz   579.269293 2PiTHz 3075.246519 cm-1   381.281803 meV
             X         Y         Z           dx          dy          dz
      4.233571  4.233571 16.866029    -0.000039   -0.304317   -0.000273
      4.233571  5.133149 17.494318     0.000013    0.546643    0.394165
      4.233571  3.333994 17.494318    -0.000002    0.545626   -0.393464
      5.141187  4.233571 16.242045    -0.000175   -0.018502    0.000119
      3.325955  4.233571 16.242045     0.000310   -0.018507    0.000201
      2.116786  0.000000  7.500000            0           0           0
      4.233571  2.116786  7.500000            0           0           0
      2.116786  2.116786  9.616786            0           0           0
      4.233571  0.000000  9.616786            0           0           0
      2.116993  0.000000 11.745881            0           0           0
      4.233571  2.117792 11.747451            0           0           0
      2.117061  2.114836 13.843377            0           0           0
      4.233571  8.467143 13.843886            0           0           0
      2.116786  4.233571  7.500000            0           0           0
      4.233571  6.350357  7.500000            0           0           0
      2.116786  6.350357  9.616786            0           0           0
      4.233571  4.233571  9.616786            0           0           0
      2.118014  4.233571 11.746906            0           0           0
      4.233571  6.349351 11.747451            0           0           0
      2.117061  6.352307 13.843376            0           0           0
      4.233571  4.233571 13.861182            0           0           0
      6.350357  0.000000  7.500000            0           0           0
      0.000000  2.116786  7.500000            0           0           0
      6.350357  2.116786  9.616786            0           0           0
      0.000000  0.000000  9.616786            0           0           0
      6.350149  0.000000 11.745881            0           0           0
      8.467143  2.116810 11.746512            0           0           0
      6.350081  2.114836 13.843377            0           0           0
      0.000000  8.467143 13.846055            0           0           0
      6.350357  4.233571  7.500000            0           0           0
      0.000000  6.350357  7.500000            0           0           0
      6.350357  6.350357  9.616786            0           0           0
      0.000000  4.233571  9.616786            0           0           0
      6.349128  4.233571 11.746906            0           0           0
      8.467143  6.350332 11.746512            0           0           0
      6.350081  6.352307 13.843377            0           0           0
      0.000000  4.233571 13.843257            0           0           0
      2.116786  0.000000  9.616786            0           0           0
      4.233571  2.116786  9.616786            0           0           0
      2.116786  2.116786  7.500000            0           0           0
      4.233571  0.000000  7.500000            0           0           0
      2.116332  0.000000 13.895149            0           0           0
      4.233571  2.113800 13.889231            0           0           0
      2.115950  2.116645 11.738831            0           0           0
      4.233571  0.000000 11.737572            0           0           0
      2.116786  4.233571  9.616786            0           0           0
      4.233571  6.350357  9.616786            0           0           0
      2.116786  6.350357  7.500000            0           0           0
      4.233571  4.233571  7.500000            0           0           0
      2.113532  4.233571 13.896149            0           0           0
      4.233571  6.353343 13.889231            0           0           0
      2.115950  6.350497 11.738831            0           0           0
      4.233571  4.233571 11.741885            0           0           0
      6.350357  0.000000  9.616786            0           0           0
      0.000000  2.116786  9.616786            0           0           0
      6.350357  2.116786  7.500000            0           0           0
      0.000000  0.000000  7.500000            0           0           0
      6.350811  0.000000 13.895149            0           0           0
      8.467143  2.116294 13.895489            0           0           0
      6.351193  2.116645 11.738831            0           0           0
      0.000000  0.000000 11.739231            0           0           0
      6.350357  4.233571  9.616786            0           0           0
      0.000000  6.350357  9.616786            0           0           0
      6.350357  6.350357  7.500000            0           0           0
      0.000000  4.233571  7.500000            0           0           0
      6.353611  4.233571 13.896149            0           0           0
      8.467143  6.350849 13.895489            0           0           0
      6.351193  6.350497 11.738831            0           0           0
      0.000000  4.233571 11.738005            0           0           0

[...]

  15 f  =    0.749231 THz     4.707555 2PiTHz   24.991647 cm-1     3.098568 meV
             X         Y         Z           dx          dy          dz
      4.233571  4.233571 16.866029     0.008581   -0.755226    0.000958
      4.233571  5.133149 17.494318     0.003833   -0.389689    0.246670
      4.233571  3.333994 17.494318     0.001790   -0.389664   -0.246110
      5.141187  4.233571 16.242045     0.002113   -0.047986   -0.000244
      3.325955  4.233571 16.242045     0.002103   -0.046019    0.000846
      2.116786  0.000000  7.500000            0           0           0
      4.233571  2.116786  7.500000            0           0           0
      2.116786  2.116786  9.616786            0           0           0
      4.233571  0.000000  9.616786            0           0           0
      2.116993  0.000000 11.745881            0           0           0
      4.233571  2.117792 11.747451            0           0           0
      2.117061  2.114836 13.843377            0           0           0
      4.233571  8.467143 13.843886            0           0           0
      2.116786  4.233571  7.500000            0           0           0
      4.233571  6.350357  7.500000            0           0           0
      2.116786  6.350357  9.616786            0           0           0
      4.233571  4.233571  9.616786            0           0           0
      2.118014  4.233571 11.746906            0           0           0
      4.233571  6.349351 11.747451            0           0           0
      2.117061  6.352307 13.843376            0           0           0
      4.233571  4.233571 13.861182            0           0           0
      6.350357  0.000000  7.500000            0           0           0
      0.000000  2.116786  7.500000            0           0           0
      6.350357  2.116786  9.616786            0           0           0
      0.000000  0.000000  9.616786            0           0           0
      6.350149  0.000000 11.745881            0           0           0
      8.467143  2.116810 11.746512            0           0           0
      6.350081  2.114836 13.843377            0           0           0
      0.000000  8.467143 13.846055            0           0           0
      6.350357  4.233571  7.500000            0           0           0
      0.000000  6.350357  7.500000            0           0           0
      6.350357  6.350357  9.616786            0           0           0
      0.000000  4.233571  9.616786            0           0           0
      6.349128  4.233571 11.746906            0           0           0
      8.467143  6.350332 11.746512            0           0           0
      6.350081  6.352307 13.843377            0           0           0
      0.000000  4.233571 13.843257            0           0           0
      2.116786  0.000000  9.616786            0           0           0
      4.233571  2.116786  9.616786            0           0           0
      2.116786  2.116786  7.500000            0           0           0
      4.233571  0.000000  7.500000            0           0           0
      2.116332  0.000000 13.895149            0           0           0
      4.233571  2.113800 13.889231            0           0           0
      2.115950  2.116645 11.738831            0           0           0
      4.233571  0.000000 11.737572            0           0           0
      2.116786  4.233571  9.616786            0           0           0
      4.233571  6.350357  9.616786            0           0           0
      2.116786  6.350357  7.500000            0           0           0
      4.233571  4.233571  7.500000            0           0           0
      2.113532  4.233571 13.896149            0           0           0
      4.233571  6.353343 13.889231            0           0           0
      2.115950  6.350497 11.738831            0           0           0
      4.233571  4.233571 11.741885            0           0           0
      6.350357  0.000000  9.616786            0           0           0
      0.000000  2.116786  9.616786            0           0           0
      6.350357  2.116786  7.500000            0           0           0
      0.000000  0.000000  7.500000            0           0           0
      6.350811  0.000000 13.895149            0           0           0
      8.467143  2.116294 13.895489            0           0           0
      6.351193  2.116645 11.738831            0           0           0
      0.000000  0.000000 11.739231            0           0           0
      6.350357  4.233571  9.616786            0           0           0
      0.000000  6.350357  9.616786            0           0           0
      6.350357  6.350357  7.500000            0           0           0
      0.000000  4.233571  7.500000            0           0           0
      6.353611  4.233571 13.896149            0           0           0
      8.467143  6.350849 13.895489            0           0           0
      6.351193  6.350497 11.738831            0           0           0
      0.000000  4.233571 11.738005            0           0           0

 Finite differences POTIM=   1.0000000000000000E-002