 vasp.6.3.0 20Jan22 (build Apr  1 2022 16:44:48) complex
 executed on        HPECrayEX_GCC date 2022.12.17  01:30:45

 INCAR:
   SYSTEM = MgO-rocksalt
   ISMEAR = 0
   SIGMA = 0.05
   EDIFF = 1E-7
   ALGO = ALL
   ISTART = 0
   IBRION = 2
   NSW = 1000
   ISYM = 0
   ISIF = 2
   EDIFFG = -0.01
   DIPOL = 0.5 0.5 0.5
   IDIPOL = 3
   LDIPOL = .TRUE.
   GGA = MK
   LUSE_VDW = .TRUE.
   PARAM1 = 0.1234
   PARAM2 = 0.711357
   ZAB_VDW = -1.8867
   AGGAC = 0.0
   ENCUT = 600
   PREC = Accurate
   LASPH = .TRUE.
   LREAL = .FALSE.
   ISPIN = 1
   NELM = 200
   NELMIN = 8
   NCORE = 8
   KPAR = 1
   LWAVE = .FALSE.
   LCHARG = .FALSE.

 POTCAR:    PAW_PBE N 08Apr2002
 POTCAR:    PAW_PBE O 08Apr2002
 POTCAR:    PAW_PBE Mg_pv 13Apr2007
 POTCAR:    PAW_PBE O 08Apr2002
|               ----> ADVICE to this user running VASP <----                  |
|     You have switched on vdW-DFT.                                           |
|     This routine was written and supplied by Jiri Klimes. We recommend      |
|     that you carefully read and cite the following publications:            |
|       J. Klimes, D.R. Bowler, A. Michelides                                 |
|          J. Phys.: Cond Matt. 22 022201 (2010)                              |
|       J. Klimes, D.R. Bowler, A. Michelides                                 |
|          Phys. Rev. B. 83, 195131 (2011)                                    |
|     and references therein.                                                 |

   TITEL  = PAW_PBE N 08Apr2002
   POMASS =   14.001; ZVAL   =    5.000    mass and valenz
   ENMAX  =  400.000; ENMIN  =  300.000 eV

[...]

   TITEL  = PAW_PBE Mg_pv 13Apr2007
   POMASS =   24.305; ZVAL   =    8.000    mass and valenz
   ENMAX  =  403.929; ENMIN  =  302.947 eV

   TITEL  = PAW_PBE O 08Apr2002
   POMASS =   16.000; ZVAL   =    6.000    mass and valenz
   ENMAX  =  400.000; ENMIN  =  300.000 eV

  PAW_PBE N 08Apr2002                   :
  PAW_PBE O 08Apr2002                   :
  PAW_PBE Mg_pv 13Apr2007               :
  PAW_PBE O 08Apr2002                   :

 POSCAR:  N  O Mg  O
  positions in direct lattice
 exchange correlation table for  LEXCH =       43
   RHO(1)=    0.500       N(1)  =     2000
   RHO(2)=  100.500       N(2)  =     4000

 ion  position               nearest neighbor table
   1  0.512  0.512  0.745-   3 1.17  20 2.07
   2  0.749  0.749  0.745-   4 1.17  35 2.07
   3  0.483  0.483  0.798-   1 1.17
   4  0.777  0.777  0.798-   2 1.17
   5  0.250  0.000  0.352-  37 2.11  39 2.11  40 2.11  47 2.11  56 2.11
   6  0.500  0.250  0.352-  38 2.11  39 2.11  40 2.11  48 2.11  55 2.11
   7  0.250  0.250  0.451-  39 2.11  38 2.11  37 2.11  45 2.11  54 2.11  43 2.12
   8  0.500  0.000  0.451-  40 2.11  38 2.11  37 2.11  46 2.11  53 2.11  44 2.12
   9  0.250  0.000  0.550-  43 2.11  44 2.11  51 2.11  60 2.11  37 2.12  41 2.14
  10  0.500  0.250  0.550-  43 2.11  44 2.11  52 2.11  59 2.11  38 2.12  42 2.14
  11  0.250  0.250  0.648-  43 2.10  42 2.11  41 2.11  49 2.11  58 2.11
  12  0.500  0.000  0.648-  44 2.10  42 2.11  41 2.11  50 2.11  57 2.11
  13  0.250  0.500  0.352-  45 2.11  39 2.11  47 2.11  48 2.11  64 2.11
  14  0.500  0.750  0.352-  46 2.11  40 2.11  47 2.11  48 2.11  63 2.11
  15  0.250  0.750  0.451-  47 2.11  45 2.11  46 2.11  37 2.11  62 2.11  51 2.12
  16  0.500  0.500  0.451-  48 2.11  45 2.11  46 2.11  38 2.11  61 2.11  52 2.12
  17  0.250  0.500  0.550-  43 2.11  51 2.11  52 2.11  68 2.11  45 2.12  49 2.14
  18  0.500  0.750  0.550-  44 2.11  51 2.11  52 2.11  67 2.11  46 2.12  50 2.14
  19  0.250  0.750  0.648-  51 2.10  49 2.11  50 2.11  41 2.11  66 2.11
  20  0.500  0.500  0.648-   1 2.07  52 2.10  49 2.11  50 2.11  42 2.11  65 2.11
  21  0.750  0.000  0.352-  53 2.11  40 2.11  55 2.11  56 2.11  63 2.11
  22  0.000  0.250  0.352-  54 2.11  39 2.11  55 2.11  56 2.11  64 2.11
  23  0.750  0.250  0.451-  55 2.11  53 2.11  54 2.11  38 2.11  61 2.11  59 2.12
  24  0.000  0.000  0.451-  56 2.11  53 2.11  54 2.11  37 2.11  62 2.11  60 2.12
  25  0.750  0.000  0.550-  44 2.11  59 2.11  60 2.11  67 2.11  53 2.12  57 2.14
  26  0.000  0.250  0.550-  43 2.11  59 2.11  60 2.11  68 2.11  54 2.12  58 2.14
  27  0.750  0.250  0.648-  59 2.10  57 2.11  58 2.11  42 2.11  65 2.11
  28  0.000  0.000  0.648-  60 2.10  57 2.11  58 2.11  41 2.11  66 2.11
  29  0.750  0.500  0.352-  61 2.11  55 2.11  48 2.11  63 2.11  64 2.11
  30  0.000  0.750  0.352-  62 2.11  56 2.11  47 2.11  63 2.11  64 2.11
  31  0.750  0.750  0.451-  63 2.11  53 2.11  61 2.11  62 2.11  46 2.11  67 2.12
  32  0.000  0.500  0.451-  64 2.11  54 2.11  61 2.11  62 2.11  45 2.11  68 2.12
  33  0.750  0.500  0.550-  52 2.11  59 2.11  67 2.11  68 2.11  61 2.12  65 2.14
  34  0.000  0.750  0.550-  51 2.11  60 2.11  67 2.11  68 2.11  62 2.12  66 2.14
  35  0.750  0.750  0.648-   2 2.07  67 2.10  57 2.11  65 2.11  66 2.11  50 2.11
  36  0.000  0.500  0.648-  68 2.10  58 2.11  65 2.11  66 2.11  49 2.11
  37  0.250  0.000  0.451-   5 2.11   7 2.11   8 2.11  15 2.11  24 2.11   9 2.12
  38  0.500  0.250  0.451-   6 2.11   7 2.11   8 2.11  16 2.11  23 2.11  10 2.12
  39  0.250  0.250  0.352-   7 2.11   6 2.11   5 2.11  13 2.11  22 2.11
  40  0.500  0.000  0.352-   8 2.11   6 2.11   5 2.11  14 2.11  21 2.11
  41  0.250  0.000  0.650-  11 2.11  12 2.11  19 2.11  28 2.11   9 2.14
  42  0.500  0.250  0.650-  11 2.11  12 2.11  20 2.11  27 2.11  10 2.14
  43  0.250  0.250  0.550-  11 2.10  10 2.11   9 2.11  17 2.11  26 2.11   7 2.12
  44  0.500  0.000  0.550-  12 2.10  10 2.11   9 2.11  18 2.11  25 2.11   8 2.12
  45  0.250  0.500  0.451-  13 2.11   7 2.11  15 2.11  16 2.11  32 2.11  17 2.12
  46  0.500  0.750  0.451-  14 2.11   8 2.11  15 2.11  16 2.11  31 2.11  18 2.12
  47  0.250  0.750  0.352-  15 2.11  13 2.11  14 2.11   5 2.11  30 2.11
  48  0.500  0.500  0.352-  16 2.11  13 2.11  14 2.11   6 2.11  29 2.11
  49  0.250  0.500  0.650-  11 2.11  19 2.11  20 2.11  36 2.11  17 2.14
  50  0.500  0.750  0.650-  12 2.11  19 2.11  20 2.11  35 2.11  18 2.14
  51  0.250  0.750  0.550-  19 2.10  17 2.11  18 2.11   9 2.11  34 2.11  15 2.12
  52  0.500  0.500  0.550-  20 2.10  17 2.11  18 2.11  10 2.11  33 2.11  16 2.12
  53  0.750  0.000  0.451-  21 2.11   8 2.11  23 2.11  24 2.11  31 2.11  25 2.12
  54  0.000  0.250  0.451-  22 2.11   7 2.11  23 2.11  24 2.11  32 2.11  26 2.12
  55  0.750  0.250  0.352-  23 2.11  21 2.11  22 2.11   6 2.11  29 2.11
  56  0.000  0.000  0.352-  24 2.11  21 2.11  22 2.11   5 2.11  30 2.11
  57  0.750  0.000  0.650-  12 2.11  27 2.11  28 2.11  35 2.11  25 2.14
  58  0.000  0.250  0.650-  11 2.11  27 2.11  28 2.11  36 2.11  26 2.14
  59  0.750  0.250  0.550-  27 2.10  25 2.11  26 2.11  10 2.11  33 2.11  23 2.12
  60  0.000  0.000  0.550-  28 2.10  25 2.11  26 2.11   9 2.11  34 2.11  24 2.12
  61  0.750  0.500  0.451-  29 2.11  23 2.11  16 2.11  31 2.11  32 2.11  33 2.12
  62  0.000  0.750  0.451-  30 2.11  24 2.11  15 2.11  31 2.11  32 2.11  34 2.12
  63  0.750  0.750  0.352-  31 2.11  21 2.11  29 2.11  30 2.11  14 2.11
  64  0.000  0.500  0.352-  32 2.11  22 2.11  29 2.11  30 2.11  13 2.11
  65  0.750  0.500  0.650-  20 2.11  27 2.11  35 2.11  36 2.11  33 2.14
  66  0.000  0.750  0.650-  19 2.11  28 2.11  35 2.11  36 2.11  34 2.14
  67  0.750  0.750  0.550-  35 2.10  25 2.11  33 2.11  34 2.11  18 2.11  31 2.12
  68  0.000  0.500  0.550-  36 2.10  26 2.11  33 2.11  34 2.11  17 2.11  32 2.12

IMPORTANT INFORMATION: All symmetrisations will be switched off!
NOSYMM: (Re-)initialisation of all symmetry stuff for point group C_1.

                                     Primitive cell

  volume of cell :    1519.6535

  direct lattice vectors                    reciprocal lattice vectors
     8.440582262  0.000000000  0.000000000     0.118475239  0.000000000  0.000000000
     0.000000000  8.440582262  0.000000000     0.000000000  0.118475239  0.000000000
     0.000000000  0.000000000 21.330436697     0.000000000  0.000000000  0.046881366

  length of vectors
     8.440582262  8.440582262 21.330436697     0.118475239  0.118475239  0.046881366

  position of ions in fractional coordinates (direct lattice)
     0.511847524  0.511847524  0.745392786
     0.748798002  0.748798002  0.745392786
     0.483219129  0.483219120  0.797794511
     0.777426393  0.777426383  0.797794514
     0.250000000  0.000000000  0.351610242
     0.500000000  0.250000000  0.351610242
     0.250000000  0.250000000  0.450536747
     0.500000000  0.000000000  0.450536747
     0.250000000  0.000000000  0.549966382
     0.500000000  0.250000000  0.549966382
     0.250000000  0.250000000  0.648348359
     0.500000000  0.000000000  0.648348359
     0.250000000  0.500000000  0.351610242
     0.500000000  0.750000000  0.351610242
     0.250000000  0.750000000  0.450536747
     0.500000000  0.500000000  0.450536747
     0.250000000  0.500000000  0.549966382
     0.500000000  0.750000000  0.549966382
     0.250000000  0.750000000  0.648348359
     0.500000000  0.500000000  0.648348359
     0.750000000  0.000000000  0.351610242
     0.000000000  0.250000000  0.351610242
     0.750000000  0.250000000  0.450536747
     0.000000000  0.000000000  0.450536747
     0.750000000  0.000000000  0.549966382
     0.000000000  0.250000000  0.549966382
     0.750000000  0.250000000  0.648348359
     0.000000000  0.000000000  0.648348359
     0.750000000  0.500000000  0.351610242
     0.000000000  0.750000000  0.351610242
     0.750000000  0.750000000  0.450536747
     0.000000000  0.500000000  0.450536747
     0.750000000  0.500000000  0.549966382
     0.000000000  0.750000000  0.549966382
     0.750000000  0.750000000  0.648348359
     0.000000000  0.500000000  0.648348359
     0.250000000  0.000000000  0.450536747
     0.500000000  0.250000000  0.450536747
     0.250000000  0.250000000  0.351610242
     0.500000000  0.000000000  0.351610242
     0.250000000  0.000000000  0.650177506
     0.500000000  0.250000000  0.650177506
     0.250000000  0.250000000  0.549707339
     0.500000000  0.000000000  0.549707339
     0.250000000  0.500000000  0.450536747
     0.500000000  0.750000000  0.450536747
     0.250000000  0.750000000  0.351610242
     0.500000000  0.500000000  0.351610242
     0.250000000  0.500000000  0.650177506
     0.500000000  0.750000000  0.650177506
     0.250000000  0.750000000  0.549707339
     0.500000000  0.500000000  0.549707339
     0.750000000  0.000000000  0.450536747
     0.000000000  0.250000000  0.450536747
     0.750000000  0.250000000  0.351610242
     0.000000000  0.000000000  0.351610242
     0.750000000  0.000000000  0.650177506
     0.000000000  0.250000000  0.650177506
     0.750000000  0.250000000  0.549707339
     0.000000000  0.000000000  0.549707339
     0.750000000  0.500000000  0.450536747
     0.000000000  0.750000000  0.450536747
     0.750000000  0.750000000  0.351610242
     0.000000000  0.500000000  0.351610242
     0.750000000  0.500000000  0.650177506
     0.000000000  0.750000000  0.650177506
     0.750000000  0.750000000  0.549707339
     0.000000000  0.500000000  0.549707339

  ion indices of the primitive-cell ions
   primitive index   ion index
                 1           1
                 2           2
                 3           3
[...]
   0.00000000  4.22029113  9.61014557
   6.33043670  4.22029113 11.73102311
   0.00000000  6.33043670 11.73102311
   6.33043670  6.33043670 13.82955363
   0.00000000  4.22029113 13.82955363
   2.11014557  0.00000000  9.61014557
   4.22029113  2.11014557  9.61014557
   2.11014557  2.11014557  7.50000000
   4.22029113  0.00000000  7.50000000
   2.11014557  0.00000000 13.86857013
   4.22029113  2.11014557 13.86857013
   2.11014557  2.11014557 11.72549760
   4.22029113  0.00000000 11.72549760
   2.11014557  4.22029113  9.61014557
   4.22029113  6.33043670  9.61014557
   2.11014557  6.33043670  7.50000000
   4.22029113  4.22029113  7.50000000
   2.11014557  4.22029113 13.86857013
   4.22029113  6.33043670 13.86857013
   2.11014557  6.33043670 11.72549760
   4.22029113  4.22029113 11.72549760
   6.33043670  0.00000000  9.61014557
   0.00000000  2.11014557  9.61014557
   6.33043670  2.11014557  7.50000000
   0.00000000  0.00000000  7.50000000
   6.33043670  0.00000000 13.86857013
   0.00000000  2.11014557 13.86857013
   6.33043670  2.11014557 11.72549760
   0.00000000  0.00000000 11.72549760
   6.33043670  4.22029113  9.61014557
   0.00000000  6.33043670  9.61014557
   6.33043670  6.33043670  7.50000000
   0.00000000  4.22029113  7.50000000
   6.33043670  4.22029113 13.86857013
   0.00000000  6.33043670 13.86857013
   6.33043670  6.33043670 11.72549760
   0.00000000  4.22029113 11.72549760

--------------------------------------- Iteration      FINAL  ---------------------------------------

--------------------OUTCAR has been truncated-------------------------

[...]

--------------------OUTCAR has been truncated-------------------------

  FORCE on cell =-STRESS in cart. coord.  units (eV):
  Direction    XX          YY          ZZ          XY          YZ          ZX
  Alpha Z   945.99616   945.99616   945.99616
  Ewald  156227.70281156227.70310************   326.52255     0.78154     0.78098
  Hartree166940.04099166940.04121************   242.84466     0.08217     0.08193
  E(xc)   -2557.71639 -2557.71639 -2555.86533     0.54329     0.00326     0.00326
  Local  ************************331739.81871  -584.69955    -0.72787    -0.72710
  n-local -2893.72942 -2893.72943 -2926.20432    -7.92369     0.00455     0.00456
  augment  1066.09790  1066.09790  1055.42293     2.07551    -0.00361    -0.00361
  Kinetic  7770.99764  7770.99765  7760.53465    20.71542    -0.22509    -0.22508
  Fock        0.00000     0.00000     0.00000     0.00000     0.00000     0.00000
  Total     -28.60719   -28.60719    -2.40906     0.07819    -0.08506    -0.08507
  in kB     -30.16068   -30.16068    -2.53989     0.08244    -0.08968    -0.08968

 VOLUME and BASIS-vectors are now :
  energy-cutoff  :      600.00
  volume of cell :     1519.65
      direct lattice vectors                 reciprocal lattice vectors
     8.440582262  0.000000000  0.000000000     0.118475239  0.000000000  0.000000000
     0.000000000  8.440582262  0.000000000     0.000000000  0.118475239  0.000000000
     0.000000000  0.000000000 21.330436697     0.000000000  0.000000000  0.046881366

  length of vectors
     8.440582262  8.440582262 21.330436697     0.118475239  0.118475239  0.046881366

 FORCES acting on ions:
    Electron-Ion                     Ewald-Force                    Non-Local-Force
   0.491E+02 0.491E+02 -.112E+04   -.468E+02 -.468E+02 0.108E+04   -.232E+01 -.232E+01 0.403E+02
   -.482E+02 -.482E+02 -.112E+04   0.458E+02 0.458E+02 0.108E+04   0.246E+01 0.246E+01 0.403E+02
   0.137E+03 0.137E+03 -.162E+04   -.150E+03 -.150E+03 0.167E+04   0.125E+02 0.125E+02 -.582E+02
   -.138E+03 -.138E+03 -.162E+04   0.151E+03 0.151E+03 0.167E+04   -.127E+02 -.127E+02 -.581E+02
   0.208E+00 -.221E+00 0.210E+04   -.210E+00 0.223E+00 -.209E+04   0.121E-02 -.166E-02 -.680E+01
   0.221E+00 0.223E+00 0.210E+04   -.223E+00 -.225E+00 -.209E+04   0.153E-02 0.116E-02 -.679E+01
   0.731E+00 0.731E+00 0.759E+03   -.738E+00 -.738E+00 -.760E+03   0.615E-02 0.615E-02 0.342E+00
   0.794E+00 -.140E+01 0.761E+03   -.803E+00 0.139E+01 -.761E+03   0.703E-02 0.712E-02 0.401E+00
   0.416E+01 -.427E+01 -.580E+03   -.417E+01 0.428E+01 0.580E+03   0.730E-02 -.820E-02 -.271E+00
   0.433E+01 0.681E+01 -.569E+03   -.435E+01 -.670E+01 0.569E+03   0.102E-01 -.107E+00 -.538E+00
   0.224E+02 0.224E+02 -.194E+04   -.226E+02 -.226E+02 0.193E+04   0.141E+00 0.141E+00 0.598E+01
   0.246E+02 -.280E+02 -.192E+04   -.248E+02 0.286E+02 0.191E+04   0.129E+00 -.555E+00 0.600E+01
   0.223E+00 0.221E+00 0.210E+04   -.225E+00 -.223E+00 -.209E+04   0.116E-02 0.153E-02 -.679E+01
   0.238E+00 -.225E+00 0.210E+04   -.239E+00 0.226E+00 -.209E+04   0.618E-03 -.723E-03 -.679E+01
   0.135E+01 -.722E+00 0.761E+03   -.134E+01 0.735E+00 -.761E+03   -.126E-01 -.977E-02 0.401E+00
   0.141E+01 0.141E+01 0.762E+03   -.141E+01 -.141E+01 -.762E+03   -.211E-02 -.211E-02 0.584E+00
   0.681E+01 0.433E+01 -.569E+03   -.670E+01 -.435E+01 0.569E+03   -.107E+00 0.102E-01 -.538E+00
   0.691E+01 -.674E+01 -.559E+03   -.682E+01 0.664E+01 0.559E+03   -.956E-01 0.104E+00 0.301E+00
   0.276E+02 -.243E+02 -.192E+04   -.282E+02 0.244E+02 0.191E+04   0.563E+00 -.132E+00 0.600E+01
   0.440E+02 0.440E+02 -.179E+04   -.448E+02 -.448E+02 0.179E+04   0.796E+00 0.796E+00 0.308E+01
   -.208E+00 -.236E+00 0.210E+04   0.210E+00 0.238E+00 -.209E+04   -.165E-02 -.161E-02 -.679E+01
   -.221E+00 0.208E+00 0.210E+04   0.223E+00 -.210E+00 -.209E+04   -.166E-02 0.121E-02 -.680E+01
   -.722E+00 0.135E+01 0.761E+03   0.735E+00 -.134E+01 -.761E+03   -.977E-02 -.126E-01 0.401E+00
   -.776E+00 -.776E+00 0.759E+03   0.791E+00 0.791E+00 -.760E+03   -.115E-01 -.115E-01 0.337E+00
   -.422E+01 -.696E+01 -.568E+03   0.423E+01 0.686E+01 0.569E+03   -.689E-02 0.985E-01 -.542E+00
   -.427E+01 0.416E+01 -.580E+03   0.428E+01 -.417E+01 0.580E+03   -.820E-02 0.730E-02 -.271E+00
   -.243E+02 0.276E+02 -.192E+04   0.244E+02 -.282E+02 0.191E+04   -.132E+00 0.563E+00 0.600E+01
   -.228E+02 -.228E+02 -.194E+04   0.229E+02 0.229E+02 0.193E+04   -.136E+00 -.136E+00 0.599E+01
   -.225E+00 0.238E+00 0.210E+04   0.226E+00 -.239E+00 -.209E+04   -.723E-03 0.618E-03 -.679E+01
   -.236E+00 -.208E+00 0.210E+04   0.238E+00 0.210E+00 -.209E+04   -.161E-02 -.165E-02 -.679E+01
   -.134E+01 -.134E+01 0.762E+03   0.134E+01 0.134E+01 -.762E+03   -.284E-03 -.284E-03 0.580E+00
   -.140E+01 0.794E+00 0.761E+03   0.139E+01 -.803E+00 -.761E+03   0.712E-02 0.703E-02 0.401E+00
   -.674E+01 0.691E+01 -.559E+03   0.664E+01 -.682E+01 0.559E+03   0.104E+00 -.956E-01 0.301E+00
   -.696E+01 -.422E+01 -.568E+03   0.686E+01 0.423E+01 0.569E+03   0.985E-01 -.689E-02 -.542E+00
   -.435E+02 -.435E+02 -.179E+04   0.443E+02 0.443E+02 0.179E+04   -.803E+00 -.803E+00 0.304E+01
   -.280E+02 0.246E+02 -.192E+04   0.286E+02 -.248E+02 0.191E+04   -.555E+00 0.129E+00 0.600E+01
   0.621E+00 -.649E+00 0.569E+03   -.636E+00 0.656E+00 -.569E+03   0.214E-01 -.106E-01 -.999E-01
   0.662E+00 0.761E+00 0.570E+03   -.674E+00 -.794E+00 -.570E+03   0.175E-01 0.440E-01 -.918E-01
   0.139E+00 0.139E+00 0.158E+04   -.141E+00 -.141E+00 -.158E+04   0.361E-02 0.361E-02 0.360E+01
   0.148E+00 -.200E+00 0.158E+04   -.151E+00 0.201E+00 -.158E+04   0.422E-02 -.196E-02 0.360E+01
   0.113E+02 -.115E+02 -.148E+04   -.112E+02 0.114E+02 0.148E+04   -.108E+00 0.101E+00 -.498E+01
   0.130E+02 0.325E+02 -.144E+04   -.129E+02 -.322E+02 0.145E+04   -.115E+00 -.290E+00 -.502E+01
   0.389E+01 0.389E+01 -.428E+03   -.388E+01 -.388E+01 0.428E+03   -.514E-02 -.514E-02 0.208E+00
   0.406E+01 -.443E+01 -.422E+03   -.406E+01 0.446E+01 0.422E+03   -.508E-02 -.296E-01 0.267E+00
   0.761E+00 0.662E+00 0.570E+03   -.794E+00 -.674E+00 -.570E+03   0.440E-01 0.175E-01 -.918E-01
   0.821E+00 -.767E+00 0.572E+03   -.870E+00 0.808E+00 -.572E+03   0.665E-01 -.566E-01 -.725E-01
   0.190E+00 -.139E+00 0.158E+04   -.191E+00 0.142E+00 -.158E+04   0.193E-02 -.351E-02 0.360E+01
   0.201E+00 0.201E+00 0.158E+04   -.202E+00 -.202E+00 -.158E+04   0.881E-03 0.881E-03 0.361E+01
   0.325E+02 0.130E+02 -.144E+04   -.322E+02 -.129E+02 0.145E+04   -.290E+00 -.115E+00 -.502E+01
   0.424E+02 -.420E+02 -.138E+04   -.420E+02 0.416E+02 0.139E+04   -.401E+00 0.396E+00 -.458E+01
   0.432E+01 -.395E+01 -.422E+03   -.434E+01 0.395E+01 0.422E+03   0.270E-01 -.797E-03 0.266E+00
   0.455E+01 0.455E+01 -.420E+03   -.458E+01 -.458E+01 0.420E+03   0.360E-01 0.360E-01 -.261E+00
   -.607E+00 -.786E+00 0.570E+03   0.611E+00 0.811E+00 -.570E+03   -.748E-02 -.335E-01 -.872E-01
   -.649E+00 0.621E+00 0.569E+03   0.656E+00 -.636E+00 -.569E+03   -.106E-01 0.214E-01 -.999E-01
   -.139E+00 0.190E+00 0.158E+04   0.142E+00 -.191E+00 -.158E+04   -.351E-02 0.193E-02 0.360E+01
   -.149E+00 -.149E+00 0.158E+04   0.151E+00 0.151E+00 -.158E+04   -.363E-02 -.363E-02 0.360E+01
   -.128E+02 -.330E+02 -.144E+04   0.127E+02 0.327E+02 0.145E+04   0.112E+00 0.288E+00 -.503E+01
   -.115E+02 0.113E+02 -.148E+04   0.114E+02 -.112E+02 0.148E+04   0.101E+00 -.108E+00 -.498E+01
   -.395E+01 0.432E+01 -.422E+03   0.395E+01 -.434E+01 0.422E+03   -.797E-03 0.270E-01 0.266E+00
   -.402E+01 -.402E+01 -.428E+03   0.402E+01 0.402E+01 0.428E+03   0.366E-03 0.364E-03 0.208E+00
   -.767E+00 0.821E+00 0.572E+03   0.808E+00 -.870E+00 -.572E+03   -.566E-01 0.665E-01 -.725E-01
   -.786E+00 -.607E+00 0.570E+03   0.811E+00 0.611E+00 -.570E+03   -.335E-01 -.748E-02 -.872E-01
   -.192E+00 -.192E+00 0.158E+04   0.192E+00 0.192E+00 -.158E+04   -.170E-03 -.170E-03 0.361E+01
   -.200E+00 0.148E+00 0.158E+04   0.201E+00 -.151E+00 -.158E+04   -.196E-02 0.422E-02 0.360E+01
   -.420E+02 0.424E+02 -.138E+04   0.416E+02 -.420E+02 0.139E+04   0.396E+00 -.401E+00 -.458E+01
   -.330E+02 -.128E+02 -.144E+04   0.327E+02 0.127E+02 0.145E+04   0.288E+00 0.112E+00 -.503E+01
   -.445E+01 -.445E+01 -.419E+03   0.449E+01 0.449E+01 0.419E+03   -.398E-01 -.398E-01 -.236E+00
   -.443E+01 0.406E+01 -.422E+03   0.446E+01 -.406E+01 0.422E+03   -.296E-01 -.508E-02 0.267E+00
   0.784E-01 0.784E-01 0.567E+02   0.568E-12 0.341E-12 -.909E-12   -.754E-01 -.754E-01 -.567E+02

 POSITION                                       TOTAL-FORCE (eV/Angst)
      4.61878      4.61878     16.03791        -0.000706     -0.000706     -0.007507
      5.94390      5.94390     16.03334        -0.002526     -0.002526      0.007258
      4.39721      4.39721     17.17378        -0.000245     -0.000245      0.009840
      6.16969      6.16969     17.16763        -0.003058     -0.003058      0.002655
      2.11015      0.00000      7.50000        -0.000567      0.000600      0.320733
      4.22029      2.11015      7.50000        -0.000665     -0.000719      0.317258
      2.11015      2.11015      9.61015        -0.001073     -0.001073      0.030607
      4.22029      0.00000      9.61015        -0.001460     -0.001256      0.030974
      2.11118      0.00036     11.72817        -0.002149      0.001401      0.000820
      4.22094      2.11374     11.73227        -0.001930      0.000571      0.000356
      2.10756      2.10756     13.82608        -0.000547     -0.000547      0.005304
      4.21842      0.01433     13.82464        -0.000900     -0.001846      0.001872
      2.11015      4.22029      7.50000        -0.000719     -0.000665      0.317258
      4.22029      6.33044      7.50000        -0.000502      0.000412      0.316988
      2.11015      6.33044      9.61015         0.003722      0.002849      0.030712
      4.22029      4.22029      9.61015        -0.002359     -0.002358      0.037875
      2.11374      4.22094     11.73227         0.000572     -0.001931      0.000356
      4.22534      6.32654     11.72921        -0.000176     -0.001116      0.002578
      2.09779      6.33452     13.82462         0.001387     -0.000898      0.001906
      4.20037      4.20037     13.87471         0.001680      0.001680     -0.001809
      6.33044      0.00000      7.50000         0.000578      0.000751      0.317042
      0.00000      2.11015      7.50000         0.000600     -0.000568      0.320733
      6.33044      2.11015      9.61015         0.002849      0.003722      0.030712
      0.00000      0.00000      9.61015         0.003513      0.003513      0.029900
      6.33107     -0.00208     11.73186         0.001028     -0.000238      0.000487
      0.00036      2.11118     11.72817         0.001401     -0.002149      0.000820
      6.33452      2.09779     13.82462        -0.000898      0.001388      0.001906
      0.00446      0.00446     13.82564         0.000645      0.000645      0.005898
      6.33044      4.22029      7.50000         0.000412     -0.000502      0.316988
      0.00000      6.33044      7.50000         0.000751      0.000578      0.317042
      6.33044      6.33044      9.61015         0.003740      0.003740      0.036777
      0.00000      4.22029      9.61015        -0.001256     -0.001461      0.030974
      6.32654      4.22534     11.72921        -0.001116     -0.000176      0.002578
     -0.00208      6.33107     11.73186        -0.000238      0.001029      0.000487
      6.35272      6.35272     13.87226        -0.001489     -0.001489     -0.002895
      0.01433      4.21842     13.82464        -0.001846     -0.000900      0.001872
      2.11015      0.00000      9.61015         0.006049     -0.003468      0.032729
      4.22029      2.11015      9.61015         0.005512      0.011205      0.057749
      2.11015      2.11015      7.50000         0.001015      0.001015     -0.404722
      4.22029      0.00000      7.50000         0.001182     -0.000605     -0.402805
      2.10928      0.00282     13.86219        -0.001343      0.000262      0.001169
      4.21940      2.09982     13.85630        -0.001637     -0.000583     -0.000560
      2.11084      2.11084     11.72088        -0.001231     -0.001232      0.000614
      4.22126     -0.00364     11.72311        -0.001306      0.000282     -0.000715
      2.11015      4.22029      9.61015         0.011205      0.005512      0.057749
      4.22029      6.33044      9.61015         0.017376     -0.015029      0.046189
      2.11015      6.33044      7.50000         0.000518     -0.001056     -0.402800
      4.22029      4.22029      7.50000         0.000162      0.000162     -0.401158
      2.09982      4.21940     13.85631        -0.000583     -0.001637     -0.000560
      4.20439      6.34847     13.87623        -0.001035      0.000240     -0.000014
      2.11515      6.33076     11.72305        -0.001089      0.000074     -0.000438
      4.22371      4.22371     11.73654        -0.001405     -0.001406     -0.000894
      6.33044      0.00000      9.61015        -0.003177     -0.008763      0.057100
      0.00000      2.11015      9.61015        -0.003468      0.006049      0.032729
      6.33044      2.11015      7.50000        -0.001056      0.000518     -0.402800
      0.00000      0.00000      7.50000        -0.001097     -0.001097     -0.404598
      6.33339      0.01246     13.85541         0.000550      0.000160     -0.000501
      0.00282      2.10928     13.86219         0.000262     -0.001342      0.001169
      6.33076      2.11515     11.72305         0.000074     -0.001088     -0.000438
      0.00061      0.00061     11.72059         0.000332      0.000332      0.001154
      6.33044      4.22029      9.61015        -0.015029      0.017376      0.046189
      0.00000      6.33044      9.61015        -0.008763     -0.003177      0.057100
      6.33044      6.33044      7.50000        -0.000036     -0.000036     -0.401029
      0.00000      4.22029      7.50000        -0.000605      0.001182     -0.402805
      6.34847      4.20439     13.87623         0.000240     -0.001035     -0.000014
      0.01246      6.33339     13.85541         0.000160      0.000550     -0.000501
      6.32820      6.32820     11.73611         0.001493      0.001492     -0.000927
     -0.00364      4.22126     11.72311         0.000282     -0.001306     -0.000716
    total drift:                                0.002990      0.002991     -0.013431

  FREE ENERGIE OF THE ION-ELECTRON SYSTEM (eV)
  free  energy   TOTEN  =      -285.10887805 eV

  energy  without entropy=     -285.10887805  energy(sigma->0) =     -285.10887805

 d Force = 0.1459665E-04[ 0.311E-05, 0.261E-04]  d Energy = 0.1524445E-04-0.648E-06
 d Force =-0.5496393E+00[-0.550E+00,-0.550E+00]  d Ewald  =-0.5496393E+00 0.411E-08

 Conjugate gradient step on ions:
 trial-energy change:   -0.000015  1 .order   -0.000015   -0.000026   -0.000003
  (g-gl).g = 0.119E-03      g.g   = 0.120E-03  gl.gl    = 0.117E-03
 g(Force)  = 0.120E-03   g(Stress)= 0.000E+00 ortho     = 0.178E-04
 gamma     =   1.02233
 trial     =   0.18871
 opt step  =   0.21019  (harmonic =   0.21423) maximal distance =0.00019013
 next E    =  -285.108878   (d E  =  -0.00002)

 reached required accuracy - stopping structural energy minimisation