 vasp.6.3.0 20Jan22 (build Mar 11 2022 13:48:16) complex

 executed on             LinuxIFC date 2023.12.29  11:00:12

 INCAR:
   SYSTEM = TiO2
   ISMEAR = 0
   SIGMA = 0.05
   EDIFF = 1E-7
   ALGO = ALL
   ISTART = 0
   IBRION = 2
   NSW = 1000
   ISYM = 0
   ISIF = 2
   EDIFFG = -0.01
   DIPOL = 0.5 0.5 0.5
   IDIPOL = 3
   LDIPOL = .TRUE.
   GGA = RE
   AGGAC = 0.0
   LUSE_VDW = .TRUE.
   LASPH = .TRUE.
   ENCUT = 600
   PREC = Accurate
   LASPH = .TRUE.
   LREAL = .FALSE.
   ISPIN = 1
   NELM = 200
   NELMIN = 8
   NCORE = 19
   KPAR = 1
   LWAVE = .FALSE.
   LCHARG = .FALSE.

 POTCAR:    PAW_PBE C 08Apr2002
 POTCAR:    PAW_PBE O 08Apr2002
 POTCAR:    PAW_PBE Ti_pv 07Sep2000
 POTCAR:    PAW_PBE O 08Apr2002
|               ----> ADVICE to this user running VASP <----                  |
|     You have switched on vdW-DFT.                                           |
|     This routine was written and supplied by Jiri Klimes. We recommend      |
|     that you carefully read and cite the following publications:            |
|       J. Klimes, D.R. Bowler, A. Michelides                                 |
|          J. Phys.: Cond Matt. 22 022201 (2010)                              |
|       J. Klimes, D.R. Bowler, A. Michelides                                 |
|          Phys. Rev. B. 83, 195131 (2011)                                    |
|     and references therein.                                                 |

   TITEL  = PAW_PBE C 08Apr2002
   POMASS =   12.011; ZVAL   =    4.000    mass and valenz
   ENMAX  =  400.000; ENMIN  =  300.000 eV

[...]

   TITEL  = PAW_PBE Ti_pv 07Sep2000
   POMASS =   47.880; ZVAL   =   10.000    mass and valenz
   ENMAX  =  222.335; ENMIN  =  166.751 eV

   TITEL  = PAW_PBE O 08Apr2002
   POMASS =   16.000; ZVAL   =    6.000    mass and valenz
   ENMAX  =  400.000; ENMIN  =  300.000 eV

  PAW_PBE C 08Apr2002                   :
  PAW_PBE O 08Apr2002                   :
  PAW_PBE Ti_pv 07Sep2000               :
  PAW_PBE O 08Apr2002                   :

 POSCAR:  C  O Ti  O
  positions in direct lattice
  velocities in cartesian coordinates
 exchange correlation table for  LEXCH =       40
   RHO(1)=    0.500       N(1)  =     2000
   RHO(2)=  100.500       N(2)  =     4000

 ion  position               nearest neighbor table
   1  0.426  0.500  0.828-   2 1.17   3 1.19
   2  0.371  0.500  0.858-   1 1.17
   3  0.484  0.500  0.799-   1 1.19
   4  0.750  0.625  0.285-  85 1.98 145 1.98 144 1.98  84 1.98  87 2.02 166 2.02  14 3.00  34 3.00

   5  0.000  0.750  0.285-  86 1.98  87 1.98 106 1.98 107 1.98  88 2.02  35 3.00  15 3.00
   6  0.000  0.625  0.393-  88 1.98 148 1.98  89 1.98 149 1.98  90 2.02  91 2.02  16 3.00  36 3.00

[...]

  83  0.498  0.500  0.712- 237 1.85 183 1.97 243 1.97 182 1.98 242 1.98  53 3.00  73 3.00
  84  0.750  0.750  0.243-   4 1.98  14 1.98
  85  0.750  0.750  0.327-   4 1.98  14 1.98   7 2.02
  86  0.098  0.625  0.285-   5 1.98  35 1.98  44 2.02
  87  0.902  0.625  0.285-   5 1.98  35 1.98   4 2.02
  88  0.000  0.750  0.351-   6 1.98  16 1.98   5 2.02
  89  0.000  0.750  0.434-   6 1.98  16 1.98   9 2.02
  90  0.848  0.625  0.393-   7 1.98  37 1.98   6 2.02
  91  0.152  0.625  0.393-  47 1.98  77 1.98   6 2.02
  92  0.750  0.750  0.458-   8 1.98  18 1.98   7 2.02
  93  0.750  0.750  0.542-   8 1.98  18 1.98  11 2.17
  94  0.098  0.625  0.500-   9 1.98  39 1.98  48 2.02
  95  0.902  0.625  0.500-   9 1.98  39 1.98   8 2.02
  96  0.999  0.750  0.566-  20 1.92  10 1.92   9 2.05
  97  0.999  0.750  0.651-  13 1.83  10 2.05  20 2.05
  98  0.848  0.625  0.609-  41 1.94  11 1.94  10 2.12
  99  0.149  0.625  0.608-  10 1.87  51 2.06  81 2.07
 100  0.750  0.750  0.673-  11 1.88  22 2.13  12 2.13
 101  0.749  0.750  0.758-  12 1.85  22 1.85
 102  0.093  0.625  0.721-  43 1.98  13 1.98  52 2.06
 103  0.906  0.625  0.721-  43 1.97  13 1.97  12 2.08
 104  0.750  0.000  0.243-  14 1.98  24 1.98
 105  0.750  0.000  0.327-  14 1.98  24 1.98  17 2.02
 106  0.098  0.875  0.285-   5 1.98  15 1.98  54 2.02
 107  0.902  0.875  0.285-   5 1.98  15 1.98  14 2.02
 108  0.000  0.000  0.351-  16 1.98  26 1.98  15 2.02
 109  0.000  0.000  0.434-  16 1.98  26 1.98  19 2.02
 110  0.848  0.875  0.393-   7 1.98  17 1.98  16 2.02
 111  0.152  0.875  0.393-  47 1.98  57 1.98  16 2.02
 112  0.750  0.000  0.458-  18 1.98  28 1.98  17 2.02
 113  0.750  0.000  0.542-  18 1.98  28 1.98  21 2.17
 114  0.098  0.875  0.500-   9 1.98  19 1.98  58 2.02
 115  0.902  0.875  0.500-   9 1.98  19 1.98  18 2.02
 116  0.999  1.000  0.566-  20 1.92  30 1.92  19 2.05
 117  0.999  1.000  0.651-  23 1.83  20 2.05  30 2.05
 118  0.848  0.875  0.609-  11 1.94  21 1.94  20 2.12
 119  0.149  0.875  0.608-  20 1.88  61 2.06  51 2.06
 120  0.750  0.000  0.673-  21 1.88  32 2.13  22 2.13
 121  0.750  1.000  0.758-  32 1.85  22 1.85
 122  0.093  0.875  0.721-  23 1.97  13 1.97  62 2.07
 123  0.906  0.875  0.721-  13 1.97  23 1.97  22 2.08
 124  0.750  0.250  0.243-  24 1.98  34 1.98
 125  0.750  0.250  0.327-  24 1.98  34 1.98  27 2.02
 126  0.098  0.125  0.285-  15 1.98  25 1.98  64 2.02
 127  0.902  0.125  0.285-  15 1.98  25 1.98  24 2.02
 128  0.000  0.250  0.351-  26 1.98  36 1.98  25 2.02
 129  0.000  0.250  0.434-  26 1.98  36 1.98  29 2.02
 130  0.848  0.125  0.393-  17 1.98  27 1.98  26 2.02
 131  0.152  0.125  0.393-  57 1.98  67 1.98  26 2.02
 132  0.750  0.250  0.458-  28 1.98  38 1.98  27 2.02
 133  0.750  0.250  0.542-  28 1.98  38 1.98  31 2.17
 134  0.098  0.125  0.500-  19 1.98  29 1.98  68 2.02
 135  0.902  0.125  0.500-  19 1.98  29 1.98  28 2.02
 136  0.999  0.250  0.566-  30 1.92  40 1.92  29 2.05
 137  0.999  0.250  0.651-  33 1.83  40 2.05  30 2.05
 138  0.848  0.125  0.609-  31 1.94  21 1.94  30 2.12
 139  0.149  0.125  0.608-  30 1.88  61 2.06  71 2.06
 140  0.750  0.250  0.673-  31 1.88  32 2.13  42 2.13
 141  0.749  0.250  0.758-  42 1.85  32 1.85
 142  0.093  0.125  0.721-  23 1.97  33 1.97  72 2.07
[...]
 229  0.500  0.500  0.434-  46 1.98  76 1.98  79 2.02
 230  0.348  0.375  0.393-  67 1.98  77 1.98  76 2.02
 231  0.652  0.375  0.393-  27 1.98  37 1.98  76 2.02
 232  0.250  0.500  0.458-  48 1.98  78 1.98  77 2.02
 233  0.250  0.500  0.542-  48 1.98  78 1.98  81 2.17
 234  0.598  0.375  0.500-  69 1.98  79 1.98  38 2.02
 235  0.402  0.375  0.500-  69 1.98  79 1.98  78 2.02
 236  0.499  0.500  0.567-  50 1.92  80 1.92  79 2.06
 237  0.499  0.500  0.651-  83 1.85  50 2.05  80 2.05
 238  0.348  0.375  0.609-  81 1.93  71 1.94  80 2.12
 239  0.649  0.375  0.608-  80 1.88  31 2.06  41 2.06
 240  0.249  0.500  0.673-  81 1.89  82 2.13  52 2.13
 241  0.251  0.500  0.758-  52 1.86  82 1.86
 242  0.593  0.374  0.721-  73 1.97  83 1.98  42 2.06
 243  0.405  0.374  0.720-  73 1.96  83 1.97  82 2.08

IMPORTANT INFORMATION: All symmetrisations will be switched off!
NOSYMM: (Re-)initialisation of all symmetry stuff for point group C_1.

                                     Primitive cell

  volume of cell :    4895.9617

  direct lattice vectors                    reciprocal lattice vectors
    13.251680751  0.000000000  0.000000000     0.075462126  0.000000000  0.000000000
     0.000000000 11.981436613  0.000000000     0.000000000  0.083462445  0.000000000
     0.000000000  0.000000000 30.836008487     0.000000000  0.000000000  0.032429619

  length of vectors
    13.251680751 11.981436613 30.836008487     0.075462126  0.083462445  0.032429619

  position of ions in fractional coordinates (direct lattice)
     0.426172739  0.499999836  0.827978728
     0.371356091  0.499999777  0.857815177
     0.483749257  0.499999732  0.798562417
     0.750000000  0.625000000  0.285126523
     0.000000000  0.750000000  0.285126523
     0.000000000  0.625000000  0.392563261
     0.750000000  0.750000000  0.392563261
     0.750000000  0.625000000  0.500000000
     0.000000000  0.750000000  0.500000000
     0.007888173  0.624959304  0.605306822
     0.755712436  0.750011818  0.612260682
     0.748560648  0.625008475  0.722540663
     0.999016775  0.750146847  0.710117300
     0.750000000  0.875000000  0.285126523
     0.000000000  0.000000000  0.285126523
     0.000000000  0.875000000  0.392563261
     0.750000000  0.000000000  0.392563261
     0.750000000  0.875000000  0.500000000
     0.000000000  0.000000000  0.500000000
     0.007417389  0.874963369  0.605285448
     0.755481850  0.000001476  0.612231336
     0.749032287  0.875010556  0.722526884
     0.999452758  0.999998893  0.710072165
     0.750000000  0.125000000  0.285126523
     0.000000000  0.250000000  0.285126523
     0.000000000  0.125000000  0.392563261
     0.750000000  0.250000000  0.392563261
     0.750000000  0.125000000  0.500000000
     0.000000000  0.250000000  0.500000000
     0.007411511  0.125035148  0.605284684
     0.755693503  0.249982233  0.612262385
     0.749033260  0.124987888  0.722528077
     0.999019225  0.249852905  0.710117886
     0.750000000  0.375000000  0.285126523
     0.000000000  0.500000000  0.285126523
     0.000000000  0.375000000  0.392563261
     0.750000000  0.500000000  0.392563261
     0.750000000  0.375000000  0.500000000
     0.000000000  0.500000000  0.500000000
     0.007862367  0.375042465  0.605306793
     0.755839614  0.500005458  0.612299042
     0.748562037  0.374994073  0.722541128
     0.998445887  0.500001045  0.710133031
     0.250000000  0.625000000  0.285126523
     0.500000000  0.750000000  0.285126523
     0.500000000  0.625000000  0.392563261
     0.250000000  0.750000000  0.392563261
     0.250000000  0.625000000  0.500000000
     0.500000000  0.750000000  0.500000000
     0.507789578  0.624474618  0.605838742
     0.255705764  0.750149714  0.612261579
     0.248210612  0.625192519  0.722275465
     0.499304627  0.749933933  0.709968717
     0.250000000  0.875000000  0.285126523
     0.500000000  0.000000000  0.285126523
     0.500000000  0.875000000  0.392563261
     0.250000000  0.000000000  0.392563261
     0.250000000  0.875000000  0.500000000
     0.500000000  0.000000000  0.500000000
     0.507702690  0.874752907  0.605152947
[...]
     0.500000000  0.500000000  0.434467643
     0.347509432  0.375000000  0.392563261
     0.652490568  0.375000000  0.392563261
     0.250000000  0.500000000  0.458095618
     0.250000000  0.500000000  0.541904382
     0.597509432  0.375000000  0.500000000
     0.402490568  0.375000000  0.500000000
     0.499256024  0.500000440  0.566760864
     0.499219867  0.499999236  0.651492301
     0.347897378  0.374887789  0.608757136
     0.649187514  0.375039937  0.608353436
     0.248940296  0.499997414  0.673336396
     0.251070767  0.500003855  0.757696104
     0.592974962  0.374265819  0.720655360
     0.404855620  0.373576235  0.720130788

  ion indices of the primitive-cell ions
   primitive index   ion index
                 1           1
                 2           2
                 3           3
                 4           4
                 5           5
                 6           6
                 7           7
                 8           8
                 9           9
                10          10
                11          11
                12          12
                13          13
[...]
   4.61022499  4.49169428 18.77164020
   8.60282568  4.49351723 18.75919171
   3.29887733  5.99068732 20.76300681
   3.32710965  5.99076450 23.36432348
   7.85791488  4.48424219 22.22213481
   5.36501743  4.47597998 22.20595908

--------------------------------------- Iteration      FINAL  ---------------------------------------

--------------------OUTCAR has been truncated-------------------------

[...]

--------------------OUTCAR has been truncated-------------------------

  FORCE on cell =-STRESS in cart. coord.  units (eV):
  Direction    XX          YY          ZZ          XY          YZ          ZX
  Alpha Z  4533.07076  4533.07076  4533.07076
  Ewald  925574.27746943253.42744************    -0.00593    -0.00460  -311.47644
  Hartree966916.75797976663.70554************    -0.00357    -0.00272  -110.81296
  E(xc)   -8867.98039 -8842.82892 -8867.26713    -0.00001    -0.00002    -1.86439
  Local  ************************************     0.00954     0.00724   386.69130
  n-local -5491.71834 -5409.07994 -5529.16127    -0.00009    -0.00005     2.43493
  augment  5315.41934  5298.43006  5319.82596    -0.00001    -0.00000     1.39235
  Kinetic 28910.17281 28466.39508 28935.74526     0.00002     0.00025    34.08243
  Fock        0.00000     0.00000     0.00000     0.00000     0.00000     0.00000
  Total      11.80423   -31.93484   -33.71559    -0.00005     0.00010     0.44721
  in kB       3.86287   -10.45050   -11.03325    -0.00002     0.00003     0.14635

 VOLUME and BASIS-vectors are now :
  energy-cutoff  :      600.00
  volume of cell :     4895.96
      direct lattice vectors                 reciprocal lattice vectors
    13.251680751  0.000000000  0.000000000     0.075462126  0.000000000  0.000000000
     0.000000000 11.981436613  0.000000000     0.000000000  0.083462445  0.000000000
     0.000000000  0.000000000 30.836008487     0.000000000  0.000000000  0.032429619

  length of vectors
    13.251680751 11.981436613 30.836008487     0.075462126  0.083462445  0.032429619

 FORCES acting on ions:
    Electron-Ion                     Ewald-Force                    Non-Local-Force
   -.175E+02 -.592E-03 -.139E+04   0.169E+02 0.593E-03 0.139E+04   0.661E+00 -.489E-05 0.463E-01
   0.163E+03 0.545E-04 -.199E+04   -.206E+03 -.203E-03 0.204E+04   0.431E+02 0.151E-03 -.490E+02
   -.191E+03 -.134E-02 -.218E+04   0.234E+03 0.147E-02 0.214E+04   -.426E+02 -.135E-03 0.417E+02
   -.251E+00 -.889E-01 0.363E+04   0.250E+00 0.890E-01 -.364E+04   0.223E-03 -.439E-05 0.357E+00
   0.149E+00 -.127E+00 0.381E+04   -.149E+00 0.127E+00 -.380E+04   0.108E-03 -.938E-05 -.366E+01
   0.263E+00 -.115E+00 0.186E+04   -.267E+00 0.115E+00 -.186E+04   0.720E-03 0.351E-04 -.470E-01
   -.406E+00 -.122E+00 0.185E+04   0.405E+00 0.123E+00 -.185E+04   0.916E-03 -.634E-04 0.201E+00
   -.273E+01 -.453E+00 0.121E+02   0.273E+01 0.452E+00 -.113E+02   0.328E-02 0.610E-04 -.125E+00
   0.347E+01 -.850E+00 0.213E+02   -.352E+01 0.855E+00 -.224E+02   0.183E-01 -.214E-02 0.376E+00
   0.350E+02 -.227E+01 -.177E+04   -.349E+02 0.227E+01 0.177E+04   -.155E+00 -.209E-02 0.214E+00
   0.351E+01 -.479E+01 -.183E+04   -.337E+01 0.479E+01 0.183E+04   -.194E+00 -.172E-02 -.275E+00
   -.476E+02 -.188E+02 -.357E+04   0.476E+02 0.188E+02 0.357E+04   0.481E-01 -.764E-02 -.322E+00
   0.911E+01 -.929E+01 -.361E+04   -.912E+01 0.929E+01 0.361E+04   0.106E-01 -.298E-02 0.993E+00
   -.242E+00 -.888E-01 0.363E+04   0.241E+00 0.889E-01 -.364E+04   0.276E-03 -.667E-05 0.357E+00
   0.141E+00 -.561E-04 0.381E+04   -.141E+00 0.553E-04 -.380E+04   0.986E-04 0.108E-06 -.366E+01
   0.247E+00 -.117E+00 0.186E+04   -.250E+00 0.117E+00 -.186E+04   0.594E-03 0.486E-04 -.471E-01
   -.439E+00 -.307E-03 0.185E+04   0.437E+00 0.303E-03 -.185E+04   0.104E-02 0.736E-06 0.201E+00
   -.315E+01 -.459E+00 0.112E+02   0.316E+01 0.461E+00 -.104E+02   0.262E-02 -.533E-04 -.125E+00
   0.345E+01 -.150E-02 0.204E+02   -.350E+01 0.146E-02 -.214E+02   0.169E-01 0.676E-05 0.376E+00
   0.344E+02 -.232E+01 -.177E+04   -.343E+02 0.232E+01 0.177E+04   -.159E+00 -.169E-02 0.215E+00
   0.480E+01 0.175E-02 -.184E+04   -.468E+01 -.180E-02 0.184E+04   -.183E+00 -.567E-04 -.274E+00
   -.200E+02 -.136E+02 -.360E+04   0.199E+02 0.136E+02 0.360E+04   0.488E-01 0.145E-02 -.322E+00
   0.644E+01 -.851E-02 -.362E+04   -.645E+01 0.853E-02 0.361E+04   0.120E-01 0.964E-05 0.101E+01
   -.242E+00 0.888E-01 0.363E+04   0.241E+00 -.888E-01 -.364E+04   0.276E-03 0.675E-05 0.357E+00
   0.149E+00 0.127E+00 0.381E+04   -.149E+00 -.127E+00 -.380E+04   0.108E-03 0.936E-05 -.366E+01
   0.247E+00 0.116E+00 0.186E+04   -.250E+00 -.116E+00 -.186E+04   0.593E-03 -.460E-04 -.471E-01
   -.406E+00 0.122E+00 0.185E+04   0.405E+00 -.123E+00 -.185E+04   0.916E-03 0.630E-04 0.201E+00
   -.316E+01 0.457E+00 0.112E+02   0.316E+01 -.458E+00 -.104E+02   0.263E-02 0.535E-04 -.125E+00
   0.347E+01 0.848E+00 0.213E+02   -.353E+01 -.854E+00 -.224E+02   0.183E-01 0.212E-02 0.376E+00
   0.344E+02 0.232E+01 -.177E+04   -.343E+02 -.232E+01 0.177E+04   -.159E+00 0.164E-02 0.215E+00
   0.350E+01 0.480E+01 -.183E+04   -.337E+01 -.480E+01 0.183E+04   -.194E+00 0.182E-02 -.275E+00
   -.200E+02 0.136E+02 -.360E+04   0.199E+02 -.136E+02 0.360E+04   0.488E-01 -.148E-02 -.321E+00
   0.911E+01 0.930E+01 -.361E+04   -.912E+01 -.930E+01 0.361E+04   0.106E-01 0.301E-02 0.993E+00
   -.251E+00 0.890E-01 0.363E+04   0.250E+00 -.890E-01 -.364E+04   0.223E-03 0.429E-05 0.357E+00
   0.157E+00 0.568E-04 0.381E+04   -.157E+00 -.558E-04 -.380E+04   0.116E-03 -.765E-07 -.366E+01
   0.263E+00 0.116E+00 0.186E+04   -.267E+00 -.116E+00 -.186E+04   0.720E-03 -.378E-04 -.470E-01
   -.374E+00 0.340E-03 0.185E+04   0.373E+00 -.335E-03 -.185E+04   0.753E-03 -.482E-06 0.201E+00
   -.273E+01 0.456E+00 0.121E+02   0.273E+01 -.455E+00 -.113E+02   0.326E-02 -.596E-04 -.125E+00
   0.346E+01 0.280E-02 0.222E+02   -.352E+01 -.285E-02 -.233E+02   0.196E-01 0.212E-04 0.376E+00
   0.350E+02 0.228E+01 -.177E+04   -.349E+02 -.228E+01 0.177E+04   -.155E+00 0.215E-02 0.214E+00
   0.104E+01 -.120E-01 -.182E+04   -.916E+00 0.122E-01 0.182E+04   -.182E+00 -.677E-04 -.278E+00
   -.476E+02 0.188E+02 -.357E+04   0.476E+02 -.188E+02 0.357E+04   0.484E-01 0.768E-02 -.322E+00
   0.126E+02 -.739E-03 -.360E+04   -.126E+02 0.804E-03 0.360E+04   -.342E-02 -.444E-04 0.975E+00
   0.243E+00 -.101E+00 0.363E+04   -.243E+00 0.101E+00 -.364E+04   -.122E-03 -.385E-04 0.358E+00
   -.141E+00 -.141E+00 0.381E+04   0.141E+00 0.142E+00 -.380E+04   -.101E-03 -.331E-04 -.366E+01
   -.661E-01 -.607E-01 0.186E+04   0.686E-01 0.665E-01 -.186E+04   -.395E-03 -.114E-02 -.475E-01
   0.212E+00 -.152E+00 0.185E+04   -.210E+00 0.153E+00 -.185E+04   0.656E-04 0.164E-04 0.203E+00
   -.516E+00 -.635E+00 0.138E+02   0.541E+00 0.642E+00 -.130E+02   -.572E-03 -.628E-03 -.121E+00
   0.232E+01 -.378E+00 0.240E+02   -.235E+01 0.358E+00 -.250E+02   0.140E-01 0.127E-01 0.355E+00
   0.289E+02 -.543E+01 -.176E+04   -.289E+02 0.547E+01 0.176E+04   -.167E+00 -.303E-01 0.205E+00
   0.176E+02 -.733E+01 -.182E+04   -.174E+02 0.733E+01 0.182E+04   -.180E+00 -.471E-02 -.283E+00
   0.626E+02 -.320E+02 -.353E+04   -.626E+02 0.320E+02 0.353E+04   0.218E-01 0.169E-01 -.271E+00
   -.127E+02 -.583E+02 -.356E+04   0.127E+02 0.583E+02 0.356E+04   0.219E-01 -.843E-02 0.105E+01
   0.234E+00 -.101E+00 0.363E+04   -.233E+00 0.101E+00 -.364E+04   -.176E-03 -.375E-04 0.357E+00
   -.133E+00 -.503E-04 0.381E+04   0.133E+00 0.491E-04 -.380E+04   -.961E-04 0.143E-06 -.366E+01
   -.460E-01 -.641E-01 0.186E+04   0.480E-01 0.669E-01 -.186E+04   -.250E-03 -.740E-03 -.477E-01
   0.242E+00 -.271E-03 0.185E+04   -.239E+00 0.267E-03 -.185E+04   -.890E-05 0.318E-06 0.202E+00
   -.190E+00 -.691E+00 0.122E+02   0.215E+00 0.711E+00 -.114E+02   -.855E-03 -.121E-02 -.124E+00
   0.240E+01 -.253E-02 0.247E+02   -.245E+01 0.251E-02 -.257E+02   0.172E-01 0.120E-05 0.354E+00
   0.297E+02 -.733E+01 -.176E+04   -.296E+02 0.732E+01 0.176E+04   -.174E+00 0.778E-02 0.168E+00
[...]
   -.560E+02 0.535E-01 0.111E+04   0.602E+02 -.543E-01 -.111E+04   -.377E+01 0.140E-02 0.162E+00
   0.558E+02 0.430E-01 0.111E+04   -.600E+02 -.436E-01 -.111E+04   0.376E+01 0.887E-03 0.158E+00
   0.132E-01 0.309E-03 0.495E+03   0.773E-03 -.302E-03 -.499E+03   -.209E-01 -.150E-04 0.436E+01
   0.183E+01 0.857E-03 -.493E+03   -.211E+01 -.975E-03 0.500E+03   0.288E+00 0.126E-03 -.738E+01
   -.582E+02 0.584E-01 0.155E+02   0.631E+02 -.615E-01 -.158E+02   -.539E+01 0.150E-01 0.405E+00
   0.578E+02 0.152E+00 0.128E+02   -.627E+02 -.155E+00 -.130E+02   0.534E+01 0.142E-01 0.306E+00
   0.182E+02 -.565E-02 -.582E+03   -.200E+02 0.649E-02 0.575E+03   0.182E+01 -.925E-03 0.683E+01
   0.611E+01 0.824E-02 -.150E+04   -.714E+01 -.858E-02 0.150E+04   0.103E+01 0.129E-03 0.198E+01
   -.671E+02 0.300E+01 -.106E+04   0.747E+02 -.299E+01 0.106E+04   -.767E+01 -.966E-02 0.117E+01
   -.138E+02 0.324E+01 -.107E+04   0.154E+02 -.331E+01 0.107E+04   -.158E+01 0.698E-01 0.749E+00
   0.259E+02 0.989E-03 -.170E+04   -.266E+02 -.105E-02 0.171E+04   0.729E+00 0.128E-03 -.230E+01
   0.766E+02 -.362E-02 -.254E+04   -.763E+02 0.400E-02 0.256E+04   -.243E+00 -.330E-03 -.198E+02
   -.628E+02 0.321E+02 -.219E+04   0.685E+02 -.319E+02 0.219E+04   -.572E+01 -.182E+00 -.350E+01
   0.463E+02 0.426E+02 -.216E+04   -.525E+02 -.426E+02 0.216E+04   0.624E+01 -.415E-01 -.308E+01
   0.416E+02 0.587E-03 0.979E+02   0.398E-12 -.113E-11 -.396E-10   -.416E+02 -.584E-03 -.979E+02

 POSITION                                       TOTAL-FORCE (eV/Angst)
      5.66487      5.99072     25.42006        -0.000081     -0.000004     -0.002101
      4.89747      5.99071     26.30502        -0.004799      0.000003     -0.000225
      6.47082      5.99072     24.55096         0.004616     -0.000007     -0.003421
      9.93876      7.48840      8.79216        -0.000339      0.000065     -3.340425
      0.00000      8.98608      8.79216        -0.000361      0.000072      2.736822
      0.00000      7.48840     12.10508        -0.003012      0.000222      0.492050
      9.93876      8.98608     12.10508        -0.000878      0.000491     -0.679138
      9.93876      7.48840     15.41800         0.009183     -0.000879      0.690538
      0.00000      8.98608     15.41800        -0.034293      0.003742     -0.700739
      0.12027      7.48902     18.66072         0.002759     -0.002524      0.003684
     10.03398      8.98709     18.87441        -0.001705     -0.002180     -0.002612
      9.92607      7.48926     22.27213         0.001174     -0.000276     -0.000405
     13.24242      8.98880     21.89301         0.000018     -0.004726      0.003586
      9.93876     10.48376      8.79216        -0.000422      0.000093     -3.340374
      0.00000      0.00000      8.79216        -0.000342     -0.000001      2.736834
      0.00000     10.48376     12.10508        -0.002695      0.000071      0.492318
      9.93876      0.00000     12.10508        -0.001181     -0.000004     -0.679108
      9.93876     10.48376     15.41800         0.012140      0.001476      0.689771
      0.00000      0.00000     15.41800        -0.032660     -0.000033     -0.698956
      0.12397     10.48436     18.66269        -0.006451     -0.002346     -0.000974
     10.03372      0.00001     18.87484        -0.001198     -0.000102     -0.003025
      9.92596     10.48446     22.27360         0.003714     -0.000442      0.002810
     13.24785     -0.00000     21.89399        -0.000525      0.000024     -0.002598
      9.93876      1.49768      8.79216        -0.000422     -0.000095     -3.340376
      0.00000      2.99536      8.79216        -0.000361     -0.000072      2.736820
      0.00000      1.49768     12.10508        -0.002693     -0.000084      0.492308
      9.93876      2.99536     12.10508        -0.000877     -0.000491     -0.679141
      9.93876      1.49768     15.41800         0.012141     -0.001473      0.689778
      0.00000      2.99536     15.41800        -0.034278     -0.003679     -0.700662
      0.12393      1.49707     18.66266        -0.006007      0.002379     -0.000861
     10.03397      2.99437     18.87442        -0.001542      0.002228     -0.002558
      9.92596      1.49698     22.27360         0.003755      0.000438      0.002801
     13.24242      2.99265     21.89302         0.000051      0.004665      0.003698
      9.93876      4.49304      8.79216        -0.000339     -0.000063     -3.340426
      0.00000      5.99072      8.79216        -0.000355      0.000001      2.736803
      0.00000      4.49304     12.10508        -0.003011     -0.000209      0.492046
      9.93876      5.99072     12.10508        -0.000571      0.000004     -0.678911
      9.93876      4.49304     15.41800         0.009191      0.000875      0.690526
      0.00000      5.99072     15.41800        -0.035890     -0.000030     -0.702295
      0.12041      4.49241     18.66079         0.002362      0.002495      0.003392
     10.03391      5.99067     18.87489        -0.001875      0.000085      0.001903
      9.92602      4.49218     22.27216         0.001395      0.000269     -0.000559
     13.23719      5.99071     21.89199         0.001168      0.000019      0.008120
      3.31292      7.48840      8.79216         0.000431      0.000278     -3.341890
      6.62584      8.98608      8.79216         0.000493      0.000237      2.738361
      6.62584      7.48840     12.10508         0.002194      0.004622      0.495318
      3.31292      8.98608     12.10508         0.002098      0.001060     -0.687081
      3.31292      7.48840     15.41800         0.024813      0.006346      0.660124
      6.62584      8.98608     15.41800        -0.022006     -0.007965     -0.666452
      6.75028      7.48153     18.67468        -0.004884      0.003316      0.005398
      3.40655      8.98596     18.87011         0.000636     -0.001519      0.000906
      3.29273      7.49117     22.25921         0.001868     -0.001726      0.001137
      6.61832      8.98536     21.88036         0.000866     -0.001993     -0.002657
      3.31292     10.48376      8.79216         0.000523      0.000320     -3.341626
      6.62584      0.00000      8.79216         0.000485     -0.000001      2.738684
      6.62584     10.48376     12.10508         0.001833      0.002095      0.498598
      3.31292      0.00000     12.10508         0.002418     -0.000004     -0.685380
      3.31292     10.48376     15.41800         0.023857      0.019276      0.676805
      6.62584      0.00000     15.41800        -0.025457     -0.000014     -0.714849
      6.75081     10.48075     18.65227        -0.001238     -0.002878      0.003141
[...]
      6.62584      5.99072     13.39725         0.000191     -0.000005     -0.094660
      4.60508      4.49304     12.10508         0.416787      0.000604      0.050851
      8.64660      4.49304     12.10508        -0.420154      0.000280      0.049936
      3.31292      5.99072     14.12584        -0.006838     -0.000009     -0.113165
      3.31292      5.99072     16.71017         0.006158      0.000008     -0.035933
      7.91800      4.49304     15.41800        -0.467329      0.011910      0.100913
      5.33368      4.49304     15.41800         0.456181      0.010752      0.100407
      6.62662      5.99073     17.46937         0.000601     -0.000080      0.007218
      6.63039      5.99076     20.07698        -0.002644     -0.000217      0.001327
      4.62175      4.49354     18.76548         0.002155      0.000736     -0.004135
      8.61697      4.49405     18.75297        -0.000698     -0.002782      0.001759
      3.29529      5.99070     20.75135         0.004719      0.000065     -0.002828
      3.33865      5.99071     23.35070         0.003267      0.000046     -0.000577
      7.86517      4.48207     22.20454        -0.001436     -0.003022      0.002553
      5.37058      4.47781     22.18630         0.002422     -0.006056     -0.001378
    total drift:                               -0.003309      0.000002      0.014076

  FREE ENERGIE OF THE ION-ELECTRON SYSTEM (eV)
  free  energy   TOTEN  =     -1583.49938337 eV

  energy  without entropy=    -1583.49938337  energy(sigma->0) =    -1583.49938337

 d Force = 0.2692046E-04[ 0.214E-04, 0.325E-04]  d Energy = 0.2740780E-04-0.487E-06
 d Force = 0.5645904E+00[ 0.564E+00, 0.565E+00]  d Ewald  = 0.5645911E+00-0.696E-06

 Conjugate gradient step on ions:
 trial-energy change:   -0.000027  1 .order   -0.000027   -0.000032   -0.000021
  (g-gl).g = 0.739E-04      g.g   = 0.161E-03  gl.gl    = 0.327E-03
 g(Force)  = 0.161E-03   g(Stress)= 0.000E+00 ortho     = 0.311E-04
 gamma     =   0.22624
 trial     =   0.19332
 opt step  =   0.42854  (harmonic =   0.56605) maximal distance =0.00059767
 next E    = -1583.499397   (d E  =  -0.00004)

 reached required accuracy - stopping structural energy minimisation